# x y z rho theta phi s1 s2 stress_xx np intf bulk
-0.799831 -10.661367 -14.447650 17.973288 1.495915 2.504519 -0.004241 0.008324 -1893240.000000 1 0 0
2.115869 -13.531967 -13.034350 18.907282 -1.415691 2.331433 -0.010667 0.020460 -216493.000000 1 0 0
2.082769 -11.180167 -14.763050 18.635496 -1.386616 2.485203 -0.012115 0.012552 1529250.000000 1 0 0
-5.575531 -6.299067 -16.528050 18.545653 0.846254 2.670800 0.006907 0.003286 -305695.000000 1 0 0
4.534469 -14.148167 -11.603650 18.851438 -1.260641 2.233856 -0.011195 0.019961 2147880.000000 1 0 0
13.966969 -10.867067 -8.069750 19.449685 -0.661216 1.998634 0.011701 0.007330 -172534.000000 1 0 0
7.095869 10.795633 -10.915950 16.913161 0.989313 2.272358 0.019732 -0.010818 -874604.000000 1 0 0
5.707869 -4.143667 -12.575150 14.418188 -0.627935 2.630423 0.004385 -0.006480 1710650.000000 1 0 0
13.696469 0.575233 -9.989850 16.962348 0.041974 2.200546 0.017084 -0.002950 3199570.000000 1 0 0
14.170969 5.029633 -10.281950 18.216258 0.341056 2.170549 0.017345 -0.007907 708456.000000 1 0 0
4.084269 4.306633 -13.331550 14.593100 0.811893 2.722729 0.005843 -0.000069 1830760.000000 1 0 0
10.307169 -4.950167 -13.614650 17.779218 -0.447735 2.443022 0.017146 -0.012049 331139.000000 1 0 0
2.514869 -7.512467 -11.950050 14.337553 -1.247763 2.556171 -0.000888 -0.000220 2085440.000000 1 0 0
-5.534531 -1.925467 -15.060750 16.160589 0.334803 2.770532 0.003447 0.001323 236736.000000 1 0 0
10.693269 0.036133 -9.664550 14.413564 0.003379 2.305703 0.009365 -0.005656 1479050.000000 1 0 0
-1.607931 -9.544167 -17.031250 19.589284 1.403891 2.624817 0.004191 0.002148 921397.000000 1 0 0
8.808769 1.606333 -17.939450 20.049902 0.180374 2.678645 0.027527 -0.008798 -793064.000000 1 0 0
16.396669 -5.991167 -8.780050 19.540576 -0.350318 2.036805 0.030740 -0.003404 418259.000000 1 0 0
10.139969 7.573733 -9.949050 16.098571 0.641526 2.237003 0.010638 -0.009779 1422440.000000 1 0 0
13.865069 -2.241167 -10.589450 17.589753 -0.160255 2.216830 0.027888 -0.004894 -106465.000000 1 0 0
7.251669 -1.870767 -13.677550 15.593648 -0.252473 2.640635 0.013347 -0.009030 904600.000000 1 0 0
-2.713231 6.641433 -13.843250 15.591851 -1.182957 2.663451 0.013193 -0.004174 825301.000000 1 0 0
11.342169 1.776233 -13.840850 17.982462 0.155343 2.449146 0.016417 -0.013202 -771248.000000 1 0 0
-2.298431 10.723533 -12.939750 16.962137 -1.359656 2.438523 0.012695 -0.001167 -908238.000000 1 0 0
2.852169 -1.017867 -15.348850 15.644747 -0.342786 2.946793 0.011394 -0.013033 822219.000000 1 0 0
-9.019531 0.549533 -15.215850 17.696780 -0.060852 2.605692 0.009456 -0.000135 -201703.000000 1 0 0
2.183169 -1.910667 -18.080250 18.311535 -0.718932 2.982487 0.020433 -0.014376 2007760.000000 1 0 0
1.079369 7.911433 -13.337950 15.545312 1.435202 2.602169 0.010162 -0.000795 -415186.000000 1 0 0
9.376869 -9.079167 -9.873150 16.365697 -0.769269 2.218408 0.011090 0.003208 1084850.000000 1 0 0
3.996469 7.272233 -13.530750 15.872565 1.068297 2.591472 -0.001485 0.000339 1356720.000000 1 0 0
-2.651431 9.084633 -15.559350 18.211371 -1.286825 2.595144 0.015302 -0.005038 233346.000000 1 0 0
5.476569 -7.584267 -15.256450 17.896178 -0.945394 2.591541 0.006332 -0.007339 633076.000000 1 0 0
4.376069 7.302833 -16.380550 18.460871 1.030944 2.662279 0.005208 -0.003526 321780.000000 1 0 0
-0.197031 5.088233 -13.461550 14.392438 -1.532093 2.779962 0.015622 -0.006625 1332780.000000 1 0 0
8.678469 4.224733 -16.730050 19.314729 0.453037 2.618305 0.007918 -0.004937 -707681.000000 1 0 0
5.339269 0.287933 -14.433850 15.392424 0.053875 2.786817 0.008246 -0.007821 358461.000000 1 0 0
6.338269 7.872233 -11.529050 15.331820 0.892928 2.421840 0.005870 -0.006026 532280.000000 1 0 0
2.685769 -8.348167 -14.958550 17.339650 -1.259534 2.611339 0.003590 -0.005835 632748.000000 1 0 0
4.093069 11.393433 -13.896050 18.429968 1.225907 2.424915 0.008192 -0.010759 -333287.000000 1 0 0
0.607169 -4.529067 -13.716550 14.457692 -1.437530 2.820013 0.005672 -0.004656 1977850.000000 1 0 0
8.550269 -0.110267 -11.665750 14.464058 -0.012896 2.509061 0.004788 -0.006143 95545.800000 1 0 0
-0.993231 -5.089367 -16.230850 17.039033 1.378061 2.832364 0.001933 -0.010258 1583370.000000 1 0 0
4.497669 0.889733 -11.784250 12.644730 0.195299 2.770549 0.004975 -0.004753 509221.000000 1 0 0
-2.930931 -7.237067 -15.652450 17.491846 1.185997 2.678875 -0.001395 0.000629 1173180.000000 1 0 0
11.402269 -3.739467 -11.328450 16.502398 -0.316905 2.327424 0.020389 -0.009251 -702618.000000 1 0 0
6.463269 -6.987967 -12.552150 15.753158 -0.824386 2.492781 0.004171 -0.001589 -1722730.000000 1 0 0
3.472369 -3.992867 -14.665650 15.591075 -0.855008 2.795319 0.011597 -0.008879 3105320.000000 1 0 0
-0.712531 -1.520167 -18.350050 18.426691 1.132485 3.050355 0.015973 -0.014874 -1418380.000000 1 0 0
14.911369 2.923933 -8.422050 17.373233 0.193631 2.076898 0.009462 -0.002319 -1599100.000000 1 0 0
6.886469 4.303133 -14.400650 16.532366 0.558504 2.628149 0.005344 -0.002223 4351920.000000 1 0 0
10.078069 -9.592367 -13.997750 19.736210 -0.760711 2.359219 0.028262 -0.006402 530151.000000 1 0 0
9.011369 -3.131367 -15.579050 18.267923 -0.334438 2.592137 0.018735 -0.016784 503339.000000 1 0 0
-5.278931 -2.079667 -17.946650 18.822178 0.375285 2.835387 -0.011001 0.005603 -2604760.000000 1 0 0
5.010869 -9.041867 -11.082550 15.155431 -1.064746 2.390963 -0.002757 0.004760 2880090.000000 1 0 0
-2.438531 4.050333 -17.172550 17.811460 -1.028866 2.872940 0.013205 -0.000333 697664.000000 1 0 0
9.378969 9.285633 -14.488950 19.598921 0.780398 2.402786 0.034729 -0.017055 -368214.000000 1 0 0
9.829569 9.984733 -11.625450 18.206219 0.793229 2.263400 0.020531 -0.014502 246273.000000 1 0 0
12.100569 -5.959567 -9.694650 16.611034 -0.457632 2.193985 0.023558 -0.001525 -593698.000000 1 0 0
8.168469 6.831333 -13.646750 17.309673 0.696490 2.478982 0.012774 -0.005840 953694.000000 1 0 0
3.997269 -4.240867 -17.590250 18.530516 -0.814959 2.821666 0.026927 -0.018998 1187990.000000 1 0 0
9.204569 -7.374967 -12.293450 17.036524 -0.675490 2.376898 0.015486 -0.006734 -52853.900000 1 0 0
12.155969 -8.758567 -8.887350 17.420249 -0.624363 2.106183 0.016429 0.004515 2385400.000000 1 0 0
-2.948131 -2.461267 -13.845150 14.367933 0.695637 2.871007 0.000885 -0.004149 -2041210.000000 1 0 0
-0.262831 6.080133 -17.586350 18.609589 -1.527595 2.808438 0.023348 -0.009071 671666.000000 1 0 0
1.103769 -8.364867 -17.471650 19.402264 -1.439601 2.691704 0.001863 -0.007478 2050890.000000 1 0 0
0.118569 8.653333 -16.105350 18.283231 1.557095 2.648516 0.015914 -0.003170 -803125.000000 1 0 0
1.816069 3.470333 -14.907250 15.413222 1.088673 2.884656 0.018724 -0.005919 881634.000000 1 0 0
-1.892831 -0.397667 -15.751250 15.869557 0.207079 3.019411 0.005300 -0.006420 1840100.000000 1 0 0
14.122669 -4.277467 -8.440450 16.999638 -0.294096 2.090367 0.020921 -0.002661 -21293.700000 1 0 0
0.563569 0.704833 -14.562350 14.590286 0.896313 3.079701 0.010039 -0.008239 1325300.000000 1 0 0
8.885369 2.731733 -12.655650 15.702790 0.298270 2.508073 0.001985 -0.003842 1267820.000000 1 0 0
6.006969 0.895633 -17.156150 18.199432 0.148009 2.801354 0.023776 -0.005721 283187.000000 1 0 0
15.348369 1.615533 -12.322650 19.749179 0.104871 2.244593 0.026001 -0.012504 -1705310.000000 1 0 0
8.719369 -11.156667 -11.897150 18.494345 -0.907414 2.269579 0.019632 -0.000904 929651.000000 1 0 0
-4.645331 0.875533 -15.061450 15.785846 -0.186291 2.837473 0.006990 -0.003293 1785790.000000 1 0 0
2.472669 5.079733 -17.227350 18.130068 1.117787 2.824702 0.015174 -0.007607 2242100.000000 1 0 0
5.880069 -11.654567 -12.451050 18.039756 -1.103532 2.332563 -0.001434 0.010732 856039.000000 1 0 0
12.827969 7.172533 -8.623050 17.039924 0.509828 2.101395 0.008401 -0.008988 479442.000000 1 0 0
-5.034431 3.665633 -15.804050 16.986770 -0.629345 2.766228 0.009716 -0.000813 -174850.000000 1 0 0
-0.795331 -4.394967 -19.063250 19.579474 1.391770 2.911453 0.009976 -0.016774 -1679910.000000 1 0 0
9.788469 4.467133 -10.307850 14.900375 0.428136 2.334754 0.002207 -0.002499 446151.000000 1 0 0
13.384569 3.667433 -12.783050 18.868045 0.267441 2.315151 0.023832 -0.016242 -645547.000000 1 0 0
-6.357431 5.783233 -17.241450 19.264743 -0.738138 2.679170 0.010972 0.001260 620384.000000 1 0 0
-10.177431 3.250433 -15.372950 18.720924 -0.309137 2.534244 0.012648 -0.003718 -253179.000000 1 0 0
10.848669 13.273533 -8.310950 19.051304 0.885586 2.022213 0.030816 -0.009226 1567940.000000 1 0 0
7.292869 13.410433 -12.386050 19.658074 1.072710 2.252445 0.032264 -0.009640 598647.000000 1 0 0
5.308269 15.255533 -11.214150 19.663829 1.235943 2.177659 0.016309 -0.004549 268143.000000 1 0 0
14.286469 9.413333 -9.857250 19.745364 0.582605 2.093493 0.041088 -0.012280 -2063880.000000 1 0 0
8.232569 -17.313867 -2.173350 19.294264 -1.126948 1.683678 0.017591 0.002050 409066.000000 1 0 0
0.712769 -16.023867 -0.047150 16.039781 -1.526344 1.573736 0.000830 -0.007876 2105990.000000 1 0 0
-9.177631 -11.652767 7.580350 16.657659 0.903667 1.098349 0.011506 -0.003178 1136100.000000 1 0 0
2.079769 -15.949367 -2.629950 16.297987 -1.441130 1.732872 0.002410 -0.005461 1224570.000000 1 0 0
-1.368731 -11.015967 -9.448950 14.577641 1.447180 2.275990 0.000078 0.003920 1045650.000000 1 0 0
-4.829931 -12.669467 -12.936950 18.740552 1.206578 2.332726 0.017006 0.000731 520278.000000 1 0 0
-8.309731 -17.947067 -1.619050 19.843643 1.137173 1.652477 0.012414 -0.004454 -644447.000000 1 0 0
-11.345331 -7.104467 -8.848250 16.046231 0.559463 2.154865 0.016078 -0.001099 2915380.000000 1 0 0
-13.421131 -11.572567 -4.649650 18.321308 0.711571 1.827386 -0.006905 0.001518 785569.000000 1 0 0
-5.932131 -13.348767 9.841650 17.613570 1.152613 0.977914 0.016546 -0.010405 -126386.000000 1 0 0
0.131869 -14.078367 -3.680950 14.552223 -1.561430 1.826522 0.006578 -0.002777 -624951.000000 1 0 0
-14.631131 -11.601467 1.893950 18.768353 0.670415 1.469712 -0.013732 0.005059 104101.000000 1 0 0
-3.982531 -16.418067 -7.522650 18.493343 1.332823 1.989719 0.007255 -0.005029 -664207.000000 1 0 0
0.565669 -15.319767 -9.209950 17.884027 -1.533889 2.111783 -0.001405 0.010570 48977.100000 1 0 0
4.543869 -14.243667 -2.662350 15.186076 -1.261992 1.747022 -0.003010 0.000851 -93387.300000 1 0 0
-3.469731 -18.173267 -2.511150 18.671169 1.382142 1.705699 0.004765 -0.009415 1555150.000000 1 0 0
-0.906631 -13.473467 0.634250 13.518823 1.503608 1.523863 0.008872 -0.002759 3621650.000000 1 0 0
-8.603431 -11.344267 -10.502950 17.692467 0.921944 2.206370 0.021616 -0.006454 2737320.000000 1 0 0
-3.703931 -14.213067 -0.443350 14.694453 1.315866 1.600972 0.007028 -0.002969 4171910.000000 1 0 0
-1.515131 -14.932667 -7.240650 16.664549 1.469678 2.020273 0.000284 0.002757 724789.000000 1 0 0
-14.225131 -7.890467 -1.764350 16.362358 0.506433 1.678836 0.000560 0.003300 1081690.000000 1 0 0
-10.684331 -7.331867 -11.679050 17.444524 0.601422 2.304327 0.016392 -0.001739 926798.000000 1 0 0
-9.532431 -14.716767 6.862250 18.829258 0.996021 1.197758 0.000692 0.003130 -20488.100000 1 0 0
-2.397331 -14.254067 -12.330650 18.999225 1.404170 2.277076 0.012907 0.002280 125399.000000 1 0 0
2.564969 -17.770467 -4.788650 18.582242 -1.427447 1.831438 0.006433 -0.005843 1331280.000000 1 0 0
-6.734031 -9.641167 -9.244250 14.958457 0.961100 2.236986 0.008898 -0.001849 897972.000000 1 0 0
-10.924031 -15.391867 0.382450 18.878302 0.953572 1.550536 -0.003042 -0.002136 -1025530.000000 1 0 0
-12.620731 -10.986567 4.125750 17.233958 0.716286 1.329052 0.005358 0.001401 2746840.000000 1 0 0
-16.965831 -9.036267 -1.624950 19.290775 0.489398 1.655131 -0.002950 0.005572 -70147.900000 1 0 0
-1.233831 -19.239767 -3.898250 19.669452 1.506755 1.770305 0.005882 -0.009351 -426723.000000 1 0 0
3.300169 -14.268667 -8.839450 17.106193 -1.343505 2.113835 -0.008458 0.012802 1689450.000000 1 0 0
-4.329631 -8.043867 -13.050550 15.930046 1.077017 2.530883 0.002984 0.001622 1126470.000000 1 0 0
5.523869 -16.627167 1.171650 17.559857 -1.250049 1.504024 0.015875 -0.003581 4093170.000000 1 0 0
-2.780231 -13.821167 -3.245550 14.466787 1.372288 1.797067 0.005828 -0.001590 -1433940.000000 1 0 0
-0.331131 -13.950167 3.646550 14.422695 1.547064 1.315188 0.007681 -0.003639 -3831910.000000 1 0 0
1.168069 -16.285267 7.031950 17.777025 -1.499193 1.164115 0.025238 -0.008275 2027930.000000 1 0 0
-5.508131 -10.355667 -14.583050 18.714826 1.081959 2.464224 0.015691 -0.000973 -842131.000000 1 0 0
-0.186831 -17.333367 -5.830950 18.288808 1.560018 1.895287 0.005120 -0.003716 1295910.000000 1 0 0
-6.513331 -13.387367 -1.172850 14.933876 1.117984 1.649413 0.004011 -0.001433 3370960.000000 1 0 0
-1.702631 -17.711967 -0.189950 17.794629 1.474962 1.581471 0.011743 -0.012199 1446740.000000 1 0 0
-9.457431 -9.782567 -4.812650 14.432714 0.802296 1.910762 0.008320 -0.002676 272039.000000 1 0 0
-0.732131 -16.699567 4.743650 17.375666 1.526983 1.294281 0.019891 -0.008439 2574670.000000 1 0 0
-6.887831 -9.890167 -6.364150 13.629381 0.962469 2.056627 0.006338 -0.001134 2703110.000000 1 0 0
-6.079931 -14.570367 -8.631950 17.993658 1.175482 2.071134 0.014536 -0.002734 -1186610.000000 1 0 0
-5.805231 -12.190467 -10.225950 16.937481 1.126361 2.218989 0.015173 -0.005084 545248.000000 1 0 0
-10.760931 -12.181867 -8.790550 18.478888 0.847253 2.066565 0.022935 -0.012422 -1245920.000000 1 0 0
4.003269 -17.000667 6.587650 18.666708 -1.339532 1.210118 0.027074 -0.012788 487797.000000 1 0 0
-6.660431 -14.391067 -4.065950 16.370586 1.137335 1.821793 0.006045 -0.003864 437993.000000 1 0 0
-2.862431 -12.215767 -7.135050 14.433552 1.340626 2.087869 0.005808 -0.001055 2340390.000000 1 0 0
-7.102431 -12.871267 4.472950 15.366240 1.066568 1.275431 0.006983 -0.000568 1572850.000000 1 0 0
2.597369 -16.444667 2.313950 16.808562 -1.414144 1.432693 0.010091 -0.008939 1797880.000000 1 0 0
-6.247431 -11.967367 7.255450 15.326116 1.089673 1.077645 0.008013 -0.005958 567186.000000 1 0 0
-11.148931 -12.892367 -0.997150 17.073550 0.857790 1.629233 0.000273 0.006060 795343.000000 1 0 0
-14.205531 -8.678367 4.618750 17.275532 0.548406 1.300146 -0.008133 0.001254 -372569.000000 1 0 0
-8.111831 -15.571667 4.439550 18.110445 1.090541 1.323135 0.009854 0.000596 819718.000000 1 0 0
-16.420531 -9.193767 1.148850 18.854152 0.510408 1.509825 -0.012012 0.005011 -1209640.000000 1 0 0
-6.661831 -17.108167 2.417750 18.517961 1.199466 1.439860 0.012308 -0.001860 2529370.000000 1 0 0
-11.481231 -15.015267 -4.660450 19.467838 0.917993 1.812536 0.015920 -0.000982 -245376.000000 1 0 0
-10.169531 -10.010167 -12.682950 19.091360 0.777501 2.297392 0.024875 0.001717 -227685.000000 1 0 0
-4.315331 -16.059267 -4.542250 17.238160 1.308285 1.837445 0.000997 -0.005246 -936622.000000 1 0 0
-11.796531 -8.255167 0.086050 14.398379 0.610589 1.564820 -0.007107 0.004823 1991670.000000 1 0 0
-9.655231 -11.187167 3.585450 15.206303 0.858767 1.332768 0.003643 0.003588 1235740.000000 1 0 0
-14.124031 -12.925467 -0.654050 19.156819 0.741117 1.604945 -0.004337 0.008403 -38337.600000 1 0 0
5.629269 -14.961967 -7.214350 17.538414 -1.210940 1.994726 -0.003119 0.005924 2841770.000000 1 0 0
-7.460231 -10.606867 -1.258350 13.028589 0.957832 1.667531 -0.000246 0.001556 2807470.000000 1 0 0
-11.609031 -8.192967 -6.013750 15.429177 0.614568 1.971173 0.007617 -0.001928 490643.000000 1 0 0
-14.399031 -6.662767 -9.219150 18.349858 0.433384 2.097180 0.001775 -0.001513 866481.000000 1 0 0
-3.900731 -16.417767 1.388750 16.931846 1.337529 1.488684 0.008898 -0.009072 2380660.000000 1 0 0
-7.962331 -15.560167 0.199850 17.480202 1.097823 1.559363 0.011504 -0.004501 1474450.000000 1 0 0
1.031869 -18.614567 3.557450 18.979523 -1.515420 1.382245 0.013813 -0.012819 485161.000000 1 0 0
-14.059531 -8.736167 -4.568750 17.171619 0.555985 1.840104 0.001270 -0.002298 705947.000000 1 0 0
-3.435331 -14.389367 11.270650 18.597928 1.336442 0.919753 0.012336 -0.015868 -141908.000000 1 0 0
-10.613131 -12.212367 -3.791450 16.617929 0.855347 1.800978 0.005573 -0.001337 2001760.000000 1 0 0
-9.990031 -10.735067 0.630050 14.677852 0.821331 1.527858 -0.001047 0.004875 1835750.000000 1 0 0
-0.004231 -13.191467 -11.105250 17.243590 1.570476 2.270540 -0.002495 0.006741 775075.000000 1 0 0
-5.870731 -12.692567 -6.308350 15.341513 1.137569 1.994561 0.000398 -0.005170 2727360.000000 1 0 0
1.650169 -15.812467 9.850850 18.702845 -1.466814 1.016079 0.030340 -0.017715 -449708.000000 1 0 0
-8.895531 -15.814067 -5.441650 18.942723 1.058401 1.862170 0.012419 -0.004720 -733048.000000 1 0 0
-3.187531 -15.558567 5.895350 16.940617 1.368720 1.215358 0.007031 -0.002259 -29901.900000 1 0 0
-17.309831 -5.477367 -6.403850 19.252041 0.306462 1.909890 -0.014663 0.007176 -983245.000000 1 0 0
18.969369 5.591633 -2.762050 19.968281 0.286653 1.709563 0.008851 0.009620 -1464760.000000 1 0 0
12.792569 -12.695767 -5.971350 18.986557 -0.781600 1.890731 0.015232 0.005218 -2096880.000000 1 0 0
10.929269 -13.594267 -1.617950 17.517727 -0.893644 1.663289 0.015732 -0.001360 2116800.000000 1 0 0
18.708669 -2.926867 4.392850 19.439084 -0.155187 1.342847 0.029933 -0.011706 -1357250.000000 1 0 0
8.771969 -16.853367 5.014050 19.650041 -1.090893 1.312775 0.025379 -0.013123 -414866.000000 1 0 0
18.078569 -1.152767 6.524350 19.254368 -0.063678 1.225102 0.045695 -0.020185 -1000860.000000 1 0 0
17.939669 -4.216067 -5.043550 19.106134 -0.230825 1.837938 0.033086 -0.010448 342346.000000 1 0 0
5.370769 -11.635867 14.748150 19.538334 -1.138362 0.715399 0.005120 0.000798 82742.000000 1 0 0
15.846669 -8.947367 -0.917750 18.221267 -0.513999 1.621185 0.021746 0.001933 -111486.000000 1 0 0
13.802769 -12.705467 -1.424350 18.814199 -0.744027 1.646575 0.023292 0.001908 683941.000000 1 0 0
11.352569 -2.094667 13.794050 17.987336 -0.182458 0.696838 0.023286 -0.002738 -73864.900000 1 0 0
16.792869 -6.217067 -1.580950 17.976423 -0.354574 1.658856 0.021578 -0.004300 -2328870.000000 1 0 0
17.840169 3.648233 -0.839350 18.228706 0.201714 1.616858 0.007783 0.002273 1499630.000000 1 0 0
9.742069 -11.048567 9.426450 17.488187 -0.848156 1.001525 0.011322 -0.008472 -414213.000000 1 0 0
9.067869 -11.050567 4.193950 14.897332 -0.883632 1.285415 -0.001474 -0.007345 -943343.000000 1 0 0
14.028369 -10.174367 6.770350 18.605121 -0.627486 1.198348 0.019499 -0.007907 48201.600000 1 0 0
16.118069 -0.509767 -4.801050 16.825638 -0.031617 1.860159 0.008211 -0.002496 -589671.000000 1 0 0
15.751269 -0.550467 -1.785650 15.861716 -0.034933 1.683612 0.007854 -0.002518 900522.000000 1 0 0
12.807169 -5.207267 -0.312750 13.828847 -0.386174 1.593414 0.004303 -0.001827 651094.000000 1 0 0
14.207069 -7.585667 1.019750 16.137628 -0.490426 1.507563 0.020770 -0.000161 2103230.000000 1 0 0
15.511969 2.462933 3.662550 16.127662 0.157462 1.341700 0.019812 -0.011285 1092120.000000 1 0 0
15.837969 -7.074867 4.893350 18.023315 -0.420109 1.295844 0.031978 -0.010782 -754917.000000 1 0 0
13.570569 -12.127567 3.331650 18.502381 -0.729305 1.389743 0.008559 -0.003913 199567.000000 1 0 0
14.072969 -0.961967 9.104550 16.788885 -0.068249 0.997629 0.031955 -0.013988 1219780.000000 1 0 0
14.163069 -2.874167 -1.650250 14.545676 -0.200215 1.684494 0.002880 -0.000143 438061.000000 1 0 0
15.112269 1.832433 9.052150 17.711011 0.120666 1.034329 0.041530 -0.017706 -1029820.000000 1 0 0
14.385369 -10.408267 -3.075850 18.020314 -0.626345 1.742324 0.020169 0.005241 -138314.000000 1 0 0
7.368569 -12.570067 6.152950 15.816485 -1.040586 1.171227 -0.001251 -0.007707 -173060.000000 1 0 0
12.400869 -4.645267 6.895950 14.930311 -0.358413 1.090687 0.010267 -0.006883 2041780.000000 1 0 0
14.966769 -9.284267 -5.742750 18.525144 -0.555231 1.885987 0.023362 0.005936 996301.000000 1 0 0
14.290969 -4.515467 4.508650 15.650852 -0.306040 1.278578 0.013956 -0.008289 2157970.000000 1 0 0
17.085269 -4.334967 0.803650 17.644948 -0.248482 1.525235 0.016933 -0.008058 -1063280.000000 1 0 0
10.199869 -14.585067 1.125650 17.833356 -0.960516 1.507634 0.017279 -0.000547 1845530.000000 1 0 0
16.512769 -2.656667 8.518950 18.769708 -0.159519 1.099696 0.046679 -0.010739 1927460.000000 1 0 0
16.122369 -2.647067 3.076750 16.625406 -0.162734 1.384660 0.016906 -0.007775 1201910.000000 1 0 0
7.743969 -15.309467 2.688250 17.365930 -1.102497 1.415371 0.004990 -0.002503 2080470.000000 1 0 0
16.573469 -7.089367 7.825350 19.651338 -0.404201 1.161232 0.036288 -0.007326 -437658.000000 1 0 0
10.244769 -8.606767 5.127750 14.329185 -0.698726 1.204828 0.002751 -0.006710 1595480.000000 1 0 0
10.869969 -11.879867 2.110350 16.240106 -0.829760 1.440481 0.008001 -0.004047 1316570.000000 1 0 0
12.288569 -7.316667 11.931750 18.625499 -0.537033 0.875499 0.015996 -0.010854 -832206.000000 1 0 0
15.100569 -9.779667 4.180850 18.470208 -0.574711 1.342461 0.017990 -0.007545 -183827.000000 1 0 0
7.316969 -10.255867 7.791150 14.812929 -0.951106 1.016942 0.001293 -0.007526 1143630.000000 1 0 0
15.138769 -3.280867 -4.423450 16.109417 -0.213419 1.848957 0.016892 -0.005344 812123.000000 1 0 0
11.834369 -9.045667 9.697350 17.773997 -0.652626 0.993701 0.014858 -0.013057 -1849190.000000 1 0 0
16.921669 -6.774967 2.278150 18.369350 -0.380827 1.446457 0.030514 -0.005689 761410.000000 1 0 0
17.555169 4.063433 2.072450 18.138095 0.227461 1.456287 0.011838 -0.000059 371263.000000 1 0 0
14.718369 -4.975267 8.684450 17.798970 -0.325973 1.061093 0.033706 -0.011970 444177.000000 1 0 0
12.674969 -12.674667 6.075250 18.926455 -0.785386 1.244019 -0.000732 -0.005708 523931.000000 1 0 0
18.122369 0.713033 -0.807150 18.154343 0.039325 1.615271 0.008028 -0.007074 473005.000000 1 0 0
11.839069 -2.185567 10.901150 16.241161 -0.182551 0.834963 0.019245 -0.006125 1652050.000000 1 0 0
5.658269 -12.502267 10.531750 17.298568 -1.145799 0.916221 0.001730 -0.005063 -948608.000000 1 0 0
10.772369 -5.010267 10.900750 16.123680 -0.435343 0.828379 0.015638 -0.006292 2351120.000000 1 0 0
17.819369 1.259933 4.929050 18.531402 0.070588 1.301572 0.034053 -0.014072 -630767.000000 1 0 0
12.286669 -7.738467 7.113950 16.169551 -0.562062 1.115243 0.015192 -0.008785 -870019.000000 1 0 0
10.655469 -7.893967 14.241050 19.459220 -0.637611 0.749777 0.022852 -0.008816 -1238730.000000 1 0 0
14.233869 -0.284467 3.710650 14.712337 -0.019983 1.315829 0.008125 -0.006886 1975390.000000 1 0 0
11.615769 -7.709767 2.504550 14.164723 -0.585969 1.393046 0.001326 -0.001009 1045800.000000 1 0 0
9.298569 6.035733 3.558750 11.642945 0.575745 1.260168 0.002961 -0.001012 2456330.000000 1 0 0
-3.884031 14.716133 -9.938650 18.177652 -1.312751 2.149275 0.007918 -0.003866 1147330.000000 1 0 0
8.801669 -6.448467 9.180450 14.259480 -0.632299 0.871324 0.008284 -0.004231 -216334.000000 1 0 0
5.831469 -10.558167 -8.462350 14.734052 -1.066175 2.182594 -0.000400 0.003707 964446.000000 1 0 0
5.430169 1.046933 0.520450 5.554608 0.190462 1.476962 0.003866 0.000120 3611820.000000 1 0 0
-0.494731 9.875733 10.951950 14.755340 -1.520743 0.734395 -0.006183 0.004191 68586.900000 1 0 0
-6.304731 -5.241967 1.093150 8.271809 0.693616 1.438255 0.004349 0.001536 2148160.000000 1 0 0
-0.989331 4.054333 -10.858350 11.632719 -1.331455 2.774659 0.015130 -0.004976 1907110.000000 1 0 0
10.911769 5.682633 1.262250 12.367388 0.480133 1.468556 0.002713 0.000618 1273940.000000 1 0 0
-10.083631 -1.730567 -13.601150 17.019570 0.169966 2.496672 0.016504 -0.000099 615799.000000 1 0 0
7.447269 10.842733 -6.145050 14.518551 0.968954 2.007831 0.002216 -0.005569 597572.000000 1 0 0
-12.459031 -2.970567 -9.606050 16.010244 0.234057 2.214290 0.013470 -0.002296 1114530.000000 1 0 0
-3.889831 -8.743967 2.645150 9.928976 1.152226 1.301133 0.008905 0.001637 -1026760.000000 1 0 0
7.989669 -6.744067 -5.906950 12.008718 -0.701058 2.085054 0.000889 -0.000802 2560120.000000 1 0 0
14.366669 3.099633 -4.169550 15.277240 0.212495 1.847229 0.009466 0.004245 1299400.000000 1 0 0
-2.563831 -4.938967 9.824250 11.290815 1.091984 0.515371 0.007358 -0.004622 1849060.000000 1 0 0
3.501369 -1.970167 -4.561250 6.078334 -0.512530 2.419480 0.002018 -0.001457 -2662090.000000 1 0 0
-3.922031 8.367733 -3.468750 9.870841 -1.132493 1.929877 -0.000670 -0.001019 591931.000000 1 0 0
5.875869 0.058533 11.807950 13.189274 0.009961 0.461761 0.007269 -0.004619 1515610.000000 1 0 0
7.102969 4.755933 12.324950 14.999182 0.590010 0.606395 0.005725 -0.001673 1310380.000000 1 0 0
1.110969 -14.496567 12.396150 19.106262 -1.494309 0.864789 0.013647 -0.009226 -660860.000000 1 0 0
3.103869 8.717933 -9.049350 12.943226 1.228757 2.345014 0.001865 0.000499 217413.000000 1 0 0
-4.473931 -8.952567 -4.619350 11.022836 1.107359 2.003218 0.007069 -0.002289 1978150.000000 1 0 0
5.756869 -6.594367 -3.992150 9.621043 -0.853101 1.998673 0.001241 -0.005013 988132.000000 1 0 0
-3.164631 3.364833 8.553650 9.721210 -0.816050 0.495154 -0.000209 0.001090 2644590.000000 1 0 0
-3.792731 3.266833 -11.019550 12.103202 -0.711041 2.715205 0.007485 -0.005793 -221615.000000 1 0 0
3.017969 -6.127067 8.516850 10.917226 -1.113116 0.675924 0.003984 -0.003718 628974.000000 1 0 0
-5.280631 -8.627667 10.528650 14.600485 1.021558 0.765384 0.010274 -0.006453 1827700.000000 1 0 0
-13.263231 -2.486667 6.521650 14.987619 0.185334 1.120607 -0.008397 -0.002885 1333530.000000 1 0 0
3.947469 -5.954167 -8.375450 11.008305 -0.985353 2.435388 0.000978 -0.001279 2221780.000000 1 0 0
2.950669 -0.586067 12.380050 12.740312 -0.196070 0.238376 0.007157 -0.002939 1962530.000000 1 0 0
1.469869 -1.466067 -7.561150 7.840973 -0.784103 2.873632 0.006503 -0.003856 34084.300000 1 0 0
3.612269 -3.558067 3.389550 6.098965 -0.777839 0.981522 0.005123 -0.003168 2929250.000000 1 0 0
1.575269 0.453933 -11.811150 11.924378 0.280561 3.003675 0.009409 -0.004535 -304277.000000 1 0 0
4.159369 3.523533 -10.521950 11.850193 0.702826 2.663586 -0.000553 0.000127 2000070.000000 1 0 0
2.860069 3.196233 3.390450 5.467271 0.840848 0.901881 -0.001110 0.000519 -896708.000000 1 0 0
-5.305231 0.849233 2.619250 5.977219 -0.158728 1.117195 0.001029 -0.002744 1802210.000000 1 0 0
-9.506231 -9.254867 5.785150 14.473733 0.772001 1.159607 0.004377 0.000373 -1920350.000000 1 0 0
-3.088631 3.780433 -0.515650 4.908891 -0.885772 1.676035 0.002525 -0.004348 101719.000000 1 0 0
-15.871731 -6.484767 4.990050 17.856782 0.387875 1.287577 -0.005587 -0.004334 894119.000000 1 0 0
1.048469 6.736133 -8.087250 10.577258 1.416387 2.441199 0.007005 -0.002430 916547.000000 1 0 0
-1.635031 6.611533 -9.475950 11.669590 -1.328361 2.518403 0.009342 -0.001300 405383.000000 1 0 0
2.109769 -0.405667 5.250650 5.673184 -0.189962 0.388388 0.007218 -0.002223 3043380.000000 1 0 0
-3.421731 -0.548667 -6.296950 7.187549 0.158994 2.638491 0.008458 -0.006673 1041530.000000 1 0 0
1.923169 -1.159867 -2.406050 3.291344 -0.542697 2.390617 0.009258 -0.002889 -452620.000000 1 0 0
2.429069 -8.600667 -7.585150 11.722045 -1.295538 2.274550 -0.000438 0.001270 1960020.000000 1 0 0
-2.408431 14.066133 -5.592850 15.327642 -1.401219 1.944307 0.004496 0.000870 3057860.000000 1 0 0
6.843169 -5.230267 -8.171650 11.872679 -0.652594 2.329903 0.002302 -0.003354 3029840.000000 1 0 0
-14.171531 -4.968267 -2.136450 15.168401 0.337192 1.712115 -0.000354 0.000884 744581.000000 1 0 0
-2.684031 6.864833 -6.831550 10.049877 -1.198088 2.318238 0.005097 -0.000985 -1526460.000000 1 0 0
-5.711531 -1.068767 -8.063050 9.938643 0.184985 2.517139 0.009569 -0.007264 532763.000000 1 0 0
-5.704531 -10.682167 3.606250 12.635482 1.080302 1.281366 0.005586 0.001257 -2667110.000000 1 0 0
8.027669 -7.602467 6.621650 12.887483 -0.758201 1.031182 0.001736 -0.004995 694599.000000 1 0 0
8.832269 -6.061867 13.049750 16.883459 -0.601494 0.687349 0.021468 -0.002255 -98205.900000 1 0 0
-4.708431 9.541633 -0.693050 10.662664 -1.112393 1.635840 -0.004181 0.003084 -59014.500000 1 0 0
2.768269 6.510933 12.033150 13.958949 1.168780 0.531519 -0.003285 0.004348 656566.000000 1 0 0
6.016469 -2.870667 10.913150 12.788099 -0.445189 0.548355 0.010326 -0.004270 -1480110.000000 1 0 0
-9.668531 -6.569467 -1.106250 11.741473 0.596813 1.665154 0.001063 0.000636 -892266.000000 1 0 0
0.895769 -13.451167 6.301550 14.881056 -1.504300 1.133534 0.006535 -0.004629 1392000.000000 1 0 0
-0.535831 -3.204267 8.745850 9.329755 1.405105 0.355666 0.006760 -0.005789 2639300.000000 1 0 0
4.269169 0.666633 3.334050 5.457664 0.154900 0.913608 0.003089 -0.000120 1387000.000000 1 0 0
-10.211731 5.594333 8.237550 14.263003 -0.501179 0.955076 -0.004193 -0.005684 1190230.000000 1 0 0
9.378269 7.890833 -0.063250 12.256475 0.699477 1.575957 0.003101 0.002969 555894.000000 1 0 0
4.214569 2.738733 8.247350 9.658262 0.576252 0.547331 0.001648 -0.000475 3980090.000000 1 0 0
1.338469 2.668433 -9.715050 10.163377 1.105875 2.843465 0.012580 -0.004628 1962260.000000 1 0 0
-1.356131 -10.262967 3.027450 10.785779 1.439419 1.286284 0.007990 -0.001242 -671124.000000 1 0 0
-9.926131 9.586833 9.035150 16.494526 -0.768012 0.991104 -0.000893 -0.008737 1569630.000000 1 0 0
9.818669 -2.011467 -7.663950 12.616988 -0.202066 2.223619 0.008380 -0.001699 621886.000000 1 0 0
-5.307731 -1.908167 6.764950 8.807818 0.345119 0.694987 0.004543 -0.005471 1184220.000000 1 0 0
3.140269 -7.768767 -4.858350 9.686000 -1.186660 2.096226 0.000085 -0.002222 3779520.000000 1 0 0
-5.076931 4.969633 -13.162850 14.957710 -0.774718 2.646668 0.004813 -0.006681 1871910.000000 1 0 0
-5.661731 9.576533 5.498750 12.409731 -1.036866 1.111743 -0.005605 0.002002 1306660.000000 1 0 0
-0.432231 -1.795867 -9.404750 9.584429 1.334608 2.947655 0.007843 -0.006269 1320410.000000 1 0 0
-16.675231 0.204733 6.347550 17.843672 -0.012277 1.207100 -0.006398 -0.005607 -107888.000000 1 0 0
-6.026631 -2.923167 4.114450 7.860909 0.451609 1.019953 -0.004436 -0.000322 1947910.000000 1 0 0
0.948369 -5.651667 -5.133250 7.693569 -1.404542 2.301257 0.003259 -0.002098 2093770.000000 1 0 0
-7.026931 1.434333 -8.485750 11.110492 -0.201353 2.439915 0.005730 -0.004285 1189350.000000 1 0 0
8.023869 1.937533 4.767750 9.532468 0.236936 1.047014 -0.000659 -0.001956 -368561.000000 1 0 0
0.503669 -8.092567 -0.543250 8.126404 -1.508638 1.637696 0.003607 0.000905 1336250.000000 1 0 0
5.442269 5.485833 -3.405950 8.444711 0.789385 1.985942 0.002362 0.000814 69187.700000 1 0 0
-0.741931 -0.398267 -1.224750 1.486301 0.492651 2.539276 0.008063 -0.004383 1064410.000000 1 0 0
9.058069 6.445733 -6.277850 12.767439 0.618470 2.084846 0.002845 -0.004158 297769.000000 1 0 0
-14.990431 -7.106867 2.477050 16.773681 0.442709 1.422579 -0.010796 -0.001582 945736.000000 1 0 0
-6.490031 6.858333 8.947350 13.008163 -0.812983 0.812307 0.000237 0.002065 -127327.000000 1 0 0
-9.505531 -3.138567 -9.674950 13.921580 0.318913 2.339161 0.014949 -0.001600 1010160.000000 1 0 0
14.912069 3.416333 -1.175250 15.343479 0.225212 1.647467 -0.001699 0.005739 1735870.000000 1 0 0
12.067469 1.680833 -5.748850 13.472130 0.138396 2.011661 0.007214 0.000840 -606327.000000 1 0 0
1.597569 -9.411067 12.740550 15.919862 -1.402645 0.643013 0.001424 -0.004452 -86479.200000 1 0 0
-3.678431 6.316833 7.890350 10.755968 -1.043477 0.747223 -0.000026 0.002190 1405780.000000 1 0 0
-4.037231 13.085333 -12.470350 18.521199 -1.271531 2.309461 0.010301 -0.002960 971341.000000 1 0 0
-10.260731 7.854133 6.453650 14.443670 -0.653319 1.107594 -0.003867 -0.002555 726428.000000 1 0 0
8.146169 -9.395967 -7.038050 14.289101 -0.856523 2.085810 0.002938 0.001720 -859297.000000 1 0 0
5.860469 -3.837867 -0.280550 7.010922 -0.579794 1.610823 0.001552 -0.002370 -1095990.000000 1 0 0
-1.671231 -4.436267 4.152450 6.302088 1.210518 0.851440 0.007463 -0.001759 1080560.000000 1 0 0
9.929769 -2.054867 -2.691350 10.491242 -0.204060 1.830230 -0.002882 -0.000338 -2755370.000000 1 0 0
13.480869 7.052233 1.355750 15.274354 0.481979 1.481919 0.002610 0.002346 361203.000000 1 0 0
5.443069 -3.738567 -3.226550 7.349456 -0.601845 2.025303 0.002289 -0.004320 -2260340.000000 1 0 0
-12.241731 -5.957267 1.949350 13.753144 0.452899 1.428579 -0.006885 0.001878 3542170.000000 1 0 0
3.756069 -5.721767 -0.244050 6.848812 -0.989898 1.606438 0.004581 -0.003995 -792485.000000 1 0 0
-5.214631 3.765233 -8.677150 10.801032 -0.625373 2.503718 0.006289 -0.004873 -790137.000000 1 0 0
-1.754631 -9.278067 7.222350 11.887960 1.383888 0.917843 0.005519 -0.002693 1563910.000000 1 0 0
-7.399631 -7.441667 2.629550 10.818848 0.788231 1.325285 0.006614 0.000076 -2871740.000000 1 0 0
-5.728931 13.155333 -8.483050 16.668701 -1.160080 2.104727 0.013147 -0.007690 1386590.000000 1 0 0
9.188369 -14.017067 -4.147150 17.265664 -0.990555 1.813364 0.010719 0.002575 676229.000000 1 0 0
-6.469331 -5.158467 -6.727150 10.663797 0.673137 2.253432 0.009089 -0.004333 2239510.000000 1 0 0
3.398469 0.367733 -6.224450 7.101310 0.107786 2.639384 0.005286 -0.003472 1198460.000000 1 0 0
-3.649731 5.711833 4.993050 8.418796 -1.002209 0.935913 -0.001651 0.003919 385756.000000 1 0 0
-2.600531 -10.850867 -2.883350 11.524660 1.335572 1.823672 0.008581 -0.000463 1752310.000000 1 0 0
-12.509831 -0.437867 1.735350 12.637209 0.034988 1.433040 -0.010534 0.000528 613371.000000 1 0 0
8.413569 -12.066967 -6.075150 15.915630 -0.961925 1.962442 0.003576 0.001164 297076.000000 1 0 0
6.164469 3.904033 1.068850 7.374591 0.564554 1.425347 0.000705 0.000999 645630.000000 1 0 0
3.414769 -4.800267 -10.980050 12.460526 -0.952480 2.649163 0.002441 -0.002588 985723.000000 1 0 0
-7.653431 4.209633 8.643050 12.288138 -0.502868 0.790675 -0.003850 0.001105 414455.000000 1 0 0
8.225969 8.683933 4.114150 12.649249 0.812474 1.239522 0.006290 -0.000950 417768.000000 1 0 0
0.283869 10.546433 -6.366750 12.322473 1.543887 2.113763 0.002780 0.003050 1706900.000000 1 0 0
5.420569 8.074433 3.362750 10.290147 0.979576 1.237888 0.003786 0.001071 4546090.000000 1 0 0
8.100769 6.676133 -3.805150 11.165679 0.689286 1.918553 -0.000529 -0.000157 562391.000000 1 0 0
10.517369 2.512733 -8.284250 13.621956 0.234517 2.224530 0.002152 -0.000467 695319.000000 1 0 0
3.359969 -12.532267 -0.315650 12.978703 -1.308851 1.595119 -0.004575 0.000161 -1433330.000000 1 0 0
0.629069 2.008833 5.246150 5.652719 1.267318 0.381585 0.005531 -0.001072 -222092.000000 1 0 0
-4.938231 13.412433 1.407950 14.361818 -1.218015 1.472604 -0.007131 0.010584 887743.000000 1 0 0
8.282269 4.072333 -8.000150 12.214020 0.456980 2.284975 0.001863 0.001630 -462202.000000 1 0 0
-13.828531 -0.469867 -3.570950 14.289882 0.033965 1.823367 -0.005514 0.000208 -185252.000000 1 0 0
-8.582931 -0.002767 -0.457950 8.595140 0.000322 1.624102 -0.006760 0.000356 1103310.000000 1 0 0
1.826469 -3.819567 -1.108850 4.376600 -1.124751 1.826947 0.008828 -0.003213 -1464390.000000 1 0 0
8.119869 -5.703167 -0.300350 9.927164 -0.612316 1.601056 -0.000753 -0.002288 1616610.000000 1 0 0
-2.345331 -1.269567 7.420250 7.884953 0.496152 0.345032 0.006559 -0.004147 2727620.000000 1 0 0
-5.856531 8.922233 -11.714050 15.846898 -0.989937 2.402680 0.008329 -0.000779 -1260300.000000 1 0 0
-6.119431 9.240633 -8.837750 14.175421 -0.985871 2.243951 0.003020 -0.001096 -58354.200000 1 0 0
-1.434031 13.881433 -8.363650 16.269643 -1.467856 2.110713 0.018937 -0.002420 915173.000000 1 0 0
-1.522531 7.215633 9.732750 12.211056 -1.362842 0.648412 -0.004487 0.002238 130532.000000 1 0 0
10.043969 2.309033 -3.985650 11.049812 0.225966 1.939813 -0.003300 0.001787 -1364780.000000 1 0 0
-3.046431 -7.472767 -6.937850 10.642216 1.183694 2.280907 0.009397 -0.002745 669736.000000 1 0 0
-5.505731 -5.049667 -1.607250 7.641692 0.742218 1.782705 0.006592 0.001319 507425.000000 1 0 0
5.740869 7.309933 -8.741150 12.759326 0.905051 2.325509 0.000034 0.000311 -1404950.000000 1 0 0
-9.553931 5.356033 -7.452850 13.248006 -0.510953 2.168280 0.000490 -0.000196 475395.000000 1 0 0
-0.395331 6.079333 -5.292850 8.070244 -1.505859 2.286101 0.006603 -0.001387 -882036.000000 1 0 0
-8.180831 2.903333 -6.337350 10.747900 -0.341029 2.201405 0.004777 -0.001876 1897320.000000 1 0 0
3.716069 1.380233 -2.007850 4.443610 0.355631 2.039636 0.004099 -0.002661 2632570.000000 1 0 0
-6.781431 12.516833 -3.505850 14.661170 -1.074282 1.812261 0.002505 -0.002620 1483120.000000 1 0 0
-6.522931 3.199733 -2.352050 7.636692 -0.456048 1.883879 -0.000942 -0.001346 -1496560.000000 1 0 0
12.141869 4.061933 -0.795850 12.828003 0.322836 1.632876 0.000295 0.001032 -890734.000000 1 0 0
2.222669 12.420433 -5.495950 13.762735 1.393718 1.981588 0.006654 -0.001929 543465.000000 1 0 0
-9.185731 -1.431967 -4.262750 10.227376 0.154646 2.000716 0.000113 0.002083 51565.400000 1 0 0
-1.216131 5.670633 3.494250 6.770882 -1.359535 1.028540 0.001161 0.002208 879468.000000 1 0 0
11.564269 2.655733 12.019050 16.889132 0.225736 0.778961 0.024070 -0.005356 -287016.000000 1 0 0
-7.043631 -2.335167 -5.698950 9.356483 0.320126 2.225710 0.006738 -0.003155 -263821.000000 1 0 0
7.469069 -7.410067 10.748950 15.041144 -0.781433 0.774692 0.010501 -0.002948 782077.000000 1 0 0
-5.485631 -1.902567 -10.866650 12.320552 0.333846 2.650873 0.010947 -0.003090 -1646910.000000 1 0 0
0.706269 -6.244767 4.446150 7.698323 -1.458177 0.955075 0.002349 -0.001657 2535750.000000 1 0 0
-4.894231 -9.354267 7.490950 12.944889 1.088755 0.953687 0.005336 -0.003574 2998350.000000 1 0 0
-8.808831 9.364333 1.632850 12.959647 -0.815956 1.444466 -0.003268 -0.001212 653067.000000 1 0 0
-8.102531 7.252933 -9.083450 14.169161 -0.730126 2.266690 0.000858 -0.002747 -337776.000000 1 0 0
-1.216831 -10.617667 -0.114850 10.687784 1.456690 1.581542 0.007089 0.001292 -422585.000000 1 0 0
-3.967231 10.298233 7.809550 13.519674 -1.203084 0.954958 0.001870 0.001981 1440520.000000 1 0 0
-7.389531 12.023833 2.068150 14.263764 -1.019730 1.425290 -0.007792 0.001461 167726.000000 1 0 0
-8.138631 -8.298467 -2.775850 11.950197 0.795122 1.805222 0.007078 -0.000649 1167530.000000 1 0 0
5.506369 4.529433 -7.996050 10.713201 0.688359 2.413393 -0.000376 0.003996 1742000.000000 1 0 0
-8.965331 -0.113667 -10.192750 13.575059 0.012678 2.420135 0.006690 -0.002780 -1057820.000000 1 0 0
-15.157431 -2.187067 -1.494750 15.387178 0.143301 1.668092 -0.004761 -0.000883 752927.000000 1 0 0
-7.225631 -5.702767 8.818950 12.747752 0.668146 0.806811 0.006684 -0.005050 -1143870.000000 1 0 0
8.185769 3.481233 -0.948050 8.945647 0.402107 1.676975 0.000042 0.001541 1142960.000000 1 0 0
11.899269 7.357133 -5.781450 15.137542 0.553756 1.962678 0.004238 -0.003840 789920.000000 1 0 0
3.844669 13.328033 -9.583050 16.859798 1.289956 2.175352 -0.000515 -0.000997 1671610.000000 1 0 0
-9.753531 5.492133 -0.537450 11.206415 -0.512839 1.618774 -0.003849 -0.001357 1804650.000000 1 0 0
11.220969 -1.295667 -5.230450 12.447751 -0.114959 2.004454 0.006517 -0.000560 -722395.000000 1 0 0
10.631369 1.733033 -1.249950 10.843975 0.161590 1.686320 -0.002084 0.000959 568219.000000 1 0 0
14.643969 5.006433 4.869550 16.224140 0.329420 1.265955 0.014495 -0.012513 1709480.000000 1 0 0
0.858969 -0.841767 10.349650 10.419292 -0.775284 0.115684 0.006214 -0.004278 2890860.000000 1 0 0
-7.935331 1.481633 -12.502050 14.881733 -0.184588 2.568252 0.007988 -0.002897 -1644430.000000 1 0 0
3.106669 -11.525767 -7.846250 14.284899 -1.307512 2.152285 -0.004027 0.005942 563616.000000 1 0 0
2.905769 4.989033 -6.756850 8.887574 1.043395 2.434507 0.003187 0.001392 -1594640.000000 1 0 0
6.516969 7.968133 0.604650 10.311529 0.885248 1.512124 0.005404 -0.002157 123351.000000 1 0 0
-9.162631 -5.371967 6.776550 12.598947 0.530278 1.002892 0.000799 -0.001678 -745372.000000 1 0 0
-0.309831 -6.774267 -11.778850 13.591468 1.525092 2.619216 0.003453 0.000846 1316720.000000 1 0 0
6.441169 -13.489667 -4.684850 15.665490 -1.125319 1.874499 0.000198 0.002417 1400290.000000 1 0 0
-3.321031 -0.349167 10.028150 10.569530 0.104753 0.321447 0.004540 -0.002948 -480893.000000 1 0 0
8.596969 8.455733 6.939950 13.912951 0.777116 1.048569 0.006172 -0.002509 -832539.000000 1 0 0
-7.943431 5.732933 -2.672250 10.154090 -0.625155 1.837103 0.000689 -0.003092 861957.000000 1 0 0
-5.338031 5.848633 -6.443050 10.208525 -0.831010 2.253824 0.002886 -0.001337 -1729220.000000 1 0 0
3.331369 -13.695267 2.575150 14.327936 -1.332181 1.390085 0.007385 -0.006133 -1375600.000000 1 0 0
-11.336731 -7.027567 6.561350 14.864706 0.554919 1.113633 0.004129 -0.003616 -1929390.000000 1 0 0
-12.881831 -3.784967 -6.737450 15.022010 0.285779 2.035889 0.009385 -0.002270 -1182870.000000 1 0 0
6.098969 0.296833 -7.333550 9.542876 0.048631 2.447265 -0.000850 0.002438 721253.000000 1 0 0
-1.518831 2.160733 -2.425850 3.586135 -0.958111 2.313731 0.005327 -0.004468 3387070.000000 1 0 0
7.541769 0.897533 -4.988250 9.086610 0.118451 2.151924 -0.001095 0.002791 1584290.000000 1 0 0
3.699569 -4.462367 10.828250 12.282122 -0.878585 0.491498 0.006998 -0.002879 541596.000000 1 0 0
6.071469 -2.598867 2.077750 6.923430 -0.404448 1.265995 0.004381 -0.002310 -573226.000000 1 0 0
-6.312331 7.762633 1.086950 10.064068 -0.888077 1.462582 -0.005018 0.000762 2895300.000000 1 0 0
6.102769 -3.454367 7.928350 10.584667 -0.515069 0.724183 0.007906 -0.006026 -654711.000000 1 0 0
6.831169 -2.311167 -7.903150 10.698885 -0.326238 2.401920 0.001548 -0.002488 276188.000000 1 0 0
12.112769 -8.367067 -5.876850 15.851320 -0.604500 1.950611 0.007448 0.001712 657254.000000 1 0 0
5.516169 -9.678867 9.934150 14.926350 -1.052789 0.842573 0.000317 -0.003734 1540220.000000 1 0 0
-6.609131 7.611333 -4.506550 11.041829 -0.855758 1.991206 0.002583 -0.001572 360418.000000 1 0 0
-1.363331 -7.569767 9.682550 12.365752 1.392604 0.671300 0.008857 -0.007239 651788.000000 1 0 0
10.050569 -9.337267 0.747150 13.738876 -0.748624 1.516387 -0.002213 -0.002273 743747.000000 1 0 0
11.083369 6.038933 9.774250 15.963889 0.498892 0.911865 0.016038 -0.009160 1555250.000000 1 0 0
-15.185531 -4.168367 -4.886250 16.487907 0.267898 1.871669 -0.008676 0.004546 1351130.000000 1 0 0
-4.753431 -4.612267 7.899650 10.308859 0.770327 0.697738 0.007245 -0.006006 -722313.000000 1 0 0
3.052469 10.858933 -11.104850 15.828825 1.296766 2.348379 -0.001135 -0.003818 77850.600000 1 0 0
10.026369 -1.326767 1.546850 10.231380 -0.131563 1.419028 -0.002878 -0.001356 -1591430.000000 1 0 0
-1.685731 -2.584467 0.700350 3.164119 0.992838 1.347607 0.008335 -0.004696 2188520.000000 1 0 0
1.572169 2.974833 0.807750 3.460319 1.084618 1.335190 0.002839 -0.001321 -564242.000000 1 0 0
-9.010831 -2.360167 4.407250 10.304820 0.256171 1.128863 -0.002044 -0.001715 3447570.000000 1 0 0
9.918769 4.899033 -2.709150 11.389556 0.458768 1.810961 -0.001971 0.001245 1905710.000000 1 0 0
2.533569 8.400233 2.612150 9.154573 1.277866 1.281437 0.002100 0.000301 1624160.000000 1 0 0
-8.135431 -0.084767 2.457750 8.498998 0.010419 1.277425 -0.007897 -0.001207 285517.000000 1 0 0
6.922669 2.099333 13.770850 15.555284 0.294440 0.483691 0.013662 -0.004256 -392208.000000 1 0 0
6.824869 4.389133 3.813350 8.965766 0.571516 1.131477 0.000568 0.000550 1423840.000000 1 0 0
-0.345331 3.293433 7.779750 8.455203 -1.466324 0.402425 0.000774 -0.000872 -218095.000000 1 0 0
2.677569 -10.288067 9.203150 14.060998 -1.316185 0.857254 0.002728 -0.007555 783856.000000 1 0 0
1.356969 -4.554167 6.883250 8.364265 -1.281210 0.604238 0.004242 -0.004265 547541.000000 1 0 0
-0.225031 10.738133 -1.934250 10.913270 -1.549843 1.748976 0.001596 0.002388 1895420.000000 1 0 0
8.788369 5.490833 8.031750 13.110823 0.558444 0.911445 0.003132 -0.005085 1199960.000000 1 0 0
2.584569 11.373733 -2.869150 12.011404 1.347351 1.811997 0.002570 -0.003046 2400060.000000 1 0 0
1.449469 2.408233 -6.660250 7.229072 1.028995 2.742245 0.006973 -0.003037 1732540.000000 1 0 0
-13.531631 -2.205567 3.593650 14.173351 0.161573 1.314448 -0.011127 -0.001721 2136380.000000 1 0 0
-0.958631 -10.654867 -5.402650 11.984732 1.481067 2.038451 0.006936 -0.001858 566883.000000 1 0 0
-5.731931 2.844333 0.455550 6.415044 -0.460624 1.499724 0.000313 -0.001511 711441.000000 1 0 0
3.764069 7.289833 -4.956550 9.585263 1.094158 2.114257 0.003398 -0.001094 -1973880.000000 1 0 0
3.030169 9.806633 -6.368550 12.079338 1.271111 2.126130 0.004202 0.000724 -25951.800000 1 0 0
-12.166131 1.796933 -2.567350 12.563240 -0.146639 1.776600 -0.005094 0.000533 386857.000000 1 0 0
-2.496231 9.609033 -5.738350 11.467055 -1.316635 2.094881 0.001005 -0.000557 1108110.000000 1 0 0
-1.331031 3.282833 1.756950 3.954176 -1.185599 1.110373 0.000944 -0.002480 19536.500000 1 0 0
12.896869 3.709733 9.680250 16.546860 0.280085 0.945891 0.029847 -0.011388 866598.000000 1 0 0
-2.688731 -9.578367 11.544250 15.239557 1.297131 0.711293 0.006992 -0.011989 608991.000000 1 0 0
-0.473031 -8.913567 -7.577650 11.708809 1.517777 2.274669 0.004565 -0.000888 3755870.000000 1 0 0
2.390369 7.567933 -0.405550 7.946820 1.264858 1.621852 0.002380 -0.000028 1794860.000000 1 0 0
-11.843831 -1.306067 -5.567650 13.152219 0.109830 2.007907 0.004101 0.002169 -899364.000000 1 0 0
-6.187431 -7.152367 -10.906450 14.435765 0.857608 2.427238 0.009373 -0.001483 2181990.000000 1 0 0
-4.749431 -2.285267 -1.426450 5.460247 0.448468 1.835106 0.001986 -0.000276 -581518.000000 1 0 0
-10.450331 3.766933 4.483450 11.979171 -0.345963 1.187186 -0.007236 -0.002773 3514130.000000 1 0 0
6.775269 9.357133 -3.617150 12.105535 0.944095 1.874233 0.002426 0.000528 388504.000000 1 0 0
1.258469 -2.637767 -11.573950 11.937248 -1.125639 2.894248 0.006942 -0.004715 -415652.000000 1 0 0
1.256069 8.806133 7.456750 11.607274 1.429116 0.873144 -0.008593 0.006876 -231650.000000 1 0 0
10.519469 0.407933 10.468650 14.846490 0.038759 0.788195 0.015002 -0.009440 789294.000000 1 0 0
-5.278531 -0.807567 -3.899150 6.611991 0.151814 2.201495 0.004227 -0.003172 -302530.000000 1 0 0
11.744469 5.598933 5.428050 14.097671 0.444858 1.175554 0.005144 -0.005331 2754570.000000 1 0 0
9.910369 -3.409367 3.616050 11.086704 -0.331338 1.238557 0.004321 -0.004043 -2835770.000000 1 0 0
7.288869 -1.697867 -3.444750 8.238730 -0.228859 2.002167 -0.001042 0.000198 -1652300.000000 1 0 0
2.410469 9.150133 10.355450 14.027496 1.313213 0.740361 -0.009571 0.002163 1568340.000000 1 0 0
2.400669 -10.913067 6.355350 12.854910 -1.354264 1.053662 -0.003522 -0.002941 778142.000000 1 0 0
5.916569 -7.580367 -1.173750 9.687386 -0.908052 1.692257 -0.000928 -0.004815 1167360.000000 1 0 0
-0.200031 -5.583567 -2.307150 6.044764 1.534987 1.962407 0.005674 0.000552 2254990.000000 1 0 0
7.817469 -5.079367 2.625250 9.685284 -0.576196 1.296307 0.002327 -0.005549 1093020.000000 1 0 0
-2.606531 -12.590767 4.685150 13.684738 1.366661 1.221365 0.009094 -0.002231 -1250520.000000 1 0 0
4.909669 -10.388967 -1.217850 11.555027 -1.129320 1.676388 -0.000135 -0.003402 1049730.000000 1 0 0
1.031569 0.150733 1.072550 1.495733 0.145093 0.771203 0.004035 -0.002656 -1972570.000000 1 0 0
-1.626331 8.450333 2.486050 8.957317 -1.380663 1.289560 -0.003801 0.003532 -1162060.000000 1 0 0
-7.568431 0.682133 -3.083450 8.200861 -0.089886 1.956262 -0.003407 0.002167 -1618550.000000 1 0 0
4.363369 -6.340867 12.829850 14.961639 -0.968078 0.540374 0.006655 -0.000925 -470670.000000 1 0 0
-5.101031 13.040933 8.538650 16.401067 -1.197938 1.023225 0.002993 -0.004548 2876080.000000 1 0 0
0.528669 6.116533 8.226450 10.264792 1.484578 0.641124 -0.004558 0.001876 1111330.000000 1 0 0
8.023769 -0.582267 -0.727950 8.077736 -0.072441 1.661037 -0.000597 -0.000481 5049050.000000 1 0 0
2.464469 -9.230767 -2.387050 9.847775 -1.309898 1.815630 0.000028 -0.001299 1759180.000000 1 0 0
-7.083531 12.160933 4.934350 14.913501 -1.043357 1.233577 -0.007779 0.003021 578365.000000 1 0 0
-14.910931 0.374733 0.142050 14.916316 -0.025126 1.561273 -0.003722 -0.002518 24080.900000 1 0 0
6.877569 -0.586467 3.917450 7.936707 -0.085067 1.054588 0.002940 -0.000487 1556270.000000 1 0 0
-4.224031 -5.043767 5.089150 8.317540 0.873618 0.912389 0.005270 -0.002154 945386.000000 1 0 0
2.864569 5.049733 6.980850 9.079528 1.054790 0.693746 -0.003215 0.000112 -1090700.000000 1 0 0
2.018269 -7.197467 1.813450 7.691914 -1.297404 1.332795 0.001852 -0.002336 2150350.000000 1 0 0
-2.471531 6.361933 -1.730450 7.041102 -1.200254 1.819104 0.001109 0.001135 1895290.000000 1 0 0
2.696569 -3.829667 -6.586650 8.082190 -0.957306 2.523454 0.001072 -0.003261 -628920.000000 1 0 0
-5.132231 0.982733 -12.124450 13.202570 -0.189193 2.734662 0.007673 -0.004821 -255141.000000 1 0 0
-7.502631 6.439833 -11.919650 15.486736 -0.709318 2.449118 0.006766 -0.004327 2831700.000000 1 0 0
-0.906931 11.106333 -9.055150 14.358583 -1.489318 2.253179 0.007298 0.000470 -216842.000000 1 0 0
4.687769 5.877233 -0.603050 7.541930 0.897511 1.650841 0.003135 0.000069 48919.200000 1 0 0
-2.654931 13.413133 3.521050 14.119440 -1.375387 1.318760 -0.007727 0.009515 2445620.000000 1 0 0
1.447869 -7.882867 10.254750 13.015215 -1.389148 0.663397 -0.001038 -0.003836 -1042740.000000 1 0 0
12.990869 -0.287867 -1.093050 13.039950 -0.022156 1.654718 0.004763 -0.002771 -92167.500000 1 0 0
-1.089531 3.079033 -5.311450 6.235305 -1.230691 2.590275 0.009358 -0.006119 821508.000000 1 0 0
6.589269 1.089733 7.318750 9.908082 0.163896 0.739709 0.005225 -0.002587 1156530.000000 1 0 0
5.439769 -6.190867 6.815250 10.694183 -0.849888 0.879825 0.002598 -0.005213 504217.000000 1 0 0
12.182569 -4.872767 2.553850 13.367161 -0.380488 1.378560 0.003341 -0.003401 -498833.000000 1 0 0
4.326169 -9.139167 13.801950 17.109469 -1.128682 0.632275 0.001631 0.002010 679080.000000 1 0 0
-2.699831 -4.341067 -1.412950 5.303808 1.014409 1.840456 0.007159 -0.001398 2836590.000000 1 0 0
-9.339831 -5.169367 -7.572850 13.088272 0.505508 2.187805 0.012721 -0.003705 2885870.000000 1 0 0
-10.684931 -3.062967 7.902950 13.638407 0.279176 0.952727 0.001491 -0.002601 -848979.000000 1 0 0
12.089369 -0.550067 1.687150 12.218915 -0.045469 1.432277 0.000394 -0.003991 -200525.000000 1 0 0
-7.584831 4.744333 4.366350 9.955068 -0.558961 1.116750 -0.002833 -0.003116 1476310.000000 1 0 0
-1.131631 10.543633 6.972050 12.690873 -1.463877 0.989180 -0.006229 0.004987 1967860.000000 1 0 0
7.349869 -10.035867 1.852750 12.576640 -0.938681 1.422941 -0.002734 -0.005014 3473950.000000 1 0 0
-4.389631 -1.731567 1.671550 5.006123 0.375728 1.230357 0.001448 -0.000296 2258240.000000 1 0 0
6.704769 -15.041567 -0.992650 16.498122 -1.151483 1.631000 0.008693 0.000297 -1319290.000000 1 0 0
-10.434931 1.660633 2.397350 10.834795 -0.157818 1.347686 -0.013354 0.000359 149899.000000 1 0 0
-3.066231 8.368233 -11.430150 14.494048 -1.219575 2.479341 0.010527 -0.001091 22619.400000 1 0 0
-1.337331 -5.138067 -6.855150 8.670713 1.316167 2.482600 0.003820 -0.003460 -681190.000000 1 0 0
12.875869 -0.386367 6.396350 14.382301 -0.029998 1.109915 0.010201 -0.011210 1359790.000000 1 0 0
5.972969 -13.368667 3.835150 15.136248 -1.150616 1.314629 0.002355 -0.004405 1892870.000000 1 0 0
-5.509431 3.486633 -4.977950 8.203074 -0.564223 2.222875 0.003021 -0.003223 2708710.000000 1 0 0
-4.404431 8.008733 3.399950 9.751845 -1.067989 1.214669 -0.003374 0.002285 -618552.000000 1 0 0
13.958469 6.158033 -3.993350 15.770449 0.415485 1.826801 0.008282 0.002196 -1531680.000000 1 0 0
-6.761631 -8.544567 5.346150 12.137158 0.901360 1.114665 0.008786 0.000497 -358065.000000 1 0 0
1.666069 11.286633 2.685550 11.720753 1.424240 1.339615 0.000242 0.000402 1711450.000000 1 0 0
-7.390831 7.242033 6.048550 11.985674 -0.775230 1.041822 -0.004364 -0.001301 393071.000000 1 0 0
-17.416131 -3.989567 5.198750 18.608204 0.225188 1.287649 -0.001637 -0.008208 217229.000000 1 0 0
7.551569 -13.084567 -8.570550 17.369122 -1.047359 2.086832 0.001203 0.006159 -713060.000000 1 0 0
-2.279731 12.801233 -2.817950 13.304495 -1.394557 1.784217 -0.005596 0.003626 1559300.000000 1 0 0
-5.521031 14.032233 -5.783850 16.150488 -1.195946 1.937052 0.010906 -0.000467 3414170.000000 1 0 0
-5.733331 2.389533 7.437050 9.689720 -0.394887 0.695834 0.000992 -0.001358 784627.000000 1 0 0
-7.431631 5.101833 1.440750 9.128724 -0.601610 1.412308 -0.002253 -0.001053 892483.000000 1 0 0
10.751569 -5.834767 -5.094650 13.251272 -0.497213 1.965425 0.002420 -0.001299 3644380.000000 1 0 0
-9.604531 -0.654967 6.816250 11.795646 0.068088 0.954690 -0.002904 -0.004562 10142.200000 1 0 0
-11.219931 -4.601767 -2.568850 12.396052 0.389219 1.779540 -0.002731 0.001096 883271.000000 1 0 0
6.535369 -4.368467 13.476150 15.601319 -0.589226 0.528067 0.016640 -0.004085 -400850.000000 1 0 0
0.286669 10.219533 -11.663950 15.510279 1.542753 2.421909 0.006971 -0.000595 -363837.000000 1 0 0
-11.734631 -3.185167 1.419650 12.241824 0.265047 1.454568 -0.009364 -0.000619 2842270.000000 1 0 0
5.138269 5.940033 5.465650 9.568653 0.857645 0.962825 0.000489 -0.000205 -3906490.000000 1 0 0
-7.227731 -0.016367 8.171650 10.909456 0.002264 0.724180 -0.001679 -0.003497 -572402.000000 1 0 0
1.675769 2.027633 9.651850 10.003884 0.880125 0.266076 0.002371 -0.002760 3182270.000000 1 0 0
10.444669 -4.933567 -2.159150 11.751303 -0.441286 1.755583 -0.002804 -0.000696 2862130.000000 1 0 0
-9.643131 -2.423067 -1.640850 10.077382 0.246177 1.734350 -0.003574 0.002520 -916934.000000 1 0 0
-2.015631 -5.190967 -9.894750 11.354073 1.200420 2.628991 0.008325 -0.004134 60059.000000 1 0 0
7.713569 -1.597467 6.599150 10.276178 -0.204211 0.873458 0.007061 -0.005823 2878560.000000 1 0 0
1.494969 -11.866567 -2.628550 12.245800 -1.445475 1.787129 0.001260 0.001016 -3220040.000000 1 0 0
-0.761731 -1.531467 4.802850 5.098332 1.109242 0.342127 0.008927 -0.003632 2783060.000000 1 0 0
7.694169 1.434833 9.908850 12.627125 0.184365 0.668540 0.006775 -0.006367 2332740.000000 1 0 0
-3.771031 10.812633 -7.976550 13.955610 -1.235225 2.179209 0.004879 0.001423 3592450.000000 1 0 0
-9.493431 12.659233 6.395550 17.067058 -0.927345 1.186690 -0.003529 -0.004695 573622.000000 1 0 0
-2.544331 -2.400967 -11.031750 11.573149 0.756416 2.834510 0.008829 -0.005404 -1949100.000000 1 0 0
1.067169 -11.892767 11.053750 16.271513 -1.481303 0.823945 0.003793 -0.003206 26350.300000 1 0 0
1.346469 3.383533 -1.995450 4.152481 1.192060 2.072071 0.004881 -0.001477 2629390.000000 1 0 0
-1.955131 -9.350767 -12.072250 15.394759 1.364678 2.472169 0.001939 0.003251 496268.000000 1 0 0
1.316369 -2.718767 1.589650 3.413431 -1.119886 1.086366 0.010498 -0.003365 3406970.000000 1 0 0
-1.074131 -2.265667 -6.625250 7.083851 1.128090 2.779792 0.006879 -0.007139 512495.000000 1 0 0
1.759669 5.795433 4.155850 7.345377 1.276012 0.969420 -0.002087 0.002890 -1908780.000000 1 0 0
-10.991731 8.650833 3.607350 14.445347 -0.666783 1.318401 -0.010921 -0.003563 1878430.000000 1 0 0
-16.352031 -1.485767 3.838850 16.862182 0.090612 1.341122 -0.004864 -0.002669 1162780.000000 1 0 0
-12.241931 0.324233 6.767950 13.991967 -0.026479 1.065916 -0.006437 -0.003664 365598.000000 1 0 0
-5.160731 2.982633 4.684750 7.581301 -0.524047 0.904683 -0.000959 -0.000481 786796.000000 1 0 0
5.248569 -6.129267 3.871350 8.950013 -0.862649 1.123475 -0.001549 -0.003962 2408370.000000 1 0 0
9.940069 3.411233 6.334350 12.270512 0.330586 1.028359 0.002178 -0.001000 599011.000000 1 0 0
-12.077931 5.886633 3.168250 13.804589 -0.453507 1.339225 -0.008443 -0.002908 1903550.000000 1 0 0
-4.913131 12.280933 -1.329950 13.293944 -1.190237 1.671006 -0.007715 0.006727 340039.000000 1 0 0
-1.797131 -12.185867 10.323050 16.071415 1.424375 0.873270 0.013671 -0.010056 976334.000000 1 0 0
5.125269 6.335133 13.823950 16.046928 0.890578 0.532639 0.000497 0.001174 584305.000000 1 0 0
12.878869 -3.771467 -5.996850 14.698688 -0.284876 1.991043 0.005101 -0.000847 1458680.000000 1 0 0
3.628769 -2.560767 6.347350 7.746892 -0.614531 0.610535 0.004877 -0.002443 2608560.000000 1 0 0
7.250869 -11.916567 -0.663350 13.964945 -1.024172 1.618315 0.000032 -0.000172 -950748.000000 1 0 0
-6.124031 -6.611367 -4.100150 9.900766 0.823646 1.997777 0.005946 -0.001284 -345573.000000 1 0 0
0.248169 -8.969067 5.114250 10.327696 -1.543134 1.052734 0.004306 -0.003455 2495260.000000 1 0 0
-10.240631 2.500433 -0.404250 10.549223 -0.239482 1.609126 -0.009706 0.001809 -2883620.000000 1 0 0
-1.871731 8.937533 -0.298650 9.136305 -1.364356 1.603490 0.000068 0.002459 503637.000000 1 0 0
-3.529331 2.300733 -6.691150 7.907025 -0.577702 2.579663 0.008945 -0.007212 -224481.000000 1 0 0
-12.689331 3.104233 6.397050 14.545708 -0.239921 1.115432 -0.007129 -0.006401 1149190.000000 1 0 0
11.459569 1.604333 7.968350 14.049562 0.139095 0.967743 0.011531 -0.014320 -2973190.000000 1 0 0
6.062869 2.659633 -3.171050 7.340816 0.413397 2.017478 0.000240 0.000078 246762.000000 1 0 0
10.575369 -2.304667 6.383050 12.565558 -0.214573 1.037958 0.006567 -0.005984 2458250.000000 1 0 0
-0.956331 10.991833 4.015250 11.741260 -1.484011 1.221776 -0.001352 0.004269 1458720.000000 1 0 0
-1.604931 -12.296167 7.489550 14.486714 1.441007 1.027460 0.004436 -0.004437 1046900.000000 1 0 0
8.072469 8.624733 -7.841550 14.178882 0.818461 2.156810 0.004215 -0.004880 870650.000000 1 0 0
-4.677031 -5.941467 -8.745350 11.561003 0.903919 2.428668 0.008604 -0.003140 -306222.000000 1 0 0
-8.510931 -5.283167 -11.707250 15.408034 0.555538 2.433824 0.018624 -0.000469 2050640.000000 1 0 0
6.079669 -0.652967 -9.997350 11.719034 -0.106992 2.592669 0.001747 -0.002355 -1245650.000000 1 0 0
-11.146631 -5.475467 -5.317350 13.509342 0.456600 1.975347 0.003231 -0.003275 -1146170.000000 1 0 0
3.925469 8.892833 -2.697250 10.087960 1.155101 1.841462 0.005771 -0.002279 2320360.000000 1 0 0
11.717169 -10.613167 -4.018650 16.311987 -0.735999 1.819721 0.007869 0.002229 89785.100000 1 0 0
3.987369 -11.308167 3.940550 12.621477 -1.231799 1.253278 -0.001316 -0.003212 2642300.000000 1 0 0
-0.975431 0.852633 3.176250 3.430308 -0.718325 0.387287 0.007537 -0.002525 -1292110.000000 1 0 0
-10.673131 -5.070667 4.565050 12.667560 0.443519 1.202128 0.003591 -0.003275 1807070.000000 1 0 0
4.578869 -8.700767 2.754550 10.210628 -1.086362 1.297639 -0.001764 -0.003662 5761410.000000 1 0 0
-3.695731 -5.752667 2.640850 7.329781 0.999756 1.202217 0.005119 0.001313 1161400.000000 1 0 0
9.982069 5.079733 12.205450 16.565579 0.470731 0.742477 0.012748 -0.000172 2002300.000000 1 0 0
1.596869 -12.389067 -5.323750 13.578707 -1.442610 1.973673 0.001241 0.000431 1112110.000000 1 0 0
9.876169 -10.796167 -1.719650 14.732723 -0.829873 1.687786 0.004419 -0.000236 932636.000000 1 0 0
9.652169 -4.609967 -9.165550 14.086287 -0.445575 2.279265 0.009417 -0.002513 2804640.000000 1 0 0
-7.423731 -2.990667 -13.098950 15.350517 0.382963 2.593122 0.012671 0.001364 1989520.000000 1 0 0
0.492369 6.181933 -2.491650 6.683341 1.491318 1.952837 0.002535 -0.000299 1856450.000000 1 0 0
-5.956531 -9.556567 1.046350 11.309424 1.013426 1.478144 0.006178 0.000826 -1047310.000000 1 0 0
-8.963331 -4.083367 0.561750 9.865635 0.427471 1.513825 -0.003905 0.001387 2585840.000000 1 0 0
1.873369 3.735733 12.084950 12.787151 1.105971 0.332940 -0.000880 -0.002341 1954670.000000 1 0 0
6.618869 4.216033 9.556850 12.365991 0.567162 0.687503 0.000307 -0.001875 1637680.000000 1 0 0
-8.179331 9.907333 -3.680750 13.364304 -0.880649 1.849819 0.000702 -0.002919 2354570.000000 1 0 0
16.393769 2.146933 -6.060750 17.609590 0.130219 1.922154 0.013281 0.001694 -552412.000000 1 0 0
-10.948231 2.617433 -5.151250 12.379422 -0.234669 1.999964 -0.000075 0.001174 1265420.000000 1 0 0
-13.706231 4.063833 1.510950 14.375621 -0.288238 1.465497 -0.004972 0.001905 -1470570.000000 1 0 0
-17.331531 10.592933 3.268550 20.573663 -0.548610 1.411250 0.027539 -0.014456 469945.000000 1 0 0
-14.221331 3.015433 -1.179050 14.585241 -0.208941 1.651723 -0.004105 0.000438 1245100.000000 1 0 0
-14.355231 5.234233 5.142150 16.121773 -0.349641 1.246168 -0.009420 -0.002550 671941.000000 1 0 0
-17.353031 7.657833 3.113550 19.221454 -0.415593 1.408096 0.011999 -0.003377 -1990920.000000 1 0 0
-14.743931 12.625133 -3.485250 19.721168 -0.708136 1.748456 0.038227 -0.012591 -1217110.000000 1 0 0
-8.510131 12.694733 -9.433050 17.959984 -0.980236 2.123777 0.009381 -0.010982 1323890.000000 1 0 0
-12.361631 8.896533 -9.769750 18.094370 -0.623818 2.141154 0.010912 -0.004062 -1701830.000000 1 0 0
-14.041131 -3.512667 -12.176950 18.914817 0.245138 2.270222 0.012628 0.004207 -820861.000000 1 0 0
-14.764031 5.841533 -7.598850 17.602348 -0.376759 2.017168 0.017888 -0.002054 297005.000000 1 0 0
-10.870831 13.580133 -8.160650 19.214349 -0.895754 2.009445 0.016460 -0.016711 1032600.000000 1 0 0
-10.771631 13.620833 3.885850 17.794801 -0.901678 1.350653 0.000122 -0.003494 -613590.000000 1 0 0
-15.149131 3.338733 3.102750 15.819936 -0.216923 1.373388 -0.005759 0.000343 -234164.000000 1 0 0
-11.089931 9.543233 -12.358750 19.151986 -0.710576 2.272210 0.003613 0.000421 -193238.000000 1 0 0
-13.058331 11.711933 -9.015150 19.722128 -0.731096 2.045538 0.025703 -0.014619 -383605.000000 1 0 0
-8.864531 14.696933 -3.592850 17.535345 -1.028060 1.777150 0.006372 -0.007167 803314.000000 1 0 0
-16.809231 8.279133 -4.075350 19.175577 -0.457658 1.784958 0.043321 -0.007674 -114330.000000 1 0 0
-16.811631 6.784333 0.310750 18.131593 -0.383563 1.553657 0.016528 -0.001585 -703322.000000 1 0 0
-10.497331 2.887233 -12.450250 16.539008 -0.268408 2.423073 0.007308 -0.008255 1537190.000000 1 0 0
-16.674931 1.026833 2.379050 16.875058 -0.061502 1.429345 -0.005486 -0.004602 -217528.000000 1 0 0
-12.636931 1.180733 -7.029450 14.508595 -0.093165 2.076591 0.003030 -0.000910 1435480.000000 1 0 0
-12.269531 9.080733 -5.408350 16.194177 -0.637138 1.911307 0.016068 -0.005779 -2167990.000000 1 0 0
-9.444831 13.949033 1.224050 16.890194 -0.975608 1.498262 0.009240 -0.004706 1163980.000000 1 0 0
-12.197831 11.214833 2.765950 16.799108 -0.743437 1.405395 0.000529 -0.005260 362042.000000 1 0 0
-12.606731 6.887933 -3.612850 14.813034 -0.500052 1.817178 0.001060 -0.001975 308793.000000 1 0 0
-15.871831 3.681933 -9.231650 18.726853 -0.227947 2.086289 0.014205 -0.006435 -2259650.000000 1 0 0
-15.161531 5.925033 -4.685850 16.939163 -0.372545 1.851080 0.019787 -0.002985 1494230.000000 1 0 0
-17.855431 5.321333 7.559950 20.106861 -0.289642 1.185333 0.008822 -0.008269 202609.000000 1 0 0
-15.797031 10.210233 -2.172250 18.934459 -0.573797 1.685774 0.033753 -0.005426 759274.000000 1 0 0
-8.732731 9.983033 -8.318650 15.656356 -0.852104 2.130963 0.001531 -0.005065 1785760.000000 1 0 0
-16.935731 4.240433 -1.190250 17.499056 -0.245340 1.638867 0.006055 -0.000313 -494042.000000 1 0 0
-10.230231 5.386133 -4.525650 12.415698 -0.484616 1.943903 0.000367 -0.001392 520859.000000 1 0 0
-18.146031 2.799733 6.202250 19.380012 -0.153082 1.245032 0.004793 -0.004964 -1112250.000000 1 0 0
-10.357931 10.162533 -5.689750 15.586439 -0.775876 1.944477 0.005929 -0.007625 550100.000000 1 0 0
-15.315331 0.522333 -5.939650 16.435073 -0.034092 1.940566 -0.003940 -0.000153 -394884.000000 1 0 0
-16.374231 -4.157567 -8.800350 19.048542 0.248654 2.051041 -0.004887 -0.006388 -935211.000000 1 0 0
-9.926431 9.696833 -1.191250 13.927731 -0.773698 1.656432 -0.003949 -0.000863 3482250.000000 1 0 0
-17.272631 -2.968967 -3.232550 17.821558 0.170225 1.753190 -0.002562 0.001358 -1530030.000000 1 0 0
-12.057531 5.167833 -11.540150 17.471852 -0.404914 2.292280 0.008222 -0.003333 -399683.000000 1 0 0
-16.326531 7.184133 5.854750 18.773531 -0.414530 1.253644 0.007048 -0.004453 1313680.000000 1 0 0
-12.115531 6.092433 -8.793650 16.162677 -0.465934 2.146078 0.009771 -0.004489 734926.000000 1 0 0
-14.496531 8.512833 -0.047650 16.811306 -0.530979 1.573631 0.016387 -0.005760 476553.000000 1 0 0
-14.835731 12.090533 3.795350 19.511140 -0.683797 1.375026 0.009814 -0.010512 881822.000000 1 0 0
-17.297331 4.153533 -3.957550 18.223932 -0.235664 1.789703 0.013173 -0.003086 -636316.000000 1 0 0
-13.813231 13.399933 -0.816550 19.262147 -0.770212 1.613200 0.030740 -0.009452 -821419.000000 1 0 0
-10.109731 6.925633 -13.057150 17.906988 -0.600619 2.387897 -0.005637 -0.002349 -439127.000000 1 0 0
-15.884631 -1.172567 -8.359850 17.988427 0.073684 2.054132 -0.005690 -0.004638 -95964.200000 1 0 0
-11.424131 11.968633 -0.114050 16.546056 -0.808670 1.577689 0.010135 -0.007155 22197.800000 1 0 0
-11.977631 7.486133 -0.903550 14.153524 -0.558606 1.634679 -0.005093 0.001650 1140640.000000 1 0 0
-11.477831 0.174433 -11.681050 16.377361 -0.015196 2.364912 0.012638 -0.006015 1860510.000000 1 0 0
-19.023031 -1.150767 -4.656350 19.618399 0.060420 1.810429 0.001673 -0.002557 -319741.000000 1 0 0
-17.864131 1.540433 -5.052050 18.628562 -0.086018 1.845435 -0.006536 -0.002570 -542350.000000 1 0 0
-13.429331 -0.132467 -9.551450 16.480130 0.009864 2.189002 0.009310 -0.002782 1249320.000000 1 0 0
-6.123731 11.244433 -13.351550 18.498682 -1.072108 2.377134 0.000677 0.003370 -752292.000000 1 0 0
16.448069 5.785733 7.115950 18.832165 0.338240 1.183311 0.049711 -0.020196 253542.000000 1 0 0
14.915369 10.230133 -5.515350 18.908806 0.601186 1.866781 0.029140 -0.000588 1462010.000000 1 0 0
2.457569 16.962433 4.429150 17.702575 1.426914 1.317912 0.012454 -0.009117 2626100.000000 1 0 0
-3.778031 18.188033 -5.959050 19.508674 -1.365988 1.881214 0.014979 -0.006279 799636.000000 1 0 0
5.456169 14.502033 5.625350 16.484032 1.210944 1.222539 0.007875 -0.013662 418560.000000 1 0 0
9.698669 5.889333 15.022450 18.826110 0.545720 0.646896 0.008621 0.000158 -1601290.000000 1 0 0
4.661969 12.744733 -1.117750 13.616591 1.220119 1.652976 0.002923 -0.004488 2431530.000000 1 0 0
3.601469 13.701833 12.890850 19.154238 1.313765 0.832536 -0.000269 -0.003666 54700.200000 1 0 0
-0.700431 12.331833 9.225450 15.416668 -1.514059 0.929284 -0.006502 0.002225 -663696.000000 1 0 0
-7.755831 14.006633 8.370950 18.066862 -1.065097 1.089045 0.008761 -0.010904 1567940.000000 1 0 0
11.384169 12.948933 -4.198650 17.745502 0.849616 1.809665 0.019253 -0.003537 -681157.000000 1 0 0
-5.772031 16.091533 0.796450 17.113974 -1.226392 1.524242 -0.003119 0.003392 977206.000000 1 0 0
3.180669 10.612533 6.662450 12.927906 1.279607 1.029375 -0.007364 0.003028 1429590.000000 1 0 0
-1.218331 15.690933 2.548250 15.943127 -1.493306 1.410274 -0.003102 0.005246 -663646.000000 1 0 0
9.844569 8.753233 9.473250 16.225816 0.726784 0.947348 0.019363 -0.010126 1073890.000000 1 0 0
7.235969 12.170633 6.202750 15.458255 1.034399 1.157906 0.009290 -0.008657 362985.000000 1 0 0
11.729669 14.055133 -1.499750 18.367938 0.875342 1.652538 0.010031 -0.001973 -1046720.000000 1 0 0
9.494569 15.904633 -1.113450 18.556507 1.032609 1.630836 0.005090 -0.007878 604553.000000 1 0 0
10.195369 13.697333 3.062450 17.347653 0.930932 1.393332 0.016283 -0.007366 2178790.000000 1 0 0
-6.012131 14.542433 6.284850 16.944835 -1.178775 1.190818 -0.007108 -0.002484 443281.000000 1 0 0
-0.892331 18.174333 -6.228450 19.232686 -1.521737 1.900589 0.028868 -0.002919 1677800.000000 1 0 0
-3.498531 15.704033 5.515950 17.008294 -1.351597 1.240515 -0.009410 0.006476 1632450.000000 1 0 0
7.004269 12.210233 10.557850 17.595959 1.049985 0.927276 0.003067 -0.004281 1731210.000000 1 0 0
1.509269 14.668833 6.159150 15.980854 1.468268 1.175146 0.000247 -0.005753 -478247.000000 1 0 0
17.538269 7.771533 -1.416050 19.235197 0.417117 1.644481 0.011202 0.013020 -513240.000000 1 0 0
2.165769 16.140533 -3.309350 16.618037 1.437411 1.771279 -0.000614 -0.005165 1016590.000000 1 0 0
6.737869 11.137633 0.519050 13.027477 1.026735 1.530943 0.008514 -0.004734 1855050.000000 1 0 0
12.658269 9.270433 3.229050 16.018722 0.632117 1.367826 0.009770 0.004116 -646202.000000 1 0 0
6.048169 14.258033 -3.430850 15.863246 1.169609 1.788796 -0.001681 -0.004317 1443880.000000 1 0 0
3.041369 16.496133 1.591150 16.849454 1.388475 1.476222 0.007862 -0.013588 -1267280.000000 1 0 0
2.887869 18.873633 -2.533450 19.260638 1.418963 1.702714 0.002540 -0.010252 -1287560.000000 1 0 0
3.936569 11.872833 10.606050 16.399666 1.250642 0.867515 -0.003607 -0.003243 2508690.000000 1 0 0
8.091969 11.488533 3.360750 14.448564 0.957156 1.336045 0.004843 -0.002752 2733880.000000 1 0 0
0.712869 12.552133 0.254050 12.574926 1.514065 1.550592 0.003524 -0.001974 -1371270.000000 1 0 0
12.104869 9.994333 -4.515750 16.334214 0.690184 1.850904 0.015107 0.001031 2077290.000000 1 0 0
-1.201631 16.457533 9.982050 19.285633 -1.497912 1.026764 0.000063 -0.002119 -3127.670000 1 0 0
8.367469 14.679433 -7.927850 18.664166 1.052718 2.009497 0.017274 -0.003255 1255890.000000 1 0 0
14.597869 7.609433 -1.383850 16.520178 0.480519 1.654662 0.015365 0.005070 765534.000000 1 0 0
12.513669 8.312333 6.001150 16.177163 0.586335 1.190749 0.010895 -0.005073 -1303030.000000 1 0 0
-2.957931 14.168733 10.182950 17.697311 -1.364988 0.957709 -0.003430 -0.005417 1542020.000000 1 0 0
-4.504831 17.130133 -3.194550 17.998336 -1.313642 1.749233 0.013173 -0.003941 -717307.000000 1 0 0
-7.012931 16.514133 -1.842250 18.035844 -1.169212 1.673119 0.007887 0.003556 1494850.000000 1 0 0
8.353669 11.237133 -1.884750 14.128313 0.931534 1.704598 0.010543 -0.003519 -1952080.000000 1 0 0
8.511569 12.834533 -4.230050 15.970766 0.985213 1.838857 0.012350 -0.007511 2349900.000000 1 0 0
2.610369 14.824833 -7.298150 16.728798 1.396502 2.022237 0.002861 -0.000415 -438022.000000 1 0 0
11.266869 11.326033 9.668150 18.673363 0.788017 1.026576 0.028107 -0.010518 801554.000000 1 0 0
8.553369 15.664433 1.565650 17.916078 1.071000 1.483297 0.006067 -0.010932 443596.000000 1 0 0
6.000269 9.895833 7.680750 13.889732 1.025726 0.984859 0.005436 0.001243 4035620.000000 1 0 0
14.438069 11.394233 2.708650 18.590943 0.668108 1.424579 0.025026 -0.000167 1874690.000000 1 0 0
12.131569 12.665933 1.134050 17.575178 0.806944 1.506226 0.017576 0.002076 2447020.000000 1 0 0
5.074369 15.872133 8.175050 18.560853 1.261363 1.114701 0.012326 -0.012043 634744.000000 1 0 0
11.623269 15.013733 5.231450 19.694685 0.912001 1.301942 0.028514 -0.012027 955615.000000 1 0 0
5.934369 16.634933 1.811650 17.754431 1.228128 1.468579 -0.001545 -0.020517 472926.000000 1 0 0
-0.568031 16.097233 -4.231950 16.653918 -1.535523 1.827725 0.009386 -0.005751 505803.000000 1 0 0
15.986069 6.435533 2.559350 17.421847 0.382721 1.423358 0.007570 -0.002497 -302139.000000 1 0 0
7.611169 16.666733 -3.174150 18.595298 1.142411 1.742333 -0.005336 -0.006461 -1791700.000000 1 0 0
14.879269 8.149933 7.446250 18.527296 0.501104 1.157198 0.038812 -0.015504 -1114030.000000 1 0 0
2.128069 12.912833 8.509650 15.610384 1.407462 0.994255 -0.004393 -0.002525 1450380.000000 1 0 0
15.919869 7.475133 -5.825050 18.527036 0.438990 1.890629 0.007014 0.005865 -1091680.000000 1 0 0
-2.983331 17.028533 0.643650 17.299870 -1.397360 1.533582 -0.005149 0.006290 136663.000000 1 0 0
-2.907231 18.576133 4.632350 19.364488 -1.415552 1.329235 -0.002322 0.001023 337639.000000 1 0 0
-0.940531 19.217033 0.839050 19.258322 -1.521893 1.527214 -0.000110 0.002908 557356.000000 1 0 0
7.027369 16.752633 -6.058850 19.150569 1.173612 1.892707 -0.001786 -0.000645 1651660.000000 1 0 0
10.992569 10.054233 0.826550 14.920032 0.740844 1.515369 0.006268 0.004037 -1182980.000000 1 0 0
9.007869 8.625133 14.342050 19.006026 0.763696 0.715744 0.006352 0.001871 405539.000000 1 0 0
6.374969 12.432633 -8.437350 16.321748 1.096992 2.114068 0.011999 -0.004879 664469.000000 1 0 0
6.284569 8.956933 13.240650 17.176649 0.958969 0.690619 -0.002337 -0.001750 1493080.000000 1 0 0
16.673269 9.361633 2.973250 19.351441 0.511611 1.416540 0.020747 -0.000442 -1013220.000000 1 0 0
2.563769 14.650633 -0.706650 14.890041 1.397557 1.618272 0.001861 -0.005279 422495.000000 1 0 0
9.070869 12.901733 8.272850 17.809420 0.958010 1.087703 0.020538 -0.012993 1420690.000000 1 0 0
7.192769 9.287433 10.496250 15.753209 0.911822 0.841570 0.000585 -0.002568 1844950.000000 1 0 0
4.369969 15.773033 -5.263450 17.192705 1.300522 1.881937 0.001451 -0.002899 303490.000000 1 0 0
0.203769 16.313533 -8.199750 18.259485 1.558306 2.036518 0.019298 -0.001248 2022780.000000 1 0 0
-2.408831 15.629833 -2.019350 15.942770 -1.417882 1.697800 -0.006254 0.002063 136583.000000 1 0 0
13.274069 10.436933 7.708950 18.562284 0.666310 1.142522 0.032409 -0.009403 2216940.000000 1 0 0
-0.986731 15.904033 7.072650 17.433711 -1.508833 1.153065 0.000515 -0.000370 2673070.000000 1 0 0
13.418369 13.317633 6.767150 20.079997 0.781630 1.227058 0.036222 -0.010197 -1729110.000000 1 0 0
5.438069 17.345133 4.583850 18.746677 1.266981 1.323777 0.012714 -0.021430 789004.000000 1 0 0
10.772569 9.538133 -1.871950 14.509598 0.724695 1.700172 0.002704 0.003959 1261020.000000 1 0 0
3.257169 12.751333 4.654450 13.959568 1.320707 1.230864 -0.001352 0.000013 1370370.000000 1 0 0
-0.133431 18.174333 3.568650 18.521864 -1.563455 1.376912 0.003306 -0.000192 2716910.000000 1 0 0
-7.642931 16.013333 -5.860050 18.686397 -1.125485 1.889778 0.024423 -0.010022 257544.000000 1 0 0
-12.516531 -9.063167 8.338650 17.559545 0.626715 1.075970 0.000537 -0.001461 -761952.000000 1 0 0
-13.377731 -11.659167 6.922850 19.047985 0.716864 1.198836 0.009193 0.004960 -1100330.000000 1 0 0
-6.789831 -12.143467 12.369650 18.616494 1.060967 0.844044 0.023629 -0.010009 -698203.000000 1 0 0
-1.928031 -10.607667 14.330350 17.933177 1.391001 0.645004 0.011816 -0.008963 25130.100000 1 0 0
-8.793331 2.778633 11.042150 14.386541 -0.306064 0.695812 0.004183 -0.005436 1127150.000000 1 0 0
0.676769 9.989433 15.245050 18.238924 1.503151 0.581112 -0.007203 -0.002279 -845946.000000 1 0 0
0.835669 -6.760967 16.597950 17.941599 -1.447818 0.389471 0.005772 -0.001859 1409830.000000 1 0 0
6.050169 2.070633 17.843050 18.954327 0.329748 0.344126 0.023137 -0.004806 1508370.000000 1 0 0
-5.210031 -3.010567 17.681750 18.677586 0.523966 0.328018 0.026832 -0.009284 989824.000000 1 0 0
-4.222331 8.143033 13.093250 15.986565 -1.092442 0.611103 0.003022 0.000437 308137.000000 1 0 0
0.083569 -4.808167 18.584950 19.197026 -1.553417 0.253199 0.021993 -0.009411 -521807.000000 1 0 0
-11.585431 1.980533 11.159850 16.207621 -0.169314 0.811301 0.007176 -0.009978 1101140.000000 1 0 0
-3.497731 -6.028867 14.350250 15.953402 1.045090 0.452149 0.022580 -0.012294 2136010.000000 1 0 0
-7.575631 -2.176167 14.612650 16.602874 0.279727 0.494665 0.017468 -0.008421 607928.000000 1 0 0
-6.139231 -1.097567 10.677550 12.365471 0.176910 0.528633 0.006559 -0.007263 910205.000000 1 0 0
-3.902431 2.387733 11.162950 12.064066 -0.549093 0.388955 0.001778 0.001301 219264.000000 1 0 0
-6.434031 6.269833 13.653050 16.343602 -0.772474 0.581980 -0.000069 -0.000263 1290330.000000 1 0 0
-8.970731 5.488533 12.480450 16.320528 -0.549070 0.700207 0.002275 -0.007803 -950879.000000 1 0 0
-12.427831 -1.975867 15.744450 20.155464 0.157668 0.674290 0.011600 -0.000835 1739110.000000 1 0 0
-3.591931 -7.606967 16.973750 18.944026 1.129643 0.460130 0.027690 -0.007705 469967.000000 1 0 0
-0.608731 -5.405267 14.268050 15.269732 1.458651 0.364223 0.012104 -0.003428 2568940.000000 1 0 0
-14.436431 -1.835567 13.616450 19.929565 0.126470 0.818621 0.002989 -0.001456 389538.000000 1 0 0
-6.437731 1.445633 12.255650 13.918879 -0.220892 0.493869 0.007769 -0.007069 1223070.000000 1 0 0
2.229669 -2.223267 14.516750 14.854305 -0.783960 0.213593 0.007187 -0.002220 700221.000000 1 0 0
-12.537531 4.029333 9.094350 16.004137 -0.310956 0.966419 -0.000772 -0.007808 -1684340.000000 1 0 0
-9.193831 -2.842367 12.545350 15.811116 0.299839 0.654338 0.005416 -0.002015 1079860.000000 1 0 0
-7.373231 -7.177167 15.323150 18.457388 0.771924 0.591347 0.026497 -0.008129 -1150160.000000 1 0 0
-3.176031 6.036833 19.485450 20.644934 -1.086480 0.336740 0.024312 -0.014521 -184581.000000 1 0 0
0.695369 5.454633 16.128950 17.040528 1.443998 0.328568 0.001785 -0.006339 807808.000000 1 0 0
3.451069 1.409233 16.777150 17.186290 0.387681 0.218638 0.018093 -0.004310 1766640.000000 1 0 0
-11.729331 11.397733 7.700050 18.076955 -0.771061 1.130774 0.002326 -0.019808 -582611.000000 1 0 0
0.520169 -9.448067 15.438050 18.107179 -1.515796 0.549869 -0.005876 0.001980 -842292.000000 1 0 0
-2.569931 -3.579967 18.869850 19.377615 0.948181 0.229429 0.025648 -0.013368 1962080.000000 1 0 0
-12.778231 2.500033 13.662650 18.873298 -0.193207 0.761337 -0.000736 -0.017466 702540.000000 1 0 0
-5.414631 -0.585967 15.833550 16.744040 0.107800 0.331292 0.019351 -0.004653 2351910.000000 1 0 0
-4.576331 -5.982267 11.673850 13.892771 0.917775 0.572993 0.011736 -0.006910 20354.000000 1 0 0
2.428269 1.780733 13.932350 14.254048 0.632750 0.212858 0.002964 -0.002475 903808.000000 1 0 0
0.118069 3.271033 14.270050 14.640626 1.534717 0.225473 0.006115 -0.003492 -649079.000000 1 0 0
-12.977031 7.077433 12.163750 19.142889 -0.499290 0.882246 0.006171 -0.012712 1503810.000000 1 0 0
0.857069 1.493333 18.197050 18.278327 1.049766 0.094339 0.008633 -0.004724 1082790.000000 1 0 0
-1.974331 6.401233 12.478450 14.162820 -1.271624 0.492675 0.000345 -0.001272 1364040.000000 1 0 0
-13.620131 -2.508867 10.886150 17.615636 0.182161 0.904623 0.006665 -0.007108 62929.900000 1 0 0
-2.555431 3.609133 13.491450 14.197721 -0.954691 0.316744 0.004163 -0.001948 469213.000000 1 0 0
3.596669 6.158133 16.286450 17.779401 1.042186 0.412730 0.003692 -0.004283 454777.000000 1 0 0
-3.597931 12.390433 12.369050 17.873481 -1.288189 0.806494 0.001183 -0.002231 1099850.000000 1 0 0
3.708569 -1.557467 17.059350 17.527139 -0.397598 0.231556 0.016747 -0.002781 -1696270.000000 1 0 0
-15.894031 0.564633 9.116150 18.331482 -0.035510 1.050318 -0.000873 -0.008076 276078.000000 1 0 0
-4.652031 4.617433 15.226550 16.577391 -0.781666 0.406493 0.016902 -0.005922 937694.000000 1 0 0
-8.170331 -8.089667 10.558850 15.610456 0.780437 0.827938 0.014042 -0.005040 3071390.000000 1 0 0
-2.670331 -0.419267 14.698950 14.945420 0.155738 0.181862 0.013361 -0.003821 1710500.000000 1 0 0
-1.921831 1.039633 17.202950 17.341158 -0.495876 0.126337 0.016894 -0.007055 980589.000000 1 0 0
-0.753531 -2.502267 14.409250 14.644304 1.278295 0.179410 0.009877 -0.005170 1545980.000000 1 0 0
4.929869 -8.274667 16.551150 19.149786 -1.033487 0.527040 0.001851 0.007885 1594330.000000 1 0 0
-4.528831 9.990833 10.721450 15.338727 -1.145203 0.796827 0.002732 0.000243 -983590.000000 1 0 0
-6.198631 2.124033 15.290850 16.635644 -0.330122 0.404849 0.018065 -0.005289 -65113.600000 1 0 0
-4.929831 6.746333 17.307650 19.219027 -0.939734 0.449769 0.022708 -0.007365 -69518.300000 1 0 0
-3.939731 9.145633 15.812050 18.686493 -1.164042 0.562029 0.008840 -0.001939 -64691.500000 1 0 0
-4.867431 -9.792767 18.354650 21.365471 1.109517 0.537327 0.050393 -0.011892 -190604.000000 1 0 0
-6.915631 -4.048067 11.143650 13.725660 0.529578 0.623424 0.009315 -0.005325 736336.000000 1 0 0
-2.386031 -0.776567 19.583850 19.743945 0.314651 0.127433 0.021757 -0.007251 965668.000000 1 0 0
-5.907131 -4.521067 15.283550 16.997681 0.653258 0.452961 0.023722 -0.008446 2629550.000000 1 0 0
-13.012331 0.067933 9.635450 16.191580 -0.005221 0.933419 -0.002043 -0.006952 1558760.000000 1 0 0
-14.476931 8.845633 10.387550 19.892912 -0.548480 1.021399 0.009288 -0.016969 -275682.000000 1 0 0
-8.326831 10.448233 12.884550 18.561070 -0.897911 0.803529 0.012722 -0.014440 -1186990.000000 1 0 0
-10.514631 7.194433 10.692150 16.632480 -0.600064 0.872586 0.007982 -0.009402 -860058.000000 1 0 0
-10.020631 -6.342067 14.813650 18.975750 0.564261 0.675072 0.017682 -0.007343 -576041.000000 1 0 0
-0.731531 -13.384267 14.430550 19.695545 1.516195 0.748544 0.012609 -0.013592 779630.000000 1 0 0
3.636969 -5.650167 16.866150 18.155411 -0.998868 0.379129 0.014270 -0.002074 2353800.000000 1 0 0
-7.309931 9.389933 10.360850 15.778249 -0.909312 0.854423 0.000608 -0.003955 1453990.000000 1 0 0
-10.413431 -6.514967 11.823650 17.049429 0.559053 0.804471 0.009142 -0.007518 1984440.000000 1 0 0
-10.980131 -3.770267 10.724950 15.805149 0.330758 0.824978 0.002493 -0.001807 428914.000000 1 0 0
-10.167231 -10.175067 9.863350 17.441051 0.785783 0.969727 0.011472 -0.005998 1593520.000000 1 0 0
-10.015331 -3.475467 15.218850 18.547213 0.334013 0.608430 0.023342 -0.010655 3939360.000000 1 0 0
5.527269 -3.463267 16.052150 17.326755 -0.559733 0.385961 0.019379 -0.002533 765196.000000 1 0 0
-11.297031 0.683033 15.339450 19.062743 -0.060388 0.635656 0.013853 -0.007826 89904.600000 1 0 0
-3.193031 3.186233 18.832650 19.365336 -0.784333 0.235092 0.023459 -0.011415 -2098250.000000 1 0 0
0.569569 7.360333 13.902050 15.740581 1.493567 0.488159 -0.001013 -0.002796 1928940.000000 1 0 0
-13.238631 -7.168067 12.244450 19.405388 0.496256 0.887978 0.001287 -0.006793 843559.000000 1 0 0
-1.592631 -1.139267 12.115350 12.272575 0.620945 0.160241 0.009531 -0.004451 805752.000000 1 0 0
1.969969 -4.810167 13.027750 14.026430 -1.182091 0.379635 0.006723 -0.003642 1204660.000000 1 0 0
-14.738931 -3.995367 8.578450 17.515389 0.264714 1.058974 0.000933 -0.011755 -3138410.000000 1 0 0
8.155469 0.889733 16.076850 18.049055 0.108667 0.471846 0.025119 -0.006676 2752010.000000 1 0 0
-1.161131 11.225533 13.414450 17.530211 -1.467726 0.699415 -0.007083 -0.004432 1782950.000000 1 0 0
2.701969 -12.359167 -13.839450 18.750467 -1.355562 2.401025 -0.011613 0.020437 -608948.000000 1 0 0
0.695169 -10.747767 -14.050150 17.703233 -1.506206 2.487580 -0.009429 0.012777 -2358320.000000 1 0 0
3.246369 -14.464867 -12.471650 19.373005 -1.350023 2.270204 -0.014385 0.021275 -1532810.000000 1 0 0
-5.040531 -10.251967 -16.136850 19.771386 1.113839 2.525551 0.009455 -0.004645 -525731.000000 1 0 0
-1.204631 -12.101267 -15.099750 19.387992 1.471577 2.463578 -0.003434 0.012068 78828.600000 1 0 0
5.773669 -15.067767 -12.220950 20.241652 -1.204873 2.218996 -0.006518 0.019554 1411780.000000 1 0 0
1.816069 -11.854367 -16.198450 20.154749 -1.418780 2.504290 -0.016317 0.012845 -671542.000000 1 0 0
1.146769 -14.348667 -13.999950 20.079789 -1.491044 2.342303 -0.006049 0.023494 -1018360.000000 1 0 0
-1.126831 -10.643467 -15.979350 19.232596 1.465319 2.551425 -0.000436 0.000684 -428923.000000 1 0 0
-5.839831 -5.445567 -15.217850 17.185482 0.750477 2.658379 0.011147 0.003786 106883.000000 1 0 0
-6.459031 -7.614067 -16.488750 19.276202 0.867289 2.597108 0.014573 0.003173 266051.000000 1 0 0
4.942769 -12.604567 -11.580650 17.816215 -1.197083 2.278389 -0.006856 0.017045 -315749.000000 1 0 0
-1.734531 -15.430867 -13.183150 20.369480 1.458860 2.274703 0.003244 0.004343 -47668.200000 1 0 0
15.648769 -7.387167 -8.626350 19.335670 -0.441047 2.033240 0.008164 0.003225 259052.000000 1 0 0
19.239569 -3.599967 -4.330950 20.046893 -0.184974 1.788554 0.024779 -0.013715 545663.000000 1 0 0
14.807369 -11.976067 -8.946250 21.040906 -0.680078 2.009961 0.012366 0.008306 304286.000000 1 0 0
17.951169 -3.578967 -6.500650 19.424519 -0.196792 1.912043 0.050278 -0.004715 711761.000000 1 0 0
9.475069 -9.180267 -15.434950 20.304973 -0.769597 2.434350 0.031008 -0.012058 147029.000000 1 0 0
1.340969 1.957733 -15.235150 15.418843 0.970236 2.987079 0.015965 -0.008066 609172.000000 1 0 0
4.861269 -4.348567 -13.943350 15.393472 -0.729787 2.704052 0.005385 -0.008465 -148944.000000 1 0 0
13.189169 -5.516367 -8.660450 16.714900 -0.396139 2.115457 0.019600 -0.001143 -1935440.000000 1 0 0
2.994869 0.935933 -12.264550 12.659558 0.302896 2.891129 0.010024 -0.004391 -3477120.000000 1 0 0
0.700769 6.402033 -13.084650 14.583730 1.461770 2.684204 0.019157 -0.002999 88639.900000 1 0 0
2.989269 -1.175867 -16.908750 17.211166 -0.374772 2.953856 0.018335 -0.012930 -100767.000000 1 0 0
13.208369 4.327133 -11.379550 17.963275 0.316587 2.256851 0.016104 -0.010156 1051660.000000 1 0 0
-3.841031 9.427133 -16.556450 19.435545 -1.183889 2.590331 0.016807 -0.005427 -518133.000000 1 0 0
-0.489331 -5.219567 -17.759750 18.517344 1.477320 2.854557 0.004295 -0.011593 59353.200000 1 0 0
-0.504731 -8.561067 -17.554650 19.537460 1.511908 2.687165 0.004252 -0.003240 -570106.000000 1 0 0
5.492069 -10.139167 -12.193650 16.782450 -1.074372 2.384115 -0.001744 0.004934 379094.000000 1 0 0
1.856569 -9.618367 -18.176450 20.648079 -1.380118 2.647285 -0.001570 -0.001828 -506173.000000 1 0 0
10.854669 8.703233 -14.612650 20.176710 0.675835 2.380719 0.033127 -0.019629 -758537.000000 1 0 0
11.060869 -3.720367 -12.902050 17.396748 -0.324467 2.406302 0.020477 -0.012721 504472.000000 1 0 0
4.917169 7.479833 -12.223450 15.150551 0.989243 2.509510 -0.002881 -0.002147 1347780.000000 1 0 0
9.570469 -5.854467 -12.511250 16.804762 -0.548994 2.410591 0.012933 -0.010621 -1322970.000000 1 0 0
-3.293831 0.437833 -15.837050 16.181878 -0.132150 2.934781 0.004021 -0.003206 255247.000000 1 0 0
-0.711631 10.781333 -12.792750 16.745089 -1.504886 2.440240 0.010729 -0.002692 -634158.000000 1 0 0
6.611969 -5.387567 -12.359450 15.016658 -0.683713 2.537555 0.007296 -0.005156 -980784.000000 1 0 0
17.942169 -6.049267 -8.214850 20.639739 -0.325185 1.980144 0.033965 -0.003587 2018710.000000 1 0 0
13.030269 4.796333 -13.864250 19.621675 0.352700 2.355447 0.010871 -0.020094 536742.000000 1 0 0
14.291569 0.813933 -11.457850 18.335587 0.056891 2.245796 0.027462 -0.008385 -296959.000000 1 0 0
15.172169 6.066433 -11.020750 19.709217 0.380368 2.164177 0.026534 -0.011804 188077.000000 1 0 0
8.370569 1.472633 -11.776950 14.523485 0.174148 2.516468 -0.000668 -0.000320 789813.000000 1 0 0
9.889369 1.283933 -9.042950 13.461911 0.129107 2.307356 0.003574 -0.000572 526126.000000 1 0 0
-0.149531 -5.744567 -12.983050 14.197958 1.544772 2.724896 0.001006 -0.003212 154756.000000 1 0 0
10.677069 -5.810267 -8.993550 15.120944 -0.498365 2.207781 0.013782 -0.002643 -1148900.000000 1 0 0
10.241169 8.450433 -11.255850 17.406479 0.689885 2.273977 0.019136 -0.015690 876574.000000 1 0 0
8.246069 8.106733 -14.573550 18.603901 0.776878 2.470849 0.023649 -0.012308 1500400.000000 1 0 0
8.664069 10.644833 -10.707850 17.407947 0.887624 2.233325 0.024287 -0.012107 -479808.000000 1 0 0
7.247469 1.518133 -17.966250 19.432362 0.206485 2.750657 0.023337 -0.002093 -2205840.000000 1 0 0
12.196369 2.605233 -12.790650 17.864473 0.210445 2.368827 0.018146 -0.013705 -937604.000000 1 0 0
2.438869 -1.210367 -19.495350 19.684556 -0.460669 3.002831 0.024322 -0.011558 -616209.000000 1 0 0
10.206969 -2.037767 -15.469850 18.645401 -0.197054 2.549343 0.018197 -0.016098 581172.000000 1 0 0
8.329269 -0.780767 -13.113550 15.554791 -0.093465 2.573735 0.010310 -0.007532 746420.000000 1 0 0
0.487869 4.314733 -14.673950 15.302933 1.458204 2.853889 0.017541 -0.006661 -40151.700000 1 0 0
3.924969 -7.546667 -15.571750 17.743646 -1.091204 2.641620 0.010899 -0.012667 -1430210.000000 1 0 0
11.474569 -5.817867 -14.344550 19.268612 -0.469250 2.410509 0.027765 -0.012307 -168029.000000 1 0 0
-5.929331 4.270733 -16.914050 18.425016 -0.624202 2.733788 0.014354 -0.000640 -370525.000000 1 0 0
11.477969 7.893133 -9.076050 16.625884 0.602407 2.148258 0.015744 -0.011863 58143.400000 1 0 0
9.643769 6.112033 -13.532250 17.705395 0.564889 2.440753 0.013277 -0.004686 1172630.000000 1 0 0
12.066569 0.632633 -10.213250 15.821276 0.052381 2.272525 0.008754 -0.003200 702591.000000 1 0 0
5.475169 -7.219967 -13.742150 16.460622 -0.921981 2.558657 0.005132 -0.003542 -957384.000000 1 0 0
8.559169 -10.146367 -10.706850 17.054172 -0.870047 2.249538 0.012332 0.002505 -52567.700000 1 0 0
10.060069 4.376133 -15.930750 19.342811 0.410310 2.538527 0.014761 -0.008393 -467048.000000 1 0 0
9.912669 -0.491267 -10.922150 14.757903 -0.049519 2.403998 0.007346 -0.005049 -611689.000000 1 0 0
-1.645231 5.477633 -13.996550 15.120009 -1.279014 2.753671 0.015112 -0.006353 -472978.000000 1 0 0
1.380169 -0.603067 -14.923450 14.999264 -0.411950 3.041007 0.012152 -0.009901 -999837.000000 1 0 0
11.530969 -10.295267 -14.242450 21.019114 -0.728843 2.315284 0.041969 -0.010957 1334410.000000 1 0 0
9.252169 -7.754167 -10.732750 16.153070 -0.697540 2.297541 0.015612 -0.001793 114046.000000 1 0 0
14.110869 -0.930267 -9.645550 17.117788 -0.065830 2.169390 0.017601 -0.002143 953743.000000 1 0 0
4.099069 11.088733 -12.310950 17.068153 1.216715 2.376448 0.007189 -0.009045 -585665.000000 1 0 0
-1.364131 2.881033 -17.175550 17.468850 -1.128583 2.958087 0.013547 -0.001886 -239692.000000 1 0 0
5.907269 -0.618067 -17.634450 18.607839 -0.104249 2.816714 0.017616 -0.007114 140960.000000 1 0 0
6.264369 -6.400667 -15.989250 18.326674 -0.796160 2.631006 0.009631 -0.011410 -6590.430000 1 0 0
-1.992231 -5.096667 -19.866950 20.606812 1.198169 2.872815 0.011878 -0.019582 -782659.000000 1 0 0
0.018469 -4.358667 -15.211650 15.823799 -1.566559 2.862532 0.003670 -0.010400 94411.600000 1 0 0
0.558069 0.862433 -12.955650 12.996311 0.996472 3.062469 0.009124 -0.006950 365401.000000 1 0 0
15.622469 0.766033 -13.626550 20.744426 0.048995 2.287467 0.020509 -0.012537 618273.000000 1 0 0
0.043469 7.068433 -16.378350 17.838581 1.564647 2.734162 0.018646 -0.008090 -181576.000000 1 0 0
-4.842831 -0.555167 -18.236050 18.876301 0.114139 2.880396 -0.007674 0.002620 -368249.000000 1 0 0
10.260269 -8.311467 -13.054450 18.568044 -0.680847 2.350488 0.015249 -0.011297 324205.000000 1 0 0
4.081169 8.754133 -17.031050 19.579261 1.134553 2.625698 0.006141 -0.017725 -523430.000000 1 0 0
9.511269 0.780733 -16.720550 19.252288 0.081901 2.622958 0.027398 -0.015391 320812.000000 1 0 0
3.395169 4.737233 -18.476950 19.374370 0.948951 2.836037 0.014962 -0.007196 -757112.000000 1 0 0
1.499869 -8.143467 -15.992250 18.008823 -1.388657 2.663824 -0.001389 -0.002491 -362890.000000 1 0 0
4.838469 7.546633 -14.851350 17.347191 1.000673 2.598519 -0.001094 -0.007870 360855.000000 1 0 0
-5.682631 -0.372867 -15.147950 16.183069 0.065521 2.781991 0.001611 0.000284 -33787.200000 1 0 0
2.789069 3.462633 -13.673150 14.377892 0.892725 2.827200 0.010460 -0.004337 -892386.000000 1 0 0
-2.211831 -10.361067 -18.277550 21.126115 1.360478 2.616273 -0.002859 0.004808 21558.500000 1 0 0
6.228969 -9.017167 -15.474250 18.962114 -0.966278 2.525360 0.007193 -0.003782 256267.000000 1 0 0
-1.691631 5.453133 -17.218050 18.139998 -1.269997 2.821404 0.016824 -0.010500 404501.000000 1 0 0
10.017269 -12.083867 -11.574450 19.502139 -0.878633 2.206193 0.028178 -0.000550 615922.000000 1 0 0
10.884169 3.645533 -9.410650 14.843025 0.323195 2.257526 0.001794 -0.002241 -1011140.000000 1 0 0
4.886169 -0.476267 -11.007950 12.053068 -0.097166 2.722087 0.004758 -0.007036 -341338.000000 1 0 0
6.392269 9.477433 -11.443050 16.174864 0.977409 2.356692 0.013366 -0.010158 32628.800000 1 0 0
10.886169 -9.571867 -9.520750 17.342837 -0.721243 2.151931 0.020876 0.002807 1235080.000000 1 0 0
3.302469 -2.393167 -14.576050 15.135877 -0.627085 2.868766 0.010333 -0.011037 72703.300000 1 0 0
9.236269 -4.437867 -14.668350 17.893122 -0.447912 2.531816 0.022454 -0.014194 92917.300000 1 0 0
-3.999831 -6.527667 -16.623550 18.301680 1.021054 2.710016 -0.001066 -0.000255 -670521.000000 1 0 0
5.894269 -7.703567 -11.296450 14.889497 -0.917679 2.432090 0.001902 -0.000486 129286.000000 1 0 0
5.574069 6.553233 -17.103350 19.145226 0.865964 2.675538 0.009921 -0.000391 -1611690.000000 1 0 0
9.406769 1.208933 -19.374950 21.571683 0.127817 2.686376 0.044781 -0.011097 419608.000000 1 0 0
13.111969 5.758033 -9.251750 17.049151 0.413789 2.144387 0.005182 -0.008838 1557460.000000 1 0 0
-1.623231 -0.762667 -17.291850 17.384609 0.439234 3.038244 0.008128 -0.007712 185820.000000 1 0 0
-0.636231 -0.538867 -19.629750 19.647449 0.702731 3.099144 0.016468 -0.012719 -407038.000000 1 0 0
3.067069 6.360933 -16.456550 17.907720 1.121512 2.736242 0.011972 -0.007564 125526.000000 1 0 0
7.532969 3.740833 -15.735050 17.841840 0.460920 2.650713 0.010259 -0.004282 -53375.900000 1 0 0
3.055269 -9.933067 -14.893050 18.160491 -1.272395 2.532347 -0.005236 0.004944 104582.000000 1 0 0
8.925969 -10.449167 -13.270150 19.103793 -0.863853 2.338708 0.024022 -0.004019 440480.000000 1 0 0
3.834169 0.160133 -14.927050 15.412440 0.041740 2.889958 0.011010 -0.011182 -1881340.000000 1 0 0
-1.313431 -2.927967 -18.774250 19.046537 1.149123 2.972300 0.017279 -0.013292 288985.000000 1 0 0
9.270669 10.042033 -13.118750 18.944375 0.825318 2.335728 0.034094 -0.017578 158129.000000 1 0 0
4.693469 2.071733 -10.769150 11.928760 0.415686 2.697006 0.000000 0.000072 266806.000000 1 0 0
-0.348931 6.986733 -18.907950 20.160525 -1.520896 2.787236 0.024126 -0.008897 241019.000000 1 0 0
0.631369 -1.824667 -17.676050 17.781192 -1.237673 3.032791 0.016912 -0.014434 -3196280.000000 1 0 0
-4.482531 -2.178367 -13.924350 14.789384 0.452359 2.797879 0.003920 -0.005339 -4063950.000000 1 0 0
10.091369 6.037733 -10.466450 15.742825 0.539173 2.298075 0.006811 -0.001462 210182.000000 1 0 0
8.313269 5.660833 -17.313050 20.022417 0.597819 2.615316 0.019024 -0.014181 -718433.000000 1 0 0
11.644269 0.222633 -13.537350 17.857727 0.019117 2.431140 0.018020 -0.005560 684695.000000 1 0 0
6.810169 11.948133 -11.941150 18.213384 1.052745 2.285806 0.024214 -0.013915 -578187.000000 1 0 0
-0.903031 0.642533 -15.150250 15.190734 -0.618422 3.068569 0.009729 -0.008461 -1486820.000000 1 0 0
-4.485231 -3.069067 -18.893450 19.659576 0.600084 2.861502 -0.002861 0.001807 -224256.000000 1 0 0
5.720669 -11.904667 -13.996250 19.244276 -1.122838 2.385168 -0.005971 0.011350 23784.500000 1 0 0
2.178669 -4.777467 -14.056650 15.005339 -1.142939 2.784098 0.005873 -0.006074 1053540.000000 1 0 0
11.936369 1.991633 -15.342750 19.540816 0.165331 2.473758 0.026893 -0.013166 520725.000000 1 0 0
9.808769 2.158233 -13.808850 17.074960 0.216580 2.512768 0.010675 -0.009077 -976178.000000 1 0 0
-2.341531 -4.174667 -16.319750 17.007200 1.059630 2.856298 0.000429 -0.007963 -125639.000000 1 0 0
-2.755831 10.089933 -14.335950 17.746009 -1.304172 2.511276 0.014044 -0.005655 382116.000000 1 0 0
3.494769 5.782333 -13.465750 15.065696 1.027157 2.676549 0.004601 -0.001697 -99350.000000 1 0 0
-4.981031 -2.540167 -16.421150 17.346968 0.471590 2.813409 -0.007724 0.001865 157449.000000 1 0 0
-4.242231 6.244933 -13.618050 15.570710 -0.974093 2.635394 0.006763 -0.002716 -311994.000000 1 0 0
5.939869 -1.111067 -14.118750 15.357591 -0.184916 2.737180 0.009308 -0.004889 -1358830.000000 1 0 0
6.724069 -2.870967 -12.588850 14.557977 -0.403537 2.615427 0.006218 -0.009033 1185770.000000 1 0 0
2.762469 -3.391867 -18.223450 18.741135 -0.887313 2.906004 0.027638 -0.022817 864907.000000 1 0 0
7.401469 -11.986267 -12.066150 18.548432 -1.017612 2.279067 0.008463 0.009147 -1392480.000000 1 0 0
-6.226431 -5.414567 -17.678150 19.509048 0.715769 2.704890 0.023219 0.001411 411496.000000 1 0 0
0.590569 8.673733 -12.061050 14.867796 1.502814 2.517031 0.009496 0.000763 402594.000000 1 0 0
0.394769 8.701333 -14.532250 16.942707 1.525459 2.601632 0.009493 -0.003453 -238404.000000 1 0 0
7.616869 -2.546767 -15.060950 17.068536 -0.322673 2.651695 0.015397 -0.016620 -32182.800000 1 0 0
14.277469 1.516433 -8.876050 16.879868 0.105815 2.124495 0.010178 -0.000301 213825.000000 1 0 0
2.906669 10.625333 -14.639450 18.321024 1.303769 2.496513 0.006104 -0.006802 -375194.000000 1 0 0
6.235869 0.921833 -15.584850 16.811406 0.146765 2.757237 0.016306 -0.008638 526085.000000 1 0 0
16.494469 -5.631767 -10.388150 20.290342 -0.329023 2.108279 0.037166 -0.006867 486031.000000 1 0 0
4.890369 -4.170067 -11.197850 12.911120 -0.706065 2.620554 0.000973 -0.002849 -562256.000000 1 0 0
8.768869 -3.603367 -17.099050 19.551338 -0.389891 2.635348 0.014566 -0.017887 401219.000000 1 0 0
13.429169 -9.747367 -9.026350 18.889911 -0.627856 2.068990 0.021092 0.006635 130212.000000 1 0 0
2.194769 -7.858567 -13.496150 15.770864 -1.298452 2.597824 -0.000922 -0.000556 186802.000000 1 0 0
-6.802231 -2.184567 -18.264150 19.611779 0.310750 2.768720 -0.004059 0.001030 -2294830.000000 1 0 0
-1.537831 -6.507567 -15.740750 17.102180 1.338739 2.739884 0.000661 -0.004958 -619619.000000 1 0 0
1.625269 -7.088067 -18.213550 19.611619 -1.345396 2.761721 0.019043 -0.025394 -688209.000000 1 0 0
5.553869 10.909033 -14.469350 18.952956 1.099889 2.439411 0.012196 -0.018012 1137510.000000 1 0 0
5.329369 -3.360167 -17.410050 18.514933 -0.562545 2.794380 0.019790 -0.019438 -354962.000000 1 0 0
4.014169 12.984033 -14.056850 19.552332 1.270955 2.373065 0.012512 -0.011552 -334124.000000 1 0 0
9.123369 10.377033 -15.664650 20.887794 0.849599 2.418772 0.040333 -0.021589 410830.000000 1 0 0
2.621469 3.888333 -16.222450 16.886655 0.977604 2.860190 0.014535 -0.008536 374601.000000 1 0 0
16.719469 1.794433 -11.569250 20.410982 0.106917 2.173431 0.030175 -0.005249 -673495.000000 1 0 0
10.103469 -3.751167 -10.420450 14.991235 -0.355501 2.339359 0.013862 -0.006353 -951495.000000 1 0 0
14.727369 -2.088067 -11.939550 19.073759 -0.140843 2.247168 0.035087 -0.010303 56782.000000 1 0 0
-2.790931 -8.702667 -16.291250 18.679682 1.260460 2.630350 0.001417 0.007133 44679.500000 1 0 0
14.050169 8.173033 -8.867250 18.515773 0.526858 2.070200 0.031060 -0.008791 340325.000000 1 0 0
-8.182231 0.430433 -16.608750 18.519848 -0.052557 2.683298 0.001950 0.002998 -99628.100000 1 0 0
-3.490931 3.894733 -16.007650 16.840440 -0.840018 2.825793 0.008528 -0.001800 -1696390.000000 1 0 0
15.077469 3.929933 -9.644950 18.324833 0.254976 2.125077 0.013182 -0.003710 3128.000000 1 0 0
5.394869 1.118433 -13.097850 14.209475 0.204418 2.743414 0.007175 -0.002984 370229.000000 1 0 0
7.810469 -7.697067 -12.974450 16.987778 -0.778086 2.439902 0.011832 -0.003251 -3339880.000000 1 0 0
3.137469 -6.055667 -11.958050 13.766255 -1.092770 2.623266 0.001299 -0.002805 -1182130.000000 1 0 0
-3.213931 3.870533 -18.574450 19.243715 -0.877816 2.877086 0.013332 0.002200 -275314.000000 1 0 0
0.920569 5.066433 -17.692450 18.426584 1.391058 2.858367 0.018075 -0.015921 -457790.000000 1 0 0
6.408069 7.094233 -10.127950 13.927199 0.836173 2.385040 0.003233 -0.001301 -178953.000000 1 0 0
9.730769 3.778633 -11.780750 15.740140 0.370395 2.416522 0.006827 -0.004456 20962.200000 1 0 0
4.660769 1.648733 -17.535050 18.218646 0.340009 2.866788 0.017503 -0.006445 -728092.000000 1 0 0
2.660769 8.117033 -13.483250 15.961327 1.254033 2.576885 0.000218 -0.000076 -610695.000000 1 0 0
14.380469 -3.547767 -9.800450 17.760444 -0.241877 2.155333 0.026081 -0.002774 311535.000000 1 0 0
-1.270231 9.331633 -16.351650 18.869799 -1.435507 2.619047 0.018857 -0.004803 -1711690.000000 1 0 0
-5.200931 2.105733 -15.918750 16.878697 -0.384703 2.802710 0.012063 -0.001735 542096.000000 1 0 0
4.532869 4.242433 -11.829450 13.359679 0.752313 2.658277 0.000867 -0.000230 364916.000000 1 0 0
9.036469 3.130633 -17.819050 20.223184 0.333504 2.649022 0.010918 -0.003159 982374.000000 1 0 0
-4.311931 14.375233 -13.353950 20.089003 -1.279380 2.297941 0.013745 -0.004395 -328067.000000 1 0 0
15.548369 -4.852767 -8.038450 18.163640 -0.302528 2.029245 0.026211 -0.003505 -108555.000000 1 0 0
1.249469 9.495633 -16.895050 19.420889 1.439964 2.625881 0.012166 -0.001664 -327938.000000 1 0 0
0.477669 -3.163967 -12.874650 13.266328 -1.420956 2.897992 0.002010 -0.004847 167047.000000 1 0 0
7.581469 3.494633 -13.177850 15.599579 0.431918 2.576907 0.003894 -0.000665 300949.000000 1 0 0
-2.807231 7.556633 -15.166850 17.176047 -1.215104 2.653062 0.012418 -0.004631 376021.000000 1 0 0
12.095069 -5.132667 -11.067250 17.179027 -0.401329 2.270813 0.028627 -0.005513 -1617580.000000 1 0 0
0.507569 -4.625067 -19.954650 20.489923 -1.461491 2.912515 0.022657 -0.019410 -850818.000000 1 0 0
3.446369 -4.606467 -16.137950 17.132730 -0.928475 2.799149 0.017392 -0.016438 690087.000000 1 0 0
-5.648731 4.162333 -14.388050 16.007784 -0.635039 2.687857 0.006438 -0.004323 867980.000000 1 0 0
12.423869 -7.547167 -9.894450 17.584436 -0.545896 2.168423 0.024106 0.002981 735808.000000 1 0 0
-1.994631 -1.747967 -14.911250 15.145274 0.719586 2.965571 0.004388 -0.003397 697155.000000 1 0 0
7.107769 5.865633 -14.312050 17.022362 0.689944 2.569517 0.009648 -0.003106 -628186.000000 1 0 0
4.366369 -5.574467 -18.384550 19.701054 -0.906334 2.773947 0.028232 -0.020840 -53362.300000 1 0 0
7.631369 7.335633 -12.255950 16.194370 0.765642 2.429205 0.008662 -0.007352 -793039.000000 1 0 0
12.333869 -2.511167 -11.012550 16.724429 -0.200854 2.289582 0.021996 -0.008195 -810464.000000 1 0 0
7.434269 -0.687167 -10.757850 13.094728 -0.092170 2.534904 0.003247 -0.005119 -2984140.000000 1 0 0
5.272269 4.013433 -14.394950 15.846736 0.650653 2.710204 0.005594 -0.002200 1564660.000000 1 0 0
14.765569 2.947633 -12.951350 19.860716 0.197039 2.281159 0.020450 -0.016426 -1078970.000000 1 0 0
-6.663331 6.646233 -15.909350 18.484583 -0.784114 2.607404 0.012280 0.000027 633433.000000 1 0 0
-11.215431 3.954433 -16.404750 20.261768 -0.338979 2.514336 0.018449 -0.012474 299439.000000 1 0 0
-5.225631 6.583733 -18.146550 19.998751 -0.899897 2.707814 0.017035 0.012525 817143.000000 1 0 0
-10.085831 1.673033 -15.553250 18.612539 -0.164383 2.560080 0.017555 -0.003325 -237721.000000 1 0 0
-7.755031 5.829633 -18.047150 20.489626 -0.644603 2.648334 0.008163 -0.001462 204860.000000 1 0 0
-8.721531 3.904233 -15.521150 18.226745 -0.420902 2.589748 0.004424 -0.001780 -713366.000000 1 0 0
8.883069 13.546033 -12.132650 20.238704 0.990376 2.213645 0.048860 -0.015875 -300944.000000 1 0 0
13.958369 8.941633 -11.341650 20.085365 0.569734 2.170833 0.034038 -0.017501 504023.000000 1 0 0
8.527069 15.769033 -9.047250 20.080489 1.075084 2.038177 0.032975 -0.010153 -11126.900000 1 0 0
6.886369 13.750433 -13.935650 20.753285 1.106500 2.307016 0.037238 -0.008849 -347454.000000 1 0 0
4.983369 16.162033 -12.523050 21.044526 1.271708 2.208154 0.029636 -0.008799 53786.300000 1 0 0
11.117069 10.919733 -11.552350 19.398108 0.776444 2.208734 0.042096 -0.016359 -255018.000000 1 0 0
15.833869 9.743533 -9.814150 21.022973 0.551637 2.056499 0.043528 -0.000311 -763822.000000 1 0 0
13.378769 10.690333 -9.470950 19.569711 0.674163 2.075970 0.055974 -0.012722 247394.000000 1 0 0
10.481169 11.694533 -8.309650 17.767028 0.840060 2.057484 0.020357 -0.002464 -38170.100000 1 0 0
5.344769 16.251033 -9.960150 19.795636 1.253052 2.098035 0.016152 -0.005775 -168065.000000 1 0 0
6.735569 14.556433 -11.403750 19.680019 1.137414 2.188860 0.024469 -0.004904 -680099.000000 1 0 0
10.801969 13.805433 -9.832750 20.098644 0.906853 2.081997 0.036553 -0.006665 -507026.000000 1 0 0
8.031169 -18.669967 -1.358550 20.369413 -1.164559 1.637541 0.027744 0.002412 1562.020000 1 0 0
7.130469 -17.378267 -3.365150 19.083291 -1.181434 1.748063 0.018806 -0.001025 639386.000000 1 0 0
4.634769 -18.135567 5.634350 19.548038 -1.320589 1.278417 0.028302 -0.003643 297870.000000 1 0 0
9.765369 -17.282667 -2.687450 20.031859 -1.056481 1.705361 0.027765 0.002027 -6444.090000 1 0 0
-9.768031 -12.295267 -10.000650 18.617224 0.899446 2.137877 0.027646 -0.009618 -908701.000000 1 0 0
-5.108431 -7.029567 -12.093650 14.891852 0.942371 2.518536 0.005387 -0.000196 311180.000000 1 0 0
-10.814131 -9.461067 -5.559850 15.406789 0.718762 1.939997 0.008073 -0.002968 -1360070.000000 1 0 0
-4.608731 -11.492267 -13.933650 18.640258 1.189403 2.415091 0.015743 -0.000372 252026.000000 1 0 0
-2.779231 -15.570967 7.442850 17.480708 1.394168 1.130978 0.009140 -0.002109 3024.540000 1 0 0
-4.841131 -12.035567 -11.462950 17.311575 1.188364 2.294487 0.011837 -0.000040 195879.000000 1 0 0
-14.195531 -12.827567 -4.005350 19.547440 0.734819 1.777162 -0.000554 -0.004046 -209974.000000 1 0 0
-3.198731 -12.271267 -3.322050 13.109229 1.315802 1.827003 0.006449 -0.000768 894485.000000 1 0 0
-2.455331 -17.435467 -1.550950 17.675678 1.430892 1.658654 0.005609 -0.008435 -1358130.000000 1 0 0
-5.814331 -12.255067 3.799850 14.086588 1.127803 1.297663 0.004328 0.001743 100404.000000 1 0 0
-8.980231 -10.782867 -11.953750 18.433852 0.876359 2.276366 0.026401 -0.000205 34734.700000 1 0 0
-9.911031 -11.878067 -7.472750 17.180192 0.875430 2.020794 0.013457 -0.009942 -141002.000000 1 0 0
-10.965831 -15.059067 6.261350 19.652721 0.941402 1.246545 0.008261 -0.002158 -749745.000000 1 0 0
-9.449731 -15.667667 0.776050 18.313259 1.028074 1.528407 0.008883 0.000313 -2824610.000000 1 0 0
-14.828731 -7.861367 -8.213950 18.685859 0.487471 2.025929 -0.007772 0.001882 -28218.700000 1 0 0
-2.328631 -16.577867 4.964050 17.461099 1.431243 1.282529 0.015631 -0.002060 318819.000000 1 0 0
4.339969 -15.521467 6.006350 17.199637 -1.298149 1.214064 0.022287 -0.011890 -659137.000000 1 0 0
4.215969 -14.663267 -10.099250 18.297012 -1.290829 2.155511 -0.007244 0.016104 76679.600000 1 0 0
-7.531631 -14.026167 -0.094150 15.920669 1.078012 1.576710 0.004047 -0.001232 1103650.000000 1 0 0
2.838469 -14.834867 9.496950 17.841587 -1.381744 1.009490 0.022287 -0.016491 -1050320.000000 1 0 0
2.308369 -17.222167 10.169650 20.133390 -1.437556 1.041283 0.045188 -0.017190 -713533.000000 1 0 0
-8.125531 -17.227267 -5.575450 19.846628 1.130071 1.855556 0.015404 -0.004532 -326926.000000 1 0 0
-6.591831 -9.102467 -7.723550 13.636729 0.944025 2.172901 0.008630 -0.001323 278128.000000 1 0 0
-6.049731 -13.095067 -4.746450 15.185810 1.138020 1.888681 0.001669 -0.004167 214032.000000 1 0 0
2.277969 -19.372167 -4.848250 20.099142 -1.453744 1.814416 0.004182 -0.010224 38713.300000 1 0 0
-5.618631 -12.916267 8.337150 16.367866 1.160483 1.036354 0.014749 -0.004839 1004890.000000 1 0 0
2.221069 -17.576367 3.360450 18.032039 -1.445096 1.383340 0.013275 -0.009680 -321377.000000 1 0 0
-17.522731 -10.329367 -2.359350 20.477023 0.532651 1.686272 -0.000251 0.004127 323588.000000 1 0 0
-3.714631 -15.407967 2.613050 16.063373 1.334226 1.407399 0.012873 -0.003741 -53516.400000 1 0 0
-10.230431 -10.370867 -14.248150 20.377104 0.792215 2.345107 0.029267 -0.000150 -134751.000000 1 0 0
6.130069 -14.659067 -5.711650 16.884577 -1.174720 1.915881 -0.004123 0.002149 265532.000000 1 0 0
-7.325431 -12.326667 -10.656750 17.865469 1.034597 2.209929 0.018313 -0.011046 -1188170.000000 1 0 0
-7.371131 -14.308667 3.851950 16.550198 1.095101 1.335899 0.011609 -0.001915 831092.000000 1 0 0
3.204069 -14.947467 -3.164650 15.611145 -1.359636 1.774928 -0.000978 -0.002738 -958209.000000 1 0 0
-7.609631 -11.285767 7.698550 15.637861 0.977550 1.056064 0.007174 -0.009377 -1085990.000000 1 0 0
-12.671031 -12.472867 -1.151850 17.817244 0.777517 1.635489 -0.003999 0.010296 -1255920.000000 1 0 0
-1.840931 -13.707367 3.935850 14.379564 1.437293 1.293547 0.002151 -0.000143 -3572240.000000 1 0 0
-3.091031 -14.050767 5.255350 15.316567 1.354255 1.220565 0.006061 -0.002603 236273.000000 1 0 0
-14.364831 -10.284067 -4.503150 18.231532 0.621331 1.820377 -0.003577 -0.000085 850087.000000 1 0 0
-6.297831 -8.669867 -10.410750 14.940314 0.942568 2.341754 0.010935 -0.000912 222349.000000 1 0 0
0.912769 -19.502167 2.229650 19.650420 -1.524027 1.457086 0.016789 -0.014026 57765.400000 1 0 0
6.478669 -14.146867 -8.275050 17.623378 -1.141344 2.059577 -0.002258 0.011313 -2485780.000000 1 0 0
-3.954031 -16.682267 -5.968750 18.153743 1.338071 1.905817 0.003866 -0.007037 -282651.000000 1 0 0
-3.572831 -13.593267 -13.176750 19.265741 1.313772 2.323956 0.015936 0.001585 -1215760.000000 1 0 0
-8.191231 -14.704367 -4.474150 17.416449 1.062548 1.830601 0.006302 -0.004815 -403951.000000 1 0 0
-4.661931 -14.196767 10.323350 18.161865 1.253511 0.966227 0.014850 -0.008422 -1219080.000000 1 0 0
-0.328931 -12.141967 -9.900750 15.670367 1.543713 2.254687 -0.000347 0.004080 825380.000000 1 0 0
2.449569 -17.196567 6.777450 18.645539 -1.429303 1.198786 0.022007 -0.013540 -2121250.000000 1 0 0
-2.786631 -19.160067 -3.546850 19.683842 1.426369 1.751977 0.008061 -0.009262 -781216.000000 1 0 0
0.685669 -15.471067 -3.165250 15.806418 -1.526506 1.772410 0.000920 -0.003478 -1190520.000000 1 0 0
5.941469 -18.036267 0.560050 18.997938 -1.252574 1.541313 0.017900 -0.003049 -273980.000000 1 0 0
-7.098131 -16.745167 3.954750 18.612472 1.169865 1.356686 0.013425 -0.000101 659515.000000 1 0 0
-5.311931 -13.502367 -9.508050 17.347436 1.195986 2.150882 0.011968 -0.004565 -152888.000000 1 0 0
5.587269 -15.250267 -2.124150 16.379873 -1.219611 1.700843 0.006853 0.000443 -1151480.000000 1 0 0
-8.896131 -10.290767 -0.494750 13.611973 0.857957 1.607151 -0.002356 0.002891 1472040.000000 1 0 0
-7.406431 -18.463667 -2.812950 20.091663 1.189312 1.711264 0.014558 -0.008395 -301076.000000 1 0 0
7.893669 -16.073167 -1.212850 17.947917 -1.114287 1.638424 0.012370 0.002531 -160456.000000 1 0 0
-8.205031 -10.165367 -9.530750 16.170727 0.891708 2.201091 0.017570 -0.003602 -1362950.000000 1 0 0
-9.002931 -15.183967 -6.929150 18.963616 1.035596 1.944850 0.013061 -0.007612 -448002.000000 1 0 0
-11.524231 -10.505867 -11.973750 19.660921 0.739205 2.225612 0.030047 0.004265 -621257.000000 1 0 0
6.531869 -16.340467 2.405350 17.761247 -1.190518 1.434952 0.014608 -0.004879 627671.000000 1 0 0
-2.269131 -11.100467 -6.166250 12.899301 1.369157 2.069207 0.007355 -0.001689 -851095.000000 1 0 0
-12.110631 -15.497867 -3.255350 19.936112 0.907476 1.734820 0.002567 -0.001324 -34938.800000 1 0 0
-0.258731 -19.546867 -2.693350 19.733248 1.557561 1.707712 0.013456 -0.021132 -301411.000000 1 0 0
-5.808031 -15.621367 -4.648550 17.302293 1.214834 1.842805 0.002842 -0.006080 -3068500.000000 1 0 0
1.940369 -15.964867 -1.040150 16.115952 -1.449850 1.635383 0.003361 -0.008107 -112032.000000 1 0 0
-13.279431 -11.821467 5.316950 18.556948 0.727379 1.280203 0.011796 0.000581 150408.000000 1 0 0
2.095369 -15.346267 -8.890650 17.858951 -1.435096 2.091887 -0.001982 0.015676 -1964650.000000 1 0 0
-11.709931 -16.735967 -0.013450 20.425848 0.960281 1.571455 0.018224 -0.001777 437577.000000 1 0 0
-7.756631 -16.583867 -0.990450 18.334965 1.133303 1.624842 0.011112 -0.003281 402148.000000 1 0 0
-3.033731 -14.552067 -1.848450 14.979417 1.365266 1.694511 0.007189 -0.003836 337383.000000 1 0 0
-1.832431 -10.419167 -13.266550 16.968152 1.396706 2.468424 0.001563 0.006778 -252505.000000 1 0 0
1.309169 -19.548767 4.825450 20.178037 -1.503927 1.329312 0.030277 -0.014825 -59673.500000 1 0 0
-17.366231 -9.459567 2.405750 19.921271 0.498773 1.449738 -0.003822 0.000214 -248009.000000 1 0 0
-2.713431 -15.602867 -8.029850 17.756426 1.398612 2.040052 0.001004 -0.001220 -852362.000000 1 0 0
-10.536531 -12.181567 0.291150 16.108812 0.857683 1.552721 0.000293 0.005172 388599.000000 1 0 0
-6.850331 -11.473267 -6.613650 14.909838 1.032535 2.030381 0.004648 -0.004894 38156.600000 1 0 0
-2.087031 -13.541467 -6.734250 15.266864 1.417878 2.027623 0.000498 0.002029 402086.000000 1 0 0
-14.397131 -14.479867 -1.016750 20.444503 0.788263 1.620549 0.022721 0.004042 462844.000000 1 0 0
-9.450731 -11.364767 -4.473450 15.442992 0.877093 1.864684 0.005641 -0.003137 309961.000000 1 0 0
9.507069 -15.315867 -5.101550 18.734619 -1.015271 1.846585 0.013146 0.004578 263974.000000 1 0 0
-5.667931 -10.867467 -9.356250 15.419685 1.090057 2.222791 0.010072 -0.002750 129935.000000 1 0 0
-10.352831 -16.129067 -4.956950 19.796446 1.000155 1.823886 0.013602 -0.001967 -1656440.000000 1 0 0
2.410469 -17.409067 -3.206050 17.865182 -1.433211 1.751232 0.008020 -0.006792 578789.000000 1 0 0
-0.283431 -14.534067 -8.151450 16.666301 1.551298 2.081851 0.003060 0.004578 -707561.000000 1 0 0
-0.467131 -18.372567 -7.034250 19.678671 1.545376 1.936338 0.004031 -0.001122 131137.000000 1 0 0
-1.797331 -9.988067 -10.570450 14.653542 1.392754 2.376558 0.001720 0.003369 254763.000000 1 0 0
-5.103931 -17.307467 2.013250 18.156313 1.284027 1.459684 0.011612 -0.007342 685196.000000 1 0 0
0.286269 -12.907967 -2.653050 13.180904 -1.548622 1.773461 0.006418 -0.002837 -1367030.000000 1 0 0
2.629169 -15.029467 3.038150 15.557241 -1.397614 1.374245 0.010160 -0.003134 -1526180.000000 1 0 0
-9.499131 -13.078167 6.839350 17.551315 0.942614 1.170515 0.002544 -0.001709 -230169.000000 1 0 0
-0.788731 -17.817967 -4.428750 18.377047 1.526559 1.814186 0.004706 -0.007998 -89930.600000 1 0 0
-9.796731 -17.789967 -2.215450 20.429564 1.067425 1.679453 0.019307 -0.000816 -223405.000000 1 0 0
1.297469 -16.284367 1.420650 16.397630 -1.491289 1.484050 0.003793 -0.010468 -146957.000000 1 0 0
-0.392531 -17.921267 3.819650 18.328001 1.548897 1.360852 0.018040 -0.018390 12449.800000 1 0 0
-17.362231 -9.218767 -0.100850 19.658151 0.488113 1.575927 -0.007204 0.003532 447579.000000 1 0 0
-14.893631 -7.197467 -10.650650 19.673844 0.450165 2.142851 0.011733 -0.002439 520726.000000 1 0 0
2.842069 -12.713767 -8.846950 15.747563 -1.350869 2.167354 -0.007580 0.008943 411582.000000 1 0 0
-11.665631 -14.765067 1.634250 18.888222 0.902132 1.484166 0.002959 0.001396 -212824.000000 1 0 0
-2.508831 -15.528067 10.627250 18.982980 1.410613 0.976615 0.027827 -0.009970 -62628.000000 1 0 0
-7.058431 -15.910167 1.458550 17.466603 1.153242 1.487194 0.012240 -0.001903 -1284790.000000 1 0 0
-12.583731 -15.140567 -5.784150 20.519343 0.877362 1.856557 0.013831 -0.004876 -355918.000000 1 0 0
0.894169 -13.768267 -5.045850 14.690994 -1.505943 1.921401 0.003418 0.000690 31465.100000 1 0 0
5.917169 -16.530167 -7.510350 19.096195 -1.227046 1.975004 0.006210 0.003163 25919.000000 1 0 0
-6.584931 -12.937167 6.008950 15.711113 1.099980 1.178334 0.010465 -0.001983 315870.000000 1 0 0
-2.543131 -13.632367 0.581850 13.879751 1.386365 1.528863 0.010212 -0.002273 2741430.000000 1 0 0
-4.313631 -15.569767 0.137750 16.156857 1.300524 1.562270 0.009704 -0.004876 190972.000000 1 0 0
-17.684431 -7.802967 -2.335750 19.470006 0.415540 1.691053 -0.005900 0.005254 477197.000000 1 0 0
1.298069 -12.756167 -11.904550 17.496374 -1.469385 2.319106 -0.003723 0.014679 -495768.000000 1 0 0
1.380969 -17.060067 -5.678550 18.033272 -1.490025 1.891140 0.005873 -0.004340 391255.000000 1 0 0
-12.836231 -6.485167 -9.098350 17.017820 0.467818 2.134874 0.008688 0.001200 204840.000000 1 0 0
-11.560131 -13.553167 -8.664150 19.808899 0.864594 2.023487 0.027096 -0.015346 -49406.800000 1 0 0
-4.269431 -10.001667 3.614350 11.459708 1.167341 1.249922 0.011306 -0.000402 -3736010.000000 1 0 0
-7.172831 -14.317067 9.797150 18.772641 1.106350 1.021738 0.010670 -0.007512 -1366700.000000 1 0 0
-5.301331 -15.878467 -8.152150 18.619543 1.248564 2.023977 0.007336 -0.007278 -1871810.000000 1 0 0
-0.244431 -13.446067 2.101550 13.611502 1.552620 1.415781 0.004381 -0.003915 596854.000000 1 0 0
-10.835231 -13.532767 -4.636350 17.945299 0.895649 1.832121 0.012357 -0.000581 -993720.000000 1 0 0
-9.856731 -10.503067 6.676150 15.875785 0.817133 1.136773 0.011611 -0.000809 -443271.000000 1 0 0
-15.503831 -8.050467 -4.816650 18.121228 0.478934 1.839832 0.004041 0.004382 104698.000000 1 0 0
-14.524831 -7.305567 5.428050 17.140763 0.466021 1.248574 -0.002914 -0.004197 199563.000000 1 0 0
-1.705231 -19.309567 0.052350 19.384786 1.482715 1.568096 0.017532 -0.015932 -385965.000000 1 0 0
-15.265231 -12.037167 -1.276550 19.482049 0.667711 1.636368 -0.004687 0.008076 -405677.000000 1 0 0
-4.410731 -12.143967 -6.774550 14.588523 1.222408 2.053725 0.004677 -0.003531 -215631.000000 1 0 0
-7.476731 -18.465967 2.017450 20.024074 1.186079 1.469874 0.019993 -0.001073 84527.900000 1 0 0
-2.626531 -11.615767 -8.635250 14.710277 1.348418 2.198171 0.004114 0.002468 482434.000000 1 0 0
-1.016331 -20.389867 -4.976150 21.012893 1.520993 1.809882 0.002303 -0.002480 -200035.000000 1 0 0
-5.407831 -8.985967 -13.767350 17.306998 1.029048 2.490594 0.011979 -0.000955 580071.000000 1 0 0
-8.506631 -19.129467 -0.547550 20.942757 1.152369 1.596944 0.017161 0.001396 -188134.000000 1 0 0
-17.055031 -7.293567 5.740950 19.417227 0.404112 1.270647 -0.005286 -0.004931 -49139.900000 1 0 0
-3.545331 -14.683267 -4.317150 15.710044 1.333877 1.849180 0.002324 -0.003433 -2330300.000000 1 0 0
-2.886731 -14.841567 -10.929650 18.656435 1.378692 2.196710 0.006424 0.001997 -548766.000000 1 0 0
-0.048631 -16.857767 6.171950 17.952149 1.567912 1.219836 0.031290 -0.009857 -1063380.000000 1 0 0
-11.142131 -11.603067 3.871450 16.545887 0.805661 1.334624 0.003748 0.000493 -975909.000000 1 0 0
-0.182031 -14.686167 -0.163350 14.688203 1.558402 1.581918 0.003023 -0.003896 958703.000000 1 0 0
-7.235831 -9.600467 -2.440150 12.267051 0.924934 1.771051 0.005875 0.000287 77544.300000 1 0 0
-11.037831 -14.456567 -0.875750 18.209695 0.918700 1.618907 0.000257 -0.002019 88169.600000 1 0 0
0.260669 -14.668967 -10.603550 18.101984 -1.553028 2.196623 -0.005314 0.011199 -281108.000000 1 0 0
-1.398231 -14.094967 -3.891450 14.688993 1.471919 1.838920 0.005030 -0.002768 -4824900.000000 1 0 0
-11.331231 -8.082267 -7.594450 15.855457 0.619579 2.070289 0.011615 -0.003080 568383.000000 1 0 0
-0.195431 -17.283467 -0.406650 17.289355 1.559489 1.594319 0.004867 -0.011764 -896323.000000 1 0 0
-12.825431 -9.473267 4.666650 16.613612 0.636185 1.286072 0.001141 0.003173 -725224.000000 1 0 0
3.960369 -16.832767 1.573850 17.363858 -1.339722 1.480032 0.013157 -0.009610 679355.000000 1 0 0
-3.799131 -17.896967 -8.148650 20.028363 1.361623 1.989805 0.006239 -0.007375 40360.300000 1 0 0
-13.328731 -11.189767 2.653250 17.604138 0.698380 1.419502 -0.009041 0.003659 -1116880.000000 1 0 0
-8.535131 -12.127367 4.276950 15.434176 0.957531 1.290012 0.008249 -0.001125 686901.000000 1 0 0
-8.309231 -9.415167 -5.811450 13.836966 0.847714 2.004236 0.007286 -0.002873 -1501660.000000 1 0 0
4.051369 -17.491267 -5.306150 18.721999 -1.343188 1.858153 -0.002867 0.005004 -753789.000000 1 0 0
-2.650231 -13.023267 11.376050 17.494105 1.370038 0.862845 0.010298 -0.012572 137771.000000 1 0 0
0.119169 -16.862767 -9.384650 19.298673 -1.563729 2.078629 0.004005 0.009463 -2477.790000 1 0 0
-7.064631 -10.700967 -14.611450 19.440015 0.987294 2.421307 0.023097 0.004528 -932356.000000 1 0 0
-4.486831 -19.082067 -1.593250 19.667114 1.339858 1.651896 0.014108 -0.008941 137994.000000 1 0 0
-2.472231 -17.151967 1.109150 17.364680 1.427645 1.506879 0.016292 -0.012979 1210230.000000 1 0 0
4.050169 -14.598667 -7.487750 16.899448 -1.300169 2.029824 -0.005011 0.005811 991937.000000 1 0 0
-1.037231 -16.002667 -6.187650 17.188607 1.506071 1.939049 0.000453 0.001883 -205349.000000 1 0 0
-9.500331 -15.227667 8.385750 19.810576 1.012998 1.133715 0.003419 0.000329 -579095.000000 1 0 0
-7.257631 -12.069567 -1.714950 14.187625 1.029409 1.691969 -0.000265 0.000917 756159.000000 1 0 0
-7.357631 -15.143067 -9.364450 19.264998 1.118513 2.078402 0.019431 -0.006990 -962849.000000 1 0 0
-4.988231 -13.241367 -0.568450 14.161193 1.210522 1.610949 0.006726 -0.001010 2519540.000000 1 0 0
-6.472131 -13.834067 -7.266150 16.913510 1.133206 2.014853 0.005922 -0.004829 235345.000000 1 0 0
5.758669 -15.350667 0.245350 16.397117 -1.211902 1.555833 0.007242 -0.000189 132754.000000 1 0 0
-14.312331 -12.768267 0.872650 19.199817 0.728442 1.525330 -0.015883 -0.001808 824000.000000 1 0 0
0.759669 -15.376167 11.100550 18.979616 -1.521431 0.946080 0.023162 -0.012013 317695.000000 1 0 0
-9.314531 -10.808667 2.087750 14.420349 0.859512 1.425508 0.003530 0.002724 261580.000000 1 0 0
-9.442331 -8.962067 -3.452450 13.468321 0.759309 1.830029 0.003360 -0.002026 -218402.000000 1 0 0
-12.219931 -7.308167 -12.246250 18.780486 0.538987 2.281112 0.011953 0.001608 754654.000000 1 0 0
-13.297831 -8.265967 -0.461950 15.664352 0.556153 1.600291 -0.005964 0.002023 -158940.000000 1 0 0
-11.196031 -9.714867 0.451950 14.830172 0.714684 1.540317 -0.004917 0.004607 256349.000000 1 0 0
-15.700731 -12.198867 2.960450 20.101979 0.660534 1.422987 -0.000063 0.008529 232673.000000 1 0 0
-10.288131 -12.506267 -2.280550 16.353998 0.882403 1.710701 0.005402 0.000727 172751.000000 1 0 0
-3.432731 -8.879567 -12.092150 15.389946 1.201906 2.474652 0.002606 0.003540 -2831900.000000 1 0 0
-0.174731 -15.522667 3.808550 15.984016 1.559540 1.330210 0.012665 -0.006869 -1127560.000000 1 0 0
-15.773131 -7.692167 1.187150 17.588929 0.453739 1.503251 -0.006613 -0.000901 614940.000000 1 0 0
-6.143231 -13.520067 -13.315950 19.946078 1.144307 2.301773 0.025792 -0.001986 -328978.000000 1 0 0
-15.259831 -10.307067 1.135850 18.449613 0.594050 1.509192 -0.006369 0.001839 328456.000000 1 0 0
-9.918431 -8.418367 -12.528550 18.061250 0.703774 2.337368 0.021591 0.001471 228286.000000 1 0 0
-13.034931 -11.994867 -6.178350 18.760551 0.743869 1.906387 -0.002320 0.002678 -178905.000000 1 0 0
-12.034431 -11.424867 -3.860450 17.036965 0.759420 1.799374 -0.000238 0.000046 -445451.000000 1 0 0
-11.751131 -10.973167 -9.047450 18.448735 0.751177 2.083357 0.012680 -0.009492 -249801.000000 1 0 0
-13.163731 -8.445067 -5.846650 16.696895 0.570405 1.928542 0.000623 -0.000784 -1561340.000000 1 0 0
-13.482431 -8.159467 -3.151950 16.071330 0.544229 1.768198 0.004027 -0.001753 26817.300000 1 0 0
-4.333031 -17.043667 -3.279450 17.889006 1.321839 1.755161 0.002179 -0.008439 544121.000000 1 0 0
-15.385031 -8.926267 -1.814650 17.879328 0.525727 1.672466 -0.001083 0.004804 -2419180.000000 1 0 0
-9.498731 -15.795167 3.668550 18.792856 1.029370 1.374325 0.012484 -0.000206 -1048900.000000 1 0 0
4.713669 -17.148567 8.037650 19.516553 -1.302549 1.146327 0.033962 -0.024066 217566.000000 1 0 0
-8.342931 -15.456067 6.034650 18.571793 1.075831 1.239852 0.007570 0.001096 390856.000000 1 0 0
0.742369 -15.982167 8.550150 18.140723 -1.524380 1.080005 0.028297 -0.015284 -41374.600000 1 0 0
-10.792231 -7.796767 -10.133750 16.731847 0.625630 2.221387 0.015148 -0.001081 769562.000000 1 0 0
-4.687931 -16.155867 5.841750 17.807717 1.288383 1.236562 0.008353 -0.002278 -175786.000000 1 0 0
-1.247431 -13.218867 -12.080550 17.950883 1.476707 2.309024 -0.000448 0.006839 -1646870.000000 1 0 0
-6.423031 -14.345767 -2.499150 15.915468 1.149832 1.728475 0.003653 0.000345 521599.000000 1 0 0
-17.461931 -6.872467 -7.137550 20.077212 0.374950 1.934251 -0.011362 0.000327 -240852.000000 1 0 0
-17.377331 -4.202467 -10.067950 20.518187 0.237280 2.083671 0.009948 -0.007604 562239.000000 1 0 0
-15.236331 -5.305867 -8.930950 18.440713 0.335104 2.076366 -0.008726 -0.007552 301905.000000 1 0 0
-15.997031 -5.397367 -5.534250 17.766950 0.325404 1.887558 -0.008582 0.009458 -411513.000000 1 0 0
-15.433231 -4.323367 -12.278150 20.189826 0.273133 2.224506 0.022339 -0.002459 -351016.000000 1 0 0
-18.632231 -5.229167 -5.514150 20.122377 0.273613 1.848378 -0.004601 0.006402 186068.000000 1 0 0
-17.306031 -4.383767 -7.543250 19.380834 0.248090 1.970572 -0.011925 -0.003039 644677.000000 1 0 0
12.128369 -7.925367 8.676550 16.887608 -0.578802 1.031209 0.019105 -0.010475 187304.000000 1 0 0
16.017169 -3.413267 1.643450 16.459071 -0.209960 1.470779 0.014559 -0.005790 1076580.000000 1 0 0
12.141069 -2.302467 12.445350 17.538348 -0.187417 0.781855 0.024230 -0.005761 -206082.000000 1 0 0
9.732169 -10.065667 5.190650 14.932368 -0.802242 1.215775 0.001614 -0.007403 -99607.700000 1 0 0
16.960869 -2.105567 7.111250 18.511466 -0.123511 1.176505 0.041520 -0.017635 -117053.000000 1 0 0
4.959369 -12.833767 9.092850 16.491841 -1.202042 0.986809 0.008453 -0.002703 -67208.400000 1 0 0
15.235669 -9.269967 -2.339550 17.986978 -0.546601 1.701235 0.020794 0.004197 133261.000000 1 0 0
11.114769 -8.560667 6.467450 15.448334 -0.656308 1.138838 0.010955 -0.008007 -1991390.000000 1 0 0
20.014069 -3.200067 3.556750 20.577994 -0.158549 1.397082 0.040366 -0.014152 -473367.000000 1 0 0
13.630269 -8.572867 6.847750 17.497713 -0.561440 1.168697 0.021347 -0.008565 -1078210.000000 1 0 0
8.294069 -10.950567 8.832750 16.331686 -0.922570 0.999367 0.003791 -0.008814 -1993180.000000 1 0 0
16.734769 -0.019167 -0.650350 16.747412 -0.001145 1.609639 0.012171 -0.004137 -1424820.000000 1 0 0
12.397069 -12.350067 2.283050 17.647203 -0.783499 1.441061 0.005327 -0.004508 -764104.000000 1 0 0
10.343169 -11.592867 3.511450 15.928151 -0.842307 1.348515 -0.000225 -0.007039 -1675110.000000 1 0 0
16.267269 3.115533 2.409250 16.737236 0.189230 1.426349 0.011175 -0.006434 349465.000000 1 0 0
18.323069 -3.491867 0.258750 18.654623 -0.188314 1.556925 0.023002 -0.008990 -108661.000000 1 0 0
13.445569 -11.664967 -0.270450 17.802470 -0.714606 1.585989 0.021771 0.001375 -389196.000000 1 0 0
16.855069 -7.690167 -1.028650 18.555057 -0.428041 1.626262 0.025500 -0.001371 843445.000000 1 0 0
10.114069 -5.653567 9.574850 15.031133 -0.509712 0.880195 0.014879 -0.008456 -261679.000000 1 0 0
11.169269 -13.244667 5.862250 18.290428 -0.870203 1.244529 0.002725 -0.011831 -226202.000000 1 0 0
13.216269 -1.797767 10.191350 16.785867 -0.135197 0.918342 0.026587 -0.008931 20134.700000 1 0 0
15.538869 -2.106767 -1.475550 15.750307 -0.134759 1.664618 0.007811 -0.005642 -1207990.000000 1 0 0
10.392669 -12.406767 8.816650 18.430104 -0.873509 1.071984 0.005790 -0.015531 208543.000000 1 0 0
14.535469 1.219933 3.249750 14.944195 0.083732 1.351586 0.010951 -0.007683 1204570.000000 1 0 0
14.932069 -5.791467 5.179250 16.832481 -0.369992 1.258028 0.025465 -0.009680 -510462.000000 1 0 0
14.228369 -3.448167 -3.135550 14.972241 -0.237761 1.781782 0.004631 -0.001253 653374.000000 1 0 0
14.207469 0.594433 9.560750 17.135153 0.041815 0.978869 0.033630 -0.012362 502791.000000 1 0 0
15.397669 -3.383967 4.283150 16.336610 -0.216332 1.305515 0.017790 -0.009450 -431851.000000 1 0 0
18.712469 4.901333 -4.206650 19.795845 0.256174 1.784931 0.006300 0.002241 644624.000000 1 0 0
18.019569 -5.803267 -5.056150 19.594576 -0.311565 1.831787 0.038485 -0.009393 594639.000000 1 0 0
17.324769 -0.084467 5.630750 18.217028 -0.004875 1.256557 0.036953 -0.016738 560300.000000 1 0 0
16.974469 -6.763567 3.833450 18.670130 -0.379174 1.364000 0.031435 -0.008106 82866.700000 1 0 0
9.648169 -6.694967 14.216750 18.439786 -0.606627 0.690414 0.019088 -0.002029 -1288360.000000 1 0 0
8.553869 -12.224267 5.135750 15.779015 -0.960242 1.239277 -0.000182 -0.008586 -1945800.000000 1 0 0
16.759369 -10.202167 -0.499750 19.626778 -0.546824 1.596262 0.025835 0.007412 184888.000000 1 0 0
14.775469 -8.842967 0.232550 17.221110 -0.539308 1.557292 0.025421 -0.000160 -685157.000000 1 0 0
9.949469 -13.032367 1.470150 16.461952 -0.918747 1.481371 0.006450 -0.002986 324698.000000 1 0 0
16.816369 -8.396867 8.704650 20.713970 -0.463109 1.137097 0.033772 -0.010065 282806.000000 1 0 0
19.043169 -0.134967 -1.844050 19.132721 -0.007087 1.667328 0.018654 -0.006846 -241746.000000 1 0 0
13.473169 -1.207867 7.624050 15.527761 -0.089411 1.057565 0.018064 -0.011887 81426.500000 1 0 0
12.844969 -10.047667 -3.038150 16.588526 -0.663809 1.754984 0.006274 0.004278 -2104620.000000 1 0 0
8.783169 -15.340067 1.441850 17.735294 -1.050795 1.489408 0.012177 0.000612 1077390.000000 1 0 0
11.415469 -8.320867 11.049150 17.934143 -0.629867 0.907020 0.017420 -0.010184 -81293.500000 1 0 0
13.831169 -4.023767 -0.582650 14.416359 -0.283106 1.611223 0.006503 -0.003099 -879218.000000 1 0 0
6.992569 -13.375767 10.743950 18.526727 -1.089092 0.952170 0.007632 -0.000178 -53908.200000 1 0 0
15.389969 -6.815067 1.823850 16.929935 -0.416871 1.462858 0.021477 -0.004999 -644887.000000 1 0 0
15.711669 -6.238667 -2.760150 17.128804 -0.377980 1.732643 0.024452 -0.002340 -307052.000000 1 0 0
11.153369 -8.557967 3.774450 14.556198 -0.654481 1.308497 0.005505 -0.004945 520367.000000 1 0 0
10.700169 -14.620067 -0.401850 18.121850 -0.938992 1.592973 0.024425 -0.002501 534380.000000 1 0 0
13.401069 -12.982767 4.681150 19.236789 -0.769545 1.324985 0.005440 -0.001756 -62571.300000 1 0 0
12.786869 -11.084867 6.379350 18.085198 -0.714221 1.210300 0.006004 -0.009718 -809340.000000 1 0 0
10.914369 -10.551967 1.298650 15.236599 -0.768517 1.485461 0.003191 -0.001839 340143.000000 1 0 0
13.858869 -7.616967 11.786050 19.723017 -0.502543 0.930319 0.024354 -0.015882 -317611.000000 1 0 0
15.189869 -1.781567 -5.043950 16.104271 -0.116753 1.889363 0.014297 -0.003294 -66933.300000 1 0 0
12.902569 -11.692567 -7.229450 18.853577 -0.736241 1.964328 0.013532 0.008766 -591070.000000 1 0 0
17.646669 -5.421667 1.799250 18.548226 -0.298081 1.473640 0.033885 -0.008548 619418.000000 1 0 0
10.663069 -9.840067 9.025250 17.087513 -0.745279 1.014343 0.006395 -0.010335 -1725530.000000 1 0 0
16.610569 1.848233 9.644450 19.296175 0.110813 1.047415 0.056752 -0.020275 461593.000000 1 0 0
18.221269 3.602933 0.679850 18.586499 0.195214 1.534211 0.007306 -0.001494 572617.000000 1 0 0
13.190269 -4.051967 5.625750 14.901365 -0.298043 1.183666 0.013328 -0.010351 -714820.000000 1 0 0
11.997569 -6.196467 6.686050 15.067884 -0.476742 1.111041 0.013953 -0.007273 -5193.660000 1 0 0
16.515469 -10.147867 3.543050 19.705155 -0.550974 1.390010 0.017566 -0.004382 -120195.000000 1 0 0
16.346769 -8.433667 -5.558250 19.215560 -0.476304 1.864248 0.027082 0.004658 1115310.000000 1 0 0
14.087569 -0.382167 5.327550 15.066135 -0.027121 1.209368 0.011303 -0.007791 774021.000000 1 0 0
18.259369 -4.310967 5.034250 19.425052 -0.231851 1.308641 0.038288 -0.011191 -85779.500000 1 0 0
13.357369 -13.531667 7.247250 20.348168 -0.791880 1.206639 0.003794 -0.000141 -209430.000000 1 0 0
14.783869 -13.780867 -0.789450 20.226179 -0.750299 1.609837 0.019133 0.005974 141660.000000 1 0 0
17.821969 -6.083667 7.953150 20.442264 -0.328955 1.171192 0.046841 -0.002391 -367490.000000 1 0 0
14.373669 3.275133 9.228050 17.392118 0.224032 1.011502 0.032431 -0.016652 245840.000000 1 0 0
18.619769 3.954433 3.205450 19.303063 0.209269 1.403964 0.021383 -0.005816 -1046650.000000 1 0 0
14.734969 -10.767167 8.066650 19.952996 -0.631049 1.154602 0.014053 -0.010379 -646002.000000 1 0 0
14.909769 -4.751567 10.287650 18.727369 -0.308513 0.989225 0.036087 -0.013087 194104.000000 1 0 0
17.679869 -8.041467 1.719050 19.498669 -0.426869 1.482519 0.038888 -0.007945 -278093.000000 1 0 0
18.247269 -5.891467 -2.083150 19.287605 -0.312303 1.679012 0.021060 -0.010037 -1166190.000000 1 0 0
14.142369 -13.405967 -5.569350 20.266825 -0.758673 1.849179 0.014593 0.005308 -1869710.000000 1 0 0
15.544069 -1.580967 9.241250 18.152637 -0.101360 1.036674 0.043972 -0.015994 153018.000000 1 0 0
13.037769 -10.074267 10.043950 19.296508 -0.657871 1.023353 0.011850 -0.017703 -991893.000000 1 0 0
16.509069 2.144633 4.834150 17.335450 0.129183 1.288190 0.025126 -0.012183 -1477040.000000 1 0 0
14.904169 2.340533 0.025350 15.086848 0.155767 1.569116 0.001492 0.000341 -943138.000000 1 0 0
14.999569 -10.066467 -7.139350 19.423984 -0.591077 1.947173 0.018937 0.009450 673057.000000 1 0 0
16.166269 -0.107867 -3.266850 16.493399 -0.006672 1.770185 0.011991 0.000619 30843.400000 1 0 0
12.050269 2.654433 13.539750 18.318838 0.216817 0.739039 0.031317 -0.010189 -160963.000000 1 0 0
17.775869 -3.113267 9.434350 20.363715 -0.173382 1.089090 0.046876 -0.011516 779100.000000 1 0 0
7.912269 -18.118767 4.529850 20.283325 -1.159067 1.345568 0.039003 -0.011832 -340934.000000 1 0 0
6.837369 -11.195367 6.642350 14.703968 -1.022523 1.102083 0.002439 -0.007090 -172163.000000 1 0 0
17.995169 2.145433 -1.406450 18.177103 0.118663 1.648249 0.006666 0.000029 92547.100000 1 0 0
17.606169 -2.270667 3.457450 18.085549 -0.128262 1.378440 0.020141 -0.008613 -1755030.000000 1 0 0
12.493069 -13.476267 -2.017950 18.486716 -0.823240 1.680171 0.021968 0.003414 752693.000000 1 0 0
14.882469 -8.202767 4.299450 17.528792 -0.503741 1.322989 0.023044 -0.011344 -659361.000000 1 0 0
11.751669 -3.073167 14.991550 19.294887 -0.255781 0.680958 0.015172 0.001315 -227504.000000 1 0 0
11.972869 -13.930867 -6.483750 19.479673 -0.860842 1.910117 0.016966 -0.000995 -818679.000000 1 0 0
10.535769 -12.132767 -1.167550 16.111165 -0.855732 1.643328 0.012995 -0.001340 -1195220.000000 1 0 0
13.103169 -8.034667 2.046850 15.506080 -0.550058 1.438407 0.016321 -0.002119 -1682640.000000 1 0 0
8.768369 -7.900767 9.948050 15.436000 -0.733397 0.870465 0.010636 -0.004495 -1139230.000000 1 0 0
15.665069 -3.930667 8.000850 18.023821 -0.245844 1.110845 0.041512 -0.015407 -513986.000000 1 0 0
10.273269 -17.300267 5.279750 20.801804 -1.034932 1.314177 0.022896 -0.008891 -955691.000000 1 0 0
15.183669 -6.413267 8.270150 18.440965 -0.399649 1.105748 0.032966 -0.006272 63834.400000 1 0 0
16.418169 -5.160367 -0.411950 17.214975 -0.304531 1.594728 0.013645 -0.005250 -672344.000000 1 0 0
13.862569 -10.540967 3.502250 17.763686 -0.650118 1.372338 0.015986 -0.005365 274341.000000 1 0 0
14.903269 -10.400567 -4.607550 18.748566 -0.609296 1.819095 0.020839 0.007450 52943.300000 1 0 0
13.578369 -6.590167 -0.073350 15.093303 -0.451853 1.575656 0.013268 -0.001742 -53805.400000 1 0 0
17.672869 -0.873467 -4.983450 18.382818 -0.049384 1.845325 0.014540 -0.003949 -158951.000000 1 0 0
14.368069 0.196933 -1.627450 14.461286 0.013705 1.683574 0.005713 -0.000574 -3152590.000000 1 0 0
4.699669 -12.840967 11.789050 18.054335 -1.219948 0.859289 0.001926 -0.002940 -485331.000000 1 0 0
11.951669 -7.435867 13.475150 19.486256 -0.556555 0.807204 0.018073 -0.008660 -654841.000000 1 0 0
12.058869 -5.852967 11.399350 17.595986 -0.451872 0.866053 0.017796 -0.008290 990450.000000 1 0 0
13.245969 -4.564167 8.250150 16.258914 -0.331829 1.038605 0.022846 -0.011329 -1322460.000000 1 0 0
15.365969 -1.206967 2.952250 15.693487 -0.078387 1.381549 0.012165 -0.004872 1504930.000000 1 0 0
15.184169 -10.380667 5.679150 19.250194 -0.599669 1.271322 0.021828 -0.006730 477438.000000 1 0 0
13.697569 -8.289567 -5.674450 16.986456 -0.544223 1.911401 0.014971 0.003354 -480944.000000 1 0 0
9.764969 -2.272067 13.495550 16.812102 -0.228608 0.638940 0.023469 -0.005902 218438.000000 1 0 0
9.862469 -9.134267 13.597850 19.120791 -0.747084 0.779656 0.020702 -0.005427 -28213.500000 1 0 0
20.461169 6.171333 -2.743650 21.546981 0.292935 1.698476 0.029745 0.007400 -378260.000000 1 0 0
11.299869 -3.611867 10.415150 15.786322 -0.309374 0.850300 0.019398 -0.005749 568850.000000 1 0 0
10.137369 -14.176467 -2.875950 17.663792 -0.950018 1.734341 0.010175 0.000674 101032.000000 1 0 0
14.838269 -12.816567 2.675450 19.788801 -0.712423 1.435181 0.012862 0.007322 -624486.000000 1 0 0
11.512469 -0.555967 14.196250 18.286048 -0.048255 0.681953 0.036026 -0.004172 87528.400000 1 0 0
19.070169 -2.002167 5.648150 19.989538 -0.104606 1.284339 0.042281 -0.015374 228700.000000 1 0 0
18.933269 -0.408267 7.642950 20.421803 -0.021560 1.187204 0.056040 -0.023194 205044.000000 1 0 0
18.989269 0.647333 0.574850 19.008993 0.034076 1.540551 0.019850 -0.011098 647120.000000 1 0 0
18.438269 0.864833 3.503950 18.788171 0.046870 1.383200 0.019300 -0.014714 130045.000000 1 0 0
16.607669 -3.862767 -4.218650 17.565097 -0.228526 1.813340 0.022135 -0.007818 -278532.000000 1 0 0
11.014269 -8.238667 15.777550 20.931336 -0.642220 0.717006 0.027631 -0.007791 154717.000000 1 0 0
16.487869 -7.558867 6.288650 19.197224 -0.429859 1.237054 0.026935 -0.009146 448536.000000 1 0 0
18.924669 2.014833 5.817650 19.900947 0.106066 1.274134 0.045494 -0.021211 317100.000000 1 0 0
15.358569 1.720833 7.470750 17.165635 0.111578 1.120519 0.035022 -0.016235 -35122.500000 1 0 0
8.691569 -15.777767 3.845750 18.419313 -1.067282 1.360460 0.009154 -0.008626 99659.200000 1 0 0
11.336169 -15.166267 2.133450 19.054553 -0.928923 1.458596 0.020884 0.003037 318060.000000 1 0 0
8.081169 -16.076867 6.249550 19.048040 -1.105024 1.236511 0.014699 -0.009509 8865.970000 1 0 0
14.581869 -11.925067 -2.579750 19.012975 -0.685501 1.706900 0.019132 0.005791 564999.000000 1 0 0
13.676169 -4.866567 3.054350 14.834087 -0.341871 1.363412 0.008768 -0.003811 -1862260.000000 1 0 0
-0.998531 10.109733 -5.548050 11.575173 -1.472346 2.070660 0.001853 0.003706 -1148750.000000 1 0 0
8.319269 -1.751767 -8.009950 11.680677 -0.207536 2.326421 0.000532 -0.001861 -3938320.000000 1 0 0
2.991869 -10.306167 7.671950 13.191936 -1.288263 0.950147 -0.001148 -0.005307 663573.000000 1 0 0
-6.375431 1.280933 8.345250 10.579703 -0.198277 0.661945 -0.001665 -0.001677 -992804.000000 1 0 0
7.181469 -6.405867 -7.211850 12.025781 -0.728377 2.213921 0.000458 -0.001806 -219515.000000 1 0 0
-11.328631 -4.432367 -4.118250 12.843043 0.372944 1.897223 0.000018 -0.001196 36245.000000 1 0 0
2.079869 -3.293467 2.868750 4.837614 -1.007527 0.936005 0.007800 -0.002285 1576390.000000 1 0 0
-3.637631 -4.167267 8.922550 10.498113 0.853154 0.554964 0.008441 -0.006859 -2431900.000000 1 0 0
-4.876231 -1.093867 -2.411950 5.549025 0.220673 2.020459 0.001973 -0.000548 -353780.000000 1 0 0
5.059669 -5.234767 -3.598650 8.121165 -0.802406 2.029872 0.003686 -0.004460 49500.300000 1 0 0
2.710969 14.012633 -8.672750 16.700893 1.379691 2.116826 0.002341 -0.005636 -58600.800000 1 0 0
5.482769 -5.551667 13.637950 15.712270 -0.791642 0.519675 0.012030 -0.002302 -715679.000000 1 0 0
-4.796331 -0.859167 9.887150 11.022645 0.177250 0.457894 0.007995 -0.004350 -3845000.000000 1 0 0
-1.023531 11.806933 -2.728650 12.161283 -1.484324 1.797095 -0.003684 0.002179 -325886.000000 1 0 0
3.136869 9.380133 -10.495950 14.421921 1.248071 2.385872 0.002130 -0.000791 -211458.000000 1 0 0
-10.673431 2.600733 1.120850 11.042746 -0.239007 1.469120 -0.012602 0.000994 -92129.800000 1 0 0
5.714969 -9.074067 -0.766450 10.751140 -1.008743 1.642147 -0.001340 -0.003621 634892.000000 1 0 0
-7.105331 5.453533 9.443850 13.015877 -0.654624 0.758943 -0.004975 0.000387 -104337.000000 1 0 0
-5.500131 -1.935467 5.195050 7.809355 0.338362 0.842989 0.002723 -0.003583 484911.000000 1 0 0
6.738669 -3.814567 -7.419950 10.724562 -0.515098 2.334865 0.000543 -0.002810 288068.000000 1 0 0
6.202769 4.818533 10.970050 13.492020 0.660456 0.621378 0.001737 -0.000855 615608.000000 1 0 0
3.777569 -9.965367 3.127250 11.106676 -1.208462 1.285372 -0.004599 -0.002831 1003710.000000 1 0 0
-6.546831 6.616933 -5.761150 10.946947 -0.790723 2.125015 -0.000513 -0.002281 -474890.000000 1 0 0
-11.050331 8.475433 5.213650 14.870270 -0.654283 1.212575 -0.007607 -0.003678 -109992.000000 1 0 0
-9.282431 -5.505067 5.162150 11.963155 0.535303 1.124637 0.001888 -0.002624 -2653700.000000 1 0 0
3.368669 9.860833 -7.914450 13.085201 1.241605 2.220361 0.003597 -0.000552 837083.000000 1 0 0
-8.144231 -8.548067 6.111650 13.294744 0.809586 1.093134 0.004331 0.001661 -2500750.000000 1 0 0
-7.764131 -5.663967 -7.570350 12.234069 0.630254 2.238001 0.014050 -0.004706 1718620.000000 1 0 0
9.308569 -1.509667 6.996550 11.742243 -0.160780 0.932480 0.005509 -0.007746 2323480.000000 1 0 0
-4.141131 -0.322967 -4.907250 6.429182 0.077832 2.439167 0.008998 -0.005822 -628725.000000 1 0 0
9.049569 1.125733 -4.454550 10.149137 0.123761 2.025181 -0.004427 0.001875 -1135690.000000 1 0 0
-2.000731 -10.647567 10.613250 15.166235 1.385057 0.795686 0.003163 -0.008406 220915.000000 1 0 0
-12.895631 0.374233 -2.633950 13.167196 -0.029012 1.772194 -0.005447 -0.000368 -1347290.000000 1 0 0
-9.830331 -5.249567 -6.094650 12.701894 0.490490 2.071248 0.006447 -0.002320 -2087200.000000 1 0 0
-5.582831 8.280233 -0.224550 9.989028 -0.977572 1.593278 -0.003866 0.002626 259351.000000 1 0 0
6.308569 9.575033 0.417950 11.474057 0.988221 1.534363 0.007929 -0.003074 492131.000000 1 0 0
-0.449631 -12.030867 0.000450 12.039266 1.533441 1.570759 0.008049 -0.000435 -383093.000000 1 0 0
6.113369 4.727333 2.412450 8.095732 0.658233 1.268210 0.001553 0.000505 656337.000000 1 0 0
3.524869 -7.510567 -8.149050 11.629288 -1.131991 2.347224 0.001695 -0.001519 839216.000000 1 0 0
-6.607831 -9.942067 4.680750 12.822541 0.984203 1.197120 0.007222 0.001766 -2474600.000000 1 0 0
-0.095331 6.691033 -9.205250 11.380494 -1.556550 2.513011 0.008755 -0.001320 -1847500.000000 1 0 0
-17.306531 -2.726667 4.211850 18.019168 0.156267 1.334871 0.002894 -0.004874 375504.000000 1 0 0
-8.413131 0.791633 -9.043350 12.376980 -0.093819 2.390083 0.006289 -0.003959 1316960.000000 1 0 0
-10.007831 -5.870367 -11.849250 16.583806 0.530491 2.366716 0.020542 0.004526 265381.000000 1 0 0
2.082869 9.509433 6.287950 11.589045 1.355170 0.997294 -0.004823 0.004950 -173607.000000 1 0 0
-11.263931 1.707233 -1.280150 11.464274 -0.150421 1.682694 -0.006916 0.000245 -2233260.000000 1 0 0
-5.978131 -5.400367 -3.091550 8.629003 0.734665 1.937215 0.009389 -0.000841 603009.000000 1 0 0
-6.915831 -8.342567 1.367450 10.922319 0.878632 1.445269 0.005367 0.001650 -325956.000000 1 0 0
0.094269 10.800233 -7.903650 13.383632 1.562068 2.202532 0.005838 0.002381 -30998.100000 1 0 0
-2.876031 9.308233 -4.187350 10.604181 -1.271124 1.976731 0.000248 -0.000252 -231745.000000 1 0 0
3.483969 -4.815267 9.288150 11.026993 -0.944455 0.569241 0.007422 -0.005345 -979800.000000 1 0 0
-8.986131 1.565133 -0.423250 9.131229 -0.172442 1.617165 -0.009742 0.001695 -2574360.000000 1 0 0
2.562369 3.600633 -10.227550 11.141502 0.952298 2.733725 0.005605 -0.001315 1312440.000000 1 0 0
-13.615131 0.519033 1.071150 13.667061 -0.038103 1.492341 -0.006726 -0.000152 -209724.000000 1 0 0
9.455069 -12.709767 -5.081450 16.636034 -0.931197 1.881206 0.007873 0.003342 -2612710.000000 1 0 0
-4.679231 9.509833 -8.250150 13.431199 -1.113536 2.232235 0.004362 -0.000158 -976607.000000 1 0 0
-2.389831 7.161333 8.351650 11.258154 -1.248704 0.734999 -0.001340 0.002732 -766249.000000 1 0 0
-10.745431 -1.244767 -4.448450 11.696258 0.115327 1.960951 0.000879 0.000269 -2681320.000000 1 0 0
2.693169 -7.161967 9.660350 12.323526 -1.211116 0.669882 0.002279 -0.003570 -1302290.000000 1 0 0
-16.144831 -6.579967 3.416650 17.765839 0.387005 1.377275 -0.004933 -0.001091 -584396.000000 1 0 0
-10.808331 0.069533 6.117450 12.419664 -0.006433 1.055766 -0.006845 -0.002663 -1972060.000000 1 0 0
-8.377631 9.931833 9.289350 15.972415 -0.870080 0.950118 0.000581 -0.006829 337402.000000 1 0 0
0.296069 -6.092167 -3.740150 7.154780 -1.522236 2.120868 0.002921 0.000520 147722.000000 1 0 0
4.961469 1.502033 -3.008950 5.993835 0.293968 2.096715 0.001076 -0.000387 223404.000000 1 0 0
0.265069 5.356633 3.942350 6.656268 1.521352 0.936915 0.000511 0.002773 -2093000.000000 1 0 0
6.085669 -11.358467 -1.609950 12.986226 -1.078934 1.695090 -0.005069 -0.002682 -2156080.000000 1 0 0
6.272469 -13.442167 5.371650 15.776259 -1.134202 1.223359 0.004118 -0.007938 -371136.000000 1 0 0
8.149569 -8.286367 -5.900350 13.034319 -0.793721 2.040563 0.000372 -0.000225 505414.000000 1 0 0
-13.105331 -1.287367 -4.664750 13.970215 0.097918 1.911242 0.000321 0.001208 -3614090.000000 1 0 0
-6.846231 -1.496767 -7.027750 9.924740 0.215240 2.357606 0.005568 -0.003871 -124298.000000 1 0 0
-5.748531 12.871733 -4.670150 14.850502 -1.150772 1.890703 0.003903 -0.002457 635793.000000 1 0 0
-4.250831 6.907033 -6.770650 10.564960 -1.019105 2.266413 0.004097 -0.001228 -3159260.000000 1 0 0
-9.425631 -3.710467 -8.192550 13.027968 0.375026 2.250861 0.010840 -0.001369 645117.000000 1 0 0
-2.298331 -6.352667 9.217450 11.428039 1.223657 0.632479 0.008598 -0.005698 -246248.000000 1 0 0
7.493969 -5.965767 10.018550 13.860782 -0.672344 0.762953 0.009799 -0.002571 58201.600000 1 0 0
9.618169 -5.080467 12.039950 16.225927 -0.485964 0.734719 0.016377 -0.003258 14582.400000 1 0 0
-6.449131 2.841133 -9.079350 11.493386 -0.414963 2.481545 0.006146 -0.005317 -154030.000000 1 0 0
7.345069 5.406333 8.784150 12.662534 0.634513 0.804166 0.001928 -0.003765 810184.000000 1 0 0
12.688569 3.387233 11.252250 17.294111 0.260868 0.862369 0.026538 -0.006719 -1480750.000000 1 0 0
-7.467131 -7.400267 -3.895050 11.211307 0.780901 1.925616 0.008215 -0.003837 -1682160.000000 1 0 0
2.389669 1.466133 -5.715450 6.366037 0.550309 2.685552 0.005670 -0.002508 169573.000000 1 0 0
12.790069 6.939533 -7.019150 16.155849 0.497122 2.020240 0.006650 -0.004472 -135394.000000 1 0 0
0.795569 -7.872767 1.002550 7.976120 -1.470085 1.444769 0.003526 0.000572 1030170.000000 1 0 0
-10.228631 -6.054967 -8.547050 14.640341 0.534489 2.194199 0.012715 -0.001769 -713508.000000 1 0 0
-6.718131 0.243933 3.114850 7.409121 -0.036294 1.136902 -0.001162 -0.002924 -332587.000000 1 0 0
10.722769 -7.943967 1.194450 13.398175 -0.637620 1.481528 -0.003516 -0.002015 -118327.000000 1 0 0
6.308269 0.963233 10.581150 12.356489 0.151523 0.542688 0.007034 -0.005514 344300.000000 1 0 0
-12.900931 5.379933 1.868650 14.102112 -0.395091 1.437897 -0.007104 -0.000816 35721.400000 1 0 0
2.059669 7.342633 3.763850 8.504297 1.297316 1.112320 -0.001557 0.002336 -38059.300000 1 0 0
10.174569 -9.557167 -0.829950 13.983923 -0.754119 1.630182 -0.002906 0.000052 679273.000000 1 0 0
6.787269 -11.729267 -8.983250 16.258582 -1.046215 2.156185 -0.002036 0.004843 5485.960000 1 0 0
10.225569 3.522633 11.791350 16.000223 0.331760 0.742251 0.013956 -0.005399 -384961.000000 1 0 0
-11.001931 -3.195767 -1.876350 11.609311 0.282694 1.733133 -0.007719 0.001746 -759354.000000 1 0 0
12.474369 1.080833 6.836750 14.266017 0.086428 1.071015 0.009023 -0.012202 -286893.000000 1 0 0
-9.534331 9.156733 3.064450 13.569823 -0.765199 1.343003 -0.005102 -0.003991 902182.000000 1 0 0
-6.598831 7.695633 -8.785550 13.414665 -0.861977 2.284875 0.004574 -0.002456 -724428.000000 1 0 0
8.447569 5.560433 11.984450 15.681418 0.582138 0.700926 0.009056 -0.003792 -504436.000000 1 0 0
1.317969 4.836833 -2.694650 5.691497 1.304769 2.064002 0.003463 -0.002553 417939.000000 1 0 0
1.253069 0.463733 9.454450 9.548395 0.354448 0.140393 0.007048 -0.004188 690228.000000 1 0 0
2.414669 12.499633 -3.938850 13.326139 1.379968 1.870852 0.003500 -0.003269 782020.000000 1 0 0
2.091769 0.641133 12.902950 13.087118 0.297412 0.167962 0.005979 -0.004875 -281727.000000 1 0 0
-12.147731 -1.739667 0.826150 12.299445 0.142242 1.503576 -0.013364 -0.000057 -7311.280000 1 0 0
3.298969 8.712733 -1.194450 9.392637 1.208840 1.698310 0.004120 0.000156 942308.000000 1 0 0
3.665669 -2.896467 -5.850150 7.486715 -0.668712 2.467709 0.002441 -0.001199 -1659150.000000 1 0 0
-7.830331 -7.032967 9.374050 14.094308 0.731803 0.843176 0.005630 -0.004465 -375025.000000 1 0 0
-6.954531 10.931633 -3.519850 13.425924 -1.004195 1.836065 0.001729 -0.000885 211600.000000 1 0 0
0.360869 0.408733 2.458250 2.517992 0.847512 0.218267 0.006142 -0.001269 -2174900.000000 1 0 0
-6.995531 4.697833 -2.001350 8.660975 -0.591374 1.803981 0.000049 -0.001567 -789645.000000 1 0 0
-6.692031 -3.860367 -5.892650 9.716431 0.523231 2.222400 0.008011 -0.002863 556220.000000 1 0 0
2.903169 -6.083167 13.360050 14.964099 -1.125517 0.467258 0.004211 0.000067 -1299790.000000 1 0 0
-5.533931 -0.455167 -11.553350 12.818403 0.082065 2.693580 0.010731 -0.006930 -1057990.000000 1 0 0
11.927969 2.467033 -0.734750 12.202563 0.203952 1.631046 0.000266 -0.000259 -1661880.000000 1 0 0
6.027869 -10.982567 10.746750 16.505896 -1.068830 0.861783 0.004770 -0.004138 421548.000000 1 0 0
-8.195431 6.393033 -10.446750 14.736708 -0.662472 2.358724 0.001610 -0.001789 868180.000000 1 0 0
2.790969 7.727733 10.966550 13.703014 1.224212 0.642998 -0.006253 0.003045 648106.000000 1 0 0
-6.255731 -10.259467 -0.296850 12.019940 1.023237 1.595495 0.008235 -0.000665 -231720.000000 1 0 0
11.303669 4.227533 6.092650 13.519074 0.357891 1.103280 0.005680 -0.007377 297511.000000 1 0 0
-7.955131 10.698133 1.461750 13.411595 -0.931404 1.461588 -0.005051 0.001793 638964.000000 1 0 0
4.243569 -2.776567 -3.463650 6.141178 -0.579392 2.170023 0.002163 -0.003144 -4571230.000000 1 0 0
6.324269 6.472933 6.281750 11.016153 0.797015 0.964010 0.002360 -0.001419 -4764390.000000 1 0 0
-0.366031 10.247433 -10.244050 14.494289 -1.535092 2.355711 0.005880 0.001532 -528919.000000 1 0 0
14.198969 6.537533 -2.471850 15.825931 0.431488 1.727628 0.012464 0.004329 758054.000000 1 0 0
1.488569 9.509933 -6.128550 11.411126 1.415528 2.137754 0.002027 0.001143 -971554.000000 1 0 0
0.578469 7.370833 7.201050 10.320801 1.492476 0.798584 -0.007288 0.004621 421054.000000 1 0 0
12.195669 6.292933 1.941750 13.860221 0.476363 1.430239 0.001016 -0.001637 -965523.000000 1 0 0
-6.901931 6.883833 -3.116650 10.234125 -0.784085 1.880247 -0.000699 -0.003368 871513.000000 1 0 0
1.080269 9.697833 11.021050 14.720003 1.459861 0.724679 -0.011205 0.003446 -1311270.000000 1 0 0
-3.656331 13.569633 -10.993050 17.842389 -1.307598 2.234603 0.005756 -0.001363 54354.200000 1 0 0
-10.000831 -5.525967 -2.254350 11.646245 0.504799 1.765595 0.000097 0.001310 -921127.000000 1 0 0
-4.049531 4.021033 -12.414850 13.663671 -0.781867 2.710723 0.007969 -0.008410 -206186.000000 1 0 0
-3.164531 8.276333 2.513850 9.210396 -1.205590 1.294353 -0.003862 0.003733 -4662010.000000 1 0 0
7.054969 8.902633 6.998550 13.342007 0.900671 1.018610 0.010855 -0.001260 -230408.000000 1 0 0
-1.360131 -2.286467 -8.196750 8.617691 1.034164 2.827749 0.007296 -0.006628 -1097650.000000 1 0 0
0.843569 -1.343167 4.915450 5.165013 -1.010011 0.312128 0.009052 -0.003038 338514.000000 1 0 0
2.687169 -8.806667 -6.012550 10.996773 -1.274641 2.149281 -0.001264 -0.000923 436066.000000 1 0 0
5.331169 3.808833 8.730350 10.915474 0.620356 0.643811 0.000662 -0.003140 -96367.500000 1 0 0
6.111669 -7.469867 -2.708050 10.024218 -0.885070 1.844346 0.000419 -0.004261 732245.000000 1 0 0
1.715069 2.185633 -8.233850 8.689922 0.905454 2.816175 0.008605 -0.001418 260162.000000 1 0 0
-5.410531 10.950533 -0.679850 12.233161 -1.111889 1.626399 -0.006133 0.003681 145962.000000 1 0 0
-5.372131 3.269833 -3.400350 7.149404 -0.546767 2.066457 0.001312 -0.001468 -628582.000000 1 0 0
2.069569 13.816033 -6.216750 15.290973 1.422107 1.989486 0.002157 0.001444 139365.000000 1 0 0
-5.349931 -2.575367 2.666950 6.508986 0.448644 1.148634 -0.002699 -0.001332 494664.000000 1 0 0
10.440269 -3.366567 -1.907750 11.134294 -0.311933 1.742986 -0.003560 0.000152 -120788.000000 1 0 0
2.377969 -3.307867 7.049250 8.141784 -0.947509 0.524026 0.004574 -0.004112 -233901.000000 1 0 0
-2.907431 9.920033 -11.775350 15.669048 -1.285694 2.421135 0.009616 0.001710 -2569630.000000 1 0 0
0.497969 -1.990867 9.262150 9.486777 -1.325698 0.218046 0.007820 -0.006473 1136310.000000 1 0 0
9.425369 2.653933 5.001050 10.995064 0.274467 1.098598 -0.001024 -0.004104 -648939.000000 1 0 0
13.400269 2.072833 -4.950250 14.434986 0.153470 1.920835 0.008038 0.001124 -1086590.000000 1 0 0
-6.435031 3.828433 7.743650 10.771752 -0.536688 0.768599 -0.003008 -0.000435 -810378.000000 1 0 0
10.629669 0.088533 1.869250 10.793136 0.008329 1.396730 -0.005151 -0.001194 448077.000000 1 0 0
15.256769 6.695533 -4.628050 17.292137 0.413548 1.841738 0.001183 0.003647 -1595430.000000 1 0 0
8.097169 -5.106367 -9.176250 13.260569 -0.562642 2.335046 0.008528 0.000169 1676100.000000 1 0 0
4.469469 5.610533 -2.134250 7.483933 0.898119 1.859988 0.003275 -0.000859 388694.000000 1 0 0
-1.656231 -10.482267 1.417450 10.706549 1.414089 1.438016 0.007901 0.001339 -919316.000000 1 0 0
-2.782131 12.243333 -12.968150 18.050273 -1.347354 2.372362 0.011700 -0.002216 -115313.000000 1 0 0
8.368769 4.345033 -9.593550 13.451833 0.478886 2.364818 0.002942 -0.001090 -1400440.000000 1 0 0
4.222869 7.586933 -8.964750 12.480421 1.062902 2.372159 0.003017 -0.000914 -2437670.000000 1 0 0
-1.710531 -5.006667 -2.469450 5.838734 1.241579 2.007487 0.006931 -0.000504 407582.000000 1 0 0
-3.334731 -9.033167 7.245950 12.050823 1.217151 0.925691 0.006832 -0.000731 -233567.000000 1 0 0
1.152569 7.159233 -1.368350 7.379391 1.411175 1.757304 0.002210 -0.000771 671958.000000 1 0 0
0.415069 -0.901367 -2.225550 2.436764 -1.139255 2.722165 0.008173 -0.002443 -2240040.000000 1 0 0
4.133369 -6.695767 7.525450 10.888087 -1.017745 0.807698 0.004414 -0.004058 -1391840.000000 1 0 0
-13.960931 3.948433 5.967050 15.687683 -0.275622 1.180605 -0.005447 -0.002193 -354813.000000 1 0 0
4.289369 6.350533 12.446550 14.616585 0.976748 0.551888 -0.003694 0.001167 -1996400.000000 1 0 0
8.255169 10.114733 -7.308350 14.962206 0.886283 2.081113 0.010792 -0.006187 -178604.000000 1 0 0
12.452769 5.258933 9.469450 16.504494 0.399590 0.959719 0.025679 -0.006887 70590.700000 1 0 0
7.623269 3.961533 0.428150 8.601819 0.479254 1.521001 -0.000045 0.002774 -923655.000000 1 0 0
-10.864931 -7.586467 -0.990750 13.288446 0.609552 1.645423 -0.001111 0.002125 -1702470.000000 1 0 0
10.427469 6.758433 0.155250 12.427092 0.575065 1.558303 0.003474 0.002868 -1017360.000000 1 0 0
14.601469 3.529833 4.368750 15.644443 0.237194 1.287781 0.013486 -0.011675 174101.000000 1 0 0
2.084569 5.605133 8.271450 10.206852 1.214743 0.625992 -0.005060 0.000917 1083210.000000 1 0 0
4.284869 0.090633 11.795150 12.549657 0.021149 0.348523 0.008501 -0.003936 -977473.000000 1 0 0
-1.568831 -1.504867 -0.443550 2.218692 0.764591 1.772068 0.009921 -0.006224 -641378.000000 1 0 0
3.070369 -5.206267 -9.476250 11.239737 -1.037952 2.573823 -0.001902 -0.001785 323576.000000 1 0 0
-3.952931 -5.357167 -1.296450 6.782749 0.935099 1.763119 0.006397 -0.000829 33490.800000 1 0 0
-1.139431 -8.583567 8.484250 12.122641 1.438822 0.795583 0.005020 -0.002335 -265019.000000 1 0 0
3.978769 8.600233 -5.894350 11.159658 1.137485 2.127256 0.004981 -0.000019 166478.000000 1 0 0
-14.269231 -1.783067 -2.737150 14.638384 0.124314 1.758888 -0.006714 -0.000316 -935251.000000 1 0 0
8.931669 -10.631667 -6.507850 15.334900 -0.872078 2.009075 0.001335 0.000819 -84482.300000 1 0 0
14.764869 6.151833 1.571750 16.072237 0.394780 1.472847 0.002498 0.000969 -1027240.000000 1 0 0
-5.834931 0.399533 -8.586750 10.389337 -0.068366 2.543652 0.008871 -0.007055 -536159.000000 1 0 0
-8.028831 -4.436967 -13.035550 15.939710 0.504860 2.528380 0.018052 0.001998 476504.000000 1 0 0
0.771069 -10.641167 12.039250 16.086408 -1.498462 0.725133 0.005880 -0.004729 -61197.800000 1 0 0
0.292569 11.755733 3.375750 12.234318 1.545914 1.291245 -0.000337 0.003154 -799105.000000 1 0 0
5.177669 -13.264767 -3.762150 14.728071 -1.198652 1.829100 -0.002549 0.001865 -227237.000000 1 0 0
-7.426331 1.673133 -6.994250 10.337761 -0.221597 2.313895 0.004503 -0.002393 420639.000000 1 0 0
1.539669 2.612833 4.084550 5.087340 1.038303 0.638677 0.004244 -0.001145 -1115310.000000 1 0 0
17.215769 5.605633 2.015450 18.217241 0.314784 1.459935 0.013042 -0.009833 -139887.000000 1 0 0
2.490069 -8.160667 -3.494850 9.220136 -1.274639 1.959561 -0.000999 -0.001372 207209.000000 1 0 0
-0.436531 -9.367067 -0.680450 9.401889 1.524227 1.643233 0.007319 0.002006 -1428540.000000 1 0 0
0.732769 11.891833 -5.706650 13.210545 1.509255 2.017480 0.004140 0.000771 -676690.000000 1 0 0
6.013569 -5.054967 7.767550 11.047648 -0.699008 0.791055 0.005656 -0.004946 -1303910.000000 1 0 0
-5.982331 -1.963767 -9.372950 11.291451 0.317179 2.550070 0.013175 -0.004961 -84481.900000 1 0 0
2.170169 -1.288867 11.177550 11.458989 -0.535923 0.222089 0.004255 -0.003981 -25361.500000 1 0 0
17.973969 2.186333 -5.803550 19.013806 0.121044 1.880974 0.010326 0.002780 -1211210.000000 1 0 0
-8.869331 4.740533 7.760150 12.702662 -0.490854 0.913590 -0.003597 -0.003862 517402.000000 1 0 0
11.388669 -7.269867 -4.947850 14.388675 -0.568136 1.921833 0.004680 0.000759 565787.000000 1 0 0
10.968869 0.463333 8.949350 14.164096 0.042216 0.886880 0.009716 -0.010015 -247153.000000 1 0 0
-8.394431 -7.401467 -1.480950 11.288995 0.722619 1.702361 0.004989 -0.000621 -1530670.000000 1 0 0
10.298569 -10.515467 -3.255450 15.074267 -0.795819 1.788472 0.006899 0.001781 712398.000000 1 0 0
7.637769 -14.032467 -3.798050 16.421657 -1.072345 1.804193 0.004993 0.001520 -2463140.000000 1 0 0
1.729769 -1.133667 -11.715550 11.896698 -0.580152 2.966861 0.009038 -0.005217 148472.000000 1 0 0
-11.852431 -2.676267 -6.308950 13.691069 0.222075 2.049701 0.006974 -0.002662 -365785.000000 1 0 0
2.647869 -12.231167 -6.474250 14.090017 -1.357601 2.048219 -0.000680 0.004108 -183896.000000 1 0 0
-5.586831 1.476233 1.217150 5.905370 -0.258330 1.363199 -0.000398 -0.001312 459596.000000 1 0 0
0.127569 6.796733 -3.914450 7.844410 1.552029 2.093254 0.006023 -0.001674 1013480.000000 1 0 0
5.535369 -11.823167 3.698750 13.568653 -1.132927 1.294707 -0.003831 -0.004761 -230717.000000 1 0 0
-4.443131 -9.219467 1.211850 10.305754 1.121710 1.452934 0.006619 0.001553 -2020180.000000 1 0 0
7.171769 -6.309767 -4.613250 10.607992 -0.721546 2.020706 0.002855 -0.003395 -910009.000000 1 0 0
-7.020931 -6.006767 2.274250 9.515615 0.707708 1.329459 0.002052 0.000714 137497.000000 1 0 0
-6.391131 -0.813367 7.063550 9.560432 0.126584 0.739461 0.000470 -0.004280 -1582640.000000 1 0 0
4.186469 -5.064667 3.188450 7.303669 -0.880043 1.119031 0.001620 -0.002271 303283.000000 1 0 0
-2.422231 10.707333 -8.871050 14.114167 -1.348319 2.250447 0.003428 0.002463 -395247.000000 1 0 0
-2.365931 -4.875267 2.792550 6.096244 1.118984 1.094966 0.005728 0.000362 -944981.000000 1 0 0
15.174869 5.091333 6.368750 17.226703 0.323709 1.192108 0.028422 -0.018848 937247.000000 1 0 0
6.867069 0.319933 0.111150 6.875416 0.046556 1.554629 0.002144 -0.000227 4838250.000000 1 0 0
-9.702031 9.229833 0.338350 13.395287 -0.760461 1.545535 -0.008021 -0.001514 -1971600.000000 1 0 0
7.140569 10.474033 -2.558950 12.932181 0.972431 1.769985 0.004316 -0.001975 -452459.000000 1 0 0
1.585869 -4.212067 -5.436150 7.057494 -1.210706 2.450055 0.004304 -0.002671 -39759.600000 1 0 0
0.923069 -8.161067 -7.859650 11.367901 -1.458169 2.334207 0.001057 0.000802 -178515.000000 1 0 0
-10.454931 0.338033 -10.458250 14.791715 -0.032321 2.356092 0.008695 -0.003802 -2722020.000000 1 0 0
5.839669 -2.474267 0.517250 6.363276 -0.400769 1.489420 0.001761 -0.002056 134837.000000 1 0 0
-3.383031 5.217033 -1.205650 6.333713 -0.995505 1.762319 0.000516 -0.002803 388988.000000 1 0 0
-0.414031 4.472433 -5.058650 6.764911 -1.478485 2.415505 0.007599 -0.002764 -976760.000000 1 0 0
3.929169 -9.751967 9.978950 14.495471 -1.187784 0.811490 0.002158 -0.005195 -2791280.000000 1 0 0
7.342169 -13.555367 -0.849950 15.439489 -1.074392 1.625875 0.005766 -0.002560 497682.000000 1 0 0
13.018669 -0.073867 0.462850 13.027104 -0.005674 1.535259 -0.001339 -0.004452 347295.000000 1 0 0
9.294569 2.413233 -0.671950 9.626226 0.254030 1.640657 -0.000790 0.001178 -534265.000000 1 0 0
-0.863031 -5.766567 4.590850 7.421187 1.422238 0.903819 0.003985 0.000524 1207370.000000 1 0 0
11.399569 -3.754367 3.341450 12.458360 -0.318155 1.299262 0.005070 -0.005948 -2878480.000000 1 0 0
1.732269 -8.176767 11.765450 14.432120 -1.362030 0.617676 -0.001746 -0.003618 38818.100000 1 0 0
9.394969 -5.934167 -5.959250 12.609220 -0.563354 2.063047 -0.001295 -0.002485 410967.000000 1 0 0
3.266769 6.266933 -0.042150 7.067390 1.090277 1.576760 0.001297 0.001056 -986745.000000 1 0 0
6.369369 -1.403367 11.462350 13.188016 -0.216866 0.517318 0.009734 -0.003516 294237.000000 1 0 0
-4.918031 -7.628767 -3.898550 9.878452 0.998178 1.976485 0.007806 -0.000155 -271404.000000 1 0 0
-3.413631 -8.475067 -5.734150 10.787035 1.187891 2.131259 0.009090 -0.000612 -374654.000000 1 0 0
9.712069 5.295333 2.202550 11.279010 0.499175 1.374255 0.002812 -0.002009 -411331.000000 1 0 0
8.985769 -1.449167 0.277550 9.106106 -0.159897 1.540312 -0.000205 -0.001151 1618890.000000 1 0 0
-3.904631 9.656933 9.267250 13.942181 -1.186559 0.843715 0.003177 0.001996 211707.000000 1 0 0
-14.316831 -3.522667 -6.078150 15.947562 0.241258 1.961818 -0.005784 0.001414 -742974.000000 1 0 0
10.597169 6.377933 -5.880250 13.695085 0.541781 2.014591 0.003164 -0.004635 -657971.000000 1 0 0
-1.864731 4.463533 2.676850 5.528641 -1.175065 1.065372 0.001565 0.000233 404105.000000 1 0 0
6.997369 -3.761967 2.637950 8.371042 -0.493293 1.250205 0.000481 -0.003455 -2356720.000000 1 0 0
8.326469 -11.128467 -1.590950 13.989424 -0.928440 1.684768 0.004444 -0.000457 -1605610.000000 1 0 0
4.515669 0.440733 1.731450 4.856277 0.097293 1.206236 0.005197 -0.000349 391707.000000 1 0 0
-10.805031 2.406933 3.757550 11.690218 -0.219182 1.243560 -0.011466 -0.000699 39917.800000 1 0 0
-0.850731 -3.077367 4.331850 5.381343 1.301085 0.635162 0.007429 -0.003638 165750.000000 1 0 0
8.671069 -8.779267 -8.460250 14.961243 -0.791598 2.171809 0.005840 0.003517 -156099.000000 1 0 0
12.003169 -4.767467 0.984350 12.952751 -0.378076 1.494728 -0.000342 -0.001627 144861.000000 1 0 0
2.854469 4.802833 3.563950 6.626986 1.034556 1.002979 -0.000438 0.000255 -531871.000000 1 0 0
6.059669 7.380033 2.058450 9.768403 0.883327 1.358479 0.002180 -0.000671 232236.000000 1 0 0
-1.651631 -1.284567 -10.343650 10.553156 0.661030 2.942001 0.009921 -0.006432 1511360.000000 1 0 0
-1.106031 -8.670167 5.945150 10.570710 1.443914 0.973490 0.001474 -0.002556 176302.000000 1 0 0
-4.268231 -0.345267 2.383650 4.900897 0.080717 1.062866 0.002036 -0.002211 580195.000000 1 0 0
-8.455431 6.366033 -7.863950 13.185689 -0.645350 2.209805 -0.002009 -0.003464 -1309180.000000 1 0 0
6.470869 11.225933 -9.496650 16.064871 1.047894 2.203273 0.009231 -0.004570 -123428.000000 1 0 0
-11.169131 -5.701467 3.161450 12.932555 0.471986 1.323837 -0.003630 -0.000169 1009640.000000 1 0 0
1.426969 -6.259467 3.013350 7.092069 -1.346657 1.131956 0.005306 -0.002975 710447.000000 1 0 0
10.201269 2.198733 7.307250 12.739553 0.212288 0.959917 0.007394 -0.007575 -1981360.000000 1 0 0
-4.059831 -2.431267 -10.631750 11.637328 0.539580 2.722824 0.008695 -0.006607 -4042940.000000 1 0 0
-8.234531 11.812333 5.968950 15.587401 -0.962011 1.177826 -0.004845 -0.000558 -780743.000000 1 0 0
6.878969 6.000333 -3.005250 9.610189 0.717283 1.888846 0.003381 0.000565 -2471390.000000 1 0 0
3.912469 -9.931667 -2.408750 10.942920 -1.195526 1.792733 -0.003017 -0.003528 -975940.000000 1 0 0
8.574869 -12.933967 -7.390250 17.188126 -0.985355 2.015248 0.004420 0.003372 266424.000000 1 0 0
-1.131331 9.425633 3.708550 10.191948 -1.451341 1.198376 -0.002791 0.004167 -110900.000000 1 0 0
0.453269 -13.170467 4.807350 14.027732 -1.536394 1.221003 0.005789 -0.004761 -2266550.000000 1 0 0
-11.181331 -7.001067 -4.980950 14.101311 0.559418 1.931814 0.004483 -0.002462 185893.000000 1 0 0
3.654669 10.290233 -3.306450 11.409562 1.229533 1.864810 0.006019 -0.001402 -109168.000000 1 0 0
11.771869 -8.226367 -7.425650 16.167569 -0.609931 2.047995 0.013828 0.002984 378130.000000 1 0 0
11.851169 -5.004767 -5.973350 14.183752 -0.399583 2.005499 0.002874 -0.000150 831108.000000 1 0 0
1.328669 -10.295967 -2.727550 10.733677 -1.442458 1.827725 0.000276 0.003060 -957506.000000 1 0 0
2.335369 -12.009167 -3.956150 12.857883 -1.378728 1.883553 0.001199 0.000976 -1552420.000000 1 0 0
-7.707831 -5.627267 7.311550 12.022294 0.630624 0.917048 0.002155 -0.001015 -2133720.000000 1 0 0
-7.288231 -0.818767 9.560750 12.049756 0.111872 0.654357 0.001355 -0.005031 411721.000000 1 0 0
16.216569 2.644933 -7.580450 18.095193 0.161677 2.003053 0.014461 0.000316 -698230.000000 1 0 0
-1.961831 6.293533 -5.513450 8.593921 -1.268621 2.267317 0.004605 -0.001302 -448942.000000 1 0 0
7.717269 1.124733 8.405750 11.466381 0.144723 0.747960 0.005259 -0.007123 -575010.000000 1 0 0
7.931569 8.276933 -3.772350 12.068473 0.806703 1.888703 0.003320 0.000611 -208368.000000 1 0 0
8.012469 0.551333 3.990350 8.968083 0.068701 1.109678 -0.000032 -0.001801 657066.000000 1 0 0
-7.020131 5.842633 5.394550 10.607534 -0.694109 1.037287 -0.000780 -0.005098 -246639.000000 1 0 0
-6.071231 -2.044167 -4.448350 7.799121 0.324775 2.177747 0.004520 -0.002242 -968973.000000 1 0 0
-15.064131 -2.186967 3.091150 15.532742 0.144170 1.370450 -0.007838 -0.002002 624842.000000 1 0 0
1.152269 1.241233 -10.511850 10.647412 0.822550 2.981849 0.011243 -0.006632 354428.000000 1 0 0
1.513769 -9.232767 9.434650 13.287140 -1.408286 0.781215 0.001260 -0.006114 -685856.000000 1 0 0
-0.087431 -6.704467 -1.153450 6.803526 1.557756 1.741156 0.005390 0.001018 450280.000000 1 0 0
-0.423531 -10.212667 -8.475250 13.278095 1.529349 2.263069 0.004013 0.000319 -356238.000000 1 0 0
-4.439331 6.482633 3.834350 8.742679 -0.970342 1.116780 -0.002179 0.002474 -110559.000000 1 0 0
10.837169 -1.206567 -8.677350 13.935438 -0.110879 2.242962 0.010554 -0.001514 1122970.000000 1 0 0
3.192269 -1.055267 6.175150 7.031120 -0.319261 0.498586 0.004486 -0.002779 103043.000000 1 0 0
2.114369 -12.443167 6.660850 14.271296 -1.402482 1.085206 0.004872 -0.005377 971954.000000 1 0 0
2.943469 -4.894467 -1.302250 5.857958 -1.029358 1.794974 0.007564 -0.004305 -2601910.000000 1 0 0
-1.054231 9.434633 -1.537650 9.617072 -1.459517 1.731373 0.000785 0.001335 -319400.000000 1 0 0
4.574169 -2.636267 2.563350 5.868874 -0.522839 1.118791 0.004446 -0.001415 -1570470.000000 1 0 0
17.909469 6.701233 -2.543250 19.290509 0.358045 1.703021 0.009357 0.013164 -440102.000000 1 0 0
-7.088531 3.606133 -5.429350 9.629606 -0.470605 2.169798 0.001893 -0.004860 390929.000000 1 0 0
-13.859631 -5.991767 2.249750 15.266041 0.408053 1.422888 -0.009542 -0.000710 2149200.000000 1 0 0
6.717269 -6.127967 3.177050 9.631580 -0.739553 1.234644 0.000156 -0.005545 1196320.000000 1 0 0
-4.608831 1.954933 3.582950 6.156348 -0.401168 0.949619 0.001882 -0.002796 741456.000000 1 0 0
6.921669 -12.155767 -5.430250 15.005325 -1.053170 1.941089 -0.000266 0.001249 252688.000000 1 0 0
2.919369 -12.391867 3.400650 13.177462 -1.339428 1.309777 0.001561 -0.005770 -137801.000000 1 0 0
3.300369 11.305133 -5.971750 13.204555 1.286755 2.040082 0.001892 -0.000403 -367320.000000 1 0 0
-5.597731 -8.361167 6.394850 11.922156 0.980841 1.004650 0.008476 0.001686 -491949.000000 1 0 0
-4.055031 6.473133 6.344450 9.929591 -1.011162 0.877672 -0.000313 0.001118 314755.000000 1 0 0
4.321669 4.340333 -6.980050 9.286356 0.787553 2.421350 0.001005 0.002745 -1948980.000000 1 0 0
-0.305131 -2.703067 1.588750 3.150207 1.458389 1.042188 0.008225 -0.003083 1249040.000000 1 0 0
-13.206331 -0.907367 6.494950 14.744995 0.068599 1.114657 -0.010713 -0.003208 -260417.000000 1 0 0
-0.542031 -9.268967 -6.005850 11.057928 1.512385 2.144952 0.004594 -0.000185 -68217.700000 1 0 0
2.102969 -1.695767 -3.900150 4.744394 -0.678612 2.535806 0.006172 -0.001573 -1616030.000000 1 0 0
11.444769 -1.927267 1.139450 11.661708 -0.166832 1.472932 -0.002056 -0.001664 -512767.000000 1 0 0
0.569469 -4.233467 -1.991050 4.712835 -1.437083 2.006969 0.007733 -0.001500 -1259490.000000 1 0 0
1.094269 -7.266667 -11.213550 13.406923 -1.421332 2.561478 -0.001383 0.000902 -429353.000000 1 0 0
-4.457031 4.276533 -9.967650 11.726377 -0.764734 2.586819 0.007037 -0.005476 214756.000000 1 0 0
-0.991431 5.786333 -2.031450 6.212196 -1.401104 1.903934 0.003724 -0.001264 -157893.000000 1 0 0
-11.264531 1.715533 -3.900050 12.043384 -0.151134 1.900575 -0.000759 0.000804 140692.000000 1 0 0
-1.700631 -11.345167 4.174850 12.207962 1.422005 1.221776 0.013274 -0.001400 -731547.000000 1 0 0
-3.557331 -5.458167 -9.733850 11.712985 0.993196 2.551754 0.004741 -0.001920 -2349990.000000 1 0 0
-12.776031 -3.819367 -8.320750 15.717806 0.290491 2.128670 0.005402 0.000158 29439.200000 1 0 0
11.473469 4.379733 0.563350 12.293897 0.364655 1.524957 0.002853 0.001465 -52217.600000 1 0 0
-8.889231 -2.395967 -3.045350 9.697074 0.263279 1.890250 -0.000125 0.000947 -188210.000000 1 0 0
-2.560431 -6.062767 -6.410350 9.187249 1.171197 2.343040 0.006461 -0.002506 -469958.000000 1 0 0
-0.136931 2.837133 -1.886750 3.409971 -1.522570 2.157122 0.003949 -0.003372 -343212.000000 1 0 0
8.045569 5.966633 -5.219850 11.295075 0.638107 2.051198 0.000503 0.000012 -1224420.000000 1 0 0
-9.803431 -0.966067 -0.956650 9.897258 0.098227 1.667606 -0.006515 0.001306 431325.000000 1 0 0
6.192069 0.522933 -8.905750 10.859446 0.084252 2.532369 0.001429 0.000577 533352.000000 1 0 0
-4.243031 2.374033 7.909950 9.284754 -0.510118 0.551139 -0.001467 0.001368 -2068730.000000 1 0 0
-10.120031 -3.401567 1.427450 10.771411 0.324258 1.437883 -0.005016 -0.000758 662177.000000 1 0 0
-1.844031 -8.047567 -7.812850 11.366812 1.345544 2.328615 0.004983 -0.003075 628431.000000 1 0 0
-9.407831 -9.808567 4.306250 14.256895 0.806249 1.263957 0.001882 0.001361 -912660.000000 1 0 0
-1.224531 -10.747867 7.388650 13.099934 1.457353 0.971548 0.006852 -0.004153 12675.400000 1 0 0
9.501369 3.777433 -3.758150 10.893517 0.378407 1.923024 -0.002770 0.001800 -818418.000000 1 0 0
12.826869 -0.661767 3.072750 13.206373 -0.051547 1.335972 0.001922 -0.005987 -1316720.000000 1 0 0
6.447569 11.897733 -6.927850 15.202707 1.074181 2.043953 0.003807 -0.003103 1147460.000000 1 0 0
-11.812131 -0.125867 -6.587650 13.525510 0.010655 2.079509 0.004328 0.001820 711947.000000 1 0 0
-7.603031 -6.554967 -11.427350 15.210457 0.711507 2.420799 0.018212 -0.002531 -844539.000000 1 0 0
4.019369 6.006933 6.635350 9.811546 0.981096 0.828096 -0.001755 0.000354 -2750180.000000 1 0 0
-4.288431 -1.376867 -7.369750 8.637107 0.310669 2.593013 0.008110 -0.008092 -177071.000000 1 0 0
9.644169 9.158433 0.871750 13.328422 0.759570 1.505344 0.007500 0.001438 -702062.000000 1 0 0
-8.866731 3.917733 4.764350 10.801231 -0.416053 1.113980 -0.005954 -0.003325 -352001.000000 1 0 0
-7.022731 7.918133 -12.082050 16.062114 -0.845256 2.422203 0.007150 -0.004462 -756956.000000 1 0 0
11.188169 -3.589567 7.110650 13.733953 -0.310461 1.026586 0.009327 -0.004649 -101187.000000 1 0 0
11.927269 6.886533 6.450050 15.208130 0.523619 1.132808 0.013071 -0.006035 183845.000000 1 0 0
-9.840631 -0.813067 -14.876150 17.854942 0.082436 2.555606 0.004940 0.005787 762253.000000 1 0 0
1.659069 -13.030267 12.003250 17.793774 -1.444154 0.830406 0.010990 -0.006287 72689.200000 1 0 0
3.017869 3.014733 13.035950 13.716127 0.784878 0.316243 -0.002353 -0.002595 775947.000000 1 0 0
-2.650231 -1.442067 10.967050 11.374510 0.498324 0.268470 0.009800 -0.004340 -226193.000000 1 0 0
2.557369 -10.072467 -8.198350 13.236603 -1.322153 2.238736 -0.004683 0.003758 -1260450.000000 1 0 0
13.904069 3.680133 -7.434650 16.190755 0.258747 2.047881 0.006831 -0.000519 -2352650.000000 1 0 0
7.372369 -1.611267 5.030650 9.069479 -0.215171 0.982819 0.003645 -0.003154 400334.000000 1 0 0
-1.350231 8.739833 10.190550 13.492780 -1.417517 0.714746 -0.003803 0.002619 -54311.600000 1 0 0
-12.262731 -4.663367 0.949550 13.153829 0.363398 1.498545 -0.008710 0.000798 140435.000000 1 0 0
-4.847831 4.900633 -5.279550 8.682817 -0.790815 2.224393 0.004474 -0.003429 -174764.000000 1 0 0
-11.156731 0.260433 2.139350 11.362979 -0.023339 1.381392 -0.016781 0.002827 -3399990.000000 1 0 0
-1.553631 2.271833 -4.019850 4.871775 -0.970980 2.541230 0.005952 -0.005357 778689.000000 1 0 0
3.037469 -9.907267 13.159750 16.749901 -1.273305 0.667032 0.003063 -0.000752 -1290790.000000 1 0 0
8.952569 4.739133 -1.520350 10.243014 0.486859 1.719775 0.000787 -0.000153 -1721390.000000 1 0 0
4.058269 2.214133 3.692650 5.916722 0.499448 0.896812 -0.000157 0.001339 -403474.000000 1 0 0
-5.588231 -3.263367 7.591650 9.975522 0.528550 0.705900 0.004264 -0.005549 17971.500000 1 0 0
1.670369 -5.849067 7.741550 9.845472 -1.292622 0.665990 0.002554 -0.004095 -692367.000000 1 0 0
-5.882231 -6.272567 -9.686550 12.952799 0.817501 2.415591 0.011850 -0.002168 -1128300.000000 1 0 0
-11.795531 -5.782967 5.558450 14.264418 0.455831 1.170520 0.001389 -0.003351 -1111310.000000 1 0 0
10.542669 6.185033 4.576650 13.051752 0.530558 1.212527 0.003938 -0.002525 -664270.000000 1 0 0
1.458669 -3.755267 0.431450 4.051653 -1.200301 1.464107 0.013024 -0.003527 -789993.000000 1 0 0
8.823769 4.333433 6.999550 12.067777 0.456510 0.952043 0.001948 -0.000315 -7828.980000 1 0 0
-7.894031 12.008633 3.589350 14.812374 -0.989262 1.326039 -0.008806 0.002629 -187050.000000 1 0 0
-6.258231 13.332933 -6.975150 16.296787 -1.131942 2.013084 0.014860 -0.006334 202833.000000 1 0 0
4.453069 -6.976467 -0.908350 8.326224 -1.002691 1.680109 0.004396 -0.004028 -135950.000000 1 0 0
-1.990831 -8.238167 11.035650 13.914610 1.333683 0.654918 0.009503 -0.008908 299224.000000 1 0 0
11.749769 8.925433 -5.674650 15.808924 0.649634 1.937941 0.007881 -0.001742 325750.000000 1 0 0
-3.351331 -2.936967 -1.939450 4.859903 0.719599 1.981301 0.007037 -0.002061 -1028720.000000 1 0 0
-2.077531 5.929933 4.776650 7.892821 -1.233813 0.920793 -0.001502 0.002943 -723787.000000 1 0 0
0.343169 -11.511867 -5.728950 12.863192 -1.540995 2.032390 0.002605 -0.002986 -471903.000000 1 0 0
-8.883931 6.318633 -1.567450 11.013912 -0.618232 1.713597 -0.000368 -0.000698 -1237430.000000 1 0 0
2.930069 -0.059967 3.862250 4.848286 -0.020463 0.649111 0.004992 -0.000824 552995.000000 1 0 0
-10.157431 4.013233 -1.027550 10.969745 -0.376278 1.664605 -0.004345 -0.000073 -6537.180000 1 0 0
6.481269 5.561033 13.533350 16.002609 0.709129 0.562927 0.006885 0.000355 -1011660.000000 1 0 0
-8.780831 -1.496867 5.742750 10.598244 0.168847 0.998149 -0.002604 -0.003966 -437889.000000 1 0 0
12.926169 -1.835767 -1.536550 13.145983 -0.141076 1.687948 0.002910 -0.001988 -1432220.000000 1 0 0
5.301269 -5.567267 5.375350 9.380421 -0.809867 0.960587 -0.000153 -0.005965 -84904.600000 1 0 0
-9.034931 -1.211967 3.232350 9.671966 0.133346 1.230042 -0.009134 0.001023 327945.000000 1 0 0
1.942269 5.303333 5.668550 8.001888 1.219732 0.783565 0.000449 0.000453 -1121960.000000 1 0 0
9.309369 3.009233 -7.384950 12.257949 0.312646 2.217379 0.001617 0.000155 -1577560.000000 1 0 0
2.328269 -2.335367 -1.419050 3.590053 -0.786920 1.977161 0.008144 -0.004530 201691.000000 1 0 0
-6.250131 0.425533 -3.899650 7.379193 -0.067979 2.127589 -0.001032 -0.000002 -2350680.000000 1 0 0
-4.087831 4.135433 5.105550 7.738140 -0.791187 0.850257 0.000276 -0.000006 705908.000000 1 0 0
-6.458331 1.874633 -12.296450 14.015241 -0.282503 2.641134 0.005264 -0.004679 -3020400.000000 1 0 0
0.023469 3.072333 6.228550 6.945115 1.563158 0.458258 0.001365 -0.002052 978983.000000 1 0 0
-8.659931 9.490433 -2.217050 13.037563 -0.831123 1.741678 -0.002100 -0.000964 1360820.000000 1 0 0
-1.319931 -3.746467 -6.106150 7.284456 1.232062 2.564851 0.004189 -0.003830 -88891.600000 1 0 0
-3.174031 6.999033 -3.008450 8.252982 -1.145039 1.943923 0.002684 0.001107 670079.000000 1 0 0
6.933769 -0.408667 -4.294950 8.166441 -0.058871 2.124601 -0.000932 0.001396 -145960.000000 1 0 0
-5.140231 -10.879267 7.017650 13.929387 1.129406 1.042802 0.006200 -0.002935 -17043.600000 1 0 0
9.775069 8.345833 -1.511050 12.941722 0.706689 1.687821 0.005546 0.003049 61933.600000 1 0 0
13.721169 4.536233 -4.222550 15.055823 0.319290 1.855069 0.003597 0.000411 450157.000000 1 0 0
4.688269 0.992333 -6.927950 8.423840 0.208584 2.536452 0.001149 0.001233 363330.000000 1 0 0
8.961369 -4.705567 3.621050 10.749907 -0.483521 1.227233 0.000665 -0.005577 -957582.000000 1 0 0
-8.681431 -3.265767 -0.734850 9.304434 0.359803 1.649857 -0.003549 0.002185 9539.280000 1 0 0
-8.582931 -4.207967 -10.475950 14.181651 0.455835 2.401932 0.016358 -0.003392 275193.000000 1 0 0
10.608369 -1.137567 10.730150 15.131678 -0.106825 0.782549 0.018162 -0.007508 1309890.000000 1 0 0
2.074369 -11.649567 9.904550 15.430992 -1.394579 0.873874 0.003380 -0.008448 -214872.000000 1 0 0
-6.362531 -10.618767 2.148750 12.564121 1.030981 1.398929 0.007317 0.002338 -597099.000000 1 0 0
-3.833331 -1.330767 6.830250 7.944664 0.334140 0.536059 0.008014 -0.002404 -969309.000000 1 0 0
4.766669 -7.643567 3.947550 9.835060 -1.013191 1.157778 -0.002489 -0.002911 154419.000000 1 0 0
11.555969 -9.716767 -5.332250 16.012148 -0.699154 1.910293 0.007749 0.001360 190567.000000 1 0 0
11.389969 1.194033 11.468450 16.207481 0.104450 0.784697 0.020979 -0.007644 -847548.000000 1 0 0
-10.258431 -3.480167 4.475350 11.720739 0.327066 1.179019 0.001836 -0.001211 1244090.000000 1 0 0
2.078669 8.828733 8.832850 12.660436 1.339564 0.798651 -0.010069 0.002535 -405844.000000 1 0 0
6.628969 8.817133 4.141450 11.782897 0.926126 1.211645 0.003854 -0.001209 12220.600000 1 0 0
-4.305231 3.529433 0.483650 5.588008 -0.686699 1.484136 0.001607 -0.002203 -1247240.000000 1 0 0
4.833069 6.973333 4.301550 9.512584 0.964731 1.101571 0.001909 0.000474 -1330650.000000 1 0 0
-8.159231 12.991333 1.085650 15.379416 -1.010005 1.500146 -0.005860 -0.001290 -150634.000000 1 0 0
8.869269 8.175433 -9.185350 15.161540 0.744714 2.221608 0.005360 -0.008559 -1030410.000000 1 0 0
7.075669 1.890033 6.031250 9.487533 0.261023 0.881878 0.002618 -0.001904 -587719.000000 1 0 0
11.547769 -6.244567 3.021950 13.471368 -0.495721 1.344547 0.000649 -0.001694 225441.000000 1 0 0
11.434069 4.745833 -2.089950 12.555029 0.393422 1.738038 0.001289 0.003257 1320500.000000 1 0 0
-3.934231 14.405933 -6.002150 16.094561 -1.304199 1.952962 0.003867 0.001520 1987140.000000 1 0 0
7.273269 -3.093067 7.001950 10.559110 -0.402095 0.845818 0.006651 -0.005189 -1506210.000000 1 0 0
-7.976631 -0.531667 0.930850 8.048341 0.066555 1.454880 -0.004747 0.000512 324697.000000 1 0 0
-3.112731 1.116833 10.667850 11.168681 -0.344489 0.300605 0.003556 -0.000319 -103097.000000 1 0 0
7.134169 -1.297667 -1.886250 7.492546 -0.179927 1.825285 -0.000237 0.000514 -1272160.000000 1 0 0
-7.792631 5.448733 2.959650 9.958580 -0.610200 1.269042 -0.001630 -0.002994 756296.000000 1 0 0
9.512669 -2.160667 2.770550 10.140774 -0.223346 1.294069 -0.001602 -0.003676 -1965280.000000 1 0 0
0.232569 3.387533 1.574850 3.742943 1.502250 1.136522 0.003602 -0.001514 -2890940.000000 1 0 0
-7.615331 -3.056867 4.094450 9.170726 0.381721 1.107980 -0.001298 -0.000457 -878282.000000 1 0 0
-2.254931 8.367733 -6.742350 10.980116 -1.307570 2.231979 -0.000134 -0.000462 -153370.000000 1 0 0
4.418769 9.809133 7.293650 12.997767 1.147547 0.975026 -0.005659 0.003200 959369.000000 1 0 0
-11.863831 -3.163467 6.888250 14.078565 0.260585 1.059541 -0.002887 -0.005109 -1954470.000000 1 0 0
-4.796531 2.302033 -5.754750 7.837296 -0.447469 2.395398 0.006712 -0.005791 -1108800.000000 1 0 0
-2.853731 2.771533 -1.753750 4.347507 -0.770787 1.986017 0.003239 -0.003376 926879.000000 1 0 0
2.372369 5.115933 11.415450 12.732376 1.136590 0.458836 -0.004429 -0.001366 344351.000000 1 0 0
-0.693031 1.532833 4.595350 4.893578 -1.146177 0.350919 0.006904 -0.003069 -1136250.000000 1 0 0
5.101069 1.487533 7.752950 9.399037 0.283744 0.600830 0.001728 0.000907 669296.000000 1 0 0
3.224369 -8.219867 2.004150 9.054247 -1.196975 1.347599 0.000028 -0.002819 1933040.000000 1 0 0
5.047769 6.432933 -4.659550 9.411376 0.905469 2.088744 0.005554 -0.000739 -2624020.000000 1 0 0
-4.072931 2.999633 -7.965850 9.436172 -0.634792 2.575834 0.009499 -0.009023 -766695.000000 1 0 0
-8.707831 -2.054567 -12.830850 15.642196 0.231707 2.532682 0.017001 -0.001390 297562.000000 1 0 0
-7.855331 8.195633 1.253750 11.421319 -0.806596 1.460802 -0.003274 0.000113 -839015.000000 1 0 0
7.352169 0.885133 -6.545950 9.883689 0.119814 2.294678 -0.002626 0.002600 106488.000000 1 0 0
9.028869 8.746533 5.452850 13.702404 0.769516 1.161517 0.008005 0.000762 -142898.000000 1 0 0
9.434769 -1.151467 -1.439550 9.613170 -0.121444 1.721109 -0.002470 -0.000695 1116170.000000 1 0 0
5.416669 0.037933 4.261650 6.892271 0.007003 0.904189 0.001135 0.000109 -419969.000000 1 0 0
-4.210231 -7.255167 -7.991250 11.585490 1.044982 2.331959 0.011594 -0.004902 -926303.000000 1 0 0
-2.273731 7.407233 -0.572350 7.769462 -1.272966 1.644530 -0.000398 0.001148 201610.000000 1 0 0
13.272669 -3.344967 -7.444150 15.581011 -0.246878 2.068912 0.010896 -0.001409 1003740.000000 1 0 0
-4.787131 -5.135367 1.592350 7.198902 0.820479 1.347758 0.005838 0.001516 509300.000000 1 0 0
-8.890631 1.326133 2.469750 9.322104 -0.148069 1.302660 -0.009089 0.000064 -1533080.000000 1 0 0
-0.903531 11.253333 10.316850 15.293504 -1.490678 0.830387 -0.005820 0.004566 461060.000000 1 0 0
-8.582631 0.366733 7.473650 11.386461 -0.042704 0.854809 -0.004461 -0.004656 -1523750.000000 1 0 0
-6.086631 12.946333 -2.124950 14.462712 -1.131318 1.718256 -0.003722 0.001282 -315081.000000 1 0 0
-12.953031 -0.774867 3.233450 13.372981 0.059750 1.326586 -0.009373 -0.002440 233786.000000 1 0 0
-6.688431 12.817333 8.786050 16.917855 -1.089840 1.024723 0.007359 -0.006899 1309720.000000 1 0 0
-8.039331 0.884133 -13.981750 16.152457 -0.109536 2.617166 0.006435 -0.002387 32038.500000 1 0 0
7.333669 2.909833 3.797950 8.756384 0.377725 1.122162 0.000385 0.000983 -538288.000000 1 0 0
-1.651731 0.622533 -1.983750 2.655377 -0.360433 2.414438 0.006511 -0.005363 318976.000000 1 0 0
-6.196131 9.705333 -10.392450 15.510917 -1.002601 2.305017 0.005958 -0.000493 -36197.000000 1 0 0
-9.979531 13.691033 5.276450 17.744756 -0.940930 1.268878 -0.008131 -0.003092 447187.000000 1 0 0
-5.651031 8.287133 2.471350 10.330455 -0.972319 1.329224 -0.005489 0.001647 -957736.000000 1 0 0
-2.369331 -10.805367 -1.241450 11.131527 1.354939 1.682554 0.007339 0.001587 14533.500000 1 0 0
-2.391631 -12.473667 8.905150 15.511736 1.381361 0.959303 0.007893 -0.004238 847543.000000 1 0 0
-14.786631 -6.393867 -1.688650 16.198072 0.408129 1.675236 0.011074 0.002126 428519.000000 1 0 0
-2.690331 -9.450367 3.379050 10.390635 1.293453 1.239572 0.008239 -0.000761 -903132.000000 1 0 0
4.755769 -2.687267 7.502550 9.280463 -0.514328 0.629327 0.005873 -0.002661 -782515.000000 1 0 0
-14.999831 -1.166867 -0.280150 15.047757 0.077636 1.589415 -0.003340 -0.001432 3941.590000 1 0 0
5.537369 8.780433 -2.770050 10.743912 1.008145 1.831567 0.003496 0.000170 -175760.000000 1 0 0
-5.673831 -5.689967 8.581150 11.756029 0.786818 0.752568 0.007388 -0.003509 -3018010.000000 1 0 0
3.373069 3.509733 7.098350 8.607113 0.805251 0.601112 0.000750 -0.000781 152043.000000 1 0 0
3.280269 2.291233 9.483650 10.293179 0.609711 0.399250 0.003434 -0.002679 1361640.000000 1 0 0
9.973169 -3.102167 5.160850 11.649975 -0.301564 1.111863 0.006879 -0.004780 -712243.000000 1 0 0
6.590469 9.913633 -5.133250 12.963975 0.984095 1.977912 0.003702 -0.004121 145062.000000 1 0 0
-4.520831 12.125433 -8.480650 15.472087 -1.213922 2.150918 0.007491 -0.002638 -410858.000000 1 0 0
-3.356531 -7.291167 2.323750 8.356269 1.139364 1.288997 0.007035 -0.002596 766807.000000 1 0 0
-7.439931 -4.119067 1.142750 8.580511 0.505636 1.437220 -0.000173 0.001564 2288610.000000 1 0 0
-2.000631 -3.912667 -10.857150 11.712779 1.098133 2.756994 0.007859 -0.003163 -1177320.000000 1 0 0
-5.170831 8.237833 -4.433450 10.689007 -1.010263 1.998483 0.004235 -0.001639 -1903860.000000 1 0 0
-10.988531 -3.195867 -10.266550 15.374116 0.283029 2.302021 0.014122 0.001166 104130.000000 1 0 0
4.672269 -11.319867 -7.691250 14.461148 -1.179348 2.131587 -0.003015 0.002812 -1885370.000000 1 0 0
-9.491131 -3.887767 7.309650 12.594732 0.388773 0.951609 -0.000018 -0.003938 -983634.000000 1 0 0
-5.794931 -9.686367 -5.184150 12.421044 1.031660 2.001344 0.006831 -0.003423 558733.000000 1 0 0
5.120669 4.172133 -9.453950 11.532784 0.683678 2.531763 -0.002272 0.006180 29127.800000 1 0 0
-3.439531 -7.206667 -14.125250 16.226186 1.125497 2.627058 -0.000462 0.001199 432809.000000 1 0 0
0.709469 -0.834867 -8.791050 8.859058 -0.866419 3.017605 0.008821 -0.007661 300363.000000 1 0 0
-7.696731 2.259233 -2.913350 8.534132 -0.285512 1.919177 -0.001951 -0.000722 -319360.000000 1 0 0
-2.294831 7.550433 -12.569750 14.841627 -1.275735 2.580972 0.011511 -0.004583 317890.000000 1 0 0
-9.876931 8.888233 7.614250 15.314413 -0.732759 1.050433 -0.003119 -0.005937 -479552.000000 1 0 0
-10.664731 -3.077967 -14.173450 18.002696 0.280976 2.477207 0.016131 0.005883 -417461.000000 1 0 0
-3.258731 4.810633 7.903050 9.809165 -0.975399 0.633973 -0.001095 0.000349 -481473.000000 1 0 0
8.723569 -2.346567 -3.630850 9.736021 -0.262772 1.952961 -0.001633 0.001690 -4459260.000000 1 0 0
1.967969 -8.481167 -1.081850 8.773454 -1.342791 1.694420 0.002881 0.000805 -154301.000000 1 0 0
-13.577631 -2.867167 5.031650 14.761105 0.208111 1.222952 -0.008604 -0.003953 416512.000000 1 0 0
7.041069 2.791333 -1.915150 7.812553 0.377430 1.818458 0.000144 -0.000095 825746.000000 1 0 0
-11.084131 4.491533 8.859750 14.883783 -0.385000 0.933205 -0.003613 -0.004930 -4124430.000000 1 0 0
-1.784931 -2.652067 7.910850 8.532349 0.978399 0.384037 0.008287 -0.006921 -1078060.000000 1 0 0
3.341969 11.849933 -9.923750 15.813617 1.295911 2.249192 0.000417 -0.003375 637207.000000 1 0 0
3.659369 -4.991567 -7.115850 9.430909 -0.938193 2.425725 -0.000249 -0.003859 213311.000000 1 0 0
8.379969 -13.682167 -9.794450 18.797788 -1.021255 2.118868 0.003042 0.010206 -10333.100000 1 0 0
-6.279231 -5.804667 -0.428450 8.561920 0.746146 1.620859 0.007218 0.001148 -533908.000000 1 0 0
-1.189431 -4.142267 9.879550 10.778619 1.291174 0.411335 0.005529 -0.005192 222594.000000 1 0 0
2.736669 3.290033 1.795750 4.640947 0.876960 1.173490 0.000238 0.001154 -667774.000000 1 0 0
-9.121731 13.410533 7.774650 17.985927 -0.973489 1.123796 -0.000779 -0.012903 272708.000000 1 0 0
4.168569 -11.148967 -0.023850 11.902815 -1.212993 1.572800 -0.006090 -0.000220 -630443.000000 1 0 0
-12.601531 -1.467867 -9.149050 15.641558 0.115961 2.195577 0.009478 -0.002045 388828.000000 1 0 0
-4.359331 1.003433 -13.490550 14.212867 -0.226240 2.821412 0.005662 -0.005737 154365.000000 1 0 0
4.030569 -3.177167 4.913450 7.105059 -0.667546 0.807174 0.004601 0.000164 139842.000000 1 0 0
1.835269 -1.220067 1.103950 2.464849 -0.586702 1.106407 0.006452 -0.001903 484863.000000 1 0 0
8.158069 -9.013267 7.309250 14.185140 -0.835161 1.029468 0.004348 -0.008752 -1489720.000000 1 0 0
-0.044331 2.214433 -6.150150 6.536821 -1.550780 2.795919 0.007188 -0.004715 -741549.000000 1 0 0
-3.791631 -9.877967 -3.436750 11.124835 1.204292 1.884860 0.008886 -0.000551 1301060.000000 1 0 0
-9.439431 2.294433 -5.518850 11.172510 -0.238445 2.087443 0.000593 0.000826 -242361.000000 1 0 0
8.903069 -7.700367 5.238350 12.884122 -0.713088 1.152095 -0.001036 -0.005546 1579660.000000 1 0 0
-5.565531 -4.328667 4.639050 8.439981 0.661034 0.988849 0.001538 -0.001441 -839334.000000 1 0 0
-0.254231 -12.545467 10.468950 16.341735 1.550534 0.875482 0.009683 -0.005372 -1923870.000000 1 0 0
-14.215431 -8.333267 3.088550 16.764873 0.530220 1.385511 -0.011891 -0.001576 -1277010.000000 1 0 0
10.915269 -1.271867 -3.638550 11.575828 -0.115999 1.890540 0.001865 -0.000153 -809952.000000 1 0 0
-13.610831 3.008533 2.763350 14.210633 -0.217542 1.375093 -0.010354 -0.000330 -1375520.000000 1 0 0
-6.358531 6.172033 0.943850 8.911552 -0.770516 1.464684 -0.002853 0.000590 360202.000000 1 0 0
7.112269 -6.926967 -0.385150 9.935571 -0.772200 1.609571 -0.001532 -0.004144 -920988.000000 1 0 0
-6.848031 7.882533 10.115450 14.537957 -0.855511 0.801269 0.000145 0.000480 33728.900000 1 0 0
-12.597131 -5.172767 -1.960350 13.758205 0.389637 1.713769 -0.006077 -0.000559 -1080310.000000 1 0 0
-9.437431 -5.571767 0.103650 10.959947 0.533324 1.561339 -0.000275 0.000250 -714212.000000 1 0 0
-1.798731 1.844333 2.234250 3.410113 -0.797915 0.856371 0.006196 -0.002663 -113096.000000 1 0 0
-7.126931 7.420933 7.611250 12.798223 -0.805605 0.933890 -0.002280 -0.001807 -412141.000000 1 0 0
5.700169 7.084433 -0.440150 9.103562 0.893254 1.619164 0.005622 -0.001864 -1635050.000000 1 0 0
-0.007131 -4.109067 7.529850 8.578061 1.569061 0.499539 0.007443 -0.004934 -1466210.000000 1 0 0
6.460369 0.719133 13.117450 14.639707 0.110858 0.460076 0.010549 -0.003508 208975.000000 1 0 0
5.911569 6.059533 -7.828150 11.530157 0.797758 2.317098 -0.000845 0.001563 -790132.000000 1 0 0
9.945669 5.160033 9.097350 14.432742 0.478592 0.888822 0.009891 -0.006906 -1555450.000000 1 0 0
-1.297931 -5.047567 -8.441350 9.920632 1.319109 2.588470 0.006811 -0.004447 629982.000000 1 0 0
9.962169 -3.602767 -7.938950 13.238265 -0.347011 2.213919 0.008137 -0.005003 388497.000000 1 0 0
8.495869 -5.502167 1.226750 10.196006 -0.574706 1.450187 -0.000043 -0.003977 757527.000000 1 0 0
15.796969 3.070933 -4.909950 16.825055 0.192005 1.866929 0.008846 0.005080 140254.000000 1 0 0
-6.940831 3.608233 1.190450 7.912753 -0.479406 1.419776 -0.002701 -0.001622 526086.000000 1 0 0
-1.776131 3.771533 0.361950 4.184508 -1.130673 1.484190 0.004560 -0.004264 -1123400.000000 1 0 0
-2.622231 9.961433 6.992350 12.449868 -1.313397 0.974429 -0.002289 0.004384 -87788.400000 1 0 0
5.476869 -5.770167 -8.791950 11.857036 -0.811470 2.406094 0.001481 -0.004392 -1245320.000000 1 0 0
-1.373031 -1.003567 6.177950 6.407763 0.631173 0.268631 0.008598 -0.003771 234072.000000 1 0 0
-5.742031 4.996233 -7.776850 10.881758 -0.716057 2.366946 0.003697 -0.003721 54849.100000 1 0 0
6.858869 -1.288167 2.506850 7.415373 -0.185648 1.225940 0.001472 -0.000434 -1121080.000000 1 0 0
8.773869 7.491233 3.274050 11.992446 0.706703 1.294276 0.005651 -0.000281 -185208.000000 1 0 0
-5.217631 -4.863067 -7.729550 10.517559 0.750240 2.396343 0.009664 -0.006108 1176230.000000 1 0 0
-2.276331 7.990733 -10.059050 13.046762 -1.293276 2.451206 0.007176 -0.000119 824804.000000 1 0 0
-2.892631 -2.336467 1.756850 4.112531 0.679437 1.129409 0.004201 0.000266 618347.000000 1 0 0
6.108769 -2.113767 -9.329550 11.350135 -0.333126 2.535670 -0.000162 -0.001938 1083590.000000 1 0 0
1.107269 -7.660867 5.058750 9.246939 -1.427255 0.991933 0.001363 -0.002169 168923.000000 1 0 0
1.759569 11.733133 1.158350 11.920750 1.421940 1.473472 0.003109 -0.000411 528296.000000 1 0 0
-1.028231 6.988233 2.623550 7.534963 -1.424707 1.215164 -0.000553 0.001960 558392.000000 1 0 0
8.748769 7.927433 -6.635250 13.542957 0.736186 2.082818 0.003954 -0.006221 -361052.000000 1 0 0
3.649169 -10.828967 5.395750 12.637131 -1.245765 1.129651 0.001028 0.000786 81606.900000 1 0 0
7.900869 -7.126767 12.291450 16.257130 -0.733932 0.713516 0.012073 -0.002634 397406.000000 1 0 0
-8.665131 0.027533 -3.950450 9.523199 -0.003177 1.998546 -0.001313 0.001201 -1867240.000000 1 0 0
-3.311831 -5.090667 11.232750 12.769408 0.994021 0.495647 0.010579 -0.007932 367890.000000 1 0 0
-8.185331 0.259933 -11.522350 14.136186 -0.031745 2.523691 0.009721 -0.003213 -2220360.000000 1 0 0
1.379369 -5.150467 5.371850 7.568800 -1.309123 0.781673 0.003907 -0.002098 -444495.000000 1 0 0
6.820169 3.735133 -7.490350 10.796817 0.501045 2.337487 -0.003523 0.001332 -390481.000000 1 0 0
16.330269 4.179033 -1.102950 16.892558 0.250531 1.636135 -0.002820 0.010061 618060.000000 1 0 0
7.869869 7.424033 0.036850 10.819079 0.756255 1.567390 0.004610 -0.001927 -2729070.000000 1 0 0
5.423869 -10.244967 13.930350 18.122703 -1.083892 0.694039 0.005436 -0.001343 -685223.000000 1 0 0
-5.396131 -9.052767 8.972050 13.840827 1.033268 0.865538 0.007020 -0.006290 283270.000000 1 0 0
-12.495931 -3.149667 2.815350 13.190712 0.246912 1.355707 -0.008498 -0.000775 -246912.000000 1 0 0
-2.093431 -1.315567 -5.849850 6.350899 0.561059 2.741708 0.007772 -0.007088 -175682.000000 1 0 0
-2.486131 13.072733 -4.391950 14.013080 -1.382864 1.889586 0.000056 0.003204 621265.000000 1 0 0
3.983969 -0.504267 -5.056450 6.457088 -0.125904 2.470408 0.003434 -0.000457 -401108.000000 1 0 0
-8.809231 3.926933 -7.440650 12.181405 -0.419335 2.227893 0.003228 -0.001696 796405.000000 1 0 0
-4.614131 8.005433 -11.340650 14.628312 -1.047929 2.457913 0.009899 -0.002663 -1936710.000000 1 0 0
-10.233431 -6.367067 7.464650 14.176870 0.556571 1.016274 0.001084 -0.000963 -1360850.000000 1 0 0
8.092769 5.281833 4.241250 10.553619 0.578243 1.157231 0.001791 -0.000877 -996788.000000 1 0 0
-6.715931 -7.600567 4.077850 10.931661 0.847111 1.188522 0.007689 0.000266 -537181.000000 1 0 0
-4.106131 11.865633 8.123050 14.954514 -1.237643 0.996572 0.000342 -0.000419 -35438.900000 1 0 0
-7.141731 10.025033 -7.902350 14.627124 -0.951803 2.141534 0.003238 -0.005737 752594.000000 1 0 0
13.127969 5.447333 4.641350 14.951894 0.393320 1.255163 0.005302 -0.008569 -247091.000000 1 0 0
5.349169 3.950633 -3.738350 7.628655 0.636133 2.082933 0.001792 0.000286 562415.000000 1 0 0
-2.889631 -4.123467 5.151650 7.203641 0.959549 0.773964 0.007799 -0.002295 -128283.000000 1 0 0
12.122769 -2.573967 -5.246750 13.457905 -0.209218 1.971280 0.009241 0.000704 -1549300.000000 1 0 0
-5.248231 9.767033 7.035850 13.131719 -1.077724 1.005353 -0.002798 0.003648 -541814.000000 1 0 0
1.725669 3.793833 -0.511450 4.199129 1.143907 1.692899 0.003170 0.000056 620408.000000 1 0 0
-0.038931 9.632533 7.714650 12.341111 -1.566755 0.895514 -0.007414 0.005090 -1180250.000000 1 0 0
-5.697531 2.109933 5.882650 8.456905 -0.354665 0.801537 0.000621 -0.002049 589210.000000 1 0 0
8.999769 0.901133 10.686350 14.000213 0.099796 0.702392 0.013751 -0.006548 176565.000000 1 0 0
0.426669 -2.876167 -10.206550 10.612636 -1.423524 2.864064 0.006452 -0.004773 -2195750.000000 1 0 0
1.177369 10.562633 -2.686250 10.962270 1.459789 1.818362 0.003601 0.000569 630233.000000 1 0 0
2.231469 -4.324367 11.512650 12.498828 -1.094413 0.399904 0.005196 -0.001254 834072.000000 1 0 0
6.569669 -3.128567 9.430550 11.911497 -0.444438 0.657180 0.008189 -0.005620 338904.000000 1 0 0
-10.626931 -8.130267 5.704950 14.545768 0.653072 1.167767 0.000534 -0.000797 -1390200.000000 1 0 0
-3.028031 0.837433 -7.018350 7.689441 -0.269816 2.720703 0.010334 -0.006245 710329.000000 1 0 0
10.961269 2.567733 -5.125550 12.369880 0.230106 1.998033 0.000581 0.000420 -3627730.000000 1 0 0
-1.980031 -4.023267 0.002850 4.484106 1.113452 1.570161 0.004574 -0.000888 1003500.000000 1 0 0
-1.336731 -6.370267 -10.637050 12.470525 1.363958 2.592456 0.003220 -0.000693 119099.000000 1 0 0
0.409169 6.712033 -6.570650 9.401715 1.509911 2.344624 0.006283 0.001801 -2732320.000000 1 0 0
1.974769 3.823133 -6.228250 7.570149 1.094011 2.537008 0.004464 -0.001539 -1232810.000000 1 0 0
1.515269 -14.872867 6.494850 16.299733 -1.469265 1.160955 0.017656 -0.006702 -818483.000000 1 0 0
-1.618731 5.510633 -10.613450 12.067837 -1.285086 2.645570 0.012397 -0.004062 62607.500000 1 0 0
13.676969 4.357733 -0.797650 14.376563 0.308449 1.626307 0.002551 0.002372 -1729950.000000 1 0 0
-2.381431 3.296233 -6.212750 7.425270 -0.945148 2.562033 0.009342 -0.005692 -705190.000000 1 0 0
5.558569 7.827033 14.110150 17.066238 0.953274 0.597424 -0.000704 0.002720 379130.000000 1 0 0
15.843269 0.650833 -5.884150 16.913189 0.041056 1.926130 0.008646 -0.001890 259371.000000 1 0 0
6.103469 -8.283467 10.502450 14.702708 -0.935780 0.775143 0.002204 -0.001441 1635700.000000 1 0 0
-0.034831 -5.891767 -6.372750 8.679060 1.564885 2.395383 0.003535 -0.002872 -1115670.000000 1 0 0
8.785769 5.516533 -7.530650 12.819226 0.560678 2.198700 0.001959 -0.000294 -124794.000000 1 0 0
-16.003831 -0.712467 5.207250 16.844752 0.044489 1.256516 -0.006168 -0.004261 -350608.000000 1 0 0
-0.369831 3.977033 -12.271250 12.904927 -1.478071 2.826916 0.015156 -0.004532 334751.000000 1 0 0
-11.301731 3.753233 5.876050 13.279452 -0.320634 1.112421 -0.004836 -0.004855 457794.000000 1 0 0
5.214469 -9.546467 -9.564550 14.484693 -1.070860 2.292043 -0.000467 0.003439 155241.000000 1 0 0
1.567269 11.149133 -11.599650 16.165129 1.431138 2.371107 0.002021 -0.002382 -1562880.000000 1 0 0
6.021769 2.344933 1.213450 6.575171 0.371343 1.385182 0.002686 0.001011 -286.227000 1 0 0
5.663869 4.544633 4.926250 8.775024 0.676197 0.974726 -0.000504 -0.000483 464501.000000 1 0 0
0.382469 -1.652067 -6.371350 6.593156 -1.343295 2.881469 0.006123 -0.005372 -689934.000000 1 0 0
12.665269 6.885633 -4.481650 15.096561 0.497965 1.872205 0.005003 -0.001214 -1135210.000000 1 0 0
7.400269 3.230233 12.725650 15.071183 0.411573 0.565409 0.010785 -0.002956 -395092.000000 1 0 0
-2.416031 -0.382367 8.726650 9.062992 0.156961 0.273289 0.003406 -0.004824 614082.000000 1 0 0
2.161469 -15.287867 13.289350 20.371491 -1.430343 0.860115 0.016404 -0.004225 -226827.000000 1 0 0
18.919469 4.534733 -1.563950 19.518095 0.235248 1.651011 0.010624 0.003922 326683.000000 1 0 0
-0.278431 -13.235667 7.372750 15.153146 1.549763 1.062661 0.002919 -0.006583 172910.000000 1 0 0
4.448869 1.632833 -0.617150 4.779064 0.351758 1.700294 0.004448 -0.001917 463353.000000 1 0 0
2.765769 -0.545567 -7.356650 7.878288 -0.194757 2.775653 0.003602 -0.001661 78191.200000 1 0 0
7.214869 -11.381167 0.884050 13.504327 -1.005801 1.505285 -0.003769 -0.000983 229820.000000 1 0 0
-11.717131 -7.379967 1.361950 13.914380 0.562075 1.472759 -0.005160 0.002657 428070.000000 1 0 0
0.099969 -7.078867 10.070250 12.309764 -1.556675 0.612749 0.003798 -0.006257 -1427130.000000 1 0 0
-4.785331 -7.149567 10.605250 13.656025 0.980961 0.681548 0.010147 -0.005586 -1362450.000000 1 0 0
11.860769 0.753733 -1.670850 12.001570 0.063463 1.710469 0.001719 -0.000537 920264.000000 1 0 0
6.657369 -9.751367 -7.377950 13.922782 -0.971768 2.129302 0.001450 0.000370 -1905210.000000 1 0 0
-10.885631 4.910033 3.503150 12.444977 -0.423732 1.285449 -0.010061 -0.002969 -554982.000000 1 0 0
5.970269 -9.116467 1.920950 11.065448 -0.990992 1.396313 -0.002217 -0.004030 3932400.000000 1 0 0
11.657769 -1.245167 5.879550 13.115759 -0.106407 1.105955 0.007500 -0.009515 -1096000.000000 1 0 0
-6.459831 3.607233 4.086550 8.452304 -0.509277 1.066166 -0.002871 -0.001811 -1187710.000000 1 0 0
9.512269 6.304833 -3.211750 11.855358 0.585328 1.845136 0.002504 0.001080 -831677.000000 1 0 0
-2.251731 6.540533 10.917250 12.924210 -1.239232 0.564767 -0.000806 0.000964 -371760.000000 1 0 0
1.739269 9.729833 2.962950 10.318613 1.393908 1.279550 -0.000521 0.001164 -917269.000000 1 0 0
2.920869 6.088033 -5.606350 8.776490 1.123462 2.263723 0.002268 0.000918 -1876370.000000 1 0 0
11.947769 0.100933 -5.674450 13.227197 0.008448 2.014180 0.007485 -0.001958 437976.000000 1 0 0
-2.584631 -12.641467 6.300450 14.359062 1.369119 1.116557 0.009974 -0.001932 -135926.000000 1 0 0
10.971569 1.864033 -2.777950 11.470264 0.168290 1.815416 -0.000274 0.000557 506110.000000 1 0 0
-8.833831 5.394333 0.771150 10.379310 -0.548210 1.496431 -0.003306 -0.002472 -480288.000000 1 0 0
1.080569 -10.209667 5.793550 11.788560 -1.465351 1.057036 -0.000573 -0.004755 -394629.000000 1 0 0
9.270669 -5.755967 -1.394850 11.001003 -0.555631 1.697932 -0.002487 -0.002338 264163.000000 1 0 0
-7.752531 8.675933 -4.661250 12.533986 -0.841547 1.951839 -0.002348 -0.002481 -787569.000000 1 0 0
-7.489231 -0.011467 -1.661450 7.671319 0.001531 1.789106 -0.004971 0.001039 -846062.000000 1 0 0
4.084069 8.888633 2.852750 10.189485 1.140094 1.287033 0.004575 -0.000986 2574500.000000 1 0 0
-1.357431 -10.486767 -3.841750 11.250509 1.442070 1.919280 0.008401 0.002477 -559398.000000 1 0 0
3.095969 7.878533 -3.629350 9.210238 1.196371 1.975837 0.007811 -0.002124 211064.000000 1 0 0
-4.290731 1.752733 -11.038950 11.972505 -0.387806 2.744076 0.006190 -0.006379 -487074.000000 1 0 0
1.199469 2.689833 11.010150 11.397251 1.151335 0.261375 0.002992 -0.003349 849989.000000 1 0 0
2.118069 5.566233 -8.076950 10.035252 1.207194 2.506232 0.004120 0.000685 665021.000000 1 0 0
15.572769 6.009633 4.019450 17.169240 0.368298 1.334496 0.016409 -0.009044 223083.000000 1 0 0
-4.433331 9.016133 4.666550 11.077986 -1.113802 1.135978 -0.003242 0.002827 -438839.000000 1 0 0
-0.924331 -8.117467 -12.407050 14.855388 1.457415 2.559272 0.001619 0.000709 662058.000000 1 0 0
14.270269 -4.189267 -5.317850 15.794621 -0.285544 1.914193 0.013058 -0.001580 -74911.000000 1 0 0
-6.020531 -6.238967 -5.664550 10.356574 0.803214 2.149515 0.008658 -0.003096 400338.000000 1 0 0
-8.924131 2.691133 -12.187150 15.343042 -0.292885 2.488669 0.004319 -0.002424 46234.400000 1 0 0
10.411069 5.297433 13.719950 18.019161 0.470684 0.705313 0.007400 0.000944 786287.000000 1 0 0
-0.565131 10.899633 5.530150 12.235356 -1.518994 1.101811 -0.005845 0.005383 647293.000000 1 0 0
0.223269 11.276233 -0.549850 11.291838 1.550999 1.619510 0.002558 0.001410 40466.600000 1 0 0
-1.433831 -0.606467 3.601450 3.923534 0.400150 0.408016 0.007139 -0.003087 245164.000000 1 0 0
-4.917231 6.750533 8.788650 12.123911 -0.941249 0.759904 0.003205 0.002797 -1396390.000000 1 0 0
3.433869 -8.662967 -11.268050 14.622155 -1.193410 2.450602 -0.005180 0.004993 1213380.000000 1 0 0
6.679769 -3.857967 11.966450 14.237245 -0.523756 0.572585 0.014282 -0.003836 -684789.000000 1 0 0
-2.413931 -1.878167 -12.510750 12.879186 0.661215 2.901824 0.004702 -0.006191 1038810.000000 1 0 0
-16.100631 -4.963867 5.417350 17.697965 0.299056 1.259702 -0.006719 -0.004710 1601760.000000 1 0 0
-8.949631 7.354233 5.708850 12.914008 -0.687855 1.112895 -0.008665 -0.000204 -2371900.000000 1 0 0
-12.862231 1.581733 5.982250 14.273268 -0.122361 1.138318 -0.006910 -0.005263 423054.000000 1 0 0
-3.517031 3.538133 10.139950 11.300729 -0.788389 0.457221 0.001341 0.002055 790102.000000 1 0 0
2.105869 -12.126967 -1.177950 12.364691 -1.398859 1.666208 -0.000521 0.001715 -3111290.000000 1 0 0
10.365269 -5.142067 -3.720650 12.154131 -0.460512 1.881913 -0.000039 0.000755 645779.000000 1 0 0
3.193769 -13.431667 1.006150 13.842766 -1.337352 1.498048 0.001046 -0.002103 161504.000000 1 0 0
9.921569 -1.649467 -6.099250 11.762615 -0.164744 2.115925 0.008283 -0.000467 32527.400000 1 0 0
11.900069 -5.420067 -1.636250 13.178243 -0.427389 1.695281 0.004385 -0.000316 403819.000000 1 0 0
1.530269 0.915133 5.930950 6.193170 0.538963 0.292036 0.005595 -0.002764 304429.000000 1 0 0
-10.751031 11.707733 6.518450 17.179810 -0.827971 1.181622 -0.005951 -0.008220 -988036.000000 1 0 0
4.736569 -14.171767 3.167750 15.274446 -1.248243 1.361891 0.002968 -0.003213 -2419120.000000 1 0 0
5.356869 -3.505667 -1.659950 6.613711 -0.579479 1.824495 0.001432 -0.001892 -1838720.000000 1 0 0
2.066969 -2.935467 -7.780650 8.569005 -0.957300 2.709280 0.001690 -0.003137 -120673.000000 1 0 0
-2.768931 14.725033 -8.742850 17.347363 -1.384924 2.099005 0.010581 -0.006501 -6029.370000 1 0 0
-2.272531 6.057033 -8.122450 10.383942 -1.211860 2.469006 0.009958 -0.003390 -255571.000000 1 0 0
2.599169 -3.481367 -11.413550 12.212482 -0.929478 2.777875 0.002107 -0.003175 -1203590.000000 1 0 0
14.682169 2.742133 -2.661750 15.171364 0.184639 1.747155 0.006837 0.003802 655258.000000 1 0 0
-3.543731 13.286733 2.173850 13.921959 -1.310152 1.414009 -0.010022 0.009266 -495220.000000 1 0 0
7.918469 -5.035567 13.845850 16.726226 -0.566418 0.595634 0.021061 -0.002802 -1205750.000000 1 0 0
-11.456531 7.343133 2.862950 13.905761 -0.569991 1.363431 -0.009807 -0.001767 706674.000000 1 0 0
-2.315431 11.885933 3.977250 12.745789 -1.378402 1.253452 -0.005463 0.006101 817128.000000 1 0 0
1.823669 1.422733 0.613850 2.393063 0.662519 1.311384 0.002093 -0.001639 -1270480.000000 1 0 0
-6.843431 8.528433 5.270550 12.138592 -0.894578 1.121649 -0.006899 0.001552 -1375880.000000 1 0 0
-1.073231 9.010633 1.114950 9.142562 -1.452248 1.448540 -0.000920 0.002689 780337.000000 1 0 0
5.080769 13.323933 -8.541650 16.622310 1.206491 2.110482 0.002516 -0.002652 -2055620.000000 1 0 0
8.868469 6.857433 7.212050 13.329959 0.658208 0.999122 0.000779 -0.002741 -1349580.000000 1 0 0
7.213469 -13.843967 2.908550 15.879207 -1.090447 1.386589 0.004877 -0.003387 18678.500000 1 0 0
4.166069 -13.437367 -1.338550 14.131903 -1.270158 1.665657 -0.005144 0.004020 -2507580.000000 1 0 0
12.099869 -12.090367 -4.657550 17.727847 -0.785005 1.836642 0.009396 0.004236 -1299200.000000 1 0 0
3.020569 -0.052967 -1.957050 3.599540 -0.017534 2.145629 0.006332 -0.002912 1458680.000000 1 0 0
-13.607731 -3.347667 -10.638350 17.594082 0.241222 2.220129 0.003931 -0.001646 -129109.000000 1 0 0
-6.499231 13.643833 5.094450 15.948279 -1.126248 1.245662 -0.005453 0.000391 -54206.000000 1 0 0
7.341069 -4.349767 -0.577850 8.552525 -0.534905 1.638413 -0.002069 -0.000792 -1154400.000000 1 0 0
11.745269 2.068333 -7.305250 13.985565 0.174312 2.120392 0.008373 -0.001228 -257026.000000 1 0 0
-7.495631 -4.451167 9.712550 13.051092 0.535874 0.731468 0.010024 -0.005892 45659.300000 1 0 0
0.942869 2.857733 8.554850 9.068688 1.252107 0.338242 0.002873 -0.001425 -2080130.000000 1 0 0
1.728169 8.079233 -8.637750 11.952878 1.360069 2.378425 0.005820 -0.000779 -1185780.000000 1 0 0
-8.598831 -2.135067 -5.544450 10.451762 0.243376 2.129963 0.005200 -0.001820 -1269510.000000 1 0 0
6.728069 -0.450167 7.166750 9.840318 -0.066809 0.754952 0.006954 -0.003553 528860.000000 1 0 0
-10.890431 6.522233 7.117650 14.553417 -0.539607 1.059772 -0.003718 -0.004157 265706.000000 1 0 0
-5.919831 11.052133 4.928550 13.471624 -1.079054 1.196254 -0.008254 0.004313 52108.400000 1 0 0
6.065269 -1.284267 -6.989450 9.342871 -0.208659 2.415998 -0.000201 0.001037 -476157.000000 1 0 0
4.521869 -5.696467 11.366550 13.494276 -0.899846 0.569216 0.008525 -0.002051 -1814840.000000 1 0 0
-8.981431 -7.418067 2.747150 11.968319 0.690355 1.339196 0.002965 0.000473 -2004790.000000 1 0 0
-0.998031 12.647033 -9.320350 15.742059 -1.492045 2.204417 0.014348 0.000425 1146130.000000 1 0 0
-4.458931 9.174733 -2.257750 10.447738 -1.118410 1.788614 -0.002699 -0.000126 36632.200000 1 0 0
-3.268931 9.691933 -0.100850 10.228863 -1.245495 1.580656 -0.002506 0.003520 -1839740.000000 1 0 0
-3.387631 10.748633 -6.406350 12.963428 -1.265482 2.087695 0.002928 0.001166 466685.000000 1 0 0
4.914369 -4.896867 0.415350 6.950025 -0.783614 1.510998 0.001873 -0.004319 -1786170.000000 1 0 0
-2.246531 3.059133 -10.802150 11.449526 -0.937375 2.803709 0.012638 -0.004588 -1238960.000000 1 0 0
-3.590431 12.115233 -2.228350 12.831041 -1.282685 1.745350 -0.006514 0.005240 -345504.000000 1 0 0
-0.120731 0.315533 0.022850 0.338614 -1.205357 1.503264 0.003917 -0.003240 -1762660.000000 1 0 0
-4.881731 -1.746967 0.103350 5.185930 0.343658 1.550866 -0.000913 0.000712 161901.000000 1 0 0
2.612769 2.478833 -2.472250 4.368432 0.759099 2.172364 -0.000843 -0.001781 1955280.000000 1 0 0
6.003569 -9.636467 8.442150 14.148294 -1.013633 0.931426 0.001974 -0.006026 -409113.000000 1 0 0
-4.254631 -5.423767 6.653850 9.580859 0.905614 0.803080 0.006510 -0.002876 48144.300000 1 0 0
-6.282431 5.404433 -12.201050 14.749321 -0.710412 2.544952 0.005148 -0.006280 939096.000000 1 0 0
-12.980031 3.119633 7.960250 15.542809 -0.235867 1.033110 -0.000994 -0.009084 463907.000000 1 0 0
4.756269 -7.493567 -4.830550 10.104942 -1.005242 2.069216 0.000366 -0.003846 1258190.000000 1 0 0
-6.035931 2.467233 -1.031250 6.601756 -0.388033 1.727647 0.001004 -0.001954 -739164.000000 1 0 0
-6.828131 -2.707367 -14.546550 16.295868 0.377487 2.673993 0.005008 0.004684 -422597.000000 1 0 0
2.804669 -6.133267 0.934250 6.808521 -1.141898 1.433144 0.003479 -0.003044 -366178.000000 1 0 0
4.766269 -7.873667 12.927950 15.869589 -1.026457 0.618694 0.004837 -0.000603 5699.070000 1 0 0
-10.088331 -1.562167 8.043550 12.996672 0.153629 0.903464 0.006592 -0.005460 -531133.000000 1 0 0
-4.579731 13.290333 -0.168850 14.058286 -1.238948 1.582807 -0.009191 0.009811 583417.000000 1 0 0
6.812569 2.189833 -4.426250 8.414164 0.311009 2.124743 -0.001061 0.002644 -1599870.000000 1 0 0
5.154069 4.499633 -0.027350 6.841920 0.717711 1.574794 0.001024 0.000274 -517782.000000 1 0 0
-5.832731 12.191633 1.930850 13.652284 -1.124561 1.428890 -0.009507 0.006209 -1571130.000000 1 0 0
6.488369 -7.336667 6.474550 11.740758 -0.846681 0.986684 0.001690 -0.005059 -2176150.000000 1 0 0
-0.353131 4.873033 7.774150 9.181969 -1.498456 0.561090 -0.004121 -0.000519 -1195320.000000 1 0 0
-5.793731 -3.490667 -1.623750 6.956194 0.542249 1.806395 0.002408 0.000593 -492373.000000 1 0 0
2.318269 -6.474467 -5.201750 8.622720 -1.226956 2.218380 0.002123 -0.001186 -177241.000000 1 0 0
-14.328031 -4.854767 -3.706350 15.575566 0.326689 1.811061 0.000406 0.000799 -288621.000000 1 0 0
-12.406231 -5.168367 -6.251650 14.822608 0.394730 2.006187 0.008493 -0.004357 -1073910.000000 1 0 0
-14.697531 -3.724967 -1.222150 15.211392 0.248215 1.651227 -0.003528 0.000781 468139.000000 1 0 0
11.946569 2.875333 8.724150 15.069799 0.236190 0.953398 0.016011 -0.011012 -1586600.000000 1 0 0
8.667069 -6.498367 7.566250 13.213440 -0.643358 0.961101 0.006361 -0.005830 -328467.000000 1 0 0
-8.885931 -1.672467 -9.746350 13.294670 0.186039 2.393668 0.012470 -0.000834 -19522.200000 1 0 0
-8.801431 5.167133 -3.882250 10.919538 -0.530864 1.934280 0.000429 -0.002051 -1266130.000000 1 0 0
-4.080131 -6.267567 4.089250 8.523604 0.993725 1.070420 0.008217 -0.000077 -1579500.000000 1 0 0
-0.190031 -9.288267 3.580550 9.956322 1.550340 1.202930 0.004062 -0.000774 437303.000000 1 0 0
7.897469 -10.382267 3.310350 13.458079 -0.920502 1.322271 -0.002567 -0.005194 186649.000000 1 0 0
-0.049231 6.602133 9.625050 11.671854 -1.563340 0.601235 -0.006661 -0.002109 -437875.000000 1 0 0
0.033369 3.569133 -9.716150 10.351009 1.561447 2.789540 0.013489 -0.004516 -515275.000000 1 0 0
4.478469 -3.111067 10.923450 12.208898 -0.607141 0.463010 0.011412 -0.004652 -3404760.000000 1 0 0
8.544669 -9.173667 1.227150 12.596564 -0.820883 1.473222 -0.003943 -0.002325 -733179.000000 1 0 0
-0.288931 -0.502067 11.452250 11.466891 1.048599 0.050538 0.009462 -0.003454 -733672.000000 1 0 0
11.004469 5.992633 11.390250 16.933629 0.498660 0.833024 0.020177 -0.003334 188673.000000 1 0 0
-6.331731 -2.798367 -11.886550 13.755426 0.416147 2.614226 0.011690 -0.002906 393048.000000 1 0 0
-1.718931 2.687833 8.321550 8.912203 -1.001822 0.366115 0.000893 0.001017 29760.400000 1 0 0
-1.543431 13.494533 -6.810350 15.194258 -1.456917 2.035568 0.014166 -0.000700 603747.000000 1 0 0
7.695069 3.031833 9.749250 12.784912 0.375321 0.703537 0.008589 -0.005118 609861.000000 1 0 0
6.498369 8.444133 -7.986750 13.316169 0.914886 2.214020 0.007025 -0.003578 -780366.000000 1 0 0
6.635669 -3.076567 -3.973150 8.323658 -0.434140 2.068413 0.000742 -0.000585 -2195690.000000 1 0 0
2.063369 7.973033 1.128650 8.312677 1.317559 1.434601 0.001304 0.000893 592620.000000 1 0 0
-17.631531 6.346633 6.349750 19.785600 -0.345520 1.244087 0.016317 -0.007715 794182.000000 1 0 0
-14.625431 3.180433 -10.051150 18.028977 -0.214125 2.162167 0.012614 -0.006753 -1542980.000000 1 0 0
-18.224031 0.155933 -4.307250 18.726773 -0.008556 1.802879 0.007294 -0.002886 130901.000000 1 0 0
-13.027231 7.999733 0.162750 15.288262 -0.550707 1.560151 -0.001878 -0.001101 -1717690.000000 1 0 0
-13.016531 -4.392267 -13.007450 18.918664 0.325440 2.328900 0.024447 0.018401 -626704.000000 1 0 0
-17.420831 -0.778467 -8.675450 19.477033 0.044656 2.032439 -0.002408 -0.007867 41793.200000 1 0 0
-16.684731 -2.138967 -2.012550 16.941245 0.127504 1.689873 0.003904 -0.001605 289900.000000 1 0 0
-15.260031 4.170533 1.773850 15.918808 -0.266783 1.459133 -0.002697 0.000347 -2153540.000000 1 0 0
-13.147731 5.941033 4.398450 15.083271 -0.424406 1.274886 -0.010060 -0.001587 144944.000000 1 0 0
-9.806231 14.242433 2.750150 17.509209 -0.967815 1.413074 0.002045 -0.003055 401221.000000 1 0 0
-11.836131 2.424333 -6.489550 13.714432 -0.202030 2.063706 0.001253 0.002773 180171.000000 1 0 0
-15.943831 10.945833 3.995350 19.747907 -0.601625 1.367072 0.015261 -0.005192 85507.200000 1 0 0
-12.905631 1.102533 -8.633750 15.566391 -0.085223 2.158727 0.005484 -0.002118 687708.000000 1 0 0
-12.099531 14.505933 3.965450 19.301439 -0.875600 1.363874 0.011739 -0.010935 -268932.000000 1 0 0
-10.483731 11.198133 -1.111650 15.379940 -0.818336 1.643139 0.001748 -0.004652 -62176.600000 1 0 0
-16.960131 5.705533 8.851950 19.963872 -0.324516 1.111410 0.007430 -0.013397 535049.000000 1 0 0
-11.744031 12.634233 -9.107650 19.506291 -0.821898 2.056588 0.014970 -0.010698 -372460.000000 1 0 0
-17.048031 -0.408067 2.909950 17.299413 0.023932 1.401782 -0.004204 -0.002226 287469.000000 1 0 0
-13.140731 14.863033 -0.598350 19.848088 -0.846823 1.600947 0.034774 -0.010899 50801.500000 1 0 0
-16.648131 4.711133 -10.205550 20.087516 -0.275772 2.103721 0.027096 -0.011307 733070.000000 1 0 0
-11.871231 7.712733 -8.803750 16.670885 -0.576164 2.127148 0.010712 -0.002416 -203653.000000 1 0 0
-14.744431 13.385133 -2.096650 20.023885 -0.737113 1.675696 0.046375 -0.017542 358419.000000 1 0 0
-11.873031 10.639033 -5.472750 16.855530 -0.730638 1.901476 0.021846 -0.010702 264763.000000 1 0 0
-17.618231 2.818033 -0.813350 17.860709 -0.158606 1.616351 0.006949 -0.001723 104043.000000 1 0 0
-9.123631 15.422633 0.618450 17.929884 -1.036595 1.536297 0.003497 -0.003562 -298945.000000 1 0 0
-8.174831 13.277733 -3.677650 16.020336 -1.018927 1.802423 0.007165 -0.005892 -596829.000000 1 0 0
-17.632631 11.584533 2.035650 21.195635 -0.581276 1.474607 0.044312 -0.007758 -79936.200000 1 0 0
-7.917131 15.814733 -7.413850 19.176859 -1.106655 1.967743 0.033449 -0.014896 -156245.000000 1 0 0
-6.263831 15.326833 -5.359050 17.403069 -1.182826 1.883820 0.011867 -0.005649 -937580.000000 1 0 0
-17.143231 5.273633 -0.040650 17.936087 -0.298435 1.573063 0.009460 -0.002681 404650.000000 1 0 0
-5.361131 12.184833 -12.300150 18.124723 -1.156303 2.316705 0.000068 -0.003153 -75543.500000 1 0 0
-11.217331 3.830733 -11.378250 16.430691 -0.329084 2.335745 0.008656 -0.005730 387489.000000 1 0 0
-11.758331 11.104333 1.208050 16.218013 -0.756800 1.496239 0.004292 -0.005188 338400.000000 1 0 0
-13.001431 0.109433 -11.070750 17.076612 -0.008417 2.276144 0.016756 -0.008401 1969390.000000 1 0 0
-14.226231 -2.108967 -12.879150 19.305592 0.147173 2.301133 0.017257 -0.002421 127242.000000 1 0 0
-18.633931 -2.335967 -3.690550 19.138973 0.124710 1.764841 -0.001245 0.002118 37357.000000 1 0 0
-18.295331 4.834833 -5.052950 19.586400 -0.258360 1.831730 0.026851 -0.008114 346908.000000 1 0 0
-8.241431 15.610933 -2.423350 17.818391 -1.085058 1.707222 0.015377 -0.003147 1275740.000000 1 0 0
-16.438231 9.158533 -5.334050 19.558790 -0.508315 1.847014 0.051752 -0.004842 22328.100000 1 0 0
-18.003331 1.929333 2.248150 18.245450 -0.106758 1.447265 -0.000133 -0.006528 -468894.000000 1 0 0
-15.686331 -2.712667 -8.677550 18.130621 0.171238 2.069871 -0.011645 -0.004768 -305623.000000 1 0 0
-9.685331 10.454333 -7.129050 15.934932 -0.823563 2.034636 0.006493 -0.014135 400207.000000 1 0 0
-13.845831 11.977433 -7.650750 19.841873 -0.713171 1.966639 0.036176 -0.021022 -29528.000000 1 0 0
-11.066731 6.514833 -3.776450 13.385707 -0.532059 1.856805 -0.002106 -0.001521 -846512.000000 1 0 0
-13.166931 5.187633 -12.695950 19.012279 -0.375314 2.302014 0.013162 -0.004389 257850.000000 1 0 0
-17.464231 9.169233 2.645850 19.901626 -0.483470 1.437455 0.018745 -0.009705 729531.000000 1 0 0
-13.352531 8.718433 -6.528150 17.231306 -0.578441 1.959354 0.015124 -0.007949 -362707.000000 1 0 0
-15.869331 7.001333 -3.778750 17.751994 -0.415500 1.785301 0.024242 -0.003778 -708612.000000 1 0 0
-15.016831 -0.286667 -9.331150 17.682131 0.019087 2.126706 0.005646 -0.005046 -155125.000000 1 0 0
-10.055631 5.826533 -6.029850 13.092872 -0.525157 2.049405 0.001145 -0.002069 410137.000000 1 0 0
-12.759431 12.232333 -0.878750 17.697606 -0.764310 1.620470 0.023487 -0.010861 -2067320.000000 1 0 0
-10.621731 3.523333 -13.887850 17.835566 -0.320289 2.463324 0.005153 -0.005942 301240.000000 1 0 0
-11.039131 6.320933 -11.917750 17.431276 -0.520024 2.323616 -0.000133 -0.001033 -670277.000000 1 0 0
-5.771531 11.686033 -14.840150 19.751050 -1.112054 2.420917 0.012022 -0.002444 -285459.000000 1 0 0
-15.525131 13.482333 3.305850 20.826225 -0.715091 1.411387 0.018774 -0.013890 501364.000000 1 0 0
-15.106331 11.087233 -3.319650 19.030188 -0.633147 1.746135 0.040936 -0.008537 488911.000000 1 0 0
-18.321531 7.810133 -4.418150 20.400900 -0.402956 1.789092 0.053870 -0.004224 499105.000000 1 0 0
-4.034031 16.185633 -10.531850 19.727341 -1.326538 2.133968 0.013443 -0.005839 204704.000000 1 0 0
-15.798631 4.494233 -4.395250 17.003326 -0.277149 1.832259 0.013758 -0.003194 -300664.000000 1 0 0
-18.800331 -1.583867 -6.212750 19.863518 0.084048 1.888906 0.008612 -0.001026 782415.000000 1 0 0
-10.788431 8.617833 -5.668850 14.926257 -0.674011 1.960366 0.006999 -0.005075 -1065740.000000 1 0 0
-11.397431 13.504833 -6.650450 18.881484 -0.869824 1.930739 0.020737 -0.014222 22172.000000 1 0 0
-9.399731 10.600833 -4.460850 14.853679 -0.845380 1.875824 -0.001933 -0.004454 -48329.200000 1 0 0
-11.044631 6.393033 -0.277550 12.764473 -0.524713 1.592542 -0.006737 0.001047 -1075910.000000 1 0 0
-14.640831 9.595433 -1.243250 17.549129 -0.580154 1.641700 0.023499 -0.005011 530312.000000 1 0 0
-18.644131 3.598333 4.886450 19.606862 -0.190657 1.318920 0.011097 -0.002402 420482.000000 1 0 0
-14.810031 13.118933 0.384850 19.788672 -0.724922 1.551347 0.026671 -0.010406 -180281.000000 1 0 0
-16.857031 2.456733 -9.003050 19.267847 -0.144720 2.056983 0.008618 -0.006944 -110729.000000 1 0 0
-9.105531 8.530433 -8.956850 15.359171 -0.752800 2.193409 0.003159 -0.001695 -1359150.000000 1 0 0
-17.602531 4.781233 -2.544150 18.416894 -0.265223 1.709382 0.009993 -0.002166 844683.000000 1 0 0
-13.588031 5.909733 -4.378350 15.450873 -0.410245 1.858105 0.008155 -0.000891 -575008.000000 1 0 0
-12.134231 9.737033 3.349450 15.914402 -0.676229 1.358744 -0.006735 -0.003018 589569.000000 1 0 0
-17.523231 2.594533 -3.927850 18.144510 -0.146995 1.789000 0.010332 -0.003243 709015.000000 1 0 0
-11.318131 1.486633 -12.591150 16.995506 -0.130602 2.405134 0.015151 -0.004715 814334.000000 1 0 0
-11.133531 12.099333 3.480750 16.806695 -0.826945 1.362181 -0.001419 -0.006103 -574004.000000 1 0 0
-15.803731 13.361733 -4.426350 21.163327 -0.701864 1.781504 0.025900 -0.005367 -260404.000000 1 0 0
-11.126131 4.074833 -4.612750 12.715051 -0.351069 1.942044 -0.001544 0.001148 62572.600000 1 0 0
-11.198331 15.067633 -8.767050 20.719492 -0.931659 2.007694 0.029083 -0.019351 461740.000000 1 0 0
-15.467831 7.276833 -0.335950 17.097338 -0.439729 1.590447 0.016915 -0.000425 -1531420.000000 1 0 0
-12.830331 8.409133 -4.043550 15.864464 -0.580169 1.828521 0.007772 -0.005184 996718.000000 1 0 0
-19.165031 2.056233 -5.869550 20.148899 -0.106882 1.866391 0.016962 -0.008620 613702.000000 1 0 0
-12.671531 10.167133 -8.867550 18.508694 -0.676178 2.070428 0.019747 -0.010691 635180.000000 1 0 0
-16.682131 11.211233 -1.201050 20.135237 -0.591721 1.630481 0.035625 -0.002269 1095050.000000 1 0 0
-10.690631 6.544533 -14.509050 19.173759 -0.549323 2.429068 -0.000248 -0.008342 -116034.000000 1 0 0
-13.369631 12.787233 -4.302550 18.994007 -0.763136 1.799301 0.028708 -0.018597 -279847.000000 1 0 0
-18.034831 7.714233 -0.220050 19.616650 -0.404190 1.582014 0.039578 -0.003962 618096.000000 1 0 0
-12.788231 6.751033 -2.053350 14.605874 -0.485725 1.711847 -0.006265 0.001796 245107.000000 1 0 0
-13.710731 8.484433 -10.541550 19.263801 -0.554141 2.149836 0.009387 -0.005111 -578719.000000 1 0 0
-14.863031 1.521133 -0.991750 14.973547 -0.101988 1.637078 -0.005110 -0.000512 -935852.000000 1 0 0
-13.186231 3.034033 -2.448350 13.750508 -0.226155 1.749806 -0.001189 0.000730 758415.000000 1 0 0
-11.316931 9.477833 -10.794450 18.287220 -0.697187 2.202193 0.007955 -0.004070 -794547.000000 1 0 0
-15.437931 4.442633 -7.901450 17.902503 -0.280203 2.027910 0.014981 -0.003416 690491.000000 1 0 0
-18.493531 10.643133 4.420450 21.790534 -0.522214 1.366518 0.050293 -0.024219 967648.000000 1 0 0
-15.301031 6.329833 -6.212550 17.685704 -0.392249 1.929729 0.019136 0.000729 606428.000000 1 0 0
-7.713631 11.294933 -13.180350 18.994664 -0.971620 2.337684 0.003441 0.005393 -841146.000000 1 0 0
-16.890431 9.182233 -2.789950 19.426371 -0.497943 1.714911 0.040265 -0.006765 1593220.000000 1 0 0
-20.614731 -0.739567 -4.643050 21.144077 0.035860 1.792192 0.019005 -0.006401 1788610.000000 1 0 0
-15.427931 4.506533 4.196150 16.611369 -0.284195 1.315423 -0.001930 0.001271 152321.000000 1 0 0
-6.919731 12.763633 -9.462850 17.330278 -1.074004 2.148414 0.010942 -0.005717 -906727.000000 1 0 0
-17.149231 1.603233 5.818150 18.180136 -0.093216 1.245037 0.000820 -0.007238 40868.400000 1 0 0
-10.414431 14.406833 -3.264850 18.074193 -0.944878 1.752429 0.022803 -0.014748 206122.000000 1 0 0
-10.056431 8.492733 -12.858350 18.400964 -0.701297 2.344496 -0.009018 -0.001833 -552923.000000 1 0 0
-13.709931 11.772533 2.757250 18.279966 -0.709515 1.419384 0.007528 -0.007398 -288563.000000 1 0 0
-16.670531 6.848333 1.917950 18.124150 -0.389786 1.464775 0.006288 -0.002250 753936.000000 1 0 0
-9.276231 13.395733 -8.207850 18.244532 -0.965138 2.037427 0.019151 -0.014524 -13371.900000 1 0 0
-5.625131 9.786433 -13.016950 17.229549 -1.049121 2.427216 0.009677 0.001030 -324186.000000 1 0 0
-15.695131 1.879633 3.303150 16.148714 -0.119191 1.364797 -0.010343 -0.001071 -1003020.000000 1 0 0
-18.619731 -4.855367 4.563250 19.776052 0.255084 1.337952 0.008071 -0.003723 245444.000000 1 0 0
-5.211031 14.497933 -9.112250 17.899106 -1.225743 2.104923 0.009785 -0.006471 -1038660.000000 1 0 0
-15.476831 -0.812267 -6.831850 16.937126 0.052435 1.985988 0.000447 -0.004191 896205.000000 1 0 0
-8.902331 11.123733 -9.426850 17.083748 -0.895872 2.155320 -0.001166 -0.006019 602781.000000 1 0 0
-16.695431 1.318733 -6.092150 17.821077 -0.078824 1.919682 -0.001050 -0.004637 -533324.000000 1 0 0
-11.185131 8.741233 -1.569150 14.282106 -0.663361 1.680887 -0.004054 -0.003518 292479.000000 1 0 0
-10.688431 11.076333 -12.668450 19.935329 -0.803219 2.259423 0.008355 0.003013 -293010.000000 1 0 0
-14.019131 11.982233 -10.237550 21.093065 -0.707220 2.077561 0.040950 -0.009513 -414406.000000 1 0 0
-13.155731 5.720433 -7.628950 16.248000 -0.410162 2.059557 0.010157 -0.003825 412489.000000 1 0 0
-8.852631 15.400433 -5.021850 18.459724 -1.049090 1.846312 0.021165 -0.013607 329371.000000 1 0 0
-8.690231 6.265333 -12.983150 16.832608 -0.624657 2.451692 0.005672 -0.004972 -1035390.000000 1 0 0
-16.388231 7.636233 4.328150 18.590833 -0.436045 1.335829 0.012535 0.000815 -578352.000000 1 0 0
-12.685431 5.504833 -10.115450 17.133175 -0.409426 2.202352 0.008239 -0.006784 5217.040000 1 0 0
-12.479131 9.291933 -13.182150 20.392102 -0.640035 2.273698 0.011643 -0.003475 -200961.000000 1 0 0
-10.747831 5.350133 -8.513750 14.718143 -0.461876 2.187627 0.002453 -0.001283 -1324480.000000 1 0 0
-17.699231 -4.364767 -2.545550 18.406352 0.241783 1.709538 0.000175 0.000226 720182.000000 1 0 0
-9.010431 13.310733 -10.859450 19.398225 -0.975722 2.164961 0.018880 -0.012277 67327.300000 1 0 0
-15.033631 6.261133 6.134850 17.402535 -0.394628 1.210527 -0.004438 -0.006294 -270168.000000 1 0 0
-16.264531 -3.086367 -4.470150 17.147678 0.187531 1.834528 -0.011608 0.003411 -670929.000000 1 0 0
-11.140831 -1.104967 -12.603150 16.857594 0.098858 2.415274 0.014337 0.001221 -66906.000000 1 0 0
-15.337031 6.879833 -8.662950 18.910403 -0.421670 2.046659 0.014435 -0.002906 -10002.000000 1 0 0
-14.777831 9.305433 1.272750 17.509862 -0.561964 1.498045 0.011103 -0.007513 -423529.000000 1 0 0
-19.440531 5.466233 7.873550 21.675026 -0.274100 1.199038 0.024418 -0.014571 544582.000000 1 0 0
-16.161731 0.864833 0.925950 16.211319 -0.053460 1.513648 -0.001534 -0.005757 -1456270.000000 1 0 0
-17.475031 3.858233 7.133950 19.265407 -0.217299 1.191466 0.002285 -0.000872 162980.000000 1 0 0
-15.378931 4.067733 -1.415650 15.970662 -0.258579 1.659553 0.003032 0.000501 -2001130.000000 1 0 0
-10.727131 13.330633 0.480650 17.117481 -0.893197 1.542713 0.009327 -0.010528 28683.900000 1 0 0
-13.357631 3.426633 0.083950 13.790401 -0.251115 1.564709 -0.002900 0.000845 -558445.000000 1 0 0
-15.000731 0.278033 -4.368750 15.626427 -0.018533 1.854147 -0.006359 0.001987 -134160.000000 1 0 0
-18.796831 7.017933 3.456550 20.359764 -0.357330 1.400196 0.030263 -0.005241 495116.000000 1 0 0
-14.104231 1.349933 -6.424950 15.557366 -0.095421 1.996525 -0.000514 -0.001310 -1524290.000000 1 0 0
-14.135931 12.327833 5.200550 19.463960 -0.717181 1.300322 0.007831 -0.013814 -5581.480000 1 0 0
17.718969 5.474133 6.179450 19.547726 0.299640 1.249158 0.045599 -0.023159 -295699.000000 1 0 0
18.563069 7.729833 -0.209350 20.109244 0.394572 1.581207 0.016720 0.009397 -60013.900000 1 0 0
16.734369 5.236433 8.621150 19.539283 0.303263 1.113837 0.058298 -0.013678 433322.000000 1 0 0
11.701769 12.199033 10.992450 20.163873 0.806200 0.994222 0.036454 -0.011301 762673.000000 1 0 0
-2.366831 16.148833 -0.499050 16.328985 -1.425269 1.601363 -0.006099 0.000478 -92141.900000 1 0 0
14.983169 12.605533 3.508650 19.892346 0.699429 1.393487 0.029131 -0.005301 113371.000000 1 0 0
13.630669 11.739533 6.828950 19.241786 0.710994 1.207987 0.033801 -0.001709 929376.000000 1 0 0
-0.558831 15.926233 8.626150 18.120918 -1.535722 1.074658 -0.003702 -0.000537 193409.000000 1 0 0
0.744469 12.910333 9.335250 15.949226 1.513196 0.945533 -0.008370 -0.001062 -1610230.000000 1 0 0
0.854569 15.473533 -3.982550 16.000663 1.515625 1.822340 0.003534 -0.004431 -454765.000000 1 0 0
5.447369 10.313933 13.486850 17.831045 1.084878 0.713052 0.000707 -0.001802 -217352.000000 1 0 0
-1.300331 16.407433 -2.846950 16.703288 -1.491709 1.742075 0.000430 -0.003215 -372928.000000 1 0 0
8.624269 9.984333 3.304850 13.600991 0.858356 1.325353 0.006745 -0.002280 178321.000000 1 0 0
12.418169 13.860833 -4.957650 19.259073 0.840241 1.831146 0.023840 -0.005450 -736973.000000 1 0 0
2.353769 11.640333 7.597650 14.098293 1.371279 1.001659 -0.004971 0.003217 365485.000000 1 0 0
-0.240031 14.870033 -8.672050 17.215689 -1.554656 2.098707 0.017826 -0.001347 -1431000.000000 1 0 0
2.355569 15.917933 0.257750 16.093344 1.423880 1.554780 0.005186 -0.007557 -614835.000000 1 0 0
1.936369 13.477233 5.194050 14.572697 1.428096 1.206359 0.000921 0.000937 119727.000000 1 0 0
17.631069 9.216033 -2.072650 20.002143 0.481654 1.674604 0.010057 0.017410 486901.000000 1 0 0
-7.252431 15.019433 7.234050 18.180006 -1.120947 1.161556 0.004082 -0.008311 26590.100000 1 0 0
8.360269 15.843633 -0.006550 17.914096 1.085256 1.571162 0.000413 -0.012177 -982257.000000 1 0 0
15.650169 10.425933 2.308250 18.946131 0.587670 1.448661 0.019296 0.003192 -51728.000000 1 0 0
14.181769 7.349433 8.656550 18.167900 0.478126 1.074155 0.033905 -0.014766 -1308220.000000 1 0 0
4.163769 18.377133 -1.729750 18.922157 1.347985 1.662338 0.001443 -0.014763 -956491.000000 1 0 0
-0.334131 17.546533 -4.850750 18.207752 -1.551756 1.840464 0.011916 -0.003052 657377.000000 1 0 0
1.288169 13.669333 -0.743250 13.749999 1.476836 1.624877 0.000359 -0.002922 125253.000000 1 0 0
10.349269 14.684933 4.290450 18.470587 0.956887 1.336370 0.021069 -0.016232 530313.000000 1 0 0
-1.612031 15.361533 -5.183150 16.292341 -1.466240 1.894557 0.008852 -0.001913 31783.200000 1 0 0
15.069569 8.781433 -6.145750 18.492585 0.527621 1.909575 0.014627 -0.001885 106893.000000 1 0 0
-2.364531 18.527033 0.618550 18.687551 -1.443857 1.537691 -0.000891 0.001569 -398938.000000 1 0 0
-3.799731 19.350133 3.486550 20.025525 -1.376896 1.395799 0.007996 -0.000795 452417.000000 1 0 0
1.918269 17.626333 -2.737450 17.940485 1.462393 1.723980 0.001128 -0.006944 -299698.000000 1 0 0
2.887669 12.144333 3.248550 12.898703 1.337352 1.316204 0.002715 0.000014 138924.000000 1 0 0
-2.576131 16.289033 1.970650 16.608808 -1.413944 1.451865 -0.005188 0.008087 -983353.000000 1 0 0
11.745369 12.904433 -2.606650 17.642922 0.832385 1.719084 0.004135 0.003166 357426.000000 1 0 0
7.195569 11.632533 4.708350 14.465842 1.016832 1.239276 0.005619 -0.003943 228517.000000 1 0 0
7.059469 15.537733 2.106750 17.195803 1.144336 1.447972 -0.000826 -0.013543 -919051.000000 1 0 0
5.463869 12.169433 10.140150 16.756241 1.148788 0.920834 0.000470 -0.000911 -267419.000000 1 0 0
-1.311131 14.250133 3.243650 14.673330 -1.479046 1.347898 -0.005590 0.007648 -151475.000000 1 0 0
4.515669 15.939233 1.656150 16.649122 1.294725 1.471158 0.001135 -0.016484 -2411870.000000 1 0 0
7.174869 13.052633 11.916350 19.074836 1.068193 0.896029 0.003894 -0.004096 -146118.000000 1 0 0
0.687069 17.240333 -9.416650 19.656410 1.530965 2.070383 0.021272 -0.003827 394944.000000 1 0 0
9.585869 9.449433 15.596550 20.601773 0.778231 0.712012 0.001321 0.001039 -170906.000000 1 0 0
13.518669 7.561733 -0.163550 15.490673 0.509997 1.581354 0.003131 0.005149 778272.000000 1 0 0
12.454569 13.636133 -0.140550 18.468356 0.830654 1.578407 0.020340 -0.001014 559011.000000 1 0 0
9.499469 12.349033 3.467250 15.961214 0.915090 1.351821 0.009814 -0.000918 1839720.000000 1 0 0
-0.654431 13.056333 0.842150 13.099822 -1.520715 1.506465 -0.000897 0.000237 -1311720.000000 1 0 0
16.085369 7.536133 -0.864650 17.784263 0.438139 1.619434 0.013181 0.008537 -2425430.000000 1 0 0
-3.934431 18.398233 -2.393950 18.965910 -1.360121 1.697358 0.004047 -0.000028 -43051.400000 1 0 0
11.632069 9.295733 -3.182150 15.226351 0.674221 1.781338 0.008117 0.001728 -37533.300000 1 0 0
14.725769 9.699733 7.886050 19.316389 0.582461 1.150253 0.033336 -0.010512 1274850.000000 1 0 0
4.476269 13.778433 4.558850 15.187670 1.256677 1.265928 0.007633 -0.002877 -65001.900000 1 0 0
2.109069 16.037633 5.712650 17.154831 1.440039 1.231307 0.004391 -0.002964 -138112.000000 1 0 0
6.348969 18.411533 5.310050 20.186396 1.238729 1.304613 0.021685 -0.030706 -575652.000000 1 0 0
10.527069 17.076233 -0.672550 20.071603 1.018351 1.604310 0.014372 -0.011279 -755034.000000 1 0 0
9.926269 13.567633 -4.427250 17.384246 0.939167 1.828303 0.017296 -0.007646 -38583.200000 1 0 0
16.497769 7.928333 2.299950 18.447889 0.447983 1.445798 0.008084 -0.000707 -14266.100000 1 0 0
3.939269 13.933333 -0.346150 14.483626 1.295265 1.594698 0.001223 -0.006605 220315.000000 1 0 0
5.592469 13.186633 -2.338150 14.513096 1.169687 1.732608 0.003113 -0.004362 -19356.500000 1 0 0
-6.062031 17.002233 -3.034150 18.303831 -1.228304 1.737331 0.012649 -0.001730 -1773500.000000 1 0 0
18.184169 9.831333 2.748250 20.853585 0.495639 1.438624 0.030724 -0.001609 -6395.280000 1 0 0
7.884069 12.842533 9.373350 17.746799 1.020217 1.014351 0.017656 -0.008434 608372.000000 1 0 0
-2.575531 15.743933 6.813650 17.347352 -1.408644 1.167146 -0.005335 0.002567 83988.400000 1 0 0
11.234869 15.933933 6.520550 20.557969 0.956662 1.248043 0.031274 -0.018984 -420202.000000 1 0 0
13.483169 11.849733 1.427650 18.006949 0.721008 1.491430 0.024433 -0.001470 391455.000000 1 0 0
17.443969 7.848333 -5.486850 19.899596 0.422785 1.850142 0.002301 0.018622 -91021.600000 1 0 0
9.449069 9.211133 7.986550 15.424489 0.772648 1.026538 0.016389 -0.005935 -873295.000000 1 0 0
-2.005131 14.103933 -1.955150 14.379294 -1.429574 1.707189 -0.005893 0.005645 496443.000000 1 0 0
10.918569 11.634533 0.799550 15.975506 0.817133 1.520727 0.010710 0.004439 435570.000000 1 0 0
11.736069 9.778633 -0.567850 15.286577 0.694667 1.607952 0.002493 0.007066 -551815.000000 1 0 0
-0.226931 15.914633 11.161750 19.439951 -1.556538 0.959212 0.000407 -0.006419 -219655.000000 1 0 0
2.149569 20.102233 -1.775550 20.294654 1.464269 1.658397 0.005046 -0.007291 -410672.000000 1 0 0
9.296469 14.350633 1.936150 17.207954 0.995963 1.458043 0.009319 -0.008660 -950603.000000 1 0 0
8.489669 11.599033 -5.235250 15.297709 0.938961 1.920080 0.009678 -0.006183 -691144.000000 1 0 0
10.460869 10.029133 10.201550 17.722441 0.764331 0.957423 0.015608 -0.009547 -2011.090000 1 0 0
-5.056831 15.747633 5.915450 17.565649 -1.260081 1.227320 -0.013959 0.000584 105978.000000 1 0 0
14.459569 9.051033 -2.041050 17.180402 0.559285 1.689879 0.023077 0.004352 -286392.000000 1 0 0
12.182769 9.534833 6.934050 16.953287 0.664071 1.149428 0.015943 -0.005388 -936884.000000 1 0 0
3.222469 12.920933 9.654850 16.448433 1.326383 0.943477 -0.004939 -0.003624 -1057070.000000 1 0 0
8.583169 12.592033 -2.671250 15.471447 0.972503 1.744323 0.007258 -0.005606 -793541.000000 1 0 0
9.199169 16.982933 2.230850 19.442773 1.074370 1.455804 0.008256 -0.016773 -650804.000000 1 0 0
9.793969 14.176433 -7.451250 18.772698 0.966229 1.978955 0.023860 -0.013210 -69348.700000 1 0 0
6.377369 11.415933 7.312150 14.982053 1.061346 1.060930 0.005418 -0.003107 -837017.000000 1 0 0
5.477569 16.865133 -5.601150 18.595950 1.256757 1.876750 0.000631 -0.000767 -514296.000000 1 0 0
-4.085331 17.212933 -4.723850 18.310919 -1.337767 1.831727 0.014779 -0.004708 142465.000000 1 0 0
-0.135031 18.919333 -0.532850 18.927317 -1.563659 1.598952 -0.003237 0.009780 -332061.000000 1 0 0
6.485669 15.638333 -2.727550 17.148204 1.177657 1.730532 0.000489 -0.003739 -334299.000000 1 0 0
-1.012931 20.776233 1.115850 20.830819 -1.522081 1.517203 0.001379 0.005595 -85253.400000 1 0 0
-1.385731 18.880533 4.276250 19.408274 -1.497533 1.348642 0.007596 -0.002537 -732303.000000 1 0 0
7.151769 13.645233 -4.423350 16.028294 1.088038 1.850396 0.005430 -0.004745 -586925.000000 1 0 0
-0.949731 11.880633 7.726950 14.204126 -1.491027 0.995607 -0.004965 0.003696 511378.000000 1 0 0
7.566169 10.781033 10.871450 17.078232 0.958861 0.880757 0.003062 -0.001650 -72084.400000 1 0 0
1.520469 16.022733 -7.237250 17.647028 1.476185 1.993373 0.008591 -0.003774 1801580.000000 1 0 0
8.723469 7.097733 14.681250 18.493670 0.683001 0.653678 0.006626 -0.001265 -63423.100000 1 0 0
11.501369 11.465933 -4.821250 16.940884 0.783855 1.859378 0.020522 -0.002644 -10266.400000 1 0 0
-3.295931 17.011233 4.625250 17.934273 -1.379417 1.309948 -0.008923 0.004097 -690447.000000 1 0 0
4.023669 15.303533 -6.766450 17.209674 1.313691 1.974881 0.003969 -0.005926 -828561.000000 1 0 0
-4.399231 14.058133 9.557050 17.559087 -1.267518 0.995266 0.006500 -0.003347 -956539.000000 1 0 0
6.178569 17.677633 0.571650 18.735000 1.234555 1.540279 -0.004872 -0.017586 -731491.000000 1 0 0
9.772569 10.708233 -2.134250 14.653477 0.831051 1.716964 0.005583 0.000559 -2835330.000000 1 0 0
7.276969 18.069033 -2.534550 19.643528 1.187937 1.700184 -0.001931 -0.005528 10422.200000 1 0 0
3.553969 10.297533 10.445350 15.092224 1.238468 0.806400 -0.007471 0.002567 572703.000000 1 0 0
-0.069331 18.543033 2.024150 18.653312 -1.567057 1.462068 0.005197 -0.006644 322588.000000 1 0 0
-0.944831 17.125833 -7.465350 18.706104 -1.515682 1.981316 0.025334 -0.002088 -689693.000000 1 0 0
10.110969 8.721233 13.186850 18.766582 0.711736 0.791643 0.016514 0.000665 -378309.000000 1 0 0
3.680969 11.448233 5.415450 13.188581 1.259705 1.147666 -0.002391 -0.000472 401861.000000 1 0 0
13.073569 13.865133 8.210950 20.750417 0.814774 1.163966 0.035355 -0.016587 -167523.000000 1 0 0
-0.583931 17.410733 6.710350 18.668246 -1.537270 1.203115 0.004987 -0.002937 -628904.000000 1 0 0
12.240669 13.678333 5.757650 19.237497 0.840809 1.266845 0.026981 -0.009780 -763016.000000 1 0 0
4.830969 14.456433 -4.485050 15.888436 1.248289 1.856970 -0.002248 -0.002460 -316222.000000 1 0 0
3.864469 17.616533 4.780550 18.658243 1.354851 1.311690 0.013675 -0.014428 -653176.000000 1 0 0
7.225969 11.681733 2.012250 13.882603 1.016834 1.425336 0.006319 -0.002448 931572.000000 1 0 0
6.358169 8.619333 11.686850 15.852497 0.935237 0.741843 -0.003162 0.000419 476390.000000 1 0 0
-5.482431 14.844833 1.730650 15.919211 -1.217018 1.461866 -0.007466 0.008784 -269525.000000 1 0 0
6.798469 13.700033 5.967850 16.417226 1.110163 1.198762 0.008482 -0.010641 27678.300000 1 0 0
5.915169 15.872433 4.943150 17.645342 1.214071 1.286857 0.008505 -0.020820 647080.000000 1 0 0
1.290569 18.121333 4.320650 18.673947 1.499698 1.337307 0.012211 -0.004974 1319760.000000 1 0 0
7.449869 17.996233 -6.926050 20.672086 1.178307 1.912448 -0.000534 -0.000382 141111.000000 1 0 0
-2.335531 18.826933 -5.966050 19.887229 -1.447374 1.875483 0.024076 0.001927 -1499940.000000 1 0 0
13.708169 10.258133 -4.467450 17.694669 0.642427 1.826033 0.023052 0.005415 285846.000000 1 0 0
-1.386131 18.079233 10.113650 20.762128 -1.494276 1.062007 0.011019 -0.000458 -246984.000000 1 0 0
3.407169 11.780333 -1.592450 12.366121 1.289254 1.699930 0.004394 -0.003942 1592910.000000 1 0 0
4.224469 14.125733 -10.937650 18.357959 1.280200 2.209056 0.011683 -0.006003 -162758.000000 1 0 0
11.606269 13.510333 2.320150 17.961561 0.861062 1.441261 0.021254 -0.002113 -207104.000000 1 0 0
15.936369 6.381533 -7.029350 18.550029 0.380884 1.959447 0.005110 -0.001310 261925.000000 1 0 0
2.431169 16.135833 3.054850 16.601440 1.421252 1.385731 0.007251 -0.007128 -319703.000000 1 0 0
13.554769 10.509933 3.672150 17.540671 0.659540 1.359886 0.021196 0.005150 -755590.000000 1 0 0
-4.914531 19.351333 -6.072350 20.868640 -1.322091 1.866047 0.013277 -0.006708 623928.000000 1 0 0
5.482069 12.013833 0.014750 13.205510 1.142705 1.569679 0.005954 -0.005577 157661.000000 1 0 0
4.594869 15.336233 9.613450 18.674348 1.279699 1.030029 0.006652 -0.007161 -222690.000000 1 0 0
7.688869 9.381833 13.926450 18.468446 0.884249 0.716564 -0.002372 -0.000945 -955150.000000 1 0 0
-5.029731 13.641333 7.095550 16.178102 -1.217549 1.116767 -0.005623 0.001840 -2194700.000000 1 0 0
-4.543431 17.092433 0.594650 17.695978 -1.310989 1.537186 0.002044 0.004050 -2807210.000000 1 0 0
-0.641831 16.664033 3.644150 17.069908 -1.532299 1.355657 0.001887 0.002156 -1678970.000000 1 0 0
7.934769 16.799933 -4.755850 19.178541 1.129545 1.821389 -0.000077 -0.003491 709620.000000 1 0 0
3.124669 16.369433 -4.555750 17.276480 1.382181 1.837649 -0.000599 -0.005623 -1662140.000000 1 0 0
9.342869 14.488133 8.036650 19.020593 0.998040 1.134568 0.018459 -0.015509 -197134.000000 1 0 0
12.705869 10.885433 9.158750 19.073921 0.708385 1.069946 0.033384 -0.013335 101146.000000 1 0 0
3.656569 12.331433 12.086350 17.649776 1.282531 0.816484 -0.001357 -0.002334 599352.000000 1 0 0
-3.205731 19.089433 6.088350 20.291653 -1.404417 1.266060 0.014278 -0.003654 -154620.000000 1 0 0
-2.604431 15.723333 10.150150 18.895285 -1.406646 1.003707 0.001169 -0.008407 -646653.000000 1 0 0
2.084669 14.228333 7.584850 16.257960 1.425316 1.085431 0.000591 -0.006558 -626938.000000 1 0 0
4.309469 17.244233 7.804950 19.412685 1.325904 1.157037 0.011895 -0.013577 216165.000000 1 0 0
-1.824131 13.409733 9.315350 16.429368 -1.435596 0.967945 -0.004211 -0.002925 -786018.000000 1 0 0
5.839969 17.577733 3.091150 18.778635 1.250033 1.405434 0.000794 -0.024605 547736.000000 1 0 0
7.412269 15.327733 -6.806350 18.335963 1.120366 1.951100 0.007458 -0.002040 370104.000000 1 0 0
10.916069 7.538333 9.310150 16.206971 0.604370 0.958860 0.017955 -0.011521 137351.000000 1 0 0
8.979869 16.247433 -2.574250 18.741502 1.065887 1.708588 0.003283 -0.010717 -1521680.000000 1 0 0
14.773769 11.335833 -6.676950 19.782493 0.654478 1.915075 0.046469 -0.004941 496869.000000 1 0 0
10.853869 6.370433 15.969950 20.332934 0.530752 0.667417 0.010544 -0.001370 -848634.000000 1 0 0
8.499169 8.357933 10.214050 15.697698 0.777020 0.862328 0.006384 -0.005214 -375866.000000 1 0 0
16.397969 9.235533 4.562050 19.364936 0.512930 1.332978 0.031343 -0.003882 -94643.300000 1 0 0
-3.350531 14.290533 4.688850 15.408787 -1.340498 1.261596 -0.010856 0.008913 -1148930.000000 1 0 0
4.897069 14.603133 12.664950 19.940756 1.247238 0.882621 0.007434 0.000292 -1364990.000000 1 0 0
16.321869 10.673133 -4.798850 20.083529 0.579123 1.812075 0.038856 0.003017 1368170.000000 1 0 0
14.726169 13.989933 6.220250 21.243112 0.759765 1.273629 0.037160 -0.007782 -1431980.000000 1 0 0
6.156069 9.457433 9.241050 14.585514 0.993772 0.884628 -0.002210 -0.000969 1183340.000000 1 0 0
10.482469 12.245833 8.595950 18.268359 0.862828 1.080896 0.026025 -0.008451 -126320.000000 1 0 0
8.006169 11.509733 -0.370050 14.025321 0.963030 1.597184 0.008087 -0.002026 -118767.000000 1 0 0
7.610269 13.407533 -8.627250 17.666567 1.054532 2.080980 0.019650 -0.007892 -1079970.000000 1 0 0
2.780869 15.176033 -2.175950 15.581398 1.389566 1.710905 -0.001396 -0.005106 536545.000000 1 0 0
12.407269 13.518333 -7.910250 19.981434 0.828228 1.977822 0.041040 -0.014564 991683.000000 1 0 0
-8.141831 14.759433 9.729450 19.462592 -1.066698 1.047307 0.026765 -0.021012 256799.000000 1 0 0
11.458569 9.673333 2.246950 15.163145 0.701118 1.422064 0.012755 0.005219 -1365480.000000 1 0 0
12.029069 8.638033 4.507050 15.479910 0.622768 1.275363 0.008339 0.000263 173932.000000 1 0 0
14.072869 8.063033 6.083950 17.322603 0.520291 1.211928 0.015958 -0.007525 -2596500.000000 1 0 0
16.234469 7.366733 7.254650 19.247251 0.425986 1.184329 0.051926 -0.018235 -840976.000000 1 0 0
13.555069 8.268833 2.399050 16.058298 0.547753 1.420839 0.004017 0.004200 -2008730.000000 1 0 0
-4.038331 17.347033 -7.341850 19.264746 -1.342073 1.961785 0.017982 -0.010904 -15149.300000 1 0 0
3.234769 19.434233 -3.992450 20.102060 1.405861 1.770735 0.004367 -0.009185 315540.000000 1 0 0
-0.061831 14.884933 6.246050 16.142435 -1.566642 1.173493 0.000716 -0.000095 -652312.000000 1 0 0
6.699869 16.086533 8.163250 19.243270 1.176156 1.132703 0.025308 -0.019790 551219.000000 1 0 0
12.566769 15.297133 -2.126550 19.911006 0.883076 1.677803 0.020849 -0.009674 -333101.000000 1 0 0
12.717869 15.895433 4.399450 20.827005 0.895997 1.357955 0.031412 -0.010596 585211.000000 1 0 0
2.953769 18.086133 1.357150 18.375930 1.408909 1.496874 0.008340 -0.011977 -390313.000000 1 0 0
10.271269 14.536133 -1.227650 17.841111 0.955653 1.639661 0.011541 0.000240 -2188670.000000 1 0 0
-6.252831 15.733933 -0.659750 16.943725 -1.192524 1.609744 -0.000073 0.004205 -488594.000000 1 0 0
-3.894331 15.804033 -2.583650 16.480550 -1.329196 1.728215 0.004209 -0.000822 -810888.000000 1 0 0
-6.809931 17.054533 1.637350 18.436734 -1.190891 1.481870 -0.001964 0.004191 176483.000000 1 0 0
0.150069 19.350133 -6.553950 20.430478 1.563041 1.897363 0.024789 -0.006623 158351.000000 1 0 0
4.746769 14.775533 7.055650 17.047885 1.259952 1.144092 0.010818 -0.011807 -985450.000000 1 0 0
8.693969 12.263933 6.825650 16.509956 0.954119 1.144583 0.018016 -0.009905 -736034.000000 1 0 0
-7.552631 17.616433 -5.619850 19.974075 -1.165774 1.856004 0.030952 -0.011340 265455.000000 1 0 0
-7.782431 17.769333 -1.217450 19.437017 -1.157992 1.633473 0.018264 -0.000977 401774.000000 1 0 0
-13.805231 -9.010567 9.258050 18.907306 0.578265 1.059103 0.005250 -0.007293 -492748.000000 1 0 0
-12.916831 -12.941367 7.678850 19.831496 0.786347 1.173198 0.019239 0.003791 39042.500000 1 0 0
-4.062931 -14.894567 12.677650 19.976945 1.304496 0.883287 0.012239 -0.014267 435819.000000 1 0 0
-2.011731 -14.126467 15.042250 20.733389 1.429339 0.759023 0.028535 -0.010358 -630216.000000 1 0 0
-7.407531 -13.556767 12.887150 20.118054 1.070715 0.875548 0.025810 -0.012781 220462.000000 1 0 0
-9.825931 -11.506767 9.039250 17.625625 0.864027 1.032298 0.005336 -0.005205 725205.000000 1 0 0
-10.714031 -10.547867 11.319250 18.819495 0.777583 0.925464 0.021842 -0.009355 218088.000000 1 0 0
-6.305131 -12.159167 10.839950 17.467242 1.092419 0.901305 0.018792 -0.010414 847768.000000 1 0 0
-12.534631 -10.399367 7.470450 17.918466 0.692561 1.140749 0.000766 0.004437 -382652.000000 1 0 0
-7.936931 -11.043067 12.606050 18.543373 0.947613 0.823287 0.023361 -0.012331 -698030.000000 1 0 0
-14.911531 -11.414467 7.337850 20.161544 0.653334 1.198288 0.013455 0.003310 -76707.800000 1 0 0
-11.167431 -9.147267 9.168550 17.101062 0.686281 1.004940 0.002535 -0.005966 -712836.000000 1 0 0
-5.564331 -11.747967 13.320450 18.612117 1.128457 0.773189 0.024152 -0.018118 -647637.000000 1 0 0
3.864769 -12.206967 14.855050 19.611705 -1.264177 0.711385 0.000728 0.001731 -486163.000000 1 0 0
6.290469 -12.776867 14.082950 20.028675 -1.113301 0.790993 -0.001571 -0.000083 -53415.900000 1 0 0
6.522469 -8.508467 16.245650 19.464269 -0.916765 0.583318 0.003428 0.009502 917766.000000 1 0 0
0.690969 -1.784167 14.541150 14.666483 -1.201305 0.130826 0.007479 -0.004928 -140391.000000 1 0 0
-0.262231 -6.368667 15.480050 16.740987 1.529644 0.390603 0.011462 -0.004739 -178504.000000 1 0 0
-1.471631 -4.594867 18.329850 18.954205 1.260842 0.257382 0.021231 -0.016210 -1299810.000000 1 0 0
-5.041131 12.717233 13.039150 18.898689 -1.193396 0.809376 0.011711 -0.004751 321028.000000 1 0 0
-4.029831 8.790333 11.634650 15.128601 -1.140947 0.693443 0.001217 0.003713 -224176.000000 1 0 0
-0.745431 -3.994767 14.986150 15.527348 1.386316 0.264797 0.009497 -0.005050 206750.000000 1 0 0
-4.300231 9.209233 14.270250 17.519760 -1.133938 0.618890 0.005071 -0.003080 414415.000000 1 0 0
-13.684831 -2.181767 16.715750 21.712923 0.158099 0.692186 0.007344 0.001405 -555013.000000 1 0 0
-0.346231 0.913233 17.294850 17.322405 -1.208413 0.056411 0.011318 -0.005234 -870066.000000 1 0 0
-3.296031 -7.235167 15.396250 17.327896 1.143331 0.476678 0.024904 -0.010492 461484.000000 1 0 0
-7.424431 5.686833 12.542350 15.645216 -0.653639 0.640707 -0.001004 -0.001880 -2117290.000000 1 0 0
-9.847231 10.170333 13.320850 19.438330 -0.801538 0.815798 0.022034 -0.016851 -543565.000000 1 0 0
-5.471631 2.170133 11.180650 12.635472 -0.377585 0.484599 0.000422 -0.001250 -1336320.000000 1 0 0
-7.262131 -7.301567 16.934050 19.819523 0.788106 0.546377 0.023110 -0.010125 -87017.700000 1 0 0
-4.741131 3.020833 18.762650 19.586750 -0.567292 0.291111 0.022841 -0.008346 -2532470.000000 1 0 0
0.870869 -8.375667 16.583850 18.599309 -1.467193 0.469846 0.007631 0.000397 780891.000000 1 0 0
-15.247831 -3.163667 13.939450 20.900081 0.204580 0.840679 0.016293 -0.013669 195708.000000 1 0 0
-14.239531 2.494033 12.932950 19.397052 -0.173390 0.840959 -0.004106 -0.011467 438641.000000 1 0 0
-5.469631 0.979233 16.103050 17.034787 -0.177154 0.332271 0.021657 -0.008620 52736.100000 1 0 0
4.450269 5.637333 15.087850 16.710106 0.902535 0.444286 0.005047 -0.002596 -407771.000000 1 0 0
-1.148131 -11.922067 13.905350 18.352456 1.474789 0.711040 0.007655 -0.010426 -272806.000000 1 0 0
-6.042931 -4.033567 16.822850 18.324709 0.588569 0.407683 0.027017 -0.008250 -31197.200000 1 0 0
-13.014331 -1.518767 9.809950 16.368097 0.116174 0.928128 -0.002770 -0.004380 -1084120.000000 1 0 0
-14.542831 10.469933 10.339050 20.688388 -0.623982 1.047485 0.005122 -0.007201 249047.000000 1 0 0
-3.641331 -3.319567 17.722650 18.394867 0.739207 0.271177 0.019856 -0.011756 -1034630.000000 1 0 0
-7.956431 9.271333 11.856250 17.024485 -0.861575 0.800395 0.003575 -0.007002 -14859.900000 1 0 0
-4.044731 10.609133 16.453750 19.990984 -1.206558 0.604021 0.006761 -0.003529 207609.000000 1 0 0
-12.456031 12.757533 8.130950 19.596421 -0.797356 1.142941 0.009141 -0.020430 -88788.800000 1 0 0
-12.473431 3.142633 10.449250 16.572551 -0.246810 0.888579 0.000866 -0.007270 670829.000000 1 0 0
-10.259631 -3.226667 13.664750 17.389560 0.304707 0.666805 0.012418 -0.003304 -1563780.000000 1 0 0
-4.213431 -6.333767 17.753450 19.314621 0.983787 0.404824 0.035722 -0.009190 -490668.000000 1 0 0
0.834369 -3.653967 17.793850 18.184299 -1.346299 0.207601 0.015125 -0.009801 -850473.000000 1 0 0
-5.937731 1.830633 13.729850 15.070390 -0.299059 0.424977 0.011034 -0.004401 -633642.000000 1 0 0
-10.570031 8.735933 10.212050 17.097604 -0.690681 0.930691 0.007553 -0.013250 -223784.000000 1 0 0
4.610569 2.402633 17.186250 17.955422 0.480396 0.293759 0.020035 -0.006287 -509028.000000 1 0 0
0.472769 -5.299367 13.079450 14.120156 -1.481820 0.386335 0.007556 -0.004112 -1170420.000000 1 0 0
-3.946331 5.799833 20.872050 22.019402 -0.973332 0.324239 0.025034 -0.011715 -421235.000000 1 0 0
-10.856531 10.860033 8.925650 17.761526 -0.785559 1.044277 0.007996 -0.015399 85019.100000 1 0 0
0.695769 4.116533 13.078250 13.728458 1.403361 0.309001 0.002796 -0.001868 -2800360.000000 1 0 0
-3.055331 7.143233 13.373150 15.466156 -1.166621 0.526299 0.004226 0.001816 -1554440.000000 1 0 0
0.968769 8.873233 14.137550 16.719542 1.462048 0.563164 -0.004045 -0.001080 493433.000000 1 0 0
-4.374231 -6.599767 13.129950 15.332528 0.985485 0.542644 0.020361 -0.011151 185539.000000 1 0 0
-4.980631 8.180833 16.595150 19.160682 -1.023919 0.523441 0.019284 -0.000994 348791.000000 1 0 0
1.446669 -10.729767 15.751250 19.113415 -1.436777 0.602195 -0.004062 0.005006 -355521.000000 1 0 0
-15.350731 -0.611767 14.133450 20.875191 0.039832 0.827056 0.007872 0.000159 581636.000000 1 0 0
-13.746931 -5.178867 8.284850 16.865275 0.360286 1.057287 0.006222 -0.012501 -1042440.000000 1 0 0
-14.336431 -1.681167 12.019750 18.783875 0.116732 0.876432 0.009349 -0.008728 181095.000000 1 0 0
9.473469 1.311933 16.977650 19.486107 0.137610 0.513013 0.026217 -0.002187 1239950.000000 1 0 0
4.798569 -6.749967 16.964150 18.877783 -0.952791 0.454159 0.005638 0.005608 335346.000000 1 0 0
-6.092931 -2.668167 11.079650 12.922909 0.412756 0.540668 0.007883 -0.005945 694430.000000 1 0 0
0.538869 -6.224667 18.025350 19.077476 -1.484442 0.333661 0.018951 -0.007502 -606856.000000 1 0 0
-8.310531 11.953733 12.324850 19.075078 -0.963282 0.868302 0.012308 -0.009763 122538.000000 1 0 0
-6.871631 -5.750467 14.925950 17.408939 0.696805 0.540653 0.024698 -0.009137 -1118050.000000 1 0 0
-4.579731 -8.837167 17.084450 19.772402 1.092667 0.527526 0.038254 -0.011145 -313955.000000 1 0 0
2.287869 -6.225767 16.201750 17.506891 -1.218631 0.388575 0.005486 -0.000653 -581992.000000 1 0 0
2.266169 5.287133 16.234050 17.223057 1.165864 0.340534 0.004721 -0.001993 -2122440.000000 1 0 0
0.948969 -8.843167 14.051650 16.629823 -1.463894 0.564293 0.002234 -0.001325 -598417.000000 1 0 0
-9.992831 -2.586767 11.212750 15.240531 0.253302 0.744069 -0.000938 -0.004375 -146848.000000 1 0 0
-1.117231 9.997933 12.416050 15.980149 -1.459512 0.680963 -0.005515 0.000496 -7981.080000 1 0 0
-12.463031 -3.565067 11.348750 17.228783 0.278611 0.851695 0.003612 -0.003075 676791.000000 1 0 0
-1.791631 6.760933 19.865250 21.060587 -1.311753 0.338533 0.013214 -0.015120 -401328.000000 1 0 0
0.405469 -13.302767 15.563150 20.477784 -1.540326 0.707481 0.009237 -0.013938 -522620.000000 1 0 0
4.005369 -8.624667 15.301450 18.015611 -1.136025 0.556055 0.000511 0.004583 -214509.000000 1 0 0
4.275469 -4.462667 16.008450 17.159997 -0.806818 0.368431 0.012169 -0.000509 -731068.000000 1 0 0
8.073469 1.848633 14.837750 16.992856 0.225096 0.509116 0.013554 -0.000533 108835.000000 1 0 0
-6.207131 -0.124267 11.973350 13.487217 0.020017 0.478351 0.008598 -0.005820 58859.100000 1 0 0
-3.762431 -10.944067 18.347550 21.692420 1.239667 0.562725 0.043657 -0.006341 -446578.000000 1 0 0
3.270869 -1.544567 13.554850 14.029192 -0.441177 0.260781 0.009849 -0.003221 124772.000000 1 0 0
-2.441031 8.693233 16.148450 18.501442 -1.297049 0.509843 0.004803 0.003112 -1144460.000000 1 0 0
-3.232831 4.005233 14.882350 15.747299 -0.891710 0.332978 0.010336 -0.004617 -660129.000000 1 0 0
-4.852631 -9.001167 19.740050 22.231478 1.076351 0.477966 0.055829 -0.010883 83225.800000 1 0 0
-5.866131 -3.012967 19.142250 20.246363 0.474485 0.331774 0.029746 -0.013159 -630869.000000 1 0 0
-6.757931 -8.588767 11.176850 15.631971 0.904135 0.774173 0.011978 -0.008719 389986.000000 1 0 0
-11.576131 2.502433 12.632450 17.316113 -0.212896 0.753177 0.007392 -0.014578 -678563.000000 1 0 0
-11.734031 -7.398667 11.708750 18.152757 0.562567 0.869757 0.002369 -0.003975 -431309.000000 1 0 0
-11.269731 -7.054267 15.502050 20.422612 0.559281 0.708924 0.032007 -0.019189 -676403.000000 1 0 0
0.262569 5.704533 17.646350 18.547353 1.524801 0.312976 0.000537 -0.005653 -184683.000000 1 0 0
-2.236831 -0.144467 13.209050 13.397884 0.064496 0.168092 0.010734 -0.002413 -8912.230000 1 0 0
-6.359131 -10.417867 18.229150 21.937922 1.022760 0.589997 0.054045 -0.013814 105395.000000 1 0 0
0.430169 2.823733 19.007750 19.221162 1.419618 0.149155 0.021083 -0.014970 -85929.300000 1 0 0
-0.641431 10.741633 14.819250 18.314046 -1.511153 0.628051 -0.004278 -0.004531 -949226.000000 1 0 0
-12.933831 -1.907867 14.202650 19.303865 0.146454 0.744036 0.011693 -0.004067 431850.000000 1 0 0
-13.539731 8.495433 11.644850 19.776229 -0.560355 0.941185 -0.000955 -0.019498 381794.000000 1 0 0
-17.983731 -0.585967 6.865750 19.258672 0.032572 1.206275 0.006341 -0.009319 -22986.600000 1 0 0
-2.170431 -7.949467 17.715750 19.538490 1.304264 0.435379 0.022607 -0.005690 -158304.000000 1 0 0
5.708969 2.793333 14.554750 15.881933 0.455042 0.411719 0.014378 -0.006062 -1693960.000000 1 0 0
-14.125731 -6.449967 11.081950 19.077420 0.428338 0.950970 0.004005 -0.013694 512542.000000 1 0 0
3.342169 7.728833 16.295650 18.342660 1.162650 0.476945 0.000179 -0.004369 -447408.000000 1 0 0
1.027169 2.057633 14.627450 14.807134 1.107790 0.155946 0.005476 -0.004087 -2135750.000000 1 0 0
-14.475331 0.703433 9.791450 17.490069 -0.048557 0.976617 -0.001628 -0.005801 -1432240.000000 1 0 0
-9.590931 -4.986467 15.595050 18.975152 0.479452 0.606116 0.014748 -0.001025 -394625.000000 1 0 0
-2.674831 -0.038267 18.168250 18.364136 0.014305 0.146190 0.022688 -0.009244 512543.000000 1 0 0
6.813569 3.444033 17.991150 19.543990 0.468012 0.401319 0.025946 0.009728 -420728.000000 1 0 0
-4.216231 -0.832367 14.767850 15.380469 0.194913 0.283190 0.019162 -0.004256 2525.830000 1 0 0
4.511969 -9.252367 17.790950 20.554368 -1.117073 0.524537 0.001670 0.010822 -140449.000000 1 0 0
1.999669 6.825133 13.389850 15.161438 1.285787 0.488257 -0.002790 0.001922 -948534.000000 1 0 0
-3.780631 -0.861167 20.441250 20.805756 0.223963 0.187461 0.028447 -0.007679 202210.000000 1 0 0
-10.676031 1.852833 16.203650 19.492791 -0.171839 0.589419 0.018965 -0.014482 -452931.000000 1 0 0
-3.962831 6.944833 18.501450 20.155356 -1.052263 0.407935 0.027726 -0.014533 -1779790.000000 1 0 0
-12.619831 1.176933 14.591350 19.327514 -0.092992 0.715215 0.008880 -0.011687 94816.100000 1 0 0
-16.164531 -4.591367 8.479950 18.822387 0.276751 1.103443 0.003777 -0.013339 -2960950.000000 1 0 0
-2.320231 0.826033 15.656750 15.849278 -0.342022 0.156026 0.016512 -0.004488 130529.000000 1 0 0
-13.945931 -8.575967 12.560150 20.634766 0.551335 0.916389 0.008246 -0.013291 629885.000000 1 0 0
6.109569 -3.256867 14.539150 16.103444 -0.489757 0.444421 0.017160 -0.002077 991854.000000 1 0 0
-15.638131 0.451933 7.561850 17.376333 -0.028891 1.120557 -0.006358 -0.008154 386936.000000 1 0 0
-14.173131 5.963033 12.192350 19.623680 -0.398247 0.900385 0.012816 -0.021487 431998.000000 1 0 0
0.568269 9.319133 16.715050 19.145811 1.509893 0.509395 -0.004307 -0.008098 -450156.000000 1 0 0
-10.525031 -5.280267 10.826650 15.996057 0.464996 0.827345 0.009356 -0.008523 -122824.000000 1 0 0
-3.290331 -11.051367 14.988950 18.911045 1.281423 0.655730 0.022712 -0.011064 -1875230.000000 1 0 0
-3.495331 2.696033 12.654050 13.401900 -0.657009 0.335644 0.005797 -0.001565 -2005580.000000 1 0 0
-12.467831 -7.719767 7.461750 16.453551 0.554399 1.100103 0.003308 -0.003028 207470.000000 1 0 0
-8.240731 -1.725567 13.200850 15.657256 0.206413 0.567748 0.010080 -0.006559 -318056.000000 1 0 0
-9.887631 6.455933 9.479550 15.142859 -0.578432 0.894373 0.001214 -0.003765 -1163120.000000 1 0 0
-17.977731 -3.490567 6.557250 19.452002 0.191774 1.226963 0.003392 -0.012980 66598.400000 1 0 0
-1.349831 0.035533 20.557150 20.601449 -0.026318 0.065591 0.016062 -0.008437 -288239.000000 1 0 0
-2.741531 2.604233 20.257950 20.607828 -0.759720 0.184533 0.022692 -0.009294 -494465.000000 1 0 0
-3.773631 11.305633 11.201050 16.356074 -1.248641 0.816433 0.002510 -0.001739 -283074.000000 1 0 0
-4.330231 -4.810467 14.987750 16.325567 0.837888 0.407653 0.022843 -0.010459 1439460.000000 1 0 0
-0.240831 -14.304067 13.219050 19.478388 1.553961 0.824870 0.021743 -0.018063 -422720.000000 1 0 0
-12.223431 0.530133 8.344150 14.809394 -0.043343 0.972257 -0.002178 -0.006682 -779547.000000 1 0 0
-7.762731 2.172133 15.635950 17.591506 -0.272838 0.475999 0.010032 0.001076 -763057.000000 1 0 0
3.473969 -2.210767 18.519750 18.972008 -0.566741 0.218785 0.021426 -0.002029 10795.800000 1 0 0
-2.032731 4.846033 12.652950 13.700846 -1.173625 0.393648 0.002294 -0.000153 -642588.000000 1 0 0
-10.369431 -6.043867 13.299350 17.914411 0.527717 0.734176 -0.000725 -0.007055 -267329.000000 1 0 0
2.314969 -3.771267 14.190750 14.864687 -1.020260 0.302274 0.007219 -0.003694 -580282.000000 1 0 0
6.761469 1.008833 16.872350 18.204708 0.148111 0.384963 0.019734 -0.009304 -470622.000000 1 0 0
-2.072531 -5.700367 13.736150 15.015705 1.222076 0.415820 0.011636 -0.008223 -1712520.000000 1 0 0
-12.685931 3.850333 14.533450 19.671784 -0.294676 0.739513 -0.010719 -0.007631 151139.000000 1 0 0
-13.372931 -6.167067 13.509950 19.984663 0.432096 0.828454 0.004348 -0.013711 -295707.000000 1 0 0
-9.586531 6.910833 11.968050 16.819495 -0.624609 0.779083 0.009148 -0.004682 -475746.000000 1 0 0
-1.112331 -2.509967 12.835050 13.125385 1.153640 0.210723 0.010002 -0.003785 794860.000000 1 0 0
0.196469 6.693433 15.263450 16.667740 1.541452 0.413430 0.003647 -0.006099 355047.000000 1 0 0
-16.657231 -0.757867 9.696350 19.288777 0.045466 1.044084 0.006631 -0.006737 164189.000000 1 0 0
-1.256031 2.721033 13.793850 14.115663 -1.138337 0.213941 0.008175 -0.000482 -2114840.000000 1 0 0
-11.393631 -3.181067 16.037350 19.928136 0.272264 0.635527 0.020597 -0.008871 1345420.000000 1 0 0
-5.257331 -1.485567 17.160850 18.009476 0.275391 0.308207 0.029024 -0.006041 263056.000000 1 0 0
-11.888631 6.534933 11.129450 17.547352 -0.502597 0.883755 0.008496 -0.009505 -1977250.000000 1 0 0
-2.783431 4.687433 18.732650 19.509785 -1.034943 0.283197 0.022313 -0.010870 55547.800000 1 0 0
5.082869 -2.017567 16.496250 17.379079 -0.377861 0.320107 0.017158 -0.002134 -1698150.000000 1 0 0
-8.130731 -3.970967 12.162650 15.159400 0.454316 0.639629 0.013710 -0.006945 -1452180.000000 1 0 0
-11.659631 -0.645567 16.149450 19.929086 0.055311 0.626054 0.022002 -0.006075 196894.000000 1 0 0
2.067869 2.011233 17.364750 17.602718 0.771515 0.164617 0.008677 -0.005856 -1196610.000000 1 0 0
-9.095331 -7.432967 11.652050 16.545220 0.685158 0.789423 0.014487 -0.005836 179438.000000 1 0 0
-7.283531 6.792433 14.945950 17.960189 -0.750523 0.587785 0.010552 -0.008384 -159533.000000 1 0 0
-5.622131 3.521333 15.825750 17.159910 -0.559558 0.396932 0.015076 -0.006966 -122652.000000 1 0 0
-9.259031 4.226033 11.560550 15.402445 -0.428182 0.721878 -0.001613 -0.006788 -82777.100000 1 0 0
-10.221731 0.247233 14.214850 17.510193 -0.024182 0.623561 0.013523 -0.007594 -251247.000000 1 0 0
8.386969 -0.628667 15.577750 17.703185 -0.074818 0.495059 0.026515 -0.004632 229992.000000 1 0 0
-8.855931 -7.417167 14.869050 18.828981 0.697214 0.660493 0.021164 -0.003565 -2598520.000000 1 0 0
0.031369 4.109033 15.604850 16.136805 1.563162 0.257480 0.003427 -0.005762 33794.000000 1 0 0
-8.007031 3.035233 9.701750 12.940214 -0.362335 0.723133 -0.005276 -0.000507 -1071750.000000 1 0 0
-2.226631 -9.682467 13.056150 16.406435 1.344761 0.650478 0.008724 -0.007292 555792.000000 1 0 0
-6.061631 10.331133 10.552350 15.963326 -1.040188 0.848596 0.006445 -0.004636 -2591320.000000 1 0 0
-8.700531 -2.600967 15.660050 18.102526 0.290487 0.525496 0.022118 -0.008901 698163.000000 1 0 0
4.418669 5.803933 17.617650 19.068085 0.920088 0.392557 0.015808 -0.002803 114215.000000 1 0 0
-6.861031 -0.927267 15.269350 16.765638 0.134336 0.425693 0.016553 -0.003731 -518087.000000 1 0 0
-1.009731 -9.785667 15.359150 18.239581 1.467976 0.569672 0.003649 -0.007724 -1526480.000000 1 0 0
-4.286831 5.799533 16.227950 17.758318 -0.934264 0.418197 0.018051 -0.008422 23956.700000 1 0 0
3.726369 0.000633 17.422950 17.816987 0.000170 0.210703 0.022055 -0.006039 -899103.000000 1 0 0
1.276269 0.337133 19.263450 19.308626 0.258256 0.068419 0.009767 -0.005564 -254155.000000 1 0 0
-6.367931 6.204533 17.878050 19.966759 -0.772402 0.461488 0.024271 -0.011201 472252.000000 1 0 0
-12.221331 0.547533 10.931950 16.406348 -0.044771 0.841528 0.007821 -0.009323 -379285.000000 1 0 0
-5.373331 5.174533 13.938350 15.809051 -0.766553 0.491409 0.005340 -0.003096 -1390590.000000 1 0 0
-8.766231 -9.402867 9.997450 16.285261 0.820423 0.909810 0.016326 -0.006711 -439106.000000 1 0 0
6.781769 -3.730667 17.021350 18.698573 -0.502922 0.426783 0.016339 -0.000745 156343.000000 1 0 0
-16.793631 1.836933 9.414950 19.340156 -0.108950 1.062364 0.008490 -0.010269 50919.300000 1 0 0
-4.270131 -9.585667 11.322350 15.437443 1.151716 0.747436 0.011462 -0.010331 -225409.000000 1 0 0
-11.216031 -3.717567 9.168550 14.956001 0.320056 0.910900 -0.000510 -0.003435 -608116.000000 1 0 0
3.367969 -5.328567 18.393050 19.443280 -1.007137 0.330177 0.003070 -0.007267 -926709.000000 1 0 0
2.537569 -1.903967 16.063050 16.373330 -0.643700 0.194990 0.012067 -0.003344 -1047620.000000 1 0 0
-3.214131 -4.183567 20.214550 20.891647 0.915701 0.255290 0.028310 -0.013444 -732623.000000 1 0 0
-6.488631 -3.324067 14.400350 16.140689 0.473432 0.468654 0.021846 -0.006080 -119790.000000 1 0 0
-9.613031 5.182533 13.904450 17.680575 -0.494448 0.665796 0.015804 -0.012260 19589.100000 1 0 0
-5.838931 -5.032567 11.775950 14.074546 0.711361 0.579596 0.013017 -0.006715 -577321.000000 1 0 0
5.713569 1.354733 19.245650 20.121511 0.232809 0.296135 0.022431 -0.010803 92660.700000 1 0 0
-2.644531 11.857933 13.535050 18.187955 -1.351369 0.731495 0.003786 -0.006027 -235827.000000 1 0 0
3.392869 1.304033 15.144550 15.574641 0.366938 0.235554 0.006320 -0.001901 -203561.000000 1 0 0
-5.652531 7.465933 12.990850 16.014164 -0.922760 0.624578 -0.001053 -0.002940 -685526.000000 1 0 0
-1.867631 -1.675067 15.217350 15.422764 0.731096 0.163392 0.012951 -0.006131 -76502.000000 1 0 0
-7.536431 10.322833 14.286150 19.169057 -0.940170 0.729855 0.035576 -0.012176 58570.600000 1 0 0
-10.102031 2.007433 10.585650 14.769455 -0.196160 0.771701 0.000041 -0.004252 -1252280.000000 1 0 0
-13.538131 5.268733 9.172350 17.180586 -0.371142 1.007615 -0.001515 -0.007324 -406447.000000 1 0 0
0.450969 -4.573867 20.101150 20.619890 -1.472517 0.224782 0.029426 -0.016812 -330649.000000 1 0 0
-14.540731 -2.868567 7.454250 16.589978 0.194777 1.104790 -0.002110 -0.008869 1351640.000000 1 0 0
-2.465831 2.481933 17.605050 17.949320 -0.788653 0.196172 0.016346 -0.008401 123108.000000 1 0 0
-6.513231 -8.349267 14.617850 18.050318 0.908310 0.626919 0.024497 -0.008130 25977.800000 1 0 0
-7.940931 1.929233 12.114050 14.612684 -0.238331 0.593463 0.002658 -0.008365 -502614.000000 1 0 0
-14.602031 -3.418967 10.089350 18.074945 0.230000 0.978587 0.000479 -0.009465 -706157.000000 1 0 0
-0.527031 7.045233 12.773350 14.596970 -1.496129 0.505219 0.001132 -0.001439 -103766.000000 1 0 0
-1.825231 -2.228067 19.242950 19.457309 0.884458 0.148574 0.024052 -0.010650 227892.000000 1 0 0
-12.777531 10.297833 7.231750 17.933457 -0.678348 1.155726 0.000557 -0.018693 -328504.000000 1 0 0
-19.428731 2.207533 6.950650 20.752357 -0.113137 1.229262 0.012352 -0.009624 67270.600000 1 0 0
-16.219531 8.531133 6.716350 19.518268 -0.484214 1.219510 0.014171 -0.007283 349787.000000 1 0 0
-12.289431 7.173833 13.625050 19.701167 -0.528378 0.807114 0.016897 -0.014018 127592.000000 1 0 0
-15.974431 8.265333 10.559850 20.856860 -0.477479 1.039906 0.008385 -0.009027 141391.000000 1 0 0
1.897969 11.035733 15.187350 18.869162 1.400479 0.635329 -0.011726 -0.001742 -583539.000000 1 0 0
2.268469 14.570733 12.529750 19.350629 1.416350 0.866482 -0.011299 0.002346 363896.000000 1 0 0
-2.967131 13.721133 11.720750 18.287956 -1.357830 0.875126 -0.011373 -0.003216 174303.000000 1 0 0
8.810769 4.757433 15.748550 18.662252 0.495100 0.566337 0.014932 0.000203 476128.000000 1 0 0
-0.173931 12.423233 12.909750 17.917271 -1.556797 0.766245 -0.012679 -0.002702 196492.000000 1 0 0
3.592669 13.412633 14.470650 20.055067 1.309083 0.764764 -0.006039 -0.000688 -53245.500000 1 0 0
-2.863431 -4.034567 -13.659750 14.528102 0.953574 2.794100 -0.002722 -0.004152 -153836.000000 1 0 0
5.882569 -11.534967 16.276150 20.798393 -1.099199 0.672017 0.004778 0.002599 69058.900000 1 0 0
7.905969 -13.451967 7.359050 17.251533 -1.039456 1.130095 -0.002065 -0.010303 -503330.000000 1 0 0
-0.095031 15.642733 1.369050 15.702816 -1.564721 1.483500 -0.003296 0.001282 -1950140.000000 1 0 0
-13.752631 8.345033 9.050750 18.457804 -0.545401 1.058307 0.002220 -0.010018 592423.000000 1 0 0
-15.507931 -9.611567 4.848350 18.878153 0.554840 1.311062 0.001430 -0.001701 -156768.000000 1 0 0
9.526169 -11.161667 10.975850 18.324846 -0.864290 0.928595 0.007297 -0.008610 183299.000000 1 0 0
-5.461231 -10.795667 -16.792550 20.696889 1.102462 2.517265 0.020089 -0.004860 79760.500000 1 0 0
-1.984731 -12.527267 -14.764250 19.464189 1.413669 2.431857 -0.001552 0.008866 -100415.000000 1 0 0
5.559169 -15.992267 -12.179050 20.856323 -1.236247 2.194382 -0.006570 0.018033 297182.000000 1 0 0
2.528969 -11.709867 -16.809550 20.641648 -1.358094 2.522407 -0.010730 0.014322 312243.000000 1 0 0
0.571569 -13.819167 -14.539650 20.067324 -1.529459 2.381168 0.004562 0.015587 274292.000000 1 0 0
-6.286431 -5.956967 -14.553350 16.935308 0.758495 2.604793 0.004961 0.001195 33581.900000 1 0 0
-6.208031 -8.154267 -17.228750 20.046485 0.920088 2.604970 0.010510 0.000403 72860.500000 1 0 0
-1.964331 -16.300267 -12.876850 20.865535 1.450866 2.235893 0.000120 -0.005839 247951.000000 1 0 0
16.230369 -8.104067 -8.850850 20.185102 -0.463099 2.024708 0.022206 0.000614 101039.000000 1 0 0
19.107169 -3.018467 -3.591450 19.674693 -0.156681 1.754367 0.020899 -0.016708 167344.000000 1 0 0
15.519269 -11.514367 -9.373450 21.477661 -0.638323 2.022421 0.007941 0.003768 197137.000000 1 0 0
18.285169 -2.694667 -6.405850 19.561277 -0.146316 1.904427 0.118213 -0.002992 -239398.000000 1 0 0
8.967169 -9.867667 -15.849650 20.712131 -0.833172 2.442203 0.037181 0.000926 124255.000000 1 0 0
-4.619531 9.817633 -16.176950 19.478699 -1.130998 2.550791 0.017261 -0.003157 508623.000000 1 0 0
2.772669 -9.393467 -18.289450 20.746780 -1.283777 2.649945 0.005237 -0.005898 106451.000000 1 0 0
11.039569 7.833633 -14.947550 20.165990 0.617137 2.405691 0.039238 -0.042513 367935.000000 1 0 0
18.460769 -5.254667 -8.261050 20.896327 -0.277306 1.977229 0.032095 -0.009486 382765.000000 1 0 0
13.516569 5.604733 -13.752450 20.080850 0.393077 2.325200 0.054844 -0.015145 -25873.500000 1 0 0
15.924869 6.235133 -10.466150 20.050402 0.373187 2.119981 0.011211 -0.014929 -234581.000000 1 0 0
3.238769 -0.733367 -19.682950 19.961112 -0.222679 2.974454 0.028178 0.002479 83019.300000 1 0 0
10.190969 -1.489867 -14.693850 17.943934 -0.145166 2.530246 0.016520 -0.014998 -89741.700000 1 0 0
12.268369 -5.856867 -13.824150 19.388731 -0.445401 2.364563 0.028850 -0.009506 29824.400000 1 0 0
10.276969 6.443733 -12.906650 17.712126 0.560041 2.387204 0.022777 -0.010012 543260.000000 1 0 0
10.523669 5.155533 -16.213750 20.005320 0.455534 2.515754 0.015737 -0.019196 276111.000000 1 0 0
11.773069 -10.329967 -15.160450 21.797996 -0.720201 2.339908 0.045399 -0.011750 300824.000000 1 0 0
-1.630631 2.015633 -17.463050 17.654457 -0.890596 2.994205 0.005772 -0.007934 161155.000000 1 0 0
6.480269 -1.080467 -17.034050 18.257058 -0.165212 2.773490 0.025761 -0.007862 146702.000000 1 0 0
6.123469 -5.537967 -15.617350 17.665434 -0.735232 2.655281 -0.020843 -0.015054 114667.000000 1 0 0
-2.570631 -4.495267 -20.321150 20.970568 1.051330 2.892076 0.021449 -0.028603 239208.000000 1 0 0
16.010669 -0.084067 -13.455950 20.914377 -0.005251 2.269705 0.022325 -0.003666 23371.400000 1 0 0
-3.929231 -0.294967 -18.245250 18.665878 0.074929 2.928897 -0.007782 -0.009400 -49033.700000 1 0 0
4.284569 8.792833 -17.958250 20.449210 1.117377 2.642857 0.015373 -0.015619 190407.000000 1 0 0
9.145869 0.902033 -15.852050 18.323430 0.098309 2.616195 0.019652 -0.060686 -95853.600000 1 0 0
4.209169 4.409233 -18.113150 19.111375 0.808608 2.816960 0.014545 -0.016245 298014.000000 1 0 0
-2.890531 -10.946167 -17.962050 21.232263 1.312622 2.579195 0.006216 -0.011604 177402.000000 1 0 0
6.805769 -9.069867 -16.227150 19.796499 -0.927058 2.531680 0.032274 -0.009559 277631.000000 1 0 0
9.889469 -13.014967 -11.712550 20.109072 -0.921019 2.192537 0.002504 0.046725 257638.000000 1 0 0
6.386669 7.013733 -16.929950 19.406319 0.832158 2.630875 0.015644 -0.019299 148951.000000 1 0 0
8.786169 1.261433 -20.092350 21.965667 0.142596 2.725601 0.042244 -0.009251 183318.000000 1 0 0
-1.325531 -0.662667 -20.271650 20.325746 0.463588 3.068618 0.018856 -0.011049 65079.200000 1 0 0
-0.727931 6.568033 -19.671850 20.752123 -1.460417 2.817512 0.024770 -0.011071 177231.000000 1 0 0
8.848069 5.972933 -18.033550 20.956459 0.593787 2.607095 0.023784 -0.017451 -105426.000000 1 0 0
12.473969 0.077233 -13.098050 18.087697 0.006191 2.380585 0.027783 -0.007492 -113029.000000 1 0 0
-4.499031 -2.872067 -19.822750 20.528796 0.568159 2.878564 -0.006760 -0.003548 296563.000000 1 0 0
5.530169 -11.117067 -14.492150 19.083877 -1.109192 2.433175 -0.011932 0.002404 111146.000000 1 0 0
11.555969 2.710633 -15.833450 19.788534 0.230400 2.498312 0.029847 -0.009271 -547998.000000 1 0 0
-3.034631 -4.336467 -16.949050 17.756245 0.960209 2.838910 0.003639 -0.011536 367474.000000 1 0 0
-6.698631 -4.634867 -17.410550 19.221886 0.605278 2.703982 0.010123 -0.003449 129846.000000 1 0 0
3.015969 10.451533 -15.567050 18.991147 1.289861 2.531684 -0.000029 -0.007237 81808.500000 1 0 0
16.565869 -6.404967 -10.935450 20.857509 -0.368933 2.122681 0.021993 -0.005909 35735.200000 1 0 0
9.457469 -3.435367 -17.731550 20.387578 -0.348424 2.625438 0.006881 -0.015505 -47298.200000 1 0 0
-7.182531 -1.431467 -18.700850 20.083815 0.196721 2.768324 -0.009616 0.008062 581082.000000 1 0 0
1.749769 -7.208567 -19.147650 20.534304 -1.332667 2.771991 0.022978 -0.030105 231682.000000 1 0 0
5.814869 10.035633 -14.201650 18.336125 1.045645 2.456748 0.015000 -0.015217 518505.000000 1 0 0
6.113169 -3.660067 -17.855250 19.224382 -0.539477 2.761908 0.027986 -0.025490 563125.000000 1 0 0
4.457969 13.233433 -14.858950 20.390822 1.245865 2.387229 0.016870 -0.011067 75675.800000 1 0 0
9.718569 11.087533 -15.456250 21.360703 0.851100 2.379776 0.067150 -0.027027 43609.000000 1 0 0
17.391069 1.137933 -11.712650 20.998341 0.065339 2.162516 0.048430 0.001765 248837.000000 1 0 0
15.458969 -2.694167 -11.935250 19.715183 -0.172546 2.221044 0.040402 -0.014902 -98708.100000 1 0 0
-8.556431 0.840533 -17.379750 19.390068 -0.097920 2.682201 -0.000755 -0.003786 339192.000000 1 0 0
-3.281631 4.751233 -18.924050 19.785424 -0.966346 2.845433 0.017814 -0.003047 47464.600000 1 0 0
4.304969 2.114233 -16.787250 17.458938 0.456514 2.863306 0.012286 -0.012808 387298.000000 1 0 0
-5.072731 14.200233 -13.895450 20.505188 -1.227696 2.315366 0.014067 -0.008364 250036.000000 1 0 0
1.119369 9.558033 -17.834050 20.264805 1.454214 2.646765 0.018924 -0.005847 340401.000000 1 0 0
0.984269 -5.333567 -19.538350 20.277151 -1.388307 2.870821 0.021777 -0.016287 100758.000000 1 0 0
3.881269 -6.370767 -18.202550 19.671902 -1.023617 2.752641 0.027005 -0.018059 -219962.000000 1 0 0
-6.708631 7.570933 -16.122050 19.032742 -0.845712 2.581243 0.004357 0.002877 20014.400000 1 0 0
-11.971131 3.403933 -16.573450 20.726167 -0.277033 2.497490 0.040958 -0.021459 231896.000000 1 0 0
-4.652931 7.144833 -17.636950 19.589804 -0.993557 2.691284 0.014112 0.019786 409127.000000 1 0 0
-8.446331 5.299733 -17.667850 20.287449 -0.560366 2.627778 0.020453 -0.008625 490038.000000 1 0 0
-8.593031 4.445733 -14.751250 17.640978 -0.477443 2.561100 -0.003419 -0.022948 292960.000000 1 0 0
9.398469 13.278333 -12.884450 20.752214 0.954851 2.240650 0.047451 -0.028106 541129.000000 1 0 0
14.351269 9.504433 -11.998450 20.982278 0.584953 2.179540 0.066843 -0.019408 -91225.600000 1 0 0
8.691669 15.399033 -9.906650 20.268622 1.056942 2.081473 0.020079 -0.011145 -26161.600000 1 0 0
6.908669 13.042133 -14.568350 20.737979 1.083657 2.349695 0.066427 -0.028165 58478.800000 1 0 0
4.748469 15.635333 -13.277950 21.055060 1.275947 2.253161 0.022003 -0.004197 196699.000000 1 0 0
11.362269 10.971433 -10.636050 19.042034 0.767900 2.163441 0.049552 -0.043103 -46292.900000 1 0 0
16.185169 10.500533 -10.267950 21.855244 0.575514 2.059879 0.054822 -0.006024 240066.000000 1 0 0
13.710869 11.376633 -10.037650 20.449208 0.692622 2.083870 0.071002 -0.012702 132049.000000 1 0 0
10.737869 11.255733 -7.507150 17.272830 0.808940 2.020415 0.016895 -0.009836 148993.000000 1 0 0
6.261969 16.455133 -9.820350 20.159934 1.207171 2.079588 0.046705 -0.012847 65004.400000 1 0 0
11.545569 13.433633 -10.292450 20.486512 0.860840 2.097170 0.047903 -0.029959 259690.000000 1 0 0
8.590069 -19.394367 -1.613950 21.272884 -1.153849 1.646738 0.035223 -0.001756 132734.000000 1 0 0
7.362969 -17.888167 -4.132250 19.780680 -1.180321 1.781250 0.019035 0.022071 78126.300000 1 0 0
3.952369 -18.767067 5.439250 19.935131 -1.363228 1.294445 0.032608 -0.011392 359010.000000 1 0 0
10.313669 -17.845367 -2.153250 20.723546 -1.046750 1.674888 0.028607 -0.010362 517821.000000 1 0 0
-3.253831 -14.938767 7.969750 17.241551 1.356335 1.090276 0.029530 -0.029313 164170.000000 1 0 0
-14.864831 -13.120667 -4.612450 20.356566 0.723155 1.799364 -0.017707 0.007873 178875.000000 1 0 0
-9.344031 -12.545467 -7.104550 17.180637 0.930623 1.997114 0.013842 -0.010725 333107.000000 1 0 0
-11.401331 -15.818967 6.629350 20.595590 0.946287 1.243080 -0.000660 0.012683 365311.000000 1 0 0
-15.221531 -7.416667 -7.472050 18.507660 0.453394 1.986384 0.039304 -0.014080 -471788.000000 1 0 0
4.294169 -14.779967 6.598450 16.745950 -1.288041 1.165781 0.014959 -0.020138 138363.000000 1 0 0
2.481569 -14.023267 9.155850 16.930440 -1.395649 0.999418 0.014156 -0.009564 498162.000000 1 0 0
3.204269 -17.144767 10.476050 20.345958 -1.386033 1.029910 0.041897 -0.018639 335013.000000 1 0 0
-7.484831 -17.405267 -4.896950 19.569010 1.164671 1.823725 -0.022286 -0.013534 71534.700000 1 0 0
2.152669 -19.769367 -3.994350 20.283409 -1.462335 1.769019 0.015163 -0.013171 38961.900000 1 0 0
-17.622031 -11.048367 -1.746450 20.872290 0.560010 1.654567 -0.047122 0.011517 -146128.000000 1 0 0
-4.387231 -14.748567 2.736950 15.628785 1.281664 1.394766 0.011815 -0.000350 128835.000000 1 0 0
-10.775431 -9.765067 -14.736550 20.703438 0.736249 2.362843 0.024092 0.009999 124949.000000 1 0 0
0.536169 -20.355467 2.410050 20.504654 -1.544462 1.452987 0.020912 -0.013831 178762.000000 1 0 0
5.227969 -18.657267 0.648550 19.386745 -1.297592 1.537337 0.004411 0.005046 78204.700000 1 0 0
-7.583131 -19.360267 -3.072850 21.018235 1.197478 1.717521 0.009408 -0.007107 198972.000000 1 0 0
-9.221731 -15.854567 -7.565550 19.840493 1.043982 1.962019 0.020781 -0.007005 86805.100000 1 0 0
-12.068031 -11.103567 -12.473350 20.603666 0.743799 2.221058 0.042996 0.006318 361777.000000 1 0 0
-13.059031 -15.443767 -3.242750 20.483253 0.868870 1.729777 -0.000687 0.005287 182744.000000 1 0 0
-0.209031 -20.432567 -2.353350 20.568708 1.560566 1.685462 0.021303 -0.018428 332056.000000 1 0 0
-12.310731 -16.599967 -0.736750 20.679840 0.932685 1.606430 0.024755 -0.005203 196613.000000 1 0 0
0.495069 -19.904267 5.162350 20.568782 -1.545929 1.317104 0.033673 -0.023259 32799.400000 1 0 0
-17.956531 -8.749467 2.628650 20.146960 0.453402 1.439949 -0.003309 0.000031 17193.700000 1 0 0
-15.025131 -14.831367 -0.396650 21.115903 0.778908 1.589582 0.010013 -0.001686 -93774.900000 1 0 0
9.829169 -16.095867 -4.665350 19.428201 -1.022572 1.813299 0.015201 0.010096 28510.700000 1 0 0
0.115769 -19.122667 -7.039550 20.377563 -1.564742 1.923521 0.008296 -0.000577 240949.000000 1 0 0
-10.029431 -16.894667 -2.431750 19.797289 1.035063 1.693940 0.011892 0.000518 504696.000000 1 0 0
-15.514731 -6.675467 -11.144850 20.235524 0.406323 2.154067 0.050528 -0.004819 144014.000000 1 0 0
-12.177131 -15.409167 2.109650 19.752862 0.902027 1.463790 0.008755 -0.001092 245461.000000 1 0 0
-2.889831 -16.044667 9.926950 19.087346 1.392595 1.023852 0.028095 -0.025394 184488.000000 1 0 0
-12.373731 -14.800267 -6.645850 20.404030 0.874458 1.902562 0.006101 0.003236 219874.000000 1 0 0
5.142369 -17.042967 -7.311850 19.244995 -1.277753 1.960523 0.002361 0.003384 79691.000000 1 0 0
-17.446831 -7.849467 -3.254350 19.406103 0.422777 1.739290 -0.023120 0.010950 -15230.400000 1 0 0
-12.316731 -13.548667 -9.238650 20.509044 0.832991 2.038085 0.039557 -0.024503 115697.000000 1 0 0
-7.784131 -14.347267 10.523650 19.421225 1.073690 0.998144 0.024022 0.007654 426090.000000 1 0 0
-15.754731 -8.047767 -5.732850 18.596873 0.472263 1.884170 0.010599 0.005943 296251.000000 1 0 0
-0.841231 -19.678467 -0.088850 19.696640 1.528074 1.575307 0.013134 -0.014969 270831.000000 1 0 0
-15.011731 -11.521467 -2.033050 19.032329 0.654606 1.677821 0.003160 0.007166 49160.400000 1 0 0
-7.049431 -19.101967 1.455850 20.413209 1.217259 1.499417 0.014853 -0.007099 69959.200000 1 0 0
-1.828331 -20.872267 -5.077950 21.558755 1.483423 1.808571 0.001145 -0.001770 140887.000000 1 0 0
-9.316631 -19.625167 -0.572050 21.731867 1.127569 1.597122 0.023316 -0.002569 -141828.000000 1 0 0
-17.628431 -7.780167 5.160450 19.948003 0.415631 1.309125 -0.003219 -0.002944 16121.000000 1 0 0
-2.728731 -15.742567 -10.673250 19.214387 1.399167 2.159739 0.008080 0.001504 -35457.300000 1 0 0
-2.916531 -18.059967 -8.460050 20.155421 1.410687 2.003956 0.005809 -0.002618 281548.000000 1 0 0
4.731969 -17.608467 -4.653850 18.817756 -1.308266 1.820701 0.006632 -0.006736 622690.000000 1 0 0
0.739569 -17.497967 -9.046850 19.712212 -1.528555 2.047605 0.001715 0.011465 161476.000000 1 0 0
-7.566131 -9.932567 -14.857550 19.407448 0.919818 2.442706 0.016233 -0.001734 444689.000000 1 0 0
-5.047631 -19.603267 -2.155650 20.357148 1.318781 1.676887 0.014882 -0.008752 288889.000000 1 0 0
-10.019531 -14.620667 8.900050 19.833451 0.970005 1.105442 0.002386 -0.031512 311367.000000 1 0 0
-7.314431 -15.407967 -10.275750 19.912242 1.127579 2.113032 0.027391 -0.003615 282385.000000 1 0 0
-12.692031 -8.125867 -12.350550 19.484698 0.569479 2.257329 0.012242 0.002802 433189.000000 1 0 0
-15.542031 -13.111967 3.169250 20.579664 0.700793 1.416182 0.000880 0.007100 129403.000000 1 0 0
-6.043631 -14.444267 -13.512150 20.681889 1.174520 2.282774 0.004403 0.005834 318888.000000 1 0 0
-13.794931 -12.106667 -6.737350 19.551557 0.720310 1.922603 0.000380 -0.000381 318800.000000 1 0 0
-11.847131 -10.505267 -8.226250 17.843384 0.725438 2.049947 0.023084 -0.004650 222617.000000 1 0 0
-10.025631 -15.005667 3.628850 18.407930 0.981786 1.372361 0.004012 0.005400 513614.000000 1 0 0
4.969269 -18.029367 8.285650 20.454919 -1.301853 1.153742 0.043769 -0.019169 265775.000000 1 0 0
-4.922731 -16.602667 5.036850 18.034736 1.282551 1.287746 0.010798 -0.001796 341459.000000 1 0 0
-18.367031 -7.160767 -7.150750 20.970399 0.371744 1.918769 -0.001616 0.003448 47301.000000 1 0 0
-17.246831 -3.417067 -10.586150 20.523063 0.195594 2.112758 0.022100 -0.016332 -117368.000000 1 0 0
-16.032931 -3.824267 -12.820150 20.881478 0.234151 2.231849 0.022518 -0.008635 138247.000000 1 0 0
-19.247231 -4.670967 -5.975350 20.687645 0.238080 1.863808 0.002550 0.007985 -615554.000000 1 0 0
5.347969 -13.503867 8.542950 16.850436 -1.193715 1.039111 0.021615 -0.009598 216554.000000 1 0 0
19.854969 -3.750067 2.798650 20.398903 -0.186674 1.433166 0.034400 -0.011801 -72080.600000 1 0 0
18.750769 -2.993567 0.945350 19.011745 -0.158314 1.521051 0.050689 -0.020732 245368.000000 1 0 0
14.239869 -11.392367 0.173650 18.237051 -0.674761 1.561274 0.026322 0.004060 181460.000000 1 0 0
11.207769 -14.089167 5.428950 18.804048 -0.898812 1.277915 0.013253 0.005781 608911.000000 1 0 0
9.947469 -13.198467 9.094850 18.864463 -0.924942 1.067729 0.007542 -0.006003 175565.000000 1 0 0
18.422569 3.997433 -4.243550 19.322998 0.213673 1.792212 0.022927 0.001449 25286.400000 1 0 0
18.866469 -6.151967 -4.803750 20.417305 -0.315208 1.808301 0.038956 -0.010095 -56322.000000 1 0 0
17.693669 -10.032867 -0.469850 20.345641 -0.515825 1.593892 0.040364 0.001723 392030.000000 1 0 0
17.643669 -8.813867 8.494750 21.474266 -0.463286 1.164099 0.068243 -0.013119 87138.000000 1 0 0
19.932769 0.170133 -1.978050 20.031398 0.008535 1.669705 0.025746 -0.006905 -329696.000000 1 0 0
7.338869 -13.261867 11.621250 19.099465 -1.065361 0.916678 0.005806 -0.003853 355153.000000 1 0 0
15.840969 -6.734967 -3.559750 17.577483 -0.402007 1.774724 0.015971 -0.000252 309415.000000 1 0 0
14.367669 -6.963667 12.251850 20.125367 -0.451314 0.916279 0.027908 -0.017009 372491.000000 1 0 0
17.208969 1.461633 9.016050 19.482663 0.084731 1.089676 0.098853 -0.039241 325659.000000 1 0 0
16.387369 -10.395067 2.634850 19.584323 -0.565283 1.435848 0.005550 0.003089 272068.000000 1 0 0
16.342669 -7.601667 -6.016850 19.001859 -0.435375 1.892987 0.030029 0.005768 304813.000000 1 0 0
18.489169 -4.376767 5.953750 19.911117 -0.232442 1.267135 0.107789 -0.014370 -14364.900000 1 0 0
13.140169 -13.184067 8.104250 20.301786 -0.787066 1.160164 0.005467 -0.017421 273301.000000 1 0 0
15.089669 -14.424767 -1.417450 20.923221 -0.762874 1.638594 0.026022 0.002984 158584.000000 1 0 0
18.606169 -6.584467 8.144850 21.351424 -0.340133 1.179414 0.051533 -0.006321 293989.000000 1 0 0
19.502769 3.855933 2.869350 20.086298 0.195195 1.427455 0.027570 -0.003468 232138.000000 1 0 0
15.602969 -10.407267 8.206650 20.472248 -0.588237 1.158333 0.034109 -0.027056 195302.000000 1 0 0
14.476769 -3.965367 10.599150 18.375063 -0.267355 0.955963 0.037484 -0.012174 -76396.300000 1 0 0
18.622869 -7.946467 1.655150 20.314948 -0.403314 1.489231 0.038896 -0.008146 31184.800000 1 0 0
18.924169 -5.629167 -1.470450 19.798331 -0.289124 1.645136 0.028483 -0.012132 395719.000000 1 0 0
14.466969 -13.943067 -6.282550 21.051668 -0.766960 1.873849 0.016514 0.002055 304083.000000 1 0 0
13.735969 -9.671967 10.547050 19.835928 -0.613495 1.010173 0.014357 -0.006096 329150.000000 1 0 0
14.102169 2.162433 0.502550 14.275848 0.152155 1.535586 -0.003386 -0.003153 -255535.000000 1 0 0
12.998869 2.691633 13.577350 18.988415 0.204181 0.774125 0.026951 -0.014385 130394.000000 1 0 0
18.332169 -3.776867 9.043650 20.787514 -0.203181 1.120700 0.045410 -0.009155 216822.000000 1 0 0
7.529669 -18.474167 5.323450 20.647757 -1.183774 1.310029 0.041147 -0.015887 368424.000000 1 0 0
12.663969 -3.292767 15.139850 20.010834 -0.254378 0.712725 0.019862 0.016856 248595.000000 1 0 0
12.017969 -14.023167 -7.428150 19.906235 -0.862248 1.953206 0.032824 0.009318 247241.000000 1 0 0
10.646969 -17.953667 4.700150 21.395876 -1.035521 1.349314 0.015621 0.000669 653026.000000 1 0 0
18.251069 -0.242967 -4.570550 18.816229 -0.013312 1.816155 0.025208 -0.012611 -38051.800000 1 0 0
4.209869 -13.631267 11.594050 18.383591 -1.271250 0.888375 0.008431 -0.009194 169304.000000 1 0 0
9.452269 -2.697867 14.285150 17.340397 -0.278028 0.602701 0.034406 -0.001701 292764.000000 1 0 0
9.038169 -9.268767 14.050650 19.105478 -0.797994 0.744502 0.018351 -0.006637 330313.000000 1 0 0
21.146669 5.519133 -2.658950 22.016186 0.255298 1.691864 0.036320 0.005453 531173.000000 1 0 0
14.593069 -13.413467 1.978350 19.919654 -0.743304 1.471316 0.012699 0.002713 211643.000000 1 0 0
11.007569 0.115333 13.752550 17.615689 0.010477 0.675013 0.022751 -0.027687 99947.300000 1 0 0
19.519569 0.266533 7.321450 20.849178 0.013654 1.211984 0.074860 -0.026010 39383.800000 1 0 0
19.841569 1.066733 0.562150 19.878174 0.053711 1.542513 0.024447 -0.012766 290333.000000 1 0 0
17.868169 0.435433 2.877050 18.103549 0.024364 1.411198 0.016546 -0.009516 10412.500000 1 0 0
10.363069 -8.263667 16.468850 21.140114 -0.673163 0.677674 0.039058 0.001945 55829.900000 1 0 0
19.059269 2.943233 5.667950 20.100846 0.153215 1.284944 0.038535 -0.014202 168922.000000 1 0 0
14.823069 2.168633 6.826450 16.462890 0.145271 1.143231 0.021682 -0.021099 -201904.000000 1 0 0
11.269669 -16.109267 2.227950 19.785795 -0.960354 1.457953 0.002848 0.011013 363044.000000 1 0 0
8.773469 -15.802267 6.839350 19.325168 -1.063967 1.209049 0.018128 -0.013156 346913.000000 1 0 0
6.084469 6.547633 7.198050 11.476244 0.822047 0.892827 0.003599 0.000531 -977405.000000 1 0 0
18.485869 2.634533 -6.466550 19.760678 0.141563 1.904181 0.013958 0.004039 414637.000000 1 0 0
14.062369 4.575833 -7.160650 16.430562 0.314590 2.021738 0.007331 -0.003559 245084.000000 1 0 0
-10.724231 -3.818567 -13.581350 17.721277 0.342071 2.443994 0.016922 -0.000760 -136755.000000 1 0 0
7.846169 -14.208967 -10.377650 19.265325 -1.066267 2.139654 -0.002357 0.017104 80439.600000 1 0 0
1.770069 -15.956767 13.838950 21.195945 -1.460319 0.859382 0.013251 -0.008352 336278.000000 1 0 0
-9.350231 -8.207667 2.368950 12.665091 0.720416 1.382642 0.006533 0.002146 451215.000000 1 0 0
-13.837431 3.347533 -9.547550 17.141651 -0.237358 2.161541 0.012608 -0.005583 229935.000000 1 0 0
-13.321731 -5.261567 -13.238950 19.504420 0.376155 2.316878 0.030852 0.014814 97625.400000 1 0 0
-17.890331 -0.164067 -8.123550 19.648993 0.009170 1.997018 0.027378 -0.018946 511181.000000 1 0 0
-12.000431 15.420933 4.200950 19.986583 -0.909496 1.359029 0.013029 -0.010785 326734.000000 1 0 0
-17.330931 6.446133 9.317150 20.705629 -0.356089 1.104052 0.015603 -0.012590 173757.000000 1 0 0
-13.757831 15.526533 -0.312950 20.747267 -0.845722 1.585881 0.039072 -0.016411 260834.000000 1 0 0
-16.025731 5.143233 -10.778550 19.986346 -0.310552 2.140397 0.023703 -0.004097 10930.100000 1 0 0
-17.878131 2.782633 0.099750 18.093661 -0.154406 1.565283 0.014178 -0.003220 -46461.800000 1 0 0
-9.637331 15.542433 -0.171650 18.288653 -1.015753 1.580182 0.006180 -0.006441 65027.600000 1 0 0
-18.551031 11.800933 1.925750 22.070598 -0.566565 1.483431 0.079373 -0.028712 -182833.000000 1 0 0
-8.483931 16.531833 -7.672550 20.103398 -1.096654 1.962382 0.049042 -0.019844 -14657.800000 1 0 0
-15.154231 -1.995967 -13.048150 20.096985 0.130956 2.277406 0.020946 -0.008951 66625.000000 1 0 0
-18.963531 5.346333 -4.612150 20.235383 -0.274795 1.800742 0.042239 -0.009794 -122251.000000 1 0 0
-16.698931 8.839633 -6.190150 19.882439 -0.486854 1.887397 0.041807 -0.005521 -173294.000000 1 0 0
-18.776031 1.512433 2.611150 19.016964 -0.080378 1.433055 0.006957 -0.011314 260325.000000 1 0 0
-13.232931 11.910233 -6.928050 19.103978 -0.732840 1.941906 0.024605 -0.013824 -230456.000000 1 0 0
-12.798131 4.947733 -13.537950 19.275589 -0.368900 2.349471 0.010944 -0.009741 -4190.760000 1 0 0
-13.904131 9.491533 -6.552450 18.065123 -0.598981 1.941974 0.020654 -0.009470 155621.000000 1 0 0
-6.523531 11.597533 -15.413850 20.362858 -1.058412 2.429443 0.016773 -0.014755 12623.800000 1 0 0
-14.935431 13.996933 2.767250 20.655239 -0.752972 1.436419 0.023356 -0.022533 48128.700000 1 0 0
-18.799931 8.504733 -4.855350 21.197696 -0.424832 1.801899 0.061334 -0.007473 45190.900000 1 0 0
-3.831731 16.883433 -9.919650 19.953244 -1.347625 2.091101 0.011444 -0.005199 72491.300000 1 0 0
-19.301831 -2.272667 -6.632950 20.535864 0.117204 1.899687 0.004612 -0.002999 -264799.000000 1 0 0
-10.994431 14.093133 -6.022750 18.861798 -0.908291 1.895797 0.030324 -0.014929 -19262.300000 1 0 0
-19.412931 3.229033 4.468050 20.180486 -0.164825 1.347542 0.027637 0.000858 150135.000000 1 0 0
-14.792131 12.190633 0.585950 19.177122 -0.689282 1.540237 0.011300 -0.013562 423.587000 1 0 0
-17.719131 2.741133 -8.723250 19.939321 -0.153482 2.023602 0.018358 -0.005901 -275826.000000 1 0 0
-16.547231 12.792333 -4.586250 21.412341 -0.658109 1.786656 0.033920 -0.000909 42049.600000 1 0 0
-10.578131 15.724033 -8.471850 20.758476 -0.978603 1.991185 0.026024 -0.020796 141236.000000 1 0 0
-19.061831 2.074933 -6.813750 20.349102 -0.108426 1.912235 0.016940 -0.012317 99781.900000 1 0 0
-16.629031 10.960133 -0.286350 19.918112 -0.582743 1.585173 0.007612 0.004637 -141336.000000 1 0 0
-11.632831 6.598733 -14.618050 19.812961 -0.515991 2.400605 0.001867 -0.011902 267684.000000 1 0 0
-13.504631 13.195733 -5.149650 19.570931 -0.773830 1.837059 0.043656 -0.008608 202286.000000 1 0 0
-18.834231 7.202933 -0.173950 20.165336 -0.365276 1.579423 0.035616 -0.007276 50847.600000 1 0 0
-14.513031 8.930233 -10.296150 19.909491 -0.551612 2.114312 0.018550 -0.003252 628789.000000 1 0 0
-18.441531 11.420633 4.963750 22.252185 -0.554482 1.345836 0.038084 -0.027914 184767.000000 1 0 0
-7.969631 12.160833 -13.475550 19.824009 -0.990668 2.318230 -0.003653 0.008449 463793.000000 1 0 0
-21.121131 -1.420467 -5.070050 21.767529 0.067152 1.805873 0.019075 -0.013130 81094.000000 1 0 0
-10.601431 13.484333 -3.136550 17.437188 -0.904525 1.751658 0.014695 -0.008060 369278.000000 1 0 0
-18.494231 -4.996367 3.632150 19.498533 0.263859 1.383424 -0.003852 -0.003153 -26677.300000 1 0 0
-11.426931 11.620033 -12.916350 20.795000 -0.793777 2.240977 0.016321 0.003844 239055.000000 1 0 0
-14.912231 11.736733 -10.026350 21.462834 -0.666797 2.056860 0.038779 -0.000571 216315.000000 1 0 0
-12.987531 8.506933 -13.015050 20.259205 -0.579888 2.268457 0.040871 -0.027195 183895.000000 1 0 0
-18.268331 -4.947667 -3.034450 19.168182 0.264488 1.729772 -0.012689 0.003624 -239139.000000 1 0 0
-9.263331 12.601033 -11.438050 19.375870 -0.936884 2.202257 0.011533 -0.010379 52253.600000 1 0 0
-15.143831 7.793533 -8.488550 19.029720 -0.475286 2.033164 -0.003496 -0.000541 -139213.000000 1 0 0
-14.545531 8.761233 2.015950 17.099583 -0.542132 1.452627 0.012894 -0.004135 -79582.700000 1 0 0
-19.739431 6.365133 7.801950 22.159208 -0.311931 1.210997 0.031978 -0.014309 230573.000000 1 0 0
-18.680431 6.120833 3.746550 20.011490 -0.316636 1.382465 0.013915 -0.003501 244482.000000 1 0 0
-14.453731 13.037533 5.746350 20.295520 -0.733929 1.283736 0.015646 -0.016918 -3916.750000 1 0 0
18.050469 6.134533 5.582450 19.864936 0.327608 1.285939 0.039305 -0.020849 23915.600000 1 0 0
18.173169 7.781033 0.655350 19.779738 0.404545 1.537658 0.014071 0.006918 -291605.000000 1 0 0
17.035469 4.346133 8.759650 19.642493 0.249794 1.108556 0.057178 -0.014113 -461.441000 1 0 0
12.434369 12.755233 10.755250 20.808289 0.798135 1.027602 0.052515 -0.019960 182639.000000 1 0 0
15.461869 12.374133 4.295950 20.264347 0.674924 1.357180 0.035426 -0.008064 204720.000000 1 0 0
4.597269 10.104233 13.855450 17.753983 1.143805 0.675469 0.005060 -0.012041 206554.000000 1 0 0
13.069169 13.347333 -5.421350 19.451106 0.795928 1.853254 0.028193 -0.001835 250313.000000 1 0 0
17.485769 9.246433 -3.011050 20.007875 0.486419 1.721864 -0.007737 0.014614 -82122.000000 1 0 0
14.433769 7.490433 9.561650 18.864396 0.478694 1.039255 0.036953 -0.009716 45308.100000 1 0 0
4.742669 19.042533 -1.376650 19.672472 1.326706 1.640832 -0.005966 -0.010625 572121.000000 1 0 0
-4.529131 19.926233 3.682950 20.763716 -1.347299 1.392479 -0.001832 0.028033 466838.000000 1 0 0
6.669469 12.610333 12.588250 19.025413 1.084305 0.847773 0.007504 -0.001597 -113361.000000 1 0 0
0.328069 17.068233 -10.279250 19.927247 1.551578 2.112783 0.016099 0.006459 2366.990000 1 0 0
10.520869 9.398133 15.756950 21.149351 0.729093 0.730213 0.014633 0.001844 119411.000000 1 0 0
-1.410831 12.822933 0.316950 12.904205 -1.461213 1.546232 -0.005689 0.006584 431325.000000 1 0 0
-4.518031 19.147733 -2.409850 19.820587 -1.339078 1.692681 0.016396 0.011353 69219.000000 1 0 0
6.423869 18.201233 6.233450 20.283167 1.231508 1.258419 0.025861 -0.031221 231720.000000 1 0 0
11.080069 17.458133 -1.344050 20.721023 1.005277 1.635706 0.017184 -0.007354 411347.000000 1 0 0
18.462969 10.468333 3.395650 21.494131 0.515794 1.412151 0.031173 -0.001713 317042.000000 1 0 0
11.781369 16.693133 6.686450 21.498138 0.956214 1.254525 0.043158 -0.007638 16532.200000 1 0 0
18.133569 7.425633 -5.985150 20.488738 0.388666 1.867238 0.003108 0.015963 369372.000000 1 0 0
0.418969 15.268433 10.901550 18.765510 1.543363 0.950919 -0.008956 -0.007943 333254.000000 1 0 0
1.278769 20.272933 -2.114750 20.423007 1.507802 1.674530 -0.000490 0.000433 288780.000000 1 0 0
14.411269 9.814433 -1.477650 17.498320 0.597877 1.655342 0.022663 0.003345 54838.000000 1 0 0
10.138069 16.838133 2.222550 19.779861 1.028842 1.458194 0.032596 -0.030134 99593.300000 1 0 0
0.156969 18.027233 -0.678950 18.040697 1.562089 1.608440 -0.008505 0.007050 151800.000000 1 0 0
-0.153131 21.156933 1.251450 21.194466 -1.563559 1.511716 0.008129 0.006507 250825.000000 1 0 0
6.007169 17.301233 -0.283550 18.316636 1.236609 1.586277 -0.001992 -0.022157 14683.600000 1 0 0
6.534969 18.475833 -2.966450 19.820748 1.230826 1.721025 -0.018342 -0.012550 90786.900000 1 0 0
10.747769 9.420533 13.276250 19.506917 0.719685 0.822226 0.031944 0.005827 -279458.000000 1 0 0
12.842269 14.780333 8.104450 21.191136 0.855446 1.178355 0.030511 -0.015025 54528.300000 1 0 0
0.269669 17.596633 7.083650 18.970828 1.555472 1.188128 0.006487 -0.001899 163331.000000 1 0 0
7.447069 17.988433 -7.876050 21.001779 1.178286 1.955213 0.009850 -0.002130 127034.000000 1 0 0
-1.540231 18.569233 9.314550 20.831456 -1.488040 1.107232 0.044934 -0.011068 94925.900000 1 0 0
15.959569 6.775833 -7.893350 19.050583 0.401500 1.998010 0.028625 -0.001810 -231895.000000 1 0 0
-5.191131 19.621233 -6.940250 21.450121 -1.312155 1.900278 0.015121 -0.009204 371041.000000 1 0 0
3.811769 15.754433 9.951650 19.020176 1.333409 1.020177 0.006526 -0.004082 223213.000000 1 0 0
8.734069 15.017933 7.535450 18.936876 1.044034 1.161543 0.018681 -0.010471 -126444.000000 1 0 0
-2.563431 18.927733 6.769450 20.264642 -1.436183 1.230197 0.014422 -0.006668 -3283.830000 1 0 0
4.639469 17.980533 8.306450 20.342599 1.318277 1.150175 0.016601 -0.016833 120156.000000 1 0 0
13.876569 11.385933 -6.985250 19.261162 0.687126 1.941917 -0.041778 -0.021887 -25371.600000 1 0 0
11.779069 6.191033 15.850450 20.695703 0.483914 0.698386 0.028311 -0.009930 304891.000000 1 0 0
17.102569 8.925033 5.118650 19.958824 0.480977 1.311438 0.041087 -0.013177 53218.100000 1 0 0
5.134669 14.730933 11.754150 19.532671 1.235402 0.925083 -0.004041 -0.023591 324282.000000 1 0 0
16.456069 11.613433 -4.811550 20.708091 0.614557 1.805291 0.060544 0.039299 111177.000000 1 0 0
15.410869 14.092833 6.870750 21.984313 0.740754 1.252941 0.040305 0.012032 266002.000000 1 0 0
12.608869 14.442933 -7.993850 20.772182 0.853093 1.965825 0.048116 -0.015322 368231.000000 1 0 0
-8.165931 15.697033 9.578550 20.120335 -1.091103 1.074624 0.022553 -0.019193 228036.000000 1 0 0
-4.964331 17.152733 -7.426850 19.339569 -1.289075 1.964946 0.016683 0.012495 102329.000000 1 0 0
2.493069 19.554433 -4.573750 20.236364 1.443987 1.798783 -0.000011 -0.014424 56089.100000 1 0 0
6.965169 16.408433 9.016750 19.976287 1.169360 1.102493 0.022069 -0.022887 539332.000000 1 0 0
13.255869 15.630433 -1.563950 20.554183 0.867418 1.646959 0.038354 -0.013918 157921.000000 1 0 0
12.393569 16.772333 4.230950 21.279395 0.934418 1.370634 0.027410 -0.022512 362612.000000 1 0 0
2.563869 18.511233 0.602350 18.697647 1.433169 1.538575 0.003043 -0.009339 14161.000000 1 0 0
-6.752631 17.862133 1.140350 19.129930 -1.209362 1.511150 -0.025647 0.022058 173609.000000 1 0 0
0.169869 20.108433 -5.981950 20.980030 1.562349 1.859934 0.017933 0.006994 67491.200000 1 0 0
-7.945531 18.104433 -6.333950 20.761042 -1.157235 1.880827 0.056813 -0.014744 132087.000000 1 0 0
-7.242531 18.532033 -1.046650 19.924507 -1.198236 1.623351 0.017696 0.002755 45722.900000 1 0 0
-14.649131 -9.058667 8.824450 19.352711 0.553822 1.097323 0.013648 -0.002444 450444.000000 1 0 0
-13.399431 -13.725567 7.445050 20.575828 0.797421 1.200561 0.010456 0.007790 -66037.500000 1 0 0
-4.108331 -15.836067 12.795950 20.770068 1.316963 0.907044 0.038100 -0.011567 134800.000000 1 0 0
-2.281131 -14.879267 14.529050 20.921029 1.418671 0.803112 0.029525 -0.032129 354708.000000 1 0 0
-7.913731 -13.351767 13.664450 20.678830 1.035754 0.848920 0.011722 -0.009703 268288.000000 1 0 0
-10.036131 -11.002867 11.804950 19.003785 0.831316 0.900537 0.021167 -0.004498 -703841.000000 1 0 0
-7.709231 -10.381367 13.248650 18.513016 0.932046 0.773257 0.023290 -0.007775 350872.000000 1 0 0
-15.169831 -12.054267 7.990950 20.959113 0.671452 1.179633 0.003921 0.019353 185039.000000 1 0 0
-4.718931 -12.092167 13.057150 18.411355 1.198726 0.782448 0.023493 -0.025344 366708.000000 1 0 0
3.652769 -12.774767 14.123550 19.391030 -1.292291 0.754879 0.006545 0.012446 459079.000000 1 0 0
6.561969 -13.469067 14.674250 20.971619 -1.117451 0.795792 0.007187 0.002153 220996.000000 1 0 0
6.945769 -9.274167 16.615950 20.256941 -0.927976 0.608932 0.006677 0.004101 638890.000000 1 0 0
-5.211131 13.598933 13.349250 19.755742 -1.204855 0.828862 0.009713 -0.004810 326632.000000 1 0 0
-13.630231 -1.648767 17.500250 22.243210 0.120379 0.665241 0.010631 -0.005077 278735.000000 1 0 0
-10.261331 11.024633 13.356550 20.130447 -0.821242 0.845309 0.019709 0.025863 -3252.390000 1 0 0
-7.339031 -8.161067 17.331250 20.514303 0.838383 0.564535 0.028553 -0.004587 118715.000000 1 0 0
-4.892331 2.176833 18.353650 19.118838 -0.418645 0.283875 0.024923 -0.009985 524645.000000 1 0 0
-15.636731 -3.256567 14.801150 21.775827 0.205329 0.823435 0.016026 -0.008203 80446.000000 1 0 0
-14.400531 3.277133 12.419750 19.296764 -0.223760 0.871580 -0.000405 -0.005081 291535.000000 1 0 0
-13.771131 10.949433 10.061350 20.267336 -0.671746 1.051313 -0.049119 0.018558 -88480.500000 1 0 0
-3.660031 11.340233 15.984750 19.937626 -1.258603 0.640599 -0.010942 0.002663 232920.000000 1 0 0
-13.038431 13.151933 7.492450 19.977759 -0.789732 1.186357 0.012738 -0.034838 110976.000000 1 0 0
-3.934531 -6.220167 18.654450 20.053915 1.006790 0.375798 0.030615 -0.009376 250844.000000 1 0 0
0.817069 -2.821067 18.250250 18.485065 -1.288879 0.159562 0.013290 -0.004625 204382.000000 1 0 0
-4.103531 6.584933 21.383350 22.747483 -1.013514 0.348074 0.030124 -0.006122 268739.000000 1 0 0
2.318969 -10.499667 16.049150 19.318277 -1.353425 0.590297 -0.002302 -0.010415 156035.000000 1 0 0
-15.485531 0.086333 13.503350 20.546279 -0.005575 0.853677 0.008708 -0.005643 24384.400000 1 0 0
-14.140531 -5.817567 7.702150 17.120801 0.390304 1.104176 0.004496 -0.007737 155054.000000 1 0 0
10.251169 0.802033 16.783450 19.682833 0.078079 0.549674 0.028482 0.013385 575831.000000 1 0 0
-7.479931 12.308833 12.030750 18.766877 -1.024743 0.874914 0.014269 -0.010835 79951.100000 1 0 0
-1.774931 7.605333 19.430250 20.941014 -1.341520 0.382174 0.019163 -0.036645 498432.000000 1 0 0
1.008969 -14.004567 15.777350 21.120386 -1.498875 0.727228 0.003616 0.006665 641717.000000 1 0 0
-3.705231 -11.358967 17.494850 21.185482 1.255485 0.599187 0.033967 -0.022875 337180.000000 1 0 0
-2.423431 8.376733 17.043950 19.145206 -1.289180 0.472911 0.009672 -0.011772 411139.000000 1 0 0
-4.559931 -9.443867 20.528050 23.051690 1.120966 0.472304 0.056644 -0.012432 204384.000000 1 0 0
-6.814231 -2.956667 19.165150 20.554284 0.409381 0.369754 0.030593 -0.012457 307634.000000 1 0 0
-11.060631 -7.816067 16.029750 20.985265 0.615179 0.701527 0.054881 -0.013048 258034.000000 1 0 0
-0.155431 6.541833 17.810050 18.974130 -1.547041 0.352104 0.001994 -0.004524 143926.000000 1 0 0
-6.563331 -10.878867 19.034350 22.885225 1.027946 0.588578 0.065002 -0.014055 388152.000000 1 0 0
0.246669 3.589333 18.476150 18.823184 1.502181 0.192320 0.011611 -0.017060 201761.000000 1 0 0
-17.746431 -1.293067 7.454250 19.291803 0.072735 1.174077 -0.026523 0.001906 248328.000000 1 0 0
-1.805931 -8.727367 17.310150 19.469710 1.366749 0.475463 0.017879 -0.009655 262299.000000 1 0 0
5.906769 3.643033 14.930650 16.464687 0.552649 0.435098 0.014056 -0.004848 384249.000000 1 0 0
-13.763731 -6.653167 10.227450 18.393087 0.450267 0.981172 -0.000302 -0.007394 165968.000000 1 0 0
4.007169 8.246233 16.734450 19.081393 1.118460 0.501206 0.001776 -0.000843 326309.000000 1 0 0
6.217869 4.177533 17.893050 19.397807 0.591589 0.396479 0.022229 -0.009295 202392.000000 1 0 0
5.235569 -9.665767 18.246950 21.302334 -1.074378 0.542210 0.011380 0.015853 419320.000000 1 0 0
-4.520831 -0.974767 19.856750 20.388198 0.212366 0.228825 0.027518 -0.009755 549182.000000 1 0 0
-11.308431 2.168133 16.838750 20.399140 -0.189428 0.599773 0.040677 -0.017284 255832.000000 1 0 0
-16.737631 -3.979667 8.927050 19.382422 0.233433 1.092154 -0.000127 -0.013902 212602.000000 1 0 0
-13.483531 -9.115567 11.929750 20.179646 0.594472 0.938278 0.020170 -0.021462 228738.000000 1 0 0
-14.918131 6.267033 12.697450 20.568218 -0.397709 0.905448 0.015921 -0.022181 402861.000000 1 0 0
1.255769 9.580233 17.316450 19.829707 1.440460 0.508947 -0.007357 0.001235 -2041.930000 1 0 0
-3.850131 -10.283767 14.986250 18.578672 1.212561 0.632356 0.027576 -0.013094 579824.000000 1 0 0
-18.847731 -3.743267 6.843250 20.398017 0.196055 1.228675 0.078624 -0.010629 -236000.000000 1 0 0
-0.928731 -0.457267 21.251550 21.276748 0.457514 0.048673 0.020205 -0.007728 273667.000000 1 0 0
-1.808831 2.615733 20.437850 20.683801 -0.965785 0.154367 0.013263 -0.008666 231155.000000 1 0 0
-7.944531 2.188433 16.568250 18.504370 -0.268798 0.461536 0.008850 0.009125 598252.000000 1 0 0
2.945969 -1.771067 19.175850 19.481495 -0.541289 0.177371 0.024674 0.006855 51530.000000 1 0 0
-12.237031 4.543233 14.063550 19.187739 -0.355496 0.748156 -0.007572 -0.015033 123376.000000 1 0 0
-13.484431 -5.272867 13.209250 19.598910 0.372753 0.831215 0.011419 -0.010852 25554.700000 1 0 0
-17.408731 -0.598667 10.255350 20.213721 0.034375 1.038694 0.010376 -0.005963 183802.000000 1 0 0
-7.822231 7.535533 14.700750 18.277954 -0.766732 0.636319 0.017760 -0.015024 194484.000000 1 0 0
-9.426931 0.757033 14.110950 16.987026 -0.080133 0.590451 0.014413 -0.010501 336368.000000 1 0 0
7.670969 -0.817067 14.982550 16.851948 -0.106114 0.475488 0.026114 -0.002140 282335.000000 1 0 0
4.214369 6.411233 18.319050 19.860826 0.989277 0.396622 0.018335 0.002613 351241.000000 1 0 0
1.228069 0.698333 20.140750 20.190236 0.517044 0.070028 0.008836 -0.002198 127479.000000 1 0 0
-7.137331 6.410033 17.360150 19.834435 -0.731764 0.504838 0.028874 -0.022635 560282.000000 1 0 0
7.479669 -3.086367 17.030650 18.855083 -0.391350 0.443538 0.017106 0.013841 488042.000000 1 0 0
-16.458631 2.698033 9.194350 19.044737 -0.162483 1.066974 0.013666 -0.011672 135417.000000 1 0 0
3.416969 -6.017867 19.044850 20.263186 -1.054387 0.348534 0.008851 -0.007750 106609.000000 1 0 0
-3.798731 -3.651367 20.741350 21.400150 0.765621 0.248773 0.023207 -0.007261 395328.000000 1 0 0
-9.930731 5.910233 14.425850 18.483923 -0.536843 0.675405 0.023964 -0.010549 27765.600000 1 0 0
6.346969 1.519033 19.934450 20.975552 0.234913 0.316386 0.031929 0.007000 -93869.200000 1 0 0
-7.040631 11.069133 14.601850 19.629320 -1.004283 0.731940 0.021457 -0.018699 295769.000000 1 0 0
-14.361331 5.180933 9.638150 18.055022 -0.346224 1.007683 0.000573 -0.005082 382157.000000 1 0 0
1.317969 -4.224667 20.270850 20.748306 -1.268394 0.214945 0.039611 -0.022736 229717.000000 1 0 0
-6.177531 -8.211267 13.739850 17.157222 0.925810 0.642133 0.018902 -0.007947 265723.000000 1 0 0
-12.654331 10.080133 6.315350 17.367349 -0.672649 1.198631 -0.015799 -0.021213 149283.000000 1 0 0
-19.223231 1.508133 7.559950 20.711348 -0.078293 1.197148 -0.012684 -0.007938 22605.600000 1 0 0
-16.273231 9.343533 6.226950 19.771054 -0.521207 1.250389 0.020432 -0.008393 150090.000000 1 0 0
-11.930931 8.029733 13.828550 19.951254 -0.592387 0.804992 -0.020100 -0.018948 229731.000000 1 0 0
-16.540731 8.906133 10.973550 21.756236 -0.493922 1.042125 0.013108 -0.012451 420873.000000 1 0 0
2.697669 10.531033 15.278350 18.751215 1.320025 0.618425 -0.007000 -0.016234 153059.000000 1 0 0
1.526869 14.525033 13.121750 19.633854 1.466061 0.838845 -0.009910 -0.014878 602394.000000 1 0 0
9.028569 4.484733 16.632150 19.448812 0.461026 0.544907 0.023927 -0.002191 103491.000000 1 0 0
-0.380431 13.300533 13.210050 18.749782 -1.542201 0.789016 -0.013719 0.006809 119005.000000 1 0 0
4.434769 13.180233 14.844050 20.340392 1.246224 0.752793 0.012810 0.011941 115198.000000 1 0 0
-3.664031 -4.543067 -13.714150 14.904445 0.892098 2.739230 -0.003961 -0.003302 76111.900000 1 0 0
5.434169 -12.086367 16.906550 21.481199 -1.148266 0.664801 -0.034438 0.023074 213549.000000 1 0 0
8.829869 -13.642967 7.247250 17.793813 -0.996385 1.151311 0.000438 -0.011606 271069.000000 1 0 0
-0.411431 15.490133 0.486450 15.503230 -1.544242 1.539414 -0.004791 0.001373 -658202.000000 1 0 0
-14.383631 7.967333 8.449250 18.486673 -0.505845 1.096126 0.012832 -0.008569 124846.000000 1 0 0
-15.734731 -9.757267 5.759250 19.389559 0.555075 1.269217 -0.010350 0.002972 68461.400000 1 0 0
9.191069 -10.323567 11.272350 17.835853 -0.843366 0.886659 0.007438 -0.004494 -62241.000000 1 0 0
-25.689431 6.549633 31.088469 40.857527 -0.249636 0.706098 0.053143 -0.035323 -301679.000000 0 0 1
-24.428531 6.012333 30.779119 39.752427 -0.241323 0.685235 0.049278 -0.031407 62980.200000 0 0 1
-23.986831 5.102233 31.794879 40.153645 -0.209586 0.656996 0.042585 -0.020782 427220.000000 0 0 1
-22.489331 4.663033 31.717559 39.160151 -0.204447 0.626738 0.033390 -0.024724 -102850.000000 0 0 1
-22.196231 3.745233 30.703039 38.070672 -0.167158 0.632631 0.034818 -0.033912 820894.000000 0 0 1
-20.878731 3.175233 30.601389 37.181293 -0.150923 0.604068 0.029074 -0.026180 706359.000000 0 0 1
-20.554231 2.275533 31.842289 37.968222 -0.110260 0.575985 0.023524 -0.017931 -585822.000000 0 0 1
-21.281831 1.084733 31.895039 38.358656 -0.050926 0.589003 0.025858 -0.017983 212306.000000 0 0 1
-20.673531 0.288733 32.883044 38.842925 -0.013965 0.561299 0.015915 -0.011382 61800.000000 0 0 1
-21.109331 -1.215967 32.916027 39.122210 0.057540 0.570994 0.025040 -0.013880 58809.900000 0 0 1
-20.384631 -2.111467 32.036499 38.030629 0.103213 0.569099 0.020851 -0.010361 300345.000000 0 0 1
-20.576131 -3.535967 32.216389 38.389790 0.170186 0.575001 0.031495 -0.014192 -558904.000000 0 0 1
-21.907631 -4.183667 31.773369 38.820025 0.188697 0.612038 0.031230 -0.007061 418725.000000 0 0 1
-23.040731 -3.953567 32.622752 40.134149 0.169935 0.621780 0.025132 -0.000120 841081.000000 0 0 1
-23.156431 -4.757967 33.778185 41.228926 0.202650 0.610636 0.022889 -0.000795 -1133730.000000 0 0 1
-24.519431 -4.597767 -34.203333 42.334501 0.185363 2.511428 0.017740 0.004509 -648843.000000 0 0 1
-24.604331 -5.241167 -32.887800 41.405921 0.209881 2.488614 0.031408 0.007157 893128.000000 0 0 1
-25.895631 -5.022067 -32.295220 41.698754 0.191557 2.456703 0.032661 -0.000944 497829.000000 0 0 1
-26.050471 -5.464067 -30.833760 40.733326 0.206752 2.429455 0.023364 0.009899 -487596.000000 0 0 1
-26.031131 -6.877367 -30.723480 40.851563 0.258296 2.422003 0.016963 0.002372 468852.000000 0 0 1
-25.845311 -7.294367 -29.383060 39.806433 0.275077 2.401118 0.007287 0.009457 -381085.000000 0 0 1
-26.236651 -8.726867 -29.158110 40.183522 0.321110 2.382736 0.004187 0.005569 -1041000.000000 0 0 1
-27.607051 -8.899167 -29.173470 41.139225 0.311834 2.359074 0.022963 0.007010 -1082960.000000 0 0 1
-27.942051 -10.204467 -28.773430 41.385984 0.350152 2.339558 0.019723 0.002695 172487.000000 0 0 1
-29.341731 -10.481467 -28.191310 42.018428 0.343093 2.306255 0.056294 0.002515 105788.000000 0 0 1
-29.302921 -11.391967 -27.092850 41.502537 0.370784 2.282071 0.057326 -0.001963 279630.000000 0 0 1
-30.622231 -11.730167 -26.654350 42.258398 0.365819 2.253312 0.056479 0.001108 355932.000000 0 0 1
-30.694571 -12.434167 -25.242750 41.640865 0.384889 2.222072 0.059929 -0.003954 -133493.000000 0 0 1
-30.277241 -11.666867 -24.150650 40.448498 0.367800 2.210642 0.054277 -0.004734 178409.000000 0 0 1
-30.131811 -12.459367 -22.964750 39.881595 0.392086 2.184407 0.058408 -0.009301 -283787.000000 0 0 1
-29.424621 -11.713067 -21.804450 38.450466 0.378842 2.173751 0.066030 -0.017058 14468.500000 0 0 1
-29.316921 -12.417767 -20.573350 37.907064 0.400659 2.144482 0.064989 -0.017164 109408.000000 0 0 1
-28.240471 -13.326067 -20.557050 37.385834 0.440898 2.152995 0.067220 -0.021383 -347185.000000 0 0 1
-27.837711 -13.654667 -19.069050 36.400780 0.456027 2.122177 0.072400 -0.028805 21326.200000 0 0 1
-27.115121 -12.658167 -18.399150 35.128161 0.436762 2.122069 0.068572 -0.027377 90890.600000 0 0 1
-26.887951 -12.806267 -17.040050 34.312180 0.444494 2.090494 0.068913 -0.026674 -107636.000000 0 0 1
-26.688451 -11.453767 -16.334050 33.320615 0.405394 2.083125 0.066218 -0.027295 -505483.000000 0 0 1
-25.609621 -10.733367 -16.853750 32.482407 0.396875 2.116311 0.056164 -0.030889 -49071.000000 0 0 1
-25.487961 -9.494967 -16.188950 31.652372 0.356601 2.107680 0.063656 -0.028948 -817491.000000 0 0 1
-24.126531 -8.832067 -16.352950 30.455113 0.350921 2.137617 0.063444 -0.028409 -532745.000000 0 0 1
-23.157931 -9.566667 -15.629650 29.531286 0.391753 2.128521 0.038534 -0.035498 397339.000000 0 0 1
-21.920631 -8.856767 -15.642450 28.348591 0.383983 2.155305 0.057079 -0.039243 131559.000000 0 0 1
-20.861531 -9.214667 -14.611050 27.084984 0.415935 2.140583 0.029503 -0.006116 -182568.000000 0 0 1
-20.118931 -10.397567 -14.839850 27.075855 0.477001 2.150868 0.011189 -0.007165 -269529.000000 0 0 1
-19.097031 -10.553667 -13.920850 25.881780 0.504863 2.138696 0.014431 0.002519 -127781.000000 0 0 1
-18.076331 -11.696567 -14.303450 25.848638 0.574309 2.157182 0.017719 -0.003871 779816.000000 0 0 1
-17.233531 -11.418367 -15.441250 25.803215 0.585159 2.212328 0.029783 -0.015746 770407.000000 0 0 1
-18.007331 -11.487467 -16.653650 27.084496 0.567845 2.233027 0.028470 -0.016566 -22324.500000 0 0 1
-17.478931 -10.601667 -17.801450 27.107195 0.545214 2.287239 0.028054 -0.001953 -231120.000000 0 0 1
-18.131831 -10.902467 -18.991550 28.430724 0.541367 2.302306 0.028783 -0.007631 301546.000000 0 0 1
-17.418531 -10.472767 -20.144550 28.616201 0.541333 2.351749 0.025551 -0.007297 -188584.000000 0 0 1
-18.104931 -10.917267 -21.416650 30.093989 0.542622 2.362653 0.040158 -0.006483 -409963.000000 0 0 1
-19.269931 -10.183167 -21.667250 30.732668 0.486147 2.353252 0.037136 -0.024016 -395515.000000 0 0 1
-19.998231 -10.675267 -22.756150 32.120600 0.490329 2.358110 0.040553 -0.016897 -41857.700000 0 0 1
-21.297931 -9.867467 -22.972250 32.843463 0.433864 2.345419 0.035642 -0.020725 -16915.700000 0 0 1
-21.068931 -8.511667 -23.439950 32.646280 0.383942 2.371718 0.037007 -0.030572 584892.000000 0 0 1
-22.064131 -8.132867 -24.388050 33.878406 0.353149 2.374411 0.033138 -0.030328 202529.000000 0 0 1
-21.429231 -7.473367 -25.640970 34.242116 0.335558 2.417067 0.029318 -0.027530 221194.000000 0 0 1
-20.475831 -8.340267 -26.261730 34.329261 0.386803 2.441831 0.035647 -0.029605 568856.000000 0 0 1
-19.921231 -7.674667 -27.413090 34.745265 0.367727 2.479933 0.031482 -0.035129 -645160.000000 0 0 1
-18.743731 -8.393567 -28.018060 34.738899 0.421028 2.509060 0.030874 -0.033588 -926798.000000 0 0 1
-19.050531 -9.528167 -28.752280 35.782710 0.463769 2.503989 0.027179 -0.028978 860217.000000 0 0 1
-17.881531 -10.141067 -29.330740 35.817352 0.515896 2.530284 0.009252 -0.020665 538844.000000 0 0 1
-18.246631 -11.395967 -30.157130 37.044029 0.558277 2.521955 0.005803 -0.015578 -400743.000000 0 0 1
-18.921031 -11.179067 -31.345610 38.282166 0.533648 2.530122 0.006570 -0.007110 224545.000000 0 0 1
-18.712031 -12.241367 -32.307020 39.290390 0.579320 2.536172 -0.008677 -0.010512 -626699.000000 0 0 1
-19.283031 -12.038267 -33.682030 40.635382 0.558091 2.547907 -0.004290 -0.013514 -213630.000000 0 0 1
-18.787931 -10.944467 34.166459 40.498329 0.527472 0.566749 0.000203 -0.011972 12120.400000 0 0 1
-19.123931 -10.995767 32.820523 39.545144 0.521815 0.591777 -0.001694 -0.014943 -253763.000000 0 0 1
-18.586231 -12.199367 31.940549 38.916208 0.580837 0.608070 0.006968 -0.014232 -140756.000000 0 0 1
-17.190231 -12.169267 31.724429 38.079319 0.616020 0.586081 0.005634 -0.015526 129333.000000 0 0 1
-16.817431 -12.819667 30.511189 37.122803 0.651317 0.606060 0.016134 -0.011981 69252.000000 0 0 1
-16.746831 -14.368367 30.499059 37.644375 0.709106 0.626322 0.012936 -0.009607 1371990.000000 0 0 1
-18.103831 -14.942467 30.564399 38.538403 0.690024 0.654932 0.009461 -0.006122 1763420.000000 0 0 1
-18.005631 -16.327567 30.712519 39.166964 0.736561 0.669482 0.012611 -0.006693 -117205.000000 0 0 1
-18.252831 -16.804167 32.139099 40.601325 0.744099 0.657410 0.002934 -0.008202 -361991.000000 0 0 1
-17.237231 -16.377467 33.010301 40.681981 0.759827 0.624213 0.003083 -0.009536 -239404.000000 0 0 1
-17.679731 -16.286567 -34.243449 41.838248 0.744405 2.529543 0.007386 -0.013188 -16160.600000 0 0 1
-16.682031 -15.696467 -33.240860 40.368602 0.754969 2.538232 0.002112 -0.009869 -189880.000000 0 0 1
-16.551031 -14.289567 -33.468920 39.978706 0.712202 2.562882 0.003266 -0.010177 86605.100000 0 0 1
-15.310531 -13.802367 -32.966440 38.880636 0.733640 2.582786 0.005617 -0.010513 232980.000000 0 0 1
-15.283131 -13.448367 -31.510070 37.514226 0.721626 2.567987 0.016410 -0.013637 -443102.000000 0 0 1
-15.450731 -14.596367 -30.691740 37.333121 0.756972 2.535895 0.010628 -0.011346 -44500.100000 0 0 1
-15.748831 -14.359667 -29.325300 36.251882 0.739292 2.513129 0.006064 -0.010665 -289201.000000 0 0 1
-15.762131 -15.714567 -28.547660 36.198913 0.783887 2.479379 0.017429 -0.006567 263162.000000 0 0 1
-14.543031 -16.190667 -28.002240 35.464953 0.838957 2.480912 0.019898 -0.008302 159461.000000 0 0 1
-13.676831 -16.828667 -28.938810 36.162335 0.888353 2.498504 0.012401 -0.010789 164134.000000 0 0 1
-12.271731 -17.058167 -28.319970 35.264673 0.947165 2.503224 0.014049 -0.006416 420037.000000 0 0 1
-11.443131 -15.907167 -28.268380 34.395996 0.947189 2.535449 0.014888 -0.001674 -1064630.000000 0 0 1
-10.114031 -16.187167 -28.057340 33.934235 1.012328 2.544218 0.019433 -0.009097 -852678.000000 0 0 1
-9.194331 -15.004067 -27.876800 32.966251 1.021026 2.578515 0.016670 -0.005380 -335418.000000 0 0 1
-9.481731 -14.197067 -26.761750 31.743522 0.981964 2.573747 0.013246 -0.009705 269524.000000 0 0 1
-8.391731 -13.300767 -26.466410 30.786400 1.007951 2.605437 0.025199 -0.011934 479869.000000 0 0 1
-8.300131 -11.957567 -27.222040 30.869322 0.964019 2.650563 0.021054 -0.017732 -252776.000000 0 0 1
-7.847631 -12.134367 -28.512930 31.965847 0.996725 2.672505 0.036492 -0.014347 74655.100000 0 0 1
-7.863431 -10.909767 -29.279920 32.220650 0.946266 2.711031 0.040280 -0.013909 189605.000000 0 0 1
-6.918331 -10.931667 -30.521460 33.150025 1.006557 2.740685 0.042965 -0.002381 -199855.000000 0 0 1
-5.545731 -11.082167 -30.295010 32.731593 1.106813 2.753305 0.040912 -0.003731 147534.000000 0 0 1
-4.654031 -10.673367 -31.309150 33.404246 1.159611 2.785541 0.052736 -0.004294 165755.000000 0 0 1
-4.426231 -9.166267 -31.568360 33.168861 1.120936 2.829675 0.036463 -0.006129 -1062890.000000 0 0 1
-3.336131 -8.768667 -32.348710 33.681721 1.207247 2.859314 0.043193 -0.007293 -123307.000000 0 0 1
-3.376431 -7.330067 -32.460480 33.448661 1.139140 2.897913 0.037363 -0.007206 -15068.000000 0 0 1
-2.050731 -6.769867 -33.008980 33.758397 1.276662 2.930491 0.043128 -0.012497 -54118.100000 0 0 1
-1.576631 -7.194467 -34.255563 35.038403 1.355062 2.929810 0.054760 -0.016520 -437961.000000 0 0 1
-0.244631 -6.772467 34.208705 34.873510 1.534691 0.195572 0.044876 0.000945 -33794.500000 0 0 1
0.395269 -7.401467 32.979041 33.801703 -1.517443 0.221076 0.044381 0.001275 -281749.000000 0 0 1
0.061269 -6.773267 31.770239 32.484289 -1.561751 0.210059 0.041911 0.002278 431236.000000 0 0 1
0.729769 -7.423967 30.638019 31.533095 -1.472812 0.238833 0.049390 -0.004811 365922.000000 0 0 1
0.177269 -6.918567 29.271269 30.078318 -1.545180 0.232174 0.050084 0.000242 62767.100000 0 0 1
0.501269 -5.610167 28.838239 29.383146 -1.481683 0.192886 0.052803 -0.011295 27571.200000 0 0 1
0.228169 -5.471067 27.426609 27.967902 -1.529116 0.197063 0.056742 -0.004979 578094.000000 0 0 1
-0.963431 -4.497767 27.080879 27.468748 1.359783 0.168248 0.049301 -0.002009 1609730.000000 0 0 1
-2.294331 -4.993567 27.325839 27.872947 1.140106 0.198460 0.038809 0.005109 722036.000000 0 0 1
-3.284931 -4.074867 26.847249 27.352698 0.892320 0.192542 0.023961 -0.000976 1051660.000000 0 0 1
-4.696231 -4.636467 27.274339 28.061379 0.778995 0.237399 0.014251 0.003061 738992.000000 0 0 1
-5.112631 -5.832867 26.586059 27.694402 0.851105 0.283867 0.016115 0.006077 90212.600000 0 0 1
-6.401631 -6.262467 27.001129 28.447502 0.774410 0.320251 0.013757 0.003256 670562.000000 0 0 1
-6.627931 -7.788067 26.756699 28.644448 0.865701 0.365074 0.020294 0.000127 549398.000000 0 0 1
-5.804131 -8.557367 27.646369 29.516744 0.974810 0.357903 0.020628 -0.003137 447521.000000 0 0 1
-6.260531 -9.924267 27.729939 30.110378 1.008015 0.400303 0.031429 -0.005554 110500.000000 0 0 1
-5.409831 -10.631667 28.782859 31.156887 1.100101 0.392896 0.027384 -0.006694 -120088.000000 0 0 1
-5.483331 -12.042467 28.764849 31.662351 1.143516 0.431146 0.043511 -0.012987 -31341.300000 0 0 1
-5.016531 -12.544467 29.982889 32.886211 1.190376 0.423354 0.051982 -0.014789 -434548.000000 0 0 1
-4.946131 -14.069867 29.914309 33.425907 1.232750 0.462491 0.057816 -0.027295 669108.000000 0 0 1
-6.264531 -14.627567 29.822139 33.801924 1.166160 0.490151 0.064609 -0.025891 471001.000000 0 0 1
-6.176631 -16.047967 29.788599 34.395474 1.203387 0.523526 0.061268 -0.026817 248809.000000 0 0 1
-6.234431 -16.635367 31.255889 35.951831 1.212228 0.516845 0.070030 -0.024871 -151099.000000 0 0 1
-7.560031 -16.600167 31.703439 36.576327 1.143445 0.522098 0.065388 -0.025540 -569693.000000 0 0 1
-7.724231 -16.796867 33.095263 37.909035 1.139772 0.509440 0.069817 -0.022019 276029.000000 0 0 1
-9.164131 -17.081467 33.634194 38.820314 1.078380 0.522835 0.073858 -0.015958 881222.000000 0 0 1
-9.857831 -18.283367 33.262029 39.215060 1.076306 0.558228 0.075889 -0.017446 429312.000000 0 0 1
-10.415231 -18.223367 31.932279 38.213068 1.051573 0.581504 0.061995 -0.019072 -537726.000000 0 0 1
-11.026431 -19.629667 31.651039 38.841914 1.058997 0.618295 0.058628 -0.015815 56630.500000 0 0 1
-11.999731 -19.966367 32.647080 40.105875 1.029644 0.619752 0.066364 -0.015820 106917.000000 0 0 1
-12.362631 -21.263167 32.464849 40.729883 1.044158 0.648357 0.061916 -0.017854 -362058.000000 0 0 1
-11.806831 -22.126867 33.634494 41.955675 1.080634 0.640717 0.076486 -0.016546 -26488.200000 0 0 1
-10.411831 -22.243267 33.405886 41.462301 1.133002 0.633952 0.061291 -0.018760 -80728.100000 0 0 1
-9.700831 -22.938967 -34.201794 42.309160 1.170708 2.512188 0.058806 -0.027306 165944.000000 0 0 1
-9.838931 -24.447067 -33.985490 43.005548 1.188172 2.482027 0.071518 -0.013241 -221717.000000 0 0 1
-9.471731 -25.283767 33.558412 43.071447 1.212361 0.677514 0.070604 -0.015353 -27468.100000 0 0 1
-9.634831 -26.601587 34.015771 44.244176 1.223303 0.693804 0.068528 -0.019496 -542587.000000 0 0 1
-9.138131 -27.532637 32.850924 43.826188 1.250335 0.723380 0.070018 -0.016384 513259.000000 0 0 1
-7.757731 -27.451647 32.516279 43.256025 1.295382 0.720135 0.066124 -0.018484 317352.000000 0 0 1
-6.933431 -28.188357 33.426277 44.271570 1.329616 0.715099 0.048292 -0.016289 -155622.000000 0 0 1
-5.472731 -27.682947 33.333444 43.673961 1.375620 0.702493 0.038652 -0.020217 110351.000000 0 0 1
-5.206731 -26.475617 34.101598 43.485484 1.376613 0.669380 0.038635 -0.015456 -63243.100000 0 0 1
-4.640231 -25.557897 33.215267 42.166240 1.391195 0.663694 0.073544 -0.017573 -123303.000000 0 0 1
-4.241731 -24.221467 33.882143 41.864918 1.397432 0.627802 0.065464 -0.018394 1161090.000000 0 0 1
-2.973631 -24.185367 -34.029450 41.854246 1.448459 2.520162 0.048080 -0.024366 927346.000000 0 0 1
-2.725431 -22.946567 -33.408480 40.621416 1.452577 2.536475 0.045947 -0.021525 -312018.000000 0 0 1
33.897780 -16.080367 2.507150 37.602174 -0.442941 1.504071 0.097433 -0.039094 -43860.400000 0 0 1
34.937870 -16.694567 3.194450 38.853157 -0.445760 1.488485 0.087194 -0.032906 184396.000000 0 0 1
34.350270 -17.053467 4.405050 38.602671 -0.460810 1.456435 0.095636 -0.041707 1159930.000000 0 0 1
35.451630 -16.936767 5.552250 39.679965 -0.445684 1.430410 0.080148 -0.024762 937785.000000 0 0 1
-35.229649 -17.846767 5.453450 39.866971 0.468901 1.433575 0.080665 -0.029914 236181.000000 0 0 1
-34.323779 -17.643667 6.544650 39.144006 0.474813 1.402813 0.075447 -0.021008 953825.000000 0 0 1
-33.042391 -18.544067 6.507650 38.445176 0.511417 1.400706 0.046924 -0.024657 415717.000000 0 0 1
-33.437041 -19.900067 6.717750 39.486410 0.536846 1.399837 0.062687 -0.030152 893611.000000 0 0 1
-32.273531 -20.729667 6.877250 38.969173 0.570951 1.393388 0.042279 -0.016351 296743.000000 0 0 1
-32.542121 -22.226167 7.096850 40.041946 0.599223 1.392620 0.024468 -0.010458 -506898.000000 0 0 1
-32.789731 -22.906967 5.909650 40.432902 0.609787 1.424111 0.031367 -0.007184 348785.000000 0 0 1
-33.138361 -24.258267 6.191750 41.532545 0.631901 1.421157 0.036675 -0.015689 -124520.000000 0 0 1
-32.596471 -25.210587 5.111050 41.523806 0.658319 1.447396 0.032601 -0.004324 -348285.000000 0 0 1
-33.096491 -24.968567 3.846850 41.636586 0.646322 1.478273 0.030744 -0.000333 -177117.000000 0 0 1
-32.644291 -25.901497 2.930350 41.774684 0.670732 1.500592 0.025865 0.003986 -635786.000000 0 0 1
-33.058681 -25.585017 1.513550 41.830137 0.658640 1.534605 0.023567 0.004538 -631869.000000 0 0 1
-34.265138 -26.216277 1.165450 43.159601 0.653096 1.543790 0.022769 0.005787 -174596.000000 0 0 1
-34.749540 -25.696357 -0.088650 43.218528 0.636730 1.572848 0.016848 0.008141 395476.000000 0 0 1
-35.678924 -24.415967 0.025650 43.233387 0.600128 1.570203 0.032563 -0.000677 -341841.000000 0 0 1
34.717110 -24.625667 0.278950 42.564997 -0.616956 1.564243 0.016552 0.006115 -493482.000000 0 0 1
33.995470 -23.460467 0.581150 41.308875 -0.604055 1.556727 0.036722 -0.002790 505987.000000 0 0 1
32.467890 -23.541767 0.326350 40.105924 -0.627360 1.562659 0.012380 -0.000557 335473.000000 0 0 1
32.142100 -23.646067 -1.029450 39.916298 -0.634268 1.596589 0.016989 -0.012187 -270557.000000 0 0 1
30.757810 -23.508667 -1.241750 38.732960 -0.652600 1.602861 0.028208 -0.007800 -81350.000000 0 0 1
30.357950 -23.424867 -2.671150 38.437801 -0.657196 1.640345 0.025116 -0.001660 -477793.000000 0 0 1
30.755260 -22.211267 -3.214250 38.073058 -0.625467 1.655320 0.032685 -0.009041 7278.160000 0 0 1
30.351370 -21.936467 -4.558550 37.725251 -0.625832 1.691928 0.024957 -0.028175 -38931.500000 0 0 1
30.469990 -20.427367 -4.940350 37.014925 -0.590589 1.704665 0.040629 -0.025311 401266.000000 0 0 1
29.556780 -19.678267 -4.142750 35.749123 -0.587387 1.686941 0.049981 -0.022124 168498.000000 0 0 1
29.556050 -18.285067 -4.396850 35.031929 -0.554025 1.696638 0.055406 -0.021178 -121129.000000 0 0 1
28.648220 -17.566567 -3.397250 33.776413 -0.550056 1.671547 0.064526 -0.012205 -302293.000000 0 0 1
29.094170 -17.434667 -2.075950 33.981581 -0.539867 1.631925 0.066948 -0.006788 -266409.000000 0 0 1
29.639910 -18.505467 -1.363050 34.969050 -0.558127 1.609785 0.062828 -0.001377 62181.300000 0 0 1
28.653970 -19.670667 -0.990950 34.770204 -0.601601 1.599300 0.047231 0.002734 471228.000000 0 0 1
27.673090 -19.423667 0.003350 33.809447 -0.611998 1.570697 0.045244 0.019357 128832.000000 0 0 1
26.853160 -20.543667 0.241150 33.811131 -0.653056 1.563664 0.032899 0.016593 -534437.000000 0 0 1
25.727460 -20.205267 1.211950 32.735666 -0.665749 1.533766 0.028611 0.017986 -649243.000000 0 0 1
24.919860 -21.381967 1.428150 32.866815 -0.709137 1.527330 0.021390 0.020352 167900.000000 0 0 1
24.107760 -21.253167 2.584450 32.242217 -0.722550 1.490553 0.006434 0.024223 707176.000000 0 0 1
22.689460 -20.607367 2.392850 30.744119 -0.737346 1.492886 -0.004550 0.020320 -444497.000000 0 0 1
22.551660 -19.230067 2.036850 29.707265 -0.706066 1.502178 0.028820 0.002710 79670.100000 0 0 1
22.917760 -18.243267 2.978250 29.443343 -0.672317 1.469471 0.040380 0.005268 -276547.000000 0 0 1
22.871660 -16.803667 2.357250 28.478635 -0.633633 1.487929 0.038561 0.009432 131220.000000 0 0 1
21.554360 -16.353767 2.103750 27.137831 -0.649060 1.493198 0.031872 0.010899 -54525.700000 0 0 1
21.561360 -15.036767 1.635050 26.337615 -0.608975 1.508676 0.048012 -0.001762 -689796.000000 0 0 1
20.241760 -14.723067 0.966150 25.048572 -0.628854 1.532216 0.033308 0.001879 -195384.000000 0 0 1
19.137160 -14.759267 1.882750 24.240701 -0.656954 1.493049 0.028377 0.002704 138186.000000 0 1 0
18.317860 -13.615167 1.901950 22.902711 -0.639182 1.487656 0.046004 -0.006614 -454578.000000 0 1 0
18.815660 -12.251867 2.336250 22.574219 -0.577185 1.467119 0.055665 -0.002927 -668880.000000 0 1 0
19.687760 -11.633667 1.400650 22.910956 -0.533708 1.509624 0.054310 -0.003949 316030.000000 0 1 0
20.207660 -10.438667 1.900650 22.823842 -0.476815 1.487425 0.062997 -0.013561 -118166.000000 0 1 0
21.067060 -9.743667 0.811150 23.225374 -0.433206 1.535864 0.073026 -0.010777 204546.000000 0 1 0
20.307960 -9.383467 -0.349550 22.373754 -0.432836 1.586420 0.060539 -0.004680 874828.000000 0 1 0
21.223760 -9.035467 -1.375150 23.107978 -0.402484 1.630341 0.059597 0.001341 125858.000000 0 1 0
20.559760 -8.481867 -2.710050 22.405137 -0.391276 1.692050 0.070776 0.001660 181491.000000 0 1 0
21.429860 -7.806867 -3.612750 23.091947 -0.349356 1.727892 0.065358 -0.000269 444021.000000 0 1 0
22.364160 -8.530367 -4.409450 24.338571 -0.364396 1.752974 0.059917 -0.002123 -451949.000000 0 1 0
21.861560 -9.626767 -5.389650 24.487767 -0.414801 1.792709 0.049695 -0.006356 -574663.000000 0 1 0
21.224160 -9.163667 -6.551650 24.028355 -0.407579 1.846956 0.043234 -0.014157 801919.000000 0 1 0
19.810660 -9.030067 -6.325950 22.672053 -0.427682 1.853569 0.034990 0.001160 585442.000000 0 1 0
18.946960 -9.092967 -7.639550 22.361396 -0.447452 1.919458 0.020661 0.003869 -112315.000000 0 1 0
18.774160 -10.358067 -8.361750 23.014723 -0.504162 1.942627 0.016916 0.004532 1512430.000000 0 1 0
19.969360 -10.674267 -9.124950 24.412702 -0.490890 1.953876 0.015473 0.003772 827654.000000 0 1 0
19.949160 -12.163367 -9.549350 25.240970 -0.547535 1.958785 0.016765 -0.007455 -308511.000000 0 0 1
18.939660 -12.397567 -10.495750 24.951375 -0.579590 2.004956 0.033747 -0.006877 48572.700000 0 1 0
18.986160 -13.705267 -11.048250 25.891551 -0.625244 2.011651 0.046072 -0.006312 -5003.790000 0 0 1
17.813560 -14.102167 -11.991350 25.690202 -0.669631 2.056428 0.046391 -0.008756 222486.000000 0 0 1
17.784560 -15.486067 -12.308750 26.601018 -0.716423 2.051854 0.043332 -0.014497 -74571.400000 0 0 1
16.758260 -15.696967 -13.234850 26.502741 -0.752710 2.093675 0.055268 -0.018848 -454666.000000 0 0 1
16.654760 -17.118567 -13.726350 27.547033 -0.799130 2.092419 0.053749 -0.021172 -696955.000000 0 0 1
15.987160 -18.032067 -12.935450 27.350879 -0.845436 2.063426 0.035894 -0.018977 8631.070000 0 0 1
16.044560 -19.307867 -13.425050 28.468467 -0.877445 2.061874 0.039695 -0.021415 -397898.000000 0 0 1
15.134760 -20.224167 -12.544050 28.203387 -0.928352 2.031715 0.033119 -0.016663 569446.000000 0 0 1
13.793060 -19.768867 -12.763450 27.275671 -0.961605 2.057758 0.036169 -0.017976 -362597.000000 0 0 1
13.012060 -20.150667 -11.692150 26.684629 -0.997423 2.024348 0.024489 -0.002873 -192341.000000 0 0 1
11.552160 -20.386967 -12.136550 26.388950 -1.055264 2.048691 0.019739 -0.007998 77542.500000 0 0 1
10.686060 -20.858467 -11.125350 25.943032 -1.097347 2.014002 0.015454 -0.005774 -300114.000000 0 0 1
9.379660 -20.944367 -11.629350 25.727151 -1.149743 2.039832 0.011895 -0.001426 -283248.000000 0 0 1
8.320360 -21.473767 -10.666350 25.379560 -1.201141 2.004543 0.006866 0.001938 -249069.000000 0 0 1
8.413260 -22.872167 -10.385750 26.491183 -1.218319 1.973650 0.024479 0.001185 -26950.300000 0 0 1
7.394660 -23.313167 -9.516550 26.244037 -1.263646 1.941871 0.024430 -0.008825 192702.000000 0 0 1
7.422560 -24.861767 -9.511850 27.634709 -1.280667 1.922182 0.025644 -0.001020 250412.000000 0 0 1
8.675460 -25.286237 -8.997050 28.206458 -1.240290 1.895440 0.013866 0.007640 -141808.000000 0 0 1
9.009160 -26.574517 -9.490350 29.621557 -1.243941 1.896934 0.005132 0.008693 -102058.000000 0 0 1
10.487960 -26.812277 -9.161050 30.212917 -1.197932 1.878862 -0.001157 0.008786 -161967.000000 0 0 1
10.766860 -27.080437 -7.790150 30.165573 -1.192371 1.832003 0.013552 0.001950 -826754.000000 0 0 1
12.126660 -27.361137 -7.694350 30.901306 -1.153605 1.822441 0.012472 0.001114 -748144.000000 0 0 1
12.503660 -27.977827 -6.328750 31.291427 -1.150512 1.774453 0.011223 0.001661 12182.000000 0 0 1
12.018660 -29.267857 -5.996050 32.202612 -1.181148 1.758087 0.027103 -0.000787 303522.000000 0 0 1
10.608060 -29.450957 -5.855050 31.846058 -1.225069 1.755703 0.036909 0.002090 262080.000000 0 0 1
10.272860 -30.536967 -4.791150 32.572889 -1.246282 1.718422 0.049636 -0.003736 50520.700000 0 0 1
10.610560 -31.868537 -5.187650 33.986752 -1.249393 1.724033 0.058193 -0.015447 666389.000000 0 0 1
9.600060 -32.540287 -6.033550 34.459181 -1.283914 1.746796 0.064678 -0.017929 1083980.000000 0 0 1
9.754860 -34.084209 -6.050750 35.965291 -1.292049 1.739839 0.058301 -0.019303 -56066.500000 0 0 1
9.359160 33.975685 -4.903350 35.580667 1.301997 1.709046 0.058707 -0.026473 -97066.000000 0 0 1
9.712360 32.617439 -5.053850 34.405939 1.281390 1.718219 0.057989 -0.016915 109482.000000 0 0 1
9.056760 31.726119 -3.959850 33.230286 1.292725 1.690244 0.066728 -0.020882 34516.200000 0 0 1
7.710260 31.445309 -4.251750 32.654754 1.330344 1.701370 0.064834 -0.021214 -659326.000000 0 0 1
7.237960 30.581509 -3.175050 31.586353 1.338395 1.671486 0.047055 -0.016876 -618402.000000 0 0 1
5.777560 30.167209 -3.283650 30.890501 1.381570 1.677297 0.040740 -0.020600 -474359.000000 0 0 1
5.481760 29.386929 -4.438650 30.221563 1.386379 1.718200 0.048169 -0.017297 3612.300000 0 0 1
5.169360 30.232929 -5.536150 31.167310 1.401450 1.749371 0.043495 -0.018334 -565399.000000 0 0 1
5.297760 29.580299 -6.924650 30.838468 1.393578 1.797273 0.035696 -0.021781 461268.000000 0 0 1
4.412460 28.454549 -7.118750 29.661554 1.416951 1.813161 0.022919 -0.017014 563668.000000 0 0 1
4.990360 27.224189 -6.665750 28.469148 1.389503 1.807130 0.024725 -0.018712 33229.100000 0 0 1
4.186360 26.003019 -7.199350 27.304088 1.411171 1.837624 0.023203 -0.013655 684833.000000 0 0 1
2.846660 25.900479 -6.677650 26.898500 1.461328 1.821673 0.017292 -0.014070 258746.000000 0 0 1
1.887260 26.360989 -7.585150 27.495418 1.499325 1.850291 0.021134 -0.014543 -324448.000000 0 0 1
1.440560 25.538979 -8.803550 27.052119 1.514450 1.902262 0.033359 -0.018522 -1083450.000000 0 0 1
2.385160 25.428389 -9.808950 27.358864 1.477271 1.937488 0.030846 -0.021550 -467413.000000 0 0 1
1.995460 24.753539 -11.030450 27.173340 1.490357 1.988792 0.058369 -0.018932 -328957.000000 0 0 1
1.873860 23.194079 -10.972350 25.726817 1.490181 2.011410 0.068206 -0.016076 328248.000000 0 0 1
0.664760 22.853579 -10.300550 25.076469 1.541717 1.994090 0.060499 -0.011450 21210.800000 0 0 1
0.663560 21.519279 -9.879650 23.688123 1.539971 2.001018 0.040259 -0.014667 -292191.000000 0 1 0
-0.672140 20.980479 -9.356950 22.982271 -1.538771 1.990114 0.041250 -0.006141 -762847.000000 0 1 0
-1.754240 21.044579 -10.223750 23.462241 -1.487630 2.021671 0.055936 -0.009795 -617840.000000 0 1 0
-2.789240 20.427879 -9.455850 22.682399 -1.435095 2.000807 0.046683 -0.002464 -171718.000000 0 1 0
-4.008540 19.970579 -10.254850 22.804701 -1.372706 2.037205 0.044495 -0.013678 -996486.000000 0 1 0
-5.003540 19.434179 -9.485550 22.196810 -1.318808 2.012343 0.036900 -0.017537 -1182480.000000 0 1 0
-6.056640 19.068479 -10.306750 22.505974 -1.263249 2.046491 0.036929 -0.016814 -1271170.000000 0 1 0
-6.998840 18.038779 -9.698950 21.643728 -1.200687 2.035456 0.048593 -0.015633 -301667.000000 0 1 0
-7.947240 18.563079 -8.791050 22.023376 -1.166285 1.981407 0.057250 -0.015443 275401.000000 0 1 0
-9.213940 18.762179 -9.444350 22.937127 -1.114301 1.995169 0.063020 -0.018517 231415.000000 0 1 0
-10.242640 19.039579 -8.329250 23.168808 -1.077239 1.938531 0.081341 -0.021796 -49078.400000 0 1 0
-10.349540 17.950279 -7.421950 22.009335 -1.047785 1.914757 0.062756 -0.022437 -113649.000000 0 1 0
-11.488640 18.164079 -6.607450 22.485129 -1.006827 1.869058 0.056178 -0.018139 -82001.200000 0 1 0
-11.947640 16.996679 -5.702050 21.544061 -0.958100 1.838657 0.050201 -0.025596 -764799.000000 0 1 0
-12.887640 17.433479 -4.812150 22.207527 -0.934213 1.789219 0.050732 -0.010000 -716705.000000 0 1 0
-13.329640 16.371279 -4.009750 21.488978 -0.887451 1.758492 0.059670 -0.014837 258488.000000 0 1 0
-14.630040 16.767379 -3.262850 22.490649 -0.853367 1.716386 0.059959 -0.011142 479400.000000 0 1 0
-15.854540 16.750979 -3.979050 23.405012 -0.812885 1.741635 0.079353 -0.019728 514424.000000 0 1 0
-16.925540 17.270379 -3.227950 24.395893 -0.795482 1.703501 0.071329 -0.012529 241831.000000 0 1 0
-18.208840 17.522979 -4.075750 25.597430 -0.766206 1.730702 0.067565 -0.017348 71021.300000 0 0 1
-18.083440 18.485479 -5.035650 26.345427 -0.796392 1.763119 0.069075 -0.013915 -261849.000000 0 0 1
-19.267840 18.831779 -5.699150 27.538444 -0.773953 1.779255 0.050380 -0.020056 -67152.500000 0 0 1
-18.931340 19.707079 -6.962050 28.199907 -0.805472 1.820258 0.040506 -0.015096 75381.900000 0 0 1
-18.621040 21.029879 -6.548750 28.842418 -0.846075 1.799847 0.040448 -0.015240 91051.000000 0 0 1
-18.123340 21.909879 -7.523050 29.412490 -0.879703 1.829448 0.026281 0.004405 -246379.000000 0 0 1
-17.908040 23.370479 -6.986050 30.260240 -0.916965 1.803764 0.031204 0.003561 -152994.000000 0 0 1
-16.654140 23.555579 -6.353850 29.539755 -0.955378 1.787585 0.027937 0.005692 66612.800000 0 0 1
-16.646240 24.557969 -5.387050 30.153134 -0.975102 1.750417 0.035929 -0.004815 -322109.000000 0 0 1
-15.275340 24.815109 -4.756350 29.525388 -1.019010 1.732595 0.015425 -0.001258 -493924.000000 0 0 1
-15.373440 25.748209 -3.671550 30.212468 -1.032535 1.692622 0.028623 -0.004517 11235.900000 0 0 1
-14.257840 26.569379 -3.371150 30.341104 -1.078278 1.682135 0.020999 -0.002648 -542679.000000 0 0 1
-13.916240 27.706899 -4.351650 31.309278 -1.105337 1.710237 0.028808 -0.001328 -363445.000000 0 0 1
-14.746340 28.840829 -4.275650 32.673065 -1.098149 1.702034 0.051943 -0.008631 -288376.000000 0 0 1
-14.469040 29.858399 -5.192650 33.583340 -1.119554 1.726039 0.037469 -0.006787 -218396.000000 0 0 1
-15.262840 31.131959 -4.811850 35.004386 -1.114969 1.708697 0.047394 -0.015954 347314.000000 0 0 1
-16.668540 31.019549 -4.898950 35.553514 -1.077712 1.709027 0.056203 -0.006241 -96702.200000 0 0 1
-17.312140 32.250619 -4.688450 36.902496 -1.078144 1.698190 0.067928 -0.012912 -217487.000000 0 0 1
12.310769 -8.762867 18.891749 24.191756 -0.618605 0.674664 0.022749 -0.005794 170159.000000 0 1 0
13.084369 -9.849667 19.461749 25.435729 -0.645279 0.699546 0.028576 -0.007544 220878.000000 0 0 1
13.483669 -10.683167 18.422249 25.205528 -0.670031 0.751184 0.036476 -0.012056 -297068.000000 0 0 1
13.888969 -12.112067 18.875149 26.379478 -0.717165 0.773422 0.058811 -0.019481 485653.000000 0 0 1
15.249469 -12.166067 19.343949 27.472675 -0.673400 0.789619 0.049391 -0.014118 948529.000000 0 0 1
15.484269 -13.428567 19.999849 28.637091 -0.714418 0.797651 0.038985 -0.008468 -59456.400000 0 0 1
15.979169 -14.545167 19.065449 28.816438 -0.738454 0.847823 0.032685 -0.014801 -308961.000000 0 0 1
15.016669 -14.792467 18.046449 27.748725 -0.777877 0.862748 0.045316 -0.019356 494047.000000 0 0 1
15.334669 -16.003767 17.331149 28.136122 -0.806746 0.907173 0.048779 -0.015535 -349640.000000 0 0 1
14.497269 -16.170067 16.037749 26.997246 -0.839891 0.934711 0.042784 -0.020455 919193.000000 0 0 1
13.094069 -16.203767 16.429849 26.532181 -0.891143 0.903019 0.058178 -0.027048 888688.000000 0 0 1
12.260369 -16.175467 15.308049 25.422406 -0.922220 0.924608 0.062760 -0.032741 -155497.000000 0 0 1
11.858769 -17.621667 14.779849 25.876582 -0.978446 0.962869 0.047542 -0.020687 -271725.000000 0 0 1
12.917269 -18.311767 14.155049 26.505510 -0.956450 1.007422 0.042005 -0.019513 125747.000000 0 0 1
12.423469 -19.289567 13.272149 26.506224 -0.998614 1.046368 0.040717 -0.015072 -76665.200000 0 0 1
13.534469 -20.297267 12.834649 27.566086 -0.982693 1.086489 0.046694 -0.019535 315257.000000 0 0 1
14.114969 -21.049867 13.883949 28.897981 -0.980111 1.069632 0.030016 -0.017615 -19538.900000 0 0 1
14.835669 -22.165567 13.367449 29.834512 -0.980965 1.106210 0.038789 -0.015941 -66128.600000 0 0 1
15.642569 -22.969467 14.360449 31.281127 -0.972925 1.093840 0.031524 -0.019054 716725.000000 0 0 1
17.013269 -22.641067 14.646449 31.883973 -0.926378 1.093514 0.010849 -0.013756 691768.000000 0 0 1
17.444769 -23.371267 15.748149 33.144235 -0.929591 1.075673 0.016845 -0.016755 -206646.000000 0 0 1
18.822269 -22.907567 16.264849 33.816856 -0.882986 1.069037 0.014951 -0.003592 624384.000000 0 0 1
19.877369 -23.591267 15.544449 34.543995 -0.870630 1.104042 0.014416 -0.020076 209554.000000 0 0 1
21.150469 -23.181167 15.982749 35.215864 -0.831173 1.099714 0.022867 -0.012789 -131690.000000 0 0 1
22.318769 -23.874967 15.277449 36.076889 -0.819074 1.133525 0.017812 -0.024341 -208514.000000 0 0 1
22.681369 -25.129867 15.822649 37.367244 -0.836565 1.133561 0.020173 -0.018955 -133296.000000 0 0 1
23.789469 -25.644637 15.121149 38.108206 -0.822909 1.162774 0.026611 -0.024188 -452959.000000 0 0 1
24.437369 -26.716387 15.978349 39.575977 -0.829921 1.155197 0.040001 -0.020660 -105540.000000 0 0 1
25.240369 -26.225627 17.057749 40.197345 -0.804540 1.132552 0.040161 -0.009794 425149.000000 0 0 1
25.727069 -27.275157 17.954149 41.571237 -0.814598 1.124210 0.043740 -0.004335 218495.000000 0 0 1
25.944569 -26.849407 19.441349 42.094862 -0.802536 1.090721 0.042338 -0.006993 -1439770.000000 0 0 1
24.751869 -26.578507 20.031649 41.476970 -0.820969 1.066766 0.050042 0.003426 -1202920.000000 0 0 1
24.888369 -26.194747 21.371749 41.980321 -0.810966 1.036669 0.048345 0.008084 -595490.000000 0 0 1
23.502269 -26.113377 21.973349 41.437823 -0.837976 1.011874 0.060147 -0.004891 -491975.000000 0 0 1
22.926569 -27.393817 22.076349 41.993023 -0.873942 1.017241 0.050145 -0.001735 -162729.000000 0 0 1
21.694269 -27.474207 22.758649 41.754395 -0.902415 0.994336 0.053662 -0.001586 153859.000000 0 0 1
21.302069 -29.008497 22.779149 42.592965 -0.937394 1.006513 0.054408 0.007020 -369249.000000 0 0 1
22.140269 -29.712527 23.644559 43.955556 -0.930407 1.002829 0.053649 -0.002063 154005.000000 0 0 1
22.185969 -31.091627 23.414649 44.801253 -0.951023 1.020859 0.051897 -0.006731 -430880.000000 0 0 1
23.296669 -31.766517 24.210849 46.238638 -0.938022 1.019718 0.030176 -0.000535 -36949.500000 0 0 1
22.906369 -31.884247 25.556989 46.845135 -0.947813 0.993735 0.026792 -0.000963 408080.000000 0 0 1
24.048969 -32.252897 26.301579 48.066364 -0.930093 0.991789 0.019042 0.005898 -61246.900000 0 0 1
23.646769 -32.759457 27.756029 49.017842 -0.945569 0.968855 0.010646 -0.003153 97651.900000 0 0 1
23.130069 -34.066538 27.790699 49.677480 -0.974326 0.977107 0.007529 -0.001111 1151020.000000 0 0 1
21.703769 -34.088586 27.550969 48.909520 -1.003837 0.972416 0.016152 -0.006987 714597.000000 0 0 1
21.057169 33.350151 28.064189 48.406979 1.007610 0.952368 0.026864 -0.023735 -357016.000000 0 0 1
20.674169 33.372691 29.422379 49.059496 1.016166 0.927635 0.014316 -0.017283 49033.400000 0 0 1
20.031869 32.161769 29.691809 48.137913 1.013747 0.906116 0.018089 -0.020383 -527730.000000 0 0 1
19.729169 32.150469 31.168549 48.932313 1.020400 0.880231 0.008450 -0.015758 1615030.000000 0 0 1
20.976269 32.193989 31.983239 49.993843 0.993326 0.876632 -0.008768 -0.005046 1795840.000000 0 0 1
20.736269 32.741749 33.247716 51.062957 1.006231 0.861747 -0.017195 -0.003771 -725001.000000 0 0 1
21.935669 32.744240 34.170791 52.163223 0.980552 0.856515 -0.031541 0.008482 -584226.000000 0 0 1
22.396769 31.465679 -34.082984 51.510717 0.952205 2.293837 -0.023200 0.000257 479106.000000 0 0 1
23.620469 31.631019 -33.356150 51.682499 0.929378 2.272350 -0.025283 0.008528 555425.000000 0 0 1
24.256669 30.303839 -32.833160 50.840191 0.895782 2.272881 -0.008737 0.000539 -275982.000000 0 0 1
24.626569 29.415899 -33.836070 51.153129 0.873789 2.293569 0.006814 -0.009958 202302.000000 0 0 1
23.559069 28.506739 -34.057230 50.274833 0.880141 2.315047 0.003182 -0.015946 -4163.690000 0 0 1
23.732169 27.789879 33.194466 49.369685 0.863993 0.833397 0.046563 -0.024272 161192.000000 0 0 1
24.945869 27.054979 33.106267 49.500436 0.825935 0.838193 0.038469 -0.018619 600724.000000 0 0 1
24.930469 26.235899 32.006039 48.313944 0.810906 0.846699 0.047590 -0.035427 -968767.000000 0 0 1
26.238269 25.517379 31.782539 48.473840 0.771470 0.855735 0.030007 -0.025347 -807075.000000 0 0 1
26.442669 24.529179 32.733899 48.707325 0.747876 0.833819 0.042555 -0.024319 280869.000000 0 0 1
27.623169 24.706459 33.487580 49.948640 0.729719 0.835994 0.041789 -0.028989 -962588.000000 0 0 1
27.648769 23.740179 -33.928760 49.791679 0.709485 2.320490 0.041062 -0.032642 -390063.000000 0 0 1
26.772869 24.058029 -32.878090 48.749811 0.732040 2.310982 0.038430 -0.020921 1226890.000000 0 0 1
25.343969 24.071609 -33.061330 48.112479 0.759656 2.328379 0.028414 -0.016066 652507.000000 0 0 1
24.692169 22.670279 -33.217580 47.191656 0.742734 2.351651 0.019781 -0.017700 -837967.000000 0 0 1
24.642269 22.005179 -32.009350 46.000737 0.728926 2.340391 0.003029 -0.028691 391989.000000 0 0 1
24.381969 20.606579 -32.202100 45.344093 0.701675 2.360539 0.005324 -0.017792 -232329.000000 0 0 1
24.457969 19.747679 -30.936500 44.104763 0.679245 2.348201 0.003357 -0.017614 -360133.000000 0 0 1
23.337669 19.901279 -30.104060 42.976297 0.706090 2.346867 -0.009816 -0.015965 75913.900000 0 0 1
23.429969 19.075279 -28.992240 41.873377 0.683304 2.335577 -0.007525 -0.014866 -906069.000000 0 0 1
22.130469 19.076879 -28.187950 40.598590 0.711430 2.338255 0.007858 -0.021868 -361444.000000 0 0 1
22.145869 18.307679 -26.976310 39.412332 0.690802 2.324664 0.016145 -0.013702 -42236.100000 0 0 1
22.702269 19.012479 -25.919660 39.353477 0.697175 2.289802 0.007504 -0.003005 -454326.000000 0 0 1
22.574669 18.220879 -24.594050 38.032662 0.679078 2.273989 0.025153 -0.000003 265328.000000 0 0 1
23.460769 17.079979 -24.502750 37.980497 0.629287 2.272003 0.010006 -0.009701 743011.000000 0 0 1
23.411169 16.509379 -23.234650 36.884840 0.614202 2.252252 0.008338 0.000195 -955010.000000 0 0 1
24.263969 15.279779 -23.267550 36.926829 0.561994 2.252477 0.033636 -0.009307 -387088.000000 0 0 1
25.648569 15.618679 -23.289050 38.002264 0.546974 2.230437 0.064046 -0.018134 817384.000000 0 0 1
26.595269 14.528279 -23.280350 38.214577 0.499977 2.225849 0.060839 -0.025438 472635.000000 0 0 1
26.671869 13.547179 -22.130450 37.211174 0.469964 2.207721 0.049392 -0.015708 -511400.000000 0 0 1
25.472569 12.811279 -21.969350 35.994902 0.466000 2.227294 0.033290 -0.008123 18323.800000 0 0 1
25.264069 12.372279 -20.679950 34.914278 0.455389 2.204715 0.032378 -0.016544 -958330.000000 0 0 1
23.863069 11.788779 -20.559750 33.632197 0.458850 2.228513 0.033179 -0.013654 20442.800000 0 0 1
22.907569 12.865279 -20.438450 33.286669 0.511718 2.231931 0.049969 -0.016533 -465207.000000 0 0 1
21.631869 12.471379 -20.820650 32.511114 0.522982 2.265837 0.043743 -0.017667 -353318.000000 0 0 1
20.613269 13.641079 -20.813950 32.314183 0.584599 2.270658 0.036806 -0.018014 -575865.000000 0 0 1
20.946469 14.681779 -21.729950 33.563372 0.611343 2.275004 0.027225 -0.009125 765852.000000 0 0 1
20.065269 15.847679 -21.778450 33.586676 0.668494 2.276310 0.021695 -0.007631 284047.000000 0 0 1
18.701569 15.733779 -22.476350 33.203717 0.699426 2.314370 0.025792 0.002093 191913.000000 0 0 1
17.695069 14.993179 -21.778550 31.815344 0.702929 2.324755 0.033841 -0.011966 567238.000000 0 0 1
16.560369 14.885979 -22.611150 31.734875 0.732202 2.363853 0.038895 -0.016433 422692.000000 0 0 1
15.386069 13.946479 -22.191050 30.392073 0.736359 2.389351 0.027130 -0.009678 273917.000000 0 0 1
14.204469 14.126279 -22.931350 30.449393 0.782638 2.423553 0.037154 -0.011219 -902749.000000 0 0 1
13.263569 13.261679 -22.379050 29.199594 0.785327 2.444040 0.051239 -0.012370 -699028.000000 0 0 1
11.918669 13.467279 -23.112550 29.285017 0.846325 2.480347 0.049398 -0.010729 -431709.000000 0 0 1
11.435169 14.748679 -22.897850 29.539772 0.911277 2.457754 0.050075 -0.018027 -209116.000000 0 0 1
11.043669 15.169979 -24.149850 30.582775 0.941528 2.481043 0.038205 -0.009889 -672597.000000 0 0 1
10.862669 16.771079 -24.231350 31.407403 0.996038 2.452019 0.033436 -0.010154 525524.000000 0 0 1
12.038369 17.579879 -24.323550 32.335887 0.970358 2.422214 0.037264 -0.004584 382568.000000 0 0 1
13.090769 17.296979 -25.229550 33.272870 0.922942 2.431439 0.033203 -0.012091 25402.500000 0 0 1
12.771069 17.333079 -26.763970 34.348885 0.935795 2.464153 0.039691 -0.010299 -154190.000000 0 0 1
13.945169 17.382079 -27.542430 35.428659 0.894671 2.461327 0.037019 -0.017495 22524.100000 0 0 1
13.540469 17.200679 -28.866040 36.227834 0.903906 2.492763 0.029057 -0.023163 400119.000000 0 0 1
14.590569 17.605979 -29.977660 37.702988 0.878782 2.489969 0.028606 -0.025230 94651.200000 0 0 1
15.734069 16.807979 -30.092680 37.889820 0.818387 2.488512 0.024333 -0.026164 -643752.000000 0 0 1
16.550869 17.287579 -31.098750 39.241864 0.807166 2.485676 0.017571 -0.017127 -968861.000000 0 0 1
17.782469 16.457379 -31.397180 39.659103 0.746717 2.484345 0.012482 -0.013844 -1105030.000000 0 0 1
18.666169 16.527779 -30.317580 39.252376 0.724713 2.453369 0.014620 -0.013000 494188.000000 0 0 1
19.888269 15.778779 -30.464070 39.655676 0.670686 2.446844 0.018888 -0.008882 1432750.000000 0 0 1
21.071169 16.511079 -31.198440 41.109032 0.664652 2.432448 0.009533 -0.008405 -193712.000000 0 0 1
20.944169 16.705979 -32.613510 42.206504 0.673302 2.453900 0.024887 -0.008196 39815.900000 0 0 1
21.998169 17.528579 -33.077020 43.419578 0.672799 2.436883 0.020356 -0.004282 -126528.000000 0 0 1
21.891569 17.946679 34.105450 44.322746 0.686697 0.692770 0.023218 0.007475 -596374.000000 0 0 1
22.835169 18.900779 33.777893 44.940299 0.691407 0.720286 0.027290 0.000970 -121526.000000 0 0 1
22.798569 19.183979 32.367079 43.993495 0.699513 0.744061 0.032991 0.000985 257294.000000 0 0 1
23.778969 20.357479 31.973719 44.745782 0.708032 0.774796 0.038346 -0.009082 1099520.000000 0 0 1
25.187169 20.135079 31.925289 45.376635 0.674386 0.790398 0.037973 -0.015682 704740.000000 0 0 1
25.920869 21.361279 31.927599 46.341852 0.689262 0.810746 0.045586 -0.025598 -272126.000000 0 0 1
27.391169 21.150979 31.584879 46.853438 0.657547 0.831023 0.047385 -0.026290 -91028.300000 0 0 1
28.098869 20.326779 32.560039 47.569744 0.626260 0.816921 0.039166 -0.021958 686712.000000 0 0 1
29.514469 20.336279 32.393039 48.311252 0.603324 0.835904 0.034405 -0.018865 368642.000000 0 0 1
30.182069 19.563179 33.557479 49.191256 0.575089 0.820051 0.026474 -0.015679 -259161.000000 0 0 1
30.201669 20.108279 -33.780150 49.574008 0.587403 2.320482 0.022382 -0.019262 396324.000000 0 0 1
28.951969 20.049879 -33.115030 48.340660 0.605690 2.325448 0.026650 -0.027671 9999.460000 0 0 1
29.239069 20.429979 -31.679650 47.706471 0.609868 2.297024 0.031783 -0.022526 30085.600000 0 0 1
29.953869 19.463679 -30.924800 47.248411 0.576227 2.284337 0.027840 -0.021275 93169.000000 0 0 1
30.368269 19.982679 -29.672210 46.925252 0.581987 2.255353 0.016603 -0.024560 596313.000000 0 0 1
31.812469 19.493979 -29.363640 47.479172 0.549762 2.237569 0.055851 -0.013480 1184910.000000 0 0 1
32.970069 19.949479 -30.084250 48.888335 0.544145 2.233647 0.022254 -0.019425 627720.000000 0 0 1
34.167369 19.598779 -29.440390 49.175785 0.520790 2.212644 0.036948 -0.013454 -626328.000000 0 0 1
35.287069 20.558179 -29.757780 50.530599 0.527526 2.200501 0.038464 -0.016505 -613077.000000 0 0 1
35.816269 20.526079 -31.049890 51.654823 0.520400 2.215677 0.032060 -0.011575 386174.000000 0 0 1
-34.764922 21.321379 -31.233760 51.368753 -0.550143 2.224374 0.037178 -0.021289 118637.000000 0 0 1
-33.807522 20.851879 -32.308020 51.201148 -0.552668 2.253640 0.037082 -0.026099 -706059.000000 0 0 1
-33.097822 19.683579 -32.050980 50.101641 -0.536520 2.264929 0.052838 -0.016181 176223.000000 0 0 1
-32.270222 19.479179 -33.204210 50.232710 -0.543082 2.292957 0.037566 -0.001962 -29602.700000 0 0 1
-31.401422 18.214479 -33.151580 49.161405 -0.525623 2.310869 0.020169 0.000961 -246126.000000 0 0 1
-32.199022 17.075079 -32.951450 49.133831 -0.487591 2.305877 0.021692 0.000321 288919.000000 0 0 1
-31.462222 15.869379 -33.161120 48.387689 -0.467157 2.325841 0.006833 0.005583 397554.000000 0 0 1
-32.428822 14.634979 -33.157450 48.633605 -0.423931 2.320990 0.009677 0.007874 29691.800000 0 0 1
-31.779422 13.433579 -33.125080 47.829527 -0.399932 2.335836 0.011758 -0.001805 -40134.600000 0 0 1
-32.764022 12.409779 -32.956440 48.100007 -0.362065 2.325626 0.023266 -0.002613 -17717.600000 0 0 1
-32.359922 10.949779 -33.201490 47.638232 -0.326281 2.341933 0.023492 -0.005409 -185260.000000 0 0 1
-31.991222 10.672379 34.081862 47.946963 -0.321994 0.780127 0.011988 -0.012848 161214.000000 0 0 1
-32.157022 9.263079 33.894999 47.631394 -0.280465 0.779009 0.034086 -0.019909 -191220.000000 0 0 1
-31.437522 8.657979 32.657301 46.149515 -0.268741 0.784642 0.046432 -0.024439 -166429.000000 0 0 1
-30.126422 8.321979 33.022319 45.467903 -0.269514 0.757905 0.035311 -0.020529 -412522.000000 0 0 1
-29.382722 7.742579 31.954519 44.095160 -0.257651 0.760238 0.038964 -0.019928 -90397.400000 0 0 1
20.220869 -4.088567 -30.961270 37.204841 -0.199506 2.553831 0.056714 -0.031643 -140972.000000 0 0 1
21.111269 -4.290967 -32.069220 38.633314 -0.200523 2.550070 0.066730 -0.030002 102875.000000 0 0 1
22.240169 -3.454467 -32.049550 39.162892 -0.154094 2.529357 0.049475 -0.029154 -32461.400000 0 0 1
21.969369 -1.907767 -32.267620 39.083143 -0.086620 2.542087 0.054747 -0.020760 -602141.000000 0 0 1
23.120069 -1.172867 -31.943820 39.450232 -0.050686 2.514479 0.049379 -0.015688 68953.600000 0 0 1
22.950569 0.168533 -32.416900 39.719169 0.007343 2.525517 0.054181 -0.016823 -125045.000000 0 0 1
24.009269 1.121333 -31.816850 39.874984 0.046670 2.494625 0.045510 -0.010570 -807027.000000 0 0 1
25.272469 0.858333 -32.288040 41.011608 0.033950 2.477198 0.044275 -0.014360 -930270.000000 0 0 1
26.292269 1.603333 -31.618950 41.153518 0.060906 2.447004 0.039740 -0.014392 97416.400000 0 0 1
27.693569 1.277833 -32.145440 42.448745 0.046109 2.429929 0.027144 -0.020364 -454486.000000 0 0 1
28.080569 2.047833 -33.230020 43.553946 0.072798 2.438680 0.032497 -0.017761 -269135.000000 0 0 1
28.885969 1.290333 -34.093611 44.703898 0.044640 2.438203 0.021394 -0.012794 -656948.000000 0 0 1
29.697669 2.100533 33.552665 44.856941 0.070613 0.725764 0.031404 -0.014383 -609976.000000 0 0 1
29.006669 2.923933 32.624868 43.752923 0.100463 0.729269 0.045481 -0.006196 71829.900000 0 0 1
28.853869 4.259633 33.174875 44.173098 0.146569 0.721191 0.031930 0.000592 -83450.000000 0 0 1
28.208269 5.155433 32.101069 43.043740 0.180768 0.729095 0.047282 0.004927 -184757.000000 0 0 1
28.063169 6.505633 32.381019 43.340456 0.227797 0.727060 0.040183 0.001407 37146.500000 0 0 1
27.349669 7.287333 31.455319 42.314852 0.260401 0.732711 0.031866 0.003370 -66126.500000 0 0 1
27.307769 8.790333 31.768789 42.804675 0.311424 0.734478 0.021982 0.000422 162189.000000 0 0 1
28.419969 9.444533 31.180109 43.233009 0.320839 0.765248 0.023846 -0.000179 80976.800000 0 0 1
28.575469 10.782833 31.603029 43.949725 0.360826 0.768330 0.015123 0.005172 -375218.000000 0 0 1
29.927569 11.346933 31.173969 44.679174 0.362401 0.798574 0.011595 0.011547 -1074630.000000 0 0 1
31.015469 10.703533 31.798569 45.691071 0.332306 0.801058 0.019258 0.005532 80164.000000 0 0 1
32.224969 10.890333 31.079669 46.075957 0.325897 0.830467 0.012189 0.006185 256030.000000 0 0 1
32.942669 12.256733 31.056629 46.903744 0.356193 0.847132 0.022673 0.005266 -461407.000000 0 0 1
33.574669 12.625733 32.304089 48.272370 0.359690 0.837659 0.024169 -0.003095 -74638.700000 0 0 1
34.308369 13.775933 32.383369 49.147972 0.381827 0.851447 0.020697 -0.002306 -51879.100000 0 0 1
33.524269 15.156633 32.326939 48.975822 0.424607 0.849899 0.024422 -0.001828 -521802.000000 0 0 1
32.934369 15.382633 31.066399 47.816516 0.436958 0.863606 0.028204 -0.011495 -260809.000000 0 0 1
32.095569 16.489533 31.177049 47.686881 0.474598 0.858218 0.035119 -0.022854 -584828.000000 0 0 1
30.633869 16.168833 31.495029 46.816685 0.485647 0.832903 0.031699 -0.010972 -811686.000000 0 0 1
29.978069 15.479233 30.418249 45.426437 0.476643 0.837105 0.039956 -0.011413 815054.000000 0 0 1
28.676469 15.012233 30.802199 44.682015 0.482273 0.810185 0.028590 -0.011739 844053.000000 0 0 1
27.766369 14.543133 29.625879 43.129650 0.482481 0.813578 0.019012 -0.001808 -40260.100000 0 0 1
28.015169 13.238633 29.217019 42.588089 0.441449 0.814768 0.018795 -0.004061 102525.000000 0 0 1
27.407369 12.924933 27.953199 41.226195 0.440659 0.825697 0.013274 -0.005533 -108593.000000 0 0 1
27.075369 11.425433 27.853959 40.490235 0.399315 0.812180 0.009458 0.005971 -286815.000000 0 0 1
28.152969 10.647733 27.365539 40.679683 0.361582 0.832934 0.017526 0.009929 158165.000000 0 0 1
27.661669 9.325833 27.215139 39.909935 0.325172 0.820420 0.022694 0.013192 123441.000000 0 0 1
28.586069 8.288633 26.555079 39.887805 0.282215 0.842305 0.017118 0.014492 26012.000000 0 0 1
29.130669 8.533933 25.252039 39.485306 0.284980 0.876910 0.019697 0.012220 477306.000000 0 0 1
30.036469 7.533233 24.798819 39.672667 0.245734 0.895555 0.021458 0.021760 102054.000000 0 0 1
30.656469 7.831733 23.470549 39.395708 0.250118 0.932580 0.030144 0.015079 88179.400000 0 0 1
31.395269 9.065333 23.398949 40.191467 0.281103 0.949380 0.025251 0.001991 785851.000000 0 0 1
30.551969 10.131033 22.942249 39.527300 0.320190 0.951558 0.030568 -0.000954 223249.000000 0 0 1
30.147069 10.137733 21.399049 38.334563 0.324397 0.978560 0.031443 0.007824 331726.000000 0 0 1
31.208369 10.312333 20.468949 38.720594 0.319140 1.013808 0.036789 -0.007898 513127.000000 0 0 1
30.646469 10.311833 19.158249 37.584285 0.324577 1.035913 0.043661 -0.011727 -357887.000000 0 0 1
31.569869 11.004133 18.109549 38.022406 0.335395 1.074370 0.052888 -0.030980 1723700.000000 0 0 1
32.863569 10.401833 17.822249 38.805217 0.306539 1.093618 0.055141 -0.025021 1505970.000000 0 0 1
33.873669 10.340133 18.795849 40.095233 0.296272 1.082887 0.046437 -0.020338 -699295.000000 0 0 1
35.224469 9.803433 18.349249 40.909234 0.271444 1.105670 0.061334 -0.032022 -431751.000000 0 0 1
35.088369 8.416033 18.235449 40.429628 0.235406 1.102864 0.054204 -0.023201 126522.000000 0 0 1
-35.533622 7.818333 17.661049 40.443507 -0.216575 1.118887 0.059765 -0.020217 -639519.000000 0 0 1
-35.654522 6.298733 17.422849 40.180526 -0.174856 1.122296 0.053455 -0.017125 -697285.000000 0 0 1
35.157369 6.153333 16.408749 39.282963 0.173268 1.139877 0.043822 -0.008796 -363463.000000 0 0 1
35.230469 4.915733 15.704449 38.884188 0.138636 1.155045 0.050309 -0.001367 332695.000000 0 0 1
33.956969 4.003733 15.863749 37.693025 0.117364 1.136395 0.041526 -0.002152 422900.000000 0 0 1
33.934169 3.259433 17.061749 38.121582 0.095758 1.106760 0.046067 0.004224 -131309.000000 0 0 1
32.779769 2.469033 17.113549 37.060531 0.075180 1.090803 0.042838 0.003921 -230498.000000 0 0 1
32.589869 1.578233 18.352549 37.435363 0.048389 1.058424 0.042010 0.000997 -260905.000000 0 0 1
33.305169 0.396733 18.388049 38.046183 0.011911 1.066366 0.049034 0.006197 -233514.000000 0 0 1
33.037369 -0.269567 19.589849 38.409668 -0.008159 1.035584 0.052335 0.008782 157822.000000 0 0 1
33.381969 -1.762267 19.677349 38.789941 -0.052742 1.038771 0.052521 0.010708 -33710.400000 0 0 1
33.104869 -2.368267 20.893349 39.218275 -0.071417 1.008955 0.055348 0.010212 -63568.800000 0 0 1
33.701469 -3.637767 21.023549 39.887492 -0.107525 1.015646 0.046008 0.013848 -40250.200000 0 0 1
33.254569 -4.276467 22.332949 40.285421 -0.127896 0.983193 0.046725 0.007054 -5267.630000 0 0 1
33.883569 -3.744767 23.489649 41.399072 -0.110072 0.967457 0.050282 -0.000316 110188.000000 0 0 1
33.373169 -4.330167 24.642769 41.710728 -0.129029 0.938744 0.043458 -0.000369 -66042.100000 0 0 1
33.634069 -3.673367 25.990209 42.664214 -0.108784 0.915769 0.033926 -0.000855 -17157.600000 0 0 1
32.839969 -4.263367 26.983069 42.716810 -0.129100 0.887087 0.035446 -0.002871 106413.000000 0 0 1
33.210269 -3.741267 28.230309 43.747793 -0.112181 0.869385 0.027563 0.000717 273704.000000 0 0 1
32.263369 -4.237167 29.371089 43.835367 -0.130583 0.836545 0.028863 -0.005179 233612.000000 0 0 1
32.413369 -5.611667 29.646489 44.283537 -0.171429 0.837302 0.045739 -0.017075 193975.000000 0 0 1
31.392269 -6.042667 30.527119 44.202866 -0.190163 0.808459 0.061225 -0.028248 -300486.000000 0 0 1
31.510069 -7.501167 30.915059 44.776030 -0.233706 0.808702 0.055909 -0.024710 -376655.000000 0 0 1
32.538769 -7.843467 31.786889 46.159482 -0.236537 0.811196 0.051077 -0.027533 -455380.000000 0 0 1
33.398069 -8.810967 31.193929 46.541652 -0.257940 0.836268 0.048429 -0.019560 -126838.000000 0 0 1
34.642969 -9.052967 32.064129 48.064539 -0.255606 0.840479 0.051848 -0.016478 -245129.000000 0 0 1
34.447769 -9.543067 33.390101 48.914392 -0.270253 0.819450 0.034603 -0.022876 98925.100000 0 0 1
35.683369 -9.659267 34.080865 50.280311 -0.264358 0.826006 0.013044 -0.015992 137791.000000 0 0 1
35.529969 -9.973167 -33.039720 49.532473 -0.273655 2.301014 0.023424 -0.016877 -280258.000000 0 0 1
35.206969 -8.869067 -32.199690 48.528456 -0.246778 2.296313 0.021317 -0.020968 283707.000000 0 0 1
-35.584922 -7.843767 -32.161020 48.601878 0.216955 2.293912 0.033395 -0.011201 257040.000000 0 0 1
35.498269 -6.574067 -31.470380 47.892904 -0.183119 2.287760 0.034709 -0.012023 380237.000000 0 0 1
35.294469 -6.796867 -30.100360 46.882071 -0.190247 2.267958 0.019511 -0.001029 260790.000000 0 0 1
34.520669 -5.690267 -29.656370 45.864540 -0.163367 2.273925 0.030134 -0.006837 83900.200000 0 0 1
34.986669 -5.336567 -28.227130 45.269381 -0.151365 2.244055 0.032763 -0.000617 398240.000000 0 0 1
-35.524822 -4.637367 -28.173880 45.577249 0.129805 2.237192 0.030676 -0.001357 60755.600000 0 0 1
-35.275522 -4.410967 -26.784010 44.510698 0.124398 2.216478 0.033197 -0.000393 722734.000000 0 0 1
-33.777522 -4.511667 -26.332840 43.066165 0.132784 2.228689 0.029282 0.007133 -516365.000000 0 0 1
-33.612022 -4.101667 -24.963950 42.068878 0.121429 2.206081 0.043506 -0.000078 708655.000000 0 0 1
-32.311422 -4.442967 -24.456150 40.766055 0.136648 2.214191 0.051182 -0.001892 805821.000000 0 0 1
-31.132922 -3.598767 -24.993950 40.086250 0.115083 2.244013 0.060120 0.000325 -849911.000000 0 0 1
-30.847222 -3.827367 -26.358450 40.754972 0.123444 2.274117 0.050629 0.000156 4250.630000 0 0 1
-29.728122 -3.096867 -26.847850 40.176596 0.103799 2.302645 0.062072 -0.003779 354272.000000 0 0 1
-29.144322 -3.710167 -28.127500 40.673248 0.126622 2.334426 0.053727 0.002108 413721.000000 0 0 1
-30.067322 -3.525667 -29.215790 42.071802 0.116726 2.338419 0.059796 0.002448 313414.000000 0 0 1
-29.591222 -4.194067 -30.355040 42.598815 0.140796 2.363964 0.052219 0.008099 -713862.000000 0 0 1
-30.707322 -4.355867 -31.429370 44.155617 0.140911 2.362835 0.036772 0.008984 -415791.000000 0 0 1
-31.812822 -5.183767 -31.060160 44.762268 0.161526 2.337676 0.035902 0.007381 732679.000000 0 0 1
-32.736622 -4.524567 -30.168040 44.746718 0.137341 2.310671 0.044000 -0.002769 -482984.000000 0 0 1
-33.684822 -3.538567 -30.957750 45.886501 0.104665 2.311299 0.074516 -0.012162 -849372.000000 0 0 1
-33.096422 -2.428167 -31.639640 45.851237 0.073235 2.332354 0.084349 -0.013366 -176538.000000 0 0 1
-32.677022 -1.422167 -30.744180 44.888917 0.043494 2.325255 0.081541 -0.017970 -86043.200000 0 0 1
-32.528022 -0.049567 -31.407380 45.216127 0.001524 2.338668 0.088675 -0.018897 1148190.000000 0 0 1
-33.815422 0.553233 -31.705900 46.357879 -0.016359 2.323943 0.101001 -0.020960 1096210.000000 0 0 1
-33.696122 1.863233 -32.241230 46.673303 -0.055239 2.333371 0.116367 -0.017598 34680.300000 0 0 1
-35.060722 2.550633 -32.466750 47.852375 -0.072621 2.316484 0.082114 -0.016781 127294.000000 0 0 1
-35.810722 2.048133 -33.562200 49.122540 -0.057131 2.322979 0.065019 -0.020873 -243727.000000 0 0 1
34.788769 2.784533 -33.804770 48.587802 0.079871 2.340254 0.028325 -0.014958 -829404.000000 0 0 1
33.932869 2.344233 33.602316 47.812662 0.068975 0.791483 -0.001842 -0.006464 -182307.000000 0 0 1
34.406769 2.570733 32.290149 47.255562 0.074577 0.818511 0.012188 -0.002149 343962.000000 0 0 1
35.458369 1.718833 31.847289 47.691720 0.048437 0.839582 0.001636 0.001095 -28946.900000 0 0 1
35.868669 1.866433 30.397149 47.053498 0.051988 0.868447 0.018653 -0.001791 -318042.000000 0 0 1
-35.182122 3.063633 30.109719 46.408649 -0.086860 0.864796 0.026978 -0.000305 96234.100000 0 0 1
-35.064322 3.236233 28.689619 45.421076 -0.092033 0.887134 0.027928 0.002067 146912.000000 0 0 1
-34.213722 4.487033 28.321959 44.641299 -0.130403 0.883520 0.022602 0.007646 -222710.000000 0 0 1
-34.092122 4.591533 26.948539 43.698727 -0.133875 0.906266 0.024572 0.009164 259242.000000 0 0 1
-33.309922 5.748633 26.708129 43.080411 -0.170897 0.902105 0.027490 0.009816 -106402.000000 0 0 1
-32.638222 5.898633 25.300959 41.715536 -0.178798 0.919131 0.036089 0.008985 405199.000000 0 0 1
-31.324122 5.320733 25.256279 40.588058 -0.168255 0.899171 0.029483 0.011711 617469.000000 0 0 1
-30.709322 5.652233 24.026159 39.398814 -0.182019 0.914964 0.029727 0.006081 -136781.000000 0 0 1
-31.179522 5.026433 22.684549 38.884655 -0.159834 0.947912 0.027882 -0.000258 -338733.000000 0 0 1
-30.961622 3.651733 22.522049 38.460368 -0.117401 0.945187 0.030073 0.003992 -221288.000000 0 0 1
-31.539622 3.281233 21.325749 38.213895 -0.103662 0.978747 0.046808 0.002462 -1054230.000000 0 0 1
-31.302722 1.808933 21.026349 37.752351 -0.057724 0.980082 0.039048 0.007210 224901.000000 0 0 1
-30.031022 1.410733 20.542049 36.411924 -0.046941 0.971384 0.019047 0.008236 140204.000000 0 0 1
-29.873822 1.838533 19.214949 35.567397 -0.061466 1.000073 0.022213 0.002143 -905314.000000 0 0 1
-28.712022 1.270633 18.440749 34.147561 -0.044226 1.000322 0.023112 0.004745 -707291.000000 0 0 1
-28.951922 -0.101267 18.137149 34.164019 0.003498 1.011152 0.031635 0.001844 393105.000000 0 0 1
-27.893122 -0.816567 17.506349 32.941847 0.029266 1.010506 0.048224 0.000671 -66790.000000 0 0 1
-27.740922 -0.540667 15.987549 32.022692 0.019487 1.048055 0.054039 0.001271 -17138.000000 0 0 1
-27.267022 0.750933 15.664749 31.455345 -0.027533 1.049506 0.061730 0.002704 222759.000000 0 0 1
-27.452522 1.019933 14.272949 30.958009 -0.037136 1.091627 0.074262 -0.002433 -13597.200000 0 0 1
-26.965822 2.400633 13.761949 30.369554 -0.088791 1.100501 0.068836 -0.001267 2060040.000000 0 0 1
-25.496722 2.455433 13.631249 29.015908 -0.096008 1.081749 0.065890 -0.007223 2019190.000000 0 0 1
-25.097422 3.655233 13.069749 28.531731 -0.144625 1.094965 0.063300 -0.005598 447637.000000 0 0 1
-23.550622 3.778733 12.880049 27.107310 -0.159095 1.075661 0.050938 -0.008647 357913.000000 0 0 1
-22.893322 4.051033 14.095449 27.188173 -0.175140 1.025770 0.039417 -0.000188 503820.000000 0 0 1
-21.550222 4.440333 13.794049 25.969297 -0.203202 1.010818 0.032201 -0.007504 421041.000000 0 0 1
-20.806822 4.929233 15.055249 26.151132 -0.232616 0.957334 0.019825 -0.004808 -21308.100000 0 0 1
-21.206122 6.242033 15.413949 26.949071 -0.286266 0.961896 0.020222 -0.002505 901198.000000 0 0 1
-20.394422 6.574033 16.556549 27.078953 -0.311828 0.912945 0.016360 0.006217 288675.000000 0 0 1
-20.496122 8.091833 17.011549 27.838132 -0.376014 0.913362 0.001959 0.009666 -421469.000000 0 0 1
-19.891122 9.018833 16.142249 27.158208 -0.425686 0.934304 0.012179 0.001703 324001.000000 0 0 1
-20.192022 10.445033 16.238749 27.937671 -0.477380 0.950533 0.006359 0.006400 -219316.000000 0 0 1
-19.883922 11.164633 17.579249 28.793218 -0.511622 0.914061 0.028023 0.005860 -419925.000000 0 0 1
-20.763822 10.724533 18.552249 29.838530 -0.476761 0.899815 0.039908 0.003285 23473.400000 0 0 1
-20.260422 10.983433 19.817149 30.394735 -0.496768 0.860587 0.047927 0.004911 -358475.000000 0 0 1
-12.028831 -33.974413 -20.818750 41.621796 1.230513 2.094613 0.068554 -0.025379 -835774.000000 0 0 1
-12.928231 34.373033 -19.871150 41.755325 -1.211048 2.066778 0.086705 -0.023535 -75141.700000 0 0 1
-14.037031 -33.448813 -19.804250 41.328799 1.173460 2.070525 0.080405 -0.039275 388554.000000 0 0 1
-15.209831 -33.974713 -18.962750 41.775662 1.149873 2.041955 0.083286 -0.028135 -813915.000000 0 0 1
-15.776131 33.670333 -19.690850 42.075019 -1.132626 2.057816 0.067355 -0.034989 723437.000000 0 0 1
-16.703631 32.837133 -18.942550 41.425944 -1.100228 2.045711 0.072090 -0.028069 835903.000000 0 0 1
-18.140731 33.330733 -18.613450 42.266824 -1.072367 2.026818 0.070990 -0.021509 -163596.000000 0 0 1
-18.109931 -34.337513 -17.662850 42.649861 1.085462 1.997790 0.070667 -0.019704 680062.000000 0 0 1
-19.375331 -34.068213 -17.041850 42.737235 1.053693 1.980959 0.053227 -0.013060 502510.000000 0 0 1
-19.616231 34.017033 -15.720150 42.297496 -1.047716 1.951589 0.056837 -0.015512 -225321.000000 0 0 1
-19.674131 32.603033 -15.699250 41.188538 -1.027848 1.961842 0.062874 -0.026661 105345.000000 0 0 1
-20.037931 32.134633 -14.438150 40.529169 -1.013232 1.935038 0.055768 -0.020564 76385.800000 0 0 1
-20.172931 30.561333 -14.410750 39.352407 -0.987367 1.945716 0.041499 -0.016778 28792.800000 0 0 1
-18.949231 29.977033 -14.035850 38.140542 -1.007090 1.947657 0.052521 -0.021514 -31819.200000 0 0 1
-19.070831 28.564333 -13.812150 37.018822 -0.982117 1.953157 0.047158 -0.014947 -149190.000000 0 0 1
-17.724831 27.917333 -13.422750 35.689177 -1.005107 1.956382 0.047650 -0.011074 -233133.000000 0 0 1
-16.740931 27.960333 -14.400350 35.628768 -1.031305 1.986876 0.073647 -0.021448 650338.000000 0 0 1
-15.570831 27.136533 -14.061650 34.301198 -1.049867 1.993192 0.080522 -0.029177 1623380.000000 0 0 1
-14.235031 27.667533 -14.643750 34.388485 -1.095614 2.010679 0.080219 -0.029555 113123.000000 0 0 1
-14.225231 27.479033 -16.039650 34.852903 -1.093108 2.049028 0.068001 -0.029655 212066.000000 0 0 1
-13.325031 28.396433 -16.674350 35.523905 -1.132050 2.059389 0.093812 -0.037029 209245.000000 0 0 1
-13.484531 28.326733 -18.233250 36.286193 -1.126503 2.097266 0.095223 -0.045432 -44430.100000 0 0 1
-12.900031 27.185133 -18.810350 35.486216 -1.127735 2.129485 0.083357 -0.039842 195972.000000 0 0 1
-13.415631 26.897533 -20.108650 36.163715 -1.108135 2.160416 0.073504 -0.047108 -226273.000000 0 0 1
-12.491231 25.914533 -20.804450 35.502380 -1.121639 2.196912 0.056232 -0.029510 -606483.000000 0 0 1
-11.239531 26.455933 -21.110950 35.663927 -1.169061 2.204262 0.046168 -0.022585 -751727.000000 0 0 1
-10.353031 25.391833 -21.326550 34.738339 -1.183643 2.231813 0.060479 -0.021649 -773937.000000 0 0 1
-9.094531 25.840633 -22.013550 35.143210 -1.232388 2.247717 0.052785 -0.023744 -935617.000000 0 0 1
-9.446031 26.353133 -23.307350 36.427293 -1.226622 2.265076 0.057666 -0.019984 361030.000000 0 0 1
-8.343231 26.738433 -24.130250 36.970560 -1.268338 2.281924 0.027486 -0.023415 10848.200000 0 0 1
-8.738731 27.366433 -25.472120 38.394218 -1.261708 2.296198 0.032130 -0.013599 87302.500000 0 0 1
-9.510831 26.575433 -26.384010 38.637101 -1.227118 2.322477 0.038835 -0.017170 104376.000000 0 0 1
-9.605331 27.170833 -27.619900 39.917107 -1.230992 2.334957 0.064384 -0.015702 -2993.740000 0 0 1
-11.017931 26.894833 -28.166470 40.473163 -1.181984 2.340510 0.048213 -0.010673 -59982.800000 0 0 1
-11.051631 27.310733 -29.506160 41.696860 -1.186277 2.356942 0.055655 -0.005124 403398.000000 0 0 1
-12.397631 27.197233 -29.964780 42.323502 -1.143095 2.357450 0.063135 -0.000769 341831.000000 0 0 1
-12.477731 27.544533 -31.442090 43.623389 -1.145449 2.375698 0.044132 -0.006926 -576486.000000 0 0 1
-11.883031 26.667833 -32.388080 43.604673 -1.151612 2.407989 0.046614 -0.010242 -168801.000000 0 0 1
-12.260931 25.277833 -32.471070 42.937975 -1.119183 2.428331 0.041101 -0.013089 83714.800000 0 0 1
-11.562731 24.424233 -33.587450 43.108662 -1.128644 2.464080 0.027870 -0.002741 481496.000000 0 0 1
-12.027331 24.894933 33.729865 43.613280 -1.120741 0.686632 0.042505 0.001803 402039.000000 0 0 1
-11.474331 23.956933 32.758945 42.175152 -1.124125 0.681330 0.037100 -0.001255 -216700.000000 0 0 1
-12.008831 24.043233 31.332049 41.279370 -1.107574 0.708983 0.049520 0.003068 522373.000000 0 0 1
-13.348131 23.534133 31.208369 41.303636 -1.054858 0.714251 0.044294 0.001375 607225.000000 0 0 1
-13.670831 23.299333 29.852479 40.260664 -1.040178 0.735523 0.056182 0.007291 629536.000000 0 0 1
-15.002331 22.546033 29.542939 40.077161 -0.983665 0.741951 0.044123 0.006853 568024.000000 0 0 1
-14.782131 21.158133 29.841319 39.454814 -0.960977 0.713094 0.028398 0.005299 36312.300000 0 0 1
-15.957831 20.390433 29.969129 39.605187 -0.906747 0.712550 0.030486 0.004981 -234085.000000 0 0 1
-15.632131 18.943633 30.308139 39.010358 -0.880882 0.681029 0.023497 -0.005958 110080.000000 0 0 1
-15.137631 18.194433 29.201119 37.588438 -0.876850 0.681126 0.026484 0.000894 322234.000000 0 0 1
-14.584631 16.914633 29.531019 37.025631 -0.859234 0.647518 0.012886 -0.016324 121065.000000 0 0 1
-14.225431 16.137133 28.227269 35.490121 -0.848278 0.651202 0.029672 -0.007898 233916.000000 0 0 1
-13.129931 16.627133 27.478209 34.697386 -0.902387 0.656818 0.019806 -0.003918 -84667.500000 0 0 1
-12.924731 15.985433 26.208619 33.308775 -0.890875 0.665127 0.019204 0.002126 707709.000000 0 0 1
-11.805331 16.653233 25.316469 32.521064 -0.954128 0.678582 0.024115 0.005082 746340.000000 0 0 1
-12.306131 17.674233 24.422429 32.561855 -0.962575 0.722686 0.021297 -0.000221 -135666.000000 0 0 1
-12.749031 18.882433 24.996899 33.822020 -0.976923 0.739105 0.016913 -0.000431 -156495.000000 0 0 1
-11.716331 19.895333 25.536689 34.427013 -1.038580 0.735101 0.005232 0.002617 -171168.000000 0 0 1
-11.245431 19.716633 26.917799 35.210414 -1.052462 0.700556 0.015290 0.001182 410524.000000 0 0 1
-12.190631 19.872633 27.993279 36.430162 -1.020554 0.694444 0.026132 0.002712 -139715.000000 0 0 1
-11.675231 19.349533 29.311019 37.011502 -1.027891 0.656811 0.029538 0.008823 -430190.000000 0 0 1
-10.644331 20.144833 29.845509 37.548242 -1.084695 0.652023 0.009221 0.000981 -191520.000000 0 0 1
-10.716531 20.207833 31.248769 38.725781 -1.083191 0.631870 0.005069 -0.003542 -128392.000000 0 0 1
-9.543031 20.917833 31.972349 39.380913 -1.142786 0.623441 0.002765 -0.010738 695019.000000 0 0 1
-8.318831 20.188933 32.112339 38.832954 -1.179946 0.597161 0.008158 -0.015072 299755.000000 0 0 1
-7.390031 20.957033 32.814743 39.631013 -1.231782 0.595253 0.007877 -0.010038 -581047.000000 0 0 1
-6.126431 20.304433 33.324859 39.501258 -1.277754 0.566768 0.016426 -0.010631 -803841.000000 0 0 1
-6.306031 19.476633 -34.147856 39.814336 -1.257674 2.601532 0.014835 -0.019115 217409.000000 0 0 1
-5.107731 19.041433 -33.515790 38.884101 -1.308723 2.609881 0.013230 -0.019002 728842.000000 0 0 1
-4.170331 18.010033 -34.238320 38.910352 -1.343251 2.646508 0.015614 -0.020218 245320.000000 0 0 1
-4.642431 16.667933 -34.161465 38.293313 -1.299156 2.672768 0.019557 -0.022386 -7910.420000 0 0 1
-4.885031 16.124333 33.184690 37.216681 -1.276626 0.469794 0.014177 -0.017509 -158784.000000 0 0 1
-5.611431 14.769933 33.094715 36.672868 -1.207717 0.445418 0.025714 -0.019602 -543046.000000 0 0 1
-4.937031 13.637033 33.612910 36.608342 -1.223444 0.407344 0.033905 -0.016956 -662156.000000 0 0 1
-5.701931 12.470333 33.557108 36.250527 -1.141938 0.387915 0.039382 -0.018167 -500549.000000 0 0 1
-4.868331 11.217733 33.809382 35.952921 -1.161340 0.347053 0.068432 -0.026288 -304075.000000 0 0 1
-4.434631 11.118433 -33.488190 35.563245 -1.191278 2.798301 0.063363 -0.024791 -228332.000000 0 0 1
-3.709131 9.920333 -33.379910 35.019838 -1.212998 2.834351 0.077120 -0.031879 -415.939000 0 0 1
-3.419431 9.476333 -31.944130 33.495087 -1.224498 2.836090 0.076381 -0.025742 298336.000000 0 0 1
-4.594231 9.094433 -31.225220 32.845548 -1.103022 2.826179 0.080407 -0.022888 476699.000000 0 0 1
-4.330631 8.616633 -29.930970 31.446203 -1.105079 2.829897 0.090272 -0.016073 -65022.200000 0 0 1
-5.684731 8.209333 -29.350120 31.002240 -0.965141 2.813658 0.085702 -0.017432 -72692.500000 0 0 1
-5.520131 7.188233 -28.397860 29.809076 -0.915912 2.832659 0.074868 -0.017021 -385588.000000 0 0 1
-6.743431 6.590733 -28.119550 29.658400 -0.773947 2.818047 0.081517 -0.028834 -1088690.000000 0 0 1
-6.814231 5.577833 -26.928790 28.332061 -0.685954 2.825543 0.067065 -0.026572 -385578.000000 0 0 1
-6.751431 6.091133 -25.584310 27.152176 -0.734029 2.800102 0.047452 -0.022648 -39843.300000 0 0 1
-5.656831 6.895233 -25.231030 26.760958 -0.883741 2.801818 0.052689 -0.018870 -361257.000000 0 0 1
-6.110331 7.899433 -24.148150 26.131788 -0.912415 2.749447 0.036627 -0.014433 182546.000000 0 0 1
-6.122531 7.349433 -22.856850 24.777715 -0.876218 2.745242 0.028589 -0.012115 723588.000000 0 1 0
-7.491831 7.400533 -22.381150 24.734820 -0.779268 2.701809 0.022023 -0.011158 1136640.000000 0 1 0
-7.505531 7.567433 -20.847750 23.414263 -0.789505 2.668990 0.018666 -0.009375 -66913.200000 0 1 0
-7.242131 8.926533 -20.590350 23.581645 -0.889201 2.632427 0.012854 -0.004020 -114990.000000 0 1 0
-7.095131 9.342533 -19.212850 22.511273 -0.921278 2.593417 0.016425 0.004880 262767.000000 0 1 0
-8.333131 9.246033 -18.248750 22.089524 -0.837282 2.542995 0.014393 -0.001256 363011.000000 0 1 0
-7.956631 9.392033 -16.837250 20.856923 -0.867949 2.510315 0.007900 -0.000443 -11381.400000 0 1 0
-9.045531 9.841033 -16.095150 20.921793 -0.827493 2.448542 0.006888 0.001963 125219.000000 0 1 0
-9.600431 11.353733 -16.283250 22.050391 -0.868877 2.401574 0.008158 0.002320 163836.000000 0 1 0
-8.668331 12.318333 -15.820950 21.844536 -0.957596 2.380745 0.002764 0.001336 -62402.900000 0 1 0
-9.115131 13.580633 -16.121050 22.965354 -0.979671 2.348960 0.019639 -0.005324 465366.000000 0 1 0
-7.981431 14.691133 -15.994750 23.137949 -1.073125 2.334052 0.027523 -0.000299 517389.000000 0 1 0
-7.365731 14.887933 -14.752450 22.215745 -1.111362 2.297024 0.024413 0.005919 163946.000000 0 1 0
-8.171131 15.451533 -13.723350 22.222682 -1.084357 2.236405 0.017233 -0.009462 88503.600000 0 1 0
-7.255831 16.175533 -12.642150 21.774272 -1.149134 2.190262 0.001937 -0.013841 794169.000000 0 1 0
-6.740631 17.457533 -12.915150 22.737693 -1.202316 2.174878 0.013735 -0.014513 573856.000000 0 1 0
-5.775231 17.623233 -13.997950 23.235194 -1.254119 2.217358 0.016536 -0.003323 520655.000000 0 1 0
-5.591031 19.124533 -14.400150 24.583973 -1.286374 2.196606 0.027903 0.002753 149608.000000 0 1 0
-4.902631 19.928133 -13.480350 24.553739 -1.329571 2.151981 0.018443 -0.003003 -165958.000000 0 1 0
-5.435231 21.218833 -13.644550 25.806092 -1.320037 2.127904 0.037865 -0.000678 -310153.000000 0 0 1
-4.778431 22.299633 -12.730850 26.118606 -1.359706 2.079934 0.039745 0.004695 -466196.000000 0 0 1
-4.991031 23.647633 -13.040250 27.462139 -1.362791 2.065584 0.027034 0.001000 197660.000000 0 0 1
-6.327831 24.132933 -12.991050 28.128407 -1.314362 2.050874 0.027557 0.000126 489224.000000 0 0 1
-7.051031 24.199933 -11.573750 27.736357 -1.287280 2.001244 0.015782 -0.002880 -38954.100000 0 0 1
-7.416831 22.902233 -11.174050 26.540178 -1.257607 2.005370 0.019777 0.003425 -409945.000000 0 0 1
-8.054731 22.786533 -9.936150 26.131052 -1.231019 1.960855 0.031938 -0.004112 -125083.000000 0 0 1
-7.272531 23.108933 -8.616750 25.713049 -1.265903 1.912520 0.037737 -0.005777 -59549.200000 0 0 1
-6.950931 24.491833 -8.686950 26.900343 -1.294262 1.899621 0.038450 -0.001175 -148831.000000 0 0 1
-6.632731 25.042733 -7.412350 26.945770 -1.311885 1.849473 0.032220 -0.002940 -196177.000000 0 0 1
-6.961131 26.525833 -7.258450 28.368332 -1.314155 1.829538 0.031683 -0.005149 -200629.000000 0 0 1
-6.200331 27.510733 -7.949850 29.299909 -1.349122 1.845568 0.016047 -0.005919 -27134.600000 0 0 1
-5.929131 27.394433 -9.341350 29.544380 -1.357648 1.892497 0.015264 -0.005931 -129481.000000 0 0 1
-5.384031 28.678633 -9.931450 30.823457 -1.385220 1.898853 0.005248 -0.012412 -45026.200000 0 0 1
-6.270431 29.779933 -9.884950 31.998046 -1.363269 1.884857 0.009072 -0.010135 -154439.000000 0 0 1
-6.959731 29.953033 -11.096650 32.691860 -1.342493 1.917109 0.017826 -0.010084 -630727.000000 0 0 1
-8.152231 30.885133 -11.060850 33.803738 -1.312729 1.904144 0.032083 -0.012804 -928463.000000 0 0 1
-9.226731 30.399233 -10.333050 33.406853 -1.276115 1.885263 0.047018 -0.009098 -739692.000000 0 0 1
-10.247231 31.356833 -10.286250 34.555226 -1.254942 1.873053 0.052364 -0.018658 874673.000000 0 0 1
-11.549331 31.030833 -9.431650 34.427542 -1.214492 1.848301 0.063136 -0.012786 789266.000000 0 0 1
-12.295331 29.996433 -9.953650 33.912185 -1.181791 1.868695 0.072079 -0.014171 -674769.000000 0 0 1
-13.340331 29.732233 -9.060350 33.823957 -1.149039 1.841976 0.067826 -0.007840 191192.000000 0 0 1
-14.360131 28.605333 -9.390650 33.356600 -1.105543 1.856177 0.065166 -0.007405 431368.000000 0 0 1
-14.003531 27.297133 -8.968350 31.963474 -1.096800 1.855196 0.059083 -0.002720 637510.000000 0 0 1
-15.063631 26.416633 -9.393550 31.827508 -1.052552 1.870398 0.064217 0.002719 688655.000000 0 0 1
-15.058431 25.020433 -8.713750 30.474708 -1.029021 1.860777 0.059039 0.000676 -395040.000000 0 0 1
-14.235531 24.167133 -9.459750 29.600465 -1.038471 1.896084 0.055262 0.003851 174357.000000 0 0 1
-14.365331 22.822933 -8.993150 28.427553 -1.009021 1.892679 0.052530 0.004067 308185.000000 0 0 1
-13.239631 21.870333 -9.552350 27.291880 -1.026438 1.928375 0.051933 0.003717 349260.000000 0 0 1
-13.365231 21.511233 -10.907750 27.574292 -1.014852 1.977492 0.063023 -0.000144 64553.300000 0 0 1
-12.429731 20.538033 -11.276550 26.523001 -1.026558 2.009936 0.062303 -0.007801 -208794.000000 0 0 1
-12.582931 20.158533 -12.720950 26.954020 -1.012773 2.062298 0.075428 -0.001879 348244.000000 0 0 1
-13.748531 19.365533 -12.920450 27.036716 -0.953425 2.069042 0.076026 -0.003600 207866.000000 0 0 1
-13.787931 18.952133 -14.261750 27.435158 -0.941843 2.117454 0.079217 -0.005275 620950.000000 0 0 1
-15.227331 18.502333 -14.665150 28.094031 -0.882190 2.119993 0.065482 -0.001639 1537250.000000 0 0 1
-16.151531 19.616633 -14.916750 29.465127 -0.881974 2.101628 0.042369 -0.002607 1153860.000000 0 0 1
-17.480031 19.205833 -15.271150 30.126791 -0.832406 2.102376 0.028896 -0.004662 1099500.000000 0 0 1
-18.237931 20.297133 -16.165950 31.716458 -0.838784 2.105635 0.024741 -0.008715 367413.000000 0 0 1
-18.746531 21.387833 -15.390450 32.337869 -0.851115 2.066814 0.026256 -0.008798 416648.000000 0 0 1
-19.270831 22.414633 -16.233150 33.723817 -0.860673 2.072997 0.030345 -0.016796 15934.400000 0 0 1
-19.482831 23.721733 -15.486550 34.382184 -0.883198 2.038036 0.025356 -0.015409 76458.800000 0 0 1
-20.565331 23.634433 -14.575450 34.553770 -0.854724 2.006247 0.015233 -0.009139 246936.000000 0 0 1
-20.908331 24.805233 -13.924450 35.303657 -0.870439 1.976232 0.014334 -0.009079 -40068.000000 0 0 1
-25.420401 -0.701167 3.679350 25.694864 0.027576 1.427108 0.101278 -0.029349 -69630.000000 0 0 1
-25.851231 -0.070167 4.869050 26.305869 0.002714 1.384629 0.098946 -0.021570 905118.000000 0 0 1
-27.287341 -0.058267 4.923750 27.728067 0.002135 1.392277 0.097266 -0.016592 867578.000000 0 0 1
-27.792591 0.698633 6.194250 28.483064 -0.025132 1.351573 0.087476 -0.011488 -226644.000000 0 0 1
-27.763041 2.100433 6.029750 28.487825 -0.075512 1.357523 0.090926 -0.021242 -147768.000000 0 0 1
-28.040231 2.728533 7.233650 29.086511 -0.097002 1.319464 0.085536 -0.019224 -381511.000000 0 0 1
-26.938611 2.983633 8.282950 28.340750 -0.110307 1.274204 0.090892 -0.017880 -377198.000000 0 0 1
-26.441691 1.827033 8.883850 27.953960 -0.068987 1.247385 0.091158 -0.021624 20345.900000 0 0 1
-25.420631 2.132333 9.788550 27.323452 -0.083686 1.204407 0.091416 -0.030218 -744800.000000 0 0 1
-24.589331 0.990033 10.265350 26.664448 -0.040241 1.175607 0.074186 -0.024256 -819560.000000 0 0 1
-23.764831 0.368333 9.311150 25.526464 -0.015498 1.197416 0.069912 -0.028856 35455.300000 0 0 1
-24.288731 -0.715767 8.540950 25.756603 0.029461 1.232795 0.062729 -0.019396 -228869.000000 0 0 1
-23.194231 -1.610867 7.902050 24.556255 0.069340 1.243173 0.053765 -0.021668 118641.000000 0 1 0
-22.473631 -2.374267 8.890450 24.284591 0.105256 1.195988 0.057432 -0.021438 332455.000000 0 1 0
-21.234531 -2.790067 8.355750 22.989309 0.130645 1.198815 0.053248 -0.018660 -348392.000000 0 1 0
-20.161731 -2.911567 9.426550 22.446213 0.143419 1.137393 0.020987 -0.012754 -555798.000000 0 1 0
-19.620531 -1.676867 9.909450 22.044825 0.085258 1.104576 0.014723 -0.006229 266924.000000 0 1 0
-20.441731 -0.867767 10.743650 23.109379 0.042425 1.087270 0.036376 -0.017609 -562194.000000 0 1 0
-20.066031 0.616133 10.862850 22.826010 -0.030696 1.074812 0.032442 -0.016874 -379279.000000 0 1 0
-20.596131 1.304933 9.755150 22.826879 -0.063274 1.129233 0.030331 -0.014672 430878.000000 0 1 0
-20.537331 2.699433 10.053250 23.024699 -0.130691 1.118948 0.021652 -0.015530 -865284.000000 0 1 0
-21.648931 3.481033 9.409750 23.860788 -0.159430 1.165425 0.036002 -0.018290 -1025060.000000 0 1 0
-21.702431 4.741033 10.022850 24.370688 -0.215077 1.146953 0.028325 -0.017376 368731.000000 0 1 0
-22.537731 5.644233 9.372650 25.053009 -0.245388 1.187356 0.037744 -0.015293 -580604.000000 0 0 1
-22.520731 6.921933 10.247550 25.692582 -0.298194 1.160531 0.031821 -0.015636 352058.000000 0 0 1
-23.361031 6.698333 11.409850 26.847535 -0.279239 1.131849 0.024501 -0.009193 728339.000000 0 0 1
-23.173431 7.714633 12.391550 27.387479 -0.321368 1.101282 0.014348 -0.010061 -86261.800000 0 0 1
-23.967131 7.538033 13.725450 28.629238 -0.304720 1.070802 0.031161 -0.007365 334635.000000 0 0 1
-25.376161 7.570433 13.549850 29.746587 -0.289923 1.097852 0.043461 -0.006234 219759.000000 0 0 1
-25.980691 6.948433 14.667050 30.633305 -0.261330 1.071516 0.037661 -0.007119 -111579.000000 0 0 1
-27.485311 6.702233 14.464450 31.773929 -0.239180 1.098166 0.046531 -0.004258 -101567.000000 0 0 1
-27.811331 5.807933 13.362650 31.396857 -0.205875 1.131166 0.060909 0.010570 482015.000000 0 0 1
-29.177151 5.855933 12.965450 32.460761 -0.198071 1.159913 0.049134 -0.001333 -639264.000000 0 0 1
-29.599451 4.850033 11.938350 32.282728 -0.162412 1.191996 0.077848 -0.003309 -324407.000000 0 0 1
-29.927511 3.608733 12.550150 32.652491 -0.120003 1.176287 0.065435 -0.007889 425397.000000 0 0 1
-30.480411 2.632333 11.651950 32.737632 -0.086148 1.206899 0.066953 -0.003512 -53793.800000 0 0 1
-31.525801 1.672833 12.264950 33.868916 -0.053013 1.200244 0.045148 0.003919 -57429.600000 0 0 1
-31.055701 0.620833 13.073250 33.700918 -0.019988 1.172423 0.055047 0.003368 652303.000000 0 0 1
-32.220141 -0.130467 13.497350 34.933265 0.004049 1.174098 0.043893 0.007232 786222.000000 0 0 1
-32.050681 -1.312067 14.410050 35.165569 0.040914 1.148586 0.038748 0.002690 -337396.000000 0 0 1
-31.850041 -2.561967 13.807050 34.808381 0.080266 1.162922 0.031444 0.000342 118291.000000 0 0 1
-32.124791 -3.578267 14.729650 35.521385 0.110929 1.143216 0.035001 0.007343 -141451.000000 0 0 1
-31.971071 -5.004167 14.151350 35.319283 0.155262 1.158549 0.036214 -0.001048 -347169.000000 0 0 1
-32.915751 -5.306367 13.162350 35.844827 0.159835 1.194796 0.030730 -0.014038 -230694.000000 0 0 1
-32.794991 -6.646067 12.719850 35.797713 0.199947 1.207534 0.046060 -0.015720 -659661.000000 0 0 1
-33.927771 -7.055767 11.702550 36.576320 0.205042 1.245121 0.053227 -0.002069 374104.000000 0 0 1
-35.226926 -7.138167 12.211050 37.960499 0.199927 1.243295 0.048114 -0.000391 -170210.000000 0 0 1
-35.816802 -5.945567 12.753450 38.481730 0.164499 1.232993 0.044646 -0.009913 -1550980.000000 0 0 1
34.462120 -5.744767 12.405750 37.074825 -0.165179 1.229601 0.063914 -0.013611 -262044.000000 0 0 1
33.606320 -6.633267 13.093050 36.671691 -0.194877 1.205705 0.057001 -0.008279 -1038620.000000 0 0 1
32.290000 -6.427667 12.737450 35.301581 -0.196492 1.201651 0.059672 -0.003328 -879846.000000 0 0 1
31.263540 -7.471667 13.166850 34.736158 -0.234590 1.182023 0.034287 -0.000786 -362148.000000 0 0 1
31.044290 -7.499667 14.527150 35.086051 -0.237038 1.143905 0.028628 0.000670 -493023.000000 0 0 1
29.972130 -8.339667 14.782350 34.444106 -0.271383 1.127224 0.027752 -0.001095 -487465.000000 0 0 1
29.441830 -8.296867 16.233250 34.629146 -0.274682 1.082894 0.024457 -0.006642 -239360.000000 0 0 1
30.354230 -8.810767 17.160750 35.965264 -0.282502 1.073390 0.018563 0.001298 -427838.000000 0 0 1
29.826880 -8.891567 18.494750 36.204399 -0.289718 1.034632 0.021670 -0.001597 -861528.000000 0 0 1
30.650180 -9.488267 19.639550 37.618780 -0.300210 1.021523 0.030547 0.004551 355942.000000 0 0 1
31.630720 -8.672867 20.302750 38.573601 -0.267614 1.016508 0.035824 0.003488 240057.000000 0 0 1
32.823310 -8.542567 19.565050 39.155284 -0.254611 1.047569 0.018809 0.016931 -302255.000000 0 0 1
34.019410 -7.891767 20.301450 40.394914 -0.227947 1.044222 0.008306 0.012032 316877.000000 0 0 1
34.336830 -8.572667 21.502650 41.411018 -0.244662 1.024824 0.017040 0.009179 917300.000000 0 0 1
35.649330 -8.268267 22.044850 42.722527 -0.227904 1.028621 0.019371 0.008594 1104620.000000 0 0 1
-35.869134 -8.853767 23.456150 43.762712 0.241998 1.005122 0.017388 0.010166 -451610.000000 0 0 1
35.251260 -8.184967 24.503750 43.704448 -0.228147 0.975602 0.020751 0.013317 5719.890000 0 0 1
35.263410 -8.937967 25.689450 44.534741 -0.248235 0.955941 0.016671 0.001665 -187202.000000 0 0 1
34.860220 -8.160667 26.936150 44.803879 -0.229956 0.925793 0.022791 0.005426 1079000.000000 0 0 1
-35.717074 -7.592667 27.573450 45.756454 0.209460 0.924025 0.005378 -0.010672 1055550.000000 0 0 1
35.580950 -6.790067 28.711250 46.221692 -0.188567 0.900569 0.010966 -0.015224 -118431.000000 0 0 1
-35.100524 -6.392567 29.705850 46.425739 0.180147 0.876484 0.018878 -0.011495 -286808.000000 0 0 1
-34.588418 -7.400167 30.512950 46.713609 0.210772 0.859004 0.013471 -0.006994 45537.700000 0 0 1
-33.214411 -7.140267 30.753750 45.825469 0.211752 0.835097 0.013740 -0.015564 350159.000000 0 0 1
-32.607351 -7.752267 32.060150 46.380925 0.233413 0.807599 0.008287 -0.010058 -80243.300000 0 0 1
-32.566841 -9.157367 31.851050 46.464458 0.274109 0.815516 0.013500 -0.008267 357099.000000 0 0 1
-32.079111 -9.841467 33.030050 47.084053 0.297672 0.793279 0.010326 -0.001889 -138721.000000 0 0 1
-32.218271 -11.364367 33.014650 47.509293 0.339105 0.802503 0.013644 -0.003450 -938254.000000 0 0 1
-33.537481 -11.746067 33.161850 48.604948 0.336886 0.819929 0.008133 -0.010449 -848428.000000 0 0 1
-33.727061 -13.133267 33.247250 49.146485 0.371334 0.827806 0.009959 -0.013312 -475141.000000 0 0 1
-35.185897 -13.408467 33.568750 50.444973 0.364086 0.842696 0.002314 -0.010999 -547424.000000 0 0 1
-35.434951 -14.768967 33.637550 51.041580 0.394897 0.851278 -0.000444 -0.017085 615993.000000 0 0 1
34.909810 -15.047567 33.639450 50.761567 -0.406976 0.846384 -0.013088 -0.011663 732228.000000 0 0 1
34.374240 -16.477867 33.915450 51.023193 -0.447005 0.843695 -0.012924 -0.006739 -151077.000000 0 0 1
34.828920 -16.965567 -33.484149 51.206175 -0.453284 2.283535 -0.007836 -0.013113 91314.400000 0 0 1
34.621910 -18.336467 -33.338749 51.442928 -0.487062 2.275847 -0.006611 -0.018751 -549623.000000 0 0 1
35.250720 -18.898167 -32.063149 51.262067 -0.492114 2.246537 -0.002245 -0.011649 23484.000000 0 0 1
34.450080 -18.720067 -30.893549 49.916533 -0.497760 2.238143 -0.009013 -0.005175 75144.100000 0 0 1
34.937430 -19.614967 -29.869649 49.975663 -0.511577 2.211405 -0.009339 -0.000769 -1193840.000000 0 0 1
33.853830 -20.001467 -28.873349 48.783304 -0.533641 2.204173 -0.010624 0.000598 152965.000000 0 0 1
32.694780 -20.634567 -29.379149 48.557887 -0.562993 2.220604 -0.006595 -0.000722 367761.000000 0 0 1
31.736710 -19.765967 -29.974249 47.920432 -0.557024 2.246569 -0.005034 -0.000356 611254.000000 0 0 1
30.319400 -20.453867 -30.241649 47.457181 -0.593484 2.261709 0.002818 0.002769 919007.000000 0 0 1
29.388300 -19.581767 -30.832549 46.880314 -0.587757 2.288540 -0.001828 0.006706 -193791.000000 0 0 1
28.189430 -20.342367 -30.909049 46.516934 -0.625096 2.297579 0.003076 0.006073 -466395.000000 0 0 1
27.203550 -19.710867 -31.851849 46.293538 -0.627026 2.329582 0.002281 0.009607 -437537.000000 0 0 1
27.609510 -19.814667 -33.194849 47.505832 -0.622490 2.344449 -0.002349 0.000065 -19362.000000 0 0 1
26.523760 -19.545167 -34.048349 47.379462 -0.635060 2.372628 0.025758 -0.002166 34017.900000 0 0 1
26.868480 -19.769167 33.104550 46.996238 -0.634335 0.789207 0.020673 -0.004905 269724.000000 0 0 1
27.964170 -18.953167 32.700850 47.016624 -0.595648 0.801657 0.008892 -0.003302 243271.000000 0 0 1
28.190120 -19.012267 31.280350 46.201834 -0.593358 0.827067 0.012205 -0.001429 -151747.000000 0 0 1
27.044610 -18.388267 30.433850 44.673913 -0.597124 0.821335 0.019182 -0.001177 -28846.300000 0 0 1
26.830230 -17.059767 30.752350 44.233515 -0.566357 0.802060 0.027627 -0.001511 100412.000000 0 0 1
25.866260 -16.333267 30.046250 42.879087 -0.563225 0.794390 0.042098 -0.006023 -134602.000000 0 0 1
25.545760 -14.886067 30.655850 42.590632 -0.527618 0.767312 0.053107 -0.008538 -54693.300000 0 0 1
26.690860 -14.064867 30.628650 42.992286 -0.484978 0.777853 0.049848 -0.001964 180926.000000 0 0 1
26.447260 -12.781567 31.029650 42.727803 -0.450187 0.757994 0.073429 -0.015764 42708.500000 0 0 1
27.749190 -11.940167 31.169050 43.406161 -0.406342 0.769758 0.063751 -0.018340 176164.000000 0 0 1
28.254390 -11.604767 29.910950 42.750977 -0.389717 0.795881 0.055651 -0.013590 -851018.000000 0 0 1
29.604990 -11.313167 30.001050 43.640648 -0.365013 0.812815 0.051171 -0.012335 -620182.000000 0 0 1
30.185590 -10.638167 28.667750 42.967200 -0.338834 0.840352 0.041249 -0.004739 -37616.900000 0 0 1
29.941490 -9.262667 28.504950 42.365339 -0.300021 0.832760 0.045431 -0.013396 181700.000000 0 0 1
30.425470 -8.817867 27.231050 41.773126 -0.282090 0.860736 0.039957 -0.006201 -44824.400000 0 0 1
30.395040 -7.260667 26.996250 41.296165 -0.234483 0.858303 0.042816 -0.007909 364553.000000 0 0 1
29.109270 -6.647767 26.970650 40.236281 -0.224522 0.836174 0.059995 -0.011613 110000.000000 0 0 1
29.165180 -5.245667 26.742950 39.916289 -0.177958 0.836620 0.058536 -0.009866 314535.000000 0 0 1
27.747280 -4.614367 26.640050 38.741401 -0.164792 0.812566 0.057715 -0.004102 5258.450000 0 0 1
27.174110 -5.006267 25.450050 37.565942 -0.182186 0.826470 0.057777 -0.007537 -795156.000000 0 0 1
25.853060 -4.551667 25.390750 36.521070 -0.174273 0.802049 0.070886 -0.008611 -801289.000000 0 0 1
25.134160 -5.088267 24.161050 35.233120 -0.199745 0.815165 0.073567 -0.005470 -462759.000000 0 0 1
25.439660 -4.282567 22.972450 34.543453 -0.166778 0.843262 0.076616 0.004977 137150.000000 0 0 1
24.639060 -4.581367 21.848150 33.247764 -0.183840 0.853790 0.085877 -0.001762 -54493.100000 0 0 1
24.957360 -3.769867 20.569450 32.560466 -0.149919 0.887012 0.095332 -0.005337 239426.000000 0 0 1
24.091560 -2.644867 20.394750 31.675612 -0.109346 0.871260 0.092164 -0.003724 366003.000000 0 0 1
24.625560 -1.696467 19.443550 31.422091 -0.068782 0.903600 0.093289 -0.010570 254584.000000 0 0 1
23.560460 -0.736167 18.847250 30.180391 -0.031236 0.896322 0.057564 -0.003548 282696.000000 0 0 1
22.564160 -1.387867 18.068950 28.940533 -0.061430 0.896500 0.077381 -0.008476 -130346.000000 0 0 1
21.570160 -0.516867 17.607550 27.848963 -0.023958 0.886340 0.066478 -0.008008 -508530.000000 0 0 1
20.396460 -1.256567 17.021650 26.595697 -0.061529 0.876278 0.045252 -0.004578 -814395.000000 0 0 1
20.750160 -1.810867 15.791450 26.138444 -0.087049 0.922102 0.052174 -0.003924 102391.000000 0 0 1
19.742160 -2.636667 15.257350 25.089671 -0.132769 0.917115 0.055777 -0.011289 20727.400000 0 0 1
20.229660 -3.163967 13.890850 24.742787 -0.155145 0.974708 0.061305 -0.020549 -46786.200000 0 1 0
19.334760 -4.117767 13.389850 23.876286 -0.209837 0.975443 0.067760 -0.020973 317700.000000 0 1 0
19.693760 -4.515867 12.098850 23.550359 -0.225408 1.031254 0.065455 -0.020030 -562834.000000 0 1 0
18.775360 -5.556667 11.520750 22.718238 -0.287742 1.038963 0.064711 -0.025095 -515019.000000 0 1 0
18.845660 -6.778467 12.229350 23.466220 -0.345275 1.022602 0.072349 -0.024146 722110.000000 0 1 0
17.711460 -7.601667 11.996450 22.702334 -0.405418 1.014054 0.064117 -0.013721 56031.300000 0 1 0
17.761560 -9.008267 12.675650 23.607075 -0.469373 1.003987 0.059926 -0.021374 134848.000000 0 1 0
18.625960 -9.882067 11.961150 24.241508 -0.487791 1.054783 0.059716 -0.025675 502775.000000 0 1 0
17.880260 -11.047267 11.684450 24.047290 -0.553439 1.063410 0.046240 -0.028699 262291.000000 0 1 0
18.390260 -11.865567 10.432150 24.245063 -0.573000 1.125994 0.042788 -0.027890 -1560.400000 0 1 0
18.154260 -11.162767 9.261350 23.236977 -0.551292 1.160849 0.063254 -0.033822 97073.300000 0 1 0
18.606560 -11.902567 8.182450 23.554780 -0.569098 1.216021 0.050335 -0.029322 -108503.000000 0 1 0
18.496760 -11.199467 6.814650 22.671516 -0.544441 1.265493 0.048726 -0.022121 -203157.000000 0 1 0
19.204760 -9.970467 6.806650 22.683992 -0.478863 1.266037 0.073645 -0.013698 541682.000000 0 1 0
19.273460 -9.326967 5.515850 22.110702 -0.450708 1.318668 0.026602 -0.019908 -257898.000000 0 1 0
20.093860 -8.000867 5.563550 22.332267 -0.378932 1.319019 0.069415 -0.014230 -180385.000000 0 1 0
20.415460 -7.608067 4.264850 22.200509 -0.356719 1.377489 0.047453 -0.013620 291466.000000 0 1 0
21.059160 -6.382667 4.291550 22.419724 -0.294283 1.378189 0.075537 -0.016342 -694559.000000 0 1 0
21.715960 -6.008067 2.976050 22.727442 -0.269914 1.439474 0.076650 -0.017879 -520390.000000 0 1 0
20.729560 -5.815267 2.008450 21.623271 -0.273500 1.477779 0.050907 -0.027097 282552.000000 0 1 0
21.310560 -5.476167 0.787750 22.017014 -0.251527 1.535010 0.056161 -0.018141 83889.300000 0 1 0
-25.411291 -15.601467 0.089550 29.818576 0.550620 1.567793 0.051522 -0.016128 321987.000000 0 0 1
-24.326931 -14.955267 -0.640350 28.563432 0.551203 1.593217 0.037021 -0.009149 813274.000000 0 0 1
-23.071131 -15.562767 -0.410750 27.832454 0.593444 1.585555 0.032429 -0.007906 222076.000000 0 0 1
-22.341231 -15.043167 0.844350 26.946993 0.592606 1.539457 0.036846 -0.016126 -1085740.000000 0 0 1
-22.955231 -15.383767 2.020850 27.707161 0.590420 1.497795 0.037584 -0.002129 -202816.000000 0 0 1
-22.230931 -14.869667 3.134150 26.928501 0.589528 1.454144 0.035007 0.007869 363057.000000 0 0 1
-22.713831 -15.485167 4.474350 27.851900 0.598373 1.409449 0.037766 0.013932 -507527.000000 0 0 1
-22.393831 -16.877467 4.520750 28.403692 0.645843 1.410956 0.054142 -0.000795 70671.100000 0 0 1
-22.725131 -17.601067 5.660050 29.296165 0.659010 1.376373 0.047925 -0.003459 -227836.000000 0 0 1
-22.884331 -19.121367 5.302450 30.289194 0.696054 1.394829 0.032389 -0.001621 -13347.200000 0 0 1
-23.426031 -19.869167 6.369750 31.370949 0.703428 1.366328 0.030340 -0.004520 -58500.900000 0 0 1
-23.651131 -21.200167 5.893150 32.304060 0.730806 1.387341 0.045013 -0.009691 -49382.900000 0 0 1
-24.396031 -22.076167 6.932250 33.624092 0.735520 1.363138 0.037620 -0.006981 -287157.000000 0 0 1
-23.623331 -22.484967 8.018050 33.584589 0.760714 1.329726 0.037784 -0.000150 -151535.000000 0 0 1
-24.324431 -23.394767 8.907350 34.904641 0.765919 1.312751 0.044567 -0.005351 524676.000000 0 0 1
-23.484631 -23.856867 10.165850 34.986033 0.793261 1.275975 0.025584 -0.010839 385543.000000 0 0 1
-23.296531 -22.862467 11.175050 34.500761 0.775995 1.240940 0.040894 -0.011064 -151678.000000 0 0 1
-22.442231 -23.315667 12.171350 34.574786 0.804484 1.211058 0.036211 -0.010037 -297167.000000 0 0 1
-22.609531 -22.458967 13.450250 34.590538 0.782057 1.171422 0.030115 -0.007167 416238.000000 0 0 1
-23.733131 -22.905367 14.228750 35.921785 0.767652 1.163527 0.040297 -0.010441 315369.000000 0 0 1
-23.944131 -21.993367 15.286550 35.926428 0.742958 1.131286 0.026531 0.002188 182902.000000 0 0 1
-25.409291 -22.101867 15.832850 37.212951 0.715897 1.131319 0.013529 0.005230 887860.000000 0 0 1
-26.400641 -21.819667 14.789850 37.307256 0.690681 1.163167 0.012508 0.005833 866355.000000 0 0 1
-26.821331 -22.881367 13.904950 37.898396 0.706293 1.195121 0.009907 0.001837 -311983.000000 0 0 1
-27.879741 -23.793667 14.582950 39.447192 0.706487 1.192129 0.007200 -0.001576 -378382.000000 0 0 1
-27.466141 -24.507967 15.745550 40.036879 0.728543 1.166604 0.004296 0.008152 -354350.000000 0 0 1
-28.414911 -25.456367 16.191850 41.444056 0.730535 1.169413 0.009976 0.002439 10577.200000 0 0 1
-28.407361 -26.876917 15.589650 42.099691 0.757722 1.191461 0.027665 -0.001675 -46744.500000 0 0 1
-28.814111 -26.983887 14.248750 41.969156 0.752609 1.224405 0.033042 -0.010321 721829.000000 0 0 1
-30.115791 -27.612507 14.211950 43.259576 0.742062 1.236052 0.054407 -0.012978 977051.000000 0 0 1
-30.715541 -27.876847 12.792250 43.407427 0.736988 1.271653 0.065839 -0.019316 -46167.200000 0 0 1
-30.296561 -29.132237 12.283550 43.788748 0.765809 1.286462 0.077738 -0.027178 189642.000000 0 0 1
-30.742401 -29.329257 10.957950 43.879120 0.761878 1.318395 0.061047 -0.021026 136279.000000 0 0 1
-30.047851 -30.554307 10.247850 44.061973 0.793755 1.336069 0.061039 -0.030690 17983.400000 0 0 1
-30.358881 -31.769627 10.874650 45.268409 0.808101 1.328198 0.062007 -0.017333 48900.200000 0 0 1
-29.728041 -32.815787 10.212950 45.441574 0.834727 1.344111 0.061250 -0.021510 -536440.000000 0 0 1
-29.822991 -34.106862 11.069150 46.639199 0.852307 1.331174 0.050111 -0.017933 -938852.000000 0 0 1
-31.113291 34.241090 11.305550 47.626721 -0.833221 1.331130 0.057139 -0.012305 -1034290.000000 0 0 1
-31.072771 32.931892 11.928050 46.822057 -0.814437 1.313204 0.047883 -0.014354 -319454.000000 0 0 1
-32.464381 32.448219 12.383850 47.541379 -0.785149 1.307271 0.052610 -0.010515 387699.000000 0 0 1
-33.424551 32.212229 11.355250 47.788806 -0.766930 1.330888 0.024350 -0.011708 151638.000000 0 0 1
-34.148496 33.334507 10.962250 48.964069 -0.773337 1.344999 0.036997 -0.007728 -506272.000000 0 0 1
-35.507291 32.968170 10.300550 49.535536 -0.748334 1.361325 0.031677 0.004682 203387.000000 0 0 1
-35.477389 32.323269 9.052050 48.840336 -0.738911 1.384379 0.015201 -0.000788 711963.000000 0 0 1
34.893190 32.116519 8.698450 48.214816 0.743985 1.389393 0.009017 0.002623 598002.000000 0 0 1
34.601590 31.589169 7.287250 47.415711 0.739918 1.416496 0.010194 -0.001124 -48065.700000 0 0 1
34.804920 30.210199 7.131250 46.635751 0.714844 1.417280 0.027156 -0.003489 204657.000000 0 0 1
34.381620 29.880809 5.760450 45.914500 0.715474 1.445004 0.048768 -0.005916 234488.000000 0 0 1
34.414050 28.379519 5.388350 44.930593 0.689591 1.450581 0.054665 -0.009783 257484.000000 0 0 1
33.454500 27.541879 6.035950 43.751472 0.688766 1.432395 0.052165 -0.005299 314630.000000 0 0 1
33.917800 27.133299 7.335950 44.050530 0.674724 1.403482 0.036634 -0.000109 -138207.000000 0 0 1
33.021020 26.108609 8.003650 42.849803 0.669024 1.382909 0.032064 0.003829 -467650.000000 0 0 1
33.164510 24.868049 7.295450 42.089525 0.643398 1.396585 0.030513 0.000815 69065.000000 0 0 1
32.140400 23.928759 7.535350 40.772200 0.639976 1.384912 0.030302 0.002680 -509545.000000 0 0 1
32.247840 22.691579 6.592650 39.978669 0.613179 1.405135 0.027246 0.008366 451519.000000 0 0 1
33.173130 21.610779 6.889050 40.186332 0.577397 1.398518 0.037802 0.010474 -65634.100000 0 0 1
34.505770 21.980579 6.660750 41.450688 0.567190 1.409406 0.047231 0.004488 -781639.000000 0 0 1
35.411980 20.741279 6.606750 41.567512 0.529849 1.411179 0.035996 0.006557 -412907.000000 0 0 1
35.158330 19.828479 5.560150 40.745454 0.513511 1.433909 0.055838 -0.008044 25983.900000 0 0 1
35.800623 18.615979 5.862650 40.775114 0.479512 1.426516 0.062746 -0.015731 -276696.000000 0 0 1
35.425560 17.407579 4.967250 39.782756 0.456732 1.445610 0.066351 -0.022565 -248851.000000 0 0 1
-35.698306 17.323479 3.699050 39.851662 -0.451798 1.477842 0.078703 -0.026342 -2986.550000 0 0 1
35.654570 16.227379 2.918150 39.282207 0.427110 1.496441 0.064934 -0.032141 -1121640.000000 0 0 1
-35.189586 15.887879 1.752750 38.649758 -0.424095 1.525431 0.074364 -0.019431 -659925.000000 0 0 1
-33.945981 15.342179 2.023350 37.306917 -0.424482 1.516534 0.077068 -0.025167 -41154.900000 0 0 1
-32.892981 16.222179 2.433350 36.756339 -0.458177 1.504546 0.086952 -0.031132 -468576.000000 0 0 1
-31.589031 15.483779 2.710350 35.283995 -0.455747 1.493905 0.051684 -0.023531 -564363.000000 0 0 1
-31.462081 14.688479 3.856650 34.935479 -0.436788 1.460177 0.057733 -0.023104 -361260.000000 0 0 1
-30.145801 14.315179 4.118750 33.625255 -0.443338 1.447998 0.042944 -0.025091 -838148.000000 0 0 1
-29.934451 13.631379 5.510550 33.350443 -0.427314 1.404803 0.055094 -0.024509 -161501.000000 0 0 1
-30.260561 12.209779 5.457250 33.084163 -0.383510 1.405088 0.051485 -0.015441 523097.000000 0 0 1
-29.935491 11.624179 6.698250 32.804294 -0.370386 1.365162 0.028840 -0.006022 -188299.000000 0 0 1
-30.030741 10.015879 6.624250 32.342602 -0.321919 1.364522 0.027618 -0.008462 -159446.000000 0 0 1
-31.333861 9.502079 6.648950 33.411209 -0.294438 1.370455 0.031985 -0.003677 -174547.000000 0 0 1
-31.242721 8.098379 6.478450 32.919017 -0.253627 1.372704 0.035579 -0.010985 224414.000000 0 0 1
-32.631051 7.419379 6.527750 34.094636 -0.223571 1.378147 0.033944 -0.006522 135616.000000 0 0 1
-33.200441 7.211079 7.816350 34.862075 -0.213876 1.344666 0.037017 -0.008029 103908.000000 0 0 1
-34.380289 6.445179 7.621050 35.799791 -0.185316 1.356275 0.039340 -0.005869 359383.000000 0 0 1
-34.961582 5.900179 9.005150 36.581650 -0.167186 1.322074 0.040809 -0.010760 -182546.000000 0 0 1
-35.651708 6.812979 9.813250 37.600011 -0.188822 1.306748 0.042715 -0.000085 333446.000000 0 0 1
-34.824057 7.651879 10.641450 37.208959 -0.216292 1.280755 0.049908 -0.010175 342943.000000 0 0 1
-35.686093 8.641479 11.502050 38.476870 -0.237579 1.267221 0.054939 -0.017577 -111801.000000 0 0 1
35.223820 8.040279 12.444950 38.213091 0.224418 1.239073 0.050096 -0.019280 329738.000000 0 0 1
34.918820 8.971179 13.444150 38.477931 0.251477 1.213867 0.075233 -0.022321 -421081.000000 0 0 1
34.271850 8.437779 14.706950 38.236765 0.241400 1.175991 0.053672 -0.024563 -1457520.000000 0 0 1
32.980620 7.991079 14.579950 36.934449 0.237715 1.164998 0.060053 -0.020742 -834918.000000 0 0 1
32.500420 7.622779 15.850250 36.954221 0.230380 1.127504 0.036614 -0.010803 -724281.000000 0 0 1
30.997580 7.356579 15.969450 35.636954 0.233017 1.106141 0.045368 0.001490 -1182620.000000 0 0 1
30.230390 8.521179 15.886350 35.197487 0.274746 1.102520 0.025882 -0.001096 -47822.600000 0 0 1
28.836040 8.310779 15.851150 33.938845 0.280604 1.084844 0.026755 0.008239 367961.000000 0 0 1
28.080480 7.614979 17.013950 33.704239 0.264815 1.041644 0.033715 0.012958 -798389.000000 0 0 1
28.112480 8.444179 18.180450 34.527445 0.291797 1.016258 0.052690 -0.001123 355531.000000 0 0 1
27.201300 8.002879 19.205850 34.246481 0.286136 0.975430 0.057966 -0.001074 144030.000000 0 0 1
27.676870 6.897379 20.202850 34.953370 0.244236 0.954528 0.054353 -0.000239 158577.000000 0 0 1
26.842500 6.642879 21.345050 34.932203 0.242602 0.913420 0.034134 0.010516 369132.000000 0 0 1
27.362850 5.512779 22.053050 35.573210 0.198808 0.902137 0.034051 0.012004 -456774.000000 0 0 1
26.810030 5.456779 23.517650 36.078165 0.200792 0.860771 0.030351 0.017078 320715.000000 0 0 1
25.475760 5.021179 23.653450 35.124240 0.194602 0.831968 0.030974 0.017106 435768.000000 0 0 1
24.486860 6.038379 23.358850 34.375924 0.241773 0.823699 0.031844 0.018232 -130057.000000 0 0 1
23.025960 5.659679 23.602750 33.456189 0.241018 0.787693 0.034490 0.008154 -46851.900000 0 0 1
22.467360 4.729879 22.674050 32.268662 0.207492 0.791661 0.038597 0.008226 1211040.000000 0 0 1
21.048460 4.962079 22.547850 31.242046 0.231518 0.764520 0.033520 -0.001748 -11475.000000 0 0 1
20.371560 4.055879 21.508850 29.901191 0.196525 0.767958 0.045295 -0.004668 459023.000000 0 0 1
18.987760 4.263179 21.298650 28.850341 0.220860 0.740330 0.038376 -0.005659 335711.000000 0 0 1
18.027960 4.111379 22.295950 28.965844 0.224221 0.692374 0.043787 -0.010389 -2195080.000000 0 0 1
16.643860 4.112179 21.783150 27.720637 0.242218 0.666792 0.045051 -0.009088 -1625390.000000 0 0 1
16.335760 2.932079 21.078350 26.828175 0.177597 0.667002 0.033695 -0.014314 -5281.440000 0 0 1
15.137260 2.929079 20.316250 25.504238 0.191139 0.649174 0.044215 -0.022046 -482448.000000 0 0 1
14.175860 1.881479 20.874550 25.303000 0.131953 0.600624 0.048449 -0.022869 -628107.000000 0 0 1
14.579960 0.520679 20.744450 25.360965 0.035697 0.612927 0.018871 -0.014409 78149.200000 0 0 1
13.809960 -0.253921 21.635250 25.668337 -0.018385 0.568189 0.029581 -0.016601 -117721.000000 0 0 1
14.099960 -1.776521 21.779350 26.005864 -0.125334 0.578144 0.004437 -0.009376 -193558.000000 0 0 1
13.525560 -2.538921 20.737250 24.888158 -0.185554 0.585895 0.002153 -0.001224 187662.000000 0 1 0
13.844160 -3.910521 20.827050 25.312427 -0.275295 0.604477 0.003796 0.012270 -288503.000000 0 0 1
13.426360 -4.581721 19.527550 24.136787 -0.328857 0.628285 0.006949 0.005101 102947.000000 0 1 0
12.045260 -4.809021 19.317650 23.267715 -0.379856 0.591269 0.011814 0.005205 62600.300000 0 1 0
11.773260 -5.154521 17.926550 22.057650 -0.412676 0.622002 0.024889 0.003223 -634753.000000 0 1 0
10.310460 -5.271621 17.572750 21.045121 -0.472638 0.582657 0.035394 0.000020 -539339.000000 0 1 0
9.711860 -6.469021 18.026650 21.473904 -0.587607 0.574493 0.034683 -0.001027 -349606.000000 0 1 0
8.340060 -6.313721 18.283950 21.064721 -0.647989 0.519658 0.025973 0.002701 -65511.000000 0 1 0
7.659660 -7.206721 19.309450 21.987771 -0.754940 0.498731 0.018110 -0.002755 -187213.000000 0 1 0
7.747960 -8.578321 18.934950 22.184472 -0.836215 0.548087 0.019045 -0.004308 -179273.000000 0 1 0
8.705960 -9.300021 19.653250 23.420810 -0.818379 0.575103 0.026500 -0.004041 -203322.000000 0 1 0
8.828560 -10.651921 19.019850 23.519387 -0.878726 0.628878 0.040076 -0.014951 54383.100000 0 1 0
9.457260 -10.595821 17.775650 22.752690 -0.842115 0.674123 0.043957 -0.005071 -114927.000000 0 1 0
9.667660 -11.880921 17.223550 23.049308 -0.887750 0.726885 0.036157 -0.014086 219812.000000 0 1 0
9.828560 -11.784021 15.726550 21.972440 -0.875630 0.773113 0.035561 -0.019325 359811.000000 0 1 0
10.300360 -12.993021 15.173050 22.475263 -0.900485 0.829696 0.023263 -0.019319 74002.800000 0 1 0
9.942660 -12.886221 13.821250 21.352708 -0.913631 0.866781 0.014423 -0.017245 -180385.000000 0 1 0
10.487060 -14.094421 13.016850 21.864801 -0.931109 0.933116 0.016478 -0.022240 -399342.000000 0 1 0
11.835960 -13.955821 12.710750 22.280441 -0.867405 0.963695 0.003494 -0.023287 -803763.000000 0 1 0
12.129960 -13.284021 11.522050 21.362555 -0.830777 1.001123 -0.010315 -0.019482 -424629.000000 0 1 0
13.598960 -13.175821 11.039150 21.917956 -0.769596 1.042969 0.009338 -0.024051 443738.000000 0 1 0
14.144460 -14.347121 10.421650 22.682954 -0.792511 1.093422 0.017374 -0.019385 506014.000000 0 1 0
15.438460 -14.143821 9.848450 23.138403 -0.741662 1.131136 0.026348 -0.026003 609593.000000 0 1 0
16.108060 -15.514821 9.444350 24.277047 -0.766641 1.171225 0.024697 -0.025118 509305.000000 0 1 0
16.659260 -16.362621 10.474150 25.592462 -0.776415 1.149146 0.038812 -0.022635 547629.000000 0 0 1
15.617360 -17.088221 11.133750 25.687927 -0.830341 1.122508 0.048384 -0.016557 600366.000000 0 0 1
16.120060 -17.710621 12.456650 26.994269 -0.832379 1.091161 0.052870 -0.015139 -129322.000000 0 0 1
17.099560 -18.701621 12.255450 28.148563 -0.830117 1.120331 0.071377 -0.016262 -88459.900000 0 0 1
17.624160 -19.126621 13.520150 29.312678 -0.826258 1.091405 0.059190 -0.016893 -242367.000000 0 0 1
18.895860 -19.966721 13.419250 30.590844 -0.812946 1.116679 0.036008 -0.019686 -509386.000000 0 0 1
19.963560 -19.230521 12.898250 30.573215 -0.766698 1.135278 0.037231 -0.020198 -721901.000000 0 0 1
21.059260 -20.100521 12.692350 31.758764 -0.762109 1.159663 0.029708 -0.025137 389303.000000 0 0 1
22.009660 -19.681821 11.502150 31.687516 -0.729621 1.199325 0.039550 -0.011719 98842.300000 0 0 1
21.541160 -19.608421 10.149550 30.846800 -0.738464 1.235519 0.033479 -0.012706 -235971.000000 0 0 1
20.338060 -18.979821 9.762550 29.481819 -0.750867 1.233287 0.038867 -0.015037 270.051000 0 0 1
20.287860 -17.424821 9.856550 28.502161 -0.709626 1.217686 0.069487 -0.018499 -101589.000000 0 0 1
21.299960 -16.764521 9.135350 28.604057 -0.666806 1.245729 0.061298 -0.015326 -167145.000000 0 0 1
21.072460 -15.380621 9.026150 27.605859 -0.630507 1.237706 0.065351 -0.025109 -27896.900000 0 0 1
-34.876318 24.924633 8.063750 43.619021 -0.620496 1.384859 0.031598 0.014632 847010.000000 0 0 1
-33.914701 24.104133 8.804750 42.529282 -0.617890 1.362260 0.022846 0.010308 1534880.000000 0 0 1
-32.889281 24.930233 9.421750 42.331911 -0.648605 1.346348 0.032007 0.012911 744430.000000 0 0 1
-31.805731 24.171133 10.253750 41.243031 -0.649846 1.319543 0.042976 -0.004344 103939.000000 0 0 1
-30.980981 23.381833 9.428250 39.942749 -0.646512 1.332503 0.045316 -0.008204 -13296.200000 0 0 1
-30.240151 22.496933 10.256750 39.061230 -0.639613 1.305100 0.047389 -0.009977 44028.900000 0 0 1
-29.371331 21.537033 9.370350 37.607477 -0.632706 1.318982 0.043412 -0.021003 -222315.000000 0 0 1
-30.066221 20.685633 8.525650 37.477457 -0.602628 1.341300 0.048587 -0.020865 -347019.000000 0 0 1
-29.203341 20.074233 7.638650 36.251330 -0.602216 1.358491 0.060563 -0.026546 -582284.000000 0 0 1
-29.937321 19.381133 6.489750 36.248977 -0.574538 1.390793 0.058073 -0.024604 -540551.000000 0 0 1
-30.636571 18.281233 6.949450 36.346909 -0.537999 1.378414 0.062471 -0.022028 31175.900000 0 0 1
-31.512861 17.853033 5.938150 36.702218 -0.515447 1.408289 0.057254 -0.022089 -302830.000000 0 0 1
-32.299511 16.573533 6.188950 36.827212 -0.474089 1.401941 0.048398 -0.018321 -519970.000000 0 0 1
-33.190331 16.591333 7.260550 37.809866 -0.463555 1.377568 0.042244 -0.017388 116477.000000 0 0 1
-33.984171 15.412133 7.289950 38.021061 -0.425768 1.377867 0.052159 -0.015312 -101153.000000 0 0 1
-35.030243 15.425333 8.419050 39.191061 -0.414794 1.354288 0.046345 -0.013110 -255588.000000 0 0 1
35.704580 16.370833 8.164950 40.118419 0.429907 1.365843 0.063328 -0.027107 124808.000000 0 0 1
35.114650 16.891033 9.362950 40.075060 0.448353 1.334982 0.060320 -0.011613 248185.000000 0 0 1
34.206530 18.134733 9.312650 39.820606 0.487479 1.334745 0.041743 -0.004691 617936.000000 0 0 1
32.909520 17.959633 8.736050 38.495499 0.499557 1.341865 0.047456 -0.008506 412666.000000 0 0 1
32.289980 19.226033 8.729850 38.580998 0.537044 1.342546 0.036820 0.001045 467451.000000 0 0 1
30.823780 19.251233 8.198350 37.254910 0.558281 1.348919 0.034993 -0.000528 57271.600000 0 0 1
30.120490 20.442133 8.401150 37.359122 0.596273 1.343981 0.027944 0.002546 454389.000000 0 0 1
28.777140 20.510933 7.902550 36.211496 0.619232 1.350793 0.022158 0.002395 828076.000000 0 0 1
28.585230 20.253233 6.341650 35.602322 0.616422 1.391716 0.002435 0.005780 -994684.000000 0 0 1
28.386410 18.884733 5.925450 34.605380 0.587038 1.398719 0.023986 0.003138 116851.000000 0 0 1
28.147840 18.750733 4.522950 34.122543 0.587646 1.437855 0.020998 -0.001969 70435.500000 0 0 1
26.790570 19.221033 3.900350 33.202341 0.622345 1.453052 0.038537 -0.000469 -770187.000000 0 0 1
25.794860 18.324333 4.377050 31.942363 0.617663 1.433334 0.037988 -0.006281 1207910.000000 0 0 1
24.418960 18.684533 4.096850 31.019051 0.653136 1.438334 0.039075 -0.008859 995398.000000 0 0 1
23.881560 20.037933 4.672850 31.522741 0.698105 1.422011 0.043429 -0.008637 -992054.000000 0 0 1
24.588760 21.201933 4.343650 32.756623 0.711569 1.437801 0.040456 -0.006993 -245139.000000 0 0 1
23.950660 22.312633 4.890050 33.096832 0.750006 1.422504 0.030298 -0.000740 -137634.000000 0 0 1
24.769560 23.607933 4.718750 34.541746 0.761391 1.433758 0.017199 -0.005176 492985.000000 0 0 1
26.012760 23.523033 5.436450 35.490164 0.735179 1.417009 0.028535 -0.014710 382668.000000 0 0 1
26.825270 24.584033 5.034350 36.733016 0.741830 1.433311 0.030789 -0.009341 -641124.000000 0 0 1
28.236750 24.567233 5.649350 37.852056 0.716017 1.420988 0.032542 -0.003137 9053.190000 0 0 1
29.153770 23.529933 5.308450 37.838865 0.679054 1.430041 0.025824 -0.000839 543711.000000 0 0 1
29.559560 23.310933 3.937550 37.850647 0.667756 1.466579 0.027700 -0.009108 -542949.000000 0 0 1
30.438320 24.321733 3.202650 39.093413 0.674161 1.488781 0.042394 -0.026293 -736663.000000 0 0 1
29.793360 25.568933 3.019850 39.376822 0.709241 1.494030 0.035414 -0.023531 20466.900000 0 0 1
30.613480 26.545433 2.394050 40.590351 0.714347 1.511781 0.071127 -0.021997 -372469.000000 0 0 1
30.006860 27.978533 2.581850 41.108100 0.750432 1.507949 0.063128 -0.016992 278264.000000 0 0 1
28.786310 28.250033 1.949450 40.379653 0.775996 1.522500 0.086786 -0.020540 291981.000000 0 0 1
27.627740 27.741133 2.623650 39.239597 0.787446 1.503884 0.060375 -0.017317 252316.000000 0 0 1
26.286460 28.278233 2.064450 38.663916 0.821885 1.517376 0.012733 -0.011636 109953.000000 0 0 1
26.096260 29.702533 2.270250 39.603147 0.849938 1.513440 0.021681 -0.006513 1318570.000000 0 0 1
24.706460 30.072833 2.026550 38.972956 0.883050 1.518774 0.011174 -0.014181 1348570.000000 0 0 1
24.401360 31.543133 2.480750 39.956848 0.912370 1.508671 0.023300 -0.018661 -209591.000000 0 0 1
24.465360 31.912433 3.837750 40.394127 0.916730 1.475645 -0.006060 -0.024485 163834.000000 0 0 1
25.800860 31.844933 4.321650 41.212386 0.889865 1.465740 0.000479 -0.024744 204410.000000 0 0 1
25.792660 31.763933 5.867050 41.335590 0.888774 1.428378 0.015645 -0.030212 -163234.000000 0 0 1
25.180260 30.652833 6.486150 40.195918 0.883103 1.408724 0.014409 -0.033809 -17831.500000 0 0 1
25.798960 29.412733 6.242550 39.618993 0.850758 1.412572 0.021870 -0.032840 -304137.000000 0 0 1
25.201960 28.203133 6.999450 38.464890 0.841536 1.387807 0.044821 -0.029615 -284916.000000 0 0 1
23.934460 27.911433 6.476850 37.334381 0.861956 1.396432 0.010161 -0.031286 -151558.000000 0 0 1
23.382060 26.643633 6.874350 36.109010 0.850504 1.379249 0.022078 -0.021812 -161819.000000 0 0 1
22.097360 26.236233 6.143850 34.847957 0.870821 1.393566 0.008487 -0.012018 -326281.000000 0 0 1
22.241560 25.957233 4.756950 34.512222 0.862337 1.432522 -0.001955 -0.011209 238484.000000 0 0 1
22.298060 27.139233 3.975450 35.348913 0.883012 1.458095 0.003299 -0.011395 -409828.000000 0 0 1
22.435860 26.780933 2.471250 35.024181 0.873454 1.500179 0.005524 -0.005833 581331.000000 0 0 1
23.696960 26.238233 2.007650 35.412165 0.836246 1.514072 0.003107 0.009004 977626.000000 0 0 1
23.557960 25.735733 0.740650 34.897765 0.829549 1.549571 0.020318 0.003364 340307.000000 0 0 1
24.908660 25.268833 0.121650 35.481968 0.792576 1.567368 0.032384 -0.003737 -161542.000000 0 0 1
25.861060 26.239733 -0.410550 36.844084 0.792666 1.581939 0.020969 -0.001968 1342240.000000 0 0 1
26.974340 25.789633 -1.184650 37.337964 0.762949 1.602529 0.029087 -0.001142 376830.000000 0 0 1
27.907790 24.836533 -0.477050 37.362089 0.727235 1.583565 0.031857 -0.006793 -1331930.000000 0 0 1
27.317500 23.539233 -0.589350 36.065061 0.711242 1.587138 0.034045 -0.009535 442268.000000 0 0 1
27.850930 22.622833 0.323850 35.882750 0.682186 1.561771 0.037018 -0.011458 -518092.000000 0 0 1
26.748540 21.780433 0.935050 34.507187 0.683380 1.543696 0.032590 -0.006565 -214880.000000 0 0 1
26.310460 20.646833 0.164050 33.444864 0.665366 1.565891 0.046577 -0.019681 1117790.000000 0 0 1
25.063660 20.136633 0.673250 32.157803 0.676823 1.549859 0.034177 -0.009471 313496.000000 0 0 1
24.620260 18.938633 -0.110950 31.061895 0.655695 1.574368 0.044302 -0.018898 78152.100000 0 0 1
23.319960 18.449333 0.228850 29.736354 0.669315 1.563100 0.035874 -0.013746 535731.000000 0 0 1
22.862960 17.489233 -0.706950 28.793888 0.653007 1.595351 0.047275 -0.028261 -341356.000000 0 0 1
21.379060 17.211933 -0.464250 27.450507 0.677833 1.587709 0.048744 -0.007728 -1697320.000000 0 0 1
20.862260 16.113733 -1.223150 26.389058 0.657675 1.617164 0.054631 -0.017319 129746.000000 0 0 1
19.565160 15.759733 -0.808250 25.135989 0.678086 1.602957 0.068250 -0.018365 -292437.000000 0 0 1
18.399760 16.708533 -1.076150 24.877386 0.737264 1.614068 0.061425 -0.025873 -1380590.000000 0 1 0
18.396860 17.980333 -0.457350 25.728311 0.773948 1.588573 0.048791 -0.021957 -188211.000000 0 0 1
17.409860 18.773133 -1.082650 25.626273 0.823058 1.613057 0.037244 -0.026945 59356.600000 0 0 1
17.432060 20.214833 -0.671650 26.701447 0.859182 1.595953 0.035136 -0.013434 -161321.000000 0 0 1
17.085560 20.269733 0.673350 26.518518 0.870433 1.545402 0.034235 -0.010744 23508.800000 0 0 1
17.355960 21.513433 1.278050 27.671114 0.891953 1.524593 0.032273 -0.010769 -1090120.000000 0 0 1
16.355660 22.638933 1.072750 27.949592 0.945157 1.532405 0.032966 -0.013749 -978682.000000 0 0 1
15.162060 22.333033 1.747450 27.050065 0.974367 1.506151 0.032269 -0.008391 -1001560.000000 0 0 1
14.204260 23.202633 1.274750 27.235054 1.021467 1.523974 0.018931 -0.005858 -395086.000000 0 0 1
12.787060 22.977533 1.873050 26.362554 1.062974 1.499687 0.020731 -0.007154 265360.000000 0 0 1
12.593660 23.467133 3.207150 26.825220 1.078260 1.450952 0.013516 0.002971 1438410.000000 0 0 1
11.222460 23.222733 3.653450 26.049695 1.120636 1.430083 0.007676 0.000981 1630290.000000 0 0 1
11.081860 23.378133 5.176350 26.384452 1.128142 1.373326 0.012744 -0.005959 50214.800000 0 0 1
11.832960 22.446533 5.912050 26.054138 1.085656 1.341888 0.018144 -0.036612 -11410.600000 0 0 1
11.181460 22.185533 7.133450 25.847805 1.103956 1.291188 0.023954 -0.032782 -853481.000000 0 0 1
11.881260 21.114333 7.974350 25.506267 1.058247 1.252822 0.022435 -0.031816 215324.000000 0 0 1
13.119460 21.435333 8.602650 26.563119 1.021565 1.240993 0.026797 -0.025806 -296164.000000 0 0 1
14.171560 21.403333 7.686850 26.795959 0.985949 1.279843 0.013102 -0.017224 -930674.000000 0 0 1
15.527260 21.571033 8.453250 27.890190 0.946892 1.262862 0.013117 -0.015554 -127855.000000 0 0 1
15.815960 20.313233 9.064150 27.293421 0.909239 1.232267 0.018533 -0.019511 295808.000000 0 0 1
16.934660 20.305533 9.965850 28.256248 0.875669 1.210346 0.011072 -0.015897 285679.000000 0 0 1
17.027260 21.278133 11.112550 29.430856 0.895919 1.183613 -0.004254 -0.005616 -957055.000000 0 0 1
16.127260 20.972733 12.138150 29.108052 0.915269 1.140651 0.007281 -0.012459 -304001.000000 0 0 1
16.191360 21.752933 13.313250 30.209152 0.930934 1.114415 0.014473 -0.002112 223873.000000 0 0 1
17.248160 21.297933 14.405450 30.961556 0.890077 1.086858 0.032824 0.002026 2049580.000000 0 0 1
18.617960 21.639433 14.006550 31.797436 0.860312 1.114649 0.029378 0.001386 954942.000000 0 0 1
19.517160 21.078233 14.924450 32.372066 0.823834 1.091642 0.020603 0.001536 599306.000000 0 0 1
21.015460 21.379633 14.584850 33.338508 0.793988 1.118005 0.032879 -0.004052 838041.000000 0 0 1
21.590560 20.736233 13.441950 32.815083 0.765217 1.148751 0.031432 -0.007596 -30922.200000 0 0 1
22.969660 21.002333 13.335450 33.860559 0.740688 1.165997 0.048978 -0.003077 -56755.900000 0 0 1
23.666960 20.619033 11.993050 33.602124 0.716683 1.205835 0.049621 -0.006777 68371.000000 0 0 1
23.246660 21.400933 10.889050 33.421229 0.744082 1.238925 0.049554 -0.008718 37693.700000 0 0 1
23.943160 21.083733 9.724450 33.352116 0.721978 1.274929 0.055350 -0.023495 -327166.000000 0 0 1
23.802560 22.240433 8.684350 33.713746 0.751484 1.310268 0.062425 -0.018763 58272.900000 0 0 1
24.300060 23.512833 9.202550 35.043304 0.768935 1.305075 0.056547 -0.020416 877687.000000 0 0 1
25.642060 23.743633 8.737350 36.022446 0.746976 1.325800 0.052033 -0.017197 427087.000000 0 0 1
26.241060 25.047133 9.312350 37.452262 0.762124 1.319514 0.072251 -0.014559 -481003.000000 0 0 1
27.535160 25.295333 8.849550 38.423345 0.743027 1.338393 0.059703 -0.017273 -229514.000000 0 0 1
28.110460 26.358033 9.535650 39.697260 0.753236 1.328215 0.060582 -0.017332 391640.000000 0 0 1
29.328370 27.113233 8.917650 40.924383 0.746172 1.351128 0.063968 -0.021238 486843.000000 0 0 1
29.005800 27.960133 7.816450 41.039034 0.767044 1.379162 0.071805 -0.024899 150781.000000 0 0 1
30.180270 28.144533 7.047050 41.864356 0.750509 1.401661 0.057560 -0.012323 -92555.700000 0 0 1
30.089770 29.189533 5.911650 42.336399 0.770213 1.430703 0.079753 -0.009710 8565.520000 0 0 1
30.227500 30.571433 6.273350 43.447315 0.791055 1.425900 0.068893 -0.016681 175869.000000 0 0 1
29.999420 31.406433 5.124950 43.733218 0.808308 1.453340 0.073716 -0.014335 27799.900000 0 0 1
29.995210 32.921133 5.369250 44.859140 0.831870 1.450817 0.038387 -0.004676 -140150.000000 0 0 1
28.986590 33.316833 6.248350 44.601296 0.854789 1.430241 0.024438 -0.014772 -303655.000000 0 0 1
29.122130 -34.062713 6.553150 45.291397 -0.863432 1.425598 0.011996 -0.002185 -360890.000000 0 0 1
27.842960 -33.428913 7.106650 44.082049 -0.876314 1.408876 0.033437 -0.018925 -24338.800000 0 0 1
26.831530 -33.540013 6.120550 43.385765 -0.896064 1.429251 0.020337 -0.022930 22897.300000 0 0 1
25.553860 -33.114913 6.592350 42.344495 -0.913569 1.414477 0.018424 -0.035148 431282.000000 0 0 1
24.464760 -33.248213 5.525750 41.647353 -0.936431 1.437724 0.023026 -0.024067 -193007.000000 0 0 1
24.727260 -32.316913 4.466650 40.936184 -0.917670 1.461466 -0.002229 0.003483 547814.000000 0 0 1
23.738160 -32.476613 3.432950 40.373454 -0.939612 1.485664 0.016020 -0.010851 631906.000000 0 0 1
24.274560 -31.790413 2.128550 40.055153 -0.918660 1.517631 0.025610 0.000900 87525.400000 0 0 1
24.416660 -30.379813 2.130950 39.033924 -0.893795 1.516177 0.034982 0.007428 -67060.900000 0 0 1
25.027760 -29.828013 0.997250 38.949886 -0.872683 1.545190 0.023800 0.009721 -405243.000000 0 0 1
25.249160 -28.280813 1.100050 37.928018 -0.841972 1.541789 0.035500 0.003798 946201.000000 0 0 1
24.059960 -27.452113 1.008750 36.517362 -0.851155 1.543169 0.017895 0.005393 712606.000000 0 0 1
23.305560 -27.488313 -0.193550 36.038783 -0.867560 1.576167 0.026576 0.004584 660381.000000 0 0 1
22.123360 -26.425613 -0.065450 34.463899 -0.873784 1.572695 0.012949 0.007798 545368.000000 0 0 1
22.501460 -25.039013 -0.057650 33.664093 -0.838724 1.572509 0.019454 -0.000416 -283425.000000 0 0 1
22.758260 -24.564113 1.250850 33.509680 -0.823540 1.533460 0.004307 0.008192 417327.000000 0 0 1
21.514660 -24.210413 2.151050 32.460001 -0.844286 1.504480 -0.001096 0.003414 205653.000000 0 0 1
21.686760 -23.450213 3.282550 32.109238 -0.824447 1.468387 -0.002080 -0.000990 -447077.000000 0 0 1
20.483360 -23.268113 3.993150 31.255693 -0.848962 1.442689 0.010293 0.000057 -233790.000000 0 0 1
20.671560 -22.429113 5.298850 30.958945 -0.826153 1.398792 0.008373 -0.000901 -43048.800000 0 0 1
20.750060 -21.029513 5.231950 30.002978 -0.792087 1.395519 0.021216 -0.003865 475495.000000 0 0 1
19.530160 -20.499213 4.702550 28.701199 -0.809602 1.406209 0.015741 0.003211 -272731.000000 0 0 1
19.484360 -18.950413 4.806150 27.601766 -0.771507 1.395779 0.018232 0.002724 139936.000000 0 0 1
19.049960 -18.398413 6.049050 27.166037 -0.768001 1.346244 0.038773 -0.007417 1408210.000000 0 0 1
17.666360 -18.674713 6.435650 26.500241 -0.813138 1.325491 0.027184 -0.004279 1470390.000000 0 0 1
18.635869 -26.569957 -11.973250 34.592151 -0.959139 1.924235 0.087337 -0.033596 -254251.000000 0 0 1
18.839569 -25.338627 -12.567150 33.983947 -0.931461 1.949586 0.086239 -0.036119 -520141.000000 0 0 1
17.658769 -24.850067 -13.137450 33.195640 -0.952983 1.977690 0.057833 -0.027028 -505872.000000 0 0 1
17.735469 -23.349467 -13.734650 32.378775 -0.921201 2.008860 0.055477 -0.029152 -70306.200000 0 0 1
17.885169 -22.297167 -12.828850 31.330852 -0.894760 1.992663 0.058172 -0.027322 -116400.000000 0 0 1
19.137369 -22.048767 -12.204550 31.643926 -0.855970 1.966745 0.055701 -0.032881 -273838.000000 0 0 1
19.376569 -22.894767 -10.854550 31.897383 -0.868436 1.918028 0.058560 -0.033455 120005.000000 0 0 1
18.613669 -22.527567 -9.684150 30.785430 -0.880246 1.890799 0.045526 -0.025257 132267.000000 0 0 1
17.225969 -22.689167 -9.812750 30.130091 -0.921423 1.902527 0.046644 -0.015270 -224532.000000 0 0 1
16.282169 -22.101967 -8.720350 28.803654 -0.935872 1.878375 0.021560 -0.011444 -467681.000000 0 0 1
16.145869 -20.641067 -8.629850 27.590162 -0.906991 1.888922 0.019986 -0.017223 -65474.500000 0 0 1
15.407869 -20.212267 -7.503850 26.499923 -0.919468 1.857889 0.017195 -0.017584 -479053.000000 0 0 1
13.898969 -20.233267 -7.775150 25.749163 -0.968892 1.877542 0.022157 -0.009623 -811979.000000 0 0 1
13.358869 -21.481567 -7.758050 26.459487 -1.014447 1.868374 0.009039 -0.007445 -3604.780000 0 0 1
11.950169 -21.473367 -8.023850 25.851387 -1.062968 1.886393 0.019665 -0.009644 1061270.000000 0 0 1
11.262369 -22.860967 -7.703150 26.623360 -1.113049 1.864332 0.021805 -0.002359 278155.000000 0 0 1
11.332069 -23.189967 -6.337050 26.577219 -1.116260 1.811555 0.024940 -0.000296 -221861.000000 0 0 1
10.545669 -24.292667 -6.079650 27.171804 -1.161236 1.796455 0.019376 0.005273 -179998.000000 0 0 1
10.826669 -24.742367 -4.602250 27.396755 -1.158322 1.739582 0.027917 -0.003301 416425.000000 0 0 1
10.166669 -25.940227 -4.138550 28.167075 -1.197269 1.718259 0.037982 -0.004416 126505.000000 0 0 1
10.932369 -26.377557 -3.030450 28.713687 -1.177889 1.676534 0.031123 -0.004931 634052.000000 0 0 1
10.038569 -27.222527 -2.057650 29.087330 -1.217508 1.641596 0.044702 -0.007133 30242.800000 0 0 1
9.056769 -26.478277 -1.430550 28.020897 -1.241226 1.621872 0.033785 -0.004815 -906639.000000 0 0 1
8.444569 -27.364237 -0.519250 28.642308 -1.271470 1.588926 0.042715 -0.012061 27336.800000 0 0 1
7.723069 -26.690317 0.670550 27.793317 -1.289131 1.546668 0.047024 -0.004791 -61351.800000 0 0 1
6.436869 -26.222897 0.360050 27.003763 -1.330088 1.557463 0.042778 -0.017044 -705106.000000 0 0 1
5.850369 -25.660847 1.466350 26.360123 -1.346640 1.515140 0.035975 -0.007377 -210978.000000 0 0 1
4.439169 -25.094587 1.228050 25.513773 -1.395710 1.522645 0.045672 -0.020670 -202604.000000 0 0 1
3.493669 -26.050257 0.850950 26.297257 -1.437479 1.538432 0.056966 -0.025320 -303274.000000 0 0 1
2.209869 -25.478077 1.058350 25.595625 -1.484277 1.529436 0.039774 -0.025440 384099.000000 0 0 1
0.999669 -26.274637 0.501250 26.298425 -1.532768 1.551735 0.039781 -0.022847 344527.000000 0 0 1
0.562969 -27.384307 1.277350 27.419862 -1.550241 1.524195 0.039270 -0.016771 -233496.000000 0 0 1
1.146869 -28.574207 0.891250 28.611098 -1.530681 1.539641 0.034975 -0.022190 -649561.000000 0 0 1
0.491969 -29.746517 1.582850 29.792662 -1.554259 1.517642 0.047501 -0.009895 48130.700000 0 0 1
0.817369 -29.706567 2.925650 29.861474 -1.543289 1.472665 0.045392 -0.007784 232861.000000 0 0 1
0.132569 -30.761937 3.610550 30.973382 -1.566487 1.453961 0.050788 -0.003913 219876.000000 0 0 1
0.324069 -30.557697 5.135750 30.987962 -1.560192 1.404294 0.042970 -0.001836 48825.100000 0 0 1
1.640869 -30.951127 5.446750 31.469538 -1.517831 1.396840 0.035998 0.006409 -165559.000000 0 0 1
1.776369 -30.667637 6.823350 31.467722 -1.512938 1.352224 0.033713 0.001664 -81161.900000 0 0 1
3.136369 -31.026957 7.435450 32.059239 -1.470053 1.336737 0.030758 0.006482 -106399.000000 0 0 1
3.419769 -32.364707 7.285750 33.350431 -1.465523 1.350560 0.032578 0.002187 -1056320.000000 0 0 1
4.712369 -32.627947 7.689350 33.851373 -1.427361 1.341646 0.024274 0.001335 -1006250.000000 0 0 1
4.874669 -34.151964 7.603550 35.326095 -1.429019 1.353860 0.032742 0.005691 -152783.000000 0 0 1
5.022769 34.136525 6.270850 35.069276 1.424707 1.391016 0.030845 -0.000720 -98226.000000 0 0 1
5.190269 32.739121 6.269350 33.735644 1.413571 1.383872 0.011792 -0.006640 -159116.000000 0 0 1
5.721269 32.063969 4.952850 32.944829 1.394222 1.419886 0.026950 -0.015200 -57933.100000 0 0 1
7.082769 32.353959 4.713950 33.453933 1.355281 1.429417 0.025426 -0.013806 -217071.000000 0 0 1
7.697869 31.097289 4.389750 32.335251 1.328133 1.434618 0.027114 -0.001951 64863.900000 0 0 1
9.159769 31.248819 3.893450 32.795564 1.285660 1.451797 -0.003847 0.008538 514878.000000 0 0 1
10.100969 31.531579 4.937650 33.476117 1.260781 1.422759 0.000614 0.003482 -351946.000000 0 0 1
11.357869 31.748279 4.355650 33.998913 1.227236 1.442332 0.008998 0.007194 23705.800000 0 0 1
12.483369 32.027689 5.404750 34.796820 1.199142 1.414842 0.013289 0.001771 358098.000000 0 0 1
12.717469 30.951319 6.279050 34.046213 1.180941 1.385307 0.016042 -0.001483 -508881.000000 0 0 1
13.940169 31.052339 6.941750 34.738508 1.148837 1.369613 0.036418 -0.004614 -245827.000000 0 0 1
14.219769 29.813889 7.885950 33.959653 1.125757 1.336442 0.040081 -0.000218 114225.000000 0 0 1
13.583769 29.915809 9.160250 34.108424 1.144566 1.298896 0.035146 -0.003728 295050.000000 0 0 1
13.997569 28.844109 9.957350 33.571765 1.118991 1.269667 0.024860 -0.000870 9558.130000 0 0 1
13.866769 28.961689 11.497050 34.106434 1.124255 1.226969 0.032971 -0.002289 -109830.000000 0 0 1
14.588769 30.021189 12.061450 35.490598 1.118453 1.224040 0.042473 -0.015970 -42422.000000 0 0 1
14.352669 30.107959 13.419950 35.952515 1.125956 1.188266 0.040665 -0.004923 64212.000000 0 0 1
15.269269 31.210739 14.062950 37.483695 1.115801 1.186211 0.043317 -0.001418 753309.000000 0 0 1
16.535869 30.726129 14.507550 37.788874 1.077081 1.176769 0.042016 -0.011083 241595.000000 0 0 1
17.323369 31.814789 14.970850 39.197018 1.072180 1.178903 0.047285 -0.007906 278511.000000 0 0 1
18.524769 31.350709 15.853850 39.716226 1.037104 1.160176 0.044204 -0.008762 988896.000000 0 0 1
19.706769 30.858959 15.196350 39.642920 1.002471 1.177397 0.020308 -0.004588 634325.000000 0 0 1
19.782869 29.497279 14.872650 38.505157 0.980029 1.174233 0.017082 -0.002612 -240360.000000 0 0 1
21.106969 29.090049 14.206950 38.646766 0.943112 1.194358 0.040724 -0.003671 519667.000000 0 0 1
22.281969 29.415159 14.956750 39.817610 0.922513 1.185718 0.041755 -0.010099 955507.000000 0 0 1
23.498369 29.087379 14.252050 40.017120 0.891284 1.206653 0.035189 0.000864 420501.000000 0 0 1
24.705669 29.134949 15.179250 41.105048 0.867480 1.192563 0.037127 0.000741 -580757.000000 0 0 1
24.825069 27.981769 16.021750 40.693487 0.845105 1.166124 0.035649 0.007637 90859.500000 0 0 1
25.452269 28.244049 17.289750 41.766970 0.837343 1.143999 0.009764 0.006575 -413803.000000 0 0 1
26.327369 27.035729 17.651050 41.660780 0.798672 1.133287 -0.013779 0.019161 -268016.000000 0 0 1
25.662369 25.988389 18.377650 40.886325 0.791710 1.104611 0.002634 0.018883 121200.000000 0 0 1
25.378069 26.159499 19.740450 41.449380 0.800559 1.074406 0.019519 0.016916 6799.370000 0 0 1
24.825169 24.879129 20.432250 40.653867 0.786484 1.044204 0.026221 0.012327 -621990.000000 0 0 1
25.753569 23.851029 20.647450 40.723888 0.747063 1.039083 0.009434 0.017389 -532394.000000 0 0 1
25.177569 22.596279 20.698650 39.660256 0.731419 1.021721 0.014979 0.005514 -103590.000000 0 0 1
26.208669 21.419379 20.665350 39.657796 0.685179 1.022667 -0.002725 0.008140 156738.000000 0 0 1
25.557669 20.165379 20.745550 38.603300 0.668007 1.003441 -0.002091 0.016768 -61719.900000 0 0 1
26.444469 19.089979 20.896250 38.734874 0.625266 1.000990 0.005769 0.006341 -394699.000000 0 0 1
26.930169 18.836479 22.352650 39.745288 0.610361 0.973514 0.023266 0.007884 -403704.000000 0 0 1
25.989869 18.254379 23.227850 39.347537 0.612312 0.939334 0.005583 0.018650 -190504.000000 0 0 1
26.471869 17.942079 24.510950 40.292241 0.595656 0.916842 0.025505 0.007487 -161834.000000 0 0 1
25.430569 17.154879 25.323250 39.777766 0.593459 0.880691 0.017688 0.004516 -53992.000000 0 0 1
25.189269 15.870179 24.768950 38.728061 0.562213 0.876870 0.013763 -0.001570 -67869.600000 0 0 1
24.162869 15.194279 25.430950 38.228832 0.561347 0.842995 0.010673 0.004955 -433077.000000 0 0 1
23.637469 13.918479 24.737150 36.937523 0.532167 0.836988 0.005920 0.005294 -507065.000000 0 0 1
22.663769 13.359279 25.584250 36.697011 0.532630 0.799347 -0.003760 0.003232 -225904.000000 0 0 1
22.196469 12.263079 24.896250 35.537158 0.504744 0.794601 0.005713 0.005778 -1044630.000000 0 0 1
20.864869 11.676779 25.310950 34.818589 0.510213 0.756944 0.009988 0.000448 80669.100000 0 0 1
19.703869 12.438679 24.899950 34.102356 0.563103 0.752250 0.019888 0.001108 553074.000000 0 0 1
18.546069 11.795279 25.354250 33.554780 0.566470 0.714215 0.029483 0.000061 -1148760.000000 0 0 1
17.293969 12.598379 25.368150 33.186496 0.629588 0.700668 0.026992 -0.008037 -1019290.000000 0 0 1
17.284869 13.503979 26.475150 34.381066 0.663209 0.691876 0.043480 -0.007530 -220958.000000 0 0 1
16.062369 14.179179 26.585050 34.144014 0.723207 0.678340 0.060508 -0.007074 -306617.000000 0 0 1
15.684869 14.539779 28.031950 35.259190 0.747530 0.651747 0.052007 -0.000115 -166083.000000 0 0 1
15.165469 13.439679 28.826550 35.236152 0.725140 0.612704 0.045718 0.001553 146775.000000 0 0 1
15.356169 13.527979 30.215150 36.493471 0.722189 0.595335 0.039100 0.004056 -464891.000000 0 0 1
16.797669 13.258579 30.690850 37.414969 0.668189 0.608891 0.037136 0.008362 -532994.000000 0 0 1
17.566169 14.369879 30.363050 37.907499 0.685646 0.641870 0.047779 0.000748 167608.000000 0 0 1
18.920069 13.942379 30.175850 38.248410 0.635070 0.661708 0.035816 0.013794 289147.000000 0 0 1
19.985069 14.999879 29.847750 38.926694 0.643856 0.697005 0.033729 0.007737 -235677.000000 0 0 1
19.920269 15.647379 28.529150 38.151933 0.665837 0.726088 0.039997 0.001855 160487.000000 0 0 1
19.997669 14.796779 27.333150 36.958795 0.637022 0.738384 0.038887 -0.001810 -508685.000000 0 0 1
19.872169 15.559279 25.982250 36.222529 0.664269 0.770884 0.030182 -0.005037 -340010.000000 0 0 1
20.920469 16.458579 25.726950 37.019276 0.666592 0.802431 0.030247 0.005427 -94711.900000 0 0 1
20.757969 17.091879 24.505050 36.380257 0.688841 0.831753 0.022343 0.001000 869868.000000 0 0 1
22.014969 17.983579 24.096550 37.265422 0.684949 0.867652 0.015653 0.004673 848077.000000 0 0 1
21.747169 18.695779 22.909350 36.705719 0.710092 0.896771 0.018269 -0.002952 -360233.000000 0 0 1
22.822669 19.527679 22.595450 37.586684 0.707751 0.925850 0.017530 0.006158 -334754.000000 0 0 1
22.936469 20.934679 23.246650 38.791096 0.739801 0.928197 0.030782 -0.010293 -500050.000000 0 0 1
22.223069 21.932879 22.597350 38.542914 0.778826 0.944324 0.032939 -0.003910 -255351.000000 0 0 1
22.253469 23.197879 23.241350 39.667604 0.806174 0.944803 0.048240 -0.014019 -124734.000000 0 0 1
21.294369 24.313509 22.778550 39.540602 0.851499 0.956872 0.055371 -0.028774 -113243.000000 0 0 1
21.697969 24.866009 21.555550 39.417788 0.853330 0.992201 0.059114 -0.017030 16961.500000 0 0 1
21.060569 26.111839 21.326050 39.751429 0.892073 1.004530 0.062319 -0.025005 43522.000000 0 0 1
21.553369 26.806029 20.001650 39.789156 0.893591 1.044087 0.055696 -0.019723 -117471.000000 0 0 1
21.131369 26.246579 18.794150 38.582868 0.892948 1.062017 0.051213 -0.011401 -504101.000000 0 0 1
21.707369 26.940359 17.812650 38.913793 0.892555 1.095338 0.043970 -0.017351 -508926.000000 0 0 1
21.787369 26.293599 16.373750 37.870074 0.878847 1.123681 0.027770 0.000839 866562.000000 0 0 1
20.458069 25.947359 15.916550 36.676076 0.903141 1.121895 0.019122 0.000338 637953.000000 0 0 1
20.472469 25.446679 14.594650 35.772325 0.893303 1.150548 0.022876 0.005483 -162738.000000 0 0 1
19.149569 24.792709 14.098750 34.353445 0.913121 1.147901 0.023440 0.002138 1140720.000000 0 0 1
18.007969 25.647879 13.910250 34.286961 0.958647 1.153051 0.018751 0.008679 748570.000000 0 0 1
17.260069 25.868839 15.153350 34.593798 0.982414 1.117383 0.023864 -0.004792 -858853.000000 0 0 1
15.805569 26.221599 14.855650 34.030554 1.028343 1.119049 0.015863 -0.000584 -345063.000000 0 0 1
14.993469 25.063779 14.488550 32.602380 1.031692 1.110290 0.022167 0.002468 579645.000000 0 0 1
14.538069 24.171629 15.547650 32.207957 1.029310 1.067030 0.030981 -0.001563 -268905.000000 0 0 1
13.540869 24.704169 16.574850 32.686033 1.069397 1.038988 0.042477 -0.017426 -447324.000000 0 0 1
14.145769 25.671649 17.469650 34.122207 1.067165 1.033316 0.047485 -0.011245 -54921.900000 0 0 1
13.259569 26.459969 18.226250 34.758342 1.106255 1.018821 0.041498 -0.023809 -123108.000000 0 0 1
13.943869 27.690469 18.919350 36.319903 1.104303 1.022881 0.045625 -0.029490 -344110.000000 0 0 1
14.128069 28.765229 18.062250 36.787030 1.114253 1.057565 0.040712 -0.024826 -89508.400000 0 0 1
14.974369 29.748729 18.577850 38.136008 1.104463 1.061976 0.030945 -0.028218 -569244.000000 0 0 1
14.845369 31.108969 17.830750 38.808357 1.125550 1.093413 0.039100 -0.025533 47781.600000 0 0 1
13.527169 31.614189 17.859450 38.747919 1.166486 1.091772 0.032708 -0.018770 -20256.900000 0 0 1
13.390869 32.769157 17.082150 39.305634 1.182862 1.121204 0.033407 -0.010443 1823140.000000 0 0 1
11.925969 33.402867 17.369350 39.492715 1.227869 1.115408 0.041572 -0.012149 1703570.000000 0 0 1
11.760369 -34.012887 16.719050 39.682608 -1.237902 1.135897 0.044320 -0.010276 -61270.800000 0 0 1
12.417769 -32.870857 17.272250 39.153861 -1.209596 1.113930 0.035185 -0.015427 89675.800000 0 0 1
12.107669 -32.543217 18.825350 39.497474 -1.214615 1.073989 0.035007 -0.019882 -316585.000000 0 0 1
12.739869 -33.558217 19.552650 40.874984 -1.207968 1.072019 0.042982 -0.020720 54130.700000 0 0 1
12.622169 -33.297657 20.957550 41.319148 -1.208462 1.038850 0.039663 -0.011207 449343.000000 0 0 1
13.754469 -33.935007 21.882550 42.656958 -1.185714 1.032133 0.047078 -0.016174 -184313.000000 0 0 1
14.965069 -33.326787 21.633850 42.457643 -1.148741 1.036147 0.042829 -0.017559 -1327240.000000 0 0 1
15.941869 -33.830217 22.495950 43.642806 -1.130427 1.029257 0.036313 -0.019906 247891.000000 0 0 1
17.354969 -33.196157 22.346250 43.618054 -1.089075 1.032916 0.053755 -0.018471 487785.000000 0 0 1
17.318269 -31.768237 22.567850 42.643302 -1.071689 1.013111 0.062311 -0.014370 -898113.000000 0 0 1
18.459069 -31.253517 22.017850 42.453566 -1.037300 1.025544 0.070582 -0.009821 -939139.000000 0 0 1
-4.254931 13.065633 18.620449 23.141658 -1.255969 0.635746 0.017516 0.001053 -934093.000000 0 1 0
-4.112031 14.342733 18.076949 23.439259 -1.291588 0.690033 0.008585 -0.000086 -239767.000000 0 1 0
-5.366731 14.952933 17.938249 23.961903 -1.226208 0.724825 0.019530 -0.007157 -424097.000000 0 1 0
-5.277331 16.481933 17.729249 24.775605 -1.260922 0.773324 0.023903 -0.002088 -215843.000000 0 1 0
-4.843131 17.155633 18.893749 25.975862 -1.295651 0.756332 0.014098 -0.001087 283266.000000 0 0 1
-4.440931 18.472333 18.544349 26.548858 -1.334864 0.797499 0.011266 -0.002906 -372476.000000 0 0 1
-3.917531 19.235833 19.768649 27.859717 -1.369886 0.781897 0.017662 -0.006176 326457.000000 0 0 1
-4.924931 19.519433 20.764149 28.920808 -1.323646 0.769921 0.010659 -0.001811 555935.000000 0 0 1
-4.429931 20.314333 21.790749 30.118652 -1.356088 0.761942 0.017464 -0.000119 -371869.000000 0 0 1
-5.495131 20.435333 22.868649 31.157253 -1.308107 0.746640 0.018776 0.003246 -179340.000000 0 0 1
-5.549731 19.235333 23.611599 30.956505 -1.289907 0.703265 0.007731 -0.003197 -100163.000000 0 0 1
-6.269131 19.280033 24.830139 32.055538 -1.256418 0.684718 -0.002996 0.000477 32287.000000 0 0 1
-5.512231 19.881133 26.044779 33.226114 -1.300331 0.669931 -0.007080 -0.000899 -657303.000000 0 0 1
-5.229431 21.281033 25.782409 33.837286 -1.329839 0.704474 0.000568 -0.003953 410037.000000 0 0 1
-4.168431 21.804633 26.611599 34.655376 -1.381904 0.695252 0.010274 0.000875 804782.000000 0 0 1
-2.749231 21.358433 26.175309 33.895247 -1.442781 0.688435 0.021810 0.002101 -557818.000000 0 0 1
-2.366431 20.241733 26.898119 33.746653 -1.454416 0.648385 0.028975 0.002322 -1242910.000000 0 0 1
-1.108531 19.856733 26.520579 33.149054 -1.515028 0.643434 0.038356 0.002072 -570340.000000 0 0 1
-0.387631 18.709833 27.352349 33.141501 -1.550081 0.600027 0.030100 0.009819 30371.400000 0 0 1
-0.850931 17.393833 26.965439 32.099913 -1.521914 0.573426 0.028779 0.010868 -185746.000000 0 0 1
-0.132131 16.293433 27.449429 31.921225 -1.562687 0.535700 0.028437 0.003387 -313755.000000 0 0 1
1.284469 16.132133 26.831639 31.334206 1.491342 0.542724 0.023192 0.003076 -344043.000000 0 0 1
1.357969 16.141533 25.388159 30.115640 1.486865 0.567919 0.016284 0.007816 -281748.000000 0 0 1
1.000269 14.881833 24.876459 29.005305 1.503683 0.540110 0.017052 0.003161 -268791.000000 0 0 1
1.057769 14.826633 23.348149 27.678222 1.499575 0.566924 0.019712 -0.016636 62708.400000 0 0 1
2.331569 14.949233 22.739049 27.312637 1.416077 0.587107 0.014489 -0.010807 -21882.400000 0 0 1
2.350669 14.116333 21.598249 25.909089 1.405789 0.585173 0.006573 -0.009939 811248.000000 0 0 1
3.822069 13.946933 21.064549 25.550741 1.303319 0.601619 0.000108 -0.000529 1099850.000000 0 0 1
4.334469 15.041333 20.291949 25.627964 1.290227 0.657063 0.011310 -0.006120 720101.000000 0 0 1
5.727669 14.897133 19.971749 25.565632 1.203739 0.674218 0.016754 -0.009095 780203.000000 0 0 1
6.166169 15.912033 18.918849 25.478173 1.201098 0.733925 0.029203 -0.013864 -55022.000000 0 0 1
6.085569 15.400633 17.630149 24.187514 1.194477 0.754090 0.028353 -0.022105 452230.000000 0 1 0
6.718669 16.380433 16.765749 24.383385 1.181558 0.812633 0.034706 -0.019997 254549.000000 0 1 0
6.698169 15.861233 15.315749 23.043792 1.171216 0.843789 0.029633 -0.017668 558238.000000 0 1 0
7.787069 15.036533 14.853449 22.524669 1.092950 0.850736 0.027388 -0.017040 494535.000000 0 1 0
7.846569 13.698633 15.286349 21.974842 1.050617 0.801500 0.024389 -0.016653 38444.000000 0 1 0
8.960869 12.913133 14.518849 21.397270 0.964153 0.825027 0.028657 -0.018065 554926.000000 0 1 0
10.248569 13.376733 14.942149 22.521944 0.917040 0.845378 0.035264 -0.019052 -310109.000000 0 1 0
11.212569 12.787733 14.155549 22.127526 0.850935 0.876655 0.040624 -0.013586 -895532.000000 0 1 0
12.596269 13.442533 14.198949 23.258930 0.817887 0.914139 0.041554 -0.006292 -910166.000000 0 1 0
13.134369 13.139633 15.457749 24.168236 0.785599 0.876832 0.033908 -0.009612 54025.400000 0 1 0
14.418169 13.657733 15.769749 25.359461 0.758320 0.899695 0.033539 -0.005777 1423590.000000 0 0 1
15.647369 13.054133 14.945949 25.271168 0.695291 0.937974 0.042161 -0.011468 -31590.100000 0 0 1
16.884569 13.699933 14.996249 26.413336 0.681646 0.967023 0.044900 -0.014947 16090.800000 0 0 1
17.706269 13.183733 13.950149 26.113779 0.640023 1.007228 0.050579 -0.013912 991013.000000 0 0 1
19.190369 13.700933 13.937849 27.390682 0.620026 1.036944 0.053107 -0.008923 773068.000000 0 0 1
19.996469 13.489233 15.048349 28.430107 0.593462 1.013009 0.041572 -0.008304 409621.000000 0 0 1
21.356869 13.826233 14.743549 29.404979 0.574539 1.045584 0.035599 -0.013508 543127.000000 0 0 1
22.310569 13.568133 15.903849 30.574305 0.546389 1.023746 0.055482 -0.009945 -286363.000000 0 0 1
22.404869 12.179933 16.270449 30.249900 0.497939 1.002890 0.053483 -0.009141 139541.000000 0 0 1
23.041469 12.016033 17.496749 31.327792 0.480696 0.978213 0.048796 -0.008934 -295190.000000 0 0 1
23.367769 10.526933 17.822649 31.217235 0.423261 0.963166 0.054648 0.003693 -347068.000000 0 0 1
22.235369 9.777933 18.165349 30.331494 0.414295 0.928677 0.045689 0.001410 247831.000000 0 0 1
22.414469 8.417433 17.801749 29.835614 0.359240 0.931462 0.035069 0.011057 -205290.000000 0 0 1
21.107969 7.713533 18.187249 28.910569 0.350356 0.890419 0.052912 0.001644 -197615.000000 0 0 1
21.108869 6.296933 17.975549 28.431604 0.289903 0.886358 0.056172 -0.002078 493720.000000 0 0 1
19.852569 5.695733 18.257949 27.566621 0.279397 0.846884 0.048233 -0.002169 31189.400000 0 0 1
19.570069 4.292933 17.675749 26.717952 0.215942 0.847888 0.051514 0.000475 -644103.000000 0 0 1
19.012769 4.308533 16.385749 25.466480 0.222849 0.871833 0.054016 -0.007399 357595.000000 0 0 1
18.872169 3.015133 15.758849 24.770771 0.158427 0.881250 0.050552 -0.014990 -17833.400000 0 1 0
17.888069 1.966633 16.367449 24.325790 0.109501 0.832751 0.052043 -0.005636 -44504.400000 0 1 0
18.438669 1.287033 17.455549 25.423162 0.069688 0.813994 0.050394 -0.012017 -20841.300000 0 0 1
17.462769 1.088533 18.463049 25.436537 0.062254 0.758530 0.037249 -0.006004 -130365.000000 0 0 1
17.959769 0.265833 19.655049 26.626020 0.014801 0.740414 0.044716 -0.012237 101841.000000 0 0 1
18.311569 -1.133667 19.429749 26.722910 -0.061831 0.756734 0.041727 -0.008347 54032.900000 0 0 1
17.216069 -1.954867 19.807849 26.316638 -0.113065 0.718682 0.019399 -0.003807 70958.700000 0 0 1
17.293869 -3.444467 19.411549 26.224998 -0.196600 0.737440 0.004839 -0.000605 -220856.000000 0 0 1
16.976069 -3.641167 18.019349 25.022829 -0.211287 0.766826 0.007340 0.000404 279801.000000 0 0 1
17.181469 -4.987867 17.554549 25.064794 -0.282539 0.794885 0.035375 -0.002748 -108108.000000 0 0 1
16.896069 -5.017867 16.028149 23.823470 -0.288688 0.832825 0.034877 -0.004476 -98538.400000 0 1 0
15.649369 -4.507967 15.588649 22.543968 -0.280468 0.807264 0.026966 -0.007047 133690.000000 0 1 0
15.463469 -4.505667 14.158949 21.445180 -0.283525 0.849659 0.034779 -0.010411 133436.000000 0 1 0
16.021769 -3.286667 13.394949 21.140575 -0.202331 0.884582 0.040031 -0.008370 320477.000000 0 1 0
15.095169 -2.177067 13.420449 20.315319 -0.143235 0.849169 0.026549 -0.005983 450479.000000 0 1 0
15.576969 -0.981167 12.854249 20.219703 -0.062905 0.881844 0.030145 -0.009620 33727.100000 0 1 0
14.536269 0.180133 12.866049 19.413160 0.012391 0.846313 0.035519 -0.009588 -281965.000000 0 1 0
15.001869 1.425733 12.342849 19.479084 0.094752 0.884539 0.042596 -0.015053 605476.000000 0 1 0
15.979969 2.111933 13.151349 20.803309 0.131400 0.886438 0.055400 -0.019379 384448.000000 0 1 0
16.239269 3.540433 12.611249 20.863656 0.214658 0.921708 0.056387 -0.021825 20203.600000 0 1 0
15.220669 4.432333 13.015249 20.511242 0.283368 0.883380 0.053272 -0.015881 401975.000000 0 1 0
15.321569 5.672833 12.264549 20.429162 0.354601 0.926864 0.064282 -0.022009 880665.000000 0 1 0
14.155169 6.656533 12.717549 20.159720 0.439569 0.888162 0.050338 -0.015372 718302.000000 0 1 0
14.217369 7.814633 11.932649 20.139270 0.502577 0.936629 0.036177 -0.022638 627412.000000 0 1 0
13.245769 8.832233 12.253049 20.089698 0.588093 0.914840 0.029726 -0.009729 -191150.000000 0 1 0
13.510469 9.513233 13.647649 21.431115 0.613498 0.880436 0.033596 -0.012843 -448677.000000 0 1 0
12.967769 8.866133 14.789549 21.575498 0.599706 0.815535 0.021538 -0.013313 183644.000000 0 1 0
13.538069 9.354533 15.965949 22.928108 0.604646 0.800499 0.032990 -0.016732 -551238.000000 0 1 0
13.096869 8.866133 17.363049 23.486417 0.595099 0.738795 0.029967 -0.017129 -1199800.000000 0 1 0
11.853869 9.329733 17.721749 23.272699 0.666802 0.705199 0.018704 -0.008260 -1091850.000000 0 1 0
11.339169 8.641033 18.862349 23.643867 0.651170 0.647210 0.030188 -0.000536 -128443.000000 0 1 0
11.984469 8.903033 20.265949 25.171416 0.638929 0.634923 0.045577 -0.004585 689699.000000 0 0 1
13.304669 8.323633 20.308149 25.665502 0.559043 0.657925 0.047230 -0.010056 579396.000000 0 0 1
13.869169 8.343033 21.605149 26.995231 0.541560 0.642947 0.037357 -0.008431 -896628.000000 0 0 1
15.348069 8.082233 21.572849 27.681646 0.484697 0.677217 0.038975 -0.006995 -335615.000000 0 0 1
16.199069 9.152533 21.097849 28.130018 0.514289 0.722716 0.053323 -0.007053 625968.000000 0 0 1
17.062269 8.824033 20.013849 27.740561 0.477286 0.764880 0.049424 -0.007535 100527.000000 0 0 1
17.654369 10.117333 19.453449 28.150912 0.520389 0.807867 0.051870 -0.009216 20922.800000 0 0 1
18.721169 10.778533 20.127849 29.526078 0.522391 0.820716 0.040050 -0.013184 173003.000000 0 0 1
19.317969 11.638333 19.208649 29.624431 0.542227 0.865308 0.042696 -0.013357 -205848.000000 0 0 1
20.362869 12.471733 19.964949 31.125388 0.549541 0.874428 0.033058 -0.006182 -665600.000000 0 0 1
19.722569 13.406633 20.836749 31.668402 0.597013 0.852681 0.024570 -0.006032 -56654.600000 0 0 1
20.445369 13.855933 21.962549 33.050772 0.595606 0.843959 0.011156 0.005770 -202793.000000 0 0 1
21.650969 14.801133 21.598849 33.975701 0.599651 0.881862 -0.002801 0.003899 922941.000000 0 0 1
22.821669 14.068433 21.219249 34.190729 0.552428 0.901271 -0.010600 0.014125 111710.000000 0 0 1
23.983169 14.848833 21.216549 35.296207 0.554371 0.925920 -0.010579 0.016723 1386530.000000 0 0 1
25.365669 14.038633 21.147949 35.885041 0.505488 0.940573 -0.005078 0.007432 1178750.000000 0 0 1
25.667369 13.392233 19.892649 35.126674 0.480905 0.968772 0.001087 0.008965 80536.300000 0 0 1
26.985169 12.902833 19.829849 35.887398 0.446012 0.985367 0.024572 -0.003617 -75446.400000 0 0 1
27.313969 12.035133 18.566049 35.151039 0.415028 1.014341 0.041890 -0.005086 -216262.000000 0 0 1
27.461369 12.900133 17.463249 35.007218 0.439161 1.048528 0.037899 -0.007527 203135.000000 0 0 1
27.839169 12.135733 16.326349 34.479632 0.411086 1.077528 0.053819 -0.016629 -113529.000000 0 0 1
26.777169 11.941433 15.215849 33.032358 0.419486 1.092086 0.057281 -0.023154 -106617.000000 0 0 1
26.448769 13.188833 14.669249 32.994993 0.462572 1.110080 0.064805 -0.015010 903716.000000 0 0 1
25.477569 12.824133 13.620749 31.608380 0.466324 1.125282 0.058953 -0.008528 789060.000000 0 0 1
25.115669 13.954333 12.621049 31.381700 0.507135 1.156901 0.053220 -0.007482 262002.000000 0 0 1
24.243369 14.957433 13.159249 31.378840 0.552804 1.138048 0.046046 -0.016506 453531.000000 0 0 1
24.042669 15.958933 12.160949 31.314951 0.585998 1.171963 0.048645 -0.013111 5876.100000 0 0 1
23.082769 17.046033 12.731949 31.392419 0.636084 1.153190 0.037254 -0.013499 436801.000000 0 0 1
21.756569 16.543833 12.901049 30.223894 0.650128 1.129790 0.037215 -0.012618 187526.000000 0 0 1
20.822469 17.486733 13.320149 30.278498 0.698543 1.115286 0.031106 -0.008153 -791927.000000 0 0 1
20.032569 18.260733 12.226349 29.736204 0.739161 1.147070 0.034678 -0.001514 -13544.900000 0 0 1
18.892269 17.641033 11.666149 28.358824 0.751162 1.146833 0.025947 -0.005226 -479135.000000 0 0 1
17.783469 17.531633 12.492649 27.922683 0.778267 1.106939 0.013476 0.001783 -1576560.000000 0 0 1
16.681569 16.806033 11.739549 26.429803 0.789115 1.110539 0.020268 -0.003785 -617027.000000 0 0 1
16.826569 15.408733 11.622849 25.605724 0.741443 1.099641 0.037789 -0.004151 -170046.000000 0 0 1
15.706069 14.965333 10.921249 24.288176 0.761252 1.104420 0.041122 -0.013545 -255507.000000 0 1 0
15.840769 13.652633 10.154449 23.247305 0.711343 1.118757 0.053197 -0.016847 -336929.000000 0 1 0
15.866569 12.514433 11.003049 23.009262 0.667831 1.072191 0.057589 -0.012747 478083.000000 0 1 0
16.370469 11.441933 10.209949 22.431076 0.610012 1.098233 0.060502 -0.012442 -69331.100000 0 1 0
16.733669 10.197133 11.138649 22.540335 0.547287 1.053922 0.066492 -0.015957 -92444.900000 0 1 0
17.697969 9.422433 10.394149 22.584036 0.489232 1.092527 0.083958 -0.015837 968376.000000 0 1 0
18.244769 8.273533 11.095549 22.900527 0.425739 1.064993 0.096758 -0.014902 205890.000000 0 1 0
19.253569 8.551933 12.218649 24.354278 0.417998 1.045228 0.072192 -0.017665 -683257.000000 0 1 0
18.714169 9.217633 13.318849 24.750285 0.457669 1.002580 0.059713 -0.017551 217768.000000 0 1 0
19.718469 9.394133 14.314249 26.114469 0.444601 0.990664 0.062647 -0.005937 -689591.000000 0 0 1
19.124669 9.859033 15.679549 26.623331 0.475982 0.941049 0.044511 -0.008951 297846.000000 0 0 1
18.303269 8.990633 16.438549 26.192881 0.456586 0.892335 0.045876 -0.008778 1072720.000000 0 0 1
17.156069 8.478833 15.726349 24.769727 0.459011 0.882915 0.045127 -0.017942 -655475.000000 0 1 0
16.688769 7.086333 16.220749 24.327841 0.401546 0.840948 0.042789 -0.007324 -818136.000000 0 1 0
15.969269 7.168333 17.409449 24.687881 0.421925 0.788117 0.052285 -0.006806 -105072.000000 0 1 0
15.498169 5.938733 17.908349 24.416608 0.365931 0.747413 0.052996 0.010242 302978.000000 0 1 0
14.331269 5.228033 17.153449 22.955575 0.349798 0.726889 0.047154 -0.018877 -330909.000000 0 1 0
14.037569 3.867133 17.486249 22.754713 0.268817 0.694354 0.064441 -0.008885 198696.000000 0 1 0
13.572369 3.161333 16.323049 21.462646 0.228844 0.706663 0.058689 -0.006562 -1660.750000 0 1 0
13.245369 1.675433 16.464449 21.197287 0.125824 0.681348 0.045110 -0.007764 644474.000000 0 1 0
14.438369 0.878533 16.673249 22.073413 0.060772 0.714602 0.030249 -0.007936 755882.000000 0 1 0
14.341369 -0.549067 16.496649 21.865859 -0.038267 0.715984 0.027561 0.005872 -151416.000000 0 1 0
13.533969 -1.220767 17.631549 22.260506 -0.089957 0.656628 0.038281 0.000666 929378.000000 0 1 0
12.123469 -1.027467 17.494949 21.309797 -0.084548 0.607668 0.037986 0.000869 304420.000000 0 1 0
11.349369 -1.640367 18.466949 21.737691 -0.143540 0.555691 0.029269 -0.007946 -71467.400000 0 1 0
-25.796071 13.956133 28.757029 41.075268 -0.495921 0.795251 0.032845 -0.013777 47408.600000 0 0 1
-24.856231 13.948733 29.828709 41.257136 -0.511384 0.762668 0.036717 -0.008808 711390.000000 0 0 1
-24.085231 12.740933 29.894039 40.448527 -0.486573 0.739117 0.032982 -0.013464 101043.000000 0 0 1
-22.902331 12.763433 30.878499 40.508070 -0.508429 0.703968 0.034703 -0.013755 -113665.000000 0 0 1
-23.349531 13.088533 32.184309 41.860961 -0.510905 0.693774 0.032218 -0.019470 8101.160000 0 0 1
-22.258631 13.148833 33.066047 41.972633 -0.533575 0.663567 0.027340 -0.010502 -372028.000000 0 0 1
-22.611031 13.371733 -34.085025 43.033137 -0.534058 2.484980 0.030009 -0.005894 101372.000000 0 0 1
-23.375731 12.281333 -33.568850 42.709760 -0.483751 2.475070 0.034101 -0.012628 136856.000000 0 0 1
-23.972231 12.579233 -32.358180 42.189534 -0.483245 2.444905 0.016356 -0.004482 -396982.000000 0 0 1
-24.724131 11.389333 -31.721250 41.799967 -0.431680 2.432391 0.012430 -0.011974 236107.000000 0 0 1
-23.924231 10.379333 -31.049890 40.548675 -0.409336 2.442993 0.017005 -0.015095 607603.000000 0 0 1
-23.415031 9.353533 -31.905340 40.665747 -0.380047 2.472807 0.017818 -0.018661 -156602.000000 0 0 1
-22.632131 8.235433 -31.199770 39.413974 -0.348988 2.484206 0.022536 -0.007840 -379250.000000 0 0 1
-23.380131 7.403633 -30.347600 39.018215 -0.306673 2.461923 0.018596 -0.008923 -143611.000000 0 0 1
-22.552631 6.714133 -29.472370 37.713676 -0.289354 2.467826 0.010618 -0.002492 16270.000000 0 0 1
-23.308231 5.720733 -28.457470 37.226711 -0.240681 2.440964 0.011161 0.003808 295860.000000 0 0 1
-23.743531 4.482033 -29.010760 37.755372 -0.186573 2.447114 0.025290 0.001002 192496.000000 0 0 1
-24.263631 3.647433 -27.987950 37.220329 -0.149208 2.421817 0.048314 0.006970 -752906.000000 0 0 1
-24.965431 2.398233 -28.497380 37.962151 -0.095768 2.419885 0.053416 0.008855 361270.000000 0 0 1
-26.305621 2.583033 -28.946110 39.198661 -0.097879 2.401560 0.060775 -0.001125 475704.000000 0 0 1
-26.483001 3.390233 -30.113210 40.244856 -0.127323 2.416216 0.057496 -0.009436 -353254.000000 0 0 1
-27.891551 3.189933 -30.752940 41.639616 -0.113874 2.401714 0.082866 -0.023922 -305456.000000 0 0 1
-28.978331 3.372833 -29.906140 41.779144 -0.115870 2.368587 0.068915 -0.027618 -67793.300000 0 0 1
-30.245051 3.468533 -30.528870 43.113869 -0.114182 2.357598 0.082930 -0.033951 445313.000000 0 0 1
-30.530231 4.948333 -30.977980 43.774607 -0.160682 2.356991 0.086303 -0.046013 -683794.000000 0 0 1
-29.742081 5.311233 -32.097360 44.079940 -0.176714 2.386434 0.078941 -0.045149 308188.000000 0 0 1
-30.130651 6.549533 -32.748680 44.980313 -0.214041 2.386294 0.083491 -0.040698 -726188.000000 0 0 1
-29.836761 7.822433 -31.923020 44.390337 -0.256404 2.373365 0.054326 -0.033606 53446.600000 0 0 1
-28.516731 8.361233 -31.788560 43.515821 -0.285211 2.389859 0.029918 -0.035065 721636.000000 0 0 1
-27.696541 7.794833 -30.781840 42.135252 -0.274341 2.389921 0.014797 -0.034490 -64341.800000 0 0 1
-27.826611 8.673033 -29.483350 41.458530 -0.302139 2.361933 0.010640 -0.015723 50327.800000 0 0 1
-29.115291 8.643933 -28.878790 41.909453 -0.288598 2.331009 0.019566 -0.016840 458340.000000 0 0 1
-29.339021 7.649133 -27.894870 41.199650 -0.255038 2.314564 0.021931 -0.001692 719879.000000 0 0 1
-30.719781 7.782033 -27.100140 41.697513 -0.248104 2.278278 0.029164 -0.009089 1141020.000000 0 0 1
-30.771551 8.781933 -26.131990 41.314545 -0.278001 2.255590 -0.003553 0.002768 -98414.300000 0 0 1
-30.775211 8.132733 -24.889750 40.407359 -0.258356 2.234414 -0.006848 0.011458 -15295.500000 0 0 1
-30.237081 8.844933 -23.636150 39.385042 -0.284580 2.214460 -0.005147 0.011776 -298155.000000 0 0 1
-31.004051 9.963933 -23.275250 40.028345 -0.310950 2.191330 -0.009029 0.014887 81405.600000 0 0 1
-30.362201 10.795833 -22.316450 39.197413 -0.341627 2.176493 -0.001461 0.012684 -116062.000000 0 0 1
-31.303771 11.731533 -21.515150 39.754957 -0.358564 2.142653 -0.008859 0.012599 -175238.000000 0 0 1
-31.979991 11.131533 -20.443850 39.554796 -0.334962 2.113962 -0.008143 0.010933 317259.000000 0 0 1
-32.583911 12.096833 -19.572750 39.889061 -0.355480 2.083666 -0.015945 0.008527 418926.000000 0 0 1
-31.546471 12.872433 -18.645350 38.839779 -0.387424 2.071517 -0.000929 0.009251 405316.000000 0 0 1
-31.015731 12.117233 -17.574350 37.651835 -0.372446 2.056419 0.021104 0.007788 539689.000000 0 0 1
-31.899521 11.860933 -16.461550 37.805341 -0.355981 2.021311 0.019234 0.010908 187968.000000 0 0 1
-32.326881 13.060733 -15.516950 38.162622 -0.383968 1.989527 0.012517 0.003172 -95043.900000 0 0 1
-33.044331 14.037533 -16.243350 39.405921 -0.401709 1.995670 0.005381 0.002818 408492.000000 0 0 1
-33.728761 14.913933 -15.320650 39.934660 -0.416326 1.964534 0.001710 -0.001259 62224.900000 0 0 1
-34.408031 16.104033 -16.045550 41.239692 -0.437747 1.970429 -0.000886 -0.006985 -320675.000000 0 0 1
-35.591439 15.715033 -16.684250 42.332930 -0.415796 1.975906 -0.006481 -0.002678 -89541.900000 0 0 1
35.386950 16.832233 -17.067850 42.741921 0.443988 1.981575 -0.009459 -0.004568 -574208.000000 0 0 1
34.999980 16.763333 -18.543250 43.009999 0.446668 2.016550 -0.013872 -0.002501 86700.600000 0 0 1
33.955890 15.890733 -18.904750 41.986991 0.437706 2.037844 0.006880 -0.008661 -425840.000000 0 0 1
32.629900 16.210933 -18.642350 40.927276 0.461094 2.043729 0.037119 -0.017888 -586872.000000 0 0 1
31.749900 14.973433 -19.053250 39.941033 0.440675 2.068074 0.054458 -0.022078 -48145.000000 0 0 1
31.558040 14.759233 -20.484550 40.414869 0.437463 2.102331 0.055220 -0.017252 879376.000000 0 0 1
30.603700 13.721433 -20.819150 39.475323 0.421488 2.126330 0.036160 -0.014884 443200.000000 0 0 1
31.130900 12.321033 -20.578050 39.298816 0.376864 2.121903 0.026632 0.003466 -113939.000000 0 0 1
31.296480 12.114533 -19.192450 38.659820 0.369327 2.090294 0.025744 0.004398 11853.700000 0 0 1
31.968930 10.931633 -18.887350 38.707171 0.329481 2.080541 0.009519 0.006245 -285127.000000 0 0 1
32.130490 10.573033 -17.457450 38.064681 0.317905 2.047245 0.004702 0.012803 306893.000000 0 0 1
30.880690 10.173333 -16.887050 36.637224 0.318242 2.049835 0.004881 0.006714 631023.000000 0 0 1
31.083710 9.874933 -15.528450 36.122625 0.307605 2.015158 -0.000712 0.002177 -212511.000000 0 0 1
30.761680 11.027033 -14.566950 35.778100 0.344197 1.990125 0.009388 -0.004407 386792.000000 0 0 1
29.361760 11.305233 -14.492050 34.640161 0.367537 2.002435 0.000590 0.000983 685759.000000 0 0 1
29.075960 12.358433 -13.531450 34.369208 0.401904 1.975459 0.007560 0.002161 155695.000000 0 0 1
27.585470 12.544133 -13.149250 33.033561 0.426786 1.980194 0.024900 -0.003125 -170395.000000 0 0 1
27.050520 11.408833 -12.485350 31.902602 0.399123 1.972904 0.005650 -0.001807 517065.000000 0 0 1
25.648160 11.287133 -12.729350 30.777651 0.414570 1.997191 0.008328 0.001157 340784.000000 0 0 1
25.284360 10.498033 -14.023150 30.759653 0.393540 2.044173 0.014593 -0.000133 -962864.000000 0 0 1
25.621160 9.098633 -14.010950 30.586527 0.341230 2.046626 0.005868 0.001703 813109.000000 0 0 1
26.933560 8.961133 -14.561050 31.902080 0.321192 2.044774 0.005239 -0.001222 311965.000000 0 0 1
27.836750 7.881933 -13.887550 32.091643 0.275926 2.018334 0.009209 0.003193 -425470.000000 0 0 1
27.525110 6.514133 -14.094150 31.602384 0.232386 2.033069 -0.008635 -0.003387 672657.000000 0 0 1
26.359760 6.158833 -13.340050 30.178222 0.229528 2.028671 0.008297 -0.000162 329794.000000 0 0 1
25.923660 4.640933 -13.485050 29.587514 0.177147 2.044031 0.019391 -0.002296 215321.000000 0 0 1
25.061060 4.126933 -12.464450 28.292239 0.163210 2.027020 0.023753 -0.005450 521072.000000 0 0 1
24.683160 2.763333 -12.708650 27.899895 0.111488 2.043740 0.018467 -0.008434 74391.700000 0 0 1
23.775060 2.297733 -11.531150 26.523583 0.096345 2.020558 0.023159 0.002212 115925.000000 0 0 1
24.492860 1.890033 -10.347750 26.656112 0.077014 1.969468 0.019428 -0.002981 752344.000000 0 0 1
23.605760 1.685133 -9.233050 25.403165 0.071266 1.942776 0.016910 0.002065 -237409.000000 0 0 1
24.217160 1.258933 -7.833150 25.483602 0.051938 1.883235 0.019103 0.000810 -209084.000000 0 0 1
24.360560 -0.107467 -7.488950 25.485933 -0.004411 1.869045 0.011989 -0.008896 848670.000000 0 0 1
25.220760 -0.885367 -8.341850 26.579260 -0.035090 1.890040 0.022962 -0.011675 -229513.000000 0 0 1
25.382460 -2.324867 -7.823550 26.662374 -0.091339 1.868610 0.030189 -0.020077 -91075.900000 0 0 1
26.245760 -2.396167 -6.676750 27.187506 -0.091045 1.818916 0.043443 -0.027540 756468.000000 0 0 1
26.292760 -3.799167 -6.344050 27.312815 -0.143502 1.805211 0.039513 -0.026881 -49856.900000 0 0 1
27.423580 -4.216067 -5.299750 28.247394 -0.152544 1.759534 0.047103 -0.023172 543997.000000 0 0 1
28.578180 -4.327167 -6.122150 29.545176 -0.150274 1.779522 0.061599 -0.019676 207736.000000 0 0 1
29.768700 -4.651467 -5.438950 30.616887 -0.155000 1.749390 0.077324 -0.021235 651277.000000 0 0 1
31.020150 -4.935867 -6.353550 32.046530 -0.157795 1.770379 0.087353 -0.021670 406355.000000 0 0 1
30.981710 -6.082867 -7.151650 32.373040 -0.193871 1.793548 0.076142 -0.024092 213684.000000 0 0 1
31.679890 -5.882567 -8.392150 33.296369 -0.183597 1.825588 0.075404 -0.033287 -611927.000000 0 0 1
31.086050 -6.752367 -9.593750 33.226149 -0.213893 1.863708 0.064622 -0.027418 608125.000000 0 0 1
29.843870 -6.380667 -10.189150 32.174341 -0.210630 1.893030 0.055255 -0.024772 478009.000000 0 0 1
28.786650 -6.623567 -9.286350 30.964159 -0.226155 1.875391 0.057255 -0.028459 -1703330.000000 0 0 1
27.548790 -5.784867 -9.446050 29.692227 -0.206979 1.894555 0.047161 -0.022525 -1449360.000000 0 0 1
26.782590 -6.072467 -10.592050 29.434223 -0.222962 1.938909 0.027439 -0.019693 -87927.600000 0 0 1
25.652060 -5.233467 -10.567450 28.232753 -0.201255 1.954435 0.022725 -0.011596 56653.100000 0 0 1
24.342360 -5.956867 -10.170050 27.045603 -0.239996 1.956308 0.043550 -0.010040 -751232.000000 0 0 1
24.510160 -6.423067 -8.837750 26.834857 -0.256294 1.906399 0.047722 -0.016211 1063280.000000 0 0 1
23.276260 -6.922267 -8.303150 25.664067 -0.289066 1.900256 0.041603 -0.015303 216369.000000 0 0 1
22.380060 -5.902967 -7.556950 24.347887 -0.257887 1.886383 0.049716 -0.008298 -349960.000000 0 1 0
21.803860 -5.071067 -8.519150 23.952034 -0.228514 1.934433 0.041348 -0.008119 230940.000000 0 1 0
21.663660 -3.778667 -8.050350 23.417955 -0.172687 1.921723 0.041786 -0.012329 -214393.000000 0 1 0
21.555360 -2.747067 -9.175750 23.587588 -0.126759 1.970350 0.042347 -0.007233 218883.000000 0 1 0
22.769060 -2.614667 -9.927250 24.976326 -0.114333 1.979550 0.026556 -0.007364 1212790.000000 0 1 0
22.519060 -2.040767 -11.235050 25.248745 -0.090377 2.031942 0.028287 -0.000947 -278279.000000 0 0 1
23.839760 -2.022967 -12.015150 26.772941 -0.084654 2.036196 0.024353 -0.010262 -610521.000000 0 0 1
24.819560 -1.208467 -11.468050 27.367629 -0.048652 2.003181 0.009900 -0.012277 -774467.000000 0 0 1
26.037260 -1.479067 -12.078150 28.740359 -0.056745 2.004518 0.014073 -0.010988 -818150.000000 0 0 1
27.123460 -0.473367 -11.622450 29.512497 -0.017451 1.975574 0.014922 -0.007245 -1810060.000000 0 0 1
28.363990 -0.847767 -12.051250 30.829649 -0.029880 1.972403 0.022726 -0.013763 -845396.000000 0 0 1
29.378800 0.137933 -11.895750 31.696084 0.004695 1.955524 0.039075 -0.015493 193619.000000 0 0 1
29.293260 1.354633 -12.791050 31.992828 0.046211 1.982106 0.038247 -0.013578 -836464.000000 0 0 1
29.574030 1.149733 -14.157250 32.808122 0.038857 2.016970 0.019286 -0.012949 327562.000000 0 0 1
29.590740 2.405033 -14.882550 33.209733 0.081098 2.035478 0.014902 -0.010918 -219407.000000 0 0 1
29.877300 2.326133 -16.401350 34.162380 0.077699 2.071565 0.014193 -0.012583 -716162.000000 0 0 1
28.884460 1.690933 -17.131950 33.625511 0.058475 2.105391 0.020833 -0.010393 -634688.000000 0 0 1
29.213420 1.562833 -18.514450 34.621542 0.053446 2.135028 0.011847 -0.007587 -136637.000000 0 0 1
28.088380 0.946133 -19.400450 34.150105 0.033671 2.174984 0.017342 -0.002187 90467.700000 0 0 1
28.085930 -0.486767 -19.252850 34.054788 -0.017330 2.171653 0.031802 -0.009274 194246.000000 0 0 1
27.620640 -1.138667 -20.451450 34.386888 -0.041202 2.207745 0.032277 -0.014964 -23277.300000 0 0 1
27.495870 -2.664267 -20.296450 34.279251 -0.096595 2.204448 0.028333 -0.012654 -731569.000000 0 0 1
26.271460 -3.074067 -19.804950 33.043540 -0.116482 2.213497 0.028187 -0.014031 -623778.000000 0 0 1
25.961760 -4.457467 -19.782850 32.943028 -0.170036 2.214944 0.039144 -0.020936 -208843.000000 0 0 1
26.528060 -5.336067 -18.616550 32.844900 -0.198499 2.173415 0.030646 -0.015721 -40774.200000 0 0 1
27.935910 -5.432767 -18.666250 34.034672 -0.192075 2.151303 0.023585 -0.012900 -11849.400000 0 0 1
28.490820 -5.749767 -17.395450 33.873121 -0.199137 2.110110 0.009884 -0.014340 -492734.000000 0 0 1
29.994440 -5.497667 -17.398350 35.108309 -0.181277 2.089278 0.025698 -0.001692 -818791.000000 0 0 1
30.739460 -6.183367 -18.335750 36.322832 -0.198505 2.099946 0.022245 -0.006005 95143.800000 0 0 1
32.051510 -5.622367 -18.411550 37.388440 -0.173650 2.085687 0.026697 -0.001102 455311.000000 0 0 1
32.999040 -6.592867 -19.182750 38.734744 -0.197193 2.088900 0.022353 0.001676 -225605.000000 0 0 1
33.406140 -7.660467 -18.422950 38.910898 -0.225416 2.064017 0.022013 -0.000295 128855.000000 0 0 1
34.114440 -8.632667 -19.183550 40.079003 -0.247847 2.069905 0.011097 0.004844 -229251.000000 0 0 1
34.849710 -9.618367 -18.280650 40.511695 -0.269292 2.038955 0.013070 0.008721 -814725.000000 0 0 1
34.017390 -10.405267 -17.427650 39.612818 -0.296843 2.026339 0.016056 -0.002299 253264.000000 0 0 1
34.640040 -11.299467 -16.508450 40.001740 -0.315314 1.996205 0.031415 -0.007642 -238585.000000 0 0 1
35.673710 -10.765967 -15.455150 40.340814 -0.293098 1.963962 0.037683 -0.012171 -49321.200000 0 0 1
-35.653295 -11.642267 -14.369850 40.164567 0.315625 1.936680 0.028147 -0.013972 464466.000000 0 0 1
-35.089172 -12.920167 -14.657650 40.162513 0.352804 1.944385 0.030712 -0.011495 -1012300.000000 0 0 1
-33.680471 -12.880567 -15.222350 39.140811 0.365272 1.970247 0.035902 -0.016000 -988319.000000 0 0 1
-33.611741 -12.406867 -16.543850 39.463635 0.353608 2.003380 0.029344 -0.005723 -647931.000000 0 0 1
-32.333951 -12.553067 -17.072550 38.659227 0.370320 2.028196 0.045885 -0.011849 -389127.000000 0 0 1
-32.184111 -11.568067 -18.294050 38.785428 0.345055 2.061984 0.047707 -0.007136 144748.000000 0 0 1
-31.964141 -10.207067 -17.935550 38.047004 0.309094 2.061680 0.052876 -0.004613 -359113.000000 0 0 1
-32.822651 -9.370067 -18.601750 38.873509 0.278079 2.069765 0.038519 0.003102 -650576.000000 0 0 1
-33.405401 -8.292267 -17.657650 38.684301 0.243313 2.044803 0.041424 -0.001781 142258.000000 0 0 1
-34.282442 -7.381267 -18.362950 39.584932 0.212070 2.053175 0.034834 -0.007869 414143.000000 0 0 1
-34.764308 -6.395767 -17.447150 39.419107 0.181941 2.029300 0.035811 -0.007041 -91060.600000 0 0 1
23.974269 27.405933 -27.001470 45.331337 0.852089 2.208867 0.023877 0.004930 -379168.000000 0 0 1
24.529669 26.815933 -25.848830 44.597768 0.829896 2.189033 0.030268 -0.006906 593204.000000 0 0 1
25.586469 25.905933 -26.250040 44.887073 0.791602 2.195432 0.040176 -0.015755 471315.000000 0 0 1
26.061369 25.008133 -25.108620 43.989140 0.764778 2.178266 0.038296 -0.018364 -1098090.000000 0 0 1
26.736169 25.671833 -24.137850 44.232359 0.765092 2.148027 0.043738 -0.008032 -353643.000000 0 0 1
27.222569 24.755433 -23.175550 43.485697 0.737969 2.132875 0.043937 -0.006881 107208.000000 0 0 1
28.067569 25.501933 -22.140050 43.912627 0.737541 2.099233 0.038812 0.003055 9014.180000 0 0 1
27.249269 26.410033 -21.440850 43.585807 0.769759 2.085093 0.029981 0.011578 388055.000000 0 0 1
28.059969 27.368033 -20.770150 44.359556 0.772915 2.058075 0.016622 0.019297 100280.000000 0 0 1
27.197469 28.430133 -20.115050 44.188121 0.807554 2.043409 0.024981 0.021619 -384791.000000 0 0 1
26.514169 27.923433 -19.017650 42.946365 0.811280 2.029541 0.028112 0.015217 -489858.000000 0 0 1
25.547169 28.851633 -18.632950 42.804923 0.846069 2.021167 0.027930 0.015685 -186976.000000 0 0 1
24.498069 28.378533 -17.616550 41.422691 0.858654 2.010076 0.030079 0.010495 -62199.600000 0 0 1
23.487669 27.498333 -18.066150 40.425421 0.863899 2.034094 0.036068 0.003121 -265391.000000 0 0 1
22.466569 27.425833 -17.101550 39.362241 0.884472 2.020241 0.036073 0.004971 -138529.000000 0 0 1
21.397969 26.438733 -17.622250 38.306963 0.890385 2.048822 0.032072 -0.004168 -302673.000000 0 0 1
20.722269 26.859133 -18.797950 38.783868 0.913666 2.076799 0.029659 0.000704 12210.300000 0 0 1
19.816269 25.820033 -19.156350 37.766710 0.916204 2.102762 0.022926 0.001246 16281.800000 0 0 1
19.131069 26.075933 -20.503150 38.292705 0.937830 2.135816 0.015650 0.006590 -569997.000000 0 0 1
18.125369 26.998233 -20.334150 38.352461 0.979556 2.129623 0.003023 0.005486 -1199630.000000 0 0 1
17.156069 26.866233 -21.322450 38.350646 1.002496 2.160346 -0.003695 0.009813 -764368.000000 0 0 1
15.973169 27.813133 -21.100350 38.391891 1.049486 2.152687 -0.003554 0.009084 -122608.000000 0 0 1
15.281269 27.666733 -19.830450 37.312358 1.066163 2.131133 0.004546 0.006412 307445.000000 0 0 1
14.353269 28.731833 -19.681350 37.668158 1.107501 2.120569 0.004573 -0.001745 54857.900000 0 0 1
13.755169 28.781933 -18.250750 36.751792 1.124977 2.090468 0.017765 -0.004746 -30293.000000 0 0 1
12.932469 27.645433 -18.003050 35.434849 1.133241 2.103728 0.020622 -0.002401 -61363.800000 0 0 1
12.390169 27.677333 -16.685450 34.611491 1.149886 2.073822 0.031726 -0.001988 50192.400000 0 0 1
11.593769 26.394433 -16.342950 33.138702 1.156918 2.086524 0.044117 -0.004884 -73059.000000 0 0 1
12.354869 25.221233 -16.202550 32.423387 1.115294 2.094070 0.028578 -0.001535 -242214.000000 0 0 1
11.491669 24.111133 -16.268250 31.273969 1.126033 2.117864 0.048180 -0.000051 456293.000000 0 0 1
12.365269 22.802233 -16.178450 30.570966 1.073897 2.128465 0.033427 0.002665 918164.000000 0 0 1
13.244469 22.613733 -17.302050 31.403150 1.040971 2.154317 0.032383 0.005830 165895.000000 0 0 1
14.045869 21.404033 -17.476650 30.997619 0.990057 2.169783 0.030826 0.009407 355196.000000 0 0 1
13.285869 20.083533 -17.754150 29.917762 0.986358 2.206112 0.042131 0.000101 191258.000000 0 0 1
12.722369 19.569133 -16.513950 28.592310 0.994334 2.186540 0.049953 -0.004379 474536.000000 0 0 1
12.003669 18.312333 -16.603950 27.479461 0.990567 2.219597 0.050423 -0.006328 407695.000000 0 0 1
12.935169 17.101633 -16.865650 27.280663 0.923231 2.237282 0.043284 -0.008863 126732.000000 0 0 1
13.772769 16.776333 -15.775550 26.832862 0.883402 2.199280 0.038827 -0.007769 -509960.000000 0 0 1
14.831869 15.980233 -16.208450 27.167371 0.822651 2.210072 0.047391 -0.010461 -815496.000000 0 0 1
15.466169 15.335933 -14.926850 26.404622 0.781170 2.171608 0.079713 -0.000777 -1392800.000000 0 0 1
16.153569 16.152033 -13.968550 26.775854 0.785351 2.119621 0.033264 0.007562 -208305.000000 0 0 1
17.372169 16.719733 -14.325450 28.045681 0.766263 2.106900 0.014448 0.001806 -219858.000000 0 0 1
18.439669 15.647633 -14.843350 28.375956 0.703672 2.121276 0.011805 -0.005590 -1186740.000000 0 0 1
18.910169 14.596633 -13.953950 27.665301 0.657366 2.099465 0.038789 -0.003587 668435.000000 0 0 1
19.753769 15.122533 -12.917250 28.031371 0.653380 2.049709 0.035881 -0.003452 -229129.000000 0 0 1
20.406769 13.962533 -12.146150 27.548457 0.600050 2.027399 0.044707 -0.007544 137585.000000 0 0 1
19.434169 13.203433 -11.399150 26.114329 0.596761 2.022512 0.072346 -0.010785 725639.000000 0 0 1
19.989369 12.184433 -10.609250 25.701974 0.547409 1.996300 0.080127 -0.003009 -192075.000000 0 0 1
20.464369 10.941633 -11.396150 25.853084 0.490995 2.027291 0.073857 -0.001996 775460.000000 0 0 1
21.730169 11.054633 -12.132850 27.232539 0.470601 2.032560 0.061495 -0.000333 1758370.000000 0 0 1
21.996469 9.857733 -12.815350 27.299318 0.421315 2.059451 0.042315 0.002636 -540839.000000 0 0 1
22.526069 8.654233 -12.021450 26.959874 0.366801 2.032978 0.043723 0.008772 -549870.000000 0 0 1
21.580969 8.154033 -11.075250 25.590773 0.361253 2.018374 0.045490 0.003215 908899.000000 0 0 1
22.070069 7.064133 -10.224450 25.328429 0.309773 1.986326 0.034720 0.009533 -626815.000000 0 0 1
22.493969 5.703533 -10.835750 25.610982 0.248325 2.007649 0.046593 -0.002571 140163.000000 0 0 1
21.432569 4.867333 -11.309650 24.717486 0.223312 2.046042 0.061421 -0.009177 856754.000000 0 1 0
20.664369 5.413033 -12.390650 24.695046 0.256194 2.096413 0.032926 -0.014167 563272.000000 0 1 0
19.602769 4.338033 -12.909850 23.869464 0.217787 2.142246 0.037121 -0.024938 376738.000000 0 1 0
20.243869 3.345333 -13.632750 24.634475 0.163772 2.157239 0.041019 -0.015447 142681.000000 0 1 0
19.484569 2.185733 -13.847750 24.003875 0.111711 2.185720 0.042568 -0.014095 -349602.000000 0 1 0
20.221669 1.182133 -14.754650 25.060188 0.058392 2.200331 0.064777 -0.009023 -474814.000000 0 0 1
21.287369 0.559133 -14.144550 25.564292 0.026260 2.157109 0.068823 -0.006085 164823.000000 0 0 1
22.347469 0.115733 -15.011350 26.921430 0.005179 2.162286 0.038497 -0.015579 468971.000000 0 0 1
22.350269 -1.367167 -15.484250 27.224358 -0.061094 2.175799 0.037515 -0.013347 -637099.000000 0 0 1
21.241069 -1.657167 -16.281350 26.814391 -0.077859 2.223312 0.036419 -0.009893 -71200.900000 0 0 1
21.546969 -2.807867 -17.084850 27.641420 -0.129584 2.237105 0.046836 -0.018824 -484132.000000 0 0 1
20.362369 -3.376067 -17.840450 27.281964 -0.164305 2.283562 0.041440 -0.018385 -701009.000000 0 0 1
19.514369 -4.159367 -17.049650 26.245028 -0.210001 2.277899 0.056980 -0.021006 -193682.000000 0 0 1
18.536869 -4.792267 -17.823150 26.158096 -0.252987 2.320419 0.050999 -0.023666 -449412.000000 0 0 1
17.980069 -6.058867 -17.073350 25.524342 -0.325026 2.303531 0.059932 -0.028804 -525725.000000 0 0 1
18.904169 -7.039367 -16.649950 26.156092 -0.356464 2.260827 0.052816 -0.020666 199123.000000 0 0 1
18.357869 -8.171167 -15.998450 25.685204 -0.418775 2.243198 0.059465 -0.008311 755237.000000 0 0 1
19.566769 -9.096467 -15.513250 26.575648 -0.435170 2.194123 0.077092 -0.004548 997018.000000 0 0 1
20.016969 -9.903067 -16.581950 27.815658 -0.459426 2.209478 0.073925 -0.012213 269590.000000 0 0 1
20.971069 -10.825267 -16.101750 28.569888 -0.476524 2.169524 0.068146 -0.018183 -699165.000000 0 0 1
21.632669 -11.721367 -17.112450 29.969964 -0.496554 2.178504 0.061087 -0.013426 -911270.000000 0 0 1
22.767969 -11.210867 -17.739450 30.963721 -0.457546 2.180849 0.057582 -0.009112 -200834.000000 0 0 1
23.256769 -12.182167 -18.682950 32.223208 -0.482515 2.189277 0.053577 -0.005684 -529382.000000 0 0 1
22.561769 -12.220167 -20.039950 32.557111 -0.496396 2.233857 0.069454 -0.005341 -279017.000000 0 0 1
21.221669 -12.625067 -20.121350 31.853105 -0.536671 2.254530 0.081332 -0.016573 -219792.000000 0 0 1
20.960469 -14.045867 -20.074050 32.242753 -0.590384 2.242846 0.062647 -0.006018 -404813.000000 0 0 1
19.473569 -14.385467 -19.874650 31.323526 -0.636241 2.258153 0.072326 -0.013167 -301968.000000 0 0 1
18.749569 -14.159867 -21.028650 31.531766 -0.646827 2.300842 0.071532 -0.007322 -915110.000000 0 0 1
17.387069 -14.408367 -20.829350 30.720889 -0.691987 2.315861 0.079443 -0.012116 -489200.000000 0 0 1
16.541269 -13.788267 -21.949150 30.748904 -0.694877 2.365733 0.068242 -0.010509 -239830.000000 0 0 1
16.755769 -14.302367 -23.265950 32.040879 -0.706568 2.383478 0.058396 -0.007003 693910.000000 0 0 1
15.950169 -13.526267 -24.191750 31.978251 -0.703351 2.428751 0.058813 -0.006301 357100.000000 0 0 1
15.852269 -14.161767 -25.607340 33.280414 -0.729134 2.448763 0.045123 -0.010563 -337722.000000 0 0 1
14.953669 -15.244567 -25.590370 33.329808 -0.795031 2.446185 0.054635 -0.015986 17535.200000 0 0 1
15.110569 -16.007367 -26.756970 34.648240 -0.814210 2.453165 0.053365 -0.013751 31995.800000 0 0 1
16.130169 -17.180167 -26.875140 35.743722 -0.816909 2.421712 0.050174 -0.016379 1284880.000000 0 0 1
17.534869 -16.857367 -27.021420 36.356562 -0.765701 2.408687 0.054771 -0.005835 787808.000000 0 0 1
18.252069 -18.021067 -27.219940 37.400829 -0.779030 2.385890 0.046514 -0.009157 -385290.000000 0 0 1
19.757169 -17.722667 -27.313950 38.085306 -0.731169 2.370541 0.041659 0.001687 -96598.700000 0 0 1
20.318469 -16.992967 -26.244420 37.287675 -0.696505 2.351580 0.052436 0.001426 528915.000000 0 0 1
21.715869 -16.726567 -26.419500 38.070290 -0.656333 2.337780 0.048340 0.003009 476715.000000 0 0 1
22.295569 -16.119267 -25.130280 37.261966 -0.625983 2.310978 0.050962 0.008532 -131085.000000 0 0 1
21.951869 -14.816667 -24.668550 36.193308 -0.593723 2.320713 0.062885 0.006042 -37399.400000 0 0 1
20.579769 -14.506767 -24.487850 35.123041 -0.614010 2.342283 0.079950 0.003740 279651.000000 0 0 1
20.513869 -13.226967 -23.673950 34.003344 -0.572698 2.340920 0.081802 0.005151 52848.200000 0 0 1
20.930069 -12.078967 -24.359950 34.312919 -0.523419 2.360203 0.089672 -0.009882 101162.000000 0 0 1
20.878269 -10.883567 -23.528950 33.286118 -0.480532 2.355859 0.094286 -0.006151 64461.700000 0 0 1
20.853769 -9.610267 -24.377650 33.488905 -0.431832 2.386098 0.098638 -0.007456 142534.000000 0 0 1
20.427869 -8.410767 -23.713450 32.409359 -0.390577 2.391587 0.104206 -0.021510 122947.000000 0 0 1
19.854969 -7.529367 -24.666850 32.547882 -0.362464 2.430828 0.078176 -0.018453 197464.000000 0 0 1
19.154369 -6.271167 -24.003250 31.342836 -0.316402 2.443126 0.082488 -0.027488 1154690.000000 0 0 1
17.879869 -6.594467 -23.412250 30.187914 -0.353342 2.458383 0.067144 -0.015585 606552.000000 0 0 1
17.358469 -5.650967 -22.483150 28.961041 -0.314725 2.459609 0.044252 -0.017292 46559.900000 0 0 1
18.002469 -5.683267 -21.050050 28.275308 -0.305792 2.410533 0.066157 -0.021245 -307010.000000 0 0 1
17.716869 -6.805367 -20.237850 27.744748 -0.366740 2.388285 0.074033 -0.016728 228640.000000 0 0 1
18.242669 -8.057167 -20.701150 28.744574 -0.415902 2.374852 0.083004 -0.017403 -90237.100000 0 0 1
17.980369 -9.259367 -19.735550 28.258122 -0.475552 2.343960 0.075495 -0.015316 1550950.000000 0 0 1
16.555069 -9.537967 -19.600450 27.371897 -0.522687 2.368965 0.063257 -0.011751 1311880.000000 0 0 1
16.235369 -10.710167 -18.910650 27.127616 -0.583151 2.342140 0.067919 -0.008917 1757910.000000 0 0 1
14.670269 -10.774367 -18.520650 25.967639 -0.633465 2.364878 0.072644 -0.014646 1919620.000000 0 0 1
14.213769 -10.135167 -17.319750 24.591189 -0.619433 2.352243 0.069650 -0.014946 169825.000000 0 1 0
14.212369 -8.722267 -17.456650 24.141334 -0.550439 2.379079 0.063731 -0.024949 -213019.000000 0 1 0
13.048769 -7.862967 -16.856850 22.721136 -0.542317 2.406699 0.061437 -0.019858 229714.000000 0 1 0
11.946769 -7.753967 -17.732750 22.744224 -0.575702 2.464918 0.048127 -0.022991 130901.000000 0 1 0
11.148369 -6.606667 -17.439450 21.727140 -0.534970 2.502534 0.039025 -0.017236 231084.000000 0 1 0
9.635869 -6.684267 -17.724350 21.252811 -0.606476 2.557072 0.034085 -0.018932 202090.000000 0 1 0
9.365769 -6.483067 -19.137550 22.270914 -0.605478 2.604709 0.032549 -0.021771 -81463.200000 0 1 0
7.984469 -6.313767 -19.365250 21.877575 -0.669079 2.657643 0.033152 -0.028601 -62679.300000 0 1 0
7.624269 -6.025967 -20.850750 23.004250 -0.668839 2.705447 0.036499 -0.033139 -97000.300000 0 1 0
7.568569 -7.087567 -21.795650 24.136429 -0.752591 2.697542 0.036918 -0.029309 231836.000000 0 1 0
6.778269 -6.642367 -22.911750 24.799481 -0.775272 2.748895 0.047321 -0.031747 345672.000000 0 1 0
6.784969 -7.721267 -24.006250 26.114245 -0.849853 2.737038 0.039620 -0.025550 -29475.000000 0 0 1
6.018569 -8.873267 -23.688050 26.001572 -0.974796 2.716556 0.039347 -0.026163 -78265.900000 0 0 1
6.030769 -9.793167 -24.752550 27.294047 -1.018830 2.706627 0.040589 -0.009872 202030.000000 0 0 1
5.072469 -11.023167 -24.680250 27.501907 -1.139522 2.684640 0.032332 -0.008314 315650.000000 0 0 1
5.523269 -12.008667 -23.781950 27.208376 -1.139707 2.634309 0.030622 -0.011947 -278100.000000 0 0 1
4.636569 -13.072267 -23.768050 27.519123 -1.229952 2.613346 0.039977 -0.015896 -326945.000000 0 0 1
5.295569 -14.291267 -22.997650 27.589405 -1.215936 2.556332 0.045214 -0.009132 -147224.000000 0 0 1
6.387069 -15.003767 -23.529650 28.627820 -1.168335 2.535562 0.047717 -0.004187 348994.000000 0 0 1
7.656969 -14.349967 -23.417850 28.512215 -1.080641 2.534530 0.047920 -0.010451 615076.000000 0 0 1
8.272469 -13.753767 -22.140950 27.346325 -1.029297 2.514352 0.044730 -0.007042 -862058.000000 0 0 1
8.821769 -14.637667 -21.192050 27.224766 -1.028412 2.462926 0.048681 -0.005878 -208782.000000 0 0 1
7.908869 -15.402767 -20.434450 26.783618 -1.096430 2.438654 0.045883 -0.004601 -80391.400000 0 0 1
8.482469 -15.916267 -19.097750 26.267925 -1.081143 2.384793 0.049438 -0.002857 215813.000000 0 0 1
9.482469 -16.929167 -19.171450 27.277434 -1.060212 2.350167 0.066782 -0.010294 -21708.000000 0 0 1
10.042669 -17.187067 -17.899050 26.769880 -1.041989 2.303156 0.070915 -0.010661 -157430.000000 0 0 1
9.116269 -17.878167 -16.839750 26.197565 -1.099252 2.268942 0.036465 -0.007545 -136528.000000 0 0 1
8.736169 -19.258767 -16.968950 27.113945 -1.144936 2.247002 0.043194 -0.012381 298067.000000 0 0 1
8.064869 -19.671267 -18.199750 27.986278 -1.181714 2.278788 0.044177 -0.006417 348727.000000 0 0 1
6.522169 -19.552567 -18.036150 27.388762 -1.248832 2.289652 0.037616 -0.001114 32055.100000 0 0 1
6.114369 -18.305267 -17.548450 26.084793 -1.248426 2.308711 0.034199 0.003910 -259317.000000 0 0 1
4.729269 -18.117067 -17.794450 25.830922 -1.315455 2.330742 0.018520 0.004672 386174.000000 0 0 1
4.393269 -16.595867 -17.591950 24.580487 -1.312012 2.368404 -0.004241 0.018494 -23156.900000 0 1 0
4.330069 -16.223867 -16.257650 23.372517 -1.309981 2.340035 -0.023782 0.023678 -80564.000000 0 1 0
4.200869 -14.828667 -16.087650 22.278895 -1.294736 2.377633 -0.022152 0.027083 161109.000000 0 1 0
10.531469 30.307433 -18.268950 36.921631 1.236361 2.088405 0.042433 -0.018302 156220.000000 0 0 1
9.489669 29.799733 -19.137950 36.665229 1.262502 2.119949 0.059069 -0.025436 333375.000000 0 0 1
8.539269 29.049733 -18.405250 35.433873 1.284896 2.116975 0.051741 -0.020606 -300876.000000 0 0 1
7.537369 28.522433 -19.427550 35.323800 1.312441 2.153142 0.062717 -0.018244 -1068230.000000 0 0 1
6.669669 29.460933 -19.909850 36.177800 1.348159 2.153560 0.074374 -0.031263 -877110.000000 0 0 1
5.989769 28.921933 -21.008650 36.245261 1.366582 2.189064 0.062204 -0.027445 -29815.200000 0 0 1
4.883069 29.886833 -21.512550 37.146426 1.408842 2.188455 0.064999 -0.036280 -696855.000000 0 0 1
3.915469 30.045433 -20.565450 36.619622 1.441208 2.167110 0.061794 -0.034861 -755989.000000 0 0 1
2.851269 30.875333 -21.014750 37.457117 1.478710 2.166432 0.052992 -0.039749 555432.000000 0 0 1
1.432669 30.397733 -20.533450 36.710997 1.523700 2.164370 0.058055 -0.030063 643237.000000 0 0 1
0.920769 29.121933 -20.943350 35.882568 1.539189 2.194030 0.055599 -0.041822 203922.000000 0 0 1
0.595869 29.059233 -22.339450 36.658493 1.550294 2.226092 0.065417 -0.044136 -295357.000000 0 0 1
-0.094531 27.722933 -22.717650 35.842176 -1.567386 2.257284 0.066156 -0.039131 510626.000000 0 0 1
-1.332931 27.416833 -22.093350 35.235998 -1.522217 2.248506 0.069906 -0.037977 333609.000000 0 0 1
-1.853331 26.137533 -22.447650 34.503659 -1.500008 2.279154 0.063603 -0.040496 507186.000000 0 0 1
-2.922431 25.604833 -21.413050 33.506220 -1.457152 2.264094 0.038607 -0.035916 651634.000000 0 0 1
-4.025531 26.497133 -21.328550 34.252153 -1.420026 2.242975 0.037698 -0.037785 77570.500000 0 0 1
-5.007331 25.998133 -20.467950 33.465105 -1.380523 2.228904 0.032947 -0.033326 75024.400000 0 0 1
-6.102931 27.011333 -20.003950 34.161614 -1.348588 2.196377 0.038036 -0.041577 229638.000000 0 0 1
-7.180231 26.444833 -19.301250 33.517505 -1.305671 2.184447 0.041257 -0.033163 -876353.000000 0 0 1
-7.972431 27.424033 -18.720350 34.148042 -1.287884 2.151021 0.036928 -0.038567 -172380.000000 0 0 1
-9.320531 26.884133 -18.229950 33.792898 -1.237071 2.140593 0.051011 -0.028857 -53676.900000 0 0 1
-9.124331 25.861333 -17.281150 32.414505 -1.231614 2.133092 0.049071 -0.031507 -681057.000000 0 0 1
-10.369331 25.412533 -16.835050 32.198428 -1.183378 2.120991 0.036862 -0.025823 -199921.000000 0 0 1
-10.271831 24.593133 -15.508250 30.835670 -1.175150 2.097784 0.048746 -0.013424 393035.000000 0 0 1
-9.515431 23.355733 -15.581650 29.644924 -1.183916 2.124228 0.050663 -0.016388 -8325.320000 0 0 1
-9.453031 22.798533 -14.319250 28.533731 -1.177739 2.096516 0.046780 -0.005305 110441.000000 0 0 1
-8.890631 21.294533 -14.252250 27.122446 -1.175289 2.124073 0.048420 0.003651 80759.300000 0 0 1
-9.756131 20.239433 -14.716250 26.858607 -1.121623 2.150667 0.057319 0.002097 -55732.500000 0 0 1
-10.079331 20.117833 -16.111050 27.674646 -1.106337 2.192178 0.065477 0.005501 366763.000000 0 0 1
-8.935031 19.995533 -17.177850 27.834056 -1.150564 2.235915 0.061609 -0.001554 42763.700000 0 0 1
-8.324531 18.776733 -17.257050 26.826653 -1.153492 2.269571 0.057805 -0.001632 -411754.000000 0 0 1
-7.519531 18.723633 -18.414650 27.316975 -1.188906 2.310556 0.060569 -0.009125 215502.000000 0 0 1
-6.850431 17.304633 -18.677050 26.366853 -1.193853 2.357959 0.046280 -0.010704 366596.000000 0 0 1
-7.796331 16.298533 -19.035350 26.244419 -1.124622 2.382282 0.054742 -0.016795 -60246.900000 0 0 1
-7.455331 15.360833 -20.081450 26.359093 -1.118940 2.436948 0.045751 -0.015753 -146544.000000 0 0 1
-6.188031 14.511933 -19.944650 25.429845 -1.167732 2.472365 0.035038 -0.013338 -240563.000000 0 0 1
-6.440431 13.288133 -19.155850 24.186778 -1.119483 2.484869 0.024055 -0.014065 369927.000000 0 1 0
-5.268831 12.613333 -18.692550 23.157465 -1.175109 2.510178 0.028298 -0.007531 633434.000000 0 1 0
-4.576131 13.299233 -17.434550 22.400315 -1.239396 2.462777 0.033148 0.000797 263612.000000 0 1 0
-3.911831 14.539733 -17.638050 23.190668 -1.307976 2.434982 0.027775 -0.008106 -257720.000000 0 1 0
-3.579431 15.129633 -16.414550 22.608750 -1.338484 2.383322 0.030382 0.003578 40105.900000 0 1 0
-2.682931 16.365433 -16.434250 23.347593 -1.408303 2.351662 0.043726 -0.001323 -260740.000000 0 1 0
-3.318631 17.510833 -16.921050 24.575690 -1.383499 2.330254 0.033347 -0.006474 -380981.000000 0 1 0
-2.514531 18.667533 -16.852850 25.274853 -1.436901 2.300680 0.035896 -0.007361 -60159.600000 0 0 1
-3.202131 19.908733 -17.437150 26.658310 -1.411322 2.283786 0.047147 -0.008676 145472.000000 0 0 1
-3.331531 19.815233 -18.894450 27.581566 -1.404224 2.325454 0.053906 -0.012410 -321469.000000 0 0 1
-3.832231 21.010433 -19.394050 28.848804 -1.390383 2.308061 0.062800 -0.013850 119821.000000 0 0 1
-2.840031 22.231633 -19.434750 29.665144 -1.443737 2.285161 0.042887 -0.017468 168292.000000 0 0 1
-1.760931 22.025933 -20.337650 30.031028 -1.491018 2.314776 0.060886 -0.013581 495093.000000 0 0 1
-0.593231 22.804233 -20.112350 30.412030 -1.544788 2.293385 0.060130 -0.021740 947904.000000 0 0 1
0.366669 22.443233 -18.926850 29.360838 1.554460 2.271334 0.075058 -0.021169 92170.700000 0 0 1
-0.205131 22.713633 -17.656950 28.770108 -1.561765 2.231567 0.067650 -0.018160 216196.000000 0 0 1
0.739369 22.195033 -16.719750 27.797773 1.537496 2.216146 0.084218 -0.020281 389921.000000 0 0 1
0.318669 22.232833 -15.224350 26.947750 1.556464 2.171179 0.087848 -0.021896 -297537.000000 0 0 1
-0.634131 21.243833 -14.921650 25.968408 -1.540955 2.182921 0.074790 -0.010347 -229369.000000 0 0 1
-0.715931 21.079533 -13.513150 25.049241 -1.536846 2.140596 0.090709 -0.012069 476976.000000 0 0 1
-1.524631 19.761733 -13.149950 23.785958 -1.493798 2.156571 0.058205 -0.003607 256384.000000 0 1 0
-0.924931 18.561633 -13.464150 22.949359 -1.521007 2.197761 0.050118 -0.002285 -163205.000000 0 1 0
-1.767431 17.524833 -12.959550 21.867636 -1.470283 2.205124 0.036734 -0.003896 89008.800000 0 1 0
-1.251731 16.110633 -13.037150 20.762625 -1.493256 2.249667 0.022665 -0.001708 -317263.000000 0 1 0
-0.203331 15.825333 -12.091050 19.916727 -1.557949 2.223177 0.020855 -0.003916 747629.000000 0 1 0
0.403869 14.521233 -12.167250 18.949177 1.542991 2.268030 0.026611 -0.000642 405083.000000 0 1 0
0.883369 13.964433 -13.577350 19.496927 1.507622 2.341143 0.007747 0.001706 -580007.000000 0 1 0
-0.091131 13.684633 -14.571650 19.990259 -1.564137 2.387565 0.009234 -0.007435 44038.000000 0 1 0
0.430369 12.699833 -15.425750 19.985613 1.536922 2.452531 0.011745 -0.014485 156285.000000 0 1 0
-0.364031 12.691133 -16.767950 21.032392 -1.542120 2.493512 0.022274 -0.010461 235198.000000 0 1 0
-0.058631 13.883433 -17.453850 22.302243 -1.566573 2.469636 0.021598 -0.014004 95661.500000 0 1 0
-0.412931 13.853633 -18.817850 23.371032 -1.540998 2.506773 0.030207 -0.013292 -271297.000000 0 1 0
-1.010331 15.148233 -19.413550 24.644993 -1.504199 2.477908 0.029553 -0.009311 -189314.000000 0 1 0
-0.107731 16.214033 -19.556050 25.403653 -1.564152 2.449344 0.024621 -0.012548 -703725.000000 0 0 1
-0.749231 17.385333 -19.825050 26.378851 -1.527727 2.421206 0.047480 -0.018896 -62887.200000 0 0 1
0.247369 18.494133 -20.266750 27.437844 1.557422 2.401850 0.059248 -0.019548 276668.000000 0 0 1
0.653469 18.374333 -21.624150 28.383922 1.535247 2.436953 0.049111 -0.026847 -359923.000000 0 0 1
1.639969 19.326333 -21.862650 29.226223 1.486142 2.415914 0.053547 -0.024530 -398129.000000 0 0 1
2.299469 19.303533 -23.245050 30.302579 1.452233 2.445102 0.062826 -0.036080 -366391.000000 0 0 1
3.175469 18.253233 -23.509750 29.932799 1.398553 2.474167 0.044313 -0.033483 -423140.000000 0 0 1
3.766469 18.468033 -24.783950 31.136774 1.369610 2.491405 0.046092 -0.042071 -132063.000000 0 0 1
4.737969 17.360933 -25.163220 30.936031 1.304374 2.520761 0.023642 -0.028021 -929479.000000 0 0 1
5.849669 17.194833 -24.324850 30.357524 1.242879 2.500226 0.018549 -0.022363 139593.000000 0 0 1
6.707469 16.075333 -24.626450 30.164027 1.175506 2.525977 0.023209 -0.022681 871319.000000 0 0 1
7.316569 15.923433 -26.106060 31.442237 1.140083 2.550418 0.023796 -0.024065 -1095790.000000 0 0 1
8.252769 16.921133 -26.406790 32.430718 1.117021 2.522237 0.014051 -0.014536 -60868.100000 0 0 1
8.560069 17.056833 -27.783450 33.706534 1.105665 2.539717 0.011488 -0.017366 -121093.000000 0 0 1
9.117169 15.876733 -28.603370 33.960951 1.049528 2.572227 0.021468 -0.021028 -694464.000000 0 0 1
10.440269 15.516933 -28.325030 33.942330 0.978538 2.558029 0.020754 -0.025752 -483750.000000 0 0 1
10.698469 14.133333 -28.622660 33.666972 0.922851 2.587105 0.017076 -0.025262 -120389.000000 0 0 1
10.314469 13.057333 -27.559580 32.193364 0.902222 2.598402 0.017864 -0.025665 -629635.000000 0 0 1
8.929369 12.956233 -27.458340 31.647402 0.967359 2.621219 0.032590 -0.028293 -830434.000000 0 0 1
8.569069 12.227633 -26.287780 30.232290 0.959537 2.625039 0.030171 -0.017483 -499571.000000 0 0 1
7.087969 11.898633 -26.341670 29.760718 1.033547 2.657538 0.027332 -0.026165 -986534.000000 0 0 1
6.211169 12.960433 -26.270080 29.944424 1.123894 2.640992 0.032331 -0.024272 -1406800.000000 0 0 1
4.987469 12.474233 -25.805720 29.093238 1.190444 2.661605 0.040292 -0.028196 -269067.000000 0 0 1
3.846169 13.454033 -26.214450 29.715340 1.292348 2.651280 0.046918 -0.027401 -615988.000000 0 0 1
3.559269 13.550633 -27.641800 30.989630 1.313934 2.672479 0.046806 -0.034271 420993.000000 0 0 1
4.339169 14.556133 -28.314830 32.131589 1.281084 2.649222 0.049972 -0.033485 261071.000000 0 0 1
4.086869 14.511933 -29.869790 33.458976 1.296285 2.674162 0.064596 -0.034201 7759.240000 0 0 1
4.798469 13.450533 -30.475810 33.655863 1.228121 2.703383 0.059815 -0.036830 -151282.000000 0 0 1
4.799469 13.566533 -31.884270 34.981315 1.230764 2.717629 0.064334 -0.034008 107722.000000 0 0 1
5.976369 12.665533 -32.493570 35.383115 1.129912 2.734651 0.060827 -0.028222 1396640.000000 0 0 1
7.312269 13.075333 -32.182130 35.498213 1.060886 2.705916 0.058274 -0.022269 690871.000000 0 0 1
7.742069 12.984333 -30.827680 34.334799 1.033130 2.685670 0.044737 -0.027117 -1037790.000000 0 0 1
7.722669 11.564133 -30.199470 33.247207 0.982001 2.710073 0.044347 -0.024676 -439603.000000 0 0 1
8.773869 10.753933 -30.669710 33.663912 0.886450 2.716635 0.034367 -0.019465 -205643.000000 0 0 1
8.754069 9.495333 -30.068360 32.724629 0.825994 2.735901 0.036884 -0.016866 -467806.000000 0 0 1
9.934769 8.594633 -30.455780 33.168085 0.713199 2.734373 0.022662 -0.012059 -761711.000000 0 0 1
11.004469 8.863633 -29.617330 32.815371 0.678060 2.696439 0.026486 -0.019000 -710366.000000 0 0 1
11.968169 7.828833 -29.729600 32.990556 0.579279 2.693223 0.002825 -0.010798 -391374.000000 0 0 1
13.159969 7.911533 -28.719940 32.567040 0.541288 2.650613 0.005654 -0.004922 794784.000000 0 0 1
13.755769 6.560333 -28.515730 32.332739 0.445010 2.650771 0.012779 -0.004056 363963.000000 0 0 1
14.530569 6.105733 -29.611070 33.544491 0.397797 2.652459 0.013693 -0.004162 -955115.000000 0 0 1
15.299869 4.806133 -29.238920 33.348154 0.304368 2.639917 0.024679 -0.009849 141063.000000 0 0 1
16.128769 4.947733 -28.102790 32.777798 0.297651 2.600940 0.008878 -0.006429 -41374.000000 0 0 1
16.863869 3.814633 -27.806660 32.743730 0.222458 2.585304 0.026851 -0.011421 -91373.700000 0 0 1
17.662269 4.019533 -26.463630 32.069239 0.223766 2.541358 0.029072 -0.010867 -158703.000000 0 0 1
18.682269 4.976333 -26.584770 32.871584 0.260322 2.512814 0.049724 -0.015385 -87966.700000 0 0 1
19.401269 4.986333 -25.367650 32.323218 0.251566 2.473189 0.051594 -0.015438 221777.000000 0 0 1
20.447269 6.161333 -25.260390 33.077789 0.292675 2.439769 0.047054 -0.011419 11263.500000 0 0 1
19.909369 7.465333 -25.417810 33.138787 0.358741 2.444966 0.051157 -0.012480 35366.700000 0 0 1
20.752669 8.411933 -26.043340 34.346607 0.385103 2.431422 0.047645 -0.016589 -412052.000000 0 0 1
20.936369 8.340433 -27.601520 35.633387 0.379101 2.456874 0.051298 -0.015823 396370.000000 0 0 1
19.788169 8.690033 -28.378640 35.671214 0.413797 2.490730 0.040804 -0.009150 269470.000000 0 0 1
18.868069 7.649333 -28.536560 35.054979 0.385163 2.521891 0.034597 -0.007955 -223001.000000 0 0 1
17.488169 8.056133 -29.114790 34.905706 0.431685 2.557292 0.022815 -0.002132 -250344.000000 0 0 1
17.287369 8.182233 -30.548230 36.041593 0.442066 2.582210 0.006033 -0.000387 366753.000000 0 0 1
16.446869 9.295433 -30.864130 36.187002 0.514423 2.592324 -0.006865 0.000775 119525.000000 0 0 1
15.813769 9.078733 -32.296700 37.088752 0.521160 2.627613 -0.017095 0.005439 69783.700000 0 0 1
15.082769 7.879933 -32.332170 36.537002 0.481443 2.657110 -0.001317 0.005305 1118620.000000 0 0 1
13.845469 8.024833 -33.081750 36.749111 0.525284 2.691037 -0.003375 0.005806 1155030.000000 0 0 1
13.191869 6.722633 -33.590220 36.708610 0.471301 2.726429 -0.003943 0.001657 -4294.510000 0 0 1
12.903269 5.837433 -32.536700 35.485304 0.424848 2.731055 0.009767 -0.006617 -237387.000000 0 0 1
12.244169 4.743933 -33.064660 35.576626 0.369636 2.763561 0.014680 -0.008795 -320802.000000 0 0 1
11.971969 3.560233 -32.050270 34.398010 0.289052 2.769993 0.021489 -0.007697 -121964.000000 0 0 1
13.058769 2.752333 -31.666740 34.364069 0.207725 2.742740 0.021325 -0.012502 -225998.000000 0 0 1
12.678469 1.870633 -30.623280 33.196809 0.146487 2.745244 0.032348 -0.009334 290623.000000 0 0 1
11.833569 0.592433 -30.908730 33.101872 0.050022 2.775535 0.035938 -0.003652 574896.000000 0 0 1
12.610669 -0.471267 -31.501980 33.935613 -0.037353 2.760575 0.038836 -0.010487 110860.000000 0 0 1
13.390569 -1.175067 -30.600820 33.423021 -0.087529 2.727697 0.035763 -0.019147 -206145.000000 0 0 1
13.881869 -2.512467 -31.184190 34.226780 -0.179051 2.716753 0.032002 -0.021818 -37753.500000 0 0 1
12.925969 -3.547267 -31.323840 34.071201 -0.267836 2.737257 0.031807 -0.015809 -38157.700000 0 0 1
13.344869 -4.556667 -32.223540 35.173929 -0.329042 2.729089 0.046282 -0.020307 174496.000000 0 0 1
12.507269 -5.907767 -32.230090 35.072955 -0.441281 2.736191 0.049515 -0.016972 240176.000000 0 0 1
12.718569 -6.518267 -30.963750 34.102839 -0.473598 2.709168 0.056329 -0.017801 354025.000000 0 0 1
12.511369 -7.960267 -31.019980 34.382254 -0.566643 2.695661 0.063775 -0.022856 -88178.000000 0 0 1
12.862669 -8.725767 -29.742760 33.559187 -0.596068 2.660042 0.044424 -0.022243 1268180.000000 0 0 1
14.292069 -8.970967 -29.606190 34.077382 -0.560530 2.623556 0.055680 -0.020704 1404960.000000 0 0 1
14.780469 -9.580867 -28.451850 33.462861 -0.575117 2.587259 0.064857 -0.012620 -84715.100000 0 0 1
14.562769 -11.150767 -28.368710 33.781616 -0.653476 2.567652 0.043832 -0.006453 -1207290.000000 0 0 1
13.246969 -11.517867 -28.286410 33.290606 -0.715690 2.586177 0.024352 -0.016243 -1113770.000000 0 0 1
13.233369 -12.891567 -28.291340 33.789266 -0.772316 2.563100 0.029386 -0.025961 244219.000000 0 0 1
-10.376431 -2.230067 -17.622250 20.571515 0.211696 2.599505 0.025373 0.000293 286051.000000 0 1 0
-10.986631 -2.053567 -18.898750 21.956456 0.184783 2.607513 0.020006 0.003826 142543.000000 0 1 0
-11.823031 -3.077767 -19.349750 22.883827 0.254667 2.578418 0.009766 0.006707 -764048.000000 0 1 0
-12.577431 -2.754267 -20.667050 24.349635 0.215582 2.584436 -0.002356 -0.001846 -818615.000000 0 1 0
-13.480031 -1.744167 -20.386550 24.502342 0.128674 2.553544 -0.002417 0.003873 -525249.000000 0 1 0
-14.326131 -1.591567 -21.523550 25.904330 0.110642 2.551495 -0.004153 0.001900 229801.000000 0 0 1
-15.084231 -0.236267 -21.327050 26.123417 0.015662 2.525939 0.000893 0.000260 -135760.000000 0 0 1
-14.242331 0.868833 -21.412250 25.730980 -0.060928 2.553785 0.006752 -0.014024 200156.000000 0 0 1
-15.039031 1.993933 -21.750350 26.518408 -0.131815 2.532554 0.003745 -0.012185 11576.800000 0 0 1
-14.116031 3.042033 -22.353850 26.612232 -0.212256 2.568050 0.019987 -0.026975 271982.000000 0 0 1
-13.409931 3.826233 -21.351850 25.502310 -0.277943 2.563034 0.029353 -0.025858 152853.000000 0 0 1
-12.774531 4.926033 -21.891250 25.820172 -0.368043 2.582686 0.035068 -0.031300 -421273.000000 0 0 1
-11.794331 5.700333 -20.942150 24.701694 -0.450208 2.582623 0.024046 -0.031883 -91974.900000 0 1 0
-12.351931 6.218433 -19.774850 24.130558 -0.466394 2.531324 0.037813 -0.033708 245098.000000 0 1 0
-11.355531 6.427033 -18.780950 22.868732 -0.515031 2.534395 0.019807 -0.029306 271334.000000 0 1 0
-11.900331 7.105433 -17.475150 22.304393 -0.538269 2.471050 0.048728 -0.021780 -32601.000000 0 1 0
-12.233031 8.443633 -17.672250 23.092215 -0.604140 2.442289 0.033938 -0.016226 203447.000000 0 1 0
-13.117431 8.757233 -16.619650 22.912200 -0.588650 2.382357 0.033007 -0.011583 -93497.200000 0 1 0
-13.732331 10.190233 -16.683450 23.890485 -0.638401 2.343858 0.038955 -0.001533 139727.000000 0 1 0
-12.793831 11.201533 -16.341850 23.584158 -0.719137 2.336322 0.005827 0.026918 374853.000000 0 1 0
-13.453531 12.415033 -16.504050 24.647803 -0.745275 2.304460 0.023167 0.010410 -10519.400000 0 1 0
-12.724531 13.574233 -15.787750 24.401364 -0.817697 2.274443 0.034071 0.019036 -422381.000000 0 1 0
-12.777531 13.470033 -14.380150 23.483948 -0.811776 2.229813 0.054313 0.012872 -190940.000000 0 1 0
-12.224731 14.500833 -13.654750 23.370289 -0.870359 2.194787 0.059186 0.001468 -1005750.000000 0 1 0
-12.749031 14.564533 -12.181350 22.870258 -0.851769 2.132499 0.052372 -0.010130 408680.000000 0 1 0
-14.078331 15.039833 -12.116050 23.899679 -0.818407 2.102444 0.043717 -0.005453 843176.000000 0 1 0
-15.124431 14.092733 -12.451350 24.132751 -0.750101 2.112915 0.047496 -0.004011 -45874.900000 0 1 0
-16.499731 14.447033 -11.845350 24.925293 -0.719165 2.066026 0.032423 -0.000573 166448.000000 0 1 0
-17.504431 13.544733 -12.343450 25.342172 -0.658553 2.079530 0.025308 -0.006614 -166031.000000 0 0 1
-18.711631 13.871133 -11.711950 26.071119 -0.637917 2.036701 0.054148 -0.009243 -464260.000000 0 0 1
-19.947031 13.457933 -12.547650 27.137493 -0.593532 2.051466 0.040009 -0.012382 -232969.000000 0 0 1
-20.338931 12.115533 -12.253050 26.656997 -0.537238 2.048404 0.051176 -0.014763 743994.000000 0 0 1
-21.493031 11.719333 -13.006550 27.721174 -0.499198 2.059172 0.071430 -0.013058 405970.000000 0 0 1
-22.116331 10.402033 -12.411950 27.411510 -0.439633 2.040700 0.065116 -0.009779 -223072.000000 0 0 1
-21.360031 9.267233 -12.710050 26.526928 -0.409350 2.070468 0.069431 -0.008638 135229.000000 0 0 1
-21.736631 8.211033 -11.904950 26.108045 -0.361180 2.044278 0.059160 -0.012152 -409313.000000 0 0 1
-20.601231 7.209433 -11.693850 24.761518 -0.336632 2.062648 0.065211 -0.014838 -450752.000000 0 1 0
-20.435731 6.442833 -12.874550 24.997665 -0.305409 2.111839 0.068390 -0.010754 746021.000000 0 1 0
-19.353231 5.510833 -12.783050 23.839530 -0.277408 2.136740 0.063084 -0.018011 170979.000000 0 1 0
-19.373531 4.438533 -13.843650 24.221497 -0.225216 2.179182 0.069464 -0.021654 943277.000000 0 1 0
-20.408731 3.409933 -13.632350 24.778719 -0.165553 2.153357 0.070065 -0.024529 1392540.000000 0 1 0
-20.195531 2.359733 -14.544650 24.999493 -0.116317 2.191734 0.061355 -0.025852 -235325.000000 0 1 0
-20.992131 1.135733 -14.143150 25.337485 -0.054050 2.163000 0.053088 -0.024103 -711176.000000 0 0 1
-22.268931 1.067733 -14.691350 26.699834 -0.047911 2.153449 0.052982 -0.021987 -430130.000000 0 0 1
-22.754631 -0.234367 -14.530850 26.999514 0.010299 2.139084 0.049237 -0.028897 -736087.000000 0 0 1
-24.007331 -0.512767 -15.356450 28.503253 0.021356 2.139762 0.059087 -0.021415 -559842.000000 0 0 1
-25.171891 -0.112667 -14.667850 29.133874 0.004476 2.098399 0.074809 -0.025880 252348.000000 0 0 1
-26.314081 -0.791267 -15.214250 30.406091 0.030061 2.094821 0.073430 -0.014291 639826.000000 0 0 1
-27.633061 -0.216567 -14.626750 31.266192 0.007837 2.057612 0.070862 -0.018196 -82097.000000 0 0 1
-27.793411 -0.663767 -13.283150 30.811627 0.023878 2.016517 0.083692 -0.020504 1223210.000000 0 0 1
-29.054091 -0.240367 -12.687350 31.704366 0.008273 1.982506 0.100710 -0.024327 1176750.000000 0 0 1
-29.248301 -0.924867 -11.285150 31.363563 0.031611 1.938868 0.088908 -0.032298 -423999.000000 0 0 1
-29.577311 -2.316767 -11.200450 31.711746 0.078170 1.931781 0.091190 -0.026154 833951.000000 0 0 1
-28.699031 -3.311767 -11.785650 31.201021 0.114888 1.958143 0.093376 -0.021649 6754.450000 0 0 1
-28.890801 -4.695367 -11.125850 31.313087 0.161113 1.934042 0.094188 -0.027489 33361.500000 0 0 1
-30.123951 -5.346567 -11.460550 32.670819 0.175656 1.929209 0.087054 -0.025945 692314.000000 0 0 1
-30.232241 -6.690267 -10.884050 32.820887 0.217786 1.908816 0.093738 -0.023877 -435073.000000 0 0 1
-29.461891 -7.817267 -11.528450 32.588615 0.259359 1.932381 0.089298 -0.020269 -910513.000000 0 0 1
-28.084151 -7.673267 -11.425050 31.275075 0.266714 1.944760 0.070073 -0.021402 -578424.000000 0 0 1
-27.458111 -8.811867 -12.006250 31.236948 0.310538 1.965311 0.086192 -0.023064 234754.000000 0 0 1
-25.927111 -8.923067 -11.737350 29.826190 0.331462 1.975259 0.083662 -0.029661 -101744.000000 0 0 1
-25.310061 -7.756467 -12.258950 29.172655 0.297371 2.004485 0.072694 -0.026554 826024.000000 0 0 1
-23.923031 -7.557467 -11.969350 27.797339 0.305986 2.015946 0.069498 -0.025703 639601.000000 0 0 1
-23.485531 -7.381167 -10.441850 26.741055 0.304511 1.971949 0.048511 -0.019458 -479906.000000 0 0 1
-23.863131 -6.137567 -9.853550 26.536978 0.251742 1.951220 0.048714 -0.014605 1378790.000000 0 0 1
-25.268021 -6.073767 -9.523750 27.677886 0.235898 1.922068 0.069398 -0.023251 614672.000000 0 0 1
-25.732211 -4.716167 -8.949950 27.649422 0.181267 1.900427 0.080932 -0.032678 -380993.000000 0 0 1
-25.450141 -4.568167 -7.572450 26.942899 0.177604 1.855690 0.065802 -0.025545 557764.000000 0 0 1
-25.375071 -3.195267 -7.213450 26.573254 0.125262 1.845701 0.084230 -0.027831 -164132.000000 0 0 1
-25.054991 -2.872867 -5.698550 25.854969 0.114164 1.793025 0.072626 -0.022147 -1746610.000000 0 0 1
-23.851731 -3.292167 -5.291550 24.652463 0.137160 1.787126 0.026650 -0.007245 -1388250.000000 0 1 0
-23.612431 -2.810367 -3.971350 24.108436 0.118463 1.736279 0.007507 -0.005747 93331.000000 0 1 0
-22.305031 -3.380067 -3.370050 22.810009 0.150394 1.719084 0.000332 0.000299 -191657.000000 0 1 0
-22.477231 -4.737067 -3.127050 23.182842 0.207710 1.706095 0.025083 0.000875 404174.000000 0 1 0
-21.358431 -5.461167 -2.653550 22.204690 0.250328 1.690587 0.017877 -0.003833 -205396.000000 0 1 0
-21.624331 -6.944067 -2.552550 22.854918 0.310721 1.682715 0.032961 0.001996 314638.000000 0 1 0
-22.370631 -7.383367 -1.391850 23.598654 0.318790 1.629811 0.049532 0.007686 609664.000000 0 1 0
-22.878831 -8.678167 -1.570250 24.519730 0.362544 1.634880 0.042746 0.002378 114958.000000 0 1 0
-23.122731 -9.480867 -0.316250 24.992950 0.389117 1.583450 0.034188 -0.007662 661382.000000 0 1 0
-21.842231 -9.810767 0.227750 23.945481 0.422159 1.561285 0.014173 0.000351 572750.000000 0 1 0
-21.924731 -10.665667 1.362950 24.419417 0.452763 1.514953 -0.004884 -0.001313 -159568.000000 0 1 0
-20.605531 -11.285167 1.833850 23.564930 0.501058 1.492896 -0.005259 -0.002615 -414255.000000 0 1 0
-19.973531 -12.176767 0.968050 23.412661 0.547481 1.529437 -0.001496 0.007093 362060.000000 0 1 0
-18.901831 -12.750767 1.718550 22.865141 0.593460 1.495565 -0.018309 0.006297 250922.000000 0 1 0
-18.185531 -13.882367 0.909350 22.896737 0.652006 1.531071 -0.012258 0.011229 75933.000000 0 1 0
-19.045831 -15.030067 0.840950 24.276610 0.668092 1.536149 -0.000886 0.013005 533983.000000 0 1 0
-18.529031 -16.189167 0.211150 24.606070 0.718104 1.562215 0.002482 0.009615 -519768.000000 0 1 0
-17.424531 -16.912167 0.969750 24.301771 0.770478 1.530881 0.004963 0.011565 -364478.000000 0 1 0
-16.159531 -16.281267 0.899450 22.956897 0.789151 1.531606 0.003619 0.012143 664958.000000 0 1 0
-15.114131 -16.825967 1.735850 22.683988 0.838942 1.494198 0.011475 0.004261 818065.000000 0 1 0
-15.282831 -16.636567 3.277350 22.827205 0.827784 1.426726 0.027844 0.000106 -537387.000000 0 1 0
-15.117531 -15.287867 3.854050 21.842901 0.791000 1.393424 0.018887 0.001562 113177.000000 0 1 0
-14.219731 -15.189567 4.945650 21.386518 0.818363 1.337433 0.005583 0.006114 -25684.100000 0 1 0
-14.775231 -15.746967 6.314750 22.497789 0.817224 1.286291 0.018435 0.006297 -578081.000000 0 1 0
-15.733231 -14.839767 6.883950 22.696740 0.756183 1.262641 0.016902 0.008580 395767.000000 0 1 0
-15.961031 -15.063267 8.285650 23.458656 0.756469 1.209805 0.020052 0.011983 -237584.000000 0 1 0
-16.762131 -16.307567 8.711450 24.955864 0.771653 1.214213 0.006824 0.016288 -483189.000000 0 1 0
-16.168231 -17.524967 8.281950 25.241372 0.825644 1.236494 0.010111 0.011348 -30016.500000 0 0 1
-16.820531 -18.669367 8.830550 26.635580 0.837446 1.232869 0.009822 0.006256 -72377.700000 0 0 1
-16.660831 -18.944567 10.345350 27.267310 0.849451 1.181643 0.017168 0.004722 826826.000000 0 0 1
-15.327631 -19.384967 10.672850 26.918821 0.901754 1.163114 0.009327 0.009523 768570.000000 0 0 1
-15.261631 -19.929467 11.985050 27.816227 0.917271 1.125345 0.018226 0.002846 352160.000000 0 0 1
-13.888431 -20.584167 12.359250 27.737114 0.977243 1.108968 0.015896 0.006451 413756.000000 0 0 1
-12.825431 -19.654467 12.277150 26.486188 0.992634 1.088821 0.004836 0.007746 341835.000000 0 0 1
-11.607131 -20.438767 12.358450 26.555602 1.054316 1.086732 -0.006145 0.006970 2110710.000000 0 0 1
-10.267731 -19.593567 12.564550 25.440167 1.088105 1.054243 0.003330 0.003237 1408150.000000 0 0 1
-9.811531 -18.845267 11.452950 24.136700 1.090776 1.076396 0.005503 0.000882 -786540.000000 0 1 0
-8.862931 -17.923167 11.828850 23.231727 1.111562 1.036579 0.015245 -0.006699 -581344.000000 0 1 0
-8.034631 -17.292767 10.752150 21.890724 1.135848 1.057360 0.005155 -0.009199 -92396.800000 0 1 0
-6.958831 -18.000767 10.186950 21.822623 1.201908 1.085120 0.016320 -0.008859 -211661.000000 0 1 0
-6.211531 -17.283067 9.230650 20.554620 1.225772 1.105062 0.023651 -0.010436 -97834.600000 0 1 0
-5.049531 -18.057767 8.615750 20.635209 1.298129 1.140075 0.022496 -0.011267 -162439.000000 0 1 0
-3.838831 -18.028967 9.333050 20.661222 1.361004 1.102106 0.038223 -0.016629 -659141.000000 0 1 0
-2.877631 -18.720967 8.586450 20.796213 1.418278 1.145177 0.047324 -0.016557 817982.000000 0 1 0
-1.514831 -18.993567 9.351350 21.224939 1.491210 1.114548 0.043998 -0.021979 733654.000000 0 1 0
-0.588531 -19.529367 8.448950 21.286787 1.540670 1.162648 0.052003 -0.013470 -744609.000000 0 1 0
0.592869 -19.836367 9.150750 21.853356 -1.540917 1.138745 0.057562 -0.011116 210653.000000 0 1 0
1.837769 -20.216867 8.298750 21.930991 -1.480143 1.182726 0.055285 -0.024168 366187.000000 0 1 0
1.843569 -21.505067 7.737750 22.929008 -1.485278 1.226573 0.058257 -0.021957 -213932.000000 0 1 0
2.154469 -22.506267 8.699450 24.225074 -1.475360 1.203483 0.060465 -0.020675 -212387.000000 0 1 0
1.756269 -23.886167 8.268350 25.337700 -1.497402 1.238382 0.056036 -0.014695 149136.000000 0 0 1
1.960669 -24.845067 9.249250 26.583269 -1.492044 1.215429 0.049837 -0.007582 -334023.000000 0 0 1
1.668969 -26.117437 8.790350 27.607539 -1.506981 1.246751 0.048447 -0.009812 -592446.000000 0 0 1
1.780269 -27.277257 9.846450 29.054615 -1.505623 1.225055 0.040738 -0.000910 476185.000000 0 0 1
0.913069 -27.189197 10.987050 29.339417 -1.537227 1.186960 0.042245 -0.004340 421268.000000 0 0 1
-0.459631 -27.473967 10.716650 29.493672 1.554068 1.198931 0.031440 0.001449 91802.100000 0 0 1
-1.186231 -27.664817 12.046750 30.197242 1.527944 1.160441 0.034236 -0.000514 -193929.000000 0 0 1
-0.832331 -28.831937 12.786350 31.550976 1.541936 1.153533 0.033905 -0.003346 -225664.000000 0 0 1
-0.974431 -28.603717 14.187650 31.943881 1.536743 1.110579 0.032945 -0.007229 60033.800000 0 0 1
-0.549931 -29.824467 15.124650 33.444825 1.552359 1.101536 0.026250 0.004986 261519.000000 0 0 1
-0.669431 -29.532027 16.460550 33.816245 1.548132 1.062414 0.029192 0.005038 -52981.800000 0 0 1
-0.168131 -30.600387 17.232450 35.119358 1.565302 1.057924 0.028720 0.005135 -23927.900000 0 0 1
-0.629731 -30.505567 18.691650 35.782174 1.550156 1.021165 0.033429 0.001318 376495.000000 0 0 1
-2.014231 -30.795417 18.824250 36.149235 1.505483 1.023082 0.013807 -0.001025 51182.700000 0 0 1
-2.349931 -30.723697 20.148550 36.816189 1.494459 0.991692 0.032205 -0.005765 -636800.000000 0 0 1
-3.845831 -30.632157 20.411150 37.009924 1.445901 0.986629 0.045415 -0.014577 -609797.000000 0 0 1
-4.461031 -29.459337 19.897950 35.828505 1.420508 0.981993 0.025686 -0.016775 578835.000000 0 0 1
-5.802931 -29.229627 20.334450 36.076792 1.374816 0.972006 0.033140 -0.026089 663322.000000 0 0 1
-6.002331 -28.226397 21.505150 35.989289 1.361268 0.930363 0.064023 -0.033193 -319257.000000 0 0 1
-5.414731 -28.682347 22.689550 36.970421 1.384210 0.910030 0.062128 -0.034124 -93534.600000 0 0 1
-5.448531 -27.610147 23.625550 36.744705 1.375962 0.872433 0.075604 -0.033374 -822130.000000 0 0 1
-4.434231 -27.711787 24.763850 37.427982 1.412129 0.847792 0.086112 -0.032116 -310382.000000 0 0 1
-4.548431 -28.860047 25.566450 38.823110 1.414479 0.851923 0.087509 -0.027293 -77462.200000 0 0 1
-3.772131 -29.886447 25.035050 39.168641 1.445245 0.877390 0.078509 -0.025236 -435794.000000 0 0 1
-3.956931 -31.210327 25.761850 40.662203 1.444686 0.884653 0.076329 -0.027426 16670.200000 0 0 1
-3.560131 -31.210897 27.127750 41.505535 1.457220 0.858474 0.075220 -0.025970 144521.000000 0 0 1
-3.808131 -32.461147 27.742050 42.870144 1.454017 0.866998 0.072921 -0.024472 -95262.200000 0 0 1
-3.369031 -32.496327 29.231850 43.839054 1.467491 0.840891 0.079369 -0.022368 983670.000000 0 0 1
-1.922331 -32.482157 29.280650 43.773763 1.511684 0.838057 0.075397 -0.027127 1223810.000000 0 0 1
-1.411531 -32.465837 30.617150 44.647876 1.527346 0.815167 0.069502 -0.023765 25008.500000 0 0 1
-28.165241 3.110833 -10.217650 30.122391 -0.110004 1.916867 0.082591 -0.019810 159700.000000 0 0 1
-28.906941 2.758833 -11.395450 31.194209 -0.095150 1.944758 0.078161 -0.033979 558403.000000 0 0 1
-29.730161 3.862233 -11.778650 32.210804 -0.129186 1.945153 0.054919 -0.028672 171298.000000 0 0 1
-30.468681 3.786833 -13.123950 33.390398 -0.123652 1.974738 0.063869 -0.022889 -584142.000000 0 0 1
-31.634011 3.056933 -13.108350 34.378545 -0.096335 1.961993 0.076525 -0.024132 -459613.000000 0 0 1
-32.303051 2.871533 -14.337650 35.458441 -0.088661 1.987065 0.092662 -0.021542 -620723.000000 0 0 1
-33.510751 1.992633 -14.246050 36.467670 -0.059393 1.972133 0.085049 -0.022059 -667906.000000 0 0 1
-33.123391 0.653933 -14.021950 35.975016 -0.019740 1.971177 0.083996 -0.020967 193699.000000 0 0 1
-34.174522 -0.088367 -13.443950 36.723910 0.002586 1.945591 0.077482 -0.028802 -16689.100000 0 0 1
-33.668041 -1.349167 -12.793250 36.041982 0.040051 1.933661 0.065646 -0.027722 -31052.800000 0 0 1
-33.633691 -2.483167 -13.624750 36.373412 0.073696 1.954740 0.059316 -0.018022 333405.000000 0 0 1
-33.009901 -3.549467 -12.926650 35.627946 0.107116 1.942092 0.064298 -0.019316 133174.000000 0 0 1
-33.451581 -4.836267 -13.668350 36.458491 0.143580 1.955087 0.060601 -0.013632 91775.100000 0 0 1
-33.055981 -6.090267 -13.242450 36.126884 0.182198 1.946099 0.060158 -0.015909 -133867.000000 0 0 1
-33.731891 -7.113667 -13.937450 37.184637 0.207843 1.954996 0.057471 -0.018707 -324113.000000 0 0 1
-33.542391 -8.531267 -13.329550 37.088427 0.249062 1.938420 0.058052 -0.018614 -337138.000000 0 0 1
-32.294621 -9.167067 -13.297350 36.108132 0.276582 1.947938 0.058312 -0.017588 -29118.100000 0 0 1
-31.787381 -9.649467 -14.535350 36.260532 0.294722 1.983250 0.050281 -0.014754 -181211.000000 0 0 1
-30.444171 -10.383067 -14.339850 35.217708 0.328682 1.990158 0.053096 -0.017287 -145313.000000 0 0 1
-30.561921 -11.774067 -14.039250 35.633695 0.367729 1.975763 0.051866 -0.014494 236205.000000 0 0 1
-29.319441 -12.349267 -13.705850 34.640790 0.398645 1.977579 0.065223 -0.023496 -188359.000000 0 0 1
-29.332271 -13.870567 -13.957050 35.321014 0.441715 1.977026 0.067264 -0.022017 -215582.000000 0 0 1
-29.314851 -14.199167 -15.334750 36.001825 0.451064 2.010801 0.059141 -0.019057 113983.000000 0 0 1
-29.444191 -15.572567 -15.698150 36.822509 0.486487 2.011216 0.061526 -0.022929 -140474.000000 0 0 1
-28.185161 -16.403467 -15.388550 36.059458 0.527071 2.011698 0.042477 -0.015726 -69900.300000 0 0 1
-27.067141 -15.993667 -16.137350 35.338953 0.533693 2.045017 0.051298 -0.022410 -539335.000000 0 0 1
-26.148591 -17.052867 -16.309250 35.221311 0.577887 2.052230 0.051237 -0.023637 -230036.000000 0 0 1
-24.880031 -16.567867 -16.998850 34.387077 0.587479 2.087870 0.041424 -0.029885 -67919.500000 0 0 1
-25.216321 -16.096067 -18.314050 35.076355 0.568120 2.120131 0.060764 -0.033143 1335840.000000 0 0 1
-23.930831 -15.914667 -18.962250 34.431501 0.586867 2.154028 0.038042 -0.024646 979471.000000 0 0 1
-24.111231 -15.488967 -20.428450 35.193481 0.571011 2.190091 0.056053 -0.028497 -64522.900000 0 0 1
-24.629831 -16.496167 -21.245650 36.470944 0.590144 2.192642 0.066933 -0.037264 -1013190.000000 0 0 1
-25.975021 -16.395067 -21.489750 37.487455 0.563035 2.181265 0.078753 -0.040485 -1309110.000000 0 0 1
-26.643351 -17.627967 -22.175450 38.889124 0.584506 2.177573 0.083906 -0.038312 -30220.100000 0 0 1
-26.208681 -17.770367 -23.487450 39.425134 0.595831 2.208993 0.080180 -0.026373 107588.000000 0 0 1
-26.757301 -18.905367 -24.149350 40.700825 0.615108 2.205996 0.068533 -0.021242 -504528.000000 0 0 1
-26.101341 -19.150167 -25.515440 41.219493 0.632978 2.238283 0.066261 -0.020249 496404.000000 0 0 1
-24.771231 -19.659367 -25.456530 40.597285 0.670849 2.248557 0.074347 -0.028542 345722.000000 0 0 1
-24.622131 -21.014467 -25.051250 40.931923 0.706510 2.229412 0.059196 -0.020027 215604.000000 0 0 1
-23.106931 -21.336567 -24.803150 40.054658 0.745585 2.238561 0.045352 -0.011786 680989.000000 0 0 1
-22.297131 -21.287167 -25.947490 40.293644 0.762230 2.270459 0.036142 -0.017882 -597874.000000 0 0 1
-21.050731 -21.866567 -25.639830 39.732618 0.804405 2.272225 0.040444 -0.021022 -525834.000000 0 0 1
-19.981631 -21.522667 -26.647810 39.655978 0.822511 2.307668 0.030204 -0.024675 -1151380.000000 0 0 1
-19.980531 -22.307367 -27.877670 40.914603 0.840366 2.320419 0.032465 -0.010678 58728.200000 0 0 1
-20.974931 -22.018867 -28.869230 41.931023 0.809674 2.330206 0.031041 -0.011048 252210.000000 0 0 1
-20.314231 -22.003767 -30.259780 42.573325 0.825302 2.361386 0.037299 -0.014800 346100.000000 0 0 1
-20.153431 -23.304367 -30.769460 43.543243 0.857777 2.355537 0.033511 -0.012545 333419.000000 0 0 1
-19.253731 -23.376967 -31.899160 43.985738 0.881818 2.382144 0.029178 -0.011495 448743.000000 0 0 1
-19.236431 -24.800667 -32.503320 45.183838 0.911085 2.373673 0.039436 -0.009973 73654.500000 0 0 1
-18.483531 -24.896267 -33.727000 45.814578 0.932163 2.398180 0.044565 -0.009540 260481.000000 0 0 1
-19.242431 -24.729767 33.672320 45.996279 0.909547 0.749446 0.039548 -0.004654 -49935.500000 0 0 1
-18.450131 -24.783967 32.349449 44.734095 0.930864 0.762445 0.039940 -0.002658 -309339.000000 0 0 1
-17.666331 -23.649967 32.059589 43.580242 0.929223 0.744178 0.035769 -0.006071 -217488.000000 0 0 1
-17.119331 -23.735167 30.735889 42.439658 0.945941 0.760886 0.038954 -0.005414 313377.000000 0 0 1
-16.163831 -22.547567 30.418339 41.169620 0.948833 0.739428 0.027982 0.002942 206396.000000 0 0 1
-16.875331 -21.314567 30.424759 40.801391 0.901120 0.729242 0.029148 -0.004298 326417.000000 0 0 1
-16.058131 -20.196967 30.061949 39.616939 0.899065 0.709304 0.027648 -0.002903 139838.000000 0 0 1
-15.384631 -19.504167 31.265189 39.932586 0.902930 0.671404 0.027554 -0.008701 -91168.200000 0 0 1
-15.095031 -18.133167 31.120359 39.053149 0.876577 0.648697 0.027647 -0.011935 -68856.700000 0 0 1
-14.284631 -17.640567 32.184429 39.383725 0.890132 0.614258 0.030267 -0.017198 -63826.400000 0 0 1
-13.748831 -16.227367 31.851239 38.299598 0.867894 0.588753 0.033726 -0.015668 426664.000000 0 0 1
-12.761431 -16.230967 30.785099 37.067786 0.904502 0.590777 0.046320 -0.018250 367268.000000 0 0 1
-12.331431 -14.902967 30.635339 36.231017 0.879541 0.563191 0.032140 -0.018374 -516979.000000 0 0 1
-10.872931 -14.789667 30.204839 35.345257 0.936854 0.546083 0.045085 -0.019966 -384448.000000 0 0 1
-10.500131 -13.511867 29.829219 34.389033 0.910173 0.520833 0.054793 -0.011139 365367.000000 0 0 1
-9.203031 -13.228467 30.383139 34.392198 0.962963 0.487661 0.049747 -0.013475 723600.000000 0 0 1
-8.829031 -11.714067 30.328189 33.689319 0.924924 0.450495 0.046960 -0.013395 -76193.700000 0 0 1
-9.515631 -10.948767 31.302209 34.500015 0.855315 0.433955 0.043306 -0.008848 233722.000000 0 0 1
-9.191331 -9.574167 31.165509 33.873798 0.805796 0.402594 0.036261 -0.000478 35385.000000 0 0 1
-9.989031 -8.693867 32.193329 34.810552 0.716185 0.390247 0.021218 -0.001145 664803.000000 0 0 1
-11.343631 -8.577967 31.772679 34.810381 0.647452 0.420865 0.030346 -0.007648 1133510.000000 0 0 1
-12.376131 -7.965767 32.616642 35.783619 0.571891 0.423889 0.022988 -0.007666 1138040.000000 0 0 1
-12.149931 -6.535567 33.248543 35.997223 0.493514 0.393320 0.020749 0.006571 -458563.000000 0 0 1
-12.031431 -5.529467 32.291549 34.900924 0.430796 0.389142 0.023654 0.001344 268459.000000 0 0 1
-12.191131 -4.246467 32.828656 35.275726 0.335181 0.374665 0.016375 -0.006725 -401860.000000 0 0 1
-11.796331 -3.070167 31.910559 34.159379 0.254616 0.364879 0.014325 0.002924 -137049.000000 0 0 1
-10.413231 -2.830567 31.770369 33.553001 0.265411 0.327433 0.017809 0.001588 117026.000000 0 0 1
-10.160831 -1.631667 31.069889 32.729846 0.159225 0.319848 0.009756 0.002097 33383.600000 0 0 1
-8.672031 -1.229267 31.182369 32.389124 0.140813 0.273831 0.016004 0.002363 99014.200000 0 0 1
-8.313531 -0.712567 32.436549 33.492570 0.085503 0.251782 0.016826 -0.010297 107687.000000 0 0 1
-6.952431 -0.316867 32.414199 33.152934 0.045545 0.211499 0.027407 -0.013943 17753.500000 0 0 1
-6.528931 0.345633 33.755532 34.382879 -0.052889 0.191320 0.042529 -0.023746 -542716.000000 0 0 1
-6.975231 1.659433 34.059742 34.806229 -0.233562 0.207480 0.051860 -0.019276 6653.600000 0 0 1
-6.445431 2.730133 33.269915 33.998301 -0.400664 0.207370 0.060059 -0.019621 -173857.000000 0 0 1
-7.234931 4.026233 33.478781 34.487440 -0.507819 0.242449 0.066127 -0.020992 158809.000000 0 0 1
-8.554531 4.026533 32.989138 34.317287 -0.439926 0.279121 0.033260 -0.013072 -192275.000000 0 0 1
-9.280431 5.178033 33.240423 34.897911 -0.508928 0.309439 0.034092 -0.003460 -843433.000000 0 0 1
-10.547831 5.197333 32.413369 34.480364 -0.457822 0.348011 0.025284 -0.000586 -777349.000000 0 0 1
-11.289031 6.348233 32.687946 35.160263 -0.512265 0.377241 0.032708 -0.005453 -278130.000000 0 0 1
-12.332431 6.529533 31.750129 34.681326 -0.486937 0.414092 0.012796 -0.000260 245175.000000 0 0 1
-13.221531 7.795833 32.048089 35.533983 -0.532761 0.446649 0.027784 -0.009471 798569.000000 0 0 1
-14.106131 7.677933 33.188482 36.870163 -0.498455 0.450695 0.031784 -0.010413 870326.000000 0 0 1
-14.919231 8.824633 33.401054 37.630945 -0.534141 0.478698 0.033701 -0.008885 148177.000000 0 0 1
-15.720731 8.996933 -33.961900 38.490218 -0.519801 2.651632 0.032114 -0.007396 -403757.000000 0 0 1
-14.893131 9.259633 -32.904370 37.285972 -0.556251 2.651919 0.022466 -0.008768 -260896.000000 0 0 1
-15.665531 9.631933 -31.771590 36.709902 -0.551266 2.616899 0.031421 -0.007517 -812087.000000 0 0 1
-14.867331 10.166033 -30.513920 35.432825 -0.599759 2.608376 0.040572 -0.010078 402029.000000 0 0 1
-14.045131 11.309633 -30.638970 35.551652 -0.677925 2.609635 0.040993 -0.012326 -69874.100000 0 0 1
-12.895231 11.201233 -31.428780 35.770418 -0.715213 2.643771 0.046725 -0.016172 -455874.000000 0 0 1
-11.876931 12.348733 -31.232570 35.623393 -0.804871 2.639845 0.042064 -0.011327 -19947.700000 0 0 1
-12.295231 13.538633 -31.932840 36.799097 -0.833492 2.621477 0.038476 -0.019526 567302.000000 0 0 1
-11.260331 14.513533 -32.029690 36.923417 -0.910955 2.620876 0.034282 -0.021635 139550.000000 0 0 1
-11.555331 15.680133 -31.048110 36.652113 -0.935706 2.581306 0.046251 -0.019195 -264739.000000 0 0 1
-12.648031 16.464133 -31.424520 37.663521 -0.915738 2.557747 0.046075 -0.023430 -146701.000000 0 0 1
-12.852831 17.547733 -30.517700 37.475969 -0.938622 2.522365 0.043918 -0.016541 -853073.000000 0 0 1
-14.275131 18.076133 -30.506080 38.224951 -0.902354 2.494877 0.033809 -0.020890 -1088710.000000 0 0 1
-14.639231 18.641033 -31.794350 39.656978 -0.905069 2.500987 0.030500 -0.020878 -278386.000000 0 0 1
-16.006631 18.889333 -31.927040 40.402414 -0.867819 2.481974 0.034435 -0.019655 33881.900000 0 0 1
-16.614531 20.118633 -31.119550 40.610694 -0.880504 2.443842 0.019792 -0.022269 -404024.000000 0 0 1
-15.892031 21.323333 -31.388880 41.140041 -0.930318 2.438701 0.024594 -0.019529 169999.000000 0 0 1
-16.414831 22.536933 -30.915840 41.631109 -0.941294 2.407761 0.007188 -0.017117 614888.000000 0 0 1
-17.789131 23.069733 -31.480650 42.891690 -0.913926 2.394926 0.031466 -0.020232 1596390.000000 0 0 1
-18.967431 22.478033 -30.902540 42.661369 -0.869901 2.380914 0.027951 -0.024987 958511.000000 0 0 1
-19.929531 21.948933 -31.795570 43.472982 -0.833581 2.391150 0.040182 -0.023775 58992.900000 0 0 1
-21.265331 21.533433 -31.100120 43.394936 -0.791662 2.369821 0.035310 -0.029157 428102.000000 0 0 1
-22.150131 22.511133 -30.528910 43.924865 -0.793481 2.339252 0.041847 -0.029872 687437.000000 0 0 1
-22.728131 23.472933 -31.380960 45.302441 -0.801518 2.336021 0.058622 -0.024986 -329670.000000 0 0 1
-23.933531 23.023533 -32.247430 46.290320 -0.766021 2.341492 0.063630 -0.026120 -409247.000000 0 0 1
-23.627331 22.017133 -33.223790 46.333845 -0.750136 2.370360 0.069671 -0.023539 -276284.000000 0 0 1
-24.751431 21.594433 -33.937920 47.230661 -0.717385 2.372522 0.078202 -0.021992 -498113.000000 0 0 1
-24.535831 20.498033 33.632320 46.403764 -0.695976 0.760088 0.073466 -0.015297 -236504.000000 0 0 1
-24.440331 19.162333 34.091134 46.116485 -0.664937 0.738856 0.074423 -0.022336 290769.000000 0 0 1
-24.242431 18.287333 32.973149 44.825780 -0.646281 0.744267 0.058945 -0.023446 -387925.000000 0 0 1
-23.909931 16.823633 33.377461 44.370873 -0.613155 0.719344 0.054790 -0.010840 -730259.000000 0 0 1
-24.962831 16.040033 33.867184 45.026789 -0.571125 0.719468 0.061263 -0.008874 377511.000000 0 0 1
-25.550911 15.314733 32.762312 44.280461 -0.539964 0.737902 0.060933 -0.011487 -187843.000000 0 0 1
-26.489161 14.104833 32.996643 44.602695 -0.489289 0.738038 0.040705 -0.009320 1165390.000000 0 0 1
-27.828751 14.454933 33.434623 45.839486 -0.479066 0.753374 0.035992 -0.006785 1382320.000000 0 0 1
-28.835911 13.457733 33.592327 46.271641 -0.436655 0.758337 0.030247 -0.002715 362828.000000 0 0 1
-28.531591 12.270133 -34.146934 46.158650 -0.406144 2.403530 0.014131 -0.002421 -51789.400000 0 0 1
-27.393451 11.437033 34.239334 45.315989 -0.395509 0.714275 0.025160 -0.020031 144546.000000 0 0 1
-27.819031 10.109733 34.099577 45.154029 -0.348572 0.714862 0.031836 -0.016004 -701410.000000 0 0 1
-26.721241 9.019033 34.183044 44.315327 -0.325516 0.689822 0.029208 -0.022869 44091.000000 0 0 1
-25.792811 8.896433 33.129818 42.918533 -0.332141 0.688935 0.029892 -0.027275 396955.000000 0 0 1
-24.848631 9.949533 32.952400 42.453602 -0.380856 0.682183 0.023580 -0.025793 -474872.000000 0 0 1
-23.518831 9.463633 32.351679 41.101422 -0.382561 0.664673 0.040979 -0.023676 -207707.000000 0 0 1
-23.666031 9.355833 30.960089 40.076674 -0.376472 0.687994 0.037270 -0.025290 727214.000000 0 0 1
-22.428231 8.945733 30.377119 38.804910 -0.379524 0.671617 0.033407 -0.023631 586313.000000 0 0 1
-22.451531 8.950033 28.856019 37.640991 -0.379332 0.697249 0.045614 -0.024005 -27027.400000 0 0 1
-22.741431 10.262133 28.370119 37.780256 -0.423895 0.721335 0.038668 -0.020225 306288.000000 0 0 1
-22.664731 10.283133 26.961849 36.692972 -0.425932 0.745430 0.029561 -0.013569 -1121120.000000 0 0 1
-22.789131 11.634033 26.306829 36.698017 -0.472019 0.771528 0.023314 -0.008711 1268380.000000 0 0 1
-24.110831 12.248533 26.264469 37.698555 -0.470035 0.800014 0.033638 -0.007077 1057370.000000 0 0 1
-25.051711 11.652833 25.423339 37.546277 -0.435382 0.826954 0.029286 -0.001119 -774973.000000 0 0 1
-26.470841 12.177433 25.638159 38.811216 -0.431165 0.849197 0.033014 -0.002361 -425227.000000 0 0 1
-26.635871 13.576733 25.382599 39.218282 -0.471390 0.866873 0.030325 -0.006812 -124808.000000 0 0 1
-27.950591 14.052733 25.567599 40.403180 -0.465862 0.885617 0.031421 -0.013929 -8531.480000 0 0 1
-28.040691 15.543733 25.099849 40.717201 -0.506160 0.906579 0.021876 -0.017541 -95191.600000 0 0 1
-27.278941 16.439133 25.875579 41.035732 -0.542352 0.888519 0.027199 -0.018778 2022.780000 0 0 1
-27.277621 17.721733 25.228889 41.165827 -0.576150 0.911121 0.016845 -0.012774 -255150.000000 0 0 1
-22.429631 -9.677167 31.817909 40.113779 0.407317 0.654764 0.020164 -0.013557 437880.000000 0 0 1
-21.431031 -9.533967 30.789899 38.706634 0.418577 0.651016 0.013570 -0.009590 811759.000000 0 0 1
-22.070431 -9.490367 29.493219 38.039729 0.406101 0.683564 0.016352 -0.008881 657211.000000 0 0 1
-21.195231 -8.774767 28.378739 36.490919 0.392514 0.679808 0.020381 -0.015167 41038.700000 0 0 1
-20.800931 -7.436467 28.568389 36.112777 0.343346 0.658211 0.024537 -0.014540 880609.000000 0 0 1
-19.648131 -7.125567 29.394569 36.067485 0.347907 0.618088 0.017021 -0.007687 1577210.000000 0 0 1
-18.231331 -7.446867 28.755819 34.853040 0.387783 0.600489 0.022312 -0.010064 123285.000000 0 0 1
-17.873731 -8.839967 28.696849 34.944591 0.459301 0.607268 0.014167 -0.014379 576741.000000 0 0 1
-17.135931 -9.258567 29.884889 35.671667 0.495367 0.577598 0.014773 -0.018381 497567.000000 0 0 1
-15.654531 -8.812767 30.090279 35.045030 0.512734 0.538230 0.017579 -0.013648 168323.000000 0 0 1
-14.798231 -9.706267 29.390179 34.307170 0.580517 0.542002 0.026949 -0.015795 1068280.000000 0 0 1
-13.400931 -9.385767 29.657999 33.871441 0.610982 0.504110 0.039403 -0.018651 862368.000000 0 0 1
-12.382031 -10.241267 28.987149 33.142919 0.691053 0.506164 0.038125 -0.008493 -771047.000000 0 0 1
-12.212731 -9.968067 27.624999 31.806505 0.684543 0.518562 0.048447 -0.016457 845989.000000 0 0 1
-11.088831 -10.648067 26.984049 31.056117 0.765124 0.517860 0.059186 -0.015208 890471.000000 0 0 1
-10.805431 -10.184467 25.592849 29.588421 0.755823 0.525722 0.050747 -0.008277 91600.100000 0 0 1
-11.825231 -10.510367 24.669749 29.307003 0.726597 0.570243 0.038735 -0.011661 -190903.000000 0 0 1
-11.313031 -10.458467 23.405249 28.020883 0.746167 0.582157 0.048151 -0.022062 -82874.900000 0 0 1
-12.365631 -10.910567 22.383449 27.802304 0.722966 0.634964 0.051319 -0.026671 -275970.000000 0 0 1
-12.660031 -12.279567 22.556649 28.633312 0.770144 0.663606 0.062697 -0.022122 10497.100000 0 0 1
-13.869931 -12.727867 21.977449 28.937551 0.742486 0.708285 0.049084 -0.017053 -30283.900000 0 0 1
-15.009231 -12.651767 23.025349 30.257411 0.700377 0.705971 0.026930 -0.016097 -864420.000000 0 0 1
-16.263931 -13.012267 22.525549 30.679552 0.674783 0.746279 0.010678 -0.004831 -392072.000000 0 0 1
-17.140931 -13.234067 23.599809 32.029721 0.657479 0.742457 0.007904 -0.005519 -766567.000000 0 0 1
-18.356731 -14.045267 23.209649 32.755563 0.653114 0.783325 0.015883 -0.005429 -1337580.000000 0 0 1
-18.164931 -15.425367 22.953849 33.087548 0.704020 0.804140 0.015678 -0.001159 151777.000000 0 0 1
-19.398031 -16.110067 22.834349 34.018015 0.693064 0.834912 0.012205 0.000751 -10724.100000 0 0 1
-20.188431 -16.238667 24.156479 35.423192 0.677391 0.820385 0.012957 0.000307 -1015800.000000 0 0 1
-19.529831 -17.008967 25.117949 36.078118 0.716516 0.800692 0.021308 0.002363 -137044.000000 0 0 1
-20.227431 -16.912867 26.326699 37.259752 0.696390 0.786154 0.017716 0.001090 -123193.000000 0 0 1
-19.587231 -17.778767 27.487519 38.148498 0.737037 0.766216 0.023605 0.001752 83596.600000 0 0 1
-19.782231 -19.205567 27.318459 38.813512 0.770608 0.790009 0.037402 0.000426 124954.000000 0 0 1
-19.690831 -19.898467 28.559799 39.991749 0.790643 0.775398 0.035316 0.000798 -280864.000000 0 0 1
-19.445031 -21.372567 28.372519 40.495626 0.832586 0.794514 0.037182 0.003772 -259001.000000 0 0 1
-20.656931 -22.023467 28.086309 41.238122 0.817405 0.821565 0.041096 0.000258 -31974.200000 0 0 1
-20.475631 -23.378567 27.734979 41.653787 0.851497 0.842170 0.050652 0.006553 -86270.300000 0 0 1
-21.771131 -24.036767 27.239049 42.352262 0.834817 0.872186 0.048752 0.002828 -321646.000000 0 0 1
-22.835631 -24.021067 28.156339 43.488586 0.810692 0.866573 0.039842 0.001984 588203.000000 0 0 1
-24.031731 -24.350967 27.420869 43.845157 0.791996 0.895149 0.027701 0.008580 674524.000000 0 0 1
-25.014031 -25.344327 28.095509 45.358509 0.791957 0.902806 0.006992 0.013055 -696782.000000 0 0 1
-25.616731 -24.892067 29.215589 46.145233 0.771052 0.885216 0.002218 0.013994 -396072.000000 0 0 1
-26.280481 -25.894027 29.918589 47.500382 0.777991 0.889423 -0.005440 0.008967 -257733.000000 0 0 1
-27.291131 -25.339487 30.947209 48.421330 0.748333 0.877438 -0.002972 0.008719 405182.000000 0 0 1
-28.400431 -24.704067 30.317939 48.332731 0.715905 0.892746 0.004328 0.010633 510374.000000 0 0 1
-29.350871 -24.130267 31.205859 49.168578 0.688091 0.883214 0.005489 0.002498 723120.000000 0 0 1
-30.711121 -23.753367 30.503469 49.374660 0.658338 0.904860 0.012820 0.003638 296855.000000 0 0 1
-31.617541 -24.801867 30.565119 50.487900 0.665177 0.920534 0.015794 0.002080 -654265.000000 0 0 1
-32.733331 -24.724767 29.720099 50.656385 0.646909 0.943819 0.015356 -0.005102 -339161.000000 0 0 1
-33.757321 -25.719787 30.290179 52.139804 0.651075 0.950911 0.024738 -0.011792 -674648.000000 0 0 1
-33.420421 -27.071337 30.244919 52.578864 0.680823 0.957912 0.026813 -0.014558 -466057.000000 0 0 1
-34.404287 -27.971967 30.628619 53.890613 0.682640 0.966300 0.034213 -0.017976 -465114.000000 0 0 1
-33.794591 -29.371797 30.877659 54.389399 0.715494 0.967069 0.037425 -0.019936 130421.000000 0 0 1
-33.033981 -29.327487 32.086739 54.597658 0.726032 0.942590 0.040508 -0.015610 -113189.000000 0 0 1
-32.562281 -30.605917 32.356209 55.171991 0.754437 0.944114 0.033060 -0.020525 -3445.480000 0 0 1
-31.663601 -30.637377 33.623253 55.423421 0.768928 0.918942 0.025657 -0.020867 418245.000000 0 0 1
-32.380591 -30.406017 -33.777730 55.802899 0.753960 2.220944 0.031228 -0.013099 370381.000000 0 0 1
-31.438931 -30.499137 -32.702330 54.663023 0.770226 2.212116 0.024303 -0.011352 324291.000000 0 0 1
-31.969651 -29.947917 -31.332480 53.857781 0.752758 2.191691 0.030656 -0.008586 44673.800000 0 0 1
-32.038291 -28.502197 -31.311260 53.096350 0.727056 2.201492 0.034665 -0.010126 337712.000000 0 0 1
-30.767521 -27.915967 -31.019800 51.847561 0.736844 2.212160 0.034559 -0.008293 405346.000000 0 0 1
-30.724771 -26.406417 -31.095690 51.071052 0.709955 2.225433 0.027435 0.001744 -254460.000000 0 0 1
-31.532651 -25.803177 -30.123460 50.670848 0.685800 2.207431 0.035736 0.002034 -150271.000000 0 0 1
-31.295001 -24.403067 -29.958880 49.723448 0.662287 2.217439 0.039008 -0.000473 -470271.000000 0 0 1
-30.214331 -23.837767 -29.076750 48.234866 0.667970 2.217822 0.040747 -0.002784 -569256.000000 0 0 1
-30.010741 -22.429767 -29.292870 47.558504 0.641829 2.234367 0.040752 0.000623 429436.000000 0 0 1
-28.821551 -21.989867 -28.649730 46.206526 0.651748 2.239585 0.041003 -0.003257 227165.000000 0 0 1
-28.635921 -20.456567 -28.664900 45.389025 0.620304 2.254332 0.057378 -0.013863 98044.500000 0 0 1
-28.184521 -20.032367 -29.976910 45.763283 0.617910 2.285036 0.056286 -0.001905 310433.000000 0 0 1
-27.919091 -18.634567 -30.000740 45.019631 0.588544 2.300156 0.062992 -0.011295 -417855.000000 0 0 1
-27.676431 -18.144467 -31.432460 45.642152 0.580297 2.330452 0.066785 -0.014732 899462.000000 0 0 1
-28.791551 -18.198067 -32.363070 46.983948 0.563662 2.330644 0.060962 -0.021875 1343430.000000 0 0 1
-29.867001 -17.298767 -32.038480 47.092986 0.524980 2.319001 0.042435 -0.021315 458482.000000 0 0 1
-30.778911 -16.688067 -33.157940 48.221177 0.496829 2.329005 0.034603 -0.027803 700465.000000 0 0 1
-31.601421 -17.639967 -33.827570 49.539103 0.509118 2.322447 0.043942 -0.028444 -706537.000000 0 0 1
-32.893781 -17.189967 -33.999590 50.333567 0.481556 2.312419 0.054951 -0.026833 -887855.000000 0 0 1
-33.672881 -17.963267 33.562936 50.823346 0.490059 0.849466 0.042008 -0.025894 -395520.000000 0 0 1
-34.114187 -19.265967 33.980021 51.861326 0.514097 0.856337 0.018463 -0.025139 288972.000000 0 0 1
-34.794937 -19.937267 32.923975 51.886129 0.520325 0.883379 0.014910 -0.020807 -127705.000000 0 0 1
-35.113925 -21.437067 33.087675 52.795169 0.548105 0.893462 0.010061 -0.015632 -14000.300000 0 0 1
-33.972321 -22.236667 32.890649 52.253065 0.579569 0.889952 0.024958 -0.013941 -98755.700000 0 0 1
-34.178690 -23.479067 33.456729 53.280411 0.601914 0.891897 0.029340 -0.012905 -660252.000000 0 0 1
-32.873901 -24.310667 33.553340 52.891668 0.636755 0.883592 0.028844 -0.007314 341809.000000 0 0 1
-31.990701 -23.987367 -33.997500 52.484557 0.643388 2.275439 0.021881 -0.007287 133757.000000 0 0 1
-31.316051 -22.752467 -34.137623 51.611502 0.628319 2.293526 0.023474 -0.007948 -1421610.000000 0 0 1
-29.995231 -22.675667 -33.378370 50.279373 0.647315 2.296762 0.032222 0.000803 -852379.000000 0 0 1
-29.006491 -23.505167 -33.955470 50.466259 0.681015 2.308831 0.026802 0.000757 103081.000000 0 0 1
-27.746811 -23.494267 -33.309480 49.309102 0.702597 2.312471 0.034792 0.001257 177193.000000 0 0 1
-27.579441 -23.922367 -31.832650 48.437824 0.714508 2.287875 0.024640 0.014143 -1327580.000000 0 0 1
-27.424211 -25.333817 -31.648470 48.944002 0.745797 2.273949 0.035159 0.010135 -239445.000000 0 0 1
-27.003241 -25.512377 -30.326250 47.955582 0.757017 2.255421 0.028327 0.008437 -212524.000000 0 0 1
-26.514201 -26.933157 -29.998880 48.252778 0.793237 2.241711 0.032073 -0.002382 173859.000000 0 0 1
-27.543001 -27.926247 -29.971410 49.363728 0.792307 2.223271 0.025264 -0.004855 294858.000000 0 0 1
-27.076081 -29.206927 -29.646850 49.649718 0.823240 2.210703 0.019846 -0.017003 -398143.000000 0 0 1
-27.973701 -30.344277 -30.165860 51.120272 0.826025 2.201974 0.024384 -0.006375 -312422.000000 0 0 1
-27.808941 -30.698417 -31.534500 52.059146 0.834745 2.221497 0.036497 -0.017836 248990.000000 0 0 1
-28.237871 -32.015837 -31.699540 53.171910 0.848017 2.209519 0.039003 -0.007429 -483347.000000 0 0 1
-27.984491 -32.728837 -33.057660 54.287359 0.863383 2.225518 0.027584 -0.008090 -474008.000000 0 0 1
-26.586731 -32.792157 -33.143320 53.671776 0.889526 2.236380 0.022703 -0.012619 -573068.000000 0 0 1
-26.173601 -33.159267 34.182526 54.341876 0.902595 0.890495 0.020438 -0.012821 1095980.000000 0 0 1
-24.604831 -33.340177 34.060044 53.638156 0.935024 0.882792 0.019172 -0.012292 1133640.000000 0 0 1
-24.210931 -33.967067 32.887555 53.118002 0.951547 0.903147 0.026668 -0.007288 -119612.000000 0 0 1
-23.540431 33.575428 33.134501 52.719602 -0.959319 0.891167 0.026645 -0.000530 -285462.000000 0 0 1
-23.477731 32.740010 31.865359 51.366460 -0.948688 0.901603 0.042549 -0.008416 422087.000000 0 0 1
-24.773031 32.254969 31.503889 51.444933 -0.915851 0.911728 0.035365 -0.021905 357815.000000 0 0 1
-24.715431 31.498519 30.321409 50.223472 -0.905483 0.922625 0.033827 -0.014061 -672671.000000 0 0 1
-26.068331 31.101309 29.766729 50.327999 -0.873208 0.937935 0.031155 -0.016534 -887367.000000 0 0 1
-26.762891 30.218549 30.573279 50.637323 -0.845969 0.922575 0.044448 -0.017916 1039990.000000 0 0 1
-28.019621 29.795549 29.954969 50.696884 -0.816106 0.938667 0.042822 -0.022999 1493460.000000 0 0 1
-28.668151 28.584919 30.693809 50.804236 -0.783944 0.922087 0.057813 -0.016195 325216.000000 0 0 1
-27.670151 27.548229 30.812049 49.738562 -0.783190 0.902716 0.042108 -0.013756 511802.000000 0 0 1
-27.968911 26.301329 31.376799 49.583500 -0.754680 0.885623 0.038658 -0.010913 -341224.000000 0 0 1
-28.798621 25.448379 30.435309 49.023348 -0.723717 0.900992 0.039208 -0.006449 -210282.000000 0 0 1
-28.044381 24.918349 29.387489 47.655387 -0.726443 0.906295 0.022030 -0.000780 -95208.900000 0 0 1
-28.796581 24.102629 28.495549 47.139963 -0.696896 0.921673 0.033681 -0.000332 51122.900000 0 0 1
-28.026621 23.960069 27.168559 45.800732 -0.707334 0.935780 0.038863 -0.005691 717713.000000 0 0 1
-26.950441 22.994079 27.289989 44.719095 -0.706348 0.914416 0.053952 -0.009792 1059790.000000 0 0 1
-26.062691 22.888079 26.178179 43.456013 -0.720636 0.924284 0.039913 -0.010598 263448.000000 0 0 1
-24.823431 22.008479 26.479479 42.446893 -0.725363 0.897168 0.016000 -0.010065 -457482.000000 0 0 1
-25.106241 20.740679 27.008939 42.308178 -0.690464 0.878397 0.052339 -0.021631 -189153.000000 0 0 1
-24.015031 20.020179 27.493129 41.634138 -0.694926 0.849511 0.023508 -0.010168 -321821.000000 0 0 1
-24.433631 18.665679 28.186299 41.711837 -0.652359 0.828830 0.050512 -0.014058 240114.000000 0 0 1
-23.209831 17.994279 28.413179 40.863175 -0.659489 0.801925 0.035732 -0.012433 627766.000000 0 0 1
-23.407231 16.854179 29.201849 41.045217 -0.624050 0.779229 0.038830 -0.009254 -336744.000000 0 0 1
-22.091831 16.094179 29.319549 40.083757 -0.629607 0.750340 0.045528 -0.013911 -609161.000000 0 0 1
-21.073231 16.689279 30.054249 40.322091 -0.669823 0.729730 0.055427 -0.006831 -128073.000000 0 0 1
-19.875531 15.926879 29.954529 39.318902 -0.675552 0.704655 0.051611 -0.007328 448797.000000 0 0 1
-18.818631 16.468979 30.973149 39.808342 -0.718911 0.679230 0.046847 -0.014488 -29605.800000 0 0 1
-18.924831 15.996379 32.335879 40.738710 -0.701735 0.653866 0.044836 -0.008604 594512.000000 0 0 1
-17.833831 16.457479 33.133643 41.069849 -0.745283 0.632143 0.042940 -0.013507 -109565.000000 0 0 1
-18.124631 16.322279 -33.968150 41.818109 -0.733123 2.518852 0.034829 -0.019221 425974.000000 0 0 1
-19.114331 17.191479 -33.390740 42.140789 -0.732485 2.485467 0.040305 -0.018364 1367190.000000 0 0 1
-20.457131 16.689679 -33.559240 42.699674 -0.684323 2.475006 0.045496 -0.011773 -12488.700000 0 0 1
-21.489531 17.538279 -32.848870 42.993481 -0.684500 2.440353 0.052994 -0.019363 -824016.000000 0 0 1
-21.568131 17.457379 -31.462080 41.950052 -0.680450 2.418842 0.045735 -0.016196 395515.000000 0 0 1
-22.587631 18.220479 -30.812990 42.327619 -0.678787 2.386144 0.026408 -0.016381 -169253.000000 0 0 1
-22.672331 17.976279 -29.246880 41.140749 -0.670380 2.361571 0.030562 -0.028725 226586.000000 0 0 1
-23.227231 16.737179 -28.752240 40.574977 -0.624408 2.358337 0.018290 -0.022213 -105706.000000 0 0 1
-24.621731 16.632079 -28.878840 41.434805 -0.594096 2.341961 0.041494 -0.022813 -191934.000000 0 0 1
-25.182841 15.476879 -27.953950 40.683321 -0.551071 2.328301 0.050050 -0.021267 130887.000000 0 0 1
-24.820731 14.148479 -28.389050 40.276374 -0.518089 2.353017 0.015185 -0.008903 421808.000000 0 0 1
-25.729921 13.193679 -27.835760 40.136412 -0.473816 2.337172 0.000743 -0.001330 387683.000000 0 0 1
-25.262341 11.726479 -28.068970 39.541918 -0.434590 2.360087 0.011885 -0.001210 495587.000000 0 0 1
-24.200531 11.279379 -27.224120 38.131913 -0.436145 2.365914 0.014733 -0.002640 190456.000000 0 0 1
-23.543831 10.178479 -27.762060 37.797426 -0.408055 2.395720 0.011532 0.000438 -650775.000000 0 0 1
-22.458731 9.573379 -26.908720 36.333502 -0.402942 2.404764 0.043489 -0.007453 -341535.000000 0 0 1
-22.925831 8.831279 -25.802240 35.627810 -0.367692 2.380694 0.039059 -0.003986 208031.000000 0 0 1
-21.789031 8.350879 -25.133630 34.295749 -0.365993 2.393297 0.059170 0.001645 -244839.000000 0 0 1
-22.224531 7.174379 -24.235450 33.656478 -0.312253 2.374718 0.059876 0.007882 397844.000000 0 0 1
-22.907631 6.147779 -24.977150 34.444343 -0.262194 2.382042 0.049488 -0.007321 582769.000000 0 0 1
-23.257731 5.056179 -24.103850 33.874512 -0.214067 2.362517 0.049590 0.013990 -97218.800000 0 0 1
34.449430 24.356733 -10.388350 43.450333 0.615428 1.812220 -0.022827 0.003960 -13898.900000 0 0 1
35.014360 23.529633 -9.404550 43.221460 0.591686 1.790141 -0.007247 -0.003659 390279.000000 0 0 1
-35.463694 22.997133 -9.821350 43.393555 -0.575299 1.799107 -0.001887 0.000664 567392.000000 0 0 1
-34.674584 22.527033 -8.604650 42.235459 -0.576143 1.775963 0.025981 0.000471 -284501.000000 0 0 1
-35.204054 21.398333 -7.955650 41.958389 -0.546162 1.761559 0.001931 -0.005442 775496.000000 0 0 1
-34.137055 20.916933 -7.103050 40.660914 -0.549730 1.746387 0.021950 -0.013300 716002.000000 0 0 1
-34.617857 20.032933 -5.909050 40.430574 -0.524601 1.717475 0.009194 -0.015692 -247997.000000 0 0 1
-35.345001 18.864333 -6.225150 40.544847 -0.490258 1.724943 0.006062 -0.013351 425342.000000 0 0 1
-35.765383 18.064333 -5.116750 40.393860 -0.467702 1.697809 0.019732 -0.022791 -338398.000000 0 0 1
35.214670 16.867033 -5.654650 39.453071 0.446689 1.714618 0.024235 -0.016311 343695.000000 0 0 1
34.023280 17.265633 -6.349450 38.678174 0.469602 1.735704 0.041411 -0.021118 261019.000000 0 0 1
33.332260 16.135533 -6.878350 37.665723 0.450832 1.754443 0.063410 -0.022655 417677.000000 0 0 1
32.485480 16.459833 -8.143950 37.316972 0.468980 1.790804 0.055970 -0.024602 132250.000000 0 0 1
32.203560 15.354233 -8.957650 36.783980 0.444905 1.816790 0.063548 -0.032678 -78092.900000 0 0 1
31.567360 15.826033 -10.145350 36.740844 0.464720 1.850564 0.060657 -0.022377 -574397.000000 0 0 1
30.801620 14.805233 -10.978650 35.895201 0.448060 1.881630 0.041500 -0.014371 163672.000000 0 0 1
29.619000 14.247833 -10.405050 34.475367 0.448362 1.877388 0.039706 -0.007718 511818.000000 0 0 1
29.614160 13.752633 -9.038650 33.879648 0.434759 1.840854 0.050018 -0.011670 -1563520.000000 0 0 1
28.486940 12.769133 -8.869150 32.453325 0.421394 1.847607 0.031143 0.005994 -618934.000000 0 0 1
28.769670 11.582733 -9.582850 32.460508 0.382748 1.870478 0.030898 0.006722 -292481.000000 0 0 1
27.819290 10.591633 -9.509150 31.249312 0.363785 1.879999 0.034436 0.003413 -1027480.000000 0 0 1
28.318300 9.199033 -9.999350 31.409159 0.314091 1.894793 0.028056 0.003354 486737.000000 0 0 1
29.483550 8.756033 -9.262250 32.120664 0.288684 1.863308 0.043756 -0.001153 984017.000000 0 0 1
29.616990 7.330133 -9.325050 31.903816 0.242622 1.867413 0.048174 -0.003469 -873718.000000 0 0 1
30.828820 6.869133 -8.568550 32.726460 0.219234 1.835707 0.069703 -0.010529 -699089.000000 0 0 1
32.063880 7.126233 -9.181450 34.105346 0.218696 1.843367 0.074010 -0.017280 62070.300000 0 0 1
33.169320 6.785233 -8.357450 34.872484 0.201780 1.812809 0.096341 -0.024807 208704.000000 0 0 1
34.536120 7.067033 -9.011150 36.385263 0.201841 1.821060 0.088706 -0.023265 -129214.000000 0 0 1
34.819310 6.174933 -10.034150 36.758649 0.175517 1.847279 0.078742 -0.024947 466756.000000 0 0 1
-35.530681 6.236233 -10.278150 37.509469 -0.173747 1.848361 0.065541 -0.024637 -850563.000000 0 0 1
-34.966693 5.421333 -11.463950 37.195196 -0.153818 1.884108 0.063416 -0.023947 932663.000000 0 0 1
-33.573651 5.457233 -11.858750 36.022235 -0.161136 1.906259 0.072159 -0.022320 1719820.000000 0 0 1
-33.073581 6.749033 -12.334450 35.938140 -0.201297 1.921132 0.053258 -0.017133 -358088.000000 0 0 1
-32.661011 7.750733 -11.223750 35.394746 -0.232998 1.893469 0.044199 -0.014274 -913099.000000 0 0 1
-33.692651 8.523133 -10.610350 36.337557 -0.247769 1.867107 0.042485 -0.014261 124730.000000 0 0 1
-33.736011 9.894233 -11.033050 36.847557 -0.285284 1.874885 0.047334 -0.011160 -519243.000000 0 0 1
-34.648027 10.700833 -10.157850 37.658671 -0.299551 1.843914 0.058244 -0.009580 -195649.000000 0 0 1
-34.156022 10.963833 -8.808450 36.938168 -0.310603 1.811581 0.044020 -0.008101 45.626000 0 0 1
-34.869809 12.021433 -8.193650 37.782990 -0.331992 1.789394 0.057847 -0.013746 -618429.000000 0 0 1
-34.015481 13.001533 -7.348650 37.149636 -0.365089 1.769922 0.063161 -0.018846 123825.000000 0 0 1
-33.221201 13.873033 -8.160450 36.914796 -0.395583 1.793699 0.043749 -0.020989 -181229.000000 0 0 1
-32.498231 14.722633 -7.316050 36.419988 -0.425370 1.773053 0.040625 -0.022307 -59819.200000 0 0 1
-31.459881 15.572733 -8.082750 36.021729 -0.459642 1.797109 0.021984 -0.013061 43121.200000 0 0 1
-32.065031 16.579233 -8.885650 37.175153 -0.477195 1.812154 0.015650 -0.008953 81862.900000 0 0 1
-31.273991 17.747233 -8.947550 37.055168 -0.516161 1.814672 0.027932 -0.007392 90062.400000 0 0 1
-32.039021 18.761933 -9.774050 38.393242 -0.529761 1.828207 0.012207 -0.009885 159677.000000 0 0 1
-31.920241 18.649633 -11.176350 38.621515 -0.528764 1.864377 0.013665 -0.006900 -378303.000000 0 0 1
-33.076071 19.073933 -11.849150 39.978041 -0.523087 1.871708 0.003144 -0.014675 -394841.000000 0 0 1
-32.854541 19.202233 -13.379650 40.338092 -0.528916 1.908888 -0.001808 -0.003690 -319445.000000 0 0 1
-31.860141 20.152333 -13.639250 40.090077 -0.563992 1.917942 0.010885 -0.008977 -166791.000000 0 0 1
-31.802921 20.530533 -15.008750 40.720893 -0.573244 1.948273 -0.009722 -0.001863 421793.000000 0 0 1
-30.751951 21.686833 -15.395050 40.657211 -0.614219 1.959139 0.020366 -0.012179 -479173.000000 0 0 1
-29.448471 21.363733 -15.056750 39.374195 -0.627611 1.963190 0.025958 -0.009674 -414444.000000 0 0 1
-28.615071 22.521833 -14.934550 39.358557 -0.666802 1.959997 0.038764 -0.011677 70980.100000 0 0 1
-28.090901 23.178633 -16.221050 39.868160 -0.689877 1.989818 0.024904 -0.014408 -781128.000000 0 0 1
-29.058401 23.973533 -16.929250 41.300369 -0.689807 1.993147 0.023728 -0.004280 372087.000000 0 0 1
-28.557131 24.679433 -18.036250 41.831692 -0.712688 2.016577 0.005905 -0.001406 -418771.000000 0 0 1
-27.603441 25.874633 -17.784250 41.805815 -0.753082 2.010202 0.016104 -0.005686 321445.000000 0 0 1
-28.297481 26.998033 -17.298650 42.765459 -0.761902 1.987229 0.021682 -0.006690 -125066.000000 0 0 1
-27.455541 28.100433 -17.331250 42.939647 -0.797006 1.986265 0.015269 -0.003255 -156432.000000 0 0 1
-28.102371 29.438433 -16.857650 44.051617 -0.808613 1.963491 0.012618 -0.000062 -154099.000000 0 0 1
-28.354641 29.766733 -15.465350 43.922900 -0.809689 1.930613 0.016805 -0.004852 389425.000000 0 0 1
-27.284021 29.539633 -14.550950 42.763745 -0.825072 1.917994 0.011502 -0.003977 12587.900000 0 0 1
-27.463621 30.306233 -13.218250 42.981861 -0.834564 1.883393 0.016943 -0.006909 -264766.000000 0 0 1
-27.347731 31.705533 -13.395450 43.961089 -0.859059 1.880432 0.021540 -0.004677 -134290.000000 0 0 1
-27.870901 32.374733 -12.268750 44.445840 -0.860017 1.850466 0.011685 -0.005777 14990.200000 0 0 1
-27.346251 33.818933 -12.115250 45.147724 -0.890829 1.842473 -0.006252 -0.001879 -15923.900000 0 0 1
-27.855381 -34.161913 -13.170250 46.004500 0.886740 1.861140 -0.016157 -0.011070 76154.700000 0 0 1
-26.993001 -33.073213 -13.496350 44.772882 0.886280 1.876999 0.014879 -0.011614 49123.900000 0 0 1
-27.176411 -32.357213 -14.814050 44.777256 0.872203 1.907989 0.011647 -0.013017 -252890.000000 0 0 1
-26.903491 -33.148913 -15.954250 45.576160 0.889025 1.928428 0.005220 -0.013551 -15798.700000 0 0 1
-27.013861 -32.338913 -17.104150 45.476433 0.874877 1.956391 0.009788 -0.002265 -206523.000000 0 0 1
-26.233361 -32.919813 -18.281850 45.892585 0.897957 1.980526 0.001352 0.000856 -447814.000000 0 0 1
-26.676641 -34.143913 -18.826750 47.242952 0.907562 1.980687 -0.000687 0.007727 -164377.000000 0 0 1
-25.896801 33.571833 -18.312750 46.185161 -0.913749 1.978505 -0.007073 0.004230 -1105410.000000 0 0 1
-26.072431 32.211633 -19.052850 45.611096 -0.890344 2.001735 -0.001484 0.000939 -699756.000000 0 0 1
-27.335471 31.641233 -19.133850 45.983691 -0.858277 1.999949 0.002383 0.005827 -639951.000000 0 0 1
-28.159881 32.279033 -20.091550 47.313690 -0.853447 2.009367 0.011124 0.005720 -430437.000000 0 0 1
-29.649801 31.894333 -19.988750 47.915648 -0.821852 2.001120 0.021875 0.000573 -20657.600000 0 0 1
-29.944091 30.626533 -20.506450 47.488394 -0.796665 2.017306 0.019768 -0.007255 838759.000000 0 0 1
-31.349461 30.357533 -20.603950 48.258588 -0.769325 2.011912 0.036127 -0.010728 609838.000000 0 0 1
-31.583161 29.043633 -21.456850 47.973171 -0.743535 2.034504 0.032239 -0.015390 -797340.000000 0 0 1
-32.919691 28.685033 -21.645350 48.734570 -0.716767 2.031019 0.035337 -0.017877 -379096.000000 0 0 1
-33.003121 27.427033 -22.271250 48.347251 -0.693385 2.049526 0.030851 -0.016995 -399928.000000 0 0 1
-34.439126 26.917733 -22.326150 49.082326 -0.663422 2.043024 0.034248 -0.012311 -160341.000000 0 0 1
-35.322378 27.552033 -23.242750 50.467914 -0.662436 2.049406 0.027864 -0.009790 -755089.000000 0 0 1
35.450090 26.629433 -23.590250 50.222858 0.644257 2.059760 0.031944 -0.006382 -213445.000000 0 0 1
34.517520 27.311233 -24.653650 50.449629 0.669369 2.081371 0.040897 -0.015983 -33172.100000 0 0 1
35.217850 27.602333 -25.869910 51.685955 0.664760 2.094997 0.050569 -0.019142 248216.000000 0 0 1
34.391470 27.934433 -27.001890 51.886489 0.682165 2.118119 0.055643 -0.014488 -7003.830000 0 0 1
35.220130 28.075833 -28.301580 53.194825 0.673003 2.131800 0.055454 -0.019180 131624.000000 0 0 1
35.627530 26.808833 -28.838320 53.100688 0.645083 2.144906 0.041613 -0.015191 -284526.000000 0 0 1
-35.567258 27.057233 -30.056100 53.856224 -0.650336 2.162867 0.028338 -0.008173 -1599050.000000 0 0 1
-35.033851 25.737433 -30.678720 53.206861 -0.633601 2.185349 0.026738 -0.008932 502413.000000 0 0 1
-33.976571 25.069833 -29.988050 51.789835 -0.635684 2.188339 0.042167 -0.010529 896360.000000 0 0 1
-32.752771 25.840533 -29.995340 51.382853 -0.667971 2.194150 0.027266 -0.004834 -127074.000000 0 0 1
-31.671111 25.262633 -29.067460 49.861580 -0.673310 2.193167 0.023212 -0.008273 -301897.000000 0 0 1
-31.163511 24.045133 -29.473950 49.173637 -0.657170 2.213529 0.053742 -0.010415 -62758.000000 0 0 1
-31.648701 22.951033 -28.742040 48.523139 -0.627427 2.204752 0.051506 -0.009961 -136826.000000 0 0 1
-31.310331 21.601033 -29.413650 48.084345 -0.603916 2.229016 0.052294 -0.015510 200762.000000 0 0 1
-29.936771 21.237833 -29.365230 47.006091 -0.617022 2.245558 0.053052 -0.010587 407445.000000 0 0 1
-29.800231 19.884933 -29.750850 46.567987 -0.588423 2.263824 0.047766 -0.014653 618436.000000 0 0 1
-28.318821 19.359933 -29.812390 45.448226 -0.599663 2.286255 0.070309 -0.018603 516125.000000 0 0 1
-27.600571 19.902433 -30.934690 45.987535 -0.624739 2.308615 0.073925 -0.025655 -397116.000000 0 0 1
-26.358451 19.312533 -31.099670 45.110213 -0.632329 2.331478 0.074077 -0.026078 -751278.000000 0 0 1
-26.419581 18.028133 -31.969530 45.222325 -0.598801 2.355961 0.053170 -0.014738 -502168.000000 0 0 1
-26.867611 16.920733 -31.220690 44.529891 -0.562031 2.347760 0.028924 -0.010873 101265.000000 0 0 1
-27.060661 15.791833 -32.005130 44.788277 -0.528252 2.366830 0.013655 -0.001309 60943.000000 0 0 1
-27.607421 14.490233 -31.340030 44.207850 -0.483343 2.358769 0.015626 -0.002948 515478.000000 0 0 1
-28.962691 14.536733 -30.902130 44.778295 -0.465176 2.332443 0.007560 -0.000333 557467.000000 0 0 1
-29.702471 13.329433 -30.844600 44.847519 -0.421827 2.329204 0.004587 -0.004533 -256037.000000 0 0 1
-29.377871 12.319433 -29.737340 43.579091 -0.397070 2.321805 -0.006840 -0.007545 -412670.000000 0 0 1
-29.605711 12.815333 -28.446240 43.010690 -0.408515 2.293448 -0.014044 -0.008916 317004.000000 0 0 1
-29.577391 11.707533 -27.511160 42.056537 -0.376904 2.283851 -0.004932 -0.006163 -13995.100000 0 0 1
-29.707731 12.172933 -26.026730 41.329412 -0.388889 2.252013 -0.009012 -0.003649 420996.000000 0 0 1
-28.472341 12.759433 -25.602100 40.360189 -0.421301 2.257951 -0.001783 -0.008981 414451.000000 0 0 1
-28.445691 13.579433 -24.440550 39.886073 -0.445389 2.230343 -0.003336 -0.003367 -965406.000000 0 0 1
-27.038321 13.849433 -23.977850 38.701614 -0.473372 2.238974 0.005684 0.003576 -1961000.000000 0 0 1
-26.280371 14.650633 -24.824050 39.006825 -0.508564 2.260622 0.018617 -0.007751 -1819.670000 0 0 1
-24.897631 14.663233 -24.529550 37.902523 -0.532248 2.274669 0.019900 -0.011686 200378.000000 0 0 1
-24.465231 15.229933 -23.169050 36.977064 -0.556809 2.247952 0.024675 -0.003870 -1679840.000000 0 0 1
-24.589031 16.619733 -23.233450 37.691235 -0.594368 2.234978 0.047571 -0.011278 85321.600000 0 0 1
-24.800931 17.163333 -21.916850 37.282898 -0.605366 2.199198 0.039328 -0.005302 444273.000000 0 0 1
-26.281281 17.352933 -21.434650 38.095593 -0.583566 2.168389 0.031082 -0.000039 521405.000000 0 0 1
-27.077891 16.178033 -21.478050 38.160812 -0.538552 2.168602 0.031126 0.004727 338071.000000 0 0 1
-28.259931 16.410933 -20.728150 38.698820 -0.526118 2.136047 0.027098 0.013181 -1507570.000000 0 0 1
-29.232701 15.221933 -20.624950 38.879900 -0.480083 2.129961 0.004040 0.009081 217464.000000 0 0 1
-30.111431 15.000233 -21.722750 40.044764 -0.462172 2.144161 -0.001382 0.009430 633854.000000 0 0 1
-30.886091 16.146533 -22.086050 41.260814 -0.481703 2.135634 -0.013108 0.007349 -1283480.000000 0 0 1
-31.344731 16.114333 -23.573550 42.401370 -0.474864 2.160316 -0.013147 0.009368 138819.000000 0 0 1
-32.370401 15.178133 -23.927350 43.020189 -0.438451 2.160589 -0.001068 0.005259 645192.000000 0 0 1
-32.793191 15.333533 -25.292600 44.161366 -0.437379 2.180630 0.009935 -0.006821 -173325.000000 0 0 1
-34.109739 14.660733 -25.697770 45.152927 -0.405938 2.176241 0.003840 -0.005343 -197048.000000 0 0 1
-33.984431 13.248833 -25.929510 44.752795 -0.371726 2.188782 0.004516 -0.011436 133038.000000 0 0 1
-33.850261 12.487033 -24.751450 43.753862 -0.353403 2.172075 -0.007200 -0.004022 -287264.000000 0 0 1
-33.734461 10.939933 -24.950350 43.361457 -0.313595 2.183894 0.002687 -0.007998 -1179740.000000 0 0 1
-34.850333 10.412633 -25.501430 44.421747 -0.290338 2.182271 0.020979 -0.018104 -886690.000000 0 0 1
-34.547285 9.068833 -25.966440 44.158970 -0.256713 2.199407 0.013793 -0.009684 803251.000000 0 0 1
-35.849880 8.501433 -26.644770 45.469023 -0.232839 2.196908 0.030501 -0.013105 1031490.000000 0 0 1
34.878630 8.162733 -25.704310 44.089234 0.229895 2.193221 0.015794 -0.008281 447261.000000 0 0 1
33.904940 7.344233 -26.360220 43.569988 0.213317 2.220573 0.018838 -0.006218 368203.000000 0 0 1
32.976520 6.520733 -25.435390 42.153646 0.195220 2.218551 0.022286 -0.006369 94820.300000 0 0 1
33.655640 5.452033 -24.826150 42.175401 0.160600 2.200172 0.028139 -0.012189 -31119.900000 0 0 1
32.788810 4.677133 -24.065650 40.940654 0.141688 2.199155 0.025544 -0.003036 -727218.000000 0 0 1
33.489950 3.605133 -23.289650 40.950965 0.107235 2.175746 0.031593 -0.003906 11919.800000 0 0 1
34.241040 2.630433 -24.032750 41.915881 0.076670 2.181393 0.033216 -0.012495 613242.000000 0 0 1
35.304300 2.090533 -23.273350 42.336895 0.059146 2.152823 0.048225 -0.010218 -338458.000000 0 0 1
-35.672096 0.984433 -23.964050 42.985384 -0.027590 2.162159 0.056761 -0.011763 -325461.000000 0 0 1
35.506470 -0.280867 -24.147850 42.940737 -0.007910 2.168025 0.038768 -0.010585 -320205.000000 0 0 1
-35.308825 -1.141867 -24.724850 43.120009 0.032328 2.181442 0.050988 -0.012587 67138.300000 0 0 1
-23.392131 30.242333 27.339529 47.002557 -0.912431 0.950028 0.039265 -0.012603 -390979.000000 0 0 1
-24.461131 30.225633 26.403969 47.001121 -0.890420 0.974269 0.022381 -0.017573 363157.000000 0 0 1
-24.341531 29.379033 25.279519 45.767803 -0.878897 0.985624 0.023767 -0.003448 -447782.000000 0 0 1
-24.687831 27.900533 25.529629 45.162935 -0.846414 0.970026 0.031956 -0.009517 -636980.000000 0 0 1
-25.971741 27.627433 26.001789 45.977162 -0.816279 0.969712 0.033225 -0.012983 -296670.000000 0 0 1
-26.127951 27.476433 27.443579 46.805707 -0.810549 0.944276 0.035608 -0.012820 -888072.000000 0 0 1
-25.384371 26.209433 28.001569 45.993353 -0.801388 0.916227 0.034889 -0.004085 767077.000000 0 0 1
-24.013631 26.483433 28.352129 45.627513 -0.834269 0.900291 0.047520 -0.008769 710552.000000 0 0 1
-23.915431 27.099433 29.547199 46.683660 -0.847731 0.885472 0.047563 -0.010376 -304837.000000 0 0 1
-22.585131 26.746833 30.258609 46.271640 -0.869560 0.858023 0.055135 -0.003885 260149.000000 0 0 1
-21.410031 27.421633 29.762479 45.783628 -0.907891 0.863122 0.059167 -0.002808 930926.000000 0 0 1
-20.219131 26.843833 30.275169 45.232627 -0.925242 0.837501 0.083277 -0.012665 235824.000000 0 0 1
-19.755231 25.419533 29.819759 43.882113 -0.910134 0.823658 0.074121 -0.002672 -784687.000000 0 0 1
-19.129431 25.438433 28.536789 42.748068 -0.926023 0.839873 0.061106 0.000113 -51744.100000 0 0 1
-19.456931 24.419633 27.617449 41.684699 -0.898025 0.846602 0.057177 0.001470 -290834.000000 0 0 1
-19.130431 22.939033 27.847339 40.836833 -0.875683 0.820416 0.047247 0.012877 -107757.000000 0 0 1
-19.752231 22.336133 28.970219 41.573153 -0.846714 0.799801 0.036428 0.005094 155026.000000 0 0 1
-19.696431 20.915033 28.836709 40.705575 -0.815396 0.783537 0.040863 0.005676 -80305.700000 0 0 1
-20.106631 20.220233 30.137839 41.490045 -0.788215 0.757746 0.046849 0.002152 445963.000000 0 0 1
-19.091431 20.418033 31.132139 41.840040 -0.818962 0.731647 0.049458 -0.004858 552936.000000 0 0 1
-19.604931 20.194533 32.452769 42.957592 -0.800211 0.714439 0.049503 -0.008636 -9518.660000 0 0 1
-18.665531 20.607633 33.602501 43.614271 -0.834809 0.691254 0.065237 -0.009494 -485172.000000 0 0 1
-18.797731 22.001933 33.905676 44.576167 -0.863772 0.706523 0.042012 -0.005703 228149.000000 0 0 1
-18.070731 22.982033 33.147740 44.198392 -0.904466 0.722770 0.058232 0.003005 26495.300000 0 0 1
-16.543431 23.063733 33.354768 43.796820 -0.948559 0.705049 0.054412 -0.002682 274941.000000 0 0 1
-15.839531 21.842133 33.082291 42.689665 -0.943369 0.684163 0.068316 -0.016154 187226.000000 0 0 1
-14.522131 21.847933 33.601283 42.629458 -0.984163 0.662889 0.039990 -0.010060 119284.000000 0 0 1
-13.671731 20.527833 33.475945 41.580609 -0.983249 0.634977 0.027904 -0.013774 -7460.760000 0 0 1
-12.359531 20.575833 33.967183 41.591976 -1.029876 0.615168 0.009824 -0.010420 -207397.000000 0 0 1
-12.231031 20.433033 -33.248130 40.896762 -1.031413 2.520043 0.020370 -0.015947 -71148.600000 0 0 1
-10.735131 20.348233 -32.853380 40.107832 -1.085336 2.530683 0.012185 -0.017058 157846.000000 0 0 1
-10.055431 21.591133 -32.909980 40.624568 -1.134946 2.515120 0.014767 -0.018557 46259.700000 0 0 1
-8.746931 21.314733 -32.408210 39.763284 -1.181382 2.523575 0.008668 -0.019205 -42209.400000 0 0 1
-7.828231 22.548633 -32.537850 40.353857 -1.236644 2.508689 0.008556 -0.018424 -89258.700000 0 0 1
-7.981331 23.586433 -31.570430 40.208376 -1.244505 2.473768 0.014742 -0.014066 -160957.000000 0 0 1
-7.499031 23.180033 -30.349180 38.918147 -1.257910 2.465176 0.012714 -0.015427 -419772.000000 0 0 1
-7.166531 24.415233 -29.433530 38.907525 -1.285289 2.428741 0.010341 -0.013627 40671.300000 0 0 1
-6.192131 25.187033 -30.107810 39.739267 -1.329731 2.430476 0.003657 -0.011053 -64569.600000 0 0 1
-5.817331 26.289233 -29.332100 39.816293 -1.353024 2.398953 0.006954 -0.001339 270205.000000 0 0 1
-4.486231 26.946333 -29.822010 40.442347 -1.405822 2.400003 0.003860 0.000363 1131970.000000 0 0 1
-3.297231 26.150033 -29.470890 39.537695 -1.445369 2.411912 0.013146 -0.001690 1756490.000000 0 0 1
-2.108231 26.550033 -30.167870 40.242382 -1.491557 2.418336 0.019600 0.002030 586295.000000 0 0 1
-1.461031 27.890733 -29.826340 40.861206 -1.518460 2.389034 0.019027 -0.007944 -648118.000000 0 0 1
-0.877231 27.844733 -28.495730 39.851039 -1.539302 2.367501 0.032749 -0.022877 326686.000000 0 0 1
-0.361031 29.067633 -28.086330 40.421524 -1.558377 2.338988 0.034531 -0.020338 -863620.000000 0 0 1
-0.000831 29.142833 -26.591200 39.451193 -1.570768 2.310444 0.051577 -0.036599 793958.000000 0 0 1
1.176469 28.476833 -26.090660 38.639832 1.529507 2.312069 0.078070 -0.042463 716092.000000 0 0 1
2.387569 29.041133 -26.553610 39.423116 1.488767 2.309803 0.090826 -0.040858 -701050.000000 0 0 1
3.541069 29.000333 -25.558740 38.817621 1.449293 2.289529 0.089356 -0.047216 -264237.000000 0 0 1
4.219769 27.751733 -25.516520 37.934917 1.419898 2.308566 0.100250 -0.038917 313344.000000 0 0 1
5.361169 27.853533 -24.677650 37.597179 1.380645 2.286793 0.069332 -0.031817 201323.000000 0 0 1
5.752569 26.436433 -24.066450 36.210096 1.356536 2.297800 0.077142 -0.030608 -39260.900000 0 0 1
6.929669 26.613533 -23.318550 36.056279 1.316071 2.274081 0.061793 -0.027199 -275048.000000 0 0 1
7.502369 25.364433 -22.916250 34.997064 1.283213 2.284721 0.060280 -0.013388 1736030.000000 0 0 1
9.021969 25.489333 -22.441750 35.138784 1.230606 2.263552 0.047818 0.006464 885897.000000 0 0 1
9.130569 26.228533 -21.228450 34.956406 1.235801 2.223433 0.050846 0.001409 328788.000000 0 0 1
10.451969 26.638633 -20.909250 35.440897 1.196892 2.201824 0.044449 -0.000729 509270.000000 0 0 1
11.460869 25.593033 -20.362550 34.655278 1.149763 2.198854 0.024685 0.008468 -153928.000000 0 0 1
11.730969 24.517533 -21.239550 34.494109 1.124518 2.234127 0.021443 0.006518 -92865.700000 0 0 1
11.971369 23.357533 -20.491450 33.298462 1.097177 2.233674 0.015892 0.014013 -310915.000000 0 0 1
12.185069 22.137033 -21.384150 33.102961 1.067617 2.273115 0.018785 0.010293 572706.000000 0 0 1
10.959569 21.678533 -21.978350 32.758492 1.102719 2.306246 0.031066 0.001119 644138.000000 0 0 1
11.226569 20.801733 -22.993850 32.976736 1.075900 2.342385 0.031777 0.007300 546605.000000 0 0 1
10.296269 21.148133 -24.243850 33.779002 1.117712 2.371318 0.040500 0.003840 88782.400000 0 0 1
9.013069 20.602433 -24.198550 33.034308 1.158406 2.392824 0.026283 0.001753 -763789.000000 0 0 1
8.461569 20.789933 -25.462120 33.943173 1.184267 2.419070 0.022563 -0.003791 -352336.000000 0 0 1
6.985169 20.326233 -25.466330 33.323900 1.239787 2.440606 0.029294 -0.016505 250624.000000 0 0 1
5.918769 21.193733 -25.087610 33.370561 1.298465 2.421567 0.057130 -0.015372 234479.000000 0 0 1
5.939069 21.677633 -23.737350 32.690275 1.303386 2.383471 0.051649 -0.015042 -928998.000000 0 0 1
4.564069 22.178933 -23.297450 32.488567 1.367845 2.370424 0.069003 -0.023590 -223079.000000 0 0 1
4.029569 23.241833 -24.077950 33.707090 1.399127 2.366461 0.069084 -0.024389 509101.000000 0 0 1
2.661169 23.501233 -23.762350 33.526692 1.458041 2.358534 0.071676 -0.020110 333666.000000 0 0 1
2.195169 24.664533 -24.601450 34.905434 1.482029 2.352942 0.069987 -0.011836 -343590.000000 0 0 1
0.794969 24.819633 -24.611150 34.962192 1.538777 2.351721 0.072302 -0.036981 28511.400000 0 0 1
0.381969 25.413033 -25.874890 36.269520 1.555767 2.365143 0.060541 -0.032035 241907.000000 0 0 1
-1.129331 25.208033 -26.118270 36.316447 -1.526026 2.373426 0.068206 -0.028382 -40935.900000 0 0 1
-1.463531 23.902633 -26.593820 35.786996 -1.509644 2.408508 0.086797 -0.035309 -550810.000000 0 0 1
-2.685631 23.907533 -27.263350 36.360322 -1.458931 2.418572 0.081632 -0.025949 -422989.000000 0 0 1
-3.196631 22.469333 -27.517780 35.669561 -1.429478 2.451935 0.073678 -0.025199 -226597.000000 0 0 1
-2.483631 21.842233 -28.616520 36.085410 -1.457575 2.486550 0.092578 -0.030716 191688.000000 0 0 1
-3.134831 20.734333 -29.128330 35.891494 -1.420742 2.517624 0.085725 -0.035903 -41596.300000 0 0 1
-4.339931 20.993933 -30.072320 36.931351 -1.366945 2.522278 0.058504 -0.029817 -78770.700000 0 0 1
-4.064731 21.378733 -31.415010 38.216163 -1.382909 2.535771 0.064797 -0.026400 277098.000000 0 0 1
-3.365531 22.637733 -31.626320 39.038672 -1.423208 2.515167 0.069745 -0.021595 366390.000000 0 0 1
-2.944331 22.727633 -33.152850 40.302926 -1.441965 2.536750 0.045401 -0.012566 178891.000000 0 0 1
-2.033931 21.694533 -33.514420 39.975067 -1.477316 2.565106 0.047229 -0.006646 109366.000000 0 0 1
-1.638331 21.885133 33.764728 40.270337 -1.496075 0.576361 0.041073 0.003867 -118859.000000 0 0 1
-0.485531 20.931133 33.429466 39.444610 -1.547604 0.559531 0.048992 0.006654 -179532.000000 0 0 1
-0.915831 19.611633 33.361774 38.709984 -1.524132 0.531912 0.040618 0.017454 -9349.300000 0 0 1
0.116769 18.742833 32.939389 37.898691 1.564566 0.517329 0.053272 0.011833 77801.500000 0 0 1
-0.381031 17.352833 32.465889 36.814399 -1.548842 0.490961 0.041330 0.014617 134922.000000 0 0 1
-1.159331 17.422033 31.275859 35.819696 -1.504350 0.509175 0.032619 0.006860 149105.000000 0 0 1
-1.604131 16.148133 30.936069 34.933878 -1.471783 0.483097 0.027770 0.002154 -586866.000000 0 0 1
-2.636231 16.071733 29.817919 33.975854 -1.408215 0.499920 0.029995 0.004746 -157322.000000 0 0 1
-3.944331 16.493433 30.189899 34.626884 -1.336059 0.511803 0.019395 -0.005616 226353.000000 0 0 1
-4.171631 17.739233 29.584319 34.746436 -1.339829 0.552082 0.017906 -0.000049 -30933.800000 0 0 1
-5.583031 18.359733 29.803019 35.446720 -1.275590 0.572067 0.010094 -0.006512 735526.000000 0 0 1
-6.513831 17.765133 28.892589 34.537106 -1.219354 0.579810 0.007733 -0.000092 -1827400.000000 0 0 1
-7.757831 18.277433 29.017449 35.160501 -1.169393 0.600089 -0.003352 0.001262 -2339980.000000 0 0 1
-8.677531 17.654333 27.939059 34.169666 -1.113952 0.613467 0.005359 0.003224 -132762.000000 0 0 1
-9.174131 16.347633 28.213759 33.873677 -1.059402 0.586449 0.025135 -0.005310 287271.000000 0 0 1
-9.800731 16.159033 29.504149 35.038029 -1.025599 0.569704 0.025620 -0.005466 -827910.000000 0 0 1
-10.374531 14.716633 29.815879 34.830975 -0.956754 0.543283 0.036982 -0.014908 -285082.000000 0 0 1
-9.517731 13.596533 29.848779 34.152636 -0.960063 0.507460 0.036452 -0.009424 -218979.000000 0 0 1
-8.662031 13.606233 30.976149 34.923949 -1.003883 0.480075 0.026366 -0.015399 -241394.000000 0 0 1
-9.269131 13.183433 32.357459 36.148650 -0.958000 0.462091 0.051832 -0.027116 -336552.000000 0 0 1
-9.494331 11.814733 32.508459 35.868233 -0.893864 0.436280 0.055271 -0.021196 342637.000000 0 0 1
-10.035231 11.557233 33.812173 37.115207 -0.855769 0.425080 0.055809 -0.012350 -112384.000000 0 0 1
-10.519031 10.061433 33.892522 36.886115 -0.763167 0.405660 0.058976 -0.014077 -419861.000000 0 0 1
-9.493131 9.074233 33.869708 36.326552 -0.762841 0.369888 0.063531 -0.009068 220241.000000 0 0 1
-9.220831 8.414733 -33.495610 35.746152 -0.739721 2.784855 0.082488 -0.022720 -44824.300000 0 0 1
-8.428931 9.199333 -32.449250 34.765334 -0.829073 2.774513 0.071586 -0.023349 -365168.000000 0 0 1
-9.146531 10.356833 -32.067490 34.917717 -0.847375 2.734746 0.059027 -0.023761 736259.000000 0 0 1
-8.386431 11.095933 -31.046060 34.019256 -0.923586 2.720401 0.055523 -0.008796 312897.000000 0 0 1
-7.410931 12.124233 -31.635220 34.680053 -1.022146 2.719423 0.040879 -0.013491 -275740.000000 0 0 1
-7.941531 13.326833 -32.117330 35.667847 -1.033393 2.691613 0.043349 -0.016604 -20079.800000 0 0 1
-6.914331 14.266633 -32.373490 36.047020 -1.119504 2.686205 0.023704 -0.013885 156321.000000 0 0 1
-7.509331 15.685733 -32.605270 36.953158 -1.124304 2.651609 0.013856 -0.012941 -9485.980000 0 0 1
-8.150131 15.827033 -33.852300 38.247847 -1.095260 2.657456 0.016818 -0.019589 -160972.000000 0 0 1
-8.629131 17.157033 -34.017940 39.064638 -1.104791 2.627647 0.032289 -0.020750 -2580040.000000 0 0 1
-9.266631 17.423933 33.235643 38.653226 -1.082007 0.535837 0.009469 -0.018386 -36737.600000 0 0 1
-10.435231 16.716933 32.903036 38.353092 -1.012750 0.539632 0.018501 -0.022313 -149759.000000 0 0 1
-11.431431 16.856433 33.885637 39.535470 -0.974876 0.541193 0.022234 -0.034884 -2447420.000000 0 0 1
-12.781631 16.187833 33.565148 39.395878 -0.902440 0.551009 0.038689 -0.035157 -186254.000000 0 0 1
-12.727031 14.794733 33.447500 38.724626 -0.860387 0.528178 0.035084 -0.035629 28778.100000 0 0 1
-13.919331 14.158433 33.844205 39.238237 -0.793914 0.530545 0.037067 -0.029551 -182261.000000 0 0 1
-13.952831 12.632933 33.619111 38.529432 -0.735792 0.510385 0.033357 -0.028332 -147749.000000 0 0 1
-14.249631 12.121333 32.309849 37.335038 -0.704867 0.524842 0.026148 -0.022290 342446.000000 0 0 1
-13.145531 12.124633 31.415009 36.148506 -0.745021 0.517509 0.036651 -0.007531 -39414.400000 0 0 1
-13.428831 11.701933 30.003099 34.892044 -0.716790 0.535755 0.032576 0.000461 -395686.000000 0 0 1
-14.074131 10.459033 30.015789 34.762338 -0.639095 0.528713 0.031840 0.001014 92487.400000 0 0 1
-14.075031 9.949733 28.690109 33.469778 -0.615346 0.540999 0.022070 0.002008 70870.300000 0 0 1
-14.778131 8.538633 28.490869 33.211911 -0.523927 0.539723 0.025375 -0.003375 -18025.300000 0 0 1
-14.198831 7.376033 29.067289 33.180114 -0.479111 0.503197 0.012040 -0.003379 -176329.000000 0 0 1
-14.769531 6.074133 28.728729 32.869044 -0.390176 0.507348 0.023197 0.001294 -165590.000000 0 0 1
-13.746831 4.936733 28.613949 32.126388 -0.344774 0.471984 0.013735 0.005463 -10762.300000 0 0 1
-12.945631 4.911433 27.437699 30.733351 -0.362613 0.467348 0.009533 0.000906 335555.000000 0 0 1
-13.698531 4.739133 26.220749 29.960588 -0.333070 0.504999 0.021806 0.004273 -23316.300000 0 0 1
-12.791831 4.370333 25.056999 28.470756 -0.329217 0.494732 0.015604 0.012113 -127908.000000 0 0 1
-11.992931 3.206733 25.181609 28.075380 -0.261273 0.458023 0.003866 0.005440 227367.000000 0 0 1
-11.403231 2.889833 23.937339 26.671727 -0.248197 0.456774 0.009992 0.004187 -525061.000000 0 0 1
-10.542831 1.632333 23.864269 26.140374 -0.153609 0.420395 0.007357 0.001482 37962.900000 0 0 1
-9.265731 1.924533 24.423739 26.193065 -0.204793 0.369659 0.008885 -0.006774 388351.000000 0 0 1
-8.374331 0.808733 24.352859 25.765194 -0.096274 0.332637 0.000024 -0.007731 -188309.000000 0 0 1
-6.906631 1.208333 24.253029 25.246209 -0.173200 0.281426 0.019103 -0.013910 -798522.000000 0 0 1
-6.582031 1.725833 22.978449 23.964782 -0.256431 0.287899 0.032013 -0.015576 175992.000000 0 1 0
-5.206631 1.950833 22.725449 23.395743 -0.358492 0.239950 0.023604 -0.016155 232048.000000 0 1 0
-4.595831 3.233733 23.365949 24.032193 -0.613153 0.236017 0.031521 -0.016331 -674039.000000 0 1 0
-4.211131 3.195833 24.705629 25.264898 -0.649174 0.210800 0.027676 -0.019029 149931.000000 0 0 1
-3.741231 4.525733 24.986839 25.667513 -0.880011 0.230811 0.026977 -0.027151 -64150.500000 0 0 1
4.062669 -23.309967 12.929050 26.963312 -1.398241 1.070705 0.062426 -0.004157 279994.000000 0 0 1
3.888069 -24.591467 13.520350 28.331205 -1.413988 1.073302 0.050473 -0.005345 -1048830.000000 0 0 1
2.561169 -24.931267 13.301550 28.373560 -1.468426 1.082864 0.051109 -0.001095 -471248.000000 0 0 1
2.228569 -26.292577 14.011950 29.876427 -1.486238 1.082642 0.038045 -0.003139 -65771.000000 0 0 1
2.317869 -26.179797 15.374050 30.448575 -1.482490 1.041509 0.046307 -0.004738 36858.800000 0 0 1
2.542569 -27.500897 15.900650 31.868396 -1.478604 1.048413 0.035352 0.001554 -196039.000000 0 0 1
2.478369 -27.622197 17.463650 32.773574 -1.481312 1.008822 0.031136 0.008185 485243.000000 0 0 1
3.616569 -27.053607 18.121350 32.762182 -1.437903 0.984694 0.035241 0.003890 522211.000000 0 0 1
3.557369 -27.343557 19.533750 33.791898 -1.441424 0.954447 0.028220 0.005192 56151.400000 0 0 1
4.125869 -26.176597 20.395450 33.439668 -1.414466 0.914839 0.028908 0.005561 79069.600000 0 0 1
3.165969 -25.220557 20.799050 32.843574 -1.445918 0.885017 0.039858 0.009216 20741.700000 0 0 1
3.608269 -24.503167 21.928350 33.079863 -1.424590 0.846123 0.046671 0.006239 -118098.000000 0 0 1
2.590269 -23.485867 22.456650 32.597493 -1.460950 0.810816 0.056974 0.000278 -288307.000000 0 0 1
2.259769 -22.362267 21.652750 31.209279 -1.470085 0.804055 0.067207 -0.001334 -279229.000000 0 0 1
3.334669 -21.561867 21.221350 30.436488 -1.417356 0.799265 0.061543 0.007184 -186669.000000 0 0 1
2.965069 -20.301267 20.390750 28.926039 -1.425768 0.788476 0.053765 0.002036 150502.000000 0 0 1
2.223569 -19.211567 21.007650 28.554333 -1.455568 0.744085 0.033329 -0.004191 315162.000000 0 0 1
1.693769 -18.350267 20.009550 27.202633 -1.478755 0.744283 0.015535 -0.008945 284004.000000 0 0 1
1.174269 -16.973767 20.467950 26.616248 -1.501725 0.693518 0.020378 -0.010491 -80468.300000 0 0 1
2.174669 -16.167267 21.028050 26.613692 -1.437088 0.659789 0.001568 0.009883 -356527.000000 0 0 1
1.629469 -14.968867 21.421550 26.184059 -1.462366 0.612672 0.000449 0.013525 502629.000000 0 0 1
2.627169 -13.779367 21.160350 25.387662 -1.382398 0.585403 -0.014116 0.012334 -360070.000000 0 0 1
2.934369 -13.481067 19.771850 24.109661 -1.356473 0.609246 -0.021192 0.008392 -372085.000000 0 1 0
1.983269 -12.958167 18.860550 22.968844 -1.418923 0.607397 -0.014503 0.014179 -277859.000000 0 1 0
1.188669 -11.703667 19.296250 22.599425 -1.469580 0.547482 -0.014381 0.013220 -419966.000000 0 1 0
1.962169 -10.523067 19.348550 22.112246 -1.386450 0.505329 -0.009280 0.022969 -311572.000000 0 1 0
1.559669 -9.618467 20.329150 22.543775 -1.410042 0.446964 -0.004685 0.011886 513669.000000 0 1 0
0.111769 -8.979967 20.224050 22.128364 -1.558350 0.417902 0.014834 0.001359 1154650.000000 0 1 0
-0.318331 -8.256167 21.317750 22.862898 1.532259 0.369753 0.021464 -0.006121 -7094.050000 0 1 0
-1.681831 -7.869467 21.254150 22.726547 1.360248 0.361938 0.021331 -0.008841 374459.000000 0 1 0
-2.266931 -7.139867 22.451650 23.668402 1.263360 0.322040 0.025829 -0.010295 8564.090000 0 1 0
-2.628131 -7.975967 23.550550 25.003030 1.252494 0.342530 0.026074 -0.003265 46237.800000 0 0 1
-2.474631 -7.315867 24.779350 25.954997 1.244623 0.302132 0.037540 0.001622 13266.600000 0 0 1
-2.424331 -8.184367 26.003650 27.368797 1.282816 0.317175 0.039263 -0.000364 -163773.000000 0 0 1
-1.202631 -8.851867 26.076550 27.564258 1.435761 0.330045 0.038370 -0.002288 -450479.000000 0 0 1
-1.285731 -9.710867 27.144250 28.857657 1.439161 0.346328 0.047950 -0.011936 145862.000000 0 0 1
-0.102731 -10.690567 27.320050 29.337415 1.561187 0.373007 0.047334 -0.015059 -125479.000000 0 0 1
1.098769 -10.122967 27.753150 29.562122 -1.462677 0.351644 0.040306 -0.009640 45243.700000 0 0 1
2.042869 -11.156367 28.137350 30.337243 -1.389690 0.383167 0.042997 -0.018807 991155.000000 0 0 1
3.096969 -10.529867 29.116450 31.116506 -1.284749 0.360491 0.050697 -0.016460 386961.000000 0 0 1
2.558569 -10.407267 30.423450 32.255911 -1.329733 0.338692 0.047182 -0.021696 380594.000000 0 0 1
3.545069 -9.984167 31.363450 33.104639 -1.229613 0.325773 0.046090 -0.010266 5042.150000 0 0 1
3.068969 -10.026667 32.826650 34.460725 -1.273770 0.309186 0.039364 -0.009058 -274535.000000 0 0 1
3.178969 -11.303567 33.406250 35.409801 -1.296642 0.338005 0.040301 -0.014733 -5947.070000 0 0 1
2.701969 -11.363267 -33.870149 35.827524 -1.337351 2.809514 0.041487 -0.010992 -430602.000000 0 0 1
3.464569 -10.584567 -32.794549 34.634069 -1.254465 2.814209 0.029390 0.000430 -282852.000000 0 0 1
3.113069 -9.208067 -32.873149 34.280076 -1.244779 2.854100 0.026405 -0.006297 339330.000000 0 0 1
3.595269 -8.555067 -31.699949 33.030318 -1.172956 2.856810 0.023255 -0.004327 -130502.000000 0 0 1
3.068269 -7.134967 -31.443849 32.388851 -1.164671 2.899437 0.011177 -0.001788 -20060.900000 0 0 1
3.474469 -6.242867 -32.472049 33.248749 -1.062938 2.925020 0.026258 -0.002267 38045.700000 0 0 1
3.170669 -4.946667 -32.100449 32.633748 -1.000795 2.960559 0.020078 0.002806 102469.000000 0 0 1
3.339469 -3.898067 -33.248249 33.642132 -0.862426 2.988420 0.020786 0.007952 288901.000000 0 0 1
2.137669 -3.863667 -33.985849 34.271497 -1.065442 3.012392 0.021435 0.007726 167872.000000 0 0 1
2.365269 -2.808367 33.712550 33.911907 -0.870835 0.108485 0.045961 0.008844 32472.700000 0 0 1
1.668469 -3.028267 32.392550 32.576548 -1.067213 0.106334 0.056627 0.001111 -520477.000000 0 0 1
0.275969 -2.949467 32.470750 32.605599 -1.477502 0.090979 0.053173 -0.001881 -956730.000000 0 0 1
-0.059831 -3.332867 31.158950 31.336748 1.552846 0.106575 0.058522 -0.002932 801982.000000 0 0 1
-1.562531 -3.504967 30.715450 30.954243 1.151437 0.124293 0.045291 -0.005624 880785.000000 0 0 1
-2.268031 -2.274967 30.602150 30.770294 0.786925 0.104590 0.029144 -0.005538 1079.630000 0 0 1
-3.630431 -2.659467 30.517250 30.847291 0.632238 0.146413 0.016514 -0.002253 376823.000000 0 0 1
-4.615931 -1.572867 29.999150 30.392922 0.328408 0.161147 0.023455 -0.003200 -105650.000000 0 0 1
-4.500831 -1.553567 28.579750 28.973663 0.332368 0.165085 0.020814 -0.004291 115452.000000 0 0 1
-5.616131 -1.026267 27.887650 28.466035 0.180741 0.201929 0.002922 -0.009857 93292.400000 0 0 1
-5.773331 0.519033 28.046150 28.638912 -0.089661 0.203812 0.016210 -0.010623 -250343.000000 0 0 1
-6.696831 0.858333 29.031950 29.806684 -0.127475 0.228497 0.013369 -0.008677 -477813.000000 0 0 1
-6.933731 2.275833 29.082650 29.984272 -0.317147 0.245853 0.021221 -0.011100 -48307.200000 0 0 1
-8.314831 2.660333 29.684950 30.942043 -0.309658 0.286026 0.013308 -0.010471 634607.000000 0 0 1
-9.328531 2.318033 28.733250 30.298423 -0.243556 0.322830 0.001852 -0.001617 762570.000000 0 0 1
-10.679931 2.522533 29.158650 31.155272 -0.231943 0.359952 -0.005897 0.004818 835324.000000 0 0 1
-11.670831 1.683633 28.287650 30.646926 -0.143271 0.394945 -0.001395 0.004699 53730.100000 0 0 1
-11.752231 0.344033 28.657650 30.975703 -0.029265 0.389325 0.000153 0.003814 61715.400000 0 0 1
-12.202231 -0.432667 27.558250 30.141977 0.035443 0.417066 0.001421 0.011858 -1107110.000000 0 0 1
-12.033531 -1.954767 27.809150 30.364054 0.161037 0.413158 0.004195 0.014028 -458110.000000 0 0 1
-10.739131 -2.426967 28.065250 30.147593 0.222259 0.373850 0.004355 0.011791 7811.430000 0 0 1
-9.694931 -2.157367 27.149750 28.909425 0.218958 0.350703 0.002886 0.006164 -685507.000000 0 0 1
-9.797031 -2.789967 25.747450 27.689292 0.277433 0.376736 0.000416 0.007394 -791606.000000 0 0 1
-10.689331 -2.140067 24.860650 27.145784 0.197594 0.413251 -0.010407 0.006535 326951.000000 0 0 1
-10.629631 -2.688367 23.526150 25.955657 0.247718 0.436119 -0.002992 0.003835 342638.000000 0 0 1
-9.399331 -2.257767 22.650450 24.626973 0.235739 0.403375 0.005686 -0.001275 990493.000000 0 1 0
-8.099131 -2.542367 23.156350 24.663254 0.304165 0.351374 0.003697 -0.001733 -50398.200000 0 1 0
-7.139531 -2.095567 22.207050 23.420448 0.285498 0.323305 0.008110 -0.005452 230953.000000 0 1 0
-5.707931 -2.381367 22.754450 23.580000 0.395248 0.265393 0.016545 -0.004376 -126944.000000 0 1 0
-5.329031 -3.736867 22.694550 23.609433 0.611550 0.279298 0.023978 -0.006006 -169935.000000 0 1 0
-5.947731 -4.514367 23.691150 24.840000 0.649240 0.305323 0.023270 -0.000811 -366468.000000 0 1 0
-6.045431 -6.033367 23.298750 24.814925 0.784399 0.351374 0.041908 -0.003202 -491444.000000 0 1 0
-6.918831 -6.463567 22.315450 24.241024 0.751392 0.401270 0.055516 -0.010068 -449001.000000 0 1 0
-6.381331 -6.205567 21.010550 22.818275 0.771435 0.400728 0.041368 -0.009367 244009.000000 0 1 0
-7.535431 -6.122567 19.983050 22.216904 0.682319 0.452281 0.041119 -0.010470 -287307.000000 0 1 0
-8.296831 -5.018267 20.193350 22.400710 0.543972 0.447665 0.030465 -0.009788 -1050300.000000 0 1 0
-9.220131 -4.885667 19.157350 21.814780 0.487274 0.498748 0.033262 -0.008803 -255815.000000 0 1 0
-9.929931 -3.521667 19.174150 21.878156 0.340813 0.502448 0.023760 -0.012705 204615.000000 0 1 0
-9.128631 -2.396967 18.773550 21.012461 0.256780 0.465831 0.031757 -0.014582 582526.000000 0 1 0
-9.808631 -1.127167 18.867550 21.294699 0.114414 0.482105 0.024812 -0.004072 -144672.000000 0 1 0
-8.888431 -0.142167 18.148650 20.208857 0.015993 0.455470 0.036134 -0.014569 38551.900000 0 1 0
-7.673431 0.149233 18.837750 20.341205 -0.019446 0.386887 0.031488 -0.012720 296488.000000 0 1 0
-7.712731 0.867033 20.071350 21.519690 -0.111946 0.368976 0.036669 -0.012104 -609210.000000 0 1 0
-7.789331 2.390633 19.878150 21.483241 -0.297785 0.389006 0.038481 -0.021230 -90861.900000 0 1 0
-8.879631 2.826533 19.089150 21.242241 -0.308175 0.454134 0.031450 -0.023515 152443.000000 0 1 0
-8.697231 4.171533 18.773450 21.106538 -0.447227 0.474631 0.030117 -0.021521 138689.000000 0 1 0
-9.656831 4.626733 17.636950 20.633057 -0.446800 0.545648 0.027177 -0.013141 -504648.000000 0 1 0
-10.998431 4.750333 18.022950 21.641577 -0.407709 0.586663 0.034017 -0.006614 -578082.000000 0 1 0
-11.738931 5.398733 17.031250 21.377846 -0.431056 0.649018 0.028965 0.003515 -403122.000000 0 1 0
-11.713031 6.940533 17.122450 21.875657 -0.534922 0.671777 0.031408 0.005503 -46630.000000 0 1 0
-10.472131 7.537733 16.724450 21.123214 -0.623885 0.657116 0.036053 0.000225 668882.000000 0 1 0
-10.669131 8.916333 16.786750 21.797393 -0.696141 0.691757 0.042829 -0.005582 150984.000000 0 1 0
-9.333031 9.685733 16.853650 21.563033 -0.803941 0.673571 0.032853 -0.003040 -308400.000000 0 1 0
-8.680131 9.605433 18.074250 22.232578 -0.835958 0.621575 0.043994 0.003496 214368.000000 0 1 0
-7.557131 10.487833 18.253950 22.367645 -0.946403 0.616188 0.040342 -0.003323 642114.000000 0 1 0
-7.775931 12.027733 18.109550 23.088683 -0.996885 0.669153 0.027019 0.000150 -582476.000000 0 1 0
-7.769131 12.431033 16.770950 22.274531 -1.012212 0.718308 0.017104 -0.006890 -369430.000000 0 1 0
-8.500931 13.577433 16.504250 23.000061 -1.011401 0.770483 0.031196 -0.012372 -469086.000000 0 1 0
-8.519431 14.121833 15.073150 22.342935 -1.027968 0.830337 0.037119 -0.012904 438108.000000 0 1 0
-7.322931 14.798933 14.728950 22.126358 -1.111295 0.842399 0.039009 -0.009722 114305.000000 0 1 0
-7.435731 15.289033 13.373950 21.631162 -1.118133 0.904254 0.029326 -0.020258 -73810.100000 0 1 0
-6.484931 16.480133 13.213150 22.096073 -1.195906 0.929810 0.008000 -0.012269 2477400.000000 0 1 0
-5.041231 16.144533 13.217150 21.465158 -1.268134 0.907460 -0.000377 -0.014570 1672180.000000 0 1 0
-4.262731 17.269933 13.487750 22.323550 -1.328804 0.922043 0.000923 -0.015427 444338.000000 0 1 0
-2.728631 17.003233 13.585450 21.934444 -1.411676 0.902861 0.006805 -0.018468 359972.000000 0 1 0
-2.245831 16.609233 14.802450 22.361192 -1.436396 0.847352 0.007722 -0.012032 -386804.000000 0 1 0
-2.535631 15.279433 15.202150 21.702439 -1.406344 0.794725 -0.000456 -0.005671 -771397.000000 0 1 0
-1.485431 14.815133 16.196350 22.000373 -1.470866 0.743380 -0.010374 0.004376 -715199.000000 0 1 0
-0.317031 14.464533 15.497750 21.201497 -1.548882 0.751048 -0.011164 -0.009541 -721821.000000 0 1 0
0.636269 13.826633 16.303750 21.386745 1.524811 0.703891 -0.014792 -0.005098 950286.000000 0 1 0
1.760669 14.718233 16.992750 22.549499 1.451737 0.717312 -0.013758 -0.004529 573798.000000 0 1 0
1.129669 15.621133 17.898650 23.783558 1.498605 0.718849 -0.016263 -0.004747 -243009.000000 0 1 0
2.031769 16.523933 18.499650 24.887858 1.448451 0.732776 0.008021 -0.009512 -673477.000000 0 1 0
1.309569 17.752433 19.155650 26.149623 1.497161 0.748750 0.013135 -0.007774 460191.000000 0 0 1
0.668869 18.663433 18.215350 26.087738 1.534973 0.797869 0.006583 -0.010269 -578483.000000 0 0 1
-0.517631 18.131433 17.753250 25.380991 -1.542255 0.796140 0.007331 -0.007527 -1685920.000000 0 0 1
-1.248931 19.014533 16.704450 25.340697 -1.505208 0.851049 0.005075 -0.003286 -351986.000000 0 0 1
-1.761631 20.128433 17.406950 26.669441 -1.483499 0.859663 0.004988 -0.002866 -102017.000000 0 0 1
-2.287731 21.081733 16.482450 26.857854 -1.462702 0.910068 0.014120 -0.004344 -199090.000000 0 0 1
-3.013331 22.238733 17.179750 28.262789 -1.436117 0.917437 0.016760 0.000070 524462.000000 0 0 1
-4.197031 21.828133 17.894450 28.535834 -1.380838 0.892988 0.021829 -0.005851 776136.000000 0 0 1
-4.684631 22.859833 18.764450 29.943652 -1.368666 0.893538 0.030750 -0.008310 1106570.000000 0 0 1
-5.947531 22.498233 19.678150 30.475781 -1.312353 0.868859 0.021107 -0.009763 943568.000000 0 0 1
-7.138631 22.306133 18.942150 30.121897 -1.261066 0.890723 0.010696 -0.010894 140783.000000 0 0 1
-8.182531 21.889133 19.823250 30.643910 -1.213063 0.867297 -0.008071 -0.014414 1137410.000000 0 0 1
-9.655131 22.182533 19.369050 30.991070 -1.160269 0.895680 0.001708 -0.019412 770753.000000 0 0 1
-10.023531 23.531533 19.567350 32.203810 -1.168111 0.917749 0.006405 -0.015905 8574.160000 0 0 1
-11.221231 23.861033 18.877550 32.428796 -1.131211 0.949459 0.005608 -0.015363 -5516.510000 0 0 1
-11.635931 25.314233 19.043550 33.747031 -1.139939 0.971208 0.011075 -0.009113 -192119.000000 0 0 1
-12.340831 25.538033 20.217650 34.831604 -1.120652 0.951528 0.011461 -0.003801 -105639.000000 0 0 1
-12.996031 26.779033 20.160850 35.950985 -1.118973 0.975460 0.017502 -0.005790 -534849.000000 0 0 1
-13.819531 27.228533 21.351450 37.259319 -1.101136 0.960574 0.035581 0.001010 363658.000000 0 0 1
-15.151531 26.685233 21.364250 37.391199 -1.054400 0.962621 0.029065 -0.002527 608882.000000 0 0 1
-15.710631 26.802433 22.636850 38.439840 -1.040612 0.941111 0.021462 0.001444 1602500.000000 0 0 1
-17.254831 26.362633 22.675950 38.819020 -0.991251 0.946970 0.037014 0.004775 1772750.000000 0 0 1
-17.370931 24.937033 22.477750 37.800187 -0.962361 0.933970 0.047364 0.005154 167714.000000 0 0 1
-18.688931 24.574033 22.871550 38.422221 -0.920599 0.933196 0.058804 0.011337 209468.000000 0 0 1
27.483269 24.562933 23.686429 43.814549 0.729346 0.999638 0.020770 -0.003981 9453.880000 0 0 1
27.347869 23.667833 24.744729 43.822071 0.713388 0.970771 0.021498 -0.021414 312115.000000 0 0 1
26.768069 22.385733 24.447009 42.606418 0.696478 0.959674 0.020540 -0.014127 -128040.000000 0 0 1
26.461969 21.507233 25.705309 42.703159 0.682473 0.924851 0.045831 -0.023393 390397.000000 0 0 1
25.292269 21.968733 26.382449 42.642206 0.715191 0.903718 0.046522 -0.023520 440563.000000 0 0 1
25.225469 21.275833 27.625019 43.036346 0.700666 0.873823 0.054865 -0.026138 -1071120.000000 0 0 1
23.885869 21.511033 28.241979 42.788651 0.733133 0.849932 0.054613 -0.024471 -1119450.000000 0 0 1
23.675069 22.833233 28.670719 43.633423 0.767299 0.853856 0.053004 -0.034552 -209145.000000 0 0 1
22.511769 22.862933 29.460759 43.559497 0.793137 0.828022 0.063420 -0.030059 -271562.000000 0 0 1
22.218669 24.314333 30.014889 44.561751 0.830404 0.831785 0.057241 -0.031250 -606143.000000 0 0 1
21.617069 25.108333 29.058699 44.069650 0.859978 0.850801 0.062280 -0.041801 -270227.000000 0 0 1
21.407269 26.397033 29.534509 45.026234 0.889401 0.855369 0.046944 -0.038024 425542.000000 0 0 1
20.048669 26.671433 30.264659 45.047354 0.926214 0.834105 0.054106 -0.036904 1055960.000000 0 0 1
18.846069 26.611133 29.454009 43.941613 0.954587 0.836185 0.052510 -0.044374 1732810.000000 0 0 1
17.644469 27.026833 30.118219 44.146168 0.992420 0.819976 0.037616 -0.035305 963739.000000 0 0 1
16.846269 25.916133 30.869769 43.685070 0.994400 0.786053 0.036047 -0.024905 34878.100000 0 0 1
17.414669 25.549733 32.128459 44.590329 0.972527 0.766237 0.027627 -0.019647 701356.000000 0 0 1
16.405669 24.813033 32.806022 44.283944 0.986608 0.736520 0.025224 -0.014331 367754.000000 0 0 1
16.768169 24.427533 34.246450 45.284602 0.969225 0.713235 0.026445 -0.012304 -172704.000000 0 0 1
17.215069 25.537833 -33.591320 45.573197 0.977665 2.399543 0.028582 -0.010830 392064.000000 0 0 1
17.511869 25.005233 -32.275740 44.425788 0.959850 2.384024 0.006363 0.004278 -118744.000000 0 0 1
17.862769 26.154733 -31.302230 44.530643 0.971595 2.350315 -0.000204 0.014902 294402.000000 0 0 1
16.838969 27.154433 -31.089520 44.581076 1.015715 2.342518 0.006683 0.008157 636217.000000 0 0 1
17.428369 28.133633 -30.277710 44.855201 1.016173 2.311775 0.013814 0.001570 -87594.000000 0 0 1
16.593169 28.714133 -29.114030 44.130051 1.046804 2.291259 0.017725 0.003557 -181954.000000 0 0 1
16.621069 27.783833 -28.076130 42.854059 1.031681 2.285187 -0.001538 0.008763 198633.000000 0 0 1
16.356069 28.391233 -26.844390 42.358050 1.048139 2.257187 -0.006697 0.009668 -256461.000000 0 0 1
16.717569 27.517733 -25.607220 41.139184 1.024866 2.242670 -0.015415 0.012701 1359300.000000 0 0 1
18.167969 27.503633 -25.480490 41.662697 0.987029 2.228865 -0.001681 0.010038 1150990.000000 0 0 1
18.736069 26.712333 -24.473050 40.786262 0.959130 2.214337 -0.002330 0.011237 229805.000000 0 0 1
20.244269 27.067433 -24.380350 41.675866 0.928628 2.195675 0.001198 0.003757 -14572.100000 0 0 1
20.913969 26.442733 -23.363650 41.017952 0.901619 2.176810 0.020348 0.004909 -434264.000000 0 0 1
22.301969 26.717033 -23.487250 41.986052 0.875224 2.164465 0.023122 0.005987 262941.000000 0 0 1
23.036369 26.427933 -22.173250 41.482080 0.853857 2.134743 0.028035 0.008662 -207283.000000 0 0 1
22.993569 25.052133 -21.765950 40.374127 0.828218 2.140172 0.034857 0.010423 -87501.000000 0 0 1
23.787369 24.959233 -20.615050 40.171912 0.809433 2.109671 0.037972 0.008798 -224360.000000 0 0 1
23.255069 24.062233 -19.497150 38.728906 0.802455 2.098356 0.031900 0.003118 -888432.000000 0 0 1
23.346969 22.646633 -19.666050 38.009268 0.770173 2.114608 0.025649 0.011258 117329.000000 0 0 1
23.067869 21.931133 -18.469050 36.799551 0.760142 2.096570 0.025833 0.013192 -626839.000000 0 0 1
23.198769 20.406633 -18.779950 36.156605 0.721454 2.116952 0.027549 0.005226 200772.000000 0 0 1
22.355069 19.855133 -19.759950 35.838960 0.726241 2.154783 0.020188 0.003928 -332198.000000 0 0 1
20.961769 19.955033 -19.599250 34.953250 0.760799 2.166061 0.020911 -0.006549 -437086.000000 0 0 1
20.229769 19.678533 -20.939250 35.141719 0.771586 2.209122 0.011242 0.000528 69338.700000 0 0 1
20.565669 20.599633 -22.012950 36.494679 0.786223 2.218281 0.011420 0.003170 3920.600000 0 0 1
20.420169 22.021933 -21.792350 37.106002 0.823120 2.198515 0.011884 0.007936 -55641.800000 0 0 1
19.976769 22.763833 -23.072950 38.073934 0.850515 2.221824 0.005333 0.011223 -337827.000000 0 0 1
18.639669 22.481833 -23.355650 37.394605 0.878562 2.245381 0.017776 0.012064 -726802.000000 0 0 1
18.235469 23.067133 -24.582450 38.326516 0.901851 2.267112 0.012085 0.015561 704305.000000 0 0 1
16.672269 23.148833 -24.711350 37.742335 0.946628 2.284633 0.006088 0.014875 661009.000000 0 0 1
16.184369 24.270333 -24.062150 37.814943 0.982675 2.260506 0.000909 0.007379 662471.000000 0 0 1
14.752469 24.337033 -24.041850 37.255027 1.025850 2.272254 0.004476 0.006030 1071700.000000 0 0 1
14.055469 25.510433 -23.259150 37.273670 1.067209 2.244661 0.005338 0.006511 31233.100000 0 0 1
14.202769 26.745033 -23.923150 38.591872 1.082624 2.239413 0.002193 0.010274 -497566.000000 0 0 1
13.186269 27.629133 -23.583950 38.645173 1.125506 2.227196 0.019413 0.002777 -406122.000000 0 0 1
13.296869 29.057433 -24.244650 40.111647 1.141635 2.219845 0.019665 -0.006396 -278966.000000 0 0 1
13.218469 29.033433 -25.680660 40.953198 1.143557 2.248587 0.020020 -0.015419 -66766.600000 0 0 1
12.679869 30.276933 -26.186890 41.990772 1.174192 2.244180 0.043992 -0.025728 -119605.000000 0 0 1
13.630769 31.486733 -26.353080 43.263114 1.162249 2.225766 0.043374 -0.022866 -492813.000000 0 0 1
14.557369 31.299033 -27.357030 44.044904 1.135451 2.240963 0.028511 -0.000283 -664681.000000 0 0 1
15.296369 32.484533 -27.570270 45.269676 1.130714 2.225624 0.027102 -0.013884 772929.000000 0 0 1
16.791869 32.275733 -28.023480 45.923907 1.091070 2.227129 0.022213 0.005188 389237.000000 0 0 1
17.492569 31.627033 -27.014370 45.122449 1.065584 2.212661 -0.007749 0.006906 412193.000000 0 0 1
18.878969 31.616733 -27.434320 45.920314 1.032498 2.211093 0.005644 0.002908 422414.000000 0 0 1
19.718769 30.866933 -26.361850 45.128090 1.002313 2.194636 -0.004342 0.010730 -1426380.000000 0 0 1
20.080869 31.585333 -25.180980 45.110490 1.004493 2.163019 0.005114 0.004768 248288.000000 0 0 1
20.970669 32.679433 -25.384960 46.390845 1.000272 2.149809 0.010496 -0.001256 -138966.000000 0 0 1
22.443069 32.278833 -25.638690 46.935667 0.963240 2.148679 0.002815 0.003362 -595193.000000 0 0 1
22.475969 31.518033 -26.826880 47.098164 0.951323 2.176809 -0.004132 0.002792 309232.000000 0 0 1
23.798769 31.551733 -27.396350 48.087974 0.924563 2.176953 -0.004455 0.005246 481261.000000 0 0 1
23.726969 30.905333 -28.851100 48.481900 0.916044 2.208174 -0.008795 0.003801 -116416.000000 0 0 1
22.855469 31.518633 -29.759920 49.004587 0.943395 2.223439 -0.002020 0.003296 -908542.000000 0 0 1
21.740669 30.754833 -30.038320 48.174860 0.955453 2.244042 -0.005085 0.000938 -1467800.000000 0 0 1
20.775269 31.566233 -30.821940 48.765058 0.988714 2.254992 -0.011395 0.001568 -1236130.000000 0 0 1
20.349669 32.814433 -30.258060 49.055542 1.015697 2.235483 0.002518 -0.003255 73541.300000 0 0 1
19.673469 33.671633 -31.161070 49.918299 1.042020 2.244956 0.013358 -0.006830 -168477.000000 0 0 1
18.131169 33.603233 -31.163590 49.285758 1.075999 2.255320 0.002962 -0.013480 -235766.000000 0 0 1
17.529169 32.361633 -31.476370 48.428390 1.074375 2.278324 0.014208 -0.010588 77252.700000 0 0 1
17.695969 31.842533 -32.783480 49.008681 1.063562 2.303568 0.020139 -0.017063 -733988.000000 0 0 1
16.937169 32.525033 -33.938450 49.965627 1.090693 2.317517 0.037961 -0.026886 -352654.000000 0 0 1
17.504369 33.768733 34.307845 51.222637 1.092569 0.836885 0.023732 -0.016457 85509.600000 0 0 1
17.336169 34.237233 32.958429 50.586450 1.102078 0.861201 0.026831 -0.017214 1098360.000000 0 0 1
15.864669 -33.972813 32.623392 49.700357 -1.133911 0.854757 0.042688 -0.026951 1454060.000000 0 0 1
14.887069 33.733733 32.362019 49.060064 1.155192 0.850456 0.053070 -0.031315 680466.000000 0 0 1
13.542169 34.157833 32.238379 48.882113 1.193347 0.850626 0.051399 -0.030752 313875.000000 0 0 1
13.245669 -33.715913 30.954219 47.648444 -1.196459 0.863689 0.033994 -0.022845 -940084.000000 0 0 1
13.877469 -32.463413 30.685719 46.776818 -1.166827 0.855286 0.042470 -0.026621 415440.000000 0 0 1
13.237069 -31.933213 29.518619 45.456561 -1.177833 0.864026 0.042521 -0.028978 267664.000000 0 0 1
13.642569 -30.451613 29.281619 44.394072 -1.149600 0.850531 0.042105 -0.026258 -88997.400000 0 0 1
13.140069 -29.661713 30.299749 44.390916 -1.153781 0.819528 0.038969 -0.023462 135485.000000 0 0 1
13.715169 -28.378913 30.381079 43.777603 -1.120608 0.803785 0.048518 -0.019404 -687165.000000 0 0 1
13.114369 -27.554413 31.576229 43.912306 -1.126578 0.768326 0.047573 -0.015048 -157037.000000 0 0 1
11.768569 -27.187313 31.445999 43.203010 -1.162279 0.755592 0.032894 -0.017923 -405264.000000 0 0 1
11.636169 -26.177613 30.455649 41.811654 -1.152519 0.754811 0.032752 -0.017384 -873129.000000 0 0 1
11.781869 -24.746513 30.948599 41.340273 -1.126449 0.724802 0.027699 -0.015606 -54612.000000 0 0 1
10.871569 -24.259513 31.930579 41.548488 -1.149493 0.694281 0.033878 -0.021673 205768.000000 0 0 1
11.392369 -23.081113 32.564850 41.508955 -1.112298 0.668865 0.035751 -0.018683 -146693.000000 0 0 1
10.475969 -22.450013 33.601908 41.747302 -1.134195 0.635309 0.048726 -0.020057 -549562.000000 0 0 1
10.367869 -23.082613 -33.718150 42.157009 -1.148638 2.497797 0.055040 -0.014315 532244.000000 0 0 1
11.581269 -23.311413 -32.996280 42.027399 -1.109707 2.473676 0.045892 -0.010113 388201.000000 0 0 1
12.297269 -22.192413 -32.277440 41.055562 -1.064795 2.475414 0.051554 -0.015392 -272349.000000 0 0 1
12.769369 -21.191313 -33.162550 41.374911 -1.028485 2.500618 0.031645 -0.006659 149413.000000 0 0 1
13.823369 -20.410513 -32.640390 40.903174 -0.975491 2.494752 0.034215 -0.014932 -168793.000000 0 0 1
14.242369 -19.269413 -33.526460 41.208966 -0.934296 2.521065 0.023262 -0.010973 -474126.000000 0 0 1
14.854069 -19.723613 33.905890 41.943696 -0.925307 0.629424 0.021971 -0.002950 208093.000000 0 0 1
14.687069 -18.809613 32.805919 40.567720 -0.907856 0.628908 0.003366 0.003870 -271143.000000 0 0 1
15.443869 -17.461813 32.794137 40.235351 -0.846647 0.617967 0.016541 -0.001064 -882746.000000 0 0 1
14.936969 -16.529213 33.727480 40.421168 -0.835957 0.583750 0.012826 0.001328 235353.000000 0 0 1
15.450169 -15.188813 33.676997 40.044324 -0.776868 0.571680 0.037929 0.000318 -843326.000000 0 0 1
16.886569 -14.908213 34.087589 40.857983 -0.723256 0.583944 0.048463 0.002233 -747929.000000 0 0 1
17.795869 -15.480813 33.185094 40.713622 -0.715940 0.617919 0.040924 0.000675 212761.000000 0 0 1
19.121569 -15.048113 33.518224 41.419216 -0.666746 0.627933 0.057673 -0.001447 903376.000000 0 0 1
20.263169 -15.694713 32.660030 41.516233 -0.659025 0.665382 0.062267 -0.011357 125216.000000 0 0 1
20.214769 -15.327013 31.306589 40.294624 -0.648734 0.681002 0.050714 -0.002151 15384.800000 0 0 1
21.198669 -15.956013 30.536209 40.452911 -0.645220 0.715359 0.040539 -0.001719 -473784.000000 0 0 1
21.395369 -15.275213 29.185209 39.279389 -0.620027 0.733231 0.045777 0.007402 720640.000000 0 0 1
22.405069 -14.207113 29.230119 39.474410 -0.565118 0.737008 0.040009 -0.003840 1128480.000000 0 0 1
22.479069 -13.509613 27.980529 38.350074 -0.541144 0.753047 0.043134 -0.001861 140035.000000 0 0 1
23.152269 -12.123513 28.100149 38.374803 -0.482382 0.749169 0.034487 0.007085 5989.740000 0 0 1
22.265469 -11.169113 28.631389 37.950713 -0.464954 0.716002 0.037925 -0.002350 67968.500000 0 0 1
22.872169 -9.992313 29.114029 38.348522 -0.411887 0.708720 0.043439 -0.009808 -435207.000000 0 0 1
21.920369 -8.802313 28.904809 37.329228 -0.381849 0.685155 0.055028 -0.008414 884993.000000 0 0 1
20.901169 -8.746313 29.930599 37.539281 -0.396319 0.647964 0.057977 -0.013959 901180.000000 0 0 1
19.932169 -7.690413 29.767559 36.640707 -0.368231 0.622510 0.050929 -0.017758 837015.000000 0 0 1
18.739569 -7.643113 30.767009 36.826587 -0.387263 0.581833 0.043603 -0.000817 171503.000000 0 0 1
19.031369 -7.137213 32.084259 37.980686 -0.358791 0.564695 0.049876 -0.002701 422401.000000 0 0 1
19.708969 -8.064813 32.961887 39.242460 -0.388408 0.573597 0.055183 -0.014010 -338685.000000 0 0 1
19.878869 -7.644213 -34.198116 40.287896 -0.367108 2.584590 0.056034 -0.012722 320800.000000 0 0 1
18.592969 -7.569613 -33.581510 39.124357 -0.386631 2.602797 0.039010 -0.017760 563445.000000 0 0 1
18.632069 -6.857013 -32.394890 37.994756 -0.352639 2.591765 0.045004 -0.025908 -346968.000000 0 0 1
17.265369 -6.600713 -31.747740 36.736649 -0.365163 2.614351 0.040446 -0.026908 -282209.000000 0 0 1
17.354969 -5.788813 -30.609280 35.659968 -0.321949 2.602871 0.043343 -0.026723 -272187.000000 0 0 1
16.147569 -5.729213 -29.915710 34.474883 -0.340948 2.621461 0.047138 -0.021746 -428869.000000 0 0 1
16.183569 -4.644913 -28.837320 33.392726 -0.279501 2.613125 0.038487 -0.019675 -172669.000000 0 0 1
16.805169 -4.898113 -27.588850 32.673382 -0.283608 2.576209 0.033686 -0.017405 74309.200000 0 0 1
16.240369 -5.890813 -26.798510 31.884344 -0.347967 2.568985 0.065784 -0.020167 687271.000000 0 0 1
14.897769 -5.600113 -26.012480 30.495146 -0.359562 2.592511 0.043608 -0.019891 372105.000000 0 0 1
15.018569 -4.644813 -24.983550 29.517952 -0.299941 2.579957 0.044924 -0.008231 -276808.000000 0 0 1
13.871269 -4.616113 -24.163550 28.241773 -0.321255 2.597498 0.013733 -0.013363 -29843.600000 0 0 1
13.736569 -3.264613 -23.408050 27.336566 -0.233330 2.598841 0.022773 -0.010522 -99345.000000 0 0 1
13.475169 -2.178613 -24.274050 27.848807 -0.160289 2.629329 0.011908 -0.012403 175472.000000 0 0 1
13.575669 -0.996613 -23.541350 27.193514 -0.073280 2.617338 0.021028 -0.012037 -392392.000000 0 0 1
13.982569 0.212387 -24.383150 28.108635 0.015188 2.620873 0.012072 -0.017469 -1102420.000000 0 0 1
13.054969 0.758387 -25.247170 28.432850 0.058027 2.663682 0.023484 -0.013059 -422867.000000 0 0 1
13.616469 1.957387 -25.737610 29.183286 0.142773 2.650737 0.015813 -0.001545 215604.000000 0 0 1
12.741369 2.731387 -26.768790 29.771985 0.211175 2.688567 0.024250 0.001987 219314.000000 0 0 1
11.533369 3.342387 -26.335520 28.943907 0.282074 2.713794 0.030953 -0.007748 232127.000000 0 0 1
10.784469 3.685387 -27.454080 29.725635 0.329289 2.748118 0.030477 -0.005172 246052.000000 0 0 1
9.510269 4.542387 -27.146120 29.120274 0.445592 2.771260 0.031107 -0.004583 411304.000000 0 0 1
9.805969 5.841387 -26.679940 29.018925 0.537250 2.737343 0.025281 -0.019659 111744.000000 0 0 1
8.644269 6.649387 -26.587770 28.737558 0.655692 2.752339 0.038426 -0.022246 256605.000000 0 0 1
7.510769 5.524233 -30.904230 32.280028 0.634162 2.848584 0.026415 -0.001004 -187318.000000 0 0 1
7.644769 4.313633 -30.278350 31.525044 0.513725 2.859424 0.037967 0.003187 326794.000000 0 0 1
7.983569 3.314833 -31.219700 32.394369 0.393547 2.871471 0.032215 0.008354 -46950.300000 0 0 1
7.715269 1.995733 -30.495830 31.519898 0.253125 2.885987 0.034097 0.004497 -257189.000000 0 0 1
8.672469 1.685833 -29.526360 30.819794 0.191995 2.850854 0.043174 -0.002589 67677.900000 0 0 1
8.315369 0.506933 -28.859850 30.038197 0.060888 2.860568 0.046760 -0.013276 200887.000000 0 0 1
9.276769 0.036333 -27.690860 29.203484 0.003917 2.818330 0.043712 -0.009546 461612.000000 0 0 1
10.413669 -0.656067 -28.184610 30.054071 -0.062917 2.787025 0.044202 -0.006669 229411.000000 0 0 1
11.251469 -1.066867 -27.128750 29.388822 -0.094538 2.746855 0.034257 -0.010956 41634.900000 0 0 1
12.183669 -2.245467 -27.434500 30.102088 -0.182256 2.717426 0.032177 -0.006699 144248.000000 0 0 1
11.392469 -3.418267 -27.548880 30.006894 -0.291499 2.734018 0.041584 -0.007419 -278437.000000 0 0 1
12.108969 -4.477067 -27.982270 30.816857 -0.354144 2.709325 0.041204 -0.012945 -864424.000000 0 0 1
11.543469 -5.836367 -27.591460 30.472997 -0.468117 2.703211 0.027193 -0.012499 -254895.000000 0 0 1
11.673069 -5.989567 -26.182820 29.286098 -0.474080 2.677071 0.027411 -0.011981 135024.000000 0 0 1
10.966869 -7.150167 -25.747740 28.885000 -0.577765 2.671195 0.030654 -0.014111 92489.300000 0 0 1
10.516269 -7.050967 -24.300950 27.401537 -0.590639 2.661271 0.035564 -0.016682 478066.000000 0 0 1
11.628569 -7.190967 -23.400950 27.102363 -0.553830 2.612823 0.018340 -0.008953 537269.000000 0 0 1
11.190869 -6.871367 -22.074350 25.685174 -0.550661 2.604930 0.023966 -0.016869 -279399.000000 0 0 1
12.263169 -6.809967 -20.996250 25.250811 -0.506917 2.552613 0.023460 -0.015951 -505546.000000 0 0 1
13.116769 -5.727667 -21.060950 25.464081 -0.411711 2.544697 0.016395 -0.010872 -341997.000000 0 0 1
14.137769 -5.829567 -20.079250 25.239585 -0.391099 2.490704 0.013259 -0.015473 115086.000000 0 0 1
14.622869 -4.462267 -19.653950 24.900158 -0.296181 2.480481 0.021472 -0.012926 -663885.000000 0 1 0
15.463169 -3.831367 -20.550750 26.002352 -0.242882 2.482163 0.022300 -0.011432 -431921.000000 0 0 1
15.833669 -2.660367 -19.937550 25.598604 -0.166465 2.463631 0.017725 -0.005750 -580365.000000 0 0 1
16.819569 -1.745267 -20.658550 26.696808 -0.103394 2.455648 0.023080 -0.011470 993853.000000 0 0 1
18.106769 -2.414267 -20.798550 27.681464 -0.132553 2.420906 0.035498 -0.016615 675621.000000 0 0 1
19.002869 -1.565267 -21.435250 28.688483 -0.082184 2.414594 0.036196 -0.013635 -715120.000000 0 0 1
20.290969 -2.258567 -21.845350 29.900566 -0.110853 2.389996 0.046318 -0.020170 -579118.000000 0 0 1
21.289769 -2.450767 -20.803650 29.867246 -0.114610 2.341356 0.042954 -0.017651 1133160.000000 0 0 1
22.332869 -3.375767 -21.143450 30.938622 -0.150021 2.323206 0.050977 -0.019978 381808.000000 0 0 1
23.439969 -2.753967 -22.020750 32.278939 -0.116954 2.321566 0.041816 -0.020866 -1136110.000000 0 0 1
23.114969 -2.502167 -23.364250 32.961353 -0.107829 2.358645 0.041740 -0.023104 334488.000000 0 0 1
24.002469 -1.578067 -24.009550 33.986281 -0.065652 2.355264 0.035729 -0.021559 591643.000000 0 0 1
25.334569 -2.086367 -24.612650 35.383271 -0.082167 2.340053 0.032474 -0.022138 78367.800000 0 0 1
26.363569 -2.401467 -23.653950 35.500904 -0.090840 2.300021 0.033650 -0.015675 959855.000000 0 0 1
27.582269 -2.954367 -24.139350 36.772518 -0.106704 2.286901 0.026507 -0.011021 1100310.000000 0 0 1
28.504569 -2.072167 -25.065950 38.014552 -0.072568 2.290787 0.028477 -0.017643 -461284.000000 0 0 1
27.960169 -1.882467 -26.356770 38.470691 -0.067225 2.325555 0.029682 -0.013358 586956.000000 0 0 1
28.606369 -0.723967 -27.003760 39.345286 -0.025302 2.327224 0.025770 -0.014824 -173535.000000 0 0 1
28.051869 -0.515167 -28.416230 39.933130 -0.018363 2.362563 0.028318 -0.011799 759075.000000 0 0 1
26.675369 -0.125067 -28.547210 39.070886 -0.004688 2.390072 0.026381 -0.010695 782790.000000 0 0 1
26.354269 1.186433 -28.067840 38.519589 0.044988 2.387166 0.021627 -0.005646 -593641.000000 0 0 1
24.851969 1.509033 -28.182870 37.605474 0.060646 2.418005 0.018702 -0.009164 102451.000000 0 0 1
24.024069 0.959533 -27.157410 36.271222 0.039919 2.416943 0.023691 -0.012505 -6224.890000 0 0 1
22.699669 1.378333 -27.328360 35.552975 0.060646 2.447549 0.025814 -0.009998 -176705.000000 0 0 1
21.704369 1.071033 -26.169430 34.015670 0.049306 2.448595 0.031892 -0.011877 -6699.660000 0 0 1
21.795669 1.951233 -25.079440 33.284183 0.089286 2.424157 0.034003 -0.007415 259734.000000 0 0 1
21.012569 1.518333 -23.997150 31.932689 0.072133 2.421117 0.030645 -0.011787 -330573.000000 0 0 1
21.371669 2.248733 -22.666250 31.234019 0.104835 2.382835 0.037737 -0.014777 -467851.000000 0 0 1
21.115369 3.588033 -22.697450 31.207483 0.168317 2.385188 0.044543 -0.013003 368425.000000 0 0 1
21.565569 4.099633 -21.482050 30.714154 0.187859 2.345380 0.043940 -0.007792 -289050.000000 0 0 1
21.091469 5.515633 -21.071250 30.319463 0.255782 2.339181 0.049496 -0.008026 24470.900000 0 0 1
21.903169 6.528933 -21.688150 31.507961 0.289696 2.329993 0.046183 -0.009065 535747.000000 0 0 1
21.801469 7.841633 -21.063050 31.312096 0.345276 2.308622 0.030876 -0.001798 -462789.000000 0 0 1
22.232169 8.088033 -19.587950 30.714384 0.348914 2.262364 0.030574 -0.006517 904286.000000 0 0 1
23.672369 8.111633 -19.397350 31.661283 0.330123 2.230208 0.021466 -0.003493 1635330.000000 0 0 1
24.121069 8.312633 -18.064450 31.261001 0.331875 2.186899 0.039544 -0.009315 -21714.900000 0 0 1
23.803869 9.766933 -17.485150 31.108642 0.389361 2.167679 0.035287 -0.014970 930456.000000 0 0 1
22.420469 9.991733 -17.108050 29.919852 0.419232 2.179490 0.038065 -0.021246 1132320.000000 0 0 1
22.191369 11.378033 -16.911150 30.131437 0.473774 2.166687 0.038559 -0.020246 283288.000000 0 0 1
20.691269 11.815933 -16.660350 29.074252 0.518867 2.180992 0.027440 -0.022337 1104730.000000 0 0 1
19.817769 11.702533 -17.766050 29.074487 0.533410 2.228186 0.039805 -0.029955 231015.000000 0 0 1
19.406669 10.338033 -17.885050 28.343760 0.489468 2.253644 0.046706 -0.024761 -679310.000000 0 0 1
18.387269 10.038533 -19.031050 28.302733 0.499729 2.308257 0.062065 -0.010894 290757.000000 0 0 1
19.016969 10.132233 -20.306750 29.608636 0.489542 2.326552 0.060447 -0.008028 648158.000000 0 0 1
18.146969 9.765333 -21.381750 29.696017 0.493680 2.374629 0.051021 -0.015281 188127.000000 0 0 1
18.774569 9.998333 -22.800650 31.182058 0.489345 2.390891 0.058101 -0.015189 67777.000000 0 0 1
18.997269 11.335033 -23.088250 31.975717 0.537965 2.377565 0.054302 -0.022399 347967.000000 0 0 1
20.010569 11.538533 -24.053650 33.348744 0.523052 2.376439 0.059274 -0.023631 -21388.900000 0 0 1
20.156769 13.041233 -24.470950 34.281139 0.574256 2.365750 0.043111 -0.013605 -6840.460000 0 0 1
21.107669 13.324933 -25.482130 35.671087 0.563105 2.366511 0.023601 -0.010843 126972.000000 0 0 1
21.156769 14.702633 -25.853150 36.498790 0.607320 2.357924 0.024689 -0.014091 -200183.000000 0 0 1
20.043769 15.250133 -26.765020 36.751674 0.650404 2.386586 0.030729 -0.013859 36841.000000 0 0 1
18.770369 15.213233 -26.166910 35.615676 0.681106 2.396024 0.038835 -0.011577 -590060.000000 0 0 1
17.796869 15.846833 -26.954210 35.977494 0.727502 2.417644 0.032634 -0.015527 577228.000000 0 0 1
16.356669 15.462633 -26.462540 34.740461 0.757308 2.436762 0.038437 -0.020220 415471.000000 0 0 1
16.028569 14.090033 -26.652360 34.143701 0.721123 2.466412 0.029286 -0.017344 663206.000000 0 0 1
14.755669 13.689133 -26.123890 32.978474 0.747921 2.485120 0.027726 -0.017388 516770.000000 0 0 1
14.584369 12.178933 -26.155090 32.328300 0.695761 2.513324 0.026462 -0.020309 160365.000000 0 0 1
13.280269 11.792533 -25.760980 31.289894 0.726131 2.537998 0.020092 -0.021193 124663.000000 0 0 1
13.203569 10.389933 -25.786920 30.777430 0.666704 2.564132 0.024063 -0.023907 386306.000000 0 0 1
11.801469 9.693633 -25.648210 29.850827 0.687649 2.604525 0.032516 -0.032440 602515.000000 0 0 1
11.192069 10.018933 -24.403350 28.655975 0.730147 2.589821 0.050184 -0.035308 -191467.000000 0 0 1
10.029869 9.266533 -24.208150 27.793910 0.745860 2.628005 0.042798 -0.033664 374961.000000 0 0 1
8.993069 9.732733 -23.086650 26.619444 0.824877 2.620519 0.035735 -0.031217 706817.000000 0 0 1
8.295369 10.954933 -23.462750 27.190519 0.922686 2.611780 0.035238 -0.033193 650117.000000 0 0 1
7.508169 11.631133 -22.447150 26.372910 0.997575 2.588958 0.039019 -0.020583 135417.000000 0 0 1
8.262769 12.619833 -21.623550 26.364966 0.991093 2.532491 0.053338 -0.023802 -257960.000000 0 0 1
9.085169 11.960233 -20.681050 25.559603 0.921170 2.513467 0.059049 -0.032093 -389671.000000 0 0 1
9.886669 12.793933 -19.868950 25.616520 0.912886 2.458509 0.073162 -0.032854 -97372.000000 0 0 1
10.900369 11.988533 -18.974950 24.951787 0.832904 2.434825 0.083202 -0.034052 1034640.000000 0 1 0
11.983369 11.361433 -19.716450 25.718120 0.758763 2.444383 0.080237 -0.033902 990936.000000 0 0 1
11.551569 10.358433 -20.655650 25.833927 0.730996 2.497351 0.064990 -0.031737 -1366610.000000 0 0 1
12.707869 9.818533 -21.487550 26.825516 0.657830 2.499779 0.056032 -0.032746 -435833.000000 0 0 1
13.473169 8.864433 -20.791950 26.313678 0.581931 2.481862 0.074055 -0.034531 111085.000000 0 0 1
14.410369 8.284233 -21.681550 27.319899 0.521744 2.487528 0.065619 -0.029937 -34754.100000 0 0 1
14.998069 6.978133 -21.082550 26.797581 0.435479 2.476295 0.069211 -0.026826 -91894.500000 0 0 1
15.810169 7.046033 -19.946350 26.409561 0.419243 2.426862 0.069063 -0.024091 146618.000000 0 0 1
16.500469 5.850033 -19.647050 26.315299 0.340711 2.413736 0.068613 -0.024783 -102998.000000 0 0 1
17.309969 5.997933 -18.379950 25.950584 0.333555 2.357837 0.061219 -0.026743 749312.000000 0 0 1
18.651469 6.566433 -18.500150 27.078606 0.338509 2.322935 0.056236 -0.026839 1755060.000000 0 0 1
19.285669 6.681133 -17.226350 26.708083 0.333491 2.271802 0.054791 -0.027031 -64000.400000 0 0 1
19.979369 5.419333 -16.640950 26.560602 0.264873 2.247886 0.055152 -0.028028 -888522.000000 0 0 1
21.085869 5.079133 -17.424550 27.821330 0.236375 2.247597 0.046058 -0.016741 -78514.300000 0 0 1
21.768869 4.050633 -16.719650 27.745954 0.183971 2.217549 0.046589 -0.019889 163378.000000 0 0 1
23.229369 3.815333 -17.223250 29.168488 0.162793 2.202443 0.030125 0.000114 368446.000000 0 0 1
23.918969 2.914433 -16.359650 29.124717 0.121248 2.167248 0.021600 0.000418 101585.000000 0 0 1
25.097069 2.428433 -16.927950 30.369650 0.096461 2.162044 0.019055 -0.003826 376793.000000 0 0 1
26.009269 1.369633 -16.170650 30.656939 0.052611 2.126417 0.020880 -0.014616 142518.000000 0 0 1
25.480469 0.063433 -16.306050 30.251373 0.002489 2.140068 0.034923 -0.012553 -48782.900000 0 0 1
26.453469 -0.947467 -16.164250 31.015588 -0.035801 2.119012 0.027301 -0.011720 -552006.000000 0 0 1
25.944469 -2.361367 -16.350950 30.757846 -0.090766 2.131288 0.023028 -0.020224 -441526.000000 0 0 1
25.293669 -2.892667 -15.230050 29.666338 -0.113869 2.109913 0.028072 -0.018296 361864.000000 0 0 1
25.183569 -4.301767 -15.343050 29.801452 -0.169184 2.111620 0.028787 -0.015908 -1286920.000000 0 0 1
24.701769 -4.998267 -14.062050 28.860030 -0.199649 2.079734 0.036298 -0.016983 -547529.000000 0 0 1
23.350269 -4.887767 -13.758250 27.539331 -0.206344 2.093917 0.044424 -0.011365 -35169.400000 0 0 1
22.433669 -5.507867 -14.684350 27.372180 -0.240756 2.137045 0.048712 -0.006719 -142734.000000 0 0 1
20.985769 -5.560267 -14.134650 25.905741 -0.259003 2.147923 0.058814 -0.010688 28673.800000 0 0 1
20.850969 -6.550367 -13.154550 25.509065 -0.304389 2.112599 0.060466 -0.007000 361856.000000 0 0 1
20.740969 -5.988667 -11.821950 24.613216 -0.281091 2.071803 0.064685 -0.006371 -356766.000000 0 1 0
20.307769 -7.043567 -10.737950 24.027503 -0.333858 2.034096 0.055800 -0.005600 1242700.000000 0 1 0
18.938669 -7.519067 -10.907050 23.112189 -0.377936 2.062261 0.051044 -0.000193 1788590.000000 0 1 0
18.844069 -8.618167 -11.808350 23.849714 -0.428942 2.088763 0.052489 -0.010747 -597366.000000 0 1 0
17.415569 -9.169267 -11.883350 22.991118 -0.484621 2.113983 0.066934 -0.006911 234070.000000 0 1 0
16.403569 -8.218667 -12.246650 22.059102 -0.464471 2.159369 0.053884 -0.005004 112269.000000 0 1 0
15.183569 -8.859667 -12.532650 21.589390 -0.528201 2.190139 0.052731 -0.002051 -170406.000000 0 1 0
14.051869 -7.866767 -12.821850 20.584967 -0.510365 2.243208 0.043029 -0.006234 -451724.000000 0 1 0
14.256169 -6.980467 -13.954750 21.135286 -0.455330 2.291959 0.044147 -0.008785 -157402.000000 0 1 0
15.279769 -6.032167 -13.857050 21.491305 -0.375999 2.271525 0.036195 -0.006910 -393565.000000 0 1 0
14.998169 -4.893867 -14.819750 21.645323 -0.315405 2.324937 0.027872 -0.013867 -109684.000000 0 1 0
13.925769 -4.128267 -14.312950 20.391914 -0.288195 2.348849 0.031532 -0.017498 -62677.800000 0 1 0
13.656069 -2.996067 -15.134950 20.604159 -0.215973 2.395811 0.020969 -0.026852 -203773.000000 0 1 0
14.757269 -1.917967 -15.303650 21.346131 -0.129243 2.370183 0.028285 -0.027024 117766.000000 0 1 0
15.785469 -2.284267 -16.250250 22.769926 -0.143709 2.365522 0.022858 -0.017614 790674.000000 0 1 0
16.975169 -1.517967 -16.103950 23.447767 -0.089186 2.327875 0.036325 -0.013346 774437.000000 0 1 0
18.016669 -2.140067 -15.108550 23.610348 -0.118229 2.265180 0.043422 -0.016233 -462243.000000 0 1 0
17.698569 -1.950067 -13.729750 22.484398 -0.109740 2.227658 0.044358 -0.012403 -88052.100000 0 1 0
18.648169 -2.581167 -12.936450 22.842250 -0.137540 2.172853 0.040485 -0.007883 -401019.000000 0 1 0
18.251969 -2.781067 -11.462150 21.731304 -0.151208 2.126391 0.037567 -0.008445 -502193.000000 0 1 0
17.996169 -1.536167 -10.819650 21.054376 -0.085154 2.110510 0.038608 -0.006420 608467.000000 0 1 0
17.645369 -1.808767 -9.491050 20.117423 -0.102150 2.062108 0.042549 -0.006924 -971926.000000 0 1 0
17.738669 -0.638967 -8.455550 19.661256 -0.036006 2.015357 0.045640 -0.006606 -247637.000000 0 1 0
19.044569 -0.280767 -8.062550 20.682823 -0.014742 1.971231 0.047552 -0.003561 549744.000000 0 1 0
19.889369 0.398133 -8.983150 21.827563 0.020015 1.994951 0.030801 0.001694 -379192.000000 0 1 0
19.406769 1.749333 -9.583150 21.714502 0.089897 2.027871 0.019530 0.001109 -701158.000000 0 1 0
19.527469 2.991533 -8.891650 21.664089 0.152014 1.993725 0.026888 0.009758 653072.000000 0 1 0
18.693269 3.962533 -9.519950 21.348757 0.208884 2.033004 0.008869 0.001065 -230478.000000 0 1 0
18.725069 5.427333 -8.974650 21.462257 0.282113 2.002215 0.021697 0.008074 -689899.000000 0 1 0
17.911469 6.356533 -9.603650 21.294514 0.341021 2.038673 0.015850 -0.000579 -107040.000000 0 1 0
18.307269 7.719533 -9.387850 21.974508 0.399042 2.012207 0.025147 0.005330 -385431.000000 0 1 0
-26.376611 -29.910147 5.931350 40.317780 0.848093 1.423145 0.060067 -0.021623 119732.000000 0 0 1
-26.303901 -28.790637 6.754650 39.578040 0.830503 1.399290 0.033756 -0.012658 -328004.000000 0 0 1
-25.135711 -28.031507 6.573550 38.220164 0.839810 1.397945 0.053479 -0.010674 -563981.000000 0 0 1
-25.034531 -26.698247 7.446750 37.349407 0.817547 1.370070 0.036592 -0.001102 -72293.600000 0 0 1
-26.017031 -25.692087 7.144550 37.256058 0.779114 1.377832 0.029581 -0.011330 1836400.000000 0 0 1
-27.389161 -25.946857 7.592250 38.484384 0.758363 1.372212 0.024307 -0.007382 1531450.000000 0 0 1
-27.681161 -25.954137 9.095950 39.020510 0.753210 1.335525 0.023809 -0.004985 -263978.000000 0 0 1
-26.981541 -27.031367 9.794250 39.428742 0.786321 1.319764 0.021405 -0.006135 224256.000000 0 0 1
-27.306501 -27.158127 11.148850 40.093712 0.782674 1.289012 0.030387 -0.011134 -257833.000000 0 0 1
-26.232941 -27.933707 11.950150 40.140569 0.816787 1.268506 0.024011 -0.011625 146672.000000 0 0 1
-25.006131 -27.325207 12.240550 39.010314 0.829684 1.251628 0.033858 -0.007628 -265396.000000 0 0 1
-25.016331 -26.382157 13.273150 38.704154 0.811965 1.220753 0.043377 -0.001194 -518238.000000 0 0 1
-23.638031 -26.071707 13.877350 37.829502 0.834317 1.195187 0.044016 -0.006601 -332612.000000 0 0 1
-23.029031 -27.109617 14.571350 38.439457 0.866605 1.182002 0.048086 -0.010420 134328.000000 0 0 1
-21.845031 -26.616507 15.216150 37.645385 0.883541 1.154696 0.055981 -0.013216 -103220.000000 0 0 1
-21.175131 -27.774807 15.875950 38.364982 0.919415 1.144157 0.062316 -0.021760 -571805.000000 0 0 1
-21.950531 -28.390397 16.923250 39.676654 0.912632 1.130144 0.071163 -0.017615 311070.000000 0 0 1
-21.444431 -29.608707 17.349750 40.466690 0.943973 1.127697 0.074774 -0.013168 -259149.000000 0 0 1
-22.462631 -30.317437 18.252250 41.914931 0.933135 1.120248 0.094463 -0.025302 308320.000000 0 0 1
-23.525531 -31.039637 17.636050 42.754414 0.922246 1.145603 0.065279 -0.019865 406116.000000 0 0 1
-24.109831 -31.989617 18.460950 44.106986 0.924946 1.138949 0.064513 -0.020184 -523104.000000 0 0 1
-25.139951 -32.892667 17.761950 45.049212 0.918204 1.165513 0.052088 -0.024258 -295364.000000 0 0 1
-24.634431 -33.767327 16.771750 45.037531 0.940522 1.189208 0.052264 -0.027370 -144044.000000 0 0 1
-25.587051 34.080044 16.273250 45.617598 -0.926788 1.206029 0.044734 -0.024605 -759276.000000 0 0 1
-25.182161 33.551887 14.855250 44.503357 -0.926947 1.230464 0.035495 -0.026529 297526.000000 0 0 1
-24.044631 32.703879 14.730550 43.181907 -0.936820 1.222680 0.025999 -0.022531 276122.000000 0 0 1
-22.875731 33.471176 14.557750 43.076058 -0.971267 1.226054 0.033647 -0.023737 -122125.000000 0 0 1
-21.505831 32.719593 14.635450 41.800346 -0.989323 1.213089 0.062544 -0.035532 595771.000000 0 0 1
-21.227531 31.952519 13.503350 40.668317 -0.984402 1.232335 0.054210 -0.028997 -335809.000000 0 0 1
-20.189231 31.064019 13.795850 39.533578 -0.994475 1.214329 0.053909 -0.027413 -335489.000000 0 0 1
-20.006531 30.023599 12.640450 38.229030 -0.983006 1.233804 0.044493 -0.022705 61658.600000 0 0 1
-19.320731 30.554739 11.563550 37.955216 -1.006942 1.261212 0.030442 -0.015717 -196473.000000 0 0 1
-19.705131 29.845669 10.369350 37.236804 -0.987260 1.288595 0.031760 -0.012224 332643.000000 0 0 1
-19.275631 30.589929 9.084050 37.280205 -1.008517 1.324649 0.020695 -0.007527 268454.000000 0 0 1
-17.883031 30.714729 8.847150 36.626076 -1.043546 1.326830 0.015015 -0.018897 -46390.100000 0 0 1
-17.507531 31.271459 7.577750 36.631135 -1.060417 1.362425 0.014097 -0.015650 123473.000000 0 0 1
-17.094831 30.230739 6.456750 35.324502 -1.056147 1.386979 0.005840 -0.016581 357139.000000 0 0 1
-18.168331 29.348119 6.085550 35.049027 -1.016478 1.396282 -0.001671 -0.009439 588607.000000 0 0 1
-17.921831 28.058799 6.693050 33.960052 -1.002389 1.372412 -0.010067 -0.005949 90606.000000 0 0 1
-18.924631 26.967589 6.276850 33.537909 -0.958894 1.382529 0.004671 -0.003773 52330.400000 0 0 1
-18.465631 26.382989 5.065750 32.599133 -0.960133 1.414769 0.004776 -0.014671 716666.000000 0 0 1
-19.551531 26.027269 4.207750 32.823563 -0.926531 1.442250 0.028190 -0.019578 -255191.000000 0 0 1
-19.128431 25.299439 2.918850 31.850874 -0.923415 1.479026 0.040099 -0.022555 -1155480.000000 0 0 1
-18.629831 25.999319 1.751650 32.032850 -0.949049 1.516086 0.044787 -0.027962 1895230.000000 0 0 1
-17.354731 26.730419 1.830650 31.922614 -0.994948 1.513418 0.033265 -0.023066 1158450.000000 0 0 1
-16.127731 25.889579 2.301250 30.588720 -1.013678 1.495493 0.017217 -0.023200 -733254.000000 0 0 1
-15.757531 24.697999 1.614950 29.341080 -1.002897 1.515728 0.031217 -0.031833 158935.000000 0 0 1
-15.595631 24.841219 0.222850 29.331886 -1.010177 1.563199 0.035576 -0.028793 -409485.000000 0 0 1
-15.279031 23.497479 -0.431850 28.031532 -0.994252 1.586203 0.034410 -0.024859 495916.000000 0 0 1
-16.424831 22.616179 -0.555550 27.956668 -0.942674 1.590669 0.049342 -0.026626 957729.000000 0 0 1
-16.241331 21.661679 -1.611150 27.122039 -0.927441 1.630235 0.047783 -0.020570 63835.700000 0 0 1
-15.301931 20.462279 -1.266650 25.582384 -0.928697 1.620329 0.037345 -0.018221 -562601.000000 0 0 1
-15.795031 19.486679 -0.393050 25.087211 -0.889652 1.586464 0.055731 -0.025820 -127228.000000 0 0 1
-14.934231 18.550079 0.214050 23.815594 -0.892968 1.561808 0.076024 -0.041139 -437111.000000 0 1 0
-15.797031 17.517579 0.940650 23.607130 -0.836998 1.530940 0.078810 -0.039393 169974.000000 0 1 0
-16.199431 16.371479 0.233950 23.032621 -0.790680 1.560639 0.067732 -0.039228 34853.700000 0 1 0
-17.148831 15.701679 0.979750 23.271980 -0.741374 1.528684 0.084101 -0.045515 -586233.000000 0 1 0
-17.829831 14.448379 0.389550 22.952348 -0.681019 1.553823 0.099168 -0.039438 -444630.000000 0 1 0
-18.740331 14.817979 -0.597850 23.898325 -0.669044 1.595815 0.091397 -0.037011 -358470.000000 0 1 0
-19.540631 13.788579 -1.027050 23.937753 -0.614499 1.613715 0.085080 -0.026355 -533225.000000 0 1 0
-20.737931 14.147979 -1.965450 25.181146 -0.598698 1.648928 0.096940 -0.016375 295968.000000 0 0 1
-21.744231 13.136179 -2.130350 25.493316 -0.543445 1.654459 0.090251 -0.015488 1141430.000000 0 0 1
-22.591231 12.877079 -1.008650 26.023072 -0.518071 1.609566 0.077660 -0.012999 -893685.000000 0 0 1
-23.752031 13.849379 -0.847450 27.507862 -0.527887 1.601609 0.060230 -0.015088 -1119370.000000 0 0 1
-23.368431 15.153379 -0.404550 27.854481 -0.575288 1.585321 0.058221 -0.020531 659662.000000 0 0 1
-24.502631 15.996379 -0.198450 29.262646 -0.578371 1.577578 0.043183 -0.015043 41292.700000 0 0 1
-24.158531 17.305879 0.616750 29.723870 -0.621613 1.550046 0.042196 -0.017894 23926.200000 0 0 1
-23.774931 17.063679 1.942450 29.328989 -0.622518 1.504518 0.046015 -0.024739 210662.000000 0 0 1
-23.360331 18.231779 2.616850 29.748122 -0.662712 1.482716 0.041564 -0.023706 167309.000000 0 0 1
-24.520731 19.148879 3.126350 31.268513 -0.663002 1.470645 0.043232 -0.026876 -368695.000000 0 0 1
-25.231831 18.490879 4.156150 31.556798 -0.632428 1.438709 0.044914 -0.031475 561629.000000 0 0 1
-26.544231 19.004379 4.370650 32.937292 -0.621352 1.437708 0.042225 -0.035203 107053.000000 0 0 1
-27.638311 18.551079 3.422650 33.462416 -0.591141 1.468334 0.040969 -0.033869 -1738140.000000 0 0 1
-28.751001 19.375979 3.470750 34.843862 -0.593010 1.471022 0.044189 -0.026737 -693274.000000 0 0 1
-29.356321 19.247379 2.203750 35.172599 -0.580335 1.508100 0.049369 -0.021560 -914400.000000 0 0 1
-30.757351 19.832979 2.143850 36.660030 -0.572726 1.512284 0.064798 -0.034286 -1287230.000000 0 0 1
-31.623491 19.178979 3.003250 37.106575 -0.545170 1.489772 0.091525 -0.030122 305928.000000 0 0 1
-32.927581 19.770179 2.867350 38.513728 -0.540724 1.496277 0.079436 -0.030248 613991.000000 0 0 1
-33.489541 20.472679 4.098250 39.464865 -0.548698 1.466763 0.062200 -0.024596 -165563.000000 0 0 1
-32.581101 21.534179 4.431250 39.305025 -0.584028 1.457816 0.066348 -0.027322 619802.000000 0 0 1
-32.933841 22.160579 5.654950 40.096229 -0.592293 1.429290 0.048596 -0.021371 -382876.000000 0 0 1
-31.898301 23.213279 6.047450 39.911522 -0.629094 1.418689 0.055091 -0.022482 -356793.000000 0 0 1
-31.695181 24.249069 5.109750 40.233213 -0.653077 1.443449 0.050735 -0.015945 393661.000000 0 0 1
-30.709891 25.128089 5.598150 40.073152 -0.685765 1.430640 0.041989 -0.020840 -158991.000000 0 0 1
-31.176971 26.586829 5.306850 41.316167 -0.706101 1.441996 0.030647 -0.014638 -584744.000000 0 0 1
-32.142511 26.931249 6.232750 42.394344 -0.697410 1.423243 0.028623 -0.005837 -341679.000000 0 0 1
-32.608471 28.257159 6.011250 43.565061 -0.714029 1.432371 0.022499 -0.010506 -283325.000000 0 0 1
-33.589121 28.727269 7.081450 44.761948 -0.707537 1.411926 0.020919 -0.004279 -177798.000000 0 0 1
-32.928831 28.960209 8.327250 44.635689 -0.721361 1.383136 0.019561 0.001245 525375.000000 0 0 1
-33.804361 29.573139 9.287450 45.864606 -0.718735 1.366889 0.029500 0.001830 152484.000000 0 0 1
-34.896983 28.693349 9.991450 46.270258 -0.688150 1.353145 0.028019 0.009718 54221.600000 0 0 1
-34.527849 27.511469 10.689350 45.423733 -0.672781 1.333243 0.030409 0.007846 -865825.000000 0 0 1
-35.430317 27.136749 11.645950 46.123082 -0.653612 1.315536 0.038976 0.007731 -716874.000000 0 0 1
-35.027087 25.776359 12.228450 45.175795 -0.634414 1.296691 0.025760 0.012932 336241.000000 0 0 1
-33.749611 25.790409 12.878450 44.385087 -0.652508 1.276410 0.020077 -0.002700 632292.000000 0 0 1
-33.693371 24.796779 13.869850 44.073759 -0.634451 1.250660 0.033223 0.000702 -243157.000000 0 0 1
-32.632511 25.175159 14.892350 43.822956 -0.657104 1.224060 0.041480 -0.003994 -20617.500000 0 0 1
-33.057241 26.258139 15.750050 45.059240 -0.671270 1.213715 0.047380 -0.012277 432570.000000 0 0 1
-32.007451 26.558559 16.664650 44.805631 -0.692627 1.189707 0.071059 -0.011864 273048.000000 0 0 1
-32.352571 27.757329 17.597750 46.117664 -0.709099 1.179287 0.082067 -0.023412 -241347.000000 0 0 1
-32.302931 29.004499 16.942950 46.602617 -0.731648 1.198707 0.089423 -0.018740 128202.000000 0 0 1
-32.641421 30.155459 17.711550 47.838406 -0.745831 1.191532 0.085672 -0.017355 22006.900000 0 0 1
-32.180851 31.431279 16.911550 48.057601 -0.773615 1.211194 0.061709 -0.009820 728377.000000 0 0 1
-30.781611 31.442359 16.628550 47.038688 -0.796017 1.209478 0.050930 -0.005856 188326.000000 0 0 1
-30.404401 32.514039 15.786950 47.231537 -0.818915 1.229991 0.047012 -0.000647 36097.800000 0 0 1
-28.909381 32.641449 15.398250 46.242000 -0.845958 1.231321 0.058668 -0.013066 118551.000000 0 0 1
-28.389401 31.862649 14.292550 45.005149 -0.842980 1.247624 0.047481 -0.009242 229842.000000 0 0 1
-28.189651 30.429509 14.505850 43.943499 -0.823590 1.234384 0.040803 -0.011579 -253601.000000 0 0 1
-29.358911 29.472699 14.196250 43.955877 -0.787332 1.241935 0.049842 -0.011647 78223.400000 0 0 1
-29.403441 29.334429 12.794850 43.460088 -0.784223 1.271964 0.051569 -0.015733 -69294.800000 0 0 1
-30.591561 28.733009 12.305050 43.736068 -0.754080 1.285598 0.052021 -0.009747 379785.000000 0 0 1
-30.578411 28.729299 10.758050 43.314518 -0.754230 1.319799 0.045825 -0.003802 -481753.000000 0 0 1
-29.672481 27.804349 10.286050 41.944496 -0.752907 1.323039 0.033464 0.003804 -598153.000000 0 0 1
-29.660361 27.833639 8.883650 41.633733 -0.753636 1.355767 0.028393 -0.001396 -249175.000000 0 0 1
-28.521711 27.042929 8.244450 40.159419 -0.758791 1.364033 0.028425 -0.007418 -136312.000000 0 0 1
-28.199241 27.450659 6.925050 39.958631 -0.771947 1.396611 0.037692 -0.017905 -2235.440000 0 0 1
-27.233381 26.604599 6.295850 38.588852 -0.773720 1.406912 0.050649 -0.017299 -97867.700000 0 0 1
-26.960381 27.084289 4.850250 38.522017 -0.787691 1.444553 0.045123 -0.016096 -61507.900000 0 0 1
-26.174411 28.260649 4.751550 38.811613 -0.823705 1.448062 0.038653 -0.022926 302072.000000 0 0 1
-25.902951 28.468409 3.358550 38.635386 -0.832547 1.483757 0.037612 -0.025028 501358.000000 0 0 1
-24.824031 29.586899 3.068350 38.743153 -0.872711 1.491516 0.035608 -0.023694 1659460.000000 0 0 1
-23.462531 29.273409 3.430950 37.672195 -0.895144 1.479596 0.040002 -0.022076 1012180.000000 0 0 1
-22.539231 30.300599 3.114550 37.892528 -0.931240 1.488509 0.036568 -0.022587 427115.000000 0 0 1
-21.069731 29.857059 3.291750 36.690778 -0.956264 1.480960 0.026473 -0.021185 619406.000000 0 0 1
-20.115831 30.613829 2.534150 36.718866 -0.989458 1.501726 0.026667 -0.015786 -1046550.000000 0 0 1
-18.861931 30.069779 2.655050 35.595131 -1.010565 1.496137 0.030328 -0.013974 -410305.000000 0 0 1
-17.692431 30.957149 2.116050 35.718971 -1.051586 1.511520 0.025764 -0.018550 187110.000000 0 0 1
-17.486531 32.095619 2.956950 36.669484 -1.071934 1.490071 0.037098 -0.023664 177408.000000 0 0 1
-16.309231 32.825570 2.596150 36.745735 -1.109676 1.500086 0.044834 -0.011846 399398.000000 0 0 1
-15.970231 34.010961 3.476950 37.734373 -1.131795 1.478523 0.042606 -0.023402 -279275.000000 0 0 1
-16.804531 -33.609667 3.379150 37.728247 1.107156 1.481111 0.046822 -0.033828 -347273.000000 0 0 1
-16.536331 -32.621197 4.323850 36.827821 1.101628 1.453118 0.050948 -0.031524 120370.000000 0 0 1
-17.705031 -31.639657 4.626250 36.550488 1.060625 1.443884 0.061626 -0.029030 14697.300000 0 0 1
-18.025431 -30.686237 3.647550 35.775214 1.039685 1.468661 0.064345 -0.027015 27529.600000 0 0 1
-18.935331 -29.757667 4.184550 35.518671 1.004100 1.452709 0.069556 -0.025653 -533810.000000 0 0 1
-19.484131 -28.692787 3.153350 34.826010 0.974263 1.480126 0.055915 -0.036379 15084.500000 0 0 1
-18.617431 -27.660717 2.723250 33.453551 0.978378 1.489302 0.051275 -0.029149 -111532.000000 0 0 1
-19.301531 -26.883007 1.759350 33.141220 0.948103 1.517685 0.048402 -0.023241 -21067.100000 0 0 1
-18.586131 -25.575297 1.419150 31.647339 0.942360 1.525939 0.042561 -0.019119 253299.000000 0 0 1
-17.313931 -25.813097 0.835750 31.093193 0.979978 1.543914 0.056853 -0.020998 -499437.000000 0 0 1
-16.394831 -24.832767 1.237250 29.782337 0.987277 1.529241 0.048745 -0.021928 399735.000000 0 0 1
-14.984431 -25.180987 0.629450 29.308898 1.034010 1.549318 0.047397 -0.021513 335992.000000 0 0 1
-14.884131 -25.064427 -0.776250 29.161026 1.034922 1.597419 0.048416 -0.015928 -9227.870000 0 0 1
-14.938831 -23.750767 -1.269150 28.086978 1.009338 1.615998 0.057495 -0.017719 -238830.000000 0 0 1
-15.136631 -23.697967 -2.746850 28.253432 1.002384 1.668172 0.042247 -0.007869 -512945.000000 0 0 1
-13.984331 -24.100767 -3.402550 28.071085 1.045030 1.692307 0.052777 -0.005301 -635614.000000 0 0 1
-14.145031 -24.073867 -4.845350 28.339202 1.039568 1.742617 0.047279 0.002206 129408.000000 0 0 1
-12.919031 -24.501267 -5.691450 28.277306 1.085564 1.773453 0.053703 -0.005676 307924.000000 0 0 1
-12.551931 -25.868927 -5.570150 29.287863 1.119048 1.762148 0.038575 -0.003819 -480094.000000 0 0 1
-11.613231 -26.313487 -6.494250 29.486302 1.155166 1.792863 0.043108 -0.005263 -210089.000000 0 0 1
23.539369 13.271333 28.613099 39.356570 0.513371 0.756821 0.012355 0.005147 -209419.000000 0 0 1
24.273269 12.067633 28.578119 39.389443 0.461371 0.758996 0.009789 0.006169 -269849.000000 0 0 1
23.612269 10.942033 29.183349 39.101601 0.433945 0.728240 0.015563 -0.000590 -140297.000000 0 0 1
23.383669 11.054733 30.714309 40.154351 0.441615 0.699901 0.028694 0.000247 -281560.000000 0 0 1
22.339969 11.867533 31.108669 40.095659 0.488314 0.682717 0.020469 0.007485 -294651.000000 0 0 1
22.632569 12.218333 32.431579 41.392369 0.495022 0.670492 0.026703 0.000410 -201445.000000 0 0 1
21.864769 13.430733 32.901740 41.725019 0.550842 0.662369 0.019512 0.010023 1032980.000000 0 0 1
20.510469 13.066133 33.304917 41.238582 0.567215 0.630699 0.026162 0.005335 1087970.000000 0 0 1
19.858569 14.154433 33.925314 41.780829 0.619240 0.623255 0.023232 0.005859 -530820.000000 0 0 1
18.715069 13.564533 -33.891960 41.023351 0.627172 2.543059 0.016439 0.010188 -1195960.000000 0 0 1
17.511069 13.382333 34.080800 40.586024 0.652541 0.574033 0.009716 0.014088 -760506.000000 0 0 1
16.717569 12.537733 -33.762590 39.706226 0.643484 2.587370 0.002491 -0.000009 243712.000000 0 0 1
15.286369 12.198733 -34.297139 39.481336 0.673529 2.623353 0.000209 0.002409 766995.000000 0 0 1
15.297169 11.202733 33.342215 38.356328 0.632103 0.517062 -0.004575 0.010410 479347.000000 0 0 1
13.988869 10.946733 32.823619 37.321701 0.663998 0.496032 0.001604 0.009643 574483.000000 0 0 1
14.057369 9.839233 31.766849 36.104748 0.610682 0.495245 0.000735 0.014886 69389.600000 0 0 1
14.416769 8.591233 32.321399 36.418750 0.537414 0.478919 -0.011244 0.009970 79074.100000 0 0 1
15.310569 7.832233 31.533929 35.918604 0.472851 0.499280 -0.008651 -0.003542 -133968.000000 0 0 1
15.601469 6.411733 31.972749 36.149313 0.389927 0.485453 0.002926 -0.006270 -597169.000000 0 0 1
14.568169 5.439433 31.890759 35.480128 0.357348 0.453694 -0.013361 -0.007430 53175.500000 0 0 1
15.012569 4.168533 32.357089 35.912882 0.270846 0.448754 -0.010444 -0.013374 40567.700000 0 0 1
13.795769 3.246933 32.509599 35.464628 0.231150 0.411113 -0.016397 -0.004076 -34101.300000 0 0 1
14.120269 1.895433 32.829748 35.787806 0.133437 0.409438 -0.003295 -0.010709 -343646.000000 0 0 1
12.979469 1.285733 33.381305 35.838963 0.098737 0.372487 0.004350 -0.013131 -551498.000000 0 0 1
13.159069 -0.149567 34.005812 36.463389 -0.011366 0.369241 -0.020524 -0.015008 -207081.000000 0 0 1
13.395569 -1.079967 32.973992 35.607468 -0.080447 0.387011 -0.036235 -0.000393 64602.400000 0 0 1
13.950669 -2.279767 33.478971 36.340886 -0.161985 0.399519 0.019290 -0.008779 -309316.000000 0 0 1
14.112669 -3.440667 32.457639 35.559864 -0.239135 0.420805 0.020112 -0.007783 -657029.000000 0 0 1
14.606769 -4.758367 32.842587 36.257900 -0.314923 0.437520 0.033208 -0.013874 520574.000000 0 0 1
15.877169 -4.889467 33.464543 37.361304 -0.298740 0.460792 0.014141 -0.009251 966581.000000 0 0 1
17.144269 -4.562467 32.585567 37.102038 -0.260094 0.498566 0.040137 -0.012187 44645.300000 0 0 1
17.117169 -3.181567 32.336149 36.725283 -0.183773 0.493907 0.039979 -0.015816 340931.000000 0 0 1
18.145869 -2.716967 31.437249 36.399933 -0.148625 0.528306 0.077966 -0.022503 455662.000000 0 0 1
18.150569 -1.192567 31.310829 36.210957 -0.065610 0.526287 0.078207 -0.025086 -336388.000000 0 0 1
18.760469 -0.541567 32.453689 37.489871 -0.028859 0.524318 0.062321 -0.021233 352311.000000 0 0 1
18.880369 0.859633 32.458809 37.560373 0.045499 0.527284 0.045465 -0.007857 197135.000000 0 0 1
20.012569 1.440133 31.550629 37.390094 0.071838 0.566428 0.065131 -0.018009 -289741.000000 0 0 1
19.772869 1.621633 30.152489 36.093887 0.081830 0.581954 0.063282 -0.010656 -270022.000000 0 0 1
20.645869 2.531733 29.527869 36.118647 0.122017 0.613698 0.065523 -0.004313 -13915.400000 0 0 1
20.113469 3.991433 29.713209 36.102049 0.195901 0.604064 0.055094 -0.008139 -34118.000000 0 0 1
20.259569 4.464733 31.039509 37.334101 0.216909 0.589177 0.061043 -0.011439 380916.000000 0 0 1
19.633669 5.715033 31.281129 37.371802 0.283256 0.578973 0.048864 -0.014471 -208712.000000 0 0 1
19.410769 5.975433 32.806962 38.584719 0.298635 0.554321 0.044020 -0.007716 104532.000000 0 0 1
18.158769 5.545133 33.328216 38.356999 0.296376 0.517830 0.036103 -0.012404 143688.000000 0 0 1
17.987669 6.050533 -33.992470 38.931391 0.324482 2.632399 0.025926 -0.004225 -64018.400000 0 0 1
16.908469 5.315933 -33.162810 37.602226 0.304610 2.650753 0.030887 -0.000204 -202987.000000 0 0 1
17.093469 3.881633 -33.074410 37.432210 0.223296 2.654253 0.026057 -0.007252 276155.000000 0 0 1
15.906769 3.119733 -32.826470 36.610588 0.193668 2.682915 0.026144 -0.008299 -90314.200000 0 0 1
16.010069 1.597533 -33.033280 36.743326 0.099454 2.688341 0.013808 -0.017253 -788018.000000 0 0 1
16.942269 1.017833 -32.196070 36.395925 0.060004 2.656446 0.025852 -0.016698 -321494.000000 0 0 1
17.058069 -0.367067 -32.582970 36.779918 -0.021515 2.659206 0.028467 -0.019969 150032.000000 0 0 1
18.235569 -1.083967 -31.834450 36.703449 -0.059373 2.620633 0.037682 -0.024147 31464.600000 0 0 1
18.155069 -1.296567 -30.426220 35.454795 -0.071295 2.602489 0.042228 -0.025821 150805.000000 0 0 1
18.386469 -0.116067 -29.627800 34.869503 -0.006313 2.586168 0.038449 -0.019686 -313948.000000 0 0 1
17.963869 -0.359767 -28.189680 33.428851 -0.020025 2.574142 0.028044 -0.016265 674649.000000 0 0 1
16.620469 -0.837567 -27.990630 32.564043 -0.050351 2.605197 0.024892 -0.021067 819278.000000 0 0 1
16.313969 -1.155067 -26.598190 31.224085 -0.070684 2.590301 0.025958 -0.018429 -301373.000000 0 0 1
17.149169 -2.226067 -25.856220 31.106165 -0.129084 2.552104 0.037808 -0.016679 -391843.000000 0 0 1
18.390769 -1.673967 -25.421430 31.420879 -0.090772 2.513350 0.041989 -0.017764 350111.000000 0 0 1
19.382869 -2.664067 -25.163610 31.874757 -0.136589 2.480713 0.040891 -0.017767 125084.000000 0 0 1
20.179069 -3.092967 -26.355040 33.336908 -0.152092 2.482530 0.042182 -0.019916 -1103300.000000 0 0 1
21.193169 -2.193667 -26.708700 34.166025 -0.103141 2.468236 0.046189 -0.014656 -352915.000000 0 0 1
21.775469 -2.513267 -27.952900 35.522559 -0.114909 2.476575 0.036724 -0.015307 -422565.000000 0 0 1
23.241669 -2.092067 -28.077380 36.508782 -0.089772 2.448163 0.032935 -0.020949 -695543.000000 0 0 1
24.052669 -3.219167 -27.936890 37.004915 -0.133048 2.426375 0.039517 -0.020585 -174064.000000 0 0 1
25.323169 -2.980467 -28.543940 38.274046 -0.117158 2.412498 0.029926 -0.016549 -124785.000000 0 0 1
26.323569 -4.066167 -28.204190 38.793560 -0.153257 2.384787 0.038845 -0.015542 -542451.000000 0 0 1
26.156669 -5.242167 -28.957870 39.372705 -0.197794 2.397172 0.045550 -0.023970 650131.000000 0 0 1
27.247569 -6.147367 -28.719040 40.062494 -0.221896 2.370079 0.043679 -0.023404 470744.000000 0 0 1
27.136969 -7.044567 -27.422720 39.217937 -0.253987 2.345129 0.030157 -0.014408 -341531.000000 0 0 1
27.469069 -6.336267 -26.280100 38.540131 -0.226704 2.321139 0.029096 -0.009049 198522.000000 0 0 1
27.200969 -7.198067 -25.182440 37.760564 -0.258696 2.300834 0.015857 -0.008599 -101491.000000 0 0 1
27.353569 -6.563567 -23.786350 36.838683 -0.235500 2.272722 0.003232 0.001265 -847940.000000 0 0 1
28.673569 -6.310167 -23.459350 37.581017 -0.216616 2.244947 -0.000368 0.006658 -581398.000000 0 0 1
28.725669 -6.143467 -22.060950 36.736790 -0.210693 2.214940 0.002086 -0.003563 -347143.000000 0 0 1
30.106469 -5.682367 -21.583750 37.477287 -0.186548 2.184520 0.022835 -0.002834 -392741.000000 0 0 1
30.523669 -4.503067 -22.282350 38.058837 -0.146471 2.196257 0.022560 -0.001718 -234594.000000 0 0 1
31.749769 -4.051467 -21.772750 38.710656 -0.126920 2.168140 0.021634 0.001430 -175789.000000 0 0 1
32.145869 -2.680467 -22.438250 39.293980 -0.083192 2.178563 0.035325 -0.017858 -64963.100000 0 0 1
31.235469 -1.651767 -22.156750 38.331507 -0.052832 2.187108 0.028696 -0.017959 211305.000000 0 0 1
31.673369 -0.464367 -22.789450 39.022775 -0.014660 2.194449 0.032162 -0.016104 421473.000000 0 0 1
30.626569 0.682833 -22.543250 38.034867 0.022292 2.205203 0.031620 -0.013406 184793.000000 0 0 1
29.472769 0.463433 -23.310950 37.580038 0.015723 2.239923 0.027080 -0.010406 -155825.000000 0 0 1
28.453969 1.392933 -23.047650 36.643728 0.048915 2.251018 0.021187 0.002178 468406.000000 0 0 1
27.255569 1.396933 -24.077050 36.393980 0.051208 2.293703 0.017072 -0.001554 334568.000000 0 0 1
26.375469 2.432033 -23.731950 35.563824 0.091948 2.301382 0.012348 0.003141 202738.000000 0 0 1
25.357869 2.625633 -24.711350 35.504454 0.103175 2.340618 0.016992 -0.004343 -197264.000000 0 0 1
24.382269 3.710133 -24.373150 34.674350 0.151007 2.350285 0.031242 -0.001789 -490867.000000 0 0 1
25.079069 4.934533 -24.243550 35.228668 0.194277 2.329769 0.018945 0.007092 353398.000000 0 0 1
24.153969 5.851033 -23.738850 34.368326 0.237661 2.333279 0.034760 -0.004620 -257002.000000 0 0 1
24.751569 7.214833 -23.268650 34.729297 0.283631 2.305006 0.031583 -0.002081 -291426.000000 0 0 1
25.322069 8.020433 -24.249750 35.966441 0.306740 2.310722 0.025847 0.001519 56453.600000 0 0 1
25.591469 9.282933 -23.683250 36.083133 0.347975 2.286770 0.028007 -0.000462 -284588.000000 0 0 1
26.381469 10.226733 -24.618550 37.505213 0.369813 2.286838 0.043797 0.001535 60190.500000 0 0 1
25.728369 10.465233 -25.893580 37.972985 0.386319 2.321146 0.041811 -0.014466 278456.000000 0 0 1
24.539169 11.203533 -25.843880 37.357678 0.428293 2.334769 0.039720 -0.019033 -408929.000000 0 0 1
24.023869 11.606433 -27.206500 38.105763 0.450053 2.365953 0.029681 -0.023240 -418851.000000 0 0 1
23.618569 10.505033 -28.035880 38.134015 0.418503 2.396748 0.033150 -0.014108 225931.000000 0 0 1
24.617869 9.684233 -28.625920 38.977777 0.374788 2.395603 0.040995 -0.022707 15496.600000 0 0 1
25.473369 10.298833 -29.772850 40.513962 0.384206 2.396284 0.033048 -0.019480 -263349.000000 0 0 1
26.423769 11.232033 -29.264680 40.997508 0.401933 2.365728 0.031546 -0.018062 1301640.000000 0 0 1
27.523869 11.649533 -30.097450 42.416170 0.400389 2.359691 0.031396 -0.011694 1373170.000000 0 0 1
28.616369 10.615033 -30.523110 43.165215 0.355209 2.356217 0.028887 -0.015468 -150304.000000 0 0 1
28.059069 9.672133 -31.410620 43.214448 0.331951 2.384527 0.020978 -0.018121 354844.000000 0 0 1
28.925669 8.568233 -31.628930 43.709246 0.287981 2.379831 0.017998 -0.014528 -108315.000000 0 0 1
28.333069 7.659533 -32.747070 43.975014 0.264028 2.410843 0.027487 -0.015407 -78439.200000 0 0 1
27.043669 7.296833 -32.304150 42.757010 0.263541 2.427257 0.042407 -0.014040 -203165.000000 0 0 1
26.626669 6.266733 -33.179230 43.001311 0.231149 2.452128 0.066253 -0.015036 159788.000000 0 0 1
25.276369 5.557233 -32.813120 41.790890 0.216416 2.473773 0.058372 -0.011771 1617920.000000 0 0 1
24.053569 6.342133 -32.842340 41.199710 0.257800 2.493356 0.078604 -0.016943 1090330.000000 0 0 1
23.860969 7.139133 -31.701420 40.314924 0.290720 2.475666 0.069104 -0.015588 -772604.000000 0 0 1
22.411869 7.574533 -31.462600 39.364459 0.325917 2.496866 0.063180 -0.014800 -97879.900000 0 0 1
21.932969 8.538033 -32.433050 40.073132 0.371230 2.513835 0.061930 -0.014182 276999.000000 0 0 1
20.520969 8.649033 -32.269310 39.207452 0.398879 2.537539 0.047997 -0.009146 304355.000000 0 0 1
19.808569 9.614833 -33.195150 39.833935 0.451889 2.555916 0.035086 -0.004175 -418214.000000 0 0 1
19.491569 9.031033 34.196560 40.384224 0.433884 0.560893 0.038036 -0.004565 -58243.800000 0 0 1
19.364969 10.076233 33.312081 39.827469 0.479781 0.580097 0.031616 0.004490 183021.000000 0 0 1
18.387169 9.879133 32.099459 38.289170 0.493028 0.576560 0.016769 0.005251 191407.000000 0 0 1
18.761869 8.784433 31.183199 37.437493 0.437891 0.586396 0.013983 0.000455 302943.000000 0 0 1
19.825169 9.033233 30.266799 37.292302 0.427538 0.623894 0.026610 -0.002167 -381389.000000 0 0 1
19.537069 10.096233 29.175189 36.535225 0.476976 0.645915 0.031735 -0.010340 302458.000000 0 0 1
18.606269 9.722033 28.133169 35.102512 0.481496 0.641068 0.015792 -0.001660 1100760.000000 0 0 1
17.243769 9.822033 28.575529 34.790527 0.517766 0.607006 0.021821 -0.006133 801120.000000 0 0 1
16.231869 8.995033 27.658749 33.307516 0.506031 0.590961 0.028166 -0.004817 64683.700000 0 0 1
15.976169 9.637633 26.433159 32.354812 0.542806 0.614646 0.038274 -0.005349 519274.000000 0 0 1
14.863269 9.147333 25.674119 31.044337 0.551689 0.597020 0.043518 -0.006249 401801.000000 0 0 1
14.916769 7.669133 25.203879 30.274761 0.474886 0.587183 0.033285 -0.000784 -335791.000000 0 0 1
14.734369 6.786233 26.275809 30.879973 0.431610 0.553098 0.025122 0.000923 -122006.000000 0 0 1
14.416469 5.465333 25.904289 30.145259 0.362363 0.536866 0.024200 -0.007496 31801.900000 0 0 1
14.239869 4.507833 27.140879 30.979376 0.306583 0.503094 0.021453 -0.012937 -860676.000000 0 0 1
15.439869 3.899533 27.434299 31.721234 0.247389 0.525933 0.008180 -0.007169 -612628.000000 0 0 1
15.610969 3.732233 28.802479 32.972939 0.234673 0.508412 -0.001459 -0.006685 396651.000000 0 0 1
16.676269 2.640133 29.184179 33.716236 0.157014 0.524484 0.017576 -0.006655 114339.000000 0 0 1
16.277569 1.293333 29.077669 33.348805 0.079288 0.511675 0.001706 -0.010865 -108577.000000 0 0 1
15.267069 0.868133 29.977599 33.652541 0.056802 0.471699 -0.013773 -0.005803 -62968.100000 0 0 1
14.856669 -0.593567 29.813809 33.315704 -0.039932 0.462617 -0.007733 -0.000182 -309377.000000 0 0 1
14.051769 -0.916867 28.663229 31.935459 -0.065157 0.456647 -0.010081 -0.002361 610471.000000 0 0 1
14.803369 -1.103167 27.460019 31.215531 -0.074384 0.495584 -0.005622 -0.002040 -914257.000000 0 0 1
15.913869 -2.165967 27.225129 31.609339 -0.135274 0.532973 0.009343 -0.003111 1030540.000000 0 0 1
17.228669 -1.919567 27.741499 32.712422 -0.110959 0.558517 0.027933 -0.008446 736822.000000 0 0 1
17.834769 -0.759067 27.229109 32.558863 -0.042535 0.580289 0.032335 -0.006887 -1662620.000000 0 0 1
19.313269 -0.577467 27.552569 33.652339 -0.029891 0.611580 0.088443 -0.009034 294228.000000 0 0 1
20.260369 -1.451867 26.913079 33.718012 -0.071538 0.646527 0.069623 -0.016585 357887.000000 0 0 1
21.599669 -1.162767 27.248889 34.790799 -0.053781 0.670966 0.073801 -0.015371 451790.000000 0 0 1
22.626969 -2.098867 26.541609 34.940549 -0.092495 0.708065 0.072252 -0.009127 105164.000000 0 0 1
22.989469 -1.718367 25.185119 34.143209 -0.074607 0.741240 0.073799 0.003582 546635.000000 0 0 1
21.976669 -2.079967 24.250959 32.793433 -0.094363 0.738459 0.071707 0.009387 115155.000000 0 0 1
21.995169 -1.317567 22.886049 31.769399 -0.059831 0.766446 0.067346 -0.016938 83408.800000 0 0 1
21.226469 -0.103567 22.924049 31.242371 -0.004879 0.746973 0.051602 -0.002885 361984.000000 0 0 1
21.197069 0.530233 21.599149 30.267476 0.025009 0.776160 0.051207 -0.000709 57055.400000 0 0 1
-30.207831 -27.477413 -10.167750 42.082115 0.738100 1.814828 0.010963 0.019490 28874.500000 0 0 1
-30.165641 -26.270113 -9.433750 41.098423 0.716482 1.802402 0.020130 0.021490 -136167.000000 0 0 1
-30.619121 -26.565013 -8.149950 41.347940 0.714621 1.769202 0.029135 0.019685 -464642.000000 0 0 1
-30.814951 -25.281113 -7.269750 40.515986 0.687067 1.751203 0.054166 0.008301 534552.000000 0 0 1
-29.646571 -24.509613 -6.861350 39.073244 0.690827 1.747314 0.055667 -0.001279 263260.000000 0 0 1
-28.918661 -25.259613 -5.885350 38.845519 0.717963 1.722889 0.051671 0.001079 855330.000000 0 0 1
-27.659741 -24.419713 -5.371950 37.285942 0.723265 1.715374 0.037930 -0.004208 715010.000000 0 0 1
-27.899211 -23.354113 -4.483450 36.658995 0.696950 1.693405 0.053430 -0.010874 -254017.000000 0 0 1
-28.387981 -22.239013 -5.168250 36.430234 0.664534 1.713144 0.073787 -0.015193 -318498.000000 0 0 1
-28.436761 -20.875513 -4.406250 35.550689 0.633249 1.695059 0.062973 -0.016430 92106.200000 0 0 1
-27.192531 -20.271713 -4.081250 34.161860 0.640607 1.690550 0.063318 -0.022418 134067.000000 0 0 1
-27.303551 -19.247013 -3.127150 33.551609 0.614025 1.664136 0.080054 -0.019386 -49585.800000 0 0 1
-26.119791 -18.233313 -3.052350 32.000219 0.609426 1.666327 0.074659 -0.016059 215203.000000 0 0 1
-26.154571 -17.403413 -4.138750 31.687058 0.587129 1.701784 0.073870 -0.020974 432128.000000 0 0 1
-25.313011 -16.246913 -3.922450 30.333090 0.570618 1.700472 0.069430 -0.021691 232195.000000 0 0 1
-25.398471 -15.196713 -5.067850 30.028412 0.539192 1.740376 0.064288 -0.030739 -9278.240000 0 0 1
-26.650991 -14.533413 -5.074450 30.777353 0.499246 1.736429 0.073433 -0.030799 127420.000000 0 0 1
-26.805251 -13.505213 -6.056650 30.620178 0.466705 1.769909 0.082822 -0.037910 -165403.000000 0 0 1
-28.230451 -12.951113 -6.045850 31.642408 0.430118 1.763046 0.079955 -0.029993 690865.000000 0 0 1
-29.256141 -13.655213 -6.783450 32.990935 0.436693 1.777889 0.081485 -0.024290 1435680.000000 0 0 1
-30.557791 -13.047113 -6.799350 33.915143 0.403534 1.772645 0.070478 -0.021811 576709.000000 0 0 1
-31.488521 -13.860313 -7.715650 35.258566 0.414650 1.791412 0.053731 -0.019105 -487212.000000 0 0 1
-31.936661 -15.017213 -7.063750 35.991160 0.439540 1.768342 0.055391 -0.021409 -40044.500000 0 0 1
-32.570531 -15.763413 -8.040750 37.067214 0.450748 1.789458 0.054818 -0.012453 -519348.000000 0 0 1
-33.358471 -17.016613 -7.447750 38.181431 0.471706 1.767117 0.046930 -0.020796 1405600.000000 0 0 1
-34.750891 -16.845713 -7.106650 39.267123 0.451378 1.752781 0.046292 -0.024650 1049750.000000 0 0 1
-35.074664 -15.893913 -6.093350 38.986888 0.425466 1.727732 0.040073 -0.023393 425542.000000 0 0 1
35.143410 -15.908913 -5.704750 38.996114 -0.425085 1.717613 0.064582 -0.023293 547134.000000 0 0 1
34.434820 -15.176513 -6.724150 38.226922 -0.415120 1.747617 0.054172 -0.031519 -180056.000000 0 0 1
33.044870 -15.324613 -6.814450 37.057306 -0.434231 1.755738 0.062049 -0.030543 -45067.500000 0 0 1
32.267560 -14.606813 -5.682250 35.872585 -0.425079 1.729867 0.084394 -0.030742 -839067.000000 0 0 1
32.246310 -15.261513 -4.410250 35.947024 -0.442044 1.693794 0.079147 -0.028345 304905.000000 0 0 1
31.489290 -14.533013 -3.469250 34.854261 -0.432395 1.670497 0.089995 -0.025145 -781800.000000 0 0 1
31.311200 -15.257613 -2.092350 34.893608 -0.453427 1.630796 0.092142 -0.021540 478862.000000 0 0 1
32.493000 -15.408613 -1.242550 35.982833 -0.442806 1.605335 0.105038 -0.021799 1359180.000000 0 0 1
33.584930 -16.169813 -1.764650 37.316542 -0.448706 1.618103 0.083925 -0.020532 -251237.000000 0 0 1
33.361890 -17.641013 -2.208750 37.803434 -0.486404 1.629257 0.076280 -0.020059 -893049.000000 0 0 1
33.646250 -18.585513 -1.165350 38.455811 -0.504669 1.601105 0.066100 -0.020464 369631.000000 0 0 1
33.283160 -19.901413 -1.585950 38.811727 -0.538905 1.611670 0.047209 -0.017726 -47168.200000 0 0 1
34.255960 -20.604713 -2.540450 40.055946 -0.541516 1.634261 0.035879 -0.018503 48952.200000 0 0 1
34.008750 -20.075013 -3.832350 39.677299 -0.533249 1.667535 0.041489 -0.021845 -154214.000000 0 0 1
35.037810 -20.418913 -4.712250 40.826283 -0.527653 1.686476 0.036976 -0.019504 -257986.000000 0 0 1
35.047690 -19.663113 -6.047050 40.639210 -0.511279 1.720149 0.044626 -0.026912 -99207.500000 0 0 1
33.932300 -19.956213 -6.854550 39.957931 -0.531637 1.743193 0.041445 -0.027673 82313.000000 0 0 1
33.785420 -19.124213 -7.997350 39.637706 -0.515082 1.773952 0.041830 -0.031704 -16937.600000 0 0 1
32.740250 -19.608813 -9.018950 39.214423 -0.539626 1.802864 0.047354 -0.037742 -224180.000000 0 0 1
33.169610 -20.710213 -9.741050 40.299181 -0.558148 1.814933 0.032876 -0.033073 -70403.300000 0 0 1
32.212330 -21.072913 -10.695450 39.951151 -0.579314 1.841815 0.033995 -0.038693 -542608.000000 0 0 1
32.315460 -22.488013 -11.184450 40.927883 -0.607962 1.847589 0.017903 -0.034839 -329584.000000 0 0 1
31.930110 -23.266513 -10.093250 40.776663 -0.629710 1.820921 0.001873 -0.026654 -111188.000000 0 0 1
31.722430 -24.599513 -10.459850 41.483214 -0.659598 1.825694 -0.007986 -0.013210 -291171.000000 0 0 1
30.963190 -25.386413 -9.334350 41.113491 -0.686752 1.799832 -0.013065 -0.018902 1286090.000000 0 0 1
29.593790 -24.946113 -9.272950 39.800610 -0.700387 1.805942 0.004495 -0.026706 969681.000000 0 0 1
28.597990 -25.902313 -8.880650 39.593443 -0.735977 1.797017 -0.009315 -0.027558 966800.000000 0 0 1
27.185960 -25.256113 -8.856850 38.149593 -0.748615 1.805095 0.030288 -0.041637 314467.000000 0 0 1
26.711200 -24.912213 -10.166550 37.913919 -0.750564 1.842267 0.044752 -0.033078 324220.000000 0 0 1
25.491360 -24.166313 -10.148650 36.562483 -0.758721 1.852060 0.066107 -0.046161 424167.000000 0 0 1
24.753160 -24.165913 -11.537250 36.466675 -0.773394 1.892705 0.104408 -0.054645 -83860.600000 0 0 1
24.119460 -25.421013 -11.772150 36.967009 -0.811665 1.894890 0.090690 -0.045971 499535.000000 0 0 1
23.232560 -25.213613 -12.883350 36.625931 -0.826267 1.930241 0.096349 -0.033619 31490.400000 0 0 1
22.385060 -26.415913 -13.181850 37.049325 -0.867809 1.934558 0.101302 -0.034764 -75828.900000 0 0 1
23.137460 -27.338313 -13.944850 38.434154 -0.868432 1.942093 0.094544 -0.026628 487353.000000 0 0 1
22.452260 -28.561713 -13.858750 38.883677 -0.904591 1.935225 0.113517 -0.028885 -205634.000000 0 0 1
23.168760 -29.726413 -14.592350 40.415192 -0.908743 1.940202 0.098199 -0.021242 -61150.300000 0 0 1
23.252160 -29.540813 -16.030350 40.869239 -0.903959 1.973856 0.085533 -0.015364 541289.000000 0 0 1
23.790860 -30.735013 -16.605250 42.265593 -0.912071 1.974556 0.070210 -0.011222 -254284.000000 0 0 1
23.845560 -30.658913 -18.157550 42.875124 -0.909758 2.008100 0.058644 -0.004599 -749692.000000 0 0 1
22.591060 -30.778213 -18.722050 42.522577 -0.937617 2.026712 0.068443 -0.001732 -596549.000000 0 0 1
22.645860 -30.541013 -20.104650 43.009131 -0.932764 2.057201 0.054643 0.001582 791642.000000 0 0 1
21.186460 -30.489613 -20.685350 42.501368 -0.963518 2.079103 0.037415 0.005409 770534.000000 0 0 1
21.169460 -30.156313 -22.075650 42.952108 -0.958735 2.110591 0.015706 0.009210 1021550.000000 0 0 1
19.813760 -30.118413 -22.575850 42.536724 -0.988914 2.130267 0.016606 0.006255 748970.000000 0 0 1
19.682460 -30.369713 -24.102250 43.481457 -0.995761 2.158331 0.007805 0.007964 -426582.000000 0 0 1
20.229860 -29.310413 -24.861150 43.432986 -0.966682 2.180229 0.010276 0.003555 266742.000000 0 0 1
20.127360 -29.470213 -26.291310 44.326482 -0.971590 2.205736 0.011211 -0.002114 -311237.000000 0 0 1
20.705460 -28.357713 -27.187790 44.407791 -0.940119 2.229674 0.000326 -0.007995 -27483.900000 0 0 1
20.004660 -27.119013 -27.172370 43.289317 -0.935239 2.249382 0.020938 -0.018903 -197605.000000 0 0 1
18.966560 -27.156813 -28.127720 43.455627 -0.961139 2.274800 0.040573 -0.021932 -573874.000000 0 0 1
18.234860 -25.828613 -28.348660 42.464972 -0.956059 2.301747 0.047038 -0.015764 -1052060.000000 0 0 1
17.260260 -25.656513 -27.400420 41.315327 -0.978598 2.295886 0.041706 -0.006457 -814803.000000 0 0 1
16.822160 -24.334113 -27.363380 40.297502 -0.965934 2.317242 0.039998 -0.011435 100749.000000 0 0 1
15.752560 -24.079013 -26.264960 38.958826 -0.991472 2.310640 0.053775 -0.014634 -276916.000000 0 0 1
14.473760 -24.596113 -26.527480 38.963646 -1.038907 2.319687 0.072809 -0.018041 -408414.000000 0 0 1
13.399960 -24.256013 -25.691550 37.788475 -1.066083 2.318392 0.077476 -0.018398 338056.000000 0 0 1
13.492560 -24.660513 -24.174450 37.075519 -1.070158 2.281059 0.063597 -0.007331 -505547.000000 0 0 1
14.516460 -23.949513 -23.508550 36.564446 -1.025883 2.269120 0.037106 -0.010129 -58290.500000 0 0 1
14.548460 -24.230113 -22.127150 35.893827 -1.030062 2.235037 0.038418 -0.015202 284480.000000 0 0 1
15.826460 -23.628213 -21.493150 35.647227 -0.980619 2.217978 0.034823 -0.017712 47326.200000 0 0 1
15.728960 -22.213113 -21.354850 34.595551 -0.954659 2.236066 0.030964 -0.021596 1215520.000000 0 0 1
16.832860 -21.586713 -20.616050 34.268832 -0.908508 2.216296 0.039186 -0.020401 695071.000000 0 0 1
16.435860 -20.180413 -20.083150 32.874298 -0.887309 2.228002 0.048589 -0.014363 -89494.100000 0 0 1
15.623060 -20.261513 -18.931150 31.827619 -0.913946 2.207816 0.052681 -0.024500 -403322.000000 0 0 1
14.308160 -19.918713 -19.237450 31.169826 -0.947876 2.235952 0.058239 -0.027187 -718433.000000 0 0 1
13.337460 -19.962013 -18.029650 30.023958 -0.981773 2.214934 0.065591 -0.023016 -64807.000000 0 0 1
13.447560 -18.878213 -17.154650 28.835842 -0.951842 2.207947 0.077775 -0.030239 12199.000000 0 0 1
12.805760 -19.063013 -15.929650 27.948876 -0.979276 2.177250 0.066773 -0.027811 -223914.000000 0 0 1
12.961460 -17.743013 -15.091050 26.656214 -0.939886 2.172607 0.060179 -0.019250 -101542.000000 0 0 1
12.136560 -16.699113 -15.587650 25.867572 -0.942323 2.217544 0.061991 -0.029486 120130.000000 0 0 1
12.290460 -15.515513 -14.830750 24.733331 -0.900866 2.213830 0.052232 -0.025870 228564.000000 0 1 0
10.961560 -14.815513 -14.413850 23.396886 -0.933810 2.234525 0.047703 -0.019455 283364.000000 0 1 0
10.145160 -14.397413 -15.464250 23.438276 -0.956955 2.291330 0.058026 -0.006758 -628701.000000 0 1 0
8.902460 -13.890313 -15.083150 22.353881 -1.000837 2.311414 0.047539 -0.002803 -74834.900000 0 1 0
8.100260 -13.282613 -16.250950 22.497453 -1.023173 2.377985 0.035406 0.003373 -398.692000 0 1 0
8.646360 -12.079713 -16.708450 22.357354 -0.949561 2.414840 0.039424 0.001589 547084.000000 0 1 0
9.814460 -12.224513 -17.549150 23.531574 -0.894320 2.412487 0.054428 -0.001558 701010.000000 0 1 0
9.994460 -11.037813 -18.538850 23.778383 -0.834965 2.464905 0.047927 -0.005722 -498518.000000 0 1 0
9.071660 -10.954513 -19.565150 24.188664 -0.879142 2.513001 0.043652 -0.002961 -567032.000000 0 1 0
9.165460 -9.831013 -20.367550 24.402696 -0.820419 2.558281 0.027156 -0.008502 -108477.000000 0 1 0
8.970660 -10.015713 -21.916550 25.712301 -0.840385 2.591309 0.034823 -0.007923 -270437.000000 0 0 1
10.043160 -10.652013 -22.531350 26.869912 -0.814810 2.565384 0.032243 -0.006972 -805129.000000 0 0 1
9.870960 -10.668013 -23.910050 27.980937 -0.824186 2.595407 0.028648 -0.003847 300615.000000 0 0 1
10.981260 -11.448813 -24.655250 29.317993 -0.806240 2.569851 0.051314 -0.005356 98344.800000 0 0 1
10.802060 -12.848513 -24.520650 29.715838 -0.871712 2.541301 0.046079 -0.012096 342994.000000 0 0 1
11.983460 -13.588113 -24.853750 30.756284 -0.848067 2.511693 0.043287 -0.021901 388798.000000 0 0 1
11.815160 -15.122713 -24.621050 31.216831 -0.907571 2.479505 0.039681 -0.023722 -184785.000000 0 0 1
10.890060 -15.682513 -25.511250 31.864690 -0.963833 2.499112 0.045173 -0.021114 -451578.000000 0 0 1
10.643760 -16.947213 -25.004950 32.027257 -1.010004 2.466645 0.051283 -0.023783 -65051.200000 0 0 1
9.495760 -17.740513 -25.646490 32.598124 -1.079341 2.476318 0.059862 -0.019437 62837.300000 0 0 1
9.760860 -18.211213 -26.940710 33.951797 -1.078780 2.487333 0.059905 -0.026329 -421264.000000 0 0 1
8.742860 -19.123513 -27.191630 34.373407 -1.141989 2.483346 0.057877 -0.018516 -453581.000000 0 0 1
9.020560 -20.063613 -28.365380 35.895875 -1.148277 2.481952 0.060027 -0.019529 -266436.000000 0 0 1
9.790560 -21.203013 -28.031590 36.485516 -1.138212 2.446967 0.064036 -0.018686 127383.000000 0 0 1
9.856260 -22.131913 -29.089820 37.857431 -1.151823 2.447141 0.074033 -0.012823 3323.050000 0 0 1
10.259260 -23.571913 -28.687420 38.520846 -1.160291 2.410918 0.078727 -0.013156 28161.500000 0 0 1
10.108060 -24.500113 -29.768960 39.857488 -1.179499 2.414161 0.073904 -0.008475 -84243.900000 0 0 1
10.433560 -25.877913 -29.635200 40.703447 -1.187548 2.386307 0.079808 -0.007277 -8398.100000 0 0 1
9.854460 -26.664513 -28.449430 40.217865 -1.216793 2.356585 0.095794 -0.012975 185096.000000 0 0 1
10.543260 -26.379513 -27.247320 39.363123 -1.190569 2.335335 0.087594 -0.010484 262835.000000 0 0 1
9.717560 -26.672013 -26.084380 38.551551 -1.221408 2.313946 0.086252 -0.010777 1004920.000000 0 0 1
8.862160 -25.453813 -25.588920 37.164866 -1.235756 2.330249 0.078577 -0.009388 -52165.100000 0 0 1
9.684460 -24.348513 -25.246830 36.387378 -1.192237 2.337597 0.091289 -0.009703 -16304.000000 0 0 1
8.952160 -23.171313 -24.994350 35.238735 -1.202115 2.359281 0.071973 -0.005422 109773.000000 0 0 1
9.947960 -21.986913 -24.810450 34.611337 -1.145908 2.370042 0.074725 -0.011914 311322.000000 0 0 1
10.561660 -21.987913 -23.561250 33.913854 -1.123001 2.338852 0.071931 -0.011746 -44264.700000 0 0 1
11.559960 -20.995113 -23.470850 33.545614 -1.067491 2.345731 0.072081 -0.017771 -175529.000000 0 0 1
11.958360 -20.563813 -22.082050 32.457506 -1.044073 2.319019 0.059898 -0.020297 -64817.500000 0 0 1
10.949660 -19.875013 -21.351550 31.157662 -1.067243 2.325777 0.065225 -0.016503 139257.000000 0 0 1
10.773960 -18.498213 -21.684450 30.470928 -1.043394 2.362632 0.081270 -0.026068 166041.000000 0 0 1
11.991060 -17.533313 -21.468650 30.201084 -0.970957 2.361512 0.071565 -0.024477 771918.000000 0 0 1
13.032360 -17.683913 -22.428350 31.394172 -0.935692 2.366579 0.064498 -0.019919 120952.000000 0 0 1
14.295460 -17.453213 -21.824950 31.389540 -0.884533 2.339625 0.073662 -0.021262 -208552.000000 0 0 1
15.408960 -17.569313 -22.872150 32.699420 -0.850813 2.345447 0.056141 -0.011880 789048.000000 0 0 1
16.733560 -17.631613 -22.254550 32.956802 -0.811525 2.312119 0.064351 -0.011160 2051520.000000 0 0 1
17.727960 -17.452913 -23.296850 34.082663 -0.777580 2.323397 0.053725 -0.010652 75224.200000 0 0 1
19.165060 -17.704313 -22.851250 34.683163 -0.745799 2.290095 0.043848 -0.001370 -423303.000000 0 0 1
19.519460 -19.053913 -22.656750 35.459684 -0.773330 2.263921 0.041022 -0.002639 -771977.000000 0 0 1
20.859260 -19.220513 -22.386950 36.134642 -0.744534 2.238956 0.042401 -0.002734 -872242.000000 0 0 1
21.210560 -20.711813 -22.023150 36.930829 -0.773502 2.209724 0.025513 -0.003307 68513.900000 0 0 1
20.586760 -21.162213 -20.813150 36.122585 -0.799181 2.184845 0.035210 -0.006622 395280.000000 0 0 1
20.816160 -22.571413 -20.709650 37.036074 -0.825831 2.164187 0.029184 -0.000308 -84703.100000 0 0 1
-16.880431 12.879133 28.694429 35.695816 -0.651746 0.637040 0.020375 -0.015464 -646980.000000 0 0 1
-17.860031 13.793433 28.345769 36.231508 -0.657626 0.672364 0.023608 -0.016743 -464475.000000 0 0 1
-18.265831 13.474833 27.005679 35.277733 -0.635587 0.698953 0.030574 -0.009969 -375304.000000 0 0 1
-19.471331 14.338933 26.666339 35.997658 -0.634748 0.736566 0.036678 -0.008184 -294330.000000 0 0 1
-19.168631 15.735433 26.656909 36.409217 -0.687353 0.749327 0.042066 -0.005227 463070.000000 0 0 1
-20.346031 16.396833 26.206609 37.008154 -0.678327 0.783949 0.035289 -0.006298 -130044.000000 0 0 1
-20.229831 17.891733 26.611309 37.914667 -0.724142 0.792772 0.040741 -0.000696 940932.000000 0 0 1
-19.140831 18.668933 26.031459 37.316717 -0.772918 0.798780 0.040464 0.004722 737501.000000 0 0 1
-17.964131 18.673833 26.801059 37.278933 -0.804766 0.768530 0.045584 0.005423 -113747.000000 0 0 1
-16.765931 19.432633 26.152329 36.642434 -0.858934 0.776006 0.042798 0.004615 245832.000000 0 0 1
-16.915531 20.864433 26.067899 37.429869 -0.889544 0.800363 0.052582 0.004250 -23030.600000 0 0 1
-15.749631 21.503733 25.615179 36.967537 -0.938646 0.805279 0.057950 0.000615 -103259.000000 0 0 1
-15.899731 23.030833 25.551039 37.895598 -0.966565 0.830850 0.053174 0.005675 18648.600000 0 0 1
-15.453831 23.751133 26.689889 38.926693 -0.993960 0.815307 0.052611 0.006389 208595.000000 0 0 1
-15.566431 25.175533 26.471289 39.709576 -1.017018 0.841128 0.047243 0.004967 -89385.600000 0 0 1
-15.123931 26.101033 27.636449 40.911741 -1.045633 0.829135 0.044802 0.003074 -199606.000000 0 0 1
-13.752431 26.364333 27.510429 40.509643 -1.089995 0.824249 0.044780 0.004751 -366578.000000 0 0 1
-13.272031 27.241633 28.562449 41.642129 -1.117444 0.814953 0.063581 0.008207 2243990.000000 0 0 1
-11.672831 27.093033 28.752059 41.194276 -1.163987 0.798248 0.063594 0.002927 2169460.000000 0 0 1
-11.017531 27.570933 27.605369 40.541322 -1.190629 0.821779 0.046344 0.009596 -639728.000000 0 0 1
-9.635031 27.350533 27.700429 40.102360 -1.232092 0.808280 0.031991 0.004741 -438579.000000 0 0 1
-8.917731 27.917433 26.465649 39.488474 -1.261608 0.836302 0.036131 0.002667 -421780.000000 0 0 1
-7.529531 27.713333 26.405589 39.012534 -1.305507 0.827323 0.034681 -0.009384 16997.200000 0 0 1
-7.003931 28.298333 25.212249 38.542291 -1.328169 0.857745 0.048631 -0.012337 597130.000000 0 0 1
-5.459431 28.174733 25.040859 38.087604 -1.379398 0.853361 0.043430 -0.018360 185917.000000 0 0 1
-4.678931 28.891633 25.962609 39.123854 -1.410243 0.845175 0.060231 -0.015440 -1119370.000000 0 0 1
-3.322431 28.667133 26.009749 38.850356 -1.455414 0.837280 0.061638 -0.013772 -123532.000000 0 0 1
-2.487031 29.494733 24.911779 38.687483 -1.486674 0.871181 0.057371 -0.017754 -250578.000000 0 0 1
-2.863231 29.182033 23.644699 37.667771 -1.472993 0.892179 0.049603 -0.013570 -237916.000000 0 0 1
-2.448431 30.092533 22.644749 37.740430 -1.489612 0.927279 0.044762 -0.015016 -131906.000000 0 0 1
-3.086831 29.695633 21.296749 36.673024 -1.467219 0.951184 0.037210 -0.010361 -26371.200000 0 0 1
-4.478931 29.741833 21.169949 36.780487 -1.421326 0.957489 0.034066 0.001191 -436772.000000 0 0 1
-5.105231 28.519133 21.508549 36.083542 -1.393662 0.932191 0.042433 -0.001859 -252056.000000 0 0 1
-6.606331 28.461133 21.153149 36.071255 -1.342718 0.944156 0.027038 -0.005224 -423891.000000 0 0 1
-6.823531 28.396833 19.778749 35.272363 -1.334975 0.975513 0.022233 -0.004634 -23317.300000 0 0 1
-7.572331 27.298733 19.360949 34.313370 -1.300212 0.971285 0.009234 -0.000445 -842013.000000 0 0 1
-6.742231 26.045433 19.078049 32.981726 -1.317492 0.953978 -0.002339 -0.005081 414416.000000 0 0 1
-5.719131 26.107533 18.088649 32.272449 -1.355142 0.975809 0.005107 -0.003768 257150.000000 0 0 1
-4.446731 26.514533 18.541849 32.658752 -1.404633 0.967032 0.026516 -0.008024 -374443.000000 0 0 1
-3.573931 27.018933 17.357249 32.312069 -1.439285 1.003712 0.026893 -0.001169 -128207.000000 0 0 1
-3.142031 25.909733 16.596149 30.929255 -1.450117 1.004412 0.023819 -0.004298 -79182.700000 0 0 1
-2.432231 26.284633 15.419549 30.570577 -1.478525 1.042119 0.035622 -0.010792 78715.400000 0 0 1
-1.718731 25.050333 14.798549 29.145673 -1.502293 1.038232 0.039101 -0.008839 -702182.000000 0 0 1
-0.591531 24.640233 15.465649 29.097720 -1.546794 1.010417 0.024539 -0.004553 -833451.000000 0 0 1
0.023169 23.541733 14.789249 27.801720 1.569812 1.009889 0.013068 -0.007350 1081930.000000 0 0 1
1.338769 22.982133 15.502349 27.754163 1.512609 0.978148 0.013220 -0.006329 1491870.000000 0 0 1
2.396269 23.935833 15.508949 28.621560 1.471017 0.998145 0.019127 -0.010615 505801.000000 0 0 1
3.657569 23.364233 15.842949 28.465141 1.415511 0.980540 0.034657 -0.016897 129717.000000 0 0 1
4.843769 24.351933 15.821549 29.441470 1.374452 1.003457 0.040354 -0.013769 151183.000000 0 0 1
6.053169 23.610733 15.918049 29.111713 1.319828 0.992269 0.035881 -0.014663 -1089940.000000 0 0 1
7.117969 24.461733 15.885949 30.023412 1.287632 1.013235 0.037448 -0.019096 -2080480.000000 0 0 1
8.427069 23.727933 16.048349 29.859334 1.229537 1.003368 0.036750 -0.018012 -800459.000000 0 0 1
8.880169 23.007433 14.882449 28.804282 1.202443 1.027834 0.034310 -0.013379 45137.400000 0 0 1
9.561269 23.846533 13.970749 29.244775 1.189471 1.072741 0.033540 -0.014768 -426455.000000 0 0 1
9.976169 23.086833 12.672149 28.162194 1.162915 1.104064 0.028254 -0.015495 43604.400000 0 0 1
11.127169 22.306233 12.903049 28.069033 1.108080 1.093150 0.032471 -0.015845 -42531.600000 0 0 1
11.635269 21.698633 11.735249 27.275011 1.078593 1.126019 0.048306 -0.019515 174780.000000 0 0 1
12.781269 20.696433 11.959349 27.105889 1.017566 1.113851 0.018552 -0.019194 -29232.600000 0 0 1
12.330969 19.468833 12.544149 26.238215 1.006201 1.072321 0.023764 -0.011264 228589.000000 0 0 1
13.393769 18.542833 12.807149 26.215506 0.945250 1.060388 0.026082 -0.014301 315890.000000 0 0 1
13.945469 18.608233 14.285549 27.291379 0.927664 1.019907 0.028473 -0.009605 -356597.000000 0 0 1
14.990869 17.715533 14.492249 27.360401 0.868513 1.012573 0.031830 -0.003328 -218794.000000 0 0 1
15.566169 17.793633 15.812749 28.442258 0.852070 0.981279 0.035207 -0.000378 836117.000000 0 0 1
16.800269 16.844433 16.054749 28.700853 0.786711 0.977156 0.028838 0.000850 542948.000000 0 0 1
17.231669 16.680333 17.366749 29.610267 0.769142 0.944052 0.034499 -0.003253 -824667.000000 0 0 1
18.324769 15.856533 17.469149 29.873031 0.713313 0.946188 0.034864 -0.004669 -605580.000000 0 0 1
18.764369 15.825933 18.948049 31.009519 0.700652 0.913423 0.038797 -0.009677 -240317.000000 0 0 1
19.334869 16.931233 19.608249 32.326263 0.719217 0.919053 0.038043 -0.000804 440910.000000 0 0 1
18.403269 17.914133 20.063649 32.590589 0.771931 0.907615 0.037669 0.007216 68780.900000 0 0 1
19.083069 19.085733 20.794149 34.070887 0.785468 0.914332 0.024607 0.010828 266044.000000 0 0 1
18.126369 19.975633 21.406249 34.435718 0.833895 0.899975 0.041357 -0.008247 520076.000000 0 0 1
18.746569 21.093033 22.032549 35.801999 0.844228 0.907903 0.037897 0.001891 251529.000000 0 0 1
17.742169 22.063133 22.731749 36.308385 0.893527 0.894288 0.054426 -0.014415 130350.000000 0 0 1
17.083869 21.527633 23.835249 36.378794 0.899983 0.856354 0.057962 -0.020976 -512446.000000 0 0 1
16.245069 22.499633 24.368289 36.931684 0.945448 0.850216 0.058640 -0.032841 -315315.000000 0 0 1
15.550169 22.157633 25.679059 37.311962 0.958865 0.811755 0.062828 -0.027224 -191526.000000 0 0 1
14.588869 21.172933 25.414809 36.153018 0.967468 0.791219 0.058671 -0.023153 -165105.000000 0 0 1
13.832069 20.830633 26.593629 36.502911 0.984625 0.754616 0.055831 -0.022820 612956.000000 0 0 1
12.773069 19.651633 26.493929 35.373242 0.994439 0.724272 0.061913 -0.015469 445018.000000 0 0 1
13.257969 18.316833 26.410779 34.767936 0.944266 0.708052 0.062196 -0.016364 -122284.000000 0 0 1
13.838469 17.921633 25.164819 33.851976 0.913259 0.732690 0.069139 -0.021405 -178672.000000 0 0 1
12.904769 17.765933 23.950459 32.492860 0.942586 0.742029 0.076975 -0.023356 -553677.000000 0 0 1
12.725869 18.817533 23.028249 32.347296 0.976170 0.778587 0.073037 -0.021034 390916.000000 0 0 1
13.882569 19.267233 22.297649 32.575100 0.946426 0.816879 0.075134 -0.024824 865616.000000 0 0 1
14.566469 18.251533 21.325649 31.624101 0.897218 0.830715 0.071366 -0.016715 62521.300000 0 0 1
13.588569 17.793933 20.399749 30.288992 0.918608 0.831858 0.067735 -0.012474 222749.000000 0 0 1
14.131569 16.927733 19.448249 29.402105 0.875183 0.848036 0.051313 -0.012631 63249.500000 0 0 1
13.071869 16.266633 18.540749 27.914808 0.893864 0.844386 0.054949 -0.007748 -51486.000000 0 0 1
12.517369 17.040433 17.542749 27.473786 0.937245 0.878214 0.052439 -0.009610 -927352.000000 0 0 1
11.354569 16.451433 17.103349 26.307802 0.966687 0.863048 0.052019 -0.008255 -639588.000000 0 0 1
10.785169 16.965733 15.755049 25.541682 1.004537 0.906079 0.044497 -0.007748 -26945.000000 0 0 1
10.045869 18.163933 15.691149 26.020379 1.065602 0.923498 0.046789 -0.018825 174983.000000 0 0 1
9.885169 18.587133 14.306949 25.453622 1.082011 0.973899 0.040022 -0.013460 -401069.000000 0 0 1
8.820769 19.695733 14.087349 25.771715 1.149730 0.992473 0.039966 -0.014880 1158570.000000 0 0 1
7.526969 19.227033 14.553649 25.261488 1.197658 0.956823 0.026921 -0.017690 959686.000000 0 0 1
6.691569 20.342533 14.925149 26.102793 1.253001 0.962118 0.029291 -0.018444 770673.000000 0 0 1
5.396469 19.963533 15.700749 25.964939 1.306790 0.921419 0.025685 -0.024731 499534.000000 0 0 1
4.373169 19.359733 14.916249 24.827774 1.348635 0.926309 0.017920 -0.019769 -729153.000000 0 1 0
3.234569 19.239633 15.697449 25.040683 1.404234 0.893257 0.011096 -0.012012 33580.200000 0 0 1
1.980369 18.691333 14.931349 24.004853 1.465239 0.899484 0.003928 -0.006716 284406.000000 0 1 0
1.456069 19.735833 14.108949 24.304026 1.497152 0.951430 0.007929 -0.007803 -240725.000000 0 1 0
0.436769 19.141733 13.327749 23.328644 1.547983 0.962702 0.004222 -0.008985 -354329.000000 0 1 0
-0.385831 20.104033 12.496149 23.674348 -1.551607 1.014747 0.010615 -0.011839 -10532.400000 0 1 0
-1.383731 20.756633 13.269449 24.674497 -1.504230 1.002995 0.022815 -0.005106 85799.700000 0 1 0
-2.469131 21.123133 12.432449 24.634308 -1.454432 1.041785 0.029587 -0.007608 470925.000000 0 1 0
-3.705231 21.813233 13.073149 25.699282 -1.402541 1.037126 0.031945 -0.011399 72230.000000 0 0 1
-4.456731 20.810233 13.701349 25.311168 -1.359823 0.998794 0.033303 -0.015002 -82600.200000 0 0 1
-5.618031 21.433733 14.255349 26.347337 -1.314451 0.999106 0.035353 -0.015321 188676.000000 0 0 1
-6.359731 20.606833 15.338149 26.464062 -1.271448 0.952578 0.021281 -0.015940 -501044.000000 0 0 1
-7.099531 19.513533 14.798949 25.498828 -1.221858 0.951604 0.030045 -0.019550 -157028.000000 0 0 1
-7.679931 18.641033 15.727649 25.570069 -1.179996 0.908308 0.026094 -0.013314 11575.500000 0 0 1
-8.844931 19.218033 16.582849 26.880411 -1.139459 0.905983 0.023218 -0.003537 -743479.000000 0 0 1
-10.022231 19.149433 15.838249 26.795448 -1.088628 0.938399 0.020288 -0.014314 -532833.000000 0 0 1
-11.190631 19.307633 16.636549 27.835044 -1.045515 0.930188 0.012607 -0.003889 -207027.000000 0 0 1
-12.499431 19.296033 15.890249 27.947678 -0.995989 0.966028 0.018998 -0.008174 -925872.000000 0 0 1
-12.893231 20.513433 15.276449 28.642735 -1.009665 1.008247 0.011220 -0.002375 722235.000000 0 0 1
-13.920731 20.261533 14.286349 28.432662 -0.968813 1.044352 0.013532 -0.012045 779262.000000 0 0 1
-14.948031 21.420733 14.065949 29.667193 -0.961528 1.076827 0.005132 -0.019447 -299802.000000 0 0 1
-15.916831 21.539233 15.049349 30.720791 -0.934392 1.058850 -0.000825 -0.018528 -693179.000000 0 0 1
-16.834331 22.523133 14.691449 31.725777 -0.928946 1.089334 0.026201 -0.022599 229987.000000 0 0 1
-18.227631 22.433133 15.366849 32.735792 -0.888461 1.082162 0.082247 -0.029923 178635.000000 0 0 1
-19.131231 21.410433 14.966849 32.379272 -0.841558 1.090282 0.069358 -0.026758 1214670.000000 0 0 1
-20.279631 21.177933 15.826449 33.320336 -0.807063 1.075857 0.082438 -0.021517 1015440.000000 0 0 1
-21.435031 22.189933 15.754349 34.641784 -0.802701 1.098672 0.081474 -0.027384 -915300.000000 0 0 1
-22.042431 22.160433 14.493049 34.452896 -0.788068 1.136621 0.088327 -0.024837 606449.000000 0 0 1
-23.042831 23.185933 14.363149 35.705176 -0.788494 1.156801 0.084857 -0.031771 379605.000000 0 0 1
-22.418531 24.460033 13.841349 35.950893 -0.828919 1.175581 0.084666 -0.028444 201476.000000 0 0 1
-21.401831 25.055733 14.668949 36.069464 -0.863887 1.151973 0.072645 -0.037552 358251.000000 0 0 1
-21.083231 26.232133 13.985149 36.444641 -0.893793 1.176957 0.057635 -0.028742 44395.500000 0 0 1
-19.636331 26.760633 14.102649 36.063856 -0.937759 1.169028 0.053497 -0.028601 324094.000000 0 0 1
-18.608231 26.063733 13.446849 34.733301 -0.950768 1.173262 0.043692 -0.021784 403208.000000 0 0 1
-17.358931 26.741733 13.353149 34.565291 -0.995031 1.174161 0.014791 -0.021227 478823.000000 0 0 1
-16.311231 25.958333 12.518149 33.114881 -1.009783 1.183138 0.008731 -0.019101 36469.300000 0 0 1
-15.020931 26.493433 12.719849 33.004923 -1.055019 1.175163 0.000891 -0.019094 -534324.000000 0 0 1
-14.100131 25.857933 11.917449 31.772189 -1.071575 1.186302 0.000077 -0.014470 -808377.000000 0 0 1
-12.706431 26.482833 11.875049 31.682971 -1.123440 1.186606 0.009592 -0.012179 -831675.000000 0 0 1
-11.750431 25.690733 11.157849 30.374068 -1.141822 1.194640 0.013646 -0.012964 317359.000000 0 0 1
-10.427031 26.113933 11.418749 30.348778 -1.190902 1.185050 0.033465 -0.014225 224754.000000 0 0 1
-9.909231 27.536833 11.001549 31.265062 -1.225370 1.211218 0.030154 -0.016954 -703119.000000 0 0 1
-8.612231 27.813933 11.472249 31.295334 -1.270522 1.195466 0.043553 -0.018475 26892.300000 0 0 1
-8.110731 29.079633 11.018449 32.137443 -1.298794 1.220843 0.040826 -0.024561 699710.000000 0 0 1
-6.779231 29.508533 11.735349 32.471987 -1.344977 1.201028 0.038479 -0.020001 1229170.000000 0 0 1
-5.568231 28.970833 11.186549 31.550804 -1.380911 1.208356 0.062311 -0.021345 75283.600000 0 0 1
-4.484531 29.563733 11.855349 32.166359 -1.420254 1.193333 0.047083 -0.022114 -24593.800000 0 0 1
-3.140631 29.322833 11.117949 31.516677 -1.464098 1.210273 0.051443 -0.030428 70892.800000 0 0 1
-3.124931 29.955033 9.818649 31.677675 -1.466852 1.255651 0.068321 -0.041616 130452.000000 0 0 1
-1.959231 29.645233 9.078849 31.066122 -1.504803 1.274225 0.058136 -0.040861 262479.000000 0 0 1
-1.728031 30.541233 7.845149 31.580047 -1.514276 1.319746 0.058427 -0.040637 -4123.270000 0 0 1
-2.686331 30.261233 6.858649 31.144818 -1.482257 1.348758 0.068871 -0.044749 3817.500000 0 0 1
-2.669731 31.246633 5.830449 31.897863 -1.485563 1.386978 0.064867 -0.036762 114389.000000 0 0 1
10.787969 -34.260313 -26.815170 44.824130 -1.265743 2.212088 0.103119 -0.035882 -29188.000000 0 0 1
11.418169 -34.149113 -25.558880 44.156459 -1.248120 2.188084 0.082792 -0.031876 704383.000000 0 0 1
12.735669 -33.595713 -25.636220 44.137116 -1.208448 2.190546 0.078687 -0.026256 692308.000000 0 0 1
13.508469 -33.485813 -24.293950 43.519816 -1.187355 2.163044 0.064024 -0.009455 -198608.000000 0 0 1
13.022369 -32.456913 -23.454950 42.109001 -1.189239 2.161572 0.068928 -0.007204 230299.000000 0 0 1
13.554069 -32.443813 -22.135050 41.548456 -1.175065 2.132646 0.046697 -0.001776 137792.000000 0 0 1
15.011269 -31.976913 -21.856050 41.539717 -1.131894 2.124861 0.016971 0.013193 -142079.000000 0 0 1
15.870369 -33.021813 -22.105950 42.789973 -1.122787 2.113689 0.025852 0.006372 278190.000000 0 0 1
17.245969 -32.749813 -21.783350 42.947503 -1.086098 2.102739 0.014791 0.007850 390073.000000 0 0 1
18.150369 -33.938213 -21.979550 44.320862 -1.079693 2.089689 0.004551 0.010546 -853320.000000 0 0 1
19.513869 -33.735413 -21.720350 44.616620 -1.046382 2.079244 0.007095 0.014843 122873.000000 0 0 1
20.185469 33.784533 -21.939250 45.057502 1.032234 2.079353 0.013107 0.015972 -195497.000000 0 0 1
21.712769 33.750133 -21.763350 45.652593 0.999118 2.067712 0.035538 0.015188 -286218.000000 0 0 1
22.437769 -34.357113 -22.786950 46.937296 -0.992263 2.077704 0.023971 0.013652 149839.000000 0 0 1
23.814269 34.216933 -22.462950 47.355063 0.962774 2.065024 0.021491 0.007772 606490.000000 0 0 1
24.803169 -34.082513 -23.592950 48.305716 -0.941695 2.081062 0.030726 -0.001762 200352.000000 0 0 1
24.939169 -32.708513 -23.957950 47.600340 -0.919364 2.098227 0.026426 -0.001830 -680644.000000 0 0 1
23.746569 -32.128513 -24.363550 46.794481 -0.934300 2.118409 0.019135 -0.000220 -729051.000000 0 0 1
23.568669 -30.580213 -24.143950 45.536380 -0.914168 2.129647 0.011426 -0.005716 178807.000000 0 0 1
24.315969 -29.686813 -25.014950 45.807433 -0.884527 2.148485 0.009184 -0.007977 231561.000000 0 0 1
23.931369 -28.328213 -24.727550 44.571850 -0.869335 2.158894 0.004756 -0.006928 417954.000000 0 0 1
24.625269 -27.210613 -25.579830 44.734204 -0.835232 2.179517 -0.005397 -0.001809 104829.000000 0 0 1
24.105569 -27.117313 -26.856140 45.140662 -0.844127 2.207992 -0.005140 -0.005014 -634230.000000 0 0 1
24.889869 -26.376413 -27.769600 45.676815 -0.814387 2.224283 -0.006395 -0.002833 -1042310.000000 0 0 1
24.144969 -26.012513 -29.078120 45.882103 -0.822615 2.257197 -0.009138 -0.001962 287458.000000 0 0 1
23.287769 -24.891713 -28.978810 44.740239 -0.818677 2.275374 -0.001496 -0.005917 -194873.000000 0 0 1
22.063969 -25.088313 -28.312180 43.792941 -0.849450 2.273785 -0.006694 -0.004512 -1164280.000000 0 0 1
21.453969 -23.770713 -27.887920 42.462403 -0.836581 2.287320 0.002298 -0.001847 -315596.000000 0 0 1
20.971169 -22.994813 -28.978050 42.523861 -0.831393 2.320544 0.018484 -0.001197 105532.000000 0 0 1
20.515769 -21.719413 -28.613490 41.368605 -0.813889 2.334597 0.017909 0.005317 -599677.000000 0 0 1
19.425669 -21.127413 -29.529080 41.178766 -0.827337 2.370421 0.042330 -0.006202 -218671.000000 0 0 1
18.175669 -21.736813 -29.373480 40.812318 -0.874386 2.374197 0.044432 -0.007170 -581664.000000 0 0 1
17.298469 -21.420613 -30.388940 41.006918 -0.891462 2.405457 0.029033 -0.013109 -174455.000000 0 0 1
16.003069 -22.271013 -30.388710 40.933726 -0.947722 2.407424 0.039942 -0.016618 -136911.000000 0 0 1
16.201369 -23.585313 -30.809770 42.047512 -0.968899 2.393132 0.042606 -0.008503 530795.000000 0 0 1
15.075469 -24.448413 -30.592820 41.963261 -1.018243 2.387712 0.059495 -0.012872 222856.000000 0 0 1
15.386569 -25.919913 -30.937620 43.194036 -1.035081 2.369206 0.066290 -0.006750 -651956.000000 0 0 1
14.373869 -26.829213 -30.722410 43.246748 -1.078956 2.360860 0.083049 -0.010212 -709857.000000 0 0 1
14.688369 -28.131413 -31.168420 44.481400 -1.089599 2.347184 0.112272 -0.017319 111134.000000 0 0 1
14.015869 -29.227913 -30.320230 44.385041 -1.123653 2.322820 0.102167 -0.027982 -69352.200000 0 0 1
14.437069 -29.438213 -28.955580 43.743147 -1.114843 2.294208 0.112584 -0.028634 -206550.000000 0 0 1
14.154369 -28.458013 -27.994610 42.354490 -1.109249 2.292893 0.096105 -0.017230 -666535.000000 0 0 1
15.288869 -28.200313 -27.033870 41.950415 -1.073998 2.271067 0.062181 -0.010485 -680315.000000 0 0 1
15.478469 -29.252713 -26.040780 42.112070 -1.084118 2.237461 0.060430 -0.020350 -50673.800000 0 0 1
16.323869 -28.897913 -24.959850 41.527728 -1.056600 2.215599 0.077535 -0.020154 -1033790.000000 0 0 1
15.839769 -27.773713 -23.963950 39.956831 -1.052490 2.213980 0.077275 -0.014906 669682.000000 0 0 1
14.715869 -28.175613 -23.169750 39.335217 -1.089475 2.200658 0.056124 -0.013826 1212540.000000 0 0 1
13.443369 -28.234013 -23.847650 39.326760 -1.126418 2.222319 0.070726 -0.008947 -129220.000000 0 0 1
12.249969 -28.170513 -22.897450 38.313611 -1.160612 2.211341 0.067908 -0.006338 -230496.000000 0 0 1
11.983569 -26.901013 -22.323150 36.953937 -1.151717 2.219408 0.053160 -0.004752 -709522.000000 0 0 1
10.701069 -26.893613 -21.792450 36.231066 -1.192098 2.216155 0.050277 -0.009787 -628042.000000 0 0 1
10.100369 -25.501113 -21.556350 34.885533 -1.193678 2.236886 0.063457 -0.012374 12516.500000 0 0 1
10.610369 -24.867213 -20.372650 33.852667 -1.167503 2.216554 0.043274 -0.004600 38505.600000 0 0 1
10.485469 -23.462013 -20.455350 32.845585 -1.150513 2.243079 0.041594 -0.016461 -256214.000000 0 0 1
10.850969 -22.783313 -19.146750 31.676820 -1.126314 2.219860 0.031431 -0.016130 -236958.000000 0 0 1
10.015469 -23.062813 -18.072350 30.964702 -1.161101 2.194005 0.025364 -0.016170 -109532.000000 0 0 1
10.445669 -22.292213 -16.993450 29.913744 -1.132600 2.174969 0.017252 -0.016455 -180066.000000 0 0 1
9.572769 -22.465513 -15.731850 29.048723 -1.167986 2.143097 0.004096 -0.011512 64350.600000 0 0 1
9.796569 -23.700013 -15.065450 29.742750 -1.178828 2.101946 0.006116 -0.005951 7699.260000 0 0 1
9.076769 -23.784313 -13.850650 28.981404 -1.206227 2.069076 0.004536 -0.001558 -228042.000000 0 0 1
8.999969 -25.343513 -13.507550 30.095631 -1.229568 2.036242 0.006113 0.003986 259434.000000 0 0 1
10.153969 -26.002313 -12.966750 30.779213 -1.198504 2.005656 -0.001016 -0.001026 122576.000000 0 0 1
10.166269 -27.397813 -13.049950 32.004599 -1.215483 1.990787 -0.007715 -0.006224 -143085.000000 0 0 1
11.528869 -27.958513 -12.556650 32.745423 -1.179684 1.964339 0.011295 -0.000358 1243410.000000 0 0 1
12.755469 -27.742913 -13.281350 33.298130 -1.139844 1.981072 0.023069 -0.001234 733035.000000 0 0 1
12.800269 -28.106413 -14.653550 34.183971 -1.143443 2.013813 0.024010 -0.007741 -641757.000000 0 0 1
14.154169 -27.724313 -15.265450 34.670045 -1.098758 2.026736 0.004584 -0.013441 -39591.800000 0 0 1
15.343869 -28.276013 -14.716350 35.377085 -1.073617 1.999822 0.065519 -0.015608 -211079.000000 0 0 1
16.379369 -27.826113 -15.550350 35.838383 -1.038777 2.019616 0.082333 -0.024627 -770360.000000 0 0 1
17.699269 -28.504213 -15.257550 36.858474 -1.015125 1.997585 0.075784 -0.025231 -469451.000000 0 0 1
17.839369 -29.745313 -15.993950 38.194674 -1.030570 2.002863 0.068153 -0.009952 859959.000000 0 0 1
19.212069 -30.176713 -15.873750 39.137112 -1.003862 1.988424 0.088558 -0.004991 1242800.000000 0 0 1
19.715269 -31.203613 -16.961650 40.620867 -1.007303 2.001555 0.072979 -0.003476 169655.000000 0 0 1
19.342069 -32.583213 -16.661650 41.393139 -1.035081 1.985067 0.054014 0.006622 156835.000000 0 0 1
19.766669 -33.434213 -17.705350 42.685445 -1.036865 1.998505 0.044558 0.007610 21391.900000 0 0 1
19.632469 33.822333 -17.386150 42.797924 1.044869 1.989130 0.024253 0.015335 -468992.000000 0 0 1
20.511569 33.303933 -16.431250 42.424785 1.018775 1.968501 0.049861 0.006414 -245161.000000 0 0 1
20.295969 31.967233 -16.042850 41.124243 1.005110 1.971544 0.040407 -0.000447 -618037.000000 0 0 1
21.175869 31.488133 -14.883550 40.760766 0.978764 1.944584 0.044731 -0.002239 354869.000000 0 0 1
22.517169 31.208033 -15.331350 41.424806 0.945774 1.949914 0.046641 0.000539 901641.000000 0 0 1
23.391669 30.819733 -14.258550 41.235087 0.921571 1.923874 0.046900 -0.006160 330119.000000 0 0 1
23.211269 29.464933 -13.565850 39.887060 0.903564 1.917827 0.040274 -0.001818 -860800.000000 0 0 1
23.479169 28.261133 -14.288550 39.422401 0.877559 1.941689 0.041060 0.006581 -24855.300000 0 0 1
23.265969 27.068333 -13.549950 38.178543 0.860797 1.933614 0.016873 0.008830 517987.000000 0 0 1
21.794169 26.818833 -13.080450 36.950423 0.888393 1.932641 0.011426 0.000479 192688.000000 0 0 1
20.859269 26.575333 -14.111250 36.612632 0.905324 1.966460 0.014904 -0.005503 1408060.000000 0 0 1
19.451469 26.583933 -13.744850 35.692941 0.939110 1.966097 0.029665 -0.007796 1316510.000000 0 0 1
18.870169 27.991233 -13.904950 36.509451 0.977634 1.961521 0.035835 -0.014246 -630592.000000 0 0 1
18.890269 28.715733 -15.129850 37.554600 0.988932 1.985453 0.036350 -0.014697 46304.200000 0 0 1
18.247569 28.142933 -16.268150 37.278025 0.995554 2.022391 0.018066 -0.006093 -47960.500000 0 0 1
18.354769 29.013633 -17.494950 38.532606 1.006732 2.042079 0.012090 -0.001621 -51907.400000 0 0 1
17.504869 30.125233 -17.381250 38.936589 1.044412 2.033533 0.018527 -0.005494 -49317.100000 0 0 1
17.615969 30.733433 -18.651550 40.034318 1.050326 2.055435 0.003120 0.002637 39893.200000 0 0 1
16.572069 31.817333 -19.074650 40.630265 1.090608 2.059486 0.004979 0.007794 45560.600000 0 0 1
16.657269 32.993033 -18.274350 41.230531 1.103258 2.029988 0.025988 -0.006879 759503.000000 0 0 1
15.711269 34.013233 -18.756150 41.899131 1.138077 2.034932 0.023542 0.000395 639378.000000 0 0 1
15.643069 -33.452013 -17.908250 41.042030 -1.133381 2.022323 0.024882 0.005206 199174.000000 0 0 1
14.547269 -32.603713 -18.219150 40.081948 -1.151120 2.042660 0.013217 0.010776 173598.000000 0 0 1
14.142069 -31.843413 -17.108650 38.816323 -1.152849 2.027241 0.018201 0.006946 196782.000000 0 0 1
12.927869 -30.917913 -17.369650 37.745886 -1.174755 2.048987 0.010689 0.002050 647502.000000 0 0 1
11.632269 -31.520013 -17.412850 37.842149 -1.217258 2.048954 0.011423 0.002808 147782.000000 0 0 1
10.718769 -30.495413 -17.712950 36.859338 -1.232797 2.072084 -0.000572 0.011621 -483862.000000 0 0 1
9.299569 -30.914813 -18.060150 36.991575 -1.278594 2.080849 0.019691 -0.000996 -968505.000000 0 0 1
8.586669 -31.589513 -17.013050 36.892710 -1.305389 2.050086 0.025848 -0.002197 285011.000000 0 0 1
7.532269 -32.399713 -17.481650 37.577714 -1.342374 2.054672 0.041048 -0.006887 838108.000000 0 0 1
6.211669 -31.803713 -18.098250 37.116137 -1.377912 2.080148 0.043063 -0.002778 85608.000000 0 0 1
6.404769 -31.239413 -19.382250 37.317470 -1.368577 2.116931 0.045633 -0.000009 39673.700000 0 0 1
6.454569 -32.225013 -20.432350 38.698758 -1.373115 2.127022 0.057025 -0.013600 -1449010.000000 0 0 1
6.584369 -31.575613 -21.872850 38.971718 -1.365215 2.166691 0.053785 -0.006209 584346.000000 0 0 1
7.896569 -31.039013 -22.162750 38.948217 -1.321673 2.176124 0.063444 -0.011780 2532280.000000 0 0 1
9.078369 -31.917013 -21.982350 39.803721 -1.293678 2.155879 0.063233 -0.021314 796095.000000 0 0 1
9.152269 -33.225013 -22.833050 41.340219 -1.302000 2.155942 0.072375 -0.026689 -717524.000000 0 0 1
8.201369 -34.227613 -22.567050 41.809852 -1.335618 2.140942 0.088194 -0.036991 -197836.000000 0 0 1
8.094169 33.597633 -23.619050 41.859002 1.334386 2.170324 0.087893 -0.051338 -190310.000000 0 0 1
6.921969 32.591133 -23.492950 40.767810 1.361518 2.184944 0.084466 -0.053845 1494000.000000 0 0 1
5.578469 33.139233 -23.627750 41.080393 1.404026 2.183595 0.080782 -0.052532 1375040.000000 0 0 1
5.050769 33.613333 -22.388450 40.701463 1.421651 2.153238 0.057575 -0.042541 532399.000000 0 0 1
3.674069 -34.370113 -22.575550 41.285093 -1.464304 2.149359 0.051836 -0.032386 1006560.000000 0 0 1
2.546169 33.566133 -22.840950 40.680183 1.495086 2.166965 0.047525 -0.034775 -361361.000000 0 0 1
1.507169 34.327333 -23.370850 41.555192 1.526919 2.168088 0.039004 -0.024251 -112807.000000 0 0 1
0.133469 33.628833 -23.115350 40.807299 1.566827 2.172990 0.026593 -0.021706 -43557.100000 0 0 1
-0.319731 33.935033 -21.831950 40.352481 -1.561375 2.142459 0.015305 -0.019644 -145496.000000 0 0 1
-1.254831 32.992333 -21.347550 39.316492 -1.532781 2.144762 0.008453 -0.007928 88696.200000 0 0 1
-1.606731 33.091833 -19.806150 38.599671 -1.522281 2.109609 0.014633 -0.007366 -232573.000000 0 0 1
-0.663831 32.525133 -18.952850 37.650172 -1.550389 2.098318 0.016388 -0.019080 -492624.000000 0 0 1
-1.226931 32.240133 -17.681050 36.790638 -1.532759 2.072119 -0.007607 -0.013513 -190039.000000 0 0 1
-0.386931 31.332433 -16.753750 35.532509 -1.558448 2.061793 -0.031121 -0.012604 67936.300000 0 0 1
0.413269 31.991233 -15.821850 35.692306 1.557879 2.030056 -0.007203 -0.008113 -200832.000000 0 0 1
1.250969 31.096533 -15.069150 34.578007 1.530589 2.021725 0.012954 -0.005078 443591.000000 0 0 1
2.210469 31.767033 -14.068950 34.813301 1.501325 1.986819 0.022242 -0.008172 -674058.000000 0 0 1
3.223869 32.468433 -14.710350 35.790877 1.471828 1.994356 0.029532 -0.013845 -949440.000000 0 0 1
4.051869 32.954833 -13.684350 35.912395 1.448458 1.961726 0.032654 -0.014161 -479958.000000 0 0 1
5.356469 33.486733 -14.307750 36.807129 1.412182 1.970041 0.045546 -0.025972 165598.000000 0 0 1
6.219369 32.405633 -14.690950 36.119657 1.381180 1.989668 0.043194 -0.017857 -304882.000000 0 0 1
7.309369 32.796133 -15.488250 36.998637 1.351507 2.002718 0.033640 0.002964 -32509.300000 0 0 1
8.406269 31.714433 -15.599250 36.329151 1.311693 2.014610 0.026423 -0.009904 226326.000000 0 0 1
9.148669 31.455333 -14.420250 35.792174 1.287758 1.985467 0.016634 -0.008772 -203159.000000 0 0 1
10.104669 30.424933 -14.481550 35.178064 1.250140 1.995076 0.027650 -0.013614 170724.000000 0 0 1
9.626569 28.986433 -14.075350 33.630338 1.250151 2.002624 0.038436 -0.013228 156774.000000 0 0 1
8.681669 28.444533 -14.993150 33.305516 1.274563 2.037752 0.040897 -0.022777 77771.400000 0 0 1
8.291069 27.192233 -14.587550 31.952402 1.274845 2.044899 0.039332 -0.012413 -249151.000000 0 0 1
7.543269 26.390733 -15.718250 31.629655 1.292389 2.090873 0.045987 -0.010436 279480.000000 0 0 1
8.374669 25.726033 -16.687650 31.787443 1.256083 2.123483 0.044596 -0.005245 -160782.000000 0 0 1
7.695469 24.781133 -17.520450 31.309599 1.269700 2.164684 0.034595 0.000970 -121894.000000 0 0 1
8.576769 23.830033 -18.350450 31.275717 1.225317 2.197813 0.038193 0.004711 -528077.000000 0 0 1
7.888469 22.759633 -18.939950 30.642300 1.237154 2.237117 0.059712 -0.003719 -722487.000000 0 0 1
8.734269 21.954933 -19.636550 30.722966 1.192164 2.264187 0.045822 0.000135 -814599.000000 0 0 1
7.990869 20.965233 -20.593850 30.454912 1.206646 2.313399 0.044545 -0.014452 84473.300000 0 0 1
7.199169 20.029133 -19.893150 29.132999 1.225741 2.322438 0.049129 -0.016419 3865.570000 0 0 1
6.579269 19.115333 -20.778050 28.989828 1.239309 2.369907 0.037759 -0.018439 -208301.000000 0 0 1
24.783869 -12.804767 -9.950150 29.617692 -0.476884 1.913413 0.071441 -0.014604 -426162.000000 0 0 1
25.295469 -12.196567 -8.790450 29.425992 -0.449277 1.874159 0.085328 -0.023175 -93785.000000 0 0 1
24.427369 -12.097067 -7.709850 28.328028 -0.459821 1.846437 0.068598 -0.015735 -724945.000000 0 0 1
25.073369 -11.611567 -6.349050 28.351592 -0.433697 1.796651 0.053939 -0.012668 -337489.000000 0 0 1
25.104069 -10.205267 -6.087250 27.774383 -0.386113 1.791758 0.050843 -0.012347 203437.000000 0 0 1
26.006469 -9.503667 -6.887150 28.532244 -0.350358 1.814585 0.044567 -0.015863 -1090550.000000 0 0 1
26.132569 -8.037267 -6.343050 28.066762 -0.298376 1.798764 0.054537 -0.012074 -241475.000000 0 0 1
26.664769 -7.824867 -5.047650 28.243888 -0.285440 1.750478 0.060409 -0.020895 536638.000000 0 0 1
28.035369 -8.170767 -4.946050 29.617676 -0.283590 1.738579 0.063145 -0.023362 -223002.000000 0 0 1
28.679469 -7.936267 -3.566950 29.970309 -0.269967 1.690095 0.068733 -0.023510 -165214.000000 0 0 1
28.883969 -6.615367 -3.135350 29.797268 -0.225149 1.676214 0.069362 -0.021086 504725.000000 0 0 1
29.673369 -6.727867 -1.938850 30.488230 -0.222961 1.634433 0.086255 -0.019505 65084.000000 0 0 1
30.080869 -5.344367 -1.453850 30.586510 -0.175832 1.618347 0.081365 -0.023971 56394.600000 0 0 1
29.003569 -4.638267 -0.827150 29.383749 -0.158578 1.598950 0.081121 -0.019855 400283.000000 0 0 1
29.447769 -3.436067 -0.270450 29.648791 -0.116158 1.579918 0.084728 -0.014908 -174501.000000 0 0 1
29.959869 -3.418867 1.161850 30.176685 -0.113623 1.532285 0.081615 -0.011191 -46081.000000 0 0 1
28.928369 -3.351567 2.153150 29.201363 -0.115343 1.496995 0.080146 -0.013420 681218.000000 0 0 1
29.507269 -2.934667 3.384450 29.845363 -0.099130 1.457152 0.075141 -0.013186 61734.500000 0 0 1
29.244069 -3.785767 4.565250 29.839388 -0.128738 1.417199 0.078561 -0.025369 -299400.000000 0 0 1
29.735869 -5.079367 4.383150 30.483338 -0.169183 1.426508 0.072477 -0.029711 76568.600000 0 0 1
29.508069 -5.884067 5.530650 30.593079 -0.196824 1.389016 0.068266 -0.029895 -111506.000000 0 0 1
30.210569 -7.283667 5.532450 31.564827 -0.236582 1.394614 0.047964 -0.023082 -1235630.000000 0 0 1
31.571969 -7.140967 5.455350 32.825957 -0.222438 1.403832 0.045076 -0.029801 -1303750.000000 0 0 1
32.163169 -8.449867 5.371850 33.685701 -0.256913 1.410643 0.046481 -0.021107 754124.000000 0 0 1
33.726769 -8.503967 5.366950 35.193985 -0.246995 1.417703 0.060972 -0.018454 666407.000000 0 0 1
34.232669 -7.880767 4.187850 35.376831 -0.226270 1.452140 0.061774 -0.014196 -576942.000000 0 0 1
35.597369 -7.613667 4.364850 36.663231 -0.210708 1.451461 0.075402 -0.011947 -296473.000000 0 0 1
-35.417822 -7.463067 3.045450 36.323467 0.207677 1.486855 0.066645 -0.007349 -249408.000000 0 0 1
-35.416522 -8.655167 2.296850 36.531048 0.239684 1.507881 0.089451 -0.013158 97236.400000 0 0 1
-34.472922 -8.478067 1.261650 35.522552 0.241148 1.535272 0.128231 -0.022353 -32091.500000 0 0 1
-34.160122 -9.814967 0.616150 35.547533 0.279786 1.553462 0.122895 -0.020049 -337445.000000 0 0 1
-33.421322 -10.625967 1.496450 35.101785 0.307833 1.528152 0.115884 -0.020071 124388.000000 0 0 1
-33.201622 -11.841167 0.837450 35.259924 0.342582 1.547043 0.109407 -0.029694 -379116.000000 0 0 1
-32.636822 -13.026367 1.658550 35.179527 0.379757 1.523634 0.090033 -0.034436 908519.000000 0 0 1
-31.315822 -13.105467 2.205550 34.019089 0.396347 1.505918 0.089189 -0.031460 1046620.000000 0 0 1
-30.300422 -13.437467 1.250650 33.169944 0.417414 1.533083 0.097149 -0.026038 652452.000000 0 0 1
-28.913622 -13.785567 1.886950 32.087380 0.444903 1.511956 0.083990 -0.026337 494706.000000 0 0 1
-28.303722 -12.727367 2.586750 31.141256 0.422580 1.487635 0.076337 -0.025263 521379.000000 0 0 1
-26.959422 -13.006167 2.946250 30.077420 0.449497 1.472683 0.070417 -0.020455 569834.000000 0 0 1
-26.092322 -11.918967 3.657650 28.917978 0.428494 1.443973 0.053591 -0.013700 430198.000000 0 0 1
-24.791922 -12.380267 4.003750 27.998936 0.463141 1.427308 0.040610 -0.002048 139598.000000 0 0 1
-24.197322 -11.388067 4.778050 27.166675 0.439880 1.393998 0.037729 -0.002839 -633269.000000 0 0 1
-22.982322 -11.888867 5.542550 26.462277 0.477395 1.359783 0.032065 0.013169 -376301.000000 0 0 1
-23.234322 -12.843867 6.633650 27.364282 0.504988 1.325937 0.032260 0.008343 -264715.000000 0 0 1
-22.007722 -13.330467 7.084650 26.687702 0.544613 1.302110 0.030418 0.017804 -126186.000000 0 0 1
-21.459622 -12.701967 8.396650 26.312717 0.534443 1.246006 0.034507 0.009171 -278306.000000 0 0 1
-21.147822 -11.300267 8.361250 25.393639 0.490746 1.235271 0.031270 0.001688 790614.000000 0 0 1
-22.130422 -10.362167 8.848350 25.988909 0.437912 1.223383 0.038062 0.001239 -278545.000000 0 0 1
-22.507822 -10.265167 10.359250 26.819578 0.427891 1.174226 0.045944 0.003062 -82096.000000 0 0 1
-23.102522 -11.412567 10.986750 28.012174 0.458833 1.167760 0.046332 -0.005827 835454.000000 0 0 1
-24.477922 -11.608567 10.693150 29.125091 0.442833 1.194858 0.052308 -0.007893 381035.000000 0 0 1
-25.552522 -11.288767 11.777350 30.316227 0.416003 1.171811 0.053711 -0.015747 44070.200000 0 0 1
-25.727222 -12.237567 12.738150 31.207506 0.443992 1.150341 0.054927 -0.015899 45526.300000 0 0 1
-26.691722 -11.970067 13.731750 32.315499 0.421569 1.131914 0.043220 -0.021388 58233.600000 0 0 1
-26.565222 -13.010667 14.893450 33.118021 0.455425 1.104358 0.036603 -0.021186 -234619.000000 0 0 1
-26.822922 -14.326267 14.437850 33.662480 0.490558 1.127521 0.039018 -0.010604 304801.000000 0 0 1
-26.443522 -15.255167 15.451050 34.215711 0.523258 1.102264 -0.004028 0.011488 -293490.000000 0 0 1
-26.630322 -16.778767 15.046150 34.886784 0.562231 1.124880 0.010549 -0.009841 -791203.000000 0 0 1
-27.923222 -17.247667 15.241450 36.186878 0.553320 1.136042 -0.001252 0.000231 -478068.000000 0 0 1
-27.796622 -18.634267 15.346150 36.815654 0.590568 1.140833 -0.006446 0.009338 122033.000000 0 0 1
-28.923122 -19.342567 16.140250 38.356089 0.589449 1.136469 -0.014137 0.015190 10091.300000 0 0 1
-28.743322 -19.197067 17.537450 38.759103 0.588842 1.101260 -0.004519 0.019905 -104268.000000 0 0 1
-29.241522 -20.281067 18.303850 40.017736 0.606398 1.095734 -0.003860 0.021031 -133930.000000 0 0 1
-28.341722 -21.575367 18.334450 40.061224 0.650667 1.095434 -0.007826 0.021399 211676.000000 0 0 1
-27.206022 -21.386667 19.166850 39.559136 0.666208 1.064992 -0.000291 0.024344 -281794.000000 0 0 1
-26.455722 -22.534267 19.079950 39.645213 0.705522 1.068696 0.010495 0.023989 -206543.000000 0 0 1
-25.024822 -22.429167 19.673850 38.940591 0.730754 1.041151 0.021526 0.014481 127399.000000 0 0 1
-24.032422 -21.807967 18.913550 37.561511 0.736910 1.043110 0.024200 0.007557 490303.000000 0 0 1
-22.777122 -21.788567 19.605050 37.120034 0.763220 1.014373 0.030051 0.013156 986504.000000 0 0 1
-21.515522 -21.448067 18.762450 35.706677 0.783828 1.017540 0.036218 -0.000686 199581.000000 0 0 1
-21.211722 -22.482567 17.832850 35.684920 0.814475 1.047508 0.036856 -0.002907 -271955.000000 0 0 1
-19.982422 -22.265667 17.215050 34.516881 0.839389 1.048648 0.033416 -0.001236 -468834.000000 0 0 1
-19.715322 -23.257967 16.048350 34.455427 0.867650 1.086290 0.031812 0.001235 -575496.000000 0 0 1
-19.706422 -24.647667 16.397050 35.562815 0.896345 1.091592 0.044196 -0.001779 93095.800000 0 0 1
-18.636622 -25.194587 17.152350 35.725257 0.933915 1.070007 0.049808 -0.001223 805981.000000 0 0 1
-17.196222 -25.188887 16.514950 34.683334 0.971782 1.074509 0.033051 0.001637 572974.000000 0 0 1
-16.562722 -23.931367 16.563250 33.486943 0.965397 1.053401 0.034365 -0.001553 102346.000000 0 0 1
-15.289322 -23.988067 15.931050 32.603513 1.003350 1.060278 0.038895 -0.007674 31699.700000 0 0 1
-14.592922 -22.603967 15.823450 31.213367 0.997527 1.039160 0.045741 -0.001022 -526083.000000 0 0 1
-15.143422 -21.627367 14.949650 30.340703 0.959938 1.055577 0.030470 0.002057 922252.000000 0 0 1
-16.352722 -20.975367 15.440150 30.753467 0.908609 1.044815 0.035607 0.002758 898580.000000 0 0 1
-16.071522 -19.876467 16.503450 30.425838 0.890851 0.997487 0.039060 -0.010491 -106209.000000 0 0 1
-15.307122 -18.814367 15.935550 29.021201 0.887825 0.989509 0.031234 -0.011591 124753.000000 0 0 1
-15.316722 -17.620367 16.726650 28.720378 0.855225 0.949123 0.021166 -0.013644 -322573.000000 0 0 1
-14.720022 -16.431867 15.938950 27.216455 0.840295 0.945131 0.024129 -0.009425 -27104.300000 0 0 1
-15.553622 -15.919567 14.938750 26.805112 0.797025 0.979654 0.011627 0.000095 26721.700000 0 0 1
-15.427022 -16.516667 13.654350 26.405199 0.819496 1.027327 0.021330 -0.003295 -84214.100000 0 0 1
-16.150722 -15.549767 12.686450 25.760184 0.766443 1.055856 0.014630 0.002732 644418.000000 0 0 1
-17.567022 -15.607267 12.877850 26.796008 0.726392 1.069471 0.003876 -0.001223 433868.000000 0 0 1
-18.268022 -14.703067 12.070950 26.374393 0.677693 1.095416 0.009687 0.001418 1589920.000000 0 0 1
-19.871022 -14.817567 12.138050 27.599820 0.640735 1.115435 0.013210 -0.003484 2330430.000000 0 0 1
-20.505322 -16.026467 11.588450 28.488735 0.663405 1.151877 0.024378 -0.007063 291503.000000 0 0 1
-20.323122 -16.126167 10.173950 27.867397 0.670758 1.197073 0.029171 0.001917 -755892.000000 0 0 1
-21.093722 -17.173467 9.379850 28.772463 0.683310 1.238726 0.021521 0.011323 -342998.000000 0 0 1
-20.585722 -18.479867 9.455250 29.234896 0.731545 1.241451 0.024551 0.021477 -717694.000000 0 0 1
-21.455622 -19.456067 9.025050 30.337003 0.736562 1.268731 0.030720 0.006081 -561185.000000 0 0 1
-20.929522 -20.910267 8.985250 30.919555 0.784938 1.275942 0.036753 0.007350 225616.000000 0 0 1
-19.855622 -21.143967 8.074850 30.108408 0.816811 1.299280 0.042318 0.005746 -95452.600000 0 0 1
-19.327422 -22.411667 8.327450 30.743755 0.859158 1.296503 0.038712 -0.007787 -1357790.000000 0 0 1
-17.968322 -22.629367 7.791750 29.927583 0.899708 1.307408 0.036454 -0.005279 -955454.000000 0 0 1
-16.854322 -22.178967 8.555350 29.140500 0.920974 1.272816 0.020895 -0.007299 459524.000000 0 0 1
-15.635122 -22.257567 7.838550 28.307228 0.958419 1.290220 0.037220 -0.004597 -1186180.000000 0 0 1
-14.402422 -21.998267 8.588450 27.660712 0.991119 1.255085 -0.018151 0.007689 -1708420.000000 0 0 1
-13.292422 -22.181367 7.761650 26.998976 1.030921 1.279202 0.007066 0.003389 -766937.000000 0 0 1
-12.084822 -22.120767 8.501050 26.601487 1.070790 1.245520 0.009151 0.007896 -389102.000000 0 0 1
-10.997322 -22.595367 7.562750 26.242844 1.117840 1.278467 0.011043 0.008819 -582039.000000 0 0 1
-11.005622 -23.982467 7.440950 27.416239 1.140564 1.295942 0.010161 0.009500 -91550.100000 0 0 1
-9.743722 -24.457867 6.999750 27.241951 1.191680 1.310934 0.018149 0.005843 364606.000000 0 0 1
-9.674422 -25.979017 7.151050 28.629378 1.214313 1.318343 -0.002385 0.002786 128872.000000 0 0 1
-10.545922 -26.646797 6.189550 29.318574 1.193944 1.358082 0.013456 0.001588 194829.000000 0 0 1
-10.383722 -28.073687 6.127950 30.553320 1.216527 1.368861 0.025983 -0.000846 95968.000000 0 0 1
-9.040722 -28.600217 5.551350 30.504500 1.264629 1.387792 0.023934 -0.007559 280595.000000 0 0 1
-7.882022 -28.288557 6.293650 30.032961 1.299059 1.359673 0.013784 -0.002167 -340595.000000 0 0 1
-6.741222 -29.073107 5.986750 30.438968 1.342951 1.372825 0.015649 0.003843 341248.000000 0 0 1
-6.630222 -30.564217 6.462450 31.935786 1.357178 1.367032 0.017393 0.002352 -443781.000000 0 0 1
-6.432222 -30.553387 7.865050 32.198477 1.363302 1.324032 0.017857 0.000246 -14842.700000 0 0 1
-6.548222 -31.861627 8.375250 33.588499 1.368098 1.318789 0.033174 -0.002388 -4002.460000 0 0 1
-6.906922 -32.000677 9.885550 34.197558 1.358221 1.277539 0.019468 0.000442 656260.000000 0 0 1
-5.852222 -31.428607 10.699150 33.711684 1.386698 1.247839 0.017926 0.006172 719218.000000 0 0 1
-6.147222 -31.561747 12.030150 34.331570 1.378436 1.212787 0.004876 0.003004 -651850.000000 0 0 1
-5.336222 -30.699347 12.984650 33.756870 1.398694 1.175965 0.010571 -0.003149 -221737.000000 0 0 1
-5.349222 -29.276697 12.725650 32.367906 1.390077 1.166734 0.015167 0.003550 -217599.000000 0 0 1
-4.787222 -28.528297 13.770550 32.037623 1.404539 1.126498 0.010590 -0.002641 -184250.000000 0 0 1
-5.558222 -28.261017 15.130450 32.534742 1.376600 1.087099 0.011213 0.003740 73581.400000 0 0 1
-5.921222 -29.417087 15.863350 33.942182 1.372165 1.084490 0.011833 -0.008000 331709.000000 0 0 1
-4.804222 -30.076147 16.428450 34.605623 1.412399 1.076135 0.009211 -0.010384 192196.000000 0 0 1
-5.300222 -31.353377 17.044350 36.078199 1.403332 1.078753 -0.004714 -0.003778 109880.000000 0 0 1
-6.002222 -32.128447 16.084250 36.427556 1.386106 1.113481 -0.014527 0.003758 300138.000000 0 0 1
-6.499222 -33.384977 16.508250 37.806334 1.378526 1.118921 -0.007880 0.003275 122959.000000 0 0 1
-5.808222 34.191792 15.778550 38.102188 -1.402531 1.143830 -0.006826 -0.001972 209600.000000 0 0 1
-6.471222 34.077591 14.520050 37.603069 -1.383134 1.174353 -0.008709 -0.004090 480630.000000 0 0 1
-5.869222 33.027648 13.762150 36.258379 -1.394926 1.181478 0.002402 -0.009380 -37059.100000 0 0 1
-4.590222 33.424757 12.997650 36.155545 -1.434320 1.203072 0.028903 -0.013778 -25596.300000 0 0 1
-4.814222 33.640484 11.642950 35.922377 -1.428653 1.240721 0.020704 -0.009957 -72924.600000 0 0 1
-3.661222 34.204189 11.068450 36.136431 -1.464162 1.259497 0.034856 -0.016118 -552264.000000 0 0 1
-3.892222 -34.179230 9.579550 35.709059 1.457408 1.299203 0.029544 -0.012496 -550967.000000 0 0 1
-4.114222 33.618382 8.554650 34.932857 -1.449022 1.323392 0.035857 -0.022049 419665.000000 0 0 1
-4.992222 32.529559 8.844250 34.078076 -1.418517 1.308262 0.050585 -0.029336 172430.000000 0 0 1
-6.472222 32.713505 9.230650 34.601560 -1.375473 1.300757 0.035980 -0.015239 -1046.980000 0 0 1
-7.309522 33.195161 8.173250 34.959260 -1.354057 1.334819 0.037351 -0.017969 -1011190.000000 0 0 1
-8.600922 33.426854 8.616550 35.574926 -1.318954 1.326155 0.027549 -0.016250 -615303.000000 0 0 1
-9.593222 33.765701 7.500650 35.894459 -1.293979 1.360281 0.038815 -0.026685 -194123.000000 0 0 1
-9.411322 -33.685567 6.964750 35.662279 1.298356 1.374236 0.022280 -0.015713 -36655.000000 0 0 1
-9.650722 -33.734627 5.589850 35.530380 1.292161 1.412814 0.019251 -0.012994 -333541.000000 0 0 1
-9.594822 -32.327477 4.881450 34.072789 1.282277 1.427036 0.016610 -0.010367 24180.700000 0 0 1
-10.672922 -31.466467 5.152750 33.624405 1.243789 1.416946 0.033777 -0.023208 -776190.000000 0 0 1
-11.846822 -31.657217 4.410450 34.087808 1.212708 1.441048 0.031843 -0.022742 -233614.000000 0 0 1
-12.813922 -30.585177 5.030250 33.540320 1.174054 1.420252 0.033338 -0.034078 -381893.000000 0 0 1
-13.324222 -31.038777 6.279250 34.356506 1.165309 1.386996 0.029383 -0.016738 70847.800000 0 0 1
-14.072622 -30.010837 6.922650 33.861661 1.132322 1.364906 0.021129 -0.020078 115502.000000 0 0 1
33.322490 -12.902067 -12.869450 37.979921 -0.369413 1.916489 0.028016 -0.025721 -456583.000000 0 0 1
32.383210 -12.865067 -11.817450 36.794488 -0.378156 1.897766 0.047899 -0.027905 126703.000000 0 0 1
31.988910 -14.210267 -11.516550 36.849056 -0.418041 1.888655 0.054770 -0.035215 -255238.000000 0 0 1
32.948240 -15.021367 -10.623850 37.737172 -0.427756 1.856176 0.047854 -0.036350 -86838.800000 0 0 1
34.112450 -15.356067 -11.338050 39.089889 -0.422987 1.865076 0.049126 -0.038731 -76173.300000 0 0 1
35.149800 -15.808467 -10.470350 39.938005 -0.422642 1.836061 0.034226 -0.036001 646443.000000 0 0 1
-35.150689 -15.670967 -10.994850 40.025453 0.419374 1.849070 0.025045 -0.035111 138556.000000 0 0 1
-34.654708 -14.375967 -11.135450 39.135859 0.393229 1.859316 0.030701 -0.030816 1521240.000000 0 0 1
-33.252441 -14.207967 -11.501350 37.945648 0.403797 1.878741 0.036947 -0.027097 1553280.000000 0 0 1
-32.841331 -12.724167 -11.496150 37.048872 0.369635 1.886302 0.042159 -0.033784 -184959.000000 0 0 1
-32.731621 -12.096267 -10.254850 36.370876 0.353992 1.856625 0.055621 -0.027680 268188.000000 0 0 1
-32.317531 -10.753767 -10.425650 35.619664 0.321228 1.867839 0.056213 -0.019256 -36483.900000 0 0 1
-32.774771 -9.659067 -9.376250 35.431586 0.286597 1.838616 0.056438 -0.025591 54256.400000 0 0 1
-32.108701 -9.786767 -8.127850 34.537102 0.295856 1.808361 0.073111 -0.024910 460470.000000 0 0 1
-32.422171 -8.676967 -7.268150 34.341126 0.261496 1.784055 0.089279 -0.030597 -259212.000000 0 0 1
-31.973931 -8.863667 -5.826850 33.687521 0.270425 1.744638 0.089923 -0.021726 995664.000000 0 0 1
-30.613341 -8.340967 -5.699750 32.237176 0.266005 1.748537 0.098257 -0.039308 1479210.000000 0 0 1
-30.095901 -8.418267 -4.362350 31.554090 0.272744 1.709490 0.111160 -0.036260 199096.000000 0 0 1
-29.329251 -9.728867 -3.961050 31.153583 0.320291 1.698287 0.095942 -0.028959 74609.700000 0 0 1
-30.141261 -10.924867 -4.031850 32.312601 0.347728 1.695899 0.119276 -0.027130 558029.000000 0 0 1
-30.586411 -11.285467 -2.723850 32.715588 0.353474 1.654151 0.100858 -0.030823 82781.300000 0 0 1
-31.392791 -12.602267 -2.525950 33.922041 0.381746 1.645329 0.097042 -0.026625 -208707.000000 0 0 1
-32.731641 -12.585667 -2.965750 35.193110 0.367083 1.655167 0.093136 -0.031596 9416.460000 0 0 1
-33.292761 -13.859467 -2.652350 36.159753 0.394471 1.644213 0.094317 -0.029846 -417111.000000 0 0 1
-34.822302 -13.778067 -2.598050 37.539016 0.376766 1.640061 0.076537 -0.023061 -417875.000000 0 0 1
-35.236799 -12.926867 -1.569550 37.565934 0.351613 1.612590 0.087769 -0.023517 605527.000000 0 0 1
35.099610 -12.944867 -1.360650 37.435325 -0.353327 1.607151 0.102229 -0.023368 670236.000000 0 0 1
34.515940 -12.071967 -0.198750 36.566678 -0.336453 1.576232 0.093460 -0.022978 -86847.300000 0 0 1
34.862220 -12.575267 1.064250 37.076196 -0.346187 1.542088 0.102810 -0.016353 118110.000000 0 0 1
34.616090 -11.571467 2.045150 36.556192 -0.322602 1.514822 0.092686 -0.013310 22044.600000 0 0 1
35.141830 -11.869367 3.502050 37.257139 -0.325726 1.476661 0.091396 -0.016392 -475925.000000 0 0 1
34.129060 -12.302067 4.342750 36.537556 -0.345960 1.451658 0.090106 -0.018096 -820429.000000 0 0 1
34.457060 -12.566367 5.687250 37.115325 -0.349707 1.416958 0.091393 -0.018081 154610.000000 0 0 1
33.337320 -12.491467 6.801150 36.244576 -0.358507 1.382031 0.086439 -0.028514 476219.000000 0 0 1
32.671350 -11.239167 6.936150 35.239837 -0.331326 1.372676 0.078918 -0.018520 169167.000000 0 0 1
32.525690 -10.940267 8.321850 35.310949 -0.324470 1.332885 0.057274 -0.002273 -269369.000000 0 0 1
31.790530 -9.590067 8.581650 34.296529 -0.292983 1.317890 0.046244 -0.029090 438816.000000 0 0 1
30.418900 -9.517767 8.191950 32.909047 -0.303240 1.319224 0.052808 -0.023859 479135.000000 0 0 1
29.716360 -8.705267 9.115150 32.278935 -0.284972 1.284515 0.053627 -0.015495 -598741.000000 0 0 1
28.194560 -8.838367 9.061250 30.905601 -0.303775 1.273233 0.042028 -0.014069 -256982.000000 0 0 1
27.657920 -8.515567 7.749250 29.958743 -0.298679 1.309157 0.061640 -0.020559 106265.000000 0 0 1
27.304790 -9.719567 7.091750 29.838137 -0.341980 1.330826 0.067760 -0.029603 -652848.000000 0 0 1
26.330360 -9.422967 5.932350 28.587985 -0.343673 1.361765 0.084998 -0.028578 -1121250.000000 0 0 1
25.129560 -8.974367 6.448650 27.452124 -0.343007 1.333675 0.082483 -0.023639 -577038.000000 0 0 1
24.153660 -8.518767 5.542650 26.204763 -0.339070 1.357674 0.089351 -0.024265 78658.000000 0 0 1
24.501360 -7.118267 4.983150 25.996502 -0.282742 1.377917 0.085014 -0.018836 -1156180.000000 0 0 1
25.429160 -7.152667 3.943750 26.708724 -0.274194 1.422597 0.079713 -0.017443 62720.200000 0 0 1
25.886660 -5.840167 3.652650 26.787470 -0.221890 1.434014 0.082883 -0.022039 36041.700000 0 0 1
26.485760 -5.694567 2.256750 27.184857 -0.211781 1.487686 0.071509 -0.030904 95434.300000 0 0 1
25.494560 -5.828067 1.266150 26.182858 -0.224739 1.522419 0.071439 -0.032212 109731.000000 0 0 1
26.128560 -5.598267 0.054050 26.721623 -0.211067 1.568774 0.062916 -0.029573 -301434.000000 0 0 1
25.381460 -6.142967 -1.217850 26.142641 -0.237460 1.617398 0.073551 -0.028915 215905.000000 0 0 1
24.245360 -5.315467 -1.407050 24.861043 -0.215822 1.627423 0.067306 -0.025674 -119117.000000 0 1 0
23.588360 -5.529367 -2.622650 24.369302 -0.230254 1.678626 0.057042 -0.021400 13561.700000 0 1 0
22.512360 -4.450667 -2.884250 23.128633 -0.195182 1.695827 0.039487 -0.017599 67987.600000 0 1 0
23.075760 -3.164567 -2.745850 23.453035 -0.136288 1.688144 0.035332 -0.018369 558736.000000 0 1 0
23.749460 -2.437467 -3.781350 24.171816 -0.102274 1.727878 0.041954 -0.017341 66905.500000 0 1 0
22.788660 -1.833667 -4.866850 23.374592 -0.080291 1.780542 0.045420 -0.008204 41110.300000 0 1 0
21.928760 -0.874867 -4.302950 22.364062 -0.039875 1.764408 0.009839 0.004461 154547.000000 0 1 0
21.188260 -0.289867 -5.339450 21.852599 -0.013680 1.817635 0.023715 0.010001 -653509.000000 0 1 0
20.693460 1.137433 -4.977350 21.314010 0.054911 1.806497 0.012157 0.017311 -1247060.000000 0 1 0
21.591260 2.236633 -4.869750 22.246336 0.103222 1.791485 0.003729 0.013106 427627.000000 0 1 0
22.413860 2.189933 -3.706050 22.823490 0.097395 1.733897 0.035440 0.005460 -162450.000000 0 1 0
23.636260 3.107633 -3.726050 24.129103 0.130728 1.725838 0.034288 0.003473 -299590.000000 0 1 0
23.343460 4.494733 -3.561550 24.037562 0.190220 1.719510 0.026850 0.007384 630309.000000 0 1 0
24.501060 5.170133 -3.081650 25.229522 0.207966 1.693247 0.034044 0.000875 237739.000000 0 0 1
24.308360 6.735133 -3.019450 25.404241 0.270290 1.689934 0.039549 0.003410 125008.000000 0 0 1
23.429860 7.135333 -1.980650 24.572226 0.295617 1.651489 0.046868 0.000142 444077.000000 0 1 0
22.872760 8.437533 -2.157150 24.474648 0.353403 1.659049 0.041381 0.004996 241982.000000 0 1 0
21.764560 8.898533 -1.152650 23.541634 0.388116 1.619778 0.040675 0.010755 117292.000000 0 1 0
22.211660 9.185933 0.144350 24.036639 0.392144 1.564791 0.035895 -0.002636 360491.000000 0 1 0
21.206560 9.928733 0.821250 23.430159 0.437879 1.535738 0.034715 0.000062 106673.000000 0 1 0
21.661560 10.519633 2.188750 24.180084 0.452091 1.480154 0.051715 -0.001119 -446751.000000 0 1 0
22.537060 11.613033 2.187250 25.447311 0.475802 1.484738 0.054800 -0.010385 64022.500000 0 0 1
22.057660 12.833133 1.714150 25.576707 0.526929 1.503726 0.053228 -0.003177 -428603.000000 0 0 1
20.929860 13.636033 2.508050 25.105592 0.577437 1.470729 0.036929 0.003522 1025930.000000 0 0 1
19.633560 13.059733 2.259950 23.688408 0.586968 1.475248 0.084941 0.003905 2579920.000000 0 1 0
18.505760 13.727233 2.996750 23.235330 0.638221 1.441462 0.059823 -0.005239 1533180.000000 0 1 0
18.445660 13.591833 4.509650 23.352028 0.635037 1.376459 0.034626 -0.001009 -499020.000000 0 1 0
18.117360 12.301033 5.017850 22.466262 0.596468 1.345546 0.041794 -0.000482 370414.000000 0 1 0
18.304260 12.266133 6.404450 22.946044 0.590393 1.287930 0.037947 -0.013791 -145332.000000 0 1 0
18.190660 10.825033 7.005950 22.297192 0.536799 1.251174 0.013402 -0.022364 -122602.000000 0 1 0
19.227560 9.963733 6.587750 22.635668 0.478102 1.275489 0.005706 -0.027061 383183.000000 0 1 0
19.195860 8.741333 7.282350 22.314223 0.427316 1.238352 0.013979 -0.022594 -410156.000000 0 1 0
20.188460 7.735533 6.688550 22.630711 0.365911 1.270763 0.028438 -0.019727 -209028.000000 0 1 0
19.911160 7.548333 5.310050 21.946030 0.362361 1.326411 0.025800 -0.025193 428027.000000 0 1 0
20.840960 6.660433 4.769950 22.393289 0.309325 1.356144 0.029876 -0.029750 -427876.000000 0 1 0
20.803060 6.716333 3.213050 22.095251 0.312289 1.424861 0.046057 -0.014057 -15599.200000 0 1 0
21.361960 5.564533 2.559950 22.222752 0.254825 1.455345 0.022412 -0.022809 76963.400000 0 1 0
21.232960 5.740133 1.177650 22.026678 0.264029 1.517306 0.037242 -0.005418 -531667.000000 0 1 0
22.190360 4.845233 0.414050 22.716949 0.214975 1.552569 0.036717 -0.001412 -418310.000000 0 1 0
22.011260 3.460533 0.469250 22.286566 0.155940 1.549739 0.029100 -0.008844 55671.700000 0 1 0
23.151860 2.735733 0.089450 23.313104 0.117619 1.566959 0.037939 -0.014134 -110558.000000 0 1 0
22.957160 1.192233 0.150550 22.988590 0.051886 1.564247 0.050642 -0.017864 -194282.000000 0 1 0
22.026060 0.687033 -0.782150 22.050648 0.031182 1.606274 0.022706 -0.015656 555126.000000 0 1 0
22.226260 -0.652367 -1.057150 22.260947 -0.029343 1.618303 0.032497 -0.016142 -1394890.000000 0 1 0
21.861060 -1.773067 0.033350 21.932870 -0.080929 1.569276 0.041279 -0.015201 -228221.000000 0 1 0
22.750260 -1.992467 1.092950 22.863481 -0.087357 1.522975 0.038970 -0.013535 899203.000000 0 1 0
24.056160 -2.486167 0.725550 24.195170 -0.102983 1.540804 0.054452 -0.017226 460032.000000 0 1 0
25.078560 -2.119867 1.820350 25.233740 -0.084329 1.498594 0.070360 -0.019481 -338220.000000 0 0 1
25.158460 -0.764067 2.158850 25.262473 -0.030361 1.485235 0.075557 -0.021524 75889.600000 0 0 1
26.262760 -0.561667 2.993250 26.438751 -0.021383 1.457339 0.086102 -0.018625 -369923.000000 0 0 1
26.242660 0.812633 3.697250 26.514283 0.030956 1.430897 0.096578 -0.017069 -113971.000000 0 0 1
26.322660 1.991933 2.886850 26.555303 0.075530 1.461870 0.101463 -0.016788 359425.000000 0 0 1
27.620340 2.190633 2.338950 27.805624 0.079147 1.486579 0.118496 -0.025815 321335.000000 0 0 1
27.714240 3.348433 1.357450 27.948770 0.120237 1.522208 0.115170 -0.030663 -244911.000000 0 0 1
27.117120 3.071833 0.120350 27.290819 0.112799 1.566386 0.105039 -0.018984 484828.000000 0 0 1
27.710680 3.752233 -1.038750 27.982852 0.134589 1.607926 0.111483 -0.011655 938283.000000 0 0 1
29.166130 3.399233 -1.530650 29.403415 0.116024 1.622877 0.116567 -0.009135 394599.000000 0 0 1
30.149910 3.844533 -0.653150 30.401054 0.126829 1.592282 0.131946 -0.023298 605263.000000 0 0 1
31.446870 3.896833 -1.307050 31.714339 0.123289 1.612021 0.106815 -0.017918 1121610.000000 0 0 1
32.580670 4.512633 -0.478350 32.895178 0.137631 1.585338 0.067983 -0.007033 -25529.700000 0 0 1
32.989180 3.725633 0.694050 33.206144 0.112459 1.549894 0.063501 -0.009762 590433.000000 0 0 1
32.210280 4.037933 1.872750 32.516368 0.124711 1.513170 0.072776 -0.002016 291939.000000 0 0 1
32.312780 2.980333 2.976550 32.586162 0.091974 1.479325 0.074267 -0.004184 87155.700000 0 0 1
31.328080 1.949233 3.013850 31.533020 0.062140 1.475073 0.086713 -0.010758 244326.000000 0 0 1
31.459230 1.085633 4.114150 31.745676 0.034496 1.440834 0.078116 -0.013410 695012.000000 0 0 1
32.649900 0.043233 3.930750 32.885690 0.001324 1.450982 0.064316 -0.007039 825188.000000 0 0 1
33.923090 0.561933 4.248450 34.192705 0.016563 1.446224 0.055672 -0.011301 -385753.000000 0 0 1
34.941140 -0.343767 3.932650 35.163435 -0.009838 1.458723 0.042608 -0.009452 -1377660.000000 0 0 1
-35.487622 0.349533 4.136750 35.729626 -0.009849 1.454757 0.045412 -0.015096 -1042900.000000 0 0 1
-35.086007 1.450533 3.292050 35.269952 -0.041319 1.477322 0.039359 -0.015173 358077.000000 0 0 1
-34.824715 1.156533 1.890950 34.895187 -0.033198 1.516580 0.057997 -0.015325 -636018.000000 0 0 1
-34.817556 2.451433 1.087350 34.920682 -0.070292 1.539654 0.047666 -0.015426 897085.000000 0 0 1
-33.721291 3.356633 1.403450 33.916989 -0.099214 1.529406 0.061889 -0.023777 1606820.000000 0 0 1
-32.532361 3.046733 0.641550 32.681014 -0.093380 1.551164 0.068924 -0.011540 268760.000000 0 0 1
-31.285301 3.841133 1.096750 31.539297 -0.122166 1.536015 0.063779 -0.020663 -109012.000000 0 0 1
-30.921951 3.433333 2.401350 31.204508 -0.110579 1.493765 0.065495 -0.024589 25425.500000 0 0 1
-30.176641 4.462133 3.031350 30.655006 -0.146803 1.471748 0.072488 -0.023363 -465696.000000 0 0 1
-30.247021 4.528533 4.609850 30.929607 -0.148614 1.421196 0.065897 -0.021626 -201083.000000 0 0 1
-31.516471 4.942533 5.083350 32.304133 -0.155557 1.412780 0.052115 -0.008424 152959.000000 0 0 1
-32.452121 3.881233 5.159350 33.088110 -0.119033 1.414230 0.044970 -0.012887 -515294.000000 0 0 1
-32.253431 2.957533 6.384550 33.012017 -0.091441 1.376169 0.034023 -0.008739 -668066.000000 0 0 1
-32.711491 3.603533 7.572150 33.769284 -0.109719 1.344642 0.030146 -0.002889 296039.000000 0 0 1
-32.770771 2.806033 8.734750 34.030767 -0.085418 1.311219 0.032646 -0.000789 -482223.000000 0 0 1
-33.906551 1.792833 8.884450 35.097036 -0.052827 1.314872 0.028060 0.002715 -669665.000000 0 0 1
-33.781381 0.630233 8.106850 34.746222 -0.018654 1.335310 0.038411 -0.004573 422046.000000 0 0 1
-34.812265 -0.329167 8.368950 35.805607 0.009455 1.334881 0.043537 -0.005491 212787.000000 0 0 1
-34.616894 -1.089067 9.703850 35.967765 0.031450 1.297618 0.053299 0.000831 -363570.000000 0 0 1
-33.543201 -1.975767 9.539750 34.929312 0.058834 1.294166 0.048700 -0.008089 -166673.000000 0 0 1
-33.383261 -2.794067 10.654150 35.153376 0.083502 1.262877 0.039608 0.000812 -509151.000000 0 0 1
-32.048611 -3.528367 10.671950 33.962529 0.109653 1.251154 0.047820 -0.001003 -807966.000000 0 0 1
-31.945431 -4.580967 9.750850 33.713127 0.142429 1.277374 0.059555 -0.005595 523009.000000 0 0 1
-30.759021 -5.377067 9.887350 32.753472 0.173064 1.264141 0.053877 -0.014948 457154.000000 0 0 1
-30.766191 -6.503967 8.829950 32.662335 0.208333 1.297050 0.069887 -0.009096 372051.000000 0 0 1
-31.869351 -7.391667 8.961650 33.920546 0.227907 1.303427 0.072077 -0.012729 220634.000000 0 0 1
-31.979031 -8.287367 7.814050 33.946992 0.253572 1.338530 0.086813 -0.016401 439054.000000 0 0 1
-33.026041 -9.429567 8.041150 35.274583 0.278119 1.340816 0.088834 -0.017881 924540.000000 0 0 1
-34.357279 -8.966667 8.250550 36.454016 0.255289 1.342491 0.086749 -0.021841 242031.000000 0 0 1
-35.268605 -10.011567 8.440850 37.621190 0.276590 1.344506 0.085349 -0.023107 -48271.200000 0 0 1
7.285969 -23.785867 11.015650 27.206568 -1.273556 1.153939 0.059089 -0.017917 -244700.000000 0 0 1
6.644969 -24.148867 9.845950 26.912193 -1.302275 1.196245 0.058990 -0.010780 -162420.000000 0 0 1
5.732269 -25.226997 10.051550 27.754170 -1.347363 1.200208 0.058729 -0.009670 424576.000000 0 0 1
5.608069 -26.156777 8.826850 28.169854 -1.359592 1.252084 0.048521 -0.000434 -127209.000000 0 0 1
4.923669 -25.603937 7.708450 27.188680 -1.380814 1.283337 0.054669 -0.000021 -100933.000000 0 0 1
4.746669 -26.573397 6.672650 27.806484 -1.394036 1.328464 0.049682 0.001467 -471570.000000 0 0 1
4.011469 -25.973147 5.432750 26.836748 -1.417560 1.366951 0.049872 -0.004200 -405645.000000 0 0 1
2.639769 -25.856007 5.544550 26.575242 -1.469054 1.360616 0.041236 -0.008792 -960069.000000 0 0 1
1.885169 -27.022997 5.265550 27.595692 -1.501148 1.378808 0.040173 -0.007016 -563391.000000 0 0 1
0.379569 -26.833617 5.110450 27.318561 -1.556652 1.382619 0.056010 -0.018040 -413909.000000 0 0 1
-0.307631 -26.369477 6.284850 27.109838 1.559131 1.336839 0.049435 -0.009250 -188851.000000 0 0 1
-1.700231 -26.584017 6.243750 27.360284 1.506926 1.340563 0.034370 -0.007876 539968.000000 0 0 1
-2.319631 -28.059507 6.384650 28.870060 1.488316 1.347802 0.035712 0.004100 -142379.000000 0 0 1
-2.008931 -28.521977 7.679850 29.606065 1.500478 1.308394 0.032131 0.001707 -201332.000000 0 0 1
-2.649931 -29.692837 7.943750 30.851092 1.481787 1.310376 0.028055 0.004565 -289097.000000 0 0 1
-2.347731 -30.284087 9.343450 31.779519 1.493427 1.272378 0.027194 0.005513 434846.000000 0 0 1
-1.184231 -31.084507 9.547850 32.539367 1.532718 1.272989 0.036326 0.005589 147737.000000 0 0 1
-0.946131 -31.154507 10.948750 33.035944 1.540437 1.232989 0.033270 0.004427 708901.000000 0 0 1
0.550469 -31.370257 11.343750 33.362804 -1.553251 1.223867 0.034647 0.006990 596246.000000 0 0 1
1.019369 -32.694077 11.151250 34.558532 -1.539627 1.242240 0.037112 0.002674 602070.000000 0 0 1
2.443469 -32.861217 11.231950 34.813601 -1.496576 1.242288 0.049978 0.004873 970508.000000 0 0 1
2.990369 -33.484827 12.548050 35.883555 -1.481727 1.213558 0.047297 0.003850 -23531.700000 0 0 1
2.685469 -32.674947 13.678350 35.524093 -1.488793 1.175540 0.039196 0.003509 257748.000000 0 0 1
3.392269 -33.170747 14.813150 36.486098 -1.468884 1.152730 0.042775 0.000653 -203159.000000 0 0 1
3.213969 -32.309247 16.137150 36.257753 -1.471647 1.109547 0.039981 0.003015 -5981.920000 0 0 1
3.690169 -30.960897 16.056750 35.071551 -1.452168 1.095245 0.028302 0.002621 451028.000000 0 0 1
5.109069 -30.898867 16.156950 35.240454 -1.406931 1.094515 0.029497 0.006894 123005.000000 0 0 1
5.701869 -29.651467 15.421450 33.904895 -1.380819 1.098599 0.030956 -0.002165 -144281.000000 0 0 1
5.788669 -29.681007 13.995750 33.321943 -1.378185 1.137333 0.028648 -0.001255 1446710.000000 0 0 1
4.486869 -29.673037 13.318250 32.832863 -1.420723 1.153120 0.019187 0.009119 1081900.000000 0 0 1
4.660069 -29.683247 11.791250 32.277623 -1.415074 1.196833 0.017340 0.003068 136417.000000 0 0 1
5.077769 -30.875597 11.140750 33.214493 -1.407796 1.228747 0.025534 0.005540 -550441.000000 0 0 1
6.407969 -31.229497 11.351850 33.840923 -1.368416 1.228716 0.030044 0.002556 -928064.000000 0 0 1
6.811369 -32.544647 10.702450 34.929804 -1.364481 1.259389 0.019631 0.006498 -274565.000000 0 0 1
6.455569 -33.667367 11.487850 36.154345 -1.381350 1.247446 0.016687 -0.000724 251097.000000 0 0 1
6.642769 33.866910 10.740350 36.144835 1.377112 1.269092 0.024507 0.001701 -137982.000000 0 0 1
6.376469 32.607799 11.500450 35.159469 1.377683 1.237570 0.032057 -0.004099 82437.600000 0 0 1
5.029169 32.387069 11.853950 34.852990 1.416743 1.223759 0.040146 -0.002299 -115355.000000 0 0 1
4.854269 31.244459 12.615750 34.043168 1.416664 1.191162 0.051987 0.004810 -2047.700000 0 0 1
3.733869 31.378609 13.647850 34.421253 1.452359 1.163101 0.052723 -0.006462 324042.000000 0 0 1
4.216069 31.961779 14.881850 35.507746 1.439644 1.138325 0.056402 -0.010496 965524.000000 0 0 1
3.110469 31.854259 15.789750 35.688724 1.473458 1.112490 0.055534 -0.008167 646563.000000 0 0 1
3.529369 31.991649 17.235950 36.510273 1.460919 1.079142 0.059836 -0.006727 -75901.500000 0 0 1
3.861169 33.301799 17.629650 37.877738 1.455367 1.086670 0.066310 -0.004072 165257.000000 0 0 1
4.228169 33.245589 19.009250 38.529186 1.444296 1.054833 0.058105 -0.006898 -17333.500000 0 0 1
4.478269 -34.139931 19.695150 39.667225 -1.440367 1.051223 0.045238 -0.006649 717971.000000 0 0 1
3.271269 -33.497217 20.152650 39.228740 -1.473447 1.031279 0.041680 -0.010672 420329.000000 0 0 1
3.493369 -32.395857 21.081850 38.809014 -1.463378 0.996528 0.033431 -0.005093 547722.000000 0 0 1
2.176069 -31.743797 21.628250 38.473174 -1.502352 0.973796 0.031325 -0.003755 647818.000000 0 0 1
1.326869 -32.640307 22.317050 39.562620 -1.530167 0.971460 0.049097 -0.003866 255688.000000 0 0 1
0.165669 -31.978617 22.832450 39.293513 -1.565616 0.950748 0.042581 -0.000738 479209.000000 0 0 1
-0.946031 -32.963267 23.281750 40.367212 1.542105 0.956053 0.049891 -0.012859 -628120.000000 0 0 1
-1.564931 -33.538397 22.105750 40.198722 1.524169 0.988538 0.041924 -0.011938 224704.000000 0 0 1
-2.417131 34.074216 22.321650 40.806259 -1.499978 0.992002 0.043960 -0.014648 -171692.000000 0 0 1
-3.715631 34.367732 23.069450 41.558951 -1.463101 0.982311 0.057091 -0.016467 -1184760.000000 0 0 1
-4.536431 -33.634357 22.264850 40.590303 1.436730 0.990196 0.036854 -0.012851 -656624.000000 0 0 1
-5.770031 -33.165297 22.782250 40.648015 1.398542 0.975835 0.039279 -0.001298 401103.000000 0 0 1
-6.802831 -32.890147 21.679150 39.975315 1.366837 0.997608 0.014520 -0.003660 -137985.000000 0 0 1
-7.555831 -34.013127 21.279750 40.826599 1.352201 1.022513 -0.003266 0.008346 684761.000000 0 0 1
-8.692031 -33.604057 20.496150 40.309753 1.317684 1.037394 0.009009 -0.001777 1087020.000000 0 0 1
-10.000431 34.306537 20.683650 41.288745 -1.287154 1.046099 0.020654 0.000111 517376.000000 0 0 1
-10.526931 -34.279506 21.960250 42.049416 1.272847 1.021311 0.044336 -0.002789 -115081.000000 0 0 1
-11.840431 33.951854 22.045050 42.177108 -1.235243 1.020807 0.031272 0.002082 -46873.000000 0 0 1
-12.369131 33.821700 23.502550 43.003170 -1.220190 0.992581 0.036144 0.003716 -47856.000000 0 0 1
-12.659631 -33.705797 24.157250 43.358041 1.211507 0.979838 0.034103 0.001377 143931.000000 0 0 1
-11.510331 -33.137017 24.754850 42.934278 1.236479 0.956265 0.025933 0.000747 -44848.700000 0 0 1
-11.830731 -31.910187 25.584050 42.576635 1.215756 0.926177 0.020858 -0.002836 -188347.000000 0 0 1
-12.482331 -32.119397 26.790950 43.648817 1.200136 0.909951 0.017657 0.000364 131712.000000 0 0 1
-13.168031 -30.943827 27.216050 43.262349 1.168463 0.890410 0.031936 -0.005974 167152.000000 0 0 1
-13.742431 -31.123517 28.619550 44.459041 1.154996 0.871436 0.034647 -0.012356 -347874.000000 0 0 1
-12.876431 -30.492227 29.533250 44.359793 1.171227 0.842276 0.023455 0.000741 119183.000000 0 0 1
-13.478531 -30.194817 30.802950 45.190923 1.150952 0.820825 0.025414 0.004526 -208313.000000 0 0 1
-12.716731 -29.425937 31.901950 45.225385 1.162876 0.787810 0.023652 0.001375 -232724.000000 0 0 1
-13.631831 -29.041417 32.924150 45.969885 1.131933 0.772438 0.025172 -0.000002 1045090.000000 0 0 1
-12.962531 -28.637537 34.153550 46.417677 1.145748 0.743967 0.023115 -0.002681 306675.000000 0 0 1
-12.274631 -29.834287 -33.639049 46.608335 1.180478 2.377108 0.029673 -0.000804 199752.000000 0 0 1
-11.025431 -30.146267 -34.197549 46.902345 1.220176 2.387835 0.033188 -0.008875 -465290.000000 0 0 1
-10.594331 -31.443997 -33.859849 47.407322 1.245815 2.366323 0.042184 -0.011433 -81777.900000 0 0 1
-9.088031 -31.687397 -34.089449 47.421240 1.291491 2.372964 0.051778 -0.020437 -55861.000000 0 0 1
-8.320731 -30.825647 -33.271949 46.113747 1.307151 2.376790 0.055338 -0.020628 -798957.000000 0 0 1
-6.998531 -31.264037 -33.172349 46.117504 1.350574 2.373591 0.056641 -0.019793 -339249.000000 0 0 1
-6.206831 -30.240057 -32.303849 44.682485 1.368356 2.378880 0.044396 -0.017132 54121.600000 0 0 1
-6.730631 -30.133607 -30.983749 43.741609 1.351044 2.357934 0.045441 -0.024643 58662.000000 0 0 1
-5.765931 -29.499047 -30.190649 42.601820 1.377768 2.358408 0.038133 -0.022172 136685.000000 0 0 1
-6.151031 -29.592137 -28.682949 41.668229 1.365854 2.330029 0.039200 -0.020662 -92628.100000 0 0 1
-5.835531 -30.886907 -28.153049 42.197733 1.384065 2.301199 0.029569 -0.011668 -378496.000000 0 0 1
-6.534631 -31.231307 -27.016149 41.808710 1.364539 2.273371 0.031462 -0.016749 -55044.600000 0 0 1
-6.097031 -32.642557 -26.427149 42.439422 1.386142 2.242989 0.020031 -0.013508 593970.000000 0 0 1
-5.168431 -32.608247 -25.332949 41.614526 1.413603 2.225284 -0.005813 -0.013998 190864.000000 0 0 1
-5.182531 -33.731007 -24.490149 42.004843 1.418346 2.193251 0.009622 -0.012743 -237677.000000 0 0 1
-4.412331 -33.513637 -23.148849 40.969522 1.439891 2.171261 0.019569 -0.018553 -4796.930000 0 0 1
-5.006431 -32.766197 -22.113949 39.846139 1.419176 2.159139 0.025089 -0.013483 -174777.000000 0 0 1
-4.966131 -31.335847 -22.280449 38.768753 1.413623 2.183035 0.013756 -0.007725 -836201.000000 0 0 1
-5.560631 -30.489697 -21.160749 37.527584 1.390402 2.169863 0.044148 -0.016701 -271341.000000 0 0 1
-6.968931 -30.537507 -21.062249 37.745512 1.346430 2.162778 0.061287 -0.019430 -85180.400000 0 0 1
-7.480931 -29.407307 -20.417549 36.573629 1.321690 2.163082 0.061845 -0.021243 9627.240000 0 0 1
-7.857631 -28.128067 -21.286349 36.139164 1.298389 2.200630 0.074901 -0.043743 -408841.000000 0 0 1
-6.717031 -27.445567 -21.753249 35.659242 1.330774 2.226896 0.062027 -0.030429 -370537.000000 0 0 1
-6.938131 -26.728927 -22.912849 35.882752 1.316827 2.263406 0.078342 -0.051506 -723846.000000 0 0 1
-5.970131 -27.130887 -24.049249 36.743624 1.354199 2.284337 0.059227 -0.046718 1227400.000000 0 0 1
-4.573531 -26.800167 -23.962449 36.240380 1.401772 2.293225 0.054899 -0.032839 992628.000000 0 0 1
-3.852231 -27.367107 -22.875649 35.876086 1.430954 2.262213 0.033852 -0.025294 -734776.000000 0 0 1
-2.300631 -27.254947 -22.995149 35.733765 1.486584 2.269876 0.031099 -0.024614 328990.000000 0 0 1
-1.800131 -25.931437 -23.152849 34.809975 1.501489 2.298452 0.044407 -0.025787 475.987000 0 0 1
-2.064631 -24.993667 -22.116149 33.437556 1.488377 2.293502 0.052399 -0.028462 -1023810.000000 0 0 1
-2.122731 -23.568167 -22.698549 32.790069 1.480971 2.335383 0.063418 -0.022792 951744.000000 0 0 1
-3.161531 -23.256167 -23.684349 33.343560 1.435681 2.360738 0.051131 -0.034041 1409670.000000 0 0 1
-4.478131 -23.211267 -23.112149 33.060369 1.380209 2.344919 0.050637 -0.033242 40882.600000 0 0 1
-5.591331 -23.236167 -24.166749 33.988442 1.334655 2.361756 0.043587 -0.030293 -233649.000000 0 0 1
-5.665931 -22.066167 -24.883549 33.737361 1.319456 2.400256 0.060318 -0.028879 105990.000000 0 0 1
-5.842931 -22.344267 -26.271349 34.979850 1.315028 2.420436 0.060503 -0.032714 -30793.100000 0 0 1
-5.827331 -21.055867 -27.115349 34.821681 1.300799 2.463374 0.068976 -0.020642 -35028.200000 0 0 1
-5.868631 -21.299967 -28.557849 36.106512 1.301944 2.483129 0.062114 -0.022078 525913.000000 0 0 1
-4.637731 -21.611067 -29.213549 36.633021 1.359403 2.493878 0.058319 -0.030230 265363.000000 0 0 1
-4.988531 -22.122267 -30.606849 38.092773 1.349008 2.503917 0.063000 -0.031953 118253.000000 0 0 1
-5.307631 -21.021067 -31.414749 38.169919 1.323475 2.537510 0.085747 -0.030224 -535811.000000 0 0 1
-6.217831 -21.378567 -32.392049 39.305844 1.287760 2.539412 0.082060 -0.027739 -246662.000000 0 0 1
-6.362431 -20.489467 -33.623149 39.885022 1.269714 2.573636 0.067463 -0.016033 -366205.000000 0 0 1
-5.273331 -20.793467 34.221450 40.389156 1.322427 0.559929 0.073982 -0.018004 -715120.000000 0 0 1
-5.481031 -20.188967 32.903250 38.990511 1.305700 0.566325 0.072433 -0.016151 240225.000000 0 0 1
-4.301931 -20.487867 31.977250 38.220463 1.363828 0.579653 0.049879 -0.016744 -1199180.000000 0 0 1
-4.396731 -21.781467 31.410650 38.475869 1.371616 0.615694 0.057887 -0.012381 806556.000000 0 0 1
-3.324231 -22.217367 30.526050 37.901209 1.422275 0.634428 0.049927 -0.015812 1676180.000000 0 0 1
-1.821631 -22.053167 30.958250 38.053564 1.488382 0.620575 0.034921 -0.018856 58212.400000 0 0 1
-1.336931 -20.758367 30.885850 37.237520 1.506481 0.592713 0.032301 -0.019121 -944728.000000 0 0 1
-0.278931 -20.497467 31.731350 37.777011 1.557189 0.573578 0.031838 -0.016670 -739851.000000 0 0 1
-0.614631 -20.157567 33.200550 38.845615 1.540314 0.545863 0.020894 -0.012552 51647.900000 0 0 1
-1.615731 -19.146967 33.270650 38.420738 1.486610 0.523739 0.023966 -0.013148 -37145.900000 0 0 1
-1.901931 -18.701667 -34.046149 38.891001 1.469446 2.637110 0.031389 -0.017140 221402.000000 0 0 1
-3.030731 -17.663267 -33.858749 38.309153 1.400867 2.654782 0.044332 -0.018242 160981.000000 0 0 1
-2.677831 -16.333667 -34.283949 38.070312 1.408296 2.691813 0.058542 -0.019156 26307.700000 0 0 1
-3.600831 -15.371467 -33.813949 37.317974 1.340691 2.704777 0.064284 -0.022519 67503.000000 0 0 1
-3.243031 -13.947867 -34.254249 37.126996 1.342345 2.745625 0.070627 -0.022810 506946.000000 0 0 1
-2.164231 -13.365067 -33.471049 36.105679 1.410258 2.757210 0.075995 -0.016876 842635.000000 0 0 1
-1.888331 -11.985567 -33.732049 35.847884 1.414530 2.796303 0.069064 -0.013722 68324.400000 0 0 1
-1.325731 -11.523767 33.561950 35.509988 1.456257 0.332770 0.068302 -0.017606 40403.500000 0 0 1
-2.349531 -11.530767 32.546350 34.608435 1.369786 0.346943 0.065199 -0.016098 536276.000000 0 0 1
-1.978231 -11.183467 31.237350 33.237860 1.395718 0.348716 0.049903 -0.009781 -702044.000000 0 0 1
-0.962531 -12.109467 30.602650 32.925489 1.491477 0.377873 0.042357 -0.017383 -86827.000000 0 0 1
-1.557331 -13.352667 30.290950 33.140016 1.454690 0.417688 0.053393 -0.026122 -35275.400000 0 0 1
-0.569231 -14.338367 30.220050 33.453912 1.531117 0.443317 0.041845 -0.024768 -218756.000000 0 0 1
-1.012531 -15.806667 30.664650 34.513718 1.506827 0.476780 0.039255 -0.031770 396247.000000 0 0 1
-1.942231 -16.413067 29.765050 34.045840 1.453010 0.506879 0.046845 -0.028512 346829.000000 0 0 1
-2.097731 -17.773367 30.131150 35.045388 1.453313 0.535967 0.051797 -0.019070 -468233.000000 0 0 1
-2.709031 -18.648867 29.070450 34.644049 1.426540 0.575136 0.046952 -0.018992 641560.000000 0 0 1
-3.974931 -18.114367 28.585150 34.074054 1.354785 0.575514 0.054821 -0.017173 785995.000000 0 0 1
-4.703931 -19.107567 27.891650 34.134590 1.329415 0.614420 0.058468 -0.008183 -116658.000000 0 0 1
-4.321431 -19.337767 26.461250 33.057855 1.350938 0.642746 0.051041 -0.014503 -700084.000000 0 0 1
-5.141731 -20.260467 25.806150 33.209657 1.322262 0.680803 0.072543 -0.010360 -365219.000000 0 0 1
-4.831631 -21.678567 25.992050 34.189057 1.351505 0.707107 0.070846 -0.021203 65380.900000 0 0 1
-29.001731 -33.706113 -0.470550 44.468234 0.860279 1.581378 0.005671 0.001326 -399160.000000 0 0 1
-28.031331 -32.824913 0.021550 43.165158 0.864005 1.570297 0.014621 0.002310 -413913.000000 0 0 1
-28.427941 -32.302613 1.252550 43.048525 0.849113 1.541696 0.016051 -0.002181 -109759.000000 0 0 1
-27.777491 -30.968613 1.632650 41.633034 0.839665 1.531571 0.033842 -0.009196 59829.500000 0 0 1
-26.414561 -31.181313 1.928550 40.911155 0.867972 1.523639 0.040231 -0.004438 -3606.860000 0 0 1
-25.723791 -29.966813 2.331450 39.562090 0.861440 1.511831 0.058018 -0.022237 671393.000000 0 0 1
-24.195431 -30.119613 2.531450 38.717156 0.894039 1.505366 0.051875 -0.021928 -60085.300000 0 0 1
-23.840531 -30.895213 3.652850 39.194750 0.913578 1.477463 0.050706 -0.018752 -569022.000000 0 0 1
-22.451431 -30.816113 3.771150 38.313459 0.941158 1.472208 0.042113 -0.014768 -771200.000000 0 0 1
-22.054731 -31.472413 5.084650 38.765676 0.959558 1.439254 0.046633 -0.010993 -103111.000000 0 0 1
-22.460631 -30.558913 6.133950 38.418127 0.936968 1.410447 0.041283 -0.010270 187948.000000 0 0 1
-22.123631 -31.031013 7.432950 38.828180 0.951430 1.378176 0.040702 -0.007640 -322723.000000 0 0 1
-22.674231 -30.102013 8.521450 38.637638 0.925221 1.348420 0.041815 -0.017215 -57634.100000 0 0 1
-22.020331 -28.868813 8.639750 37.322227 0.919171 1.337187 0.041967 -0.014225 -113386.000000 0 0 1
-22.545531 -28.205713 9.771350 37.407787 0.896467 1.306519 0.031941 -0.000942 320544.000000 0 0 1
-21.529331 -27.355713 10.611850 36.393110 0.904024 1.274908 0.029506 -0.015331 -143255.000000 0 0 1
-20.459531 -28.048213 11.184050 36.474342 0.940583 1.259148 0.025519 -0.014184 -617792.000000 0 0 1
-19.790031 -27.059313 11.955750 35.592017 0.939334 1.228224 0.033549 -0.014912 -335639.000000 0 0 1
-18.484931 -27.540713 12.621650 35.489288 0.979672 1.207190 0.047209 -0.011019 -90639.000000 0 0 1
-18.675831 -28.620013 13.542750 36.760004 0.992634 1.193498 0.059441 -0.014576 407779.000000 0 0 1
-17.468631 -28.761113 14.305050 36.564862 1.024975 1.168835 0.069760 -0.012475 521625.000000 0 0 1
-17.576931 -29.944113 15.300250 37.943327 1.039997 1.155742 0.085637 -0.030329 -104373.000000 0 0 1
-17.474231 -31.157313 14.592350 38.588387 1.059670 1.182995 0.095451 -0.027965 32771.500000 0 0 1
-17.428031 -32.202813 15.513150 39.767012 1.074738 1.170055 0.112601 -0.031385 24452.500000 0 0 1
-17.408431 -33.626813 14.876450 40.683225 1.093093 1.196449 0.094898 -0.036139 13851.400000 0 0 1
-17.212931 34.104033 15.771350 41.329234 -1.103381 1.179267 0.109250 -0.026262 46293.000000 0 0 1
-17.162531 32.832133 15.160550 40.029286 -1.089126 1.182366 0.076358 -0.029962 -267692.000000 0 0 1
-17.201631 31.672933 16.164250 39.501314 -1.073265 1.149211 0.074845 -0.033909 300696.000000 0 0 1
-18.448731 31.494133 16.829550 40.192908 -1.040896 1.138762 0.084724 -0.032853 458711.000000 0 0 1
-18.423231 30.309833 17.652950 39.619794 -1.024639 1.108998 0.068623 -0.023165 10731.400000 0 0 1
-19.131931 30.513433 19.015050 40.726803 -1.010760 1.085023 0.061086 -0.014965 -38241.800000 0 0 1
-18.500431 31.526433 19.749550 41.547884 -1.040122 1.075441 0.059561 -0.007758 -230406.000000 0 0 1
-19.312131 31.982033 20.781250 42.751248 -1.027556 1.063178 0.053547 -0.009161 -404346.000000 0 0 1
-18.784931 33.173233 21.679550 43.855899 -1.055549 1.053726 0.045997 0.003406 -197193.000000 0 0 1
-17.684731 32.849833 22.479750 43.556864 -1.076941 1.028504 0.024751 0.001127 -159624.000000 0 0 1
-17.395831 33.754333 23.531350 44.673195 -1.094932 1.016030 0.024999 -0.001708 -274745.000000 0 0 1
-17.891431 33.273333 24.929050 45.262297 -1.077437 0.987512 0.022225 -0.007536 626069.000000 0 0 1
-19.313731 33.439033 24.854450 45.923119 -1.047025 0.998911 0.018045 -0.010656 537836.000000 0 0 1
-20.023531 32.528833 25.639550 46.004927 -1.019012 0.979640 0.036115 -0.011180 -1469210.000000 0 0 1
-21.491731 32.650033 25.409150 46.621283 -0.988647 0.994393 0.071545 -0.022620 -1519660.000000 0 0 1
-21.952031 32.116333 24.190950 45.809962 -0.971219 1.014468 0.064174 -0.011868 -28134.900000 0 0 1
-23.302731 32.454133 23.974050 46.594454 -0.948078 1.030342 0.041334 -0.016062 -251952.000000 0 0 1
-23.737031 32.058433 22.571050 45.832762 -0.933448 1.055876 0.034668 -0.015720 -376220.000000 0 0 1
-23.080531 32.725633 21.529350 45.466371 -0.956540 1.077511 0.043588 -0.022595 -56669.200000 0 0 1
-23.283631 32.208633 20.231050 44.596176 -0.944866 1.099940 0.022578 -0.010939 -68173.700000 0 0 1
-22.829331 33.151633 19.082550 44.546076 -0.967740 1.128100 0.038233 -0.017342 198892.000000 0 0 1
-21.441231 33.417933 18.973050 44.005241 -1.000343 1.125025 0.058045 -0.012362 27923.600000 0 0 1
-21.115931 34.360633 17.989850 44.160733 -1.019755 1.151222 0.079206 -0.016101 -977190.000000 0 0 1
-19.790631 -33.760813 18.259650 43.184215 1.040585 1.134229 0.092555 -0.025455 -1177430.000000 0 0 1
-19.862031 -32.835513 19.328750 42.968265 1.026785 1.104213 0.094097 -0.034954 91854.400000 0 0 1
-18.607931 -32.373113 19.748750 42.240817 1.049115 1.084304 0.080966 -0.032663 -374419.000000 0 0 1
-18.748831 -31.313513 20.859750 42.037887 1.031300 1.051565 0.079682 -0.026177 266025.000000 0 0 1
-19.453331 -30.149113 20.368450 41.258634 0.997777 1.054483 0.095515 -0.028235 643273.000000 0 0 1
-19.866231 -29.333013 21.444350 41.411990 0.975492 1.026484 0.087135 -0.023336 -172631.000000 0 0 1
-20.713331 -28.079613 21.113550 40.783437 0.935237 1.026637 0.069080 -0.019528 -742207.000000 0 0 1
-20.073731 -26.993313 20.554150 39.421653 0.931368 1.022314 0.062380 -0.010920 70781.000000 0 0 1
-20.913431 -25.893713 20.231150 38.950679 0.891399 1.024643 0.053356 0.001710 -668495.000000 0 0 1
-21.986831 -25.994013 19.184850 39.078996 0.868721 1.057645 0.039693 -0.001953 -1278410.000000 0 0 1
-23.191431 -26.573213 19.564650 40.333034 0.853249 1.064344 0.042339 -0.005318 -434789.000000 0 0 1
-24.041831 -26.461813 18.436950 40.226338 0.833279 1.094681 0.034859 -0.003630 -522986.000000 0 0 1
-25.565021 -26.476613 18.714450 41.289369 0.802913 1.100387 0.020398 0.001639 78262.600000 0 0 1
-26.117931 -27.607413 19.313850 42.630275 0.813115 1.100607 0.024439 -0.003869 -140818.000000 0 0 1
-26.179301 -28.706913 18.441550 43.006202 0.831418 1.127620 0.033323 -0.007059 -1064450.000000 0 0 1
-27.024691 -29.859913 19.011550 44.535237 0.835199 1.129748 0.038346 -0.015665 584231.000000 0 0 1
-28.441471 -29.674413 18.960150 45.265609 0.806610 1.138602 0.027986 -0.013359 565439.000000 0 0 1
-29.058671 -29.980913 17.737850 45.364004 0.801018 1.169066 0.030697 -0.005526 -62915.000000 0 0 1
-30.551491 -29.540513 17.679050 46.028082 0.768576 1.176571 0.032583 -0.004156 428018.000000 0 0 1
-30.806701 -28.136613 17.651150 45.302151 0.740130 1.170565 0.036464 -0.003306 869535.000000 0 0 1
-32.225421 -27.958813 17.813950 46.233211 0.714624 1.175257 0.024124 0.013933 498241.000000 0 0 1
-32.796381 -26.629713 17.440550 45.704672 0.681998 1.179278 0.005992 0.006249 -317356.000000 0 0 1
-32.780671 -26.355013 16.046050 45.018161 0.677163 1.206347 0.034079 -0.003390 128852.000000 0 0 1
-33.574681 -25.274513 15.697850 44.860703 0.645281 1.213306 0.033220 -0.001862 -452965.000000 0 0 1
-32.830521 -24.294913 14.751950 43.424716 0.637077 1.224184 0.016394 -0.002402 652010.000000 0 0 1
-31.748391 -23.748013 15.544550 42.585931 0.642224 1.197146 0.007346 0.004534 531445.000000 0 0 1
-31.367191 -22.401313 15.173850 41.424211 0.620169 1.195763 -0.000718 0.006900 -141195.000000 0 0 1
-32.293931 -21.256313 15.641650 41.705995 0.582128 1.186350 -0.003690 0.003651 -130396.000000 0 0 1
-32.260171 -21.027313 17.051650 42.114431 0.577642 1.153939 -0.007728 0.002880 184370.000000 0 0 1
-33.125731 -19.946013 17.351350 42.381916 0.541985 1.148995 -0.010044 -0.002167 20843.900000 0 0 1
-33.594651 -19.726713 18.803950 43.258899 0.530953 1.121109 -0.003291 0.007401 170505.000000 0 0 1
-34.868359 -20.233213 19.180550 44.643912 0.525789 1.126709 0.010236 0.004070 358329.000000 0 0 1
-35.003800 -20.057313 20.572550 45.285667 0.520333 1.099228 0.005587 0.016609 1034850.000000 0 0 1
35.337730 -20.521313 21.185950 46.029598 -0.526122 1.092499 0.017078 0.004015 1081080.000000 0 0 1
34.989730 -21.855313 21.462650 46.503561 -0.558327 1.091081 0.025616 -0.009812 423718.000000 0 0 1
35.769327 -22.521113 22.485650 47.877445 -0.561915 1.081902 0.017253 0.012735 20181.900000 0 0 1
35.056080 -23.788613 23.000650 48.206397 -0.596210 1.073412 0.020304 0.015771 -184141.000000 0 0 1
34.109160 -23.450413 23.955150 47.824741 -0.602295 1.046164 0.038399 -0.010967 196714.000000 0 0 1
33.437090 -24.502613 24.671050 48.239794 -0.632400 1.033954 0.038645 -0.017571 112928.000000 0 0 1
32.591840 -24.151813 25.957450 48.159394 -0.637741 1.001558 0.042267 -0.016334 805511.000000 0 0 1
31.278370 -23.729113 25.559950 46.847820 -0.649010 0.993697 0.050124 -0.022494 910328.000000 0 0 1
30.362170 -23.870413 26.667050 46.933884 -0.666263 0.966500 0.045944 -0.019228 1341820.000000 0 0 1
29.021540 -24.674813 26.402250 46.348408 -0.704624 0.964720 0.044978 -0.017893 1255890.000000 0 0 1
28.055170 -23.879513 25.676050 44.906383 -0.705169 0.962137 0.052320 -0.020824 617583.000000 0 0 1
26.926850 -24.692613 25.324450 44.453438 -0.742142 0.964674 0.048574 -0.013189 825191.000000 0 0 1
25.706860 -23.888613 24.754550 42.945270 -0.748753 0.956454 0.047678 -0.010520 169047.000000 0 0 1
25.723360 -23.214613 23.517450 41.876962 -0.734179 0.974497 0.055245 -0.013117 405413.000000 0 0 1
26.744970 -22.194213 23.430950 41.915223 -0.692677 0.977607 0.061659 -0.013067 565597.000000 0 0 1
26.782820 -21.522313 22.068950 40.835866 -0.676924 0.999848 0.070912 -0.016342 -75528.500000 0 0 1
25.890960 -20.442913 22.066550 39.688627 -0.668353 0.981241 0.066089 -0.017848 -53386.200000 0 0 1
25.716260 -19.982113 20.752250 38.616923 -0.660572 1.003460 0.055609 -0.019246 91684.700000 0 0 1
24.743060 -18.731013 20.727150 37.318689 -0.647979 0.981941 0.047515 -0.009031 109985.000000 0 0 1
25.164960 -17.460313 21.260450 37.284641 -0.606576 0.964023 0.048731 -0.024185 41576.800000 0 0 1
25.328260 -17.456413 22.673750 38.214474 -0.603446 0.935608 0.046040 -0.010605 -216232.000000 0 0 1
25.361960 -16.023613 23.296150 37.982835 -0.563472 0.910522 0.058591 -0.001658 46006.000000 0 0 1
24.051460 -15.484913 23.267150 36.872964 -0.572021 0.887944 0.027269 0.002333 21720.700000 0 0 1
23.977560 -14.226713 23.869950 36.702823 -0.535504 0.862742 0.024061 0.006731 -88618.300000 0 0 1
22.690360 -13.407713 23.687850 35.436329 -0.533701 0.838657 0.014809 0.003700 -106266.000000 0 0 1
21.637660 -13.881113 24.501450 35.513303 -0.570395 0.809413 0.031154 0.006986 -600353.000000 0 0 1
20.469760 -13.136913 24.376950 34.435813 -0.570569 0.784282 0.036321 0.003249 -469699.000000 0 0 1
19.253860 -13.991713 24.782950 34.360933 -0.628419 0.765186 0.023227 0.009630 -217178.000000 0 0 1
18.950260 -15.117213 23.941350 34.070966 -0.673356 0.791624 0.017163 0.012204 -1361780.000000 0 0 1
17.662260 -15.520413 24.138350 33.697160 -0.720940 0.772265 0.013282 0.020226 -1311780.000000 0 0 1
17.444760 -16.895113 23.386650 33.714980 -0.769393 0.804242 0.010522 0.012405 -339517.000000 0 0 1
17.895960 -18.146413 23.936850 34.964703 -0.792347 0.816741 0.002123 0.013166 86999.700000 0 0 1
17.844060 -19.126913 22.924850 34.782151 -0.820083 0.851177 0.013789 0.007136 -266044.000000 0 0 1
18.182160 -20.611813 23.367150 36.075774 -0.847946 0.866203 0.002767 0.003789 173355.000000 0 0 1
17.124860 -21.238713 24.122750 36.417727 -0.892223 0.846791 0.000107 -0.002615 575549.000000 0 0 1
17.302160 -22.628213 24.371550 37.488307 -0.917999 0.863066 0.016679 -0.005353 -400623.000000 0 0 1
16.924060 -23.519113 23.137550 37.079896 -0.947045 0.896956 0.002584 -0.000596 119517.000000 0 0 1
17.783260 -23.652213 21.993550 36.869876 -0.926103 0.931640 0.010956 -0.000574 -940569.000000 0 0 1
18.859460 -24.474513 22.216950 38.056193 -0.914256 0.947403 0.034578 -0.007131 -728560.000000 0 0 1
19.798560 -24.600213 20.991650 37.918370 -0.893128 0.984114 0.042751 -0.002191 -260604.000000 0 0 1
19.251560 -25.456513 20.041150 37.686925 -0.923305 1.010095 0.047014 -0.011985 69540.600000 0 0 1
20.227160 -25.923713 19.136850 38.044657 -0.908210 1.043718 0.044522 -0.002744 97263.000000 0 0 1
19.641660 -26.705913 17.931850 37.690208 -0.936653 1.074958 0.035884 -0.007481 172175.000000 0 0 1
18.955060 -27.864313 18.358750 38.376528 -0.973440 1.071982 0.054034 -0.020663 69266.100000 0 0 1
18.082960 -28.369113 17.361150 37.857754 -1.003318 1.094390 0.058829 -0.020185 -162453.000000 0 0 1
17.219360 -29.538813 17.828650 38.560453 -1.043015 1.090146 0.061073 -0.014628 -260106.000000 0 0 1
16.253460 -29.179013 18.781750 38.318975 -1.062575 1.058543 0.052480 -0.021295 -452225.000000 0 0 1
15.544060 -30.295013 19.251250 39.115422 -1.096732 1.056221 0.062652 -0.023933 218057.000000 0 0 1
14.401260 -29.792313 20.199050 38.768283 -1.120526 1.022751 0.052612 -0.015791 352426.000000 0 0 1
13.472560 -29.015513 19.461950 37.445659 -1.136096 1.024252 0.052031 -0.013034 -352349.000000 0 0 1
12.266960 -28.749613 20.149850 37.189178 -1.167501 0.998195 0.018035 -0.004491 217633.000000 0 0 1
11.255460 -28.063713 19.202050 35.818655 -1.189370 1.004997 0.014883 -0.010237 -266681.000000 0 0 1
11.010560 -28.884413 18.095950 35.819061 -1.206607 1.041177 0.020478 -0.013788 33730.000000 0 0 1
10.374060 -28.118913 17.065650 34.489575 -1.217353 1.053185 0.019153 -0.007655 158434.000000 0 0 1
10.253260 -28.893713 15.738350 34.462612 -1.229797 1.096538 0.039589 -0.010372 182480.000000 0 0 1
9.326560 -29.973413 15.869050 35.174095 -1.269132 1.102735 0.034021 -0.004007 181661.000000 0 0 1
9.634560 -30.923613 14.905250 35.654748 -1.268768 1.139505 0.038389 -0.002739 548691.000000 0 0 1
8.507960 -32.002513 14.573250 36.179080 -1.310954 1.156213 0.031976 -0.001099 480200.000000 0 0 1
8.227560 -33.035913 15.516550 37.414270 -1.326713 1.143158 0.034504 -0.005612 220170.000000 0 0 1
7.453560 -34.062413 14.874250 37.908401 -1.355371 1.167586 0.030457 -0.008826 163907.000000 0 0 1
7.264560 33.487533 15.814550 37.739749 1.357173 1.138406 0.056434 -0.013491 -861646.000000 0 0 1
8.381660 32.734133 16.029950 37.399665 1.320129 1.127840 0.050116 -0.014991 -959991.000000 0 0 1
8.078260 31.793833 17.033650 36.962837 1.321979 1.091864 0.054986 -0.020959 -232743.000000 0 0 1
9.286860 30.914233 17.309650 36.627306 1.278966 1.078570 0.050736 -0.020838 -521318.000000 0 0 1
9.702160 30.095133 16.247150 35.550229 1.258933 1.096155 0.047710 -0.021224 486785.000000 0 0 1
10.880960 29.363533 16.646050 35.464113 1.215924 1.082211 0.045963 -0.021687 985596.000000 0 0 1
11.683660 28.735733 15.459450 34.658979 1.184622 1.108455 0.041948 -0.011983 470016.000000 0 0 1
10.969560 27.685933 14.806750 33.257811 1.193558 1.109386 0.044253 -0.015332 1223910.000000 0 0 1
12.002660 26.919933 14.122150 32.683050 1.151386 1.123983 0.042376 -0.006298 995623.000000 0 0 1
-9.461731 -9.639467 19.274749 23.536347 0.794703 0.611243 0.040423 -0.011811 -166278.000000 0 1 0
-9.684031 -9.421667 17.908649 22.433635 0.771667 0.646338 0.035743 -0.019957 104438.000000 0 1 0
-9.504931 -10.707167 17.268949 22.432203 0.844809 0.692224 0.039797 -0.025038 -269589.000000 0 1 0
-9.885931 -10.667367 15.811349 21.483089 0.823400 0.743668 0.041410 -0.026705 -85647.900000 0 1 0
-11.303031 -10.652067 15.744249 22.115751 0.755757 0.778593 0.035820 -0.018743 21584.300000 0 1 0
-11.793431 -11.227167 14.588449 21.862231 0.760805 0.840232 0.040961 -0.015405 -63916.800000 0 1 0
-11.811931 -12.796367 14.595949 22.722466 0.825381 0.873226 0.033097 -0.011276 576472.000000 0 1 0
-10.539731 -13.387567 14.187849 22.172234 0.903861 0.876438 0.033363 -0.010499 1237760.000000 0 1 0
-10.514131 -14.794167 14.204849 23.047604 0.952929 0.906727 0.039497 -0.012465 178904.000000 0 1 0
-10.052531 -15.409467 15.539249 24.082635 0.992763 0.869450 0.040367 -0.017388 100634.000000 0 1 0
-11.091331 -15.190467 16.460149 24.994088 0.940120 0.851890 0.050007 -0.009603 31546.800000 0 1 0
-10.615731 -15.347267 17.780349 25.775437 0.965661 0.809559 0.061538 -0.013383 -541011.000000 0 0 1
-11.755031 -15.095267 18.725049 26.770792 0.909165 0.796157 0.054112 -0.019475 -611751.000000 0 0 1
-12.183731 -13.724467 18.710249 26.208352 0.844797 0.775739 0.057187 -0.018630 1069490.000000 0 0 1
-13.345631 -13.408867 17.877149 26.028754 0.787762 0.813687 0.051500 -0.024212 971684.000000 0 0 1
-14.709531 -13.510467 18.592649 27.287170 0.742934 0.821164 0.024275 -0.012563 -196486.000000 0 0 1
-14.995531 -14.827567 18.979249 28.371369 0.779766 0.837991 0.033542 -0.013195 -552459.000000 0 0 1
-16.030731 -14.873567 19.911849 29.575143 0.747972 0.832183 0.031508 -0.010716 -429710.000000 0 0 1
-16.509031 -16.306367 20.148049 30.730923 0.779222 0.855782 0.030392 -0.007294 -475165.000000 0 0 1
-17.376431 -16.868667 19.219049 30.917053 0.770572 0.899971 0.023317 -0.001905 -568931.000000 0 0 1
-17.779631 -18.115167 19.720849 32.143218 0.794746 0.910272 0.024409 -0.010505 382785.000000 0 0 1
-19.128931 -18.615667 19.093349 32.817907 0.771801 0.949860 0.032679 -0.004472 388388.000000 0 0 1
-19.034231 -18.790867 17.672349 32.057925 0.778964 0.986919 0.035538 -0.008625 91674.700000 0 0 1
-19.348631 -17.552367 16.966949 31.150160 0.736759 0.994786 0.025863 -0.003838 -665576.000000 0 0 1
-18.994931 -17.604767 15.480549 30.172548 0.747433 1.032042 0.028714 -0.009490 -1929.860000 0 0 1
-19.765331 -18.540767 14.715149 30.837704 0.753441 1.073353 0.027713 -0.014253 53622.500000 0 0 1
-19.331231 -18.571067 13.385249 29.962408 0.765345 1.107684 0.030719 -0.013583 -64650.600000 0 0 1
-19.552931 -19.947167 12.772949 30.714082 0.795378 1.141901 0.024734 -0.006016 600860.000000 0 0 1
-18.573531 -20.932267 13.180049 30.932985 0.845033 1.130637 0.023454 -0.000121 481264.000000 0 0 1
-18.549931 -22.004067 12.264349 31.284072 0.870367 1.167957 0.016764 -0.004748 -318892.000000 0 0 1
-17.856831 -23.278267 12.720049 31.977238 0.916439 1.161696 0.017254 -0.004541 -257380.000000 0 0 1
-17.907531 -24.335367 11.820949 32.444177 0.936404 1.197864 0.024361 -0.010043 -445688.000000 0 0 1
-16.850731 -24.511367 10.936249 31.691573 0.968532 1.218468 0.022879 -0.013017 -700021.000000 0 0 1
-17.009631 -25.759787 10.001949 32.448932 0.987202 1.257457 0.027152 -0.013182 -633858.000000 0 0 1
-18.193031 -25.637907 9.287549 32.780287 0.953647 1.283535 0.031138 -0.012711 -751053.000000 0 0 1
-18.256231 -26.606877 8.244849 33.304555 0.969428 1.320636 0.051194 -0.016220 601429.000000 0 0 1
-19.504431 -26.416837 7.308749 33.640599 0.934804 1.351790 0.051328 -0.023583 618047.000000 0 0 1
-19.551731 -25.241207 6.511049 32.585004 0.911739 1.369625 0.055851 -0.025891 -254268.000000 0 0 1
-20.680731 -25.290617 5.676949 33.159248 0.885341 1.398746 0.053753 -0.028024 -105652.000000 0 0 1
-20.740431 -24.049267 4.723849 32.106814 0.859139 1.423131 0.049175 -0.022059 85187.500000 0 0 1
-21.692631 -24.031867 3.672149 32.581982 0.836513 1.457851 0.053757 -0.019788 74389.400000 0 0 1
-21.635431 -22.823567 2.906249 31.582485 0.812116 1.478645 0.050483 -0.010570 82192.300000 0 0 1
-22.203731 -22.888667 1.459149 31.922185 0.800587 1.525071 0.034641 -0.007272 65709.000000 0 0 1
-21.541531 -23.854867 0.674149 32.148821 0.836313 1.549825 0.037367 -0.014365 67619.600000 0 0 1
-21.960831 -23.723567 -0.636051 32.334042 0.823964 1.590469 0.027316 -0.014602 -231985.000000 0 0 1
-21.116331 -24.596067 -1.593551 32.456207 0.861374 1.619915 0.037329 -0.015990 -8195.060000 0 0 1
-19.756731 -24.119067 -1.673051 31.222699 0.884497 1.624406 0.039243 -0.013270 716789.000000 0 0 1
-19.001731 -24.692067 -2.717651 31.275383 0.914901 1.657800 0.039490 -0.006945 248630.000000 0 0 1
-18.766631 -26.226327 -2.673051 32.359726 0.949701 1.653495 0.048929 -0.013653 -591487.000000 0 0 1
-19.951731 -26.895087 -3.101251 33.630864 0.932541 1.663142 0.065466 -0.004435 250487.000000 0 0 1
-19.668531 -28.194477 -3.586151 34.563566 0.961681 1.674739 0.067926 0.008307 344371.000000 0 0 1
-20.814331 -28.778287 -4.466551 35.796316 0.944626 1.695899 0.069689 0.009400 362107.000000 0 0 1
-20.916431 -28.257067 -5.765551 35.625840 0.933584 1.733347 0.055303 0.012776 75528.000000 0 0 1
-22.054831 -28.844697 -6.365051 36.863885 0.918013 1.744330 0.050110 0.001309 331018.000000 0 0 1
-22.581231 -28.065017 -7.631251 36.821097 0.893254 1.779562 0.049182 0.010620 169911.000000 0 0 1
-21.522631 -28.026077 -8.581951 36.363918 0.915906 1.809046 0.074816 0.008160 369591.000000 0 0 1
-21.859331 -28.061087 -9.970051 36.941262 0.908998 1.844074 0.067588 0.006798 -337311.000000 0 0 1
-22.787031 -26.956097 -10.525051 36.832820 0.869015 1.860587 0.058146 0.021735 -293111.000000 0 0 1
-22.290431 -25.629687 -10.798251 35.641919 0.854969 1.878599 0.053128 0.021335 168656.000000 0 0 1
-21.885431 -24.945667 -9.605051 34.547292 0.850652 1.852535 0.037152 0.021851 182949.000000 0 0 1
-21.457131 -23.467967 -9.866751 33.294245 0.830128 1.871665 0.038235 0.008296 16253.100000 0 0 1
-22.637931 -22.763567 -10.133451 33.665156 0.788165 1.876545 0.040740 0.007982 -93131.000000 0 0 1
-22.385331 -21.349767 -10.262551 32.591955 0.761724 1.891126 0.041027 0.010175 -282218.000000 0 0 1
-23.573631 -20.470367 -10.632151 32.981732 0.715056 1.899023 0.043581 0.013994 -848646.000000 0 0 1
-24.083631 -20.686867 -11.913751 33.910252 0.709673 1.929790 0.016985 0.013682 2093270.000000 0 0 1
-25.366671 -19.957767 -12.163051 34.492322 0.666622 1.931177 0.018848 0.005094 1996610.000000 0 0 1
-25.326231 -18.398267 -12.102851 33.561782 0.628259 1.939723 0.025355 0.002333 -773857.000000 0 0 1
-24.502831 -17.877867 -13.143451 33.056878 0.630333 1.979697 0.026173 0.007416 370962.000000 0 0 1
-24.084831 -16.514967 -13.100351 32.006912 0.601064 1.992480 0.028706 -0.012979 671330.000000 0 0 1
-22.969231 -16.125667 -12.053351 30.543510 0.612104 1.976460 -0.000349 -0.008735 -272829.000000 0 0 1
-23.460831 -16.406567 -10.801051 30.598182 0.610268 1.931568 0.025930 -0.007446 59700.000000 0 0 1
-22.508431 -16.438667 -9.741851 29.525631 0.630795 1.907042 0.014597 -0.001137 113918.000000 0 0 1
-23.136331 -16.827367 -8.355251 29.803696 0.628823 1.854948 0.006759 -0.007276 209877.000000 0 0 1
-23.709331 -18.116067 -8.281551 30.966245 0.652458 1.841530 0.016322 0.002004 -202174.000000 0 0 1
-24.710831 -18.109167 -7.322051 31.498881 0.632430 1.805397 0.028560 0.004273 -166023.000000 0 0 1
-25.236451 -19.500467 -6.927251 32.636383 0.657878 1.784679 0.047166 0.009935 75963.600000 0 0 1
-25.524081 -20.412967 -7.977851 33.642444 0.674590 1.810214 0.034678 -0.006335 165779.000000 0 0 1
-25.652681 -21.750867 -7.511251 34.461270 0.703273 1.790522 0.041649 0.003583 -33607.200000 0 0 1
-25.670531 -22.829267 -8.593251 35.411800 0.726882 1.815910 0.023285 0.013699 93054.000000 0 0 1
-26.159021 -24.096767 -8.155151 36.489109 0.744386 1.796196 0.030874 0.009245 -268545.000000 0 0 1
-25.882081 -25.166367 -9.027851 37.211964 0.771379 1.815848 0.018434 0.026737 -26924.700000 0 0 1
-26.381011 -26.558687 -8.567151 38.402053 0.788754 1.795781 0.030977 0.021134 14003.200000 0 0 1
-25.909641 -27.050697 -7.321851 38.166205 0.806940 1.763834 0.037002 0.012701 457597.000000 0 0 1
-26.748661 -28.136767 -6.919751 39.434141 0.810684 1.747186 0.023418 0.013169 213504.000000 0 0 1
-26.286931 -28.759647 -5.618551 39.366079 0.830288 1.714011 0.021608 0.012088 -128060.000000 0 0 1
-26.347401 -27.866237 -4.555751 38.619523 0.813407 1.689037 0.015168 0.007705 236069.000000 0 0 1
-25.654921 -28.172267 -3.335451 38.248880 0.832131 1.658111 0.021255 0.001994 -48449.700000 0 0 1
-25.916151 -29.399487 -2.465951 39.269042 0.848287 1.633634 0.019118 0.009169 -343052.000000 0 0 1
-25.645581 -30.606317 -3.131351 40.053063 0.873358 1.649056 0.025187 0.009158 -1513.770000 0 0 1
-25.911981 -31.717907 -2.288551 41.020651 0.885804 1.626616 0.020132 0.006469 413431.000000 0 0 1
-24.848931 -31.937927 -1.137851 40.482036 0.909591 1.598908 0.035426 -0.006033 -15210.600000 0 0 1
-23.615331 -32.368017 -1.662651 40.101581 0.940487 1.612269 0.041421 -0.006247 -685270.000000 0 0 1
-22.620531 -32.438837 -0.698251 39.553181 0.961865 1.588451 0.055459 -0.009815 61221.400000 0 0 1
-21.639331 -31.215367 -0.590751 37.986955 0.964631 1.586348 0.066548 -0.013609 25239.300000 0 0 1
-22.197431 -30.069337 0.016949 37.375008 0.934885 1.570343 0.062179 -0.017568 -171097.000000 0 0 1
-22.097131 -28.867767 -0.718951 36.361354 0.917474 1.590570 0.060795 -0.021106 -30903.300000 0 0 1
-22.872731 -27.636687 -0.146351 35.874360 0.879438 1.574876 0.046816 -0.012589 -849544.000000 0 0 1
-24.249831 -27.824837 -0.157551 36.909358 0.853942 1.575065 0.044259 -0.013368 -468700.000000 0 0 1
-25.012631 -26.612247 0.068549 36.521885 0.816374 1.568919 0.045681 -0.023550 450013.000000 0 0 1
-24.857431 -25.763217 1.354449 35.825546 0.803290 1.532981 0.042167 -0.016937 -674595.000000 0 0 1
-25.226921 -26.412697 2.529449 36.611832 0.808357 1.501653 0.022565 -0.016626 -70807.600000 0 0 1
-24.878531 -25.713937 3.750349 35.975172 0.801909 1.466358 0.035816 -0.022198 118404.000000 0 0 1
-25.557141 -24.334667 4.037449 35.519635 0.760901 1.456882 0.050977 -0.016533 -50093.000000 0 0 1
-25.387921 -23.354167 3.033049 34.628934 0.743698 1.483097 0.052610 -0.009306 118912.000000 0 0 1
-26.306331 -22.266567 3.138949 34.607457 0.702420 1.479970 0.030467 -0.008708 -48878.000000 0 0 1
-26.077811 -21.168867 2.106849 33.654301 0.681869 1.508153 0.033770 -0.003683 -107446.000000 0 0 1
-24.934731 -20.385767 2.333549 32.291884 0.685360 1.498469 0.021377 -0.000754 -271361.000000 0 0 1
-24.785931 -19.310667 1.484249 31.455480 0.661865 1.523593 0.015834 -0.008191 94476.600000 0 0 1
-23.388431 -18.715567 1.735949 30.005077 0.674867 1.512909 0.035176 -0.004709 147234.000000 0 0 1
-22.270831 -19.449667 1.270249 29.595489 0.717880 1.527863 0.029691 -0.003621 -380650.000000 0 0 1
-21.073831 -18.857667 1.672849 28.328720 0.729956 1.511711 0.023203 0.000168 -870958.000000 0 0 1
-19.906131 -19.778267 1.368349 28.094595 0.782176 1.522072 0.017806 -0.002866 -850748.000000 0 0 1
-19.619431 -19.835467 -0.029651 27.899260 0.790874 1.571859 -0.005416 0.001456 -95871.300000 0 0 1
-18.735731 -20.895067 -0.255051 28.065931 0.839831 1.579884 0.019076 0.006315 -179173.000000 0 0 1
-18.501231 -21.099267 -1.694551 28.113095 0.850910 1.631109 0.032702 -0.002133 -18861.900000 0 0 1
-17.899731 -20.045867 -2.435051 26.984563 0.841896 1.661158 0.025941 0.002097 33990.200000 0 0 1
-17.818531 -20.406967 -3.815351 27.358751 0.853010 1.710709 0.038857 0.002366 351342.000000 0 0 1
-16.925731 -19.468767 -4.706351 26.223329 0.855159 1.751246 0.037892 0.010753 69755.600000 0 0 1
-15.545831 -19.549567 -4.521151 25.383050 0.898989 1.749869 0.046452 0.010464 -575048.000000 0 0 1
-14.833731 -18.851767 -5.480051 24.606090 0.904118 1.795391 0.053593 0.007499 -302404.000000 0 1 0
-13.311031 -18.703367 -5.393651 23.581581 0.952267 1.801562 0.063022 -0.001557 -168746.000000 0 1 0
-12.614231 -19.895667 -5.666751 24.229496 1.005738 1.806861 0.057482 -0.004727 49754.100000 0 1 0
-11.220331 -19.577567 -5.659251 23.263793 1.050375 1.816526 0.049690 -0.009931 942824.000000 0 1 0
-10.234831 -20.753267 -5.878251 23.874750 1.112630 1.819566 0.040596 -0.013070 351821.000000 0 1 0
-10.467131 -21.389767 -7.127751 24.857349 1.115703 1.861625 0.050843 -0.017828 -371889.000000 0 1 0
-9.383031 -22.226467 -7.456551 25.251876 1.171337 1.870552 0.044548 -0.010476 -197822.000000 0 0 1
-9.701531 -23.364467 -8.499251 26.688111 1.177233 1.894907 0.053517 -0.011930 -218543.000000 0 0 1
-9.922631 -22.910267 -9.788851 26.817169 1.162078 1.944453 0.054220 -0.017497 22766.500000 0 0 1
-10.603531 -23.979967 -10.467451 28.231918 1.154462 1.950631 0.055732 -0.019858 733483.000000 0 0 1
-11.435331 -23.427967 -11.706251 28.577487 1.116709 1.992847 0.081020 -0.029311 1135400.000000 0 0 1
-10.541531 -23.074367 -12.786851 28.408693 1.142260 2.037678 0.074519 -0.019594 1176310.000000 0 0 1
-11.383031 -22.312367 -13.679451 28.540191 1.099048 2.070659 0.080174 -0.032867 515712.000000 0 0 1
-10.761431 -20.999367 -14.216751 27.548100 1.097227 2.113053 0.066225 -0.028574 -133335.000000 0 0 1
-10.464131 -20.059767 -13.213651 26.201009 1.089981 2.099389 0.075246 -0.035945 -415715.000000 0 0 1
-10.184831 -18.779167 -13.743451 25.402172 1.073847 2.142463 0.068917 -0.025531 -328453.000000 0 0 1
-9.790331 -17.651167 -12.761451 23.880304 1.064385 2.134585 0.060997 -0.015885 -783089.000000 0 1 0
-10.816831 -17.179967 -11.939351 23.552138 1.008882 2.102419 0.049964 -0.024674 -576803.000000 0 1 0
-10.594231 -16.041367 -11.156951 22.227027 0.987123 2.096653 0.049672 -0.031105 -149219.000000 0 1 0
-10.484131 -14.722167 -11.984751 21.686250 0.951974 2.156328 0.058157 -0.013732 378252.000000 0 1 0
-11.706031 -14.253967 -12.559151 22.314547 0.883233 2.168594 0.057265 -0.002873 62158.600000 0 1 0
-11.605831 -13.799967 -13.865051 22.745858 0.871548 2.226307 0.066714 -0.016504 -972869.000000 0 1 0
-12.868231 -13.368867 -14.574851 23.595429 0.804477 2.236609 0.062634 -0.009772 -899384.000000 0 1 0
-13.315031 -12.170067 -14.070151 22.877275 0.740502 2.233217 0.059977 0.002390 -200612.000000 0 1 0
-14.050531 -11.384867 -14.995651 23.492598 0.680978 2.263102 0.024605 0.010506 -110660.000000 0 1 0
-14.352731 -9.894367 -14.570851 22.720235 0.603557 2.267009 0.017226 0.001847 -470566.000000 0 1 0
-13.244631 -9.065467 -14.515351 21.640202 0.600223 2.306027 0.025185 0.009642 -276696.000000 0 1 0
-13.339631 -8.116467 -15.568551 22.050001 0.546608 2.354711 0.030233 0.002737 339879.000000 0 1 0
-12.142431 -7.095267 -15.571351 20.982097 0.528823 2.407032 0.024517 0.005772 -26361.800000 0 1 0
-10.959931 -7.740867 -15.893851 20.800375 0.614934 2.440463 0.029623 0.010988 -391004.000000 0 1 0
-9.829331 -6.877867 -15.827151 19.859998 0.610544 2.493002 0.014155 0.020358 420452.000000 0 1 0
11.410569 21.492833 16.264549 29.269071 1.082735 0.981603 0.046031 -0.004832 -647305.000000 0 0 1
12.412069 21.691933 17.206449 30.342401 1.051071 0.967845 0.052257 -0.015316 -347565.000000 0 0 1
13.154669 20.470233 17.355949 29.888204 0.999624 0.951213 0.047010 -0.014615 -245880.000000 0 0 1
14.246069 20.578033 18.403649 31.066062 0.965260 0.936757 0.058323 -0.017456 -745903.000000 0 0 1
15.298569 21.390733 18.003149 31.870410 0.949944 0.970501 0.046845 -0.013660 -781392.000000 0 0 1
16.405269 21.173933 18.828349 32.741030 0.911620 0.958108 0.048865 -0.010581 -574000.000000 0 0 1
17.761869 21.664433 18.352149 33.490790 0.884061 0.990854 0.034950 -0.003908 -1210790.000000 0 0 1
17.983069 23.031033 18.671049 34.676034 0.907861 1.002209 0.032117 -0.001362 163986.000000 0 0 1
19.212869 23.561233 18.206949 35.436691 0.886709 1.031202 0.032488 0.003131 1062000.000000 0 0 1
20.595769 23.022633 18.735949 36.128425 0.840979 1.025592 0.045698 -0.004453 228178.000000 0 0 1
20.863369 21.735833 18.258549 35.229267 0.805876 1.025960 0.035299 0.003369 -169257.000000 0 0 1
22.097369 21.392333 18.846049 36.070753 0.769188 1.021046 0.039874 -0.000934 -182594.000000 0 0 1
22.342669 19.862433 18.814249 35.322614 0.726699 1.009079 0.035576 0.001340 -83154.700000 0 0 1
22.423269 19.264033 17.475349 34.340847 0.709759 1.036914 0.031621 0.011553 -35132.500000 0 0 1
22.303769 17.828533 17.531849 33.506424 0.674345 1.020150 0.032572 0.001571 364828.000000 0 0 1
23.479869 16.926433 18.064349 34.119336 0.624610 1.012849 0.017354 0.009047 1062870.000000 0 0 1
24.689669 17.008333 17.289449 34.609077 0.603227 1.047701 0.034243 0.002410 787721.000000 0 0 1
25.590969 15.970633 17.662049 34.955783 0.557932 1.041103 0.023238 0.003806 751641.000000 0 0 1
26.931169 15.876233 16.858049 35.518115 0.532672 1.076250 0.034875 -0.006331 -136180.000000 0 0 1
27.895769 16.866633 17.143849 36.831628 0.543817 1.086636 0.032573 -0.008519 728199.000000 0 0 1
29.280869 16.569433 17.139449 37.758127 0.514953 1.099628 0.056265 -0.013027 632553.000000 0 0 1
29.942769 15.554233 16.205249 37.431453 0.479098 1.123054 0.057344 -0.019032 -928521.000000 0 0 1
29.700669 15.934233 14.888049 36.846757 0.492415 1.154853 0.065023 -0.017274 24918.400000 0 0 1
30.024869 14.827733 14.030249 36.307056 0.458714 1.174035 0.084023 -0.021720 -27168.700000 0 0 1
29.365369 14.916133 12.653349 35.283469 0.469987 1.204007 0.069816 -0.008500 -509905.000000 0 0 1
29.843369 15.939833 11.813549 35.836642 0.490567 1.234863 0.077289 -0.010680 367590.000000 0 0 1
29.036269 16.258933 10.647649 34.940381 0.510452 1.261133 0.069119 -0.003249 -104257.000000 0 0 1
27.698569 16.931033 10.922649 34.251640 0.548658 1.246234 0.056504 -0.004392 -863560.000000 0 0 1
27.615869 18.320133 11.143749 34.963504 0.585732 1.246412 0.057939 -0.002405 2771.570000 0 0 1
27.991069 18.818633 12.461549 35.957351 0.591898 1.216890 0.052822 -0.004170 -196255.000000 0 0 1
27.232369 18.393133 13.765849 35.628751 0.594034 1.174105 0.044771 -0.012365 -205563.000000 0 0 1
25.940769 18.958933 13.799749 34.968525 0.631135 1.165127 0.048226 -0.002501 -152534.000000 0 0 1
25.420969 18.971433 15.105149 35.132698 0.641123 1.126364 0.053096 -0.007569 -125777.000000 0 0 1
26.096269 19.980133 16.108949 36.602175 0.653431 1.115076 0.039115 -0.001660 -50419.700000 0 0 1
26.101769 21.363933 15.773349 37.235984 0.685912 1.133375 0.024134 0.002543 -315049.000000 0 0 1
24.850469 21.911033 16.074249 36.824186 0.722621 1.119077 0.034767 0.000855 -548019.000000 0 0 1
24.714469 23.433033 16.041649 37.646335 0.758790 1.130603 0.022793 0.003321 -56078.700000 0 0 1
24.588369 23.809633 14.682249 37.243187 0.769309 1.165570 0.037148 -0.007233 -42380.200000 0 0 1
24.695769 25.229533 14.395349 38.126584 0.796089 1.183629 0.029488 -0.005880 -288809.000000 0 0 1
24.307269 25.635633 12.931149 37.619724 0.811990 1.219907 0.039353 -0.012943 183106.000000 0 0 1
22.910069 25.785533 12.715049 36.761902 0.844379 1.217624 0.036318 -0.002269 19365.500000 0 0 1
22.585169 26.007833 11.373849 36.274808 0.855717 1.251870 0.027668 -0.021442 -177012.000000 0 0 1
21.974769 24.740933 10.731649 34.787534 0.844542 1.257190 0.037732 -0.021343 -453230.000000 0 0 1
20.651869 24.416933 11.138949 33.863882 0.868745 1.235623 0.043989 -0.022843 -10231.700000 0 0 1
20.299169 23.054733 10.965949 32.616392 0.848873 1.227907 0.045585 -0.015621 -41782.400000 0 0 1
20.115569 22.524233 9.517549 31.663243 0.841827 1.265489 0.031610 -0.009299 342577.000000 0 0 1
18.947969 22.929433 8.757649 31.007755 0.880188 1.284466 0.008869 -0.004234 947851.000000 0 0 1
19.391969 23.304033 7.493049 31.229348 0.876769 1.328496 0.009208 -0.016604 -1134.090000 0 0 1
18.285569 23.824633 6.554449 30.739811 0.916185 1.355923 0.004329 -0.011290 -1346040.000000 0 0 1
17.302369 22.858733 6.304949 29.353808 0.922877 1.354318 0.017737 0.002262 -47587.500000 0 0 1
16.352769 23.133633 5.295949 28.820567 0.955466 1.385990 0.039543 -0.012750 1118710.000000 0 0 1
15.253169 24.240633 5.604049 29.183434 1.009154 1.377568 0.018569 -0.012898 19733.700000 0 0 1
15.990469 25.365833 5.888049 30.557973 1.008328 1.376899 0.017215 -0.016572 -357281.000000 0 0 1
15.185569 26.375633 6.440449 31.108759 1.048404 1.362258 0.006665 -0.021018 -211575.000000 0 0 1
15.008569 27.563333 5.427449 31.850458 1.072176 1.399557 0.012403 -0.015021 -601288.000000 0 0 1
14.006869 27.332533 4.458949 31.034529 1.097229 1.426620 0.025779 0.004321 412543.000000 0 0 1
13.723569 28.487433 3.669649 31.832947 1.121862 1.455261 0.028940 0.002672 -141649.000000 0 0 1
13.013369 28.174233 2.382349 31.125725 1.138100 1.494182 0.033834 0.010949 -588439.000000 0 0 1
13.879169 27.427633 1.591049 30.780478 1.102337 1.519083 0.060123 -0.000497 162628.000000 0 0 1
13.287069 26.733733 0.513249 29.858033 1.109539 1.553606 0.036373 0.008581 -317222.000000 0 0 1
14.412769 26.272433 -0.398551 29.968775 1.069037 1.584096 0.031756 -0.001278 85523.600000 0 0 1
14.927069 27.167933 -1.361251 31.028487 1.068385 1.614681 0.049876 -0.000440 -353934.000000 0 0 1
15.905969 26.615833 -2.185451 31.083414 1.032134 1.641164 0.053229 -0.005520 -318537.000000 0 0 1
15.835469 27.298533 -3.646751 31.769022 1.045149 1.685839 0.056315 -0.013700 -395666.000000 0 0 1
14.812669 26.773833 -4.431351 30.917473 1.065460 1.714620 0.083586 -0.019297 -431519.000000 0 0 1
14.895769 27.420333 -5.721151 31.725229 1.073159 1.752123 0.079346 -0.012971 1047910.000000 0 0 1
13.564969 27.239833 -6.555351 31.128596 1.108764 1.782974 0.104592 -0.036703 913376.000000 0 0 1
13.408969 25.960633 -7.065551 30.061220 1.094027 1.808055 0.090448 -0.027707 649886.000000 0 0 1
12.165569 25.795033 -7.787451 29.563985 1.130106 1.837352 0.068287 -0.034059 1014990.000000 0 0 1
11.726869 24.356933 -8.020651 28.197703 1.122091 1.859222 0.068771 -0.017558 19006.200000 0 0 1
12.193569 23.888233 -9.296651 28.385886 1.098830 1.904463 0.058349 -0.018846 -11905.500000 0 0 1
11.844869 22.565933 -9.475751 27.190294 1.087427 1.926764 0.060681 -0.011981 -250183.000000 0 0 1
12.470069 22.059133 -10.772851 27.534747 1.056281 1.972781 0.052466 -0.006773 -127949.000000 0 0 1
12.312869 20.672033 -10.943851 26.433077 1.033597 1.997663 0.061169 -0.011585 -209935.000000 0 0 1
12.154269 20.291133 -12.305351 26.662295 1.031117 2.050511 0.051066 -0.014156 847996.000000 0 0 1
13.490469 19.874133 -13.043851 27.333422 0.974444 2.068276 0.037974 0.003275 547285.000000 0 0 1
14.471469 20.861733 -13.149051 28.592531 0.964321 2.048653 0.029383 -0.005466 -426666.000000 0 0 1
15.574069 20.227733 -13.802551 29.021082 0.914658 2.066447 0.018750 0.003206 432948.000000 0 0 1
16.873569 21.072033 -13.689751 30.268088 0.895594 2.040120 0.026398 0.002992 -15433.000000 0 0 1
17.045169 22.270533 -14.494151 31.568890 0.917532 2.047809 0.031319 -0.004801 184926.000000 0 0 1
16.073969 23.325933 -14.280351 31.723809 0.967421 2.037725 0.031964 -0.003119 574064.000000 0 0 1
16.497869 24.688533 -14.917651 33.230102 0.981705 2.036352 0.043374 -0.005358 9871.110000 0 0 1
16.648369 24.778533 -16.320751 34.022210 0.979188 2.071119 0.030328 -0.004515 -22154.200000 0 0 1
15.423869 24.716733 -17.041651 33.752489 1.012898 2.100063 0.025228 0.001501 -185528.000000 0 0 1
15.534769 24.708033 -18.590851 34.603984 1.009517 2.137965 0.018852 -0.002027 -88874.600000 0 0 1
16.109269 23.532033 -19.083551 34.313948 0.970503 2.160537 0.012992 0.005569 -107290.000000 0 0 1
15.979869 23.474933 -20.505151 35.026988 0.973127 2.196182 0.009201 0.017495 -232839.000000 0 0 1
16.359969 22.141533 -21.151851 34.717386 0.934449 2.225921 0.016460 0.021894 271290.000000 0 0 1
15.479469 21.002033 -20.929951 33.447903 0.935637 2.246886 0.026368 0.016827 549065.000000 0 0 1
15.879269 19.892933 -21.737751 33.472523 0.897132 2.277619 0.024773 0.015751 -465869.000000 0 0 1
14.847669 18.810033 -21.707151 32.333744 0.902584 2.306821 0.028309 0.008624 -1205140.000000 0 0 1
14.782369 18.128033 -20.481151 31.090538 0.886710 2.289964 0.026973 0.002324 317356.000000 0 0 1
13.999969 16.918133 -20.557751 30.080616 0.879503 2.323236 0.035147 -0.007803 1192120.000000 0 0 1
12.448969 17.059733 -20.780851 29.628619 0.940396 2.348125 0.055686 -0.012420 359334.000000 0 0 1
11.590069 17.252833 -19.688251 28.628957 0.979264 2.329118 0.043673 -0.012641 -132067.000000 0 0 1
10.299869 17.607433 -20.135351 28.662543 1.041500 2.349696 0.046513 -0.011466 841697.000000 0 0 1
9.094369 17.199033 -19.203151 27.336336 1.084397 2.349668 0.051505 -0.015446 85117.300000 0 0 1
8.755969 15.802833 -19.243751 26.395425 1.064829 2.387738 0.053710 -0.025205 900359.000000 0 0 1
7.480369 15.398233 -18.683751 25.340561 1.118578 2.399870 0.056656 -0.023798 1213650.000000 0 0 1
7.291669 15.675533 -17.189251 24.379522 1.135405 2.353317 0.059650 -0.021693 -289973.000000 0 1 0
7.059769 17.034133 -16.956351 25.050346 1.177897 2.314327 0.072968 -0.021514 -541621.000000 0 0 1
6.547669 17.129833 -15.689751 24.134445 1.205695 2.278510 0.054040 -0.026048 -225274.000000 0 1 0
6.263169 18.556133 -15.215551 24.800612 1.245278 2.231301 0.056292 -0.028398 -758375.000000 0 1 0
7.428069 19.260833 -14.969051 25.499576 1.202716 2.198183 0.048680 -0.021047 -596846.000000 0 0 1
8.006369 20.017233 -16.006251 26.851287 1.190313 2.209441 0.060068 -0.018133 -369220.000000 0 0 1
9.337269 20.697133 -15.700651 27.605549 1.146996 2.175781 0.042490 -0.005653 -477058.000000 0 0 1
9.328769 21.886233 -14.919451 28.082435 1.167877 2.130899 0.052183 -0.011748 -301917.000000 0 0 1
8.847169 21.790733 -13.597651 27.166239 1.185123 2.095013 0.039337 -0.015573 -244747.000000 0 0 1
8.474469 23.091433 -12.899951 27.774802 1.219061 2.053808 0.054123 -0.016727 317272.000000 0 0 1
7.184169 23.547033 -13.331451 27.996475 1.274668 2.067105 0.045019 -0.014043 395489.000000 0 0 1
6.584669 24.593533 -12.614751 28.413582 1.309192 2.030820 0.031523 -0.014795 276863.000000 0 0 1
5.890469 24.230633 -11.234051 27.350048 1.332322 1.994074 0.019707 -0.006773 233408.000000 0 0 1
6.796369 23.669433 -10.298551 26.692561 1.291182 1.966894 0.014109 -0.005778 438340.000000 0 0 1
5.991069 23.098933 -9.262851 25.597930 1.317023 1.941058 0.019124 -0.012347 807625.000000 0 0 1
6.820569 22.892333 -7.962651 25.179017 1.281229 1.892561 0.001648 -0.018713 312810.000000 0 0 1
7.159269 24.148333 -7.371651 26.243825 1.282581 1.855519 0.005611 -0.015169 -325564.000000 0 0 1
8.169169 23.968533 -6.438651 26.128186 1.242315 1.819787 0.024067 -0.010119 -438809.000000 0 0 1
8.403569 25.213033 -5.541351 27.148178 1.249073 1.776356 0.025795 -0.011302 -158187.000000 0 0 1
8.966169 26.273833 -6.275251 28.461997 1.241930 1.793101 0.049563 -0.021877 80265.000000 0 0 1
9.250169 27.296133 -5.314051 29.306717 1.244060 1.753130 0.040158 -0.016072 48051.800000 0 0 1
9.443869 28.584033 -6.108451 30.717207 1.251697 1.770992 0.045670 -0.017024 -59973.200000 0 0 1
10.649969 28.708233 -6.808951 31.367918 1.215561 1.789606 0.056787 -0.022218 -594959.000000 0 0 1
10.622669 29.857633 -7.599251 32.589384 1.228984 1.806145 0.054445 -0.014041 421429.000000 0 0 1
11.956069 30.207533 -8.350651 33.543643 1.193918 1.822391 0.053160 -0.014985 1444720.000000 0 0 1
13.058669 30.485733 -7.429751 33.986909 1.166089 1.791182 0.055183 -0.014310 -212884.000000 0 0 1
14.021369 31.094733 -8.204551 35.082700 1.147174 1.806845 0.047345 -0.010709 -583394.000000 0 0 1
15.310669 31.450833 -7.446451 35.763405 1.117754 1.780545 0.042991 -0.009063 222089.000000 0 0 1
16.227669 30.393733 -7.221451 35.203204 1.080386 1.777399 0.049653 -0.009704 74455.900000 0 0 1
17.461669 30.822533 -6.676151 36.048709 1.055356 1.757070 0.045751 -0.002985 490848.000000 0 0 1
18.485069 29.677233 -6.478051 35.558418 1.013730 1.754000 0.043330 -0.007287 24222.500000 0 0 1
18.122569 28.763733 -5.472051 34.434331 1.008574 1.730386 0.049911 -0.007900 729061.000000 0 0 1
19.274069 27.961233 -5.135351 34.346646 0.967278 1.720874 0.035264 -0.004211 644249.000000 0 0 1
19.573269 26.717233 -6.036451 33.665444 0.938519 1.751078 0.037998 0.003572 -79196.700000 0 0 1
20.127969 27.040233 -7.320651 34.494945 0.930907 1.784646 0.025484 0.005547 355326.000000 0 0 1
20.064369 25.965733 -8.241151 33.833634 0.912909 1.816850 0.025511 -0.001004 -759591.000000 0 0 1
20.759269 26.348633 -9.596751 34.889760 0.903496 1.849448 0.025190 -0.003008 -794896.000000 0 0 1
22.130469 26.443033 -9.670951 35.812274 0.873950 1.844237 0.003586 -0.001687 -816909.000000 0 0 1
22.764869 25.139533 -9.616951 35.252250 0.834929 1.847103 0.019985 -0.005239 -934829.000000 0 0 1
24.279769 25.231233 -9.586151 36.304498 0.804613 1.838014 0.008877 -0.000391 -183420.000000 0 0 1
24.990369 25.693233 -10.760651 37.422618 0.799265 1.862458 0.022287 -0.001143 40003.500000 0 0 1
26.383369 25.725033 -10.613451 38.347162 0.772765 1.851230 0.021759 0.006036 -482801.000000 0 0 1
27.110469 25.989233 -11.898051 39.395195 0.764286 1.877605 0.014985 -0.000606 -244728.000000 0 0 1
26.727269 27.175133 -12.558451 40.131651 0.793707 1.889074 0.019296 0.005753 -51340.200000 0 0 1
27.370869 27.278733 -13.800951 41.033645 0.783712 1.913816 0.008014 0.009718 -70567.000000 0 0 1
26.933269 28.539233 -14.542051 41.849254 0.814341 1.925686 0.004818 0.004278 164410.000000 0 0 1
27.610769 29.756933 -14.133551 42.983565 0.822791 1.905843 0.021436 -0.006772 319918.000000 0 0 1
27.533169 30.693933 -15.218551 43.952215 0.839628 1.924370 0.023186 0.006431 50951.200000 0 0 1
27.962369 32.182933 -14.871651 45.153087 0.855456 1.906423 0.019895 -0.006293 146108.000000 0 0 1
29.337669 32.346033 -14.596351 46.043655 0.834130 1.893373 0.017839 -0.006464 109298.000000 0 0 1
29.643969 33.689733 -14.470051 47.150243 0.849192 1.882722 0.015728 -0.019927 -135800.000000 0 0 1
15.334169 -32.585413 -29.035470 46.260181 -1.130957 2.249335 0.068680 -0.030240 -182756.000000 0 0 1
16.308069 -33.316013 -28.343320 46.682477 -1.115587 2.223267 0.045828 -0.021717 27152.900000 0 0 1
16.531369 -32.641213 -27.080130 45.519978 -1.101997 2.207946 0.051239 -0.025215 97234.200000 0 0 1
17.813069 -33.073313 -26.286140 45.848780 -1.076753 2.181352 0.009139 -0.010470 1246770.000000 0 0 1
19.088869 -32.605113 -26.740230 46.287344 -1.041139 2.186705 0.005442 -0.015564 667731.000000 0 0 1
19.689069 -33.289913 -27.809050 47.636341 -1.036693 2.194171 0.010484 -0.015535 -886152.000000 0 0 1
21.192769 -33.059713 -27.841880 48.137806 -1.000742 2.187536 0.009987 -0.013054 -653100.000000 0 0 1
21.629369 -31.743913 -28.033590 47.554051 -0.972683 2.201248 0.009933 -0.020646 -414903.000000 0 0 1
23.013269 -31.697813 -27.784020 48.024095 -0.942819 2.187738 -0.003554 -0.007598 -501335.000000 0 0 1
23.663269 -30.450813 -28.443330 47.918945 -0.910177 2.206286 -0.018875 0.001298 -368876.000000 0 0 1
23.707869 -30.584713 -29.843310 48.868301 -0.911390 2.227726 -0.029515 -0.001800 5745.410000 0 0 1
24.398169 -29.458613 -30.332870 48.817656 -0.879084 2.241261 -0.028805 -0.003811 20085.900000 0 0 1
24.453769 -29.510713 -31.892520 49.859822 -0.878834 2.264831 -0.022253 -0.008218 235763.000000 0 0 1
25.415069 -30.460413 -32.319880 51.169690 -0.875450 2.254439 -0.013008 -0.006096 -189800.000000 0 0 1
25.414869 -30.735413 -33.751800 52.247155 -0.879872 2.273132 -0.005986 -0.011118 -341037.000000 0 0 1
26.642369 -31.477813 -34.294140 53.635404 -0.868404 2.264506 -0.004431 -0.019806 -1142020.000000 0 0 1
27.756969 -30.686813 34.285908 53.736890 -0.835487 0.878855 0.011403 -0.027132 -1353520.000000 0 0 1
28.741569 -31.310613 33.501067 54.117961 -0.828152 0.903279 0.024027 -0.013737 283672.000000 0 0 1
30.143269 -30.632313 33.608178 54.556987 -0.793445 0.907117 0.039160 -0.021698 512491.000000 0 0 1
30.133869 -29.292113 33.030985 53.452071 -0.771234 0.904657 0.038955 -0.023778 -16440.800000 0 0 1
31.455269 -28.920013 32.695953 53.803591 -0.743431 0.917647 0.043843 -0.026732 72026.200000 0 0 1
31.661769 -27.557213 32.031589 52.800476 -0.716197 0.918952 0.039438 -0.029010 -718029.000000 0 0 1
32.854769 -27.517013 31.330629 53.087006 -0.697213 0.939521 0.039662 -0.024532 -462045.000000 0 0 1
32.958969 -26.384313 30.441809 52.049297 -0.675058 0.946083 0.037163 -0.022455 -244576.000000 0 0 1
33.675669 -26.782413 29.150219 51.971950 -0.671871 0.975344 0.040031 -0.016046 110520.000000 0 0 1
32.993469 -27.767113 28.327659 51.594940 -0.699594 0.989582 0.029459 -0.025952 600278.000000 0 0 1
31.936369 -27.218513 27.560379 50.203123 -0.705812 0.989656 0.034665 -0.028029 81055.400000 0 0 1
31.337469 -28.226913 26.530479 49.826317 -0.733224 1.009293 0.025541 -0.025463 974637.000000 0 0 1
30.099969 -27.729713 25.952699 48.461198 -0.744434 1.005654 0.027264 -0.018577 747703.000000 0 0 1
29.623869 -28.759013 25.166019 48.352693 -0.770586 1.023398 0.016705 -0.004675 -685970.000000 0 0 1
28.198069 -28.538913 24.674779 47.100375 -0.791406 1.019401 0.020592 0.000118 -382986.000000 0 0 1
27.182869 -28.472513 25.655529 46.987217 -0.808566 0.993201 0.026611 -0.001166 -237563.000000 0 0 1
25.945469 -28.245113 25.022939 45.794118 -0.827809 0.992710 0.035397 0.008246 116960.000000 0 0 1
24.755369 -28.210113 26.005179 45.660794 -0.850532 0.964863 0.036018 0.005619 132954.000000 0 0 1
24.802669 -27.105513 26.874589 45.520597 -0.829733 0.939263 0.032378 -0.002069 147343.000000 0 0 1
23.521369 -26.972613 27.460099 45.109131 -0.853642 0.916315 0.025852 -0.007646 13863.000000 0 0 1
23.364669 -25.827713 28.511499 45.009822 -0.835426 0.884792 0.022131 -0.002131 -367244.000000 0 0 1
22.054969 -25.586813 28.970649 44.501743 -0.859396 0.861895 0.030392 0.000757 -85679.300000 0 0 1
22.016869 -24.551613 29.941259 44.542151 -0.839775 0.833619 0.026030 -0.000636 -185797.000000 0 0 1
21.665069 -23.156713 29.390579 43.236729 -0.818665 0.823362 0.036594 -0.008615 -610154.000000 0 0 1
22.611469 -22.639413 28.480719 42.836584 -0.786016 0.843478 0.043568 -0.008263 32392.000000 0 0 1
22.440269 -21.287413 28.169039 41.835564 -0.759040 0.832096 0.054614 0.000402 -60267.900000 0 0 1
23.198669 -20.268013 29.043879 42.338133 -0.718077 0.814822 0.047941 -0.002444 -414258.000000 0 0 1
22.629069 -20.175613 30.315439 42.873721 -0.728143 0.785427 0.049661 -0.000899 -123653.000000 0 0 1
23.249269 -19.212013 31.124919 43.340403 -0.690602 0.769656 0.044556 -0.007826 -195510.000000 0 0 1
22.566469 -18.925313 32.468309 43.836105 -0.697866 0.736722 0.048339 -0.012830 -20280.500000 0 0 1
23.070669 -19.801213 33.429613 45.187198 -0.709284 0.738019 0.038932 -0.010082 302659.000000 0 0 1
22.431669 -19.519513 -33.948700 45.129872 -0.716092 2.422258 0.042197 -0.009860 110042.000000 0 0 1
22.257969 -20.750713 -33.030450 44.911245 -0.750367 2.397143 0.026800 -0.002563 284189.000000 0 0 1
23.492369 -20.949413 -32.369730 45.150512 -0.728241 2.370184 0.020591 -0.000143 154371.000000 0 0 1
23.365669 -22.090813 -31.583570 45.071947 -0.757360 2.347226 0.006694 0.003941 374063.000000 0 0 1
24.502869 -22.370513 -30.541220 45.095416 -0.739938 2.314825 -0.003842 0.004922 428897.000000 0 0 1
25.699469 -22.859313 -31.107410 46.375444 -0.726976 2.306047 0.000496 0.005017 -342979.000000 0 0 1
26.522969 -23.412213 -30.086110 46.441077 -0.723183 2.275534 -0.002881 0.002206 -45087.300000 0 0 1
27.587869 -24.354213 -30.723800 47.939233 -0.723223 2.266454 -0.006037 0.005501 67756.200000 0 0 1
28.606369 -23.631313 -31.401070 48.608543 -0.690446 2.273128 0.006532 0.006062 56367.100000 0 0 1
28.425369 -23.532513 -32.809910 49.378851 -0.691505 2.297558 0.008810 0.004293 -180942.000000 0 0 1
28.667969 -24.820213 -33.663380 50.706198 -0.713585 2.296806 0.007422 -0.004347 -226185.000000 0 0 1
27.803069 -25.875613 -33.269580 50.491811 -0.749506 2.290166 0.011746 -0.010051 -94179.500000 0 0 1
27.942169 -27.085413 -33.892240 51.604925 -0.769830 2.287315 0.014788 -0.015680 -53243.600000 0 0 1
27.384069 -27.254813 33.275485 50.989901 -0.783033 0.859799 0.012162 -0.010408 -24647.100000 0 0 1
28.095669 -26.488713 32.315469 50.351843 -0.755967 0.873962 0.015009 -0.011060 -52442.600000 0 0 1
27.582069 -26.627813 31.015939 49.313278 -0.767797 0.890585 0.003241 -0.011783 -119264.000000 0 0 1
28.562769 -26.026913 29.914849 48.868499 -0.738979 0.912020 0.015573 -0.017193 490079.000000 0 0 1
28.641069 -24.578713 29.801289 48.088884 -0.709214 0.902420 -0.003043 -0.018821 79553.900000 0 0 1
29.174769 -23.971213 30.971179 48.836463 -0.687799 0.883847 0.000688 -0.010115 -1178270.000000 0 0 1
29.745669 -22.561313 30.695739 48.332660 -0.648902 0.882667 0.002302 -0.003852 1963130.000000 0 0 1
31.111669 -22.498413 30.174629 48.832600 -0.626095 0.904702 0.015789 -0.004238 1233230.000000 0 0 1
32.164569 -22.895613 30.983889 50.187349 -0.618620 0.905408 0.016256 -0.009958 -1376810.000000 0 0 1
33.526869 -22.355213 30.625959 50.613791 -0.588085 0.920916 0.018739 -0.013647 -868534.000000 0 0 1
34.122169 -22.830413 29.471149 50.538093 -0.589671 0.948199 0.027806 -0.019159 330039.000000 0 0 1
35.404969 -22.253313 29.270779 51.044101 -0.561138 0.960096 0.011250 -0.017602 497599.000000 0 0 1
-35.687622 -22.639413 27.894559 50.638481 0.565314 0.987406 0.017361 -0.018018 60402.200000 0 0 1
-35.574522 -24.029313 27.689319 51.084762 0.594068 0.997949 0.020289 -0.015838 338539.000000 0 0 1
-35.046622 -24.282713 26.389319 50.142916 0.605924 1.016574 0.008099 -0.004360 -417726.000000 0 0 1
-34.945622 -25.836013 26.023009 50.654645 0.636631 1.031265 0.007418 -0.009655 427345.000000 0 0 1
35.545969 -26.496913 25.783989 51.287585 -0.640568 1.044038 0.016540 -0.015287 786860.000000 0 0 1
35.705269 -27.858213 25.448259 51.947667 -0.662567 1.058841 0.009383 -0.013636 169416.000000 0 0 1
-35.405422 -28.828313 26.492389 52.786951 0.683360 1.045032 0.018906 -0.017555 -639601.000000 0 0 1
-35.128022 -30.138013 25.964499 53.070076 0.709090 1.059567 0.023700 -0.018937 439499.000000 0 0 1
-34.130322 -30.864113 26.683619 53.192931 0.735187 1.045305 0.027801 -0.020671 139971.000000 0 0 1
-32.685022 -30.366813 26.574239 51.929223 0.748648 1.033588 0.033169 -0.018518 -1127160.000000 0 0 1
-32.302222 -30.262813 25.245309 50.956815 0.752813 1.052472 0.028498 -0.019006 -541399.000000 0 0 1
-31.095722 -29.594913 25.064469 49.709460 0.760674 1.042319 0.015156 -0.015530 -436306.000000 0 0 1
-30.876422 -29.363713 23.569439 48.693937 0.760292 1.065539 0.009794 -0.007903 -264818.000000 0 0 1
-30.786322 -30.596313 22.869549 49.060659 0.782303 1.085864 0.018974 -0.009110 411575.000000 0 0 1
-30.230222 -30.615713 21.574149 48.131404 0.791734 1.106007 0.017617 -0.010975 -577971.000000 0 0 1
-30.176722 -32.074013 20.978349 48.779791 0.815867 1.126235 0.030032 -0.007755 515035.000000 0 0 1
-29.193322 -32.979213 21.517849 49.019347 0.846216 1.116348 0.041310 -0.018181 1008680.000000 0 0 1
-27.828322 -32.694113 21.210449 47.887406 0.865622 1.111940 0.051087 -0.015399 143835.000000 0 0 1
-26.934822 -33.922813 21.251149 48.247831 0.899723 1.114687 0.047417 -0.009715 -527376.000000 0 0 1
-27.059822 33.967433 20.117249 47.861510 -0.898107 1.136996 0.042371 -0.014960 52395.200000 0 0 1
-28.149522 33.068633 20.023249 47.821131 -0.865580 1.138771 0.050388 -0.015410 -23365.800000 0 0 1
-28.233722 31.940933 21.075649 47.555749 -0.846928 1.111656 0.054521 -0.010119 -221185.000000 0 0 1
-27.188022 31.006033 21.045949 46.297890 -0.850913 1.098899 0.041274 -0.012287 -195113.000000 0 0 1
-27.180822 30.114133 22.138649 46.214477 -0.836550 1.071234 0.046554 -0.017174 -186169.000000 0 0 1
-26.297622 28.887433 21.850649 44.760469 -0.832293 1.060806 0.044864 -0.014835 -26432.400000 0 0 1
-24.953922 29.266133 21.663949 44.142173 -0.864763 1.057815 0.043475 -0.007422 -181533.000000 0 0 1
-24.182122 28.171733 21.196349 42.751687 -0.861456 1.052039 0.035348 -0.012519 1541510.000000 0 0 1
-22.603222 28.354533 21.320549 42.064843 -0.897787 1.039270 0.026014 -0.001788 1377700.000000 0 0 1
-22.145722 28.292333 22.652049 42.473573 -0.906665 1.008275 0.034480 -0.000157 779192.000000 0 0 1
-20.847122 28.876433 22.793149 42.284495 -0.945495 1.001496 0.040847 -0.001460 489416.000000 0 0 1
-20.381922 28.983033 24.272599 42.948784 -0.957902 0.970179 0.040568 0.003862 -329083.000000 0 0 1
-20.188722 27.712733 24.961109 42.410341 -0.941198 0.941518 0.043265 -0.000032 382932.000000 0 0 1
-20.023722 27.907033 26.308259 43.265187 -0.948412 0.917169 0.049788 -0.003165 681952.000000 0 0 1
-18.557522 28.141133 26.833159 43.085072 -0.987810 0.898487 0.061506 0.004061 220631.000000 0 0 1
-18.024022 29.372933 26.381409 43.400614 -1.020417 0.917436 0.039254 -0.000443 470980.000000 0 0 1
-16.736222 29.750533 26.870069 43.441869 -1.058367 0.903927 0.046097 0.002322 450118.000000 0 0 1
-16.549722 29.944533 28.443079 44.492439 -1.065898 0.877236 0.040790 0.006525 -523770.000000 0 0 1
-16.583622 28.663733 29.161339 44.124934 -1.046292 0.848804 0.055576 -0.001235 192478.000000 0 0 1
-16.736222 28.834733 30.543609 45.215650 -1.044899 0.829141 0.050482 -0.001222 -183933.000000 0 0 1
-16.429422 27.559233 31.397479 44.891413 -1.033213 0.796225 0.049991 -0.010414 -117716.000000 0 0 1
-15.047122 27.544633 31.689349 44.601990 -1.070813 0.780599 0.060104 -0.001392 139404.000000 0 0 1
-14.666022 26.462333 32.590132 44.468685 -1.064717 0.748253 0.061396 0.005066 -131519.000000 0 0 1
-15.093922 26.504233 34.094089 45.746123 -1.053112 0.729828 0.069834 0.001077 672922.000000 0 0 1
-16.467122 26.108133 34.276133 46.126500 -1.008089 0.733120 0.077089 -0.007694 569906.000000 0 0 1
-17.054722 26.861433 -33.330110 46.079240 -1.005099 2.379397 0.080760 -0.009274 232964.000000 0 0 1
-18.460322 26.385333 -32.853470 46.003476 -0.960310 2.366208 0.058731 -0.012816 97378.200000 0 0 1
-19.402222 26.656133 -33.860420 47.260170 -0.941609 2.369523 0.052379 -0.014129 750563.000000 0 0 1
-20.727422 26.310833 -33.371860 47.281783 -0.903545 2.354359 0.065304 -0.015702 1074960.000000 0 0 1
-21.858022 26.497833 34.208500 48.478137 -0.881057 0.787459 0.062067 -0.022600 -252843.000000 0 0 1
-21.908422 25.530533 33.127884 47.214868 -0.861603 0.793098 0.062702 -0.016941 126945.000000 0 0 1
-21.786522 24.170133 33.378740 46.615321 -0.837218 0.772674 0.051311 -0.013378 -315712.000000 0 0 1
-22.146922 23.269733 32.123429 45.429961 -0.810116 0.785411 0.046861 -0.004912 361059.000000 0 0 1
-23.520822 23.425833 31.797639 45.968343 -0.783375 0.806916 0.043500 -0.003230 254227.000000 0 0 1
-23.960022 22.807733 30.583309 45.051239 -0.760765 0.824593 0.052961 -0.002111 1001330.000000 0 0 1
-25.520422 22.626233 30.541599 45.782394 -0.725358 0.840482 0.051358 -0.000239 737585.000000 0 0 1
-25.871922 21.299533 30.903339 45.585555 -0.688769 0.825867 0.052987 -0.008392 -2557.000000 0 0 1
-27.090422 20.934733 30.298409 45.718132 -0.657917 0.846349 0.050639 -0.010567 -269571.000000 0 0 1
-27.518422 19.493733 30.762899 45.646743 -0.616334 0.831275 0.065369 -0.016754 -371803.000000 0 0 1
-28.112222 19.507133 32.052989 46.885172 -0.606622 0.818046 0.058019 -0.014599 153222.000000 0 0 1
-28.255322 18.291033 32.786533 46.988103 -0.574509 0.798527 0.053158 -0.008898 -4327.150000 0 0 1
-29.088522 17.064833 32.270679 46.677054 -0.530547 0.807426 0.030303 -0.012454 -989396.000000 0 0 1
-30.411722 17.395433 32.066899 47.494841 -0.519575 0.829607 0.025990 -0.014769 -1226070.000000 0 0 1
-31.060822 16.258633 31.568909 47.177472 -0.482227 0.837729 0.015606 -0.007358 -347207.000000 0 0 1
-32.583322 16.427133 31.479639 48.192232 -0.466968 0.858980 -0.001950 0.006908 -608487.000000 0 0 1
-33.184422 16.420233 32.713890 49.406766 -0.459493 0.847134 0.011765 0.009615 410594.000000 0 0 1
-34.564322 16.774333 32.693447 50.447320 -0.451825 0.865747 0.011879 0.008474 307066.000000 0 0 1
-35.022322 17.259233 34.094251 51.834951 -0.457876 0.852973 0.025807 0.012725 926487.000000 0 0 1
35.284769 17.347333 34.213554 52.120171 0.456936 0.854712 0.021256 0.005020 1130450.000000 0 0 1
34.994769 17.849833 -33.153770 51.404502 0.471672 2.271765 0.022302 0.002424 -22415.100000 0 0 1
33.485569 17.959233 -32.877640 50.246956 0.492286 2.284081 0.017785 -0.000352 106518.000000 0 0 1
32.816769 16.693233 -32.714690 49.252972 0.470567 2.297243 0.027801 0.004919 237012.000000 0 0 1
31.454269 16.959633 -32.442760 48.265235 0.494501 2.307941 0.027946 0.006562 -409370.000000 0 0 1
30.593869 15.729633 -32.522930 47.340756 0.474898 2.328144 0.024918 0.009444 -559385.000000 0 0 1
30.328569 15.214833 -33.844080 47.924263 0.464980 2.354912 0.033830 -0.004418 -265976.000000 0 0 1
29.540069 14.084133 -33.815870 47.058384 0.444900 2.372575 0.030821 -0.002847 -553119.000000 0 0 1
30.370769 12.831833 -33.995000 47.357149 0.399756 2.371496 0.032484 -0.001740 200276.000000 0 0 1
31.013269 12.375733 -32.752000 46.772589 0.379684 2.346529 0.037341 -0.000218 244424.000000 0 0 1
31.855369 11.334533 -33.169750 47.365267 0.341843 2.346610 0.037237 -0.002846 -379839.000000 0 0 1
17.539769 -21.324567 9.905350 29.334222 -0.882477 1.226354 0.037231 -0.016268 -91695.500000 0 0 1
17.318069 -22.393967 10.752350 30.282310 -0.912526 1.207807 0.036661 -0.020516 196178.000000 0 0 1
18.451069 -23.234667 10.935150 31.620708 -0.899652 1.217681 0.035130 -0.018378 -46250.900000 0 0 1
18.089369 -24.479867 11.804850 32.647261 -0.934406 1.200826 0.034719 -0.019513 -16288.000000 0 0 1
17.436769 -25.520017 11.062650 32.828256 -0.971395 1.227083 0.041087 -0.019193 -154688.000000 0 0 1
16.097769 -25.583497 11.495550 32.338849 -1.009165 1.207378 0.057012 -0.020618 123187.000000 0 0 1
15.227669 -26.601597 10.620950 32.439658 -1.050892 1.237239 0.071071 -0.017100 428951.000000 0 0 1
14.952769 -26.084627 9.311950 31.475474 -1.050285 1.270453 0.069022 -0.018895 594.649000 0 0 1
14.166769 -26.938487 8.537750 31.611273 -1.086649 1.297314 0.079121 -0.007326 -176399.000000 0 0 1
13.891569 -26.319427 7.148150 30.606927 -1.085152 1.335073 0.078850 -0.009869 205050.000000 0 0 1
13.097969 -25.126027 7.234250 29.243946 -1.090261 1.320825 0.078272 -0.018104 187129.000000 0 0 1
12.893969 -24.490867 5.980350 28.316454 -1.086189 1.357997 0.070734 0.000369 114454.000000 0 0 1
12.150669 -23.148167 6.076550 26.840284 -1.087421 1.342420 0.070153 0.003129 -86703.000000 0 0 1
11.690669 -22.627867 4.854750 25.927991 -1.093918 1.382445 0.070333 0.002267 -490022.000000 0 0 1
10.957869 -21.503567 5.093250 24.666161 -1.099511 1.362813 0.067830 0.001339 -289596.000000 0 1 0
10.064969 -21.043067 3.957150 23.659529 -1.124656 1.402753 0.049476 0.001987 -14315.000000 0 1 0
10.890369 -20.422867 2.993850 23.337883 -1.080909 1.442159 0.044947 0.002481 -308312.000000 0 1 0
10.189369 -19.658267 2.053850 22.237109 -1.092597 1.478303 0.030600 0.007666 -317054.000000 0 1 0
10.938969 -19.225667 0.790650 22.133966 -1.053500 1.535068 0.031796 0.004087 -56168.000000 0 1 0
11.897569 -18.226567 1.035050 21.790622 -0.992483 1.523279 0.032405 0.005988 -435375.000000 0 1 0
12.542069 -17.924967 -0.167950 21.877754 -0.960273 1.578473 0.040086 -0.002029 935591.000000 0 1 0
13.782569 -16.923967 0.045150 21.826175 -0.887347 1.568728 0.037883 0.007402 1583990.000000 0 1 0
14.965569 -17.484467 0.607850 23.022691 -0.862867 1.544391 0.050342 -0.001257 169434.000000 0 1 0
16.124469 -16.855067 0.111350 23.326041 -0.807548 1.566023 0.047840 -0.002668 -524101.000000 0 1 0
17.367969 -17.331367 0.842750 24.550618 -0.784343 1.536463 0.045324 -0.001435 -575039.000000 0 1 0
17.803269 -18.589167 0.310050 25.741205 -0.806990 1.558751 0.031212 -0.003708 -78847.300000 0 0 1
18.960769 -18.945267 1.027850 26.823318 -0.784989 1.532468 0.015428 0.004770 208448.000000 0 0 1
19.508969 -20.387167 0.811050 28.229315 -0.807407 1.542062 0.010832 0.003328 98326.600000 0 0 1
18.516069 -21.342767 1.157150 28.278923 -0.856197 1.529866 0.018616 0.003798 291224.000000 0 0 1
18.728869 -22.507567 0.451350 29.284208 -0.876778 1.555383 0.021224 -0.001067 -191503.000000 0 0 1
17.656769 -23.572567 0.778450 29.462406 -0.927911 1.544371 0.023289 -0.001044 -31154.600000 0 0 1
17.923669 -24.337367 1.969050 30.289313 -0.936013 1.505742 0.013390 0.002380 928345.000000 0 0 1
16.772769 -25.179397 2.241450 30.337302 -0.983165 1.496845 0.023885 0.006852 742262.000000 0 0 1
16.887569 -25.847067 3.654450 31.090446 -0.992059 1.452981 0.039786 -0.001663 161815.000000 0 0 1
17.725869 -26.975827 3.799050 32.501299 -0.989445 1.453639 0.029260 -0.002393 640954.000000 0 0 1
19.083569 -26.598657 4.090750 32.990990 -0.948446 1.446480 0.032586 0.000719 221358.000000 0 0 1
20.104969 -27.736137 3.930350 34.481165 -0.943576 1.456563 0.042361 -0.002166 -188674.000000 0 0 1
20.255369 -28.232967 2.616650 34.845764 -0.948463 1.495633 0.022637 0.003016 -179106.000000 0 0 1
20.907069 -29.505277 2.470150 36.245945 -0.954330 1.502594 0.033263 0.004487 295776.000000 0 0 1
20.254869 -30.873897 3.009250 37.047440 -0.990179 1.489480 0.034693 0.000115 42777.100000 0 0 1
20.355669 -30.980787 4.407250 37.330768 -0.989487 1.452461 0.060532 -0.004425 -604626.000000 0 0 1
19.489569 -31.932987 4.891750 37.729142 -1.022818 1.440776 0.058253 -0.016831 -658672.000000 0 0 1
19.604469 -32.313377 6.347050 38.324595 -1.025466 1.404417 0.074260 -0.026515 368424.000000 0 0 1
20.744669 -33.109577 6.680250 39.638505 -1.011086 1.401459 0.053849 -0.038361 652678.000000 0 0 1
20.426069 -33.834857 7.873350 40.299026 -1.027661 1.374158 0.051736 -0.032168 1218060.000000 0 0 1
21.677969 34.037304 8.387150 41.216704 1.003694 1.365876 0.051580 -0.034668 1415340.000000 0 0 1
22.619969 -33.899197 9.075650 41.751479 -0.982375 1.351674 0.058030 -0.035093 409388.000000 0 0 1
23.689569 34.057482 9.601950 42.582921 0.963046 1.343352 0.075343 -0.038803 138765.000000 0 0 1
24.628169 -33.898217 10.526750 43.202411 -0.942484 1.324657 0.072191 -0.028695 -253462.000000 0 0 1
25.499869 -33.022087 9.793650 42.855771 -0.913234 1.340233 0.055360 -0.021495 435915.000000 0 0 1
26.160269 -32.076797 10.621050 42.732742 -0.886645 1.319618 0.041522 -0.014053 103776.000000 0 0 1
26.663169 -30.840957 9.822450 41.935304 -0.857923 1.334371 0.037659 -0.017467 -145282.000000 0 0 1
25.635369 -30.004887 9.371950 40.562283 -0.863769 1.337639 0.033464 -0.018663 32290.500000 0 0 1
26.134569 -29.289297 8.278550 40.117490 -0.842257 1.362945 0.032596 -0.016899 -65617.600000 0 0 1
25.756969 -27.784467 8.304550 38.786126 -0.823248 1.355014 0.031508 -0.011692 -178923.000000 0 0 1
26.308869 -27.195257 9.427650 38.995117 -0.801963 1.326612 0.029568 -0.020697 -134657.000000 0 0 1
26.165569 -25.773127 9.361650 37.901604 -0.777842 1.321214 0.035228 -0.016164 -53893.900000 0 0 1
27.122769 -25.024567 10.346150 38.326445 -0.745184 1.297457 0.050193 -0.023232 -307926.000000 0 0 1
28.404069 -24.955167 9.804250 39.059887 -0.720852 1.317077 0.037319 -0.012934 -811356.000000 0 0 1
29.227769 -24.139167 10.661550 39.378046 -0.690334 1.296626 0.050549 -0.021144 94448.600000 0 0 1
30.561569 -23.829867 9.988750 40.020584 -0.662260 1.318539 0.061295 -0.020609 -185310.000000 0 0 1
30.318569 -22.920667 8.975950 39.053044 -0.647326 1.338883 0.054393 -0.018673 -470038.000000 0 0 1
31.538969 -22.506367 8.444050 39.655329 -0.619799 1.356217 0.050996 -0.023208 -616036.000000 0 0 1
31.449769 -21.752767 7.091350 38.891620 -0.605111 1.387434 0.057438 -0.009006 -314092.000000 0 0 1
30.860869 -20.480867 7.227450 37.737186 -0.585912 1.378085 0.066322 -0.004611 -42041.200000 0 0 1
31.051569 -19.641767 6.152950 37.253963 -0.564012 1.404874 0.056827 -0.003202 -79340.700000 0 0 1
30.546469 -18.256067 6.485450 36.172252 -0.538689 1.390528 0.069577 -0.001678 -283011.000000 0 0 1
31.278069 -17.613967 7.496850 36.671136 -0.512876 1.364910 0.079241 -0.006332 -210981.000000 0 0 1
30.815469 -16.353967 7.879750 35.765008 -0.487910 1.348654 0.080257 -0.005661 83370.900000 0 0 1
31.582469 -15.744267 9.112850 36.446925 -0.462457 1.318084 0.072874 -0.013498 88666.000000 0 0 1
32.947369 -15.506067 8.906750 37.487297 -0.439878 1.330908 0.074587 -0.015036 -273690.000000 0 0 1
33.613369 -14.952867 10.060050 38.139893 -0.418562 1.303871 0.073227 -0.023471 653619.000000 0 0 1
35.157269 -15.054367 10.036750 39.539902 -0.404579 1.314150 0.071508 -0.031807 384862.000000 0 0 1
35.773569 -14.317767 9.005650 39.570803 -0.380707 1.341201 0.081782 -0.021813 626958.000000 0 0 1
-34.548122 -14.392167 8.924550 38.475379 0.394720 1.336709 0.079861 -0.023585 819470.000000 0 0 1
-33.896922 -13.429767 7.967750 37.320838 0.377221 1.355647 0.080470 -0.023889 -455923.000000 0 0 1
-34.228222 -13.636967 6.671650 37.443944 0.379137 1.391663 0.089856 -0.025995 -579943.000000 0 0 1
-33.336622 -13.024067 5.820350 36.260628 0.372449 1.409585 0.078265 -0.016981 -482340.000000 0 0 1
-32.226622 -13.964567 5.335850 35.525140 0.408900 1.420027 0.054123 -0.013773 -522819.000000 0 0 1
-31.263322 -14.276567 6.304350 34.942245 0.428375 1.389381 0.062219 -0.013002 -542048.000000 0 0 1
-30.336722 -15.194167 5.800050 34.421214 0.464328 1.401486 0.042746 -0.007086 -48156.800000 0 0 1
-29.651022 -15.944867 6.997050 34.385761 0.493390 1.365878 0.022889 -0.015527 490272.000000 0 0 1
-30.597922 -16.878067 7.575050 35.755885 0.504077 1.357324 0.034950 -0.022307 519923.000000 0 0 1
-30.576222 -16.819467 9.003250 36.039677 0.502907 1.318307 0.014595 -0.017383 -482855.000000 0 0 1
-31.541722 -17.772767 9.673950 37.474481 0.513125 1.309692 -0.009943 -0.016673 -798433.000000 0 0 1
-32.842122 -17.183767 9.720550 38.319393 0.482053 1.314322 0.028901 -0.020111 678830.000000 0 0 1
-33.832822 -17.959767 10.418050 39.695703 0.488013 1.305238 0.052319 -0.030139 416649.000000 0 0 1
-34.195522 -19.401667 9.917350 40.547654 0.516085 1.323705 0.053455 -0.029506 -1814070.000000 0 0 1
-33.216122 -20.405267 10.074350 40.263857 0.550881 1.317901 0.043913 -0.022659 -483806.000000 0 0 1
-32.825922 -20.660467 11.421350 40.433195 0.561753 1.284424 0.016214 -0.029641 -1380080.000000 0 0 1
-33.843522 -21.204367 12.401750 41.818806 0.559707 1.269709 0.048747 -0.034109 -289501.000000 0 0 1
-34.336022 -22.549267 12.298550 42.879904 0.581087 1.279897 0.038506 -0.033488 68025.700000 0 0 1
-35.373822 -22.712567 11.362350 43.546193 0.570782 1.306815 0.044144 -0.028670 -316913.000000 0 0 1
-35.778822 -24.182367 11.265650 44.629876 0.594357 1.315612 0.037170 -0.017740 61180.500000 0 0 1
35.518769 -24.742367 12.527450 45.063341 -0.608440 1.289089 0.074803 -0.008689 162370.000000 0 0 1
34.955969 -26.018407 12.466650 45.324327 -0.639856 1.292150 0.042312 0.003629 -191288.000000 0 0 1
34.069769 -26.300147 13.698550 45.167435 -0.657402 1.262659 0.050856 -0.006329 -112442.000000 0 0 1
32.882769 -25.542897 13.660450 43.821501 -0.660425 1.253784 0.039066 -0.002781 -363963.000000 0 0 1
32.267469 -25.374327 14.896550 43.668675 -0.666378 1.222681 0.037505 0.005159 -352210.000000 0 0 1
31.996969 -23.853167 15.286750 42.737154 -0.640603 1.205001 0.062115 -0.011278 18008.700000 0 0 1
33.077569 -23.029767 15.679550 43.247474 -0.608195 1.199789 0.075312 -0.017808 -462543.000000 0 0 1
33.975769 -22.631267 14.686350 43.384513 -0.587610 1.225457 0.066524 -0.023034 213009.000000 0 0 1
35.274569 -21.998567 15.281250 44.291633 -0.557619 1.218542 0.052816 -0.022535 146356.000000 0 0 1
35.131469 -20.741767 15.990350 43.819314 -0.533334 1.197254 0.049265 -0.015721 398813.000000 0 0 1
34.257169 -20.662367 17.135550 43.521421 -0.542736 1.166114 0.051705 -0.019565 278939.000000 0 0 1
34.271169 -19.244367 17.822950 43.156879 -0.511654 1.145072 0.039507 -0.012984 -473368.000000 0 0 1
33.823769 -18.231467 16.935750 41.991110 -0.494369 1.155657 0.051988 -0.023300 311.807000 0 0 1
33.693069 -16.950267 17.464450 41.563704 -0.466108 1.137147 0.050903 -0.020773 -551135.000000 0 0 1
34.916169 -16.212067 17.994250 42.494270 -0.434694 1.133545 0.032989 -0.018247 -559811.000000 0 0 1
35.490069 -16.743867 19.193850 43.684161 -0.440826 1.115890 0.019783 0.001402 300558.000000 0 0 1
-35.387022 -15.698967 19.610250 43.396553 0.417549 1.101919 0.008687 0.001542 -142992.000000 0 0 1
-35.009722 -15.794967 21.086250 43.815426 0.423818 1.068714 0.000910 0.013320 -133197.000000 0 0 1
-34.294422 -16.977467 21.443750 43.865432 0.459680 1.060022 -0.007165 0.018278 274031.000000 0 0 1
-34.078922 -16.949867 22.846650 44.391895 0.461542 1.030187 -0.005094 0.020046 172436.000000 0 0 1
-33.007722 -17.951267 23.363450 44.244869 0.498110 1.014495 -0.010155 0.022921 -252897.000000 0 0 1
-33.526622 -19.275467 23.357650 45.179174 0.521782 1.027453 -0.009789 0.019188 418409.000000 0 0 1
-32.724822 -20.268867 24.006950 45.366007 0.554543 1.013158 -0.018208 0.020614 -321537.000000 0 0 1
-31.614722 -20.838467 23.101650 44.355592 0.582772 1.022975 -0.026410 0.032069 -250138.000000 0 0 1
-30.454722 -20.073267 23.211650 43.234324 0.582759 1.004062 -0.019699 0.036131 104069.000000 0 0 1
-29.241822 -20.609767 22.692850 42.365222 0.613943 1.005521 -0.016547 0.032363 44653.100000 0 0 1
-28.161822 -19.560767 22.523150 41.024433 0.607082 0.989608 -0.002570 0.034051 -422041.000000 0 0 1
-27.668022 -19.245067 23.826050 41.274359 0.607747 0.955427 0.006339 0.021957 -54925.200000 0 0 1
-26.590922 -18.353867 23.852250 40.160570 0.604139 0.934871 0.030372 0.012230 -291470.000000 0 0 1
-26.069222 -17.964867 25.275350 40.511530 0.603388 0.897067 0.031272 0.002351 -500809.000000 0 0 1
-25.030322 -16.989067 25.209650 39.378571 0.596314 0.876055 0.030118 -0.000138 424829.000000 0 0 1
-24.637522 -16.600267 26.530350 39.830087 0.592911 0.841845 0.025924 -0.008832 728969.000000 0 0 1
-23.647322 -17.584767 27.328250 40.190211 0.639409 0.823071 0.020158 -0.007426 -190677.000000 0 0 1
-24.197622 -18.820967 27.631150 41.270257 0.661058 0.837238 0.028773 -0.005131 -504853.000000 0 0 1
-23.333022 -19.564367 28.416850 41.649871 0.697770 0.819920 0.027554 -0.005280 -868872.000000 0 0 1
-23.939022 -20.828867 28.952350 42.955291 0.716037 0.831171 0.024801 0.004206 -18452.000000 0 0 1
-24.872722 -20.525867 29.996350 44.042531 0.689940 0.821564 0.027942 -0.003748 326581.000000 0 0 1
-25.457922 -21.706667 30.531950 45.293323 0.706030 0.831059 0.020376 0.000774 -786987.000000 0 0 1
-26.598822 -21.425467 31.506350 46.467172 0.678088 0.825711 0.029237 -0.002618 -924956.000000 0 0 1
-26.288422 -20.533567 32.564150 46.616868 0.663102 0.797429 0.037262 -0.013361 -304116.000000 0 0 1
-27.250722 -20.420267 33.571250 47.818594 0.643084 0.792518 0.038085 -0.011400 691531.000000 0 0 1
-28.531322 -19.510367 33.280550 47.982140 0.599786 0.804318 0.035072 -0.019203 380259.000000 0 0 1
-29.266522 -20.092567 32.279850 47.981551 0.601634 0.832870 0.032460 -0.017426 -633203.000000 0 0 1
-30.516222 -19.437967 32.206150 48.438729 0.567162 0.843457 0.030415 -0.027262 153741.000000 0 0 1
-31.530722 -20.140867 31.236050 48.739427 0.568440 0.875154 0.024138 0.003256 -26405.700000 0 0 1
-31.680122 -19.435067 30.014350 47.772514 0.550271 0.891460 0.015067 -0.010277 509517.000000 0 0 1
-32.785422 -20.010267 29.328850 48.326764 0.547988 0.918659 0.008701 -0.004462 179012.000000 0 0 1
-33.113122 -19.181067 28.062550 47.454177 0.525029 0.938051 0.001788 0.004931 -197097.000000 0 0 1
-34.338022 -19.591867 27.500550 48.158293 0.518490 0.963018 -0.009219 0.008826 -4678.360000 0 0 1
-34.820322 -18.621467 26.637050 47.631358 0.491089 0.977335 0.004735 0.013984 -175165.000000 0 0 1
35.801969 -19.219067 25.758550 48.110876 -0.492665 1.005815 -0.006441 0.009853 101187.000000 0 0 1
34.589669 -19.456567 26.451850 47.693852 -0.512387 0.982893 0.010244 0.001592 -8215.640000 0 0 1
33.592769 -19.913267 25.583950 46.685660 -0.535097 0.990820 0.045924 -0.011189 369063.000000 0 0 1
32.251569 -20.336667 26.276450 46.305459 -0.562590 0.967380 0.041544 -0.015867 308440.000000 0 0 1
31.643169 -19.292667 26.958750 45.828717 -0.547517 0.941903 0.036310 -0.014661 -645899.000000 0 0 1
30.641569 -19.856767 27.721650 45.844158 -0.574992 0.921416 0.033963 -0.010554 -635319.000000 0 0 1
-29.352281 -5.278167 33.832784 45.100696 0.177920 0.722491 0.016687 -0.001036 -222987.000000 0 0 1
-30.372091 -5.199767 32.883983 45.065040 0.169558 0.752912 0.017607 0.001584 -96696.300000 0 0 1
-30.173401 -4.150167 31.994069 44.173278 0.136686 0.760799 0.035386 -0.002942 -224329.000000 0 0 1
-30.879261 -4.199267 30.621839 43.690498 0.135161 0.794164 0.029000 -0.007695 -106285.000000 0 0 1
-30.501371 -5.273367 29.813139 42.976334 0.171197 0.804168 0.018838 -0.007299 893883.000000 0 0 1
-29.151141 -5.297967 29.291459 41.663498 0.179779 0.791121 0.023547 -0.005649 971002.000000 0 0 1
-28.914561 -6.399867 28.225479 40.910730 0.217825 0.809406 0.022059 -0.009427 128013.000000 0 0 1
-29.528791 -6.099667 26.966169 40.451573 0.203702 0.841120 0.021231 -0.013729 -4889.220000 0 0 1
-28.956671 -6.865067 25.972409 39.499164 0.232783 0.853243 0.049927 -0.012777 -289300.000000 0 0 1
-29.587911 -6.497067 24.630009 39.042204 0.216155 0.888140 0.034004 -0.006233 -6360.250000 0 0 1
-29.193581 -5.285967 24.062619 38.199689 0.179125 0.889350 0.039558 -0.008934 -150461.000000 0 0 1
-29.851791 -5.168567 22.827449 37.933309 0.171441 0.925070 0.041385 -0.004949 -60042.000000 0 0 1
-29.601441 -3.903467 22.020749 37.099808 0.131111 0.935328 0.031565 -0.003157 817254.000000 0 0 1
-28.343031 -3.996067 21.324849 35.693769 0.140066 0.930493 0.032941 0.000771 639579.000000 0 0 1
-27.746151 -2.717367 21.138449 34.986669 0.097625 0.922053 0.032413 0.004890 401847.000000 0 0 1
-26.301041 -2.793167 20.583549 33.514609 0.105803 0.909467 0.033792 0.005908 79401.100000 0 0 1
-26.347621 -3.345267 19.288849 32.824498 0.126291 0.942663 0.041964 0.002967 -814112.000000 0 0 1
-25.184371 -3.090567 18.597349 31.458950 0.122107 0.938297 0.057543 0.001835 -985561.000000 0 0 1
-25.032031 -3.957767 17.319449 30.695762 0.156810 0.971297 0.067618 -0.001237 -252085.000000 0 0 1
-25.970381 -3.607267 16.328249 30.888263 0.138016 1.013819 0.051240 0.000979 267728.000000 0 0 1
-25.748761 -4.395167 15.156949 30.200154 0.169065 1.045022 0.061729 -0.005786 -136265.000000 0 0 1
-27.022101 -4.385067 14.302149 30.886473 0.160875 1.089357 0.066745 -0.014670 -163954.000000 0 0 1
-27.406911 -3.147067 13.738049 30.818449 0.114327 1.108758 0.061060 -0.017111 424139.000000 0 0 1
-28.595311 -3.419367 12.983849 31.590572 0.119013 1.147241 0.057480 -0.020142 354504.000000 0 0 1
-28.976051 -2.164067 12.134649 31.488799 0.074546 1.175194 0.053049 -0.005667 -168017.000000 0 0 1
-27.988981 -1.980667 11.134649 30.187523 0.070648 1.193026 0.072719 -0.014356 389420.000000 0 0 1
-28.230551 -0.734367 10.409449 30.097507 0.026007 1.217644 0.071344 -0.009397 202467.000000 0 0 1
-29.573571 -0.506967 9.665149 31.117009 0.017141 1.254965 0.069588 -0.002153 249754.000000 0 0 1
-29.572901 -1.187367 8.451249 30.779700 0.040129 1.292652 0.073485 -0.007056 684005.000000 0 0 1
-30.887561 -1.316967 7.875849 31.903054 0.042612 1.321349 0.065826 -0.012158 564850.000000 0 0 1
-30.940501 -2.108167 6.558949 31.698246 0.068031 1.362372 0.083943 -0.017649 -620629.000000 0 0 1
-30.670521 -1.439467 5.330249 31.163512 0.046899 1.398910 0.095982 -0.019229 323207.000000 0 0 1
-31.636791 -0.504467 4.871349 32.013608 0.015944 1.418038 0.064292 -0.008731 -110016.000000 0 0 1
-31.262801 0.171233 3.508849 31.459563 -0.005477 1.459029 0.068787 -0.005485 -7113.120000 0 0 1
-31.577851 -0.754567 2.492749 31.685073 0.023891 1.492042 0.066926 -0.019764 270609.000000 0 0 1
-30.947311 -0.363067 1.306749 30.977015 0.011731 1.528599 0.070857 -0.025718 -81511.500000 0 0 1
-31.513621 -1.005867 -0.053351 31.529715 0.031908 1.572488 0.075814 -0.020952 28786.300000 0 0 1
-32.844231 -0.633167 -0.301351 32.851716 0.019275 1.579970 0.077376 -0.014730 22563.300000 0 0 1
-33.517821 -1.313267 -1.324451 33.569676 0.039161 1.610260 0.077376 -0.014162 -255641.000000 0 0 1
-35.040150 -1.143267 -1.277951 35.082079 0.032616 1.607232 0.061459 -0.010637 -324777.000000 0 0 1
-35.735031 -2.001467 -0.369851 35.792948 0.055950 1.581130 0.063898 -0.009483 844325.000000 0 0 1
34.634810 -1.601267 -0.345251 34.673524 -0.046200 1.580754 0.076073 -0.011251 695623.000000 0 0 1
33.708590 -2.683767 0.232849 33.816059 -0.079449 1.563911 0.077430 -0.016359 -434567.000000 0 0 1
34.058810 -2.993967 1.554649 34.225477 -0.087680 1.525357 0.065586 -0.010877 341129.000000 0 0 1
33.327890 -4.102867 2.094549 33.644745 -0.122490 1.508501 0.064342 -0.007680 -197801.000000 0 0 1
33.554380 -4.289767 3.582149 34.016618 -0.127155 1.465295 0.050755 0.000553 235534.000000 0 0 1
32.882030 -3.331467 4.374949 33.338667 -0.100971 1.439189 0.061873 -0.008658 44833.600000 0 0 1
33.150440 -3.605067 5.680149 33.826206 -0.108323 1.402075 0.060983 -0.018943 -88536.100000 0 0 1
32.548990 -2.577967 6.638849 33.319018 -0.079038 1.370203 0.069221 -0.016992 -369640.000000 0 0 1
31.152500 -2.575467 6.738949 31.976940 -0.082485 1.358460 0.086362 -0.019132 -459529.000000 0 0 1
30.738570 -1.391567 7.376349 31.641850 -0.045240 1.335511 0.090340 -0.016110 -207866.000000 0 0 1
29.297380 -1.456767 7.921249 30.384286 -0.049683 1.307047 0.078945 -0.013668 -1077430.000000 0 0 1
28.357900 -1.129067 6.981049 29.226363 -0.039794 1.329603 0.077588 -0.011798 -73260.000000 0 0 1
27.032810 -1.076167 7.510649 28.077407 -0.039789 1.300001 0.075676 -0.004096 450188.000000 0 0 1
26.194960 -2.349267 7.375049 27.314581 -0.089445 1.297399 0.078152 -0.017159 -485444.000000 0 0 1
26.768420 -3.434267 8.145449 28.190261 -0.127598 1.277671 0.067664 -0.019323 1098240.000000 0 0 1
25.923860 -4.599767 8.005649 27.518989 -0.175606 1.275615 0.068173 -0.024257 264483.000000 0 0 1
26.304460 -5.670267 9.004949 28.375441 -0.212314 1.247862 0.054466 -0.015033 -214540.000000 0 0 1
25.806960 -5.321767 10.298149 28.290851 -0.203364 1.198227 0.051649 -0.008543 456962.000000 0 0 1
26.266560 -6.211167 11.292249 29.257916 -0.232201 1.174553 0.045094 -0.008998 -610110.000000 0 0 1
25.324460 -6.475967 12.462649 28.958315 -0.250355 1.125899 0.044267 -0.007428 33346.500000 0 0 1
24.234960 -7.305267 12.060549 28.038492 -0.292773 1.126146 0.060544 -0.017849 522800.000000 0 0 1
23.203460 -7.282867 13.059849 27.604354 -0.304132 1.077981 0.064597 -0.012843 970433.000000 0 0 1
22.109960 -8.378767 12.783149 26.878671 -0.362237 1.075165 0.071404 -0.010762 464640.000000 0 0 1
22.361860 -9.570667 13.555949 27.846260 -0.404401 1.062358 0.059594 -0.019944 375105.000000 0 0 1
21.290860 -10.509467 13.476149 27.301212 -0.458526 1.054561 0.076777 -0.031418 -23465.000000 0 0 1
21.470260 -11.653367 14.573049 28.445505 -0.497274 1.032918 0.059741 -0.026979 -131712.000000 0 0 1
21.366860 -11.111467 15.861849 28.837574 -0.479545 0.988383 0.050206 -0.032753 286313.000000 0 0 1
21.827260 -11.983167 16.879949 30.082524 -0.502075 0.975056 0.050311 -0.033033 -252713.000000 0 0 1
21.629960 -11.422967 18.294449 30.545478 -0.485881 0.928638 0.063400 -0.028445 -285660.000000 0 0 1
20.271760 -11.445467 18.659749 29.835033 -0.513984 0.895113 0.056039 -0.034409 -271717.000000 0 0 1
19.914060 -11.842967 20.002949 30.609535 -0.536516 0.858614 0.057648 -0.023155 216869.000000 0 0 1
20.218760 -10.834767 21.140649 31.194831 -0.491936 0.826170 0.052973 -0.021076 -71216.100000 0 0 1
19.371760 -9.685867 21.135849 30.262274 -0.463647 0.797606 0.043746 -0.020061 14084.100000 0 0 1
19.702560 -8.588367 20.289049 29.556665 -0.411068 0.814206 0.058784 -0.018196 -1122680.000000 0 0 1
20.701260 -7.515667 20.841749 30.321707 -0.348256 0.812956 0.062301 -0.011156 1373420.000000 0 0 1
22.079660 -7.908167 20.926649 31.432071 -0.343930 0.842266 0.080832 -0.015450 865620.000000 0 0 1
22.708160 -8.242167 19.720749 31.184961 -0.348174 0.886174 0.081366 -0.022096 -341495.000000 0 0 1
24.129460 -8.910067 19.790849 32.454550 -0.353730 0.914986 0.077074 -0.024415 545979.000000 0 0 1
24.037660 -10.162667 20.385249 33.115665 -0.399990 0.907678 0.064622 -0.023477 -104920.000000 0 0 1
25.236560 -10.907067 20.370349 34.216943 -0.407947 0.933121 0.063627 -0.028324 97840.600000 0 0 1
25.014360 -12.430967 20.611049 34.714010 -0.461207 0.935099 0.051744 -0.032123 192793.000000 0 0 1
24.119560 -13.036567 19.674449 33.745951 -0.495519 0.948360 0.064952 -0.030257 276245.000000 0 0 1
23.948760 -14.411167 19.996849 34.367118 -0.541705 0.949783 0.053672 -0.028907 25874.900000 0 0 1
22.994960 -15.146467 19.026149 33.469060 -0.582457 0.966152 0.042707 -0.015310 -337196.000000 0 0 1
23.475060 -15.238267 17.699549 33.114306 -0.575760 1.006882 0.047245 -0.019206 -96901.400000 0 0 1
22.552460 -15.668267 16.739649 32.160906 -0.607192 1.023364 0.029511 -0.009998 -346732.000000 0 0 1
22.308760 -17.197967 16.785149 32.790121 -0.656748 1.033405 0.028132 -0.011244 -474972.000000 0 0 1
23.427260 -17.917567 16.371149 33.732628 -0.652917 1.064066 0.057729 -0.011975 -182157.000000 0 0 1
23.140560 -19.317967 16.588349 34.407015 -0.695609 1.067722 0.052898 -0.001810 76725.800000 0 0 1
24.323860 -20.280267 16.343449 35.637729 -0.694990 1.094378 0.056623 -0.007294 -61592.300000 0 0 1
24.622760 -20.494867 14.967449 35.360209 -0.694160 1.133728 0.052667 -0.018322 -40103.900000 0 0 1
25.439060 -21.626967 14.813049 36.528042 -0.704580 1.153243 0.050074 -0.026622 -89454.500000 0 0 1
26.193560 -21.750667 13.464249 36.612567 -0.692994 1.194209 0.045872 -0.037411 -39539.100000 0 0 1
25.323260 -21.914967 12.352249 35.694696 -0.713372 1.217436 0.040097 -0.028320 320645.000000 0 0 1
26.002760 -21.761967 11.123649 35.685603 -0.696845 1.253802 0.032909 -0.023376 -118645.000000 0 0 1
25.005560 -21.620367 9.916749 34.511740 -0.712922 1.279343 0.021668 -0.018758 652049.000000 0 0 1
24.310760 -22.812267 9.521549 34.670917 -0.753609 1.292595 0.015163 -0.019830 1085440.000000 0 0 1
23.119860 -23.142867 10.289249 34.292694 -0.785895 1.266060 0.005460 -0.005235 54886.000000 0 0 1
22.175960 -24.030767 9.531249 34.060177 -0.825518 1.287173 0.008083 -0.006850 -880322.000000 0 0 1
22.669760 -25.319837 9.216949 35.213127 -0.840564 1.305964 0.002744 -0.008327 -111510.000000 0 0 1
22.364560 -25.826317 7.915049 35.068792 -0.857109 1.343134 0.015299 -0.004694 95174.200000 0 0 1
20.892860 -26.182687 7.586649 34.345333 -0.897298 1.348066 0.020909 -0.000943 -30765.400000 0 0 1
19.979960 -25.142737 7.521449 32.983757 -0.899319 1.340737 0.010308 -0.001429 -578946.000000 0 0 1
18.667160 -25.660117 7.644349 32.639555 -0.941866 1.334396 0.044741 -0.012329 159985.000000 0 0 1
17.553960 -24.612267 7.658549 31.185871 -0.951253 1.322681 0.048053 -0.016245 -196246.000000 0 0 1
17.525260 -23.884767 6.441549 30.316833 -0.937782 1.356690 0.060249 -0.010395 -93906.200000 0 0 1
16.592060 -22.837067 6.396449 28.943784 -0.942479 1.347961 0.066124 -0.006973 -142748.000000 0 0 1
16.406860 -22.181367 5.003949 28.039928 -0.933940 1.391377 0.065972 -0.002934 -231631.000000 0 0 1
15.513160 -21.100967 5.193849 26.699906 -0.936843 1.375021 0.075239 -0.003722 52214.000000 0 0 1
15.120060 -20.546967 3.944749 25.813855 -0.936395 1.417380 0.063187 -0.001560 688394.000000 0 0 1
14.161560 -19.298667 4.094349 24.284810 -0.937737 1.401390 0.056373 0.003134 767483.000000 0 1 0
14.910060 -18.151867 4.451949 23.908576 -0.883138 1.383496 0.035146 -0.002901 604152.000000 0 1 0
14.115460 -16.990367 4.214549 22.487356 -0.877560 1.382263 0.008784 0.004544 896637.000000 0 1 0
15.078760 -15.748267 4.263049 22.215996 -0.807113 1.377708 0.002781 0.000181 -25294.600000 0 1 0
15.414260 -15.466267 5.593349 22.540860 -0.787082 1.320034 0.007757 -0.010309 285253.000000 0 1 0
16.507460 -14.567267 5.718449 22.746476 -0.723043 1.316671 0.017968 -0.012034 -1048050.000000 0 1 0
17.902060 -15.064367 5.570249 24.050916 -0.699532 1.337072 0.019113 -0.018215 -2690640.000000 0 1 0
18.745360 -14.006667 5.678149 24.079381 -0.641711 1.332745 0.037327 -0.013253 -427962.000000 0 1 0
20.076060 -14.522667 5.541849 25.390315 -0.626247 1.350759 0.058835 -0.015885 441789.000000 0 0 1
21.148160 -13.433467 5.336149 25.615955 -0.565906 1.360946 0.058922 -0.020747 -146522.000000 0 0 1
21.363060 -12.771767 6.601149 25.750214 -0.538832 1.311549 0.068595 -0.025726 775957.000000 0 0 1
22.544360 -11.941467 6.632849 26.359846 -0.487115 1.316435 0.077873 -0.021448 775744.000000 0 0 1
22.844960 -11.257867 8.015249 26.699737 -0.457866 1.265894 0.078310 -0.020802 -28272.400000 0 0 1
23.191760 -12.201967 8.959649 27.695144 -0.484335 1.241360 0.069888 -0.014492 44771.100000 0 0 1
23.305760 -11.631767 10.207749 27.975964 -0.462923 1.197297 0.069822 -0.024461 -354229.000000 0 0 1
23.721060 -12.602867 11.274449 29.131326 -0.488369 1.173397 0.056273 -0.017699 -102439.000000 0 0 1
22.770260 -13.629367 11.577649 28.953175 -0.539360 1.159416 0.065311 -0.016186 264075.000000 0 0 1
23.158760 -14.501567 12.644849 30.108401 -0.559448 1.137376 0.057069 -0.020767 -1268120.000000 0 0 1
22.182260 -15.515667 13.048549 30.050844 -0.610365 1.121629 0.054118 -0.025930 -1079200.000000 0 0 1
21.062860 -14.861967 13.586049 29.139369 -0.614475 1.085756 0.049063 -0.027868 -221948.000000 0 0 1
19.855560 -15.603167 13.403049 28.589225 -0.666043 1.082848 0.044192 -0.021378 904724.000000 0 0 1
18.641660 -14.734567 13.896749 27.527052 -0.668866 1.041600 0.045079 -0.027209 -44253.600000 0 0 1
18.747260 -14.498067 15.312849 28.215900 -0.658274 0.997145 0.039819 -0.026788 93498.400000 0 0 1
18.241260 -13.236267 15.733549 27.486122 -0.627716 0.961345 0.051712 -0.037510 679129.000000 0 0 1
16.688660 -13.021967 15.816149 26.424109 -0.662606 0.929107 0.050317 -0.038854 573037.000000 0 0 1
16.131460 -12.989167 14.477349 25.269272 -0.677908 0.960728 0.050947 -0.048761 439345.000000 0 0 1
14.705060 -12.868467 14.508749 24.338037 -0.718889 0.932118 0.061807 -0.043564 700454.000000 0 1 0
14.162660 -11.475767 14.222249 23.120262 -0.680980 0.908230 0.051078 -0.042694 -311770.000000 0 1 0
14.427860 -10.632467 15.266549 23.543152 -0.635090 0.865250 0.039555 -0.027682 -25121.900000 0 1 0
14.308960 -9.249567 14.897249 22.632473 -0.573853 0.852338 0.035183 -0.027917 -843758.000000 0 1 0
14.952860 -8.190667 15.817949 23.256882 -0.501126 0.822842 0.038237 -0.019529 -237829.000000 0 1 0
16.348460 -8.319967 15.836049 24.233746 -0.470754 0.858635 0.039570 -0.029702 -430054.000000 0 1 0
16.871660 -9.036967 16.918949 25.545460 -0.491744 0.846902 0.048210 -0.026160 130222.000000 0 0 1
18.425260 -9.054167 16.822049 26.541467 -0.456744 0.884337 0.051863 -0.022317 742228.000000 0 0 1
19.084260 -7.758367 16.859049 26.620082 -0.386125 0.884960 0.054927 -0.025927 865606.000000 0 0 1
20.172360 -7.706467 15.910849 26.822916 -0.364921 0.935792 0.047507 -0.016732 285685.000000 0 0 1
20.907360 -6.367667 16.072949 27.129404 -0.295640 0.936694 0.050419 0.001688 -87913.000000 0 0 1
21.820060 -6.386567 17.176649 28.494570 -0.284739 0.923785 0.073772 -0.005326 560512.000000 0 0 1
22.167360 -5.059567 17.714349 28.823414 -0.224400 0.908940 0.079679 -0.014306 -56966.100000 0 0 1
-5.611531 -33.482713 -6.826150 34.629145 1.404745 1.769217 0.012837 -0.009887 -316699.000000 0 0 1
-6.252331 -32.232913 -6.955650 33.562380 1.379202 1.779555 0.015424 -0.011586 152338.000000 0 0 1
-5.889731 -31.416813 -5.820150 32.489679 1.385477 1.750907 0.023509 -0.015520 -505952.000000 0 0 1
-6.578431 -30.032313 -5.803050 31.287233 1.355157 1.757353 0.035502 -0.017807 703288.000000 0 0 1
-7.961231 -29.793913 -5.583650 31.340638 1.309687 1.749913 0.034049 -0.014730 137332.000000 0 0 1
-8.832831 -30.417413 -6.469750 32.327938 1.288182 1.772286 0.031508 -0.011165 121679.000000 0 0 1
-10.283631 -29.803313 -6.395650 32.169782 1.238538 1.770939 0.026519 -0.000291 991177.000000 0 0 1
-11.265231 -30.532413 -7.095250 33.308801 1.217332 1.785455 0.025924 -0.006683 -568225.000000 0 0 1
-12.564431 -30.133813 -6.746350 33.338039 1.175760 1.774565 0.037992 -0.006072 117811.000000 0 0 1
-13.608031 -30.885113 -7.619250 34.599446 1.155786 1.792829 0.056963 -0.014995 181943.000000 0 0 1
-13.431831 -30.335713 -8.920550 34.354705 1.153969 1.833467 0.068965 -0.021420 589599.000000 0 0 1
-14.395331 -30.895113 -9.829250 35.473197 1.134764 1.851560 0.063287 -0.016435 441760.000000 0 0 1
-14.469031 -30.051913 -11.110150 35.155451 1.122084 1.892338 0.072923 -0.009588 -407239.000000 0 0 1
-14.978531 -28.740413 -10.852950 34.178272 1.090360 1.893930 0.080087 -0.020498 521752.000000 0 0 1
-14.067231 -27.808613 -10.227250 32.799430 1.102473 1.887896 0.081230 -0.017635 -31540.800000 0 0 1
-14.711231 -26.441813 -9.895950 31.835823 1.063081 1.886876 0.081261 -0.003335 -25785.400000 0 0 1
-14.947531 -25.608113 -11.009450 31.629292 1.042446 1.926316 0.091124 -0.020808 120705.000000 0 0 1
-15.352931 -24.367113 -10.522550 30.662563 1.008561 1.921089 0.076799 -0.007750 -525741.000000 0 0 1
-15.756831 -23.404913 -11.583850 30.500053 0.978265 1.960374 0.090421 -0.018492 61598.600000 0 0 1
-17.102531 -23.763913 -11.890850 31.600830 0.946981 1.956577 0.093713 -0.020040 172597.000000 0 0 1
-17.602931 -23.091413 -13.069250 31.841511 0.919460 1.993740 0.097372 -0.028726 40199.800000 0 0 1
-19.131531 -23.332413 -13.261950 32.959009 0.884006 1.984908 0.075835 -0.011301 667156.000000 0 0 1
-19.671831 -24.626013 -13.594750 34.325481 0.896773 1.978012 0.098326 -0.015473 102998.000000 0 0 1
-19.424431 -25.592213 -12.539750 34.489349 0.921562 1.942908 0.107970 -0.023587 -1163940.000000 0 0 1
-19.360631 -27.022713 -12.997050 35.692917 0.949110 1.943500 0.098061 -0.024663 754104.000000 0 0 1
-18.333631 -27.425013 -13.928750 35.808706 0.981525 1.970317 0.090758 -0.026883 727909.000000 0 0 1
-16.975731 -27.281213 -13.563750 34.877146 1.014177 1.970234 0.089899 -0.024179 -158036.000000 0 0 1
-16.119331 -28.516813 -13.907350 35.587299 1.056315 1.972292 0.080129 -0.023017 -203095.000000 0 0 1
-16.025431 -28.907513 -15.278250 36.412686 1.064605 2.003785 0.088035 -0.030989 -107555.000000 0 0 1
-15.163531 -29.980813 -15.545050 37.019325 1.102540 2.004150 0.099367 -0.024742 -332798.000000 0 0 1
-15.798431 -31.360113 -15.398450 38.342657 1.104134 1.984061 0.098661 -0.033127 -162815.000000 0 0 1
-16.159931 -31.619313 -14.050750 38.188321 1.098326 1.947582 0.095568 -0.033682 -8950.820000 0 0 1
-16.305931 -32.993113 -13.912550 39.344478 1.111782 1.932223 0.085598 -0.029257 -461235.000000 0 0 1
-17.085131 -33.456713 -12.620250 39.629838 1.098654 1.894894 0.088534 -0.030915 -56654.400000 0 0 1
-18.455331 -33.198813 -12.513550 39.991866 1.063432 1.889044 0.101813 -0.025486 -209462.000000 0 0 1
-18.915731 -31.855213 -12.491250 39.097197 1.034946 1.895990 0.103431 -0.024272 -660446.000000 0 0 1
-18.422931 -30.834113 -11.384050 37.679484 1.032228 1.877721 0.117844 -0.025129 -232078.000000 0 0 1
-18.860131 -31.101513 -10.067450 37.740723 1.025680 1.840819 0.110037 -0.023514 261996.000000 0 0 1
-18.357331 -30.109713 -9.132250 36.427797 1.023289 1.824194 0.109459 -0.014586 130815.000000 0 0 1
-18.671731 -30.372413 -7.698150 36.474354 1.019595 1.783452 0.099074 -0.008603 -251002.000000 0 0 1
-18.050931 -31.507213 -7.218150 37.022186 1.050531 1.767021 0.117711 -0.014369 -125346.000000 0 0 1
-18.274031 -31.600413 -5.780550 36.958640 1.046497 1.727847 0.103094 -0.014223 -128660.000000 0 0 1
-17.372831 -32.632913 -5.048750 37.312359 1.081588 1.706523 0.100614 -0.015406 744350.000000 0 0 1
-16.032731 -32.178213 -4.841450 36.275687 1.108551 1.704658 0.086515 -0.012940 626294.000000 0 0 1
-15.825231 -31.759413 -3.485050 35.654506 1.108522 1.668698 0.072502 -0.013894 -443806.000000 0 0 1
-14.542931 -30.947313 -3.258950 34.349000 1.131496 1.665817 0.055379 -0.019785 -239133.000000 0 0 1
-13.346531 -31.652213 -3.445350 34.523368 1.171757 1.670760 0.034101 -0.011481 -533949.000000 0 0 1
-12.260431 -30.910013 -2.924450 33.381125 1.193182 1.658517 0.028086 -0.005269 832525.000000 0 0 1
-10.939531 -31.752913 -2.788750 33.700118 1.239011 1.653643 0.022028 -0.004025 150057.000000 0 0 1
-11.006031 -32.848613 -1.907150 34.695840 1.247499 1.625792 0.015808 0.001924 138156.000000 0 0 1
-9.853531 -33.675013 -1.651250 35.125848 1.286136 1.617823 0.013325 0.004525 939724.000000 0 0 1
-8.611931 -33.052213 -0.933350 34.168484 1.315908 1.598116 0.000354 0.004717 36483.100000 0 0 1
-8.953531 -32.739013 0.387450 33.943465 1.303842 1.559382 0.004367 0.005737 -1041090.000000 0 0 1
-7.895531 -32.354713 1.152650 33.324097 1.331444 1.536200 0.007877 0.003969 -365040.000000 0 0 1
-6.923531 -33.513513 1.587250 34.257995 1.367073 1.524447 0.014189 0.002586 106198.000000 0 0 1
-7.521331 34.291533 2.523250 35.197251 -1.354880 1.499046 0.028709 -0.010440 -331178.000000 0 0 1
-6.696631 33.252533 2.908850 34.044636 -1.372067 1.485250 0.030620 -0.014995 -960273.000000 0 0 1
-6.160731 33.456233 4.316350 34.291471 -1.388693 1.444589 0.036441 -0.020502 -67039.700000 0 0 1
-5.078231 34.365133 4.279950 35.000982 -1.424085 1.448209 0.038329 -0.011825 -28307.900000 0 0 1
-4.612331 -33.869613 5.545250 34.629093 1.435450 1.409971 0.031347 -0.008828 201714.000000 0 0 1
-3.455031 -32.853113 5.381850 33.469816 1.466015 1.409298 0.036569 -0.000305 -74856.200000 0 0 1
-3.690931 -31.667713 4.657950 32.220545 1.454768 1.425723 0.032532 0.006993 -28730.300000 0 0 1
-3.670531 -31.785013 3.229750 32.158842 1.455826 1.470196 0.032924 -0.001981 -110404.000000 0 0 1
-4.100731 -30.500113 2.467750 30.873333 1.437148 1.490780 0.034144 -0.002078 276823.000000 0 0 1
-3.156431 -29.458713 2.630550 29.743884 1.464056 1.482241 0.035281 -0.009374 -37078.800000 0 0 1
-3.735331 -28.290213 2.153350 28.616879 1.439520 1.495478 0.043301 -0.013651 315631.000000 0 0 1
-2.943431 -27.002813 2.554250 27.282593 1.462220 1.477037 0.047672 -0.019438 351605.000000 0 0 1
-3.428131 -25.777113 1.937950 26.076182 1.438581 1.496409 0.061877 -0.024206 -259024.000000 0 0 1
-2.993231 -24.582413 2.560650 24.896011 1.449630 1.467760 0.043488 -0.021526 -22120.000000 0 1 0
-3.997931 -24.027913 3.603650 24.623370 1.405920 1.423918 0.035026 -0.016369 27843.000000 0 1 0
-4.135631 -24.868113 4.720050 25.647716 1.406002 1.385707 0.046141 -0.012555 -298270.000000 0 0 1
-4.935631 -24.157813 5.632050 25.291903 1.369262 1.346232 0.027216 -0.004405 145897.000000 0 0 1
-5.735931 -25.095713 6.579450 26.570376 1.346094 1.320570 0.030002 -0.003342 23708.900000 0 0 1
-4.888031 -25.728613 7.532450 27.250544 1.383050 1.290735 0.032144 -0.007144 -270440.000000 0 0 1
-5.509231 -26.648513 8.366150 28.469059 1.366931 1.272525 0.025380 -0.007143 -104534.000000 0 0 1
-4.689231 -27.008213 9.640450 29.058058 1.398888 1.232622 0.023377 -0.001274 57375.200000 0 0 1
-4.572831 -25.998113 10.662350 28.469253 1.396686 1.186916 0.022475 -0.004117 291887.000000 0 0 1
-5.762731 -25.815013 11.413350 28.807786 1.351166 1.163433 0.020108 -0.002524 205094.000000 0 0 1
-5.373131 -24.809513 12.531950 28.309579 1.357515 1.112216 0.029179 -0.003296 358342.000000 0 0 1
-4.439331 -25.349913 13.433250 29.030638 1.397432 1.089728 0.029234 -0.001373 -420863.000000 0 0 1
-3.654031 -24.402013 14.084350 28.410897 1.422158 1.052112 0.021552 -0.001690 -49841.600000 0 0 1
-2.559431 -25.109313 14.913050 29.315991 1.469216 1.037122 0.039170 -0.007925 260308.000000 0 0 1
-3.028731 -25.610713 16.175450 30.442191 1.453083 1.010603 0.029133 -0.003837 -581155.000000 0 0 1
-1.959331 -26.172013 16.808750 31.166445 1.496072 1.001165 0.035209 0.001076 -355731.000000 0 0 1
-2.471031 -26.806613 18.136650 32.459799 1.478876 0.977928 0.041568 -0.003736 260801.000000 0 0 1
-2.957531 -25.819713 19.021350 32.205843 1.456748 0.938972 0.055190 -0.005257 -161151.000000 0 0 1
-2.780831 -26.238113 20.370850 33.333813 1.465206 0.913326 0.063769 -0.011063 79316.700000 0 0 1
-3.089031 -25.166513 21.444350 33.207765 1.448664 0.868774 0.071655 -0.020197 -163428.000000 0 0 1
-2.540831 -25.532713 22.702150 34.260223 1.471610 0.846460 0.059076 -0.026799 104538.000000 0 0 1
-2.432631 -24.513713 23.705750 34.187752 1.471885 0.804601 0.051433 -0.025720 347661.000000 0 0 1
-1.461331 -23.319813 23.439450 33.096178 1.508213 0.783819 0.059507 -0.019316 205463.000000 0 0 1
-2.036231 -22.454313 22.500550 31.853056 1.480360 0.786417 0.066362 -0.009435 -402269.000000 0 0 1
-1.068331 -21.508013 22.207450 30.933910 1.521166 0.770016 0.076824 -0.013277 -542540.000000 0 0 1
-1.615531 -20.315213 21.413750 29.561233 1.491440 0.760653 0.061781 0.003344 -621894.000000 0 0 1
-2.233231 -19.249413 22.162750 29.440019 1.455297 0.718475 0.050709 -0.007669 366305.000000 0 0 1
-3.536531 -19.547813 22.658950 30.133902 1.391815 0.719793 0.077054 -0.008402 -186999.000000 0 0 1
-4.656131 -19.510913 21.613850 29.487519 1.336535 0.748100 0.065947 -0.004110 -1035390.000000 0 0 1
-4.654131 -20.459813 20.568850 29.382690 1.347126 0.795353 0.054540 0.002664 -590435.000000 0 0 1
-5.122931 -21.739813 20.857150 30.559525 1.339371 0.819606 0.056635 -0.003344 -246991.000000 0 0 1
-5.280231 -22.489313 19.538350 30.255531 1.340185 0.868755 0.035063 0.004141 -59515.900000 0 0 1
-5.862831 -23.738113 19.579850 31.324772 1.328662 0.895588 0.029178 -0.005538 -356305.000000 0 0 1
-5.817231 -24.280613 18.272950 30.940088 1.335645 0.939005 0.027906 -0.005360 157413.000000 0 0 1
-6.333931 -25.760213 18.251150 32.199561 1.329699 0.968163 0.009410 -0.007450 -1120020.000000 0 0 1
-7.693131 -25.789313 18.342050 32.568447 1.280894 0.972562 0.024133 -0.010526 -2011730.000000 0 0 1
-8.256231 -27.068613 18.211550 33.653168 1.274748 0.998987 0.036227 -0.013176 1022120.000000 0 0 1
-9.823631 -26.945113 18.131850 33.930912 1.221193 1.007028 0.033029 -0.014229 72692.200000 0 0 1
-10.328931 -26.211213 17.055350 32.933258 1.195416 1.026430 0.046972 -0.014034 1199070.000000 0 0 1
-11.779031 -26.224613 16.957450 33.377103 1.148642 1.037870 0.064780 -0.015570 1739750.000000 0 0 1
-12.488431 -25.342813 18.057350 33.530389 1.112941 1.002097 0.057242 -0.020144 -846577.000000 0 0 1
-12.531731 -23.930513 17.801550 32.351336 1.088391 0.988124 0.052961 -0.016317 -196053.000000 0 0 1
-12.691531 -23.087213 18.955050 32.455944 1.068167 0.947119 0.053901 -0.018664 53484.500000 0 0 1
-11.375031 -22.761713 19.703850 32.182738 1.107353 0.911894 0.052645 -0.018366 210462.000000 0 0 1
-10.779331 -23.847013 20.398150 33.180695 1.146264 0.908715 0.048623 -0.018583 547888.000000 0 0 1
-9.357931 -23.666713 20.411150 32.623599 1.194258 0.894824 0.057054 -0.027382 602980.000000 0 0 1
-8.665731 -24.634813 21.343850 33.727271 1.232548 0.885585 0.055143 -0.029329 -143593.000000 0 0 1
-8.793231 -24.252713 22.713250 34.371598 1.222970 0.848893 0.060013 -0.027228 207736.000000 0 0 1
-7.900131 -25.004713 23.518950 35.224831 1.264775 0.839707 0.059055 -0.029151 60010.200000 0 0 1
-7.967431 -24.743313 25.029650 36.085937 1.259277 0.804305 0.068560 -0.032647 46345.300000 0 0 1
-6.888931 -25.447213 25.609350 36.754004 1.306419 0.799902 0.081763 -0.030343 -43812.000000 0 0 1
-6.545931 -24.807413 26.795450 37.097885 1.312807 0.763688 0.079095 -0.025318 527440.000000 0 0 1
-5.265931 -25.280513 27.601050 37.797517 1.365433 0.752131 0.087227 -0.021313 741874.000000 0 0 1
-4.079731 -24.795013 27.042350 36.915113 1.407719 0.748728 0.086414 -0.023005 -193902.000000 0 0 1
-2.960631 -24.793413 27.894350 37.437594 1.451947 0.730128 0.075137 -0.020057 888901.000000 0 0 1
-1.711131 -23.925613 27.482450 36.478048 1.499399 0.717583 0.061673 -0.020211 178495.000000 0 0 1
-1.832831 -22.538313 27.599950 35.680416 1.489654 0.686401 0.060239 -0.020856 -235269.000000 0 0 1
-0.795331 -21.821613 26.956850 34.691312 1.534366 0.680832 0.060301 -0.026207 470264.000000 0 0 1
0.428769 -21.552113 27.897150 35.255190 -1.550904 0.657877 0.045586 -0.016091 25394.200000 0 0 1
1.092369 -22.785313 28.219850 36.286687 -1.522891 0.679811 0.050323 -0.024268 -91295.000000 0 0 1
1.871169 -22.716613 29.378550 37.183934 -1.488612 0.659845 0.054251 -0.032597 -266755.000000 0 0 1
2.469169 -24.010213 29.886650 38.416129 -1.468318 0.679366 0.060198 -0.036615 124914.000000 0 0 1
3.532369 -24.545813 29.076750 38.215598 -1.427868 0.706158 0.056170 -0.041124 612216.000000 0 0 1
4.181169 -25.632013 29.693450 39.448488 -1.409098 0.718621 0.045011 -0.034021 -1111150.000000 0 0 1
5.314069 -25.371913 30.755650 40.222920 -1.364334 0.700329 0.039471 -0.033031 378480.000000 0 0 1
6.490769 -24.816213 30.189450 39.615368 -1.314974 0.704301 0.043387 -0.030162 26232.400000 0 0 1
7.179669 -25.707413 29.346850 39.669337 -1.298452 0.738043 0.034692 -0.019530 -1140660.000000 0 0 1
8.373369 -24.953813 28.671250 38.921031 -1.247048 0.742690 0.021565 -0.006300 353816.000000 0 0 1
7.957369 -24.113613 27.620950 37.519367 -1.252053 0.743390 0.030681 -0.011796 533431.000000 0 0 1
9.127469 -23.708113 26.920850 37.015098 -1.203293 0.756426 0.017311 -0.000509 431526.000000 0 0 1
8.839269 -22.588913 25.945750 35.518637 -1.197804 0.751768 0.027581 -0.000034 -17937.100000 0 0 1
8.420069 -23.024013 24.663550 34.774896 -1.220197 0.782385 0.028084 0.008817 -13823.400000 0 0 1
8.214469 -21.864613 23.853450 33.384515 -1.211415 0.774878 0.020782 0.015057 -139744.000000 0 0 1
7.451769 -22.108413 22.528750 32.432320 -1.245699 0.802879 0.027627 0.025104 -222998.000000 0 0 1
8.230369 -22.793813 21.619350 32.476040 -1.224286 0.842363 0.016449 0.033607 -810173.000000 0 0 1
7.530469 -23.037613 20.490050 31.737702 -1.254868 0.868980 0.027564 0.022705 -747628.000000 0 0 1
8.202169 -24.029513 19.603650 32.077970 -1.241860 0.913315 0.028444 0.008193 481151.000000 0 0 1
9.335369 -23.450413 18.920250 31.544363 -1.191938 0.927548 0.015821 0.003673 373843.000000 0 0 1
9.911969 -24.371713 18.003250 31.880159 -1.184528 0.970707 0.022213 -0.006917 221121.000000 0 0 1
11.108769 -23.736113 17.249250 31.374264 -1.133066 0.988684 0.018754 -0.016989 222443.000000 0 0 1
10.756569 -22.765913 16.308050 29.999051 -1.129401 0.996054 0.034654 -0.007656 -438075.000000 0 0 1
11.927669 -22.084813 15.944450 29.736068 -1.075598 1.004869 0.036774 -0.024541 -51871.400000 0 0 1
-12.416731 22.621733 11.360050 28.195190 -1.068810 1.156105 0.031634 -0.022006 -392463.000000 0 0 1
-13.532731 21.780233 11.251550 28.001977 -1.014840 1.157301 0.007328 -0.023764 -311253.000000 0 0 1
-13.121631 20.549333 10.744150 26.643743 -1.002518 1.155728 0.037269 -0.031762 155958.000000 0 0 1
-14.084931 19.912933 9.693950 26.246578 -0.955171 1.192496 0.027406 -0.029195 -417122.000000 0 0 1
-14.066731 20.579233 8.442350 26.318264 -0.971203 1.244244 0.027446 -0.030423 55213.300000 0 0 1
-14.844831 20.042833 7.342450 25.999918 -0.933303 1.284498 0.027461 -0.024046 -1091180.000000 0 0 1
-16.344631 20.079133 7.415350 26.931505 -0.887570 1.291852 0.013616 -0.016209 -1398100.000000 0 0 1
-16.827131 19.268833 8.456350 26.943462 -0.852940 1.251545 0.016754 -0.020993 -511612.000000 0 0 1
-18.228731 19.327033 8.474150 27.886055 -0.814634 1.262029 0.029181 -0.012140 -428543.000000 0 0 1
-18.865331 18.225233 9.365350 27.852641 -0.768142 1.227868 0.028925 -0.010978 -150032.000000 0 0 1
-18.746931 16.872233 8.805250 26.714268 -0.732815 1.234907 0.027589 -0.016293 226343.000000 0 0 1
-19.251431 15.833133 9.666350 26.734697 -0.688274 1.200850 0.038114 -0.021691 -725062.000000 0 0 1
-18.303131 15.225133 10.697850 26.100829 -0.693852 1.148489 0.040123 -0.017197 -4121.610000 0 0 1
-17.265331 14.459933 10.065650 24.667765 -0.697200 1.150481 0.021714 -0.012713 375986.000000 0 1 0
-16.461931 13.607933 10.850250 23.956188 -0.690769 1.100758 0.022596 -0.018922 162898.000000 0 1 0
-17.178831 12.547533 11.767650 24.311117 -0.630843 1.065526 0.022180 -0.013821 -243170.000000 0 1 0
-17.899431 11.578433 11.045550 24.009455 -0.574165 1.092745 0.005968 -0.016207 287126.000000 0 1 0
-18.818231 10.875133 11.908350 24.783122 -0.524014 1.069569 0.019845 -0.011632 1184150.000000 0 1 0
-19.915131 10.000533 11.145350 24.916700 -0.465372 1.107047 0.015716 -0.015132 406047.000000 0 1 0
-19.358031 8.974633 10.324750 23.703963 -0.434117 1.120124 0.014478 -0.016452 144580.000000 0 1 0
-18.918531 9.440933 9.045650 22.997083 -0.462872 1.166536 0.025871 -0.011350 -1040660.000000 0 1 0
-19.863931 9.908633 7.968150 23.584914 -0.462707 1.226165 0.039159 -0.016456 -778237.000000 0 1 0
-20.334731 8.773133 7.283950 23.313624 -0.407309 1.253043 0.022581 -0.021966 418085.000000 0 1 0
-21.213031 9.002833 6.208250 23.866002 -0.401363 1.307640 0.036448 -0.015646 -41760.500000 0 1 0
-21.332231 7.739333 5.325350 23.309241 -0.348032 1.340295 0.036007 -0.016333 -20197.600000 0 1 0
-22.187731 6.727633 5.884150 23.920278 -0.294403 1.322255 0.039296 -0.017104 637617.000000 0 1 0
-21.827931 5.412933 5.500850 23.152058 -0.243078 1.330905 0.041447 -0.013270 -62716.600000 0 1 0
-22.929031 4.323033 5.774050 24.036820 -0.186352 1.328207 0.063156 -0.011087 291638.000000 0 1 0
-24.039531 4.440033 4.912650 24.934857 -0.182639 1.372480 0.073979 -0.016254 -182637.000000 0 1 0
-24.842031 3.310833 4.968050 25.549357 -0.132495 1.375101 0.092026 -0.019081 -939518.000000 0 0 1
-25.809361 3.327833 3.782950 26.296545 -0.128231 1.426438 0.088192 -0.021329 -420479.000000 0 0 1
-25.251391 3.124133 2.487450 25.565218 -0.123096 1.473344 0.088429 -0.016143 581595.000000 0 0 1
-26.294601 3.078233 1.499750 26.516614 -0.116537 1.514207 0.082377 -0.018310 295160.000000 0 0 1
-25.886371 3.033333 0.021350 26.063495 -0.116647 1.569977 0.096225 -0.015460 -374397.000000 0 0 1
-25.341671 4.279733 -0.479550 25.704987 -0.167303 1.589453 0.092044 -0.017809 510008.000000 0 0 1
-25.478711 4.513833 -1.909450 25.945817 -0.175342 1.644457 0.103464 -0.012765 -213188.000000 0 0 1
-26.913041 4.869133 -2.361250 27.451698 -0.178985 1.656917 0.093335 -0.020470 216416.000000 0 0 1
-27.884401 3.845133 -2.159750 28.231001 -0.137031 1.647374 0.077446 -0.018896 93108.000000 0 0 1
-29.155921 4.344933 -2.503550 29.584015 -0.147935 1.655523 0.060345 -0.003890 -445684.000000 0 0 1
-30.228071 3.266933 -2.575150 30.512957 -0.107658 1.655292 0.055703 -0.002259 -572503.000000 0 0 1
-30.393261 2.624233 -3.842250 30.747354 -0.086129 1.696086 0.056437 -0.008095 466493.000000 0 0 1
-31.260821 1.499733 -3.804550 31.527175 -0.047938 1.691766 0.069349 -0.012987 -42369.600000 0 0 1
-31.433181 0.936333 -5.187150 31.872059 -0.029779 1.734273 0.070031 -0.015058 -599014.000000 0 0 1
-30.250241 0.351633 -5.670350 30.779110 -0.011624 1.756082 0.077619 -0.018759 83416.600000 0 0 1
-30.241701 -0.242767 -6.981550 31.038065 0.008027 1.797673 0.078043 -0.016468 -283086.000000 0 0 1
-30.697431 0.637333 -8.190650 31.777747 -0.020759 1.831487 0.071783 -0.021673 -836282.000000 0 0 1
-32.036921 0.991433 -8.251050 33.097237 -0.030937 1.822751 0.066834 -0.022900 -418578.000000 0 0 1
-32.314791 1.754433 -9.438550 33.710681 -0.054239 1.854577 0.083662 -0.026588 86986.800000 0 0 1
-33.832351 2.064333 -9.552950 35.215739 -0.060941 1.845508 0.104356 -0.028347 185413.000000 0 0 1
-34.100670 2.832133 -8.417350 35.238168 -0.082862 1.811999 0.077683 -0.019443 23936.200000 0 0 1
-35.506236 2.928033 -8.271950 36.574463 -0.082279 1.798938 0.087944 -0.019553 -198369.000000 0 0 1
35.854411 3.827533 -7.070050 36.744719 0.106349 1.764414 0.098720 -0.016177 -1579700.000000 0 0 1
34.509400 3.721333 -6.862850 35.381431 0.107420 1.766001 0.117025 -0.028582 -1061650.000000 0 0 1
34.064760 4.389433 -5.669550 34.811187 0.128149 1.734391 0.115355 -0.028866 381163.000000 0 0 1
32.562620 4.133733 -5.363850 33.259327 0.126272 1.732777 0.126400 -0.033448 355625.000000 0 0 1
32.421860 2.811133 -4.891250 32.909023 0.086489 1.719979 0.128692 -0.030211 -639123.000000 0 0 1
31.113420 2.441033 -4.623950 31.549714 0.078296 1.717887 0.135002 -0.029490 -634591.000000 0 0 1
31.033830 1.062033 -3.932050 31.299960 0.034208 1.696754 0.140375 -0.017035 -188317.000000 0 0 1
31.695230 0.076833 -4.664450 32.036707 0.002424 1.716913 0.108512 -0.021695 106524.000000 0 0 1
31.526210 -1.210867 -4.079450 31.812105 -0.038389 1.699386 0.105975 -0.014830 -147357.000000 0 0 1
32.726070 -2.130767 -4.352650 33.082947 -0.065017 1.702747 0.102782 -0.029329 -156774.000000 0 0 1
32.717960 -3.348667 -3.654850 33.091334 -0.101994 1.681469 0.083260 -0.022414 -538648.000000 0 0 1
33.912280 -4.062967 -3.701450 34.354783 -0.119240 1.678748 0.103248 -0.023051 -443966.000000 0 0 1
33.736970 -5.531967 -3.182150 34.335286 -0.162527 1.663608 0.088618 -0.016967 21820.600000 0 0 1
33.463960 -5.705967 -1.798950 33.994571 -0.168887 1.623740 0.077656 -0.009426 80052.500000 0 0 1
33.572140 -7.108667 -1.507950 34.349609 -0.208661 1.614711 0.085820 -0.015013 -189438.000000 0 0 1
33.303920 -7.323667 0.030550 34.099679 -0.216459 1.569900 0.069421 -0.008833 -166610.000000 0 0 1
31.958420 -7.077167 0.390250 32.734984 -0.217932 1.558875 0.057108 -0.016259 -6471.700000 0 0 1
31.645870 -7.472967 1.733850 32.562440 -0.231895 1.517524 0.045008 -0.015823 -379452.000000 0 0 1
31.548730 -9.033967 1.892550 32.871213 -0.278887 1.513190 0.057383 -0.014952 -71221.900000 0 0 1
30.415270 -9.609767 1.308050 31.924086 -0.306027 1.529811 0.060850 -0.023224 647233.000000 0 0 1
29.088830 -9.434767 1.787050 30.632799 -0.313638 1.512425 0.055877 -0.027044 224360.000000 0 0 1
28.075920 -10.548667 1.471850 30.028286 -0.359401 1.521761 0.067726 -0.022971 756500.000000 0 0 1
26.739870 -10.500467 2.008450 28.797818 -0.374188 1.500997 0.092642 -0.029509 1500940.000000 0 0 1
25.757560 -9.599967 1.535250 27.531223 -0.356757 1.515003 0.086544 -0.029261 80020.600000 0 0 1
25.149060 -9.926267 0.130750 27.037438 -0.375927 1.565960 0.075874 -0.021891 -719469.000000 0 0 1
26.078260 -9.748567 -0.908350 27.855615 -0.357735 1.603411 0.066599 -0.025068 331087.000000 0 0 1
25.511460 -9.804167 -2.201150 27.418996 -0.366903 1.651161 0.062716 -0.019945 -105145.000000 0 0 1
24.792060 -11.144967 -2.655050 27.311276 -0.422469 1.668165 0.057925 -0.009169 -676542.000000 0 0 1
23.510460 -11.290967 -2.181050 26.172211 -0.447726 1.654228 0.049907 0.003926 -971819.000000 0 0 1
23.051860 -12.624367 -2.320050 26.384569 -0.501038 1.658842 0.039149 0.010215 -598767.000000 0 0 1
21.603160 -12.855767 -1.875050 25.208789 -0.536799 1.645246 0.039109 0.011122 -664582.000000 0 0 1
20.806860 -12.345867 -2.920250 24.369524 -0.535520 1.690917 0.043288 0.004767 -638729.000000 0 1 0
19.484360 -12.364167 -2.443450 23.205244 -0.565451 1.676289 0.056286 -0.002432 4551.340000 0 1 0
18.456360 -11.954667 -3.566450 22.277137 -0.574775 1.731583 0.042743 0.006445 298887.000000 0 1 0
18.259160 -12.888667 -4.623950 22.823136 -0.614657 1.774808 0.031816 -0.000120 96884.600000 0 1 0
17.425460 -12.330267 -5.597350 22.068359 -0.615809 1.827235 0.030260 0.005154 -498592.000000 0 1 0
17.470260 -13.079467 -6.927450 22.896986 -0.642650 1.878162 0.030970 -0.000032 -134443.000000 0 1 0
16.763260 -14.326767 -6.900050 23.105710 -0.707189 1.874053 0.017556 -0.002206 338598.000000 0 1 0
16.814160 -14.876167 -8.204250 23.902427 -0.724320 1.921160 0.020081 -0.007370 -192191.000000 0 1 0
15.837460 -16.031867 -8.464850 24.072797 -0.791498 1.930114 0.015980 -0.012972 -252682.000000 0 1 0
14.474260 -15.715167 -8.643250 23.047265 -0.826479 1.955218 0.018416 -0.004389 245273.000000 0 1 0
13.793960 -16.764667 -9.348050 23.637119 -0.882307 1.977389 0.022666 -0.003640 94714.100000 0 1 0
13.640760 -16.430367 -10.878850 23.966156 -0.877900 2.041962 0.033566 -0.008962 -224326.000000 0 1 0
12.859260 -15.303767 -11.309950 22.966950 -0.871980 2.085693 0.021197 -0.005101 448766.000000 0 1 0
13.370760 -14.011667 -10.959450 22.253394 -0.808800 2.085738 0.022814 0.003177 -160320.000000 0 1 0
13.396360 -13.022567 -12.180450 22.302759 -0.771250 2.148547 0.041055 0.004022 250990.000000 0 1 0
14.452060 -13.193767 -13.152050 23.577827 -0.739915 2.162546 0.046885 -0.003321 663369.000000 0 1 0
14.288260 -12.409467 -14.315750 23.729516 -0.715141 2.218415 0.067520 -0.004640 -434894.000000 0 1 0
15.617460 -12.047067 -14.978850 24.766970 -0.657047 2.220300 0.074344 -0.017109 67698.300000 0 1 0
16.379260 -13.119567 -15.556550 26.122967 -0.675342 2.208700 0.081081 -0.018920 -344694.000000 0 0 1
17.591860 -12.658667 -16.042650 26.964458 -0.623743 2.208006 0.086681 -0.020566 -158185.000000 0 0 1
18.683960 -13.791867 -16.241650 28.338968 -0.635884 2.181105 0.088416 -0.021235 111925.000000 0 0 1
19.105460 -14.240667 -14.983450 28.148161 -0.640532 2.132119 0.054455 -0.029751 548216.000000 0 0 1
20.192060 -15.179567 -15.186450 29.474850 -0.644626 2.112077 0.044729 -0.016079 925971.000000 0 0 1
21.365260 -14.978967 -14.170950 29.692753 -0.611457 2.068322 0.034012 -0.018027 304861.000000 0 0 1
22.038460 -13.753567 -14.432650 29.717935 -0.557931 2.077908 0.036167 -0.013445 -4205.840000 0 0 1
22.942360 -13.397867 -13.410650 29.760716 -0.528556 2.038251 0.036386 -0.012409 66155.600000 0 0 1
23.599260 -12.018167 -13.599950 29.771127 -0.471028 2.045210 0.054533 -0.022581 -283473.000000 0 0 1
22.750860 -10.891767 -13.355650 28.541296 -0.446496 2.057756 0.040312 -0.000921 193309.000000 0 0 1
23.399260 -9.658667 -13.396850 28.640719 -0.391472 2.057546 0.053696 -0.008839 210224.000000 0 0 1
24.418260 -9.366067 -12.239850 28.875397 -0.366261 2.008527 0.058321 -0.013332 625644.000000 0 0 1
25.615760 -10.106367 -12.194250 30.116532 -0.375788 1.987668 0.058641 -0.018841 130661.000000 0 0 1
26.507960 -9.796667 -11.162950 30.385162 -0.354006 1.946989 0.054136 -0.019060 -37375.500000 0 0 1
27.858330 -10.551667 -11.241450 31.840138 -0.362064 1.931635 0.062330 -0.019736 308405.000000 0 0 1
28.703180 -9.986767 -12.242250 32.764016 -0.334832 1.953736 0.042275 -0.016806 683589.000000 0 0 1
29.938640 -10.690267 -12.430550 34.133891 -0.342962 1.943538 0.039256 -0.016035 385834.000000 0 0 1
30.734290 -10.128367 -13.566750 35.088988 -0.318338 1.967780 0.023616 -0.012264 -420195.000000 0 0 1
30.184900 -10.581167 -14.784550 35.237369 -0.337160 2.003768 0.018708 -0.013348 232414.000000 0 0 1
30.954600 -10.136167 -15.851050 36.224093 -0.316449 2.023705 0.015642 -0.009278 -289251.000000 0 0 1
30.571830 -10.909467 -17.141850 36.708259 -0.342762 2.056663 -0.004917 0.007051 459158.000000 0 0 1
29.317690 -10.577267 -17.740250 35.862543 -0.346247 2.088255 -0.000463 0.001891 588766.000000 0 0 1
29.270850 -9.410767 -18.563550 35.915882 -0.311069 2.113977 -0.004358 0.009537 -243837.000000 0 0 1
27.821050 -9.194167 -19.049350 34.948837 -0.319176 2.147262 -0.021477 -0.003391 -55824.400000 0 0 1
27.386410 -9.999267 -20.143750 35.436865 -0.350079 2.175405 -0.028647 0.016767 454122.000000 0 0 1
26.021760 -9.790867 -20.465550 34.522917 -0.359872 2.205341 0.018375 0.012760 223164.000000 0 0 1
25.545360 -10.005367 -21.910550 35.110468 -0.373305 2.244706 0.038251 -0.004502 -49308.500000 0 0 1
25.470260 -11.361367 -22.253850 35.679807 -0.419576 2.244276 0.028743 -0.002191 122709.000000 0 0 1
24.881860 -11.529867 -23.531150 36.135298 -0.433929 2.279955 0.045174 -0.010143 -465359.000000 0 0 1
24.980360 -12.984667 -24.173450 37.107622 -0.479358 2.280279 0.032561 0.002767 872511.000000 0 0 1
26.163860 -13.332367 -24.916550 38.511479 -0.471276 2.274427 0.025486 0.008173 1260070.000000 0 0 1
27.343670 -13.492667 -24.081350 38.854083 -0.458392 2.239271 -0.001249 0.013025 904314.000000 0 0 1
28.585460 -14.027567 -24.846450 40.388702 -0.456199 2.233415 -0.005233 0.024255 129432.000000 0 0 1
29.069750 -13.193367 -25.862140 41.084858 -0.426053 2.251681 -0.003243 0.007467 -156602.000000 0 0 1
30.415840 -13.479467 -26.127900 42.302322 -0.417162 2.236544 -0.021974 0.009866 -95547.500000 0 0 1
31.136390 -12.916667 -27.439280 43.465263 -0.393235 2.254015 -0.004178 -0.003587 361640.000000 0 0 1
30.730670 -13.523567 -28.616200 44.115165 -0.414563 2.276632 -0.005908 -0.005161 432828.000000 0 0 1
31.686880 -13.243067 -29.639050 45.364198 -0.395872 2.282808 -0.012047 -0.009433 413299.000000 0 0 1
31.480250 -14.132667 -30.884090 46.309453 -0.421970 2.300846 -0.003271 -0.017295 24057.300000 0 0 1
31.869130 -15.456967 -30.603460 46.809518 -0.451587 2.283375 -0.002399 -0.015695 -201826.000000 0 0 1
31.924820 -16.395667 -31.697150 47.882370 -0.474446 2.294253 -0.022331 -0.008793 -826750.000000 0 0 1
30.649070 -16.940967 -32.293870 47.636707 -0.504944 2.315726 -0.011769 -0.001715 -686365.000000 0 0 1
29.992960 -16.035167 -33.155200 47.497068 -0.490967 2.343463 0.002074 -0.016736 706844.000000 0 0 1
28.765560 -16.592267 -33.682170 47.299570 -0.523194 2.363286 0.009241 -0.018708 812280.000000 0 0 1
28.044970 -15.652267 33.949368 46.734071 -0.509051 0.757673 0.023277 -0.015378 -159344.000000 0 0 1
27.375500 -14.534667 -34.136598 46.108371 -0.488090 2.404396 0.036969 -0.027464 333849.000000 0 0 1
28.271120 -13.488267 -33.782920 46.070329 -0.445164 2.393945 0.032623 -0.026284 -224193.000000 0 0 1
27.524850 -12.260267 -33.373320 44.963429 -0.419043 2.407192 0.044840 -0.027937 156519.000000 0 0 1
26.769110 -11.629367 34.227805 44.981886 -0.409833 0.706060 0.073942 -0.031954 195112.000000 0 0 1
25.762260 -10.759667 -33.907470 43.922443 -0.395631 2.452755 0.043107 -0.029271 216847.000000 0 0 1
20.887669 -29.469413 8.873850 37.195245 -0.954194 1.329898 0.045495 -0.028563 -2420.890000 0 0 1
21.227169 -29.475913 7.525350 37.095189 -0.946672 1.366513 0.044965 -0.029852 742114.000000 0 0 1
22.531369 -30.057713 7.347050 38.276727 -0.927549 1.377652 0.048427 -0.026959 555649.000000 0 0 1
23.113469 -29.763313 5.949250 38.150764 -0.910503 1.414217 0.037776 -0.019523 -106739.000000 0 0 1
23.368569 -28.370113 5.755650 37.203237 -0.881768 1.415464 0.033078 -0.007790 -77095.500000 0 0 1
24.045069 -28.100013 4.581950 37.266209 -0.863005 1.447533 0.024354 0.003010 -206342.000000 0 0 1
24.069569 -26.590613 4.278750 36.120805 -0.835121 1.452061 0.015777 -0.001671 163901.000000 0 0 1
24.885669 -25.934013 5.227750 36.320778 -0.806024 1.426362 0.028815 -0.006918 256104.000000 0 0 1
24.673869 -24.594913 4.954250 35.188835 -0.783796 1.429537 0.023561 -0.002391 76817.300000 0 0 1
25.395069 -23.689813 5.994850 35.242800 -0.750671 1.399864 0.022735 -0.003434 -55797.100000 0 0 1
26.776469 -23.643513 5.717050 36.175678 -0.723341 1.412095 0.024248 0.000683 -69775.600000 0 0 1
27.547469 -22.687813 6.469050 36.269112 -0.688960 1.391474 0.039790 -0.004710 407575.000000 0 0 1
27.156569 -21.170013 6.552150 35.051096 -0.662149 1.382759 0.031763 -0.001205 -392213.000000 0 0 1
27.288269 -20.480313 5.274550 34.524103 -0.643832 1.417417 0.034570 0.019019 -59886.700000 0 0 1
26.895269 -19.149013 5.379850 33.451203 -0.618724 1.409268 0.046561 0.011941 -158079.000000 0 0 1
27.043869 -18.362613 4.031750 32.936475 -0.596488 1.448079 0.050775 0.016664 60637.500000 0 0 1
28.341869 -17.857513 3.813350 33.714892 -0.562241 1.457448 0.069777 0.017861 10011.500000 0 0 1
28.443069 -17.274313 2.507450 33.372105 -0.545791 1.495589 0.062408 0.025443 307756.000000 0 0 1
29.483469 -16.112413 2.444850 33.687714 -0.500144 1.498159 0.072007 0.008957 321542.000000 0 0 1
29.177869 -15.073013 3.361350 33.012762 -0.476832 1.468800 0.078022 -0.003268 -343936.000000 0 0 1
30.298369 -14.302813 3.626350 33.700327 -0.441051 1.462982 0.084999 -0.010352 -192094.000000 0 0 1
29.931869 -13.177513 4.649950 33.033099 -0.414717 1.429561 0.095521 -0.013552 223477.000000 0 0 1
29.654969 -13.626313 5.956450 33.174883 -0.430722 1.390270 0.083328 -0.014602 -81836.600000 0 0 1
29.583069 -12.491613 6.818650 32.828225 -0.399544 1.361566 0.061876 -0.018812 -633631.000000 0 0 1
29.067969 -12.841513 8.217550 32.823458 -0.415993 1.317748 0.064425 0.000169 -177679.000000 0 0 1
27.703669 -13.217413 8.158250 31.760830 -0.445160 1.311019 0.045428 0.003059 28956.900000 0 0 1
27.049569 -13.430313 9.402850 31.630145 -0.460850 1.268959 0.051533 0.005864 55644.500000 0 0 1
27.430169 -14.715813 10.128350 32.734581 -0.492406 1.256226 0.047073 -0.002737 602252.000000 0 0 1
28.502969 -14.443413 11.087050 33.822390 -0.469020 1.236820 0.041876 0.006278 770894.000000 0 0 1
28.710069 -15.658413 11.750350 34.749456 -0.499303 1.225851 0.040462 0.001812 -181877.000000 0 0 1
29.362369 -15.496113 13.120350 35.699045 -0.485604 1.194448 0.045904 -0.004107 147447.000000 0 0 1
30.749569 -15.248313 12.993750 36.699926 -0.460352 1.208894 0.055441 -0.006535 13953.500000 0 0 1
31.446969 -15.357513 14.234450 37.780744 -0.454294 1.184495 0.066629 -0.009809 798278.000000 0 0 1
32.997269 -15.411313 14.026150 39.026417 -0.436940 1.203170 0.063682 -0.016177 567704.000000 0 0 1
33.446569 -14.088213 13.680250 38.785306 -0.398661 1.210323 0.057698 -0.015746 -480413.000000 0 0 1
34.836769 -14.022413 13.777850 40.000721 -0.382675 1.219154 0.058958 -0.021181 -470077.000000 0 0 1
35.449469 -12.595113 13.800150 40.071759 -0.341387 1.219212 0.052470 -0.021068 398946.000000 0 0 1
-35.232022 -12.491413 12.830150 39.521431 0.340720 1.240168 0.072446 -0.025446 833507.000000 0 0 1
-34.500922 -11.279213 13.067650 38.578462 0.315972 1.225230 0.075090 -0.024800 -434024.000000 0 0 1
-33.357622 -11.027913 12.074650 37.150275 0.319285 1.239762 0.078120 -0.025967 -408754.000000 0 0 1
-32.202722 -11.720913 12.435950 36.456110 0.349068 1.222687 0.052801 -0.023743 -461156.000000 0 0 1
-32.148922 -13.005413 11.838750 36.644917 0.384411 1.241828 0.043534 -0.024509 -477718.000000 0 0 1
-30.987922 -13.935413 12.267250 36.123849 0.422608 1.224317 0.026009 -0.014721 85274.900000 0 0 1
-29.762322 -13.646213 11.632650 34.746704 0.429905 1.229420 0.035374 -0.011912 -538714.000000 0 0 1
-28.864022 -14.669313 11.973950 34.520950 0.470203 1.216575 0.029080 -0.013651 231045.000000 0 0 1
-27.484722 -14.498713 11.246650 33.047084 0.485420 1.223537 0.043468 -0.015756 312734.000000 0 0 1
-27.501222 -14.669313 9.848450 32.687886 0.490014 1.264754 0.026239 -0.001249 188645.000000 0 0 1
-26.192522 -14.554313 9.324750 31.381956 0.507183 1.269103 0.022425 0.002815 92693.500000 0 0 1
-26.155122 -14.343513 7.789850 30.830318 0.501615 1.315359 0.040996 0.008015 -178522.000000 0 0 1
-26.437822 -15.423413 6.981450 31.393960 0.528113 1.346539 0.045525 0.002324 108408.000000 0 0 1
-26.057522 -15.209913 5.619750 30.690674 0.528352 1.386648 0.047243 0.004543 -443971.000000 0 0 1
-26.360322 -16.421013 4.680550 31.407384 0.557120 1.421212 0.035542 -0.001234 496625.000000 0 0 1
-27.738922 -16.537713 4.312150 32.581258 0.537615 1.438056 0.019801 -0.011151 474304.000000 0 0 1
-27.948322 -17.659813 3.481750 33.243048 0.563527 1.465868 0.026600 -0.010459 -53351.500000 0 0 1
-29.415822 -18.134513 3.482950 34.731572 0.552455 1.470346 0.034073 -0.016057 -203146.000000 0 0 1
-30.328922 -17.134113 3.123150 34.973924 0.514243 1.481378 0.047301 -0.024501 -837021.000000 0 0 1
-31.619122 -17.552913 3.439050 36.327685 0.506778 1.475987 0.052569 -0.020750 -676446.000000 0 0 1
-32.689722 -16.627713 2.834850 36.784985 0.470546 1.493654 0.066455 -0.037336 -63054.000000 0 0 1
-32.962422 -16.885313 1.482550 37.065253 0.473407 1.530787 0.072893 -0.029358 -647243.000000 0 0 1
-34.143122 -16.265713 1.077250 37.834992 0.444588 1.542320 0.091300 -0.034308 -293442.000000 0 0 1
-34.768922 -16.880113 -0.183450 38.650353 0.451976 1.575543 0.078936 -0.024819 432942.000000 0 0 1
-33.806722 -16.883913 -1.271950 37.809771 0.463187 1.604443 0.089074 -0.021929 903768.000000 0 0 1
-34.229822 -17.792513 -2.285450 38.645536 0.479358 1.629970 0.081407 -0.015871 -320994.000000 0 0 1
-33.117222 -18.161113 -3.256150 37.910143 0.501605 1.656794 0.068578 -0.016018 -578704.000000 0 0 1
-33.437722 -19.196513 -4.123650 38.776176 0.521156 1.677343 0.064291 -0.017729 398494.000000 0 0 1
-32.335922 -19.741913 -4.851650 38.195464 0.548123 1.698162 0.062774 -0.016119 356399.000000 0 0 1
-32.869222 -20.804313 -5.927850 39.349010 0.564290 1.722020 0.066064 -0.014420 200890.000000 0 0 1
-33.379822 -22.011913 -5.371350 40.343379 0.582981 1.704334 0.078849 -0.020653 115660.000000 0 0 1
-33.727922 -22.982713 -6.389050 41.310988 0.598144 1.726077 0.056702 -0.016670 211134.000000 0 0 1
-34.373322 -24.257813 -5.816350 42.471127 0.614552 1.708176 0.047858 -0.013854 -118984.000000 0 0 1
-33.391822 -25.087513 -5.252950 42.095018 0.644337 1.695910 0.055079 -0.010235 -168260.000000 0 0 1
-33.966122 -26.381213 -5.001250 43.297556 0.660366 1.686564 0.034008 0.004112 390009.000000 0 0 1
-33.009322 -27.363713 -4.295150 43.091025 0.692157 1.670638 0.030660 0.000991 -11749.500000 0 0 1
-31.873622 -27.687813 -5.061450 42.522477 0.715236 1.690109 0.031804 0.003508 468945.000000 0 0 1
-30.880722 -28.591413 -4.602050 42.335171 0.746923 1.679717 0.025166 0.007148 544585.000000 0 0 1
-29.996222 -28.301513 -3.368450 41.377475 0.756336 1.652294 0.018673 0.008040 -409165.000000 0 0 1
-30.606322 -28.430613 -2.090350 41.826023 0.748561 1.620794 0.014185 0.006506 -343720.000000 0 0 1
-29.718722 -28.361813 -1.018450 41.092969 0.762040 1.595583 0.018482 -0.001207 -27699.300000 0 0 1
-30.479822 -28.491513 0.347250 41.724171 0.751694 1.562474 0.017030 0.005391 187523.000000 0 0 1
-30.927122 -29.783513 0.668950 42.941728 0.766563 1.555218 0.007269 0.011766 -288054.000000 0 0 1
-31.557422 -29.659613 1.917750 43.350216 0.754407 1.526543 0.021123 0.015027 -409283.000000 0 0 1
-32.341922 -30.907313 2.311850 44.795162 0.762720 1.519164 0.008410 0.012157 -299339.000000 0 0 1
-33.177522 -30.708613 3.481750 45.341917 0.746772 1.493932 0.013770 0.011578 670100.000000 0 0 1
-33.913222 -31.818013 3.961250 46.671019 0.753534 1.485818 0.009937 0.014843 871734.000000 0 0 1
-35.008122 -32.478813 3.022950 47.849557 0.747937 1.507578 0.007328 0.018957 249694.000000 0 0 1
-35.817922 -33.455013 3.645450 49.147235 0.751301 1.496554 0.024240 0.014969 1926.560000 0 0 1
34.995969 -33.919313 2.685450 48.810340 -0.769777 1.515750 0.017424 0.020979 -808655.000000 0 0 1
33.792869 33.977933 3.246950 48.031246 0.788129 1.503144 0.025877 0.016976 645699.000000 0 0 1
32.814869 -34.066713 4.024050 47.471565 -0.804113 1.485927 0.037965 0.009879 593480.000000 0 0 1
32.270369 -32.872013 3.451050 46.193676 -0.794634 1.496018 0.032106 0.016498 -1012630.000000 0 0 1
31.466769 -32.854813 2.153650 45.543764 -0.806975 1.523491 0.037317 0.009984 -1366100.000000 0 0 1
32.232569 -33.222713 1.080050 46.301767 -0.800524 1.547468 0.040775 0.016882 -1050710.000000 0 0 1
31.543469 -33.294313 -0.145950 45.864180 -0.812395 1.573979 0.041554 0.021403 -603389.000000 0 0 1
32.267669 -33.979913 -1.364050 46.879607 -0.811239 1.599897 0.041557 0.004324 1082910.000000 0 0 1
33.330169 -33.230313 -2.014250 47.108503 -0.783898 1.613567 0.027150 0.004838 719102.000000 0 0 1
34.544069 -33.199513 -1.263750 47.928044 -0.765553 1.597167 0.028277 0.014761 -522308.000000 0 0 1
35.790769 -33.112213 -2.124250 48.804818 -0.746543 1.614335 0.013118 0.007433 -666326.000000 0 0 1
-35.581822 -34.362113 -2.696050 49.538768 0.767962 1.625246 0.007974 0.004483 226087.000000 0 0 1
-35.039322 -34.219213 -4.011750 49.140642 0.773557 1.652525 0.014315 0.013657 -345474.000000 0 0 1
-34.346122 33.237533 -4.469150 48.003781 -0.768996 1.664031 0.018980 0.003367 544901.000000 0 0 1
-33.109022 32.958233 -3.790550 46.870254 -0.783116 1.651758 0.029430 0.004357 722141.000000 0 0 1
-32.494322 31.800633 -4.353650 45.674013 -0.774609 1.666261 0.036258 -0.007365 942952.000000 0 0 1
-31.196022 31.251633 -3.637950 44.306783 -0.786289 1.652997 0.044687 -0.011616 363757.000000 0 0 1
-30.055622 32.092033 -3.695850 44.123670 -0.818154 1.654656 0.019383 -0.009406 219460.000000 0 0 1
-28.885222 31.471933 -3.178950 42.836250 -0.828229 1.645076 0.023852 -0.024040 442813.000000 0 0 1
-28.826422 31.268333 -1.640950 42.560122 -0.826010 1.609362 0.021581 -0.017771 -914730.000000 0 0 1
-29.829222 30.457633 -1.088550 42.645455 -0.795821 1.596325 0.018575 -0.013212 -437464.000000 0 0 1
-29.697722 30.114233 0.283350 42.295413 -0.792362 1.564097 0.014446 -0.014356 -90479.000000 0 0 1
-30.986522 29.476533 0.859450 42.775801 -0.760430 1.550703 0.017266 -0.015404 -34827.900000 0 0 1
-31.260122 28.146433 0.410050 42.066436 -0.733033 1.561048 0.024608 -0.028172 -102448.000000 0 0 1
-32.391722 28.132633 -0.439150 42.905262 -0.715144 1.581032 0.035207 -0.021406 -76122.000000 0 0 1
-32.559422 26.736533 -1.031350 42.142874 -0.687512 1.595271 0.037608 -0.021473 -47090.900000 0 0 1
-32.986222 25.752833 -0.063050 41.848575 -0.662871 1.572303 0.048123 -0.022303 122026.000000 0 0 1
-33.259322 24.537933 -0.696350 41.337363 -0.635632 1.587643 0.041546 -0.016235 -327568.000000 0 0 1
-33.487822 23.323033 0.256250 40.810094 -0.608348 1.564517 0.070628 -0.020519 174018.000000 0 0 1
-32.284222 22.810033 0.803550 39.537505 -0.615100 1.550471 0.065865 -0.031211 305815.000000 0 0 1
-31.860722 23.548633 1.916650 39.665063 -0.636496 1.522457 0.061161 -0.030109 -559818.000000 0 0 1
-30.324022 23.542533 2.089650 38.446896 -0.660163 1.516418 0.060858 -0.038721 160170.000000 0 0 1
-29.546022 24.469633 1.292150 38.384893 -0.691693 1.537127 0.070259 -0.033962 386912.000000 0 0 1
-29.550822 25.773233 1.782150 39.251582 -0.717223 1.525377 0.030470 -0.024749 -481017.000000 0 0 1
-28.650922 26.622933 0.877550 39.120659 -0.748725 1.548363 0.027033 -0.031899 -484941.000000 0 0 1
-27.281722 26.288533 0.866450 37.896306 -0.766860 1.547931 0.034873 -0.031088 -557831.000000 0 0 1
-26.723922 27.191733 -0.013750 38.125563 -0.794075 1.571157 0.041248 -0.027688 -566798.000000 0 0 1
-25.630622 26.629933 -0.918750 36.971965 -0.804518 1.595649 0.043398 -0.031792 -796017.000000 0 0 1
-26.001922 25.603533 -1.854250 36.538734 -0.777678 1.621566 0.060691 -0.036379 378888.000000 0 0 1
-24.911222 25.148933 -2.669850 35.498815 -0.790147 1.646077 0.059121 -0.032295 696062.000000 0 0 1
-23.804822 24.293633 -2.034950 34.073320 -0.795561 1.630555 0.056252 -0.034717 -104481.000000 0 0 1
-24.212022 22.949733 -1.805650 33.409170 -0.758639 1.624869 0.052082 -0.033548 412241.000000 0 0 1
-23.237022 22.209033 -1.061550 32.160958 -0.762782 1.603810 0.050451 -0.041911 -564677.000000 0 0 1
-23.798222 20.797633 -0.777050 31.614881 -0.718215 1.595377 0.038763 -0.029962 243481.000000 0 0 1
-24.758622 20.660433 0.303850 32.248026 -0.695411 1.561374 0.032718 -0.028682 1531920.000000 0 0 1
-26.068022 21.226033 0.138150 33.617039 -0.683373 1.566687 0.024533 -0.026950 710838.000000 0 0 1
-26.963322 20.794533 -1.084250 34.067711 -0.656941 1.602628 0.022544 -0.034578 -551411.000000 0 0 1
-27.266922 19.400833 -0.844750 33.475229 -0.618413 1.596034 0.013378 -0.022474 26832.700000 0 0 1
-28.182022 19.035633 -1.831350 34.057826 -0.594061 1.624594 0.038605 -0.025751 -541864.000000 0 0 1
-28.500522 17.499933 -1.734850 33.489358 -0.550666 1.622623 0.009032 -0.009652 214991.000000 0 0 1
-29.451822 17.140133 -0.725050 34.084009 -0.527058 1.592070 0.027341 -0.008281 663132.000000 0 0 1
-29.690122 15.734933 -0.689750 33.609034 -0.487337 1.591321 0.032234 -0.016349 94482.500000 0 0 1
-28.528622 14.860933 -0.100150 32.167369 -0.480238 1.573910 0.038268 -0.013035 -147154.000000 0 0 1
-28.394322 15.113333 1.297350 32.192133 -0.489126 1.530485 0.049307 -0.011489 542716.000000 0 0 1
-27.156822 14.682033 1.859050 30.927514 -0.495628 1.510650 0.052351 -0.016254 118577.000000 0 0 1
-27.008422 13.150233 1.976150 30.104628 -0.453108 1.505106 0.065917 -0.014548 -465129.000000 0 0 1
-26.536422 12.591433 0.779450 29.382536 -0.443037 1.544266 0.057733 -0.017082 425505.000000 0 0 1
-26.047622 11.286433 1.024650 28.406198 -0.408880 1.534717 0.077852 -0.019839 -161914.000000 0 0 1
-25.929222 10.469633 -0.275950 27.964511 -0.383758 1.580664 0.077805 -0.019259 -192021.000000 0 0 1
-27.154622 10.029133 -0.838950 28.959641 -0.353794 1.599770 0.067135 -0.014580 453967.000000 0 0 1
-26.967622 9.175733 -1.975850 28.554346 -0.327963 1.640048 0.070594 -0.018117 -217853.000000 0 0 1
-28.310222 8.814333 -2.615050 29.765746 -0.301835 1.658764 0.066832 -0.020554 -258500.000000 0 0 1
-28.078322 8.016233 -3.776150 29.443360 -0.278097 1.699402 0.065978 -0.017201 1869850.000000 0 0 1
-29.299922 7.941533 -4.607450 30.704755 -0.264684 1.721422 0.060099 -0.018843 1453990.000000 0 0 1
-11.139831 17.763033 -19.671850 28.750702 -1.010663 2.324332 0.090370 -0.018766 329162.000000 0 0 1
-11.521831 16.976633 -20.771650 29.196234 -0.974518 2.362355 0.076397 -0.020873 -234904.000000 0 0 1
-10.487531 17.043933 -21.713850 29.529227 -1.019186 2.396956 0.078936 -0.016967 6701.950000 0 0 1
-10.667031 16.016833 -22.876350 29.894011 -0.983263 2.442224 0.071656 -0.010587 -141203.000000 0 0 1
-10.305731 14.742333 -22.456750 28.772384 -0.960704 2.466256 0.065267 -0.012676 -90329.100000 0 0 1
-10.336831 13.811533 -23.525650 29.173014 -0.928307 2.508866 0.047815 -0.008459 -119564.000000 0 0 1
-9.556131 12.484233 -23.294950 28.103922 -0.917477 2.547910 0.037059 -0.007429 -56586.000000 0 0 1
-8.161131 12.633233 -23.203050 27.651115 -0.997235 2.566489 0.035940 -0.012420 -83672.300000 0 0 1
-7.575131 11.346733 -22.855950 26.618141 -0.982145 2.603447 0.025710 -0.011534 -1196160.000000 0 0 1
-6.120031 11.328933 -22.595050 26.006457 -1.075499 2.623620 0.036992 -0.008863 -1496300.000000 0 0 1
-5.299631 11.443533 -23.712750 26.857681 -1.137093 2.652807 0.033458 -0.016034 -264593.000000 0 0 1
-3.916931 11.396733 -23.388750 26.310863 -1.239755 2.665820 0.037441 -0.011268 741739.000000 0 0 1
-3.106131 11.122833 -24.732350 27.295688 -1.298477 2.704745 0.055341 -0.022017 118544.000000 0 0 1
-3.269931 9.770433 -25.103820 27.135873 -1.247838 2.752136 0.058219 -0.018549 471597.000000 0 0 1
-2.484231 9.421633 -26.272450 28.021067 -1.312991 2.786448 0.056348 -0.019768 307515.000000 0 0 1
-1.938431 7.947733 -26.250700 27.495877 -1.331570 2.839494 0.047007 -0.016524 -265616.000000 0 0 1
-0.833631 7.744133 -25.417820 26.584434 -1.463562 2.844244 0.043116 -0.012194 -240038.000000 0 0 1
-0.638631 6.364533 -25.246330 26.044046 -1.470789 2.893451 0.038444 -0.009120 189527.000000 0 0 1
0.701369 5.910533 -24.591650 25.301691 1.452684 2.904126 0.029142 0.000016 196764.000000 0 0 1
0.949569 6.146333 -23.257150 24.074346 1.417515 2.880294 0.022969 -0.011127 -630773.000000 0 1 0
2.044869 5.430733 -22.793950 23.521023 1.210679 2.892305 0.034476 -0.006887 -565353.000000 0 1 0
2.443269 6.028033 -21.433750 22.398937 1.185714 2.846961 0.040430 -0.009788 -313804.000000 0 1 0
2.862369 7.335933 -21.562550 22.955449 1.198780 2.791444 0.030980 -0.015447 -141221.000000 0 1 0
2.630369 8.045033 -20.369750 22.058289 1.254797 2.747775 0.033086 -0.022824 135855.000000 0 1 0
2.947969 9.530433 -20.574250 22.865245 1.270810 2.690117 0.013528 -0.018829 -140703.000000 0 1 0
2.541169 10.352633 -19.484650 22.210046 1.330094 2.640983 0.016969 -0.023856 201169.000000 0 1 0
3.051869 11.701933 -19.489050 22.936264 1.315679 2.586221 0.011901 -0.017451 -178448.000000 0 1 0
4.352569 11.888933 -18.696150 22.579584 1.219849 2.546348 0.014534 -0.019891 -95865.600000 0 1 0
5.411369 11.085733 -19.151150 22.780319 1.116683 2.569350 0.020569 -0.018397 -583664.000000 0 1 0
6.308169 10.776433 -18.108550 21.996456 1.041206 2.537906 0.022995 -0.020796 -579327.000000 0 1 0
7.448969 9.895233 -18.597650 22.344471 0.925516 2.554068 0.045696 -0.024851 -603074.000000 0 1 0
7.123569 8.593333 -18.944950 21.988673 0.878642 2.609166 0.033819 -0.013021 23342.500000 0 1 0
7.120869 8.347433 -20.322150 23.094939 0.864528 2.646531 0.027980 0.000096 -53140.700000 0 1 0
6.758369 6.953533 -20.806950 22.955530 0.799630 2.705485 0.020551 0.005890 -61898.900000 0 1 0
7.740169 5.974733 -20.572350 22.777823 0.657378 2.697904 0.028981 -0.004633 -142972.000000 0 1 0
7.249069 4.698233 -20.776250 22.500555 0.575049 2.747554 0.026650 0.000465 -92039.100000 0 1 0
7.162869 4.285033 -22.292050 23.803439 0.539116 2.783324 0.033156 -0.001430 -97310.500000 0 1 0
6.120769 4.906833 -22.999650 24.300714 0.675758 2.812883 0.029426 -0.001457 -240755.000000 0 1 0
6.098069 4.510933 -24.344850 25.499151 0.636897 2.839553 0.026612 -0.000815 75547.000000 0 0 1
5.097469 5.339233 -25.204510 26.263262 0.808559 2.856683 0.022676 -0.003606 -53682.900000 0 0 1
5.268769 6.770133 -25.337770 26.750649 0.909467 2.815132 0.022963 -0.006473 112376.000000 0 0 1
5.025769 7.521633 -24.140450 25.779733 0.981750 2.783058 0.022243 -0.013936 -1068560.000000 0 0 1
5.121369 9.032333 -24.385750 26.504269 1.054992 2.739052 0.020695 -0.020512 916451.000000 0 0 1
3.982969 9.515633 -25.124230 27.159496 1.174384 2.751996 0.027358 -0.021099 1363650.000000 0 0 1
2.699969 9.464633 -24.486050 26.390069 1.292908 2.759405 0.029391 -0.022206 -413731.000000 0 0 1
1.569969 9.942933 -25.364700 27.289095 1.414191 2.763800 0.040441 -0.013277 -724280.000000 0 0 1
1.519669 11.318733 -25.519070 27.957934 1.437333 2.720803 0.043781 -0.024316 625024.000000 0 0 1
0.539069 11.789333 -26.485920 28.996257 1.525103 2.722419 0.067485 -0.027713 397290.000000 0 0 1
0.356269 13.264433 -26.779810 29.886959 1.543944 2.681557 0.060078 -0.030839 -369806.000000 0 0 1
-0.151931 14.033433 -25.699570 29.281875 -1.559970 2.641757 0.054651 -0.025432 -6418.090000 0 0 1
-0.107831 15.418233 -25.908910 30.149712 -1.563803 2.604778 0.057368 -0.040664 -609728.000000 0 0 1
-0.582031 16.049033 -24.653550 29.422912 -1.534546 2.564226 0.055871 -0.029875 152025.000000 0 0 1
-1.888231 15.548933 -24.385850 28.982830 -1.449950 2.570646 0.049824 -0.022394 139451.000000 0 0 1
-2.324631 15.980833 -23.099650 28.184832 -1.426346 2.531469 0.044733 -0.025409 63904.500000 0 0 1
-3.536031 15.242833 -22.442150 27.358684 -1.342848 2.532720 0.042951 -0.023772 94233.900000 0 0 1
-4.799231 15.515933 -22.953150 28.118035 -1.270820 2.525797 0.043612 -0.021196 -722761.000000 0 0 1
-5.138231 14.968733 -24.224050 28.935601 -1.240135 2.562887 0.045593 -0.018444 545637.000000 0 0 1
-6.674631 15.154033 -24.519050 29.586808 -1.155910 2.547605 0.043248 -0.016267 1039680.000000 0 0 1
-7.167031 16.476033 -24.734950 30.571944 -1.160488 2.513370 0.043512 -0.014962 206482.000000 0 0 1
-8.345231 16.512933 -25.531110 31.530262 -1.102858 2.514494 0.045891 -0.008808 -13409.600000 0 0 1
-8.824931 17.899833 -25.897370 32.694911 -1.112750 2.485025 0.043830 -0.008201 75732.300000 0 0 1
-9.479531 18.587633 -24.792950 32.404506 -1.099188 2.442006 0.050940 -0.014445 770828.000000 0 0 1
-10.242731 19.737633 -25.270380 33.661251 -1.092108 2.419957 0.053238 -0.013646 422253.000000 0 0 1
-10.606431 20.729133 -24.158150 33.553086 -1.097858 2.374596 0.041608 -0.013778 -108773.000000 0 0 1
-9.761031 21.824333 -23.936650 33.831087 -1.150228 2.356799 0.061057 -0.006452 2496.530000 0 0 1
-10.416631 23.003333 -24.288150 35.036749 -1.145590 2.336743 0.061783 -0.016114 -96323.300000 0 0 1
-10.277531 23.497933 -25.744570 36.339557 -1.158486 2.358089 0.040022 -0.009825 -53183.000000 0 0 1
-10.830031 22.644033 -26.761160 36.690619 -1.124681 2.388202 0.037632 -0.010457 240099.000000 0 0 1
-10.798031 23.264033 -28.014640 37.982006 -1.136237 2.400271 0.048581 -0.011959 -323681.000000 0 0 1
-11.405131 22.529233 -29.234250 38.630101 -1.102172 2.429160 0.039154 -0.016348 151883.000000 0 0 1
-10.763231 21.299933 -29.717190 38.113589 -1.102904 2.464984 0.029439 -0.015761 200837.000000 0 0 1
-10.685631 20.192133 -28.799180 36.760002 -1.084064 2.470975 0.030998 -0.009848 -536590.000000 0 0 1
-9.716631 19.133333 -29.266500 36.290844 -1.100898 2.508908 0.033147 -0.015977 -982392.000000 0 0 1
-8.394431 19.605533 -29.368120 36.295039 -1.166247 2.513500 0.023020 -0.014612 305229.000000 0 0 1
-7.432531 18.785333 -30.062320 36.219806 -1.194040 2.549898 0.027060 -0.010708 758011.000000 0 0 1
-6.976531 17.479733 -29.337430 34.855385 -1.191048 2.571202 0.043679 -0.021810 -589550.000000 0 0 1
-8.032231 16.551333 -29.298710 34.595921 -1.118984 2.580893 0.028099 -0.019013 -173584.000000 0 0 1
-7.696631 15.306433 -28.738370 33.457719 -1.104882 2.604004 0.017802 -0.010549 -865736.000000 0 0 1
-8.879831 14.383933 -28.624000 33.242778 -1.017722 2.608145 0.025425 -0.000176 -1036300.000000 0 0 1
-9.772731 14.858833 -27.656800 32.881450 -0.989024 2.570122 0.041741 -0.005072 396781.000000 0 0 1
-10.977531 14.051833 -27.788700 33.017754 -0.907614 2.571089 0.059200 0.000153 671407.000000 0 0 1
-12.116731 14.488833 -26.871940 32.845740 -0.874321 2.528940 0.053694 -0.000787 -145828.000000 0 0 1
-12.577031 15.828933 -27.070610 33.786902 -0.899382 2.500121 0.046015 0.000694 182490.000000 0 0 1
-13.572131 16.172733 -26.097820 33.568680 -0.872607 2.461390 0.042909 -0.008871 378099.000000 0 0 1
-14.432931 17.380533 -26.461640 34.793833 -0.877787 2.434920 0.025714 -0.010796 -104851.000000 0 0 1
-13.706431 18.608833 -26.513510 35.172733 -0.935956 2.424635 0.031780 -0.006166 12026.800000 0 0 1
-14.491131 19.689333 -26.974040 36.404142 -0.936323 2.405296 0.026559 -0.007800 -755398.000000 0 0 1
-14.094531 21.105233 -26.677470 36.820838 -0.981995 2.381136 0.028462 -0.006396 -350265.000000 0 0 1
-15.103431 21.999433 -27.086690 38.023380 -0.969163 2.363665 0.021599 -0.014596 143333.000000 0 0 1
-14.706031 23.365933 -27.238750 38.783807 -1.009054 2.349452 0.028907 -0.012331 -142841.000000 0 0 1
-14.159431 24.201933 -26.049530 38.272720 -1.041439 2.319417 0.008067 -0.004098 52477.900000 0 0 1
-13.760431 25.495133 -26.496950 39.261172 -1.075874 2.311611 0.032110 -0.017052 122305.000000 0 0 1
-13.514531 26.285733 -25.322620 38.920655 -1.095901 2.279199 0.055556 -0.026470 -99210.800000 0 0 1
-13.467331 27.863133 -25.633370 40.184485 -1.120566 2.262555 0.070384 -0.032913 -311352.000000 0 0 1
-14.677331 28.416833 -26.069110 41.261834 -1.094035 2.254666 0.087563 -0.032354 -415295.000000 0 0 1
-15.240531 29.248833 -25.064850 41.424808 -1.090439 2.220648 0.080245 -0.026301 -1118650.000000 0 0 1
-16.683331 29.567233 -25.331080 42.358216 -1.057078 2.211825 0.072863 -0.024437 -960572.000000 0 0 1
-17.504631 28.417933 -25.173970 41.805739 -1.018716 2.217007 0.051330 -0.021590 146701.000000 0 0 1
-18.725831 28.579233 -25.915650 42.884149 -0.990757 2.219706 0.035209 -0.016087 293279.000000 0 0 1
-19.725131 27.492833 -25.447600 42.338127 -0.948445 2.215619 0.005078 -0.010020 -211821.000000 0 0 1
-20.347631 27.866733 -24.221650 42.157671 -0.940103 2.182849 0.009707 -0.006302 -879.365000 0 0 1
-21.022331 26.763633 -23.627450 41.430506 -0.904971 2.177657 0.022475 -0.019133 -203244.000000 0 0 1
-21.532531 26.934633 -22.208050 41.016117 -0.896399 2.142953 0.018403 -0.007898 -857267.000000 0 0 1
-22.575431 27.838033 -22.187650 42.153268 -0.889410 2.125106 0.013696 0.003616 -658197.000000 0 0 1
-22.976531 28.038533 -20.851150 41.819263 -0.884300 2.092781 0.003112 0.002208 728794.000000 0 0 1
-24.367231 28.750933 -20.616450 42.958307 -0.867739 2.071357 -0.000795 0.006726 131921.000000 0 0 1
-25.491461 27.985733 -20.762850 43.175361 -0.832006 2.072472 -0.006129 0.002908 -337323.000000 0 0 1
-26.633161 28.819433 -21.011550 44.512585 -0.824804 2.062395 0.006543 0.002703 810605.000000 0 0 1
-27.912001 28.105733 -21.512350 45.075417 -0.788857 2.068322 0.002476 -0.000813 -53475.100000 0 0 1
-27.785291 27.639333 -22.792250 45.336980 -0.782765 2.097550 0.002495 0.001984 649610.000000 0 0 1
-29.085941 27.450633 -23.369050 46.321072 -0.756481 2.099601 0.012195 -0.005967 550172.000000 0 0 1
-29.015891 26.959433 -24.867150 46.766528 -0.748676 2.131438 0.018479 0.004839 97479.200000 0 0 1
-28.555151 25.623033 -24.922950 45.750300 -0.731331 2.146900 0.024726 0.008693 -41464.200000 0 0 1
-28.699551 25.243533 -26.250010 46.367696 -0.721418 2.172596 0.049741 -0.001170 -177396.000000 0 0 1
-28.704641 23.698633 -26.410890 45.641174 -0.690159 2.187886 0.059500 -0.006905 -1198110.000000 0 0 1
-27.522931 23.025233 -26.244270 44.457112 -0.696653 2.202261 0.042306 -0.005349 -844502.000000 0 0 1
-27.696361 21.791033 -26.907790 44.339223 -0.666630 2.222903 0.062472 -0.019554 532965.000000 0 0 1
-26.453701 20.830833 -26.851330 43.066412 -0.667038 2.243991 0.056149 -0.017551 377398.000000 0 0 1
-26.189121 20.297533 -25.560440 41.847294 -0.659333 2.227870 0.065018 -0.012340 264018.000000 0 0 1
-25.729101 18.955633 -25.548790 40.915075 -0.634960 2.245204 0.033943 -0.015783 -90657.600000 0 0 1
-26.884311 17.938133 -25.453530 41.139093 -0.588395 2.237907 0.040604 -0.003373 107334.000000 0 0 1
-27.730441 17.788733 -26.578500 42.330049 -0.570368 2.249632 0.045170 -0.013645 393239.000000 0 0 1
-28.542861 16.640333 -26.409260 42.297099 -0.527822 2.245128 0.028560 -0.014832 -344072.000000 0 0 1
-29.290091 16.083233 -27.616280 43.350187 -0.502153 2.261463 0.021485 -0.014396 -94701.700000 0 0 1
-30.435191 16.824933 -27.975110 44.631670 -0.504999 2.248235 0.020711 -0.015412 79879.200000 0 0 1
-31.168951 16.071133 -28.943070 45.469618 -0.476060 2.260795 0.024439 -0.007870 -314649.000000 0 0 1
-32.505641 16.646333 -29.374570 46.867712 -0.473285 2.248178 0.030557 -0.009216 -646631.000000 0 0 1
-33.532681 16.584633 -28.418000 46.979501 -0.459303 2.220439 0.017563 -0.005964 5454.910000 0 0 1
-34.730311 16.997733 -29.066960 48.373604 -0.455148 2.215404 0.021502 -0.003170 346716.000000 0 0 1
35.733114 16.600233 -28.288210 48.504082 0.434897 2.193475 0.024405 -0.001231 89946.200000 0 0 1
35.409720 17.481833 -27.225480 47.965503 0.458596 2.174391 0.030928 -0.003157 -126597.000000 0 0 1
34.163180 17.163133 -26.663630 46.611642 0.465555 2.179785 0.038158 -0.005214 -287315.000000 0 0 1
33.707150 18.195533 -25.659080 46.104639 0.494988 2.161012 0.038631 -0.003847 -269021.000000 0 0 1
33.165120 19.338833 -26.268340 46.518183 0.527906 2.170854 0.044761 -0.015560 75632.900000 0 0 1
32.796240 20.296033 -25.331100 46.143113 0.554166 2.151926 0.051873 -0.013470 -609904.000000 0 0 1
32.126290 21.523233 -25.950700 46.570236 0.590277 2.161852 0.061814 -0.021419 -205642.000000 0 0 1
30.853870 21.362233 -26.500940 45.941333 0.605585 2.185655 0.047322 -0.021470 3145.660000 0 0 1
29.734600 21.752833 -25.692820 44.916068 0.631599 2.179761 0.036227 -0.007421 1275920.000000 0 0 1
28.370400 21.395233 -26.395350 44.264546 0.646145 2.209692 0.009105 -0.008372 614591.000000 0 0 1
27.961470 20.040833 -26.435730 43.385788 0.621866 2.225996 0.015178 -0.016927 -857754.000000 0 0 1
26.707060 20.012333 -27.017180 42.938194 0.643071 2.251334 0.009103 -0.017826 -1003060.000000 0 0 1
26.164060 18.565733 -26.994570 41.927929 0.617133 2.270293 0.020590 -0.010271 -1116160.000000 0 0 1
26.734890 17.655133 -27.891600 42.478223 0.583636 2.287111 0.029188 -0.020258 -210222.000000 0 0 1
27.793560 17.033133 -27.203050 42.457220 0.549811 2.266228 0.028828 -0.012312 -477309.000000 0 0 1
28.405850 15.911633 -28.067850 42.986935 0.510605 2.282255 0.026092 -0.009751 -629314.000000 0 0 1
27.662810 14.752033 -28.314940 42.244400 0.489916 2.305362 0.033587 -0.007039 -287034.000000 0 0 1
27.267270 13.874233 -27.255350 40.973802 0.470682 2.298544 0.048328 -0.013180 -526265.000000 0 0 1
28.263660 13.052533 -26.415330 40.828577 0.432634 2.274415 0.045981 -0.012926 -464393.000000 0 0 1
28.922580 13.893133 -25.500670 40.985594 0.447809 2.242328 0.047590 -0.013975 376515.000000 0 0 1
30.043820 13.240533 -24.883050 41.195983 0.415099 2.219327 0.038887 -0.008614 529943.000000 0 0 1
-14.420331 -31.488013 -23.597550 41.908057 1.141340 2.168903 0.073683 -0.001894 143178.000000 0 0 1
-13.804631 -30.402313 -24.320250 41.307905 1.144567 2.200314 0.058966 -0.013272 242327.000000 0 0 1
-14.261231 -30.303013 -25.643900 42.181334 1.130927 2.224265 0.044338 -0.009158 -518857.000000 0 0 1
-13.516031 -29.230713 -26.394240 41.638607 1.137686 2.257367 0.042029 -0.013763 -218767.000000 0 0 1
-13.983531 -27.965513 -26.012100 40.672330 1.107127 2.264713 0.042866 -0.002275 -103087.000000 0 0 1
-13.187931 -26.972013 -26.612920 40.120550 1.116029 2.296048 0.025441 -0.002879 -231614.000000 0 0 1
-13.476531 -25.435913 -26.255480 38.960914 1.083576 2.310261 0.005212 0.003672 -65354.900000 0 0 1
-13.084431 -24.965113 -24.953650 37.644971 1.088048 2.295439 -0.000168 -0.013358 150598.000000 0 0 1
-13.493231 -23.631813 -24.799550 36.817761 1.051990 2.309832 0.003996 -0.008133 -277394.000000 0 0 1
-13.318731 -22.982413 -23.436550 35.423887 1.045573 2.293751 0.003263 0.000218 -13919.700000 0 0 1
-11.975731 -22.789313 -23.040650 34.549131 1.086959 2.300831 0.003646 -0.019602 -120563.000000 0 0 1
-11.801831 -21.924213 -21.927150 33.177617 1.076979 2.292816 -0.005972 -0.013494 1134730.000000 0 0 1
-10.301631 -21.522513 -21.661650 32.226840 1.124379 2.307921 0.006373 -0.020014 1314420.000000 0 0 1
-9.664531 -20.691513 -22.643850 32.160314 1.133832 2.351941 0.010451 -0.017104 -54728.000000 0 0 1
-8.264231 -20.618213 -22.528550 31.637696 1.189582 2.363252 0.026179 -0.016387 -46190.900000 0 0 1
-7.659231 -19.686813 -23.607250 31.678647 1.199762 2.411646 0.027057 -0.006266 -162876.000000 0 0 1
-7.847731 -18.346313 -23.154750 30.566592 1.166594 2.430299 0.016291 -0.005317 -97925.200000 0 0 1
-8.326731 -17.429713 -24.088550 30.876975 1.125121 2.465696 0.005748 -0.009147 -256960.000000 0 0 1
-7.272031 -16.734613 -24.975350 30.930532 1.160864 2.510640 0.028382 -0.013872 -126231.000000 0 0 1
-6.695631 -17.510713 -25.997600 32.052016 1.205577 2.516838 0.017132 -0.016664 477390.000000 0 0 1
-5.794231 -16.677913 -26.761750 32.061147 1.236422 2.558402 0.022907 -0.011300 145066.000000 0 0 1
-5.462431 -17.350913 -28.074970 33.452896 1.265798 2.566678 0.040388 -0.008217 -498641.000000 0 0 1
-6.536131 -17.328213 -28.973500 34.386795 1.210102 2.572845 0.050309 -0.007823 -116399.000000 0 0 1
-6.286331 -18.096113 -30.114620 35.691422 1.236452 2.575027 0.056439 -0.015701 552477.000000 0 0 1
-7.397731 -17.757513 -31.199220 36.653063 1.176064 2.589071 0.060504 -0.015968 754124.000000 0 0 1
-7.259231 -16.597613 -31.977030 36.751975 1.158498 2.626154 0.062777 -0.013401 -155697.000000 0 0 1
-7.207431 -15.360513 -31.298680 35.601963 1.132076 2.644826 0.048739 -0.010654 -97973.800000 0 0 1
-7.564031 -14.147113 -32.188890 35.964983 1.079799 2.679242 0.037811 -0.010889 -995285.000000 0 0 1
-6.631931 -13.876513 -33.151650 36.545479 1.124964 2.707220 0.059139 -0.014767 -441261.000000 0 0 1
-7.162031 -13.147613 -34.300980 37.426082 1.072000 2.730036 0.054172 -0.013216 -183249.000000 0 0 1
-7.596531 -11.692913 -34.081567 36.823698 0.994653 2.753238 0.042416 -0.008752 -141501.000000 0 0 1
-6.549131 -10.756213 -33.992460 36.250167 1.023881 2.786801 0.036248 -0.013132 -374322.000000 0 0 1
-6.151031 -10.385213 33.339732 35.457377 1.036067 0.347355 0.034643 -0.010993 -720112.000000 0 0 1
-4.890231 -9.545213 33.336489 35.019237 1.097339 0.311262 0.044315 -0.011587 -691179.000000 0 0 1
-4.731231 -8.860113 32.118799 33.652688 1.080326 0.303086 0.043210 -0.005143 -323949.000000 0 0 1
-3.758931 -7.873513 32.248099 33.407509 1.125380 0.264226 0.038111 -0.018066 -1137220.000000 0 0 1
-3.752531 -6.830513 31.025409 31.989270 1.068431 0.246103 0.034821 -0.011618 793159.000000 0 0 1
-4.875431 -5.922913 31.093229 32.025609 0.882100 0.241892 0.027977 -0.000780 1668130.000000 0 0 1
-6.116831 -6.576613 30.680599 31.968213 0.821604 0.284785 0.021183 -0.002427 989557.000000 0 0 1
-7.299831 -5.559313 30.482669 31.833734 0.650863 0.292387 0.010237 0.007188 786735.000000 0 0 1
-8.423131 -6.171013 29.872299 31.644665 0.632289 0.336271 0.012858 0.010828 -77586.200000 0 0 1
-9.542731 -5.308513 29.765599 31.705440 0.507659 0.351618 0.013515 0.009522 356504.000000 0 0 1
-10.653331 -5.943013 28.885209 31.355513 0.508854 0.399601 0.021592 0.007154 6511.610000 0 0 1
-10.322931 -5.913913 27.494659 29.958197 0.520248 0.408375 0.009960 0.007683 97369.200000 0 0 1
-11.366731 -6.385813 26.704729 29.717398 0.511856 0.454176 0.015999 -0.000333 -368722.000000 0 0 1
-11.004231 -6.222613 25.232369 28.222092 0.514646 0.464458 0.004930 -0.004655 9146.790000 0 0 1
-10.090131 -7.200813 24.785009 27.712076 0.619828 0.463763 0.016549 -0.002875 -108296.000000 0 0 1
-9.632531 -6.895313 23.479949 26.299031 0.621275 0.467258 0.017497 -0.011316 -828644.000000 0 0 1
-10.627831 -7.056913 22.302449 25.693385 0.586156 0.519590 0.030865 -0.012319 377095.000000 0 0 1
-11.586431 -5.989313 22.286149 25.822271 0.477096 0.529501 0.006675 -0.006133 -178533.000000 0 0 1
-12.398631 -5.995513 21.166249 25.252373 0.450411 0.576843 0.009933 -0.009679 32742.100000 0 0 1
-13.550531 -4.951513 21.152849 25.604246 0.350337 0.598563 0.007934 -0.003357 329388.000000 0 0 1
-13.137131 -3.678613 20.754549 24.836822 0.273024 0.581506 0.003196 0.000889 328272.000000 0 1 0
-14.170031 -2.742613 21.104749 25.567991 0.191186 0.599822 0.005014 0.008836 547474.000000 0 0 1
-13.999531 -1.359613 20.487749 24.851223 0.096815 0.601626 0.005302 0.002641 827323.000000 0 1 0
-12.962231 -0.533613 21.099849 24.769090 0.041144 0.551266 -0.004010 0.004146 774480.000000 0 1 0
-13.168531 0.861387 20.797149 24.630745 -0.065319 0.565432 0.009051 -0.007571 -526812.000000 0 1 0
-12.697631 1.406387 19.415549 23.241586 -0.110310 0.581973 0.028218 -0.017759 -46181.500000 0 1 0
-13.462831 0.936387 18.340349 22.770443 -0.069442 0.634370 0.029282 -0.013041 1161920.000000 0 1 0
-14.840131 1.414387 18.368849 23.656809 -0.095021 0.681749 0.019204 -0.007241 729745.000000 0 1 0
-15.745931 0.686387 17.371249 23.455613 -0.043564 0.736832 0.030017 -0.003878 -294538.000000 0 1 0
-16.082331 -0.650613 17.863449 24.045114 0.040433 0.733383 0.008709 -0.001380 511049.000000 0 1 0
-17.057131 -1.302613 17.028249 24.137187 0.076220 0.787699 0.015865 0.004550 444664.000000 0 1 0
-17.010031 -2.838613 17.352649 24.464532 0.165355 0.782294 0.014489 0.009710 -56985.500000 0 1 0
-17.260731 -3.194613 18.730549 25.670447 0.183009 0.752980 0.004916 0.012323 158371.000000 0 0 1
-17.063631 -4.534713 19.033949 25.961940 0.259749 0.747857 0.009234 0.015068 -230441.000000 0 0 1
-17.765431 -4.871513 20.353249 27.451720 0.267634 0.735613 0.013029 0.016494 190097.000000 0 0 1
-17.030731 -4.393113 21.502849 27.779809 0.252449 0.685589 0.011335 0.012429 515637.000000 0 0 1
-17.771931 -4.439013 22.720049 29.184705 0.244768 0.678537 0.014506 0.012281 -199855.000000 0 0 1
-18.194031 -5.824913 23.292049 30.124275 0.309844 0.686927 0.027880 0.012598 458155.000000 0 0 1
-17.156531 -6.632313 23.893109 30.153189 0.368881 0.656078 -0.002196 -0.002577 195118.000000 0 0 1
-16.315631 -7.255713 22.978449 29.100761 0.418445 0.660612 0.009824 0.000640 127400.000000 0 0 1
-15.134231 -7.862113 23.826359 29.301078 0.479119 0.621242 0.021932 -0.001318 585295.000000 0 0 1
-15.664231 -8.996613 24.447929 30.397507 0.521339 0.636343 0.009626 -0.008732 535268.000000 0 0 1
-14.823031 -9.289013 25.546659 30.961909 0.559793 0.600418 0.025814 -0.003213 356900.000000 0 0 1
-15.621131 -10.204313 26.489089 32.400920 0.578648 0.613668 0.025459 -0.010233 -978977.000000 0 0 1
-15.579231 -11.564313 26.230359 32.626332 0.638549 0.636867 0.022663 -0.014745 -464063.000000 0 0 1
-14.604431 -12.238213 26.955349 33.009909 0.697474 0.615329 0.033322 -0.013843 -600956.000000 0 0 1
-14.736631 -13.728513 26.723569 33.463256 0.749997 0.645840 0.014961 -0.011133 119187.000000 0 0 1
-15.843431 -14.355313 27.353629 34.717580 0.736161 0.663421 0.006560 -0.008919 182251.000000 0 0 1
-16.031931 -15.740813 26.949489 35.086621 0.776236 0.694952 0.016283 0.000599 60661.300000 0 0 1
-15.079331 -16.778713 27.614439 35.657660 0.838690 0.684979 0.020787 0.000417 313987.000000 0 0 1
-13.711431 -16.628113 27.281239 34.767276 0.881238 0.668614 0.036548 -0.006464 -24495.800000 0 0 1
-12.962031 -17.581913 27.959029 35.480209 0.935514 0.663214 0.047164 -0.006735 111799.000000 0 0 1
-11.561231 -17.843513 27.350119 34.642200 0.995882 0.660798 0.051381 -0.011702 201848.000000 0 0 1
-10.601531 -18.442113 28.161929 35.293034 1.049071 0.646917 0.061239 -0.011113 -253875.000000 0 0 1
-9.559431 -19.080513 27.486489 34.798790 1.106345 0.660201 0.065910 -0.018238 140545.000000 0 0 1
-8.425331 -19.653313 28.377369 35.531873 1.165798 0.645755 0.079369 -0.019530 -1589.530000 0 0 1
-8.904231 -20.703713 29.144589 36.842043 1.164632 0.658242 0.069467 -0.011715 192753.000000 0 0 1
-7.853131 -21.449813 29.733369 37.494525 1.219837 0.655069 0.080875 -0.014861 171447.000000 0 0 1
-8.285331 -22.794913 30.382149 38.875825 1.222170 0.673701 0.072986 -0.009236 26286.300000 0 0 1
-8.517731 -23.844213 29.496029 38.873049 1.227700 0.709361 0.081834 -0.010567 183889.000000 0 0 1
-8.825131 -25.074113 30.132019 40.181248 1.232375 0.722882 0.058061 -0.012173 -292982.000000 0 0 1
-8.990731 -26.235613 29.164769 40.245800 1.240647 0.760247 0.055830 -0.012067 190443.000000 0 0 1
-10.239731 -26.204613 28.474129 40.028863 1.198280 0.779393 0.043464 -0.013681 485177.000000 0 0 1
-10.359131 -27.370913 27.754139 40.333246 1.208985 0.811901 0.041952 -0.014340 712217.000000 0 0 1
-11.672231 -27.521913 26.876659 40.200143 1.169682 0.838510 0.029175 -0.010605 616006.000000 0 0 1
-11.661131 -26.891313 25.575779 38.900452 1.161631 0.853344 0.033949 -0.015750 215736.000000 0 0 1
-11.832131 -25.493413 25.575519 38.000271 1.136258 0.832491 0.029888 -0.000560 -505115.000000 0 0 1
-11.990931 -24.871313 24.150709 36.682712 1.121556 0.852148 0.046430 -0.026872 125644.000000 0 0 1
-13.289531 -25.142213 23.644359 36.983756 1.084551 0.877186 0.032870 -0.016237 306485.000000 0 0 1
-13.473931 -24.638613 22.328949 35.877431 1.070365 0.899032 0.041398 -0.029572 -912862.000000 0 0 1
-14.867631 -24.918813 21.842049 36.318987 1.032849 0.925551 0.035465 -0.022113 -1018740.000000 0 0 1
-14.928131 -26.280313 21.457749 37.066682 1.054212 0.953422 0.057324 -0.025621 -284008.000000 0 0 1
-16.001731 -26.574213 20.620249 37.248340 1.028796 0.984129 0.059729 -0.020547 -341619.000000 0 0 1
-16.019131 -28.019813 20.030649 37.986174 1.051440 1.015360 0.071080 -0.024477 337744.000000 0 0 1
-15.029431 -28.082713 19.005649 37.090932 1.079399 1.032811 0.057982 -0.015650 440068.000000 0 0 1
-14.899131 -29.426213 18.648149 37.889835 1.102104 1.056218 0.086171 -0.007285 178437.000000 0 0 1
-13.961531 -29.726513 17.440749 37.185611 1.131709 1.082617 0.056662 -0.015315 487187.000000 0 0 1
-14.551831 -29.509413 16.172149 36.661965 1.112664 1.113955 0.064214 -0.019096 -143591.000000 0 0 1
-13.478531 -29.607813 15.292549 35.946564 1.143597 1.131365 0.054804 -0.012534 -284818.000000 0 0 1
-13.858731 -29.306713 13.797049 35.232179 1.129074 1.168423 0.034166 -0.011827 -315666.000000 0 0 1
-13.958331 -27.878513 13.658049 34.038049 1.106602 1.157906 0.030277 0.000927 -92348.500000 0 0 1
-14.287731 -27.395713 12.351449 33.274955 1.090072 1.190502 0.023910 0.001298 364787.000000 0 0 1
-13.220831 -27.538713 11.195949 32.534910 1.123210 1.219494 0.013802 0.016476 400856.000000 0 0 1
-13.550231 -26.706413 10.104649 31.606094 1.101264 1.245377 0.004147 0.000653 -222426.000000 0 0 1
-12.812431 -26.900113 8.921949 31.102663 1.126291 1.279854 0.014794 -0.008622 -494976.000000 0 0 1
-13.333131 -26.161813 7.681649 30.351616 1.099466 1.314925 0.020215 -0.012387 -384111.000000 0 0 1
-14.618731 -26.640113 7.320049 31.256776 1.068914 1.334410 0.015623 -0.018380 -116561.000000 0 0 1
-15.098531 -25.847913 6.261149 30.582384 1.042128 1.364608 0.034437 -0.018310 -310219.000000 0 0 1
-15.795231 -26.709513 5.192949 31.461947 1.036746 1.404983 0.028591 -0.021596 -540811.000000 0 0 1
-15.061231 -27.731313 4.678249 31.902232 1.073256 1.423622 0.045850 -0.024045 -687936.000000 0 0 1
-15.594431 -27.997113 3.409249 32.228056 1.062594 1.464813 0.041380 -0.016862 -351901.000000 0 0 1
-14.868931 -29.078313 2.562249 32.759709 1.098117 1.492503 0.047444 -0.026331 -316604.000000 0 0 1
-13.672031 -28.711013 1.932749 31.858786 1.126374 1.510093 0.024928 -0.017973 -283406.000000 0 0 1
-13.103731 -29.747213 1.187349 32.527131 1.155868 1.534285 0.025969 -0.019046 -88056.200000 0 0 1
-11.792231 -29.387213 0.467549 31.668337 1.189195 1.556032 0.024662 -0.012950 -632210.000000 0 0 1
-11.796331 -28.618413 -0.746351 30.963269 1.179822 1.594903 0.031361 -0.009400 -230029.000000 0 0 1
-12.139631 -27.224813 -0.708551 29.817162 1.151355 1.594562 0.034176 -0.015856 -257567.000000 0 0 1
-11.657331 -26.486513 -1.987251 29.006515 1.156186 1.639361 0.041344 -0.010852 248254.000000 0 0 1
-10.280531 -26.744713 -2.187351 28.735927 1.203815 1.646989 0.045663 -0.011901 -498846.000000 0 0 1
-9.857131 -25.989813 -3.256651 27.986411 1.208288 1.687426 0.054135 -0.015294 -291514.000000 0 0 1
-8.626531 -26.559813 -3.955951 28.204437 1.256749 1.711520 0.053858 -0.014190 -343023.000000 0 0 1
-8.132931 -25.588513 -4.845851 27.283673 1.263058 1.749354 0.058818 -0.020722 -538479.000000 0 0 1
-7.049531 -26.200813 -5.508951 27.686224 1.307963 1.771111 0.052020 -0.011800 80545.900000 0 0 1
-6.207431 -25.126413 -6.271851 26.630902 1.328598 1.808540 0.040373 -0.009679 -27816.400000 0 0 1
-6.780631 -24.594613 -7.466551 26.582350 1.301783 1.855511 0.041073 -0.012203 -47204.800000 0 0 1
-5.935231 -23.568513 -7.908951 25.558820 1.324097 1.885402 0.019636 -0.010580 -434355.000000 0 0 1
-5.916331 -23.511213 -9.490851 26.035675 1.324276 1.943927 0.026919 -0.014232 -153431.000000 0 0 1
-5.456931 -24.727113 -9.993651 27.222808 1.353592 1.946692 0.017026 -0.013735 -230525.000000 0 0 1
-5.445631 -24.914613 -11.421951 27.943761 1.355609 1.991878 0.004085 -0.005266 409062.000000 0 0 1
-6.873331 -25.033113 -12.059751 28.624063 1.302830 2.005691 0.021992 -0.014108 646266.000000 0 0 1
-6.938931 -25.229713 -13.450751 29.421249 1.302402 2.045616 0.038462 -0.010305 -899207.000000 0 0 1
-8.211231 -25.685313 -13.743251 30.266096 1.261378 2.042136 0.056319 -0.017061 -1108990.000000 0 0 1
-8.539731 -25.800113 -15.261751 31.168796 1.251151 2.082483 0.057046 -0.020471 -3223.520000 0 0 1
-7.669831 -26.490813 -16.133851 31.951379 1.288974 2.100120 0.051892 -0.020001 985431.000000 0 0 1
-6.321331 -25.986113 -16.263551 31.300805 1.332173 2.117166 0.050411 -0.016034 917953.000000 0 0 1
-5.320731 -26.917613 -16.992151 32.273848 1.375645 2.125274 0.036592 -0.011081 -114108.000000 0 0 1
-5.540031 -26.902813 -18.369751 33.043926 1.367708 2.160265 0.069641 -0.017972 558574.000000 0 0 1
-4.523531 -27.645713 -19.065251 33.885566 1.408609 2.168368 0.057889 -0.015669 366079.000000 0 0 1
-24.135731 14.726233 -6.199750 28.945334 -0.547844 1.786657 0.025990 -0.011462 -207928.000000 0 0 1
-24.590531 13.792933 -5.275250 28.683924 -0.511176 1.755759 0.018015 -0.013829 479715.000000 0 0 1
-23.559931 12.867833 -5.049950 27.315810 -0.499901 1.756739 0.036035 -0.016293 -479949.000000 0 0 1
-24.108431 11.689033 -4.289450 27.133915 -0.451456 1.729547 0.060757 -0.021372 2508.860000 0 0 1
-24.666531 10.652033 -5.098550 27.347738 -0.407651 1.758328 0.061266 -0.012535 255653.000000 0 0 1
-26.063571 10.575333 -5.223750 28.608302 -0.385455 1.754422 0.044860 -0.011734 -353289.000000 0 0 1
-26.362761 9.724833 -6.533150 28.848737 -0.353399 1.799240 0.069055 -0.014588 -100695.000000 0 0 1
-25.946901 10.438433 -7.721550 29.014219 -0.382487 1.840172 0.088356 -0.018539 153952.000000 0 0 1
-26.316971 9.735233 -8.876050 29.430290 -0.354312 1.877162 0.093069 -0.018796 -541546.000000 0 0 1
-26.677181 10.639133 -10.071650 30.435198 -0.379480 1.908076 0.062337 -0.018419 50537.000000 0 0 1
-25.618831 11.415733 -10.592050 29.980577 -0.419188 1.931889 0.066629 -0.016051 122603.000000 0 0 1
-26.129151 12.148033 -11.680750 31.092558 -0.435194 1.955923 0.058541 -0.019054 -745763.000000 0 0 1
-25.122781 12.976033 -12.397150 30.874276 -0.476764 1.983990 0.048343 -0.019041 -908983.000000 0 0 1
-24.715731 14.110433 -11.637450 30.747389 -0.518754 1.958956 0.038465 -0.022816 -34228.200000 0 0 1
-23.808931 14.807733 -12.440150 30.673955 -0.556396 1.988388 0.030934 -0.029914 -247994.000000 0 0 1
-23.804931 16.296433 -12.108350 31.286748 -0.600303 1.968185 0.020808 -0.027015 -276945.000000 0 0 1
-23.327231 16.540433 -10.814550 30.572866 -0.616781 1.932353 0.027919 -0.018038 40194.000000 0 0 1
-23.326631 17.896033 -10.401550 31.186407 -0.654414 1.910840 0.009762 -0.017688 -558297.000000 0 0 1
-22.477631 18.136233 -9.164650 30.301116 -0.678908 1.878061 0.012933 -0.017985 -486798.000000 0 0 1
-22.965131 17.669233 -7.889350 30.030666 -0.655798 1.836626 0.032436 -0.017776 295165.000000 0 0 1
-23.633731 18.752433 -7.240550 31.026320 -0.670741 1.806336 0.019683 -0.016444 -115646.000000 0 0 1
-23.995731 18.427233 -5.805550 30.806857 -0.654883 1.760380 0.015883 -0.013906 321782.000000 0 0 1
-22.861031 18.274233 -4.944050 29.681947 -0.674352 1.738144 0.039531 -0.023357 345240.000000 0 0 1
-23.173031 18.035233 -3.585150 29.582297 -0.661359 1.692287 0.028603 -0.016645 -391932.000000 0 0 1
-22.045231 17.509733 -2.674750 28.279626 -0.671234 1.665520 0.043010 -0.022406 -350212.000000 0 0 1
-21.203231 18.563933 -2.215150 28.268419 -0.719127 1.649238 0.048048 -0.027516 308572.000000 0 0 1
-20.363331 18.215233 -1.144950 27.345400 -0.729774 1.612679 0.069202 -0.033705 -154163.000000 0 0 1
-19.621631 19.444433 -0.603450 27.630753 -0.780862 1.592638 0.072657 -0.035745 -139874.000000 0 0 1
-20.465131 20.265833 0.159550 28.801928 -0.780505 1.565257 0.056986 -0.028897 267858.000000 0 0 1
-19.890431 21.552533 0.364250 29.330421 -0.825482 1.558377 0.067123 -0.035965 278848.000000 0 0 1
-20.694631 22.406433 1.432950 30.534724 -0.825093 1.523851 0.048039 -0.031801 154862.000000 0 0 1
-20.601031 21.874133 2.740550 30.172683 -0.815362 1.479842 0.049629 -0.028999 305746.000000 0 0 1
-21.796431 22.056433 3.470250 31.202777 -0.791327 1.459350 0.039788 -0.028044 99781.800000 0 0 1
-21.522831 21.777833 4.976150 31.020450 -0.791287 1.409685 0.045014 -0.022706 -502862.000000 0 0 1
-20.605031 22.641433 5.515050 31.106552 -0.832452 1.392559 0.034051 -0.024279 -552245.000000 0 0 1
-20.099131 22.208833 6.784950 30.712259 -0.835222 1.348039 0.031152 -0.011650 -370168.000000 0 0 1
-20.971931 22.385533 8.062750 31.716587 -0.817990 1.313763 0.030527 -0.011160 -78071.600000 0 0 1
-22.167631 21.611733 7.932550 31.959290 -0.772701 1.319966 0.038971 -0.018737 496767.000000 0 0 1
-22.518531 20.858633 9.058550 32.003502 -0.747150 1.283825 0.059121 -0.022505 -129034.000000 0 0 1
-23.169831 21.668333 10.213850 33.326873 -0.751924 1.259309 0.070682 -0.021726 -323015.000000 0 0 1
-24.435731 22.219733 9.909750 34.482237 -0.737937 1.279299 0.082868 -0.018395 187132.000000 0 0 1
-25.206801 22.467633 11.039350 35.525267 -0.728006 1.254818 0.095114 -0.018702 36455.600000 0 0 1
-26.289501 23.564033 10.827450 36.927431 -0.730783 1.273215 0.080116 -0.021557 269669.000000 0 0 1
-26.972291 23.949733 12.026350 38.022721 -0.726111 1.248976 0.065173 -0.017513 198582.000000 0 0 1
-27.380171 25.279833 11.906650 39.121759 -0.745534 1.261542 0.056026 -0.015708 -196391.000000 0 0 1
-27.789421 25.790133 13.287650 40.173928 -0.748101 1.233695 0.050774 -0.011567 -281190.000000 0 0 1
-26.728901 25.930233 14.194750 39.853508 -0.770233 1.206627 0.044677 -0.017270 -189966.000000 0 0 1
-27.116871 26.465533 15.454850 40.921895 -0.773243 1.183521 0.035827 -0.014749 156961.000000 0 0 1
-25.931351 26.648333 16.448350 40.658540 -0.799033 1.154311 0.041189 -0.017980 205909.000000 0 0 1
-25.645841 25.375133 17.064650 39.910009 -0.780092 1.128984 0.052269 -0.021087 -802492.000000 0 0 1
-24.548631 25.455533 17.886350 39.630051 -0.803533 1.102538 0.056901 -0.023101 -802851.000000 0 0 1
-24.104831 24.082733 18.448950 38.747705 -0.784940 1.074548 0.068459 -0.017824 -822557.000000 0 0 1
-23.050131 24.189433 19.319950 38.596602 -0.809511 1.046550 0.054801 -0.022943 -498096.000000 0 0 1
-22.606731 22.944933 19.832550 37.826767 -0.792823 1.018904 0.060259 -0.023141 -269339.000000 0 0 1
-21.104931 23.031133 20.187550 37.193929 -0.829013 0.997071 0.068427 -0.024449 -830626.000000 0 0 1
-20.372631 23.051533 18.978450 36.146906 -0.847012 1.018038 0.076130 -0.031201 -255165.000000 0 0 1
-19.003931 22.818833 19.225250 35.375963 -0.876362 0.996249 0.061228 -0.031019 15979.600000 0 0 1
-18.619131 21.270233 19.269550 34.211261 -0.851762 0.972481 0.065614 -0.017739 -461731.000000 0 0 1
-19.072831 20.623033 20.473650 34.759930 -0.824430 0.940974 0.070735 -0.022125 197541.000000 0 0 1
-18.211331 20.810233 21.588950 35.082776 -0.851902 0.907939 0.061898 -0.011493 -318487.000000 0 0 1
-18.887531 20.466933 22.920450 36.069117 -0.825509 0.882193 0.039739 -0.007674 113495.000000 0 0 1
-19.898431 21.462533 23.130550 37.304292 -0.823196 0.901989 0.037529 -0.008033 287679.000000 0 0 1
-20.285531 21.455933 24.491550 38.362688 -0.813430 0.878351 0.040854 -0.001089 530417.000000 0 0 1
-21.521231 22.405933 24.749150 39.720393 -0.805536 0.898117 0.032501 -0.003342 84747.800000 0 0 1
-21.180531 23.797533 24.791750 40.367912 -0.843517 0.909494 0.035255 -0.002458 742818.000000 0 0 1
-22.299331 24.675433 24.995150 41.604022 -0.835938 0.926311 0.027278 -0.004432 131329.000000 0 0 1
-23.205231 24.933733 23.812950 41.559961 -0.821289 0.960661 0.029673 -0.014438 -439055.000000 0 0 1
-24.151031 23.943833 23.495150 41.335233 -0.781090 0.966230 0.024047 -0.012981 282975.000000 0 0 1
-24.979031 24.421333 22.422550 41.510532 -0.774109 1.000163 0.030166 -0.018170 -110931.000000 0 0 1
-26.114131 23.523433 21.952650 41.439336 -0.733253 1.012486 0.031047 -0.014078 -479658.000000 0 0 1
-27.223791 23.558833 22.818150 42.624188 -0.713354 1.005894 0.022139 -0.015720 147293.000000 0 0 1
-28.248071 22.744233 22.245950 42.545692 -0.677880 1.020580 0.030387 -0.020466 -122271.000000 0 0 1
-29.655331 22.859233 22.838650 43.858718 -0.656700 1.023088 0.041295 -0.013783 -807166.000000 0 0 1
-30.349831 23.986533 22.272450 44.637742 -0.668820 1.048398 0.041774 -0.014141 -200253.000000 0 0 1
-31.732121 23.867133 22.455550 45.615998 -0.644872 1.056097 0.047039 -0.021315 -393121.000000 0 0 1
-32.478091 23.012633 21.422150 45.203055 -0.616447 1.077071 0.052355 -0.032741 -1207350.000000 0 0 1
-32.231441 21.602533 21.612550 44.414384 -0.590467 1.062589 0.042160 -0.028155 445975.000000 0 0 1
-32.898831 20.883233 20.586250 44.070809 -0.565595 1.084768 0.018667 -0.020893 764630.000000 0 0 1
-34.439403 20.635433 20.756250 45.196410 -0.539817 1.093651 0.027590 -0.022022 331591.000000 0 0 1
-35.028163 19.937033 19.698250 44.860657 -0.517443 1.116201 0.028907 -0.009450 -1266330.000000 0 0 1
35.464310 19.601233 20.126750 45.243913 0.504916 1.109790 0.048958 -0.008879 -1137740.000000 0 0 1
34.671960 18.812133 19.041150 43.801901 0.497125 1.121079 0.057399 -0.023432 -296228.000000 0 0 1
34.994350 17.455433 18.974450 43.466382 0.462693 1.119056 0.055549 -0.008688 276983.000000 0 0 1
34.302950 16.847833 17.913950 42.207244 0.456541 1.132466 0.067484 -0.022012 104981.000000 0 0 1
34.784130 15.382833 17.693350 41.947847 0.416380 1.135373 0.064849 -0.025549 -251621.000000 0 0 1
33.894580 14.762233 16.840050 40.624541 0.410759 1.143371 0.079357 -0.028094 -14582.800000 0 0 1
34.402590 13.492033 16.441550 40.446232 0.373748 1.152172 0.075253 -0.030923 -262004.000000 0 0 1
33.499710 12.731333 15.504950 39.047674 0.363185 1.162466 0.067745 -0.029703 -488096.000000 0 0 1
33.382390 13.229133 14.186850 38.609074 0.377305 1.194532 0.071122 -0.022740 195150.000000 0 0 1
32.760150 12.332233 13.316650 37.451896 0.360033 1.207276 0.078261 -0.019011 -361663.000000 0 0 1
32.914980 12.758933 11.824950 37.229232 0.369800 1.247572 0.099706 -0.017554 -22593.000000 0 0 1
34.237860 12.536933 11.393550 38.199721 0.351008 1.267924 0.108491 -0.020077 136116.000000 0 0 1
34.205580 12.596833 9.984650 37.794115 0.352856 1.303437 0.097786 -0.016039 494740.000000 0 0 1
35.640430 12.402233 9.403150 38.890549 0.334876 1.326591 0.083323 -0.014847 -131090.000000 0 0 1
-35.451873 11.156133 9.777550 38.430393 -0.304873 1.313546 0.091774 -0.014552 -86781.500000 0 0 1
-34.137601 11.119933 9.294750 37.086670 -0.314900 1.317473 0.068390 -0.006893 -332852.000000 0 0 1
-33.978511 10.942333 7.762350 36.531191 -0.311550 1.356678 0.070699 -0.020071 -777228.000000 0 0 1
-34.402925 12.055933 6.997650 37.119724 -0.337061 1.381146 0.056246 -0.022436 -49973.200000 0 0 1
-33.988411 11.855433 5.666750 36.440025 -0.335613 1.414654 0.053915 -0.033624 -215449.000000 0 0 1
-34.738452 12.724933 4.657350 37.287731 -0.351128 1.445566 0.084471 -0.033017 -338216.000000 0 0 1
35.746685 12.168133 4.292750 38.004166 0.328096 1.457600 0.086519 -0.037194 1025450.000000 0 0 1
34.642310 13.098833 4.310450 37.286043 0.361500 1.454932 0.068947 -0.031717 708443.000000 0 0 1
34.302500 13.775033 5.678950 37.398710 0.381864 1.418358 0.091062 -0.028643 -1097860.000000 0 0 1
33.359770 14.876033 5.588950 36.951413 0.419462 1.418962 0.088735 -0.020775 865663.000000 0 0 1
32.610290 15.109933 6.785150 36.575666 0.433899 1.384206 0.069639 -0.013568 766925.000000 0 0 1
31.436870 14.117733 7.112450 35.187698 0.422090 1.367265 0.098349 -0.033736 -133146.000000 0 0 1
31.876810 12.821733 7.565250 35.181825 0.382425 1.354071 0.115648 -0.021694 129588.000000 0 0 1
30.965330 11.762433 7.315350 33.922276 0.363023 1.353439 0.111950 -0.003651 -145308.000000 0 0 1
31.086390 11.011433 5.985750 33.517823 0.340430 1.391249 0.118314 -0.019311 -314095.000000 0 0 1
30.723110 11.768633 4.875150 33.259243 0.365814 1.423686 0.119801 -0.027185 192295.000000 0 0 1
31.170040 11.219633 3.641950 33.327396 0.345511 1.461300 0.132406 -0.033903 -330498.000000 0 0 1
30.251170 11.507633 2.415750 32.456043 0.363499 1.496296 0.104761 -0.042879 -709046.000000 0 0 1
29.030890 10.895333 2.632750 31.119643 0.359035 1.486094 0.088560 -0.034239 -570465.000000 0 0 1
28.023840 11.401533 1.774650 30.306434 0.386399 1.512206 0.077187 -0.031468 -127837.000000 0 0 1
26.644960 10.765533 1.968950 28.804988 0.383981 1.502389 0.095581 -0.012402 -201440.000000 0 0 1
26.546360 9.447733 1.397150 28.212070 0.341917 1.521253 0.057839 -0.023105 800975.000000 0 0 1
25.209160 8.918433 1.477550 26.781025 0.340036 1.515597 0.058550 -0.019077 433121.000000 0 0 1
25.231760 7.365033 1.301050 26.316879 0.284005 1.521338 0.068592 -0.019191 527458.000000 0 0 1
25.893660 6.612133 2.359650 26.828527 0.250014 1.482730 0.083603 -0.011984 1806810.000000 0 0 1
27.297580 6.796133 2.657450 28.256102 0.244004 1.476608 0.114857 -0.029845 745081.000000 0 0 1
27.786100 5.947033 3.862150 28.676658 0.210848 1.435707 0.112145 -0.039873 -1119960.000000 0 0 1
29.161690 5.909333 3.959950 30.016755 0.199933 1.438486 0.139847 -0.046413 -799668.000000 0 0 1
29.531770 5.404933 5.214050 30.471709 0.181018 1.398839 0.119030 -0.026925 382553.000000 0 0 1
31.051810 5.450633 5.569650 32.014767 0.173763 1.395935 0.122848 -0.029707 646826.000000 0 0 1
31.535780 6.809633 5.777350 32.775818 0.212668 1.393602 0.129542 -0.037998 -457879.000000 0 0 1
32.840260 6.774733 6.268150 34.112598 0.203440 1.385997 0.082206 -0.024751 -478560.000000 0 0 1
33.134460 8.035633 7.082450 34.822764 0.237922 1.365982 0.093548 -0.032475 83967.000000 0 0 1
32.387740 7.991133 8.280250 34.371302 0.241902 1.327497 0.109393 -0.028738 331302.000000 0 0 1
32.858540 9.007733 9.171350 35.283658 0.267563 1.307845 0.104921 -0.021720 -6964.910000 0 0 1
32.194160 8.982933 10.564550 35.053769 0.272103 1.264655 0.102834 -0.017131 -1643300.000000 0 0 1
30.892100 9.349833 10.509750 33.944013 0.293896 1.256003 0.093601 -0.013435 -1097300.000000 0 0 1
30.209260 9.270633 11.803650 33.732331 0.297757 1.213310 0.079011 -0.014475 -76758.700000 0 0 1
28.737890 9.678133 11.773450 32.529167 0.324843 1.200453 0.077182 -0.015141 -536299.000000 0 0 1
28.479910 11.103033 11.842350 32.781456 0.371730 1.201187 0.076604 -0.011620 274821.000000 0 0 1
28.488590 11.842233 10.619350 32.628344 0.393953 1.239294 0.095816 -0.019954 -387315.000000 0 0 1
27.154870 11.842333 9.869450 31.225532 0.411238 1.249212 0.076449 -0.019286 -453341.000000 0 0 1
27.230840 12.837033 8.910350 31.395897 0.440519 1.283035 0.065165 -0.012309 -363485.000000 0 0 1
26.033860 12.913633 8.206350 30.197151 0.460468 1.295576 0.059326 -0.007389 -506700.000000 0 0 1
25.872460 14.146933 7.229150 30.360838 0.500379 1.330379 0.034228 -0.011833 -155415.000000 0 0 1
25.818960 15.439533 7.869950 31.095562 0.538942 1.314924 0.041358 -0.002124 142822.000000 0 0 1
25.789960 16.535833 7.011050 31.427864 0.570145 1.345819 0.023118 0.005814 -1387700.000000 0 0 1
25.646560 17.840133 7.874650 32.218418 0.607777 1.323880 0.046885 -0.003415 151846.000000 0 0 1
24.317460 18.289433 8.078250 31.481746 0.644851 1.311292 0.045013 -0.009060 225783.000000 0 0 1
23.476660 17.321833 8.716450 30.449564 0.635668 1.280477 0.037863 -0.010466 -432536.000000 0 0 1
22.047260 17.912533 8.991150 29.795659 0.682293 1.264258 0.025958 -0.011290 493913.000000 0 0 1
21.440160 18.329233 7.785950 29.261959 0.707333 1.301475 0.022939 -0.009749 50085.400000 0 0 1
20.337160 19.201333 7.971950 29.083384 0.756679 1.293136 0.028675 -0.015398 222630.000000 0 0 1
19.658760 19.624733 6.641650 28.560611 0.784532 1.336102 0.020442 -0.009524 336642.000000 0 0 1
20.448360 20.459533 5.805550 29.503090 0.785671 1.372726 0.015701 0.002252 542696.000000 0 0 1
19.670260 20.622633 4.614950 28.870571 0.809030 1.410258 0.012759 -0.005199 463840.000000 0 0 1
18.177269 17.210333 32.545499 41.058716 0.758081 0.655641 0.036022 -0.006124 -397975.000000 0 0 1
17.331869 18.058933 31.840779 40.501284 0.805939 0.666214 0.041667 -0.010577 -222131.000000 0 0 1
16.627369 17.296633 30.915229 39.133034 0.805124 0.659982 0.046284 -0.010577 -165190.000000 0 0 1
16.178769 18.120033 29.635749 38.319261 0.841936 0.686624 0.053307 -0.016241 252119.000000 0 0 1
17.197369 18.521733 28.730339 38.265343 0.822458 0.721495 0.058485 -0.016290 -200415.000000 0 0 1
16.676269 18.951633 27.510159 37.337263 0.849176 0.742469 0.075089 -0.026436 -568390.000000 0 0 1
17.739669 19.161833 26.414039 37.142606 0.823919 0.779661 0.062606 -0.013778 200267.000000 0 0 1
18.606469 20.268433 26.730599 38.360592 0.828124 0.799836 0.068893 -0.017457 711841.000000 0 0 1
19.492569 20.586233 25.637069 38.223194 0.812679 0.835617 0.042968 -0.015566 5558.150000 0 0 1
20.416369 21.721333 26.038029 39.580594 0.816357 0.852838 0.053134 -0.021744 -385717.000000 0 0 1
19.702269 22.927233 25.927259 39.825371 0.860905 0.861864 0.065892 -0.030404 481928.000000 0 0 1
20.375169 24.010533 26.586299 41.212674 0.867120 0.869642 0.069078 -0.035758 -328170.000000 0 0 1
19.573569 25.280633 26.590729 41.584876 0.911954 0.877036 0.073936 -0.039196 -369133.000000 0 0 1
19.353069 25.867133 25.312549 41.041138 0.928466 0.906176 0.078625 -0.038054 -346750.000000 0 0 1
18.120369 26.489833 25.215539 40.815223 0.970855 0.904858 0.073843 -0.047250 -763163.000000 0 0 1
17.976169 27.247333 23.875749 40.442690 0.987604 0.939291 0.053368 -0.045819 -1390010.000000 0 0 1
19.044469 28.070633 23.722109 41.393124 0.974682 0.960521 0.066705 -0.047462 -759159.000000 0 0 1
18.798569 29.081233 22.760449 41.438416 0.996945 0.989318 0.064353 -0.034878 925698.000000 0 0 1
20.119069 29.948733 22.739849 42.647442 0.979260 1.008411 0.055036 -0.025905 959250.000000 0 0 1
21.082169 29.553933 21.787949 42.339196 0.951170 1.030250 0.041420 -0.026989 -553383.000000 0 0 1
22.204169 30.388633 21.814649 43.501414 0.939779 1.045499 0.031297 -0.025668 -352135.000000 0 0 1
22.869569 30.410333 20.441349 43.193221 0.925995 1.077816 0.023014 -0.020152 -78120.700000 0 0 1
22.191069 31.211933 19.500949 42.975753 0.952739 1.099809 0.020148 -0.019417 -108051.000000 0 0 1
22.772369 31.031633 18.224949 42.587461 0.937716 1.128582 0.024371 0.001893 134723.000000 0 0 1
22.285469 32.076933 17.163649 42.663364 0.963602 1.156764 0.017730 -0.019679 -331790.000000 0 0 1
22.893369 33.329433 17.274549 43.970075 0.968929 1.167045 0.031126 -0.014368 -59132.700000 0 0 1
22.733569 34.195733 16.186649 44.138089 0.984082 1.195307 0.034826 -0.012083 -39973.500000 0 0 1
23.701669 33.938233 14.984849 44.024067 0.961161 1.223477 0.016757 -0.008603 20398.500000 0 0 1
23.383469 32.862733 14.148049 42.742404 0.952361 1.233425 0.032874 -0.015304 506647.000000 0 0 1
22.414069 33.172833 13.125549 42.132023 0.976583 1.253990 0.027249 -0.012755 555263.000000 0 0 1
21.768769 32.057933 12.298549 40.655193 0.974273 1.263473 0.032093 -0.023806 36975.700000 0 0 1
22.769369 31.610533 11.407649 40.593157 0.946569 1.285935 0.047111 -0.045934 58035.200000 0 0 1
22.360969 30.509733 10.576349 39.277422 0.938321 1.298158 0.036432 -0.042565 -1454270.000000 0 0 1
23.445069 29.924533 9.697949 39.232629 0.906214 1.321016 0.041890 -0.041071 462710.000000 0 0 1
24.556269 29.268933 10.371349 39.588454 0.872730 1.305724 0.047646 -0.031585 1012410.000000 0 0 1
25.398469 30.129633 11.121449 40.945862 0.870396 1.295727 0.038493 -0.035395 -1626980.000000 0 0 1
26.705769 29.436833 11.488949 41.372952 0.834005 1.289405 0.046416 -0.035026 -326464.000000 0 0 1
26.599669 28.505633 12.526049 40.951379 0.819972 1.259938 0.040392 -0.020040 8425.190000 0 0 1
27.916669 28.145333 12.896749 41.687244 0.789477 1.256267 0.034485 -0.001046 222639.000000 0 0 1
27.988069 27.012033 13.890149 41.302762 0.767654 1.227810 0.012231 -0.010308 -90344.500000 0 0 1
29.268269 27.040333 14.476249 42.395436 0.745852 1.222329 0.003178 -0.008506 -84826.100000 0 0 1
29.499369 25.890333 15.246949 42.106906 0.720333 1.200276 0.018949 -0.004680 222366.000000 0 0 1
30.524869 26.094633 16.397949 43.377301 0.707312 1.183128 0.022827 -0.010436 2839.220000 0 0 1
31.857069 26.283533 16.004249 44.292583 0.689827 1.201102 0.041925 -0.003494 -511236.000000 0 0 1
32.662669 26.591233 17.106549 45.459627 0.683290 1.184995 0.025890 -0.004848 -344929.000000 0 0 1
34.159769 26.728033 16.840449 46.528253 0.663943 1.200448 0.045549 -0.020737 -272125.000000 0 0 1
34.401969 27.916433 16.121049 47.145635 0.681701 1.221814 0.057463 -0.014821 -2217080.000000 0 0 1
35.727269 28.113933 16.021949 48.203048 0.666704 1.231966 0.065677 -0.012698 -1742330.000000 0 0 1
-35.640622 29.100133 14.873949 48.356034 -0.684714 1.258135 0.049917 -0.013881 157462.000000 0 0 1
35.737569 30.426833 15.255949 49.352913 0.705304 1.256529 0.050155 -0.012746 -76671.100000 0 0 1
35.713269 31.322433 14.165149 49.569989 0.719992 1.280996 0.031228 0.003824 -17363.400000 0 0 1
34.593169 32.352233 14.349049 49.489893 0.751937 1.276633 0.005911 0.002538 -1198620.000000 0 0 1
34.576769 33.368233 13.387549 49.882045 0.767613 1.299081 -0.022733 0.004192 429830.000000 0 0 1
33.382069 34.158833 13.364549 49.596367 0.796898 1.297958 -0.024616 0.012638 444177.000000 0 0 1
32.065669 33.486633 12.968449 48.142937 0.807072 1.298054 -0.003430 0.014414 -534756.000000 0 0 1
31.606369 32.576033 14.033949 47.509075 0.800505 1.270927 -0.001629 -0.009186 575743.000000 0 0 1
30.427369 31.832433 13.661349 46.105976 0.807962 1.269977 0.016753 -0.009072 35087.600000 0 0 1
29.948369 30.744233 14.654349 45.352647 0.798510 1.241772 0.024387 -0.009049 -127397.000000 0 0 1
29.193769 31.328833 15.686049 45.605088 0.820661 1.219672 0.000670 -0.004958 -214345.000000 0 0 1
28.698469 30.404533 16.583649 44.978386 0.814256 1.193183 0.002454 -0.000208 -27923.600000 0 0 1
27.676569 31.029733 17.571449 45.139701 0.842454 1.170959 -0.010297 0.003842 -17734.100000 0 0 1
27.394069 30.185633 18.652249 44.827602 0.833842 1.141657 -0.028624 0.008802 -102409.000000 0 0 1
28.270869 30.406433 19.744649 45.974388 0.821777 1.126890 -0.033565 0.004029 -71237.600000 0 0 1
28.212169 29.296133 20.770949 45.668613 0.804245 1.098627 -0.013438 0.006717 -122816.000000 0 0 1
27.071569 29.114533 21.578149 45.234306 0.821743 1.073523 -0.006545 -0.004615 -36670.500000 0 0 1
27.323169 28.114933 22.528149 45.216397 0.799679 1.049241 -0.006182 -0.000239 -412963.000000 0 0 1
26.251769 28.013033 23.602869 45.066405 0.817844 1.019566 0.010050 -0.015437 -236806.000000 0 0 1
24.981469 27.672333 23.049749 43.830614 0.836459 1.017044 0.039391 -0.019042 303581.000000 0 0 1
23.883469 27.717733 23.927459 43.717458 0.859568 0.991637 0.051812 -0.032307 212640.000000 0 0 1
23.681469 26.478333 24.772009 43.307811 0.841100 0.961856 0.042760 -0.034183 -1032150.000000 0 0 1
24.706969 26.307633 25.678619 44.293536 0.816764 0.952390 0.023701 -0.030355 -470037.000000 0 0 1
24.467069 25.208133 26.538009 44.026735 0.800315 0.923828 0.038022 -0.032802 168944.000000 0 0 1
25.535569 25.032533 27.691939 45.227608 0.775451 0.911856 0.037966 -0.034150 293005.000000 0 0 1
25.840569 26.140433 28.521079 46.524286 0.791167 0.910898 0.031055 -0.026691 174832.000000 0 0 1
26.688069 27.091533 27.936509 47.187421 0.792900 0.937217 0.009929 -0.015262 -855616.000000 0 0 1
26.853469 28.369133 28.794069 48.528496 0.812838 0.935590 0.000846 -0.015135 -618104.000000 0 0 1
27.584169 28.205833 30.007249 49.567029 0.796541 0.920544 0.000957 -0.006002 346110.000000 0 0 1
27.860269 29.494533 30.614989 50.827154 0.813884 0.924373 0.008203 -0.012364 331628.000000 0 0 1
29.387169 29.772433 30.606009 51.833689 0.791910 0.939161 -0.004601 -0.010779 -114007.000000 0 0 1
29.910769 29.970133 29.371819 51.532191 0.786390 0.964327 -0.024740 -0.003734 -15297.400000 0 0 1
31.271069 30.389233 29.441949 52.613816 0.771098 0.976910 0.001020 -0.015094 175715.000000 0 0 1
31.727969 30.839533 28.019929 52.372295 0.771199 1.006272 -0.013207 -0.000784 -310418.000000 0 0 1
31.441269 32.172233 27.595859 52.774401 0.796888 1.020544 -0.014301 -0.003413 187772.000000 0 0 1
32.049669 32.426833 26.351869 52.660249 0.791248 1.046721 -0.001935 -0.007430 -188510.000000 0 0 1
31.869669 33.909333 25.922569 53.268173 0.816396 1.062554 -0.000054 -0.007197 413457.000000 0 0 1
32.817369 -33.929413 26.527409 54.146913 -0.802057 1.058804 0.016464 -0.005760 607890.000000 0 0 1
32.372169 -32.610313 26.358239 52.973074 -0.789063 1.049992 0.011591 -0.005892 374325.000000 0 0 1
33.408769 -31.595213 26.966639 53.306688 -0.757506 1.040398 0.028639 -0.011947 362585.000000 0 0 1
33.442369 -31.488613 28.399809 54.004388 -0.755318 1.017047 0.033759 -0.022636 262526.000000 0 0 1
34.535369 -30.729313 28.836239 54.484044 -0.727147 1.013068 0.039478 -0.026855 -397632.000000 0 0 1
34.295569 -30.458213 30.390569 55.022500 -0.726207 0.985640 0.041847 -0.023538 -253434.000000 0 0 1
34.555069 -31.553513 31.300929 56.297648 -0.740026 0.981243 0.047882 -0.024643 355951.000000 0 0 1
33.511869 -32.506113 31.376059 56.250776 -0.770165 0.979077 0.042061 -0.031087 -300498.000000 0 0 1
33.494169 -33.301613 32.656374 57.422082 -0.782515 0.965863 0.057818 -0.032548 -1012450.000000 0 0 1
33.221369 -32.513913 33.837295 57.495882 -0.774636 0.941573 0.034233 -0.033444 289652.000000 0 0 1
33.205969 -33.275913 -33.585810 57.774816 -0.786450 2.191150 0.040794 -0.034190 85331.600000 0 0 1
32.145769 34.344833 -33.401200 57.693658 0.818459 2.188225 0.034388 -0.027575 -185841.000000 0 0 1
32.398869 33.252033 -34.285836 57.713975 0.798393 2.206899 0.040717 -0.033516 295937.000000 0 0 1
31.666269 32.105533 -33.828400 56.372675 0.792286 2.214404 0.036427 -0.028605 54367.100000 0 0 1
31.658669 30.995633 33.699493 55.665577 0.774816 0.920538 0.027249 -0.023409 -197817.000000 0 0 1
32.904569 30.412333 33.407125 55.889683 0.746057 0.930126 0.028324 -0.022486 -17576.400000 0 0 1
32.812569 29.342333 32.475329 54.701775 0.729624 0.935173 0.025475 -0.025704 502609.000000 0 0 1
34.235169 28.694533 32.335289 55.145208 0.697580 0.944231 0.018979 -0.019572 578238.000000 0 0 1
34.578069 27.830133 33.408833 55.554561 0.677691 0.925582 0.016326 -0.016397 213272.000000 0 0 1
-35.845922 27.359533 33.345120 56.083609 -0.651930 0.934077 0.016132 -0.014605 -22021.700000 0 0 1
-35.703422 26.115233 34.196195 55.911712 -0.631522 0.912702 0.018394 -0.015682 71609.500000 0 0 1
35.599469 24.882633 33.595070 54.909893 0.610028 0.912435 0.006943 -0.011027 239875.000000 0 0 1
35.552169 23.834133 -34.051900 54.695105 0.590582 2.242827 0.012522 -0.019723 -263481.000000 0 0 1
35.245169 22.520433 33.815544 53.785527 0.568579 0.890902 0.003941 -0.019787 55197.700000 0 0 1
-35.455922 22.138933 32.908939 53.200122 -0.558173 0.903852 0.012591 -0.012159 670665.000000 0 0 1
-35.732922 20.882133 32.319629 52.511557 -0.528866 0.907806 0.015842 -0.012054 170895.000000 0 0 1
-34.550622 20.277933 31.506549 50.966682 -0.530735 0.904372 -0.000701 -0.014617 171338.000000 0 0 1
-34.328422 20.806933 30.218689 50.244783 -0.544903 0.925507 0.000740 -0.018907 221875.000000 0 0 1
-33.139922 20.288533 29.647429 48.875853 -0.549348 0.919037 0.018857 -0.017011 -763.561000 0 0 1
-33.373722 19.272033 28.493239 47.927875 -0.523682 0.934150 0.021422 -0.018772 -387957.000000 0 0 1
-33.995122 18.067733 28.929619 48.156351 -0.488513 0.926365 0.001203 -0.016931 389338.000000 0 0 1
-34.523622 17.395933 27.764129 47.595649 -0.466751 0.947970 0.009017 -0.027211 -240287.000000 0 0 1
-35.347722 16.178033 28.208299 48.030181 -0.429224 0.943073 0.021260 -0.025834 -324145.000000 0 0 1
-34.523022 15.169933 28.718079 47.399304 -0.414017 0.919930 0.015741 -0.019802 372186.000000 0 0 1
-35.306722 14.022533 28.989779 47.787062 -0.378059 0.918963 0.007909 -0.008114 -56856.100000 0 0 1
-34.419922 12.921233 29.550599 47.169134 -0.359121 0.893765 0.003118 0.005130 -444248.000000 0 0 1
-33.976422 13.323533 30.838659 47.780087 -0.373713 0.869211 0.003946 0.002794 262596.000000 0 0 1
-33.261622 12.254233 31.447609 47.386220 -0.352989 0.845116 0.021024 0.005709 158554.000000 0 0 1
-31.724922 12.347233 31.325329 46.262307 -0.371159 0.826949 0.013793 0.001086 -893875.000000 0 0 1
-31.190622 12.108833 30.044349 44.968229 -0.370310 0.839112 0.029979 -0.009044 640613.000000 0 0 1
-29.808322 12.443233 29.888549 44.007902 -0.395451 0.824174 0.038115 -0.005491 214984.000000 0 0 1
-28.801022 11.461733 30.393799 43.412593 -0.378749 0.795238 0.033416 -0.004138 -1008460.000000 0 0 1
-28.634322 10.419133 29.435019 42.366296 -0.348976 0.802690 0.021644 -0.001527 606317.000000 0 0 1
-27.350522 9.802633 29.629569 41.497639 -0.344145 0.775593 0.026138 -0.012557 465390.000000 0 0 1
-27.068422 8.752833 28.548329 40.302837 -0.312747 0.783645 0.028906 -0.018529 -117609.000000 0 0 1
-27.829522 7.613233 28.606119 40.629468 -0.267033 0.789679 0.043582 -0.021968 -1660360.000000 0 0 1
-29.120522 7.682233 28.167129 41.236012 -0.257932 0.818837 0.047219 -0.009455 -1392300.000000 0 0 1
-29.900922 6.349433 28.229599 41.608781 -0.209241 0.825142 0.048586 -0.006760 -206435.000000 0 0 1
-30.343422 6.049633 29.554629 42.787818 -0.196792 0.808305 0.049791 -0.010173 -56230.800000 0 0 1
-30.689722 4.731033 29.767599 43.015714 -0.152953 0.806517 0.050423 -0.008233 -57284.500000 0 0 1
-31.555522 4.570633 31.061789 44.513778 -0.143844 0.798472 0.043383 -0.015316 -1215520.000000 0 0 1
-32.793122 5.128233 30.948169 45.381459 -0.155125 0.820362 0.043458 -0.010401 -1344220.000000 0 0 1
-33.512522 4.804033 32.156229 46.692515 -0.142380 0.811129 0.048142 -0.017062 192689.000000 0 0 1
-34.902922 5.463033 32.265309 47.844632 -0.155261 0.830676 0.039553 -0.010588 58563.400000 0 0 1
-34.908422 6.859133 32.663616 48.296557 -0.194018 0.828050 0.037215 -0.013369 413093.000000 0 0 1
35.534769 7.417433 32.565398 48.767236 0.205783 0.839585 0.029935 -0.009805 316227.000000 0 0 1
35.547869 8.826533 33.268983 49.481147 0.243378 0.833408 0.014559 0.004261 -112348.000000 0 0 1
35.622769 8.709433 -33.964680 49.984351 0.239787 2.317886 0.024306 0.000005 266198.000000 0 0 1
35.402769 9.981433 -33.447980 49.716722 0.274806 2.308744 0.026386 0.002706 -231688.000000 0 0 1
35.385969 10.055933 -31.926610 48.709311 0.276879 2.285577 0.030312 -0.005616 -577148.000000 0 0 1
34.132169 9.624333 -31.485330 47.423188 0.274837 2.296849 0.037466 -0.011107 -299695.000000 0 0 1
34.023069 9.687933 -30.085210 46.438617 0.277404 2.275554 0.035939 -0.007400 -638569.000000 0 0 1
32.673569 9.216833 -29.610790 45.047875 0.274944 2.288051 0.032080 -0.011940 -748212.000000 0 0 1
32.721969 7.830533 -29.639340 44.838989 0.234888 2.292970 0.018213 -0.017389 1702920.000000 0 0 1
31.437369 7.275933 -29.198240 43.517635 0.227438 2.306288 0.022680 -0.016162 1008730.000000 0 0 1
35.098230 5.835733 -18.894850 40.285939 0.164761 2.058975 0.020201 -0.011382 -494167.000000 0 0 1
34.372590 7.021733 -18.641050 39.727426 0.201510 2.059208 0.008001 0.002213 494751.000000 0 0 1
34.897580 8.262133 -19.246350 40.700441 0.232473 2.063351 -0.001478 -0.002163 1241630.000000 0 0 1
-35.340242 8.666233 -18.846150 40.978210 -0.240477 2.048686 0.013583 0.001720 2129770.000000 0 0 1
-34.342978 7.978133 -19.628050 40.352833 -0.228259 2.078773 0.020883 -0.006483 590124.000000 0 0 1
-34.156897 8.480833 -20.915950 40.940141 -0.243369 2.107017 0.008615 -0.002513 -775344.000000 0 0 1
-33.364161 7.467733 -21.770050 40.532325 -0.220196 2.137796 0.011929 0.006977 206877.000000 0 0 1
-34.110305 6.281133 -22.175450 41.166930 -0.182102 2.139656 0.017898 0.009347 467200.000000 0 0 1
-34.981324 6.476133 -23.253350 42.501195 -0.183059 2.149719 0.022444 0.001573 -136248.000000 0 0 1
-34.778737 5.389033 -24.366350 42.805622 -0.153729 2.176368 0.036909 -0.003560 -371720.000000 0 0 1
-33.595771 5.632833 -25.080840 42.301929 -0.166120 2.205452 0.038052 -0.005248 -80850.900000 0 0 1
-33.229651 4.422133 -25.729500 42.258397 -0.132301 2.225421 0.049634 -0.010578 -298056.000000 0 0 1
-31.996901 4.420233 -26.631650 41.863886 -0.137277 2.260293 0.064234 -0.009349 408825.000000 0 0 1
-30.747711 4.536333 -25.938790 40.482353 -0.146477 2.266262 0.055739 -0.003778 734899.000000 0 0 1
-29.654771 4.150633 -26.763460 40.161125 -0.139062 2.300169 0.063086 -0.001853 922898.000000 0 0 1
-28.212331 4.374333 -26.209350 38.755650 -0.153826 2.313486 0.044122 0.004571 549438.000000 0 0 1
-27.974961 5.782733 -26.027750 38.645598 -0.203840 2.309728 0.024942 0.008388 166649.000000 0 0 1
-26.666331 6.124333 -25.606300 37.473768 -0.225751 2.323086 0.032743 0.016806 1237.690000 0 0 1
-26.307131 7.640333 -25.687440 37.553754 -0.282652 2.324053 0.024535 0.006944 225203.000000 0 0 1
-27.139501 8.537833 -24.914450 37.817680 -0.304788 2.290025 0.026506 0.006731 266023.000000 0 0 1
-26.714081 9.902433 -25.009850 37.910327 -0.354980 2.291230 0.003988 -0.000114 135476.000000 0 0 1
-25.392301 10.238333 -24.280050 36.593896 -0.383267 2.296283 0.035624 -0.002911 -114136.000000 0 0 1
-25.450311 10.475433 -22.907850 35.808136 -0.390469 2.264955 0.012402 0.001232 -420899.000000 0 0 1
-24.187631 10.705133 -22.365150 34.638726 -0.416672 2.272695 0.059028 -0.008708 -981058.000000 0 0 1
-24.150231 10.872833 -20.826250 33.692504 -0.423034 2.237154 0.076053 -0.013633 -727352.000000 0 0 1
-24.623431 12.150433 -20.391150 34.201541 -0.458394 2.209563 0.057781 -0.011536 609671.000000 0 0 1
-25.997131 12.484833 -20.464050 35.362398 -0.447714 2.187924 0.047988 0.004066 -31187.200000 0 0 1
-27.006391 11.663933 -19.636050 35.369011 -0.407696 2.159372 0.039395 0.009430 -559289.000000 0 0 1
-26.719501 11.898533 -18.283850 34.493565 -0.418949 2.129474 0.052869 -0.001278 192073.000000 0 0 1
-27.545961 11.144333 -17.443350 34.456445 -0.384442 2.101620 0.032659 -0.000203 -658055.000000 0 0 1
-26.918351 11.141933 -16.023650 33.249025 -0.392445 2.073651 0.055213 -0.002306 649473.000000 0 0 1
-25.808911 10.304133 -15.743850 31.939691 -0.379857 2.086244 0.069060 -0.009472 1536350.000000 0 0 1
-24.589031 10.473633 -16.518450 31.419367 -0.402673 2.124382 0.073943 -0.001326 -168708.000000 0 0 1
-23.664331 9.339933 -16.110450 30.112813 -0.375915 2.135308 0.064256 -0.003961 -139840.000000 0 0 1
-22.287431 9.475133 -16.463750 29.284173 -0.401984 2.167848 0.066337 0.000890 1026460.000000 0 0 1
-21.547231 8.346433 -15.986450 28.098269 -0.369558 2.176022 0.068709 -0.001341 636335.000000 0 0 1
-19.994431 8.411433 -15.896650 26.892991 -0.398213 2.203228 0.077442 -0.002242 608210.000000 0 0 1
-19.289231 8.546933 -17.148350 27.188056 -0.417096 2.253291 0.078817 -0.012139 693257.000000 0 0 1
-17.914631 8.300033 -16.854050 25.959267 -0.433867 2.277394 0.056171 -0.006565 319883.000000 0 0 1
-16.930731 8.766033 -17.984250 26.209278 -0.477753 2.327019 0.049962 -0.006552 31357.800000 0 0 1
-17.022031 8.048333 -19.211650 26.900050 -0.441667 2.366257 0.071420 -0.015444 133285.000000 0 0 1
-16.063431 7.012933 -19.192550 25.991711 -0.411636 2.401506 0.066977 -0.023185 -446735.000000 0 0 1
-15.712431 6.528633 -20.588250 26.709167 -0.393803 2.450941 0.061856 -0.036946 -257743.000000 0 0 1
-16.654531 5.746333 -21.308050 27.648268 -0.332241 2.450709 0.054971 -0.029112 311166.000000 0 0 1
-17.697631 6.529933 -21.897550 28.902402 -0.353476 2.430482 0.066472 -0.023870 153507.000000 0 0 1
-18.862631 5.731033 -22.507150 29.920150 -0.294967 2.422252 0.068093 -0.022171 -28533.500000 0 0 1
-19.527531 4.904733 -21.551050 29.492857 -0.246080 2.390174 0.079931 -0.015954 421147.000000 0 0 1
-20.221831 3.804533 -22.090150 30.188933 -0.185966 2.391653 0.053772 -0.002630 -153120.000000 0 0 1
-20.866031 2.907533 -21.017750 29.758878 -0.138451 2.355009 0.069500 -0.001203 -296693.000000 0 0 1
-21.662831 1.887833 -21.531850 30.601679 -0.086927 2.351271 0.068957 0.007476 247762.000000 0 0 1
-22.379331 1.235733 -20.499450 30.374149 -0.055162 2.311623 0.063481 0.007598 -34495.900000 0 0 1
-23.079131 -0.013767 -21.006950 31.207987 0.000597 2.309226 0.057983 0.015076 750888.000000 0 0 1
-22.105531 -1.116267 -21.023750 30.527015 0.050454 2.330482 0.043029 0.008026 1203230.000000 0 0 1
-22.721331 -2.391367 -21.148950 31.132870 0.104862 2.317622 0.060505 -0.003994 -92897.900000 0 0 1
-23.225531 -2.748467 -22.613050 32.531975 0.117790 2.339358 0.069972 -0.007941 822862.000000 0 0 1
-22.214031 -2.649767 -23.646150 32.551879 0.118723 2.383886 0.050526 -0.006210 747459.000000 0 0 1
-21.311731 -3.754067 -23.721850 32.109330 0.174362 2.402060 0.039312 -0.018760 706898.000000 0 0 1
-20.253931 -3.624267 -24.870850 32.278727 0.177067 2.450426 0.049489 -0.018479 398184.000000 0 0 1
-20.854731 -3.867567 -26.129870 33.654836 0.183369 2.459742 0.049673 -0.018147 833234.000000 0 0 1
-19.903931 -3.852867 -27.186900 33.913693 0.191208 2.500846 0.044192 -0.021321 530688.000000 0 0 1
-20.765331 -3.926867 -28.482240 35.466283 0.186900 2.503242 0.047470 -0.026106 675569.000000 0 0 1
-21.687331 -5.014867 -28.473070 36.141457 0.227241 2.478063 0.052128 -0.022567 241518.000000 0 0 1
-22.313631 -5.213567 -29.709550 37.519818 0.229532 2.484606 0.029943 -0.015943 -368479.000000 0 0 1
-22.056431 -6.564267 -30.412260 38.137663 0.289265 2.493827 0.029033 -0.015769 -543620.000000 0 0 1
-20.798331 -6.606667 -31.017190 37.924724 0.307573 2.528482 0.008910 -0.018149 -309273.000000 0 0 1
-20.387631 -7.854667 -31.582250 38.402992 0.367741 2.536396 0.001537 -0.018072 323666.000000 0 0 1
-18.923931 -7.711767 -32.139350 38.085750 0.386967 2.575248 0.008741 -0.013052 138330.000000 0 0 1
-18.754131 -7.055967 -33.386670 38.938077 0.359853 2.601051 0.013101 -0.011193 364424.000000 0 0 1
-19.074431 -7.887167 34.113939 39.872323 0.392085 0.544127 0.001503 -0.009965 -592505.000000 0 0 1
-19.093531 -7.133867 32.743869 38.569625 0.357567 0.556792 0.004731 -0.008475 -1068680.000000 0 0 1
-17.874831 -6.796667 32.221179 37.468769 0.363354 0.535629 0.009400 -0.008141 -861279.000000 0 0 1
-17.207931 -5.668667 32.757647 37.434077 0.318226 0.505204 0.017958 -0.007265 -620576.000000 0 0 1
-15.891131 -5.501667 31.990129 36.140901 0.333294 0.483979 0.018742 -0.011128 -632337.000000 0 0 1
-16.021931 -5.433767 30.600769 34.966201 0.326972 0.505045 0.016089 -0.010120 99562.100000 0 0 1
-14.873231 -4.917567 29.971319 33.818271 0.319317 0.481619 0.024672 -0.004345 -79585.400000 0 0 1
-15.129731 -4.861067 28.472569 32.607145 0.310875 0.509066 0.018623 -0.001981 366367.000000 0 0 1
-16.104731 -3.935467 27.988949 32.530471 0.239670 0.534758 0.014899 -0.008864 323213.000000 0 0 1
-16.506331 -4.221167 26.644019 31.625638 0.250364 0.568923 0.022340 -0.008833 184838.000000 0 0 1
-15.410931 -3.898667 25.582349 30.118981 0.247782 0.555994 0.027622 -0.006497 242004.000000 0 0 1
-15.217531 -2.523867 25.511549 29.812452 0.164356 0.543827 0.024068 0.006058 -395333.000000 0 0 1
-14.226331 -2.178667 24.597379 28.498529 0.151963 0.529399 0.017008 0.010378 -452679.000000 0 0 1
-14.014631 -0.672867 24.503309 28.236055 0.047975 0.520034 0.020188 0.002164 -488786.000000 0 0 1
-15.078931 0.050833 23.984389 28.330684 -0.003371 0.561256 0.017297 -0.002947 -460720.000000 0 0 1
-14.876031 1.410333 24.316469 28.540778 -0.094523 0.551021 0.014151 0.001780 -60398.700000 0 0 1
-15.805531 2.421133 23.614789 28.519028 -0.152001 0.595200 0.018786 0.001825 -131529.000000 0 0 1
-15.339731 2.697433 22.319249 27.216399 -0.174067 0.609270 0.013562 0.003784 26297.900000 0 0 1
-16.099131 3.720833 21.770449 27.330918 -0.227132 0.649229 0.012620 0.008235 -603014.000000 0 0 1
-15.348031 4.469033 20.692849 26.148199 -0.283345 0.657753 0.017801 0.006968 649052.000000 0 0 1
-14.330331 5.379233 21.211149 26.157358 -0.359098 0.625098 0.023549 0.004170 464352.000000 0 0 1
-13.349431 5.580133 20.241949 24.881353 -0.395931 0.620584 0.027114 0.001037 -760002.000000 0 1 0
-12.232331 6.474033 20.714449 24.912476 -0.486777 0.589014 0.030771 -0.001679 -539998.000000 0 1 0
-12.633631 7.816033 20.623549 25.417116 -0.554034 0.624246 0.037522 -0.002232 261620.000000 0 0 1
-11.562831 8.752233 20.530249 25.135469 -0.647920 0.614982 0.040894 -0.003403 233397.000000 0 0 1
-12.021031 10.257933 20.525149 25.903902 -0.706425 0.656133 0.042303 0.003753 141884.000000 0 0 1
-12.730431 10.643233 19.345349 25.486954 -0.696337 0.708975 0.055389 0.003486 446233.000000 0 0 1
-13.140131 12.006033 19.553249 26.441207 -0.740328 0.738470 0.033424 0.013176 -391705.000000 0 0 1
-13.487331 12.771033 18.232849 26.027758 -0.758126 0.794677 0.035445 0.000367 143928.000000 0 0 1
-12.420931 13.109833 17.326549 25.027117 -0.812375 0.806109 0.035096 -0.002834 496933.000000 0 0 1
-11.900931 14.435833 17.464549 25.593669 -0.881352 0.819786 0.036162 -0.013348 -300685.000000 0 0 1
-12.747831 15.692333 17.015349 26.424962 -0.888564 0.871196 0.029981 0.007683 94635.800000 0 0 1
-12.949131 16.107033 15.655749 25.927186 -0.893656 0.922492 0.024343 -0.012394 43603.500000 0 0 1
-13.627831 15.196233 14.831149 25.231058 -0.839757 0.942443 0.043166 -0.023206 -196837.000000 0 0 1
-14.182331 15.709133 13.481249 25.093016 -0.836432 1.003622 0.034883 -0.022821 -239918.000000 0 0 1
-15.104331 16.733933 13.642749 26.349382 -0.836537 1.026562 0.029755 -0.011981 -79810.200000 0 0 1
-15.739631 17.209233 12.411249 26.418418 -0.829971 1.081737 0.028979 -0.009548 -356568.000000 0 0 1
-16.811231 18.229333 12.653149 27.839329 -0.825846 1.098979 0.027920 -0.006717 -752288.000000 0 0 1
-18.059231 17.628133 12.877549 28.332282 -0.773319 1.098965 0.034822 -0.009791 -409126.000000 0 0 1
-19.089431 18.493933 13.268749 29.706761 -0.769555 1.107770 0.045832 -0.011111 -368276.000000 0 0 1
-20.443931 17.826633 13.428549 30.266633 -0.717115 1.111101 0.064914 -0.008804 -228553.000000 0 0 1
-20.973631 17.345833 12.180249 29.818276 -0.691007 1.150005 0.063458 -0.012705 -324454.000000 0 0 1
-22.298331 16.922233 12.373649 30.605306 -0.649174 1.154586 0.071212 -0.015954 -71381.200000 0 0 1
-22.927631 16.279333 11.082949 30.224571 -0.617427 1.195351 0.058939 -0.014216 230419.000000 0 0 1
-22.325031 14.995533 10.808149 28.984291 -0.591473 1.188667 0.049462 -0.010161 374018.000000 0 0 1
-22.811931 14.447233 9.573849 28.649002 -0.564559 1.230064 0.044829 -0.010304 7194.420000 0 0 1
-21.960231 13.277433 9.009749 27.197749 -0.543804 1.233149 0.061841 -0.012863 -645860.000000 0 0 1
-21.995531 12.075433 9.748349 26.919320 -0.502071 1.200242 0.042704 -0.014142 1482740.000000 0 0 1
-23.284731 11.408133 9.952749 27.773754 -0.455568 1.204295 0.049229 -0.009923 1290190.000000 0 0 1
-24.206931 11.041333 8.786049 28.019301 -0.427934 1.251845 0.058328 -0.015797 -441725.000000 0 0 1
-24.711131 12.134933 8.044349 28.681146 -0.456479 1.286507 0.065487 -0.013019 -164173.000000 0 0 1
-25.539441 11.585533 7.068749 28.921529 -0.425871 1.323884 0.068033 -0.016334 -451071.000000 0 0 1
-26.209991 12.618333 6.104749 29.722953 -0.448683 1.363936 0.062527 -0.012014 -273379.000000 0 0 1
-25.415281 12.931533 4.954149 28.943128 -0.470670 1.398781 0.060793 -0.018785 844417.000000 0 0 1
-24.124031 13.499033 5.113149 28.112934 -0.510159 1.387899 0.064074 -0.022666 -240737.000000 0 0 1
-24.053431 14.860433 5.716949 28.845858 -0.553412 1.371286 0.056988 -0.021126 -255920.000000 0 0 1
-22.724631 15.399933 5.731749 28.043176 -0.595586 1.364956 0.051293 -0.022793 826533.000000 0 0 1
-22.658331 16.580933 6.484449 28.816235 -0.631739 1.343825 0.051064 -0.018015 -372780.000000 0 0 1
-21.223631 17.098633 6.590449 28.039968 -0.678171 1.333539 0.043476 -0.018250 -400235.000000 0 0 1
-20.748831 17.700233 5.399449 27.802271 -0.706274 1.375345 0.050390 -0.024867 28860.800000 0 0 1
-19.408331 18.110433 5.482949 27.105974 -0.750819 1.367113 0.049259 -0.026515 -341357.000000 0 0 1
-18.949231 18.839933 4.189949 27.047590 -0.782506 1.415260 0.053106 -0.023924 -1082490.000000 0 0 1
-17.612531 19.169633 4.291849 26.383632 -0.827706 1.407399 0.037547 -0.026760 -700276.000000 0 0 1
-17.071731 20.071733 3.328049 26.559262 -0.865991 1.445160 0.048007 -0.032841 183650.000000 0 0 1
-17.312031 21.553933 3.636149 27.883688 -0.894110 1.440020 0.033675 -0.028341 -167800.000000 0 0 1
-16.760531 21.933333 4.866849 28.029854 -0.918296 1.396281 0.027266 -0.024496 -79486.300000 0 0 1
-17.047431 23.272633 5.054449 29.287844 -0.938583 1.397350 0.012449 -0.028117 -256292.000000 0 0 1
-16.344331 23.843833 6.330749 29.592971 -0.969886 1.355203 -0.007360 -0.013063 -6159.030000 0 0 1
-16.842531 23.342933 7.600249 29.771247 -0.945769 1.312651 -0.004079 -0.007814 293244.000000 0 0 1
-16.007231 23.673933 8.702249 29.873327 -0.976254 1.275206 -0.005508 -0.017599 60873.900000 0 0 1
-16.349331 22.878933 9.987449 29.841169 -0.950337 1.229523 -0.004052 -0.009041 -16362.200000 0 0 1
-17.441831 23.476333 10.644049 31.123166 -0.931820 1.221754 0.007870 -0.013445 -638982.000000 0 0 1
-18.408831 22.569033 11.043849 31.148241 -0.886575 1.208355 0.016877 -0.017784 267411.000000 0 0 1
-19.692031 23.231733 11.678349 32.617071 -0.867677 1.204624 0.033361 -0.021792 837398.000000 0 0 1
-20.545631 23.917633 10.733749 33.307499 -0.861091 1.242678 0.050718 -0.010215 396263.000000 0 0 1
-20.132131 25.223933 10.446549 33.921673 -0.897193 1.257747 0.018478 -0.006379 367875.000000 0 0 1
-21.336431 26.081433 9.895349 35.119829 -0.885134 1.285169 0.034042 -0.012222 797220.000000 0 0 1
-22.221331 26.506633 10.909249 36.268456 -0.873116 1.265274 0.057693 -0.026035 474071.000000 0 0 1
-23.418031 27.067733 10.359949 37.261171 -0.857564 1.289047 0.053098 -0.017638 445601.000000 0 0 1
-24.432231 27.587133 11.380849 38.568220 -0.845973 1.271253 0.054780 -0.025561 -283591.000000 0 0 1
-23.888131 28.643333 12.123549 39.218156 -0.875673 1.256517 0.037360 -0.022132 -62169.400000 0 0 1
-24.645831 28.923633 13.246949 40.242704 -0.865084 1.235365 0.033347 -0.020013 -164502.000000 0 0 1
8.554769 -32.934613 28.144369 44.158559 -1.316662 0.879745 0.027603 -0.020913 848474.000000 0 0 1
9.980869 -33.141213 28.076519 44.567350 -1.278274 0.889269 0.021590 -0.026539 1077820.000000 0 0 1
10.312669 -32.885213 26.738969 43.620647 -1.266913 0.910958 0.024651 -0.018614 812673.000000 0 0 1
11.859269 -32.939013 26.417999 43.858084 -1.225208 0.924352 -0.001578 -0.007357 918215.000000 0 0 1
12.301869 -34.262213 26.347589 44.938076 -1.226081 0.944302 0.007461 -0.027085 22991.900000 0 0 1
13.703869 -34.264813 26.141239 45.224306 -1.190342 0.954478 0.015065 -0.022090 182504.000000 0 0 1
14.314169 33.093733 25.838839 44.359173 1.162562 0.949006 0.032134 -0.021246 35869.300000 0 0 1
14.169469 32.611433 24.503819 43.182364 1.160912 0.967391 0.023908 -0.026371 28427.200000 0 0 1
15.150169 31.617433 24.416559 42.724209 1.123950 0.962473 0.023727 -0.030515 -349112.000000 0 0 1
15.324069 31.108833 22.971449 41.596563 1.113090 0.985743 0.029183 -0.035276 -390999.000000 0 0 1
14.384869 30.225333 22.410349 40.282986 1.126597 0.980842 0.030633 -0.029776 -489323.000000 0 0 1
14.654069 28.840233 22.551849 39.434587 1.100680 0.962001 0.034951 -0.026133 -100857.000000 0 0 1
14.363469 28.137333 23.885499 39.604745 1.098802 0.923418 0.033170 -0.036076 429799.000000 0 0 1
15.304069 28.502133 24.949269 40.854035 1.078032 0.913861 0.043943 -0.036589 542107.000000 0 0 1
14.871769 28.107733 26.203089 41.204564 1.084142 0.881587 0.036842 -0.037956 -670651.000000 0 0 1
15.679169 28.751033 27.296039 42.632523 1.071536 0.875955 0.044178 -0.044367 -280003.000000 0 0 1
15.682469 30.143833 27.477329 43.698903 1.091077 0.890803 0.037219 -0.039155 -118930.000000 0 0 1
16.358969 30.421933 28.661059 44.883919 1.077418 0.878171 0.043129 -0.039459 -370440.000000 0 0 1
16.254969 31.865833 29.197689 46.175322 1.099096 0.886249 0.047034 -0.038556 -221928.000000 0 0 1
16.898769 32.822333 28.362159 46.554119 1.095335 0.915707 0.039994 -0.033168 148218.000000 0 0 1
16.651369 34.145833 28.852209 47.703836 1.117074 0.921257 0.044169 -0.018881 -340688.000000 0 0 1
17.452369 -33.611913 28.064159 47.137489 -1.091882 0.933073 0.037448 -0.022076 -604802.000000 0 0 1
17.150269 -33.604613 26.719339 46.231210 -1.098899 0.954582 0.041168 -0.019752 -246545.000000 0 0 1
17.057469 -32.343613 26.130349 44.942871 -1.085483 0.950333 0.035822 -0.019652 -434330.000000 0 0 1
18.288269 -31.441813 25.896029 44.650338 -1.043975 0.952100 0.036346 -0.011090 147877.000000 0 0 1
18.958169 -31.059113 27.121099 45.383198 -1.022772 0.930289 0.028220 -0.007117 176832.000000 0 0 1
20.160569 -30.361613 26.886639 45.289816 -0.984632 0.935200 0.034200 -0.003210 63216.800000 0 0 1
20.557369 -29.465113 28.041659 45.575574 -0.961626 0.908057 0.034788 -0.005205 -573154.000000 0 0 1
19.520469 -28.583113 28.285549 44.700284 -0.971614 0.885655 0.041532 -0.011555 -442808.000000 0 0 1
19.768169 -27.816013 29.428759 45.061768 -0.952941 0.859157 0.046244 -0.012253 216326.000000 0 0 1
18.474169 -27.297413 30.141939 44.665201 -0.975829 0.830046 0.039137 -0.012908 339982.000000 0 0 1
17.920969 -26.269213 29.329749 43.260454 -0.972114 0.825784 0.047340 -0.014921 689405.000000 0 0 1
16.617569 -25.890613 29.812439 42.839806 -1.000181 0.801117 0.029891 -0.009616 557588.000000 0 0 1
15.818669 -25.070713 28.773489 41.312040 -1.007921 0.800300 0.020288 -0.010446 -617274.000000 0 0 1
15.311269 -25.925113 27.698339 40.911422 -1.037320 0.827074 0.017801 -0.008234 170462.000000 0 0 1
14.620769 -25.283213 26.677859 39.556490 -1.046501 0.830612 0.010978 -0.013557 -1137830.000000 0 0 1
13.207669 -24.783613 27.025169 38.974732 -1.081161 0.804596 0.005038 -0.007892 -149745.000000 0 0 1
12.305069 -25.874913 27.335349 39.599838 -1.126891 0.808907 0.009019 -0.002611 542614.000000 0 0 1
11.956769 -26.789813 26.272929 39.381788 -1.151009 0.840442 -0.001125 -0.000941 -605028.000000 0 0 1
11.112269 -28.037513 26.651849 40.248052 -1.193453 0.847059 0.003036 -0.003686 -155489.000000 0 0 1
9.759869 -27.865213 26.967129 39.986888 -1.233896 0.830645 0.004311 -0.008613 -201177.000000 0 0 1
9.088369 -29.104813 26.894989 40.657460 -1.268127 0.847977 0.014257 -0.013591 -977580.000000 0 0 1
7.702569 -29.064113 27.506649 40.751294 -1.311732 0.829847 0.011893 -0.003812 -629685.000000 0 0 1
6.595169 -28.668613 26.721039 39.741660 -1.344682 0.833392 0.024147 -0.002980 313668.000000 0 0 1
6.591869 -27.341413 26.126139 38.387247 -1.334217 0.822223 0.029498 -0.010219 -724785.000000 0 0 1
5.403969 -27.069313 25.163969 37.352054 -1.373752 0.831596 0.032866 -0.013852 -485930.000000 0 0 1
5.400469 -27.780013 23.916389 37.052501 -1.378790 0.869154 0.021003 -0.004962 209298.000000 0 0 1
4.742069 -29.066613 23.966009 37.970051 -1.409076 0.887720 0.024196 -0.000722 511697.000000 0 0 1
3.208569 -29.048213 24.256659 37.979983 -1.460786 0.878028 0.046453 -0.004978 -663111.000000 0 0 1
2.378269 -28.754013 23.149049 36.990916 -1.488273 0.894635 0.049392 -0.002031 -176698.000000 0 0 1
1.080969 -28.444413 23.580429 36.963357 -1.532812 0.878975 0.056416 -0.010636 -177830.000000 0 0 1
0.918869 -26.923813 23.867619 35.991656 -1.536681 0.845786 0.064209 -0.015784 -222499.000000 0 0 1
1.771569 -26.564813 24.954489 36.490468 -1.504206 0.817752 0.057452 -0.017994 291478.000000 0 0 1
1.439969 -25.267313 25.434649 35.880803 -1.513869 0.782908 0.066483 -0.019536 -365935.000000 0 0 1
2.610569 -24.655313 26.197529 36.069517 -1.465307 0.757863 0.064730 -0.018072 -658174.000000 0 0 1
3.665769 -24.218213 25.382249 35.273478 -1.420573 0.767593 0.049088 -0.009576 -74584.300000 0 0 1
4.712969 -23.531913 26.053039 35.422081 -1.373132 0.744388 0.044795 -0.010004 107359.000000 0 0 1
4.463169 -22.116313 26.580609 34.865168 -1.371666 0.703809 0.043908 -0.004212 -528104.000000 0 0 1
4.457969 -21.136213 25.538189 33.448649 -1.362927 0.702074 0.038670 0.002297 -67480.600000 0 0 1
3.679769 -20.005713 25.761519 32.824155 -1.388894 0.668368 0.056461 -0.018463 -183114.000000 0 0 1
3.539069 -19.071913 24.573249 31.306668 -1.387319 0.668228 0.057707 -0.017422 1165050.000000 0 0 1
4.803669 -18.364013 24.463179 30.963839 -1.314948 0.659895 0.056844 -0.007225 1025010.000000 0 0 1
4.898569 -17.709313 23.177749 29.577420 -1.300934 0.670309 0.058787 -0.001018 -30232.600000 0 0 1
6.291469 -17.087313 22.989049 29.326698 -1.218005 0.669882 0.062134 -0.006163 -51987.500000 0 0 1
7.249869 -18.033313 22.536749 29.760142 -1.188544 0.711659 0.054233 -0.003199 -530991.000000 0 0 1
8.443369 -17.442613 22.113149 29.402833 -1.119977 0.719591 0.031105 0.000915 -852720.000000 0 0 1
9.600069 -17.875613 22.963949 30.643789 -1.077951 0.723666 0.032313 0.005631 -1030090.000000 0 0 1
9.619169 -17.222713 24.236369 31.249830 -1.061438 0.683182 0.049500 -0.003372 -413804.000000 0 0 1
10.811069 -17.382313 24.940359 32.265237 -1.014387 0.687273 0.038933 0.008797 -379571.000000 0 0 1
10.911469 -16.491913 26.232219 32.850764 -0.986292 0.645952 0.045446 -0.004809 -96.773200 0 0 1
10.969469 -15.128613 25.958829 31.985387 -0.943435 0.623938 0.058432 -0.008008 109088.000000 0 0 1
11.016969 -14.298713 27.111839 32.571132 -0.914312 0.587392 0.046057 -0.017598 -271280.000000 0 0 1
11.079469 -12.779413 26.844699 31.728629 -0.856528 0.562224 0.047742 -0.008788 -266493.000000 0 0 1
10.053569 -12.123913 26.143829 30.521522 -0.878482 0.542210 0.051757 -0.006707 -89646.700000 0 0 1
10.336469 -10.744713 26.044359 30.010000 -0.804761 0.519926 0.044628 0.002283 -587669.000000 0 0 1
9.305369 -9.998213 25.236249 28.695338 -0.821275 0.496081 0.036934 0.003519 -844779.000000 0 0 1
8.072569 -9.893013 25.896459 28.873252 -0.886383 0.458084 0.040489 -0.005865 -680977.000000 0 0 1
7.221069 -9.187013 25.031669 27.624799 -0.904645 0.436752 0.048268 -0.004131 -189500.000000 0 0 1
5.748369 -9.105713 25.476759 27.659049 -1.007685 0.399899 0.036983 -0.003249 -893232.000000 0 0 1
5.443069 -7.980213 26.265199 27.985201 -0.972205 0.352424 0.051104 -0.003128 722609.000000 0 0 1
4.111369 -7.963313 26.807519 28.265895 -1.094203 0.322629 0.044422 -0.004770 1656380.000000 0 0 1
2.891669 -7.950513 25.807589 27.158867 -1.221962 0.316774 0.032706 -0.003968 -81458.000000 0 0 1
2.782969 -6.738813 25.082919 26.121052 -1.179154 0.282875 0.049671 -0.009491 -573787.000000 0 0 1
1.688369 -6.798913 24.232009 25.224315 -1.327391 0.281425 0.048463 -0.017040 -174864.000000 0 0 1
1.359269 -5.480513 23.447449 24.117763 -1.327683 0.236318 0.039795 -0.021214 219881.000000 0 1 0
1.023469 -4.348913 24.269169 24.676975 -1.339663 0.182052 0.041263 -0.016582 246180.000000 0 1 0
1.651369 -3.175613 23.740519 24.008827 -1.091265 0.149641 0.043625 -0.012406 -594902.000000 0 1 0
0.862969 -2.486613 22.579749 22.732643 -1.236756 0.116045 0.031917 -0.017875 155339.000000 0 1 0
-0.309731 -1.804613 22.888949 22.962068 1.400819 0.079825 0.029328 -0.024386 -629540.000000 0 1 0
-1.415031 -2.479613 23.383849 23.557487 1.052225 0.121490 0.037426 -0.021930 -891204.000000 0 1 0
-2.441331 -1.497613 23.959409 24.129986 0.550244 0.118974 0.033055 -0.026438 -117643.000000 0 1 0
-1.766731 -0.728613 24.973209 25.046225 0.391156 0.076376 0.038740 -0.029429 839869.000000 0 0 1
-2.585531 0.362387 25.417799 25.551533 -0.139253 0.102357 0.022860 -0.022104 -189973.000000 0 0 1
-1.953231 1.234387 26.485929 26.586524 -0.563597 0.087018 0.046965 -0.027705 -553247.000000 0 0 1
-1.994331 0.903387 27.852839 27.938757 -0.425327 0.078445 0.052085 -0.015449 63798.500000 0 0 1
-1.241731 -0.223613 28.260449 28.288600 0.178172 0.044616 0.057956 -0.021268 -344016.000000 0 0 1
0.243069 0.075387 28.607789 28.608921 0.300740 0.008896 0.073707 -0.025386 113013.000000 0 0 1
1.078369 0.381387 27.492509 27.516293 0.339941 0.041581 0.066471 -0.028192 90322.200000 0 0 1
1.548869 -0.715613 26.763559 26.817890 -0.432807 0.063664 0.060763 -0.029057 -603375.000000 0 0 1
2.843469 -1.430613 27.159969 27.345857 -0.466142 0.116665 0.072036 -0.031072 -594721.000000 0 0 1
2.562769 -2.285613 28.234229 28.442284 -0.728296 0.121028 0.087186 -0.022059 542429.000000 0 0 1
3.625869 -3.227613 28.450479 28.861639 -0.727353 0.168996 0.070890 -0.008337 495412.000000 0 0 1
4.203969 -4.111013 27.376609 28.000938 -0.774219 0.211566 0.075135 -0.016922 -535397.000000 0 0 1
5.179869 -3.469613 26.621369 27.341663 -0.590187 0.230046 0.070957 -0.015069 -463168.000000 0 0 1
5.614769 -4.224813 25.474539 26.425874 -0.645065 0.269140 0.059218 -0.016787 -548837.000000 0 0 1
6.976669 -3.781613 24.926779 26.159488 -0.496709 0.308213 0.061285 -0.015067 -791066.000000 0 0 1
8.062569 -4.021713 25.767219 27.297047 -0.462697 0.336378 0.061040 -0.014044 -270943.000000 0 0 1
8.573969 -5.402313 25.860339 27.775080 -0.562246 0.373482 0.039415 -0.009944 -12013.400000 0 0 1
9.464269 -5.811513 24.660799 27.046277 -0.550685 0.423150 0.024735 -0.015423 -280927.000000 0 0 1
8.720969 -5.907313 23.437749 25.695909 -0.595375 0.422370 0.028545 -0.008625 178040.000000 0 0 1
9.553769 -5.811413 22.280649 24.929387 -0.546489 0.465159 0.045281 -0.009354 270571.000000 0 1 0
9.560669 -4.404013 21.638149 24.062652 -0.431666 0.452762 0.048963 -0.012399 295966.000000 0 1 0
8.260669 -4.092613 21.166549 23.087030 -0.459988 0.410765 0.052469 -0.020250 -56136.000000 0 1 0
8.253269 -2.796613 20.585949 22.354391 -0.326707 0.400437 0.047530 -0.014334 224195.000000 0 1 0
6.806969 -2.269613 20.450349 21.672627 -0.321833 0.337448 0.041137 -0.007616 472461.000000 0 1 0
6.219669 -1.893613 21.721649 22.673776 -0.295539 0.290825 0.044438 -0.006212 -204983.000000 0 1 0
4.993169 -1.247613 21.590149 22.195108 -0.244851 0.234013 0.037311 -0.002606 -331180.000000 0 1 0
4.473069 -0.486613 22.866749 23.305222 -0.108361 0.194287 0.039978 -0.020396 -432115.000000 0 1 0
3.284369 0.200387 22.666149 22.903745 0.060937 0.144164 0.041223 -0.022601 -328585.000000 0 1 0
2.765769 0.866387 23.827049 24.002674 0.303571 0.121044 0.044749 -0.020978 1061180.000000 0 1 0
1.277869 1.398387 23.762309 23.837697 0.830400 0.079551 0.041585 -0.021956 979610.000000 0 1 0
1.105769 2.599387 23.081449 23.253663 1.168590 0.121779 0.035282 -0.021970 1417770.000000 0 1 0
-0.291131 3.005387 23.100949 23.297445 -1.474228 0.129970 0.017375 -0.018267 1371920.000000 0 1 0
-0.569831 4.480387 22.604449 23.051241 -1.444292 0.197208 0.011850 -0.013030 -243294.000000 0 1 0
-0.479331 5.547387 23.548579 24.197910 -1.484604 0.232185 0.021662 -0.008896 -16569.800000 0 1 0
-1.492031 6.487387 23.250649 24.184810 -1.344738 0.278845 0.019042 -0.012301 -156633.000000 0 1 0
-1.403331 7.866387 24.042169 25.335258 -1.394258 0.320872 0.032549 -0.010654 -92550.800000 0 0 1
-0.322331 8.669387 23.666489 25.206445 -1.533633 0.351358 0.015212 0.000404 -217691.000000 0 0 1
-0.305231 9.833387 24.347539 26.260071 -1.539766 0.384011 0.018473 -0.004804 -460209.000000 0 0 1
0.542969 10.936387 23.670819 26.080780 1.521189 0.433273 0.020260 -0.010279 1105980.000000 0 0 1
1.986469 10.831387 23.659029 26.096258 1.389413 0.435626 0.021429 -0.006584 1031960.000000 0 0 1
2.564469 11.178387 24.956199 27.465337 1.345285 0.430772 0.035978 -0.011385 372909.000000 0 0 1
3.997469 11.806387 24.806999 27.762524 1.244326 0.465622 0.034368 -0.012019 981845.000000 0 0 1
5.119669 11.041387 24.398419 27.265475 1.136625 0.462709 0.033929 -0.005428 326187.000000 0 0 1
5.006469 10.435387 23.102249 25.839426 1.123472 0.464446 0.026231 -0.005131 -627875.000000 0 0 1
6.378669 10.072387 22.473149 25.439788 1.006263 0.487758 0.038821 0.002768 340603.000000 0 0 1
7.068069 11.270387 22.134249 25.824489 1.010662 0.541177 0.031824 0.001545 1536070.000000 0 0 1
8.462069 10.937387 21.803749 25.819305 0.912310 0.565213 0.034492 0.007784 1795760.000000 0 0 1
9.191869 12.103387 21.105449 26.008122 0.921277 0.624091 0.033173 -0.007994 -351757.000000 0 0 1
8.628869 12.432387 19.857249 24.966617 0.964066 0.651208 0.025129 -0.005112 436809.000000 0 1 0
9.394569 13.421387 19.152749 25.203559 0.960090 0.707603 0.039656 -0.007992 1730550.000000 0 0 1
10.789569 12.983387 18.480149 25.029963 0.877420 0.740219 0.042582 -0.013681 1207960.000000 0 0 1
11.811669 12.811387 19.414349 26.087624 0.825977 0.731463 0.039680 -0.016697 -440024.000000 0 0 1
13.035569 12.497387 18.777249 26.051791 0.764323 0.765889 0.033227 -0.019572 -75390.200000 0 0 1
14.112069 12.108387 19.790149 27.155359 0.709130 0.754265 0.047264 -0.011052 -422472.000000 0 0 1
14.774769 13.171387 20.394649 28.420432 0.728087 0.770439 0.046816 -0.014275 205812.000000 0 0 1
15.755769 12.689387 21.338749 29.404201 0.678013 0.758739 0.043667 -0.011684 1236070.000000 0 0 1
16.803569 13.802387 21.804249 30.794336 0.687652 0.784049 0.045153 -0.004167 372261.000000 0 0 1
16.227469 14.758387 22.667249 31.542748 0.738022 0.768981 0.049478 -0.006875 -207895.000000 0 0 1
17.157469 15.759387 22.838949 32.624448 0.742951 0.795320 0.038446 0.000757 -377426.000000 0 0 1
-20.956331 12.478233 -24.998350 34.925515 -0.537060 2.368511 0.042806 -0.007981 102983.000000 0 0 1
-20.656231 12.475533 -26.383280 35.754668 -0.543326 2.400746 0.037871 -0.021654 397972.000000 0 0 1
-21.305331 13.635433 -26.944440 36.957340 -0.569314 2.387757 0.030956 -0.016814 248866.000000 0 0 1
-21.242731 13.538433 -28.514460 38.047565 -0.567410 2.418016 0.027589 -0.012788 581611.000000 0 0 1
-19.903731 13.652333 -28.992080 37.723804 -0.601212 2.447345 0.041463 -0.013429 307081.000000 0 0 1
-19.827131 14.357533 -30.264090 38.925172 -0.626741 2.461468 0.040881 -0.021386 332432.000000 0 0 1
-18.445231 15.025233 -30.574600 38.740035 -0.683572 2.480342 0.043597 -0.023008 181142.000000 0 0 1
-17.527931 14.006033 -30.932150 38.212501 -0.674173 2.514058 0.047608 -0.019782 -895353.000000 0 0 1
-16.210631 14.445233 -30.854300 37.728466 -0.727874 2.528372 0.040565 -0.014447 -381400.000000 0 0 1
-15.426231 14.041633 -29.598530 36.210621 -0.738446 2.527678 0.056460 -0.009966 -302934.000000 0 0 1
-15.996431 14.523433 -28.366690 35.657889 -0.737172 2.490667 0.058099 -0.007874 365182.000000 0 0 1
-16.630131 13.472233 -27.610490 34.934245 -0.680875 2.482186 0.067369 -0.004409 -283343.000000 0 0 1
-17.311631 13.872533 -26.343870 34.440372 -0.675559 2.441702 0.062231 -0.013901 -565274.000000 0 0 1
-16.460631 14.150733 -25.283930 33.323756 -0.710082 2.432167 0.085886 -0.016611 486189.000000 0 0 1
-17.272431 14.570833 -24.158250 33.079708 -0.700760 2.389563 0.072323 -0.014341 528614.000000 0 0 1
-16.453731 15.219233 -23.010750 32.122343 -0.746441 2.369349 0.083006 -0.011713 -43192.300000 0 0 1
-15.930631 16.436733 -23.399050 32.733267 -0.801033 2.367192 0.064293 -0.018208 -42274.000000 0 0 1
-15.174531 17.054533 -22.356550 31.952133 -0.843665 2.345758 0.065217 -0.018424 -96350.200000 0 0 1
-14.703731 18.496533 -22.694750 32.762374 -0.899145 2.336033 0.066260 -0.018657 337135.000000 0 0 1
-15.713931 19.505533 -22.806850 33.875446 -0.892642 2.309400 0.035312 -0.018646 906446.000000 0 0 1
-16.642931 19.315433 -23.919450 34.960166 -0.859584 2.324291 0.012843 -0.010906 554275.000000 0 0 1
-17.939331 20.149933 -23.798350 35.975003 -0.843371 2.293646 0.011713 -0.017998 165116.000000 0 0 1
-17.701531 21.500033 -24.001050 36.764739 -0.881993 2.282108 0.006696 -0.015844 593322.000000 0 0 1
-18.938631 22.225033 -24.115150 37.870362 -0.865067 2.261113 0.012144 -0.024244 586592.000000 0 0 1
-18.717031 23.678333 -24.445350 38.840261 -0.901893 2.251554 0.006041 -0.024288 -147634.000000 0 0 1
-18.168931 24.303233 -23.335350 38.279182 -0.928837 2.226364 0.012684 -0.020827 -273565.000000 0 0 1
-17.319331 25.357133 -23.717350 38.800208 -0.971560 2.228459 0.016884 -0.017083 -323805.000000 0 0 1
-16.176431 25.516533 -22.682250 37.779027 -1.005781 2.214788 0.022145 -0.024682 254177.000000 0 0 1
-15.088431 24.582433 -22.643350 36.669852 -1.020299 2.236347 0.041826 -0.032895 500112.000000 0 0 1
-15.396231 23.276533 -22.222450 35.674616 -0.986415 2.243267 0.037438 -0.016851 -613329.000000 0 0 1
-14.158331 22.371133 -21.980350 34.410198 -1.006548 2.263700 0.070499 -0.015220 154733.000000 0 0 1
-13.729331 22.653733 -20.635350 33.578324 -1.025939 2.232604 0.078661 -0.019445 -209658.000000 0 0 1
-12.694131 21.769733 -20.286650 32.351359 -1.042889 2.248586 0.071031 -0.016632 -250748.000000 0 0 1
-11.930131 22.199333 -18.996150 31.559343 -1.077671 2.216698 0.066032 -0.018365 -116140.000000 0 0 1
-12.481631 22.048733 -17.703950 30.909021 -1.055682 2.180685 0.080397 -0.018024 -267626.000000 0 0 1
-13.480131 23.007233 -17.406850 31.844075 -1.040803 2.149128 0.070396 -0.024302 120201.000000 0 0 1
-14.164931 22.851933 -16.035550 31.304872 -1.015904 2.108585 0.078855 -0.018739 692727.000000 0 0 1
-13.270631 23.302733 -14.992150 30.722819 -1.053114 2.080571 0.075440 -0.023994 84750.100000 0 0 1
-13.987731 23.682033 -13.857450 30.798121 -1.037282 2.037500 0.073443 -0.022991 -554204.000000 0 0 1
-13.301831 24.198233 -12.601950 30.352963 -1.068181 1.998937 0.078498 -0.017500 -467144.000000 0 0 1
-12.739131 25.480833 -12.782450 31.224179 -1.107189 1.992567 0.080355 -0.021481 212816.000000 0 0 1
-11.837731 25.727633 -11.712950 30.646960 -1.139561 1.962961 0.057389 -0.012742 -35027.100000 0 0 1
-11.312931 27.141833 -11.707450 31.650054 -1.175885 1.949701 0.079728 -0.010682 -311971.000000 0 0 1
-10.518031 27.361333 -12.834750 32.000036 -1.203799 1.983498 0.081096 -0.019829 -142857.000000 0 0 1
-10.362631 28.733133 -13.135050 33.249159 -1.224665 1.976918 0.066601 -0.008060 -511497.000000 0 0 1
-9.859731 28.950633 -14.566250 33.875199 -1.242547 2.015286 0.095597 -0.026452 -108431.000000 0 0 1
-8.478331 29.011233 -14.777950 33.644042 -1.286471 2.025554 0.050390 -0.022973 -328186.000000 0 0 1
-7.760831 27.767233 -14.770950 32.394918 -1.298255 2.044253 0.050116 -0.021562 -120593.000000 0 0 1
-6.299331 27.941133 -15.222750 32.436409 -1.349054 2.059306 0.041620 -0.016462 172793.000000 0 0 1
-5.530831 28.773133 -14.326450 32.614881 -1.380891 2.025572 0.029541 -0.019479 327561.000000 0 0 1
-4.260731 28.852633 -14.981750 32.788429 -1.424184 2.045328 0.032723 -0.022259 679275.000000 0 0 1
-3.111731 29.752633 -14.401150 33.200831 -1.466588 2.019457 0.007491 -0.023005 330895.000000 0 0 1
-3.215631 31.178233 -14.530850 34.548055 -1.468023 2.004901 -0.002883 -0.015969 98537.900000 0 0 1
-4.346631 31.671733 -13.815350 34.826079 -1.434408 1.978711 -0.009468 -0.013726 224609.000000 0 0 1
-4.446131 33.138833 -14.089550 36.283133 -1.437426 1.969607 -0.000556 -0.010141 -501039.000000 0 0 1
-3.491931 33.975433 -13.466550 36.713371 -1.468378 1.946366 -0.029900 -0.003852 -125137.000000 0 0 1
-3.738631 -33.414013 -13.690150 36.302807 1.459372 1.957470 -0.014108 -0.001352 554807.000000 0 0 1
-2.724231 -32.582513 -12.835150 35.125242 1.487380 1.944871 -0.012047 -0.006430 8542.560000 0 0 1
-2.973531 -32.708813 -11.468950 34.788578 1.480136 1.906756 -0.009600 -0.011145 -240029.000000 0 0 1
-2.297931 -31.812813 -10.644350 33.624957 1.498689 1.892898 -0.012212 -0.005504 -235047.000000 0 0 1
-2.775531 -31.869313 -9.163750 33.276583 1.483924 1.849783 -0.007761 -0.008857 -114333.000000 0 0 1
-1.944931 -31.056213 -8.337050 32.214554 1.508252 1.832574 0.015399 -0.012105 -59424.400000 0 0 1
-2.019731 -31.162813 -6.945450 31.991241 1.506075 1.789644 -0.005844 -0.014612 -53024.000000 0 0 1
-0.768231 -30.629013 -6.223250 31.264284 1.545720 1.771188 0.009508 -0.014024 -36116.600000 0 0 1
-0.923631 -30.808013 -4.813450 31.195449 1.540825 1.725715 0.015340 -0.014285 -294047.000000 0 0 1
0.151569 -30.322213 -4.059550 30.593129 -1.565798 1.703884 0.034714 -0.020289 -293598.000000 0 0 1
0.051969 -30.591113 -2.535750 30.696073 -1.569098 1.653499 0.039439 -0.013734 -492181.000000 0 0 1
0.109169 -31.914913 -2.015550 31.978681 -1.567376 1.633866 0.033260 -0.014006 -167570.000000 0 0 1
1.199769 -32.751313 -2.328050 32.855863 -1.534180 1.641712 0.029699 -0.018093 -498024.000000 0 0 1
2.550769 -32.356013 -1.739950 32.503006 -1.492125 1.624354 0.044150 -0.022745 -1433530.000000 0 0 1
2.732669 -32.842313 -0.436750 32.958698 -1.487782 1.584048 0.051355 -0.019436 512346.000000 0 0 1
3.984669 -32.491713 0.161350 32.735532 -1.448769 1.565867 0.054646 -0.019476 560549.000000 0 0 1
4.235069 -31.000213 0.496550 31.292101 -1.435023 1.554927 0.051462 -0.024416 -571237.000000 0 0 1
4.398369 -30.201813 -0.632450 30.526958 -1.426180 1.591516 0.057018 -0.024692 38708.300000 0 0 1
4.424669 -28.838313 -0.332950 29.177677 -1.418553 1.582208 0.046626 -0.018201 -488634.000000 0 0 1
4.142869 -27.951713 -1.591950 28.301871 -1.423652 1.627075 0.034474 -0.019381 -839458.000000 0 0 1
2.830369 -28.129613 -1.984350 28.341202 -1.470515 1.640870 0.039768 -0.015048 -775260.000000 0 0 1
2.268969 -27.264213 -3.029250 27.525659 -1.487766 1.681072 0.029999 -0.008738 101581.000000 0 0 1
2.865069 -27.213413 -4.451850 27.723590 -1.465901 1.732074 0.018301 -0.005146 -300830.000000 0 0 1
2.297569 -28.134113 -5.328950 28.726379 -1.489312 1.757384 0.018699 -0.002967 -373788.000000 0 0 1
2.830569 -27.966013 -6.647950 28.884342 -1.469925 1.803036 0.025176 -0.001284 -107963.000000 0 0 1
2.187769 -28.776013 -7.793450 29.892861 -1.494915 1.834557 0.016997 -0.002934 -1315600.000000 0 0 1
0.902069 -28.338513 -7.985650 29.455995 -1.538975 1.845337 0.016311 -0.003644 -1551880.000000 0 0 1
0.468169 -28.596613 -9.292750 30.072257 -1.554426 1.884952 0.017078 0.003073 -40207.100000 0 0 1
-0.920731 -28.053313 -9.658050 29.683565 1.537987 1.902196 0.001862 -0.001838 -846866.000000 0 0 1
-1.056631 -26.658913 -9.375550 28.279233 1.531182 1.908726 0.009774 -0.001532 -245876.000000 0 0 1
-2.419531 -26.297413 -9.311350 28.001952 1.479048 1.909776 0.029787 -0.013870 346690.000000 0 0 1
-3.240331 -26.857613 -8.100150 28.239043 1.450728 1.861725 0.030991 -0.009788 -693490.000000 0 0 1
-2.862931 -26.575513 -6.716350 27.560182 1.463482 1.816973 0.035392 -0.012727 -150562.000000 0 0 1
-1.648731 -27.135113 -6.248550 27.894032 1.510111 1.796724 0.021175 -0.014438 195518.000000 0 0 1
-1.221831 -26.774013 -4.797550 27.227874 1.525193 1.747921 0.038724 -0.012541 197404.000000 0 0 1
-2.066731 -27.257713 -3.747950 27.591691 1.495119 1.707054 0.045835 -0.019065 43555.800000 0 0 1
-1.767731 -26.628413 -2.537650 26.807404 1.504508 1.665601 0.047249 -0.021474 -578425.000000 0 0 1
-2.870231 -26.829813 -1.542350 27.026948 1.464222 1.627894 0.038634 -0.011047 -903814.000000 0 0 1
-4.026531 -26.103413 -1.794950 26.473061 1.417750 1.638651 0.040153 -0.009289 -285684.000000 0 0 1
-4.883331 -26.109013 -0.616950 26.568931 1.385896 1.594019 0.048972 -0.014588 699612.000000 0 0 1
-6.084931 -25.117313 -0.726550 25.854084 1.333115 1.598902 0.045687 -0.011481 451336.000000 0 0 1
-5.739831 -23.716413 -0.638950 24.409469 1.333343 1.596976 0.037839 -0.015826 -354121.000000 0 1 0
-6.571031 -23.091413 0.276350 24.009752 1.293559 1.559286 0.045973 -0.012258 -182770.000000 0 1 0
-5.980531 -21.739713 0.643550 22.556507 1.302340 1.542262 0.029463 -0.013194 90176.200000 0 1 0
-4.980631 -21.803413 1.633150 22.424600 1.346216 1.497903 0.031899 -0.014331 23379.100000 0 1 0
-4.439731 -20.472313 1.870850 21.031569 1.357238 1.481724 0.017353 -0.013923 -485886.000000 0 1 0
-3.315831 -20.355313 2.847050 20.819202 1.409317 1.433615 0.019021 -0.006402 -917911.000000 0 1 0
-3.760831 -20.254113 4.162250 21.016595 1.387205 1.371432 0.012361 0.001280 -231129.000000 0 1 0
-2.707031 -20.247513 5.078350 21.049452 1.437888 1.327134 0.019037 -0.001273 -36651.500000 0 1 0
-1.891931 -21.538013 5.301850 22.261514 1.483180 1.330323 0.025768 -0.014412 -321635.000000 0 1 0
-0.999731 -21.861213 4.268050 22.296375 1.525097 1.378184 0.043633 -0.015783 -771199.000000 0 1 0
-0.387331 -23.065413 4.670050 23.536624 1.554005 1.371054 0.047147 -0.015012 -1255640.000000 0 1 0
0.650069 -23.401313 3.563250 23.679966 -1.543024 1.419747 0.045076 -0.025272 200265.000000 0 1 0
1.741369 -22.505813 3.462450 22.837087 -1.493576 1.418594 0.032845 -0.023150 549699.000000 0 1 0
2.689969 -22.717813 4.550650 23.324737 -1.452937 1.374437 0.048272 -0.026284 -294897.000000 0 1 0
3.847669 -21.684113 4.619150 22.502041 -1.395182 1.364050 0.045620 -0.024699 -61789.500000 0 1 0
4.592569 -21.779213 3.455750 22.524831 -1.362972 1.416768 0.032140 -0.010798 -251189.000000 0 1 0
5.718269 -20.884113 3.528250 21.938398 -1.303537 1.409270 0.045488 -0.007119 747739.000000 0 1 0
6.392869 -20.718113 2.158250 21.789149 -1.271501 1.471582 0.044408 -0.005419 -69815.700000 0 1 0
7.158569 -21.821413 1.740450 23.031464 -1.253806 1.495156 0.046583 0.002129 -271049.000000 0 1 0
7.143469 -21.768913 0.304250 22.913037 -1.253718 1.557517 0.042542 -0.008867 -146290.000000 0 1 0
8.125669 -22.715013 -0.387950 24.127760 -1.227258 1.586876 0.037193 -0.001366 749111.000000 0 1 0
9.428469 -22.156213 -0.621650 24.086931 -1.168464 1.596608 0.036844 0.005332 -116965.000000 0 1 0
10.144369 -22.916213 -1.510450 25.106622 -1.154053 1.630994 0.035606 0.000657 -449013.000000 0 0 1
11.445269 -22.277513 -1.987050 25.124294 -1.096202 1.649968 0.044036 -0.002094 -122372.000000 0 0 1
11.233169 -21.226613 -2.859450 24.185319 -1.084061 1.689304 0.043606 0.001966 -128276.000000 0 1 0
12.446169 -21.063613 -3.562050 24.723898 -1.037106 1.715373 0.041983 0.002911 128142.000000 0 1 0
12.515769 -19.798213 -4.370750 23.826816 -1.007060 1.755279 0.033693 -0.016524 -176992.000000 0 1 0
12.766269 -18.608613 -3.649450 22.859934 -0.969500 1.731126 0.050848 -0.012799 105033.000000 0 1 0
12.734869 -17.511813 -4.530950 22.121708 -0.942037 1.777075 0.038412 -0.017521 -1108770.000000 0 1 0
13.351269 -16.308813 -3.776350 21.412487 -0.884784 1.748086 0.064958 -0.009557 463234.000000 0 1 0
14.731569 -16.259013 -3.465750 22.212295 -0.834646 1.727465 0.056223 -0.006022 46767.000000 0 1 0
15.545569 -16.282013 -4.602750 22.977249 -0.808533 1.772479 0.038020 -0.003873 -2437230.000000 0 1 0
16.978269 -15.978613 -4.342050 23.715630 -0.755075 1.754923 0.039777 0.004986 -1159710.000000 0 1 0
17.666269 -16.917913 -3.490350 24.708205 -0.763763 1.712533 0.042918 -0.003238 157643.000000 0 1 0
19.036369 -16.610913 -3.560750 25.514402 -0.717462 1.710812 0.022478 0.011656 -196353.000000 0 0 1
19.895169 -17.315613 -2.469150 26.490468 -0.716186 1.664141 0.030277 -0.006492 649530.000000 0 0 1
21.300669 -17.124913 -2.621650 27.456405 -0.677152 1.666426 0.016848 0.006240 554430.000000 0 0 1
22.003769 -17.728213 -1.568150 28.300432 -0.678201 1.626236 0.013977 0.010612 -118371.000000 0 0 1
23.529869 -17.585213 -1.500950 29.413386 -0.641807 1.621848 0.027790 0.005496 -64381.000000 0 0 1
23.993569 -16.321413 -1.078050 29.038630 -0.597342 1.607930 0.027569 -0.005921 -6711.620000 0 0 1
25.351969 -16.342413 -0.704850 30.171072 -0.572585 1.594160 0.051039 0.000530 88877.200000 0 0 1
25.793869 -14.979513 -0.103850 29.828179 -0.526137 1.574278 0.050423 0.008712 -398035.000000 0 0 1
24.947669 -14.551213 0.882850 28.894695 -0.528027 1.540238 0.035003 0.012567 333536.000000 0 0 1
25.640969 -13.552013 1.719150 29.052914 -0.486210 1.511589 0.028336 0.006881 1223720.000000 0 0 1
24.678669 -13.067713 2.894050 28.074496 -0.486979 1.467528 0.033536 -0.006215 544724.000000 0 0 1
24.388369 -13.999313 3.890550 28.388548 -0.521094 1.433317 0.052040 -0.004869 806022.000000 0 0 1
25.545069 -14.445213 4.642850 29.711459 -0.514650 1.413889 0.071604 0.000461 1061820.000000 0 0 1
25.076369 -15.111113 5.971750 29.880291 -0.542332 1.369586 0.069861 0.001531 621621.000000 0 0 1
24.371769 -16.330513 5.687050 29.883295 -0.590347 1.379320 0.063343 -0.003535 -15111.500000 0 0 1
23.529269 -16.727813 6.733550 29.644340 -0.618028 1.341652 0.060468 -0.003653 -85267.800000 0 0 1
22.978869 -18.184613 6.667650 30.052722 -0.669452 1.347070 0.051821 -0.000600 713070.000000 0 0 1
23.991769 -19.172013 6.918650 31.480768 -0.674197 1.349214 0.052030 0.000732 332970.000000 0 0 1
23.364369 -20.426113 6.830250 31.776912 -0.718401 1.354162 0.027259 0.000736 -51932.700000 0 0 1
1.395269 23.146133 -2.817550 23.358699 1.510588 1.691712 0.000882 -0.007542 -258147.000000 0 1 0
2.253469 24.172533 -2.476850 24.403366 1.477841 1.672468 0.008140 -0.005787 -225680.000000 0 1 0
3.037869 24.648233 -3.559950 25.088589 1.448166 1.713172 0.024329 -0.006693 208906.000000 0 0 1
4.028969 25.762233 -3.124950 26.261960 1.415662 1.690070 0.012574 -0.002392 -29111.300000 0 0 1
5.037469 25.333033 -2.269650 25.928555 1.374507 1.658443 0.001237 -0.000494 -490320.000000 0 0 1
5.864069 26.335333 -1.728250 27.035605 1.351701 1.634765 0.003747 -0.000758 74628.200000 0 0 1
7.147069 25.767233 -1.032450 26.759986 1.300228 1.609388 -0.007042 -0.011941 -342547.000000 0 0 1
8.032369 25.479333 -2.053950 26.794292 1.265408 1.647528 0.012049 -0.018172 -1256250.000000 0 0 1
8.876969 24.486633 -1.561450 26.092794 1.223009 1.630674 0.006322 -0.008835 -471376.000000 0 0 1
10.004169 24.206633 -2.586350 26.319834 1.178893 1.669221 0.034438 -0.006151 -1036250.000000 0 0 1
11.050969 25.139733 -2.509750 27.575876 1.156640 1.661935 0.037541 -0.006293 -110447.000000 0 0 1
11.949769 25.118033 -3.612950 28.049349 1.126741 1.699962 0.058816 -0.016907 478001.000000 0 0 1
12.992969 23.958333 -3.616450 27.493593 1.073872 1.702717 0.057315 -0.011967 -770565.000000 0 0 1
12.464069 22.670233 -3.737950 26.139333 1.068108 1.714289 0.053191 -0.015980 -282325.000000 0 0 1
12.399369 22.279133 -5.083750 25.999012 1.062941 1.767601 0.068850 -0.024053 -405661.000000 0 0 1
11.433369 21.102733 -5.269950 24.572742 1.074274 1.786939 0.058619 -0.025177 -825059.000000 0 1 0
10.159869 21.533833 -4.928050 24.314904 1.129954 1.774886 0.035225 -0.017862 -357738.000000 0 1 0
9.242969 20.410133 -4.827150 22.919585 1.145565 1.782998 0.005031 -0.007243 941584.000000 0 1 0
7.726569 20.727733 -4.771150 22.629685 1.213987 1.783226 -0.001359 -0.007199 335190.000000 0 1 0
7.380669 21.337733 -3.543450 22.854522 1.237781 1.726468 -0.006238 0.000500 55586.100000 0 1 0
5.997769 21.636533 -3.500450 22.723687 1.300381 1.725456 -0.008376 0.005299 132919.000000 0 1 0
5.544169 22.230433 -2.187650 23.015555 1.326387 1.665991 -0.007024 0.001346 -158480.000000 0 1 0
5.434669 21.380933 -1.111050 22.088784 1.321885 1.621117 -0.008240 -0.001692 116603.000000 0 1 0
4.948069 21.995233 0.116950 22.545229 1.349519 1.565609 0.003922 -0.002572 555786.000000 0 1 0
4.102869 21.067833 1.080150 21.490785 1.378458 1.520514 -0.005183 -0.011341 237438.000000 0 1 0
3.451469 21.799133 2.101550 22.170506 1.413769 1.475863 0.004408 -0.004827 116973.000000 0 1 0
3.216469 20.887433 3.148650 21.366903 1.418006 1.422897 0.010415 -0.008516 77008.700000 0 1 0
2.219369 21.413733 4.236550 21.941329 1.467523 1.376491 0.012679 -0.014545 508117.000000 0 1 0
0.891869 21.537633 3.754850 21.880676 1.529410 1.398337 0.010693 -0.013539 197926.000000 0 1 0
0.058369 22.339533 4.583950 22.805060 1.568184 1.368412 0.017954 -0.010824 683610.000000 0 1 0
-1.451431 22.405333 4.238550 22.848871 -1.506106 1.384212 0.018147 -0.008695 314921.000000 0 1 0
-2.288831 23.051533 5.176750 23.736273 -1.471829 1.350935 0.037431 -0.011381 320075.000000 0 1 0
-3.606931 22.860033 4.649450 23.605263 -1.414303 1.372533 0.051927 -0.019549 605092.000000 0 1 0
-4.811231 23.036133 5.603850 24.191207 -1.364900 1.337025 0.070303 -0.028177 113598.000000 0 1 0
-5.152331 24.378633 5.823450 25.588608 -1.362515 1.341205 0.086211 -0.031262 74628.400000 0 0 1
-6.335231 24.460133 6.604250 26.116075 -1.317363 1.315140 0.107297 -0.037224 370936.000000 0 0 1
-6.723531 25.900633 6.975550 27.653335 -1.316813 1.315792 0.106774 -0.042030 34423.300000 0 0 1
-5.719731 26.474733 7.806750 28.188156 -1.358022 1.290176 0.085222 -0.047845 112831.000000 0 0 1
-6.008231 27.752733 8.295750 29.582638 -1.357595 1.286558 0.094327 -0.041569 -194745.000000 0 0 1
-6.073531 29.051033 7.381050 30.583169 -1.364701 1.327046 0.086415 -0.049497 698541.000000 0 0 1
-7.234331 29.034933 6.533950 30.627690 -1.326609 1.355809 0.089491 -0.050243 35340.400000 0 0 1
-7.456831 30.322133 5.981850 31.793374 -1.329661 1.381521 0.081934 -0.045993 -572209.000000 0 0 1
-8.867731 30.527933 5.423350 32.249094 -1.288097 1.401823 0.063142 -0.038821 -267975.000000 0 0 1
-9.931531 30.676233 6.297050 32.852997 -1.257692 1.377929 0.061216 -0.025094 -669699.000000 0 0 1
-10.360031 29.524133 6.997250 32.061912 -1.233320 1.350784 0.045854 -0.025572 -1031180.000000 0 0 1
-11.207431 30.022233 8.174050 33.071983 -1.213513 1.321049 0.025032 -0.017102 -150107.000000 0 0 1
-10.582031 30.772033 9.224350 33.822863 -1.239580 1.294572 0.026172 -0.015447 411193.000000 0 0 1
-11.561831 31.075633 10.246650 34.703959 -1.214610 1.271070 0.025078 -0.008330 453649.000000 0 0 1
-10.893931 31.554333 11.519950 35.313778 -1.238365 1.238498 0.022538 -0.012147 -105909.000000 0 0 1
-10.358931 32.854133 11.401250 36.286223 -1.265362 1.251179 0.007795 -0.008584 911458.000000 0 0 1
-9.272331 33.143833 12.327550 36.557602 -1.298010 1.226846 0.003157 -0.011360 796162.000000 0 0 1
-8.992731 -34.077613 12.451250 37.378958 1.312788 1.231198 -0.006886 -0.007537 -369878.000000 0 0 1
-9.966031 -33.331213 13.117450 37.180089 1.280257 1.210225 -0.001825 -0.000215 -336125.000000 0 0 1
-9.546131 -31.968013 13.311150 35.920317 1.280611 1.191169 -0.003402 0.001057 2063.630000 0 0 1
-10.427131 -31.085113 14.241350 35.746683 1.247153 1.161028 0.002134 -0.001944 -358855.000000 0 0 1
-10.436831 -31.418513 15.602050 36.598830 1.250078 1.130399 0.009917 -0.008823 906277.000000 0 0 1
-9.323231 -30.765713 16.295150 36.041416 1.276553 1.101652 0.007677 -0.009845 958868.000000 0 0 1
-9.210531 -30.897813 17.814850 36.835820 1.281087 1.066001 0.003952 -0.014346 -518877.000000 0 0 1
-10.040831 -30.032913 18.545650 36.697892 1.248151 1.040997 0.038191 -0.019003 148159.000000 0 0 1
-10.767331 -30.777413 19.508150 37.996743 1.234259 1.031635 0.024483 -0.020730 -113167.000000 0 0 1
-11.236431 -29.838313 20.653750 37.988942 1.210644 0.995983 0.037836 -0.029538 28907.500000 0 0 1
-10.235031 -29.596713 21.635250 38.063175 1.237853 0.966232 0.029368 -0.024171 505009.000000 0 0 1
-10.557731 -28.602313 22.603650 37.953695 1.217189 0.932835 0.020903 -0.021742 473437.000000 0 0 1
-9.351731 -28.676213 23.592550 38.293452 1.255557 0.907016 0.044231 -0.029105 605693.000000 0 0 1
-9.277131 -29.869613 24.354850 39.641111 1.269655 0.909192 0.048671 -0.014904 -636385.000000 0 0 1
-8.051431 -29.967513 24.993350 39.844007 1.308323 0.892741 0.063464 -0.015292 -534248.000000 0 0 1
-8.041031 -31.179713 25.941150 41.349437 1.318403 0.892633 0.064277 -0.015057 -140508.000000 0 0 1
-7.897931 -32.440113 25.346650 41.918861 1.331981 0.921458 0.071398 -0.005470 299843.000000 0 0 1
-8.094331 -33.396913 26.334150 43.293873 1.333014 0.916923 0.082105 -0.003845 -371720.000000 0 0 1
-7.963731 33.908433 25.811450 43.352437 -1.340117 0.933050 0.074332 -0.007183 62092.500000 0 0 1
-6.654731 33.511833 25.406950 42.577477 -1.374768 0.931385 0.069147 -0.002674 488904.000000 0 0 1
-6.494531 32.135333 25.044950 41.256613 -1.371383 0.918450 0.060859 -0.004744 -163195.000000 0 0 1
-7.060631 31.759933 23.651750 40.223763 -1.352041 0.942207 0.053605 -0.003404 502701.000000 0 0 1
-8.428431 31.381333 23.809650 40.283073 -1.308408 0.938426 0.050761 -0.000508 499293.000000 0 0 1
-9.106831 31.178933 22.603250 39.572303 -1.286619 0.962843 0.028452 0.004718 34334.700000 0 0 1
-10.058131 29.966033 22.568250 38.838834 -1.246961 0.950748 0.030382 -0.007657 -178246.000000 0 0 1
-9.407531 28.766333 22.377750 37.639969 -1.254727 0.934127 0.031025 -0.008434 -421972.000000 0 0 1
-10.196531 27.661233 22.757850 37.242889 -1.217629 0.913390 0.019745 -0.005114 -487458.000000 0 0 1
-9.576331 26.336433 22.416350 35.886022 -1.222044 0.896108 0.008398 -0.011940 -990282.000000 0 0 1
-8.373931 26.121633 23.071850 35.843726 -1.260572 0.871501 0.012018 -0.019862 -542426.000000 0 0 1
-8.064931 24.780633 22.810750 34.633123 -1.256155 0.851787 0.022784 -0.024819 319471.000000 0 0 1
-6.687031 24.287133 23.371950 34.363196 -1.302121 0.822836 0.027004 -0.020612 -198474.000000 0 0 1
-5.629931 24.888033 22.717350 34.164138 -1.348330 0.843373 0.014234 -0.020557 -1091750.000000 0 0 1
-4.482931 24.611933 23.497850 34.321901 -1.390627 0.816698 0.061541 -0.008985 -366822.000000 0 0 1
-3.227231 25.161833 22.817550 34.119986 -1.443234 0.838278 0.047498 -0.008223 -453392.000000 0 0 1
-2.939531 24.549633 21.549050 32.797666 -1.451625 0.853924 0.052459 -0.011116 57708.100000 0 0 1
-1.900131 25.218933 20.873150 32.791668 -1.495593 0.880795 0.056725 -0.006420 -74383.300000 0 0 1
-1.174231 24.510233 19.713450 31.476189 -1.522925 0.894002 0.046643 -0.010225 60885.900000 0 0 1
-0.229231 23.548633 20.186050 31.017209 -1.561062 0.862157 0.049705 -0.009898 122019.000000 0 0 1
0.102169 22.616433 19.189750 29.660748 1.566279 0.867186 0.032251 -0.006338 152950.000000 0 0 1
1.271869 21.632233 19.510650 29.158817 1.512069 0.837777 0.029127 -0.008394 161914.000000 0 0 1
2.548869 22.203733 19.560350 29.700333 1.456502 0.851853 0.032811 -0.013225 -558133.000000 0 0 1
3.528769 21.198433 19.538250 29.044259 1.405845 0.832936 0.037596 -0.015293 -29213.300000 0 0 1
4.922769 21.764433 19.190750 29.431430 1.348355 0.860512 0.030509 -0.017424 98193.300000 0 0 1
5.881069 20.773433 18.828450 28.646693 1.294910 0.853613 0.040989 -0.019057 -579806.000000 0 0 1
7.086069 21.421433 18.578150 29.227347 1.251333 0.881956 0.047087 -0.020502 -1198210.000000 0 0 1
8.214969 20.465433 18.254050 28.627434 1.189078 0.879363 0.047077 -0.011744 -844151.000000 0 0 1
8.618269 19.794833 19.431150 29.046163 1.160167 0.837968 0.047280 -0.017205 -121273.000000 0 0 1
9.731669 18.978233 19.157050 28.668297 1.096977 0.838968 0.047399 -0.015620 -113077.000000 0 0 1
10.168369 18.200333 20.383350 29.156968 1.061305 0.796672 0.067274 -0.015297 -417974.000000 0 0 1
9.266969 17.216833 20.727850 28.494558 1.077019 0.756224 0.063052 -0.015715 -194194.000000 0 0 1
9.782069 16.633233 21.926250 29.208111 1.039170 0.721690 0.063908 -0.021635 317640.000000 0 0 1
8.978169 15.393933 22.451850 28.664721 1.042801 0.670908 0.046431 -0.014334 -318534.000000 0 0 1
7.833669 15.819033 23.126650 29.093816 1.110992 0.651955 0.041198 -0.009815 -684769.000000 0 0 1
6.857669 14.864233 23.417050 28.571512 1.138541 0.610094 0.029902 0.001090 -93435.400000 0 0 1
7.120469 13.828133 24.523450 29.039937 1.095279 0.565215 0.038096 -0.002399 -535562.000000 0 0 1
7.422469 14.382333 25.790750 30.448437 1.094366 0.560423 0.043647 -0.019372 75604.400000 0 0 1
7.639569 13.334633 26.676350 30.786411 1.050533 0.522654 0.047474 -0.022645 270589.000000 0 0 1
8.636369 13.768033 27.876350 32.268196 1.010561 0.527843 0.022826 -0.014253 741560.000000 0 0 1
10.003969 13.938833 27.595050 32.493957 0.948286 0.556259 0.051890 -0.011286 -23736.100000 0 0 1
10.386969 15.113733 26.915350 32.569159 0.968676 0.598102 0.045296 -0.008829 5422.930000 0 0 1
11.682969 14.985033 26.058550 32.250442 0.908592 0.630037 0.063214 -0.014184 416390.000000 0 0 1
11.429869 14.375133 24.775950 30.840461 0.899042 0.637882 0.062247 -0.012267 359847.000000 0 0 1
12.630369 13.965633 24.120250 30.599862 0.835561 0.662841 0.079438 -0.011037 266047.000000 0 0 1
12.364769 12.768533 23.148650 29.185321 0.801462 0.654815 0.058140 -0.011045 -75084.000000 0 0 1
12.160769 11.505233 23.851650 29.140280 0.757706 0.611981 0.053667 -0.006338 -4401.530000 0 0 1
11.010269 11.325933 24.644450 29.272029 0.799530 0.569981 0.057385 -0.004213 -510190.000000 0 0 1
10.874569 9.956633 25.321450 29.301307 0.741361 0.527288 0.036895 0.003951 -137728.000000 0 0 1
10.551569 8.911233 24.414850 28.050501 0.701316 0.514804 0.045250 0.001201 191977.000000 0 0 1
10.323669 7.718433 25.131350 28.244240 0.641992 0.473919 0.043954 0.004117 4903.270000 0 0 1
10.325069 6.464333 24.260650 27.147261 0.559377 0.465341 0.050656 0.001601 -491633.000000 0 0 1
11.555869 6.195333 23.662450 27.052390 0.492124 0.506001 0.041939 -0.003433 -281291.000000 0 0 1
11.601869 5.062533 22.785850 26.065831 0.411449 0.507082 0.048504 -0.011917 -76805.000000 0 0 1
11.546269 3.673933 23.432850 26.380155 0.308062 0.477219 0.049387 -0.011724 104299.000000 0 0 1
12.820269 3.226433 23.874150 27.290002 0.246547 0.505709 0.034982 -0.009146 370321.000000 0 0 1
12.735769 1.956333 24.482150 27.665913 0.152418 0.484472 0.022700 -0.011976 -31757.800000 0 0 1
14.116569 1.508233 25.023150 28.769955 0.106438 0.516067 -0.000468 -0.006516 41609.600000 0 0 1
15.031369 1.150033 24.028750 28.366273 0.076360 0.560313 0.006965 -0.010370 -1385470.000000 0 0 1
16.319169 1.304633 24.492550 29.460182 0.079775 0.589213 0.019048 -0.014575 -1219090.000000 0 0 1
17.183569 0.434833 23.552250 29.157719 0.025300 0.630465 0.032502 -0.016958 -364943.000000 0 0 1
17.022469 -0.980867 23.821850 29.295172 -0.057558 0.621224 0.023565 -0.012725 -351627.000000 0 0 1
18.106869 -1.742867 23.415850 29.651278 -0.095959 0.660464 0.039208 -0.004309 -601007.000000 0 0 1
17.937469 -3.272467 23.639450 29.854404 -0.180453 0.657006 0.040436 0.005499 -378411.000000 0 0 1
16.925369 -3.934467 22.961150 28.795183 -0.228403 0.647829 0.018590 0.009180 -284932.000000 0 0 1
17.108069 -5.313367 23.190550 29.303916 -0.301132 0.657732 0.042244 0.002377 272540.000000 0 0 1
16.059669 -6.266367 22.552550 28.386578 -0.372023 0.652647 0.029609 -0.002181 -386343.000000 0 0 1
16.288069 -6.427267 21.168750 27.472294 -0.375842 0.691094 0.018851 -0.004133 91470.300000 0 0 1
15.473769 -7.415267 20.567250 26.784986 -0.446882 0.695295 0.033243 -0.013376 -105739.000000 0 0 1
15.871069 -8.944267 20.872250 27.704540 -0.513193 0.717598 0.035913 -0.017647 -185148.000000 0 0 1
15.654069 -9.412867 22.161750 28.719246 -0.541378 0.689335 0.024007 -0.010463 -471138.000000 0 0 1
16.468969 -10.512267 22.429250 29.745688 -0.568112 0.716615 0.022948 -0.010501 -394959.000000 0 0 1
16.195469 -11.377667 23.678450 30.861197 -0.612416 0.696244 0.027886 -0.005011 -143968.000000 0 0 1
14.962869 -12.050267 23.555450 30.396638 -0.677991 0.684182 0.024911 -0.003273 -10338.900000 0 0 1
14.824469 -12.934067 24.624750 31.518777 -0.717402 0.674095 0.040882 0.003792 -186827.000000 0 0 1
13.866269 -14.056667 24.219550 31.248198 -0.792217 0.683970 0.041066 0.002491 -289608.000000 0 0 1
14.314369 -14.933167 23.176850 31.065528 -0.806552 0.728666 0.035602 -0.000900 1347960.000000 0 0 1
13.292869 -15.947367 22.837050 30.863404 -0.875932 0.737816 0.051798 0.005512 869081.000000 0 0 1
13.748569 -16.795767 21.627750 30.641157 -0.884832 0.787188 0.019361 -0.002820 464561.000000 0 0 1
14.791569 -17.754467 21.867350 31.814974 -0.876185 0.812991 0.027764 -0.002609 383116.000000 0 0 1
15.151169 -18.423467 20.687550 31.574622 -0.882555 0.856355 0.015332 -0.002984 -149038.000000 0 0 1
-23.806731 -32.208613 26.541059 48.047716 0.934281 0.985568 0.040898 -0.024122 -895161.000000 0 0 1
-24.296031 -33.367213 27.234169 49.450662 0.941432 0.987553 0.043437 -0.027583 29926.600000 0 0 1
-25.564641 -33.761113 26.763639 50.096467 0.922689 1.007185 0.035360 -0.030758 -282599.000000 0 0 1
-26.272271 34.118933 27.758629 51.233537 -0.914605 0.998212 0.034101 -0.024251 -273693.000000 0 0 1
-27.000281 -34.042413 28.838799 52.149568 0.900254 0.984834 0.040532 -0.024400 -275468.000000 0 0 1
-26.152501 -33.516213 29.779759 51.904951 0.908187 0.959736 0.024964 -0.018577 -583121.000000 0 0 1
-26.862381 -32.614013 30.802799 52.288372 0.881803 0.940858 0.010635 -0.025321 -152137.000000 0 0 1
-27.258751 -31.324313 30.354979 51.436143 0.854685 0.939553 0.010864 -0.024421 69159.900000 0 0 1
-27.987591 -30.725513 31.419909 52.101565 0.831997 0.923476 -0.000546 -0.009075 -70608.400000 0 0 1
-28.438691 -29.291513 30.965239 51.240589 0.800170 0.921896 0.006159 -0.010916 -188684.000000 0 0 1
-29.234281 -29.346413 29.814619 51.036915 0.787312 0.946930 0.010115 -0.009117 152168.000000 0 0 1
-29.785551 -28.051013 29.573879 50.484183 0.755417 0.944924 0.009050 0.000148 95106.600000 0 0 1
-30.335681 -27.831613 28.113689 49.852099 0.742375 0.971645 0.008402 -0.007749 1064840.000000 0 0 1
-29.244981 -27.700313 27.144779 48.573813 0.758279 0.977815 -0.001134 -0.004456 1232700.000000 0 0 1
-28.783171 -26.370013 27.089889 47.515372 0.741672 0.964134 0.002048 0.000954 -444321.000000 0 0 1
-27.788351 -26.045013 25.982639 46.104584 0.753026 0.972109 0.006332 0.002936 -377042.000000 0 0 1
-28.398311 -26.221913 24.724469 45.884117 0.745573 1.001730 0.001631 0.002042 862546.000000 0 0 1
-27.455761 -25.828813 23.727799 44.541608 0.754874 1.008996 0.010728 0.007993 118541.000000 0 0 1
-27.948951 -26.379413 22.342349 44.454447 0.756516 1.044205 0.001030 0.015980 61056.000000 0 0 1
-28.687581 -25.440313 21.601249 44.009099 0.725477 1.057747 -0.006561 0.013842 93364.800000 0 0 1
-29.088551 -25.977513 20.370849 43.999392 0.728962 1.089442 -0.007956 0.023343 -212449.000000 0 0 1
-29.788161 -24.851513 19.560349 43.445823 0.695294 1.103780 -0.016929 0.019723 599235.000000 0 0 1
-31.112491 -24.643913 20.081449 44.481166 0.669900 1.102396 -0.008954 0.012090 986212.000000 0 0 1
-31.745261 -23.526113 19.425249 44.029307 0.637775 1.113873 -0.006811 0.015569 1020120.000000 0 0 1
-33.245981 -23.195813 19.783949 45.108155 0.609183 1.116768 0.000710 0.017227 1170270.000000 0 0 1
-34.171094 -24.049513 19.122349 45.953313 0.613270 1.141616 0.004501 0.010020 30950.600000 0 0 1
-35.511514 -23.640513 19.200849 46.782626 0.587343 1.147874 0.013711 0.005378 -141988.000000 0 0 1
35.238250 -24.469713 18.393749 46.677951 -0.606963 1.165755 0.037468 -0.002460 -123327.000000 0 0 1
35.003490 -25.739413 19.055149 47.443233 -0.634052 1.157488 0.034884 -0.002536 -190365.000000 0 0 1
34.286480 -26.712013 18.366549 47.185002 -0.661856 1.170984 0.036900 0.000510 -200154.000000 0 0 1
34.054450 -27.976713 19.256349 48.095831 -0.687731 1.158871 0.019359 0.003474 753458.000000 0 0 1
33.002090 -28.027113 20.273249 47.808593 -0.704060 1.132883 0.021478 -0.000569 836442.000000 0 0 1
33.168360 -27.042913 21.295349 47.801162 -0.684014 1.109065 0.022423 -0.006237 -594545.000000 0 0 1
31.996240 -26.974713 22.290049 47.415617 -0.700451 1.081393 0.022098 -0.010861 146461.000000 0 0 1
30.862810 -26.438213 21.609449 46.026736 -0.708334 1.082074 0.029157 -0.007931 -204003.000000 0 0 1
29.908960 -25.917813 22.495349 45.522737 -0.714028 1.053932 0.043293 -0.015245 83875.800000 0 0 1
29.087320 -24.709713 21.854949 43.980460 -0.704204 1.050746 0.059248 -0.016675 416709.000000 0 0 1
29.837480 -23.562713 21.478349 43.666877 -0.668430 1.056562 0.059153 -0.011587 -81298.600000 0 0 1
30.599270 -22.851413 22.389549 44.269564 -0.641447 1.040540 0.068081 -0.022981 37146.800000 0 0 1
31.461360 -21.679013 21.821549 43.999736 -0.603351 1.051871 0.067523 -0.019507 -193831.000000 0 0 1
30.704110 -20.639213 21.329849 42.704589 -0.591822 1.047804 0.069746 -0.024317 -317575.000000 0 0 1
31.445220 -19.782013 20.485349 42.423807 -0.561538 1.066863 0.061926 -0.025777 -455625.000000 0 0 1
30.549070 -18.575013 20.040249 40.986441 -0.546309 1.059913 0.066209 -0.014711 287968.000000 0 0 1
30.013990 -17.795113 21.076949 40.764487 -0.535178 1.027405 0.058297 -0.002131 68288.400000 0 0 1
28.890240 -18.400013 21.671449 40.532186 -0.567106 1.006676 0.072785 -0.021025 -1285330.000000 0 0 1
28.989190 -18.268913 23.226449 41.395582 -0.562328 0.975100 0.055419 -0.015576 -163558.000000 0 0 1
28.847410 -16.946513 23.653889 40.973941 -0.531143 0.955389 0.055319 -0.007006 252550.000000 0 0 1
28.897660 -16.836713 25.068089 41.796635 -0.527551 0.927591 0.044648 -0.008935 -158038.000000 0 0 1
28.941370 -15.375313 25.549049 41.554266 -0.488340 0.908619 0.043344 -0.007497 768270.000000 0 0 1
27.604000 -14.875613 25.758159 40.580136 -0.494276 0.883114 0.055109 -0.011595 973278.000000 0 0 1
27.522610 -13.603113 26.455169 40.526716 -0.459039 0.859543 0.041412 -0.008318 -5370.800000 0 0 1
28.073420 -12.372613 25.702949 40.022994 -0.415113 0.873425 0.051088 -0.017752 -31219.200000 0 0 1
27.310860 -12.019613 24.541929 38.634964 -0.414594 0.882495 0.045070 -0.003145 248422.000000 0 0 1
27.900880 -11.027513 23.717469 38.243738 -0.376395 0.901842 0.040995 -0.000929 816416.000000 0 0 1
29.040540 -11.516713 22.708749 38.622207 -0.377549 0.942248 0.042508 -0.018406 551297.000000 0 0 1
28.526670 -12.350513 21.716149 37.919615 -0.408582 0.961014 0.052344 -0.026489 103709.000000 0 0 1
28.696230 -13.705013 22.057649 38.701949 -0.445559 0.964368 0.059273 -0.029653 -406947.000000 0 0 1
28.039900 -14.748513 21.164349 38.100975 -0.484217 0.981856 0.074298 -0.032043 -320329.000000 0 0 1
28.531040 -14.709913 19.837549 37.734999 -0.476030 1.017250 0.063860 -0.026262 -226405.000000 0 0 1
27.996730 -15.777613 19.178149 37.423941 -0.513188 1.032753 0.064554 -0.032154 -121275.000000 0 0 1
28.670130 -15.930313 17.746749 37.292068 -0.507164 1.074826 0.060711 -0.028178 -111438.000000 0 0 1
28.315950 -17.005313 16.882449 37.094349 -0.540828 1.098287 0.055536 -0.028647 1240830.000000 0 0 1
26.877290 -17.167113 16.718149 36.008263 -0.568406 1.087968 0.060670 -0.022304 1539550.000000 0 0 1
26.230260 -16.133213 15.669549 34.552017 -0.551420 1.100101 0.046727 -0.015815 -227219.000000 0 0 1
26.508860 -16.571713 14.354549 34.400500 -0.558699 1.140349 0.049762 -0.017441 -299906.000000 0 0 1
25.627760 -17.555013 13.890749 34.028127 -0.600588 1.150300 0.038009 -0.014221 -435296.000000 0 0 1
25.788060 -18.063513 12.398049 33.838235 -0.611035 1.195668 0.049421 -0.008367 -208744.000000 0 0 1
25.526960 -17.127913 11.395849 32.785003 -0.590978 1.215793 0.033472 -0.010120 -323403.000000 0 0 1
25.316860 -17.832213 10.177149 32.596097 -0.613647 1.253268 0.047132 -0.018333 228936.000000 0 0 1
26.539160 -18.257513 9.288649 33.525256 -0.602590 1.290059 0.055953 -0.008435 454991.000000 0 0 1
27.339130 -19.166713 10.028149 34.861937 -0.611445 1.279021 0.050609 0.001606 -562866.000000 0 0 1
28.673540 -19.087213 9.566249 35.749219 -0.587315 1.299902 0.054001 0.008400 484068.000000 0 0 1
29.717290 -19.923013 10.391849 37.256332 -0.590595 1.288118 0.067087 -0.016742 337016.000000 0 0 1
29.905440 -19.433413 11.735449 37.546153 -0.576255 1.252909 0.074281 -0.028097 165907.000000 0 0 1
29.684100 -20.447913 12.745449 38.232308 -0.603204 1.230922 0.060229 -0.026661 -32973.500000 0 0 1
29.667020 -19.841313 14.147449 38.392188 -0.589478 1.193403 0.066639 -0.022317 59850.500000 0 0 1
29.618960 -20.748913 15.208749 39.231444 -0.611080 1.172697 0.068003 -0.023818 -1636.660000 0 0 1
29.512350 -20.189813 16.503949 39.382581 -0.599984 1.138379 0.082756 -0.033974 16888.800000 0 0 1
29.133920 -21.184513 17.587849 40.086173 -0.628711 1.116588 0.066394 -0.030910 -366006.000000 0 0 1
27.850950 -21.726813 17.478349 39.410944 -0.662495 1.111308 0.049838 -0.022066 -477002.000000 0 0 1
27.559010 -22.675313 18.549349 40.221228 -0.688484 1.091468 0.056726 -0.024363 547155.000000 0 0 1
26.141660 -23.314813 18.419749 39.575927 -0.728302 1.086678 0.052803 -0.012630 123326.000000 0 0 1
25.078960 -22.480113 18.795449 38.569141 -0.730808 1.061780 0.066713 -0.019708 239983.000000 0 0 1
23.902560 -23.303213 18.765549 38.295142 -0.772702 1.058679 0.058370 -0.012433 445482.000000 0 0 1
22.647860 -22.712413 19.444849 37.508418 -0.786821 1.025802 0.044681 -0.004099 -140049.000000 0 0 1
22.059160 -21.574413 18.814349 36.139197 -0.774289 1.023234 0.038555 -0.002461 767021.000000 0 0 1
20.919560 -20.969013 19.468949 35.445274 -0.786579 0.989308 0.023484 0.001354 885317.000000 0 0 1
21.158860 -20.413913 20.881849 36.062124 -0.767481 0.953231 0.011293 0.004182 -418167.000000 0 0 1
21.350760 -21.497013 21.792449 37.321406 -0.788811 0.947256 0.027808 0.000200 -26522.100000 0 0 1
21.881360 -21.048213 23.050749 38.120312 -0.765993 0.921427 0.026936 0.006515 36143.000000 0 0 1
22.241060 -22.184013 24.045109 39.559606 -0.784114 0.917484 0.039280 -0.002662 -161836.000000 0 0 1
21.135260 -22.975713 24.449169 39.652799 -0.827097 0.906404 0.031863 0.000662 -114232.000000 0 0 1
21.404560 -24.051613 25.327409 40.964776 -0.843566 0.904253 0.037429 0.001064 -821244.000000 0 0 1
20.224460 -24.763113 25.959429 41.184129 -0.885945 0.888823 0.052281 -0.005397 -639343.000000 0 0 1
19.732160 -25.839413 25.159039 41.109739 -0.918619 0.912213 0.037989 -0.002626 385884.000000 0 0 1
18.674160 -26.449913 25.914089 41.471221 -0.956042 0.895832 0.031564 -0.003554 236858.000000 0 0 1
17.931360 -27.443313 24.975439 41.212154 -0.992037 0.919747 0.038817 -0.009079 -230487.000000 0 0 1
17.126460 -26.791813 24.018439 39.849746 -1.002021 0.923885 0.042846 -0.016979 216450.000000 0 0 1
16.521660 -27.659113 23.075249 39.629016 -1.032341 0.949264 0.047804 -0.016581 -20292.500000 0 0 1
15.402760 -27.002213 22.229649 38.216774 -1.052406 0.950013 0.041715 -0.013595 -200466.000000 0 0 1
14.210360 -26.697913 22.888849 37.929043 -1.081671 0.922957 0.014792 -0.014494 -345228.000000 0 0 1
13.522360 -25.687213 22.157249 36.518910 -1.086234 0.918851 -0.015804 -0.005771 1389150.000000 0 0 1
12.083760 -25.259913 22.707049 36.051221 -1.124596 0.889430 0.001106 0.000105 1465990.000000 0 0 1
11.105360 -26.226913 22.454949 36.268509 -1.170253 0.903161 -0.006284 0.005105 -310993.000000 0 0 1
9.798960 -25.852413 22.846349 35.865339 -1.208493 0.880191 -0.004913 0.005976 634034.000000 0 0 1
8.802460 -27.058313 22.722749 36.413719 -1.256280 0.896924 -0.002846 0.004289 163464.000000 0 0 1
8.652360 -27.489213 21.387249 35.887805 -1.265859 0.932351 0.004324 0.005004 -269735.000000 0 0 1
7.511560 -28.280513 21.296249 36.190346 -1.311182 0.941655 0.006795 0.004883 -494104.000000 0 0 1
7.352660 -28.989313 19.983249 35.969044 -1.322401 0.981750 0.015526 0.003783 58762.100000 0 0 1
8.189460 -30.124713 19.845749 36.992152 -1.305359 1.004529 0.012378 -0.000751 313293.000000 0 0 1
7.816560 -30.848513 18.658849 36.890134 -1.322634 1.040493 0.016068 -0.003946 202947.000000 0 0 1
8.467560 -32.245813 18.503949 38.129885 -1.314000 1.064105 0.016042 -0.011281 91838.200000 0 0 1
7.875360 -33.041813 19.508149 39.170787 -1.336817 1.049473 0.025380 -0.006464 432952.000000 0 0 1
8.710860 -34.169213 19.633149 40.359320 -1.321180 1.062764 0.036986 -0.012430 -83032.500000 0 0 1
8.329360 33.603933 20.707349 40.341007 1.327825 1.031762 0.042577 -0.018875 -121374.000000 0 0 1
7.369860 32.670533 20.271749 39.148721 1.348929 1.026503 0.048481 -0.024509 -162695.000000 0 0 1
7.364760 31.568633 21.187449 38.726300 1.341602 0.991892 0.044621 -0.028394 23154.000000 0 0 1
6.352160 30.537433 20.636549 37.399892 1.365709 0.986298 0.043840 -0.025009 -296332.000000 0 0 1
5.033860 30.831933 20.988449 37.635925 1.408957 0.979219 0.055728 -0.022609 -883692.000000 0 0 1
4.253560 29.684533 20.771449 36.478999 1.428473 0.965010 0.071009 -0.018212 227731.000000 0 0 1
2.859860 29.567233 21.425549 36.625868 1.474372 0.945936 0.073323 -0.016498 231710.000000 0 0 1
2.918360 29.282733 22.851249 37.258219 1.471463 0.910538 0.066688 -0.022853 208512.000000 0 0 1
1.591460 29.066633 23.314249 37.295524 1.516099 0.895509 0.066132 -0.018312 289600.000000 0 0 1
1.367560 28.357633 24.624439 37.581759 1.522608 0.856318 0.074641 -0.016933 -366670.000000 0 0 1
1.789360 29.135033 25.720049 38.904664 1.509457 0.848506 0.071964 -0.021886 251648.000000 0 0 1
1.434960 28.656933 27.016009 39.409944 1.520764 0.815489 0.058462 -0.014640 488287.000000 0 0 1
2.605260 27.837833 27.713109 39.366848 1.477481 0.789823 0.038605 -0.013757 557435.000000 0 0 1
2.845260 26.615933 27.092629 38.085613 1.464300 0.779363 0.049213 -0.012985 -172632.000000 0 0 1
3.951060 26.000333 27.675979 38.178371 1.419988 0.759889 0.022535 -0.005400 -503622.000000 0 0 1
4.451960 24.752133 27.005329 36.902247 1.392837 0.749826 0.020599 0.001697 -165810.000000 0 0 1
3.417260 23.801433 26.814299 36.016559 1.428197 0.731012 0.045531 0.001787 32488.600000 0 0 1
3.844260 22.498533 26.463109 34.946509 1.401564 0.711710 0.036428 0.007797 192553.000000 0 0 1
2.619060 21.548333 26.337299 34.129803 1.449846 0.689317 0.040626 0.015275 239216.000000 0 0 1
2.871560 20.156633 26.491979 33.411984 1.429286 0.655262 0.035389 0.015690 -236464.000000 0 0 1
3.654460 19.622833 25.468809 32.358475 1.386671 0.664730 0.034949 0.013994 -622018.000000 0 0 1
4.026860 18.128533 25.714469 31.718973 1.352217 0.625455 0.031189 0.004783 489860.000000 0 0 1
5.177160 17.924333 26.567209 32.463846 1.289615 0.612240 0.028842 0.004707 676041.000000 0 0 1
6.357460 17.903933 25.758169 32.007052 1.229597 0.635516 0.039986 0.000539 86470.400000 0 0 1
7.622760 17.809333 26.698289 32.986019 1.166370 0.627697 0.019478 -0.006776 494656.000000 0 0 1
8.048960 18.993633 27.403319 34.299938 1.169967 0.645279 0.014020 -0.000162 63117.600000 0 0 1
8.661860 19.958733 26.644549 34.399285 1.161337 0.684766 0.008370 -0.009461 -636314.000000 0 0 1
9.151860 21.271633 27.236149 35.749779 1.164498 0.704624 -0.001484 -0.007846 -731256.000000 0 0 1
10.226860 21.053433 28.067689 36.546284 1.118608 0.695078 0.016794 -0.024320 -708132.000000 0 0 1
10.418060 22.092433 29.022819 37.933305 1.130153 0.699598 0.025273 -0.030550 65895.200000 0 0 1
11.612460 21.781033 29.962209 38.820054 1.080985 0.689093 0.040056 -0.033489 1061870.000000 0 0 1
12.928860 21.971033 29.410079 38.920874 1.038913 0.714169 0.044199 -0.035910 592664.000000 0 0 1
13.901860 21.938433 30.453649 40.024759 1.005982 0.706143 0.049245 -0.029672 920245.000000 0 0 1
15.347860 21.776933 29.866219 40.022277 0.956872 0.728401 0.047296 -0.032903 632741.000000 0 0 1
15.843660 23.008033 29.355309 40.523145 0.967753 0.760620 0.042923 -0.042646 -178849.000000 0 0 1
17.153560 22.836033 28.866249 40.607750 0.926552 0.780082 0.075168 -0.034041 -18639.000000 0 0 1
-8.628931 17.040833 4.328150 19.585232 -1.102067 1.347966 0.015287 -0.009663 -207627.000000 0 1 0
-8.611731 18.317733 4.966550 20.841494 -1.131328 1.330180 0.022562 -0.008840 -239131.000000 0 1 0
-7.352131 18.646033 5.493050 20.782252 -1.195213 1.303303 0.021555 -0.000235 -229097.000000 0 1 0
-7.249831 20.114133 5.958350 22.195503 -1.224856 1.299014 0.027475 -0.002401 18922.400000 0 1 0
-7.363031 21.217033 5.053050 23.019775 -1.236766 1.349485 0.039587 -0.008878 -325858.000000 0 1 0
-8.634331 21.355633 4.473850 23.465508 -1.186579 1.378966 0.037043 -0.018266 -166412.000000 0 1 0
-8.707531 22.447133 3.365750 24.310968 -1.200753 1.431904 0.052891 -0.024854 63499.900000 0 1 0
-7.975731 22.220033 2.183550 23.708860 -1.226177 1.478567 0.029337 -0.022574 33791.800000 0 1 0
-8.536931 21.187233 1.289250 22.878816 -1.187768 1.514415 0.037423 -0.021780 -401785.000000 0 1 0
-7.845131 21.082933 -0.115750 22.495545 -1.214563 1.575942 0.024706 -0.004306 525517.000000 0 1 0
-6.522131 20.599733 -0.204150 21.608537 -1.264169 1.580244 0.015959 0.002400 -310693.000000 0 1 0
-5.541031 21.502733 0.201450 22.206106 -1.318594 1.561724 0.021840 -0.002845 -714333.000000 0 1 0
-4.151031 21.311433 -0.424250 21.716082 -1.378425 1.590334 0.021810 0.002651 -249573.000000 0 1 0
-4.109231 21.438833 -1.824850 21.905237 -1.381421 1.654200 0.022225 -0.006332 327142.000000 0 1 0
-2.787831 21.479833 -2.357450 21.787905 -1.441730 1.679209 0.021049 0.003917 275675.000000 0 1 0
-2.693631 21.837033 -3.852850 22.337326 -1.448065 1.744148 0.028844 0.001302 315049.000000 0 1 0
-1.370531 21.881133 -4.375850 22.356440 -1.508243 1.767799 0.025316 -0.001960 407732.000000 0 1 0
-1.351631 22.290933 -5.746850 23.059464 -1.510235 1.822670 0.030565 -0.008181 426095.000000 0 1 0
0.036869 22.893233 -6.133550 23.700673 1.569186 1.832568 0.016164 -0.008938 32636.500000 0 1 0
1.118569 22.047033 -6.021250 22.881834 1.520104 1.837077 0.011467 -0.005766 -1076150.000000 0 1 0
2.308969 22.673333 -6.410450 23.674992 1.469310 1.844988 0.014728 -0.004488 -846294.000000 0 1 0
3.418569 21.671333 -6.539150 22.893094 1.414339 1.860469 0.024455 -0.003219 -925570.000000 0 1 0
3.152069 20.822233 -7.609950 22.392237 1.420557 1.917551 0.025851 -0.008689 224009.000000 0 1 0
4.068869 19.753933 -7.757950 21.609242 1.367660 1.938004 0.023385 -0.007782 380955.000000 0 1 0
3.604469 19.024433 -9.018850 21.360265 1.383551 2.006695 0.012480 -0.003153 199151.000000 0 1 0
3.937069 19.749133 -10.184850 22.566788 1.374022 2.039041 0.022737 -0.003148 -270815.000000 0 1 0
3.218569 19.264033 -11.268950 22.548867 1.405249 2.094114 0.028805 -0.007248 -225999.000000 0 1 0
3.588769 19.734033 -12.695850 23.738069 1.390905 2.135104 0.033981 -0.004754 27799.500000 0 1 0
3.533869 21.144333 -12.873350 25.005883 1.405196 2.111586 0.065613 -0.010612 -194275.000000 0 0 1
3.939169 21.394633 -14.174550 25.964692 1.388716 2.148279 0.079861 -0.020424 -99504.800000 0 0 1
4.164569 22.847833 -14.661150 27.464822 1.390502 2.133903 0.072883 -0.022251 90785.600000 0 0 1
3.037969 23.718433 -14.644150 28.040051 1.443405 2.120293 0.087895 -0.019229 -30041.900000 0 0 1
3.346069 24.979233 -15.281550 29.473446 1.437635 2.115875 0.083458 -0.018872 643103.000000 0 0 1
2.043769 25.815833 -15.537650 30.200212 1.491794 2.111207 0.083971 -0.015394 711572.000000 0 0 1
1.202469 26.077633 -14.442750 29.834241 1.524718 2.076130 0.079069 -0.022823 5374.010000 0 0 1
1.176469 27.489633 -14.183350 30.955313 1.528026 2.046752 0.048647 -0.015290 -69838.000000 0 0 1
0.272269 27.762033 -12.933350 30.628029 1.560989 2.006746 0.049206 -0.017419 480643.000000 0 0 1
-1.144531 27.812833 -13.062450 30.748841 -1.529668 2.009550 0.034481 -0.018032 259963.000000 0 0 1
-1.835631 26.582433 -13.163450 29.719887 -1.501851 2.029646 0.032678 -0.017016 -296838.000000 0 0 1
-1.670331 25.463433 -12.158850 28.266837 -1.505293 2.015450 0.052446 -0.018087 -347567.000000 0 0 1
-2.394431 25.667333 -10.938850 28.003638 -1.477778 1.972104 0.038593 -0.008965 120095.000000 0 0 1
-2.476931 24.365433 -10.332850 26.581522 -1.469487 1.970042 0.062210 -0.011660 431492.000000 0 0 1
-3.440231 24.203733 -9.088950 26.081888 -1.429606 1.926743 0.043960 -0.008567 292706.000000 0 0 1
-2.918031 24.668133 -7.870150 26.057071 -1.453052 1.877623 0.046217 -0.012199 36939.300000 0 0 1
-2.599431 26.079433 -7.776950 27.338157 -1.471451 1.859252 0.032661 -0.010428 14925.300000 0 0 1
-2.406331 26.635333 -6.345650 27.486336 -1.480697 1.803764 0.025031 -0.007629 651838.000000 0 0 1
-1.263931 26.006133 -5.744450 26.662993 -1.522233 1.787945 0.024421 -0.009294 400676.000000 0 0 1
-0.925631 26.386133 -4.449850 26.774726 -1.535730 1.737767 0.025769 -0.012846 -196637.000000 0 0 1
-1.898031 25.843633 -3.387150 26.133669 -1.497485 1.700771 0.033258 -0.007848 210880.000000 0 0 1
-3.118431 26.588233 -3.213350 26.962648 -1.454044 1.690258 0.028302 -0.005818 652330.000000 0 0 1
-3.966731 26.012133 -2.239150 26.407950 -1.419467 1.655689 0.023666 0.000620 -424761.000000 0 0 1
-4.928531 24.975933 -2.770850 25.607914 -1.375968 1.679211 0.025763 -0.001249 -865642.000000 0 0 1
-6.088731 25.519833 -3.382350 26.453257 -1.336587 1.699009 0.020224 -0.002257 370887.000000 0 0 1
-7.067531 24.477333 -3.593950 25.729483 -1.289704 1.710937 0.004167 -0.001482 513850.000000 0 0 1
-8.437631 25.087833 -3.955550 26.762649 -1.246357 1.719141 0.002444 0.004228 -147511.000000 0 0 1
-9.044431 25.722733 -2.839750 27.413955 -1.232686 1.674570 0.004257 -0.001906 -597712.000000 0 0 1
-10.318431 26.193433 -3.187450 28.332416 -1.195532 1.683537 0.014385 -0.001379 -281834.000000 0 0 1
-11.119631 26.697533 -1.972350 28.987836 -1.176144 1.638890 0.011257 -0.001016 -929537.000000 0 0 1
-11.648031 25.708933 -1.118550 28.246717 -1.145390 1.610406 0.006176 -0.002024 -52090.900000 0 0 1
-10.715531 24.939233 -0.365750 27.146302 -1.164981 1.584270 0.023017 -0.012191 -214101.000000 0 0 1
-11.105431 23.482033 -0.075150 25.975799 -1.129036 1.573689 0.026898 -0.013090 -363165.000000 0 0 1
-12.105631 23.410833 0.900550 26.370901 -1.093566 1.536640 0.035065 -0.022737 -219514.000000 0 0 1
-12.480531 22.059033 1.168350 25.371828 -1.055920 1.524731 0.043070 -0.026202 -568085.000000 0 0 1
-13.537731 21.686633 2.198950 25.659610 -1.012741 1.484994 0.047131 -0.030514 -465388.000000 0 0 1
-13.179631 21.782733 3.538950 25.704363 -1.026672 1.432679 0.044954 -0.032764 -102369.000000 0 0 1
-13.068631 23.107933 4.076450 26.858577 -1.056095 1.418433 0.036205 -0.034182 -116244.000000 0 0 1
-12.807831 23.027533 5.586350 26.935388 -1.063208 1.361882 0.031972 -0.035656 -129773.000000 0 0 1
-11.611031 22.428633 6.047850 25.969908 -1.093099 1.335759 0.040185 -0.033686 31241.400000 0 0 1
-11.742831 22.161933 7.415350 26.154020 -1.083543 1.283327 0.039661 -0.033314 -197139.000000 0 0 1
-10.450031 21.938433 8.253550 25.663575 -1.126260 1.243372 0.047118 -0.031897 -95066.900000 0 0 1
-9.738631 23.116033 8.551950 26.501467 -1.172069 1.242219 0.071066 -0.036227 42883.100000 0 0 1
-8.518431 22.840933 9.220850 26.063307 -1.213828 1.209180 0.083738 -0.032820 149712.000000 0 0 1
-8.518531 22.582933 10.747150 26.420739 -1.210089 1.151881 0.060241 -0.030781 -388389.000000 0 0 1
-9.348531 21.505033 11.122150 25.953106 -1.160727 1.127911 0.060998 -0.033050 -323528.000000 0 0 1
-9.017031 20.917333 12.318950 25.895911 -1.163788 1.075025 0.056726 -0.029926 -355355.000000 0 0 1
-9.950431 19.794733 12.790150 25.581839 -1.105006 1.047232 0.050335 -0.026432 -243682.000000 0 0 1
-10.059431 18.786833 11.923250 24.419278 -1.079192 1.060688 0.056406 -0.031410 -133625.000000 0 1 0
-10.574631 17.707333 12.660350 24.200350 -1.032446 1.020256 0.045643 -0.027192 -79563.100000 0 1 0
-10.681431 16.507433 11.767750 22.914368 -0.996485 1.031476 0.040799 -0.033182 -172352.000000 0 1 0
-10.971531 15.267933 12.347950 22.493469 -0.947696 0.989680 0.037080 -0.026754 112135.000000 0 1 0
-11.339931 14.311733 11.351850 21.500796 -0.900736 1.014584 0.029908 -0.025837 -43670.900000 0 1 0
-11.680531 12.886333 11.819550 21.028413 -0.834441 0.973904 0.021481 -0.030117 -158968.000000 0 1 0
-12.762831 12.843833 12.704450 22.119154 -0.788561 0.958969 0.028467 -0.026967 -71959.400000 0 1 0
-13.116831 11.519033 13.096450 21.823299 -0.720632 0.927154 0.024489 -0.023226 5219.730000 0 1 0
-14.062331 11.297033 14.306150 23.022555 -0.676783 0.900272 0.035351 -0.024433 -527917.000000 0 1 0
-15.284231 11.933733 14.232950 24.054076 -0.662916 0.937622 0.047826 -0.022560 -782238.000000 0 1 0
-15.865031 11.829733 15.531150 25.156677 -0.640710 0.905393 0.041610 -0.019719 -79362.500000 0 0 1
-16.918631 12.937733 15.780750 26.507680 -0.652845 0.933123 0.046268 -0.012707 1084230.000000 0 0 1
-18.132731 12.703033 15.009650 26.747945 -0.611100 0.975020 0.036540 -0.012253 1542120.000000 0 0 1
-19.015231 13.857333 14.968650 27.886649 -0.629761 1.004195 0.051782 -0.011560 372960.000000 0 0 1
-20.166131 13.781633 13.958550 28.132674 -0.599501 1.051616 0.042523 -0.011402 -609530.000000 0 0 1
-21.126531 12.883033 14.411650 28.635616 -0.547597 1.043409 0.034833 -0.002167 -370953.000000 0 0 1
-22.227931 12.883733 13.519750 29.031967 -0.525299 1.086388 0.020859 0.000011 -298308.000000 0 0 1
-23.405031 12.046533 14.027350 29.827521 -0.475337 1.081186 0.018987 -0.001952 -585645.000000 0 0 1
-24.037131 12.689933 15.093350 31.090630 -0.485741 1.063904 0.029187 -0.001322 139926.000000 0 0 1
-24.769431 11.789933 15.913750 31.713951 -0.444254 1.045129 0.020933 0.000010 -513726.000000 0 0 1
-25.312421 12.378733 17.191650 33.007643 -0.454840 1.022963 0.021341 -0.001895 281514.000000 0 0 1
-26.413221 13.247433 16.840950 34.011326 -0.464883 1.052781 0.017646 0.003277 802687.000000 0 0 1
-27.083761 13.646533 18.029650 35.282095 -0.466734 1.034432 0.004940 0.008531 183287.000000 0 0 1
-28.313231 14.560333 17.851250 36.500815 -0.474990 1.059780 0.001981 0.006434 175311.000000 0 0 1
-27.893411 15.837433 17.633350 36.603302 -0.516394 1.068155 0.010907 0.011624 338276.000000 0 0 1
-29.039231 16.680133 17.543950 37.806004 -0.521383 1.088232 0.014839 0.006825 99111.300000 0 0 1
-28.820521 18.224433 17.175350 38.180427 -0.563862 1.104202 0.036056 0.000868 -428130.000000 0 0 1
-28.295651 18.944533 18.267250 38.642355 -0.589976 1.078415 0.031093 -0.002361 -57365.400000 0 0 1
-29.149871 19.147133 19.371550 39.894669 -0.581177 1.063784 0.017817 -0.005194 -749666.000000 0 0 1
-28.438071 19.438333 20.752150 40.214729 -0.599588 1.028582 0.019844 -0.013766 810642.000000 0 0 1
-27.763091 18.343233 21.485150 39.609028 -0.583864 0.997469 0.024264 -0.012342 1236350.000000 0 0 1
-26.604691 17.826433 20.772950 38.172068 -0.590340 0.995370 0.044829 -0.008569 252859.000000 0 0 1
-26.141141 16.499633 21.506050 37.657766 -0.563027 0.962961 0.030034 -0.000670 445691.000000 0 0 1
-27.154311 15.467633 21.519950 37.943544 -0.517782 0.967746 -0.001473 0.002017 580050.000000 0 0 1
-26.664061 14.209933 21.869650 37.298471 -0.489639 0.944261 -0.006701 0.012311 639810.000000 0 0 1
-27.834111 13.131433 22.045950 37.857578 -0.440814 0.949193 0.008133 0.001377 834418.000000 0 0 1
-28.543511 12.761833 20.888350 37.602122 -0.420441 0.981820 0.017370 -0.008361 -2794.430000 0 0 1
-29.542581 11.807833 21.207050 38.235167 -0.380238 0.982857 0.045892 -0.011936 139451.000000 0 0 1
-30.506771 11.521833 20.011250 38.260500 -0.361119 1.020398 0.054207 -0.013388 -177240.000000 0 0 1
-29.855241 10.991833 18.866750 36.987972 -0.352770 1.035521 0.059932 -0.018219 268134.000000 0 0 1
-29.454121 9.630433 18.975950 36.336994 -0.316007 1.021343 0.065320 -0.020033 -75512.600000 0 0 1
-28.450691 9.255333 17.838750 34.832801 -0.314513 1.033139 0.068903 -0.019122 -165025.000000 0 0 1
-28.865291 9.133133 16.474750 34.467906 -0.306439 1.072450 0.068765 -0.014037 203800.000000 0 0 1
-29.459781 10.300533 15.861650 35.008165 -0.336361 1.100574 0.059616 -0.012500 -386855.000000 0 0 1
-28.528571 11.275433 15.160450 34.217744 -0.376390 1.111789 0.052404 -0.008426 -648056.000000 0 0 1
-28.154221 10.877133 13.876450 33.219393 -0.368676 1.139860 0.049593 -0.013938 716511.000000 0 0 1
-27.171531 11.804933 13.371550 32.503029 -0.409856 1.146813 0.023720 -0.006943 12728.500000 0 0 1
-26.826351 11.625433 11.877250 31.557454 -0.408929 1.184922 0.041421 -0.005299 -353253.000000 0 0 1
-26.223801 10.406233 11.430550 30.440678 -0.377765 1.185857 0.041880 -0.000605 709518.000000 0 0 1
-27.090001 9.274933 11.303350 30.784059 -0.329866 1.194819 0.041917 0.001100 -81887.400000 0 0 1
-26.471911 8.068333 10.485850 29.594140 -0.295844 1.208608 0.043295 -0.007249 -161761.000000 0 0 1
-26.406371 8.281233 9.076050 29.124731 -0.303893 1.253892 0.051664 -0.008208 257161.000000 0 0 1
-25.970161 7.130733 8.438750 28.222493 -0.267970 1.267143 0.063415 -0.019880 -467729.000000 0 0 1
-25.465451 7.467733 7.029650 27.453091 -0.285252 1.311852 0.072487 -0.016271 -673356.000000 0 0 1
-26.465501 7.817233 6.166350 28.276417 -0.287208 1.350956 0.073218 -0.018679 -377721.000000 0 0 1
-25.865561 8.392633 4.989950 27.647118 -0.313754 1.389315 0.086868 -0.020959 294043.000000 0 0 1
-26.869591 8.643833 3.847750 28.486768 -0.311240 1.435311 0.080968 -0.019093 -223565.000000 0 0 1
-27.443781 7.529433 3.155450 28.632330 -0.267770 1.460366 0.074136 -0.017584 178305.000000 0 0 1
-26.554071 6.532933 2.641650 27.473191 -0.241233 1.474494 0.081342 -0.021388 353099.000000 0 0 1
-25.582111 6.952833 1.462050 26.550403 -0.265375 1.515701 0.099500 -0.019992 1227950.000000 0 0 1
-24.344831 7.556533 1.914750 25.562438 -0.300967 1.495821 0.089830 -0.018961 1302160.000000 0 0 1
-23.544531 7.940533 0.805450 24.860526 -0.325277 1.538392 0.103010 -0.011279 -673173.000000 0 1 0
-22.272531 8.653733 1.204250 23.924944 -0.370587 1.520441 0.087471 -0.011588 -717391.000000 0 1 0
-22.611731 9.924133 1.737550 24.754755 -0.413579 1.500548 0.078604 -0.015011 791261.000000 0 1 0
-21.450831 10.707633 1.935950 24.052847 -0.462984 1.490222 0.090082 -0.012930 -11214.700000 0 1 0
-21.773031 12.073933 2.591850 25.031229 -0.506319 1.467066 0.084762 -0.019014 541170.000000 0 0 1
-20.540731 12.783933 2.767750 24.351818 -0.556706 1.456893 0.071002 -0.021932 1252480.000000 0 1 0
-20.837831 14.051133 3.347150 25.354545 -0.593275 1.438396 0.060353 -0.030706 -105389.000000 0 0 1
-19.624031 14.597933 4.123950 24.803411 -0.639573 1.403755 0.029627 -0.027487 55042.900000 0 1 0
-19.440931 13.800933 5.243750 24.411318 -0.617333 1.354301 0.043171 -0.027599 530088.000000 0 1 0
-18.353731 14.316933 6.015350 24.042014 -0.662461 1.317908 0.032124 -0.028747 89349.400000 0 1 0
-17.842231 13.387033 7.129850 23.417784 -0.643693 1.261422 0.011151 -0.030056 -56264.400000 0 1 0
-17.153831 12.220933 6.717550 22.107252 -0.619021 1.262053 0.027566 -0.029564 800398.000000 0 1 0
-16.338831 11.633633 7.778750 21.512967 -0.618750 1.200830 0.009851 -0.020254 394687.000000 0 1 0
10.162769 -33.628713 -14.477650 37.997033 -1.277318 1.961696 0.010323 0.006845 165059.000000 0 0 1
11.066969 -33.097313 -13.462650 37.405252 -1.248107 1.938971 0.004983 0.003244 593958.000000 0 0 1
11.518669 -31.793413 -13.827550 36.533573 -1.223208 1.958959 0.014439 -0.008415 -89476.900000 0 0 1
12.815469 -31.376213 -13.048950 36.317738 -1.183031 1.938314 0.017509 -0.009157 331994.000000 0 0 1
13.904669 -32.011413 -13.691350 37.490311 -1.161019 1.944641 0.037449 -0.009132 -701363.000000 0 0 1
15.123369 -31.527313 -13.198750 37.375055 -1.123528 1.931725 0.036386 -0.012419 472226.000000 0 0 1
16.374369 -32.289413 -13.786450 38.740061 -1.101475 1.934642 0.059359 -0.008961 659158.000000 0 0 1
16.516869 -33.669313 -13.323950 39.798960 -1.114728 1.912170 0.065932 -0.011112 -128660.000000 0 0 1
17.585669 -34.273513 -14.030350 40.997319 -1.096725 1.920081 0.065819 0.004684 262766.000000 0 0 1
17.853869 33.009533 -13.551050 39.900136 1.074990 1.917314 0.060903 0.002120 -8310.830000 0 0 1
18.341069 32.900033 -12.195750 39.592213 1.062229 1.883922 0.056578 -0.001647 -16097.400000 0 0 1
18.236069 31.593833 -11.745550 38.323393 1.047308 1.882295 0.042653 -0.003722 22200.200000 0 0 1
19.110169 31.325433 -10.504550 38.168402 1.023018 1.849611 0.035380 -0.006711 -382982.000000 0 0 1
20.312269 30.655333 -10.700650 38.299368 0.985613 1.853960 0.036496 -0.011047 -325617.000000 0 0 1
21.014569 30.637733 -9.432250 38.330799 0.969593 1.819425 0.032341 -0.007183 610936.000000 0 0 1
22.262669 29.700133 -9.405750 38.290893 0.927563 1.818976 0.027841 0.001482 197633.000000 0 0 1
23.337369 30.174433 -10.172050 39.479106 0.912477 1.831392 0.037463 -0.010480 -982470.000000 0 0 1
24.475669 29.464233 -9.866450 39.554345 0.877620 1.822899 0.028166 -0.004416 -190110.000000 0 0 1
25.745069 29.866133 -10.682750 40.852364 0.859368 1.835369 0.012731 -0.004929 550315.000000 0 0 1
26.322569 31.147833 -10.477550 42.105156 0.869163 1.822281 0.020869 -0.014381 1105310.000000 0 0 1
27.525169 31.417433 -11.243350 43.256247 0.851337 1.833740 0.019940 -0.012314 931646.000000 0 0 1
28.105269 32.806433 -11.020650 44.582765 0.862425 1.820581 0.019671 -0.019152 -775700.000000 0 0 1
27.425569 33.862633 -11.676250 45.112909 0.890044 1.832600 0.034624 -0.013738 124864.000000 0 0 1
28.047069 -33.629713 -11.418650 45.254627 -0.875667 1.825873 0.055598 -0.016087 24686.700000 0 0 1
27.064969 -32.462113 -11.631450 43.835966 -0.875818 1.839353 0.048642 -0.014478 -220022.000000 0 0 1
25.884469 -32.586813 -10.908950 43.022219 -0.899526 1.827161 0.061042 -0.017984 419195.000000 0 0 1
24.761169 -31.671713 -11.114150 41.710157 -0.907247 1.840516 0.074092 -0.019772 1221290.000000 0 0 1
24.910869 -30.139813 -10.843450 40.577581 -0.880098 1.841311 0.057366 -0.023332 -418489.000000 0 0 1
25.791769 -29.520113 -11.753450 40.924271 -0.852702 1.862099 0.045507 -0.014845 -62636.600000 0 0 1
26.131069 -28.209913 -11.249650 40.064780 -0.823635 1.855410 0.039306 -0.019634 231830.000000 0 0 1
27.043469 -27.423113 -12.255150 40.417385 -0.792368 1.878861 0.019424 -0.007912 810670.000000 0 0 1
28.328869 -27.950413 -12.577150 41.736496 -0.778674 1.876901 0.007700 -0.004310 337108.000000 0 0 1
28.270569 -28.932113 -13.606950 42.678347 -0.796963 1.895287 0.010376 -0.014034 -552392.000000 0 0 1
29.605669 -29.587313 -13.966850 44.124569 -0.785088 1.892868 0.006895 -0.012694 -165394.000000 0 0 1
30.052469 -30.527813 -13.012650 44.770831 -0.793245 1.865703 0.010912 -0.017511 -484368.000000 0 0 1
31.247469 -31.135813 -13.360050 46.090499 -0.783608 1.864883 0.011459 -0.021537 -734845.000000 0 0 1
31.651269 -32.357213 -12.563450 46.974805 -0.796427 1.841543 0.003221 -0.012013 568890.000000 0 0 1
32.856869 -32.971413 -13.064650 48.346385 -0.787138 1.844428 0.005032 -0.017079 949138.000000 0 0 1
33.626269 -33.767013 -12.154850 49.180052 -0.787487 1.820534 0.008004 -0.013411 172884.000000 0 0 1
32.974269 33.671233 -11.593550 48.533130 0.795856 1.812008 0.016937 -0.017092 -311645.000000 0 0 1
32.229969 34.029433 -10.461950 48.023178 0.812549 1.790409 0.020742 -0.019811 -546420.000000 0 0 1
31.596569 32.825933 -10.094850 46.666809 0.804479 1.788837 0.027356 -0.019988 -752900.000000 0 0 1
30.909669 33.077933 -8.753550 46.110540 0.819271 1.761794 0.022135 -0.018759 62964.900000 0 0 1
29.890469 34.085233 -8.921050 46.204203 0.850873 1.765095 0.021745 -0.014660 49917.300000 0 0 1
29.349069 -34.319413 -7.634450 45.798196 -0.863306 1.738276 0.020737 -0.017006 143716.000000 0 0 1
28.457369 -33.081413 -7.647250 44.302169 -0.860398 1.744281 0.019463 -0.016736 -376535.000000 0 0 1
29.148269 -31.862313 -7.858850 43.892939 -0.829854 1.750813 0.008056 -0.015202 102988.000000 0 0 1
28.372269 -30.747813 -8.326650 42.658490 -0.825558 1.767251 0.027533 -0.015652 862124.000000 0 0 1
27.228769 -30.125613 -7.419150 41.279561 -0.835863 1.751508 0.036493 -0.017933 876172.000000 0 0 1
26.433669 -29.130513 -8.006050 40.142527 -0.833896 1.771583 0.038802 -0.032331 960005.000000 0 0 1
25.300269 -28.776813 -7.146650 38.977983 -0.849598 1.755190 0.049792 -0.038005 752094.000000 0 0 1
24.317669 -27.815313 -7.767350 37.754104 -0.852389 1.778011 0.090544 -0.043103 -825718.000000 0 0 1
23.318469 -28.431613 -8.513250 37.743649 -0.883883 1.798308 0.098844 -0.039066 -255151.000000 0 0 1
22.429469 -27.546713 -9.123850 36.676247 -0.887436 1.822204 0.107532 -0.042609 -501865.000000 0 0 1
21.187269 -28.181613 -9.734850 36.576919 -0.926137 1.840190 0.108218 -0.035884 -561977.000000 0 0 1
21.436469 -29.035713 -10.826350 37.680296 -0.934839 1.862225 0.123914 -0.036748 303320.000000 0 0 1
20.354969 -29.919113 -11.179850 37.874360 -0.973392 1.870443 0.112065 -0.034608 529516.000000 0 0 1
20.141069 -31.127113 -10.267250 38.470459 -0.996492 1.840957 0.107492 -0.038003 501111.000000 0 0 1
21.212369 -32.076413 -10.334950 39.820498 -0.986513 1.833341 0.092291 -0.025148 375973.000000 0 0 1
20.789769 -33.369213 -9.905550 40.544282 -1.013620 1.817609 0.066851 -0.024101 -598988.000000 0 0 1
21.849969 34.355433 -10.072850 41.942571 1.004328 1.813325 0.075988 -0.013989 -665244.000000 0 0 1
22.961669 -34.218213 -9.214050 42.225858 -0.979775 1.790775 0.078472 -0.009283 -137416.000000 0 0 1
23.941369 33.555633 -9.577150 42.318926 0.951079 1.799083 0.056347 -0.009950 -381930.000000 0 0 1
25.224969 33.876033 -8.799050 43.142878 0.930744 1.776189 0.043436 -0.009998 -719736.000000 0 0 1
25.264169 33.491533 -7.448950 42.608073 0.924520 1.746524 0.033463 -0.014662 120001.000000 0 0 1
25.516169 32.141133 -7.224350 41.669156 0.899799 1.745051 0.025920 -0.009898 -384221.000000 0 0 1
25.559369 31.827333 -5.714750 41.217943 0.894190 1.709892 0.028076 -0.006790 -994001.000000 0 0 1
26.712069 32.124533 -4.986250 42.075919 0.877131 1.689582 0.021102 -0.003067 -249593.000000 0 0 1
27.488169 30.918733 -4.743150 41.642106 0.844066 1.684947 0.034397 -0.006717 -282240.000000 0 0 1
26.911869 29.891733 -3.689150 40.390274 0.837809 1.662261 0.032833 -0.012378 -385854.000000 0 0 1
26.624569 30.515433 -2.448550 40.571600 0.853387 1.631184 0.035722 -0.011456 -64422.900000 0 0 1
26.314769 29.579133 -1.406050 39.615264 0.843735 1.606296 0.021982 -0.007676 -25385.500000 0 0 1
24.933969 28.903733 -1.435950 38.199353 0.859001 1.608396 0.009816 -0.002391 -878682.000000 0 0 1
23.823269 29.731833 -1.303150 38.121231 0.895281 1.604987 0.012054 -0.006737 -601149.000000 0 0 1
22.692969 28.875133 -1.205450 36.745030 0.904712 1.603608 0.023963 -0.000564 268568.000000 0 0 1
21.433469 29.606033 -0.658950 36.556053 0.944173 1.588823 0.021786 -0.004054 250641.000000 0 0 1
21.456369 29.726033 0.771250 36.668892 0.945586 1.549762 0.028706 -0.011925 471179.000000 0 0 1
20.235269 30.234433 1.318850 36.405033 0.980987 1.534561 0.022396 -0.012066 288044.000000 0 0 1
19.607869 29.314833 2.336550 35.345260 0.981269 1.504642 0.012747 -0.025939 -418255.000000 0 0 1
18.927269 28.185133 1.817950 33.999238 0.979432 1.517300 0.023278 -0.010317 259197.000000 0 0 1
18.285569 27.485733 2.862150 33.136377 0.983758 1.484314 0.027904 -0.008640 -126796.000000 0 0 1
17.685169 26.159133 2.302150 31.660154 0.976318 1.498018 0.033847 0.003801 31663.500000 0 0 1
18.632169 25.187933 1.854050 31.385143 0.933903 1.511688 0.033295 -0.003276 136130.000000 0 0 1
19.216369 24.529933 2.949650 31.299950 0.906269 1.476418 0.028705 -0.000788 -140913.000000 0 0 1
20.468569 23.740233 2.463050 31.442449 0.859268 1.492381 0.028537 0.003598 -133731.000000 0 0 1
20.202569 22.587333 1.686650 30.350885 0.841073 1.515196 0.030983 0.005124 134821.000000 0 0 1
21.395469 22.039133 1.141250 30.737468 0.800216 1.533659 0.009764 0.000937 25803.400000 0 0 1
21.240169 20.950133 0.039450 29.833780 0.778524 1.569474 0.039285 -0.008877 -440508.000000 0 0 1
20.946169 21.457833 -1.245050 30.012177 0.797464 1.612293 0.017060 -0.004068 385606.000000 0 0 1
21.134769 20.599133 -2.353750 29.606467 0.772564 1.650382 0.056607 -0.012863 -818.317000 0 0 1
20.841969 21.369833 -3.702150 30.079284 0.797903 1.694189 0.042852 -0.011253 -473047.000000 0 0 1
21.870369 22.257733 -4.035550 31.464351 0.794176 1.699408 0.035653 -0.006946 115977.000000 0 0 1
21.618669 23.043133 -5.183850 32.019137 0.817282 1.733411 0.029742 -0.002719 229544.000000 0 0 1
22.742369 24.139933 -5.446050 33.609689 0.815199 1.733552 0.013672 0.007304 383505.000000 0 0 1
22.794769 25.355533 -4.681150 34.415370 0.838531 1.707238 0.014945 0.007353 36660.000000 0 0 1
23.256769 25.260833 -3.347750 34.499194 0.826681 1.667988 0.025811 -0.002094 -353412.000000 0 0 1
22.155069 24.907533 -2.332950 33.416687 0.843817 1.640667 0.015284 -0.005508 -1357700.000000 0 0 1
21.198469 25.943833 -2.210550 33.575945 0.885721 1.636681 0.023229 -0.005170 1666460.000000 0 0 1
20.041269 25.600933 -1.349450 32.540456 0.906611 1.612278 0.031090 0.008526 1229780.000000 0 0 1
19.157169 24.423933 -1.871450 31.097073 0.905665 1.631014 0.048888 -0.004291 -1085250.000000 0 0 1
18.385969 24.805633 -3.019150 31.023838 0.932950 1.668268 0.041126 -0.008237 387967.000000 0 0 1
17.876569 23.693933 -3.751850 29.917396 0.924435 1.696534 0.056929 -0.015905 -201677.000000 0 0 1
17.199169 24.076433 -5.046250 30.015840 0.950500 1.739718 0.058461 -0.012021 -232376.000000 0 0 1
16.758769 22.983433 -5.824550 29.034805 0.940762 1.772773 0.059725 -0.018737 353314.000000 0 0 1
16.162469 23.361233 -7.091450 29.279024 0.965561 1.815432 0.060308 -0.014188 -186936.000000 0 0 1
15.323269 22.300533 -7.765950 28.150068 0.968763 1.850298 0.074732 -0.024801 -877603.000000 0 0 1
15.964369 21.176733 -8.280350 27.782716 0.924827 1.873435 0.049473 -0.015705 273617.000000 0 0 1
15.058769 20.250233 -8.927750 26.768324 0.931382 1.910830 0.048950 -0.010318 -43082.700000 0 0 1
15.713469 18.946533 -9.302250 26.313800 0.878408 1.932119 0.032074 -0.006897 408739.000000 0 0 1
16.789669 19.171933 -10.246350 27.467138 0.851546 1.953080 0.044300 -0.003445 719345.000000 0 0 1
17.620269 18.025033 -10.317550 27.236511 0.796753 1.959310 0.033949 -0.005827 837481.000000 0 0 1
19.081969 18.340433 -10.818650 28.592590 0.765585 1.958834 0.023499 -0.009998 770886.000000 0 0 1
19.165869 18.723433 -12.196650 29.439017 0.773722 1.997972 0.023774 -0.006265 493123.000000 0 0 1
20.554469 18.887133 -12.472650 30.574123 0.743150 1.991002 0.023689 -0.007532 428709.000000 0 0 1
20.910569 19.207833 -13.931150 31.627040 0.742981 2.026932 0.020669 -0.008844 -149724.000000 0 0 1
20.801769 18.060633 -14.757150 31.251776 0.714980 2.062583 0.021875 -0.004493 225117.000000 0 0 1
21.087469 18.513933 -16.077250 32.340764 0.720503 2.091073 0.017740 -0.008864 39326.300000 0 0 1
21.034769 17.274633 -17.003050 32.093273 0.687560 2.129162 0.016263 -0.010533 -337840.000000 0 0 1
22.085669 16.339733 -16.800450 32.202776 0.636963 2.119648 0.021195 -0.008190 145932.000000 0 0 1
22.361069 15.505633 -17.970050 32.609274 0.606297 2.154444 0.024075 -0.016841 -470157.000000 0 0 1
23.232669 16.105333 -19.085350 34.108492 0.606161 2.164637 0.030200 -0.014054 -1369880.000000 0 0 1
24.514969 16.326033 -18.630350 34.851298 0.587514 2.134792 0.040534 -0.012069 -631960.000000 0 0 1
25.390869 16.683733 -19.678350 36.197799 0.581334 2.145557 0.052114 -0.010025 605350.000000 0 0 1
26.865869 17.079133 -19.376750 37.268353 0.566270 2.117560 0.050905 -0.008785 553074.000000 0 0 1
26.887569 18.294433 -18.701550 37.515005 0.597453 2.092674 0.045871 -0.007384 -329886.000000 0 0 1
28.147469 18.619033 -18.190050 38.338314 0.584404 2.065148 0.045324 -0.015359 -396012.000000 0 0 1
28.077369 19.691833 -17.078450 38.311622 0.611626 2.032839 0.040973 -0.016173 -214915.000000 0 0 1
27.406669 19.183833 -15.962950 37.066976 0.610706 2.016011 0.035708 -0.018004 -311891.000000 0 0 1
26.207269 19.891233 -15.818350 36.506195 0.649234 2.018954 0.038285 -0.012503 -802893.000000 0 0 1
25.201469 19.384533 -14.817750 35.077626 0.655665 2.006918 0.037586 -0.016920 -446974.000000 0 0 1
25.598069 19.594233 -13.467850 34.936773 0.653321 1.966537 0.039432 -0.016880 587790.000000 0 0 1
24.542869 19.367433 -12.533650 33.682967 0.668076 1.952074 0.043112 -0.019777 123319.000000 0 0 1
25.017669 19.740833 -11.157250 33.764900 0.668044 1.907565 0.051965 -0.019907 -87397.800000 0 0 1
24.923869 21.153933 -11.025950 34.500141 0.703763 1.896095 0.040979 -0.014884 -121292.000000 0 0 1
25.480169 21.783633 -9.916950 34.958712 0.707346 1.858422 0.035217 -0.013130 -131915.000000 0 0 1
24.748869 21.574533 -8.574450 33.933585 0.716980 1.826249 0.044433 -0.011233 -591124.000000 0 0 1
24.860269 20.283533 -8.076550 33.086029 0.684362 1.817396 0.058593 -0.020219 42606.900000 0 0 1
24.180369 20.009933 -6.864750 32.128063 0.691302 1.786125 0.052554 -0.016974 -693896.000000 0 0 1
22.707969 19.700233 -7.075450 30.883864 0.714593 1.801948 0.055267 -0.018304 -870087.000000 0 0 1
21.945369 20.820133 -7.460650 31.156676 0.759092 1.812602 0.043670 -0.012388 302167.000000 0 0 1
20.611269 20.508633 -7.864850 30.121160 0.782902 1.834965 0.032890 -0.015315 519878.000000 0 0 1
19.806869 21.816033 -8.158950 30.574823 0.833631 1.840921 0.033576 -0.014696 -356299.000000 0 0 1
20.253669 22.533533 -9.321450 31.699537 0.838632 1.869264 0.035747 -0.013076 231790.000000 0 0 1
19.593469 22.330633 -10.578850 31.535270 0.850594 1.912891 0.034904 -0.010324 -159840.000000 0 0 1
18.162369 22.859933 -10.717450 31.101639 0.899414 1.922603 0.036244 -0.013214 -327541.000000 0 0 1
18.173669 24.261733 -10.561550 32.100783 0.927892 1.906054 0.038042 -0.021336 381976.000000 0 0 1
16.844269 24.757333 -10.657050 31.784079 0.973363 1.912715 0.050791 -0.019764 398205.000000 0 0 1
16.555469 26.007533 -9.827550 32.358246 1.003924 1.879381 0.045662 -0.019363 -58287.800000 0 0 1
17.288569 27.109033 -10.327950 33.770710 1.003087 1.881602 0.091422 -0.004263 68571.600000 0 0 1
16.962869 28.292433 -9.653850 34.371464 1.030704 1.855495 0.086526 -0.020910 146903.000000 0 0 1
19.636669 29.097233 33.792271 48.725407 0.977140 0.804426 -0.004639 0.011343 -359419.000000 0 0 1
18.316769 29.548533 33.856780 48.527326 1.015882 0.798636 0.009300 -0.002350 -874970.000000 0 0 1
17.448469 28.459533 34.017360 47.661042 1.020802 0.775980 0.015747 -0.002504 -522208.000000 0 0 1
16.008269 28.963933 33.890937 47.368446 1.065885 0.773493 0.038582 -0.015064 -430265.000000 0 0 1
15.627169 29.126033 32.515109 46.365575 1.078349 0.793609 0.044611 -0.019708 455167.000000 0 0 1
14.324769 29.711533 32.390209 46.228777 1.121548 0.794488 0.046913 -0.018835 186133.000000 0 0 1
13.668369 29.706733 30.953659 45.027140 1.139567 0.812832 0.039101 -0.026240 -15444.400000 0 0 1
13.249369 28.391033 30.636809 43.820208 1.134163 0.796591 0.032937 -0.028371 -203420.000000 0 0 1
11.946169 28.100033 31.063029 43.557257 1.168816 0.776809 0.035899 -0.018834 -763315.000000 0 0 1
11.529969 26.631833 30.990649 42.457214 1.162220 0.752582 0.020753 -0.020407 -39641.100000 0 0 1
11.687869 25.975733 29.729779 41.172864 1.147981 0.764003 0.019164 -0.020671 920014.000000 0 0 1
13.037269 25.638633 29.366419 41.105918 1.100371 0.775018 0.019587 -0.023396 654744.000000 0 0 1
13.061969 24.940733 28.013349 39.716532 1.088353 0.787905 0.036977 -0.029870 -396593.000000 0 0 1
12.595969 25.737333 26.952549 39.338387 1.115661 0.815992 0.027399 -0.026937 131630.000000 0 0 1
12.574269 25.095333 25.684269 38.046940 1.106301 0.829740 0.036255 -0.031658 -429215.000000 0 0 1
11.709969 23.866733 25.555699 36.875982 1.114665 0.805130 0.034975 -0.024411 -1419790.000000 0 0 1
11.775269 23.256433 24.294249 35.633260 1.102103 0.820595 0.046156 -0.033273 -174458.000000 0 0 1
10.820469 22.254233 24.039799 34.499933 1.118233 0.799860 0.049691 -0.031436 -169556.000000 0 0 1
10.897369 21.663233 22.602949 33.150289 1.104724 0.820531 0.062017 -0.029073 -295552.000000 0 0 1
10.639169 22.723733 21.689449 33.166130 1.132914 0.857984 0.056216 -0.037905 -26772.500000 0 0 1
10.758069 22.307933 20.361049 32.061694 1.121447 0.882712 0.056638 -0.023817 -627784.000000 0 0 1
10.463869 23.472633 19.391949 32.194794 1.151449 0.924377 0.047513 -0.025367 -734219.000000 0 0 1
9.205369 23.947833 19.103649 31.987293 1.203817 0.930758 0.048071 -0.026633 -811758.000000 0 0 1
8.429169 24.478433 20.180749 32.825405 1.239163 0.908676 0.040157 -0.024264 1070740.000000 0 0 1
7.073869 25.205533 19.771149 32.806354 1.297187 0.923963 0.047030 -0.020584 1125110.000000 0 0 1
7.321069 26.322733 18.973149 33.263564 1.299525 0.963818 0.048197 -0.024392 -172922.000000 0 0 1
6.103969 26.971933 18.709449 33.388428 1.348237 0.975979 0.048265 -0.024604 -184809.000000 0 0 1
6.289069 28.011833 17.559049 33.653163 1.349944 1.021878 0.062140 -0.020083 208881.000000 0 0 1
6.351469 27.392033 16.306949 32.505095 1.342950 1.045264 0.050860 -0.018849 -289148.000000 0 0 1
7.087169 28.294133 15.550349 33.054490 1.325364 1.081000 0.049174 -0.012996 -156590.000000 0 0 1
7.438469 27.747433 14.143949 32.020340 1.308877 1.113284 0.039487 -0.011238 429020.000000 0 0 1
6.332669 27.780133 13.248349 31.422241 1.346669 1.135562 0.034963 -0.013609 223230.000000 0 0 1
6.444169 26.672733 12.307349 30.073790 1.333738 1.149177 0.015954 -0.016153 320589.000000 0 0 1
5.673269 26.841133 10.931049 29.531682 1.362497 1.191630 0.016609 -0.016405 -313330.000000 0 0 1
6.304069 27.582333 9.978749 30.001697 1.346101 1.231731 0.014947 -0.013165 -244040.000000 0 0 1
6.426669 28.964533 10.195349 31.371825 1.352453 1.239801 0.018643 -0.012127 35920.900000 0 0 1
7.033369 29.700733 8.949049 31.807032 1.338272 1.285591 0.019299 -0.005947 371804.000000 0 0 1
6.124769 29.661633 7.794949 31.274375 1.367170 1.318897 0.018992 -0.020285 742639.000000 0 0 1
6.115569 28.486233 6.988749 29.961780 1.359321 1.335372 0.012234 -0.008071 -8139.230000 0 0 1
4.652369 28.066933 6.764249 29.242988 1.406530 1.337370 0.006772 -0.011905 318575.000000 0 0 1
3.891669 28.962833 5.930449 29.818803 1.437229 1.370578 0.011166 -0.012272 -463802.000000 0 0 1
2.515769 28.773133 6.070549 29.513960 1.483583 1.363634 0.040045 -0.027302 -366205.000000 0 0 1
1.821369 29.887633 5.237949 30.397765 1.509931 1.397618 0.062525 -0.029689 -487847.000000 0 0 1
2.228669 29.955633 3.859249 30.285322 1.496534 1.443019 0.048643 -0.030133 254666.000000 0 0 1
1.386269 30.711233 2.994349 30.887986 1.525688 1.473702 0.045848 -0.032397 487732.000000 0 0 1
-0.040731 30.169733 2.718249 30.291968 -1.569446 1.480940 0.065133 -0.029387 42126.900000 0 0 1
-0.027231 29.370333 1.581549 29.412897 -1.569869 1.517000 0.055314 -0.022789 -662013.000000 0 0 1
-1.084131 28.482533 1.608849 28.548528 -1.532752 1.514412 0.049995 -0.018446 -388861.000000 0 0 1
-1.668831 28.095133 0.228249 28.145579 -1.511467 1.562687 0.041906 -0.011359 -197841.000000 0 0 1
-2.408931 29.040633 -0.461851 29.144032 -1.488035 1.586644 0.041872 -0.015595 -286161.000000 0 0 1
-1.691231 29.719233 -1.458851 29.803042 -1.513951 1.619766 0.039025 -0.016580 -150466.000000 0 0 1
-2.546731 30.840133 -2.101651 31.016392 -1.488405 1.638608 0.037219 -0.014392 -149033.000000 0 0 1
-3.687031 30.554833 -2.836051 30.906880 -1.450708 1.662687 0.019838 -0.010501 -386958.000000 0 0 1
-3.423731 29.974033 -4.050851 30.439678 -1.457066 1.704270 0.010802 -0.003642 -91965.700000 0 0 1
-4.710831 29.463433 -4.751651 30.213639 -1.412251 1.728720 0.010507 -0.000903 57459.700000 0 0 1
-5.416231 30.481833 -5.358751 31.419642 -1.394945 1.742188 0.007664 -0.002227 -242478.000000 0 0 1
-6.534031 29.961333 -6.054551 31.257521 -1.356076 1.765727 0.009510 -0.005431 66476.500000 0 0 1
-7.225531 30.878633 -7.093551 32.496411 -1.340934 1.790855 0.019523 -0.001845 48702.100000 0 0 1
-7.965331 31.938733 -6.480951 33.548948 -1.326388 1.765197 0.013003 0.003189 101906.000000 0 0 1
-8.362431 32.902133 -7.411451 34.747809 -1.321906 1.785740 0.018054 -0.004874 -502818.000000 0 0 1
-9.353331 33.886433 -6.835051 35.811912 -1.301482 1.762834 0.021382 -0.004123 1300240.000000 0 0 1
-10.706531 33.400933 -6.536651 35.678844 -1.260598 1.755045 0.030197 -0.008261 998351.000000 0 0 1
-11.427531 -34.267413 -6.022751 36.621272 1.248913 1.736007 0.034414 -0.004307 672602.000000 0 0 1
-12.978631 34.256133 -6.123651 37.140633 -1.208637 1.736430 0.054683 -0.008331 769862.000000 0 0 1
-13.417431 34.231233 -7.442951 37.512695 -1.197236 1.770533 0.067598 -0.013864 979961.000000 0 0 1
-14.840531 33.984333 -7.536851 37.841517 -1.159068 1.771306 0.079745 -0.022451 534751.000000 0 0 1
-15.289831 33.936933 -9.016851 38.298798 -1.147496 1.808462 0.092282 -0.022274 314923.000000 0 0 1
-16.660531 33.671433 -9.251451 38.690154 -1.111320 1.812252 0.107663 -0.025782 609399.000000 0 0 1
-17.570231 -33.998113 -8.962651 39.305392 1.093799 1.800846 0.111821 -0.023368 -909298.000000 0 0 1
-19.032731 -34.273513 -9.348051 40.302662 1.063879 1.804874 0.100217 -0.025069 73549.600000 0 0 1
-19.868931 33.591833 -8.630251 39.970826 -1.036664 1.788424 0.083465 -0.021228 316607.000000 0 0 1
-19.983331 33.959433 -7.267151 40.067295 -1.038915 1.753179 0.059282 -0.001485 -743617.000000 0 0 1
-20.553631 32.886533 -6.289151 39.287774 -1.012207 1.731567 0.052644 -0.009540 -455407.000000 0 0 1
-20.301931 33.134933 -4.921451 39.170306 -1.021087 1.696772 0.060457 -0.016383 288354.000000 0 0 1
-21.445231 33.039733 -4.078851 39.599986 -0.995072 1.673981 0.048469 -0.016308 624873.000000 0 0 1
-22.569131 34.134433 -4.123051 41.128150 -0.986599 1.671214 0.041410 -0.004755 105356.000000 0 0 1
-23.413931 34.015533 -5.226851 41.624375 -0.967945 1.696701 0.030497 -0.009505 -235173.000000 0 0 1
-24.130531 -33.573913 -5.474051 41.706779 0.947611 1.702427 0.027778 -0.003595 -301717.000000 0 0 1
-24.591331 -33.518613 -6.935451 42.146547 0.937834 1.736104 0.053972 0.006908 -465992.000000 0 0 1
-23.583731 -33.148213 -7.854251 41.432905 0.952418 1.761516 0.079768 0.001847 -101335.000000 0 0 1
-23.834631 -33.186713 -9.261451 41.895370 0.947961 1.793699 0.039493 0.002324 -212021.000000 0 0 1
-24.901731 -32.199513 -9.774551 41.862235 0.912513 1.806465 0.040223 0.003281 -581103.000000 0 0 1
-26.223861 -32.553413 -9.454651 42.857975 0.892672 1.793230 0.043993 0.008270 185920.000000 0 0 1
-27.268071 -31.831413 -10.132551 43.121400 0.862460 1.807992 -0.003838 0.014085 593105.000000 0 0 1
-27.350971 -30.297913 -9.853551 41.989661 0.836473 1.807671 -0.001768 0.020929 -341379.000000 0 0 1
-26.370961 -29.457413 -10.487751 40.904275 0.840627 1.830090 0.020030 0.026358 375365.000000 0 0 1
-26.553981 -29.416113 -11.895051 41.375281 0.836490 1.862403 0.016541 0.021714 -634495.000000 0 0 1
-25.500851 -28.643013 -12.656851 40.384545 0.843367 1.889576 0.030114 0.013347 81755.100000 0 0 1
-24.289131 -29.418313 -12.700951 40.208372 0.880612 1.892178 0.039884 0.005199 798644.000000 0 0 1
-23.243831 -28.790713 -13.465551 39.376413 0.891597 1.919809 0.052404 0.001444 337274.000000 0 0 1
-22.030131 -29.751113 -13.489151 39.400667 0.933415 1.920222 0.068069 -0.014848 -352430.000000 0 0 1
-22.190931 -30.944213 -14.228351 40.650064 0.948668 1.928389 0.068116 -0.013115 33864.100000 0 0 1
-22.685031 -32.038813 -13.516951 41.518720 0.954689 1.902403 0.057672 -0.007577 -93176.800000 0 0 1
-23.013131 -33.276613 -14.447551 42.961249 0.965750 1.913774 0.042745 -0.013004 60135.200000 0 0 1
-23.648531 -34.270213 -13.663451 43.822259 0.966772 1.887875 0.032655 -0.022864 -35759.900000 0 0 1
-23.909231 33.366533 -14.472451 43.525035 -0.949040 1.909759 0.039277 -0.029601 -100663.000000 0 0 1
-24.277031 32.126533 -13.632351 42.512696 -0.923677 1.897228 0.019592 -0.024922 -542548.000000 0 0 1
-23.356031 31.661833 -12.656951 41.330065 -0.935232 1.882038 0.022463 -0.024427 -637.063000 0 0 1
-23.190431 32.469533 -11.509951 41.527649 -0.950590 1.851637 0.039625 -0.023463 -106893.000000 0 0 1
-22.314031 32.004933 -10.330351 40.360226 -0.961948 1.829631 0.035798 -0.015879 -148495.000000 0 0 1
-22.786631 30.861833 -9.683651 39.565849 -0.934797 1.818056 0.018180 -0.015373 180638.000000 0 0 1
-21.925631 30.498233 -8.650051 38.544765 -0.947488 1.797140 0.020946 -0.005901 -268636.000000 0 0 1
-22.662731 29.457933 -7.786251 37.973608 -0.915041 1.777305 0.021162 -0.011680 172933.000000 0 0 1
-22.867731 28.211533 -8.506151 37.298503 -0.889637 1.800877 0.028885 -0.003458 -39531.600000 0 0 1
-23.501631 27.229633 -7.727051 36.789766 -0.858752 1.782405 0.047566 -0.012681 -191916.000000 0 0 1
-22.702031 26.473233 -6.606651 35.494536 -0.861937 1.758020 0.060375 -0.010263 -118560.000000 0 0 1
-22.517531 27.304833 -5.520651 35.819976 -0.881191 1.725535 0.054196 -0.005318 -106737.000000 0 0 1
-21.676831 26.719133 -4.565351 34.707917 -0.889212 1.702715 0.044455 -0.005044 182505.000000 0 0 1
-20.301231 27.466633 -4.512551 34.451691 -0.934293 1.702156 0.039038 -0.013860 -137533.000000 0 0 1
-19.502531 27.425433 -5.618851 34.118537 -0.952652 1.736236 0.039878 -0.003030 -1055700.000000 0 0 1
-18.495831 28.349633 -5.576151 34.305844 -0.992723 1.734063 0.034057 0.002370 -692317.000000 0 0 1
-17.573231 28.372233 -6.818151 34.063019 -1.016248 1.772320 0.038434 0.003962 -77259.500000 0 0 1
-18.089831 28.863333 -8.090651 35.011321 -1.010946 1.803991 0.057828 0.005511 270114.000000 0 0 1
-18.011731 30.290133 -8.204551 36.183273 -1.034327 1.799536 0.070142 -0.007065 -169890.000000 0 0 1
-18.136631 30.836233 -9.734251 37.075144 -1.039128 1.836465 0.072592 -0.011694 348017.000000 0 0 1
-16.983931 30.512233 -10.530351 36.473807 -1.062879 1.863675 0.070998 -0.008039 624748.000000 0 0 1
-16.940331 31.256933 -11.706351 37.430059 -1.074139 1.888886 0.070115 -0.017231 183081.000000 0 0 1
-15.495831 31.131133 -12.259751 36.872343 -1.108942 1.909741 0.082720 -0.017389 420624.000000 0 0 1
-15.172731 31.868033 -13.441251 37.768380 -1.126442 1.934659 0.088185 -0.020673 -110270.000000 0 0 1
-15.475831 31.198533 -14.653851 37.783398 -1.110319 1.969082 0.080743 -0.022650 -86532.400000 0 0 1
-15.084831 31.961333 -15.909551 38.758131 -1.129822 1.993780 0.110174 -0.026016 481928.000000 0 0 1
-13.685231 31.892133 -16.180951 38.291211 -1.165450 2.007082 0.105552 -0.034321 372753.000000 0 0 1
-13.388231 32.246833 -17.517051 39.063411 -1.177273 2.035800 0.081982 -0.038838 113090.000000 0 0 1
-11.847031 32.223933 -17.754451 38.651708 -1.218488 2.048053 0.093452 -0.038135 167097.000000 0 0 1
-11.310731 30.927633 -17.936551 37.498946 -1.220190 2.069539 0.099189 -0.048718 52268.200000 0 0 1
-9.938431 30.851633 -18.250151 37.197630 -1.259157 2.083605 0.084410 -0.044188 150539.000000 0 0 1
-9.642331 30.997833 -19.702451 37.974028 -1.269220 2.116290 0.079696 -0.049826 -434514.000000 0 0 1
-10.346331 30.009833 -20.418251 37.743100 -1.238793 2.142398 0.080598 -0.048558 167630.000000 0 0 1
-10.019731 30.086933 -21.778451 38.469721 -1.249322 2.172587 0.069625 -0.051903 -981960.000000 0 0 1
-11.133331 29.545133 -22.706951 38.890507 -1.210427 2.194282 0.082643 -0.044141 1056420.000000 0 0 1
-12.273031 30.409233 -22.946751 40.023769 -1.187194 2.181358 0.089493 -0.043326 549581.000000 0 0 1
-13.168831 30.454533 -21.878751 39.743885 -1.162666 2.153752 0.095022 -0.046766 -1085590.000000 0 0 1
-14.069131 31.707333 -21.946551 41.048100 -1.153178 2.134895 0.122321 -0.052245 239358.000000 0 0 1
-15.003531 31.573733 -23.026451 41.859575 -1.127193 2.153266 0.098499 -0.046651 -176071.000000 0 0 1
-15.527131 32.838233 -23.260751 43.133559 -1.129114 2.140370 0.082980 -0.033926 -17759.300000 0 0 1
-15.846931 33.074433 -24.749951 44.244812 -1.123984 2.164442 0.062407 -0.020500 -36312.600000 0 0 1
-14.699831 33.207233 -25.557251 44.406964 -1.154055 2.184040 0.079696 -0.020134 -215271.000000 0 0 1
-14.923531 33.449133 -26.915751 45.453426 -1.151144 2.204534 0.080741 -0.013131 -102876.000000 0 0 1
-15.384631 -33.907013 -27.346951 46.197707 1.144845 2.204278 0.059004 -0.008290 -194902.000000 0 0 1
-16.681431 -33.506913 -27.006051 46.155283 1.108870 2.195816 0.059593 -0.004543 -434365.000000 0 0 1
-17.109631 -32.579413 -27.954551 46.212710 1.087218 2.220450 0.046971 -0.001884 554999.000000 0 0 1
-18.585131 -32.121413 -27.741851 46.333601 1.046268 2.212725 0.045057 -0.006761 824465.000000 0 0 1
-19.647831 -33.020213 -27.999851 47.543279 1.034043 2.200535 0.034612 -0.004352 803723.000000 0 0 1
-20.934231 -32.498613 -27.568951 47.481037 0.998539 2.190300 0.031606 -0.009670 889128.000000 0 0 1
-22.013031 -33.548813 -27.752951 48.788550 0.990110 2.175893 0.017357 0.001708 -442709.000000 0 0 1
-21.901631 34.029233 -26.963251 48.628048 -0.998925 2.158534 0.038872 -0.004437 -228444.000000 0 0 1
-23.036631 33.204633 -27.201651 48.715129 -0.964259 2.163230 0.017231 -0.001143 176431.000000 0 0 1
-22.861131 31.687733 -27.152651 47.581616 -0.945819 2.178099 0.023241 0.003282 -176535.000000 0 0 1
-22.555531 31.199033 -25.858151 46.376455 -0.944829 2.162253 0.023885 -0.002392 -203273.000000 0 0 1
-22.801231 29.831033 -25.769651 45.539670 -0.918177 2.172288 0.007486 -0.006245 -159007.000000 0 0 1
30.349280 10.092033 -26.762860 41.703460 0.321027 2.267564 0.028436 -0.013120 -123395.000000 0 0 1
30.237730 8.688733 -26.758700 41.301845 0.279809 2.275596 0.010695 -0.006878 909162.000000 0 0 1
28.881510 8.289733 -26.453020 40.032781 0.279512 2.292659 0.022896 -0.012452 961453.000000 0 0 1
28.731630 6.844833 -25.993030 39.344579 0.233874 2.292482 0.005900 -0.004547 65182.900000 0 0 1
29.225820 6.633633 -24.682050 38.824698 0.223197 2.259751 0.003898 0.005864 269376.000000 0 0 1
28.768820 5.367433 -24.236750 37.998347 0.184451 2.262483 0.014177 0.007112 55888.000000 0 0 1
28.940260 5.143733 -22.717250 37.149294 0.175899 2.228767 0.010437 0.010230 437881.000000 0 0 1
30.256080 4.843233 -22.263750 37.875610 0.158728 2.199148 0.010117 0.006693 642807.000000 0 0 1
30.088550 4.694033 -20.859250 36.911557 0.154760 2.171368 -0.000364 -0.000192 190301.000000 0 0 1
31.401100 4.216533 -20.189150 37.568737 0.133481 2.138138 0.003928 -0.001763 66926.100000 0 0 1
31.907490 2.935833 -20.483050 38.029756 0.091752 2.139578 0.019429 -0.002907 225992.000000 0 0 1
32.941480 2.573833 -19.602550 38.419079 0.077975 2.106248 0.024409 -0.009895 -307203.000000 0 0 1
33.122920 1.016233 -19.617050 38.509599 0.030671 2.105292 0.036926 -0.010177 419782.000000 0 0 1
32.086570 0.301033 -18.928550 37.254913 0.009382 2.103753 0.034288 -0.015394 379217.000000 0 0 1
32.415080 -1.011667 -19.108350 37.641598 -0.031200 2.103239 0.039807 -0.014286 -249828.000000 0 0 1
31.408950 -1.959467 -18.495550 36.502698 -0.062305 2.102137 0.030765 -0.009428 -274266.000000 0 0 1
31.421440 -2.066567 -17.066950 35.817012 -0.065675 2.067470 0.034906 -0.017098 -19631.200000 0 0 1
30.102790 -1.878267 -16.610650 34.432826 -0.062314 2.074197 0.025901 -0.020146 -347860.000000 0 0 1
29.903570 -2.078567 -15.093250 33.561140 -0.069397 2.037253 0.028094 -0.024481 -298473.000000 0 0 1
30.005780 -3.420367 -14.620650 33.553079 -0.113500 2.021664 0.027584 -0.020576 600306.000000 0 0 1
28.987670 -3.634667 -13.651050 32.246658 -0.124736 2.007917 0.028689 -0.020489 -54455.000000 0 0 1
28.889220 -5.138967 -13.199950 32.175063 -0.176044 1.993529 0.025672 -0.018132 -191780.000000 0 0 1
28.219640 -5.903167 -14.161750 32.120875 -0.206213 2.027386 0.008649 -0.016799 259105.000000 0 0 1
27.854310 -7.176067 -13.751450 31.881984 -0.252146 2.016756 0.014000 -0.018951 -381381.000000 0 0 1
27.337400 -8.014167 -14.913950 32.155656 -0.285168 2.053081 0.012985 -0.017068 1295490.000000 0 0 1
25.965260 -7.743367 -15.342850 31.137718 -0.289823 2.086034 0.038570 -0.023538 1506390.000000 0 0 1
25.663660 -8.634867 -16.386150 31.649491 -0.324564 2.115001 0.039319 -0.016669 369412.000000 0 0 1
24.224560 -8.495067 -16.984850 30.781172 -0.337280 2.155310 0.029556 -0.017025 355806.000000 0 0 1
24.126060 -7.182067 -17.566550 30.695806 -0.289335 2.180078 0.029017 -0.019737 738073.000000 0 0 1
22.795160 -6.962067 -18.066650 29.908084 -0.296421 2.219398 0.073615 -0.030239 856094.000000 0 0 1
22.436560 -7.473567 -19.438150 30.612009 -0.321538 2.258785 0.057884 -0.022305 -337494.000000 0 0 1
22.999360 -6.616967 -20.398850 31.446270 -0.280137 2.276657 0.049024 -0.022339 185774.000000 0 0 1
22.817560 -7.088667 -21.684150 32.265966 -0.301214 2.307762 0.065358 -0.022917 -135216.000000 0 0 1
23.692360 -6.273567 -22.643850 33.368091 -0.258852 2.316662 0.064604 -0.026721 -164968.000000 0 0 1
23.448860 -6.627767 -24.021350 34.216978 -0.275462 2.349041 0.076915 -0.029699 112787.000000 0 0 1
23.758060 -5.525367 -24.882050 34.843816 -0.228506 2.366137 0.064450 -0.026884 -267433.000000 0 0 1
23.382260 -5.887767 -26.325670 35.699254 -0.246677 2.400052 0.068146 -0.025139 94469.500000 0 0 1
22.017360 -6.115867 -26.621150 35.083523 -0.270944 2.432255 0.083417 -0.029528 -20400.300000 0 0 1
21.741660 -6.144167 -27.982550 35.964895 -0.275417 2.462355 0.064176 -0.028419 406815.000000 0 0 1
20.461160 -6.938667 -28.366750 35.657771 -0.326944 2.490675 0.066505 -0.032283 385245.000000 0 0 1
20.629160 -8.311067 -28.276530 35.974966 -0.382986 2.475118 0.069752 -0.025299 57349.500000 0 0 1
19.501160 -8.985067 -28.775120 35.903122 -0.431754 2.500538 0.061065 -0.023215 -119034.000000 0 0 1
19.568060 -10.486567 -28.539120 36.157412 -0.491955 2.480468 0.073083 -0.017544 170332.000000 0 0 1
18.551560 -10.851467 -27.600440 34.981409 -0.529269 2.479981 0.082836 -0.014982 512450.000000 0 0 1
18.676360 -12.172567 -27.031220 35.038046 -0.577614 2.451963 0.081606 -0.015401 -217694.000000 0 0 1
18.725760 -13.383967 -28.084470 36.311460 -0.620547 2.455035 0.061355 -0.004585 -142020.000000 0 0 1
17.478860 -13.608867 -28.695070 36.250777 -0.661549 2.484172 0.058914 -0.005255 194349.000000 0 0 1
17.594360 -14.705167 -29.601870 37.444280 -0.696186 2.482516 0.038903 -0.004542 65475.400000 0 0 1
16.357560 -14.905867 -30.501150 37.683880 -0.738997 2.513918 0.034636 -0.007072 -356876.000000 0 0 1
15.220160 -15.491667 -29.988090 37.026079 -0.794238 2.514809 0.033429 -0.014833 -648965.000000 0 0 1
14.308260 -15.928767 -30.936340 37.623251 -0.838940 2.536179 0.031419 -0.018153 -394555.000000 0 0 1
13.160060 -16.738267 -30.317070 37.047017 -0.904511 2.529314 0.044253 -0.023896 -150307.000000 0 0 1
13.569160 -17.988567 -29.817610 37.373794 -0.924535 2.494469 0.045032 -0.023434 -602165.000000 0 0 1
12.635160 -18.423967 -28.919900 36.543815 -0.969664 2.483853 0.049867 -0.025355 -794148.000000 0 0 1
12.852060 -19.688267 -28.105560 36.643223 -0.992471 2.444958 0.064895 -0.029759 -452134.000000 0 0 1
13.890460 -19.513067 -27.184520 36.231240 -0.952159 2.419321 0.067371 -0.027592 -206558.000000 0 0 1
14.032160 -20.662067 -26.415510 36.353840 -0.974217 2.384189 0.068861 -0.025231 272414.000000 0 0 1
15.142160 -20.525467 -25.303520 35.928372 -0.935197 2.352200 0.062749 -0.019058 388169.000000 0 0 1
16.433560 -20.778567 -25.829070 36.999346 -0.901635 2.343530 0.052514 -0.014871 -160328.000000 0 0 1
17.344160 -20.752367 -24.787650 36.686622 -0.874623 2.312655 0.045798 -0.008811 -279448.000000 0 0 1
18.776560 -21.291567 -25.071050 37.874101 -0.848084 2.294224 0.026409 0.006109 110774.000000 0 0 1
19.000360 -22.670167 -25.150920 38.826781 -0.873239 2.275453 0.016122 0.003728 255930.000000 0 0 1
18.623560 -23.460367 -24.046150 38.411497 -0.899828 2.247228 0.013247 -0.007591 -638483.000000 0 0 1
19.105560 -24.945367 -24.154850 39.632695 -0.917199 2.226185 0.002933 -0.003546 -22557.100000 0 0 1
20.505260 -24.984467 -23.930950 40.216659 -0.883548 2.208125 0.004883 0.001408 230864.000000 0 0 1
20.907560 -26.241417 -23.422150 40.918640 -0.898047 2.180236 0.002965 -0.008332 -168273.000000 0 0 1
20.785160 -26.515347 -21.869550 40.166699 -0.905955 2.146553 0.019073 -0.003363 447642.000000 0 0 1
19.470760 -26.851377 -21.393250 39.468697 -0.943402 2.143648 0.007953 -0.003420 758435.000000 0 0 1
19.528760 -26.933527 -20.014250 38.824703 -0.943441 2.112391 0.016567 -0.004888 85854.300000 0 0 1
18.216560 -27.458627 -19.395450 38.236144 -0.985046 2.102792 0.016545 -0.004843 -522410.000000 0 0 1
18.018560 -28.817197 -19.653750 39.260275 -1.012002 2.095090 0.018440 0.001528 452500.000000 0 0 1
16.961460 -29.518307 -18.974950 38.975252 -1.049257 2.079272 0.018522 0.004853 1024420.000000 0 0 1
15.510560 -29.160187 -19.443450 38.326775 -1.081949 2.102854 0.031041 -0.003665 97302.900000 0 0 1
14.983160 -27.945137 -19.013550 36.972163 -1.078638 2.110949 0.032984 -0.006410 30205.300000 0 0 1
13.661060 -27.708457 -19.465150 36.514041 -1.112741 2.133041 0.029718 0.000101 390750.000000 0 0 1
12.817560 -26.597797 -18.809350 35.007489 -1.121731 2.138023 0.020252 0.000079 -786489.000000 0 0 1
12.280760 -26.986227 -17.611650 34.485413 -1.143730 2.106793 0.013971 -0.004024 -764660.000000 0 0 1
11.251860 -26.109617 -17.250950 33.255251 -1.163899 2.116177 0.016237 -0.008047 -479089.000000 0 0 1
9.842060 -26.540737 -17.646650 33.356875 -1.215688 2.128249 0.019844 -0.008204 -1622750.000000 0 0 1
9.259160 -27.485177 -16.740050 33.487255 -1.245859 2.094272 0.021339 0.003854 374624.000000 0 0 1
7.841960 -27.337477 -16.822550 33.042884 -1.291440 2.104950 0.015332 0.006203 845853.000000 0 0 1
7.025760 -27.933627 -18.004950 33.968030 -1.324391 2.129463 0.032162 0.006444 -416289.000000 0 0 1
7.315760 -27.333317 -19.279850 34.239497 -1.309276 2.168914 0.052154 0.000702 -63929.200000 0 0 1
6.687260 -28.070717 -20.327950 35.297452 -1.336927 2.184506 0.059061 0.001208 125804.000000 0 0 1
6.546260 -27.315937 -21.706150 35.498886 -1.335582 2.228701 0.062167 -0.002989 -586970.000000 0 0 1
5.573460 -26.351467 -21.568650 34.506085 -1.362363 2.246015 0.065479 -0.005469 -475561.000000 0 0 1
5.327860 -25.660887 -22.800250 34.737856 -1.366079 2.286769 0.064015 -0.002840 532331.000000 0 0 1
3.905960 -25.030667 -23.079950 34.270613 -1.415998 2.309678 0.046746 0.002644 793718.000000 0 0 1
2.962360 -26.082897 -23.226950 35.051167 -1.457706 2.295159 0.042298 0.000967 -367493.000000 0 0 1
1.798260 -25.578837 -23.837450 35.010494 -1.500609 2.319741 0.047208 -0.004536 61008.500000 0 0 1
1.053360 -26.659087 -24.692950 36.353243 -1.531305 2.317537 0.033511 -0.011955 3264.790000 0 0 1
1.501860 -26.898087 -26.013110 37.449226 -1.515019 2.338693 0.022787 -0.011660 99361.100000 0 0 1
0.776160 -27.968427 -26.565110 38.581607 -1.543052 2.330275 0.028617 -0.022014 -221069.000000 0 0 1
1.683860 -28.780737 -27.497050 39.840356 -1.512356 2.332535 0.026002 -0.021102 -634424.000000 0 0 1
1.987160 -28.132687 -28.723270 40.254479 -1.500278 2.365337 0.032330 -0.019466 273909.000000 0 0 1
2.666360 -28.989487 -29.642140 41.547037 -1.479078 2.365220 0.046684 -0.028800 383907.000000 0 0 1
4.126560 -29.460917 -29.397780 41.823481 -1.431633 2.350265 0.044340 -0.025127 -201766.000000 0 0 1
4.359960 -30.421807 -28.387560 41.837174 -1.428449 2.316549 0.035607 -0.028617 125471.000000 0 0 1
5.646660 -30.999057 -28.600260 42.553509 -1.390616 2.307839 0.050889 -0.027078 583177.000000 0 0 1
5.888060 -32.084187 -27.544020 42.693528 -1.389297 2.272025 0.061116 -0.032033 -381011.000000 0 0 1
4.883060 -33.049787 -27.521900 43.284959 -1.424109 2.259880 0.057773 -0.038757 -517412.000000 0 0 1
5.264660 -34.277684 -26.906030 43.893174 -1.418399 2.230634 0.062037 -0.046571 -256738.000000 0 0 1
4.128560 33.562296 -26.392920 42.895908 1.448399 2.233535 0.072979 -0.050395 142306.000000 0 0 1
3.369860 32.984212 -27.464920 43.053874 1.468984 2.262590 0.053387 -0.044673 403189.000000 0 0 1
1.978160 32.877124 -27.221310 42.729593 1.510701 2.261474 0.028155 -0.039115 236208.000000 0 0 1
1.136660 33.017028 -28.498080 43.629769 1.536383 2.282572 0.014376 -0.023442 -280398.000000 0 0 1
1.094360 31.941349 -29.422570 43.441167 1.536548 2.314879 0.020966 -0.015362 154505.000000 0 0 1
0.259160 32.208099 -30.543310 44.388316 1.562750 2.329655 0.018239 -0.012817 98633.600000 0 0 1
0.268160 31.152729 -31.648370 44.409276 1.562189 2.364068 0.003555 -0.008168 -316488.000000 0 0 1
1.399060 31.033519 -32.484060 44.947200 1.525745 2.378520 0.016521 -0.010791 -100249.000000 0 0 1
1.257760 30.014569 -33.438670 44.951095 1.528916 2.409669 0.015817 -0.013025 -815265.000000 0 0 1
2.419660 29.643029 34.275971 45.380680 1.489350 0.714686 0.014518 -0.007525 -437229.000000 0 0 1
2.611160 30.597919 33.248636 45.260608 1.485665 0.745713 0.018076 -0.011733 29553.600000 0 0 1
3.546660 30.144109 32.268299 44.299991 1.453678 0.754806 0.007716 -0.007639 -101473.000000 0 0 1
3.013860 29.256549 31.116039 42.816316 1.468144 0.757242 0.010409 -0.008886 -158737.000000 0 0 1
2.783360 27.893209 31.370409 42.069951 1.471339 0.729253 0.019485 -0.016510 592433.000000 0 0 1
3.999060 27.170069 31.653109 41.906139 1.424659 0.714634 0.021637 -0.010418 409773.000000 0 0 1
3.637660 25.691579 31.956429 41.164343 1.430142 0.682000 0.033334 -0.011164 -188822.000000 0 0 1
3.154160 25.065329 30.783049 39.822300 1.445617 0.687224 0.040734 -0.000399 255523.000000 0 0 1
2.753160 23.728359 31.025539 39.156085 1.455285 0.656136 0.038776 0.000701 -797873.000000 0 0 1
2.017660 23.076379 29.884329 37.810889 1.483584 0.659395 0.035579 0.009385 -565675.000000 0 0 1
0.831960 22.522179 30.365119 37.815092 1.533874 0.638502 0.029205 0.003805 -564009.000000 0 0 1
0.060060 21.872479 29.404029 36.647045 1.568050 0.639562 0.041190 0.007449 -516566.000000 0 0 1
-1.260440 21.249279 29.807349 36.627840 -1.511549 0.620153 0.035066 0.007944 -458793.000000 0 0 1
-2.203940 22.232179 30.228709 37.588589 -1.471986 0.636470 0.043204 0.002235 424219.000000 0 0 1
-3.483040 21.611379 30.400159 37.461353 -1.411003 0.624069 0.023052 0.004444 383769.000000 0 0 1
-4.569940 22.695879 30.558519 38.338106 -1.372098 0.648353 0.004119 -0.002404 -183691.000000 0 0 1
-4.649040 23.317779 31.831389 39.731219 -1.373999 0.641552 0.008382 -0.002443 33575.500000 0 0 1
-4.360740 24.669399 31.704729 40.407736 -1.395836 0.668713 0.018223 -0.004501 -71119.600000 0 0 1
-4.492140 25.426579 33.075351 41.960328 -1.395930 0.662832 0.027539 -0.005428 141518.000000 0 0 1
-5.771840 25.374119 33.679609 42.561440 -1.347133 0.657836 0.022022 -0.001708 95121.800000 0 0 1
-5.733040 26.012439 -33.689190 42.947366 -1.353868 2.472572 0.026065 -0.004822 100982.000000 0 0 1
-7.127040 26.325929 -33.090050 42.881239 -1.306411 2.452255 0.029535 0.003358 4206.690000 0 0 1
-7.658240 27.525499 -33.687800 44.172046 -1.299436 2.438196 0.045666 0.003950 786524.000000 0 0 1
-8.953640 27.962469 -33.241570 44.351655 -1.260910 2.418103 0.053322 0.002870 679897.000000 0 0 1
-9.055740 28.452679 -31.791370 43.614821 -1.262660 2.387528 0.063718 -0.003553 -866795.000000 0 0 1
-8.318040 29.598609 -31.439100 43.973679 -1.296835 2.367353 0.060353 0.001639 239552.000000 0 0 1
-8.477340 29.869959 -30.029100 43.195215 -1.294260 2.339488 0.064292 -0.001633 -47996.600000 0 0 1
-8.151540 31.373559 -29.652830 43.932199 -1.316595 2.311718 0.040664 0.000716 533116.000000 0 0 1
-6.743940 31.612959 -29.647300 43.861399 -1.360619 2.313024 0.009233 0.001363 361661.000000 0 0 1
-6.370740 32.940626 -29.452740 44.644541 -1.379754 2.291238 0.014035 0.007215 -308480.000000 0 0 1
-4.849040 33.106622 -29.326430 44.492709 -1.425363 2.290456 0.013626 0.001626 -274297.000000 0 0 1
-4.350540 34.357521 -28.864820 45.083747 -1.444841 2.265619 0.011838 -0.001878 -90158.600000 0 0 1
-4.433740 -33.257507 -29.777370 44.859911 1.438262 2.296665 0.016767 -0.009565 -231645.000000 0 0 1
-3.328240 -33.284307 -30.853560 45.506752 1.471133 2.315834 0.017420 -0.019401 -250525.000000 0 0 1
-3.494840 -34.254453 -31.898230 46.936963 1.469122 2.318010 0.014329 -0.006736 339690.000000 0 0 1
-4.176040 -33.825747 -33.113410 47.519663 1.447960 2.341773 0.040955 -0.015647 634043.000000 0 0 1
-3.366440 -32.816807 -34.057760 47.415259 1.468571 2.372133 0.039029 -0.020249 414812.000000 0 0 1
-3.363240 -31.507787 -33.586190 46.174497 1.464456 2.385286 0.025904 -0.012121 8066.240000 0 0 1
-2.467840 -30.812747 34.216590 46.111719 1.490875 0.734693 0.017813 -0.024849 21366.000000 0 0 1
31.869830 19.750333 12.361049 39.478567 0.554793 1.252333 0.059439 0.000687 535422.000000 0 0 1
32.985540 19.039533 12.909549 40.214501 0.523492 1.243993 0.040347 0.002900 224365.000000 0 0 1
32.745190 17.672633 12.878849 39.375553 0.494902 1.237587 0.050720 -0.003814 -82766.400000 0 0 1
33.795800 16.687333 13.415249 40.007400 0.458651 1.228852 0.062106 -0.011798 20791.200000 0 0 1
35.040920 16.549033 12.769149 40.801810 0.441225 1.252493 0.050832 -0.003727 -173517.000000 0 0 1
35.797663 15.514533 13.253649 41.204764 0.408960 1.243321 0.051122 -0.013169 -258700.000000 0 0 1
-34.770000 15.084633 12.349649 39.862425 -0.409335 1.255807 0.055516 -0.016756 100717.000000 0 0 1
-34.040321 13.940633 12.818749 38.953884 -0.388697 1.235472 0.054941 -0.016765 -30439.100000 0 0 1
-34.716885 12.707833 13.061449 39.209088 -0.350894 1.231182 0.061056 -0.018086 -361112.000000 0 0 1
-33.983791 11.790733 14.075149 38.626795 -0.333957 1.197821 0.053403 -0.020516 119066.000000 0 0 1
-34.094598 12.371733 15.341849 39.381134 -0.348089 1.170628 0.051641 -0.026675 241985.000000 0 0 1
-33.351631 11.547733 16.234149 38.848797 -0.333323 1.139685 0.047619 -0.031177 -76529.600000 0 0 1
-33.202541 12.147333 17.635349 39.509138 -0.350730 1.108101 0.055922 -0.022028 -84869.900000 0 0 1
-34.369891 12.463733 18.376749 40.918687 -0.347886 1.105034 0.065321 -0.020872 97438.800000 0 0 1
-34.033851 12.994833 19.661549 41.397406 -0.364737 1.075893 0.055951 -0.031715 -187046.000000 0 0 1
-35.289765 13.347133 20.463049 42.921438 -0.361587 1.073836 0.078375 -0.032125 -158222.000000 0 0 1
35.665330 12.234633 20.815449 43.069536 0.330461 1.066378 0.069663 -0.011678 357575.000000 0 0 1
34.564820 12.606933 21.649249 42.689009 0.349739 1.038935 0.079525 -0.018292 478336.000000 0 0 1
34.205130 11.297833 22.463849 42.452991 0.319015 1.013202 0.061006 -0.013840 -203824.000000 0 0 1
35.164180 11.059033 23.461949 43.695364 0.304703 1.003986 0.055985 -0.006110 -194036.000000 0 0 1
34.838440 11.622333 24.705219 44.262211 0.321996 0.978635 0.057703 -0.006605 -914204.000000 0 0 1
-35.738121 11.776533 25.652469 45.540632 -0.318317 0.972437 0.031297 -0.004986 114535.000000 0 0 1
-34.734778 12.740333 25.372779 44.861998 -0.351553 0.969667 0.045847 -0.018698 881359.000000 0 0 1
-33.744211 12.400733 24.364389 43.428947 -0.352172 0.975182 0.032971 -0.013984 455276.000000 0 0 1
-32.626991 13.459333 24.086439 42.729741 -0.391254 0.971947 0.035330 -0.017492 403173.000000 0 0 1
-31.767931 13.704433 25.173889 42.787120 -0.407272 0.941777 0.015897 -0.018969 93558.000000 0 0 1
-32.392091 14.461733 26.212919 44.107895 -0.419905 0.934413 0.011545 -0.022403 -503029.000000 0 0 1
-31.466081 14.821633 27.413939 44.286783 -0.440208 0.903315 0.003971 -0.016102 -593351.000000 0 0 1
-30.671011 15.877133 27.049319 43.868667 -0.477675 0.906383 0.019609 -0.027832 -948654.000000 0 0 1
-30.441721 16.604733 28.217289 44.706051 -0.499351 0.887731 0.034222 -0.024900 -204793.000000 0 0 1
-29.696081 17.938133 27.971139 44.564767 -0.543397 0.892264 0.034829 -0.020351 -392019.000000 0 0 1
-30.271601 18.857833 27.090749 44.787235 -0.557127 0.921185 0.029429 -0.024492 -813.752000 0 0 1
-29.568351 20.061233 27.137049 44.868250 -0.596130 0.921261 0.030704 -0.024748 -316083.000000 0 0 1
-30.365021 21.055233 26.305539 45.357896 -0.606286 0.952123 0.029406 -0.020302 592995.000000 0 0 1
-31.652371 21.319933 26.895279 46.687988 -0.592763 0.956891 0.036081 -0.027676 1063740.000000 0 0 1
-32.621091 21.987433 26.124079 47.223409 -0.593080 0.984593 0.045452 -0.030021 -234416.000000 0 0 1
-32.439711 23.516033 26.138209 47.838736 -0.627252 0.992758 0.053451 -0.024335 -574802.000000 0 0 1
-33.380651 24.091633 25.267469 48.302377 -0.625158 1.020300 0.070322 -0.028603 57632.800000 0 0 1
-33.467021 25.502033 25.441739 49.169882 -0.651140 1.026957 0.070622 -0.023184 343482.000000 0 0 1
-34.580220 26.194533 24.580999 49.861515 -0.648284 1.055279 0.067941 -0.014265 294303.000000 0 0 1
-34.465105 26.076233 23.159649 49.032466 -0.647711 1.078861 0.069640 -0.020435 -595413.000000 0 0 1
-35.526684 26.631833 22.473849 49.764181 -0.643264 1.102231 0.071610 -0.020372 -522444.000000 0 0 1
-35.335924 26.452733 20.926249 48.849591 -0.642609 1.128096 0.091683 -0.030521 168809.000000 0 0 1
-35.260416 25.114833 20.426349 47.867395 -0.618912 1.129925 0.068913 -0.024666 -725.534000 0 0 1
-34.576684 25.106633 19.188149 46.840956 -0.628038 1.148732 0.069567 -0.028149 -117188.000000 0 0 1
-34.668699 23.853333 18.312549 45.893896 -0.602652 1.160349 0.057838 -0.021679 -650835.000000 0 0 1
-35.834576 23.724333 17.586749 46.435488 -0.584801 1.182367 0.061769 -0.021761 -1010870.000000 0 0 1
-35.773465 22.688633 16.645649 45.514751 -0.565210 1.196390 0.046059 -0.014973 642853.000000 0 0 1
34.711870 22.389533 15.736349 44.202237 0.572860 1.206804 0.040539 -0.004463 838737.000000 0 0 1
33.786230 21.543933 16.381449 43.289747 0.567647 1.182714 0.039767 -0.010881 -645561.000000 0 0 1
32.744570 21.186033 15.531049 41.979380 0.574270 1.191821 0.037378 -0.004200 -647409.000000 0 0 1
31.651830 20.280633 16.188149 40.929190 0.569839 1.164167 0.035324 -0.000399 625881.000000 0 0 1
30.649130 20.895333 16.960849 40.787921 0.598379 1.141941 0.018376 0.001717 290373.000000 0 0 1
29.756480 21.827333 16.327249 40.354177 0.632878 1.154256 0.013697 0.006824 -591504.000000 0 0 1
28.849170 22.369833 17.378049 40.431184 0.659564 1.126505 0.002597 0.004814 -352622.000000 0 0 1
29.580400 23.246333 18.264449 41.820834 0.666065 1.118835 -0.020809 0.021311 238715.000000 0 0 1
28.844510 23.595733 19.414049 42.019872 0.685640 1.090524 -0.022023 0.024013 413280.000000 0 0 1
29.761100 24.395933 20.440649 43.574129 0.686654 1.082524 -0.025842 0.013230 605210.000000 0 0 1
30.069230 25.735633 20.070149 44.376709 0.707897 1.101490 -0.014590 0.009302 158892.000000 0 0 1
30.931840 26.246933 21.092749 45.722907 0.703646 1.091317 -0.009034 0.005610 -104080.000000 0 0 1
31.767650 27.428433 20.590349 46.748957 0.712227 1.114702 0.019699 -0.005329 492257.000000 0 0 1
32.842640 27.929833 21.401149 48.132356 0.704734 1.110034 0.021699 -0.005267 788696.000000 0 0 1
32.336060 28.627133 22.456449 48.676746 0.724634 1.091293 0.004778 0.009822 -687984.000000 0 0 1
33.287470 28.647033 23.643369 49.877019 0.710613 1.076930 0.002385 0.003266 -119313.000000 0 0 1
34.445500 29.428333 23.405049 50.993289 0.707011 1.093946 0.037769 -0.005090 13720.400000 0 0 1
35.107250 29.719933 24.639769 52.181526 0.702486 1.079019 0.045722 -0.008744 -331911.000000 0 0 1
-35.431648 30.600033 24.517289 52.847528 -0.712357 1.088376 0.061343 -0.003751 -432627.000000 0 0 1
-34.194669 30.039033 24.144429 51.522542 -0.720793 1.083070 0.066206 -0.007499 -620651.000000 0 0 1
-33.184681 30.986133 24.276059 51.484858 -0.751151 1.079784 0.062425 -0.007425 373411.000000 0 0 1
-31.763001 30.371033 23.992199 50.069087 -0.762999 1.071074 0.072642 -0.013894 443117.000000 0 0 1
-31.520581 30.175233 22.631349 49.155566 -0.763595 1.092348 0.072119 -0.012022 120056.000000 0 0 1
-31.957691 28.914033 22.153849 48.457284 -0.735439 1.095971 0.073591 -0.012724 -279126.000000 0 0 1
-31.349041 27.652933 22.786849 47.609743 -0.722836 1.071717 0.070867 -0.013415 -202089.000000 0 0 1
-29.946071 27.498533 22.715149 46.571606 -0.742817 1.061290 0.047027 -0.011778 260663.000000 0 0 1
-29.326461 26.539633 23.547409 46.031228 -0.735555 1.033805 0.045731 -0.011883 7505.580000 0 0 1
-29.092551 26.833033 24.987579 46.805633 -0.745018 1.007639 0.050161 -0.007257 333057.000000 0 0 1
-30.304501 27.116133 25.726479 48.119634 -0.729929 1.006720 0.050432 -0.004833 718314.000000 0 0 1
-30.042021 27.693333 26.988709 48.967685 -0.744740 0.987050 0.054344 -0.008789 -255378.000000 0 0 1
-31.246841 27.952833 27.924239 50.373496 -0.729813 0.983222 0.049146 -0.011451 -175910.000000 0 0 1
-31.828781 26.786633 28.437319 50.391231 -0.699589 0.971174 0.043284 -0.012833 -73576.700000 0 0 1
-32.855631 27.065533 29.341049 51.700413 -0.689069 0.967305 0.034690 -0.004821 -296648.000000 0 0 1
-33.418311 25.899433 30.152349 51.930033 -0.659315 0.951289 0.032580 0.001658 178645.000000 0 0 1
-32.467331 25.363533 31.062689 51.597743 -0.663173 0.924772 0.031174 -0.000424 304452.000000 0 0 1
-32.989231 24.183133 31.676679 51.735146 -0.632572 0.911848 0.018606 -0.007098 49967.400000 0 0 1
-31.980641 23.446933 32.581789 51.323416 -0.632636 0.883004 0.043920 -0.014575 -392441.000000 0 0 1
-30.834241 23.007933 31.853569 49.947625 -0.641053 0.879237 0.049768 -0.010402 160420.000000 0 0 1
-30.260251 21.846933 32.370719 49.404805 -0.625318 0.856330 0.047910 -0.015549 -22941.100000 0 0 1
-29.309281 22.053433 33.585514 49.733034 -0.645060 0.829403 0.047628 -0.020972 -765287.000000 0 0 1
-30.031421 22.614733 -33.972610 50.670017 -0.645441 2.305635 0.057723 -0.022668 108499.000000 0 0 1
-29.657881 22.266233 -32.617570 49.389077 -0.643993 2.292175 0.049065 -0.014528 235802.000000 0 0 1
-28.437801 22.973033 -31.903430 48.521105 -0.679500 2.288314 0.063407 -0.020327 490261.000000 0 0 1
-28.551791 24.283333 -31.420960 48.909731 -0.704785 2.268458 0.050348 -0.018625 342395.000000 0 0 1
-27.412051 24.565233 -30.615390 47.876647 -0.730682 2.264597 0.069840 -0.015762 262126.000000 0 0 1
-27.681291 25.885133 -29.793200 48.207144 -0.751879 2.237024 0.042043 -0.010500 -90416.200000 0 0 1
-27.768931 27.094633 -30.507100 49.354998 -0.773108 2.237140 0.035261 -0.014605 -17021.400000 0 0 1
-28.909661 27.352133 -31.286820 50.623836 -0.757722 2.237025 0.028791 -0.005122 -540400.000000 0 0 1
-28.846611 28.771133 -31.907280 51.749199 -0.784088 2.235182 0.031529 -0.000981 -84610.900000 0 0 1
-28.749841 29.817233 -30.943120 51.702006 -0.803621 2.212411 0.023418 -0.012293 256194.000000 0 0 1
-28.744301 31.107333 -31.522900 52.797673 -0.824859 2.210616 0.034981 -0.021544 -517439.000000 0 0 1
-28.908061 32.311533 -30.519990 53.020571 -0.840935 2.184165 0.034771 -0.020091 675128.000000 0 0 1
-27.802121 32.595333 -29.627040 52.088148 -0.864593 2.175826 0.015535 -0.014856 609668.000000 0 0 1
-28.143061 33.611133 -28.733570 52.415248 -0.873714 2.150996 0.012673 -0.012767 173862.000000 0 0 1
-27.124781 33.846933 -27.553670 51.386510 -0.895205 2.136730 0.031373 -0.013657 533828.000000 0 0 1
-25.888401 -34.241913 -27.642030 51.056828 0.923438 2.142895 -0.007595 -0.010455 -121983.000000 0 0 1
-25.916991 -32.799813 -27.802240 50.204409 0.902086 2.157694 0.011799 -0.006064 -557705.000000 0 0 1
-26.447661 -31.827913 -26.707500 49.252263 0.877461 2.143920 0.020320 -0.005668 169833.000000 0 0 1
-27.863561 -31.855113 -26.576370 49.974290 0.852138 2.131522 0.012679 -0.012376 170689.000000 0 0 1
-28.251401 -31.166813 -25.415590 49.147371 0.834425 2.114291 0.019786 -0.006254 606945.000000 0 0 1
-29.768181 -30.793813 -25.307990 49.748345 0.802332 2.104494 0.015061 -0.008231 637568.000000 0 0 1
-30.217531 -29.969613 -26.320730 50.040561 0.781279 2.124673 0.019280 -0.012625 307430.000000 0 0 1
-31.626971 -29.775313 -26.291890 50.774975 0.755251 2.115088 0.026945 -0.012695 383627.000000 0 0 1
-32.201331 -29.039313 -27.533950 51.364636 0.733811 2.136546 0.035492 -0.009842 673038.000000 0 0 1
-33.607181 -28.764913 -27.503200 52.089239 0.707918 2.127042 0.020963 -0.011797 536173.000000 0 0 1
-34.054497 -28.091113 -28.630700 52.616883 0.689733 2.146154 0.039358 -0.013947 -443513.000000 0 0 1
-35.556995 -28.303013 -28.773830 53.789346 0.672291 2.135228 0.031435 -0.015045 -493431.000000 0 0 1
35.383220 -27.614913 -27.874640 52.835132 -0.662707 2.126543 0.014270 -0.005546 -414541.000000 0 0 1
34.015300 -27.864313 -28.113440 52.190287 -0.686321 2.139656 0.018872 -0.007432 94210.900000 0 0 1
33.106760 -27.283413 -26.989720 50.684190 -0.689267 2.132357 0.019575 -0.004916 -90486.600000 0 0 1
33.072940 -28.081513 -25.840080 50.498519 -0.703959 2.107958 0.005333 0.001639 -255691.000000 0 0 1
32.080770 -27.757313 -24.929950 49.205148 -0.713271 2.102095 0.008813 0.004686 -380653.000000 0 0 1
32.155050 -28.478013 -23.615950 49.016911 -0.724828 2.073495 0.002710 -0.001765 -13210.700000 0 0 1
31.650240 -29.781113 -23.687350 49.494878 -0.754981 2.069835 0.009276 -0.001485 -172835.000000 0 0 1
31.242280 -30.483813 -22.536650 49.124775 -0.773111 2.047399 0.015198 -0.011122 259249.000000 0 0 1
32.274460 -30.682913 -21.377650 49.397225 -0.760124 2.018360 -0.002262 -0.005190 -1431170.000000 0 0 1
33.372670 -31.512913 -21.617750 50.735844 -0.756744 2.010956 -0.005257 -0.001022 37940.300000 0 0 1
34.392050 -31.273013 -20.639850 50.860769 -0.737935 1.988662 -0.005740 -0.002373 903688.000000 0 0 1
35.160530 -29.877813 -20.716650 50.577921 -0.704351 1.992810 -0.011739 -0.009115 -1057050.000000 0 0 1
34.312340 -28.780313 -20.504850 49.255375 -0.697941 2.000165 -0.010967 -0.006387 -744963.000000 0 0 1
34.890580 -27.497913 -20.674650 48.999275 -0.667454 2.006378 -0.009470 -0.004942 -274656.000000 0 0 1
33.881990 -26.371513 -20.454850 47.558877 -0.661390 2.015395 -0.006963 -0.000420 851638.000000 0 0 1
32.778440 -26.273113 -21.385150 47.138384 -0.675677 2.041673 0.002747 0.001271 1011620.000000 0 0 1
31.701850 -25.500213 -20.863350 45.722505 -0.677404 2.044633 0.002682 -0.003605 284283.000000 0 0 1
30.448960 -25.356813 -21.746650 45.199822 -0.694402 2.072731 0.016973 -0.002400 252705.000000 0 0 1
29.701810 -26.578313 -21.805350 45.432120 -0.729956 2.071399 0.025156 -0.001536 768543.000000 0 0 1
28.471570 -26.441913 -22.548750 44.924950 -0.748454 2.096614 0.030845 -0.000153 994273.000000 0 0 1
27.935640 -27.849913 -22.996950 45.660457 -0.783861 2.098616 0.030165 0.000458 265599.000000 0 0 1
27.368950 -28.661113 -21.957550 45.306211 -0.808456 2.076757 0.037591 -0.005265 79713.700000 0 0 1
27.224400 -30.003913 -22.278850 46.235807 -0.833929 2.073564 0.033380 -0.012536 -254867.000000 0 0 1
26.579760 -30.853913 -21.217450 45.919797 -0.859680 2.051107 0.043278 -0.008152 -364810.000000 0 0 1
27.358540 -31.123713 -20.088550 46.051330 -0.849691 2.022191 0.047225 -0.008147 -497864.000000 0 0 1
28.174310 -32.249913 -20.180750 47.340377 -0.852746 2.011184 0.046329 -0.002539 532485.000000 0 0 1
29.215750 -32.312213 -18.979750 47.517050 -0.835682 1.981692 0.030320 -0.005641 518419.000000 0 0 1
28.660230 -32.798313 -17.720150 47.022780 -0.852628 1.957181 0.036821 -0.010159 116935.000000 0 0 1
27.806000 -31.912313 -17.034350 45.626072 -0.854051 1.953410 0.029694 -0.015262 97972.100000 0 0 1
27.162140 -32.446213 -15.740650 45.147609 -0.873814 1.926925 0.042500 -0.015601 404167.000000 0 0 1
25.940060 -33.185713 -15.850750 45.004716 -0.907337 1.930719 0.047944 -0.002247 383557.000000 0 0 1
25.651360 -33.659213 -14.556850 44.753064 -0.919602 1.902094 0.063369 -0.009261 46622.600000 0 0 1
24.173660 -34.128413 -14.411250 44.235715 -0.954512 1.902636 0.072239 -0.006667 846316.000000 0 0 1
23.266860 -33.053713 -14.166250 42.831966 -0.957451 1.907884 0.076951 0.000274 -126047.000000 0 0 1
21.915060 -33.385213 -14.094950 42.349851 -0.989914 1.910091 0.077832 -0.010194 -184028.000000 0 0 1
-0.472531 -7.174867 -29.108800 29.983733 1.505032 2.899422 0.047043 -0.003547 -41920.300000 0 0 1
-0.368431 -8.580267 -29.079360 30.321047 1.527883 2.854421 0.047424 -0.005685 -35896.300000 0 0 1
-0.204631 -9.109467 -30.363430 31.701138 1.548337 2.850053 0.060518 -0.012907 -73766.900000 0 0 1
0.054769 -10.624967 -30.413720 32.216258 -1.565642 2.805495 0.077564 -0.008744 -87163.400000 0 0 1
1.321969 -10.938167 -29.901270 31.866551 -1.450521 2.788558 0.031574 -0.008274 -368672.000000 0 0 1
1.483969 -12.304667 -29.700730 32.182920 -1.450774 2.746270 0.045452 -0.006140 344964.000000 0 0 1
2.923069 -12.594967 -29.205100 31.939245 -1.342751 2.724808 0.032759 -0.005285 314812.000000 0 0 1
3.984669 -12.432667 -30.153100 32.858153 -1.260640 2.732985 0.037351 -0.006123 2005270.000000 0 0 1
5.361969 -12.624367 -29.695460 32.710024 -1.169153 2.708899 0.044587 -0.010848 1829730.000000 0 0 1
5.730769 -14.049667 -29.238830 32.941524 -1.183504 2.662900 0.041473 -0.013163 -1520780.000000 0 0 1
5.227569 -14.390967 -27.982890 31.897798 -1.222364 2.640935 0.047447 -0.011496 -330168.000000 0 0 1
5.853069 -15.447767 -27.261640 31.876150 -1.208616 2.596803 0.057076 -0.015207 -255635.000000 0 0 1
5.419769 -16.927467 -27.554590 32.789762 -1.260934 2.568709 0.053000 -0.007368 -97045.300000 0 0 1
5.809569 -17.424567 -28.822040 34.177136 -1.248974 2.574216 0.057620 -0.019257 45162.600000 0 0 1
5.438069 -18.763667 -29.005620 34.971042 -1.288706 2.548862 0.055169 -0.015254 -446758.000000 0 0 1
5.590969 -19.285967 -30.477550 36.497788 -1.288633 2.559024 0.055020 -0.024367 914589.000000 0 0 1
6.951269 -19.576667 -30.885770 37.222262 -1.229604 2.549485 0.045883 -0.022601 1125640.000000 0 0 1
7.014369 -20.378267 -32.034910 38.609722 -1.239290 2.549386 0.057094 -0.024798 -152526.000000 0 0 1
8.433669 -20.307267 -32.607140 39.328583 -1.177168 2.548284 0.065721 -0.024658 -228146.000000 0 0 1
8.861169 -19.072067 -33.127290 39.238774 -1.135855 2.575958 0.053091 -0.029037 210712.000000 0 0 1
10.123369 -19.139767 -33.776680 40.120785 -1.084283 2.571544 0.053011 -0.028630 200229.000000 0 0 1
10.605169 -17.724567 -34.169363 39.927124 -1.031604 2.597879 0.041643 -0.022358 -412501.000000 0 0 1
9.716769 -17.219067 33.510249 38.908208 -1.057038 0.533044 0.057289 -0.029005 -257484.000000 0 0 1
9.973269 -15.885967 33.104973 38.049564 -1.010183 0.515495 0.046017 -0.027806 -484062.000000 0 0 1
8.942969 -15.234267 32.207639 36.734066 -1.039968 0.501675 0.055621 -0.032179 -460331.000000 0 0 1
8.985569 -15.826467 30.923859 35.881786 -1.054423 0.531937 0.064063 -0.031325 -333020.000000 0 0 1
7.970969 -15.364367 30.086339 34.710055 -1.092225 0.522067 0.064397 -0.035528 -621253.000000 0 0 1
7.880369 -16.118567 28.756349 33.894484 -1.116068 0.557826 0.058083 -0.024053 -425039.000000 0 0 1
7.385469 -17.417967 28.945839 34.580230 -1.169761 0.578903 0.062150 -0.026274 173441.000000 0 0 1
7.505569 -18.163567 27.758559 34.011562 -1.178945 0.616079 0.052511 -0.021618 -230938.000000 0 0 1
7.092269 -19.612967 27.938429 34.864374 -1.223815 0.641254 0.055542 -0.016828 -446204.000000 0 0 1
7.799369 -20.274667 28.984549 36.221490 -1.203561 0.643163 0.061114 -0.020058 285438.000000 0 0 1
7.110369 -21.355567 29.541509 37.139175 -1.249389 0.651084 0.053127 -0.020473 -422871.000000 0 0 1
7.554969 -21.688567 30.958909 38.547705 -1.235602 0.638262 0.052071 -0.023245 -302978.000000 0 0 1
7.210369 -20.924767 32.111409 38.999717 -1.238953 0.603463 0.067782 -0.032708 1932.550000 0 0 1
7.459769 -19.523167 32.065869 38.275608 -1.205817 0.577624 0.059971 -0.037412 -541249.000000 0 0 1
6.644069 -18.639567 33.035166 38.508432 -1.228387 0.539689 0.059848 -0.031365 -176659.000000 0 0 1
5.272469 -18.972167 32.917569 38.357638 -1.299731 0.539092 0.068221 -0.037550 -577393.000000 0 0 1
4.563269 -17.999767 33.660952 38.443136 -1.322509 0.504112 0.060519 -0.027477 228052.000000 0 0 1
3.040269 -18.344067 33.669648 38.462881 -1.406553 0.504574 0.069860 -0.022834 412438.000000 0 0 1
2.687869 -19.457267 -34.181486 39.423139 -1.433523 2.620029 0.059340 -0.027977 -182213.000000 0 0 1
2.683669 -19.320067 -32.756080 38.123849 -1.432774 2.604504 0.046665 -0.022536 -376515.000000 0 0 1
2.059569 -20.580367 -32.108230 38.193347 -1.471054 2.569327 0.050310 -0.015350 1039040.000000 0 0 1
0.675669 -20.838967 -32.479400 38.595732 -1.538384 2.570902 0.022827 -0.014546 1332190.000000 0 0 1
-0.089631 -21.456967 -31.457150 38.078363 1.566619 2.542976 0.028383 -0.015392 59696.200000 0 0 1
-0.614131 -20.580367 -30.299930 36.633515 1.540965 2.544742 0.030056 -0.014901 220626.000000 0 0 1
-1.814631 -19.859867 -30.644750 36.562384 1.479678 2.564678 0.036690 -0.014354 439371.000000 0 0 1
-2.339731 -18.807967 -29.845430 35.354825 1.447031 2.575809 0.061255 -0.011787 10299.700000 0 0 1
-1.873431 -17.366967 -30.072940 34.777910 1.463339 2.615377 0.057500 -0.010254 -160403.000000 0 0 1
-2.701831 -16.413367 -29.423450 33.799969 1.407648 2.627048 0.059906 -0.004709 -69716.000000 0 0 1
-2.413631 -15.079567 -29.868420 33.546110 1.412083 2.668952 0.074013 -0.003326 133892.000000 0 0 1
-3.413631 -14.030667 -29.348920 32.708892 1.332135 2.684357 0.076989 -0.006190 153331.000000 0 0 1
-3.387631 -14.000167 -27.948590 31.442080 1.333389 2.665716 0.059530 -0.007146 156793.000000 0 0 1
-4.434431 -13.180767 -27.455140 30.776314 1.246260 2.672739 0.050790 -0.003304 88361.300000 0 0 1
-4.335331 -13.008767 -25.913060 29.317397 1.249110 2.654890 0.024472 -0.007446 -346112.000000 0 0 1
-4.915731 -14.076767 -25.189100 29.271326 1.234827 2.607122 0.021181 -0.003695 198854.000000 0 0 1
-4.758131 -14.134767 -23.782650 28.072155 1.246085 2.581484 0.010318 -0.003861 -529670.000000 0 0 1
-5.435731 -13.081767 -22.926950 26.950414 1.176983 2.588128 0.014589 -0.011350 218927.000000 0 0 1
-6.862331 -13.190767 -22.915150 27.316516 1.091090 2.566010 0.016581 -0.015129 128489.000000 0 0 1
-7.406231 -12.015667 -22.312350 26.402073 1.018419 2.577546 0.014193 -0.015931 294993.000000 0 0 1
-8.901431 -11.803567 -22.708150 27.096490 0.924657 2.564491 0.033534 -0.015691 980859.000000 0 0 1
-9.803931 -12.884167 -22.363850 27.609068 0.920338 2.514980 0.030107 -0.012399 257754.000000 0 0 1
-9.814031 -13.924367 -23.330950 28.888344 0.956850 2.510910 0.013022 -0.011670 -935053.000000 0 0 1
-10.835631 -14.965167 -22.929750 29.447250 0.944107 2.463343 0.017281 -0.022055 -643429.000000 0 0 1
-10.556631 -15.610167 -21.703850 28.743293 0.976177 2.426592 0.016419 -0.014165 -66414.700000 0 0 1
-11.424331 -16.701067 -21.238250 29.334353 0.970857 2.380389 0.013800 -0.003984 479112.000000 0 0 1
-11.736731 -17.912967 -22.210150 30.853136 0.990768 2.374407 0.000027 0.001213 -15221.900000 0 0 1
-12.878031 -17.566367 -22.968950 31.654282 0.938195 2.382730 0.005493 -0.005615 -296069.000000 0 0 1
-13.115031 -18.444767 -24.000250 32.988263 0.952697 2.385524 0.009422 -0.003134 -480506.000000 0 0 1
-14.256831 -17.969767 -24.859150 33.825243 0.900106 2.396358 -0.000172 -0.009285 -900731.000000 0 0 1
-15.509131 -17.875867 -24.230850 33.870546 0.856172 2.367987 0.018177 -0.008106 -550699.000000 0 0 1
-16.429331 -17.557167 -25.233120 34.855235 0.818571 2.380294 0.037577 -0.021471 -34836.700000 0 0 1
-17.262231 -16.224767 -25.000250 34.441838 0.754427 2.383093 0.026993 -0.013828 -123376.000000 0 0 1
-18.207731 -16.348167 -23.988050 34.266756 0.731637 2.346248 0.043841 -0.012457 -21177.400000 0 0 1
-18.961431 -15.137867 -23.889850 34.050196 0.673734 2.348446 0.044232 -0.015256 63563.400000 0 0 1
-19.827931 -14.948567 -22.647950 33.608573 0.646002 2.310236 0.037438 -0.026413 -147215.000000 0 0 1
-18.988031 -15.050067 -21.524150 32.408932 0.670217 2.297143 0.045182 -0.020235 317004.000000 0 0 1
-19.706231 -15.241567 -20.298850 32.135404 0.658334 2.254497 0.028072 -0.025301 9910.130000 0 0 1
-20.165731 -13.940667 -19.611550 31.394455 0.604866 2.245521 0.027561 -0.024632 -472534.000000 0 0 1
-21.366831 -13.409867 -20.074250 32.238820 0.560468 2.242951 0.035661 -0.034637 -384850.000000 0 0 1
-21.568131 -12.237467 -19.307550 31.428035 0.516094 2.232348 0.047295 -0.033810 767172.000000 0 0 1
-23.050331 -11.709567 -19.275250 32.248519 0.470027 2.211438 0.048664 -0.027114 805370.000000 0 0 1
-23.463731 -11.159267 -20.499350 33.095306 0.443935 2.238779 0.058175 -0.039446 -772557.000000 0 0 1
-24.850431 -11.074967 -20.484650 34.056126 0.419243 2.216170 0.065135 -0.038878 -724910.000000 0 0 1
-25.422531 -10.086467 -21.527550 34.806283 0.377704 2.237624 0.080321 -0.029708 -166250.000000 0 0 1
-25.547181 -10.482167 -22.902150 35.875378 0.389359 2.263189 0.061857 -0.030646 873726.000000 0 0 1
-26.341851 -9.520167 -23.674250 36.674198 0.346802 2.272512 0.063068 -0.027573 25293.900000 0 0 1
-26.364011 -9.965167 -25.158090 37.779560 0.361384 2.299520 0.040153 -0.016521 272125.000000 0 0 1
-25.242481 -9.729167 -26.013490 37.530537 0.367882 2.336617 0.024553 -0.019370 186302.000000 0 0 1
-24.279631 -10.744667 -26.013010 37.170217 0.416631 2.345962 0.019262 -0.014039 -36833.400000 0 0 1
-23.210931 -10.578767 -27.119660 37.230815 0.427639 2.386809 0.021318 -0.009010 198032.000000 0 0 1
-23.750631 -10.992467 -28.353360 38.585487 0.433471 2.396197 0.018760 -0.002169 -163409.000000 0 0 1
-22.772131 -10.953267 -29.357100 38.734782 0.448328 2.430885 0.013783 -0.003283 35834.200000 0 0 1
-23.218631 -11.445667 -30.792680 40.228066 0.457993 2.442541 0.010468 -0.007883 18583.200000 0 0 1
-24.040331 -10.602067 -31.556540 41.062837 0.415354 2.447280 0.009198 -0.000537 -141529.000000 0 0 1
-23.353731 -9.661767 -32.370910 41.068508 0.392273 2.478703 0.009886 -0.001523 -743396.000000 0 0 1
-24.254331 -8.552167 -32.917050 41.772531 0.338992 2.478362 0.010805 0.007174 -46534.100000 0 0 1
-25.159621 -8.903167 -33.997850 43.221832 0.340116 2.476063 0.025097 0.002685 1396550.000000 0 0 1
-26.391191 -9.566967 -33.761020 43.907042 0.347772 2.447947 0.021722 -0.001494 497895.000000 0 0 1
-27.458971 -8.837367 -32.882260 43.741710 0.311370 2.421488 0.017079 0.012590 -1278840.000000 0 0 1
-28.750331 -9.313767 -32.934640 44.699198 0.313285 2.399130 0.013602 0.008944 -697261.000000 0 0 1
-29.499951 -8.676967 -31.899230 44.306859 0.286067 2.374543 0.018635 0.012025 240817.000000 0 0 1
-30.976511 -9.145067 -31.898390 45.394755 0.287071 2.349966 0.022222 0.007042 100974.000000 0 0 1
-31.109961 -10.502567 -31.574900 45.553352 0.325581 2.336634 0.018721 -0.001141 -261567.000000 0 0 1
-32.480961 -10.758867 -31.432850 46.462782 0.319862 2.313819 0.006330 0.000809 -303269.000000 0 0 1
-32.642511 -12.239167 -31.884000 47.243203 0.358723 2.311613 0.009488 -0.002551 223969.000000 0 0 1
-33.975081 -12.674867 -31.636720 48.123180 0.357072 2.288174 -0.016939 -0.005703 298835.000000 0 0 1
-33.993401 -14.076467 -31.737520 48.589797 0.392597 2.282563 -0.008808 -0.011494 210758.000000 0 0 1
-35.320823 -14.687267 -31.246610 49.392580 0.394073 2.255725 -0.018138 -0.016287 111623.000000 0 0 1
-35.484484 -14.607967 -29.849370 48.616111 0.390528 2.231891 -0.015255 -0.012824 922922.000000 0 0 1
35.347740 -15.652667 -29.291010 48.501876 -0.416867 2.219200 -0.016914 -0.006836 1050010.000000 0 0 1
35.445480 -15.736767 -27.790880 47.711224 -0.417829 2.192574 -0.011784 0.007004 -682220.000000 0 0 1
-35.060335 -16.146667 -27.332110 47.296788 0.431584 2.186931 -0.006140 -0.005160 -491870.000000 0 0 1
-35.089639 -16.444967 -25.944860 46.635346 0.438259 2.160765 -0.004284 -0.001494 18567.800000 0 0 1
-33.805071 -15.895867 -25.307080 45.121056 0.439542 2.166233 0.035792 -0.012059 -12125.300000 0 0 1
-32.608121 -16.604167 -25.505100 44.603790 0.470983 2.179512 0.037095 -0.009931 -747193.000000 0 0 1
-31.524941 -16.010667 -24.891350 43.240521 0.469926 2.184194 0.052131 -0.001614 534784.000000 0 0 1
-30.215551 -16.918667 -25.027650 42.727088 0.510437 2.196609 0.069101 -0.012236 960427.000000 0 0 1
-30.205601 -18.098867 -24.267050 42.764904 0.539823 2.174205 0.081987 -0.015696 166885.000000 0 0 1
-30.719161 -19.252567 -24.942150 44.004989 0.559841 2.173416 0.059741 -0.018604 -47773.500000 0 0 1
-30.633841 -20.474567 -23.990650 43.968073 0.589177 2.147947 0.063836 -0.020782 141751.000000 0 0 1
-29.337901 -21.046267 -24.026550 43.369723 0.622292 2.157950 0.060197 -0.018253 235694.000000 0 0 1
-29.275961 -22.227767 -23.225750 43.480927 0.649395 2.134310 0.048106 -0.016671 -132733.000000 0 0 1
-27.998631 -23.082167 -23.578050 43.273944 0.689445 2.147013 0.049050 -0.011844 1037140.000000 0 0 1
-26.730571 -22.532467 -23.234350 41.977024 0.700385 2.157359 0.052780 -0.010159 256450.000000 0 0 1
-26.438361 -22.169767 -21.900850 40.867258 0.697806 2.136372 0.041702 -0.011992 -804124.000000 0 0 1
-26.356431 -23.351667 -20.898150 40.947460 0.725023 2.106405 0.038828 -0.012553 -256765.000000 0 0 1
-26.372401 -22.989567 -19.532550 40.069243 0.716974 2.079986 0.030234 -0.009165 -34468.400000 0 0 1
-26.411111 -24.089967 -18.628050 40.309770 0.739468 2.051183 0.026395 0.016378 -4293.700000 0 0 1
-26.369781 -23.592367 -17.143050 39.317290 0.729865 2.021966 0.019040 0.018550 219543.000000 0 0 1
-27.528241 -22.815567 -16.880150 39.538508 0.692060 2.011891 0.025070 0.009195 -25372.400000 0 0 1
-27.571941 -22.375467 -15.533950 38.757929 0.681732 1.983180 0.016017 0.008886 -426482.000000 0 0 1
-28.922001 -21.824867 -15.096850 39.252030 0.646446 1.965585 0.009226 0.012017 -493569.000000 0 0 1
-29.327711 -20.705367 -15.856850 39.246230 0.614742 1.986720 0.014030 0.006728 -602851.000000 0 0 1
-30.473611 -20.185067 -15.240950 39.602581 0.585028 1.965839 0.021093 0.005074 -871625.000000 0 0 1
-31.505241 -19.677667 -16.207650 40.527506 0.558300 1.982223 0.040660 -0.020041 -931827.000000 0 0 1
-32.249571 -20.691167 -16.809350 41.841528 0.570444 1.984211 0.030928 -0.013797 -387731.000000 0 0 1
-32.978221 -20.007867 -17.822350 42.491340 0.545331 2.003619 0.024015 -0.022178 -167545.000000 0 0 1
-33.693151 -20.878267 -18.915550 43.919568 0.554749 2.016049 0.015033 -0.022337 888342.000000 0 0 1
-34.884786 -21.602167 -18.571650 45.038962 0.554449 1.995824 0.007152 -0.020312 504741.000000 0 0 1
-34.801458 -22.481767 -17.481650 44.968649 0.573559 1.970073 0.007604 -0.018558 -321080.000000 0 0 1
-35.796844 -23.671667 -17.595150 46.382660 0.584263 1.959887 0.007032 -0.005772 503466.000000 0 0 1
34.580390 -23.416467 -17.353250 45.224656 -0.595232 1.964609 -0.001090 -0.011809 344258.000000 0 0 1
33.796220 -24.593267 -17.410550 45.278477 -0.629071 1.965486 -0.011823 -0.010057 -176230.000000 0 0 1
32.390920 -24.505067 -16.809650 43.957187 -0.647674 1.963199 -0.013799 -0.008775 -282967.000000 0 0 1
31.443900 -24.133567 -17.782750 43.443919 -0.654615 1.992512 -0.011071 -0.006795 234631.000000 0 0 1
30.128740 -24.508567 -17.370250 42.545698 -0.682895 1.991357 0.000193 -0.013375 223424.000000 0 0 1
28.990510 -24.124967 -18.293650 41.918031 -0.694050 2.022406 0.018642 -0.004944 -493550.000000 0 0 1
28.492380 -22.828667 -17.993250 40.702835 -0.675484 2.028695 0.023092 -0.001914 667287.000000 0 0 1
27.377430 -22.556367 -18.872450 40.180626 -0.689147 2.059736 0.022969 -0.008091 234067.000000 0 0 1
34.082020 29.660033 -18.428950 48.794752 0.716136 1.958089 0.017134 0.003418 -294221.000000 0 0 1
33.166540 29.728833 -19.485350 48.615859 0.730795 1.983189 0.002507 -0.002404 24506.900000 0 0 1
33.858360 29.499533 -20.682450 49.440618 0.716709 2.002401 0.011204 0.004447 398791.000000 0 0 1
32.889650 29.692533 -21.929050 49.439446 0.734356 2.030356 0.013273 0.003014 177584.000000 0 0 1
31.848440 28.729433 -21.987150 48.198944 0.733956 2.044488 0.015564 0.004097 556966.000000 0 0 1
30.947710 28.878433 -23.097850 48.220694 0.750824 2.070315 0.026901 0.009867 901751.000000 0 0 1
29.859710 29.991733 -22.968250 48.152329 0.787604 2.068025 0.026532 0.014777 -457484.000000 0 0 1
30.444660 31.247233 -22.986950 49.311933 0.798407 2.055735 0.026956 0.000268 -266122.000000 0 0 1
29.449930 32.254933 -22.965850 49.346827 0.830825 2.054879 0.029751 0.002464 -102934.000000 0 0 1
29.916740 33.781633 -22.901750 50.603361 0.845999 2.040446 0.026393 0.000330 111993.000000 0 0 1
30.378280 34.255033 -21.637350 50.640123 0.845307 2.012275 0.024433 -0.006043 -355358.000000 0 0 1
31.760990 34.111633 -21.466950 51.314656 0.821068 2.002413 0.014236 -0.002240 -494903.000000 0 0 1
32.220100 33.827833 -20.020250 50.825855 0.809735 1.975666 0.011866 -0.008603 -422057.000000 0 0 1
32.098190 -33.864713 -19.091850 50.414396 -0.812172 1.959186 0.014995 -0.006774 66580.300000 0 0 1
32.463350 -34.154813 -17.767550 50.359767 -0.810783 1.931371 0.009721 -0.016733 -227384.000000 0 0 1
32.120920 -33.013813 -16.795250 49.028010 -0.799106 1.920441 0.010217 -0.016702 -376163.000000 0 0 1
33.031110 -31.961713 -16.826350 48.946209 -0.768946 1.921727 0.016003 -0.010494 -382553.000000 0 0 1
34.113070 -32.132613 -15.931650 49.497715 -0.755511 1.898496 0.020148 -0.014466 -297024.000000 0 0 1
35.337300 -31.271513 -16.271050 49.913719 -0.724434 1.902848 0.014537 -0.006206 -339213.000000 0 0 1
-35.720741 -31.881213 -17.361650 50.929461 0.728663 1.918666 0.002785 -0.010822 -743911.000000 0 0 1
-34.443167 -31.320913 -17.351550 49.683072 0.737957 1.927561 -0.003518 -0.002306 -139854.000000 0 0 1
-33.362071 -31.777713 -18.365550 49.599841 0.761081 1.950101 0.001453 -0.004875 -291203.000000 0 0 1
-32.782261 -33.040413 -18.010650 49.907204 0.789320 1.940011 0.006020 -0.010496 238195.000000 0 0 1
-31.944631 -33.615913 -18.987650 50.110078 0.810885 1.959424 0.025840 -0.003311 65966.500000 0 0 1
-30.607191 -32.944813 -19.373350 48.964145 0.822164 1.977587 0.006233 -0.000787 -1538830.000000 0 0 1
-30.655011 -31.773213 -20.254350 48.574741 0.803308 2.000909 -0.000057 -0.003438 631289.000000 0 0 1
-29.391041 -31.314013 -20.806050 47.720985 0.817065 2.021939 0.010616 -0.002750 1063610.000000 0 0 1
-28.601491 -32.469813 -21.521550 48.327127 0.848655 2.032340 0.007659 0.003621 -488530.000000 0 0 1
-29.293171 -33.075213 -22.626250 49.638763 0.845964 2.044088 0.007923 0.010168 301042.000000 0 0 1
-28.491791 -34.134013 -23.183550 50.143693 0.875250 2.051431 0.003250 0.003700 191680.000000 0 0 1
-29.123261 33.870433 -24.359450 50.879793 -0.860615 2.070043 0.007459 -0.002895 -746140.000000 0 0 1
-30.263591 33.148633 -24.065050 50.929789 -0.830863 2.062938 0.001253 -0.007429 -406209.000000 0 0 1
-30.978451 32.508933 -25.135010 51.461285 -0.809500 2.081081 0.005171 -0.006805 826404.000000 0 0 1
-31.812821 33.378633 -26.141920 53.005554 -0.809412 2.086552 0.017865 -0.013987 13325.100000 0 0 1
-31.048581 34.022233 -27.156190 53.469481 -0.831065 2.103521 0.015772 -0.019423 -217521.000000 0 0 1
-31.541431 -33.451313 -27.483270 53.564749 0.814776 2.109571 0.019874 -0.019274 151580.000000 0 0 1
-30.832131 -32.917113 -28.756160 53.489002 0.818092 2.138395 0.007144 -0.018052 -244081.000000 0 0 1
-30.995381 -33.629813 -30.015810 54.704907 0.826140 2.151588 0.017412 -0.014916 -527926.000000 0 0 1
-32.241321 -33.686013 -30.637800 55.793593 0.807308 2.152116 0.018807 -0.015570 -555052.000000 0 0 1
-32.194121 34.153633 -31.849140 56.721247 -0.814924 2.166997 0.034833 -0.018313 47708.100000 0 0 1
-31.439911 -34.055713 -32.911340 56.845544 0.825316 2.188250 0.042039 -0.027897 -96346.600000 0 0 1
-31.459431 33.940433 -34.141297 57.508929 -0.823316 2.206408 0.021528 -0.028527 -784690.000000 0 0 1
-30.641511 -34.162313 33.321790 56.712499 0.839675 0.942761 0.028675 -0.028808 135621.000000 0 0 1
-29.292251 34.161733 33.353336 56.013436 -0.861988 0.932968 0.019156 -0.024849 -16511.200000 0 0 1
-29.087271 32.854533 32.831647 54.803346 -0.846143 0.928443 0.025652 -0.028761 -154601.000000 0 0 1
-27.662101 32.265233 33.070404 53.850615 -0.862060 0.909534 0.024603 -0.024181 201210.000000 0 0 1
-27.556821 31.748433 -34.219645 54.206323 -0.855959 2.254005 0.030098 -0.024046 1120180.000000 0 0 1
-26.191401 31.564833 -33.786110 53.139716 -0.878168 2.259838 0.048228 -0.025924 748570.000000 0 0 1
-25.515131 30.166733 -34.184561 52.245937 -0.868744 2.284054 0.041569 -0.018531 -59932.600000 0 0 1
-25.895301 29.081433 -33.380580 51.288980 -0.843288 2.279478 0.040095 -0.017999 202277.000000 0 0 1
-25.464821 27.819733 -33.880840 50.698185 -0.829564 2.302697 0.036811 -0.015458 -270186.000000 0 0 1
-25.420761 26.647433 -32.807120 49.321475 -0.808953 2.298517 0.050309 -0.019411 -462506.000000 0 0 1
-24.308731 26.599633 -31.949040 48.158032 -0.830368 2.296178 0.056512 -0.015322 -162944.000000 0 0 1
-24.359631 27.605633 -30.920040 48.078181 -0.847782 2.269362 0.044675 -0.012822 -526101.000000 0 0 1
-23.112031 27.722333 -30.075450 46.981128 -0.875843 2.265503 0.048558 -0.010653 5182.620000 0 0 1
-21.876831 28.025533 -30.723790 46.989121 -0.907995 2.283457 0.047026 -0.016576 334761.000000 0 0 1
-20.746831 28.045033 -29.894690 45.941782 -0.933876 2.279313 0.041039 -0.017449 28752.600000 0 0 1
-20.428431 29.346733 -29.065010 46.079565 -0.962689 2.253325 0.039450 -0.010708 -450906.000000 0 0 1
-20.035831 30.443033 -29.884470 47.130609 -0.988719 2.257612 0.038247 -0.004712 245821.000000 0 0 1
-19.787631 31.617133 -29.108640 47.312856 -1.011585 2.233483 0.034353 -0.006014 -349742.000000 0 0 1
-19.333231 32.814533 -29.936500 48.443384 -1.038381 2.236953 0.037930 -0.000625 333658.000000 0 0 1
-18.017531 32.699733 -30.457200 48.182414 -1.067186 2.255086 0.043964 -0.005908 32156.600000 0 0 1
-17.700531 33.728033 -31.327420 49.318316 -1.087505 2.259075 0.036804 0.004876 508312.000000 0 0 1
-16.208931 33.943833 -31.728270 49.209718 -1.125292 2.271501 0.039924 0.003658 711087.000000 0 0 1
-15.344731 -34.178413 -30.758310 48.473687 1.148808 2.258205 0.047188 -0.003951 1101840.000000 0 0 1
-13.975031 -34.025013 -31.150580 48.201262 1.181076 2.273470 0.057667 -0.003279 967972.000000 0 0 1
-13.035331 33.512733 -31.079850 47.528730 -1.199838 2.283547 0.082502 -0.007275 -736429.000000 0 0 1
-12.858931 32.991233 -29.771160 46.261167 -1.199142 2.269918 0.099050 -0.018407 -10781.100000 0 0 1
-12.408531 31.656633 -29.739920 45.172745 -1.197229 2.289434 0.101259 -0.014283 -68999.200000 0 0 1
-12.269431 31.182333 -28.253410 43.830720 -1.195929 2.271300 0.081929 -0.019678 870810.000000 0 0 1
-10.963931 31.541233 -27.753090 43.419940 -1.236256 2.264226 0.068787 -0.015201 732040.000000 0 0 1
-10.814431 31.298333 -26.341100 42.313014 -1.238112 2.242767 0.045381 -0.013185 334923.000000 0 0 1
-9.391331 31.577533 -25.797940 41.843415 -1.281722 2.235131 0.041419 -0.014263 257524.000000 0 0 1
-8.450731 30.581933 -26.115660 41.093761 -1.301193 2.259470 0.052852 -0.005004 -62042.600000 0 0 1
-7.132231 31.091133 -25.923770 41.104369 -1.345300 2.253228 0.054508 -0.011632 198468.000000 0 0 1
-6.081631 30.151933 -26.510520 40.607056 -1.371767 2.282144 0.020676 -0.004141 -537219.000000 0 0 1
-5.911631 28.937833 -25.827050 39.234960 -1.369282 2.289310 0.022753 -0.016314 492863.000000 0 0 1
-4.753331 28.237733 -26.317960 38.892142 -1.404027 2.314055 0.018244 -0.018637 627299.000000 0 0 1
-4.343531 27.140433 -25.353120 37.393182 -1.412103 2.315854 0.027484 -0.021335 145963.000000 0 0 1
-5.262231 26.009633 -25.430340 36.754514 -1.371172 2.334910 0.036165 -0.020504 670480.000000 0 0 1
-4.916731 24.946133 -24.581050 35.365404 -1.376197 2.339299 0.029074 -0.029733 -943943.000000 0 0 1
-5.750931 23.707633 -24.606850 34.649995 -1.332816 2.360514 0.043873 -0.026148 -518819.000000 0 0 1
-5.711531 22.982433 -25.785890 35.010369 -1.327214 2.398710 0.046143 -0.025375 378638.000000 0 0 1
-6.612131 21.871433 -25.567190 34.289373 -1.277214 2.412276 0.042582 -0.027328 165584.000000 0 0 1
-6.672331 20.925733 -26.783720 34.637753 -1.262130 2.454750 0.037491 -0.022248 -11202.900000 0 0 1
-5.485331 20.176933 -26.950310 34.110361 -1.305350 2.481755 0.054713 -0.026854 -244320.000000 0 0 1
-5.335431 19.152633 -25.951640 32.692167 -1.299110 2.487858 0.050971 -0.023950 72598.900000 0 0 1
-4.080831 18.261933 -26.242080 32.230392 -1.350947 2.522151 0.053840 -0.035689 472071.000000 0 0 1
-4.049631 17.616133 -27.510210 32.917158 -1.344840 2.560277 0.055281 -0.033803 598956.000000 0 0 1
-2.908731 16.735533 -27.634260 32.437495 -1.398710 2.590444 0.056907 -0.035608 327076.000000 0 0 1
-2.563431 16.361033 -29.097780 33.480373 -1.415381 2.624175 0.064295 -0.032475 330581.000000 0 0 1
-1.634031 17.272533 -29.726960 34.419509 -1.476474 2.613294 0.069805 -0.043428 601416.000000 0 0 1
-1.659931 17.410633 -31.136100 35.711934 -1.475744 2.629800 0.066183 -0.041313 35256.200000 0 0 1
-0.921631 18.691033 -31.616770 36.739955 -1.521528 2.607156 0.076965 -0.023829 958882.000000 0 0 1
0.507469 18.752333 -31.434330 36.606347 1.543741 2.603548 0.089017 -0.027561 844880.000000 0 0 1
1.020269 20.019933 -31.797430 37.588765 1.519878 2.579101 0.087736 -0.007766 130820.000000 0 0 1
0.811869 21.232433 -30.942440 37.535449 1.532578 2.539854 0.079597 -0.007468 -97796.700000 0 0 1
1.488969 21.196333 -29.673030 36.496442 1.500665 2.520149 0.086927 -0.040174 17064.500000 0 0 1
1.313169 22.434733 -28.930770 36.633743 1.512330 2.481165 0.084805 -0.034299 202935.000000 0 0 1
2.452069 22.503033 -27.903310 35.930403 1.462258 2.460037 0.080876 -0.027594 -958159.000000 0 0 1
3.727969 22.570733 -28.417230 36.481155 1.407106 2.463796 0.076481 -0.029369 -932272.000000 0 0 1
4.704769 22.710333 -27.402720 35.899905 1.366522 2.439216 0.069893 -0.031091 -138058.000000 0 0 1
5.097269 24.141733 -27.013840 36.586240 1.362713 2.401433 0.078211 -0.030766 -565522.000000 0 0 1
5.658069 24.823033 -28.134170 37.943751 1.346689 2.406056 0.074242 -0.037249 318875.000000 0 0 1
6.035169 26.174833 -27.807790 38.662881 1.344185 2.373500 0.069594 -0.030665 242438.000000 0 0 1
6.844969 26.881633 -28.952400 40.096350 1.321461 2.377587 0.077164 -0.029474 -780026.000000 0 0 1
8.129869 26.418533 -29.104150 40.138326 1.272260 2.381970 0.069460 -0.023873 -1140320.000000 0 0 1
8.835969 27.148233 -30.096360 41.483633 1.256138 2.382556 0.071935 -0.024417 -743615.000000 0 0 1
10.323069 27.016733 -29.818340 41.540378 1.205816 2.371456 0.060888 -0.018995 -950322.000000 0 0 1
11.004369 28.046533 -30.477410 42.855299 1.196892 2.361958 0.064364 -0.016430 -692706.000000 0 0 1
12.282969 28.241533 -29.932470 42.946575 1.160549 2.341960 0.044983 -0.020807 -298319.000000 0 0 1
13.038169 29.280533 -30.775160 44.434828 1.151871 2.335871 0.055180 -0.020119 -162321.000000 0 0 1
12.536869 30.618233 -30.649180 45.100128 1.182164 2.317987 0.065614 -0.021764 146450.000000 0 0 1
13.292569 31.471433 -31.480010 46.455726 1.171156 2.315338 0.091951 -0.030881 -15337.600000 0 0 1
12.873469 32.946633 -31.471520 47.346208 1.198301 2.297903 0.101256 -0.036507 -365169.000000 0 0 1
11.777069 33.208033 -32.290050 47.792470 1.229989 2.312616 0.090558 -0.032558 -355333.000000 0 0 1
11.461069 -34.175213 -32.161180 48.307792 -1.247221 2.299302 0.076604 -0.025398 -427946.000000 0 0 1
10.198769 -33.766713 -32.920730 48.249148 -1.277473 2.321710 0.051269 -0.019548 -256634.000000 0 0 1
10.462469 -33.650213 34.298830 49.175297 -1.269353 0.798920 0.048519 -0.013623 -223426.000000 0 0 1
9.284869 -33.442013 33.584339 48.295805 -1.299977 0.801836 0.050512 -0.021615 -392348.000000 0 0 1
9.411969 -32.636813 32.268449 46.850822 -1.290029 0.811034 0.057097 -0.022745 -46209.200000 0 0 1
9.384769 -31.246213 32.378859 45.965098 -1.279019 0.789187 0.048830 -0.027322 -35933.300000 0 0 1
9.572269 -30.617813 31.158889 44.720858 -1.267786 0.799951 0.053114 -0.021925 -535016.000000 0 0 1
9.010369 -29.179013 31.224619 43.675833 -1.271289 0.774290 0.048293 -0.036393 -314058.000000 0 0 1
7.611469 -29.110613 31.220279 43.359752 -1.315055 0.766952 0.046162 -0.029177 -659992.000000 0 0 1
6.990269 -29.227213 32.443179 44.222774 -1.336036 0.747147 0.047733 -0.020106 -490523.000000 0 0 1
5.452569 -29.012313 32.332059 43.781353 -1.385024 0.739969 0.040194 -0.025635 416921.000000 0 0 1
4.625769 -30.047813 31.813859 44.004437 -1.418049 0.762706 0.043023 -0.026239 104078.000000 0 0 1
4.872069 -30.607513 30.526869 43.502260 -1.412942 0.792973 0.045419 -0.030722 -702089.000000 0 0 1
4.492369 -29.626913 29.382289 41.967300 -1.420311 0.795226 0.028687 -0.025547 -703318.000000 0 0 1
3.135769 -29.776713 29.104969 41.756256 -1.465874 0.799562 0.046488 -0.032567 -557708.000000 0 0 1
2.757169 -28.914013 28.042709 40.373452 -1.475726 0.802956 0.063855 -0.031379 -151539.000000 0 0 1
1.341769 -29.186113 27.479329 40.109139 -1.524856 0.816036 0.051953 -0.030086 -35091.100000 0 0 1
1.169869 -30.422813 26.813869 40.569690 -1.532362 0.848734 0.055064 -0.037001 43779.300000 0 0 1
0.870969 -31.471813 27.730339 41.954801 -1.543129 0.848702 0.081251 -0.039653 -710055.000000 0 0 1
1.057669 -32.900713 27.089579 42.631220 -1.538660 0.882218 0.090244 -0.043675 595522.000000 0 0 1
2.411269 -33.299813 26.850169 42.844175 -1.498512 0.893493 0.071101 -0.037097 740808.000000 0 0 1
2.997769 -32.708213 25.686779 41.696816 -1.479400 0.907095 0.067484 -0.039657 42647.000000 0 0 1
4.546669 -32.721613 25.777719 41.903066 -1.432730 0.908188 0.059241 -0.024548 627943.000000 0 0 1
5.284969 -32.324413 24.605529 40.966213 -1.408732 0.926508 0.052611 -0.028754 1162840.000000 0 0 1
6.695069 -32.227813 24.854519 41.245642 -1.365968 0.924044 0.041453 -0.028258 560170.000000 0 0 1
7.557069 -31.995513 23.612629 40.476887 -1.338856 0.947936 0.031671 -0.013435 -357836.000000 0 0 1
8.890769 -31.659113 23.884689 40.642633 -1.297020 0.942613 0.016417 -0.004948 -197951.000000 0 0 1
9.565669 -31.212813 22.733049 39.781066 -1.273418 0.962520 0.007243 0.001329 135147.000000 0 0 1
10.591469 -30.096213 23.108349 39.394886 -1.232412 0.943964 -0.003619 0.009362 204218.000000 0 0 1
11.734469 -30.585413 23.795509 40.489400 -1.204453 0.942587 0.006676 -0.002379 137873.000000 0 0 1
12.788469 -29.649213 23.782829 40.102914 -1.163580 0.935961 0.014021 0.001440 -42411.800000 0 0 1
14.181269 -30.237513 24.128059 41.201685 -1.132258 0.945166 0.038974 -0.009082 72896.900000 0 0 1
14.405869 -30.450813 25.532729 42.269390 -1.128910 0.922226 0.041233 -0.014467 109177.000000 0 0 1
14.945669 -29.355113 26.206389 42.093592 -1.099869 0.898768 0.029033 -0.011022 -633184.000000 0 0 1
-10.622331 -13.962967 25.765369 31.171343 0.920450 0.597806 0.074397 -0.028444 480460.000000 0 0 1
-9.202831 -13.960567 25.678239 30.642479 0.987980 0.577198 0.082421 -0.030291 -82492.600000 0 0 1
-8.604831 -14.470367 26.849609 31.691263 1.034319 0.560058 0.087297 -0.027852 164942.000000 0 0 1
-7.075531 -14.472267 26.591779 31.090712 1.116066 0.544673 0.083386 -0.021335 -1383.520000 0 0 1
-6.621231 -15.467667 25.723199 30.737150 1.166329 0.579244 0.081923 -0.018753 -33662.200000 0 0 1
-6.550431 -15.114967 24.346199 29.395710 1.161854 0.594867 0.086120 -0.018750 -515987.000000 0 0 1
-6.077331 -16.295867 23.507949 29.242314 1.213836 0.636970 0.086071 -0.015311 335123.000000 0 0 1
-6.957831 -17.422067 23.285749 29.902608 1.190834 0.678174 0.088984 -0.010736 105612.000000 0 0 1
-7.212931 -18.321567 24.323529 31.294413 1.195746 0.680516 0.088413 -0.011720 -259198.000000 0 0 1
-7.773631 -19.716467 23.935749 31.970119 1.195238 0.724711 0.084716 -0.016763 460339.000000 0 0 1
-9.132431 -19.674367 23.507049 31.985362 1.136214 0.745231 0.074919 -0.017912 225421.000000 0 0 1
-9.608831 -20.974767 23.247249 32.752177 1.141215 0.781593 0.060424 -0.018510 1016130.000000 0 0 1
-11.167231 -21.175067 23.371549 33.456237 1.085488 0.797398 0.046881 -0.015004 1040470.000000 0 0 1
-11.579131 -21.548967 24.714299 34.773997 1.077724 0.780286 0.042488 -0.014112 -66443.300000 0 0 1
-12.952231 -21.371967 24.945559 35.310086 1.025949 0.786297 0.041358 -0.010081 -217055.000000 0 0 1
-13.351031 -21.091967 26.442739 36.363987 1.006471 0.756608 0.034480 -0.010621 -172369.000000 0 0 1
-13.101931 -22.158167 27.261789 37.494668 1.036805 0.756731 0.036096 -0.004670 -97562.100000 0 0 1
-12.254131 -21.836067 28.325109 37.805943 1.059404 0.723907 0.037790 -0.005766 -300708.000000 0 0 1
-11.938631 -23.055967 29.114629 39.009873 1.093002 0.728250 0.039740 -0.005662 308033.000000 0 0 1
-13.063131 -23.672167 29.758299 40.206632 1.066545 0.737527 0.024263 -0.001740 555516.000000 0 0 1
-12.583331 -24.890667 30.331489 41.205397 1.102723 0.743499 0.035849 0.000959 287420.000000 0 0 1
-13.618931 -25.642037 31.235839 42.645832 1.082566 0.748886 0.032011 -0.010839 336435.000000 0 0 1
-13.609631 -25.117847 32.534909 43.297213 1.074246 0.720567 0.062070 -0.011529 -81220.500000 0 0 1
-14.707631 -25.436917 33.350630 44.447899 1.046560 0.722234 0.047500 -0.014725 -255360.000000 0 0 1
-14.522031 -24.700167 -33.931960 44.411322 1.039297 2.440346 0.049545 -0.018013 149673.000000 0 0 1
-14.587631 -23.282567 -33.931660 43.660445 1.011085 2.460955 0.062044 -0.021363 -457428.000000 0 0 1
-15.891531 -22.807167 -34.124778 44.013726 0.962236 2.458020 0.043794 -0.020592 -553715.000000 0 0 1
-16.053031 -21.346067 -33.798860 43.078038 0.925993 2.472841 0.044447 -0.021946 -162344.000000 0 0 1
-15.948231 -21.054067 -32.407370 41.807385 0.922519 2.457763 0.035948 -0.018915 138525.000000 0 0 1
-15.920831 -19.665567 -32.178350 40.934748 0.890242 2.475252 0.023360 -0.021011 -283801.000000 0 0 1
-16.064831 -19.228567 -30.713660 39.637678 0.874800 2.457290 0.028255 -0.016052 -1050730.000000 0 0 1
-17.249631 -19.454967 -30.061380 39.745844 0.845409 2.428497 0.030174 -0.017826 -1069510.000000 0 0 1
-17.253531 -19.293767 -28.650760 38.610877 0.841165 2.406903 0.025436 -0.013709 308518.000000 0 0 1
-16.412531 -20.314667 -27.750070 38.106735 0.891248 2.386517 0.013555 -0.008056 643828.000000 0 0 1
-15.015531 -20.206267 -27.923780 37.596501 0.931718 2.407924 0.006770 -0.005269 -92968.500000 0 0 1
-14.268831 -21.166767 -27.220820 37.317618 0.977655 2.388294 0.000470 -0.006460 949481.000000 0 0 1
-12.729031 -21.131767 -27.507530 36.949209 1.028640 2.410535 0.019574 -0.010753 22366.200000 0 0 1
-12.046931 -20.009667 -27.044480 35.734006 1.028867 2.429242 0.011925 -0.013648 74726.500000 0 0 1
-10.634031 -20.099767 -26.973670 35.279769 1.084170 2.441162 0.001951 -0.018895 665502.000000 0 0 1
-10.036731 -21.092967 -25.911600 34.886390 1.126669 2.407953 0.010610 -0.018235 -874116.000000 0 0 1
-10.134031 -22.405167 -26.378630 36.062754 1.146025 2.391264 0.014077 -0.025031 203916.000000 0 0 1
-9.626331 -23.272567 -25.334810 35.722979 1.178592 2.359162 0.040086 -0.025465 -56656.800000 0 0 1
-9.622131 -24.744467 -25.694690 36.947140 1.199930 2.339835 0.043834 -0.032097 -209702.000000 0 0 1
-8.618731 -25.224837 -26.554690 37.626141 1.241556 2.354279 0.049953 -0.036985 -131141.000000 0 0 1
-9.022031 -26.363287 -27.301440 39.010109 1.241070 2.345992 0.047956 -0.035051 -55589.400000 0 0 1
-8.905431 -27.825387 -26.814680 39.655844 1.261051 2.313368 0.058590 -0.027165 -287688.000000 0 0 1
-9.827031 -28.029357 -25.791230 39.337043 1.233589 2.285836 0.048953 -0.028492 -142644.000000 0 0 1
-9.536031 -29.185977 -25.088510 39.650857 1.254998 2.255877 0.071166 -0.023826 495340.000000 0 0 1
-10.551431 -29.376017 -23.881350 39.301424 1.225962 2.223889 0.073131 -0.025849 599409.000000 0 0 1
-10.539131 -28.333357 -22.872550 37.907861 1.214686 2.218519 0.067304 -0.031815 86571.900000 0 0 1
-11.472731 -27.270827 -23.137150 37.558611 1.172577 2.234486 0.044016 -0.025478 170001.000000 0 0 1
-11.396531 -26.157277 -22.090850 36.084480 1.159904 2.229634 0.041411 -0.020284 90816.100000 0 0 1
-11.923031 -26.569027 -20.806150 35.790610 1.148977 2.191158 0.037054 -0.022121 341184.000000 0 0 1
-11.948631 -25.389057 -20.017150 34.468251 1.130927 2.190436 0.036418 -0.017440 -297849.000000 0 0 1
-12.538331 -25.601227 -18.634350 34.056887 1.115378 2.149756 0.051338 -0.018850 -469303.000000 0 0 1
-13.895731 -25.921237 -18.730450 34.868777 1.078707 2.137874 0.065879 -0.022182 -624406.000000 0 0 1
-14.373631 -26.400617 -17.467150 34.766294 1.072230 2.097187 0.068756 -0.023013 804135.000000 0 0 1
-15.935931 -26.528697 -17.387350 35.497121 1.029858 2.082684 0.069005 -0.025661 -234053.000000 0 0 1
-16.596531 -25.295567 -17.297750 34.850003 0.990142 2.090184 0.061644 -0.020275 1201010.000000 0 0 1
-17.992231 -25.361047 -16.863950 35.373661 0.953760 2.067736 0.076461 -0.020208 2116200.000000 0 0 1
-18.997431 -25.986467 -17.921450 36.842601 0.939533 2.078799 0.054265 -0.008723 -939585.000000 0 0 1
-18.895531 -27.382417 -18.184550 37.914584 0.966772 2.071017 0.058915 -0.011217 -20604.400000 0 0 1
-19.027831 -28.392737 -17.176050 38.252092 0.980375 2.036467 0.066574 -0.023195 -216441.000000 0 0 1
-20.477431 -28.794877 -16.782450 39.116758 0.952627 2.014220 0.055469 -0.012072 191588.000000 0 0 1
-21.038631 -29.589367 -17.792550 40.431788 0.952713 2.026466 0.051481 -0.004857 18143.600000 0 0 1
-22.188331 -30.296217 -17.348550 41.366109 0.938668 2.003570 0.038902 0.003892 312197.000000 0 0 1
-22.877031 -31.105337 -18.466750 42.800951 0.936660 2.016903 0.028320 0.000261 -257690.000000 0 0 1
-22.273231 -32.352847 -18.421550 43.383834 0.967866 2.009336 0.037057 -0.005298 180502.000000 0 0 1
-22.771131 -33.208607 -19.452850 44.718557 0.969733 2.020841 0.016210 0.011445 -180701.000000 0 0 1
-22.204231 34.093734 -19.471650 45.106050 -0.993529 2.017157 0.012716 0.006681 -113656.000000 0 0 1
-22.635531 33.176480 -18.474050 44.207880 -0.972065 2.001918 0.013922 0.002242 -278551.000000 0 0 1
-21.839331 32.036089 -18.506850 42.962436 -0.972451 2.016140 0.012703 -0.006824 -341394.000000 0 0 1
-22.557631 30.759369 -18.077050 42.210961 -0.938031 2.013357 0.011710 -0.016272 -57391.200000 0 0 1
-23.010031 30.666479 -16.734250 41.832160 -0.927083 1.982349 0.005282 -0.019380 -82634.500000 0 0 1
-23.695731 29.460819 -16.413150 41.216732 -0.893431 1.980367 0.005465 -0.014960 -37764.000000 0 0 1
-22.918531 28.105679 -16.176750 39.709892 -0.886711 1.990372 0.007748 -0.025061 -108988.000000 0 0 1
-22.105131 27.742349 -17.265150 39.450731 -0.898009 2.023767 0.011513 -0.022629 -35645.600000 0 0 1
-21.777431 26.377769 -17.310950 38.336826 -0.880641 2.039297 0.012071 -0.018283 259574.000000 0 0 1
-20.981731 25.965099 -18.619450 38.224381 -0.891151 2.079573 0.028580 -0.020104 -355728.000000 0 0 1
-20.728031 24.603779 -18.702550 37.212667 -0.870688 2.097383 0.025229 -0.026211 276189.000000 0 0 1
-19.935131 24.096759 -19.777450 37.002848 -0.879632 2.134694 0.023794 -0.016862 247760.000000 0 0 1
-18.459131 24.546509 -19.850850 36.569480 -0.926012 2.144594 0.022140 -0.016090 -561364.000000 0 0 1
-17.722131 24.088689 -18.693250 35.267215 -0.936508 2.129451 0.039348 -0.020209 -308217.000000 0 0 1
-16.552031 24.817079 -18.540250 35.122614 -0.982590 2.126890 0.056601 -0.027350 -825264.000000 0 0 1
-16.657431 26.097859 -17.641650 35.634198 -1.002713 2.088719 0.053958 -0.031826 -352795.000000 0 0 1
-17.505531 27.081559 -18.189850 37.023305 -0.996956 2.084387 0.035769 -0.024139 -163430.000000 0 0 1
-17.352731 28.298959 -17.435350 37.495864 -1.020732 2.054424 0.042681 -0.031298 383212.000000 0 0 1
-18.432231 29.440969 -17.736050 39.001093 -1.011425 2.042897 0.038326 -0.024020 728535.000000 0 0 1
-18.363331 29.870299 -19.097250 39.926829 -1.019588 2.069521 0.031962 -0.027521 323350.000000 0 0 1
-18.989531 28.949299 -20.002150 39.984375 -0.990244 2.094683 0.022686 -0.015757 -402478.000000 0 0 1
-18.913231 29.358819 -21.477450 40.999164 -0.998503 2.122162 0.024207 -0.014837 -472715.000000 0 0 1
-19.658631 30.464459 -21.785450 42.298355 -0.997734 2.111854 0.025258 -0.011006 -405885.000000 0 0 1
-19.882831 30.676789 -23.153850 43.272314 -0.995730 2.135391 0.028456 -0.007570 4237.480000 0 0 1
-20.733631 31.930679 -23.321450 44.646856 -0.994890 2.120405 0.031445 -0.001882 229352.000000 0 0 1
-19.896831 33.082412 -23.158450 45.018259 -1.029324 2.111132 0.014915 -0.000761 544622.000000 0 0 1
-20.352731 34.101729 -24.038050 46.421864 -1.032715 2.115094 0.025881 0.004761 144186.000000 0 0 1
-19.509831 -33.325507 -23.944050 45.437214 1.041157 2.125828 0.026056 0.005529 168068.000000 0 0 1
-19.491131 -32.481077 -22.754750 44.189401 1.030321 2.111730 0.036284 0.002419 -297535.000000 0 0 1
-18.805231 -33.032547 -21.707250 43.772030 1.053261 2.089686 0.050911 -0.007722 -545282.000000 0 0 1
-18.587631 -32.050477 -20.530550 42.358430 1.045251 2.076801 0.056310 -0.012872 -657762.000000 0 0 1
-17.676731 -31.080657 -20.873750 41.402747 1.053681 2.099209 0.064148 -0.014404 -423011.000000 0 0 1
-17.288131 -30.434207 -19.673850 40.151971 1.054201 2.082868 0.057508 -0.016088 -883766.000000 0 0 1
-16.129331 -29.491507 -19.826150 39.025383 1.070325 2.103695 0.067975 -0.021429 -222928.000000 0 0 1
-14.926831 -30.196797 -20.161950 39.257624 1.111704 2.110149 0.069549 -0.027230 -49198.200000 0 0 1
-13.883631 -29.267357 -20.227050 38.189880 1.127860 2.128977 0.050760 -0.029507 358020.000000 0 0 1
-12.441131 -29.885187 -20.446950 38.288169 1.176320 2.134154 0.088568 -0.031499 1009610.000000 0 0 1
-11.828631 -30.643457 -19.420550 38.158822 1.202410 2.104749 0.086534 -0.026006 205639.000000 0 0 1
-11.188231 -29.737757 -18.513350 36.773018 1.210948 2.098383 0.060854 -0.018084 -353935.000000 0 0 1
-10.578631 -30.563127 -17.319450 36.687539 1.237579 2.062445 0.055631 -0.008079 3711.320000 0 0 1
-11.501231 -31.203047 -16.458450 37.105108 1.217654 2.030367 0.078528 -0.020739 120040.000000 0 0 1
-11.720931 -32.566327 -16.733750 38.444301 1.225321 2.021137 0.088827 -0.013857 -16397.500000 0 0 1
-12.540231 -33.309677 -15.631550 38.873350 1.210734 1.984622 0.098507 -0.018347 -146836.000000 0 0 1
-11.914831 -33.469827 -14.368050 38.322753 1.228798 1.955109 0.093173 -0.024955 -53609.100000 0 0 1
-12.644031 -34.299263 -13.502550 38.969601 1.217614 1.924622 0.099443 -0.025440 -310835.000000 0 0 1
-12.055131 -34.347519 -12.102250 38.360692 1.233253 1.891765 0.085968 -0.014801 -19155.500000 0 0 1
-12.222631 -33.211017 -11.257250 37.136102 1.218151 1.878777 0.056175 -0.013203 254878.000000 0 0 1
-11.505631 -33.429707 -10.057950 36.757138 1.239321 1.847964 0.073249 -0.014142 237481.000000 0 0 1
-10.217431 -32.566727 -9.800350 35.511047 1.266784 1.850406 0.053135 -0.013057 150780.000000 0 0 1
-9.137431 -33.068897 -10.482050 35.873639 1.301208 1.867316 0.022382 -0.014891 -575845.000000 0 0 1
-7.897431 -32.480927 -10.086150 34.915762 1.332284 1.863844 0.013454 -0.015551 1157490.000000 0 0 1
-6.566431 -33.109587 -10.601950 35.380279 1.375013 1.875129 0.010698 -0.022961 512484.000000 0 0 1
-6.281231 -34.324281 -9.959950 36.287887 1.389802 1.848835 0.005325 -0.009139 -175758.000000 0 0 1
-5.093231 33.920766 -10.537550 35.883134 -1.421759 1.868853 0.001207 -0.003075 -88811.100000 0 0 1
-4.352031 32.847688 -9.739950 34.536610 -1.439072 1.856693 -0.004640 -0.002645 -279895.000000 0 0 1
-3.872631 33.423865 -8.546150 34.715828 -1.455446 1.819528 0.010238 -0.005452 -131068.000000 0 0 1
-3.404331 32.341899 -7.691950 33.417869 -1.465922 1.803054 0.005681 -0.012745 73459.400000 0 0 1
-3.030031 32.793230 -6.261250 33.522832 -1.478660 1.758675 0.013586 -0.009351 -487194.000000 0 0 1
-2.040531 33.789229 -6.231150 34.419514 -1.510480 1.752835 0.009918 -0.011583 -451754.000000 0 0 1
-1.829731 -34.369403 -4.969050 34.774922 1.517609 1.714179 0.020976 -0.011456 367875.000000 0 0 1
-0.807031 33.619597 -4.051750 33.872486 -1.546796 1.690701 0.031947 -0.019998 -755630.000000 0 0 1
0.492569 33.474071 -4.497050 33.778388 1.556082 1.704327 0.033485 -0.020416 -981365.000000 0 0 1
1.250769 32.746906 -3.582850 32.966060 1.532620 1.679694 0.039426 -0.022767 -1176740.000000 0 0 1
2.715469 32.676799 -3.888350 33.019180 1.487886 1.688831 0.054287 -0.020655 -1059090.000000 0 0 1
3.411969 33.893537 -3.666950 34.261639 1.470467 1.678030 0.054300 -0.016220 12998.400000 0 0 1
4.815669 33.718605 -3.768750 34.268622 1.428936 1.680996 0.058757 -0.013217 226722.000000 0 0 1
5.579369 -33.768157 -3.385450 34.393009 -1.407050 1.669390 0.064716 -0.015531 -237417.000000 0 0 1
5.469269 -32.657637 -4.290850 33.389303 -1.404863 1.699662 0.061497 -0.013474 -93450.000000 0 0 1
6.016969 -31.487257 -3.673250 32.266764 -1.381980 1.684884 0.055473 -0.020560 106649.000000 0 0 1
5.841569 -30.110157 -4.446550 30.992213 -1.379170 1.714766 0.045029 -0.007328 276269.000000 0 0 1
6.747469 -30.028517 -5.555050 31.274570 -1.349766 1.749366 0.053663 -0.009699 74740.000000 0 0 1
6.693069 -28.840957 -6.297550 30.269739 -1.342765 1.780375 0.041311 -0.002571 116630.000000 0 0 1
7.195969 -27.510427 -5.688450 28.999380 -1.314956 1.768234 0.046154 -0.004985 420682.000000 0 0 1
6.349069 -27.103017 -4.624850 28.218317 -1.340689 1.735434 0.042526 -0.015116 -75816.300000 0 0 1
6.901369 -25.898677 -4.086250 27.112134 -1.310372 1.722089 0.037411 -0.011276 279505.000000 0 0 1
6.008569 -25.203227 -3.024150 26.085456 -1.336760 1.686990 0.031316 -0.011967 567970.000000 0 0 1
4.857269 -24.578567 -3.574750 25.307664 -1.375688 1.712522 0.027683 -0.014304 53645.700000 0 0 1
3.921569 -24.152567 -2.612350 24.607917 -1.409834 1.677156 0.023623 -0.014967 140071.000000 0 1 0
2.776069 -23.231467 -3.085850 23.599366 -1.451864 1.701932 0.028341 -0.020799 204998.000000 0 1 0
1.863069 -24.008767 -3.811150 24.380664 -1.493352 1.727759 0.032845 -0.014537 -695227.000000 0 1 0
0.801969 -23.255867 -4.350950 23.672965 -1.536325 1.755641 0.026883 -0.012466 286147.000000 0 1 0
-15.076531 22.996933 18.156049 32.951523 -0.990502 0.987243 0.012451 -0.009323 -90028.800000 0 0 1
-15.501131 22.562933 19.429149 33.568778 -0.968837 0.953557 0.027206 -0.007692 220071.000000 0 0 1
-15.263331 23.509433 20.410149 34.673288 -0.994954 0.941419 0.022029 -0.007770 -1121390.000000 0 0 1
-15.135431 22.926633 21.833349 35.091408 -0.987306 0.899266 0.027317 -0.007296 -887043.000000 0 0 1
-14.117031 21.973133 22.117249 34.223995 -0.999734 0.868136 0.016151 -0.003687 150204.000000 0 0 1
-12.790331 22.405833 21.929249 33.860093 -1.052088 0.866309 0.014313 -0.010125 -668638.000000 0 0 1
-12.246531 23.571033 22.746949 34.971343 -1.091625 0.862626 0.027596 0.008278 -1261450.000000 0 0 1
-11.911631 23.045733 24.025569 35.358461 -1.093745 0.823735 0.024081 0.009522 116549.000000 0 0 1
-11.758331 24.073333 25.019139 36.657074 -1.116441 0.819593 0.040828 0.011190 -119668.000000 0 0 1
-11.281331 23.513733 26.346189 37.071360 -1.123458 0.780320 0.037500 0.007968 -332877.000000 0 0 1
-9.897731 23.278833 26.338349 36.518184 -1.168772 0.765207 0.009750 0.002496 -559161.000000 0 0 1
-9.567031 22.679033 27.586999 36.971735 -1.171601 0.728514 0.004662 0.005147 -1410580.000000 0 0 1
-8.117031 22.297533 27.692699 36.468504 -1.221675 0.708468 -0.002801 -0.002240 -657444.000000 0 0 1
-7.094931 23.231033 27.941659 37.023712 -1.274386 0.715605 0.005713 0.000375 92796.000000 0 0 1
-6.934931 24.283733 27.017059 36.982624 -1.292621 0.751693 0.004706 -0.001253 -1341730.000000 0 0 1
-5.947931 25.288833 27.588739 37.895138 -1.339795 0.755355 0.014583 -0.010505 -17123.600000 0 0 1
-4.640331 24.711133 27.569579 37.312926 -1.385175 0.739397 0.017080 -0.013976 -342320.000000 0 0 1
-3.778631 25.626733 28.200249 38.291795 -1.424402 0.742979 0.032101 -0.012681 464870.000000 0 0 1
-2.291531 25.135733 28.206909 37.850838 -1.479881 0.729943 0.030778 -0.010208 517334.000000 0 0 1
-1.721631 25.213533 26.921709 36.925123 -1.502620 0.753806 0.034270 -0.014664 406926.000000 0 0 1
-0.323931 24.886933 26.921939 36.664086 -1.557781 0.746181 0.056453 -0.005134 1058890.000000 0 0 1
0.154469 24.735433 25.459849 35.497457 1.564552 0.770977 0.061510 -0.014673 237502.000000 0 0 1
-0.345831 23.499433 24.915159 34.250666 -1.556081 0.756219 0.049705 -0.009232 258693.000000 0 0 1
0.144569 23.363833 23.597369 33.207310 1.564609 0.780435 0.047899 -0.002485 -133349.000000 0 0 1
-0.405731 22.115633 22.971849 31.889994 -1.552452 0.766494 0.035669 0.001695 -102156.000000 0 0 1
0.091469 20.885433 23.457949 31.408360 1.566417 0.727454 0.038342 -0.005791 -197081.000000 0 0 1
-0.121731 19.878233 22.579149 30.082835 -1.564673 0.721878 0.029024 -0.002988 239844.000000 0 0 1
0.907669 18.714133 22.758749 29.478862 1.522333 0.688758 0.031746 0.002770 407417.000000 0 0 1
2.235069 19.022133 22.385849 29.461217 1.453834 0.707727 0.036612 -0.004246 60734.100000 0 0 1
3.009469 17.809233 22.319949 28.712468 1.403394 0.680337 0.018188 -0.000852 652094.000000 0 0 1
4.365169 18.087833 21.556949 28.476771 1.333992 0.712085 0.027485 -0.003288 449022.000000 0 0 1
5.260869 18.720133 22.422149 29.679503 1.296835 0.714416 0.029682 -0.003676 -45337.000000 0 0 1
6.445169 19.175033 21.757949 29.709097 1.246537 0.749005 0.047531 -0.022296 555936.000000 0 0 1
7.605469 19.749433 22.614949 30.972878 1.203202 0.752250 0.051939 -0.021347 -295421.000000 0 0 1
7.489669 20.940433 23.423849 32.299746 1.227309 0.759468 0.029778 -0.011751 -108223.000000 0 0 1
7.258769 22.088033 22.701149 32.494817 1.253286 0.797346 0.040939 -0.020245 -606583.000000 0 0 1
5.998569 22.800633 23.217949 33.089649 1.313538 0.793060 0.027157 -0.010181 -96970.000000 0 0 1
5.780269 24.029333 22.599049 33.489362 1.334731 0.830085 0.028365 -0.017983 -708359.000000 0 0 1
4.514769 24.494533 22.887149 33.825832 1.388525 0.827637 0.029181 -0.008240 -849932.000000 0 0 1
4.043169 25.843433 22.193349 34.304154 1.415606 0.867208 0.045878 -0.016046 102913.000000 0 0 1
3.975069 25.956333 20.799549 33.498562 1.418833 0.900895 0.049265 -0.011924 -253948.000000 0 0 1
2.884969 25.213933 20.310749 32.505261 1.456872 0.895863 0.051373 -0.013302 -354200.000000 0 0 1
2.448469 25.769133 18.912249 32.058016 1.476065 0.939814 0.047380 -0.014636 -336543.000000 0 0 1
1.860069 27.036733 18.976349 33.083933 1.502107 0.959924 0.055594 -0.015877 48528.100000 0 0 1
1.444369 27.472933 17.686549 32.705692 1.518270 0.999433 0.053997 -0.010172 139125.000000 0 0 1
0.286569 28.493333 17.789149 33.591755 1.560739 1.012704 0.044901 -0.003203 29331.200000 0 0 1
0.656969 29.681733 18.425249 34.941761 1.548666 1.015361 0.054078 -0.004036 -142930.000000 0 0 1
-0.473631 30.438933 18.717049 35.736269 -1.555238 1.019543 0.039500 -0.002847 -170645.000000 0 0 1
-0.000831 31.842433 19.188649 37.177208 -1.570770 1.028458 0.042444 0.001980 114729.000000 0 0 1
0.596469 31.716533 20.444749 37.739661 1.551992 0.998301 0.046631 -0.002486 -199768.000000 0 0 1
0.893669 33.006233 20.924549 39.090240 1.543727 1.005947 0.046441 -0.008069 -138088.000000 0 0 1
1.513169 33.113533 22.337849 39.972181 1.525132 0.977816 0.052209 -0.021597 89678.700000 0 0 1
0.642869 32.503333 23.285249 39.988533 1.551020 0.949244 0.062125 -0.014579 172478.000000 0 0 1
1.033669 32.792633 24.575649 40.992533 1.539285 0.927901 0.069809 -0.030311 -184550.000000 0 0 1
0.064369 32.175633 25.601489 41.118266 1.568796 0.898696 0.077719 -0.028189 53481.400000 0 0 1
-1.120231 32.911633 25.818239 41.845095 -1.536772 0.905877 0.072247 -0.024162 299386.000000 0 0 1
-1.930731 32.638933 26.967839 42.382685 -1.511711 0.881112 0.071734 -0.019343 465317.000000 0 0 1
-1.340931 33.215733 28.295269 43.654384 -1.530448 0.865623 0.078067 -0.023248 -135916.000000 0 0 1
-0.179331 32.507033 28.703999 43.366565 -1.565280 0.847456 0.081456 -0.024630 -38684.700000 0 0 1
0.338569 33.257133 29.773019 44.638371 1.560616 0.840645 0.064253 -0.028419 -1196980.000000 0 0 1
1.548769 32.585733 30.413249 44.600386 1.523303 0.820432 0.042889 -0.018156 -622958.000000 0 0 1
2.784769 32.608633 29.765259 44.238541 1.485603 0.832761 0.031691 -0.023134 -262950.000000 0 0 1
2.919769 32.105833 28.461859 43.004500 1.480104 0.847533 0.033640 -0.024554 -115344.000000 0 0 1
4.428069 31.798433 28.095869 42.662935 1.432432 0.851900 0.009841 -0.018739 917690.000000 0 0 1
4.860469 30.737933 28.921239 42.483912 1.413969 0.822000 0.010028 -0.020642 318391.000000 0 0 1
6.282669 30.651933 28.850909 42.560403 1.368628 0.825919 0.004990 -0.024988 373166.000000 0 0 1
6.899069 29.499733 29.612659 42.364384 1.341057 0.796800 -0.000778 -0.020682 -119030.000000 0 0 1
6.928269 29.714633 31.003039 43.498836 1.341729 0.777410 0.009426 -0.017068 113378.000000 0 0 1
7.561669 28.599433 31.593379 43.281035 1.312312 0.752534 0.004919 -0.012398 -214592.000000 0 0 1
7.462769 28.538333 33.095472 44.333279 1.315024 0.727987 0.022731 -0.018902 897872.000000 0 0 1
6.105969 28.377033 33.589721 44.393786 1.358855 0.712651 0.026438 -0.016178 1038630.000000 0 0 1
6.010869 28.152933 -33.622930 44.263073 1.360447 2.433519 0.038800 -0.012337 -109638.000000 0 0 1
6.131069 26.733933 -33.141800 43.019439 1.345358 2.450251 0.039763 -0.015598 -215536.000000 0 0 1
7.422169 26.242833 -33.433260 43.145773 1.295169 2.457339 0.033160 -0.015884 45887.700000 0 0 1
7.596869 24.885833 -33.091410 42.095825 1.274513 2.475266 0.047180 -0.017765 -514501.000000 0 0 1
8.987969 24.420533 -33.491040 42.412213 1.218133 2.481044 0.035345 -0.015108 -849129.000000 0 0 1
9.234369 24.442533 33.681425 42.628035 1.209574 0.659785 0.017415 -0.001381 130785.000000 0 0 1
10.471569 23.853233 33.333083 42.305141 1.157128 0.663372 0.025233 -0.017164 -436249.000000 0 0 1
10.753469 22.357233 33.487006 41.675683 1.122477 0.637621 0.031943 -0.020891 -1176770.000000 0 0 1
10.005669 21.525633 32.642190 40.360610 1.135682 0.628750 0.020616 -0.016414 -124995.000000 0 0 1
9.947169 20.205433 33.094976 40.031027 1.113326 0.597520 0.018100 -0.018413 941543.000000 0 0 1
8.732569 20.051333 34.128633 40.534890 1.160057 0.569896 0.037608 -0.018703 632670.000000 0 0 1
8.884769 20.731933 -33.281340 40.204474 1.165919 2.545975 0.045921 -0.018530 -428069.000000 0 0 1
7.650969 20.913633 -32.648770 39.520369 1.220084 2.542992 0.041583 -0.009432 -298897.000000 0 0 1
7.671269 21.400733 -31.191630 38.597377 1.226606 2.511764 0.051727 -0.020746 -207811.000000 0 0 1
7.961069 22.748433 -30.883440 39.174695 1.234156 2.478922 0.070691 -0.020071 9555.550000 0 0 1
8.005569 23.079533 -29.529050 38.323867 1.236914 2.450442 0.051268 -0.018479 -1422430.000000 0 0 1
9.370669 23.156333 -28.953500 38.240428 1.186271 2.429726 0.047939 -0.018239 -1197660.000000 0 0 1
10.064869 21.934133 -28.942490 37.683889 1.140592 2.446561 0.036171 -0.005932 453274.000000 0 0 1
11.472769 22.110733 -28.725290 38.021721 1.092161 2.427208 0.035601 -0.003534 1131560.000000 0 0 1
12.301769 20.788533 -28.762940 37.560662 1.036460 2.443039 0.044663 -0.010943 -78773.300000 0 0 1
12.325769 19.951033 -29.924560 38.019043 1.017391 2.476880 0.035264 -0.016654 -7388.270000 0 0 1
11.061369 19.547633 -30.421920 37.814773 1.055852 2.505627 0.047673 -0.014442 -221073.000000 0 0 1
11.116169 18.514633 -31.561460 38.242471 1.030083 2.541527 0.043037 -0.022898 -482934.000000 0 0 1
11.591069 17.239333 -31.204580 37.486975 0.978861 2.554241 0.047249 -0.021353 -19356.800000 0 0 1
11.473769 16.175533 -32.216180 37.830907 0.953837 2.589795 0.034090 -0.017730 339242.000000 0 0 1
12.565669 16.264433 -33.357690 39.181160 0.912996 2.589389 0.025347 -0.006750 352332.000000 0 0 1
12.514569 17.532533 -34.029110 40.273868 0.950874 2.577254 0.030517 -0.010903 118605.000000 0 0 1
13.226169 17.514833 33.369955 39.940641 0.924013 0.581775 0.033964 -0.013546 200763.000000 0 0 1
12.285669 17.138133 32.194139 38.485268 0.948843 0.579874 0.050680 -0.018358 -122055.000000 0 0 1
12.873369 17.360533 30.912549 37.718662 0.932738 0.610161 0.043110 -0.021235 125629.000000 0 0 1
12.114969 16.966533 29.776409 36.349281 0.950702 0.610826 0.038611 -0.015634 1169450.000000 0 0 1
10.623069 17.426233 29.505329 35.876004 1.023346 0.605135 0.014046 -0.014643 1209180.000000 0 0 1
9.670169 16.798833 30.339009 36.002339 1.048477 0.568526 0.023440 -0.007231 870332.000000 0 0 1
8.410369 17.536733 30.392899 36.083232 1.123613 0.569261 0.021991 -0.005354 890342.000000 0 0 1
7.532469 16.832933 31.403669 36.418075 1.150037 0.530982 0.027860 -0.006304 -611535.000000 0 0 1
7.948769 16.993833 32.730320 37.725948 1.133285 0.520479 0.038120 -0.003570 65607.200000 0 0 1
7.460869 15.913133 33.432324 37.770527 1.132378 0.483995 0.048613 -0.009837 -316013.000000 0 0 1
7.732569 16.074333 -33.693710 38.124046 1.122423 2.654701 0.050420 -0.013998 -132109.000000 0 0 1
6.818469 16.956133 -33.083030 37.795355 1.188460 2.636894 0.053308 -0.018907 85689.000000 0 0 1
7.013769 16.964633 -31.682760 36.616786 1.178762 2.616450 0.052625 -0.020373 -227356.000000 0 0 1
5.959569 17.791933 -30.948260 36.192045 1.247583 2.596564 0.054215 -0.026208 -750634.000000 0 0 1
6.110469 17.809633 -29.556040 35.043978 1.240282 2.574374 0.042416 -0.032785 170356.000000 0 0 1
5.290569 18.757333 -28.845450 34.812177 1.295885 2.547403 0.057471 -0.039717 187467.000000 0 0 1
3.757669 18.714833 -28.910090 34.643302 1.372646 2.558034 0.083771 -0.042565 -1148810.000000 0 0 1
3.213169 17.711733 -28.048450 33.327849 1.391333 2.571020 0.087880 -0.045896 730247.000000 0 0 1
1.792769 17.552133 -28.147400 33.219987 1.469010 2.581683 0.079055 -0.043595 1202810.000000 0 0 1
0.829669 18.753933 -27.814320 33.556441 1.526585 2.547902 0.072386 -0.047662 -460238.000000 0 0 1
0.580369 19.012033 -26.457440 32.585125 1.540279 2.518279 0.082283 -0.050478 -213525.000000 0 0 1
-0.210131 20.152633 -26.323230 33.152454 -1.560370 2.488166 0.095897 -0.045454 -81657.200000 0 0 1
-0.740031 20.513233 -24.894750 32.265910 -1.534736 2.452070 0.063720 -0.049924 -277380.000000 0 0 1
-1.756031 19.699533 -24.388350 31.399791 -1.481891 2.460213 0.062015 -0.044206 -194759.000000 0 0 1
-2.005031 20.086433 -23.062650 30.649156 -1.471306 2.422605 0.066930 -0.038032 -914977.000000 0 0 1
-3.033731 19.280333 -22.341550 29.666136 -1.414727 2.423557 0.056885 -0.029861 -1979330.000000 0 0 1
-4.325631 19.611233 -22.630650 30.256534 -1.353703 2.415778 0.050215 -0.022585 -1782300.000000 0 0 1
-5.144331 18.617533 -22.137250 29.379151 -1.301207 2.424169 0.041788 -0.023927 29696.200000 0 0 1
-6.697831 18.797133 -22.153750 29.815798 -1.228501 2.408369 0.080936 -0.021588 849593.000000 0 0 1
-7.260831 19.793433 -21.292750 29.964660 -1.219207 2.361140 0.041591 -0.015812 167200.000000 0 0 1
-7.016531 21.100433 -21.766250 31.116388 -1.249769 2.345509 0.035362 -0.017618 -576002.000000 0 0 1
-7.774531 22.105533 -20.940850 31.426376 -1.232607 2.300094 0.047932 -0.023459 1986.720000 0 0 1
-7.150931 22.219833 -19.630750 30.499560 -1.259437 2.270042 0.042377 -0.019320 277609.000000 0 0 1
-7.619531 23.247133 -18.868450 30.895062 -1.254068 2.227775 0.051973 -0.017892 -271566.000000 0 0 1
-6.819031 23.493533 -17.550050 30.107300 -1.288307 2.193110 0.051298 -0.018045 -4510.040000 0 0 1
-5.525531 24.026333 -17.699450 30.349081 -1.344749 2.193453 0.044944 -0.017091 -630345.000000 0 0 1
-4.852331 23.916733 -16.480850 29.447812 -1.370629 2.164775 0.055894 -0.015732 -784889.000000 0 0 1
-3.396631 24.303833 -16.570350 29.610638 -1.431939 2.164709 0.063697 -0.018677 -632539.000000 0 0 1
-3.246531 25.743033 -16.617450 30.812065 -1.445346 2.140421 0.045556 -0.021699 -517076.000000 0 0 1
-1.949531 26.056233 -17.038850 31.193755 -1.496115 2.148649 0.040040 -0.027755 -96793.500000 0 0 1
-1.696431 27.569133 -17.104250 32.488311 -1.509340 2.125244 0.031806 -0.036616 -468466.000000 0 0 1
-2.637531 28.185233 -17.918850 33.502972 -1.477490 2.135119 0.031132 -0.035842 -418122.000000 0 0 1
-2.080731 28.619633 -19.119750 34.481556 -1.498221 2.158549 0.029339 -0.040474 -985321.000000 0 0 1
-3.071631 29.375733 -19.982150 35.660271 -1.466611 2.165602 0.042341 -0.036273 -330950.000000 0 0 1
-3.558831 30.617133 -19.534650 36.492145 -1.455079 2.135672 0.031121 -0.020276 -19862.800000 0 0 1
-4.513431 30.464333 -18.495650 35.924027 -1.423712 2.111634 0.017998 -0.017298 -815918.000000 0 0 1
-4.903431 31.741433 -17.755750 36.699167 -1.417527 2.075809 0.048524 -0.012824 -304128.000000 0 0 1
-5.586031 32.593433 -18.645550 37.963037 -1.401060 2.084206 0.075076 -0.019375 174460.000000 0 0 1
-5.950731 33.803633 -17.974350 38.744988 -1.396543 2.053205 0.060328 -0.028383 117872.000000 0 0 1
-6.690431 -33.899013 -18.856650 39.363412 1.375937 2.070357 0.059782 -0.015495 601504.000000 0 0 1
-7.963731 -34.323513 -19.338150 40.193141 1.342811 2.072740 0.077625 -0.023657 376240.000000 0 0 1
-8.873231 -33.232813 -19.383250 39.482458 1.309881 2.083957 0.110434 -0.034884 -33434.600000 0 0 1
29.119969 -20.495667 -26.467920 44.368860 -0.613295 2.209983 0.013722 0.008850 179284.000000 0 0 1
28.697469 -21.827167 -26.394730 44.683909 -0.650248 2.202721 0.027677 -0.003040 -1623310.000000 0 0 1
27.369569 -21.956067 -26.686560 44.083270 -0.676085 2.221023 0.016293 0.004584 -1109170.000000 0 0 1
26.812769 -23.248267 -25.976070 43.979117 -0.714315 2.202655 0.017869 0.011234 -239090.000000 0 0 1
27.096369 -24.501867 -26.574370 45.174681 -0.735158 2.199699 0.017219 0.019395 1228390.000000 0 0 1
28.475469 -24.993667 -26.463940 46.215537 -0.720372 2.180494 0.015316 0.021626 1674560.000000 0 0 1
28.666969 -26.378107 -27.058710 47.431776 -0.743841 2.177882 0.013981 0.007828 18022.600000 0 0 1
28.043669 -27.439817 -26.337990 47.255483 -0.774515 2.161991 0.020619 -0.003179 -147854.000000 0 0 1
28.374969 -28.742517 -26.939220 48.548869 -0.791833 2.159026 0.010788 0.002027 -64487.300000 0 0 1
27.428569 -29.240137 -28.001770 48.902056 -0.817355 2.180481 0.024113 -0.001700 -820386.000000 0 0 1
27.442169 -28.452007 -29.202770 49.146629 -0.803463 2.207063 -0.000391 -0.003148 -155135.000000 0 0 1
28.524569 -28.605997 -30.096030 50.375839 -0.786823 2.211089 -0.006715 -0.002044 -576070.000000 0 0 1
28.644769 -29.998897 -30.808040 51.668094 -0.808485 2.209641 0.007777 0.000359 -892768.000000 0 0 1
29.146969 -31.138857 -30.083980 52.194062 -0.818427 2.185097 0.021102 -0.008743 925799.000000 0 0 1
30.442169 -31.004657 -29.444400 52.487971 -0.794552 2.166359 0.023296 -0.009130 1921330.000000 0 0 1
31.692569 -30.654467 -30.377180 53.543331 -0.768749 2.174066 0.027859 -0.010455 247324.000000 0 0 1
31.623469 -29.293037 -30.750930 52.950406 -0.747161 2.190446 0.029228 -0.016828 470967.000000 0 0 1
32.717569 -29.042177 -31.672650 54.009667 -0.725957 2.197435 0.038220 -0.015065 780498.000000 0 0 1
32.659269 -27.618007 -32.258440 53.572279 -0.701958 2.216985 0.036810 -0.008160 88402.200000 0 0 1
32.616369 -26.477297 -31.375260 52.433593 -0.681882 2.212275 0.022504 0.002072 -498335.000000 0 0 1
31.461869 -26.296917 -30.617380 51.174222 -0.696213 2.212170 0.019717 0.001338 -614893.000000 0 0 1
31.336369 -24.969067 -29.860090 49.970464 -0.672792 2.211244 0.015640 -0.000498 -730851.000000 0 0 1
32.261269 -24.820467 -28.875610 49.906371 -0.655776 2.187802 0.015614 0.005187 -454214.000000 0 0 1
31.971669 -23.571167 -28.286750 48.764001 -0.635292 2.189616 0.008120 0.007997 475851.000000 0 0 1
32.972069 -23.279467 -27.119870 48.626929 -0.614765 2.162424 0.008975 0.008486 242107.000000 0 0 1
32.690869 -24.115367 -25.997840 48.229986 -0.635569 2.140092 0.010876 0.000958 -201354.000000 0 0 1
32.034269 -23.547867 -24.928050 46.926582 -0.633886 2.130829 0.025217 0.005570 -588609.000000 0 0 1
32.620469 -22.369167 -24.164750 46.350941 -0.601091 2.119221 0.010672 0.007369 -362029.000000 0 0 1
32.757269 -21.148167 -24.899050 46.262796 -0.573277 2.139107 0.003975 0.007461 117706.000000 0 0 1
32.704469 -20.017367 -24.089550 45.283371 -0.549246 2.131726 -0.015259 -0.000132 52167.600000 0 0 1
33.053769 -18.692867 -24.904350 45.411470 -0.514687 2.151264 -0.023443 -0.001499 -430979.000000 0 0 1
31.963669 -18.324267 -25.685540 44.913270 -0.520544 2.179607 -0.021036 0.006609 -102464.000000 0 0 1
32.172569 -17.190767 -26.519230 45.098406 -0.490733 2.199418 -0.025184 0.010075 -666989.000000 0 0 1
31.104469 -17.011067 -27.570880 44.911221 -0.500461 2.231785 -0.019479 0.011334 224790.000000 0 0 1
29.795569 -16.690667 -27.109180 43.603462 -0.510620 2.241734 -0.002326 0.011178 636075.000000 0 0 1
28.819169 -16.434467 -28.114830 43.486548 -0.518266 2.273808 0.002593 -0.000908 315798.000000 0 0 1
27.464569 -16.157867 -27.410250 42.032143 -0.531785 2.281182 0.010961 0.001380 -254713.000000 0 0 1
27.024369 -17.318667 -26.810840 41.821931 -0.569919 2.266690 0.016491 0.014345 -213390.000000 0 0 1
26.467469 -17.082367 -25.531400 40.548570 -0.573142 2.251899 0.017993 0.018351 -65998.900000 0 0 1
26.056269 -18.326367 -24.711850 40.316999 -0.612963 2.230571 0.023005 0.021363 -143588.000000 0 0 1
25.722869 -17.836267 -23.414850 39.090326 -0.606283 2.213040 0.020340 0.027559 39245.400000 0 0 1
25.383969 -18.863767 -22.468050 38.794340 -0.639094 2.188492 0.023743 0.026238 -154407.000000 0 0 1
25.377769 -18.323967 -20.964550 37.673748 -0.625371 2.160935 0.014126 0.024528 502149.000000 0 0 1
24.468569 -17.246867 -20.576050 36.325461 -0.613979 2.172971 0.023297 0.018316 405932.000000 0 0 1
24.769569 -15.984867 -21.174950 36.296364 -0.573094 2.193693 0.023589 0.017497 182098.000000 0 0 1
26.065569 -15.244967 -20.758150 36.643194 -0.529220 2.173041 0.009012 0.012497 -13348.800000 0 0 1
25.977369 -14.677367 -19.468350 35.626752 -0.514291 2.148920 0.011289 -0.001534 105248.000000 0 0 1
26.976469 -13.695967 -19.224250 35.845239 -0.469789 2.136858 0.000438 0.004060 -180894.000000 0 0 1
26.818269 -12.821467 -17.961350 34.730673 -0.445964 2.114327 0.021427 -0.002838 -382216.000000 0 0 1
27.013169 -13.454167 -16.758950 34.519390 -0.462094 2.077724 0.012962 0.004920 167032.000000 0 0 1
26.882769 -12.569167 -15.697550 33.572017 -0.437356 2.057346 0.005666 -0.000959 -177807.000000 0 0 1
27.474169 -13.082867 -14.402350 33.666290 -0.444417 2.012851 0.024083 -0.013412 100940.000000 0 0 1
26.725369 -14.176467 -13.772250 33.239922 -0.487710 1.998001 0.053591 -0.023099 744640.000000 0 0 1
27.276369 -14.500067 -12.499250 33.323918 -0.488605 1.955283 0.071166 -0.023171 -284989.000000 0 0 1
26.705669 -15.700767 -11.790750 33.147076 -0.531489 1.934470 0.080823 -0.043468 -1641130.000000 0 0 1
25.374769 -15.547267 -11.510250 31.907401 -0.549710 1.939857 0.076229 -0.046481 -921896.000000 0 0 1
24.709569 -16.749167 -11.159950 31.869137 -0.595699 1.928560 0.056583 -0.038975 180407.000000 0 0 1
23.178469 -16.643967 -10.955450 30.566075 -0.622757 1.937370 0.061388 -0.042440 17370.700000 0 0 1
22.954469 -16.015667 -9.735850 29.634372 -0.609190 1.905546 0.056267 -0.036888 888372.000000 0 0 1
21.547569 -16.048567 -9.461850 28.484747 -0.640163 1.909402 0.044189 -0.029652 438492.000000 0 0 1
21.189169 -15.814367 -7.981650 27.618505 -0.641156 1.863975 0.045214 -0.023996 -459420.000000 0 0 1
21.393369 -14.458467 -7.573950 26.908887 -0.594326 1.856118 0.055885 -0.012473 314908.000000 0 0 1
21.275669 -14.207167 -6.197950 26.323227 -0.588763 1.808484 0.034431 -0.004066 -337575.000000 0 0 1
22.284069 -14.889067 -5.264550 27.312626 -0.589028 1.764762 0.038307 0.002132 -48401.400000 0 0 1
23.634469 -14.483067 -5.448050 28.249400 -0.549774 1.764868 0.059087 -0.002664 361172.000000 0 0 1
24.500069 -15.116167 -4.552250 29.145752 -0.552815 1.727628 0.049289 -0.009132 -352006.000000 0 0 1
25.990269 -14.921067 -4.871150 30.362154 -0.521159 1.731928 0.065991 -0.014597 -286940.000000 0 0 1
26.507769 -13.695767 -4.438850 30.165199 -0.476894 1.718484 0.067535 -0.007659 -231044.000000 0 0 1
27.865969 -13.508867 -4.729650 31.326846 -0.451398 1.722353 0.084601 -0.018375 -367273.000000 0 0 1
28.486569 -12.278167 -4.097750 31.289448 -0.406955 1.702136 0.090996 -0.020251 -715376.000000 0 0 1
28.521969 -12.400367 -2.696750 31.217692 -0.410113 1.657289 0.095306 -0.020807 539484.000000 0 0 1
29.124169 -11.309367 -1.955950 31.304069 -0.370393 1.633319 0.087430 -0.028728 82351.600000 0 0 1
30.642269 -11.071067 -2.056850 32.645793 -0.346706 1.633843 0.084663 -0.020456 -444222.000000 0 0 1
31.008569 -10.339267 -3.214550 32.844560 -0.321840 1.668825 0.095506 -0.024541 1403170.000000 0 0 1
32.248069 -10.857467 -3.794050 34.237660 -0.324765 1.681840 0.102014 -0.024416 1169030.000000 0 0 1
32.279169 -10.509567 -5.317650 34.360925 -0.314760 1.726179 0.106740 -0.030300 -49007.800000 0 0 1
31.393169 -11.362267 -6.018450 33.924238 -0.347267 1.749149 0.087502 -0.036660 166791.000000 0 0 1
31.508169 -11.265667 -7.436250 34.277949 -0.343383 1.789475 0.080022 -0.033124 -91235.200000 0 0 1
30.312569 -11.873467 -8.196050 33.570914 -0.373332 1.817431 0.102672 -0.033714 -37485.200000 0 0 1
29.991069 -13.224067 -7.867050 33.708020 -0.415289 1.806357 0.086588 -0.033695 158273.000000 0 0 1
28.867069 -13.519567 -8.677550 33.036135 -0.437999 1.836583 0.082724 -0.035487 193296.000000 0 0 1
28.512069 -15.012767 -8.682350 33.372211 -0.484654 1.833992 0.087843 -0.044164 107456.000000 0 0 1
29.201769 -15.700767 -9.712250 34.548302 -0.493324 1.855758 0.093601 -0.049166 216175.000000 0 0 1
29.172569 -17.060667 -9.394150 35.076419 -0.529182 1.841925 0.080511 -0.047996 -108006.000000 0 0 1
29.403869 -17.907967 -10.687650 36.048698 -0.547036 1.871799 0.074371 -0.047835 -1109140.000000 0 0 1
30.635969 -17.761267 -11.281350 37.165765 -0.525398 1.879204 0.068528 -0.038908 -799416.000000 0 0 1
30.742969 -18.359267 -12.534650 37.938243 -0.538348 1.907520 0.042505 -0.018413 -84885.200000 0 0 1
30.234969 -17.620067 -13.815150 37.622845 -0.527655 1.946794 0.038010 -0.026650 -53119.600000 0 0 1
30.981469 -16.476167 -14.129150 37.827878 -0.488768 1.953588 0.033892 -0.023760 -163320.000000 0 0 1
30.214069 -15.551767 -14.833250 37.077928 -0.475354 1.982374 0.031429 -0.024533 -233244.000000 0 0 1
31.104969 -14.417167 -15.495550 37.622943 -0.434024 1.995295 0.014693 -0.017735 860654.000000 0 0 1
32.076169 -14.830667 -16.453250 38.981261 -0.433083 2.006536 -0.009114 -0.017139 1207570.000000 0 0 1
33.346569 -15.255867 -15.934050 39.982860 -0.429069 1.980701 0.000463 -0.016024 520555.000000 0 0 1
34.338069 -15.742667 -17.028050 41.435360 -0.429868 1.994297 0.012127 -0.019442 685422.000000 0 0 1
35.660769 -16.030867 -16.552950 42.457971 -0.422470 1.971283 0.017748 -0.020740 423515.000000 0 0 1
-35.236722 -16.363867 -17.620150 42.659962 0.434763 1.996583 0.029068 -0.025918 -780263.000000 0 0 1
-33.753122 -16.184267 -17.340950 41.254239 0.447105 2.004620 0.041830 -0.022301 -505581.000000 0 0 1
-33.182922 -16.935767 -16.266250 40.651167 0.471914 1.982468 0.044272 -0.027188 153981.000000 0 0 1
-33.548022 -16.483767 -14.957850 40.260671 0.456702 1.951447 0.036030 -0.027912 -731767.000000 0 0 1
-33.102422 -17.335467 -13.797250 39.832811 0.482421 1.924505 0.035477 -0.026052 369491.000000 0 0 1
-31.695522 -17.203867 -13.520850 38.514835 0.497287 1.929495 0.037654 -0.022980 830865.000000 0 0 1
-31.375122 -17.705267 -12.246850 38.050757 0.513763 1.898485 0.054640 -0.013918 1450570.000000 0 0 1
-29.860722 -17.346867 -11.884850 36.521585 0.526276 1.902252 0.064285 -0.017255 1255590.000000 0 0 1
-29.635422 -15.984967 -11.540050 35.594243 0.494659 1.900974 0.061207 -0.026443 520578.000000 0 0 1
-28.310922 -15.800167 -11.042950 34.250552 0.509036 1.899078 0.062566 -0.023656 503827.000000 0 0 1
-28.258422 -15.953167 -9.489250 33.809581 0.513942 1.855286 0.069312 -0.020601 -203064.000000 0 0 1
-28.524822 -17.287167 -9.041350 34.558032 0.544848 1.835505 0.067179 -0.019257 -76807.300000 0 0 1
-28.887022 -17.212767 -7.681950 34.492778 0.537374 1.795392 0.076697 -0.015784 -241730.000000 0 0 1
-29.338722 -18.546467 -7.069350 35.421854 0.563724 1.771721 0.074798 -0.016863 490627.000000 0 0 1
-30.555822 -19.070167 -7.612650 36.814154 0.557958 1.779085 0.064095 -0.013535 370358.000000 0 0 1
-30.413622 -19.693867 -8.886450 37.306913 0.574640 1.811307 0.066573 -0.009065 191582.000000 0 0 1
-31.704322 -20.430367 -9.360950 38.861180 0.572431 1.814071 0.046799 -0.006726 549321.000000 0 0 1
-32.834522 -19.644767 -9.672750 39.466249 0.539166 1.818408 0.040665 -0.009394 -168195.000000 0 0 1
-33.923722 -20.451767 -9.980850 40.849860 0.542531 1.817625 0.029994 -0.013121 -58029.200000 0 0 1
-35.236022 -19.787667 -10.478650 41.748426 0.511686 1.824504 0.021638 -0.024812 210090.000000 0 0 1
-35.236322 -19.174467 -11.735850 41.796994 0.498354 1.855405 0.014366 -0.029779 -615071.000000 0 0 1
35.229769 -19.044367 -12.258050 41.881790 -0.495579 1.867827 0.022037 -0.031788 -469937.000000 0 0 1
35.182269 -18.595567 -13.763150 42.107143 -0.486225 1.903776 0.029024 -0.032233 -192957.000000 0 0 1
35.447769 -19.645667 -14.739050 43.124658 -0.506073 1.919604 0.021674 -0.031082 -247682.000000 0 0 1
34.723869 -19.462167 -15.890250 42.860507 -0.510857 1.950606 0.015037 -0.024743 331694.000000 0 0 1
33.492469 -20.431467 -16.031750 42.381686 -0.547763 1.958724 0.015294 -0.023438 335394.000000 0 0 1
32.459669 -20.230367 -15.068650 41.109148 -0.557337 1.946097 0.017307 -0.024601 468727.000000 0 0 1
31.367569 -21.141267 -15.134250 40.742154 -0.593052 1.951382 0.013687 -0.022175 704250.000000 0 0 1
30.345769 -20.843667 -16.272050 40.250512 -0.601861 1.986976 0.002529 -0.018345 -1068910.000000 0 0 1
29.603369 -19.726967 -15.993450 39.003886 -0.587801 1.993303 0.009765 -0.014484 -306010.000000 0 0 1
28.732769 -19.458467 -17.077050 38.675956 -0.595275 2.028113 0.002259 -0.010056 -260553.000000 0 0 1
27.955469 -18.159367 -17.016550 37.427715 -0.576081 2.042777 0.004975 -0.007952 -176382.000000 0 0 1
26.820869 -18.260467 -16.173550 36.254481 -0.597744 2.033212 0.029289 -0.015641 76883.200000 0 0 1
26.324869 -16.946867 -15.925450 35.125703 -0.571975 2.041355 0.018578 -0.006609 -793374.000000 0 0 1
24.908569 -17.024267 -15.304850 33.830473 -0.599546 2.040249 0.028641 -0.013920 1263680.000000 0 0 1
23.814169 -17.537567 -16.140150 33.692512 -0.634762 2.070360 0.033249 -0.008116 1382280.000000 0 0 1
23.563969 -16.752667 -17.310750 33.698287 -0.618033 2.110286 0.028116 0.004993 -1286520.000000 0 0 1
22.553269 -17.379967 -18.258750 33.824475 -0.656567 2.141006 0.032463 0.003407 -315063.000000 0 0 1
21.239769 -17.338267 -17.707950 32.639160 -0.684608 2.144251 0.047458 -0.004402 -120449.000000 0 0 1
20.393569 -17.917767 -18.690050 32.958489 -0.720865 2.173751 0.054068 -0.013542 -41814.700000 0 0 1
18.958969 -18.138967 -18.178150 31.920366 -0.763298 2.176675 0.054921 -0.012684 -474855.000000 0 0 1
18.182569 -17.004567 -18.005250 30.723772 -0.751932 2.196955 0.068075 -0.016648 -874529.000000 0 0 1
16.909769 -17.417667 -17.631150 30.002881 -0.800193 2.198946 0.076007 -0.024134 -207044.000000 0 0 1
15.932769 -16.208167 -17.305450 28.566351 -0.793966 2.221565 0.082051 -0.019831 264706.000000 0 0 1
15.379169 -15.644567 -18.479850 28.684075 -0.793953 2.270845 0.088166 -0.012678 168229.000000 0 0 1
14.170269 -15.004167 -18.102050 27.451881 -0.813974 2.290830 0.079164 -0.010705 72595.300000 0 0 1
13.224669 -14.670167 -19.251450 27.581225 -0.837171 2.343385 0.073562 -0.013179 -132112.000000 0 0 1
13.479869 -13.455367 -19.837350 27.500440 -0.784489 2.376541 0.080065 -0.023176 220105.000000 0 0 1
12.557569 -13.226167 -20.897750 27.736979 -0.811323 2.424053 0.064626 -0.012235 395525.000000 0 0 1
12.742869 -11.758967 -21.450350 27.582087 -0.745263 2.461781 0.060661 -0.006863 -322849.000000 0 0 1
13.936169 -11.430267 -22.116650 28.530931 -0.686930 2.457799 0.058175 -0.002691 -439120.000000 0 0 1
13.963969 -10.083067 -22.632750 28.441203 -0.625390 2.491080 0.032293 -0.004129 63507.000000 0 0 1
15.262669 -9.615367 -23.328250 29.489178 -0.562181 2.483366 0.040954 0.004001 149056.000000 0 0 1
15.398269 -10.109067 -24.619450 30.747638 -0.580936 2.499249 0.041912 0.002592 447604.000000 0 0 1
16.625869 -9.616767 -25.159770 31.653053 -0.524402 2.489574 0.062633 -0.006267 327176.000000 0 0 1
21.918769 4.675433 -6.895350 23.448624 0.210158 1.869270 0.046537 0.014069 -128527.000000 0 1 0
21.787469 6.101533 -7.053950 23.699804 0.273053 1.873013 0.027847 0.017853 817360.000000 0 1 0
21.212569 6.698933 -5.877650 23.008597 0.305889 1.829114 0.019924 0.014869 -205310.000000 0 1 0
21.141069 8.205333 -5.986850 23.454523 0.370226 1.828906 0.016353 0.012228 -101185.000000 0 1 0
20.067369 8.658233 -6.812550 22.892687 0.407328 1.872960 0.006566 0.009702 622609.000000 0 1 0
20.063769 10.071633 -7.087250 23.541914 0.465231 1.876588 0.027909 0.015022 -111145.000000 0 1 0
19.573669 11.040433 -5.966350 23.251172 0.513562 1.830304 0.039028 0.014198 -399630.000000 0 1 0
20.418569 11.152333 -4.862050 23.768299 0.499910 1.776811 0.044163 0.014684 -122560.000000 0 1 0
19.856769 11.982833 -3.882650 23.514985 0.542962 1.736670 0.064822 0.001444 592801.000000 0 1 0
20.914469 12.416833 -2.789750 24.482146 0.535771 1.684995 0.057047 -0.008545 1438020.000000 0 1 0
22.150269 13.029133 -3.273950 25.905819 0.531709 1.697514 0.054843 -0.015784 1468620.000000 0 0 1
23.048069 13.367533 -2.245450 26.738483 0.525573 1.654874 0.058850 -0.015640 166327.000000 0 0 1
23.924969 12.248533 -1.605650 26.925988 0.473167 1.630464 0.038763 -0.008578 -1048290.000000 0 0 1
25.041969 11.896333 -2.362650 27.824541 0.443494 1.655811 0.029222 -0.005411 -139797.000000 0 0 1
25.787869 10.990433 -1.547150 28.074855 0.402875 1.625932 0.042383 -0.010038 1396840.000000 0 0 1
27.245669 10.610133 -2.121150 29.315536 0.371357 1.643215 0.048095 -0.007723 1146130.000000 0 0 1
28.091869 11.695033 -2.022550 30.496190 0.394490 1.637166 0.046149 -0.020116 1080000.000000 0 0 1
29.473769 11.284633 -2.280550 31.642486 0.365653 1.642931 0.055589 -0.020110 1290530.000000 0 0 1
30.477369 12.392033 -2.002150 32.961206 0.386181 1.631576 0.052849 -0.025943 -579486.000000 0 0 1
30.479569 12.693533 -0.589050 33.022369 0.394615 1.588635 0.065258 -0.024037 541566.000000 0 0 1
31.275869 13.833533 -0.296750 34.199922 0.416438 1.579473 0.068985 -0.030100 -15976.100000 0 0 1
32.745269 13.535533 0.127350 35.432746 0.391969 1.567202 0.070357 -0.035536 368638.000000 0 0 1
33.602869 14.669733 0.177250 36.665860 0.411623 1.565962 0.065918 -0.035333 364258.000000 0 0 1
34.349269 14.851033 -1.023850 37.436262 0.408083 1.598149 0.066765 -0.033526 -594977.000000 0 0 1
33.745469 15.814333 -2.040150 37.323076 0.438243 1.625485 0.034817 -0.017390 325795.000000 0 0 1
32.563369 15.319933 -2.694150 36.087834 0.439742 1.645521 0.043831 -0.019716 299802.000000 0 0 1
31.906669 16.373033 -3.328150 36.016501 0.474115 1.663335 0.030489 -0.008162 -278724.000000 0 0 1
30.438869 16.114433 -3.697450 34.639152 0.486893 1.677742 0.051479 -0.018541 -466312.000000 0 0 1
30.404469 15.288133 -4.810350 34.370019 0.465905 1.711215 0.040306 -0.020239 1045320.000000 0 0 1
29.097969 15.251433 -5.396250 33.292905 0.482773 1.733599 0.029259 -0.030181 700952.000000 0 0 1
27.985969 14.309133 -4.897550 31.811189 0.472644 1.725368 0.040797 -0.024941 696783.000000 0 0 1
26.852769 14.289133 -5.810350 30.967898 0.489019 1.759540 0.045997 -0.028788 951766.000000 0 0 1
25.816669 13.485733 -5.282250 29.601817 0.481379 1.750201 0.046399 -0.011905 105053.000000 0 0 1
24.696169 13.133533 -6.286950 28.669081 0.488766 1.791887 0.041243 -0.009328 7468.830000 0 0 1
25.183369 12.306633 -7.383850 28.985799 0.454551 1.828375 0.031039 0.000688 -13121.300000 0 0 1
24.268769 12.098533 -8.398150 28.387965 0.462465 1.871126 0.030599 0.009146 -549364.000000 0 0 1
24.114969 13.335333 -9.398150 29.115083 0.505136 1.899475 0.034961 0.004742 -183730.000000 0 0 1
23.268869 14.284933 -8.796850 28.685957 0.550583 1.882479 0.045218 -0.004424 -80392.900000 0 0 1
23.127769 15.470833 -9.500150 29.402266 0.589567 1.899810 0.042421 -0.012573 -109990.000000 0 0 1
22.126569 16.444533 -8.740650 28.920696 0.639137 1.877826 0.040641 -0.006283 1809430.000000 0 0 1
20.725169 16.117033 -8.621650 27.633752 0.660967 1.888091 0.046530 -0.004125 1239550.000000 0 0 1
20.435169 15.011933 -7.831550 26.538414 0.633580 1.870359 0.043192 -0.007433 -1430970.000000 0 0 1
18.950469 14.705833 -7.886950 25.250461 0.659943 1.888461 0.042879 -0.003618 -566515.000000 0 0 1
18.162069 15.544133 -7.054450 24.924809 0.707885 1.857747 0.063504 -0.017831 -67915.900000 0 1 0
16.781569 15.331433 -7.292550 23.871640 0.740272 1.881249 0.064084 -0.006317 319408.000000 0 1 0
15.973169 15.723333 -6.021550 23.208283 0.777516 1.833256 0.063254 0.001271 -220875.000000 0 1 0
16.090569 14.576433 -5.164850 22.317134 0.736065 1.804343 0.038325 -0.006612 423639.000000 0 1 0
15.472869 14.915833 -3.938250 21.849521 0.767070 1.752031 0.028453 -0.000011 -473001.000000 0 1 0
15.503369 13.710633 -2.960050 20.906884 0.724109 1.712856 0.041027 -0.001929 -118954.000000 0 1 0
16.776369 13.192033 -2.569050 21.495960 0.666360 1.690596 0.047921 -0.000701 783924.000000 0 1 0
16.675469 12.429633 -1.427850 20.847201 0.640541 1.639341 0.049034 -0.003405 -128543.000000 0 1 0
16.660069 13.248033 -0.119450 21.285736 0.671805 1.576408 0.050776 -0.007143 -566205.000000 0 1 0
15.637769 14.193533 0.072650 21.118747 0.737022 1.567356 0.046230 -0.011491 91546.800000 0 1 0
15.733769 15.037133 1.186250 21.796193 0.762763 1.516345 0.043239 -0.008150 -843360.000000 0 1 0
14.475969 15.890533 1.313750 21.535753 0.831948 1.509755 0.044740 -0.007385 -566450.000000 0 1 0
14.310969 16.857833 0.323550 22.115493 0.866929 1.556166 0.051000 -0.013967 18620.100000 0 1 0
13.260369 17.658033 0.807850 22.097424 0.926685 1.534230 0.036862 -0.018957 -558736.000000 0 1 0
13.181769 19.148033 0.401550 23.250106 0.967889 1.553525 0.025128 -0.013720 -282125.000000 0 1 0
12.789469 19.329133 -0.961650 23.197213 0.986262 1.612264 0.038971 -0.012318 -126292.000000 0 1 0
12.197269 20.596433 -1.120450 23.963344 1.036130 1.617570 0.033731 -0.015864 2204720.000000 0 1 0
10.596469 20.637333 -0.897850 23.216175 1.096438 1.609479 0.029759 -0.017975 1763890.000000 0 1 0
10.155569 20.288733 0.361450 22.691384 1.106707 1.554867 0.016824 -0.034692 -445475.000000 0 1 0
8.754069 20.159833 0.277450 21.980209 1.161131 1.558173 0.010158 -0.028955 -10263.500000 0 1 0
8.104469 20.188933 1.662050 21.818292 1.189057 1.494546 0.005346 -0.019686 -289039.000000 0 1 0
8.197769 21.439533 2.274750 23.065808 1.205583 1.472016 0.006092 -0.007599 -120211.000000 0 1 0
7.168469 21.672633 3.184250 23.048415 1.251362 1.432198 0.005004 -0.011183 -420475.000000 0 1 0
6.852369 23.071233 3.621250 24.338246 1.282086 1.421453 0.003754 -0.004047 -65128.300000 0 1 0
7.365469 23.403133 4.896650 25.018672 1.265889 1.373805 0.006867 -0.005834 201085.000000 0 0 1
7.098969 24.732933 5.337650 26.279343 1.291285 1.366261 0.005640 -0.003267 -578136.000000 0 0 1
7.859369 24.892833 6.601550 26.925885 1.264973 1.323096 0.001847 -0.004342 -351032.000000 0 0 1
7.316169 24.076733 7.634050 26.296276 1.275794 1.276246 0.016076 -0.022083 128213.000000 0 0 1
8.045969 24.282233 8.820050 27.058413 1.250830 1.238766 0.017188 -0.020298 -169424.000000 0 0 1
7.565769 23.376433 9.947950 26.507738 1.257786 1.186092 0.016160 -0.021201 191559.000000 0 0 1
6.312069 23.752333 10.500650 26.726002 1.311054 1.167013 0.013962 -0.016624 336612.000000 0 0 1
5.771169 22.745733 11.359250 26.071197 1.322315 1.119979 0.013242 -0.014697 -347385.000000 0 0 1
4.466369 23.139333 12.033150 26.460799 1.380121 1.098701 0.016984 -0.015186 -407891.000000 0 0 1
3.477569 23.496433 11.109750 26.222174 1.423859 1.133295 0.011711 -0.011301 308316.000000 0 0 1
2.251569 23.920633 11.700950 26.724118 1.476946 1.117599 0.008939 -0.007423 1048650.000000 0 0 1
0.999569 24.283533 10.849550 26.615820 1.529657 1.150933 0.022590 -0.004174 311084.000000 0 0 1
1.268069 25.312733 9.880550 27.202348 1.520742 1.199070 0.031348 -0.012198 194140.000000 0 0 1
0.462669 25.232133 8.687050 26.689688 1.552462 1.239273 0.021946 -0.014555 592051.000000 0 0 1
-0.970431 25.822833 8.748150 27.281689 -1.533234 1.244370 0.038249 -0.015328 404766.000000 0 0 1
-1.850531 25.107733 9.611950 26.948327 -1.497226 1.206084 0.043549 -0.010610 464225.000000 0 0 1
-3.115331 25.792133 9.601650 27.697132 -1.450593 1.216782 0.062489 -0.015804 1119500.000000 0 0 1
-4.329931 25.048833 10.289250 27.423731 -1.399628 1.186189 0.078792 -0.019821 607703.000000 0 0 1
-4.381431 24.996333 11.705850 27.947102 -1.397276 1.138610 0.050723 -0.010757 -231273.000000 0 0 1
-5.525631 25.598033 12.254050 28.912863 -1.358197 1.133130 0.072055 -0.016742 -216108.000000 0 0 1
-5.729431 25.487733 13.754350 29.523432 -1.349680 1.086168 0.031394 -0.008434 -364400.000000 0 0 1
-6.662931 24.500333 14.074150 29.030030 -1.305265 1.064646 0.050926 -0.019077 -237466.000000 0 0 1
-7.026331 24.528933 15.449250 29.828128 -1.291816 1.026353 0.023019 -0.004606 34421.200000 0 0 1
-8.274931 23.671833 15.722550 29.597783 -1.234506 1.010772 0.029467 -0.015099 466921.000000 0 0 1
-9.522631 24.124533 15.197250 30.060439 -1.194843 1.040770 0.013567 -0.006608 349858.000000 0 0 1
-10.547931 23.157233 15.351250 29.718297 -1.143385 1.027969 0.015659 -0.012830 1505420.000000 0 0 1
-11.981431 23.772233 15.037150 30.574330 -1.103946 1.056614 0.011826 -0.019913 1347080.000000 0 0 1
-12.625231 24.619933 15.992450 31.957722 -1.096957 1.046706 0.019321 -0.023105 529422.000000 0 0 1
-13.737331 25.336833 15.451050 32.701748 -1.073970 1.078689 0.015924 -0.018310 182548.000000 0 0 1
-14.329031 26.474133 16.303450 34.234534 -1.074699 1.074436 0.027811 -0.021837 -708912.000000 0 0 1
-15.425331 26.083833 17.058450 34.774961 -1.036743 1.058089 0.022174 -0.026869 -477059.000000 0 0 1
-15.923131 27.202533 17.811650 36.204679 -1.041215 1.056444 0.039696 -0.016683 338543.000000 0 0 1
-17.259331 26.930833 18.556850 36.979872 -1.000862 1.045107 0.037653 -0.021233 766897.000000 0 0 1
-18.475231 26.996133 17.802150 37.243012 -0.970640 1.072420 0.034689 -0.028815 17862.800000 0 0 1
-19.505931 26.439633 18.565850 37.738923 -0.935179 1.056463 0.032201 -0.016955 139649.000000 0 0 1
-20.889231 26.660733 17.870650 38.295101 -0.906185 1.085290 0.043040 -0.022180 240262.000000 0 0 1
-21.385131 28.015933 17.949550 39.552531 -0.918825 1.099754 0.035171 -0.023830 -82979.200000 0 0 1
-22.141431 28.314033 16.849550 39.696785 -0.907131 1.132435 0.037528 -0.027026 -668006.000000 0 0 1
-23.066431 29.552533 16.945450 41.140743 -0.908045 1.146269 0.025473 -0.030685 151265.000000 0 0 1
-24.309231 29.189333 17.526450 41.834583 -0.876366 1.138512 0.019318 -0.024978 8352.030000 0 0 1
-25.123001 30.328633 17.635150 43.150778 -0.879001 1.149782 0.019913 -0.016903 -183068.000000 0 0 1
-26.526201 30.143033 18.254150 44.107321 -0.849135 1.144109 0.026602 -0.015523 95593.300000 0 0 1
-27.369101 29.370833 17.370550 43.742994 -0.820663 1.162436 0.038678 -0.009953 1893.550000 0 0 1
-28.675131 29.160333 17.850650 44.623244 -0.793787 1.159246 0.059024 -0.016952 -183330.000000 0 0 1
-28.883361 28.055233 18.936650 44.496532 -0.770855 1.131198 0.055567 -0.020030 -611158.000000 0 0 1
-28.684451 26.750133 18.386850 43.317936 -0.750519 1.132428 0.049897 -0.016903 140501.000000 0 0 1
-28.880971 25.818433 19.464850 43.354150 -0.729468 1.105180 0.051963 -0.014267 -20606.600000 0 0 1
-29.114791 24.366133 18.956650 42.435057 -0.696839 1.107699 0.037675 -0.012996 -388125.000000 0 0 1
-30.284981 24.183633 18.213850 42.822570 -0.673847 1.131467 0.049043 -0.012573 -242713.000000 0 0 1
-30.141831 23.294433 17.130950 41.768769 -0.657951 1.148191 0.048321 -0.009102 -315072.000000 0 0 1
-30.667351 21.846833 17.449850 41.500214 -0.618987 1.136826 0.036960 -0.004346 -227159.000000 0 0 1
-32.002071 21.585533 17.116150 42.225944 -0.593409 1.153438 0.033236 -0.002995 -422435.000000 0 0 1
-32.125911 20.169433 17.179350 41.641449 -0.560628 1.145540 0.015735 -0.000873 1129720.000000 0 0 1
-33.520091 19.675533 16.586350 42.259083 -0.530789 1.167457 0.017813 -0.010293 1045910.000000 0 0 1
-33.704411 19.906433 15.206250 41.993850 -0.533492 1.200269 0.010640 -0.005499 -15331.600000 0 0 1
-34.887873 19.355933 14.659350 42.505439 -0.506524 1.218684 0.017157 -0.004999 204895.000000 0 0 1
-35.054879 19.638433 13.177850 42.286739 -0.510656 1.253888 0.026629 0.009261 87278.300000 0 0 1
-35.295878 20.995833 12.957250 43.064073 -0.536626 1.265178 0.007282 0.006642 -192294.000000 0 0 1
-35.606973 21.356833 11.584650 43.106554 -0.540268 1.298707 0.013558 0.010665 39357.500000 0 0 1
-34.565088 21.102933 10.472950 41.830154 -0.548124 1.317736 0.022002 0.003972 -44363.800000 0 0 1
-34.515929 19.759233 10.100750 41.034154 -0.519929 1.322085 0.036104 0.000389 765467.000000 0 0 1
-33.279271 19.519033 9.395450 39.708652 -0.530450 1.331921 0.055116 -0.010740 553169.000000 0 0 1
-32.358881 18.526933 10.059350 38.620396 -0.519988 1.307290 0.042793 -0.017352 -496222.000000 0 0 1
-31.812681 18.940833 11.291350 38.707834 -0.537020 1.274785 0.039018 -0.006708 38292.900000 0 0 1
-31.092991 17.874633 11.893450 37.785325 -0.521742 1.250589 0.036774 -0.008052 3138.850000 0 0 1
-30.809911 18.346233 13.323450 38.253748 -0.537078 1.215049 0.023870 -0.004905 -140436.000000 0 0 1
-29.801771 19.326133 13.350950 37.945920 -0.575313 1.211259 0.039242 -0.006404 -48268.600000 0 0 1
-30.348981 20.659733 13.519150 39.123556 -0.597682 1.217971 0.047562 -0.005540 -371291.000000 0 0 1
-29.316941 21.748333 13.609750 38.957648 -0.638255 1.213922 0.045779 -0.009059 -591329.000000 0 0 1
-28.597381 21.635633 14.789650 38.789748 -0.647686 1.179619 0.031831 -0.006041 -1249350.000000 0 0 1
-27.445471 22.381933 14.721850 38.352805 -0.684124 1.176831 0.069513 -0.016193 -875554.000000 0 0 1
-26.592501 22.182933 16.008450 38.151201 -0.695238 1.137786 0.056953 -0.020200 -311979.000000 0 0 1
-26.216011 20.859533 16.269650 37.243803 -0.672101 1.118712 0.082942 -0.022978 -75778.300000 0 0 1
-25.605471 20.793133 17.525450 37.351518 -0.682050 1.082408 0.074719 -0.018729 46520.800000 0 0 1
-24.580931 19.620933 17.732750 36.106144 -0.673653 1.057412 0.083062 -0.022681 471171.000000 0 0 1
-23.874031 19.909133 18.942650 36.402842 -0.695087 1.023522 0.073233 -0.018383 -81584.100000 0 0 1
-23.156431 18.803633 19.364350 35.563675 -0.682031 0.995006 0.060937 -0.010356 53887.600000 0 0 1
-22.478131 18.840533 20.780150 35.945051 -0.697587 0.954387 0.046913 -0.017345 223139.000000 0 0 1
-23.471231 18.668033 21.766850 37.056577 -0.671904 0.942960 0.033834 -0.005186 3258.820000 0 0 1
-23.054531 18.988733 23.048550 37.726901 -0.688993 0.913560 0.056658 -0.013343 -180238.000000 0 0 1
-23.672731 18.076933 24.110850 38.321101 -0.652160 0.890299 0.032985 -0.014040 -86088.400000 0 0 1
-23.061231 16.817233 24.191950 37.415106 -0.630084 0.867700 0.038552 -0.012448 530452.000000 0 0 1
-23.896931 15.970733 25.013050 38.102235 -0.589144 0.854664 0.042055 -0.008970 387851.000000 0 0 1
20.678969 25.159333 33.629788 46.814255 0.882831 0.769345 0.013719 -0.000021 633748.000000 0 0 1
21.615669 24.161933 33.153715 46.370303 0.840963 0.774205 0.027088 -0.013312 511454.000000 0 0 1
21.280569 22.878133 33.598597 45.881776 0.821560 0.749123 0.025316 -0.016305 228128.000000 0 0 1
20.073069 22.154033 32.914176 44.464281 0.834639 0.737371 0.031270 -0.018233 222026.000000 0 0 1
20.361369 21.697133 31.594589 43.400104 0.817147 0.755419 0.037251 -0.015355 455215.000000 0 0 1
19.478869 20.635433 31.196399 42.171824 0.814222 0.738105 0.054750 -0.019293 6992.330000 0 0 1
19.848769 19.989433 29.816109 41.018916 0.788929 0.757018 0.048326 -0.012825 754256.000000 0 0 1
21.034469 19.144833 29.835309 41.220374 0.738403 0.761503 0.036559 -0.010396 771556.000000 0 0 1
21.301769 18.608633 28.561709 40.197236 0.718021 0.780532 0.032624 -0.012830 447033.000000 0 0 1
22.530669 17.647333 28.520519 40.403953 0.664449 0.787125 0.036110 -0.004863 924530.000000 0 0 1
23.821469 18.223633 28.690019 41.505185 0.653038 0.807594 0.046361 -0.011529 254395.000000 0 0 1
24.686369 17.357933 29.407739 42.137036 0.612829 0.798325 0.043511 -0.001550 174772.000000 0 0 1
26.050769 18.012533 29.729429 43.438841 0.604958 0.817019 0.043718 -0.009849 -525307.000000 0 0 1
26.850169 18.082433 28.617689 43.207385 0.592689 0.846868 0.037013 -0.006011 527708.000000 0 0 1
28.194169 18.521433 28.962299 44.460875 0.581227 0.861354 0.046366 -0.010865 1245460.000000 0 0 1
29.201669 18.112733 27.862829 44.239641 0.555186 0.889480 0.040269 -0.002401 -196572.000000 0 0 1
29.177969 18.783933 26.584889 43.714372 0.571984 0.917068 0.038228 -0.016064 -310273.000000 0 0 1
30.179369 18.222733 25.797569 43.684973 0.543219 0.939073 0.043420 -0.012789 -460809.000000 0 0 1
30.739869 19.276733 24.837699 43.970937 0.560102 0.970525 0.043567 -0.014805 -697154.000000 0 0 1
29.724769 19.809533 24.047079 43.060905 0.587840 0.978288 0.038769 -0.015825 -191257.000000 0 0 1
30.030769 20.990933 23.371149 43.458911 0.610042 1.003000 0.015309 -0.018011 -353183.000000 0 0 1
30.583769 20.729833 21.970049 42.985765 0.595674 1.034332 0.023986 -0.005059 -254845.000000 0 0 1
29.628569 19.979733 21.236949 41.569819 0.593296 1.034595 0.026836 -0.004976 126530.000000 0 0 1
30.013669 19.489133 19.951349 40.971978 0.575912 1.062201 0.025294 -0.003188 -372662.000000 0 0 1
31.112269 18.418533 19.870149 41.255769 0.534518 1.068279 0.049533 -0.020493 -274497.000000 0 0 1
30.637569 17.225933 20.441749 40.660282 0.512199 1.044025 0.058506 -0.015969 541407.000000 0 0 1
31.699569 16.286133 20.681249 41.204549 0.474599 1.044983 0.057896 -0.018533 -189338.000000 0 0 1
31.331769 14.743533 20.927849 40.460183 0.439821 1.027167 0.060708 -0.022708 -99811.400000 0 0 1
30.580069 14.384733 22.046849 40.350028 0.439685 0.992749 0.047114 -0.021812 2016630.000000 0 0 1
29.193869 14.902333 22.076749 39.518912 0.471981 0.978054 0.052401 -0.017315 1474290.000000 0 0 1
28.407569 14.305933 23.281049 39.416455 0.466520 0.938941 0.020708 -0.012661 -88968.800000 0 0 1
28.021969 12.979633 23.118849 38.576972 0.433772 0.928181 0.029351 -0.008256 -305879.000000 0 0 1
27.141869 12.501833 24.075919 38.374819 0.431643 0.892601 0.012731 0.001614 -334666.000000 0 0 1
26.703169 11.033133 23.789009 37.426010 0.391814 0.881975 0.027162 0.004223 -212392.000000 0 0 1
25.794969 10.974233 22.714049 36.079665 0.402244 0.889819 0.025915 0.007073 -143201.000000 0 0 1
25.420569 9.633033 22.516849 35.298855 0.362226 0.879039 0.021869 0.015072 -1397180.000000 0 0 1
24.253869 9.594733 21.598249 33.864339 0.376704 0.879174 0.030720 0.005249 334336.000000 0 0 1
23.033269 9.448833 22.418449 33.502221 0.389290 0.837714 0.021682 0.002079 1667510.000000 0 0 1
21.847369 9.501933 21.614949 32.168312 0.410246 0.833981 0.023662 0.012899 749306.000000 0 0 1
20.556569 9.471233 22.486549 31.904885 0.431749 0.788656 0.015131 0.000120 140907.000000 0 0 1
20.362369 8.427633 23.383849 32.131845 0.392417 0.755765 0.021502 0.002397 -162893.000000 0 0 1
19.035769 8.525633 23.815789 31.658154 0.421085 0.719281 0.033133 -0.004012 -334965.000000 0 0 1
18.670469 7.746233 25.120899 32.243606 0.393278 0.677572 0.031579 0.003119 -507945.000000 0 0 1
18.611369 6.360933 24.932289 31.756315 0.329330 0.667918 0.034545 -0.002154 222808.000000 0 0 1
18.412569 5.662133 26.144449 32.474831 0.298337 0.635006 0.024595 -0.011206 -133896.000000 0 0 1
18.574269 4.131133 26.062399 32.269465 0.218849 0.630642 0.030708 -0.015381 477387.000000 0 0 1
19.896669 3.803333 25.634389 32.672078 0.188876 0.668752 0.050933 -0.010435 438693.000000 0 0 1
20.110869 2.430633 25.452159 32.529486 0.120278 0.672232 0.048269 -0.011492 200571.000000 0 0 1
21.637669 2.164133 25.317259 33.374179 0.099685 0.709653 0.053366 -0.004214 398983.000000 0 0 1
22.340869 2.497333 26.507279 34.756107 0.111321 0.703372 0.060803 -0.008907 -38053.700000 0 0 1
23.712869 2.642133 26.244519 35.469082 0.110964 0.737835 0.062719 -0.002918 198541.000000 0 0 1
24.628169 3.182133 27.387229 36.969352 0.128495 0.736522 0.055383 -0.000680 -458520.000000 0 0 1
24.687469 2.384533 28.580089 37.841493 0.096290 0.714749 0.063680 -0.004543 433599.000000 0 0 1
25.587069 2.876933 29.571959 39.210657 0.111967 0.716389 0.054546 0.005798 665895.000000 0 0 1
27.112669 2.839133 29.292579 40.015156 0.104336 0.749489 0.046893 0.006608 -431315.000000 0 0 1
27.481369 3.940433 28.392829 39.710268 0.142415 0.774173 0.036001 0.018139 413006.000000 0 0 1
28.825569 3.950633 27.923139 40.326451 0.136205 0.805948 0.018147 0.022421 422163.000000 0 0 1
29.299369 2.835133 26.964469 39.919589 0.096464 0.829195 0.028772 0.014882 -248303.000000 0 0 1
28.880969 3.045633 25.585319 38.703938 0.105066 0.848576 0.015924 0.031179 108263.000000 0 0 1
29.232269 1.921933 24.799299 38.382608 0.065652 0.868323 0.039524 0.021842 -96583.900000 0 0 1
28.943169 2.206633 23.278649 37.208491 0.076093 0.894861 0.033930 0.012440 232272.000000 0 0 1
29.604169 3.336633 22.714149 37.462949 0.112235 0.919385 0.035666 0.021368 -279137.000000 0 0 1
30.940469 3.099033 22.331649 38.283406 0.099828 0.947981 0.020391 0.018789 75725.900000 0 0 1
31.642369 4.363233 21.711549 38.622127 0.137028 0.973809 0.003084 0.019263 -228910.000000 0 0 1
31.199569 4.813133 20.400049 37.586452 0.153063 0.997088 0.010613 0.011848 30551.000000 0 0 1
31.632969 6.090333 19.986649 37.910461 0.190204 1.015486 0.020778 0.006594 -1152080.000000 0 0 1
33.108969 6.294733 19.726349 39.050689 0.187879 1.041244 0.008841 0.004277 -667561.000000 0 0 1
34.030969 6.270733 20.824049 40.386507 0.182221 1.029066 0.010290 0.005174 722818.000000 0 0 1
34.042869 7.539333 21.482849 40.954503 0.217948 1.018605 0.025191 0.002665 -687360.000000 0 0 1
34.672569 7.372533 22.835449 42.166326 0.209513 0.998509 0.036277 0.006203 -465626.000000 0 0 1
33.865669 6.578833 23.670509 41.838470 0.191873 0.969442 0.035107 0.019938 64153.700000 0 0 1
34.462069 6.399533 24.911389 43.001925 0.183606 0.952916 0.032951 0.015241 -192828.000000 0 0 1
33.718069 5.420033 25.823809 42.815348 0.159382 0.923360 0.037877 0.018183 -57924.600000 0 0 1
33.859669 4.109533 25.370259 42.509005 0.120779 0.931263 0.040872 0.012199 -15151.300000 0 0 1
33.243969 3.193533 26.240399 42.472564 0.095770 0.904829 0.037677 0.018059 -103977.000000 0 0 1
33.304669 1.725633 25.916749 42.235727 0.051767 0.910157 0.038316 0.016362 59949.100000 0 0 1
32.613369 1.282233 24.754029 40.963861 0.039296 0.921923 0.046795 0.012035 20394.600000 0 0 1
32.981069 -0.094267 24.477979 41.072269 -0.002858 0.932319 0.051262 0.010594 117864.000000 0 0 1
31.975469 -0.864267 23.592509 39.746497 -0.027022 0.935303 0.060668 0.014067 387336.000000 0 0 1
30.840369 -1.442767 24.209629 39.234119 -0.046748 0.905801 0.061540 0.011946 64376.300000 0 0 1
30.035669 -2.269867 23.371849 38.125281 -0.075429 0.910909 0.058373 0.008605 126590.000000 0 0 1
28.586769 -2.343367 23.898289 37.333938 -0.081791 0.876139 0.060024 0.011391 -295171.000000 0 0 1
27.931369 -1.168867 23.523549 36.536078 -0.041823 0.871284 0.043883 0.011186 -1306630.000000 0 0 1
26.566069 -1.397667 23.465249 35.472911 -0.052563 0.847982 0.046637 0.011377 -906019.000000 0 0 1
25.725969 -0.123567 23.430649 34.797070 -0.004803 0.832064 0.055494 0.001265 -298013.000000 0 0 1
25.761769 0.643133 22.253349 34.048405 0.024959 0.858492 0.047262 0.002065 34517.300000 0 0 1
24.982669 1.811133 22.406849 33.607750 0.072369 0.841001 0.050507 0.004898 19510.600000 0 0 1
24.935369 2.735433 21.131949 32.799611 0.109264 0.870722 0.048566 0.005945 -56173.600000 0 0 1
24.189269 2.238333 20.033749 31.487807 0.092271 0.881184 0.053463 -0.001262 245957.000000 0 0 1
24.059269 3.344533 19.211549 30.969629 0.138127 0.901626 0.054698 -0.000443 54098.200000 0 0 1
23.403469 3.218133 17.836749 29.601155 0.136650 0.924080 0.058041 -0.005926 4832.710000 0 0 1
24.231769 2.434133 16.995349 29.697568 0.100116 0.961512 0.051360 -0.024675 350757.000000 0 0 1
24.353669 2.992133 15.712349 29.136437 0.122249 1.001229 0.041484 -0.016018 -265560.000000 0 0 1
23.879769 2.023233 14.599849 28.062296 0.084524 1.023634 0.045999 -0.000051 -275792.000000 0 0 1
22.484869 1.907933 14.537949 26.843277 0.084651 0.998473 0.050770 0.004064 -156637.000000 0 0 1
22.024469 0.774633 13.886349 26.048186 0.035157 1.008533 0.044869 0.001531 887025.000000 0 0 1
20.444169 0.801833 13.763149 24.658290 0.039201 0.978636 0.043082 -0.014889 1116430.000000 0 1 0
19.771969 1.570933 12.726349 23.566047 0.079286 1.000325 0.070407 -0.016058 627829.000000 0 1 0
20.001769 1.269433 11.367849 23.041489 0.063381 1.054843 0.084927 -0.024446 -1106860.000000 0 1 0
19.747869 -0.181767 10.883449 22.549076 -0.009204 1.067111 0.083421 -0.022000 1177620.000000 0 1 0
20.873969 -1.094667 11.145849 23.688622 -0.052394 1.080922 0.077520 -0.020615 1918640.000000 0 1 0
22.063069 -0.752467 10.402149 24.403892 -0.034092 1.130454 0.086585 -0.021673 -68409.000000 0 1 0
23.250769 -1.647767 10.846349 25.709078 -0.070751 1.135270 0.083234 -0.015513 -232881.000000 0 0 1
23.547069 -1.436367 12.170249 26.545104 -0.060924 1.094519 0.066828 -0.024499 -111435.000000 0 0 1
24.300169 -2.534667 12.627949 27.502506 -0.103931 1.093751 0.051830 -0.018500 -48864.500000 0 0 1
24.618169 -2.409567 14.114449 28.479430 -0.097567 1.052269 0.062218 -0.014587 367190.000000 0 0 1
25.502069 -1.343067 14.486149 29.359971 -0.052616 1.054804 0.047759 -0.009858 152317.000000 0 0 1
25.770269 -1.316467 15.888349 30.303127 -0.051040 1.018887 0.045993 -0.013933 -364280.000000 0 0 1
26.940969 -0.390967 16.213649 31.446003 -0.014511 1.029085 0.058694 -0.010345 -455835.000000 0 0 1
28.119769 -0.922567 15.676249 32.207411 -0.032797 1.062456 0.067156 -0.006212 395026.000000 0 0 1
29.287269 -0.216167 16.165549 33.453189 -0.007381 1.066457 0.057573 -0.003311 1106140.000000 0 0 1
30.633269 -0.982267 16.116749 34.628191 -0.032054 1.086684 0.071246 -0.000235 206650.000000 0 0 1
31.020569 -1.369967 14.838149 34.413997 -0.044135 1.125012 0.070645 0.002284 -1198680.000000 0 0 1
32.284669 -1.884367 14.875249 35.596681 -0.058301 1.139682 0.058566 0.003563 -1225900.000000 0 0 1
32.733769 -2.446467 13.553649 35.513184 -0.074600 1.179214 0.055342 -0.003311 -167787.000000 0 0 1
32.814369 -1.493667 12.549549 35.163974 -0.045487 1.205863 0.064030 -0.009821 81211.600000 0 0 1
33.222369 -2.073267 11.352549 35.169655 -0.062325 1.242116 0.063389 -0.011492 -204278.000000 0 0 1
33.068169 -1.181467 10.116349 34.601159 -0.035713 1.274092 0.087939 -0.008725 -292844.000000 0 0 1
33.813269 0.031933 10.088449 35.286187 0.000944 1.280847 0.062857 -0.003472 135622.000000 0 0 1
33.038369 1.145033 9.708249 34.454245 0.034644 1.285156 0.074124 -0.006798 -396187.000000 0 0 1
33.811069 2.395733 9.265049 35.139281 0.070738 1.303975 0.081047 -0.010819 -397995.000000 0 0 1
34.355969 2.204233 8.000349 35.343979 0.064071 1.342461 0.054559 -0.009869 101011.000000 0 0 1
34.673369 3.461433 7.421249 35.627222 0.099500 1.360957 0.053925 -0.011347 -291378.000000 0 0 1
34.979869 3.360533 5.952049 35.641427 0.095777 1.403012 0.046619 -0.010504 94324.200000 0 0 1
35.511269 4.604633 5.432749 36.218333 0.128947 1.420228 0.047459 -0.003489 359489.000000 0 0 1
35.790969 4.525333 4.045249 36.302013 0.125770 1.459131 0.032996 -0.014834 -77418.700000 0 0 1
-35.518822 5.894233 3.517349 36.175965 -0.164448 1.473414 0.025544 -0.024917 160685.000000 0 0 1
35.121769 6.758333 3.638349 35.950679 0.190102 1.469419 0.061754 -0.030582 90854.300000 0 0 1
35.446469 8.046633 3.206449 36.489475 0.223225 1.482810 0.052303 -0.029852 -1031800.000000 0 0 1
34.292369 9.031033 3.338749 35.618441 0.257507 1.476922 0.089684 -0.039374 -363801.000000 0 0 1
33.219469 8.918333 2.465649 34.484043 0.262282 1.499234 0.100217 -0.042198 3662.920000 0 0 1
32.335569 7.791633 2.599849 33.362521 0.236454 1.492790 0.113556 -0.042162 -220551.000000 0 0 1
31.075169 7.692633 1.701349 32.058342 0.242671 1.517701 0.131044 -0.044504 129811.000000 0 0 1
31.284769 7.885133 0.346049 32.265025 0.246901 1.560071 0.130526 -0.042962 -222436.000000 0 0 1
30.148469 7.482433 -0.373651 31.065360 0.243271 1.582825 0.135758 -0.040709 -345036.000000 0 0 1
30.336169 7.491633 -1.902251 31.305371 0.242110 1.631598 0.109921 -0.029363 -822781.000000 0 0 1
29.242169 7.009433 -2.594951 30.182286 0.235264 1.656879 0.099920 -0.023190 -122605.000000 0 0 1
29.522769 6.898233 -3.953651 30.574677 0.229540 1.700471 0.116685 -0.022865 341863.000000 0 0 1
28.392869 6.220733 -4.839051 29.466404 0.215687 1.735766 0.097434 -0.018304 302015.000000 0 0 1
28.310669 4.841733 -4.700451 29.103790 0.169383 1.733013 0.107170 -0.020470 206802.000000 0 0 1
27.354769 4.369733 -5.587851 28.259548 0.158405 1.769841 0.072098 -0.010254 -709981.000000 0 0 1
27.234069 2.902733 -5.781051 27.991801 0.106184 1.778820 0.085851 -0.015279 -301246.000000 0 0 1
26.676869 2.212933 -4.664351 27.171834 0.082764 1.743312 0.075262 -0.012029 526695.000000 0 0 1
26.814869 0.842133 -4.846551 27.262345 0.031395 1.749521 0.075424 -0.011957 -189837.000000 0 0 1
26.487269 0.026933 -3.609351 26.732070 0.001017 1.706229 0.067333 -0.013208 370164.000000 0 0 1
27.424569 0.443033 -2.582851 27.549490 0.016153 1.664687 0.104235 -0.019013 1073220.000000 0 0 1
27.285569 -0.350267 -1.420751 27.324778 -0.012836 1.622815 0.094881 -0.018762 -404876.000000 0 0 1
28.377469 -0.012767 -0.432651 28.380770 -0.000450 1.586041 0.098110 -0.017220 -192193.000000 0 0 1
29.719269 -0.317467 -0.755451 29.730564 -0.010682 1.596209 0.113168 -0.017569 139540.000000 0 0 1
30.591769 0.091433 0.256549 30.592981 0.002989 1.562410 0.106838 -0.012895 -104985.000000 0 0 1
-2.685031 -21.134367 -8.454250 22.920410 1.444428 1.948570 0.015144 -0.000731 51855.400000 0 1 0
-3.069131 -21.725267 -7.227650 23.100773 1.430455 1.889015 0.008272 -0.003637 -414559.000000 0 1 0
-2.406131 -22.896067 -6.827350 24.013164 1.466091 1.859090 0.013033 -0.004059 -383735.000000 0 1 0
-3.048331 -23.555567 -5.604750 24.404309 1.442101 1.802527 0.008905 -0.000558 -529801.000000 0 1 0
-2.958031 -22.674767 -4.484350 23.302455 1.441074 1.764445 0.012608 -0.004882 -157795.000000 0 1 0
-3.507131 -23.228267 -3.303750 23.722713 1.420943 1.710516 0.018152 -0.009562 -265410.000000 0 1 0
-3.006031 -22.499367 -2.048650 22.791549 1.437978 1.660804 0.025780 -0.025840 -155378.000000 0 1 0
-1.684831 -22.829067 -1.708950 22.954857 1.497128 1.645314 0.027957 -0.020990 -786640.000000 0 1 0
-1.526831 -22.444867 -0.355350 22.499545 1.502875 1.586591 0.036328 -0.026741 539473.000000 0 1 0
-0.036331 -22.661967 0.041750 22.662035 1.569193 1.568954 0.030698 -0.026108 909754.000000 0 1 0
0.775469 -21.575467 -0.468450 21.594480 -1.534870 1.592491 0.015926 -0.024766 343518.000000 0 1 0
2.085269 -21.482367 0.083050 21.583497 -1.474031 1.566948 0.019647 -0.019693 712009.000000 0 1 0
2.909769 -20.261067 -0.463550 20.474190 -1.428158 1.593439 0.019145 -0.017823 639701.000000 0 1 0
3.643869 -20.670967 -1.645950 21.054116 -1.396309 1.649053 0.019360 -0.014833 30800.900000 0 1 0
4.658469 -19.707667 -1.925450 20.342095 -1.338678 1.665592 0.023760 -0.010759 179514.000000 0 1 0
5.429769 -20.199867 -3.156350 21.153713 -1.308201 1.720566 0.020825 -0.005300 -490846.000000 0 1 0
6.244369 -21.364467 -3.012750 22.461283 -1.286439 1.705333 0.023618 -0.005057 323481.000000 0 1 0
7.042069 -21.825067 -4.096050 23.295963 -1.258683 1.747542 0.024620 -0.005211 64168.200000 0 1 0
8.290669 -21.016267 -4.424150 23.021550 -1.195051 1.764174 0.037671 -0.005936 -755044.000000 0 1 0
8.079669 -19.767267 -5.109150 21.957443 -1.182778 1.805633 0.026989 -0.007398 154241.000000 0 1 0
9.203869 -19.469867 -5.935150 22.338597 -1.129207 1.839716 0.030608 -0.001412 87209.400000 0 1 0
8.949969 -18.120967 -6.685150 21.287617 -1.112040 1.890241 0.018068 -0.002273 -262070.000000 0 1 0
9.805769 -17.946667 -7.759050 21.873244 -1.070734 1.933419 0.019116 0.005950 -188949.000000 0 1 0
9.473269 -16.729467 -8.414050 20.986046 -1.055553 1.983334 0.010838 0.008519 -61047.700000 0 1 0
10.012969 -16.563967 -9.826150 21.706630 -1.027072 2.040565 0.009761 0.007147 -495684.000000 0 1 0
9.687269 -17.458167 -10.876550 22.736097 -1.064211 2.069608 0.017398 0.015062 128948.000000 0 1 0
8.790169 -16.755567 -11.742550 22.268893 -1.087654 2.126225 0.002376 0.008762 163643.000000 0 1 0
8.343669 -17.530667 -12.968250 23.347732 -1.126576 2.159688 0.007314 0.004110 -217506.000000 0 1 0
7.245769 -18.364067 -12.733850 23.492362 -1.194986 2.143662 0.003425 0.014330 -26597.400000 0 1 0
6.719169 -18.900267 -13.967150 24.442762 -1.229224 2.179035 -0.003699 0.014377 323614.000000 0 1 0
5.643369 -20.007467 -13.839250 24.973410 -1.295876 2.158149 -0.001636 0.029072 118248.000000 0 1 0
6.105369 -21.302667 -13.467450 25.931667 -1.291677 2.116879 0.012843 0.018502 -488085.000000 0 0 1
5.084669 -22.119467 -12.985750 26.148697 -1.344849 2.090487 0.033545 0.005765 -114555.000000 0 0 1
5.504169 -23.624267 -12.777150 27.416372 -1.341892 2.055607 0.007241 -0.003113 -512328.000000 0 0 1
5.811669 -24.366967 -13.963550 28.679353 -1.336664 2.079316 0.021645 -0.002635 -363548.000000 0 0 1
5.202969 -25.621547 -14.098250 29.703454 -1.370451 2.065344 0.016357 0.008889 817468.000000 0 0 1
3.648169 -25.685237 -14.328950 29.637128 -1.429706 2.075422 0.025565 -0.005257 491124.000000 0 0 1
2.864669 -25.219607 -13.223850 28.620012 -1.457692 2.051101 0.033267 -0.003975 -152859.000000 0 0 1
1.490169 -25.324197 -13.541850 28.756169 -1.512020 2.061129 0.031715 -0.009396 309495.000000 0 0 1
0.813169 -26.622697 -13.043350 29.657347 -1.540262 2.026174 0.029308 -0.005039 -532736.000000 0 0 1
1.196769 -27.733457 -13.909050 31.048970 -1.527671 2.035291 0.034437 -0.005785 88361.900000 0 0 1
0.722269 -29.004617 -13.487250 31.995240 -1.545900 2.005938 0.019252 0.002149 -275291.000000 0 0 1
-0.748631 -29.381817 -13.686250 32.421676 1.545322 2.006593 0.001396 0.005995 119736.000000 0 0 1
-1.675131 -28.580907 -12.933450 31.415735 1.512253 1.995101 -0.001394 -0.004306 650755.000000 0 0 1
-3.003831 -28.934717 -13.317750 31.993801 1.467353 2.000125 0.010245 -0.004757 612551.000000 0 0 1
-4.224831 -28.015057 -12.950950 31.151560 1.421118 1.999553 -0.000646 -0.001186 730039.000000 0 0 1
-4.579331 -28.042947 -11.600150 30.691051 1.408928 1.958394 0.009116 -0.016280 124089.000000 0 0 1
-5.172531 -29.306297 -11.175750 31.788544 1.396097 1.930039 0.005298 -0.010840 -664750.000000 0 0 1
-5.452931 -29.377147 -9.640750 31.395784 1.387267 1.882911 0.011727 -0.014718 -95860.700000 0 0 1
-6.747531 -29.000897 -9.221150 31.170672 1.342197 1.871118 0.019680 -0.012020 -121581.000000 0 0 1
-7.046931 -27.621117 -9.239750 29.965953 1.320997 1.884246 0.020272 -0.009701 -279767.000000 0 0 1
-8.557831 -27.273757 -8.971450 29.959660 1.266750 1.874914 0.028453 -0.009773 784189.000000 0 0 1
-9.433231 -27.437537 -10.057950 30.707762 1.239649 1.904493 0.036723 -0.013246 -180355.000000 0 0 1
-9.646031 -28.756887 -10.472350 32.088543 1.247157 1.903244 0.042287 -0.022597 -921900.000000 0 0 1
-10.905331 -28.990637 -11.325350 32.979491 1.211003 1.921337 0.053509 -0.024439 -606699.000000 0 0 1
-10.738831 -28.500347 -12.629350 32.971090 1.210452 1.963885 0.067612 -0.024482 -337868.000000 0 0 1
-11.480831 -29.129957 -13.597550 34.135864 1.195365 1.980499 0.076969 -0.027803 -709221.000000 0 0 1
-11.680331 -28.159097 -14.821450 33.897496 1.177599 2.023327 0.080775 -0.027838 81312.300000 0 0 1
-12.775731 -27.253187 -14.831950 33.555063 1.132436 2.028644 0.066122 -0.035174 20871.900000 0 0 1
-12.684231 -26.206717 -13.917550 32.270419 1.120025 2.016706 0.076464 -0.027079 -17094.400000 0 0 1
-13.797631 -25.128247 -13.976950 31.892923 1.068653 2.024443 0.096370 -0.032733 -219482.000000 0 0 1
-13.743731 -24.389667 -15.201550 31.856446 1.057643 2.068250 0.089351 -0.035511 -64445.000000 0 0 1
-14.715031 -23.378267 -15.158150 31.509443 1.009016 2.072668 0.102545 -0.035813 -474996.000000 0 0 1
-14.628331 -22.496267 -16.408450 31.453256 0.994241 2.119612 0.076760 -0.031919 -566615.000000 0 0 1
-13.607331 -21.599267 -16.193750 30.231198 1.008616 2.136090 0.067383 -0.028422 -317467.000000 0 0 1
-13.304331 -20.877767 -17.400150 30.259736 1.003437 2.183433 0.045309 -0.016342 -299647.000000 0 0 1
-13.370031 -19.334867 -17.295950 29.184665 0.965799 2.205127 0.047459 -0.016048 527046.000000 0 0 1
-12.115231 -18.650467 -17.137750 28.077059 0.994707 2.227340 0.055483 -0.011811 858580.000000 0 0 1
-12.351131 -17.247967 -17.155050 27.282569 0.949352 2.250795 0.061891 -0.009575 382512.000000 0 0 1
-11.029131 -16.468667 -17.375750 26.358593 0.980694 2.290559 0.063882 -0.021435 397585.000000 0 0 1
-10.308031 -16.036367 -16.241350 25.044002 0.999506 2.276425 0.071175 -0.019324 186176.000000 0 0 1
-9.063131 -15.478467 -16.640350 24.466805 1.041083 2.318722 0.062353 -0.015774 432582.000000 0 1 0
-8.268131 -14.952267 -15.342350 22.963449 1.065677 2.302476 0.051733 -0.014439 290394.000000 0 1 0
-7.728831 -15.897467 -14.429850 22.818520 1.118276 2.255411 0.049104 -0.005928 25319.400000 0 1 0
-6.662531 -16.738367 -14.821550 23.328965 1.191981 2.259230 0.044193 -0.000296 -165614.000000 0 1 0
-6.100931 -17.561967 -13.628250 23.051534 1.236445 2.203352 0.033879 -0.002540 -276602.000000 0 1 0
-5.416531 -16.720367 -12.662150 21.661937 1.257516 2.195103 0.023369 -0.004538 493509.000000 0 1 0
-5.118131 -17.492767 -11.427350 21.512240 1.286156 2.130815 0.010772 -0.008224 -331926.000000 0 1 0
-4.154431 -18.692767 -11.442650 22.307243 1.352103 2.109422 0.017505 -0.003843 -1003980.000000 0 1 0
-2.870131 -18.200567 -11.638850 21.793603 1.414390 2.134179 0.018468 0.004749 -1702360.000000 0 1 0
-1.965931 -19.241267 -11.690050 22.599746 1.468977 2.114448 0.015467 0.015172 -76962.400000 0 1 0
-0.530031 -18.772767 -12.027050 22.301292 1.542570 2.140400 0.010652 0.019416 -356543.000000 0 1 0
-0.432831 -18.383467 -13.407250 22.757275 1.547256 2.200792 0.013769 0.008561 -1205350.000000 0 1 0
0.743469 -17.777067 -13.762450 22.494041 -1.528999 2.229164 0.012546 0.012627 -218556.000000 0 1 0
2.017769 -18.666767 -13.969450 23.402246 -1.463120 2.210463 0.013849 0.009248 94574.800000 0 1 0
1.963769 -19.706667 -15.031750 24.862876 -1.471474 2.220042 0.029761 0.008377 -106598.000000 0 1 0
1.170569 -20.823967 -14.682950 25.506800 -1.514643 2.184193 0.024414 -0.001828 -826989.000000 0 0 1
1.098569 -21.946667 -15.743750 27.031994 -1.520782 2.192489 0.036880 -0.002265 170103.000000 0 0 1
2.267569 -22.719167 -15.973950 27.865202 -1.471317 2.181273 0.043063 -0.008194 -115979.000000 0 0 1
3.295169 -21.950067 -16.563950 27.695271 -1.421788 2.211898 0.040124 -0.013247 -738741.000000 0 0 1
4.589469 -22.759967 -16.750450 28.629651 -1.371818 2.195767 0.036399 -0.008938 -158273.000000 0 0 1
4.774669 -23.533867 -17.918750 29.962009 -1.370628 2.211861 0.044129 -0.008768 -285003.000000 0 0 1
6.142369 -23.811467 -18.053950 30.506717 -1.318342 2.204089 0.041211 -0.009241 -51260.500000 0 0 1
6.508369 -23.642467 -19.566750 31.371688 -1.302167 2.244273 0.054959 -0.002418 -80567.100000 0 0 1
6.466869 -22.293667 -20.080450 30.692873 -1.288468 2.283971 0.067031 -0.014869 28062.000000 0 0 1
6.944469 -22.279467 -21.404050 31.665970 -1.268642 2.313025 0.069796 -0.006746 216836.000000 0 0 1
7.416569 -20.865167 -21.860450 31.116554 -1.229273 2.349749 0.063774 -0.011964 641383.000000 0 0 1
6.253069 -20.032267 -21.943350 30.362859 -1.268230 2.378503 0.068387 -0.009688 455359.000000 0 0 1
6.452369 -18.706067 -22.396850 29.885931 -1.238641 2.417969 0.072534 -0.008160 216631.000000 0 0 1
5.099169 -18.007467 -22.726850 29.441129 -1.294851 2.452687 0.063119 -0.006601 -743904.000000 0 0 1
4.476669 -18.605767 -23.799150 30.538740 -1.334678 2.464360 0.062913 -0.002887 -17059.200000 0 0 1
3.358569 -17.917367 -24.319850 30.393538 -1.385499 2.498367 0.065135 0.002700 1011670.000000 0 0 1
2.056969 -17.682367 -23.474450 29.460941 -1.454988 2.492775 0.061014 0.010127 -88243.700000 0 0 1
2.279869 -16.799667 -22.342450 28.046598 -1.435911 2.492477 0.049379 0.004675 -1073850.000000 0 0 1
1.170069 -16.082567 -21.960450 27.244805 -1.498170 2.508230 0.028656 0.004020 -517526.000000 0 0 1
1.526869 -15.302067 -20.716650 25.800468 -1.471344 2.503035 0.018378 0.002113 69316.200000 0 0 1
2.246169 -14.129267 -20.995550 25.406585 -1.413143 2.543449 0.019713 0.008737 -302793.000000 0 0 1
2.369869 -13.448867 -19.771250 24.028954 -1.396374 2.537133 0.012994 0.006685 390958.000000 0 1 0
3.487469 -12.367867 -19.654650 23.482586 -1.295954 2.562553 0.017981 -0.000363 390046.000000 0 1 0
4.810969 -12.856767 -19.520550 23.864068 -1.212729 2.528703 0.025552 -0.005858 535094.000000 0 1 0
5.904569 -11.931967 -19.529350 23.635382 -1.111275 2.543260 0.032299 -0.003304 728033.000000 0 1 0
5.968969 -10.933967 -18.314550 22.149559 -1.071098 2.544295 0.033682 -0.008288 -687883.000000 0 1 0
5.085769 -9.817567 -18.360150 21.432330 -1.092831 2.599550 0.013771 -0.003201 -106116.000000 0 1 0
5.341869 -8.751867 -19.313250 21.866238 -1.022787 2.653535 0.025150 -0.009299 -576346.000000 0 1 0
4.738469 -8.967767 -20.716450 23.066106 -1.084696 2.686303 0.034528 -0.016299 -279568.000000 0 1 0
3.339269 -8.898167 -20.639150 22.722293 -1.211784 2.710050 0.027320 -0.020683 -736135.000000 0 1 0
2.675269 -9.244267 -21.826050 23.853511 -1.289095 2.726313 0.035878 -0.024440 -1327310.000000 0 1 0
1.214569 -9.017167 -21.781150 23.605147 -1.436907 2.745897 0.027660 -0.027504 -1589770.000000 0 1 0
0.816869 -7.674667 -21.551150 22.891480 -1.464759 2.797697 0.032298 -0.030728 377226.000000 0 1 0
-0.579331 -7.456467 -21.801850 23.048974 1.493257 2.811130 0.025160 -0.023595 846531.000000 0 1 0
-0.803731 -6.475267 -22.935150 23.845255 1.447305 2.864420 0.027581 -0.023523 -84074.400000 0 1 0
-0.392831 -6.914567 -24.243350 25.213202 1.514045 2.863329 0.026904 -0.014630 -89791.600000 0 0 1
-1.183531 -6.267867 -25.236400 26.030036 1.384169 2.894023 0.028506 -0.018293 220527.000000 0 0 1
-0.773431 -4.840567 -25.585630 26.050984 1.412355 2.952296 0.037715 -0.019075 -362996.000000 0 0 1
-1.360731 -4.460967 -26.778120 27.181235 1.274731 2.969155 0.030683 -0.015159 -324053.000000 0 0 1
-1.032331 -3.174267 -27.269290 27.472820 1.256367 3.019793 0.027999 -0.011635 -645444.000000 0 0 1
-1.454131 -1.930867 -26.464350 26.574510 0.925316 3.050508 0.030186 -0.006617 -697829.000000 0 0 1
-2.817331 -1.739267 -26.295180 26.502809 0.553076 3.016337 0.012781 -0.011464 -921727.000000 0 0 1
-3.417231 -1.067467 -27.376130 27.609228 0.302773 3.011557 0.026204 -0.011590 -611939.000000 0 0 1
-4.942131 -1.267067 -27.319110 27.791436 0.250975 2.956965 0.021132 -0.011200 -289859.000000 0 0 1
-5.412431 -0.403367 -26.295470 26.849746 0.074389 2.938049 0.026024 -0.004931 1899450.000000 0 0 1
-6.883231 -0.485467 -26.192830 27.086508 0.070412 2.884002 0.025779 -0.015748 1998250.000000 0 0 1
-7.589231 0.809433 -25.697540 26.806999 -0.106254 2.852887 0.030656 -0.007364 -1234990.000000 0 0 1
-7.587631 1.952833 -26.546870 27.678909 -0.251904 2.854605 0.035560 -0.012295 648445.000000 0 0 1
-8.655931 1.974833 -27.497370 28.895163 -0.224309 2.829279 0.042215 -0.020242 2269530.000000 0 0 1
-10.168131 1.631533 -27.062850 28.956012 -0.159099 2.777984 0.029099 -0.025209 1271610.000000 0 0 1
-11.193731 2.079933 -27.960470 30.189628 -0.183717 2.754900 0.029706 -0.035435 -493322.000000 0 0 1
-12.437931 1.634433 -27.598810 30.316131 -0.130659 2.714967 -0.003607 -0.026904 -466102.000000 0 0 1
-13.582731 2.421833 -28.369920 31.546921 -0.176448 2.688946 -0.016314 -0.018906 68829.000000 0 0 1
-14.847631 1.853233 -28.055280 31.795996 -0.124175 2.651635 0.000645 -0.018129 -8540.610000 0 0 1
-15.874131 2.232633 -28.931520 33.075755 -0.139729 2.635623 0.005968 -0.014865 74979.400000 0 0 1
-16.586931 3.569133 -28.481120 33.151760 -0.211946 2.604331 0.009214 -0.010843 -550618.000000 0 0 1
-15.798031 4.785633 -28.491410 32.927808 -0.294139 2.616483 0.012838 -0.014118 328184.000000 0 0 1
-15.397831 5.231633 -29.788540 33.938478 -0.327527 2.641883 0.006575 -0.014304 -150473.000000 0 0 1
-16.524031 5.865833 -30.650270 35.311339 -0.341112 2.621958 0.007229 -0.005171 -29807.500000 0 0 1
-17.248031 6.804733 -29.916800 35.196788 -0.375775 2.586756 0.005707 0.003194 48705.500000 0 0 1
-18.183131 7.509133 -30.722910 36.481647 -0.391639 2.572049 0.002340 0.002066 -533486.000000 0 0 1
-18.823831 8.620733 -29.954770 36.413485 -0.429461 2.536815 0.006704 -0.003705 -1008160.000000 0 0 1
-17.878431 9.458533 -29.382180 35.670922 -0.486614 2.538704 0.015115 -0.005931 -163200.000000 0 0 1
-18.459131 10.629333 -28.857520 35.867516 -0.522458 2.505728 0.034739 -0.000613 -153852.000000 0 0 1
-8.263231 24.725533 30.883579 40.415695 -1.248268 0.701077 0.023679 0.002581 -694981.000000 0 0 1
-8.960931 25.910933 30.795899 41.231810 -1.237836 0.727414 0.032090 0.000385 -122276.000000 0 0 1
-8.699631 26.861333 31.846349 42.560601 -1.257585 0.725363 0.041276 0.002079 -256295.000000 0 0 1
-7.325931 27.516133 31.676679 42.593648 -1.310591 0.732216 0.046423 -0.004612 -568110.000000 0 0 1
-7.284731 28.384233 30.554089 42.335380 -1.319571 0.764519 0.063223 0.001902 710864.000000 0 0 1
-5.956731 28.800733 30.239169 42.182606 -1.366846 0.771503 0.062350 -0.001396 372834.000000 0 0 1
-5.993531 29.820333 29.088159 42.086764 -1.372451 0.807721 0.079226 -0.007949 59263.800000 0 0 1
-6.424931 31.090233 29.630839 43.426593 -1.367011 0.819865 0.084021 -0.008374 473333.000000 0 0 1
-6.121931 32.104933 28.745849 43.526183 -1.382373 0.849410 0.082769 -0.005394 -232218.000000 0 0 1
-6.416031 33.449133 29.330599 44.947681 -1.381284 0.859852 0.085008 -0.009710 -162330.000000 0 0 1
-5.439431 33.786133 30.322489 45.722462 -1.411170 0.845729 0.083381 -0.016605 413396.000000 0 0 1
-5.927331 -34.023813 31.306929 46.614128 1.398316 0.834405 0.077160 -0.018883 -178341.000000 0 0 1
-7.010131 -34.358713 32.320459 47.689361 1.369531 0.826127 0.059986 -0.015370 -113976.000000 0 0 1
-6.617731 33.401333 33.306565 47.631615 -1.375202 0.796444 0.069723 -0.012226 165909.000000 0 0 1
-6.413331 32.060533 32.804197 46.315483 -1.373364 0.783742 0.074689 -0.005875 -131482.000000 0 0 1
-6.164831 30.991133 33.910508 46.350599 -1.374437 0.750117 0.059201 0.001443 -169543.000000 0 0 1
-4.931731 31.103233 -34.042040 46.374493 -1.413545 2.395090 0.052708 -0.004608 -439497.000000 0 0 1
-4.997331 30.778733 -32.653080 45.150054 -1.409838 2.379239 0.042785 0.003915 -68784.000000 0 0 1
-3.613631 30.691433 -31.908560 44.420475 -1.453595 2.372195 0.010357 0.008268 820972.000000 0 0 1
-2.878731 29.506033 -32.168250 43.745736 -1.473540 2.396973 0.006154 0.007986 33234.200000 0 0 1
-2.489131 29.164133 -33.493430 44.480920 -1.485654 2.423382 0.025092 0.002838 -785628.000000 0 0 1
-1.851331 27.770633 -33.671830 43.685554 -1.504230 2.450857 0.020257 0.001291 -470081.000000 0 0 1
-0.619331 27.499933 -33.053210 43.001681 -1.548279 2.447523 0.029529 0.007637 11477.300000 0 0 1
-0.089131 26.187233 -33.204240 42.288304 -1.567393 2.473795 0.037420 0.005775 -11399.100000 0 0 1
0.348169 25.608033 34.072047 42.623902 1.557201 0.644559 0.033937 -0.001287 -554753.000000 0 0 1
-0.689231 25.419433 33.124898 41.759807 -1.543689 0.654710 0.033780 0.001843 54577.100000 0 0 1
-0.326031 25.240533 31.771749 40.578749 -1.557880 0.671378 0.042247 0.002595 -686841.000000 0 0 1
0.086569 26.474033 30.908289 40.696490 1.567526 0.708278 0.026910 0.000053 -931080.000000 0 0 1
-0.999431 27.257333 30.546959 40.952140 -1.534146 0.728883 0.035675 -0.007488 -539138.000000 0 0 1
-0.678431 28.459333 29.918699 41.297972 -1.546962 0.760547 0.043360 -0.009663 78840.500000 0 0 1
-1.723231 29.609833 30.167669 42.306028 -1.512664 0.776912 0.053335 -0.011051 448763.000000 0 0 1
-1.692331 30.155833 31.418829 43.581889 -1.514736 0.765675 0.060487 -0.013922 168361.000000 0 0 1
-2.633931 31.220333 31.552459 44.465767 -1.486630 0.781880 0.061381 -0.008821 284534.000000 0 0 1
-2.397631 32.028933 32.856952 45.947584 -1.496077 0.774034 0.064570 -0.008912 201560.000000 0 0 1
-1.190531 32.774033 32.752415 46.349491 -1.534487 0.786058 0.049516 -0.018399 -13624.200000 0 0 1
-0.791231 33.133133 34.041638 47.510669 -1.546921 0.772017 0.036925 -0.014848 -585067.000000 0 0 1
0.567469 33.823533 34.035799 47.987384 1.554021 0.782340 0.034295 -0.012801 -536698.000000 0 0 1
0.549869 -33.653713 33.404930 47.421136 -1.554459 0.789175 0.044632 -0.016923 28056.300000 0 0 1
1.863469 -33.194313 33.236120 47.010367 -1.514717 0.785555 0.043355 -0.018603 -173437.000000 0 0 1
1.813869 -31.723413 32.812740 45.676482 -1.513681 0.769336 0.045882 -0.019153 -188081.000000 0 0 1
1.337269 -30.829113 33.781914 45.754128 -1.527447 0.740197 0.041044 -0.010855 117808.000000 0 0 1
1.585969 -29.484013 33.479884 44.639948 -1.517057 0.722737 0.051031 -0.029667 -63916.200000 0 0 1
1.318069 -28.564113 -33.851160 44.311927 -1.524685 2.440176 0.046099 -0.035062 -497858.000000 0 0 1
-0.037931 -28.365813 -33.617920 43.986195 1.569459 2.440726 0.032700 -0.036007 -584033.000000 0 0 1
-0.191331 -27.355013 -32.621630 42.573514 1.563802 2.443769 0.032252 -0.034349 406769.000000 0 0 1
-1.708931 -27.049113 -32.467280 42.293016 1.507701 2.446001 0.019617 -0.028182 387038.000000 0 0 1
-2.006731 -26.663713 -31.162340 41.061807 1.495677 2.432439 0.021294 -0.027940 59690.700000 0 0 1
-3.359831 -26.259513 -31.074900 40.822786 1.443541 2.435980 0.030388 -0.033874 -71940.700000 0 0 1
-3.779531 -25.724013 -29.737440 39.500950 1.424914 2.423145 0.031485 -0.035192 -428104.000000 0 0 1
-4.278631 -26.726713 -28.842180 39.553700 1.412055 2.387934 0.030922 -0.038484 -129863.000000 0 0 1
-4.593631 -26.220913 -27.534090 38.298353 1.397367 2.373068 0.030952 -0.031249 -322163.000000 0 0 1
-3.554931 -25.584913 -26.595080 37.074568 1.432734 2.370774 0.035083 -0.027809 -339187.000000 0 0 1
-3.055331 -24.432213 -27.252460 36.728254 1.446389 2.406849 0.047634 -0.029763 -4223.500000 0 0 1
-1.924231 -23.821113 -26.679560 35.818250 1.490193 2.411120 0.051974 -0.031114 -573219.000000 0 0 1
-1.059731 -23.032113 -27.677570 36.022897 1.524818 2.447028 0.056385 -0.018878 149553.000000 0 0 1
-0.300631 -23.646413 -28.711330 37.196555 1.558083 2.452591 0.034330 -0.020989 304528.000000 0 0 1
0.816469 -24.349913 -28.195190 37.263301 -1.537278 2.428967 0.035289 -0.020029 -266937.000000 0 0 1
1.546569 -25.215813 -29.245400 38.646119 -1.509540 2.429121 0.025183 -0.026213 415820.000000 0 0 1
2.260269 -24.456013 -30.223180 38.944139 -1.478636 2.459198 0.045122 -0.012667 728247.000000 0 0 1
3.269269 -25.094813 -31.012250 40.027458 -1.441249 2.457155 0.039482 -0.021794 818668.000000 0 0 1
4.364969 -24.222413 -31.724680 40.152628 -1.392506 2.481772 0.046628 -0.021424 498495.000000 0 0 1
5.415269 -23.665213 -30.909390 39.303407 -1.345841 2.475805 0.047503 -0.011673 934782.000000 0 0 1
6.579369 -24.452413 -30.716530 39.808464 -1.307953 2.452162 0.052895 -0.004118 718851.000000 0 0 1
7.589269 -24.627113 -31.913400 41.018981 -1.271864 2.462297 0.063912 -0.011210 -144710.000000 0 0 1
6.975969 -25.337813 -33.002390 42.187992 -1.302134 2.469097 0.044238 -0.018372 -195637.000000 0 0 1
7.224869 -24.926613 34.280362 42.996256 -1.288681 0.648009 0.052057 -0.020812 -70333.300000 0 0 1
6.490469 -23.620213 33.845569 41.779938 -1.302630 0.626488 0.050215 -0.016818 27721.900000 0 0 1
5.106069 -23.835913 33.667078 41.565549 -1.359768 0.626686 0.050469 -0.021509 -271375.000000 0 0 1
4.509069 -22.684913 33.182213 40.447450 -1.374584 0.608724 0.069364 -0.025338 -472400.000000 0 0 1
3.049769 -22.451713 33.591444 40.518707 -1.435786 0.593416 0.042365 -0.020314 -240595.000000 0 0 1
2.111469 -23.288013 32.973046 40.422910 -1.480376 0.616855 0.037164 -0.033708 -392474.000000 0 0 1
1.449869 -24.085413 33.899636 41.610030 -1.510672 0.618587 0.036878 -0.022977 78694.000000 0 0 1
0.066569 -24.629013 33.474260 41.558619 -1.568093 0.634327 0.031563 -0.023394 146687.000000 0 0 1
0.251169 -25.600113 32.458329 41.339715 -1.560985 0.667840 0.042350 -0.020335 -204954.000000 0 0 1
-0.996431 -25.941713 31.939319 41.159269 1.532405 0.682508 0.040834 -0.028117 -219624.000000 0 0 1
-0.758331 -26.994713 30.828359 40.983867 1.542712 0.719391 0.049192 -0.033794 -119604.000000 0 0 1
-1.975331 -27.182413 30.171809 40.658622 1.498254 0.734633 0.058229 -0.033947 -219421.000000 0 0 1
-2.014431 -28.359313 29.384479 40.887115 1.499883 0.768904 0.066037 -0.031054 248598.000000 0 0 1
-3.406731 -28.572813 28.717379 40.653405 1.452127 0.786404 0.078503 -0.020399 197971.000000 0 0 1
-4.439331 -28.833613 29.635469 41.585405 1.418032 0.777540 0.075469 -0.022694 -1386980.000000 0 0 1
-5.584831 -29.063713 28.940899 41.394026 1.380952 0.796579 0.081349 -0.020969 -835796.000000 0 0 1
-6.716031 -29.592213 29.921659 42.615840 1.347624 0.792418 0.071995 -0.015387 1164650.000000 0 0 1
-7.808131 -30.193713 29.138389 42.681061 1.317739 0.819344 0.074170 -0.009297 769088.000000 0 0 1
-9.073331 -30.118213 29.721979 43.276184 1.278186 0.813722 0.054680 -0.004604 -303968.000000 0 0 1
-9.399631 -30.980713 31.002739 44.825523 1.276221 0.807051 0.058387 -0.004464 -676313.000000 0 0 1
-9.319531 -32.409713 30.824849 45.688231 1.290797 0.830268 0.071637 -0.008853 864010.000000 0 0 1
-10.428631 -32.917713 30.057699 45.779880 1.263991 0.854534 0.048607 -0.005044 360232.000000 0 0 1
-10.100931 -34.294013 29.399749 46.286644 1.284357 0.882572 0.064353 -0.000194 -241465.000000 0 0 1
-10.029331 33.364433 30.274929 46.155652 -1.278790 0.855381 0.073251 -0.005409 310945.000000 0 0 1
-9.833631 32.171933 29.610119 44.816211 -1.274156 0.849044 0.074554 -0.013531 -560152.000000 0 0 1
-10.428831 30.936133 30.309659 44.547506 -1.245652 0.822502 0.070193 0.005653 209170.000000 0 0 1
-11.850731 30.980533 30.291669 44.920134 -1.205448 0.830719 0.059720 0.019570 246020.000000 0 0 1
-12.528931 29.880833 30.862649 44.747530 -1.173766 0.809713 0.071321 0.011454 -155815.000000 0 0 1
-12.389531 29.635533 32.362329 45.596992 -1.174816 0.781657 0.069072 -0.011611 -274246.000000 0 0 1
-13.148931 30.574533 33.153659 46.977245 -1.164646 0.787331 0.073368 -0.008817 442908.000000 0 0 1
-13.325531 30.019133 -34.161770 47.389288 -1.153026 2.375861 0.079571 -0.012736 27440.600000 0 0 1
-14.535931 30.585533 -33.380390 47.550169 -1.127140 2.349003 0.077848 -0.012937 34468.100000 0 0 1
-14.601631 29.943533 -32.122190 46.278050 -1.117086 2.337983 0.070191 -0.014734 -344629.000000 0 0 1
-15.799331 30.264433 -31.484100 46.441397 -1.089670 2.315742 0.064580 -0.017026 -352878.000000 0 0 1
-15.949731 29.597633 -30.132270 45.148283 -1.076526 2.301517 0.088632 -0.022766 -18482.900000 0 0 1
-16.176031 28.222933 -30.083390 44.308106 -1.050352 2.317140 0.086156 -0.026206 216981.000000 0 0 1
-16.380731 27.864433 -28.729410 43.245046 -1.039342 2.297407 0.071829 -0.021429 -259803.000000 0 0 1
-16.804931 26.432533 -28.434800 42.303928 -1.004492 2.307912 0.048615 -0.025165 26363.600000 0 0 1
-18.186331 26.217033 -28.624360 42.865248 -0.964322 2.302013 0.048962 -0.022110 -79320.700000 0 0 1
-18.599931 24.924133 -28.242250 42.009458 -0.929692 2.308085 0.024620 -0.015621 719672.000000 0 0 1
-20.104631 24.644533 -28.594810 42.769292 -0.886504 2.303098 0.021726 -0.013549 386423.000000 0 0 1
-21.008131 25.097933 -27.628020 42.831709 -0.873871 2.271868 0.008706 -0.013981 890839.000000 0 0 1
-22.332231 24.538533 -27.740620 43.248239 -0.832435 2.267154 0.016891 -0.014938 1403110.000000 0 0 1
-23.322331 24.921133 -26.589280 43.266428 -0.818526 2.232609 0.029747 -0.020273 148978.000000 0 0 1
-23.567531 26.276033 -26.463130 44.115255 -0.839685 2.214127 0.014592 -0.006430 484143.000000 0 0 1
-24.721531 26.490233 -25.629130 44.381740 -0.819921 2.186423 0.013096 -0.003653 607201.000000 0 0 1
-24.717931 26.154633 -24.121550 43.323090 -0.813632 2.161304 0.011446 0.004108 -847450.000000 0 0 1
-24.604131 24.831433 -23.710550 42.239241 -0.789996 2.166800 0.017391 -0.000089 817296.000000 0 0 1
-25.845891 24.077333 -23.585450 42.473539 -0.749987 2.159517 0.023172 0.002551 1068420.000000 0 0 1
-26.687591 24.361233 -22.279650 42.450913 -0.739858 2.123316 0.011098 0.005218 -83741.500000 0 0 1
-26.150591 23.910433 -21.059550 41.219739 -0.740679 2.107039 0.012312 0.000906 407556.000000 0 0 1
-24.959531 24.595733 -20.650850 40.674143 -0.778057 2.103326 0.012552 0.000326 348646.000000 0 0 1
-24.241931 23.834933 -19.510450 39.197359 -0.776933 2.091798 0.019870 -0.002405 -271479.000000 0 0 1
-24.815731 23.916933 -18.229650 38.989234 -0.766957 2.057320 0.015646 -0.004379 174278.000000 0 0 1
-23.857831 23.599633 -17.233550 37.724449 -0.779958 2.045221 0.017741 -0.012618 -256359.000000 0 0 1
-24.346031 23.696733 -15.787450 37.463422 -0.771884 2.005796 0.007376 -0.013170 -300084.000000 0 0 1
-24.810531 24.950233 -15.410750 38.413120 -0.788206 1.983606 0.014947 -0.017291 -28489.700000 0 0 1
-25.302231 24.965833 -14.098050 38.239387 -0.778706 1.948384 -0.000467 -0.018656 152344.000000 0 0 1
-25.590311 26.490433 -13.799150 39.332221 -0.802680 1.929260 -0.005646 -0.010400 664395.000000 0 0 1
-24.321531 27.159033 -13.607050 38.914030 -0.840460 1.928015 -0.003847 -0.002621 915397.000000 0 0 1
-24.220731 27.853533 -12.386650 38.934461 -0.855047 1.894564 -0.000516 -0.001310 465320.000000 0 0 1
-22.748931 28.218033 -12.010550 38.184088 -0.892296 1.890772 0.001994 -0.000606 -8050.280000 0 0 1
-21.919131 27.205033 -11.628250 36.820895 -0.892589 1.892102 0.005912 -0.000286 -1783540.000000 0 0 1
-20.828131 27.671033 -11.020050 36.344719 -0.925566 1.878855 0.011207 0.004771 -1911120.000000 0 0 1
-20.038531 26.614833 -10.238950 34.852951 -0.925436 1.868971 0.037226 0.002028 -191880.000000 0 0 1
-19.229331 25.878433 -11.129250 34.107487 -0.931749 1.903182 0.028169 -0.001437 -42378.300000 0 0 1
-18.926131 24.629133 -10.516050 32.792986 -0.915595 1.897243 0.046400 0.007877 -314571.000000 0 0 1
-18.148531 23.778233 -11.491150 32.044033 -0.918874 1.937569 0.046602 0.003664 -292885.000000 0 0 1
-17.946731 22.452033 -11.051550 30.794735 -0.896460 1.937862 0.028221 0.008103 257364.000000 0 0 1
-17.252131 21.687933 -12.048450 30.218663 -0.898823 1.980905 0.049510 0.003397 299449.000000 0 0 1
-16.914131 20.284733 -11.616750 28.853199 -0.875762 1.985169 0.038847 0.003205 618261.000000 0 0 1
-18.102031 19.489633 -11.568750 29.006298 -0.822294 1.981043 0.022969 0.001645 535992.000000 0 0 1
-17.786631 18.241733 -11.066450 27.777534 -0.798029 1.980563 0.047284 -0.006672 470477.000000 0 0 1
-19.067231 17.307133 -11.065350 28.027453 -0.737047 1.976651 0.043631 -0.012892 961539.000000 0 0 1
-19.641331 16.845233 -12.277650 28.640608 -0.708914 2.013827 0.032601 -0.005479 193279.000000 0 0 1
-20.329631 17.846333 -13.002250 30.014064 -0.720441 2.018842 0.030574 -0.002100 -461263.000000 0 0 1
-21.042131 17.281933 -14.268950 30.741494 -0.687595 2.053482 0.024674 -0.007005 52435.300000 0 0 1
-20.098731 17.040433 -15.291450 30.465781 -0.703237 2.096616 0.040300 -0.005301 321422.000000 0 0 1
-20.762631 16.674933 -16.486550 31.320067 -0.676642 2.125145 0.036117 -0.002798 -50456.400000 0 0 1
-19.786931 16.395433 -17.657050 31.178587 -0.691938 2.172830 0.051569 -0.005203 35703.700000 0 0 1
-19.215831 17.592933 -18.211850 31.787276 -0.741337 2.180871 0.033672 -0.014793 -237619.000000 0 0 1
-18.334431 17.340533 -19.221150 31.722201 -0.757546 2.221719 0.037746 -0.003665 -1034980.000000 0 0 1
-17.835031 18.644233 -19.843250 32.549199 -0.807577 2.226401 0.034591 -0.010686 -396568.000000 0 0 1
-16.997431 19.438133 -19.058250 32.093155 -0.852285 2.206621 0.041615 -0.001764 239549.000000 0 0 1
-16.578331 20.709733 -19.584750 32.974180 -0.895745 2.206746 0.057032 -0.020546 -34248.700000 0 0 1
32.986530 30.545333 2.366650 45.019213 0.746992 1.518202 0.050988 -0.000703 93701.400000 0 0 1
34.129430 30.470233 1.545650 45.778184 0.728814 1.537026 0.063765 -0.003048 46894.100000 0 0 1
33.984320 31.279533 0.414850 46.189991 0.743978 1.561815 0.054240 0.000364 9362.790000 0 0 1
35.219920 31.181633 -0.495650 47.042349 0.724657 1.581333 0.041258 -0.001737 249801.000000 0 0 1
-35.333190 31.659633 0.090250 47.442332 -0.730618 1.568894 0.020419 0.006690 58234.100000 0 0 1
-34.253244 31.621733 -0.805750 46.624757 -0.745472 1.588079 0.024676 0.005292 -117303.000000 0 0 1
-33.190781 32.689933 -0.463350 46.588350 -0.777796 1.580742 -0.000561 0.014996 202170.000000 0 0 1
-32.605791 32.521633 0.851550 46.059954 -0.784106 1.552307 0.003060 0.009744 330169.000000 0 0 1
-31.897201 33.696133 1.312750 46.417498 -0.812817 1.542511 0.000921 0.014779 138383.000000 0 0 1
-31.381531 33.467533 2.743650 45.960895 -0.817554 1.511066 0.012636 0.003281 -374956.000000 0 0 1
-31.121761 -34.069813 3.397650 46.269430 0.830589 1.497298 0.007874 0.007273 -13090.400000 0 0 1
-30.605481 -34.345713 4.654350 46.238365 0.842920 1.469966 0.025671 -0.009216 -543880.000000 0 0 1
-30.258341 -33.033713 5.501850 45.133843 0.829220 1.448592 0.041766 -0.009728 116462.000000 0 0 1
-31.340571 -32.433513 6.192650 45.524862 0.802534 1.434345 0.038642 -0.007074 86520.000000 0 0 1
-31.814321 -33.115113 7.288250 46.496025 0.805429 1.413397 0.041170 -0.022312 -1722540.000000 0 0 1
-32.791491 -32.304713 8.158050 46.748584 0.777920 1.395389 0.049477 -0.016113 -213890.000000 0 0 1
-34.078035 -32.011713 7.683350 47.382445 0.754143 1.407921 0.030987 -0.004157 -103145.000000 0 0 1
-34.861159 -33.124813 7.316850 48.642470 0.759864 1.419802 0.018134 -0.003102 -1999810.000000 0 0 1
35.409060 -32.858313 7.106650 48.825963 -0.748051 1.424727 0.006239 0.006190 -573238.000000 0 0 1
34.711530 -32.980713 8.332650 48.600934 -0.759835 1.398495 0.003876 0.002764 -962791.000000 0 0 1
33.354360 -32.924513 8.095950 47.561342 -0.778913 1.399742 -0.009115 0.014135 -780608.000000 0 0 1
32.455960 -33.130313 9.369250 47.315851 -0.795680 1.371464 -0.019076 0.013786 456827.000000 0 0 1
31.060130 -32.966313 9.077050 46.194180 -0.815161 1.373012 -0.011615 0.011881 741495.000000 0 0 1
30.255040 -32.774913 10.214950 45.759234 -0.825356 1.345667 -0.000030 0.004508 -183969.000000 0 0 1
30.506420 -31.495013 11.010950 45.208611 -0.801341 1.324763 -0.014786 0.011908 -1186410.000000 0 0 1
30.101900 -30.248313 10.485750 43.943552 -0.787824 1.329853 -0.013228 0.007442 -5372.720000 0 0 1
30.577710 -29.725913 9.282850 43.643986 -0.771274 1.356464 0.002298 0.000638 61684.300000 0 0 1
29.862580 -28.319613 9.038250 42.136256 -0.758885 1.354616 0.011587 -0.001245 497159.000000 0 0 1
30.262500 -27.767113 7.743450 41.794646 -0.742423 1.384446 0.019912 -0.010097 99480.500000 0 0 1
29.619130 -26.539413 7.426150 40.457150 -0.730613 1.386194 0.017698 -0.013442 19572.100000 0 0 1
29.760050 -26.056813 5.959150 40.001619 -0.719149 1.421267 0.012241 -0.005770 901202.000000 0 0 1
31.113670 -25.659813 5.711750 40.732180 -0.689629 1.430106 0.022498 -0.008238 291713.000000 0 0 1
31.246250 -25.107913 4.424450 40.327548 -0.676902 1.460862 0.023251 -0.008238 229273.000000 0 0 1
32.682160 -24.600013 4.104250 41.111179 -0.645230 1.470797 0.030159 -0.011926 194650.000000 0 0 1
33.507980 -25.708013 3.871050 42.410749 -0.654432 1.479394 0.012231 -0.003428 -410235.000000 0 0 1
34.874300 -25.323013 3.841650 43.269273 -0.628044 1.481895 0.019493 -0.006434 5166.360000 0 0 1
35.741687 -26.544113 3.836150 44.685279 -0.638790 1.484842 0.015381 -0.004283 -1057550.000000 0 0 1
35.469940 -27.330513 4.981150 45.054250 -0.656509 1.460011 0.005960 0.001056 -163977.000000 0 0 1
-35.592759 -28.566413 4.899650 45.900883 0.676319 1.463848 0.008040 0.002734 -767545.000000 0 0 1
35.544260 -29.570713 5.871750 46.607927 -0.693916 1.444479 0.005996 0.005027 76082.600000 0 0 1
34.246700 -29.900613 5.463250 45.790066 -0.717750 1.451201 -0.007087 0.003535 -296462.000000 0 0 1
33.150030 -29.086813 5.817750 44.483855 -0.720204 1.439637 -0.005038 0.002416 -487051.000000 0 0 1
31.785540 -29.750213 5.539950 43.887205 -0.752335 1.444227 0.003546 0.004177 -481691.000000 0 0 1
31.377300 -29.853113 4.193750 43.512421 -0.760511 1.474266 -0.001523 -0.000408 170538.000000 0 0 1
30.192650 -29.096013 3.930650 42.114416 -0.766904 1.477328 0.011081 -0.000011 101699.000000 0 0 1
28.905940 -29.870413 4.142250 41.772636 -0.801806 1.471471 0.023186 -0.002196 -858883.000000 0 0 1
28.847670 -30.954313 3.200150 42.433459 -0.820611 1.495309 0.023648 0.003325 -327525.000000 0 0 1
27.795010 -31.869213 3.449550 42.427688 -0.853578 1.489402 0.035237 0.003440 -191948.000000 0 0 1
27.893280 -33.253313 2.775150 43.491601 -0.872833 1.506944 0.032952 0.005535 -337007.000000 0 0 1
27.721470 -33.323813 1.356050 43.368136 -0.876915 1.539523 0.037622 -0.001097 185873.000000 0 0 1
27.824320 34.064333 0.954650 43.994123 0.885885 1.549095 0.024517 0.003464 44396.000000 0 0 1
27.449970 34.001033 -0.566750 43.702314 0.891603 1.583765 0.025879 -0.000194 245391.000000 0 0 1
28.480990 -34.219913 -1.426950 44.544420 -0.876672 1.602836 0.034154 0.003880 437575.000000 0 0 1
28.166020 -34.134113 -2.803150 44.343207 -0.880903 1.634053 0.038494 0.006288 -829231.000000 0 0 1
29.310590 -33.733713 -3.721550 44.843327 -0.855442 1.653882 0.035021 0.005029 -432748.000000 0 0 1
29.584470 -32.361113 -3.467250 43.983000 -0.830192 1.649710 0.020213 -0.001632 51796.600000 0 0 1
30.323020 -31.809213 -4.552150 44.181824 -0.809313 1.674012 0.035915 -0.008155 -71068.000000 0 0 1
30.655670 -30.334013 -4.429950 43.353741 -0.780124 1.673156 0.021536 -0.009182 180328.000000 0 0 1
29.642650 -29.422113 -4.916650 42.053785 -0.781664 1.687978 0.021232 -0.016564 565542.000000 0 0 1
29.987210 -28.051613 -4.698650 41.330413 -0.752060 1.684728 0.014253 -0.025033 67657.700000 0 0 1
30.950490 -27.426213 -5.741550 41.750393 -0.725100 1.708754 0.001623 -0.020672 536711.000000 0 0 1
32.254870 -27.981713 -5.721950 43.082404 -0.714577 1.704004 0.001241 -0.014997 116281.000000 0 0 1
33.201690 -27.460513 -6.630950 43.593594 -0.691037 1.723497 0.000705 -0.011903 341940.000000 0 0 1
33.423500 -28.366013 -7.910350 44.545871 -0.703730 1.749321 -0.004314 -0.004203 -507591.000000 0 0 1
32.237530 -28.293313 -8.668150 43.759647 -0.720330 1.770201 -0.007245 -0.007195 1454.520000 0 0 1
32.111500 -29.294813 -9.691150 44.533727 -0.739561 1.790165 -0.009312 0.005179 109674.000000 0 0 1
31.984210 -30.801913 -9.190050 45.345391 -0.766570 1.774878 -0.006900 0.008302 368206.000000 0 0 1
33.169160 -31.309313 -8.546250 46.405868 -0.756562 1.756017 -0.000438 0.001088 134129.000000 0 0 1
32.887610 -32.591513 -8.012150 46.989319 -0.780876 1.742144 0.008411 -0.007670 263754.000000 0 0 1
34.062650 -33.416313 -7.397550 48.287036 -0.775820 1.724602 0.013731 -0.008119 294381.000000 0 0 1
33.763480 34.077833 -6.846850 48.457720 0.790032 1.712566 0.019015 -0.010375 -298112.000000 0 0 1
33.369840 34.087333 -5.493150 48.017363 0.796034 1.685447 0.029031 -0.006557 -221866.000000 0 0 1
33.011870 32.699533 -4.956050 46.729064 0.780645 1.677055 0.032448 -0.008246 -329372.000000 0 0 1
31.833510 32.158733 -5.468750 45.579202 0.790480 1.691070 0.043929 -0.019412 -423798.000000 0 0 1
31.795840 30.774533 -5.146450 44.548100 0.769077 1.686581 0.043261 -0.006978 78779.100000 0 0 1
30.594450 29.975433 -5.699250 43.209124 0.775179 1.703081 0.036838 -0.020161 -589094.000000 0 0 1
30.647070 29.851533 -7.093250 43.366705 0.772249 1.735099 0.017580 -0.017882 69964.400000 0 0 1
29.648990 28.989633 -7.629350 42.162405 0.774154 1.752750 0.003561 -0.020425 -257616.000000 0 0 1
29.680600 28.747633 -9.154750 42.322262 0.769432 1.788830 0.002292 -0.009380 55968.500000 0 0 1
30.640400 27.698533 -9.455250 42.372687 0.735014 1.795836 0.001721 -0.004060 606061.000000 0 0 1
31.025480 27.697233 -10.844550 42.980477 0.728781 1.825867 -0.001043 0.002133 -105060.000000 0 0 1
32.173070 28.684033 -11.107150 44.511223 0.728129 1.822997 0.006421 -0.005945 -1358350.000000 0 0 1
33.419000 28.154633 -10.665050 44.980620 0.700108 1.810179 0.010227 -0.011822 382387.000000 0 0 1
34.507980 28.951133 -11.097050 46.390875 0.698055 1.812346 0.023120 -0.013382 36239.400000 0 0 1
34.633030 30.346733 -10.467650 47.222268 0.719530 1.794321 0.020057 -0.022438 -1316950.000000 0 0 1
35.016870 30.221533 -9.100850 47.141783 0.712025 1.765069 0.022706 -0.019385 185225.000000 0 0 1
34.878800 31.461633 -8.389850 47.715350 0.733934 1.747546 0.030381 -0.019323 -985184.000000 0 0 1
35.834490 31.490433 -7.212050 48.246986 0.720964 1.720841 0.026740 -0.014666 -468288.000000 0 0 1
-34.562437 31.663633 -7.507050 47.471081 -0.741655 1.729602 0.028107 -0.012654 -436219.000000 0 0 1
-33.845341 30.522933 -7.918750 46.258655 -0.733828 1.742828 0.036011 -0.010800 -138875.000000 0 0 1
-32.370221 30.782633 -8.377650 45.448726 -0.760265 1.756188 0.062714 -0.013803 275665.000000 0 0 1
-31.475931 31.104633 -7.313850 44.852256 -0.779465 1.734593 0.043349 -0.011831 304252.000000 0 0 1
-30.125321 31.252833 -7.699250 44.085746 -0.803766 1.746339 0.043657 -0.016411 38409.700000 0 0 1
-29.768301 32.494833 -8.558250 44.892199 -0.829161 1.762610 0.011153 -0.006787 -1219760.000000 0 0 1
-29.866361 33.791633 -7.993550 45.801428 -0.846982 1.746221 -0.011060 0.010451 657029.000000 0 0 1
-28.712301 34.327733 -7.297350 45.343586 -0.874241 1.732434 0.001904 0.010856 588317.000000 0 0 1
-28.938131 -32.988313 -6.743950 44.397354 0.850708 1.723286 -0.010650 0.019939 767153.000000 0 0 1
-30.034211 -32.816413 -5.810050 44.863431 0.829636 1.700666 -0.013135 0.014784 591403.000000 0 0 1
-29.757421 -33.439113 -4.531450 44.991248 0.843590 1.671686 -0.013643 0.014930 -885445.000000 0 0 1
-30.893021 -33.400913 -3.572950 45.637328 0.824385 1.649167 0.007610 0.014933 -985738.000000 0 0 1
-31.174571 -32.124413 -2.959650 44.861914 0.800403 1.636817 0.013886 0.015868 -236700.000000 0 0 1
-32.147051 -32.200913 -1.950850 45.542700 0.786235 1.613645 0.009858 0.015214 45116.100000 0 0 1
-32.909501 -30.819313 -1.801950 45.123301 0.752612 1.610741 0.017053 0.015341 74501.400000 0 0 1
-33.826511 -30.744613 -0.750550 45.716817 0.737706 1.587214 0.012628 0.016930 -583432.000000 0 0 1
-34.478855 -29.498313 -0.677550 45.380623 0.707706 1.585727 0.015039 0.011335 468315.000000 0 0 1
-35.606817 -29.480713 0.415550 46.229109 0.691554 1.561807 0.020745 0.014620 -410982.000000 0 0 1
35.014720 -30.264513 0.039350 46.281453 -0.712759 1.569946 0.008499 0.009994 501277.000000 0 0 1
33.986250 -30.093013 1.055750 45.406709 -0.724716 1.547543 0.005749 0.006067 797139.000000 0 0 1
33.238840 -28.725513 1.175350 43.947207 -0.712689 1.544049 0.000634 0.001070 -894208.000000 0 0 1
32.199040 -28.601313 0.217250 43.068091 -0.726294 1.565752 0.001125 0.000376 160540.000000 0 0 1
31.482530 -27.407113 0.548550 41.744466 -0.716304 1.557655 0.011043 -0.002745 -998575.000000 0 0 1
30.243910 -27.259613 -0.281450 40.716824 -0.733547 1.577709 0.012032 -0.016405 -1271170.000000 0 0 1
29.065570 -27.844013 0.182850 40.250836 -0.763937 1.566254 0.018543 -0.005852 -300230.000000 0 0 1
28.889580 -29.247013 -0.041250 41.109576 -0.791546 1.571800 0.019034 -0.000820 -398999.000000 0 0 1
28.362170 -29.630013 -1.468450 41.042742 -0.807257 1.606583 0.021649 -0.010091 283203.000000 0 0 1
27.029620 -29.231313 -1.781850 39.852791 -0.824512 1.615522 0.040884 0.001967 334527.000000 0 0 1
26.761630 -29.526613 -3.160550 39.974927 -0.834481 1.649942 0.037002 0.009072 133849.000000 0 0 1
25.304260 -30.030913 -3.316950 39.410195 -0.870610 1.655061 0.042850 0.006694 261654.000000 0 0 1
24.372260 -28.960713 -3.361550 38.000394 -0.871221 1.659373 0.055941 0.006571 -663978.000000 0 0 1
23.091960 -29.518213 -3.310550 37.623440 -0.906945 1.658902 0.050030 0.000560 -447214.000000 0 0 1
21.974160 -28.451613 -3.293650 36.099946 -0.913154 1.662160 0.050335 0.001130 -74946.400000 0 0 1
21.893460 -27.873113 -4.528950 35.731574 -0.904979 1.697887 0.056574 0.004388 -175893.000000 0 0 1
21.260560 -26.642313 -4.543450 34.387020 -0.897276 1.703311 0.042395 -0.008569 -317925.000000 0 0 1
20.807060 -26.102713 -5.936050 33.904602 -0.897812 1.746784 0.053925 -0.031624 492224.000000 0 0 1
19.482060 -26.438713 -6.336150 33.447018 -0.935747 1.761387 0.043318 -0.023421 66495.600000 0 0 1
19.010660 -25.756413 -7.500850 32.879488 -0.934959 1.800955 0.059914 -0.028724 881901.000000 0 0 1
17.444960 -25.810613 -7.562950 32.057956 -0.976440 1.808956 0.045317 -0.024390 671591.000000 0 0 1
16.837360 -24.926513 -6.674650 30.811989 -0.976717 1.789152 0.022947 -0.015121 -295996.000000 0 0 1
15.435160 -25.062913 -6.735050 30.195275 -1.018799 1.795738 0.022799 -0.013652 381026.000000 0 0 1
14.639560 -24.381613 -5.546450 28.974866 -1.030057 1.763408 0.001909 -0.002053 214443.000000 0 0 1
15.085860 -24.890013 -4.293050 29.419826 -1.025903 1.717243 -0.004159 0.003951 170904.000000 0 0 1
14.501860 -24.188813 -3.235350 28.387851 -1.030724 1.685014 0.003715 0.006188 -182460.000000 0 0 1
14.612460 -24.975213 -1.910150 28.998860 -1.041421 1.636714 0.008960 0.001499 96813.400000 0 0 1
14.100260 -26.301413 -1.950750 29.906305 -1.078685 1.636071 0.016460 0.003409 367142.000000 0 0 1
14.742460 -27.107113 -0.986050 30.872447 -1.072680 1.602741 0.017652 0.006622 -188534.000000 0 0 1
14.239160 -28.546913 -1.249750 31.925566 -1.108110 1.609952 0.024642 0.004175 222648.000000 0 0 1
12.924060 -28.780313 -0.782050 31.558665 -1.148725 1.595580 0.041180 -0.005353 -68679.700000 0 0 1
12.327160 -29.969713 -1.309550 32.432352 -1.180569 1.611185 0.046393 -0.010325 -50348.100000 0 0 1
12.909760 -31.335913 -0.928350 33.903734 -1.180005 1.598182 0.038514 -0.005157 -728600.000000 0 0 1
14.157160 -31.560113 -1.539550 34.624213 -1.149126 1.615276 0.025349 -0.000085 -432642.000000 0 0 1
14.607960 -32.889913 -1.353950 36.013498 -1.152820 1.608401 0.024621 0.002590 -926560.000000 0 0 1
16.000460 -32.974413 -1.959350 36.703755 -1.119027 1.624205 0.018472 -0.000083 -50396.800000 0 0 1
16.955260 -32.332213 -1.078350 36.524179 -1.087814 1.600325 0.023609 0.018202 41529.600000 0 0 1
18.115560 -31.878713 -1.694150 36.705531 -1.054038 1.616968 0.014261 0.010839 -328042.000000 0 0 1
18.794860 -30.707913 -0.928850 36.015072 -1.021562 1.596590 0.016284 0.012297 -38586.600000 0 0 1
18.240360 -29.419913 -1.143050 34.634499 -1.015800 1.603806 0.021851 0.010699 36191.200000 0 0 1
18.824860 -28.489113 -0.303250 34.148160 -0.986884 1.579677 0.021567 0.007827 -432807.000000 0 0 1
18.395560 -27.007813 -0.504050 32.681381 -0.972854 1.586220 0.014763 0.008025 -536218.000000 0 0 1
18.856560 -26.455513 -1.708350 32.532791 -0.951555 1.623332 0.016533 0.006009 221401.000000 0 0 1
18.069560 -26.850413 -2.831850 32.488044 -0.978442 1.658073 0.021418 0.002805 -122235.000000 0 0 1
32.532200 -30.025813 13.454750 46.270117 -0.745355 1.275747 -0.008992 0.013602 220594.000000 0 0 1
33.085420 -30.155613 14.780750 47.143149 -0.739104 1.251889 0.004980 0.020396 342448.000000 0 0 1
32.098490 -30.717613 15.614050 47.092285 -0.763419 1.232837 -0.010071 0.026413 -262867.000000 0 0 1
32.740800 -31.080213 17.000750 48.238626 -0.759385 1.210630 -0.002204 0.019963 -387256.000000 0 0 1
31.882600 -31.487913 18.037050 48.304492 -0.779170 1.188121 -0.013822 0.011424 -186618.000000 0 0 1
32.428600 -31.694713 19.347550 49.300067 -0.773954 1.167508 -0.015652 0.007814 -381264.000000 0 0 1
33.290520 -32.938013 19.529550 50.740267 -0.780076 1.175705 -0.013014 0.011506 -6783.380000 0 0 1
34.444320 -32.994413 18.696350 51.230810 -0.763902 1.197224 -0.006633 0.017957 310638.000000 0 0 1
35.049930 -34.262413 18.652750 52.443642 -0.774037 1.207163 0.012369 0.002774 176329.000000 0 0 1
-35.690675 34.274633 17.460550 52.473284 -0.765162 1.231577 0.025637 0.000822 783966.000000 0 0 1
-34.505653 -33.708013 17.716950 51.388331 0.773705 1.218807 0.027257 -0.000655 96212.200000 0 0 1
-33.667301 -33.691713 16.607850 50.442436 0.785761 1.235294 0.044576 -0.001875 -177059.000000 0 0 1
-32.360411 -32.918313 16.957550 49.176926 0.793944 1.218741 0.030154 -0.010896 236912.000000 0 0 1
-31.310281 -32.877513 15.994850 48.136263 0.809810 1.232074 0.052548 -0.014511 346306.000000 0 0 1
-31.426561 -31.970013 14.901750 47.241641 0.793970 1.249879 0.069904 -0.007539 205858.000000 0 0 1
-30.133821 -31.950313 14.012450 46.100091 0.814648 1.261953 0.066522 -0.013011 563759.000000 0 0 1
-28.974341 -31.499713 14.658350 45.239491 0.827134 1.240824 0.069064 -0.017913 -155115.000000 0 0 1
-27.839201 -31.522813 13.800050 44.262289 0.847372 1.253732 0.069684 -0.014109 1029400.000000 0 0 1
-26.546721 -31.049613 14.566350 43.370329 0.863420 1.228278 0.065978 -0.027140 -9560.410000 0 0 1
-25.407341 -31.029613 13.770350 42.402740 0.884691 1.240047 0.060473 -0.021460 -880882.000000 0 0 1
-24.349631 -30.676613 14.644450 41.814101 0.899877 1.212982 0.034974 -0.021692 -55030.900000 0 0 1
-22.983131 -30.480013 13.946650 40.641906 0.924715 1.220518 0.050336 -0.016230 50906.800000 0 0 1
-22.405631 -31.710013 13.541550 41.120686 0.955669 1.235221 0.050882 -0.011053 95105.700000 0 0 1
-21.138731 -31.503713 12.946550 40.086694 0.979805 1.241937 0.036497 -0.018640 286239.000000 0 0 1
-20.572831 -32.822313 12.442850 40.686240 1.010908 1.259992 0.039129 -0.011637 -198989.000000 0 0 1
-21.353731 -33.254913 11.370950 41.123832 0.999979 1.290641 0.039252 -0.016050 109941.000000 0 0 1
-21.059131 34.128533 11.060950 41.600341 -1.017932 1.301673 0.039666 -0.010251 616648.000000 0 0 1
-22.191331 33.697433 10.064550 41.584460 -0.988436 1.326342 0.029704 -0.008415 96875.900000 0 0 1
-21.852431 33.871733 8.696150 41.236465 -0.997836 1.358316 0.026906 -0.004008 -131718.000000 0 0 1
-22.904031 33.476133 7.816150 41.307848 -0.970760 1.380432 0.028615 -0.005189 -188207.000000 0 0 1
-22.610631 33.598133 6.309650 40.986423 -0.978441 1.416237 0.025060 -0.007302 -632917.000000 0 0 1
-21.884631 32.564633 5.654550 39.640463 -0.979085 1.427662 0.028919 -0.013183 954031.000000 0 0 1
-20.462331 32.494833 5.859150 38.845216 -1.008817 1.419385 0.021754 -0.010397 486278.000000 0 0 1
-19.550031 33.662133 5.460450 39.308516 -1.044635 1.431433 0.033082 -0.014738 -947078.000000 0 0 1
-19.639231 -33.849213 6.166350 39.616821 1.045065 1.414511 0.040452 -0.014697 -150078.000000 0 0 1
-19.188231 -33.941413 7.502350 39.705075 1.056257 1.380702 0.024133 -0.008298 -645775.000000 0 0 1
-19.231331 -32.667913 8.351050 38.817221 1.038733 1.353963 0.016897 -0.009622 -369159.000000 0 0 1
-18.386831 -31.627413 7.832750 37.412842 1.044197 1.359876 0.040038 -0.022500 35200.900000 0 0 1
-18.291131 -30.451213 8.659350 36.562634 1.029884 1.331688 0.042549 -0.021926 386216.000000 0 0 1
-17.587231 -30.585413 10.065550 36.689147 1.048947 1.292886 0.022787 -0.016921 169409.000000 0 0 1
-16.243331 -30.984813 9.969550 36.377141 1.087949 1.293183 0.032471 -0.026188 -483030.000000 0 0 1
-15.613831 -31.206313 11.215650 36.652646 1.106875 1.259809 0.046526 -0.020708 -543048.000000 0 0 1
-14.251731 -31.816513 10.935250 36.537406 1.149661 1.266849 0.051738 -0.020676 -203907.000000 0 0 1
-13.309931 -30.931513 10.296750 35.212722 1.164442 1.274044 0.022463 -0.019840 -456648.000000 0 0 1
-12.189531 -31.603113 9.832950 35.270786 1.202672 1.288268 0.018199 -0.007933 -345954.000000 0 0 1
-11.171131 -30.611113 9.199150 33.859397 1.220877 1.295651 0.017358 -0.005810 316208.000000 0 0 1
-10.395131 -30.008213 10.242750 33.368631 1.237324 1.258802 0.006324 -0.003368 168964.000000 0 0 1
-9.331731 -29.182113 9.750550 32.151985 1.261297 1.262680 0.011130 -0.005013 600531.000000 0 0 1
-8.556431 -28.628913 10.975650 31.832249 1.280373 1.218774 0.007634 0.008042 258721.000000 0 0 1
-9.329931 -27.763513 11.815950 31.582858 1.246603 1.187343 0.010332 0.003091 -136176.000000 0 0 1
-8.617431 -27.397413 12.967050 31.512263 1.266059 1.146706 0.010822 0.009234 -110046.000000 0 0 1
-9.152531 -26.082313 13.691350 30.846538 1.233312 1.110902 0.014933 0.006420 181878.000000 0 0 1
-8.841431 -24.871813 12.945350 29.400001 1.229248 1.114843 0.012599 0.009128 321338.000000 0 0 1
-9.612731 -24.603713 11.743650 28.907795 1.198331 1.152455 0.011674 0.002886 166234.000000 0 0 1
-9.418331 -23.201313 11.129650 27.402098 1.185180 1.152548 0.003355 0.009056 -5600.460000 0 0 1
-8.171831 -23.144913 10.475050 26.686935 1.231387 1.167431 0.004712 -0.002387 -222389.000000 0 0 1
-7.821531 -21.820513 10.100050 25.284820 1.226615 1.159878 0.004088 0.004497 122562.000000 0 0 1
-6.583631 -21.716613 9.161850 24.472331 1.276442 1.187073 0.012184 -0.006112 -124550.000000 0 1 0
-5.438131 -22.101213 9.842550 24.797433 1.329533 1.162640 0.028233 -0.007140 -981763.000000 0 1 0
-4.405331 -22.440813 8.937950 24.553696 1.376952 1.198220 0.034553 -0.012573 -175157.000000 0 1 0
-3.236331 -23.172413 9.556950 25.273897 1.432031 1.183015 0.048278 -0.013479 -99230.100000 0 0 1
-2.336031 -22.402613 10.361050 24.792851 1.466897 1.139659 0.048728 -0.017445 -147949.000000 0 1 0
-1.395231 -23.277513 10.935650 25.756120 1.510929 1.132293 0.051742 -0.014928 -89466.900000 0 0 1
-0.397931 -22.629813 11.858750 25.551844 1.553214 1.088172 0.050705 -0.016250 -459801.000000 0 0 1
-0.953331 -22.383913 13.180150 25.993552 1.528232 1.039032 0.055566 -0.012741 -154.083000 0 0 1
-0.080531 -22.032113 14.262250 26.245614 1.567141 0.996297 0.061162 -0.009105 68109.500000 0 0 1
0.739969 -20.739413 14.186750 25.138311 -1.535132 0.971153 0.058219 -0.017040 -432248.000000 0 0 1
1.717469 -20.689213 13.192850 24.597653 -1.487973 1.004695 0.062013 -0.025037 -638540.000000 0 1 0
2.258169 -19.415613 13.130550 23.547329 -1.455010 0.979276 0.059521 -0.022560 -291058.000000 0 1 0
3.732269 -19.347713 12.713250 23.449745 -1.380232 0.997804 0.066658 -0.022891 18109.200000 0 1 0
3.974469 -19.677213 11.310450 23.041601 -1.371494 1.057707 0.063487 -0.020191 -29049.300000 0 1 0
5.285269 -20.222213 11.168550 23.698280 -1.315155 1.080054 0.059023 -0.008980 533886.000000 0 1 0
5.392369 -20.918313 9.862350 23.746987 -1.318507 1.142513 0.054698 -0.018162 -771226.000000 0 1 0
5.548269 -20.036013 8.760950 22.560571 -1.300651 1.171977 0.049768 -0.018804 -395398.000000 0 1 0
5.974869 -20.651513 7.551650 22.786212 -1.289167 1.232995 0.042386 -0.021461 -366382.000000 0 1 0
7.377669 -21.299113 7.637950 23.799590 -1.237347 1.244087 0.042926 -0.002077 -307978.000000 0 1 0
8.470869 -20.484313 7.189350 23.303421 -1.178681 1.257170 0.055317 -0.007748 212034.000000 0 1 0
8.869369 -19.356513 7.970950 22.734915 -1.141135 1.212580 0.058619 -0.008268 -298830.000000 0 1 0
9.602769 -19.717613 9.259850 23.806349 -1.117591 1.171288 0.036562 -0.002422 49495.600000 0 1 0
8.711569 -19.998113 10.327650 24.134546 -1.159965 1.128606 0.038139 -0.009401 -308944.000000 0 1 0
9.451869 -19.868913 11.495450 24.824522 -1.126768 1.089342 0.035650 -0.006872 -207302.000000 0 1 0
8.616169 -19.981013 12.781350 25.235732 -1.163671 1.039701 0.044144 -0.013147 -179137.000000 0 0 1
8.528469 -21.323013 13.203750 26.490464 -1.190320 1.049005 0.033923 -0.010448 -96911.300000 0 0 1
7.726269 -21.419713 14.364550 26.922846 -1.224614 1.008010 0.048118 -0.012643 129898.000000 0 0 1
7.891669 -22.807413 15.031750 28.432552 -1.237678 1.013750 0.032711 -0.013786 209743.000000 0 0 1
7.363769 -23.904213 14.254250 28.789236 -1.271968 1.052818 0.036048 -0.012215 -248402.000000 0 0 1
7.663869 -25.100013 14.904550 30.180973 -1.274454 1.054297 0.034093 -0.012480 317867.000000 0 0 1
7.516769 -26.365413 14.037850 30.800942 -1.293065 1.097570 0.042626 -0.020241 -210148.000000 0 0 1
8.563369 -26.480013 13.129150 30.771691 -1.258021 1.129996 0.040139 -0.019638 -668255.000000 0 0 1
8.572369 -27.764113 12.577050 31.662496 -1.271325 1.162308 0.044657 -0.017191 -616933.000000 0 0 1
9.802169 -28.386113 11.939050 32.317098 -1.238301 1.192396 0.054282 -0.016934 94200.300000 0 0 1
10.864069 -28.755813 12.850950 33.317738 -1.209569 1.174820 0.048015 -0.018232 1456130.000000 0 0 1
12.039669 -29.142613 12.109450 33.776979 -1.179023 1.204123 0.056787 -0.012034 964029.000000 0 0 1
13.143969 -29.982613 12.799950 35.150529 -1.157642 1.198080 0.047506 -0.014889 -442994.000000 0 0 1
13.836069 -29.338613 13.842550 35.267651 -1.130126 1.167448 0.040501 -0.011256 112141.000000 0 0 1
14.808769 -30.125413 14.494950 36.564241 -1.113915 1.163178 0.035030 -0.007448 686549.000000 0 0 1
16.165069 -30.239113 13.723550 36.933037 -1.079873 1.190087 0.047054 -0.002727 -294850.000000 0 0 1
16.915469 -29.058013 13.754650 36.327560 -1.043622 1.182482 0.043866 -0.011274 -521056.000000 0 0 1
18.161969 -29.157813 13.155950 36.784700 -1.013719 1.205049 0.047678 -0.012074 -930109.000000 0 0 1
18.836069 -27.795613 12.991450 36.002380 -0.975219 1.201617 0.036927 -0.014252 -680653.000000 0 0 1
20.118369 -28.001813 12.490350 36.672321 -0.947784 1.223248 0.026440 -0.017452 -375097.000000 0 0 1
20.903869 -26.803813 12.475650 36.208534 -0.908442 1.219037 0.019402 -0.016338 421939.000000 0 0 1
22.285169 -26.873313 11.760550 36.839031 -0.878462 1.245867 0.027772 -0.003525 150454.000000 0 0 1
23.180369 -27.591513 12.560650 38.162691 -0.872062 1.235410 0.042753 -0.007040 -696916.000000 0 0 1
24.232069 -28.093813 11.804450 38.933283 -0.859066 1.262751 0.026983 -0.014175 -851734.000000 0 0 1
25.359569 -28.732913 12.626950 40.350067 -0.847680 1.252515 0.027580 -0.008375 -313410.000000 0 0 1
26.168369 -27.889013 13.411250 40.527055 -0.817217 1.233517 0.017309 -0.007522 1521730.000000 0 0 1
27.476269 -27.822413 12.730150 41.122849 -0.791658 1.256062 0.002012 -0.003010 1089870.000000 0 0 1
28.604069 -27.140913 13.499250 41.677952 -0.759157 1.240954 0.019257 -0.003177 -266990.000000 0 0 1
28.532769 -25.743213 13.643350 40.779565 -0.734048 1.229654 0.040336 -0.012133 -39088.100000 0 0 1
27.709469 -25.293013 14.698350 40.293829 -0.739838 1.197401 0.055724 -0.006472 -262871.000000 0 0 1
28.436969 -25.179413 16.046450 41.232907 -0.724716 1.171070 0.041796 -0.004127 -341784.000000 0 0 1
28.844269 -26.397113 16.656150 42.499726 -0.741128 1.168087 0.035970 -0.002778 -11680.600000 0 0 1
29.444869 -26.009113 17.885050 43.166530 -0.723520 1.143593 0.039978 0.000653 -117588.000000 0 0 1
29.830969 -27.307913 18.730350 44.569438 -0.741270 1.137074 0.024448 0.004850 818537.000000 0 0 1
28.696669 -28.139413 19.039750 44.472884 -0.775594 1.128384 0.019593 -0.000030 476487.000000 0 0 1
29.258469 -29.276313 19.631350 45.809938 -0.785703 1.127921 0.016301 0.000313 943941.000000 0 0 1
28.135269 -30.319713 20.046250 45.964448 -0.822750 1.119508 0.008010 0.013288 -190381.000000 0 0 1
27.267869 -29.743313 21.035450 45.504851 -0.828791 1.090245 0.008449 0.012851 1283050.000000 0 0 1
26.095069 -30.546913 21.364150 45.502675 -0.863833 1.082056 0.011371 0.010986 1515140.000000 0 0 1
25.125669 -30.913713 20.206650 44.668396 -0.888319 1.101375 0.026819 0.006090 -1138400.000000 0 0 1
25.499169 -32.107013 19.519150 45.409967 -0.899606 1.126478 0.014111 0.010997 -44259.300000 0 0 1
24.952969 -32.427913 18.224850 44.792470 -0.914938 1.151768 0.025268 0.009237 -367925.000000 0 0 1
25.320369 -31.459513 17.047050 43.834050 -0.893102 1.171359 0.030946 0.009978 1211250.000000 0 0 1
26.710869 -31.619013 16.658750 44.617782 -0.869345 1.188162 0.013821 0.010616 1081410.000000 0 0 1
27.090869 -30.571913 15.752150 43.779987 -0.845694 1.202740 0.023334 -0.006187 -186527.000000 0 0 1
28.595669 -30.674313 15.424550 44.682687 -0.820455 1.218342 0.018006 0.004500 -572125.000000 0 0 1
28.921369 -31.706513 14.529050 45.308298 -0.831304 1.244359 0.042106 0.008557 114886.000000 0 0 1
28.835369 -33.082713 14.985550 46.373603 -0.853887 1.241742 0.041456 0.001456 -835064.000000 0 0 1
27.957669 -34.086413 14.263450 46.335308 -0.883859 1.257884 0.040853 -0.011036 -366756.000000 0 0 1
28.311669 34.364233 12.923850 46.362453 0.881669 1.288297 0.047202 -0.011834 -186102.000000 0 0 1
27.555369 33.309633 12.444850 44.985601 0.879659 1.290500 0.029997 -0.019387 -818854.000000 0 0 1
27.778669 32.929433 10.979150 44.458337 0.870040 1.321261 0.044642 -0.024108 56752.300000 0 0 1
29.100769 32.425933 10.802350 44.888603 0.839390 1.327763 0.036028 -0.023117 552629.000000 0 0 1
29.179869 31.689033 9.593050 44.132598 0.826597 1.351678 0.035880 -0.028163 -465282.000000 0 0 1
30.615169 31.284233 9.241150 44.736905 0.796207 1.362732 0.022337 -0.013667 -208624.000000 0 0 1
31.124069 30.383833 10.217650 44.679809 0.773364 1.340069 0.014832 -0.008273 -367843.000000 0 0 1
32.485069 30.101633 10.098250 45.424252 0.747334 1.346614 0.038698 -0.006368 -683448.000000 0 0 1
33.060169 29.441133 11.355650 45.702362 0.727559 1.319696 0.035252 -0.012587 -230572.000000 0 0 1
32.655069 28.132033 11.499550 44.609466 0.711127 1.310070 0.022805 -0.009593 22897.500000 0 0 1
32.708269 27.699933 12.855650 44.748015 0.702679 1.279400 0.034852 -0.014186 -134478.000000 0 0 1
32.617069 26.167933 13.038250 43.802167 0.676128 1.268553 0.021178 -0.001361 -405561.000000 0 0 1
33.585069 25.449233 12.337250 43.907039 0.648445 1.285975 0.018458 0.012981 -770166.000000 0 0 1
33.437669 24.006833 12.376150 42.983425 0.622677 1.278733 0.030056 0.006640 -498595.000000 0 0 1
32.462269 23.505133 11.322850 41.647294 0.626702 1.295456 0.015480 -0.005041 1036960.000000 0 0 1
31.122069 23.358333 11.841550 40.674528 0.643846 1.275389 0.047337 -0.014257 1349000.000000 0 0 1
30.100369 23.037533 10.880750 39.435401 0.653257 1.291257 0.052218 -0.014090 442699.000000 0 0 1
28.868269 22.334933 11.445750 38.252207 0.658488 1.266923 0.055357 -0.010982 14083.200000 0 0 1
28.172369 23.206133 12.373050 38.539582 0.689038 1.243961 0.047060 -0.006718 12566.600000 0 0 1
27.061869 22.513533 12.900050 37.491535 0.693908 1.219539 0.056346 -0.003105 -82201.400000 0 0 1
24.032669 9.324433 25.665499 36.376257 0.370110 0.787588 0.010052 0.001978 -399294.000000 0 0 1
23.695269 8.276433 26.526359 36.518664 0.336039 0.757759 0.010757 0.003089 -185419.000000 0 0 1
22.314669 8.039533 26.569269 35.616072 0.345804 0.728775 0.021724 -0.000297 -321682.000000 0 0 1
21.898769 6.826233 27.500119 35.810754 0.302172 0.695195 0.032649 -0.005745 -118856.000000 0 0 1
22.126369 7.032933 28.895939 37.067690 0.307754 0.676857 0.049896 -0.007134 953309.000000 0 0 1
23.445669 6.647933 29.324869 38.129285 0.276294 0.693379 0.047322 -0.009374 612769.000000 0 0 1
23.516269 6.580433 30.820119 39.321708 0.272846 0.670045 0.050806 -0.008485 -197327.000000 0 0 1
23.436469 7.865833 31.366659 39.937535 0.323810 0.667466 0.052721 -0.005863 269717.000000 0 0 1
23.298369 7.713433 32.774441 40.944780 0.319714 0.642743 0.060494 -0.007258 -72556.900000 0 0 1
23.476769 9.009033 33.605642 41.972140 0.366413 0.642391 0.059009 -0.009794 220192.000000 0 0 1
24.826069 9.449833 33.625542 42.852189 0.363707 0.668606 0.045501 -0.006750 -19584.100000 0 0 1
25.102669 10.039233 -33.756490 43.248478 0.380443 2.466301 0.057489 -0.009465 -295684.000000 0 0 1
26.362769 10.897033 -33.852600 44.268944 0.391961 2.441377 0.029347 -0.006236 -547530.000000 0 0 1
26.275069 12.142733 34.092636 44.722847 0.432903 0.703923 0.026912 -0.011027 348132.000000 0 0 1
25.871969 13.193333 -33.600210 44.411676 0.471574 2.428837 0.029792 -0.007994 -170508.000000 0 0 1
25.414969 14.468133 34.277652 45.057796 0.517522 0.706331 0.029303 -0.005999 -886571.000000 0 0 1
26.460269 15.198833 33.735733 45.489010 0.521385 0.735309 0.014995 -0.007899 -338062.000000 0 0 1
26.140769 16.576733 33.444384 45.570327 0.565140 0.746740 0.027416 -0.002583 -181941.000000 0 0 1
26.643969 17.577933 -34.123480 46.725761 0.583188 2.389547 0.023632 -0.009022 -296237.000000 0 0 1
26.087669 17.505733 -32.817130 45.431060 0.591021 2.377991 0.016969 -0.015907 575027.000000 0 0 1
26.879569 16.695333 -31.906420 44.936233 0.555802 2.360348 0.020410 -0.014134 -104703.000000 0 0 1
26.107369 16.353833 -30.628110 43.441037 0.559610 2.353290 0.005582 -0.006565 -1039090.000000 0 0 1
25.065869 15.527033 -30.989270 42.775243 0.554598 2.381058 0.013306 -0.002652 -540753.000000 0 0 1
24.256969 15.145333 -29.891730 41.367828 0.558146 2.378329 0.019215 -0.011067 -131863.000000 0 0 1
23.679769 13.770633 -30.153360 40.738028 0.526732 2.404130 0.023399 -0.012396 -121135.000000 0 0 1
22.783869 13.666233 -31.280870 41.040997 0.540288 2.437479 0.027902 -0.012235 1019740.000000 0 0 1
22.088369 12.392333 -31.416570 40.354267 0.511275 2.463099 0.023861 -0.000826 571804.000000 0 0 1
21.220969 11.785833 -30.267940 38.799273 0.506969 2.465648 0.028243 -0.001887 -481549.000000 0 0 1
20.036069 12.525133 -30.098830 38.265684 0.558692 2.476039 0.035076 0.003351 -615499.000000 0 0 1
19.282169 11.904033 -29.134080 36.909384 0.553086 2.480531 0.036133 0.009988 -391198.000000 0 0 1
17.940769 12.612633 -28.842360 36.233016 0.612747 2.491494 0.017477 0.006461 -296207.000000 0 0 1
17.098969 12.692733 -29.943530 36.743642 0.638561 2.523406 0.004781 0.004207 194567.000000 0 0 1
15.963469 13.522133 -29.700250 36.328849 0.702789 2.527921 0.010391 -0.003016 -50450.000000 0 0 1
14.897069 13.530733 -30.838190 36.823869 0.737372 2.563399 0.015030 -0.011035 165029.000000 0 0 1
14.398169 12.231633 -31.165580 36.444663 0.704219 2.596633 0.006471 -0.014728 -886763.000000 0 0 1
13.311969 11.900133 -30.370460 35.230477 0.729458 2.610099 0.013014 -0.012795 -2017470.000000 0 0 1
12.256769 11.394333 -31.269310 35.465884 0.748949 2.650192 0.018076 -0.012382 -1242300.000000 0 0 1
12.046969 12.322733 -32.245470 36.561586 0.796714 2.650779 0.023720 -0.011274 -19205.900000 0 0 1
10.872769 11.905233 -32.940840 36.674932 0.830694 2.686418 0.030782 -0.001975 454851.000000 0 0 1
10.380469 12.822533 -34.073930 37.857683 0.890260 2.690688 0.039143 -0.008713 442.720000 0 0 1
11.304669 12.867533 33.492088 37.617667 0.849964 0.472730 0.026090 -0.006787 -85022.000000 0 0 1
10.746669 13.470233 32.334769 36.639806 0.897393 0.489637 0.037815 -0.005235 -447268.000000 0 0 1
11.561469 13.380133 31.043439 35.726610 0.858186 0.517787 0.039173 -0.001017 -385477.000000 0 0 1
11.686269 12.102133 30.566749 34.890639 0.802878 0.503140 0.029262 -0.004358 41036.300000 0 0 1
11.798369 12.106233 29.150839 33.697683 0.798276 0.525507 0.040043 -0.002412 -201364.000000 0 0 1
12.462869 10.838433 28.539049 32.973809 0.715796 0.524635 0.034648 0.006496 542505.000000 0 0 1
11.714369 9.621833 28.822199 32.565707 0.687636 0.484200 0.036339 -0.000615 784495.000000 0 0 1
12.523169 8.477533 28.540269 32.299308 0.595087 0.487261 0.016678 -0.006046 -75678.400000 0 0 1
11.813469 7.147333 28.851429 31.985112 0.544099 0.446354 0.025033 -0.012263 293745.000000 0 0 1
10.559969 7.049633 28.192239 30.919454 0.588635 0.423159 0.029239 -0.015361 434207.000000 0 0 1
9.651769 5.995733 28.496299 30.678079 0.555866 0.379415 0.023679 -0.020994 339917.000000 0 0 1
9.869669 4.694933 27.709739 29.787286 0.444014 0.375692 0.022485 -0.017041 510086.000000 0 0 1
11.028469 3.967333 28.162789 30.504255 0.345322 0.394363 0.005457 -0.011852 793711.000000 0 0 1
11.034769 2.655233 27.666839 29.904354 0.236135 0.389293 -0.004228 -0.005445 218354.000000 0 0 1
11.808969 1.649833 28.612639 30.997691 0.138812 0.394843 -0.002510 -0.005077 -90696.900000 0 0 1
11.015469 1.458633 29.724249 31.733250 0.131651 0.357739 0.015718 -0.005341 -303470.000000 0 0 1
11.179269 0.192633 30.423089 32.412614 0.017230 0.352192 0.004437 -0.003973 74328.700000 0 0 1
10.012069 -0.063267 31.415689 32.972580 -0.006319 0.308526 0.023095 0.002157 329086.000000 0 0 1
10.040269 0.857433 32.449999 33.978591 0.085193 0.301092 0.008139 -0.004072 -593849.000000 0 0 1
8.761969 0.945833 33.013488 34.169535 0.107531 0.260865 0.024872 -0.005482 -277393.000000 0 0 1
8.602969 2.217333 33.877438 35.022971 0.252250 0.256468 0.026726 -0.010401 -108989.000000 0 0 1
8.648969 3.462133 33.217952 34.499614 0.380760 0.273431 0.030447 -0.018174 1122000.000000 0 0 1
9.965069 3.822633 32.716146 34.413098 0.366292 0.315347 0.008323 -0.008641 807563.000000 0 0 1
10.016969 5.138833 31.988999 33.912289 0.474004 0.338402 0.015910 -0.007757 990.038000 0 0 1
9.980069 6.311433 32.801038 34.861785 0.563906 0.345554 0.010791 -0.008186 100815.000000 0 0 1
10.144569 7.559633 32.125769 34.527169 0.640416 0.375160 0.015300 -0.012376 -299277.000000 0 0 1
10.379069 8.829933 33.018678 35.720105 0.704926 0.391409 0.035768 -0.014275 17671.300000 0 0 1
9.305869 9.512933 33.647898 36.183921 0.796401 0.376620 0.042714 -0.018265 -45111.700000 0 0 1
8.682169 8.793933 -33.902840 36.084843 0.791793 2.792056 0.036136 -0.013225 299829.000000 0 0 1
7.280569 9.316133 -33.461400 35.488904 0.907437 2.801937 0.031254 -0.010636 357792.000000 0 0 1
6.687969 8.285633 -32.673710 34.364982 0.891695 2.826556 0.029705 -0.005536 -604182.000000 0 0 1
5.410169 8.717233 -32.313910 33.903523 1.015346 2.834160 0.036687 -0.008709 -379826.000000 0 0 1
4.805669 8.019133 -31.086590 32.461932 1.030910 2.849461 0.024243 -0.004427 -58023.200000 0 0 1
5.516769 8.432533 -29.898510 31.550963 0.991457 2.816515 0.028252 -0.010874 471325.000000 0 0 1
5.168969 7.685533 -28.724860 30.181174 0.978726 2.829678 0.025557 -0.008275 1056150.000000 0 0 1
3.729669 7.938833 -28.064220 29.402992 1.131599 2.838668 0.020451 -0.005600 1318410.000000 0 0 1
2.747869 7.261833 -28.842130 29.868938 1.209049 2.878625 0.017266 -0.001672 38403.600000 0 0 1
1.454869 7.735033 -28.495470 29.562463 1.384880 2.872104 0.031621 0.006900 513002.000000 0 0 1
0.356269 7.211833 -29.494540 30.365529 1.521436 2.901502 0.041419 -0.001628 140618.000000 0 0 1
0.414069 7.879733 -30.729660 31.726545 1.518296 2.890248 0.035385 -0.004246 141678.000000 0 0 1
-0.202231 7.136933 -31.726830 32.520278 -1.542468 2.920240 0.058658 -0.008780 -548892.000000 0 0 1
0.081369 7.713633 -33.150000 34.035706 1.560248 2.912960 0.071174 -0.017671 -123689.000000 0 0 1
1.408669 7.836633 -33.611560 34.541774 1.392941 2.908991 0.052634 -0.016467 1687.800000 0 0 1
2.008469 6.673833 -34.150535 34.854455 1.278471 2.940275 0.048523 -0.014266 -156420.000000 0 0 1
1.823469 6.420733 32.976160 33.644881 1.294085 0.199710 0.050334 -0.018846 -181317.000000 0 0 1
0.521469 5.979933 32.643893 33.191193 1.483813 0.181851 0.058640 -0.025864 -70373.900000 0 0 1
0.324369 5.983633 31.243649 31.813121 1.516640 0.189495 0.072028 -0.029043 -220329.000000 0 0 1
0.797469 4.757533 30.540309 30.918935 1.404718 0.156658 0.064562 -0.021966 -154011.000000 0 0 1
0.646869 4.818433 29.111059 29.514226 1.437345 0.165477 0.065462 -0.025863 20298.300000 0 0 1
1.315369 3.747533 28.510419 28.785729 1.233235 0.138415 0.062852 -0.018690 -67455.700000 0 0 1
1.400869 3.916533 26.997809 27.316357 1.227295 0.152867 0.054378 -0.016176 473746.000000 0 0 1
2.205669 5.069333 26.643389 27.210904 1.160402 0.204593 0.062842 -0.016302 438694.000000 0 0 1
2.164269 5.252933 25.282599 25.913070 1.179978 0.221041 0.048211 -0.011830 -403444.000000 0 0 1
2.753469 6.644233 24.895249 25.913334 1.177925 0.281240 0.038496 0.001792 584262.000000 0 0 1
4.170569 6.754833 24.939899 26.172887 1.017666 0.308169 0.045924 0.010458 273628.000000 0 0 1
4.708969 6.483533 23.628039 24.949846 0.942639 0.326965 0.046039 -0.008190 -43992.600000 0 1 0
6.246469 6.329533 23.453549 25.082869 0.792003 0.362417 0.047118 -0.012169 322803.000000 0 0 1
6.954869 5.410833 24.221939 25.774981 0.661177 0.348909 0.049792 -0.011889 -49738.400000 0 0 1
6.577469 4.042433 24.065789 25.273832 0.551077 0.310432 0.058002 -0.016121 -783143.000000 0 0 1
6.778169 3.352033 22.672949 23.900676 0.459265 0.321912 0.051003 -0.014710 -491112.000000 0 1 0
5.911469 3.586033 21.635649 22.713573 0.545275 0.309314 0.032812 -0.011914 -362796.000000 0 1 0
4.588869 3.050933 21.754949 22.442008 0.586747 0.248082 0.036892 -0.020929 756677.000000 0 1 0
3.596769 3.726833 20.732149 21.369325 0.803156 0.244813 0.028911 -0.026780 320391.000000 0 1 0
3.202569 5.041833 21.098849 21.928018 1.004896 0.275877 0.023873 -0.016693 -385890.000000 0 1 0
2.045769 5.452033 20.434249 21.247785 1.211824 0.277614 0.013994 -0.014545 -361957.000000 0 1 0
1.628269 6.916233 20.749349 21.932192 1.339580 0.329920 0.012611 -0.001813 -27407.100000 0 1 0
2.406069 7.858233 20.054349 21.672977 1.273675 0.388929 0.004309 0.006017 -332873.000000 0 1 0
1.997069 9.183033 20.316149 22.384421 1.356657 0.433259 0.006088 0.006432 269510.000000 0 1 0
3.013269 10.227833 19.784749 22.474979 1.284288 0.494300 0.015894 -0.003395 -524251.000000 0 1 0
3.027969 10.367133 18.359049 21.300252 1.286627 0.531758 -0.000174 0.000210 -331481.000000 0 1 0
3.971569 11.219133 17.758049 21.377339 1.230563 0.590441 0.002985 -0.007169 -258609.000000 0 1 0
5.461769 10.993733 18.048449 21.827497 1.109706 0.597281 0.011314 -0.001967 -551345.000000 0 1 0
5.899369 9.704633 17.618549 20.961768 1.024594 0.572575 0.010510 0.008810 -584348.000000 0 1 0
7.243969 9.511233 17.939449 21.558351 0.919898 0.587851 0.019094 0.020034 -358900.000000 0 1 0
7.601969 8.016033 18.161349 21.257500 0.811904 0.546497 0.026981 0.006617 7166.560000 0 1 0
7.027869 7.538133 19.417949 21.983429 0.820415 0.487942 0.023291 0.004320 155884.000000 0 1 0
7.284669 6.164533 19.697049 21.887019 0.702304 0.451160 0.032869 -0.010496 -570310.000000 0 1 0
8.711769 5.791733 20.084849 22.645977 0.586721 0.480193 0.044021 -0.001201 -434959.000000 0 1 0
9.566969 5.795533 18.929549 21.987336 0.544663 0.533702 0.046796 -0.005135 729559.000000 0 1 0
10.809669 5.055733 19.101449 22.522761 0.437479 0.558416 0.059126 -0.012631 1037490.000000 0 1 0
10.824469 3.544933 19.130649 22.264712 0.316485 0.537021 0.068177 -0.013926 -247134.000000 0 1 0
10.139869 3.019933 20.289649 22.882456 0.289463 0.480660 0.058558 -0.014634 276484.000000 0 1 0
10.090169 1.653033 20.170749 22.614225 0.162384 0.469157 0.056429 -0.027956 -322189.000000 0 1 0
9.117969 1.087133 21.185049 23.089511 0.118670 0.409002 0.057438 -0.023578 -522865.000000 0 1 0
9.604569 0.981133 22.522049 24.504144 0.101800 0.404976 0.046206 -0.021710 -23106.100000 0 1 0
8.738469 0.281733 23.369349 24.951286 0.032229 0.358002 0.055277 -0.031227 -721979.000000 0 1 0
9.150669 0.389633 24.830919 26.466226 0.042554 0.353371 0.044689 -0.021660 385651.000000 0 0 1
10.427569 -0.179467 25.164399 27.239923 -0.017209 0.392892 0.024525 -0.018343 836656.000000 0 0 1
10.496369 -1.565367 25.132829 27.281555 -0.148043 0.399543 0.015211 -0.017513 -357825.000000 0 0 1
11.934169 -2.128367 25.247869 28.007307 -0.176487 0.447632 -0.009383 -0.005978 59404.400000 0 0 1
12.003669 -3.520167 24.889009 27.855743 -0.285260 0.465724 -0.007451 0.004663 -510706.000000 0 0 1
13.255969 -4.078567 25.142409 28.714041 -0.298486 0.504091 -0.015847 0.010530 -506253.000000 0 0 1
13.281669 -5.594967 25.284729 29.103675 -0.398694 0.518060 -0.006465 0.002270 -288005.000000 0 0 1
13.205769 -6.283467 24.031859 28.131913 -0.444111 0.546678 0.012678 -0.012576 232558.000000 0 0 1
12.893869 -7.622667 24.316449 28.559528 -0.533913 0.552090 0.029531 -0.020357 -188070.000000 0 0 1
12.749469 -8.562067 23.171349 27.798730 -0.591384 0.585312 0.049095 -0.017779 -78379.500000 0 0 1
12.088969 -9.758467 23.519949 28.187920 -0.679128 0.583756 0.044985 -0.008039 -301456.000000 0 0 1
12.121869 -10.595367 22.326249 27.525677 -0.718303 0.624755 0.041644 -0.011777 78228.300000 0 0 1
11.419269 -11.937167 22.501449 27.914349 -0.807568 0.633283 0.049811 -0.006228 -466899.000000 0 0 1
10.042069 -11.921167 22.697149 27.533942 -0.870747 0.601773 0.048510 -0.003592 -991388.000000 0 0 1
9.470969 -13.195067 22.849849 28.034348 -0.948246 0.617953 0.054506 -0.000492 -116956.000000 0 0 1
7.986569 -12.998867 23.180149 27.750228 -1.019852 0.582093 0.039115 -0.001339 220944.000000 0 0 1
7.089269 -12.574967 22.104849 26.400983 -1.057450 0.578518 0.038826 -0.002781 73204.700000 0 0 1
5.808669 -12.488867 22.672949 26.528759 -1.135450 0.545909 0.020658 0.003987 -35964.600000 0 0 1
4.913369 -11.376467 22.058649 25.301170 -1.163105 0.511844 0.009889 0.022043 16562.400000 0 0 1
5.324369 -10.067967 22.417549 25.144768 -1.084342 0.470064 0.017781 0.013465 -121554.000000 0 0 1
4.710969 -9.109067 21.568749 23.882614 -1.093504 0.443827 0.014979 0.014649 -162082.000000 0 1 0
5.159969 -7.644167 21.965049 23.822719 -0.977033 0.397527 0.017295 -0.003776 258861.000000 0 1 0
4.467969 -6.626267 21.275249 22.726777 -0.977540 0.359334 0.007210 -0.002601 37030.400000 0 1 0
5.112969 -5.370267 21.477449 22.721423 -0.809937 0.332433 0.034169 -0.022531 190771.000000 0 1 0
-7.585531 -15.579567 -20.654150 26.960287 1.117692 2.443540 0.018865 -0.005658 -18448.400000 0 0 1
-6.946331 -15.222967 -19.454450 25.660590 1.142711 2.431260 0.010816 -0.008126 -379648.000000 0 0 1
-6.233531 -14.035667 -19.521650 24.838512 1.152842 2.475016 0.016644 -0.018201 -442074.000000 0 1 0
-5.546331 -13.636167 -18.200750 23.408847 1.184496 2.461502 0.011112 -0.017260 -78748.900000 0 1 0
-4.487831 -14.498067 -17.873950 23.448084 1.270604 2.437621 0.006491 -0.007142 -179048.000000 0 1 0
-3.749131 -13.987867 -16.744050 22.137742 1.308924 2.428523 0.007043 -0.008597 -141317.000000 0 1 0
-2.733931 -14.984067 -16.270550 22.287383 1.390326 2.389168 0.012387 0.006488 225857.000000 0 1 0
-1.519831 -15.054467 -17.046150 22.792940 1.470182 2.415644 0.004532 0.000529 256039.000000 0 1 0
-0.531931 -15.762067 -16.329150 22.701693 1.537062 2.373579 0.019341 0.007686 -902391.000000 0 1 0
0.455169 -16.216767 -17.379150 23.774473 -1.542736 2.390583 0.006370 0.023839 -977105.000000 0 1 0
0.061569 -16.930667 -18.489150 25.069901 -1.567160 2.400163 0.014396 0.012553 -654233.000000 0 0 1
-0.138331 -18.289467 -18.207650 25.807794 1.563233 2.353938 0.016578 0.011907 -105647.000000 0 0 1
-0.698331 -18.987667 -19.466550 27.202311 1.534035 2.368309 0.021665 0.008553 -149256.000000 0 0 1
-1.910031 -18.427767 -19.898450 27.187849 1.467516 2.391884 0.042307 -0.004597 -315254.000000 0 0 1
-2.326831 -18.650867 -21.229350 28.354088 1.446680 2.416929 0.046668 -0.015164 919396.000000 0 0 1
-3.516531 -17.766467 -21.767550 28.316772 1.375391 2.447627 0.036038 -0.007883 867335.000000 0 0 1
-3.023131 -16.452467 -21.928950 27.580824 1.389074 2.489935 0.030820 -0.001350 74728.600000 0 0 1
-3.274831 -15.596567 -20.794150 26.198742 1.363832 2.487677 0.012741 0.001387 -314746.000000 0 0 1
-2.277531 -14.429867 -20.626650 25.275816 1.414253 2.525362 0.018840 -0.003346 -213408.000000 0 0 1
-2.466031 -13.405167 -21.546950 25.496095 1.388869 2.577563 0.013831 -0.010709 -578647.000000 0 0 1
-1.631931 -12.357167 -21.307450 24.685425 1.439493 2.612289 0.001659 0.000496 -514452.000000 0 1 0
-1.378731 -11.438367 -22.515750 25.292215 1.450839 2.668634 0.005326 0.000565 -322976.000000 0 0 1
-2.435631 -10.555867 -22.729850 25.179450 1.344028 2.696834 0.003274 -0.003483 -210026.000000 0 0 1
-2.515931 -10.123067 -24.067050 26.230312 1.327197 2.732616 0.014633 -0.004620 -273868.000000 0 0 1
-3.526631 -8.995867 -24.216250 26.072773 1.197181 2.761943 0.004416 -0.002999 -1124160.000000 0 0 1
-4.865531 -9.328367 -24.141950 26.334874 1.090031 2.730612 0.025495 -0.009316 -677160.000000 0 0 1
-5.599031 -8.116067 -24.106950 26.045436 0.966901 2.753343 0.013772 -0.019221 -574015.000000 0 0 1
-7.099831 -8.350867 -23.766750 26.172562 0.866191 2.709470 0.010113 -0.024673 486831.000000 0 0 1
-7.989731 -8.653467 -24.825150 27.477379 0.825257 2.698607 0.027237 -0.020503 74284.100000 0 0 1
-8.121031 -7.629567 -25.786070 28.090618 0.754205 2.733704 0.024897 -0.027859 -644497.000000 0 0 1
-9.131931 -7.959767 -26.908470 29.509589 0.716924 2.718577 0.013402 -0.024986 362997.000000 0 0 1
-9.890731 -6.867367 -27.434570 29.960690 0.606906 2.728007 0.022930 -0.028633 28613.200000 0 0 1
-10.622531 -7.398267 -28.503120 31.304958 0.608352 2.715285 0.028142 -0.024785 -194942.000000 0 0 1
-11.435731 -6.387367 -29.331650 32.123513 0.509380 2.721595 0.023109 -0.023890 -38813.100000 0 0 1
-10.653531 -5.539567 -30.129420 32.434033 0.479499 2.762348 -0.003333 -0.015504 189201.000000 0 0 1
-11.458131 -5.040267 -31.192700 33.610677 0.414411 2.759964 0.021039 -0.014320 430440.000000 0 0 1
-10.692031 -3.946567 -32.033420 34.000514 0.353599 2.799770 0.015514 -0.008460 540792.000000 0 0 1
-9.606431 -4.418267 -32.827320 34.488223 0.431079 2.829983 0.010693 -0.003787 229139.000000 0 0 1
-9.120531 -3.401567 -33.642160 35.022131 0.356978 2.859939 0.014761 -0.002676 103769.000000 0 0 1
-7.916131 -3.804967 34.072020 35.185870 0.448056 0.252288 0.014554 -0.001836 985875.000000 0 0 1
-6.666131 -4.002567 -33.900960 34.781215 0.540738 2.916134 0.012417 -0.006057 -33341.800000 0 0 1
-5.613831 -4.348667 33.902668 34.638373 0.659082 0.206471 0.018822 -0.003174 -424454.000000 0 0 1
-4.203131 -3.821767 34.169665 34.638681 0.737911 0.164748 0.028720 -0.007764 -77501.400000 0 0 1
-4.072231 -2.377167 34.068011 34.392781 0.528386 0.137534 0.031542 -0.016374 -250155.000000 0 0 1
-2.792331 -1.943167 -34.187183 34.356026 0.607965 3.042411 0.037496 -0.012129 -243320.000000 0 0 1
-2.847431 -0.501167 -33.661450 33.785385 0.174222 3.055912 0.038770 -0.013386 -121731.000000 0 0 1
-3.412231 -0.449367 -32.387530 32.569884 0.130940 3.035724 0.029638 -0.013086 203292.000000 0 0 1
-3.881331 0.847533 -32.018520 32.264046 -0.214987 3.018146 0.041053 -0.014018 -433388.000000 0 0 1
-4.386231 0.777333 -30.550360 30.873415 -0.175400 2.996802 0.037292 -0.019548 820611.000000 0 0 1
-5.432031 -0.143467 -30.189260 30.674402 0.026405 2.963504 0.028071 -0.019624 1052150.000000 0 0 1
-6.741031 0.193333 -30.671500 31.404137 -0.028672 2.925164 0.035457 -0.020935 20066.600000 0 0 1
-7.650031 -1.012767 -30.520740 31.481173 0.131622 2.893945 0.029701 -0.018344 -357128.000000 0 0 1
-8.004731 -1.387767 -29.209070 30.317839 0.171662 2.870312 0.020634 -0.019192 175025.000000 0 0 1
-8.788831 -2.577167 -29.184270 30.587693 0.285236 2.837497 0.007153 -0.015527 8500.770000 0 0 1
-9.094431 -3.042067 -27.736530 29.347537 0.322798 2.808715 -0.001446 -0.019448 -184387.000000 0 0 1
-10.005631 -2.235767 -27.030020 28.909052 0.219839 2.779061 -0.006047 -0.021234 -43180.700000 0 0 1
-10.247931 -2.844467 -25.758750 27.867980 0.270749 2.750029 -0.005969 -0.016266 75250.800000 0 0 1
-11.232031 -1.923467 -25.013850 27.487287 0.169603 2.714117 -0.004744 -0.016503 -113284.000000 0 0 1
-10.689331 -0.681567 -24.698550 26.921083 0.063675 2.732401 0.007263 -0.017076 -205577.000000 0 0 1
-11.496731 0.010233 -23.800650 26.431910 -0.000890 2.691602 0.012179 -0.017941 -73173.900000 0 0 1
-10.743331 1.211333 -23.113650 25.517196 -0.112278 2.704076 0.021994 -0.026100 188706.000000 0 0 1
-10.588131 2.336633 -23.971650 26.309853 -0.217203 2.716810 0.018810 -0.027925 304084.000000 0 0 1
-9.688131 3.285433 -23.400150 25.538617 -0.326949 2.729452 0.024125 -0.027889 -251346.000000 0 0 1
-9.545331 4.545433 -24.329250 26.527094 -0.444422 2.731659 0.036848 -0.034055 838433.000000 0 0 1
-10.764431 5.304033 -24.563150 27.337778 -0.457820 2.687150 0.040192 -0.034684 564769.000000 0 0 1
-11.566031 4.734433 -25.539790 28.433586 -0.388532 2.686513 0.033927 -0.035664 -1345490.000000 0 0 1
-12.956031 5.282633 -25.711390 29.271839 -0.387157 2.643229 0.026945 -0.027540 -678242.000000 0 0 1
-12.922131 6.622333 -26.166100 29.924932 -0.473582 2.634976 0.033134 -0.015355 -54259.900000 0 0 1
-14.243831 7.018633 -26.430880 30.834062 -0.457830 2.600599 0.032298 -0.023824 -181429.000000 0 0 1
-14.283331 8.517533 -26.858280 31.590016 -0.537714 2.587188 0.045474 -0.014809 -104994.000000 0 0 1
-13.787931 9.355633 -25.817780 30.727718 -0.596176 2.568469 0.056961 -0.018603 110316.000000 0 0 1
-14.360731 10.656033 -25.917830 31.488340 -0.638378 2.537632 0.059933 -0.014233 6528.970000 0 0 1
-14.178831 11.486633 -24.638850 30.660315 -0.680885 2.504128 0.052378 -0.012763 456930.000000 0 0 1
-14.988831 10.996833 -23.557250 30.008989 -0.632967 2.473503 0.062019 -0.011605 723403.000000 0 0 1
-14.487331 11.712533 -22.399650 29.134353 -0.679883 2.447821 0.058818 -0.011859 8929.310000 0 0 1
-15.453931 11.746533 -21.188750 28.736182 -0.649934 2.399942 0.067549 -0.007989 467188.000000 0 0 1
-16.626231 12.540633 -21.492250 29.926842 -0.646227 2.371950 0.059479 -0.013482 583903.000000 0 0 1
-17.207931 12.843333 -20.230650 29.501581 -0.641168 2.326427 0.056148 0.002693 273851.000000 0 0 1
-18.737231 13.142733 -20.292850 30.587825 -0.611681 2.296189 0.055189 -0.003884 322189.000000 0 0 1
-19.008831 14.416633 -20.824050 31.667271 -0.648867 2.288410 0.048437 -0.011272 -27109.900000 0 0 1
-20.405531 14.575333 -20.834550 32.602216 -0.620248 2.264063 0.023306 -0.007956 -238195.000000 0 0 1
-20.803831 15.932233 -21.453350 33.865641 -0.653557 2.256844 0.020718 -0.010603 -267247.000000 0 0 1
-20.605331 15.990933 -22.869750 34.688832 -0.659971 2.290661 0.031869 -0.016502 187664.000000 0 0 1
-21.345431 17.040533 -23.418450 35.978202 -0.673717 2.279574 0.013859 -0.012467 -605251.000000 0 0 1
-21.187231 17.080133 -24.959050 36.926737 -0.678481 2.312991 0.017956 -0.011540 -217557.000000 0 0 1
-19.919231 17.471533 -25.405630 36.707986 -0.720029 2.335192 0.026312 -0.014471 -100050.000000 0 0 1
-19.677531 16.854633 -26.626120 37.151503 -0.708280 2.369841 0.027601 -0.020018 -40520.500000 0 0 1
-18.473231 17.480633 -27.364470 37.358359 -0.757798 2.392763 0.010248 -0.017983 53860.700000 0 0 1
-18.818331 18.717633 -27.943670 38.539954 -0.782715 2.381914 -0.017319 -0.023303 112608.000000 0 0 1
-17.960831 19.716733 -27.452820 38.275297 -0.831968 2.370639 -0.027016 -0.027923 -1822730.000000 0 0 1
-18.588131 21.099033 -27.709370 39.477804 -0.848581 2.348854 0.005915 -0.021019 1601660.000000 0 0 1
-19.838331 21.350833 -27.004770 39.732544 -0.822103 2.318100 0.019854 -0.011023 1428230.000000 0 0 1
-20.920431 20.456433 -27.067030 39.859180 -0.774185 2.317286 0.049871 -0.024855 -1570540.000000 0 0 1
-22.094431 20.869833 -26.162270 40.102097 -0.756903 2.281532 0.055842 -0.011242 3593.910000 0 0 1
-21.862631 20.646133 -24.807550 38.982714 -0.756788 2.260584 0.025771 -0.005722 538847.000000 0 0 1
-22.998231 21.219433 -24.144550 39.523946 -0.745192 2.227973 0.024405 -0.018332 521956.000000 0 0 1
-23.047131 20.898133 -22.623950 38.467458 -0.736535 2.199544 0.019887 -0.006156 314372.000000 0 0 1
-22.123631 21.661333 -21.834150 37.886653 -0.774840 2.184993 0.016628 -0.009168 426910.000000 0 0 1
-21.091631 20.917133 -21.203350 36.496101 -0.781244 2.190723 0.005114 -0.006994 4368.250000 0 0 1
-21.405731 20.259433 -19.810650 35.512136 -0.757893 2.162596 0.024664 -0.012090 287034.000000 0 0 1
-22.413731 19.192033 -19.917050 35.600539 -0.708118 2.164530 0.046039 -0.010913 1018630.000000 0 0 1
-22.861731 18.708133 -18.656450 34.938748 -0.685810 2.134092 0.036852 -0.005356 93302.600000 0 0 1
-23.882431 19.637233 -17.890150 35.721827 -0.688159 2.095340 0.019916 -0.007683 -384317.000000 0 0 1
-25.089011 19.588233 -18.618150 36.875369 -0.662892 2.100055 0.025992 -0.009611 -395803.000000 0 0 1
-25.932201 20.644533 -18.206850 37.817525 -0.672356 2.073093 0.022529 -0.010488 -1237050.000000 0 0 1
-27.219111 20.649133 -19.021050 39.103287 -0.648999 2.078797 0.013523 0.008204 97061.100000 0 0 1
-28.122691 19.542933 -18.866350 39.099247 -0.607306 2.074331 0.019725 0.008255 717170.000000 0 0 1
-28.754661 19.344733 -17.608050 38.872775 -0.592203 2.040886 0.009156 0.011144 -328537.000000 0 0 1
-29.548851 17.999533 -17.480050 38.764287 -0.547117 2.038605 0.009568 0.009047 91476.000000 0 0 1
-28.713851 16.914233 -17.124050 37.467447 -0.532338 2.045459 0.020303 0.001475 332116.000000 0 0 1
-29.489181 15.863433 -16.548850 37.351369 -0.493538 2.029804 0.015284 -0.001022 550295.000000 0 0 1
-28.664051 14.815833 -15.716550 35.890760 -0.477059 2.024057 0.033740 -0.004658 537730.000000 0 0 1
-28.054721 15.203033 -14.449150 35.028239 -0.496608 1.995993 0.028860 -0.006188 341835.000000 0 0 1
-29.000511 15.476033 -13.457850 35.519726 -0.490201 1.959386 0.014977 -0.002181 136359.000000 0 0 1
-28.220271 16.036933 -12.252450 34.694228 -0.516767 1.931738 0.014433 -0.008057 314529.000000 0 0 1
-27.832341 17.359833 -12.358350 35.053271 -0.557685 1.931101 0.015172 -0.008224 284024.000000 0 0 1
-28.926761 18.287233 -12.362950 36.387126 -0.563754 1.917460 0.008802 -0.007030 236648.000000 0 0 1
-28.498251 19.778833 -12.563850 36.894483 -0.606713 1.918282 0.030535 -0.019568 -28617.000000 0 0 1
-27.713111 20.209733 -11.492050 36.173430 -0.630087 1.894092 -0.001480 -0.028682 -132324.000000 0 0 1
-26.493551 20.768633 -11.930350 35.715230 -0.664854 1.911384 0.011114 -0.027464 574211.000000 0 0 1
-25.540441 21.417533 -10.829450 35.047137 -0.697823 1.884934 0.026951 -0.021368 736800.000000 0 0 1
-26.154991 22.557533 -10.294950 36.040420 -0.711681 1.860481 0.054536 -0.029028 495859.000000 0 0 1
-25.171011 23.555933 -10.009050 35.897672 -0.752265 1.853363 0.053106 -0.022181 493478.000000 0 0 1
-25.876281 24.811833 -9.418350 37.066350 -0.764401 1.827708 0.078980 -0.016180 195820.000000 0 0 1
-25.981551 24.752333 -8.031550 36.772609 -0.761174 1.790982 0.074759 -0.024393 112466.000000 0 0 1
-27.187931 25.318433 -7.572050 37.914939 -0.749808 1.771860 0.081031 -0.025530 46174.900000 0 0 1
-27.738111 24.793333 -6.231050 37.721852 -0.729399 1.736741 0.082596 -0.027790 -133869.000000 0 0 1
-28.019731 23.418733 -6.208650 37.041729 -0.696189 1.739204 0.078893 -0.038534 -319244.000000 0 0 1
-27.691131 22.774333 -5.019250 36.203064 -0.688276 1.709886 0.058277 -0.028343 -272930.000000 0 0 1
-27.798081 21.226733 -5.122050 35.348874 -0.652151 1.716208 0.046184 -0.027015 223909.000000 0 0 1
-26.789941 20.549633 -5.890050 34.273620 -0.654334 1.743507 0.047117 -0.034464 442306.000000 0 0 1
-26.916391 20.708133 -7.331250 34.742857 -0.655771 1.783409 0.041967 -0.033381 -192439.000000 0 0 1
-27.724151 19.627733 -8.122450 34.926360 -0.616052 1.805505 0.028797 -0.033615 364560.000000 0 0 1
-27.126161 18.334933 -7.773550 33.651545 -0.594377 1.803903 0.013463 -0.028133 756262.000000 0 0 1
-27.004611 17.583333 -8.986450 33.454131 -0.577165 1.842756 -0.000265 -0.023679 -243572.000000 0 0 1
-26.570571 16.132233 -8.854250 32.320921 -0.545658 1.848292 0.013328 -0.015630 -287110.000000 0 0 1
-27.506561 15.332133 -8.205750 32.542580 -0.508506 1.825702 -0.005764 -0.011073 -130698.000000 0 0 1
-27.097641 13.990233 -8.275850 31.599026 -0.476594 1.835789 0.007318 -0.013056 583983.000000 0 0 1
-28.073701 13.061733 -7.431650 31.842911 -0.435476 1.806353 0.004842 -0.013891 1141690.000000 0 0 1
-29.307461 12.670533 -8.058550 32.930380 -0.408064 1.818022 0.019675 -0.018161 421314.000000 0 0 1
-30.008571 11.925133 -7.067050 33.055504 -0.378255 1.786253 0.026773 -0.015915 108681.000000 0 0 1
-30.679621 10.685133 -7.696850 33.386415 -0.335143 1.803427 0.020152 -0.013762 471664.000000 0 0 1
-29.645681 9.812133 -8.156650 32.274995 -0.319631 1.826290 0.034897 -0.009124 494675.000000 0 0 1
-30.224991 8.581333 -8.443050 32.534204 -0.276636 1.833314 0.017858 -0.006447 -1071660.000000 0 0 1
-29.273741 7.514933 -8.960750 31.523343 -0.251286 1.859028 0.053370 -0.008422 -591453.000000 0 0 1
-28.885611 7.728433 -10.322450 31.633213 -0.261430 1.903201 0.055041 -0.021147 109593.000000 0 0 1
-27.726741 6.984633 -10.576950 30.486540 -0.246775 1.925101 0.075906 -0.029993 -550327.000000 0 0 1
-27.227761 7.161933 -12.019750 30.612394 -0.257211 1.974300 0.072521 -0.022840 -9582.560000 0 0 1
-26.599111 8.450933 -12.186950 30.454109 -0.307629 1.982503 0.079549 -0.027268 713846.000000 0 0 1
-25.855581 8.496533 -13.405150 30.338098 -0.317498 2.028466 0.074001 -0.012428 -123215.000000 0 0 1
-31.576131 26.256233 -33.638340 53.084647 -0.693668 2.257089 0.014875 -0.007287 -82003.400000 0 0 1
-31.937551 27.608633 -33.835630 54.102621 -0.712827 2.246437 0.017731 -0.014053 281724.000000 0 0 1
-31.771181 27.987333 33.417925 53.939378 -0.722164 0.902632 0.022816 -0.016878 -55172.100000 0 0 1
-32.091791 29.471633 33.047877 54.686583 -0.742864 0.921892 0.032540 -0.015506 16522.400000 0 0 1
-31.906781 29.765733 31.685269 53.925855 -0.750696 0.942743 0.041379 -0.016527 269583.000000 0 0 1
-32.323931 31.090333 31.372329 54.732699 -0.765948 0.960401 0.044497 -0.023955 -45723.900000 0 0 1
-32.352971 31.308133 29.855439 54.020933 -0.768987 0.985239 0.057117 -0.029355 99039.100000 0 0 1
-31.082141 31.375833 29.220839 52.956584 -0.790100 0.986289 0.039212 -0.021930 315184.000000 0 0 1
-30.918051 32.418033 28.277399 52.976090 -0.809077 1.007736 0.050798 -0.018079 -191750.000000 0 0 1
-29.618871 32.265533 27.478789 51.705184 -0.828140 1.010483 0.065090 -0.022427 -711434.000000 0 0 1
-29.594961 31.212433 26.589149 50.567386 -0.811992 1.017122 0.061069 -0.021800 -332028.000000 0 0 1
-28.437731 31.076733 25.830949 49.413620 -0.829711 1.020723 0.048367 -0.018411 -511735.000000 0 0 1
-28.322901 32.177733 24.704689 49.476408 -0.849028 1.047980 0.066268 -0.029837 -276772.000000 0 0 1
-28.134641 33.537733 25.095659 50.459188 -0.872785 1.050260 0.058220 -0.025541 325606.000000 0 0 1
-28.978981 -34.327213 24.356429 51.101610 0.869680 1.073982 0.059952 -0.015230 38605.500000 0 0 1
-29.082181 -33.023813 25.118109 50.668184 0.848779 1.052113 0.062871 -0.022712 -387637.000000 0 0 1
-29.633631 -33.217713 26.354689 51.731404 0.842361 1.036248 0.059419 -0.024398 107576.000000 0 0 1
-29.335931 -32.200813 27.285699 51.400375 0.831920 1.011197 0.041963 -0.026594 -359457.000000 0 0 1
-29.786881 -32.641213 28.671959 52.676259 0.831088 0.995236 0.044110 -0.038246 -1296650.000000 0 0 1
-31.163611 -32.631213 28.840119 53.551090 0.808399 1.002077 0.035574 -0.031309 -886466.000000 0 0 1
-31.528961 -33.318213 29.987969 54.803805 0.812983 0.991796 0.017727 -0.025885 673387.000000 0 0 1
-33.084231 -33.448513 30.120119 55.862250 0.790873 1.001327 0.039299 -0.033730 685574.000000 0 0 1
-33.368531 -34.043613 31.347239 57.053272 0.795412 0.989105 0.038106 -0.030915 864032.000000 0 0 1
-34.770587 -34.124913 31.681389 58.113801 0.776027 0.994215 0.058448 -0.038593 532328.000000 0 0 1
-34.997072 34.297933 33.176946 59.176456 -0.775309 0.975633 0.050623 -0.035623 -612925.000000 0 0 1
-34.674138 32.946233 33.511937 58.402055 -0.759851 0.959641 0.020664 -0.024907 199146.000000 0 0 1
-35.671686 32.313533 34.299124 59.102145 -0.736043 0.951655 0.035622 -0.020120 288523.000000 0 0 1
-35.126404 31.066133 -33.611560 57.694938 -0.724135 2.192688 0.020383 -0.013802 464799.000000 0 0 1
-34.140299 31.308933 -32.603540 56.646272 -0.742165 2.184090 0.022061 -0.020504 -4257.940000 0 0 1
-33.705451 30.055733 -32.203850 55.466138 -0.728220 2.190266 0.023772 -0.016687 128940.000000 0 0 1
-32.917531 30.094033 -30.849150 54.229925 -0.740619 2.175913 0.019693 -0.016333 772218.000000 0 0 1
-33.728381 30.371833 -29.658270 54.218677 -0.733082 2.149587 0.025558 -0.022703 284493.000000 0 0 1
-34.128973 31.696433 -29.470420 55.117659 -0.748461 2.134928 0.015313 -0.009425 -216798.000000 0 0 1
-35.067085 31.891333 -28.302360 55.206713 -0.738005 2.109078 0.014103 -0.004651 -443706.000000 0 0 1
-34.473402 31.686233 -27.066110 54.083335 -0.743295 2.094917 0.007159 -0.014541 -251761.000000 0 0 1
-35.310743 30.994833 -26.140130 53.766483 -0.720399 2.078508 0.024356 -0.014232 -415430.000000 0 0 1
-34.852529 30.901833 -24.716050 52.730496 -0.725388 2.058642 0.030082 -0.013173 -267494.000000 0 0 1
-34.870120 32.062233 -23.969650 53.089134 -0.743472 2.039240 0.021857 -0.011650 466554.000000 0 0 1
-34.211508 31.808733 -22.728250 51.949939 -0.749020 2.023616 0.013530 -0.011865 441172.000000 0 0 1
-35.314235 31.577833 -21.661250 52.090925 -0.729599 1.999658 0.006054 -0.004421 43920.800000 0 0 1
35.491680 32.581733 -21.386750 52.712633 0.742677 1.988567 0.005577 -0.003839 171317.000000 0 0 1
-35.774269 33.727833 -20.635550 53.321581 -0.755962 1.968174 0.011963 -0.007656 -153815.000000 0 0 1
-35.494526 33.362033 -19.144250 52.339172 -0.754438 1.945259 0.012271 -0.010871 37422.600000 0 0 1
-34.363281 32.546533 -18.952350 50.983365 -0.758253 1.951675 0.023348 -0.012772 -119976.000000 0 0 1
-34.117545 32.447433 -17.576950 50.257258 -0.760313 1.928089 0.040091 -0.009280 -163316.000000 0 0 1
-33.213131 31.271633 -17.276350 48.780113 -0.755299 1.932820 0.037471 -0.004198 -175544.000000 0 0 1
-33.009511 31.122633 -15.879350 48.066619 -0.755985 1.907483 0.041445 -0.002591 471242.000000 0 0 1
-31.964831 30.152133 -15.623150 46.636728 -0.756224 1.912398 0.037308 -0.003581 526232.000000 0 0 1
-31.655031 29.964133 -14.116250 45.816578 -0.757964 1.883995 0.039392 -0.007886 -301231.000000 0 0 1
-32.634131 29.300033 -13.370450 45.850271 -0.731617 1.866707 0.046349 -0.006310 -98175.100000 0 0 1
-32.095931 28.932333 -12.169150 44.892281 -0.733606 1.845305 0.069602 -0.017484 120184.000000 0 0 1
-33.196041 28.170633 -11.386950 45.002493 -0.703689 1.826607 0.059979 -0.018938 127803.000000 0 0 1
-32.797451 27.825333 -10.119950 44.185239 -0.703564 1.801882 0.071433 -0.016485 39336.400000 0 0 1
-33.777731 27.081533 -9.413050 44.305192 -0.675811 1.784887 0.066240 -0.015869 -127634.000000 0 0 1
-33.196091 26.010433 -8.362450 42.993647 -0.664623 1.766548 0.057876 -0.020341 232529.000000 0 0 1
-32.688191 26.506133 -7.158150 42.688781 -0.681339 1.739274 0.068952 -0.024544 1418560.000000 0 0 1
-31.489841 27.359733 -7.213550 42.334388 -0.715332 1.742026 0.069754 -0.027311 628163.000000 0 0 1
-31.114571 27.956733 -5.905250 42.244141 -0.731991 1.711044 0.079833 -0.028031 -317036.000000 0 0 1
-30.171101 27.123733 -5.278150 40.912725 -0.732261 1.700167 0.088313 -0.032834 166679.000000 0 0 1
-30.076091 27.492633 -3.939350 40.938180 -0.740552 1.667172 0.085424 -0.034301 -208258.000000 0 0 1
-29.370631 26.429833 -3.117950 39.634476 -0.732745 1.649545 0.082827 -0.032862 776.646000 0 0 1
-30.109121 25.230133 -2.957450 39.393722 -0.697460 1.645941 0.081352 -0.026620 70275.100000 0 0 1
-29.334561 24.384033 -2.163350 38.207036 -0.693501 1.627448 0.057751 -0.024165 85639.500000 0 0 1
-30.020011 23.040933 -1.796450 37.885524 -0.654619 1.618232 0.062882 -0.025929 -332400.000000 0 0 1
-30.261211 22.268133 -2.886650 37.682136 -0.634392 1.647477 0.048389 -0.022443 -8029.220000 0 0 1
-30.978911 21.148433 -2.395350 37.585727 -0.599001 1.634570 0.030690 -0.013090 -120460.000000 0 0 1
-31.536831 20.396833 -3.664450 37.736331 -0.574096 1.668056 0.042050 -0.011962 -253226.000000 0 0 1
-30.575861 19.505133 -4.163650 36.505746 -0.567840 1.685100 0.039105 -0.015648 -50727.400000 0 0 1
-31.027511 18.669433 -5.247050 36.589421 -0.541673 1.714696 0.040727 -0.016239 -254346.000000 0 0 1
-30.015341 17.602833 -5.667250 35.254761 -0.530405 1.732248 0.032482 -0.011793 -194220.000000 0 0 1
-29.827191 16.606033 -4.657550 34.454527 -0.508004 1.706391 0.030784 -0.014343 490253.000000 0 0 1
-28.987301 15.534333 -5.135650 33.285943 -0.491954 1.725704 0.013359 -0.020733 78617.800000 0 0 1
-28.847261 14.455833 -4.066850 32.521913 -0.464540 1.696174 0.010828 -0.019452 -408193.000000 0 0 1
-29.982651 13.704633 -3.771950 33.181379 -0.428731 1.684719 0.035126 -0.019330 32355.600000 0 0 1
-29.618651 12.596633 -2.932850 32.319364 -0.402120 1.661667 0.030440 -0.022812 528821.000000 0 0 1
-30.856281 11.690533 -2.599150 33.098855 -0.362160 1.649404 0.045585 -0.018504 351803.000000 0 0 1
-31.536561 11.253233 -3.782250 33.697112 -0.342748 1.683276 0.039351 -0.012463 217672.000000 0 0 1
-32.601361 10.435933 -3.389750 34.398370 -0.309800 1.669500 0.043042 -0.012066 -363179.000000 0 0 1
-33.587321 10.011333 -4.495250 35.334717 -0.289684 1.698361 0.033159 -0.012104 -57078.900000 0 0 1
-33.023321 9.159333 -5.471250 34.704001 -0.270559 1.729112 0.020035 -0.010602 1114810.000000 0 0 1
-34.054414 8.680733 -6.360250 35.714297 -0.249592 1.749838 0.034243 -0.006774 517857.000000 0 0 1
-33.398811 7.818833 -7.426750 35.096600 -0.229964 1.784017 0.035062 -0.009353 -864002.000000 0 0 1
-32.809121 6.659733 -6.930750 34.188094 -0.200263 1.774935 0.030309 -0.005209 334504.000000 0 0 1
-32.560551 5.689033 -7.910850 33.987294 -0.172976 1.805710 0.033491 -0.004433 -925215.000000 0 0 1
-31.687541 4.533833 -7.466050 32.869405 -0.142115 1.799939 0.040810 -0.010481 -367448.000000 0 0 1
-30.399331 4.992533 -7.083750 31.610508 -0.162779 1.796810 0.043508 -0.010995 382668.000000 0 0 1
-29.552451 3.915133 -6.707350 30.555919 -0.131714 1.792109 0.043960 -0.014900 -181046.000000 0 0 1
-28.124901 4.367633 -6.381850 29.168721 -0.154064 1.791371 0.075899 -0.012309 -277593.000000 0 0 1
-27.429051 4.928933 -7.474150 28.853252 -0.177800 1.832825 0.075688 -0.015065 1544740.000000 0 0 1
-26.031131 5.162833 -7.107950 27.473580 -0.195792 1.832493 0.093634 -0.020888 1579600.000000 0 0 1
-25.138401 5.540533 -8.306750 27.048823 -0.216933 1.882943 0.097625 -0.023503 -206304.000000 0 0 1
-24.957331 4.552033 -9.294050 27.017934 -0.180410 1.921965 0.094310 -0.029631 801533.000000 0 0 1
-23.979431 4.921033 -10.275950 26.548537 -0.202409 1.968240 0.093931 -0.032513 169247.000000 0 0 1
-23.986931 3.986933 -11.501250 26.898834 -0.164707 2.012604 0.089366 -0.041719 313582.000000 0 0 1
-25.230591 4.141333 -12.188050 28.324582 -0.162689 2.015621 0.093562 -0.014679 740582.000000 0 0 1
-25.368061 3.406833 -13.367050 28.875995 -0.133497 2.052074 0.091409 -0.015887 -461190.000000 0 0 1
-26.364651 3.893033 -14.378550 30.281896 -0.146602 2.065560 0.064863 -0.005176 -592423.000000 0 0 1
-25.971211 5.100533 -15.019550 30.431992 -0.193924 2.086957 0.057291 -0.005446 627063.000000 0 0 1
-27.062061 5.842233 -15.548850 31.753009 -0.212620 2.082520 0.093800 -0.017779 293227.000000 0 0 1
-27.761991 5.464933 -16.895250 32.955168 -0.194364 2.109092 0.043288 0.028181 -220215.000000 0 0 1
-28.703861 4.440233 -16.761250 33.534561 -0.153475 2.094187 0.048898 -0.002284 -550140.000000 0 0 1
-29.289871 4.308933 -18.010650 34.653239 -0.146066 2.117342 0.053750 0.015448 -401188.000000 0 0 1
-30.734531 3.786833 -17.881850 35.759084 -0.122593 2.094470 0.050368 0.004256 -328940.000000 0 0 1
-30.966301 2.532933 -17.210150 35.517838 -0.081615 2.076644 0.057940 -0.012234 80832.100000 0 0 1
-30.459741 1.327433 -17.780550 35.294559 -0.043552 2.098761 0.082561 -0.014843 -31767.500000 0 0 1
-30.724571 0.104433 -16.815350 35.025222 -0.003399 2.071557 0.078670 -0.010085 -66555.500000 0 0 1
-30.107611 -1.109867 -17.214050 34.699043 0.036847 2.089893 0.076010 -0.007699 449927.000000 0 0 1
-30.539981 -2.165767 -16.365350 34.716072 0.070797 2.061680 0.075794 -0.014843 18409.800000 0 0 1
-30.433671 -3.503667 -17.065450 35.067273 0.114620 2.079046 0.063329 -0.011244 -510818.000000 0 0 1
-31.417581 -3.589567 -18.029250 36.400594 0.113760 2.088978 0.066583 -0.011289 -270765.000000 0 0 1
-31.167051 -4.756667 -18.807550 36.711509 0.151450 2.108665 0.056289 -0.012496 -232894.000000 0 0 1
-32.314581 -5.177467 -19.715250 38.206405 0.158871 2.112994 0.057087 -0.008875 -626420.000000 0 0 1
-31.993941 -6.324767 -20.399250 38.467445 0.195170 2.129750 0.056542 -0.006587 -280446.000000 0 0 1
-32.871671 -6.577767 -21.453850 39.800521 0.197496 2.140087 0.059572 -0.004787 -439006.000000 0 0 1
-32.555561 -7.828067 -22.281050 40.219254 0.235973 2.157945 0.045736 -0.002401 -175139.000000 0 0 1
-31.252221 -7.705567 -22.795550 39.442543 0.241739 2.187002 0.036094 -0.001992 -170259.000000 0 0 1
-31.042231 -8.586867 -23.913250 40.114809 0.269871 2.209457 0.032889 0.008931 18108.400000 0 0 1
-29.703361 -8.372967 -24.655550 39.500536 0.274757 2.244881 0.043139 0.000772 -473256.000000 0 0 1
-29.690941 -7.080467 -25.242900 39.609203 0.234100 2.261784 0.046510 -0.000780 155217.000000 0 0 1
-29.577811 -7.151967 -26.673330 40.465591 0.237248 2.290499 0.040124 0.007000 -599642.000000 0 0 1
-30.886051 -7.241667 -27.440830 41.945072 0.230304 2.283932 0.034475 0.009614 -725914.000000 0 0 1
-31.608471 -8.414167 -27.179840 42.528077 0.260166 2.264128 0.023203 0.007865 -619283.000000 0 0 1
-32.930171 -8.235067 -27.619210 43.761093 0.245051 2.253813 0.025350 0.011261 178640.000000 0 0 1
-33.862251 -9.424367 -27.232240 44.464206 0.271445 2.229956 0.028340 0.003770 -219837.000000 0 0 1
-33.483711 -10.533567 -28.019290 44.913200 0.304786 2.244461 0.025523 0.004625 267620.000000 0 0 1
-34.295608 -11.740767 -28.020860 45.817059 0.329835 2.228854 0.006073 0.011352 -298296.000000 0 0 1
-35.629571 -11.644567 -28.742430 47.235469 0.315880 2.224956 -0.000338 0.003936 -876747.000000 0 0 1
35.114240 -10.982467 -28.046690 46.262741 -0.303125 2.222130 -0.003509 0.010179 -384758.000000 0 0 1
34.328720 -10.265667 -28.968620 46.076305 -0.290576 2.250689 0.003437 -0.000233 136659.000000 0 0 1
33.285090 -9.215367 -28.433660 44.735816 -0.270096 2.259569 0.007488 0.005818 595684.000000 0 0 1
32.209610 -9.930667 -27.836870 43.714625 -0.299067 2.261119 -0.003436 0.004541 -285435.000000 0 0 1
31.180600 -9.038667 -27.514990 42.555869 -0.282148 2.273865 -0.004062 0.003715 -351839.000000 0 0 1
30.162700 -9.549167 -26.506940 41.274604 -0.306605 2.268174 -0.006352 0.013983 -329566.000000 0 0 1
30.658430 -9.560567 -25.151670 40.791546 -0.302285 2.235201 -0.018224 0.029594 451405.000000 0 0 1
29.738620 -10.196167 -24.264250 39.712733 -0.330299 2.228112 -0.020585 0.020348 90667.900000 0 0 1
30.131470 -10.256967 -22.749450 39.123501 -0.328103 2.191340 -0.025841 0.018763 -111162.000000 0 0 1
31.089370 -11.228067 -22.407950 39.934128 -0.346577 2.166538 -0.046139 0.028357 92311.100000 0 0 1
31.554790 -11.022867 -21.111950 39.533818 -0.336073 2.134148 -0.026257 0.027741 39971.600000 0 0 1
32.371600 -12.188467 -20.469550 40.193055 -0.360100 2.105145 -0.022238 0.019613 619413.000000 0 0 1
33.740190 -12.287167 -20.872350 41.533479 -0.349242 2.097334 -0.015542 0.022589 325890.000000 0 0 1
34.384300 -13.151367 -20.011950 41.901273 -0.365314 2.068715 -0.003692 0.016815 105692.000000 0 0 1
-35.859911 -13.345267 -20.402950 43.362538 0.356270 2.060677 0.010828 0.008379 537276.000000 0 0 1
-35.024024 -12.195667 -20.224450 42.242691 0.335078 2.070047 0.027684 0.005433 384670.000000 0 0 1
-35.029585 -11.273367 -21.264250 42.500929 0.311357 2.094770 0.014293 0.023500 -854897.000000 0 0 1
-34.440703 -11.609167 -22.649250 42.824331 0.325116 2.128085 0.010766 0.016613 87807.900000 0 0 1
-35.146373 -12.532967 -23.518250 44.107266 0.342537 2.133182 0.000797 0.019254 -158674.000000 0 0 1
35.454940 -11.987967 -24.082750 44.505538 -0.326051 2.142562 -0.018145 0.021004 -961605.000000 0 0 1
34.779380 -12.942367 -25.124870 44.814832 -0.356250 2.165952 -0.014442 0.012616 209759.000000 0 0 1
34.135020 -14.137767 -24.701750 44.443812 -0.392664 2.160118 -0.012133 0.001825 787511.000000 0 0 1
33.002480 -13.907467 -23.863950 43.035676 -0.398823 2.158577 -0.027614 0.009692 -635682.000000 0 0 1
-29.465691 8.023833 -19.845950 36.420744 -0.265865 2.147076 0.018353 0.021800 -728898.000000 0 0 1
-28.275791 7.354633 -20.038950 35.428386 -0.254465 2.171979 0.024980 0.019292 -1216830.000000 0 0 1
-27.462431 8.219233 -20.734050 35.378549 -0.290805 2.196987 0.037522 0.007431 -817585.000000 0 0 1
-26.198771 7.598233 -21.344950 34.636912 -0.282278 2.234767 0.038886 0.007804 -473871.000000 0 0 1
-25.314401 7.263833 -20.314850 33.260717 -0.279437 2.227837 0.048497 0.009502 -283477.000000 0 0 1
-24.323131 6.352333 -20.721250 32.578168 -0.255458 2.260161 0.068831 -0.006246 -59341.100000 0 0 1
-22.914931 6.594933 -20.145250 31.215674 -0.280228 2.272287 0.055009 -0.008912 -4212.830000 0 0 1
-22.359631 7.785133 -20.618150 31.395374 -0.335051 2.287265 0.061166 -0.007462 821566.000000 0 0 1
-21.101731 8.164333 -19.998150 30.197109 -0.369166 2.294619 0.057572 -0.006795 989555.000000 0 0 1
-20.455831 9.334433 -20.708350 30.568095 -0.428098 2.315086 0.061126 -0.011207 -356580.000000 0 0 1
-20.043231 9.088033 -22.008250 31.123729 -0.425696 2.356215 0.071179 -0.023991 -186368.000000 0 0 1
-19.554231 10.212033 -22.678350 31.637970 -0.481282 2.370010 0.054506 -0.021500 -46295.300000 0 0 1
-18.385531 9.750033 -23.584250 31.453263 -0.487601 2.418585 0.071371 -0.017602 -91635.500000 0 0 1
-18.803031 8.834733 -24.566450 32.173234 -0.439244 2.439617 0.068947 -0.021946 -6402.990000 0 0 1
-17.747631 8.468233 -25.432490 32.148109 -0.445199 2.483408 0.047196 -0.019059 -298324.000000 0 0 1
-18.231731 7.420833 -26.400210 32.930774 -0.386551 2.500910 0.032224 -0.012533 -276246.000000 0 0 1
-18.488531 6.151433 -25.820020 32.347169 -0.321195 2.495124 0.052725 -0.013372 309429.000000 0 0 1
-19.243631 5.403533 -26.762510 33.402806 -0.273747 2.500103 0.051223 -0.012969 -535014.000000 0 0 1
-19.842631 4.093633 -26.166170 33.093146 -0.203451 2.482719 0.039424 0.001513 445798.000000 0 0 1
-18.979731 2.935533 -25.904580 32.247400 -0.153451 2.503625 0.031950 -0.002543 492034.000000 0 0 1
-17.839931 3.219333 -25.126810 30.983606 -0.178535 2.516606 0.028093 -0.010563 -179979.000000 0 0 1
-16.951731 1.968833 -24.844750 30.141319 -0.115625 2.539718 0.019718 -0.004734 -27487.000000 0 0 1
-17.350331 1.211733 -23.687050 29.386708 -0.069726 2.508238 0.022498 -0.008271 966880.000000 0 0 1
-18.504631 0.341033 -23.835950 30.177644 -0.018428 2.481368 0.027983 0.001326 707821.000000 0 0 1
-18.910431 -0.285567 -22.458650 29.361146 0.015100 2.441699 0.052911 0.001503 -188434.000000 0 0 1
-18.186431 -1.414767 -22.027250 28.599783 0.077636 2.449934 0.044567 0.005764 50906.600000 0 0 1
-18.617431 -1.917867 -20.778850 27.965113 0.102652 2.408379 0.057146 0.000442 -192183.000000 0 0 1
-18.131631 -3.351067 -20.484850 27.561110 0.182757 2.408715 0.019406 -0.005607 7891.160000 0 0 1
-18.443031 -4.216967 -21.563850 28.686719 0.224784 2.421435 0.030928 -0.014952 289414.000000 0 0 1
-18.205231 -5.495867 -21.104450 28.408323 0.293184 2.408184 0.039377 -0.010505 -49042.900000 0 0 1
-18.439231 -6.648667 -22.148050 29.576108 0.346062 2.417121 0.015035 -0.011570 -241163.000000 0 0 1
-17.396231 -6.676067 -23.079550 29.662508 0.366433 2.462386 0.010531 -0.001210 -201783.000000 0 0 1
-17.521931 -7.621167 -24.123550 30.774111 0.410268 2.471704 0.028451 -0.013836 569502.000000 0 0 1
-16.152931 -7.583367 -24.874450 30.613116 0.438929 2.519297 0.025982 -0.014944 -172599.000000 0 0 1
-16.118031 -8.349267 -26.068410 31.765755 0.477950 2.533335 0.035321 -0.033773 58698.000000 0 0 1
-14.874531 -8.472467 -26.742850 31.752392 0.517763 2.572205 0.043755 -0.033955 269565.000000 0 0 1
-13.823731 -9.357067 -26.023620 30.917294 0.595043 2.571252 0.046317 -0.032476 -348416.000000 0 0 1
-13.152931 -8.781267 -24.889250 29.488727 0.588668 2.575543 0.037000 -0.026128 68789.500000 0 0 1
-12.599131 -9.850667 -24.175250 28.986488 0.663577 2.557147 0.024999 -0.023358 35949.000000 0 0 1
-11.750631 -9.286067 -22.980950 27.430502 0.668774 2.564016 0.039575 -0.013332 115699.000000 0 0 1
-12.486931 -8.973267 -21.798350 26.676039 0.623109 2.527247 0.039156 -0.009011 156150.000000 0 0 1
-11.649131 -8.828367 -20.675750 25.320524 0.648510 2.526224 0.038245 -0.010558 -607620.000000 0 0 1
-12.370031 -8.431967 -19.361650 24.474256 0.598301 2.483406 0.020919 -0.001461 -70680.100000 0 1 0
-12.911731 -7.118567 -19.312750 24.297512 0.503860 2.489548 0.005301 0.015886 878133.000000 0 1 0
-14.257931 -6.986267 -19.784850 25.368027 0.455609 2.465323 -0.002527 0.009252 197473.000000 0 0 1
-14.655831 -5.554467 -19.518850 25.032599 0.362267 2.465042 0.007054 0.009361 -508424.000000 0 0 1
-14.721831 -5.252367 -18.131150 23.938636 0.342697 2.430120 0.000186 0.010587 154332.000000 0 1 0
-14.961031 -3.886167 -17.832150 23.599159 0.254136 2.427406 -0.001545 0.010525 -637219.000000 0 1 0
-14.865931 -3.582767 -16.299850 22.349882 0.236495 2.388100 0.017305 0.003095 867049.000000 0 1 0
-16.091631 -3.474867 -15.536350 22.636110 0.212677 2.327258 0.030139 -0.001460 812838.000000 0 1 0
-16.745231 -2.217267 -15.667250 23.038701 0.131646 2.318614 0.009252 0.001278 713682.000000 0 1 0
-17.995331 -2.002567 -14.713450 23.330834 0.110827 2.253179 0.020390 -0.008414 591274.000000 0 1 0
-17.660831 -2.085567 -13.350750 22.237290 0.117546 2.214768 0.028439 -0.027089 449645.000000 0 1 0
-18.663631 -1.502067 -12.578650 22.556812 0.080308 2.162340 0.029707 -0.029002 -533661.000000 0 1 0
-18.108131 -0.299767 -11.784450 21.607118 0.016553 2.147659 0.024880 -0.024034 -65002.400000 0 1 0
-17.580231 0.635633 -12.661050 21.674195 -0.036140 2.194633 0.032193 -0.029532 -202058.000000 0 1 0
-16.392831 1.235633 -12.289250 20.525042 -0.075234 2.212729 0.015735 -0.017642 -1105030.000000 0 1 0
-15.818631 2.339133 -13.286950 20.790471 -0.146808 2.264109 0.016825 -0.019396 287554.000000 0 1 0
-15.361431 1.825033 -14.551950 21.238257 -0.118252 2.325642 0.031259 -0.017251 532075.000000 0 1 0
-14.208231 1.003233 -14.431750 20.276975 -0.070492 2.362756 0.037990 -0.013499 -600054.000000 0 1 0
-13.729731 0.478133 -15.754450 20.903034 -0.034811 2.424458 0.034459 -0.003048 -67029.700000 0 1 0
-13.094231 1.418333 -16.619250 21.205425 -0.107897 2.471439 0.023285 -0.016749 234804.000000 0 1 0
-12.938531 0.735633 -17.901350 22.099889 -0.056795 2.514982 0.017082 0.003088 -125682.000000 0 1 0
-12.300431 1.599433 -18.999350 22.689956 -0.129305 2.563207 0.021976 -0.001363 351997.000000 0 1 0
-10.937631 1.902133 -18.696550 21.744215 -0.172185 2.605753 0.007248 -0.010282 320198.000000 0 1 0
-10.289331 2.504133 -19.814850 22.467071 -0.238731 2.650781 -0.011206 -0.008737 -727709.000000 0 1 0
-8.901531 2.936133 -19.415250 21.559454 -0.318609 2.691817 -0.009160 -0.009573 -1166250.000000 0 1 0
-7.981431 1.818633 -19.509150 21.156975 -0.224033 2.744306 -0.001819 -0.001242 610547.000000 0 1 0
-6.590231 2.037033 -19.313950 20.508762 -0.299783 2.798567 0.006411 -0.000237 789157.000000 0 1 0
-5.966031 3.094833 -20.304450 21.387899 -0.478529 2.821935 0.010364 0.001873 -1197760.000000 0 1 0
-5.824531 2.649733 -21.631550 22.558152 -0.426943 2.853980 -0.000481 0.005011 176135.000000 0 1 0
-5.716031 3.764733 -22.513550 23.530962 -0.582416 2.846458 0.016836 0.001054 -241158.000000 0 1 0
-5.440131 3.248833 -23.949650 24.773689 -0.538356 2.882947 0.029265 -0.004124 -170788.000000 0 1 0
-4.165931 2.652833 -23.979350 24.482682 -0.567034 2.938469 0.031324 -0.004750 -127746.000000 0 1 0
-3.878331 1.968333 -25.173210 25.546160 -0.469646 2.970510 0.035507 -0.008171 202474.000000 0 0 1
-2.439731 1.385033 -25.042350 25.199006 -0.516330 3.030029 0.034104 -0.006708 210613.000000 0 0 1
-1.419931 2.344833 -24.800750 24.951786 -1.026300 3.031509 0.035105 -0.007864 302330.000000 0 1 0
-0.103231 1.829633 -24.829750 24.897283 -1.514434 3.067922 0.032043 -0.004707 356516.000000 0 1 0
0.477069 1.071133 -23.627150 23.656228 1.151785 3.092005 0.031264 -0.011366 -572906.000000 0 1 0
-0.008331 -0.286967 -23.537150 23.538901 1.541773 3.129396 0.026588 -0.019503 -81684.900000 0 1 0
0.709369 -1.136167 -22.688450 22.727953 -1.012663 3.082625 0.032168 -0.015871 -680564.000000 0 1 0
0.189069 -2.597467 -22.660950 22.810113 -1.498135 3.027168 0.041979 -0.026053 -211394.000000 0 1 0
-1.041331 -2.866167 -22.035950 22.245952 1.222306 3.004080 0.026088 -0.019325 -733494.000000 0 1 0
-2.149231 -2.918067 -22.875550 23.160853 0.935975 2.984470 0.025475 -0.017854 -593033.000000 0 1 0
-2.950631 -1.607067 -22.827250 23.073193 0.498728 2.995454 0.023731 -0.015807 -1934400.000000 0 1 0
-3.521631 -1.436367 -21.567150 21.899931 0.387272 2.967041 0.013015 -0.014976 326128.000000 0 1 0
-4.416731 -0.323067 -21.494550 21.946015 0.073016 2.938405 0.002654 -0.015858 1416330.000000 0 1 0
-5.733031 -0.376367 -22.399350 23.124450 0.065555 2.890508 0.007724 -0.003812 340740.000000 0 1 0
-6.543231 -1.489267 -21.998850 22.999591 0.223792 2.845517 0.017927 0.006102 742486.000000 0 1 0
-7.946531 -1.188567 -22.099050 23.514422 0.148470 2.792865 0.001526 0.008532 662828.000000 0 1 0
-8.731331 -2.395367 -21.589150 23.410795 0.267754 2.744496 0.003964 0.002690 -482862.000000 0 1 0
-8.867431 -3.530467 -22.478450 24.420816 0.378901 2.740059 0.033925 -0.005496 -35856.000000 0 1 0
-9.395731 -4.611367 -21.741550 24.129639 0.456256 2.692937 0.014804 -0.003873 -543605.000000 0 1 0
-10.224631 -5.490067 -22.675650 25.472908 0.492765 2.668552 0.004705 -0.010198 -725332.000000 0 0 1
-11.520331 -5.035967 -22.857350 26.087113 0.412106 2.638702 -0.003563 -0.002150 -896234.000000 0 0 1
-12.263431 -5.710567 -23.827250 27.399638 0.435799 2.625227 -0.005660 -0.014167 -378912.000000 0 0 1
-13.707431 -5.202567 -23.808850 27.961075 0.362748 2.589635 -0.007807 -0.018360 -592562.000000 0 0 1
-13.930431 -3.940967 -24.497650 28.455632 0.275699 2.607846 -0.001682 -0.025194 327087.000000 0 0 1
-15.311631 -3.608167 -24.396250 29.028295 0.231427 2.568873 0.005282 -0.027914 613622.000000 0 0 1
-15.638131 -2.191367 -24.881050 29.468965 0.139223 2.576079 0.004108 -0.024216 -296572.000000 0 0 1
-15.298431 -2.052767 -26.210600 30.417945 0.133385 2.609372 0.010308 -0.024657 2457.320000 0 0 1
-15.758131 -0.841267 -26.756260 31.063224 0.053336 2.608714 0.002112 -0.020581 769064.000000 0 0 1
-17.243131 -0.860667 -27.308400 32.308126 0.049872 2.577827 0.022093 -0.008727 730996.000000 0 0 1
-17.394731 -1.823767 -28.393090 33.347719 0.104464 2.589493 0.021585 -0.017953 -9723.800000 0 0 1
-16.877331 -1.277667 -29.587370 34.086496 0.075559 2.621974 0.027925 -0.015039 -414120.000000 0 0 1
-17.161731 -2.068767 -30.835030 35.349737 0.119967 2.630651 0.033681 -0.014204 100020.000000 0 0 1
-18.551431 -2.111567 -31.082850 36.259590 0.113335 2.600665 0.028734 -0.014333 123011.000000 0 0 1
-18.859031 -2.864067 -32.251360 37.470204 0.150715 2.607479 0.027139 -0.014658 -442024.000000 0 0 1
-20.320631 -3.313167 -32.365920 38.359587 0.161622 2.575029 0.018114 -0.011805 282352.000000 0 0 1
-21.309431 -2.293867 -32.590390 39.006246 0.107233 2.559870 0.023338 -0.010671 849689.000000 0 0 1
-21.852731 -1.593167 -31.470620 38.346838 0.072776 2.533403 0.015923 0.002861 -325074.000000 0 0 1
-23.030631 -0.660667 -31.704460 39.192081 0.028679 2.513161 0.021692 -0.003032 -478726.000000 0 0 1
-22.595131 0.562633 -32.297490 39.420608 -0.024895 2.530994 0.020760 -0.015050 605557.000000 0 0 1
-23.679831 1.351433 -32.739470 40.428130 -0.057009 2.514640 0.024170 -0.016181 91158.000000 0 0 1
-23.137431 2.492833 -33.662690 40.923485 -0.107326 2.536723 0.027032 -0.014406 149607.000000 0 0 1
-22.383931 3.553233 -33.034710 40.061926 -0.157427 2.540275 0.010049 -0.013653 1042980.000000 0 0 1
-23.203931 4.362333 -32.168730 39.903378 -0.185831 2.508439 0.014168 -0.014427 189041.000000 0 0 1
-24.297331 5.215033 -32.859950 41.198704 -0.211426 2.494097 0.004752 -0.020528 33749.300000 0 0 1
-25.456051 4.507233 -33.268100 42.131843 -0.175243 2.480984 0.032006 -0.038975 117922.000000 0 0 1
-26.323441 5.344033 -33.994020 43.325231 -0.200292 2.472886 0.046000 -0.042833 -644326.000000 0 0 1
-27.648701 4.760733 34.182625 44.221795 -0.170514 0.687269 0.059387 -0.037863 -849886.000000 0 0 1
-27.412031 3.524533 33.493186 43.423903 -0.127875 0.689903 0.069630 -0.037880 -166344.000000 0 0 1
-28.601151 3.093233 32.946720 43.738774 -0.107732 0.717790 0.071622 -0.035573 -784732.000000 0 0 1
-28.528861 1.537633 32.693286 43.417867 -0.053845 0.718200 0.067849 -0.011908 -212046.000000 0 0 1
-28.486851 0.794533 33.864725 44.260045 -0.027884 0.699552 0.074012 -0.010690 230122.000000 0 0 1
-28.955811 -0.474267 33.668746 44.410003 0.016378 0.710349 0.053514 -0.002208 -890143.000000 0 0 1
-29.156471 -1.259367 -33.590580 44.497336 0.043167 2.426282 0.040988 0.008803 861254.000000 0 0 1
-27.991231 -1.901167 -32.977900 43.297406 0.067816 2.436667 0.047225 -0.000776 2087710.000000 0 0 1
-26.910931 -0.969567 -32.666110 42.334537 0.036013 2.452178 0.043367 -0.005659 175583.000000 0 0 1
-26.865651 -0.505467 -31.222040 41.192651 0.018812 2.430964 0.050078 -0.001734 -648716.000000 0 0 1
-26.202411 -1.432867 -30.422130 40.176180 0.054630 2.429840 0.037322 -0.004135 328314.000000 0 0 1
-26.462191 -1.116067 -29.018620 39.288338 0.042151 2.401797 0.044560 -0.006563 -410880.000000 0 0 1
-25.420791 -1.735167 -28.108490 37.938300 0.068152 2.405206 0.049646 -0.004001 -393370.000000 0 0 1
-25.447411 -3.164767 -27.978300 37.952230 0.123730 2.399710 0.039776 -0.008463 522743.000000 0 0 1
-24.383731 -3.609867 -27.129380 36.655160 0.146977 2.404052 0.055883 -0.005095 133690.000000 0 0 1
-24.767231 -4.767967 -26.275180 36.421619 0.190184 2.376643 0.052279 -0.018510 245360.000000 0 0 1
-25.668671 -4.514367 -25.199590 36.252993 0.174090 2.339360 0.059597 -0.011487 143177.000000 0 0 1
-26.000441 -5.685567 -24.513850 36.183939 0.215283 2.315126 0.057355 -0.015147 72389.400000 0 0 1
-26.832751 -5.462367 -23.245950 35.919468 0.200827 2.274661 0.063858 -0.013679 -85091.900000 0 0 1
-27.155061 -6.650267 -22.580650 35.937573 0.240173 2.250201 0.071790 -0.025772 -311560.000000 0 0 1
-28.233161 -6.400467 -21.725950 36.195224 0.222932 2.214602 0.060716 -0.018211 -252723.000000 0 0 1
-28.707511 -7.583267 -20.894550 36.307153 0.258257 2.184004 0.068132 -0.029142 -477218.000000 0 0 1
-27.751071 -8.027767 -19.956450 35.111635 0.281591 2.175321 0.065415 -0.031804 -32887.400000 0 0 1
-28.154561 -8.993967 -19.019350 35.146926 0.309204 2.142587 0.070386 -0.024887 200564.000000 0 0 1
-29.134651 -8.465567 -17.924650 35.238995 0.282780 2.104423 0.069088 -0.024459 550905.000000 0 0 1
-28.367321 -7.681267 -17.012950 33.958022 0.264438 2.095550 0.074757 -0.025400 605151.000000 0 0 1
-29.214631 -6.820267 -16.317150 34.150550 0.229346 2.068946 0.079725 -0.021038 -240798.000000 0 0 1
-28.474321 -5.988967 -15.261150 32.856619 0.207307 2.053840 0.074605 -0.023870 280414.000000 0 0 1
-27.580871 -4.992767 -15.780050 32.165854 0.179083 2.083556 0.065090 -0.018393 555770.000000 0 0 1
-26.543621 -4.703567 -14.883750 30.793074 0.175381 2.075271 0.073983 -0.026315 -258497.000000 0 0 1
-14.039331 20.903933 -5.257150 25.723819 -0.979378 1.776615 0.023976 0.003201 -39141.100000 0 0 1
-14.229531 20.413933 -6.580750 25.739357 -0.962053 1.829336 0.049743 0.002622 330627.000000 0 0 1
-15.056431 19.255833 -6.592850 25.316969 -0.907180 1.834246 0.045100 -0.012363 -294466.000000 0 0 1
-15.201031 18.796133 -8.118550 25.500526 -0.890754 1.894804 0.054876 -0.023326 -258364.000000 0 0 1
-14.009431 18.245933 -8.638750 24.572469 -0.915993 1.930036 0.056015 -0.020251 360299.000000 0 1 0
-14.280431 17.158033 -9.551250 24.280758 -0.876675 1.975087 0.055896 -0.024845 -24936.600000 0 1 0
-14.792231 15.819433 -8.864450 23.401774 -0.818941 1.959289 0.062348 -0.039953 1393140.000000 0 1 0
-16.176331 15.995233 -8.451850 24.268394 -0.779769 1.926517 0.071650 -0.024412 1146880.000000 0 1 0
-16.618431 15.195233 -7.354350 23.688686 -0.740693 1.886471 0.090043 -0.018027 -1050840.000000 0 1 0
-18.056431 15.564333 -7.151250 24.888221 -0.711410 1.862239 0.089852 -0.008977 -1066330.000000 0 1 0
-18.938131 15.122433 -8.159450 25.571809 -0.673836 1.895555 0.081623 -0.008821 711193.000000 0 0 1
-20.304131 15.446033 -7.832850 26.686911 -0.650335 1.868692 0.057081 -0.012766 1119880.000000 0 0 1
-21.390731 14.788233 -8.748150 27.436934 -0.604889 1.895308 0.058606 -0.002123 137659.000000 0 0 1
-21.571231 13.403333 -8.437750 26.761221 -0.555972 1.891567 0.080492 -0.007453 111300.000000 0 0 1
-22.482531 12.750233 -9.300650 27.468796 -0.515890 1.916214 0.081103 -0.008548 272398.000000 0 0 1
-22.962431 11.417133 -8.656050 27.065686 -0.461413 1.896332 0.073105 -0.016036 409480.000000 0 0 1
-21.875831 10.483733 -8.678250 25.763786 -0.446901 1.914354 0.083122 -0.018907 728046.000000 0 0 1
-22.333631 9.328133 -7.982450 25.485774 -0.395647 1.889370 0.082702 -0.026231 94602.100000 0 0 1
-21.238031 8.367533 -7.458350 24.014507 -0.375313 1.886596 0.087720 -0.009582 -396309.000000 0 1 0
-20.863331 7.300733 -8.239550 23.589605 -0.336614 1.927607 0.069512 -0.012608 -78286.700000 0 1 0
-19.852431 6.632733 -7.563650 22.255808 -0.322442 1.917554 0.066980 -0.011919 -815417.000000 0 1 0
-19.318231 5.380133 -8.206050 21.667467 -0.271617 1.959217 0.029189 -0.022461 -459669.000000 0 1 0
-20.233331 4.292333 -8.268150 22.274966 -0.209043 1.951082 0.036621 -0.022470 650479.000000 0 1 0
-20.134431 3.582133 -9.511350 22.554218 -0.176069 2.006127 0.030673 -0.018730 -143298.000000 0 1 0
-21.031431 2.281833 -9.458350 23.173007 -0.108074 1.991237 0.026057 -0.017572 489823.000000 0 1 0
-20.379931 1.285133 -8.691950 22.193313 -0.062975 1.973218 0.009111 -0.018021 629333.000000 0 1 0
-21.280031 0.278633 -8.244750 22.823086 -0.013093 1.940400 0.021401 -0.017610 152444.000000 0 1 0
-21.396731 -0.897467 -9.234650 23.321756 0.041920 1.977917 0.012187 -0.023034 1059530.000000 0 1 0
-20.150831 -1.645067 -9.247650 22.232437 0.081457 1.999787 -0.009961 -0.005923 1151510.000000 0 1 0
-20.253731 -2.939867 -9.816550 22.698482 0.144145 2.018033 -0.012192 -0.002556 -741721.000000 0 1 0
-21.170331 -3.914567 -9.033350 23.347552 0.182843 1.968072 -0.011177 0.000488 420767.000000 0 1 0
-20.659731 -4.214567 -7.693650 22.445029 0.201238 1.920668 -0.018512 0.001197 557011.000000 0 1 0
-21.606131 -4.990267 -6.998250 23.253025 0.226985 1.876496 0.004210 0.003078 -820518.000000 0 1 0
-21.842231 -6.482467 -7.344450 23.938387 0.288506 1.882632 0.006996 -0.006826 -271807.000000 0 1 0
-20.997131 -7.393567 -6.673250 23.239548 0.338565 1.862047 0.000647 -0.001433 435048.000000 0 1 0
-21.143431 -8.736267 -6.995350 23.922833 0.391826 1.867546 0.006984 -0.001359 -437029.000000 0 1 0
-20.287231 -9.758967 -6.181450 23.345653 0.448365 1.838772 0.014659 0.003267 -362089.000000 0 1 0
-18.901031 -9.504767 -6.283250 22.069635 0.465941 1.859491 0.004204 -0.002437 -132672.000000 0 1 0
-18.160331 -10.397267 -5.532350 21.645038 0.519973 1.829259 0.018555 -0.000172 -364056.000000 0 1 0
-17.716731 -11.719767 -6.234850 22.138402 0.584423 1.856289 0.022179 0.002522 46782.800000 0 1 0
-16.527831 -11.772967 -7.042450 21.479480 0.618941 1.904843 0.009018 -0.001107 1107940.000000 0 1 0
-16.703231 -11.037567 -8.255550 21.655944 0.583933 1.961905 0.004907 -0.008077 -814163.000000 0 1 0
-15.602131 -11.130667 -9.263550 21.286888 0.619667 2.021030 0.009495 -0.011766 -472834.000000 0 1 0
-15.774631 -12.409367 -9.998650 22.423300 0.666557 2.032981 0.019792 -0.011122 -949435.000000 0 1 0
-14.778331 -12.600067 -10.865150 22.253365 0.706004 2.080877 0.022850 -0.010614 -1227080.000000 0 1 0
-14.824931 -13.936267 -11.528850 23.386160 0.754510 2.086305 0.037935 -0.017890 84233.000000 0 1 0
-16.010431 -14.191667 -12.269550 24.663316 0.725251 2.091490 0.037882 -0.017902 142361.000000 0 1 0
-15.930131 -15.389367 -13.048050 25.707067 0.768134 2.103155 0.029264 -0.013702 -271014.000000 0 0 1
-16.713231 -15.365367 -14.351550 26.858771 0.743405 2.134516 0.056955 -0.012370 -425671.000000 0 0 1
-16.689731 -16.552067 -15.083750 27.929152 0.781257 2.141319 0.055741 -0.009374 218124.000000 0 0 1
-16.624731 -16.307067 -16.465250 28.520284 0.775752 2.186236 0.046405 -0.009195 -328400.000000 0 0 1
-16.911231 -17.495767 -17.409350 29.919510 0.802385 2.191826 0.045255 -0.015409 9467.200000 0 0 1
-18.168031 -18.093167 -17.133350 30.838154 0.783334 2.159868 0.015629 -0.009463 -193725.000000 0 0 1
-18.997331 -18.169867 -18.251550 32.002527 0.763139 2.177687 0.016767 -0.008360 505485.000000 0 0 1
-20.533631 -18.030567 -17.973050 32.707214 0.720583 2.152578 0.011890 -0.013095 693955.000000 0 0 1
-20.948431 -16.750367 -17.566550 32.062365 0.674497 2.150633 0.003594 -0.008224 116553.000000 0 0 1
-20.649231 -16.447267 -16.206750 30.976799 0.672608 2.121386 -0.006712 -0.009400 -583789.000000 0 0 1
-20.836931 -14.968067 -15.940350 30.204561 0.622931 2.126742 0.003018 -0.018507 -800591.000000 0 0 1
-22.130531 -14.589567 -15.639650 30.776850 0.582851 2.103847 0.005113 -0.013293 -542458.000000 0 0 1
-22.190331 -13.232367 -15.390550 30.072834 0.537704 2.108047 0.013182 -0.013520 28266.300000 0 0 1
-23.538031 -12.730067 -14.816850 30.588111 0.495775 2.076472 0.039690 -0.026129 -281997.000000 0 0 1
-23.898631 -13.224667 -13.543650 30.487159 0.505423 2.031123 0.044966 -0.023419 -404439.000000 0 0 1
-25.044941 -12.588967 -13.128450 30.952986 0.465769 2.008810 0.081651 -0.025807 -871193.000000 0 0 1
-25.454581 -12.813567 -11.615850 30.774196 0.466355 1.957842 0.082364 -0.032751 110106.000000 0 0 1
-26.623401 -12.123467 -11.207550 31.327194 0.427310 1.936662 0.079349 -0.032742 444941.000000 0 0 1
-27.077661 -12.400167 -9.925550 31.392362 0.429444 1.892494 0.067036 -0.026167 -73984.300000 0 0 1
-28.097911 -11.437767 -9.303050 31.731087 0.386585 1.868352 0.077466 -0.029407 -302125.000000 0 0 1
-27.500311 -10.290667 -8.845950 30.666199 0.358071 1.863414 0.086714 -0.032796 627993.000000 0 0 1
-28.325851 -9.634367 -7.867650 30.936625 0.327852 1.827936 0.091561 -0.035770 673275.000000 0 0 1
-27.502421 -8.398767 -7.354850 29.681918 0.296388 1.821194 0.093572 -0.027237 -329774.000000 0 0 1
-26.516031 -8.659467 -6.443650 28.628777 0.315656 1.797817 0.062355 -0.029178 -304057.000000 0 0 1
-25.811941 -7.457567 -6.024550 27.534829 0.281260 1.791378 0.051519 -0.018861 246565.000000 0 0 1
-26.597631 -6.466067 -5.132850 27.849419 0.238481 1.756163 0.068586 -0.026408 -510375.000000 0 0 1
-26.994081 -6.943467 -3.859150 28.138678 0.251764 1.708377 0.070275 -0.025990 82707.100000 0 0 1
-26.086381 -6.844167 -2.793450 27.113562 0.256583 1.674007 0.100202 -0.019621 -285201.000000 0 0 1
-25.793461 -5.455167 -2.088250 26.446593 0.208423 1.649840 0.107686 -0.017600 158267.000000 0 0 1
-26.916421 -4.914467 -1.399050 27.397136 0.180593 1.621884 0.113642 -0.018984 384464.000000 0 0 1
-26.587481 -3.728967 -0.725250 26.857500 0.139344 1.597803 0.084486 -0.022117 -698507.000000 0 0 1
-27.859891 -2.990967 -0.302650 28.021617 0.106948 1.581597 0.094814 -0.024786 887046.000000 0 0 1
-28.800061 -3.564467 0.687650 29.027949 0.123140 1.547105 0.107025 -0.017715 1127170.000000 0 0 1
-28.254881 -3.661167 1.995250 28.560873 0.128858 1.500880 0.092374 -0.012102 -260217.000000 0 0 1
-29.295311 -4.006567 3.074050 29.727388 0.135922 1.467203 0.081483 -0.010590 -145231.000000 0 0 1
-29.758881 -5.316367 2.921650 30.370887 0.176783 1.474448 0.099462 -0.011405 448241.000000 0 0 1
-30.798351 -5.592367 3.882650 31.541845 0.179623 1.447388 0.098996 -0.013793 575573.000000 0 0 1
-31.527751 -6.936967 3.574750 32.479215 0.216576 1.460510 0.106791 -0.013035 -40250.700000 0 0 1
-30.676181 -8.045667 3.810850 31.941876 0.256500 1.451206 0.102536 -0.008553 300625.000000 0 0 1
-31.239311 -9.335367 3.536850 32.795624 0.290387 1.462741 0.106308 -0.010878 -95890.200000 0 0 1
-30.367511 -10.484767 4.072750 32.383690 0.332448 1.444697 0.090178 -0.015395 6412.880000 0 0 1
-30.327321 -10.675867 5.466650 32.612954 0.338475 1.402379 0.078418 -0.009258 896260.000000 0 0 1
-29.358921 -11.681167 5.889550 32.141604 0.378673 1.386518 0.066402 -0.004146 372583.000000 0 0 1
-29.387821 -11.829767 7.433550 32.539900 0.382694 1.340317 0.055471 -0.015981 -113508.000000 0 0 1
-28.904641 -10.690767 8.123550 31.871034 0.354260 1.313064 0.061020 -0.016875 453376.000000 0 0 1
-28.840521 -10.967867 9.523150 32.291797 0.363404 1.271436 0.061669 -0.018650 -176835.000000 0 0 1
-28.895151 -9.721067 10.432350 32.222086 0.324531 1.241091 0.063032 -0.018804 65311.200000 0 0 1
-27.746571 -8.903567 10.379950 30.933624 0.310509 1.228601 0.058191 -0.020565 270075.000000 0 0 1
-28.012561 -7.842267 11.266450 31.195154 0.272967 1.201284 0.073044 -0.022151 -228361.000000 0 0 1
-27.081981 -6.619767 11.250450 30.063726 0.239734 1.187241 0.075126 -0.019205 -480852.000000 0 0 1
-27.111941 -5.933767 10.041150 29.514262 0.215464 1.223652 0.092564 -0.021198 100884.000000 0 0 1
-26.472281 -4.725267 10.105850 28.726956 0.176638 1.211314 0.086160 -0.022655 -647697.000000 0 0 1
-26.610941 -3.892667 8.848950 28.312523 0.145251 1.252925 0.092128 -0.022197 2318.270000 0 0 1
-26.040251 -4.500767 7.696150 27.524213 0.171148 1.287404 0.065549 -0.010314 456129.000000 0 0 1
-26.316021 -3.681567 6.567550 27.371876 0.138996 1.328494 0.072871 -0.017784 -363151.000000 0 0 1
-25.449761 -4.157867 5.401450 26.346800 0.161945 1.364319 0.064070 -0.006766 -1505570.000000 0 0 1
-24.135331 -3.853767 5.672050 25.090593 0.158337 1.342762 0.077344 -0.025436 -984633.000000 0 0 1
-23.359731 -4.198667 4.556950 24.167574 0.177841 1.381104 0.069577 -0.018556 -1004620.000000 0 1 0
-21.969031 -3.602667 4.654950 22.743924 0.162542 1.364672 0.060155 -0.016520 -782049.000000 0 1 0
-21.948931 -2.210867 4.549050 22.524151 0.100389 1.367434 0.047349 -0.015752 -337214.000000 0 1 0
-20.656831 -1.713167 4.635250 21.239707 0.082745 1.350791 0.027433 -0.015022 -1025900.000000 0 1 0
-20.501031 -0.157967 4.887950 21.076273 0.007705 1.336748 0.016849 -0.013960 -570893.000000 0 1 0
-20.589831 0.677533 3.762850 20.941806 -0.032894 1.390134 0.023954 -0.013031 880216.000000 0 1 0
-21.921031 1.007833 3.386950 22.204026 -0.045943 1.417661 0.038496 -0.017562 -74499.300000 0 1 0
-21.893531 2.106733 2.286850 22.113225 -0.095931 1.467196 0.052574 -0.014807 -409672.000000 0 1 0
-21.512631 3.295333 2.919950 21.958566 -0.152000 1.437426 0.046323 -0.017679 202467.000000 0 1 0
-21.467731 4.473033 2.103550 22.029445 -0.205422 1.475163 0.049533 -0.014930 209512.000000 0 1 0
-20.339831 4.548833 1.025250 20.867481 -0.220021 1.521645 0.032765 -0.005876 -524045.000000 0 1 0
-20.651331 5.126933 -0.241650 21.279599 -0.243342 1.582153 0.048575 0.002600 677889.000000 0 1 0
-21.664131 4.607533 -1.115650 22.176758 -0.209558 1.621125 0.075544 -0.012143 150847.000000 0 1 0
-21.371931 3.236833 -1.773750 21.688308 -0.150310 1.652671 0.077827 -0.009586 -245291.000000 0 1 0
-21.311931 2.059733 -0.995950 21.434384 -0.096348 1.617278 0.054413 -0.006809 580362.000000 0 1 0
-20.743631 0.976133 -1.693650 20.835535 -0.047022 1.652173 0.036230 -0.002371 -140608.000000 0 1 0
-19.763431 0.085033 -0.904650 19.784308 -0.004303 1.616538 0.022275 -0.001868 -206029.000000 0 1 0
-20.466831 -0.637667 0.051850 20.476828 0.031146 1.568264 0.026340 -0.002749 1216400.000000 0 1 0
-19.585331 -1.380567 0.945550 19.656684 0.070373 1.522675 0.013450 -0.005913 290803.000000 0 1 0
-18.767131 -2.582667 0.453850 18.949442 0.136758 1.546843 -0.005440 -0.002607 -19579.300000 0 1 0
-17.843531 -3.170767 1.369050 18.174698 0.175863 1.495398 -0.011794 -0.003450 571655.000000 0 1 0
-17.347231 -4.423967 0.871250 17.923643 0.249702 1.522168 -0.005862 -0.000712 -716746.000000 0 1 0
-18.353331 -5.522467 0.639850 19.176856 0.292280 1.537424 -0.008458 0.002079 -901689.000000 0 1 0
-18.973831 -6.009467 1.766350 19.980990 0.306728 1.482279 0.008848 -0.005468 704131.000000 0 1 0
-20.010031 -6.951767 1.417650 21.230594 0.334369 1.503973 0.006999 -0.006805 126791.000000 0 1 0
-20.866931 -7.354067 2.609150 22.278213 0.338835 1.453410 0.027894 -0.005639 -556523.000000 0 1 0
-20.115931 -8.044867 3.596050 21.961378 0.380442 1.406311 0.023328 -0.008124 481552.000000 0 1 0
-20.877931 -8.649567 4.580550 23.058284 0.392766 1.370815 0.033731 -0.012362 -65923.600000 0 1 0
-19.922431 -9.549367 5.407950 22.745100 0.446973 1.330734 0.012987 -0.001065 -31101.600000 0 1 0
-19.498731 -10.671667 4.734650 22.726678 0.500768 1.360929 0.015772 -0.002964 496877.000000 0 1 0
-18.580131 -11.332567 5.623150 22.478171 0.547689 1.317950 0.021590 -0.001405 191430.000000 0 1 0
-18.030831 -12.727967 5.284050 22.694343 0.614675 1.335804 0.009732 0.007107 -65886.200000 0 1 0
-18.937731 -13.795667 5.300450 24.021924 0.629582 1.348315 0.024578 0.014148 85785.000000 0 1 0
-18.171831 -14.952567 5.032550 24.064938 0.688515 1.360118 0.005976 0.016462 -92229.400000 0 1 0
-18.971131 -16.299667 5.195650 25.545601 0.709801 1.365980 0.018493 0.013100 -92954.500000 0 0 1
-18.227331 -17.420967 4.800350 25.666497 0.762782 1.382661 0.020204 0.004648 -96958.400000 0 0 1
-18.755731 -18.671667 5.262050 26.983287 0.783152 1.374527 0.021773 0.003518 -31320.800000 0 0 1
-17.842331 -19.918567 5.082850 27.220093 0.840327 1.382962 0.023639 -0.004767 -500742.000000 0 0 1
-17.834431 -20.460467 3.764150 27.401943 0.853865 1.432993 0.025423 -0.004424 223820.000000 0 0 1
-17.092531 -21.678267 3.649150 27.846331 0.903129 1.439372 0.024613 -0.005500 1327110.000000 0 0 1
-15.519231 -21.541367 3.764650 26.815100 0.946485 1.429938 0.023388 -0.006360 457583.000000 0 0 1
-14.949531 -22.745667 4.079850 27.522700 0.989343 1.422012 0.024756 -0.010423 -423244.000000 0 0 1
-13.542231 -22.582767 4.097350 26.648859 1.030619 1.416431 0.026527 -0.006427 28650.500000 0 0 1
-12.845531 -23.958367 4.246350 27.514405 1.078640 1.415845 0.026908 -0.005387 -453532.000000 0 0 1
-12.809831 -24.768667 3.082150 28.054915 1.093500 1.460713 0.034766 -0.013326 33484.500000 0 0 1
-12.236831 -26.021687 3.211850 28.934136 1.131227 1.459562 0.037975 -0.011055 -325245.000000 0 0 1
18.762169 19.009033 -24.634750 36.335014 0.791934 2.315820 0.034840 0.000221 -466251.000000 0 0 1
17.803569 19.527733 -25.475860 36.705842 0.831551 2.337902 0.028065 -0.000745 -502017.000000 0 0 1
18.244469 19.366533 -26.778210 37.749116 0.815223 2.359405 0.032349 -0.005339 598390.000000 0 0 1
17.117469 19.524033 -27.878940 38.097650 0.850983 2.391720 0.025510 -0.000882 502354.000000 0 0 1
16.991669 20.905933 -28.220690 39.015153 0.888318 2.379404 0.015549 0.009021 74504.300000 0 0 1
16.140269 20.969733 -29.338230 39.509109 0.914810 2.407694 0.016745 0.009912 -343498.000000 0 0 1
15.813169 22.417833 -29.770170 40.483065 0.956466 2.397014 0.014099 0.010893 -420268.000000 0 0 1
15.067369 23.089233 -28.751800 39.834712 0.992616 2.377163 0.012932 0.010871 525424.000000 0 0 1
14.845269 24.478933 -29.098010 40.820269 1.025647 2.364325 0.008952 0.013956 -161345.000000 0 0 1
14.327769 25.377733 -27.950790 40.380205 1.056828 2.335316 0.007811 0.007335 -557748.000000 0 0 1
13.015169 25.066733 -27.607360 39.495595 1.091891 2.344792 0.024021 -0.002744 -638019.000000 0 0 1
12.448669 25.981233 -26.710920 39.286984 1.123975 2.318412 0.023362 -0.002381 -770494.000000 0 0 1
11.078369 25.520333 -26.204220 38.218828 1.161243 2.326274 0.047919 -0.001609 497211.000000 0 0 1
10.295469 26.414533 -25.350380 38.031119 1.199144 2.300393 0.038648 -0.016154 373746.000000 0 0 1
9.848969 27.593133 -26.013030 39.179853 1.227956 2.296870 0.045315 -0.022011 -634017.000000 0 0 1
9.259769 28.595233 -24.986750 39.086677 1.257630 2.264339 0.069431 -0.026309 -651701.000000 0 0 1
10.145069 29.119733 -24.070650 39.118761 1.235555 2.233591 0.050580 -0.022767 -553872.000000 0 0 1
9.499869 29.974633 -23.115050 39.026038 1.263880 2.204704 0.073119 -0.030756 -363705.000000 0 0 1
10.405669 30.354233 -21.960450 38.883400 1.240543 2.170959 0.046619 -0.028511 714532.000000 0 0 1
11.635169 31.006633 -22.369650 39.964856 1.211808 2.164860 0.038267 -0.033216 1088930.000000 0 0 1
12.469469 31.312933 -21.266650 39.852953 1.191824 2.133681 0.024927 -0.024893 361815.000000 0 0 1
13.746069 32.149833 -21.575150 41.085926 1.166757 2.123656 0.010983 -0.007688 -29068.700000 0 0 1
14.783969 31.448133 -22.149150 41.208442 1.131348 2.138255 0.002668 -0.004878 -807878.000000 0 0 1
15.743469 32.242533 -22.791350 42.507451 1.116566 2.136693 0.003720 0.004740 4361.870000 0 0 1
16.971969 31.414733 -23.260650 42.614446 1.075466 2.148187 -0.014498 0.006046 137837.000000 0 0 1
17.776769 30.988233 -22.176450 42.048532 1.049968 2.126335 0.000720 0.005880 -183152.000000 0 0 1
18.911269 30.329233 -22.688750 42.335303 1.013253 2.136405 0.003286 0.002028 -303262.000000 0 0 1
19.785969 29.742933 -21.575450 41.732801 0.983787 2.114127 0.017431 0.006233 96847.700000 0 0 1
20.452269 30.716633 -20.707150 42.315398 0.983368 2.082144 0.022293 0.013420 181077.000000 0 0 1
21.358169 30.004733 -19.935050 41.879131 0.952177 2.066913 0.030612 0.004451 -429266.000000 0 0 1
22.129269 30.735633 -18.845750 42.303026 0.946782 2.032522 0.039373 0.002007 -232514.000000 0 0 1
23.151069 31.616533 -19.298950 43.680964 0.938755 2.028418 0.033939 0.002088 211277.000000 0 0 1
23.668869 32.253533 -18.137250 43.925683 0.937719 1.996441 0.047173 0.005483 161767.000000 0 0 1
24.916269 33.146133 -18.359050 45.349105 0.926202 1.987598 0.046796 0.000297 370203.000000 0 0 1
26.054769 32.475533 -18.861650 45.708567 0.894661 1.996158 0.049443 0.002591 -301778.000000 0 0 1
27.182969 33.302733 -18.658050 46.862657 0.886232 1.980288 0.042332 -0.003617 -894766.000000 0 0 1
28.462169 32.715933 -19.157550 47.407163 0.854817 1.986798 0.023877 0.002726 -871678.000000 0 0 1
28.816369 31.532333 -18.409350 46.514249 0.830372 1.977712 0.031983 0.018270 447550.000000 0 0 1
30.122969 31.041033 -18.711850 47.128254 0.800407 1.979087 0.019472 0.020570 469481.000000 0 0 1
30.338369 29.652833 -18.011550 46.088210 0.773971 1.972303 0.000348 0.007933 -293607.000000 0 0 1
30.507169 29.768733 -16.603650 45.744355 0.773148 1.942245 0.005445 0.008576 17077.900000 0 0 1
30.712469 28.530933 -15.971650 44.859375 0.748592 1.934821 0.001689 0.007970 -345576.000000 0 0 1
31.089069 28.688133 -14.460450 44.706194 0.745255 1.900175 0.012760 0.004683 345247.000000 0 0 1
32.384769 29.234233 -14.227450 45.889367 0.734313 1.886029 0.014463 0.001190 175070.000000 0 0 1
32.334969 30.638133 -14.317750 46.789351 0.758459 1.881790 0.018903 -0.004591 115531.000000 0 0 1
33.675269 31.350233 -14.687950 48.296964 0.749658 1.879808 0.029589 -0.014175 956405.000000 0 0 1
34.656869 31.210133 -13.648050 48.594652 0.733117 1.855481 0.021521 -0.011294 880185.000000 0 0 1
-35.832322 31.772333 -14.055950 49.909981 -0.725415 1.856285 0.038797 -0.019907 1257480.000000 0 0 1
-34.647622 31.799633 -13.064250 48.809312 -0.742563 1.841759 0.030297 -0.014607 -153974.000000 0 0 1
-34.916522 32.822033 -12.206150 49.451385 -0.754488 1.820205 0.040298 -0.016085 725156.000000 0 0 1
-33.885522 33.115233 -11.237550 48.694248 -0.773902 1.803673 0.031559 -0.005543 353894.000000 0 0 1
-34.262722 34.349933 -10.405650 49.619850 -0.786669 1.782072 0.025533 -0.006302 148676.000000 0 0 1
-33.288822 -33.838613 -9.529350 48.414935 0.793588 1.768917 0.020932 0.001868 -25959.000000 0 0 1
-33.262622 -34.338913 -8.220450 48.509161 0.801318 1.741080 0.022951 -0.002771 -69030.800000 0 0 1
-32.869722 -33.282913 -7.200650 47.328852 0.791644 1.723530 0.023232 0.015473 64132.100000 0 0 1
-33.814222 -32.237613 -6.985250 47.238321 0.761533 1.719213 0.029786 0.011664 43207.200000 0 0 1
-33.408722 -31.505913 -5.855950 46.293168 0.756094 1.697633 0.023319 0.010595 -339191.000000 0 0 1
-34.494922 -30.515813 -5.423850 46.373835 0.724267 1.688024 0.011096 0.010312 -163502.000000 0 0 1
-35.505122 -31.215513 -4.692050 47.508286 0.721194 1.669720 0.012343 0.005969 -1281120.000000 0 0 1
35.018469 -30.722213 -5.062450 46.859107 -0.720139 1.679043 0.002010 0.010100 -1209230.000000 0 0 1
34.335469 -29.962913 -3.931950 45.740144 -0.717499 1.656865 0.009436 0.015270 -753178.000000 0 0 1
34.817269 -28.639713 -3.657450 45.231099 -0.688354 1.651746 0.014115 -0.000630 182653.000000 0 0 1
34.153469 -27.965713 -2.576750 44.217419 -0.686115 1.629104 0.007836 -0.006355 -20411.000000 0 0 1
34.287169 -26.449113 -2.574150 43.379624 -0.657057 1.630171 0.025736 -0.012405 -42655.000000 0 0 1
33.616269 -25.805813 -3.653950 42.536395 -0.654707 1.656804 0.021965 -0.016518 565592.000000 0 0 1
33.929869 -24.414813 -3.615350 41.957000 -0.623738 1.657071 0.011262 -0.021454 -181789.000000 0 0 1
33.508669 -23.660313 -4.872150 41.308342 -0.614805 1.689017 0.007772 -0.027343 -820887.000000 0 0 1
34.284369 -23.915113 -5.980950 42.227033 -0.609081 1.712912 0.018783 -0.023459 -305916.000000 0 0 1
33.675969 -23.338313 -7.125150 41.587444 -0.606030 1.742975 -0.001114 -0.022294 40460.100000 0 0 1
34.667069 -23.088413 -8.289450 42.468759 -0.587544 1.767247 0.004581 -0.010928 -176578.000000 0 0 1
35.231769 -24.285413 -8.849450 43.696357 -0.603512 1.774728 0.014250 -0.004052 32627.400000 0 0 1
-35.531522 -23.912413 -9.802750 43.936163 0.592369 1.795804 0.010613 0.005460 278979.000000 0 0 1
-35.008522 -25.189313 -10.526050 44.394772 0.623707 1.810177 0.008746 0.000081 -152034.000000 0 0 1
-34.243022 -26.100713 -9.778050 44.152486 0.651276 1.794109 0.019968 0.011140 262770.000000 0 0 1
-35.058122 -27.175613 -9.328150 45.327698 0.659409 1.778071 0.012241 0.009352 266771.000000 0 0 1
-34.202522 -28.382513 -8.863550 45.320437 0.692671 1.767640 0.023465 0.014879 161846.000000 0 0 1
-33.511722 -29.064013 -9.884150 45.447208 0.714440 1.790035 0.012841 0.009547 41551.500000 0 0 1
-32.844022 -30.173313 -9.336950 45.566843 0.743043 1.777165 0.009923 0.017519 -55032.100000 0 0 1
-32.120922 -31.023113 -10.418250 45.855502 0.768014 1.799995 0.007526 0.020022 325483.000000 0 0 1
-30.926822 -30.507913 -11.016350 44.816972 0.778580 1.819149 -0.009412 0.024366 807719.000000 0 0 1
-30.493722 -31.347513 -12.098650 45.375224 0.799203 1.840697 -0.005217 0.022132 -187754.000000 0 0 1
-30.677422 -30.712013 -13.534750 45.470005 0.785962 1.873040 0.002453 0.018695 -295903.000000 0 0 1
-29.703822 -29.729213 -13.798750 44.232891 0.785825 1.888048 0.011645 0.022436 109414.000000 0 0 1
-29.996722 -29.166813 -15.036350 44.458949 0.771372 1.915808 0.009570 0.019705 -385537.000000 0 0 1
-28.949722 -28.159313 -15.465150 43.245857 0.771559 1.936504 0.008198 0.011786 -455378.000000 0 0 1
-27.771722 -28.816613 -15.860550 43.049074 0.803861 1.948115 0.009967 0.009140 -373214.000000 0 0 1
-26.760822 -27.915113 -16.249350 41.945637 0.806507 1.968596 0.025018 0.017327 545052.000000 0 0 1
-25.419722 -28.607013 -16.671450 41.742792 0.844325 1.981642 0.031714 0.011696 115034.000000 0 0 1
-25.548422 -29.348213 -17.895050 42.828405 0.854505 2.001853 0.026299 0.012132 -4090.440000 0 0 1
-25.802022 -28.608913 -19.140150 43.018131 0.836939 2.031895 0.024993 0.011165 -95669.300000 0 0 1
-24.597922 -27.791913 -19.655650 41.997533 0.846289 2.057844 0.028028 0.010085 40464.900000 0 0 1
-24.264022 -26.706213 -18.836350 40.703472 0.833276 2.051914 0.034264 0.010565 509676.000000 0 0 1
-22.838422 -26.549813 -18.810450 39.753228 0.860404 2.063694 0.030253 -0.001084 667755.000000 0 0 1
-22.531522 -25.314913 -17.940450 38.345456 0.843506 2.057668 0.034159 0.002000 -291982.000000 0 0 1
-22.955522 -25.415713 -16.562650 38.042553 0.836215 2.021247 0.042537 0.000067 316955.000000 0 0 1
-22.511422 -24.294513 -15.836050 36.711959 0.823475 2.016795 0.053520 -0.006293 -109909.000000 0 0 1
-22.837422 -24.276913 -14.316950 36.275217 0.815942 1.976511 0.036750 -0.000183 697966.000000 0 0 1
-24.238922 -24.006313 -14.139850 36.929172 0.780577 1.963720 0.014023 0.018784 772168.000000 0 0 1
-24.590222 -24.284313 -12.803150 36.855495 0.779139 1.925580 0.011092 0.022151 334158.000000 0 0 1
-26.125622 -24.338113 -12.577650 37.856164 0.749991 1.909483 0.009801 0.030664 -237427.000000 0 0 1
-26.798222 -25.519313 -12.921350 39.196190 0.760958 1.906738 0.017845 0.027367 -52010.700000 0 0 1
-28.106022 -25.652313 -12.442050 40.034913 0.739787 1.886810 0.023854 0.025568 -202679.000000 0 0 1
-29.261022 -24.772413 -12.979550 40.476519 0.702518 1.897232 0.020719 0.019037 -1026190.000000 0 0 1
-29.427422 -23.466313 -12.470750 39.650480 0.673172 1.890744 0.024052 0.021803 205059.000000 0 0 1
-30.101922 -23.373313 -11.215850 39.726977 0.660229 1.857011 0.036863 0.011006 651554.000000 0 0 1
-31.648822 -23.643513 -11.209450 41.064771 0.641616 1.847275 0.043983 0.010227 463131.000000 0 0 1
-32.518222 -22.677413 -11.784050 41.358961 0.608962 1.859721 0.031053 0.000621 308753.000000 0 0 1
-32.613022 -22.672113 -13.230250 41.864942 0.607488 1.892330 0.027353 0.008405 1381900.000000 0 0 1
-34.105122 -22.520413 -13.826750 43.145189 0.583598 1.897022 0.007969 -0.005947 2046230.000000 0 0 1
-34.943022 -23.644213 -13.609450 44.331487 0.594883 1.882828 0.004206 0.005829 645997.000000 0 0 1
35.431569 -23.388613 -13.898850 44.672154 -0.583447 1.887178 0.001121 -0.006433 431401.000000 0 0 1
34.524669 -24.525413 -13.441150 44.430993 -0.617654 1.878129 -0.009213 0.002076 -412793.000000 0 0 1
34.537569 -25.671913 -14.266450 45.336766 -0.639202 1.890913 -0.018419 0.004209 -326245.000000 0 0 1
33.730669 -26.717613 -13.845950 45.202867 -0.669897 1.882107 -0.021715 0.001176 -214067.000000 0 0 1
33.645869 -27.891413 -14.790350 46.138161 -0.692158 1.897124 -0.014582 -0.003729 163190.000000 0 0 1
32.939069 -27.564813 -15.967750 45.823250 -0.696806 1.926728 -0.012983 -0.016439 -173799.000000 0 0 1
32.992369 -28.653713 -16.897250 46.851347 -0.715134 1.939768 -0.001800 -0.018878 -712692.000000 0 0 1
32.138069 -28.648913 -18.121850 46.712066 -0.728061 1.969200 -0.001535 -0.016594 -743245.000000 0 0 1
30.775669 -28.823313 -17.832850 45.781390 -0.752652 1.970909 0.022382 -0.017862 -227895.000000 0 0 1
29.942069 -28.375613 -18.882750 45.368063 -0.758544 2.000072 0.025797 -0.013551 -58977.900000 0 0 1
28.430369 -28.376113 -18.642750 44.283651 -0.784443 2.005327 0.035665 -0.009280 -210195.000000 0 0 1
28.030569 -27.361513 -17.730350 42.996866 -0.773320 1.995844 0.025097 -0.013669 -308078.000000 0 0 1
26.781169 -27.659413 -17.160650 42.151655 -0.801529 1.990092 0.047373 -0.015867 -61332.800000 0 0 1
26.425169 -26.634213 -16.056150 40.810180 -0.789338 1.975161 0.048250 -0.021437 96873.400000 0 0 1
26.237269 -25.267113 -16.510250 39.992620 -0.766564 1.996358 0.044072 -0.021994 30300.700000 0 0 1
26.141569 -24.444713 -15.351650 38.943533 -0.751867 1.975997 0.049744 -0.021446 -134351.000000 0 0 1
25.856269 -22.990213 -15.586650 37.947861 -0.726791 1.994060 0.050033 -0.029082 535929.000000 0 0 1
24.521469 -22.854913 -16.079950 37.178142 -0.750236 2.018072 0.055455 -0.026439 417795.000000 0 0 1
24.385969 -21.463013 -16.307050 36.349089 -0.721733 2.036021 0.059217 -0.030413 -557147.000000 0 0 1
22.950969 -20.979413 -16.496550 35.199700 -0.740549 2.058565 0.060542 -0.020816 -695770.000000 0 0 1
22.355069 -20.862813 -15.244450 34.167226 -0.750883 2.033279 0.065811 -0.029904 186456.000000 0 0 1
21.155969 -20.090113 -15.327350 32.956264 -0.759563 2.054523 0.058228 -0.029822 349268.000000 0 0 1
21.019569 -18.919413 -14.342750 31.709319 -0.732862 2.040161 0.052930 -0.017471 -71271.600000 0 0 1
20.441469 -19.277713 -13.096050 30.999845 -0.756107 2.006949 0.041665 -0.028787 222051.000000 0 0 1
19.939269 -18.129013 -12.425750 29.675492 -0.737881 2.002833 0.038038 -0.036881 -233352.000000 0 0 1
18.980369 -18.399713 -11.248950 28.728779 -0.769866 1.973119 0.036596 -0.019376 -279563.000000 0 0 1
19.650469 -18.767013 -10.075250 28.980206 -0.762406 1.925870 0.045236 -0.040760 400472.000000 0 0 1
18.728569 -18.824613 -8.989350 28.034510 -0.787956 1.897215 0.028579 -0.042230 -117591.000000 0 0 1
19.342769 -19.585013 -7.821150 28.616181 -0.791621 1.847631 0.035200 -0.037663 -23582.400000 0 0 1
20.246269 -18.734413 -7.131050 28.491078 -0.746633 1.823777 0.033752 -0.033930 14739.800000 0 0 1
21.017469 -19.445113 -6.171550 29.290518 -0.746558 1.783089 0.034663 -0.022770 -106053.000000 0 0 1
22.310269 -18.661213 -5.893950 29.677055 -0.696569 1.770729 0.037454 -0.017874 -459430.000000 0 0 1
23.242369 -18.684113 -6.950950 30.620573 -0.677103 1.799795 0.039453 -0.034866 -326941.000000 0 0 1
24.232469 -17.733113 -6.748250 30.776854 -0.631745 1.791856 0.061772 -0.029779 -970944.000000 0 0 1
25.328569 -17.816313 -7.797250 31.933595 -0.613009 1.817461 0.067942 -0.042048 -275857.000000 0 0 1
26.353269 -18.787513 -7.742250 33.277738 -0.619338 1.805604 0.073017 -0.049046 231622.000000 0 0 1
26.126369 -19.959113 -8.490650 33.956509 -0.652366 1.823523 0.074067 -0.057648 -360600.000000 0 0 1
27.214669 -21.062913 -8.396450 35.422943 -0.658656 1.810108 0.061811 -0.058902 -958294.000000 0 0 1
28.383269 -20.586413 -8.920950 36.180018 -0.627505 1.819937 0.056409 -0.049881 -1453040.000000 0 0 1
29.412669 -21.482113 -8.581950 37.419729 -0.630819 1.802199 0.038159 -0.043152 -458224.000000 0 0 1
-29.933931 30.139133 4.342250 42.699680 -0.788814 1.468927 0.032946 -0.018761 600878.000000 0 0 1
-29.048401 30.840133 3.472650 42.508619 -0.815307 1.489012 0.026788 -0.018409 90096.200000 0 0 1
-28.116401 31.737733 4.007450 42.589616 -0.845827 1.476562 0.032212 -0.014451 160108.000000 0 0 1
-27.543011 32.776533 2.999250 42.917526 -0.871945 1.500855 0.034303 -0.012196 -68777.100000 0 0 1
-26.616971 32.287833 2.009450 41.892782 -0.881374 1.522811 0.035588 -0.011695 594281.000000 0 0 1
-26.065901 33.221533 1.082150 42.240650 -0.905511 1.545175 0.028037 -0.019323 199129.000000 0 0 1
-24.933831 34.071533 1.728350 42.255798 -0.939040 1.529883 0.060212 -0.018924 -1095.290000 0 0 1
-23.620831 33.531733 1.619950 41.048082 -0.957102 1.531321 0.047812 -0.021798 -234731.000000 0 0 1
-22.745231 34.312733 2.369450 41.234979 -0.985420 1.513303 0.042957 -0.015554 21592.400000 0 0 1
-21.262031 34.016033 2.025150 40.165479 -1.012155 1.520355 0.033409 -0.022035 326346.000000 0 0 1
-20.812831 34.337433 0.723050 40.159134 -1.025884 1.552791 0.044415 -0.020419 -271456.000000 0 0 1
-19.450231 33.990833 0.606650 39.167030 -1.051054 1.555307 0.047242 -0.022556 -175184.000000 0 0 1
-18.681331 -34.262713 -0.680250 39.030608 1.071617 1.588226 0.053044 -0.019140 436812.000000 0 0 1
-18.343831 -32.858513 -0.755850 37.639731 1.061628 1.590879 0.065068 -0.018822 366779.000000 0 0 1
-17.509531 -32.386613 0.305550 36.818063 1.075167 1.562497 0.058250 -0.021794 -216761.000000 0 0 1
-17.441931 -30.840813 0.352550 35.433049 1.056095 1.560846 0.054273 -0.026442 362397.000000 0 0 1
-16.613131 -30.265413 -0.690150 34.532125 1.068787 1.590783 0.055974 -0.023292 512212.000000 0 0 1
-16.753031 -28.867013 -0.580050 33.381206 1.044949 1.588174 0.053350 -0.024539 -460205.000000 0 0 1
-15.838331 -28.061113 -1.463050 32.255531 1.056947 1.616170 0.038295 -0.010405 -636288.000000 0 0 1
-16.085031 -28.248013 -2.883550 32.634235 1.053164 1.659271 0.053874 -0.012169 -252922.000000 0 0 1
-15.176431 -27.522613 -3.669550 31.643070 1.066866 1.687025 0.049655 0.000958 -280124.000000 0 0 1
-15.525931 -27.456713 -5.178050 31.964634 1.056154 1.733506 0.069021 -0.006273 391764.000000 0 0 1
-16.675331 -26.622313 -5.389250 31.872531 1.011215 1.740700 0.074893 0.000176 188652.000000 0 0 1
-17.018131 -26.782813 -6.724150 32.436862 1.004744 1.779610 0.077637 -0.000154 20035.600000 0 0 1
-17.681331 -25.519213 -7.254250 31.882344 0.964876 1.800339 0.064901 0.005137 541535.000000 0 0 1
-16.740631 -24.422713 -7.354450 30.509106 0.969900 1.814252 0.053017 0.004196 728602.000000 0 0 1
-17.401931 -23.191913 -7.590850 29.971871 0.927075 1.826851 0.036871 0.007741 -26203.700000 0 0 1
-16.434631 -22.048913 -7.312650 28.455694 0.930264 1.830696 0.056034 0.008244 589806.000000 0 0 1
-15.414431 -21.967213 -8.311450 28.093475 0.958929 1.871141 0.078165 -0.000732 -20230.500000 0 0 1
-14.197931 -21.423413 -7.858250 26.875564 0.985524 1.867525 0.072171 -0.012297 368666.000000 0 0 1
-13.166331 -21.118113 -8.959850 26.450064 1.013304 1.916380 0.055662 -0.009763 320466.000000 0 0 1
-13.679031 -20.129713 -9.859150 26.258790 0.973931 1.955690 0.084387 -0.021145 148744.000000 0 0 1
-12.725131 -19.863613 -10.888950 25.981942 1.001040 2.003247 0.075344 -0.022583 268970.000000 0 0 1
-13.359031 -19.084413 -12.050150 26.227555 0.960072 2.048168 0.083066 -0.028487 117627.000000 0 0 1
-14.376431 -19.914713 -12.686850 27.644778 0.945523 2.047580 0.076228 -0.010013 337101.000000 0 0 1
-14.937931 -19.094013 -13.681450 27.837119 0.906919 2.084587 0.067388 -0.026817 779724.000000 0 0 1
-16.215531 -19.638413 -14.456350 29.284753 0.880577 2.087075 0.078941 -0.024924 755327.000000 0 0 1
-17.394831 -19.796013 -13.705750 29.703701 0.849872 2.050386 0.079930 -0.025549 -544998.000000 0 0 1
-18.425931 -19.783113 -14.646950 30.747677 0.820903 2.067306 0.058029 -0.018705 -326287.000000 0 0 1
-19.868531 -19.665413 -14.101450 31.310348 0.780260 2.037983 0.025224 -0.008030 -180374.000000 0 0 1
-20.811231 -20.284313 -14.893350 32.655360 0.772577 2.044378 0.025047 -0.012200 -106549.000000 0 0 1
-22.129431 -19.899713 -14.499150 33.104919 0.732396 2.024142 0.007899 -0.001457 691472.000000 0 0 1
-23.284331 -20.382113 -15.443250 34.584456 0.719032 2.033688 0.009902 -0.001228 187229.000000 0 0 1
-23.358831 -19.816113 -16.740350 34.907773 0.703527 2.070949 0.018991 -0.017273 408953.000000 0 0 1
-24.311331 -20.508113 -17.538750 36.321223 0.700745 2.074736 0.023867 -0.012595 180892.000000 0 0 1
-24.195731 -19.908713 -18.917150 36.601213 0.688501 2.113958 0.034814 -0.012579 -665722.000000 0 0 1
-23.076631 -20.185413 -19.662950 36.422704 0.718667 2.141060 0.039853 -0.021197 -628922.000000 0 0 1
-23.322531 -19.828013 -21.046450 37.148938 0.704590 2.173100 0.053873 -0.028649 -617596.000000 0 0 1
-22.220831 -19.074313 -21.769950 36.490074 0.709349 2.210053 0.041948 -0.024910 -928141.000000 0 0 1
-21.036531 -19.798913 -21.905150 36.254216 0.755100 2.219570 0.035853 -0.025808 -1333620.000000 0 0 1
-20.140431 -18.953213 -22.486650 35.644224 0.755039 2.253462 0.030071 -0.024709 -1427930.000000 0 0 1
-18.785131 -19.605713 -22.698150 35.390269 0.806769 2.267075 0.033914 -0.019056 -734692.000000 0 0 1
-18.654931 -20.718113 -23.578050 36.512616 0.837751 2.272802 0.025815 -0.014055 -589722.000000 0 0 1
-17.340031 -21.172413 -23.506750 36.076517 0.884582 2.280462 0.003526 -0.002441 -533556.000000 0 0 1
-17.204331 -22.604213 -24.046250 37.217759 0.920222 2.273255 0.001899 0.000201 -339741.000000 0 0 1
-17.204831 -22.562813 -25.439560 38.108502 0.919324 2.301718 0.005080 -0.002629 191328.000000 0 0 1
-17.360031 -23.910913 -25.918110 39.304591 0.942814 2.290839 0.010376 -0.008582 -238899.000000 0 0 1
-17.479831 -24.047013 -27.478520 40.482989 0.942242 2.316879 0.014031 -0.002216 319648.000000 0 0 1
-16.211631 -23.839213 -28.099880 40.258270 0.973592 2.343383 0.007859 -0.004729 657690.000000 0 0 1
-16.410731 -23.990813 -29.492560 41.408722 0.970861 2.363467 0.025813 -0.006120 731772.000000 0 0 1
-15.071731 -23.743413 -30.276840 41.323042 1.005198 2.393058 0.014169 -0.009796 1616350.000000 0 0 1
-14.037831 -24.737013 -29.987470 41.330725 1.054630 2.382628 0.016500 -0.011419 357532.000000 0 0 1
-12.821231 -24.424813 -30.603300 41.200940 1.087407 2.408012 0.050956 -0.015200 -104460.000000 0 0 1
-11.809931 -25.575513 -30.314510 41.382978 1.138200 2.392836 0.051765 -0.015237 -1272050.000000 0 0 1
-12.170531 -26.836513 -30.868730 42.675505 1.145030 2.379418 0.041184 -0.011607 -3829.050000 0 0 1
-11.361931 -27.920813 -30.506110 42.886921 1.184327 2.362164 0.038708 -0.015014 -633318.000000 0 0 1
-9.937331 -27.883913 -31.049230 42.898926 1.228447 2.380056 0.054304 -0.020461 -874236.000000 0 0 1
-9.136031 -26.864713 -30.485850 41.648132 1.242990 2.392029 0.056611 -0.032603 -1193500.000000 0 0 1
-8.085631 -26.627913 -31.340140 41.912141 1.275992 2.415475 0.057111 -0.028109 -765338.000000 0 0 1
-7.108731 -25.516413 -30.852490 40.663221 1.299091 2.432161 0.061563 -0.030467 -312750.000000 0 0 1
-7.654131 -24.195113 -30.922670 40.002509 1.264408 2.454382 0.074476 -0.024318 284642.000000 0 0 1
-8.584031 -23.904413 -29.882520 39.218255 1.226039 2.437122 0.069315 -0.023070 1576.910000 0 0 1
-9.080431 -22.439313 -29.966980 38.522680 1.186274 2.462121 0.066824 -0.030944 58533.400000 0 0 1
-9.937231 -22.109813 -31.045060 39.387665 1.148401 2.478663 0.063636 -0.026523 -183354.000000 0 0 1
-10.369531 -20.858313 -30.787040 38.606194 1.109438 2.493876 0.058031 -0.026909 -235595.000000 0 0 1
-11.001131 -20.214313 -31.997780 39.414480 1.072398 2.518072 0.055948 -0.025649 -194132.000000 0 0 1
-11.533131 -18.938313 -31.694110 38.680608 1.023797 2.531125 0.050846 -0.022905 365731.000000 0 0 1
-12.200631 -18.493913 -32.910430 39.673374 0.987625 2.549070 0.054097 -0.018640 230274.000000 0 0 1
-13.102331 -17.215313 -32.709570 39.216757 0.920238 2.557243 0.052564 -0.017301 251253.000000 0 0 1
-12.549331 -15.857513 -32.794340 38.528109 0.901333 2.589025 0.055599 -0.015536 11012.300000 0 0 1
-11.702831 -15.393613 -31.763690 37.186712 0.920774 2.594745 0.042296 -0.008776 68021.500000 0 0 1
-11.373831 -13.835813 -31.905750 36.589215 0.882750 2.630067 0.029460 -0.010028 411001.000000 0 0 1
-10.464131 -13.403413 -32.957540 37.085698 0.907931 2.665268 0.038582 -0.010697 247055.000000 0 0 1
-10.834831 -13.725513 -34.279896 38.482393 0.902556 2.669887 0.040891 -0.015113 -340316.000000 0 0 1
-11.616231 -12.621513 33.557096 37.687108 0.826850 0.472544 0.032512 -0.013271 273509.000000 0 0 1
-12.955131 -12.388313 33.921798 38.366575 0.763036 0.486125 0.017744 -0.007941 -533201.000000 0 0 1
-13.647031 -11.608113 32.996203 37.546493 0.704840 0.497435 0.015510 -0.012264 656983.000000 0 0 1
-14.843331 -10.894813 33.717401 38.417243 0.633174 0.499832 0.022552 -0.014719 393217.000000 0 0 1
-14.410831 -9.940213 -33.974070 38.219332 0.603830 2.665786 0.036193 -0.015291 -706151.000000 0 0 1
-15.449731 -9.426213 -33.215230 37.825906 0.547829 2.642690 0.030458 -0.024615 -500508.000000 0 0 1
-15.018631 -8.467613 -32.069430 36.410275 0.513382 2.648303 0.034135 -0.029961 -587758.000000 0 0 1
-14.662231 -7.211813 -32.598390 36.464315 0.457117 2.676947 0.023183 -0.032814 -23326.600000 0 0 1
-15.607231 -6.174213 -32.442990 36.527444 0.376707 2.664168 0.024051 -0.024661 -321934.000000 0 0 1
-15.615431 -5.487513 -31.116660 35.244872 0.337936 2.652736 0.023128 -0.032282 -100412.000000 0 0 1
-16.291131 -6.126513 -30.034480 34.713183 0.359703 2.616382 0.033154 -0.033660 80648.900000 0 0 1
-16.302231 -5.393613 -28.785590 33.518114 0.319515 2.603733 0.029641 -0.034200 -528875.000000 0 0 1
-14.979031 -4.873913 -28.235540 32.332215 0.314578 2.632720 0.022302 -0.036551 -307690.000000 0 0 1
-14.522231 -3.717613 -28.964710 32.613958 0.250613 2.664008 0.025447 -0.033860 -177752.000000 0 0 1
-13.266431 -3.250613 -28.537010 31.637409 0.240291 2.695181 0.015620 -0.030012 -59408.700000 0 0 1
-12.937131 -1.907613 -29.202920 31.997170 0.146398 2.720571 -0.003358 -0.013217 -19806.600000 0 0 1
-13.106731 -1.949613 -30.593150 33.339589 0.147666 2.732852 0.001842 -0.015519 278095.000000 0 0 1
-12.939031 -0.662613 -31.089850 33.681395 0.051166 2.746750 -0.002951 -0.018475 -28710.100000 0 0 1
-13.032431 -0.801613 -32.598560 35.116278 0.061432 2.760620 -0.003740 -0.015053 -1075810.000000 0 0 1
-14.338231 -1.107613 -32.945830 35.947731 0.077096 2.730019 0.000013 -0.017238 -553492.000000 0 0 1
-14.401031 -1.318613 34.294674 37.218989 0.091309 0.399053 -0.002197 -0.009027 -102166.000000 0 0 1
-15.815731 -1.524613 33.711517 37.268327 0.096102 0.440445 -0.001492 -0.013212 -50761.700000 0 0 1
-15.789831 -1.577613 32.305439 35.992347 0.099583 0.456583 0.002133 -0.012767 -536401.000000 0 0 1
-17.024631 -1.862613 31.753459 36.077549 0.108974 0.494630 0.010906 -0.013633 -843852.000000 0 0 1
-17.091131 -1.787613 30.216069 34.760799 0.104214 0.517099 0.017100 -0.010353 -43745.300000 0 0 1
-16.727931 -0.468613 29.764449 34.146240 0.028006 0.512185 0.017161 -0.004301 181292.000000 0 0 1
-16.640031 -0.446613 28.354469 32.879568 0.026833 0.530857 0.010949 -0.008108 -409150.000000 0 0 1
-16.211831 0.997387 27.975279 32.348640 -0.061445 0.526034 0.013498 -0.006837 -170606.000000 0 0 1
-17.012631 2.111387 28.379199 33.155188 -0.123476 0.543410 0.022618 -0.006528 -339248.000000 0 0 1
-18.233131 2.166387 27.698959 33.232103 -0.118262 0.585384 0.037294 -0.014140 -699985.000000 0 0 1
-18.252931 2.876387 26.329299 32.166366 -0.156300 0.611940 0.039021 -0.018298 -841113.000000 0 0 1
-18.125331 4.281387 26.473079 32.367914 -0.231958 0.613079 0.037861 -0.011704 149604.000000 0 0 1
-18.391831 5.023387 25.272059 31.657082 -0.266628 0.646318 0.038872 -0.007010 -536602.000000 0 0 1
-18.142331 6.557387 25.509649 31.982584 -0.346831 0.647473 0.033707 -0.007477 500622.000000 0 0 1
-16.790031 7.000387 25.487699 31.313470 -0.395022 0.619871 0.030168 -0.004680 327316.000000 0 0 1
-16.195831 6.981387 24.202499 29.946714 -0.406993 0.629732 0.032765 -0.002739 -163761.000000 0 0 1
-15.056831 7.970387 23.883119 29.336643 -0.486854 0.619609 0.032503 -0.001751 606266.000000 0 0 1
-13.812931 7.666387 24.502649 29.153908 -0.506686 0.572668 0.031563 -0.002674 -377468.000000 0 0 1
-12.731131 8.240387 23.847559 28.261135 -0.574449 0.566418 0.036492 -0.005537 -681826.000000 0 0 1
-11.515831 8.151387 24.782969 28.517627 -0.615970 0.517537 0.034725 0.006201 -450840.000000 0 0 1
-10.357331 8.756387 24.205169 27.745970 -0.701834 0.510736 0.040166 0.000915 138087.000000 0 0 1
-9.328931 8.806387 25.173339 28.253821 -0.756593 0.471317 0.040035 -0.006544 -339097.000000 0 0 1
-9.341731 10.031387 26.134799 29.511428 -0.820982 0.483050 0.052235 -0.015183 -1202940.000000 0 0 1
-10.398431 10.127387 27.039179 30.688900 -0.772194 0.492669 0.031044 -0.013687 -198547.000000 0 0 1
-10.553331 11.369387 27.758469 31.798874 -0.822605 0.509602 0.044257 -0.011241 -631318.000000 0 0 1
-10.980031 12.651387 26.989179 31.765303 -0.856007 0.555488 0.042774 -0.005388 728552.000000 0 0 1
-12.343131 12.599387 26.521739 31.851218 -0.795672 0.586874 0.040219 -0.003842 806610.000000 0 0 1
-12.426931 11.892387 25.285929 30.581624 -0.763421 0.597341 0.038885 0.001331 -464240.000000 0 0 1
-13.842631 11.534387 24.790479 30.646833 -0.694690 0.628503 0.032172 -0.002395 184611.000000 0 0 1
-14.655731 12.641387 24.413599 31.154758 -0.711738 0.670319 0.030754 -0.001600 252353.000000 0 0 1
-15.991131 12.386387 24.033029 31.412185 -0.659047 0.699621 0.030617 0.008311 252871.000000 0 0 1
-16.219931 12.000387 22.561849 30.267681 -0.636976 0.729646 0.026536 0.015699 -330301.000000 0 0 1
-15.910131 10.681387 22.229049 29.348849 -0.591243 0.711462 0.016074 0.013783 69036.400000 0 0 1
-16.182031 10.526387 20.862649 28.423812 -0.576726 0.746625 0.018656 0.013012 -118670.000000 0 0 1
-16.608731 9.031387 20.584049 27.948506 -0.498050 0.742916 0.022318 0.003853 -339634.000000 0 0 1
-17.906331 8.706387 20.956349 28.906858 -0.452562 0.759818 0.025903 0.012189 -845870.000000 0 0 1
-18.226831 7.362387 20.661949 28.519086 -0.383891 0.760494 0.020356 0.012515 1670570.000000 0 0 1
-19.775531 7.199387 21.031949 29.753079 -0.349141 0.785714 0.030914 0.013743 1521850.000000 0 0 1
-19.973831 7.289387 22.426749 30.903854 -0.349928 0.758753 0.030087 0.007002 1195790.000000 0 0 1
-21.370731 7.464387 22.789549 32.121469 -0.336034 0.782036 0.019687 0.007174 1140060.000000 0 0 1
-21.640131 8.192387 24.120639 33.424777 -0.361900 0.764629 0.023775 0.005441 -752598.000000 0 0 1
-21.511931 9.615387 24.104479 33.708230 -0.420339 0.774041 0.016745 -0.003587 430065.000000 0 0 1
-20.286331 10.256387 23.728199 32.859643 -0.468103 0.763952 0.018314 0.000629 722228.000000 0 0 1
-19.141631 10.103387 24.778629 32.900774 -0.485657 0.717986 0.023315 -0.002332 -284502.000000 0 0 1
-19.532531 10.730387 25.958049 34.212297 -0.502352 0.709428 0.027966 -0.002492 152834.000000 0 0 1
-19.054331 10.060387 27.134189 34.648855 -0.485784 0.671130 0.037540 -0.009923 -251428.000000 0 0 1
-30.721681 -14.275867 20.895849 39.802746 0.434998 1.018099 0.020490 0.010247 -114072.000000 0 0 1
-30.326471 -15.609767 21.043049 40.077046 0.475357 1.018005 0.017454 0.012748 -25265.100000 0 0 1
-31.163061 -16.546967 20.403249 40.758203 0.488123 1.046513 -0.002224 0.023591 -224487.000000 0 0 1
-30.789371 -16.755667 18.919149 39.833051 0.498382 1.075877 -0.005238 0.014418 -17175.700000 0 0 1
-31.022161 -15.634967 18.169149 39.203886 0.466837 1.088909 0.007917 -0.004709 -94997.300000 0 0 1
-30.232541 -15.487267 17.004649 37.987104 0.473416 1.106669 0.016169 -0.006438 -613960.000000 0 0 1
-30.740771 -14.332767 16.146149 37.564895 0.436282 1.126503 0.011960 -0.010396 1043260.000000 0 0 1
-32.023451 -14.463067 15.479049 38.396389 0.424217 1.155853 0.036313 -0.011554 1643040.000000 0 0 1
-33.212881 -14.441167 16.283649 39.708941 0.410147 1.148260 0.038941 -0.012448 29629.000000 0 0 1
-33.687841 -13.071967 16.803849 39.851177 0.370147 1.135515 0.032449 -0.007798 -627215.000000 0 0 1
-34.907885 -13.188267 17.486849 41.210202 0.361225 1.132571 0.022609 -0.010535 -34071.000000 0 0 1
-35.443901 -11.911667 17.857649 41.437345 0.324212 1.125245 0.015468 0.000840 -79509.600000 0 0 1
35.249470 -12.024067 18.949449 41.787377 -0.328736 1.100138 0.007330 0.014154 -240919.000000 0 0 1
35.758286 -12.411967 20.162449 42.886318 -0.334096 1.081350 0.006234 0.011884 -11995.700000 0 0 1
34.759870 -12.202667 21.146649 42.477457 -0.337615 1.049699 0.010866 0.007347 -955420.000000 0 0 1
35.196500 -12.695567 22.523349 43.672328 -0.346180 1.028931 0.009718 0.002070 80519.400000 0 0 1
-35.467095 -11.956367 23.066249 43.965002 0.325147 1.018492 0.009565 0.006394 164814.000000 0 0 1
-34.219781 -12.396767 22.585049 42.834072 0.347563 1.015414 0.007936 0.004266 -1423580.000000 0 0 1
-33.063511 -11.463467 22.827649 41.781676 0.333741 0.992790 0.021937 -0.001141 -575258.000000 0 0 1
-32.891971 -10.381067 21.937049 40.876429 0.305717 1.004314 0.027100 0.005540 498362.000000 0 0 1
-31.533081 -9.932467 21.916649 39.665207 0.305148 0.985387 0.041999 -0.001527 426769.000000 0 0 1
-31.303811 -8.741067 20.995549 38.692996 0.272298 0.997245 0.042182 0.011949 -7714.770000 0 0 1
-31.472841 -8.922867 19.593449 38.132146 0.276261 1.031153 0.037064 0.011852 310959.000000 0 0 1
-32.825881 -9.043567 19.192949 39.085725 0.268832 1.057504 0.041764 0.005074 -122755.000000 0 0 1
-32.966321 -8.909867 17.686249 38.457346 0.263965 1.092922 0.045178 -0.002056 -12185.900000 0 0 1
-34.342309 -8.925267 17.347449 39.496691 0.254266 1.116074 0.028576 0.007592 274854.000000 0 0 1
-34.586877 -8.839767 15.995449 39.118384 0.250225 1.149550 0.043575 -0.005009 805884.000000 0 0 1
35.652640 -8.737367 15.574449 39.875002 -0.240333 1.169533 0.033492 -0.002927 1110100.000000 0 0 1
34.903000 -9.936767 15.754149 39.562001 -0.277359 1.161227 0.031219 0.006664 676889.000000 0 0 1
33.493390 -9.713267 15.693649 38.241931 -0.282262 1.147928 0.036197 0.007489 934130.000000 0 0 1
32.522700 -10.931567 15.706249 37.734751 -0.324257 1.141504 0.039815 0.000775 106966.000000 0 0 1
32.357670 -11.516767 16.937449 38.295325 -0.341940 1.112651 0.031651 -0.005144 -60410.900000 0 0 1
31.219450 -12.345467 16.955849 37.610709 -0.376570 1.103107 0.036562 -0.008743 -23573.500000 0 0 1
31.019770 -12.903767 18.373749 38.292662 -0.394210 1.070342 0.032267 -0.010721 172299.000000 0 0 1
31.838870 -13.993367 18.830549 39.548926 -0.414093 1.074544 0.033717 -0.006490 140663.000000 0 0 1
31.807630 -14.088567 20.232149 40.243669 -0.416959 1.044029 0.026673 -0.004267 -507155.000000 0 0 1
32.426330 -15.315667 20.883749 41.499006 -0.441261 1.043458 0.009944 0.004715 -37941.700000 0 0 1
32.626770 -15.129167 22.235149 42.282380 -0.434192 1.017056 0.012540 0.002839 -152084.000000 0 0 1
33.152610 -16.317767 22.796249 43.416978 -0.457389 1.018018 0.004044 0.012825 85421.900000 0 0 1
33.486740 -16.213167 24.278169 44.425871 -0.450901 0.992632 0.009141 0.007910 -326146.000000 0 0 1
34.675480 -15.518067 24.474479 45.190701 -0.420792 0.998478 0.006171 0.014380 -412988.000000 0 0 1
34.916410 -15.284967 25.835499 46.046269 -0.412628 0.975110 0.009480 0.014780 297009.000000 0 0 1
-35.713682 -14.199767 26.055119 46.432421 0.378436 0.975033 0.012731 0.002544 317156.000000 0 0 1
-34.399048 -14.623767 25.758209 45.394211 0.401973 0.967410 -0.002959 0.007328 -313475.000000 0 0 1
-33.511491 -13.617967 26.114769 44.614462 0.385983 0.945493 0.007464 -0.001013 -586374.000000 0 0 1
-32.046181 -14.051267 26.049469 43.623052 0.413224 0.930854 0.014112 0.001516 -488400.000000 0 0 1
-31.623911 -14.351867 24.707229 42.620359 0.426034 0.952430 0.008063 0.009424 -968746.000000 0 0 1
-30.302291 -14.710167 24.552809 41.682830 0.451938 0.940927 0.024591 -0.006485 -743186.000000 0 0 1
-29.925421 -16.225767 24.800659 42.117443 0.496840 0.941167 0.018359 -0.001778 -293996.000000 0 0 1
-30.133671 -16.573067 26.149599 43.203081 0.502832 0.920689 0.024896 -0.006545 362571.000000 0 0 1
-29.570611 -17.859967 26.460349 43.514935 0.543339 0.917163 0.015362 -0.011814 -169425.000000 0 0 1
-29.393271 -18.132867 27.920559 44.410842 0.552757 0.890932 0.027454 -0.013829 -482065.000000 0 0 1
-28.362951 -17.361967 28.458939 43.769922 0.549295 0.862957 0.034928 -0.018400 -358624.000000 0 0 1
-27.802281 -18.005367 29.581829 44.409962 0.574702 0.841818 0.050446 -0.022683 251913.000000 0 0 1
-26.451291 -17.416367 30.044739 43.654175 0.582280 0.811730 0.041077 -0.022819 -126503.000000 0 0 1
-26.635801 -16.127367 30.621169 43.671660 0.544437 0.793762 0.059312 -0.027837 9828.190000 0 0 1
-25.574401 -15.217867 30.341289 42.499733 0.536767 0.775720 0.049034 -0.026345 92073.700000 0 0 1
-25.516691 -13.834867 31.124989 42.559018 0.496826 0.750516 0.050326 -0.021310 -27321.500000 0 0 1
-25.128361 -13.916267 32.483989 43.362502 0.505761 0.724054 0.051728 -0.022295 -54136.400000 0 0 1
-24.701531 -12.713867 32.998210 43.135715 0.475338 0.699777 0.041910 -0.012623 105384.000000 0 0 1
-23.769031 -12.880067 34.251045 43.634815 0.496591 0.668185 0.043175 -0.014766 701313.000000 0 0 1
-22.404931 -13.259667 34.046733 42.860002 0.534382 0.652825 0.009244 -0.009821 648627.000000 0 0 1
-22.159131 -14.639767 34.266768 43.353907 0.583836 0.659341 0.010167 -0.017413 -111904.000000 0 0 1
-22.199831 -15.161267 -32.885730 42.475496 0.599188 2.456291 0.015635 -0.015669 -1271440.000000 0 0 1
-21.097031 -14.756267 -32.121810 41.166040 0.610355 2.465940 -0.010938 -0.008783 -119852.000000 0 0 1
-21.053031 -15.500467 -30.884320 40.464006 0.634648 2.439131 0.006258 -0.010436 -96365.500000 0 0 1
-19.781131 -15.373667 -30.012380 39.094574 0.660676 2.446020 0.013570 -0.009626 9595.070000 0 0 1
-19.575131 -14.237467 -29.233110 37.953471 0.628830 2.450007 0.004608 -0.010807 -191653.000000 0 0 1
-20.403331 -14.206067 -28.135870 37.546444 0.608213 2.417894 0.020229 -0.009214 -458361.000000 0 0 1
-20.084131 -12.983067 -27.237000 36.246193 0.573864 2.421045 0.019076 -0.010534 477284.000000 0 0 1
-18.774631 -12.993767 -26.662480 35.102886 0.605399 2.433421 0.021274 -0.012015 585654.000000 0 0 1
-18.437631 -11.737467 -26.014550 33.977510 0.566900 2.442832 0.027639 -0.014678 784588.000000 0 0 1
-17.037931 -11.884767 -25.315890 32.748024 0.609078 2.454433 0.033829 -0.017951 123567.000000 0 0 1
-17.062231 -12.606067 -24.081150 32.092592 0.636313 2.419410 0.046631 -0.018334 745921.000000 0 0 1
-15.766031 -12.818267 -23.507050 31.071806 0.682636 2.428802 0.041261 -0.021364 1644890.000000 0 0 1
-14.620231 -13.662767 -24.238850 31.431580 0.751558 2.451461 0.029118 -0.015984 588566.000000 0 0 1
-14.006431 -13.000067 -25.318630 31.720890 0.748152 2.495046 0.035344 -0.020194 -482186.000000 0 0 1
-13.194031 -13.801167 -26.094510 32.333854 0.807885 2.509908 0.031652 -0.013329 -113962.000000 0 0 1
-12.373831 -12.959167 -27.147220 32.527269 0.808500 2.558200 0.030222 -0.012913 -148364.000000 0 0 1
-13.112031 -12.253567 -28.106340 33.347288 0.751567 2.573330 0.040664 -0.019075 -247314.000000 0 0 1
-12.249731 -11.452167 -28.833800 33.355600 0.751761 2.614825 0.048307 -0.024594 -134823.000000 0 0 1
-13.095631 -10.602967 -29.805140 34.238353 0.680602 2.627052 0.029406 -0.018781 -14141.000000 0 0 1
-12.403931 -9.569467 -30.489260 34.278669 0.657111 2.666943 0.014761 -0.011500 -2593.950000 0 0 1
-11.733131 -10.117967 -31.627680 35.218600 0.711616 2.686088 0.030173 -0.005898 38368.700000 0 0 1
-10.914131 -9.039967 -32.380010 35.345499 0.691749 2.729039 0.033830 -0.008922 2598.540000 0 0 1
-9.530131 -8.966767 -32.152910 34.713627 0.754950 2.755090 0.029130 -0.010219 -259507.000000 0 0 1
-9.005431 -7.716967 -32.600910 34.691046 0.708500 2.792695 0.021297 -0.011146 163765.000000 0 0 1
-7.474231 -7.567667 -32.402470 34.103574 0.791610 2.824415 0.042176 -0.007873 -37036.600000 0 0 1
-6.996031 -7.383367 -31.044030 32.667880 0.812329 2.824969 0.031777 -0.011303 107042.000000 0 0 1
-7.358631 -6.159167 -30.392420 31.871366 0.696898 2.835759 0.012939 -0.009953 -538752.000000 0 0 1
-6.598131 -4.935967 -30.918190 31.997400 0.642275 2.881134 0.006505 -0.012184 411411.000000 0 0 1
-5.190531 -4.976067 -30.660470 31.492337 0.764306 2.911236 0.011141 -0.009325 572972.000000 0 0 1
-4.684131 -3.669967 -30.944430 31.511387 0.664592 2.951612 0.020143 -0.007920 325298.000000 0 0 1
-3.189631 -3.364967 -30.617920 30.966979 0.812142 2.991305 0.021584 -0.002867 -638282.000000 0 0 1
-2.355131 -4.223167 -31.316430 31.687546 1.062084 2.988396 0.020589 -0.006918 -405583.000000 0 0 1
-0.981331 -4.043067 -31.078310 31.355554 1.332682 3.008514 0.030919 -0.002985 347446.000000 0 0 1
-0.267131 -2.660867 -31.442380 31.555900 1.470739 3.056745 0.022328 -0.003018 -650597.000000 0 0 1
-0.269031 -1.693767 -30.381280 30.429647 1.413276 3.085203 0.014311 -0.008949 117958.000000 0 0 1
0.388169 -0.483367 -30.794080 30.800320 -0.894197 3.121464 0.018183 0.002840 234352.000000 0 0 1
0.566669 0.624733 -29.723690 29.735655 0.834096 3.113224 0.026106 0.000451 -622289.000000 0 0 1
-0.531031 1.380733 -29.416060 29.453234 -1.203635 3.091345 0.032499 -0.000895 -887991.000000 0 0 1
-0.154631 2.238133 -28.376260 28.464808 -1.501817 3.062695 0.041841 -0.005862 369709.000000 0 0 1
-1.277531 3.257033 -28.098600 28.315573 -1.196999 3.017718 0.042695 -0.004764 -245466.000000 0 0 1
-1.485131 4.242933 -29.113710 29.458720 -1.234100 2.988396 0.027667 0.003555 947571.000000 0 0 1
-2.777131 4.820533 -28.798180 29.330618 -1.048132 2.950762 0.063795 -0.010107 2477410.000000 0 0 1
-3.995931 4.166133 -29.654170 30.210825 -0.806248 2.949330 0.075792 -0.018108 944876.000000 0 0 1
-3.750931 4.467133 -31.052000 31.595118 -0.872328 2.955908 0.081056 -0.020945 616270.000000 0 0 1
-4.785831 5.231133 -31.701690 32.484859 -0.829824 2.921564 0.086738 -0.017281 203383.000000 0 0 1
-4.207431 5.946033 -32.966600 33.761731 -0.954986 2.924133 0.085452 -0.015316 136946.000000 0 0 1
-3.812731 5.163633 -34.058350 34.657917 -0.934773 2.955315 0.091358 -0.019968 -166728.000000 0 0 1
-2.664931 4.379133 -33.928250 34.313333 -1.024112 2.991635 0.070746 -0.017521 -717553.000000 0 0 1
-2.279031 3.649733 33.371851 33.648105 -1.012601 0.128229 0.055923 -0.020222 443793.000000 0 0 1
-3.202031 2.583433 33.000739 33.256216 -0.678880 0.124032 0.047325 -0.021436 671375.000000 0 0 1
-2.819731 1.854533 31.812119 31.990641 -0.581768 0.105694 0.054820 -0.016510 -256323.000000 0 0 1
-2.755131 2.621733 30.456459 30.692998 -0.760594 0.124230 0.058912 -0.017306 31197.000000 0 0 1
-3.939531 3.332733 30.176819 30.614824 -0.702151 0.169359 0.046217 -0.021353 131062.000000 0 0 1
-3.638231 4.140633 29.107819 29.625103 -0.849894 0.187147 0.045292 -0.031145 204609.000000 0 0 1
-4.702231 5.249533 28.988169 29.832575 -0.840338 0.238493 0.051347 -0.023830 54009.700000 0 0 1
-4.697031 5.935133 27.762409 28.775672 -0.901325 0.266162 0.050814 -0.016777 -499788.000000 0 0 1
-5.806131 6.777733 27.840139 29.235632 -0.862455 0.310217 0.036706 -0.012580 -529234.000000 0 0 1
-6.083831 7.562233 26.528869 28.248562 -0.893316 0.350728 0.047483 -0.012312 -408981.000000 0 0 1
-5.147231 8.583833 26.312609 28.151902 -1.030640 0.363480 0.053827 -0.014501 -184168.000000 0 0 1
-5.270031 9.285433 25.051599 27.231877 -1.054572 0.402878 0.055814 -0.014431 219451.000000 0 0 1
-4.520331 10.665733 25.156099 27.695136 -1.169927 0.431542 0.048040 -0.014715 42838.600000 0 0 1
-4.302631 11.260633 23.883629 26.753359 -1.205820 0.467420 0.046639 -0.015816 243291.000000 0 0 1
-3.898331 12.626133 24.092599 27.478529 -1.271331 0.501673 0.046225 -0.005569 917785.000000 0 0 1
-2.354831 12.994733 24.210959 27.578594 -1.391527 0.499359 0.033929 -0.004461 1136990.000000 0 0 1
-1.562431 12.501333 25.316639 28.278203 -1.446460 0.461758 0.026439 -0.004606 467058.000000 0 0 1
-1.952631 13.074333 26.573619 29.680098 -1.422544 0.461614 0.050990 -0.009581 -862759.000000 0 0 1
-1.081731 12.546733 27.697519 30.426029 -1.484793 0.426732 0.050435 -0.014565 -608629.000000 0 0 1
0.259569 12.905233 27.596699 30.466215 1.550686 0.437501 0.049216 -0.010737 -641236.000000 0 0 1
1.013769 12.266933 28.648479 31.180775 1.488341 0.405801 0.057985 -0.023380 183095.000000 0 0 1
2.521569 12.549733 28.559329 31.296795 1.372510 0.421364 0.045768 -0.014304 -94083.700000 0 0 1
2.974669 13.880433 28.573179 31.905198 1.359683 0.461097 0.045962 -0.017310 -804425.000000 0 0 1
4.353769 13.900033 28.372529 31.893050 1.267256 0.474295 0.049845 -0.015574 -724805.000000 0 0 1
4.874269 15.354233 28.489009 32.728193 1.263404 0.514634 0.053226 -0.011604 -405205.000000 0 0 1
4.805869 15.948533 29.818589 34.155532 1.278114 0.509428 0.064282 -0.005951 844137.000000 0 0 1
3.729669 16.911233 30.023549 34.659973 1.353727 0.523187 0.044917 -0.005762 659766.000000 0 0 1
3.918069 18.359433 29.466649 34.938567 1.360541 0.567245 0.050969 -0.000533 -225396.000000 0 0 1
4.875069 19.076133 30.203469 36.054330 1.320593 0.577700 0.069385 0.002646 -89721.500000 0 0 1
5.360269 20.126633 29.381869 36.015387 1.310511 0.616660 0.056488 0.003339 879073.000000 0 0 1
6.498669 20.980933 30.114569 37.273577 1.270426 0.630160 0.054362 0.006735 628840.000000 0 0 1
5.998669 21.825133 31.114399 38.476308 1.302568 0.628919 0.040495 -0.007769 430224.000000 0 0 1
6.997369 22.671733 31.722379 39.614139 1.271433 0.642193 0.018806 -0.009718 258368.000000 0 0 1
7.241569 24.030833 31.034509 39.913181 1.278106 0.680036 0.010150 -0.005654 2609.570000 0 0 1
7.809969 23.933533 29.726989 38.955147 1.255372 0.702687 -0.001881 -0.002886 174086.000000 0 0 1
8.089469 25.186533 29.224289 39.419031 1.260021 0.735679 -0.003528 -0.005784 131543.000000 0 0 1
8.762669 25.188433 27.815219 38.534763 1.236007 0.764366 0.003830 -0.010784 149017.000000 0 0 1
7.856669 24.776033 26.792699 37.328646 1.263719 0.770228 0.004605 -0.008230 375347.000000 0 0 1
8.425769 24.840933 25.525729 36.600934 1.243785 0.799024 0.019679 -0.009757 -934177.000000 0 0 1
28.871450 2.352333 6.730150 29.738678 0.081297 1.342509 0.082983 -0.010861 62812.400000 0 0 1
29.346740 3.066933 7.856950 30.534716 0.104129 1.310557 0.075536 -0.014812 145932.000000 0 0 1
28.442530 2.974233 8.938450 29.961966 0.104191 1.267857 0.064882 -0.007271 -88601.400000 0 0 1
28.522010 4.035933 10.058550 30.511772 0.140569 1.234852 0.057837 -0.005374 -130800.000000 0 0 1
28.271400 5.415033 9.726050 30.384053 0.189245 1.244957 0.068596 -0.008334 18606.600000 0 0 1
29.246370 6.073833 8.949050 31.182160 0.204767 1.279710 0.088085 -0.021588 -172946.000000 0 0 1
28.905900 7.543933 8.623250 31.093768 0.255288 1.289782 0.102026 -0.023027 540549.000000 0 0 1
27.811600 7.719333 7.716750 29.876770 0.270743 1.309549 0.087913 -0.024248 416861.000000 0 0 1
28.062080 8.932633 6.948950 30.258224 0.308175 1.339073 0.094271 -0.034053 243943.000000 0 0 1
27.059300 9.190533 5.765250 29.153211 0.327420 1.371727 0.086116 -0.029480 862018.000000 0 0 1
25.770660 9.532933 6.278950 28.185615 0.354304 1.346140 0.070418 -0.031964 553494.000000 0 0 1
24.867760 9.909033 5.245650 27.278403 0.379186 1.377290 0.088353 -0.034308 821341.000000 0 0 1
23.423660 10.321233 5.670550 26.217376 0.415037 1.352784 0.029598 -0.025426 661652.000000 0 0 1
23.456660 11.581933 6.254550 26.897499 0.458642 1.336115 0.028577 -0.022370 18544.500000 0 0 1
22.134760 11.947833 6.546950 25.991553 0.494961 1.316166 0.030405 -0.003477 -411253.000000 0 0 1
22.066160 13.478033 6.721950 26.716238 0.548324 1.316458 0.005083 0.018053 -351170.000000 0 0 1
22.219360 14.264733 5.594650 26.990418 0.570728 1.362000 0.005371 0.017010 332913.000000 0 0 1
22.035660 15.629933 5.901250 27.653026 0.616942 1.355739 0.017021 0.003451 -232779.000000 0 0 1
21.788660 16.506133 4.636750 27.725396 0.648320 1.402768 0.031413 -0.008142 -717590.000000 0 0 1
20.594460 16.304933 3.940350 26.561419 0.669668 1.421898 0.045347 -0.003396 -107218.000000 0 0 1
20.270060 17.360233 3.063250 26.863293 0.708225 1.456517 0.038016 -0.007507 42469.100000 0 0 1
18.771960 17.398033 2.663250 25.732682 0.747431 1.467114 0.038156 -0.003735 233884.000000 0 0 1
17.971460 17.860833 3.753650 25.613914 0.782311 1.423719 0.029924 -0.010824 -470532.000000 0 0 1
16.658560 18.049833 3.346450 24.789167 0.825461 1.435386 0.031069 -0.019866 -864065.000000 0 1 0
15.753660 18.762933 4.418050 24.894670 0.872362 1.392382 0.029539 -0.037141 -1420180.000000 0 1 0
14.447560 18.647633 4.061150 23.936565 0.911632 1.400309 0.041003 -0.040654 -1727460.000000 0 1 0
13.838560 19.856133 4.297850 24.581360 0.962126 1.395051 0.030405 -0.033216 673255.000000 0 1 0
12.284460 19.815933 3.985950 23.653054 1.015852 1.401471 0.028271 -0.019447 1098770.000000 0 1 0
11.603460 19.064533 4.970050 22.864778 1.024047 1.351680 0.022525 -0.034323 -1737180.000000 0 1 0
10.261460 19.239133 4.796950 22.326050 1.080815 1.354249 0.027268 -0.023762 -1288870.000000 0 1 0
9.426260 18.598633 5.928850 21.677518 1.101703 1.293764 0.029619 -0.031854 -795889.000000 0 1 0
9.317760 19.447333 7.036050 22.683152 1.123985 1.255405 0.034673 -0.035214 -79721.800000 0 1 0
8.841160 18.867533 8.239850 22.406361 1.132590 1.194212 0.039355 -0.029081 288916.000000 0 1 0
7.665260 19.602133 9.014550 22.896767 1.198036 1.166139 0.029551 -0.031025 1435590.000000 0 1 0
6.423160 19.847733 8.365150 22.475881 1.257811 1.189436 0.028757 -0.033681 372911.000000 0 1 0
6.514160 20.961033 7.557650 23.214591 1.269484 1.239197 0.025574 -0.031429 -602741.000000 0 1 0
5.213360 21.156033 6.760850 22.813723 1.329186 1.269927 0.016220 -0.014157 -253360.000000 0 1 0
3.986860 21.370333 7.389450 22.960622 1.386356 1.243133 0.012426 -0.015225 -443246.000000 0 1 0
3.798360 22.628233 8.093750 24.330501 1.404487 1.231675 0.009583 -0.017900 -443822.000000 0 1 0
3.880260 23.943033 7.210250 25.304406 1.410131 1.281852 0.009733 -0.022784 391432.000000 0 0 1
2.779260 24.025533 6.278750 24.987461 1.455629 1.316798 0.019160 -0.025212 700900.000000 0 1 0
2.956260 25.094333 5.349150 25.827861 1.453531 1.362179 0.034509 -0.020049 -624442.000000 0 0 1
1.686060 25.413233 4.582850 25.878132 1.504548 1.392764 0.037317 -0.023174 -768263.000000 0 0 1
0.732860 26.131933 5.312650 26.676568 1.542759 1.370305 0.055829 -0.033971 -228127.000000 0 0 1
-0.391240 26.364633 4.486450 26.746498 -1.555958 1.402260 0.057410 -0.029483 485806.000000 0 0 1
-1.602240 27.155833 5.085650 27.674361 -1.511863 1.385978 0.056947 -0.039866 -314618.000000 0 0 1
-2.519540 27.435733 4.110050 27.856059 -1.479219 1.422710 0.091321 -0.040179 -1021970.000000 0 0 1
-3.653340 27.931733 4.802250 28.576043 -1.440739 1.401943 0.072082 -0.044619 -663013.000000 0 0 1
-4.806940 28.217333 3.868250 28.884043 -1.402062 1.436469 0.069496 -0.046370 -709482.000000 0 0 1
-4.613140 29.411333 3.214650 29.943974 -1.415215 1.463234 0.067159 -0.036715 -66795.100000 0 0 1
-5.525640 29.640433 2.162550 30.228539 -1.386490 1.499195 0.062929 -0.033099 -514015.000000 0 0 1
-5.020440 30.441333 0.991150 30.868462 -1.407346 1.538682 0.055100 -0.027506 -236391.000000 0 0 1
-4.595840 31.804133 1.226550 32.157877 -1.427285 1.532646 0.050070 -0.023261 1229860.000000 0 0 1
-3.210040 31.892433 1.651650 32.096099 -1.470482 1.519314 0.050795 -0.026719 640131.000000 0 0 1
-2.764840 33.332033 1.897150 33.500268 -1.488037 1.514135 0.052266 -0.029470 -724509.000000 0 0 1
-2.151740 33.802133 0.694150 33.877663 -1.507225 1.550305 0.043893 -0.019222 -26548.500000 0 0 1
-1.312240 -33.837613 0.758150 33.871534 1.532035 1.548411 0.052710 -0.019663 -404772.000000 0 0 1
0.048960 -34.080313 1.391350 34.108738 -1.569360 1.529993 0.064432 -0.017540 -1062770.000000 0 0 1
-0.004840 -34.034413 2.797750 34.149212 1.570654 1.488777 0.053017 -0.016620 1255410.000000 0 0 1
1.308260 34.340533 3.318750 34.525322 1.532718 1.474523 0.055564 -0.015344 1373400.000000 0 0 1
1.346560 34.228833 4.847550 34.596604 1.531477 1.430217 0.045738 -0.009493 66613.900000 0 0 1
0.378060 33.393533 5.455750 33.838383 1.559475 1.408860 0.058827 -0.026435 -141562.000000 0 0 1
-0.116240 33.845833 6.702850 34.503364 -1.567362 1.375287 0.050061 -0.019006 -10387.900000 0 0 1
0.862460 33.887833 7.905850 34.808498 1.545351 1.341673 0.045422 -0.010648 20997.300000 0 0 1
1.168560 32.561033 8.215250 33.601737 1.534923 1.323804 0.042444 -0.019972 -386473.000000 0 0 1
2.258860 32.428533 9.074350 33.749904 1.501252 1.298576 0.049541 -0.014581 -426115.000000 0 0 1
2.788860 31.004333 9.296050 32.487889 1.481087 1.280601 0.036122 -0.019060 -213181.000000 0 0 1
1.993960 30.201233 10.093150 31.905517 1.504870 1.248922 0.045151 -0.026174 -90196.300000 0 0 1
2.491360 28.894133 9.924150 30.652350 1.484785 1.241090 0.038211 -0.021897 77087.200000 0 0 1
1.993260 27.956733 10.986250 30.103981 1.499619 1.197224 0.023476 -0.023216 -193499.000000 0 0 1
2.607860 28.375733 12.205950 30.999490 1.479149 1.166092 0.039904 -0.013061 -101013.000000 0 0 1
2.554360 27.584533 13.328750 30.742264 1.478459 1.122352 0.037089 -0.012700 -676092.000000 0 0 1
1.171860 27.310733 13.945950 30.687765 1.527914 1.099045 0.022685 -0.010973 -113789.000000 0 0 1
0.541260 28.332333 14.684450 31.916252 1.551695 1.092696 0.029960 -0.014607 -111313.000000 0 0 1
-0.058840 29.346333 13.893550 32.469085 -1.568791 1.128627 0.032538 -0.016043 -495574.000000 0 0 1
-0.918540 30.264933 14.775450 33.691599 -1.540456 1.116812 0.027806 -0.010218 -235746.000000 0 0 1
-2.219940 29.833633 15.052750 33.489686 -1.496523 1.104620 0.013093 -0.003141 69067.300000 0 0 1
-2.993740 30.911533 15.657450 34.779895 -1.474249 1.103822 0.007608 -0.002606 -51081.700000 0 0 1
-4.286040 30.485833 16.340050 34.853313 -1.431121 1.082838 0.005606 0.003377 -465597.000000 0 0 1
-5.115040 29.828833 15.412550 33.962768 -1.400968 1.099763 0.011476 -0.001138 -237812.000000 0 0 1
-6.193240 29.218033 16.079750 33.920614 -1.361922 1.076922 0.012434 0.001909 -363942.000000 0 0 1
-7.277540 28.635633 15.159650 33.208087 -1.321922 1.096734 0.004314 -0.001269 -437681.000000 0 0 1
-8.484040 28.409433 15.796550 33.594729 -1.280593 1.081269 0.008274 -0.005021 -408909.000000 0 0 1
-9.477840 27.782733 15.000250 32.965394 -1.242035 1.098390 0.021632 -0.006760 458695.000000 0 0 1
-10.797440 27.459933 15.734350 33.439534 -1.196160 1.080903 0.026517 -0.008519 209947.000000 0 0 1
-11.532440 28.615433 16.226750 34.858967 -1.187694 1.086600 0.021396 -0.009531 402577.000000 0 0 1
-11.329740 28.822833 17.582250 35.612557 -1.196268 1.054446 0.017766 -0.005381 -195966.000000 0 0 1
-12.123240 30.022533 18.142850 37.114532 -1.187014 1.060043 0.024704 -0.002877 184265.000000 0 0 1
-13.511840 29.756033 18.277050 37.443850 -1.144548 1.060863 0.035717 -0.003022 284034.000000 0 0 1
-14.219040 30.955533 18.577550 38.801437 -1.140204 1.071526 0.047571 -0.001446 227692.000000 0 0 1
-15.032340 30.874233 19.899450 39.688508 -1.117692 1.045591 0.044280 -0.005077 158615.000000 0 0 1
-14.220640 30.681533 21.055050 39.835891 -1.136779 1.013911 0.039927 0.002248 -401564.000000 0 0 1
-14.983740 30.685233 22.206650 40.733663 -1.116549 0.994208 0.030267 0.012475 -361725.000000 0 0 1
-14.293340 30.708833 23.598250 41.282071 -1.135171 0.962300 0.015579 0.020103 -546437.000000 0 0 1
-13.499040 29.594133 23.917450 40.374264 -1.142849 0.936770 0.014917 0.012942 228430.000000 0 0 1
-13.180440 29.337133 25.300250 40.920582 -1.148545 0.904248 0.033922 0.010687 70592.700000 0 0 1
-12.580740 30.437933 26.201350 42.086263 -1.178856 0.898783 0.030786 0.012526 -246356.000000 0 0 1
-13.552440 31.423733 26.539250 43.306483 -1.163618 0.911167 0.027773 0.010027 227683.000000 0 0 1
-13.086340 32.568333 27.185450 44.395916 -1.188729 0.911778 0.027787 0.008484 -51657.400000 0 0 1
-14.248840 33.487433 27.683150 45.725206 -1.168504 0.920497 0.037372 0.001157 713901.000000 0 0 1
-15.032840 33.038133 28.810150 46.341442 -1.143780 0.899894 0.016942 -0.000560 682588.000000 0 0 1
-14.312840 33.091633 30.055350 46.938658 -1.162572 0.875893 0.043029 -0.003103 -301851.000000 0 0 1
-15.003340 32.437233 31.212750 47.450080 -1.137568 0.852900 0.036726 -0.002177 357893.000000 0 0 1
-16.267140 32.988233 31.639150 48.516793 -1.112668 0.860409 0.031681 -0.002145 603974.000000 0 0 1
-16.788440 32.292133 32.737750 48.952976 -1.091362 0.838258 0.038492 -0.005595 344863.000000 0 0 1
-18.236140 32.714533 33.107250 49.988874 -1.062265 0.846922 0.036321 -0.005428 306200.000000 0 0 1
-18.301340 34.090033 33.417750 51.125487 -1.078103 0.858410 0.038188 -0.000853 -811091.000000 0 0 1
-19.627240 -34.291313 33.598350 51.864938 1.050943 0.866097 0.035067 -0.006064 -661635.000000 0 0 1
-19.814840 -32.809613 33.838650 51.128787 1.027489 0.847537 0.034420 0.000112 -137659.000000 0 0 1
-19.442240 -32.213613 -33.542949 50.406815 1.027777 2.298886 0.037987 0.000785 -294879.000000 0 0 1
-20.325240 -32.455113 -32.489149 50.219464 1.011294 2.274365 0.031189 0.001509 -259394.000000 0 0 1
-19.909740 -31.737913 -31.212849 48.764073 1.010532 2.265397 0.038278 0.000416 -165668.000000 0 0 1
-19.919940 -30.349113 -31.409049 48.004178 0.989963 2.284051 0.049158 0.001060 267376.000000 0 0 1
-19.389740 -29.621813 -30.278549 46.585452 0.991211 2.278324 0.040372 0.001649 -53204.800000 0 0 1
-19.794140 -28.142413 -30.396249 45.910079 0.957821 2.294390 0.030366 -0.007894 135044.000000 0 0 1
-21.059340 -27.928113 -29.789649 45.944516 0.924705 2.276255 0.041967 -0.007761 -59903.700000 0 0 1
-21.390340 -26.591513 -30.140049 45.531064 0.893375 2.294236 0.025256 -0.008099 251958.000000 0 0 1
-22.635440 -26.028113 -29.387149 45.314792 0.855002 2.276423 0.032746 -0.008821 166372.000000 0 0 1
-22.555440 -26.129313 -28.018849 44.458349 0.858675 2.252642 0.040282 -0.013458 324220.000000 0 0 1
-21.663040 -25.160813 -27.436249 43.070890 0.859960 2.261399 0.040283 -0.020604 101107.000000 0 0 1
-21.463540 -25.497213 -25.950949 42.240303 0.871082 2.232377 0.043353 -0.017557 -477238.000000 0 0 1
-22.610440 -25.300213 -25.187849 42.258260 0.841481 2.209364 0.044086 -0.020592 -269911.000000 0 0 1
-22.466940 -25.777013 -23.871949 41.702371 0.853902 2.180270 0.038643 -0.011260 1143080.000000 0 0 1
-23.877740 -25.660613 -23.099449 41.978543 0.821372 2.153482 0.039667 -0.009131 2198830.000000 0 0 1
-24.992840 -26.441713 -23.530749 43.330156 0.813560 2.144870 0.049754 -0.011227 84646.600000 0 0 1
-24.893040 -27.842013 -23.368249 44.055831 0.841261 2.129896 0.035676 -0.002666 -1120460.000000 0 0 1
-26.134240 -28.776213 -23.421349 45.383131 0.833475 2.113065 0.033402 -0.003700 636963.000000 0 0 1
-27.129840 -28.671913 -22.403949 45.387705 0.813026 2.087035 0.033917 0.002832 545321.000000 0 0 1
-28.113540 -27.669913 -22.725849 45.524273 0.777446 2.093475 0.032946 0.001614 41977.100000 0 0 1
-28.760140 -27.093113 -21.448149 44.957820 0.755560 2.068117 0.028479 -0.001946 311629.000000 0 0 1
-29.651540 -28.006313 -20.806049 45.787106 0.756872 2.042504 0.028829 -0.000474 388177.000000 0 0 1
-30.168140 -27.558513 -19.557749 45.300043 0.740222 2.017215 0.021313 0.003520 -675024.000000 0 0 1
-31.065040 -28.563013 -18.829949 46.210923 0.743462 1.990487 0.016165 0.005903 1306380.000000 0 0 1
-32.456340 -28.691213 -19.280949 47.416819 0.723901 1.989555 0.011392 -0.001394 2183370.000000 0 0 1
-33.356440 -27.590213 -19.094249 47.312391 0.691068 1.986221 0.010994 -0.000047 -168481.000000 0 0 1
-33.694140 -27.207413 -17.647049 46.764910 0.679287 1.957737 0.006186 0.005226 -83920.400000 0 0 1
-32.723840 -26.297513 -17.068749 45.318331 0.676944 1.956964 0.010244 0.010464 798902.000000 0 0 1
-33.220440 -25.686413 -15.922549 44.910100 0.658191 1.933221 0.003561 0.010137 -147448.000000 0 0 1
-33.110840 -26.613313 -14.650049 44.935733 0.677032 1.902889 0.021314 0.010043 -339277.000000 0 0 1
-33.892340 -27.750413 -14.615849 46.177908 0.686088 1.892846 0.017531 0.009729 -171943.000000 0 0 1
-33.906340 -28.336513 -13.351749 46.161316 0.696150 1.864230 0.004231 0.015476 89558.800000 0 0 1
-34.645940 -29.709313 -13.184849 47.506049 0.708839 1.852029 0.006451 0.016732 95089.900000 0 0 1
-34.023340 -30.763613 -13.890249 47.926262 0.735126 1.864841 0.005385 0.009913 165372.000000 0 0 1
-34.334540 -32.031213 -13.272849 48.795776 0.750706 1.846276 0.007289 0.002187 -391829.000000 0 0 1
-33.713440 -33.261113 -13.952849 49.371851 0.778645 1.857308 0.001445 0.005659 -700375.000000 0 0 1
-32.318040 -33.260213 -13.861649 48.402922 0.799764 1.861243 0.001174 0.003811 -660267.000000 0 0 1
-31.966840 -34.221013 -14.880749 49.136476 0.819442 1.878473 0.012594 -0.005234 -269386.000000 0 0 1
-30.483840 34.167333 -15.003649 48.184859 -0.842312 1.887438 0.005223 -0.000767 -209132.000000 0 0 1
-30.234040 33.211033 -16.031949 47.687455 -0.832286 1.913663 0.019899 -0.003640 -1007200.000000 0 0 1
-28.891440 33.016533 -16.319749 46.809625 -0.851932 1.926917 0.013322 0.001239 -849324.000000 0 0 1
9.473569 19.794633 -9.343250 23.851045 1.124421 1.973311 0.020947 -0.016746 736745.000000 0 1 0
8.031369 19.712633 -9.339850 23.244862 1.183908 1.984281 0.025895 -0.020027 941939.000000 0 1 0
7.396369 19.884633 -10.598050 23.715471 1.214690 2.034075 0.032777 -0.017085 184583.000000 0 1 0
7.436469 18.709433 -11.566250 23.219003 1.192471 2.092246 0.030914 -0.006240 -556913.000000 0 1 0
8.738669 18.275333 -11.849650 23.468412 1.124767 2.100085 0.041668 -0.010355 -362199.000000 0 1 0
8.648569 17.126833 -12.619750 22.964848 1.103179 2.152591 0.044974 -0.020540 348603.000000 0 1 0
10.021169 16.652533 -13.206550 23.497737 1.029069 2.167640 0.055674 -0.018698 608957.000000 0 1 0
9.968869 15.527633 -14.108650 23.227995 1.000060 2.223578 0.071081 -0.025229 -61121.400000 0 1 0
11.274569 15.150833 -14.498150 23.808822 0.931046 2.225520 0.091921 -0.034317 -81397.700000 0 1 0
11.297869 13.991433 -15.507350 23.746156 0.891508 2.282397 0.084383 -0.032753 -409925.000000 0 1 0
11.199969 12.734533 -14.879450 22.561154 0.849426 2.290971 0.089561 -0.032464 808940.000000 0 1 0
12.426069 12.210933 -14.326350 22.555673 0.776666 2.259006 0.111640 -0.030266 348822.000000 0 1 0
13.292569 11.498633 -15.406950 23.372742 0.713162 2.290530 0.122067 -0.034587 -427789.000000 0 1 0
14.005069 12.395933 -16.196750 24.741379 0.724524 2.284505 0.108297 -0.029878 -256235.000000 0 1 0
14.946069 11.764633 -17.007250 25.515449 0.666849 2.300364 0.099265 -0.032456 -8673.370000 0 0 1
15.473869 12.606133 -18.189450 27.003913 0.683624 2.309846 0.068938 -0.023488 329899.000000 0 0 1
16.312469 13.688233 -17.810250 27.760932 0.698148 2.267324 0.034977 -0.019219 426628.000000 0 0 1
17.227969 14.087333 -18.860850 29.171691 0.685442 2.273845 0.030747 -0.017665 1097850.000000 0 0 1
18.458469 14.949233 -18.379650 30.033418 0.680739 2.229350 0.014103 -0.006237 95103.300000 0 0 1
18.117969 16.210733 -17.857050 30.164928 0.729897 2.204310 -0.001837 -0.006600 105329.000000 0 0 1
17.570269 17.179033 -18.761750 30.916610 0.774140 2.222888 0.008651 0.000253 -165374.000000 0 0 1
17.164069 18.511533 -18.053250 31.035495 0.823150 2.191610 0.004088 0.005345 891270.000000 0 0 1
18.210769 19.530633 -18.069250 32.242449 0.820355 2.165687 0.006000 0.006110 801498.000000 0 0 1
17.754769 20.604933 -17.280150 32.224194 0.859563 2.136782 0.001224 0.009154 -335120.000000 0 0 1
18.514569 21.937833 -17.377350 33.556372 0.869822 2.115139 0.005769 0.004446 -508380.000000 0 0 1
19.714169 21.871333 -16.654550 33.828652 0.837225 2.085550 0.009559 0.001407 -576361.000000 0 0 1
19.913069 23.061433 -15.970150 34.400664 0.858529 2.053572 0.010810 -0.003769 224237.000000 0 0 1
21.313669 23.241933 -15.320250 35.059521 0.828649 2.023033 0.009997 -0.006747 -356004.000000 0 0 1
21.512269 22.532433 -14.155650 34.217988 0.808556 1.997300 0.018338 -0.008306 113122.000000 0 0 1
22.424469 23.131633 -13.218650 34.823296 0.800920 1.960152 0.020539 -0.007799 356270.000000 0 0 1
23.921069 22.938233 -13.512950 35.790779 0.764427 1.957950 0.026106 -0.005398 -526568.000000 0 0 1
24.364369 23.540533 -14.696350 36.929147 0.768203 1.980089 0.033769 0.000700 -849201.000000 0 0 1
25.677169 23.989733 -14.703950 38.092394 0.751436 1.967096 0.030395 -0.000400 -726572.000000 0 0 1
26.058969 24.307333 -16.162050 39.129633 0.750634 1.996584 0.035149 0.009515 -480026.000000 0 0 1
26.456869 23.275033 -17.035350 39.139446 0.721505 2.021110 0.034274 -0.000553 171132.000000 0 0 1
26.552269 23.733833 -18.380950 40.077140 0.729409 2.047260 0.031274 0.010946 -739157.000000 0 0 1
27.141469 22.765533 -19.434950 40.406016 0.697940 2.072582 0.029141 0.006013 -524874.000000 0 0 1
28.520569 22.640433 -19.537350 41.324570 0.670966 2.063237 0.032410 0.011926 -842065.000000 0 0 1
28.897369 21.728833 -20.610050 41.616995 0.644736 2.088898 0.039868 0.004786 -336843.000000 0 0 1
30.345569 21.912733 -21.033550 42.935203 0.625409 2.082761 0.057476 -0.007463 -798097.000000 0 0 1
30.643869 23.190633 -21.515950 44.043027 0.647825 2.081190 0.040697 -0.000085 -1053940.000000 0 0 1
32.015969 23.319633 -21.607050 45.118645 0.629517 2.070191 0.050371 -0.007271 -809964.000000 0 0 1
32.441369 24.761833 -22.019650 46.373007 0.651946 2.065576 0.048006 -0.007385 -59747.300000 0 0 1
32.664469 24.944633 -23.436650 47.312565 0.652188 2.089043 0.048834 -0.009329 130262.000000 0 0 1
31.489469 24.786233 -24.214150 46.821673 0.666843 2.114322 0.048205 -0.011656 -116438.000000 0 0 1
31.465269 25.340933 -25.674810 47.868799 0.678002 2.136912 0.050536 -0.014299 -623389.000000 0 0 1
31.454669 26.760933 -25.821310 48.706096 0.704945 2.129568 0.042717 -0.014955 1535310.000000 0 0 1
30.127969 27.360133 -26.080480 48.336972 0.737289 2.140705 0.044734 -0.011793 1908800.000000 0 0 1
29.467069 27.100333 -27.461470 48.547590 0.743583 2.172031 0.045557 -0.013036 -120161.000000 0 0 1
29.199969 25.738633 -27.645390 47.742884 0.722478 2.188356 0.041116 -0.025064 -201056.000000 0 0 1
28.974469 25.509833 -29.046270 48.311047 0.721894 2.215842 0.045592 -0.028141 -514735.000000 0 0 1
28.323569 24.139933 -29.258540 47.339445 0.705823 2.237067 0.037747 -0.026951 -796266.000000 0 0 1
27.037869 24.217033 -28.721740 46.286601 0.730418 2.240201 0.029497 -0.022934 -853280.000000 0 0 1
26.302069 23.105433 -29.127220 45.541792 0.720789 2.264737 0.027216 -0.025020 242557.000000 0 0 1
24.804269 23.239033 -28.707100 44.490471 0.752830 2.272136 0.018710 -0.017776 413029.000000 0 0 1
24.722369 22.942733 -27.288880 43.384876 0.748079 2.251056 0.022086 -0.009976 342629.000000 0 0 1
23.358469 23.013233 -26.899520 42.412394 0.777953 2.257818 0.010935 -0.008273 -222159.000000 0 0 1
23.209269 23.133333 -25.339610 41.423630 0.783760 2.229028 0.029709 -0.005834 -651770.000000 0 0 1
23.599469 21.923433 -24.781650 40.641137 0.748597 2.226564 0.025008 -0.010384 148013.000000 0 0 1
24.095169 22.109533 -23.475850 40.255734 0.742450 2.193419 0.031427 -0.001560 -71772.300000 0 0 1
24.559369 20.802333 -22.770050 39.425561 0.702763 2.186515 0.029631 0.006182 -112513.000000 0 0 1
25.755569 20.290633 -23.287050 40.216238 0.667267 2.188354 0.022068 0.010831 -247215.000000 0 0 1
26.061269 18.983533 -22.850650 39.518559 0.629546 2.187349 0.035785 0.007525 29383.700000 0 0 1
27.453869 18.437633 -23.281150 40.443457 0.591401 2.184191 0.047638 -0.002661 117572.000000 0 0 1
28.521769 18.902833 -22.497350 40.950448 0.585287 2.152418 0.074357 -0.016536 209614.000000 0 0 1
29.739669 18.720933 -23.229750 42.125319 0.561824 2.154890 0.053178 -0.011773 -109814.000000 0 0 1
30.958369 18.233533 -22.486350 42.385354 0.532269 2.130012 0.049012 -0.005360 -786173.000000 0 0 1
31.605369 19.284833 -21.881250 43.006898 0.547868 2.104569 0.042666 -0.007818 -630015.000000 0 0 1
32.758669 18.828033 -21.220950 43.335366 0.521646 2.082532 0.036933 -0.008134 169089.000000 0 0 1
33.365269 19.843933 -20.216950 43.769258 0.536549 2.050931 0.032785 -0.016361 249165.000000 0 0 1
32.484369 19.948933 -19.123650 42.648659 0.550729 2.035771 0.028916 -0.019254 330982.000000 0 0 1
33.031669 20.891133 -18.269150 43.142699 0.563944 2.008056 0.012021 -0.016412 59811.300000 0 0 1
32.332269 20.850633 -16.886150 42.015076 0.572772 1.984395 0.023665 -0.023715 30452.700000 0 0 1
32.797169 19.758733 -16.112650 41.541296 0.542221 1.969117 0.029967 -0.033245 623982.000000 0 0 1
32.282669 19.854333 -14.731950 40.661968 0.551387 1.941534 0.035454 -0.031781 -138566.000000 0 0 1
32.867369 18.686833 -13.896250 40.281105 0.516976 1.923016 0.026131 -0.027434 -227011.000000 0 0 1
34.273069 18.578433 -14.002850 41.423197 0.496735 1.915634 0.026411 -0.027962 88905.100000 0 0 1
34.857069 17.388933 -13.464050 41.214935 0.462738 1.903584 0.026192 -0.013643 67949.900000 0 0 1
34.862869 17.231333 -11.907150 40.670858 0.459045 1.867917 0.036728 -0.026060 -555758.000000 0 0 1
35.816369 18.017833 -11.209750 41.630675 0.466094 1.843428 0.025025 -0.021050 -57729.600000 0 0 1
35.421969 18.555133 -9.934250 41.203133 0.482530 1.814300 0.012978 -0.025349 5779.640000 0 0 1
34.391069 19.737733 -9.872450 40.863052 0.521022 1.814809 0.018525 -0.024956 658655.000000 0 0 1
33.076769 19.259933 -10.138750 39.595605 0.527288 1.829738 0.052070 -0.036005 -241516.000000 0 0 1
32.092369 20.153333 -9.680450 39.112506 0.560739 1.820898 0.034654 -0.021190 1157410.000000 0 0 1
30.632269 19.626133 -10.023850 37.735906 0.569811 1.839655 0.016340 -0.015445 1032610.000000 0 0 1
30.413469 19.481133 -11.409650 37.877087 0.569698 1.876777 0.027527 -0.025756 -717367.000000 0 0 1
29.087369 19.301233 -11.791450 36.846315 0.585849 1.896544 0.032645 -0.023156 -473403.000000 0 0 1
28.832569 18.594933 -13.128750 36.734897 0.572801 1.936270 0.048691 -0.019727 -141581.000000 0 0 1
29.202369 17.195633 -13.077950 36.324935 0.532176 1.939093 0.055193 -0.020164 154883.000000 0 0 1
28.992169 16.542933 -14.314450 36.319664 0.518521 1.975911 0.052564 -0.015067 -677343.000000 0 0 1
30.256769 16.230433 -15.089550 37.504580 0.492360 1.984867 0.037610 -0.016643 -364858.000000 0 0 1
31.057969 15.209133 -14.512050 37.503530 0.455375 1.968120 0.024683 -0.016281 -136552.000000 0 0 1
32.193969 14.930433 -15.249950 38.625515 0.434242 1.976663 0.021957 -0.017282 -1054340.000000 0 0 1
33.209869 13.943633 -14.808850 38.943836 0.397512 1.960876 0.020258 -0.008000 -560983.000000 0 0 1
33.806169 14.277133 -13.545650 39.117493 0.399601 1.924400 0.032294 -0.007744 219722.000000 0 0 1
34.485169 13.213433 -12.888450 39.114369 0.365908 1.906577 0.035407 -0.002790 21273.400000 0 0 1
35.436569 13.841033 -11.837450 39.842814 0.372365 1.872454 0.050151 -0.002804 1066580.000000 0 0 1
-35.052322 14.287633 -12.411950 39.835389 -0.387048 1.887653 0.031374 -0.009914 1355300.000000 0 0 1
-34.175522 14.729833 -11.342650 38.904884 -0.406946 1.866641 0.021858 -0.003967 -767845.000000 0 0 1
-32.776022 15.190533 -11.761550 37.991498 -0.433995 1.885552 0.031785 -0.012825 433166.000000 0 0 1
-31.811422 14.209333 -12.204050 36.916264 -0.420085 1.907722 0.030419 -0.009513 678942.000000 0 0 1
-31.514122 13.259433 -11.185050 35.973015 -0.398262 1.886967 0.040242 -0.005867 -762926.000000 0 0 1
-30.400122 12.247833 -11.631850 34.777532 -0.382993 1.911833 0.058083 -0.012331 321227.000000 0 0 1
-30.762122 11.430233 -12.738250 35.202576 -0.355759 1.941054 0.041130 -0.008998 431342.000000 0 0 1
-30.016022 10.204433 -12.660350 34.137611 -0.327708 1.950734 0.063578 -0.016011 -53970.500000 0 0 1
-29.955222 9.320633 -13.904050 34.314896 -0.301657 1.987983 0.061162 -0.015473 -285203.000000 0 0 1
-31.177122 8.787433 -14.354050 35.429799 -0.274728 1.987929 0.045702 -0.015257 129194.000000 0 0 1
-30.988522 8.046533 -15.553750 35.594302 -0.254051 2.023027 0.050261 -0.010439 -386602.000000 0 0 1
-32.277522 7.484633 -16.171350 36.869645 -0.227857 2.024846 0.048039 -0.013150 -154499.000000 0 0 1
-33.004722 6.539333 -15.394450 37.000860 -0.195600 1.999901 0.063856 -0.022212 387785.000000 0 0 1
-34.065622 5.955033 -16.114750 38.152512 -0.173062 2.006863 0.040025 -0.024927 102972.000000 0 0 1
-35.184422 5.394833 -15.173450 38.694720 -0.152145 1.973745 0.036150 -0.022616 12070.500000 0 0 1
35.530869 4.686133 -15.814750 39.172807 0.131132 1.986373 0.036192 -0.020481 20496.800000 0 0 1
34.715869 4.094533 -14.815850 37.966645 0.117402 1.971681 0.049493 -0.022143 -456217.000000 0 0 1
33.800069 3.002933 -15.274150 37.212389 0.088611 1.993753 0.048451 -0.023887 -840637.000000 0 0 1
34.407169 1.806933 -15.691150 37.859351 0.052468 1.998145 0.058237 -0.025675 -86268.000000 0 0 1
33.482669 0.751833 -15.773150 37.019544 0.022451 2.010948 0.048418 -0.026389 194520.000000 0 0 1
32.873269 0.176033 -14.435350 35.903511 0.005355 1.984561 0.055139 -0.024925 -155050.000000 0 0 1
33.927369 -0.268867 -13.593150 36.550135 -0.007925 1.951856 0.074343 -0.026698 380162.000000 0 0 1
33.827069 -0.085967 -12.191950 35.957219 -0.002541 1.916723 0.080782 -0.025735 -384361.000000 0 0 1
33.848569 1.311833 -11.542150 35.786419 0.038737 1.899196 0.079822 -0.031870 -219585.000000 0 0 1
32.773169 2.136833 -11.925950 34.941021 0.065109 1.919114 0.066901 -0.025259 369769.000000 0 0 1
32.804569 3.378233 -11.205550 34.829823 0.102619 1.898345 0.070942 -0.025854 172984.000000 0 0 1
31.608169 4.275633 -11.635150 33.951938 0.134454 1.920580 0.063029 -0.018588 54436.800000 0 0 1
31.813669 4.760633 -12.930350 34.669397 0.148539 1.952995 0.054030 -0.015763 483459.000000 0 0 1
30.813269 5.671433 -13.333550 34.050055 0.182021 1.973152 0.057098 -0.017674 -184803.000000 0 0 1
31.236769 6.325633 -14.650450 35.076845 0.199804 2.001673 0.019575 -0.008897 -337113.000000 0 0 1
31.224969 5.435833 -15.736250 35.386106 0.172359 2.031637 0.012738 -0.004991 100039.000000 0 0 1
31.685469 6.012733 -16.950650 36.434138 0.187533 2.054703 0.002717 0.000069 -1021100.000000 0 0 1
30.812369 7.111333 -17.664350 36.221574 0.226823 2.080221 -0.004866 -0.001377 689073.000000 0 0 1
29.570369 6.708733 -18.226050 35.377998 0.223097 2.112014 -0.005378 -0.001242 1261290.000000 0 0 1
28.570569 6.110633 -17.361450 33.985838 0.210704 2.106962 -0.002698 0.005195 -598105.000000 0 0 1
27.268269 5.849133 -18.133250 33.265381 0.211301 2.147315 0.004779 -0.000883 -466449.000000 0 0 1
27.201969 4.771033 -19.055150 33.553072 0.173627 2.174762 0.003963 0.001682 293364.000000 0 0 1
25.987469 4.795033 -19.781950 33.010096 0.182461 2.213385 0.013418 0.001384 11932.500000 0 0 1
25.727869 3.549933 -20.707250 33.216193 0.137114 2.243891 0.017576 0.006376 -139509.000000 0 0 1
25.070769 2.544733 -19.938850 32.133734 0.101156 2.240171 0.025918 -0.003875 480836.000000 0 0 1
24.455969 1.545433 -20.754350 32.112705 0.063109 2.273518 0.027062 -0.004947 -441866.000000 0 0 1
23.551269 0.631833 -19.909750 30.845739 0.026822 2.272424 0.029488 -0.012918 215371.000000 0 0 1
22.279569 1.235733 -19.690050 29.759104 0.055408 2.293811 0.036101 -0.012723 105136.000000 0 0 1
21.481269 0.493633 -18.805950 28.554375 0.022976 2.289755 0.041165 -0.014032 188762.000000 0 0 1
20.158869 1.296533 -18.601650 27.460560 0.064227 2.315012 0.036677 -0.016087 -325959.000000 0 0 1
19.224569 1.247833 -19.691250 27.547894 0.064817 2.367135 0.038368 -0.020028 915958.000000 0 0 1
18.139269 2.171833 -19.639550 26.822786 0.119164 2.392338 0.026601 -0.014365 310108.000000 0 0 1
17.052869 1.882633 -18.613150 25.313909 0.109955 2.396896 0.036994 -0.022875 -1379210.000000 0 0 1
17.381269 2.178533 -17.276450 24.603460 0.124688 2.349273 0.041295 -0.020606 226923.000000 0 1 0
16.276169 1.974633 -16.415650 23.201000 0.120730 2.356808 0.027761 -0.015998 485092.000000 0 1 0
15.281069 3.176533 -16.229150 22.516366 0.204955 2.375711 0.041849 -0.024076 551445.000000 0 1 0
14.527769 3.429933 -17.439750 22.955727 0.231849 2.433667 0.038998 -0.020002 181835.000000 0 1 0
13.502569 4.354433 -17.262350 22.344332 0.311959 2.453660 0.040009 -0.023236 -383827.000000 0 1 0
-20.063131 -21.904767 -17.509450 34.480848 0.829252 2.103428 0.042377 -0.021378 -11286.400000 0 0 1
-19.599631 -22.583567 -18.647550 35.240519 0.856018 2.128396 0.045617 -0.023388 48952.100000 0 0 1
-20.502731 -22.416367 -19.720650 36.218221 0.829956 2.146584 0.046489 -0.018308 -26137.700000 0 0 1
-20.080631 -23.076167 -21.041350 37.127882 0.854698 2.173323 0.035344 -0.007853 -160631.000000 0 0 1
-20.215531 -24.471967 -20.883450 37.995570 0.880361 2.152716 0.030143 -0.006254 295322.000000 0 0 1
-19.496331 -25.294897 -21.818350 38.677889 0.914140 2.170144 0.026016 -0.010772 -168527.000000 0 0 1
-19.427531 -26.817477 -21.555050 39.512355 0.943858 2.147814 0.022767 0.004146 258199.000000 0 0 1
-20.657131 -27.526617 -21.722650 40.697730 0.927012 2.133832 0.027795 0.019640 389547.000000 0 0 1
-20.461531 -28.910657 -21.509350 41.438539 0.954888 2.116555 0.044865 0.000233 206187.000000 0 0 1
-21.772531 -29.715747 -21.720350 42.764966 0.938464 2.103542 0.043007 0.004704 580498.000000 0 0 1
-22.465331 -29.595177 -22.982150 43.689184 0.921504 2.124731 0.026467 0.001530 162957.000000 0 0 1
-21.861931 -30.323507 -24.045150 44.448041 0.946144 2.142389 0.028208 -0.005132 -330050.000000 0 0 1
-22.272431 -29.839007 -25.468270 45.111643 0.929590 2.170698 0.018660 -0.002910 258616.000000 0 0 1
-23.646131 -30.067487 -25.780590 46.128431 0.904381 2.163840 0.026033 -0.001399 645921.000000 0 0 1
-24.116331 -29.295497 -26.914290 46.520991 0.882063 2.187735 0.034763 -0.002519 -217263.000000 0 0 1
-23.436931 -29.476527 -28.294310 47.103326 0.899047 2.215155 0.035838 -0.014469 -518704.000000 0 0 1
-23.762031 -30.750077 -28.809120 48.375270 0.912895 2.208727 0.023461 -0.003675 75588.400000 0 0 1
-23.404531 -30.825417 -30.139900 49.054989 0.921395 2.232435 0.038962 -0.004433 -228337.000000 0 0 1
-24.168731 -31.883597 -30.970430 50.595048 0.922176 2.229540 0.026214 -0.005518 -4864.440000 0 0 1
-23.756031 -33.191187 -30.565900 50.992923 0.949589 2.213566 0.021721 -0.010258 40163.400000 0 0 1
-24.621731 -34.199655 -31.042250 52.339921 0.946812 2.205687 0.025605 -0.013100 -178209.000000 0 0 1
-24.134831 33.082899 -30.849860 51.270675 -0.940528 2.216431 0.031616 -0.014028 313587.000000 0 0 1
-23.024831 32.796777 -31.693020 51.090302 -0.958699 2.239964 0.037666 -0.013087 146263.000000 0 0 1
-22.807031 31.374749 -31.848140 50.188042 -0.942229 2.258256 0.047779 -0.006871 237533.000000 0 0 1
-21.502531 30.915409 -32.576160 49.792846 -0.963078 2.283965 0.049927 -0.003332 199778.000000 0 0 1
-21.530531 30.891049 -33.979200 50.718899 -0.962098 2.304940 0.057377 -0.005011 198035.000000 0 0 1
-20.647131 29.928909 34.127122 49.866864 -0.966900 0.817064 0.057454 -0.011997 -143182.000000 0 0 1
-21.000131 29.768029 32.619823 48.899836 -0.956416 0.840522 0.057423 -0.011425 79621.700000 0 0 1
-20.536631 30.839709 31.775959 48.811397 -0.983314 0.861902 0.047091 -0.005358 384423.000000 0 0 1
-20.626531 30.438819 30.467039 47.751607 -0.975236 0.878857 0.054774 -0.006708 -200640.000000 0 0 1
-20.182831 31.562029 29.540659 47.709107 -1.001862 0.903095 0.042739 -0.011284 -166784.000000 0 0 1
-21.111431 32.607619 29.444589 48.743545 -0.996224 0.922196 0.031731 -0.012663 108809.000000 0 0 1
-20.431531 33.862224 29.211459 49.167134 -1.027901 0.934618 0.024017 -0.013621 143401.000000 0 0 1
-21.237131 -33.578327 29.337279 49.388214 1.006847 0.934757 0.022972 -0.016855 -124280.000000 0 0 1
-21.516331 -33.255347 30.697289 50.111817 0.996530 0.911481 0.024742 -0.008946 543488.000000 0 0 1
-22.510131 -32.245957 30.978829 50.061918 0.961363 0.903569 0.031677 -0.017256 328703.000000 0 0 1
-22.078131 -30.801147 30.551889 48.678255 0.948887 0.892292 0.024645 -0.007308 -197624.000000 0 0 1
-22.059931 -30.560967 29.121799 47.630793 0.945567 0.912959 0.017584 -0.010634 -78308.200000 0 0 1
-21.805931 -29.254867 28.747149 46.451528 0.930260 0.903501 0.032337 -0.014588 20846.200000 0 0 1
-22.988031 -28.498657 28.034959 46.114878 0.892022 0.917336 0.031533 -0.013662 408400.000000 0 0 1
-24.114931 -28.284057 28.870249 47.063883 0.864796 0.910404 0.023623 -0.009127 977211.000000 0 0 1
-25.148701 -29.291927 28.904269 48.227906 0.861357 0.928137 0.019381 -0.008921 856154.000000 0 0 1
-26.232831 -29.337547 27.773969 48.168937 0.841210 0.956241 0.013721 -0.010487 177573.000000 0 0 1
-25.604301 -29.627477 26.574589 47.324163 0.858111 0.974546 0.025676 -0.014468 359972.000000 0 0 1
-26.618221 -29.697837 25.577349 47.378181 0.840028 1.000531 0.020163 -0.012468 247284.000000 0 0 1
-26.085941 -30.198197 24.232339 46.686333 0.858331 1.025062 0.026285 -0.017414 -1096560.000000 0 0 1
-25.467611 -29.159077 23.601569 45.341869 0.852872 1.023331 0.020084 -0.016651 -161800.000000 0 0 1
-25.095001 -29.425797 22.237149 44.610844 0.864666 1.048964 0.040944 -0.016773 157980.000000 0 0 1
-23.900931 -30.403387 22.068449 44.526811 0.904572 1.052246 0.046574 -0.025789 -627849.000000 0 0 1
-24.294231 -31.739237 21.859049 45.556634 0.917492 1.070345 0.045834 -0.028224 1224630.000000 0 0 1
-23.109831 -32.552847 21.705049 45.440745 0.953445 1.072811 0.066148 -0.026613 1371070.000000 0 0 1
-22.225131 -32.999487 22.935449 45.923386 0.978078 1.047857 0.062378 -0.023283 51908.800000 0 0 1
-21.486231 -32.015747 23.574009 45.192921 0.979721 1.022035 0.071833 -0.027079 57794.100000 0 0 1
-20.997231 -32.526077 24.818519 45.986827 0.997555 1.000730 0.055916 -0.028340 -1328450.000000 0 0 1
-19.927831 -31.685827 25.484169 45.283032 1.009384 0.973057 0.044329 -0.013624 -1695610.000000 0 0 1
-18.695631 -31.821847 24.888149 44.514902 1.039612 0.977500 0.049695 -0.016747 -425739.000000 0 0 1
-17.619231 -31.210987 25.586769 44.036868 1.056874 0.950802 0.056257 -0.015051 500925.000000 0 0 1
-16.900231 -32.068707 26.692709 45.016891 1.085782 0.936080 0.031846 -0.019260 -665676.000000 0 0 1
-17.673531 -32.206117 27.860479 46.106333 1.068903 0.921952 0.024883 -0.010840 -53097.000000 0 0 1
-17.062131 -32.840727 28.885239 46.946637 1.091638 0.908058 0.028499 -0.004007 -729803.000000 0 0 1
-17.584431 -32.141997 30.152309 47.449783 1.070193 0.882196 0.033059 -0.006783 234009.000000 0 0 1
-17.046331 -30.812947 30.306389 46.459577 1.065484 0.860158 0.034245 -0.003929 551673.000000 0 0 1
-17.517331 -30.191817 31.512949 47.026255 1.045062 0.836434 0.033984 0.003425 -5352.380000 0 0 1
-17.120431 -28.693007 31.503599 45.922484 1.032824 0.814796 0.038551 0.000803 70111.300000 0 0 1
-17.903931 -27.755797 30.743559 45.123181 0.997907 0.821225 0.042329 0.000184 303118.000000 0 0 1
-17.972131 -27.818347 29.307709 44.224425 0.997201 0.846372 0.042071 -0.000720 149032.000000 0 0 1
-16.614531 -27.566297 28.578999 43.043032 1.028385 0.844690 0.035202 -0.000468 293418.000000 0 0 1
-16.281531 -26.166897 28.472109 41.957785 1.014200 0.824956 0.030289 0.002182 -427791.000000 0 0 1
-15.169231 -26.042727 27.669589 40.913755 1.043363 0.828081 0.030507 0.005390 -893330.000000 0 0 1
-15.155331 -24.659467 26.964929 39.558574 1.019722 0.820787 0.030333 0.015443 -980201.000000 0 0 1
-16.106631 -24.733767 25.974969 39.317704 0.993578 0.849121 0.046048 0.001310 -370975.000000 0 0 1
-16.203531 -23.569267 25.144319 38.082825 0.968519 0.849640 0.033850 0.001618 2118.120000 0 0 1
-16.947231 -22.300667 25.660619 37.986784 0.920962 0.829134 0.039165 0.002445 -321049.000000 0 0 1
-16.650931 -21.137267 24.907569 36.666396 0.903568 0.823985 0.035624 0.002411 -321300.000000 0 0 1
-17.346831 -20.035567 25.282479 36.627043 0.857200 0.808937 0.032031 0.006460 -638954.000000 0 0 1
-17.100531 -18.786767 24.407239 35.229024 0.832351 0.805409 0.031775 -0.000820 41397.000000 0 0 1
-15.791131 -18.273067 24.594829 34.469848 0.858130 0.776291 0.046153 -0.008021 45950.700000 0 0 1
-15.577431 -17.260867 23.627749 33.149124 0.836618 0.777355 0.038772 -0.006332 -210491.000000 0 0 1
-14.248331 -16.498867 23.776099 32.257254 0.858463 0.742061 0.061312 -0.012059 82606.800000 0 0 1
-13.135531 -17.321967 23.393949 31.935397 0.921994 0.748751 0.046745 -0.011951 1006940.000000 0 0 1
-11.872231 -16.669667 23.624559 31.256159 0.951926 0.713865 0.050675 -0.017269 429842.000000 0 0 1
-11.275831 -15.841167 22.464849 29.711217 0.952191 0.713453 0.058226 -0.015423 -268469.000000 0 0 1
-10.844231 -16.634767 21.375949 29.176087 0.993085 0.748584 0.077392 -0.011015 800991.000000 0 0 1
-9.530231 -17.210467 21.567649 29.192276 1.065081 0.739488 0.072660 -0.004111 353072.000000 0 0 1
-9.220431 -18.398067 20.589249 29.110520 1.106219 0.785155 0.065351 -0.004617 -266615.000000 0 0 1
-8.946931 -17.980267 19.286949 27.844640 1.109073 0.805622 0.062796 -0.005325 61231.700000 0 0 1
-8.302531 -19.009567 18.508149 27.800130 1.159011 0.842288 0.047684 -0.002521 407214.000000 0 0 1
-8.023431 -18.744267 17.042649 26.573951 1.166348 0.874567 0.029350 -0.006831 -952120.000000 0 0 1
-6.956231 -17.964067 16.757649 25.532639 1.201347 0.854862 0.032092 -0.004553 -1332590.000000 0 0 1
-6.964731 -17.581867 15.405749 24.391938 1.193629 0.887192 0.047865 -0.014675 -99806.000000 0 1 0
-5.931431 -16.519467 15.081149 23.141213 1.226076 0.860972 0.031624 -0.016462 -67323.400000 0 1 0
-6.326031 -15.340867 15.759549 22.885023 1.179676 0.811184 0.035665 -0.020089 -436840.000000 0 1 0
-5.372831 -14.352467 15.636849 21.894558 1.212597 0.775332 0.028732 -0.019295 -540913.000000 0 1 0
-5.424731 -13.290567 16.686049 22.011159 1.183272 0.710444 0.009544 -0.002991 -281243.000000 0 1 0
-5.035231 -13.665567 18.016249 23.166495 1.217771 0.679821 0.026277 -0.001861 121018.000000 0 1 0
-5.816531 -14.664267 18.738949 24.495326 1.193184 0.699753 0.047528 -0.007418 690130.000000 0 1 0
-7.152631 -14.250467 19.434249 25.138138 1.105612 0.687085 0.086217 -0.018093 540075.000000 0 0 1
-6.943831 -13.331167 20.409949 25.347640 1.090591 0.634782 0.078507 -0.019862 -259092.000000 0 0 1
-8.127431 -12.967567 21.095049 26.061735 1.010939 0.627622 0.078167 -0.018160 233824.000000 0 0 1
-7.881031 -12.126067 22.360549 26.629801 0.994474 0.574100 0.070693 -0.003761 -295717.000000 0 0 1
-7.706231 -10.757367 22.015149 25.686061 0.949170 0.541211 0.058235 -0.002343 298942.000000 0 0 1
-7.197831 -9.900967 23.059949 26.107454 0.942190 0.488004 0.050548 -0.004509 1205800.000000 0 0 1
-5.701131 -9.991667 23.571429 26.228774 1.052284 0.454032 0.057475 -0.004640 1078300.000000 0 0 1
-5.429731 -11.150767 24.334019 27.312380 1.117653 0.471359 0.069715 -0.005119 -105943.000000 0 0 1
-4.080731 -11.249067 24.738119 27.480328 1.222798 0.450540 0.053442 -0.007087 -166345.000000 0 0 1
-3.781731 -12.489467 25.619149 28.751158 1.276779 0.471110 0.055876 -0.004350 16660.000000 0 0 1
-2.475731 -12.685767 26.163709 29.182145 1.378061 0.458843 0.034036 -0.005745 433611.000000 0 0 1
-2.332331 -13.938167 26.881209 30.369585 1.404998 0.484010 0.041368 -0.013177 28522.300000 0 0 1
-2.469031 -15.178267 25.989289 30.197998 1.409540 0.534292 0.036081 -0.025289 -102656.000000 0 0 1
-1.229831 -15.556267 25.428989 29.835271 1.491903 0.550405 0.033969 -0.024107 183240.000000 0 0 1
-1.466131 -16.852367 24.856299 30.066384 1.484016 0.597555 0.040882 -0.021212 172470.000000 0 0 1
-0.211731 -17.786767 24.969279 30.657443 1.558893 0.618997 0.046225 -0.027204 443069.000000 0 0 1
0.010869 -18.282067 26.274409 32.009040 -1.570202 0.607910 0.049757 -0.033072 -99090.100000 0 0 1
0.739469 -17.356467 27.025399 32.127340 -1.528217 0.571305 0.058122 -0.032342 -771554.000000 0 0 1
1.224269 -17.906467 28.364459 33.566098 -1.502532 0.564170 0.052515 -0.027109 -1497490.000000 0 0 1
2.132669 -18.963767 28.247419 34.089433 -1.458807 0.594146 0.058493 -0.031372 289094.000000 0 0 1
3.125269 -19.008467 29.297209 35.063023 -1.407840 0.581648 0.062495 -0.040586 1027610.000000 0 0 1
4.139569 -17.835667 29.454649 34.681745 -1.342739 0.556169 0.076234 -0.037098 -1216220.000000 0 0 1
3.510469 -16.631867 29.658139 34.184026 -1.362781 0.520436 0.056403 -0.038456 -588232.000000 0 0 1
4.386869 -15.665667 30.182629 34.287736 -1.297759 0.494355 0.066934 -0.043763 -420224.000000 0 0 1
3.560569 -14.556867 30.855149 34.301899 -1.330909 0.452133 0.071700 -0.038211 70357.300000 0 0 1
2.974569 -15.085467 32.016319 35.517095 -1.376113 0.447726 0.062581 -0.032541 -524025.000000 0 0 1
2.100469 -14.194067 32.608060 35.625400 -1.423880 0.414535 0.064071 -0.019092 -742896.000000 0 0 1
1.430569 -14.762767 33.863953 36.969625 -1.474194 0.412818 0.049331 -0.012569 316233.000000 0 0 1
2.246669 -14.927467 -33.610760 36.845081 -1.421412 2.719463 0.055308 -0.015055 -415297.000000 0 0 1
1.445669 -15.559067 -32.691580 36.234154 -1.478147 2.695712 0.066774 -0.016479 73434.000000 0 0 1
2.030869 -15.549067 -31.257360 34.970280 -1.440921 2.676603 0.056076 -0.005757 353179.000000 0 0 1
1.359269 -16.450367 -30.342060 34.541320 -1.488355 2.643359 0.071375 -0.004762 -85747.300000 0 0 1
1.754069 -16.336667 -29.023530 33.351593 -1.463836 2.626464 0.060233 -0.005675 -7073.290000 0 0 1
1.377369 -17.496667 -28.066950 33.102631 -1.492237 2.582764 0.075052 -0.007504 -223424.000000 0 0 1
2.089069 -18.633767 -28.403830 34.034674 -1.459151 2.558122 0.072174 -0.005849 -103399.000000 0 0 1
1.760069 -19.716767 -27.535250 33.912221 -1.481765 2.518293 0.087163 -0.000518 -545077.000000 0 0 1
2.602869 -21.023667 -27.826250 34.972413 -1.447617 2.490897 0.075340 -0.002488 -589230.000000 0 0 1
3.939169 -21.079967 -27.495540 34.869568 -1.386059 2.479204 0.066652 0.001024 -855518.000000 0 0 1
4.156269 -20.978467 -26.106550 33.747927 -1.375208 2.455260 0.071222 -0.007894 -1630660.000000 0 0 1
5.407769 -21.671067 -25.610840 33.982264 -1.326252 2.424399 0.053673 -0.007828 -814545.000000 0 0 1
5.529069 -23.100967 -25.687510 34.986761 -1.335872 2.395294 0.064772 -0.007687 54083.200000 0 0 1
5.868369 -23.581967 -26.952430 36.290225 -1.326900 2.407877 0.052680 -0.002154 -570964.000000 0 0 1
5.437369 -25.062607 -27.226080 37.402656 -1.357156 2.386077 0.047202 0.003713 42200.200000 0 0 1
5.950469 -26.053527 -26.359840 37.537122 -1.346254 2.349327 0.072549 -0.001616 -267152.000000 0 0 1
5.414169 -27.275797 -26.790210 38.613439 -1.374846 2.337556 0.057864 -0.004092 20626.200000 0 0 1
5.772569 -28.406397 -25.817320 38.817264 -1.370313 2.298423 0.064353 -0.010413 -610430.000000 0 0 1
7.115969 -28.746257 -25.870000 39.322274 -1.328130 2.288819 0.082039 -0.013020 -950877.000000 0 0 1
7.390869 -29.867967 -25.070050 39.689140 -1.328218 2.254489 0.083697 -0.014597 -373704.000000 0 0 1
8.848969 -30.323537 -25.191670 40.403482 -1.286862 2.244011 0.082393 -0.012560 -284324.000000 0 0 1
9.215169 -30.361657 -26.569540 41.384659 -1.276119 2.267919 0.086265 -0.020174 13146.800000 0 0 1
10.601169 -30.644907 -26.704660 42.007547 -1.237747 2.259726 0.092652 -0.015442 345189.000000 0 0 1
11.053169 -30.654857 -28.167650 43.073302 -1.224738 2.283586 0.098676 -0.032423 -238663.000000 0 0 1
10.478169 -31.646267 -28.932560 44.140359 -1.251055 2.285597 0.100946 -0.039224 -83871.900000 0 0 1
10.669169 -31.314657 -30.263700 44.836709 -1.242423 2.311728 0.087488 -0.016116 67444.700000 0 0 1
-34.538297 -4.778767 -5.967050 35.374232 0.137488 1.740290 0.127157 -0.038388 -63341.500000 0 0 1
-34.332707 -4.062567 -4.772350 34.900065 0.117782 1.707969 0.128688 -0.039554 335389.000000 0 0 1
-33.395921 -3.008667 -4.924350 33.890837 0.089848 1.716613 0.116930 -0.042489 -93379.900000 0 0 1
-33.937881 -1.684267 -5.486450 34.419728 0.049587 1.730878 0.120612 -0.030791 -182643.000000 0 0 1
-34.811686 -0.967767 -4.608150 35.128694 0.027793 1.702355 0.098253 -0.024090 490264.000000 0 0 1
-35.404244 0.145933 -5.180150 35.781500 -0.004122 1.716079 0.094960 -0.023081 -236719.000000 0 0 1
35.587790 0.970633 -4.136550 35.840535 0.027268 1.686470 0.111271 -0.016930 129889.000000 0 0 1
-35.313371 1.886233 -3.424750 35.529157 -0.053363 1.667339 0.088552 -0.012544 414067.000000 0 0 1
35.746074 2.749433 -2.538150 35.941388 0.076765 1.641474 0.098613 -0.018056 -408748.000000 0 0 1
-35.334114 4.098733 -2.250850 35.642188 -0.115483 1.633990 0.079302 -0.020547 -421929.000000 0 0 1
-35.335220 5.007733 -3.347250 35.844933 -0.140783 1.664314 0.084692 -0.020250 -121150.000000 0 0 1
-34.099741 5.024533 -3.986550 34.697707 -0.146295 1.685944 0.050474 -0.009982 -549882.000000 0 0 1
-33.084821 6.089633 -3.502950 33.822473 -0.182024 1.674551 0.027927 -0.013438 -252457.000000 0 0 1
-32.664801 6.053733 -2.148250 33.290417 -0.183250 1.635372 0.033923 -0.018665 516541.000000 0 0 1
-32.465761 7.363733 -1.640250 33.330776 -0.223042 1.620027 0.043329 -0.028391 -31464.900000 0 0 1
-31.946041 7.490133 -0.162950 32.812775 -0.230302 1.575762 0.047734 -0.022741 -615491.000000 0 0 1
-30.637321 7.093033 0.122750 31.447919 -0.227508 1.566893 0.050827 -0.017159 134328.000000 0 0 1
-30.035181 7.609733 1.336050 31.012984 -0.248139 1.527703 0.053966 -0.032300 252235.000000 0 0 1
-29.752391 9.126833 1.458450 31.154950 -0.297647 1.523966 0.057478 -0.034943 -539830.000000 0 0 1
-30.987631 9.797633 1.523950 32.535355 -0.306233 1.523939 0.046575 -0.029112 213375.000000 0 0 1
-30.791641 11.209033 1.562050 32.805603 -0.349117 1.523163 0.045480 -0.021411 -151159.000000 0 0 1
-32.099351 11.984333 1.359550 34.290537 -0.357324 1.531138 0.050043 -0.027534 -466077.000000 0 0 1
-32.668951 11.928133 0.050450 34.778489 -0.350082 1.569346 0.046954 -0.017789 312306.000000 0 0 1
-33.919891 12.551533 -0.030450 36.167678 -0.354410 1.571638 0.054284 -0.013113 58981.100000 0 0 1
-35.198498 11.739933 0.302650 37.105955 -0.321932 1.562640 0.062505 -0.031852 -140459.000000 0 0 1
-35.538778 10.814833 -0.713850 37.154743 -0.295407 1.590010 0.067771 -0.023971 -632130.000000 0 0 1
34.967310 10.276433 -0.433950 36.448678 0.285839 1.582702 0.083129 -0.032503 -568481.000000 0 0 1
34.502770 9.223633 -1.429350 35.742965 0.261222 1.610797 0.075046 -0.040193 128211.000000 0 0 1
34.045130 9.768833 -2.696050 35.521397 0.279430 1.646769 0.081849 -0.034259 300279.000000 0 0 1
33.836810 8.663233 -3.593050 35.112552 0.250646 1.673305 0.072527 -0.033533 96445.000000 0 0 1
33.134260 9.123633 -4.922950 34.718227 0.268695 1.713073 0.073564 -0.034540 1108920.000000 0 0 1
31.750960 9.511533 -4.798850 33.490620 0.291059 1.714581 0.096661 -0.031066 852994.000000 0 0 1
31.195870 9.624133 -6.048950 33.202349 0.299243 1.754004 0.087113 -0.025316 323181.000000 0 0 1
29.791980 10.315833 -6.093450 32.110880 0.333341 1.761717 0.083388 -0.017612 1148370.000000 0 0 1
28.656960 9.462833 -5.859450 30.742474 0.318938 1.762567 0.087305 -0.011614 941504.000000 0 0 1
27.412150 10.100233 -6.069750 29.837602 0.353023 1.775652 0.052648 -0.003122 210111.000000 0 0 1
26.303860 9.017933 -6.310650 28.513864 0.330279 1.793963 0.050171 0.003882 -21998.500000 0 0 1
26.477760 8.214033 -7.479750 28.713912 0.300810 1.834328 0.049427 -0.000371 -117170.000000 0 0 1
25.446960 7.288033 -7.549050 27.525467 0.278934 1.848613 0.041547 -0.001819 -347247.000000 0 0 1
25.643560 6.364033 -8.743850 27.830702 0.243258 1.890389 0.044515 -0.012033 -216534.000000 0 0 1
26.397160 5.207433 -8.413650 28.190724 0.194772 1.873869 0.071801 -0.021766 529271.000000 0 0 1
26.633060 4.505433 -9.650750 28.683719 0.167580 1.913945 0.048397 -0.016332 -179851.000000 0 0 1
27.680840 3.360433 -9.538850 29.470511 0.120808 1.900407 0.072110 -0.016290 574265.000000 0 0 1
29.048850 3.804433 -9.534650 30.809397 0.130226 1.885434 0.101164 -0.021928 1132730.000000 0 0 1
29.928710 3.206333 -8.612250 31.307812 0.106725 1.849472 0.090952 -0.024253 -44123.900000 0 0 1
30.141470 1.643233 -8.507550 31.362188 0.054463 1.845506 0.101113 -0.024714 -612700.000000 0 0 1
29.074620 1.013233 -7.818750 30.124624 0.034835 1.833349 0.099764 -0.026810 507177.000000 0 0 1
29.470820 -0.272667 -7.203050 30.339537 -0.009252 1.810500 0.092455 -0.024795 -73995.900000 0 0 1
29.241440 -1.570167 -8.002150 30.357233 -0.053645 1.837548 0.075831 -0.026035 -397543.000000 0 0 1
30.131630 -1.664567 -9.081450 31.514419 -0.055187 1.863110 0.092271 -0.032055 200809.000000 0 0 1
30.025390 -2.848167 -9.796550 31.711330 -0.094576 1.884863 0.061979 -0.027393 101574.000000 0 0 1
31.162840 -2.951567 -10.847550 33.128593 -0.094433 1.904387 0.060016 -0.025541 23199.500000 0 0 1
32.491360 -3.224267 -10.473550 34.289643 -0.098911 1.881201 0.084590 -0.033138 -193265.000000 0 0 1
33.275120 -3.513367 -11.571050 35.404329 -0.105196 1.903739 0.069789 -0.032723 -310140.000000 0 0 1
34.724650 -3.803967 -11.116250 36.658457 -0.109112 1.878886 0.080101 -0.032322 -223546.000000 0 0 1
34.796610 -5.006067 -10.314150 36.636682 -0.142886 1.856180 0.069058 -0.029527 -189134.000000 0 0 1
-35.647321 -5.307167 -9.934550 37.384393 0.147794 1.839768 0.082362 -0.028516 -624572.000000 0 0 1
-35.579141 -6.688267 -9.228850 37.360137 0.185814 1.820404 0.081153 -0.029194 -192427.000000 0 0 1
35.597320 -6.735367 -7.933350 37.087361 -0.186999 1.786372 0.087403 -0.025558 480754.000000 0 0 1
35.463820 -8.028267 -7.498950 37.126403 -0.222627 1.774180 0.082020 -0.019696 -365936.000000 0 0 1
35.087760 -8.082167 -6.014950 36.505505 -0.226393 1.736319 0.095434 -0.016725 -174110.000000 0 0 1
-35.613930 -7.807167 -5.085750 36.812616 0.215803 1.709392 0.099052 -0.015994 667544.000000 0 0 1
-35.804812 -8.585667 -3.912550 37.027102 0.235347 1.676661 0.110873 -0.020040 -88871.500000 0 0 1
-35.172944 -10.054267 -3.965450 36.796047 0.278427 1.678774 0.113657 -0.030311 -87514.300000 0 0 1
-35.798451 -10.913467 -4.907550 37.745422 0.295908 1.701183 0.090017 -0.022539 -71499.700000 0 0 1
-34.900972 -11.512467 -5.805350 37.206409 0.318622 1.727467 0.070808 -0.017603 -501135.000000 0 0 1
-35.480468 -12.303067 -6.970750 38.194508 0.333782 1.754332 0.068460 -0.017807 -192121.000000 0 0 1
-35.855743 -11.427167 -8.039450 38.481778 0.308522 1.781262 0.068509 -0.014730 84304.000000 0 0 1
35.210790 -12.093867 -9.051850 38.314453 -0.330846 1.809303 0.066027 -0.009350 -132429.000000 0 0 1
35.201770 -11.248867 -10.375650 38.384316 -0.309298 1.844511 0.039395 -0.019263 95782.400000 0 0 1
34.429850 -10.036267 -10.365650 37.330790 -0.283640 1.852164 0.041369 -0.015982 558890.000000 0 0 1
34.578010 -9.453867 -11.619050 37.683109 -0.266885 1.884239 0.042265 -0.014648 85601.000000 0 0 1
33.817980 -8.108967 -11.922050 36.763383 -0.235340 1.901059 0.046982 -0.016873 -126413.000000 0 0 1
34.010960 -7.703067 -13.265450 37.310250 -0.222730 1.934293 0.050158 -0.016422 -153287.000000 0 0 1
33.014540 -6.859167 -13.653450 36.378904 -0.204848 1.955530 0.047020 -0.021094 -765124.000000 0 0 1
33.378130 -6.154667 -14.960250 37.091624 -0.182344 1.985952 0.037318 -0.019048 119228.000000 0 0 1
34.305410 -5.076867 -14.859550 37.728529 -0.146924 1.975618 0.033609 -0.007284 422663.000000 0 0 1
33.814130 -3.905667 -15.426750 37.371570 -0.114994 1.996316 0.046700 -0.021741 -291835.000000 0 0 1
34.958610 -2.961967 -15.782950 38.470497 -0.084526 1.993537 0.052738 -0.027716 -904832.000000 0 0 1
35.711357 -3.310567 -16.892050 39.643438 -0.092439 2.010973 0.048666 -0.021211 145608.000000 0 0 1
-34.729069 -2.755667 -16.866250 38.706231 0.079182 2.021668 0.066514 -0.015178 324851.000000 0 0 1
-34.463394 -1.204067 -16.748350 38.336439 0.034923 2.022921 0.062927 -0.014524 -805711.000000 0 0 1
-34.917764 -0.394467 -17.853450 39.219275 0.011297 2.043417 0.058188 -0.018622 332226.000000 0 0 1
-34.652186 0.970433 -17.544450 38.852586 -0.027998 2.039314 0.064513 -0.020806 -20670.600000 0 0 1
-34.881925 2.112133 -18.594150 39.584747 -0.060477 2.059781 0.043393 -0.020044 -188208.000000 0 0 1
-33.864721 2.160633 -19.555950 39.165327 -0.063716 2.093608 0.049331 -0.011898 59783.600000 0 0 1
-34.001881 3.221433 -20.414050 39.789936 -0.094461 2.109525 0.036008 -0.006761 -454578.000000 0 0 1
-33.035991 3.317833 -21.598850 39.609280 -0.100095 2.147541 0.036705 0.007784 -761187.000000 0 0 1
-31.741621 3.684233 -21.240950 38.370328 -0.115552 2.157450 0.036296 0.011056 -228031.000000 0 0 1
-30.882651 4.054233 -22.321450 38.319996 -0.130532 2.192599 0.038760 0.015390 1198820.000000 0 0 1
-29.412471 4.413333 -21.892450 36.930344 -0.148939 2.205332 0.045250 0.014889 1334450.000000 0 0 1
-28.477251 3.350733 -21.673350 35.943224 -0.117125 2.218038 0.058780 0.020299 285065.000000 0 0 1
-27.214441 3.791833 -21.294350 34.762813 -0.138440 2.230093 0.040710 0.033357 -362661.000000 0 0 1
-26.253081 2.840433 -20.590750 33.485390 -0.107775 2.233078 0.043094 0.026851 22020.400000 0 0 1
-26.790201 2.450833 -19.338550 33.131571 -0.091229 2.194061 0.047855 0.023044 472733.000000 0 0 1
-25.922581 1.517533 -18.695350 31.996863 -0.058474 2.194798 0.047925 0.015010 111476.000000 0 0 1
-25.150881 2.151533 -17.529650 30.732467 -0.085337 2.177783 0.048411 0.008064 524970.000000 0 0 1
-24.127231 3.108433 -17.887050 30.194903 -0.128129 2.204814 0.048900 0.014863 135001.000000 0 0 1
-23.334131 3.429433 -16.815650 28.965648 -0.145926 2.190185 0.056099 0.002957 -576290.000000 0 0 1
-22.295431 4.497833 -17.191750 28.510928 -0.199066 2.218038 0.069850 -0.005662 -183256.000000 0 0 1
-21.135531 3.964533 -17.777050 27.900747 -0.185422 2.261595 0.080010 -0.012421 237.103000 0 0 1
-20.048331 4.874133 -17.746150 27.214309 -0.238492 2.281133 0.064303 -0.009471 340950.000000 0 0 1
-18.724431 4.222833 -18.239850 26.478836 -0.221814 2.330693 0.069165 -0.020354 -10586.000000 0 0 1
-18.341131 3.123433 -17.453750 25.510514 -0.168678 2.324273 0.082400 -0.023912 109178.000000 0 0 1
-17.369231 2.319533 -18.096150 25.190099 -0.132757 2.372272 0.055164 -0.018925 -371036.000000 0 0 1
-17.167831 1.001033 -17.347950 24.427195 -0.058243 2.360564 0.056320 -0.020424 831462.000000 0 1 0
-18.113631 -0.073867 -17.655250 25.294603 0.004078 2.343376 0.047498 -0.015263 1542480.000000 0 0 1
-19.496231 0.108333 -17.369950 26.111873 -0.005557 2.298575 0.056204 -0.019277 83880.400000 0 0 1
-20.529131 -0.946267 -17.761650 27.162784 0.046061 2.283520 0.054366 -0.017606 -250261.000000 0 0 1
-20.317731 -2.144767 -16.996250 26.575980 0.105172 2.264689 0.037615 -0.009446 623817.000000 0 0 1
-21.147631 -3.191867 -17.486750 27.626016 0.149802 2.256194 0.058112 -0.008143 27627.800000 0 0 1
-21.414731 -4.283167 -16.416350 27.320922 0.197405 2.215387 0.063010 -0.013785 -400887.000000 0 0 1
-22.046431 -3.733967 -15.306550 27.097566 0.167776 2.171070 0.061642 -0.020569 475330.000000 0 0 1
-22.612831 -4.751967 -14.429350 27.242016 0.207131 2.129011 0.071331 -0.024920 137218.000000 0 0 1
-22.878331 -4.141867 -13.040350 26.657528 0.179099 2.081947 0.059604 -0.027171 139054.000000 0 0 1
-23.978431 -3.239467 -12.980650 27.458270 0.134286 2.063195 0.066049 -0.024070 726571.000000 0 0 1
-24.032631 -2.648067 -11.693350 26.857290 0.109744 2.021266 0.063321 -0.026900 -840912.000000 0 0 1
-25.054351 -1.556767 -11.614150 27.659221 0.062056 2.004133 0.076919 -0.030598 -914036.000000 0 0 1
-25.155451 -1.152667 -10.299750 27.206805 0.045790 1.959050 0.078307 -0.034348 482537.000000 0 0 1
-25.661721 0.143033 -10.265050 27.639024 -0.005574 1.951309 0.089119 -0.032301 -578597.000000 0 0 1
-25.999061 0.523133 -8.818450 27.458877 -0.020119 1.897741 0.107114 -0.030399 -522707.000000 0 0 1
-24.878031 0.649233 -7.991950 26.138271 -0.026091 1.881529 0.080619 -0.027463 402049.000000 0 0 1
-25.293141 0.849733 -6.639850 26.163957 -0.033583 1.827381 0.082129 -0.030933 -104611.000000 0 0 1
-24.126831 1.207733 -5.702250 24.820924 -0.050016 1.802602 0.042069 -0.020696 -212617.000000 0 1 0
-23.729131 2.549533 -5.976950 24.602758 -0.107033 1.816190 0.057685 -0.021338 962091.000000 0 1 0
-22.503131 2.853133 -5.287450 23.291380 -0.126115 1.799806 0.050113 -0.014730 492592.000000 0 1 0
-22.034831 4.327533 -5.351050 23.084520 -0.193927 1.804727 0.059071 -0.019248 -65480.500000 0 1 0
-22.828931 5.223233 -4.560550 23.858769 -0.224927 1.763128 0.073515 -0.016803 633053.000000 0 1 0
-22.454431 6.561233 -4.739350 23.868655 -0.284288 1.770684 0.080279 -0.015960 -544495.000000 0 1 0
-22.920731 7.658733 -3.744150 24.454749 -0.322476 1.724506 0.073474 -0.011460 -172984.000000 0 1 0
-22.404731 7.578733 -2.386150 23.771893 -0.326182 1.671343 0.076424 -0.014714 1806240.000000 0 1 0
-20.984831 7.831033 -2.231950 22.509327 -0.357170 1.670116 0.082883 -0.016878 891492.000000 0 1 0
-20.440931 9.295533 -2.282150 22.570928 -0.426798 1.672080 0.069863 -0.016170 -532189.000000 0 1 0
-20.349831 9.728733 -3.621350 22.844650 -0.445954 1.729989 0.062120 -0.016805 388319.000000 0 1 0
-19.968631 11.076433 -3.784450 23.146396 -0.506438 1.735034 0.079253 -0.008877 -226024.000000 0 1 0
-19.936131 11.477033 -5.273050 23.600353 -0.522353 1.796129 0.093358 -0.015359 248598.000000 0 1 0
-18.843231 10.793433 -5.893350 22.501047 -0.520181 1.835802 0.072028 -0.013949 518951.000000 0 1 0
-18.848931 11.253233 -7.232750 23.113419 -0.538227 1.889067 0.073112 -0.012693 -128001.000000 0 1 0
-17.556131 11.046633 -8.052850 22.250713 -0.561627 1.941117 0.063442 -0.010210 -24263.800000 0 1 0
-17.168731 9.779933 -8.587550 21.544336 -0.517794 1.980785 0.052688 -0.008451 546393.000000 0 1 0
-18.115131 9.219233 -9.473450 22.425398 -0.470762 2.006935 0.061764 -0.004145 -270968.000000 0 1 0
-18.055031 9.862533 -10.893650 23.279289 -0.499958 2.057771 0.062730 -0.002844 -314823.000000 0 1 0
-16.853931 9.548933 -11.534550 22.545132 -0.515476 2.107866 0.049497 -0.006738 -73500.900000 0 1 0
-16.713031 10.355833 -12.669050 23.389603 -0.554726 2.143199 0.037164 -0.005644 151638.000000 0 1 0
-15.609431 9.807333 -13.610750 22.914856 -0.560966 2.206782 0.019616 0.004664 -561456.000000 0 1 0
-15.810831 8.654033 -14.415750 23.080046 -0.500805 2.245413 0.020773 -0.001368 47036.000000 0 1 0
-15.653431 7.424533 -13.717150 22.097823 -0.442883 2.240491 0.021703 -0.002950 -398887.000000 0 1 0
-15.724631 6.222833 -14.649950 22.374287 -0.376827 2.284671 0.028603 -0.001527 -145998.000000 0 1 0
-14.568031 5.969733 -15.432350 22.045922 -0.388912 2.346207 0.029044 -0.010844 674890.000000 0 1 0
-14.678531 4.718733 -16.048450 22.254853 -0.311037 2.376216 0.030096 -0.015116 -51237.500000 0 1 0
31.865290 -16.047767 28.047399 45.382641 -0.466534 0.904574 0.013292 0.013026 76611.700000 0 0 1
30.963160 -14.946367 28.212419 44.475294 -0.449724 0.883643 0.021117 0.006679 230528.000000 0 0 1
30.108010 -15.081767 29.352919 44.671532 -0.464385 0.853853 0.028570 0.000642 240749.000000 0 0 1
30.674370 -15.078267 30.834129 46.032756 -0.456872 0.836816 0.020555 -0.012143 -27333.300000 0 0 1
31.359820 -13.923667 31.285849 46.433944 -0.417851 0.831496 0.016972 -0.015515 101276.000000 0 0 1
31.304960 -13.791067 32.667845 47.300974 -0.414959 0.808426 0.013774 -0.021444 -186984.000000 0 0 1
31.880760 -12.439667 33.159091 47.651374 -0.372024 0.801168 0.018935 -0.024865 34809.300000 0 0 1
31.777880 -12.301967 -34.056760 48.177120 -0.369357 2.355912 0.003595 -0.034298 137526.000000 0 0 1
31.882910 -10.951267 -33.720390 47.681389 -0.330858 2.356330 0.032370 -0.027019 -241863.000000 0 0 1
31.557690 -10.550567 -32.249170 46.338010 -0.322644 2.340545 0.027997 -0.022358 654665.000000 0 0 1
30.163980 -10.709467 -31.970880 45.240419 -0.341159 2.355603 0.056506 -0.026022 623163.000000 0 0 1
29.749190 -9.946567 -30.849590 43.995973 -0.322663 2.347863 0.036728 -0.015283 373005.000000 0 0 1
28.242800 -10.075767 -30.461830 42.744589 -0.342680 2.364061 0.044476 -0.004207 524244.000000 0 0 1
28.079100 -10.089467 -29.023200 41.624264 -0.344956 2.342373 0.042521 -0.010844 117031.000000 0 0 1
26.992850 -10.934167 -28.687390 40.879534 -0.384875 2.348653 0.055306 -0.012110 -374812.000000 0 0 1
26.522860 -10.845867 -27.216910 39.520312 -0.388177 2.330465 0.056285 -0.009538 -1369390.000000 0 0 1
25.744860 -9.770967 -26.729040 38.375919 -0.362737 2.341312 0.050622 -0.016856 988887.000000 0 0 1
24.465160 -9.499067 -27.353970 37.907994 -0.370353 2.376890 0.057784 -0.021823 1126420.000000 0 0 1
23.429060 -10.654067 -27.134750 37.399527 -0.426786 2.382611 0.067276 -0.005639 -963132.000000 0 0 1
23.811260 -11.702167 -27.994900 38.569823 -0.456788 2.383028 0.066303 -0.013654 -452437.000000 0 0 1
23.195160 -12.905367 -27.674790 38.346550 -0.507730 2.377055 0.068587 -0.015313 366262.000000 0 0 1
24.076460 -14.095167 -28.247600 39.702349 -0.529640 2.362405 0.060145 -0.001595 588656.000000 0 0 1
24.110560 -14.005267 -29.691760 40.731649 -0.526240 2.387598 0.064940 -0.018043 69110.900000 0 0 1
25.015460 -14.970067 -30.179930 41.960747 -0.539266 2.373507 0.056678 -0.015748 -65057.200000 0 0 1
25.124960 -15.037267 -31.715030 43.165103 -0.539315 2.396076 0.073501 -0.029283 594756.000000 0 0 1
23.888260 -15.502667 -32.300650 43.061742 -0.575648 2.419011 0.071287 -0.020261 725196.000000 0 0 1
23.810860 -15.731267 -33.723840 44.178356 -0.583844 2.439290 0.066370 -0.017240 48537.500000 0 0 1
24.063160 -14.526967 33.931693 44.061641 -0.543137 0.691805 0.052540 -0.021041 476950.000000 0 0 1
22.965560 -13.614967 34.014537 43.240872 -0.535140 0.665466 0.056632 -0.019344 405343.000000 0 0 1
23.038060 -12.734067 32.961356 42.182457 -0.504945 0.673891 0.047304 -0.020676 -196772.000000 0 0 1
22.168860 -11.402467 33.079963 41.421716 -0.475059 0.645808 0.067787 -0.019416 1641770.000000 0 0 1
20.768260 -11.585867 32.756409 40.478825 -0.508861 0.627967 0.053947 -0.013191 1240260.000000 0 0 1
20.512260 -11.724967 31.356579 39.261466 -0.519281 0.645730 0.040702 -0.006805 -539957.000000 0 0 1
18.991860 -11.859467 31.131289 38.347032 -0.558204 0.623516 0.039477 -0.001177 64854.000000 0 0 1
18.093860 -10.853867 31.413279 37.841621 -0.540320 0.591464 0.038576 -0.007054 -121543.000000 0 0 1
17.193960 -11.100867 32.478389 38.388895 -0.573294 0.562291 0.029352 0.002395 180137.000000 0 0 1
16.215460 -9.960367 32.801859 37.922447 -0.550833 0.525702 0.040611 -0.005339 -525182.000000 0 0 1
15.170360 -9.817467 31.849039 36.618080 -0.574368 0.516075 0.038096 -0.007482 447614.000000 0 0 1
14.282560 -8.701067 32.107869 36.202422 -0.547163 0.480209 0.054797 -0.007908 715739.000000 0 0 1
13.337460 -8.830267 33.325975 36.965958 -0.584810 0.447500 0.059587 -0.009630 -1302590.000000 0 0 1
12.483260 -9.962067 33.273482 36.907982 -0.673541 0.447515 0.045295 0.000471 31230.800000 0 0 1
11.299860 -9.799867 33.997523 37.142372 -0.714427 0.414470 0.032250 0.000101 251996.000000 0 0 1
10.118860 -8.991867 33.382401 36.022628 -0.726495 0.385245 0.027453 0.000301 -341356.000000 0 0 1
10.494360 -7.603867 33.311597 35.743711 -0.627024 0.371023 0.045536 -0.000922 531297.000000 0 0 1
9.485660 -6.878567 32.619747 34.660357 -0.627409 0.344852 0.032094 0.009983 81308.000000 0 0 1
9.912160 -5.413267 32.462179 34.370735 -0.499862 0.334814 0.035160 0.017851 4400.380000 0 0 1
9.700260 -4.663267 33.646351 35.325884 -0.448118 0.309598 0.024105 0.007659 356485.000000 0 0 1
10.326560 -3.393567 33.549048 35.266028 -0.317507 0.313327 0.008005 0.011535 -270098.000000 0 0 1
10.155360 -2.546167 -33.770780 35.356469 -0.245658 2.840967 0.010622 -0.005210 85536.200000 0 0 1
8.817560 -2.086967 -33.693080 34.890234 -0.232406 2.878876 0.018978 0.009407 152983.000000 0 0 1
8.563660 -1.476167 -32.406630 33.551528 -0.170698 2.879603 0.019101 0.006783 -1194230.000000 0 0 1
7.116660 -1.181167 -32.211500 33.009434 -0.164473 2.921270 0.027612 0.007736 -1570230.000000 0 0 1
6.541760 -0.230467 -33.061530 33.703301 -0.035216 2.946132 0.044921 0.005646 -91443.400000 0 0 1
5.227060 0.033333 -32.620320 33.036473 0.006377 2.982701 0.055457 0.004415 -77364.700000 0 0 1
4.494860 1.144333 -33.370020 33.690822 0.249291 3.003483 0.054529 0.006495 -316293.000000 0 0 1
5.125860 2.375033 -33.181710 33.659190 0.433895 2.972955 0.043194 -0.000460 -232124.000000 0 0 1
4.756460 3.336733 -34.181398 34.671684 0.611743 2.973222 0.052034 -0.001693 89115.800000 0 0 1
5.701260 4.561933 34.249282 35.018980 0.674840 0.210050 0.038640 -0.004125 -67873.300000 0 0 1
5.257160 5.461933 33.287350 34.139686 0.804499 0.223923 0.062588 -0.022508 -261311.000000 0 0 1
6.215060 6.445833 33.060463 34.251569 0.803623 0.264494 0.061751 -0.024426 -346673.000000 0 0 1
5.754160 7.469533 31.983749 33.344632 0.914398 0.286682 0.072958 -0.025308 1089150.000000 0 0 1
4.574760 8.249333 32.400019 33.745239 1.064458 0.283308 0.067569 -0.021330 1181330.000000 0 0 1
4.376260 9.480533 31.772349 33.444197 1.138334 0.317526 0.059462 -0.028168 -38267.800000 0 0 1
3.912660 9.392833 30.272449 31.936741 1.176098 0.324256 0.067738 -0.027425 -477447.000000 0 0 1
2.632060 8.903733 30.027949 31.430589 1.283369 0.299875 0.074892 -0.029536 -686259.000000 0 0 1
2.469160 8.859033 28.601019 30.043261 1.298978 0.311110 0.067944 -0.019607 243455.000000 0 0 1
1.195560 8.116033 28.104899 29.277717 1.424540 0.284003 0.058780 -0.021608 805604.000000 0 0 1
-0.041840 8.711833 28.485609 29.788047 -1.565994 0.296803 0.059035 -0.019398 -330831.000000 0 0 1
-1.090640 8.225633 27.711539 28.927149 -1.438975 0.290932 0.046136 -0.015912 634164.000000 0 0 1
-2.494940 8.528133 28.355419 29.715040 -1.286185 0.303673 0.053269 -0.016321 597519.000000 0 0 1
-2.669840 9.829433 28.759059 30.509495 -1.305578 0.340384 0.058624 -0.019039 -535095.000000 0 0 1
-4.015340 10.020433 29.099289 31.037085 -1.189673 0.355234 0.049739 -0.013641 -432856.000000 0 0 1
-4.329540 11.318633 29.929909 32.290182 -1.205454 0.384718 0.045819 -0.010239 -189112.000000 0 0 1
-4.374240 12.534433 29.309289 32.175774 -1.235032 0.425308 0.039240 -0.014021 -663175.000000 0 0 1
-5.529540 12.800533 28.608209 31.825447 -1.163031 0.453521 0.040484 -0.011678 -841015.000000 0 0 1
-5.600140 14.229733 27.984939 31.890495 -1.195861 0.500105 0.020660 -0.009334 230721.000000 0 0 1
-4.804140 14.413133 26.808809 30.814452 -1.249061 0.515578 0.023799 -0.003018 -27492.000000 0 0 1
-5.132240 15.623033 26.259799 30.983804 -1.253398 0.559476 0.028776 -0.000793 97373.500000 0 0 1
-3.913040 16.331033 25.627449 30.639528 -1.335622 0.580082 0.034357 -0.002753 81613.900000 0 0 1
-3.700140 15.792333 24.300579 29.216553 -1.340648 0.588562 0.021436 -0.003158 -58759.500000 0 0 1
-2.669540 16.595933 23.753629 29.099594 -1.411307 0.615842 0.019591 -0.001999 109451.000000 0 0 1
-2.522540 16.415433 22.236149 27.753846 -1.418320 0.641512 0.017217 -0.000776 -107904.000000 0 0 1
-1.968740 15.190533 21.816349 26.656731 -1.441912 0.612144 0.008039 -0.003478 -250935.000000 0 0 1
-1.765140 15.343233 20.444949 25.622773 -1.456256 0.646958 0.003704 0.000201 -148743.000000 0 0 1
-0.923840 14.188733 19.900649 24.458321 -1.505777 0.620383 0.004930 -0.006463 -328871.000000 0 1 0
-1.569740 12.893433 19.930649 23.789398 -1.449645 0.577563 0.014548 -0.010075 -239727.000000 0 1 0
-0.815640 11.937633 19.236949 22.654637 -1.502577 0.556442 0.015095 -0.011030 -557305.000000 0 1 0
-1.570040 10.588433 19.025849 21.830320 -1.423590 0.512476 0.006981 -0.017913 -598920.000000 0 1 0
-1.613340 9.675833 20.117149 22.381338 -1.405577 0.453690 0.009100 -0.025201 -91996.700000 0 1 0
-2.394440 10.091833 21.207149 23.607660 -1.337839 0.454874 0.021477 -0.015237 -569152.000000 0 1 0
-3.915540 10.028533 21.062249 23.654202 -1.198558 0.472522 0.028370 -0.014205 -593110.000000 0 1 0
-4.541640 8.737233 21.095749 23.280816 -1.091432 0.436722 0.037599 -0.021115 21801.800000 0 1 0
-5.918940 8.991133 21.303049 23.868268 -0.988602 0.467881 0.043532 -0.009046 547483.000000 0 1 0
-6.910840 7.766433 21.254149 23.660432 -0.843626 0.454913 0.036148 -0.011441 409584.000000 0 1 0
-6.875040 6.916233 22.355549 24.389978 -0.788385 0.411336 0.041272 -0.016244 84322.200000 0 1 0
-7.797040 5.844333 22.252949 24.292876 -0.643218 0.412734 0.041453 -0.015304 254386.000000 0 1 0
-7.857840 5.007633 23.568479 25.343545 -0.567380 0.376493 0.027591 -0.012836 -228355.000000 0 0 1
-8.319040 5.719833 24.690349 26.674637 -0.602328 0.388148 0.023289 -0.009200 -137476.000000 0 0 1
-8.483840 4.768733 25.729639 27.508739 -0.512083 0.361617 0.023218 0.004384 -35532.800000 0 0 1
-9.490140 5.240433 26.792669 28.902803 -0.504529 0.384484 0.022269 0.003747 -226631.000000 0 0 1
-8.921340 6.202333 27.632739 29.692213 -0.607514 0.374640 0.019599 -0.001339 -244624.000000 0 0 1
-9.759140 6.519733 28.734419 31.038921 -0.588970 0.387770 0.018402 -0.007528 -120086.000000 0 0 1
-9.383140 7.774333 29.524629 31.940371 -0.691904 0.391423 0.038267 -0.008539 88612.100000 0 0 1
-8.169040 7.561533 30.222939 32.207702 -0.746798 0.352895 0.043850 -0.012609 157788.000000 0 0 1
-7.817440 8.727133 30.981649 33.123071 -0.840327 0.361550 0.046855 -0.016982 62726.600000 0 0 1
-6.713440 8.431233 32.015779 33.781150 -0.898341 0.324717 0.065714 -0.016966 160783.000000 0 0 1
-5.428140 8.362933 31.444429 32.987202 -0.995074 0.307044 0.062727 -0.022562 -77333.900000 0 0 1
-4.554940 7.459533 32.158749 33.325325 -1.022605 0.265375 0.071908 -0.018555 133806.000000 0 0 1
-3.069340 7.499533 31.812539 32.828364 -1.182323 0.249417 0.059736 -0.016781 -453580.000000 0 0 1
-2.645440 8.792933 32.151129 33.436644 -1.278551 0.278191 0.059862 -0.018879 -1318160.000000 0 0 1
-1.304640 9.004233 31.900539 33.172620 -1.426906 0.277831 0.061725 -0.024068 -892661.000000 0 0 1
-0.965340 10.469233 31.676719 33.375908 -1.478849 0.320464 0.060425 -0.026391 -134859.000000 0 0 1
-1.026940 11.312133 32.817486 34.727602 -1.480262 0.333210 0.059820 -0.035533 -258520.000000 0 0 1
-1.716440 12.467333 32.493059 34.845078 -1.433981 0.369520 0.055251 -0.034344 -399946.000000 0 0 1
-1.828740 13.478633 33.633370 36.279766 -1.435943 0.384314 0.051521 -0.030494 -518618.000000 0 0 1
-0.621840 14.173633 33.775571 36.634243 -1.526951 0.397666 0.094358 -0.032350 -487503.000000 0 0 1
-0.491840 14.761133 -33.591300 36.694801 -1.537489 2.727356 0.084216 -0.031498 -408082.000000 0 0 1
0.957460 15.067233 -33.235450 36.503882 1.507336 2.715200 0.071417 -0.023278 -787646.000000 0 0 1
1.630260 15.938033 -34.078840 37.656951 1.468863 2.702132 0.077165 -0.024856 -14899.600000 0 0 1
2.836760 16.354833 -33.471190 37.361054 1.399054 2.681214 0.066817 -0.017939 42992.500000 0 0 1
3.790260 17.188233 34.270142 38.525888 1.353755 0.474469 0.080481 -0.006410 -6325.600000 0 0 1
3.463160 18.580933 34.226927 39.098940 1.386528 0.504549 0.063695 -0.001275 -376545.000000 0 0 1
4.369060 19.225633 33.417547 38.800079 1.347340 0.533022 0.043708 0.015529 -290146.000000 0 0 1
4.095760 20.769333 33.300124 39.459330 1.376092 0.566266 0.049967 -0.001325 -92763.600000 0 0 1
4.039960 21.342033 -34.024720 40.366883 1.383714 2.573422 0.055899 -0.006244 277611.000000 0 0 1
3.617760 22.686033 -34.004090 41.036842 1.412657 2.547441 0.052006 -0.004600 -16599.500000 0 0 1
3.671760 23.231633 -32.554820 40.162257 1.414043 2.515942 0.056313 -0.016649 -171150.000000 0 0 1
3.403160 24.564033 -32.453710 40.843806 1.433130 2.489113 0.056904 -0.017831 146065.000000 0 0 1
3.381660 24.861833 -31.061610 39.929563 1.435608 2.462129 0.059784 -0.014610 99694.100000 0 0 1
2.637460 26.124633 -30.610190 40.329101 1.470180 2.432588 0.045043 -0.019900 -26935.900000 0 0 1
3.470460 27.198233 -30.926150 41.330554 1.443883 2.416237 0.050775 -0.023058 129518.000000 0 0 1
2.991160 28.411633 -30.310590 41.652128 1.465903 2.385771 0.046260 -0.027386 106876.000000 0 0 1
3.998960 29.596733 -30.182120 42.460790 1.436495 2.361464 0.054498 -0.031800 46820.100000 0 0 1
4.854260 29.498233 -29.071170 41.699431 1.407697 2.342225 0.067952 -0.042986 -102603.000000 0 0 1
5.567460 30.708733 -28.885610 42.525303 1.391446 2.317546 0.087820 -0.043649 -525957.000000 0 0 1
6.664760 30.673333 -27.830150 41.949847 1.356840 2.296170 0.092748 -0.049086 -419739.000000 0 0 1
7.833860 29.996233 -28.212350 41.917539 1.315341 2.309113 0.092829 -0.040708 -413163.000000 0 0 1
9.038660 30.647633 -28.456010 42.786906 1.284005 2.298375 0.098116 -0.046230 -162962.000000 0 0 1
9.081060 31.896933 -29.418620 44.332101 1.293435 2.296412 0.102628 -0.047253 -1004510.000000 0 0 1
8.633060 33.092633 -28.772550 44.693531 1.315608 2.270217 0.101761 -0.046360 159675.000000 0 0 1
8.358460 34.294933 -29.582470 46.055714 1.331734 2.268317 0.092206 -0.037418 1142080.000000 0 0 1
6.990160 34.269133 -30.411160 46.347324 1.369578 2.286512 0.069803 -0.020203 1051770.000000 0 0 1
6.962960 33.165633 -31.321520 46.146285 1.363857 2.316847 0.057837 -0.012186 -36903.700000 0 0 1
5.732860 33.086133 -32.016840 46.396508 1.399229 2.332382 0.045027 -0.006870 83914.800000 0 0 1
5.826960 32.308933 -33.355730 46.801980 1.392363 2.364135 0.042743 -0.019828 201710.000000 0 0 1
6.603760 32.995333 34.282549 48.037432 1.373264 0.776082 0.049880 -0.020933 213713.000000 0 0 1
6.559260 32.367733 33.030144 46.708505 1.370856 0.785330 0.036633 -0.020546 -640768.000000 0 0 1
5.771160 33.025833 31.925849 46.295483 1.397796 0.809845 0.028378 -0.018000 78622.500000 0 0 1
6.457660 34.122233 31.313219 46.760516 1.383758 0.837058 0.035237 -0.022845 234205.000000 0 0 1
5.647060 -34.193213 30.263139 46.010028 -1.407122 0.852967 0.020060 -0.029666 50904.600000 0 0 1
17.954869 -22.279267 29.304989 40.957606 -0.892468 0.773463 0.033290 0.000961 -803209.000000 0 0 1
17.075469 -21.190567 29.527669 40.155884 -0.892526 0.744649 0.016989 0.001479 1114410.000000 0 0 1
15.695669 -21.639667 29.488759 39.802213 -0.943279 0.736413 0.014769 0.003670 1231330.000000 0 0 1
15.119469 -22.010667 30.859019 40.808662 -0.968906 0.713329 0.027286 -0.001900 -831133.000000 0 0 1
15.732069 -23.130567 31.378359 42.037157 -0.973523 0.728095 0.041282 -0.006463 -13276.100000 0 0 1
15.211869 -23.462667 32.661076 42.995856 -0.995586 0.708048 0.057598 -0.011942 -226840.000000 0 0 1
16.056669 -24.533067 33.383638 44.431467 -0.991271 0.720689 0.069743 -0.011541 -14864.100000 0 0 1
15.876769 -25.890897 33.035237 44.874684 -1.020714 0.743408 0.062034 -0.018673 -331203.000000 0 0 1
16.632469 -26.708367 33.875838 46.233627 -1.013821 0.748501 0.065505 -0.016018 -265901.000000 0 0 1
16.477669 -28.244377 33.576551 46.868360 -1.042675 0.772166 0.052722 -0.014581 -237290.000000 0 0 1
17.140069 -28.723167 32.453449 46.605028 -1.032782 0.800496 0.043796 -0.021172 -324653.000000 0 0 1
16.767869 -30.022357 32.167339 47.087589 -1.061441 0.818745 0.042277 -0.017221 -553838.000000 0 0 1
17.571369 -30.826887 31.169819 47.229309 -1.052727 0.850021 0.045303 -0.021793 496810.000000 0 0 1
18.805869 -31.343677 31.716609 48.394525 -1.030385 0.856116 0.023894 -0.023047 813478.000000 0 0 1
19.540769 -31.992797 30.689379 48.448103 -1.022483 0.884795 0.011511 -0.015158 181362.000000 0 0 1
21.052069 -32.307537 30.856289 49.387014 -0.993287 0.895940 0.016405 -0.013097 163824.000000 0 0 1
21.843969 -31.159757 30.896429 49.017127 -0.959378 0.888832 0.014359 -0.013475 -732939.000000 0 0 1
23.076469 -31.365797 31.488249 50.078403 -0.936497 0.890814 -0.005558 -0.009884 -727087.000000 0 0 1
24.048469 -30.168877 31.332049 49.700979 -0.897809 0.888714 -0.004381 -0.004027 76631.000000 0 0 1
24.661669 -30.172837 30.064269 49.218475 -0.885567 0.913684 0.002319 -0.009431 -123070.000000 0 0 1
25.652469 -29.160177 29.933969 49.034759 -0.849306 0.914150 0.000542 -0.011710 -92419.800000 0 0 1
26.770669 -29.586927 28.965669 49.305831 -0.835328 0.942868 0.006646 -0.008810 30728.500000 0 0 1
27.549869 -30.658057 29.471139 50.670107 -0.838746 0.950068 0.008388 -0.008796 196463.000000 0 0 1
28.756469 -30.905977 28.770459 51.086723 -0.821410 0.972581 0.012593 -0.014246 468500.000000 0 0 1
29.638869 -32.011997 29.397509 52.606502 -0.823872 0.977835 -0.006247 -0.020672 8083.760000 0 0 1
29.185069 -33.327077 29.177389 53.045097 -0.851561 0.988374 -0.011135 -0.013859 112696.000000 0 0 1
30.132169 -34.215233 29.754099 54.442044 -0.848767 0.992584 -0.001616 -0.005015 -905552.000000 0 0 1
29.445569 33.458483 30.553569 54.037322 0.849106 0.969859 -0.012320 -0.002873 -79973.900000 0 0 1
28.598669 33.823378 31.699459 54.467977 0.868903 0.949631 0.003184 -0.007868 508421.000000 0 0 1
27.543369 -34.070175 31.435709 53.922331 -0.890936 0.948403 -0.010174 -0.000355 -1081680.000000 0 0 1
26.384069 34.241581 30.473779 52.889093 0.914287 0.956746 0.000027 -0.007038 -95586.900000 0 0 1
25.666969 33.117981 31.023059 52.134673 0.911476 0.933461 -0.000313 -0.008332 30564.900000 0 0 1
24.312069 33.107669 30.636819 51.242650 0.937397 0.929946 -0.012569 -0.006259 129963.000000 0 0 1
23.781269 31.663909 30.439019 49.946830 0.926622 0.915457 -0.001623 -0.011336 -330522.000000 0 0 1
24.011569 31.046729 29.198059 48.918110 0.912486 0.931194 -0.004534 -0.015267 74586.900000 0 0 1
23.675269 29.682529 29.199969 47.897903 0.897511 0.915203 0.019826 -0.035688 -905609.000000 0 0 1
22.946969 29.178129 27.974729 46.481309 0.904376 0.924982 0.027238 -0.036327 -538400.000000 0 0 1
21.652769 29.725749 27.919119 46.172933 0.941251 0.921452 0.036854 -0.038271 -131432.000000 0 0 1
20.992569 29.190689 26.766249 44.824283 0.947331 0.930869 0.051533 -0.037928 906565.000000 0 0 1
19.625869 29.912609 26.453899 44.494356 0.990140 0.934097 0.064021 -0.040300 907564.000000 0 0 1
19.892769 31.281069 26.055949 45.311588 1.004371 0.958144 0.063261 -0.043982 -318100.000000 0 0 1
18.678869 31.889209 25.751549 45.044024 1.040926 0.962223 0.053509 -0.043752 -771187.000000 0 0 1
18.823769 33.233845 24.963759 45.629070 1.055446 0.991898 0.048964 -0.035055 -275775.000000 0 0 1
19.341169 33.199166 23.661589 45.123566 1.043284 1.018817 0.054298 -0.031135 580984.000000 0 0 1
20.721469 33.580908 23.645569 46.001843 1.017926 1.030939 0.051280 -0.024317 466216.000000 0 0 1
21.302569 33.754920 22.225649 45.685594 1.007826 1.062727 0.053618 -0.026022 -75351.700000 0 0 1
20.977369 -33.759877 21.553649 45.214368 -1.014812 1.073900 0.061601 -0.014531 537278.000000 0 0 1
21.635269 -33.822167 20.268149 44.975790 -1.001712 1.103308 0.072562 -0.014609 224924.000000 0 0 1
21.203169 -32.721777 19.318749 43.514401 -0.995840 1.110781 0.052801 -0.010556 -135850.000000 0 0 1
21.466269 -31.419137 19.818549 42.903820 -0.971419 1.090627 0.054195 -0.003485 -87002.900000 0 0 1
20.866669 -30.398717 19.095849 41.522901 -0.969234 1.092928 0.066341 -0.014087 -333838.000000 0 0 1
21.668969 -29.836967 17.892049 40.986757 -0.942672 1.119055 0.056068 -0.017917 -255785.000000 0 0 1
21.652169 -30.667897 16.702849 41.089190 -0.956041 1.152174 0.042819 -0.006302 216916.000000 0 0 1
21.904269 -29.904197 15.590549 40.213471 -0.938602 1.172667 0.044328 0.000108 -197467.000000 0 0 1
21.607669 -30.614927 14.232749 40.084115 -0.956196 1.207805 0.051235 -0.022943 -164704.000000 0 0 1
22.581069 -31.543147 13.792249 41.171603 -0.949493 1.229197 0.051796 -0.010406 76343.200000 0 0 1
22.539769 -31.808127 12.371649 40.900560 -0.954311 1.263502 0.050870 -0.020393 628753.000000 0 0 1
21.154069 -32.105807 11.659649 40.177418 -0.988200 1.276356 0.048582 -0.010239 1397770.000000 0 0 1
20.397869 -33.296737 12.067249 40.870090 -1.021157 1.271070 0.056896 -0.016270 951950.000000 0 0 1
19.045269 -33.182807 11.635549 39.990086 -1.049752 1.275565 0.068180 -0.014459 848087.000000 0 0 1
17.965869 -33.720767 12.635749 40.243319 -1.081267 1.251410 0.059212 -0.008798 233458.000000 0 0 1
17.911669 -32.989317 13.867049 40.017721 -1.073379 1.216935 0.055423 -0.000172 312149.000000 0 0 1
18.436269 -33.795637 14.951649 41.298824 -1.071397 1.200346 0.032528 -0.006879 -459792.000000 0 0 1
18.489769 -33.052177 16.343649 41.248428 -1.060756 1.163395 0.045512 -0.013127 -619147.000000 0 0 1
17.328569 -32.637557 16.988049 40.670422 -1.082705 1.139884 0.053648 -0.010426 -494610.000000 0 0 1
16.441069 -33.658317 17.419749 41.311484 -1.116415 1.135512 0.043807 -0.006340 -183435.000000 0 0 1
16.800569 34.333633 18.763149 42.580667 1.115719 1.114474 0.031293 -0.018303 10791.700000 0 0 1
17.832169 33.384324 18.562749 42.155367 1.080205 1.114818 0.021680 -0.016151 142967.000000 0 0 1
18.305069 32.830685 19.824749 42.496472 1.062168 1.085463 0.027724 -0.023645 524728.000000 0 0 1
19.041069 31.459109 19.597049 41.668719 1.026515 1.081159 0.044373 -0.020344 148898.000000 0 0 1
18.139869 30.460069 19.182949 40.309505 1.033670 1.074819 0.041210 -0.022945 -468456.000000 0 0 1
18.864069 29.300789 18.963449 39.673691 0.998787 1.072436 0.040484 -0.025560 -821561.000000 0 0 1
18.113369 28.061149 18.568349 38.213948 0.997594 1.063398 0.045680 -0.026124 -832587.000000 0 0 1
17.570469 27.507119 19.728149 38.138732 1.002363 1.027134 0.054767 -0.027088 -291699.000000 0 0 1
17.122169 26.178389 19.548149 36.886405 0.991574 1.012248 0.045376 -0.024732 -661462.000000 0 0 1
16.974969 25.376489 20.858549 36.975598 0.981232 0.971433 0.049498 -0.026079 118327.000000 0 0 1
15.799769 25.629509 21.610449 37.060976 1.018356 0.948251 0.055926 -0.024393 345826.000000 0 0 1
14.732269 24.748769 21.215449 35.772009 1.033860 0.935925 0.047971 -0.020643 -425150.000000 0 0 1
13.481069 24.993109 22.033549 35.942621 1.076134 0.910919 0.041347 -0.035341 -865298.000000 0 0 1
12.801569 26.094379 21.495549 36.150455 1.114707 0.934011 0.041689 -0.035650 -49664.600000 0 0 1
11.539369 26.241749 22.171749 36.240487 1.156513 0.912468 0.021683 -0.032059 130865.000000 0 0 1
10.777569 27.218179 21.317649 36.213636 1.193769 0.941392 0.010400 -0.028234 -540545.000000 0 0 1
11.294769 28.537199 21.486649 37.464912 1.193924 0.960007 0.010448 -0.028081 -36068.000000 0 0 1
10.952969 29.362079 20.358749 37.370816 1.213753 0.994674 0.020063 -0.026417 154592.000000 0 0 1
11.479069 30.823449 20.467149 38.739621 1.214295 1.014169 0.022896 -0.027241 462966.000000 0 0 1
10.796069 31.523089 21.532349 39.672438 1.240835 0.997084 0.024932 -0.020192 -37052.200000 0 0 1
11.415269 31.249509 22.763349 40.311416 1.220562 0.970742 0.017749 -0.021344 -154064.000000 0 0 1
10.896669 32.095989 23.988029 41.524878 1.243504 0.954915 0.003559 -0.018823 566627.000000 0 0 1
9.590769 31.770379 24.462939 41.228330 1.277618 0.935579 0.005731 -0.014909 -4068.630000 0 0 1
9.349669 32.625069 25.539729 42.474571 1.291697 0.925676 -0.000002 -0.011906 -762064.000000 0 0 1
7.989169 32.507359 26.292129 42.565611 1.329808 0.905001 0.045553 -0.023772 160286.000000 0 0 1
6.914169 33.206895 25.675689 42.541093 1.365514 0.922850 0.047927 -0.025644 254169.000000 0 0 1
6.405769 32.639119 24.484949 41.302042 1.376999 0.936232 0.044853 -0.030930 -517489.000000 0 0 1
5.442869 31.412669 24.582129 40.257442 1.399230 0.913949 0.047620 -0.033502 -51268.300000 0 0 1
6.095169 30.229619 25.064039 39.738986 1.371835 0.888320 0.019043 -0.022249 -397313.000000 0 0 1
5.441169 29.003879 24.793529 38.542839 1.385350 0.872032 0.026403 -0.018995 -516507.000000 0 0 1
6.407869 27.793919 24.990189 37.921923 1.344206 0.851320 0.008500 -0.019621 1110040.000000 0 0 1
7.501269 27.655849 24.032289 37.398743 1.305933 0.872914 -0.006177 -0.014482 1617060.000000 0 0 1
8.553169 28.636239 24.064909 38.370702 1.280548 0.892883 0.002430 -0.017115 612013.000000 0 0 1
9.718669 28.455469 25.138269 39.193097 1.241678 0.874481 0.001712 -0.024126 260964.000000 0 0 1
9.344469 28.519399 26.507789 40.041705 1.254167 0.847306 -0.002705 -0.019928 -129485.000000 0 0 1
10.469369 28.269099 27.309539 40.676290 1.216111 0.834717 0.002588 -0.021067 194883.000000 0 0 1
11.413269 29.497099 27.531509 41.932393 1.201609 0.854535 0.003826 -0.024695 74011.400000 0 0 1
10.788169 30.567559 28.218069 42.976967 1.231515 0.854513 0.004759 -0.022833 236555.000000 0 0 1
11.685469 31.657709 28.237969 44.001632 1.217191 0.874021 -0.000784 -0.011819 -330705.000000 0 0 1
11.147469 32.909320 28.952649 45.227705 1.244194 0.876099 0.006252 -0.010393 -396137.000000 0 0 1
11.084369 32.884505 30.390389 46.128404 1.245687 0.851545 0.023645 -0.023657 -157881.000000 0 0 1
10.034669 32.098399 30.886619 45.661637 1.267800 0.827900 0.027470 -0.018448 -556771.000000 0 0 1
10.062269 31.735919 32.396899 46.454030 1.263760 0.799037 0.058198 -0.024266 -157386.000000 0 0 1
10.898369 30.655959 32.822674 46.215692 1.229225 0.781005 0.034891 -0.020468 394170.000000 0 0 1
11.077869 30.514089 34.200123 47.153762 1.222551 0.759342 0.062085 -0.019243 -225030.000000 0 0 1
11.068469 29.047889 -33.822950 45.937815 1.206739 2.398348 0.065357 -0.017499 96592.700000 0 0 1
12.162669 28.263779 -34.290532 46.071817 1.164422 2.410259 0.059564 -0.011810 164381.000000 0 0 1
11.984269 26.884519 -33.919400 44.910197 1.151467 2.426865 0.054118 -0.018885 442457.000000 0 0 1
13.307069 26.054749 -33.983490 44.842007 1.098598 2.430807 0.061683 -0.018872 254317.000000 0 0 1
13.109969 24.644239 -33.892460 43.907957 1.081902 2.452617 0.036464 -0.014203 -289915.000000 0 0 1
13.096169 24.143689 -32.568670 42.604526 1.073787 2.440971 0.032164 -0.006960 -210268.000000 0 0 1
13.229169 22.626779 -32.543000 41.785511 1.041726 2.463564 0.026786 -0.026043 -191535.000000 0 0 1
14.455269 22.218579 -33.102110 42.407190 0.994004 2.466386 0.013042 -0.008759 15476.000000 0 0 1
14.411369 20.803479 -33.452260 41.946704 0.964961 2.493927 0.010418 -0.007509 826354.000000 0 0 1
15.816969 20.416179 -34.030250 42.720660 0.911657 2.492406 0.023546 -0.017303 1258060.000000 0 0 1
16.931969 20.469879 -33.148280 42.479595 0.879709 2.465996 0.023433 -0.020968 -358830.000000 0 0 1
18.083269 19.880079 -33.610830 43.033825 0.832693 2.467114 0.037833 -0.022253 -930012.000000 0 0 1
19.226069 19.928079 -32.594550 42.768853 0.803326 2.437361 0.024419 -0.013119 -525007.000000 0 0 1
19.825169 21.196179 -32.524800 43.591031 0.818808 2.413034 0.015002 -0.009390 277084.000000 0 0 1
20.747569 21.373779 -31.433900 43.305775 0.800264 2.383079 0.003310 -0.000971 610295.000000 0 0 1
20.045669 21.776179 -30.055620 42.182593 0.826753 2.363869 0.000153 -0.002860 484925.000000 0 0 1
19.467669 23.090579 -30.002330 42.571173 0.870322 2.352877 -0.003633 0.001375 21842.000000 0 0 1
18.995069 23.431879 -28.735770 41.660654 0.889595 2.331951 -0.006828 0.017624 -528890.000000 0 0 1
20.060969 23.912879 -27.708390 41.737551 0.872771 2.296781 -0.009937 0.014327 -16786.000000 0 0 1
20.822569 25.069839 -28.101680 43.032321 0.877684 2.282383 -0.005249 0.008350 144884.000000 0 0 1
20.128769 26.291829 -27.987110 43.355576 0.917392 2.272507 -0.005994 0.009120 -260572.000000 0 0 1
20.868769 27.500459 -28.662000 44.869711 0.921654 2.263712 -0.009182 0.009483 -659794.000000 0 0 1
20.793369 27.458079 -30.073820 45.724665 0.922654 2.288578 -0.006816 0.006098 17780.200000 0 0 1
21.451269 26.462829 -30.854680 45.961392 0.889614 2.306781 0.000057 0.001978 -278574.000000 0 0 1
22.898269 26.018179 -30.502250 46.169943 0.849092 2.292483 0.017794 -0.003805 -437889.000000 0 0 1
23.825369 27.026349 -30.827590 47.417424 0.848263 2.278555 0.012834 -0.008457 -423726.000000 0 0 1
25.088369 26.601169 -30.343880 47.516308 0.814657 2.263473 0.037503 -0.020613 -10274.700000 0 0 1
26.196069 27.560179 -30.858090 48.969574 0.810769 2.252540 0.037831 -0.011953 -167015.000000 0 0 1
26.256369 28.813979 -30.173270 49.295725 0.831807 2.229493 0.026440 -0.007163 26979.400000 0 0 1
27.319769 29.542129 -30.749290 50.642137 0.824462 2.223313 0.026690 -0.010751 52356.000000 0 0 1
27.568169 30.883969 -30.027700 51.141825 0.842064 2.198324 0.021977 0.000615 120008.000000 0 0 1
28.206969 30.609119 -28.773420 50.600998 0.826217 2.175640 0.040045 -0.007841 417439.000000 0 0 1
27.628469 31.400819 -27.723680 50.179141 0.849218 2.156150 0.023085 -0.002552 -111261.000000 0 0 1
28.278469 31.126729 -26.336410 49.620072 0.833308 2.130295 0.041133 -0.000230 -150081.000000 0 0 1
28.033269 29.844419 -25.726020 48.356816 0.816681 2.131762 0.040739 0.004734 228656.000000 0 0 1
26.677769 29.479349 -25.504000 47.235468 0.835245 2.141154 0.038118 0.003063 99823.100000 0 0 1
26.183469 29.572249 -24.016350 46.226367 0.846103 2.117106 0.040669 0.004766 -99605.400000 0 0 1
26.219669 30.895409 -23.523250 46.854462 0.867081 2.096763 0.036362 0.005436 285925.000000 0 0 1
25.632269 30.909649 -22.234150 45.899641 0.878464 2.076483 0.042422 0.009032 30226.300000 0 0 1
3.108869 -26.504477 -19.513950 33.059743 -1.454034 2.202181 0.039844 -0.000147 -230618.000000 0 0 1
3.157069 -27.734247 -18.747250 33.624618 -1.457451 2.162222 0.035787 0.002512 210011.000000 0 0 1
2.783969 -27.505087 -17.374350 32.651927 -1.469923 2.131885 0.032396 -0.001967 -63012.500000 0 0 1
2.901669 -28.817677 -16.510450 33.338763 -1.470444 2.088899 0.027463 0.003787 -102869.000000 0 0 1
4.177369 -29.029027 -15.962950 33.390876 -1.427874 2.069245 0.019757 -0.000115 -286020.000000 0 0 1
4.136669 -30.087447 -15.001550 33.873485 -1.434165 2.029594 0.017749 0.004600 -252885.000000 0 0 1
5.539369 -30.595817 -14.668750 34.379658 -1.391687 2.011603 0.031785 0.001282 -105246.000000 0 0 1
6.418969 -29.554537 -14.252550 33.433651 -1.356927 2.011188 0.019350 0.006880 -186222.000000 0 0 1
7.768269 -29.910227 -14.056050 33.949083 -1.316691 1.997677 0.023023 0.008546 142766.000000 0 0 1
8.169869 -30.690807 -12.781350 34.235001 -1.310630 1.953405 0.022724 0.006668 -797167.000000 0 0 1
8.305369 -29.950117 -11.539350 33.153360 -1.300287 1.926297 0.020331 0.006082 -158463.000000 0 0 1
8.448369 -30.766047 -10.357650 33.544083 -1.302802 1.884704 0.030701 0.012190 161180.000000 0 0 1
9.681969 -31.687797 -10.099950 34.639082 -1.274262 1.866671 0.033119 0.005020 21043.000000 0 0 1
10.783969 -30.983777 -9.579750 34.176893 -1.235858 1.854902 0.017359 0.007149 -936130.000000 0 0 1
11.828469 -31.887477 -9.480950 35.307397 -1.215586 1.842659 0.022623 0.001309 -553802.000000 0 0 1
13.088769 -31.336087 -8.799650 35.081335 -1.175134 1.824340 0.031753 -0.003226 -21052.700000 0 0 1
13.958969 -30.452257 -9.480950 34.814956 -1.140988 1.846604 0.029488 -0.010729 335647.000000 0 0 1
15.022469 -29.987337 -8.666250 34.641288 -1.106381 1.823653 0.031867 -0.013975 735712.000000 0 0 1
16.225769 -29.397237 -9.497250 34.895141 -1.066458 1.846439 0.053702 -0.026692 477465.000000 0 0 1
16.119269 -28.083597 -9.867750 33.851023 -1.049733 1.866596 0.049305 -0.029012 245586.000000 0 0 1
15.189969 -27.834027 -10.927750 33.539289 -1.071234 1.902675 0.036292 -0.021693 84979.500000 0 0 1
15.068269 -26.355487 -11.300250 32.393828 -1.051422 1.927129 0.032242 -0.014854 -920720.000000 0 0 1
14.326569 -25.675077 -10.303250 31.154729 -1.061836 1.907855 0.024140 -0.018204 264244.000000 0 0 1
13.858169 -24.374667 -10.595150 29.973829 -1.053824 1.932085 -0.001650 -0.005184 502605.000000 0 0 1
13.050569 -24.075667 -11.923350 29.868401 -1.074066 1.981436 -0.002011 0.001050 413518.000000 0 0 1
13.905569 -23.806267 -13.027950 30.493125 -1.042140 2.012237 0.004041 -0.005063 73827.500000 0 0 1
13.180969 -24.027267 -14.214550 30.872333 -1.069041 2.049276 0.011824 -0.005491 71027.000000 0 0 1
13.860069 -23.478067 -15.466050 31.345173 -1.037509 2.086803 0.027376 -0.008966 -838735.000000 0 0 1
15.008269 -24.144067 -15.812150 32.530112 -1.014636 2.078392 0.031387 -0.017489 -867938.000000 0 0 1
15.367669 -23.675767 -17.088950 32.996051 -0.995062 2.115201 0.034984 -0.020375 -548994.000000 0 0 1
16.400969 -24.629967 -17.764450 34.513805 -0.983328 2.111461 0.033726 -0.020868 487779.000000 0 0 1
17.657169 -24.739867 -17.134350 34.891583 -0.950926 2.084119 0.049884 -0.020999 -264614.000000 0 0 1
18.575169 -23.705967 -17.361750 34.762626 -0.906157 2.093745 0.057973 -0.024673 -469376.000000 0 0 1
19.958669 -23.989267 -16.730850 35.408399 -0.876855 2.062934 0.051636 -0.019296 235275.000000 0 0 1
20.647669 -25.027467 -17.433950 36.832634 -0.880996 2.063862 0.066825 -0.015080 -558230.000000 0 0 1
21.889069 -25.337177 -16.873450 37.494229 -0.858281 2.037593 0.081749 -0.008955 -145355.000000 0 0 1
22.603469 -26.429207 -17.696950 39.020531 -0.863265 2.041518 0.069004 -0.005347 -300980.000000 0 0 1
23.344569 -25.939397 -18.779050 39.629206 -0.838000 2.064475 0.064473 -0.003990 -355636.000000 0 0 1
23.713469 -26.979547 -19.596350 40.917496 -0.849738 2.070224 0.054822 -0.008834 -47641.600000 0 0 1
24.900269 -26.646677 -20.542950 41.857874 -0.819265 2.083780 0.034170 0.000241 316135.000000 0 0 1
24.535369 -25.559777 -21.463650 41.424326 -0.805845 2.115473 0.029105 0.002930 37155.300000 0 0 1
25.315069 -24.433167 -21.235750 41.094883 -0.767673 2.113846 0.034395 -0.003476 -259805.000000 0 0 1
24.543869 -23.109667 -21.618150 40.047505 -0.755311 2.141011 0.042238 0.003340 67420.000000 0 0 1
24.521669 -22.688067 -23.015150 40.567940 -0.746578 2.174048 0.032885 0.011591 266513.000000 0 0 1
23.807869 -23.523167 -23.946050 41.152975 -0.779383 2.191833 0.010772 0.002689 -203242.000000 0 0 1
23.044469 -22.737067 -25.014150 40.911239 -0.778684 2.228656 0.009027 0.003797 218492.000000 0 0 1
23.891369 -21.898367 -25.827340 41.441374 -0.741901 2.243657 0.008692 0.011716 540577.000000 0 0 1
23.100469 -20.836967 -26.382710 40.790419 -0.733927 2.274160 0.006572 0.016922 6188.330000 0 0 1
23.702169 -20.128667 -27.639940 41.604355 -0.704049 2.297423 0.009448 0.014857 176784.000000 0 0 1
22.800869 -19.224167 -28.293870 41.109504 -0.700494 2.329879 0.017534 0.009600 292628.000000 0 0 1
23.343369 -18.855867 -29.537120 42.105796 -0.679455 2.348293 0.027655 0.002738 17370.000000 0 0 1
22.610269 -17.833767 -30.512210 41.955482 -0.667841 2.385106 0.058939 -0.001984 -51490.100000 0 0 1
21.371469 -18.305467 -30.996910 41.864522 -0.708277 2.404476 0.048209 -0.002050 406313.000000 0 0 1
20.514869 -17.215567 -31.439350 41.299738 -0.698176 2.436032 0.051508 -0.000606 133152.000000 0 0 1
19.234769 -17.843067 -31.981320 41.366124 -0.747881 2.454555 0.034342 0.005011 -370306.000000 0 0 1
19.472169 -18.316167 -33.270770 42.680106 -0.754816 2.464724 0.037789 0.002251 -21323.000000 0 0 1
18.264969 -18.895267 -33.657900 42.702394 -0.802358 2.478670 0.031896 -0.001391 -478292.000000 0 0 1
18.351669 -19.680367 33.638723 43.077422 -0.820320 0.674707 0.051699 -0.006978 -297517.000000 0 0 1
19.149269 -20.825367 33.831188 44.101471 -0.827303 0.696454 0.045341 -0.005206 90825.600000 0 0 1
19.208869 -21.639867 32.660489 43.634528 -0.844840 0.724998 0.030851 -0.007924 -58423.500000 0 0 1
20.102569 -22.870867 32.899257 44.828015 -0.849728 0.746751 0.024890 -0.001449 -196233.000000 0 0 1
19.602369 -23.868167 33.741036 45.742757 -0.883216 0.741249 0.034939 -0.001753 -69566.700000 0 0 1
19.670669 -23.595867 -33.455990 45.420297 -0.875872 2.398806 0.039164 -0.010183 -364520.000000 0 0 1
18.858169 -24.577667 -32.615100 44.982630 -0.916322 2.381918 0.045955 -0.011247 -360698.000000 0 0 1
19.321169 -25.919837 -32.552220 45.878018 -0.930233 2.359639 0.042518 -0.013012 136824.000000 0 0 1
20.345969 -26.176957 -31.596580 45.798858 -0.910084 2.332146 0.021938 -0.006839 146909.000000 0 0 1
20.600969 -27.653827 -31.411840 46.645876 -0.930529 2.309609 0.013216 -0.013929 667127.000000 0 0 1
19.468869 -28.453507 -30.981900 46.352099 -0.970730 2.302856 0.012958 -0.012726 668117.000000 0 0 1
19.818469 -29.821547 -30.902370 47.297493 -0.984248 2.282813 0.009848 -0.015399 -11810.400000 0 0 1
18.615569 -30.609837 -30.286260 46.912249 -1.024401 2.272597 0.029963 -0.020186 1025570.000000 0 0 1
17.399869 -30.795827 -30.978110 47.018950 -1.056504 2.290076 0.046853 -0.025053 253344.000000 0 0 1
17.624369 -31.455287 -32.221020 48.355430 -1.060080 2.300082 0.046215 -0.024574 -1236250.000000 0 0 1
16.393869 -32.148827 -32.773180 48.748203 -1.099231 2.308101 0.060715 -0.026933 448229.000000 0 0 1
15.317169 -31.294027 -33.265340 48.171720 -1.115616 2.333056 0.076424 -0.025007 -145534.000000 0 0 1
14.158269 -32.035757 -33.356140 48.367121 -1.154655 2.331795 0.066262 -0.020866 -489508.000000 0 0 1
13.122569 -31.196117 -34.197816 48.113305 -1.172618 2.361398 0.066438 -0.014910 468709.000000 0 0 1
12.397669 -30.148217 -33.548480 46.777320 -1.180652 2.370566 0.071507 -0.016009 273148.000000 0 0 1
11.449869 -29.597347 34.162106 46.627802 -1.201673 0.748581 0.061074 -0.007714 -291956.000000 0 0 1
10.528669 -28.540597 -33.922690 45.564980 -1.217383 2.410568 0.068575 -0.022900 -414570.000000 0 0 1
9.616269 -29.044837 -32.988700 44.992550 -1.251072 2.393818 0.061725 -0.012293 -270816.000000 0 0 1
8.641969 -28.093117 -32.647070 43.928784 -1.272365 2.408610 0.057003 -0.012780 1216970.000000 0 0 1
7.400869 -28.528857 -31.703280 43.287025 -1.316974 2.392632 0.044207 -0.016005 1489190.000000 0 0 1
6.419669 -29.325667 -32.345840 44.130038 -1.355286 2.393469 0.047675 -0.019908 21214.000000 0 0 1
6.786369 -30.666857 -32.649610 45.304613 -1.353013 2.375563 0.044799 -0.015823 247515.000000 0 0 1
5.483869 -31.475237 -32.966510 45.908105 -1.398300 2.371862 0.066757 -0.025147 864210.000000 0 0 1
4.655469 -31.737327 -31.836110 45.193686 -1.425148 2.352426 0.072329 -0.035651 596495.000000 0 0 1
3.589969 -32.629647 -32.216580 45.994454 -1.461215 2.346817 0.069127 -0.044418 -285136.000000 0 0 1
2.621769 -32.954717 -31.082500 45.376303 -1.491407 2.325392 0.055252 -0.045185 168355.000000 0 0 1
1.723369 -31.929727 -30.622980 44.274647 -1.516875 2.334581 0.033117 -0.045355 259235.000000 0 0 1
0.486669 -32.018337 -31.318210 44.791082 -1.555598 2.345083 0.013056 -0.012642 -140753.000000 0 0 1
-0.366331 -30.762517 -30.924490 43.620990 1.558889 2.358785 0.008611 -0.012596 -336151.000000 0 0 1
-1.076531 -30.877727 -29.735810 42.881364 1.535946 2.337054 -0.010379 -0.018076 -353133.000000 0 0 1
-1.683431 -29.669757 -29.430010 41.824083 1.514118 2.351334 0.011836 -0.015555 111159.000000 0 0 1
-2.497431 -29.657927 -28.076080 40.915719 1.486787 2.327039 0.014805 -0.012437 157517.000000 0 0 1
-1.698231 -30.023747 -26.935850 40.371393 1.514294 2.301242 0.013787 -0.012975 377617.000000 0 0 1
-2.415531 -29.908347 -25.697770 39.505941 1.490207 2.279011 0.021874 -0.016725 233865.000000 0 0 1
-1.514431 -30.429897 -24.559650 39.133726 1.521069 2.249241 0.013430 -0.008753 128817.000000 0 0 1
-2.097431 -30.415677 -23.296150 38.369561 1.501946 2.223268 0.027648 -0.014922 96147.100000 0 0 1
-1.151131 -30.885347 -22.317250 38.122033 1.533542 2.196189 0.017257 -0.004366 368684.000000 0 0 1
-1.733531 -30.857237 -20.895450 37.306756 1.514676 2.165301 0.005061 0.010759 -345983.000000 0 0 1
-1.829931 -29.527507 -20.358450 35.912237 1.508902 2.173528 -0.006726 0.003504 -151614.000000 0 0 1
-0.576531 -28.979407 -20.028050 35.231537 1.550904 2.175441 0.010642 -0.000269 -378795.000000 0 0 1
-0.521231 -27.593397 -19.368750 33.716698 1.551909 2.182735 0.024474 -0.008995 -248024.000000 0 0 1
-1.082131 -27.648507 -18.063150 33.043734 1.531677 2.149147 0.017542 -0.010623 101220.000000 0 0 1
-0.983631 -26.423857 -17.358350 31.630682 1.533588 2.151703 0.022635 -0.008145 58265.900000 0 0 1
-1.739231 -26.439507 -16.002350 30.953960 1.505109 2.114107 0.020707 -0.005991 -94593.300000 0 0 1
-1.920831 -25.127557 -15.584150 29.630212 1.494501 2.124634 0.026628 -0.001823 509181.000000 0 0 1
-2.829031 -25.068967 -14.456250 29.076446 1.458422 2.091143 0.019100 -0.001415 438306.000000 0 0 1
-2.655531 -23.772767 -13.640750 27.536637 1.459553 2.089054 0.026998 -0.004417 601827.000000 0 0 1
-1.503231 -23.763167 -12.770350 27.019061 1.507622 2.063083 0.028307 -0.001727 451121.000000 0 0 1
-1.391131 -22.694567 -11.885750 25.656377 1.509575 2.052474 0.027840 0.001714 -38532.800000 0 0 1
-0.120131 -22.844267 -11.042250 25.373337 1.565538 2.021047 0.017687 0.001802 -5554.210000 0 0 1
0.240969 -21.581767 -10.531850 24.015632 -1.559631 2.024771 0.010810 0.009668 1069340.000000 0 1 0
1.526769 -21.634467 -9.835950 23.814430 -1.500342 1.996569 0.009114 0.010197 1504740.000000 0 1 0
2.224769 -20.293367 -9.593950 22.556911 -1.461602 2.010114 0.014116 0.016005 -1129030.000000 0 1 0
2.696569 -19.648867 -10.744850 22.556623 -1.434410 2.067295 0.005806 0.024347 -241344.000000 0 1 0
3.500769 -18.532367 -10.553850 21.612213 -1.384096 2.080969 -0.000517 0.026834 -128763.000000 0 1 0
4.864669 -18.757067 -9.890450 21.755771 -1.317036 2.042734 0.011321 0.008284 -1018630.000000 0 1 0
4.832669 -19.046667 -8.539250 21.425429 -1.322312 1.980739 0.010898 0.002259 -339577.000000 0 1 0
5.851569 -19.946367 -8.145450 22.325921 -1.285438 1.944260 0.015910 0.006528 -116522.000000 0 1 0
5.370869 -20.881767 -7.043950 22.682849 -1.319049 1.886558 0.022469 -0.005899 91099.100000 0 1 0
4.509069 -21.915867 -7.508950 23.601298 -1.367883 1.894583 0.013789 -0.002426 101707.000000 0 1 0
4.228569 -22.987567 -6.621250 24.293003 -1.388880 1.846847 0.032686 -0.007423 -92219.200000 0 1 0
3.444069 -24.057267 -7.433750 25.414058 -1.428601 1.867642 0.028230 0.003139 192329.000000 0 0 1
4.167969 -24.832667 -8.408650 26.546915 -1.404504 1.893094 0.027286 0.001873 106148.000000 0 0 1
3.329669 -25.405787 -9.406650 27.295160 -1.440480 1.922638 0.021271 0.007062 273997.000000 0 0 1
4.143669 -26.365407 -10.299650 28.607472 -1.414908 1.939100 0.005859 0.005670 67997.800000 0 0 1
4.193469 -27.654797 -9.852450 29.655417 -1.420307 1.909464 0.024275 0.002878 -209091.000000 0 0 1
5.006269 -28.437037 -10.710550 30.796813 -1.396534 1.926000 0.044378 0.011519 176460.000000 0 0 1
4.697169 -29.941957 -10.645450 32.123353 -1.415189 1.908576 0.035130 0.004178 65109.400000 0 0 1
3.500769 -30.358077 -11.276250 32.573333 -1.455988 1.924293 0.032174 0.004808 -72995.300000 0 0 1
3.390969 -31.796627 -11.209050 33.884612 -1.464552 1.907948 0.034802 0.008240 938578.000000 0 0 1
1.987669 -32.450167 -11.558050 34.504386 -1.509620 1.912373 0.023079 0.001914 882625.000000 0 0 1
1.606569 -32.325247 -12.890350 34.837678 -1.521137 1.949818 0.020211 0.002322 9547.200000 0 0 1
0.864769 -33.413207 -13.366350 35.997910 -1.544921 1.951215 0.013834 0.001230 -335556.000000 0 0 1
0.525869 -33.408147 -14.876650 36.574520 -1.555057 1.989689 0.018203 0.004310 393596.000000 0 0 1
-0.437831 -32.417747 -15.255550 35.830627 1.557291 2.010607 0.013977 0.010691 200704.000000 0 0 1
-0.663331 -32.538347 -16.638450 36.551635 1.550413 2.043398 -0.005993 0.002511 -175697.000000 0 0 1
-1.574731 -31.364877 -17.041750 35.730331 1.520632 2.067983 -0.005522 0.006513 1132200.000000 0 0 1
-2.880731 -31.497157 -16.414650 35.634397 1.479590 2.049513 0.001571 0.001906 603265.000000 0 0 1
-3.835831 -30.764207 -17.138650 35.424333 1.446752 2.075799 0.004580 0.005819 888712.000000 0 0 1
-5.303231 -30.957817 -16.602950 35.527013 1.401138 2.057068 0.012779 0.003981 934670.000000 0 0 1
-5.668231 -30.223107 -15.402750 34.392001 1.385404 2.035165 0.010089 0.000990 1017220.000000 0 0 1
-7.081231 -30.076407 -15.135850 34.406802 1.339566 2.026293 0.025125 -0.001560 1182420.000000 0 0 1
-7.653631 -31.039337 -14.095950 34.938722 1.329041 1.986078 0.027269 -0.010618 -37756.300000 0 0 1
-7.795931 -32.347167 -14.635150 36.349737 1.334298 1.985174 0.034086 -0.003869 -159813.000000 0 0 1
-8.505831 -33.242897 -13.814950 36.990434 1.320301 1.953547 0.040145 -0.007462 -78589.800000 0 0 1
-8.553431 34.057943 -14.452850 37.973537 -1.324742 1.961245 0.068739 -0.009861 133204.000000 0 0 1
-7.432131 33.192080 -14.447750 36.955219 -1.350517 1.972463 0.062953 -0.008760 -352131.000000 0 0 1
-7.768031 32.100399 -15.255950 36.380241 -1.333369 2.003522 0.070459 -0.022489 -282847.000000 0 0 1
-7.396531 -22.605967 -3.462150 24.035908 1.254582 1.715340 0.049895 0.004772 199316.000000 0 1 0
-7.340631 -21.368767 -4.203150 22.982070 1.239905 1.754720 0.035133 -0.000028 -677022.000000 0 1 0
-6.150131 -21.359267 -4.912250 22.763405 1.290443 1.788303 0.027271 0.000627 -520670.000000 0 1 0
-5.976131 -20.175167 -5.913050 21.856708 1.282818 1.844747 0.017109 -0.004766 -60916.400000 0 1 0
-6.752731 -20.383167 -7.035850 22.595930 1.250886 1.887438 0.017994 -0.009061 -667045.000000 0 1 0
-6.890331 -19.189267 -7.775950 21.821320 1.226062 1.935151 0.013553 -0.015849 -338827.000000 0 1 0
-7.674431 -19.495467 -9.069450 22.830354 1.195774 1.979319 0.015926 -0.022421 139661.000000 0 1 0
-7.092931 -20.244667 -10.127350 23.721708 1.233800 2.011884 0.014945 -0.015852 -462545.000000 0 1 0
-8.108631 -20.549667 -11.042250 24.697571 1.194965 2.034315 0.042716 -0.017333 114877.000000 0 1 0
-7.591731 -21.371367 -12.286050 25.793734 1.229471 2.067260 0.037533 -0.020983 -211610.000000 0 0 1
-6.729431 -20.745667 -13.173250 25.479452 1.257127 2.114156 0.037222 -0.018644 -420136.000000 0 0 1
-6.435231 -21.628267 -14.266950 26.697191 1.281600 2.134593 0.029965 -0.013651 -631132.000000 0 0 1
-5.432931 -21.078167 -15.252450 26.578997 1.318535 2.182000 0.026006 -0.003093 1177800.000000 0 0 1
-4.108331 -21.084367 -14.579150 25.961135 1.378356 2.167086 0.015508 -0.002730 1431330.000000 0 0 1
-3.070231 -20.437667 -15.264150 25.692778 1.421687 2.206946 0.016137 0.005109 -114716.000000 0 0 1
-3.035531 -18.867467 -15.305750 24.483908 1.411276 2.246101 0.025067 0.005920 -648767.000000 0 1 0
-3.982031 -18.167267 -16.096950 24.597113 1.355021 2.284217 0.027571 0.001169 -94944.000000 0 1 0
-3.871731 -18.307267 -17.477850 25.605108 1.362381 2.322100 0.048296 -0.006121 -439540.000000 0 0 1
-5.243531 -17.995967 -18.144050 26.087468 1.287273 2.339923 0.036539 -0.003057 442938.000000 0 0 1
-6.253331 -18.882067 -17.691250 26.619860 1.250987 2.297739 0.032692 -0.000157 23215.500000 0 0 1
-7.527831 -18.525967 -18.219650 27.052455 1.184837 2.309721 0.028098 -0.010058 397146.000000 0 0 1
-8.589231 -19.543967 -17.701250 27.732216 1.156723 2.263074 0.045919 -0.016448 77983.400000 0 0 1
-8.351831 -20.826167 -18.198650 28.890711 1.189406 2.252238 0.044316 -0.008951 -340608.000000 0 0 1
-9.271831 -21.664567 -17.623750 29.426466 1.166411 2.212933 0.054194 -0.018683 -506775.000000 0 0 1
-8.954831 -23.150567 -17.844350 30.570551 1.201714 2.194087 0.052392 -0.019809 -566062.000000 0 0 1
-9.040231 -23.509067 -19.204650 31.673658 1.203686 2.222232 0.035422 -0.024391 664857.000000 0 0 1
-8.169531 -24.587967 -19.648050 32.516999 1.250015 2.219607 0.058128 -0.033170 1216600.000000 0 0 1
-6.629231 -24.292767 -19.643550 31.936723 1.304394 2.233280 0.061937 -0.032726 130672.000000 0 0 1
-6.196731 -23.226667 -20.514350 31.602470 1.310075 2.277246 0.056137 -0.030971 123381.000000 0 0 1
-5.897531 -21.951667 -19.981950 30.264416 1.308334 2.291942 0.043427 -0.024642 829997.000000 0 0 1
-4.717331 -21.849167 -18.886850 29.263500 1.358156 2.272352 0.056270 -0.017136 1443080.000000 0 0 1
-3.423731 -22.093767 -19.452050 29.635093 1.417056 2.286814 0.054189 -0.019868 1164030.000000 0 0 1
-2.414231 -22.262967 -18.421750 28.997053 1.462777 2.259190 0.036497 -0.009107 1278220.000000 0 0 1
-1.095731 -23.001967 -18.817850 29.738907 1.523196 2.255920 0.044945 -0.006840 71446.000000 0 0 1
-0.338931 -22.310567 -19.686950 29.756550 1.555606 2.293748 0.059230 -0.007280 -751355.000000 0 0 1
0.944869 -22.894567 -19.845450 30.313295 -1.529549 2.284553 0.050385 -0.010901 846079.000000 0 0 1
1.862969 -22.111067 -20.858550 30.454048 -1.486740 2.325289 0.068342 -0.009247 474847.000000 0 0 1
1.384169 -22.208767 -22.180850 31.418710 -1.508552 2.354596 0.070580 -0.013318 -101095.000000 0 0 1
1.101569 -21.034967 -22.871850 31.093485 -1.518476 2.397324 0.076435 -0.012628 -103306.000000 0 0 1
0.376669 -21.320467 -24.204550 32.257781 -1.553131 2.419384 0.078000 -0.015142 281228.000000 0 0 1
-0.201331 -20.245167 -24.989150 32.161544 1.560852 2.460664 0.069470 -0.010716 721379.000000 0 0 1
-1.513731 -19.876967 -24.545550 31.620709 1.494788 2.459491 0.067513 -0.020911 463227.000000 0 0 1
-2.024231 -18.733567 -25.470810 31.682901 1.463160 2.504669 0.060864 -0.016228 167736.000000 0 0 1
-1.250231 -17.579867 -25.189780 30.743126 1.499799 2.531095 0.072294 -0.012725 293462.000000 0 0 1
-1.848031 -16.396667 -25.707400 30.547280 1.458562 2.570963 0.062138 -0.008504 170590.000000 0 0 1
-1.064831 -15.124067 -25.277580 29.475877 1.500506 2.601320 0.052108 -0.005191 644319.000000 0 0 1
0.136369 -14.913867 -26.034980 30.004370 -1.561653 2.621365 0.059622 -0.011150 102421.000000 0 0 1
0.839469 -13.763267 -25.691550 29.157983 -1.509878 2.649012 0.055821 -0.009017 284914.000000 0 0 1
0.100569 -12.455567 -26.127230 28.944488 -1.562722 2.696723 0.047747 -0.003583 -74673.400000 0 0 1
0.752069 -11.336667 -25.585020 27.994265 -1.504554 2.723680 0.041934 -0.005187 -60751.000000 0 0 1
0.524269 -10.171067 -26.329010 28.230165 -1.519297 2.772500 0.036963 -0.000008 -979159.000000 0 0 1
1.427969 -8.978467 -25.887730 27.437684 -1.413074 2.803865 0.045802 -0.012043 2079690.000000 0 0 1
2.860869 -9.082167 -26.203230 27.879734 -1.265637 2.793036 0.044614 -0.018887 1584170.000000 0 0 1
3.120469 -9.248767 -27.613570 29.287988 -1.245397 2.801816 0.040914 -0.017381 -1033150.000000 0 0 1
4.554169 -9.043667 -28.128810 29.895791 -1.104292 2.796060 0.043093 -0.012506 -206679.000000 0 0 1
4.874569 -7.671967 -28.209330 29.637591 -1.004772 2.829878 0.037370 -0.016675 990859.000000 0 0 1
6.192069 -7.330467 -28.697160 30.258957 -0.869385 2.818902 0.040439 -0.010850 746344.000000 0 0 1
7.349069 -7.301067 -27.660910 29.537101 -0.782122 2.783252 0.051753 -0.016461 293552.000000 0 0 1
7.963869 -8.566867 -27.274160 29.676493 -0.821859 2.736458 0.041404 -0.019752 591100.000000 0 0 1
8.865569 -9.148067 -28.205320 30.948756 -0.801079 2.717362 0.054677 -0.021665 -214094.000000 0 0 1
9.260269 -10.548267 -27.785390 31.129510 -0.850329 2.673818 0.036789 -0.022871 -55056.200000 0 0 1
8.115969 -11.368667 -27.747130 31.064751 -0.950809 2.675215 0.048048 -0.025861 26579.800000 0 0 1
8.283269 -12.605767 -27.038720 30.961432 -0.989445 2.632738 0.045382 -0.023482 -347361.000000 0 0 1
9.240769 -13.631367 -27.666200 32.196655 -0.975054 2.604672 0.049585 -0.030474 -212828.000000 0 0 1
8.751769 -14.254267 -28.850810 33.348865 -1.020164 2.616188 0.063363 -0.037052 -55066.500000 0 0 1
9.465169 -15.467067 -29.132250 34.314830 -1.021632 2.584829 0.052878 -0.034648 210245.000000 0 0 1
8.756669 -16.249167 -30.266810 35.451297 -1.076515 2.593956 0.045249 -0.029780 -23876.600000 0 0 1
8.465269 -15.458067 -31.372750 35.984192 -1.069776 2.629759 0.042045 -0.029780 225563.000000 0 0 1
7.757269 -16.259567 -32.310360 36.993352 -1.125645 2.632957 0.053114 -0.024947 263747.000000 0 0 1
6.541769 -15.461467 -32.922360 36.955832 -1.170535 2.670024 0.046728 -0.019409 369404.000000 0 0 1
6.895769 -14.422867 -33.770240 37.363081 -1.124811 2.699457 0.055595 -0.021916 -319199.000000 0 0 1
5.783669 -13.794967 34.268425 37.390867 -1.173798 0.411575 0.036445 -0.025350 -208160.000000 0 0 1
6.083169 -12.508367 33.446133 36.223031 -1.118146 0.394109 0.060270 -0.023833 -57490.100000 0 0 1
6.741469 -12.688567 32.157549 35.221515 -1.082421 0.420197 0.061233 -0.025757 339440.000000 0 0 1
7.057569 -11.417367 31.661709 34.389379 -1.017143 0.400970 0.049949 -0.025525 -160456.000000 0 0 1
7.567669 -11.571767 30.226369 33.238664 -0.991630 0.429020 0.033665 -0.018636 5620.850000 0 0 1
6.557169 -11.995067 29.344899 32.372847 -1.070525 0.435957 0.049400 -0.017045 301289.000000 0 0 1
7.111769 -11.982667 28.051729 31.321895 -1.035166 0.461030 0.037598 -0.021902 -7121.770000 0 0 1
6.217869 -12.694167 27.024309 30.497821 -1.115325 0.481921 0.041495 -0.033592 33568.700000 0 0 1
6.080469 -14.055167 27.199589 31.214379 -1.162494 0.512788 0.045746 -0.028785 -195592.000000 0 0 1
5.508769 -14.749867 26.138419 30.514293 -1.213360 0.542160 0.022717 -0.024076 -467145.000000 0 0 1
4.021169 -15.111767 26.158949 30.476646 -1.310728 0.538795 0.025785 -0.032366 -157971.000000 0 0 1
3.218569 -14.008867 25.711089 29.456199 -1.344963 0.509767 0.016343 -0.033385 -62545.700000 0 0 1
2.039469 -14.495167 25.098459 29.055154 -1.431014 0.527990 0.015361 -0.023402 118907.000000 0 0 1
1.040269 -13.357067 24.755089 28.147963 -1.493072 0.496064 0.016619 -0.022355 -535110.000000 0 0 1
1.427169 -12.481667 23.698779 26.822769 -1.456950 0.487446 0.000143 -0.006053 620249.000000 0 0 1
0.438269 -11.450867 23.367649 26.026169 -1.532541 0.455930 0.012714 0.008099 1445350.000000 0 0 1
-0.958731 -11.916367 22.845249 25.784189 1.490514 0.482112 0.021134 0.008728 -14764.200000 0 0 1
-0.911431 -12.589167 21.589149 25.008183 1.498524 0.529057 0.016051 0.005705 -448166.000000 0 0 1
-2.211431 -12.786767 21.111949 24.781167 1.399543 0.551126 0.037042 -0.007103 -30232.000000 0 1 0
-2.185531 -13.423267 19.713149 23.949298 1.409396 0.603913 0.048206 -0.011727 -11313.400000 0 1 0
-1.536331 -14.680767 19.693949 24.611722 1.466527 0.643191 0.051663 -0.011654 -224035.000000 0 1 0
-1.776531 -15.410467 18.527449 24.164125 1.456022 0.697059 0.054621 -0.009849 666787.000000 0 1 0
-2.792231 -16.598567 18.794749 25.229974 1.404135 0.730355 0.047529 -0.012108 443484.000000 0 0 1
-2.671631 -17.623767 17.776549 25.174203 1.420349 0.786762 0.034017 -0.009266 -178645.000000 0 0 1
-3.738731 -18.554867 17.738649 25.940718 1.371963 0.817818 0.041973 -0.001055 52263.900000 0 0 1
-3.409231 -19.830567 16.955349 26.312699 1.400543 0.870585 0.044344 -0.007778 275806.000000 0 0 1
-2.450031 -20.579667 17.686949 27.246165 1.452303 0.864325 0.054331 -0.007607 -184700.000000 0 0 1
-2.365431 -21.917067 17.247949 27.990085 1.463286 0.906867 0.053559 -0.025706 -289565.000000 0 0 1
-1.331631 -22.790167 17.963349 29.049042 1.512433 0.904117 0.074976 -0.011899 597363.000000 0 0 1
-0.000531 -22.583867 17.501949 28.571827 1.570773 0.911501 0.063161 -0.014741 223353.000000 0 0 1
0.990269 -23.288667 18.247349 29.602507 -1.528300 0.906618 0.058610 -0.007590 507560.000000 0 0 1
2.415969 -23.214767 17.676049 29.278064 -1.467099 0.922624 0.061881 -0.010112 -153511.000000 0 0 1
2.916369 -21.931467 17.656549 28.306328 -1.438595 0.897243 0.065915 -0.015960 -559386.000000 0 0 1
4.057269 -21.877867 16.819149 27.892405 -1.387429 0.923539 0.058790 -0.014082 74791.300000 0 0 1
4.941869 -20.695767 17.218149 27.371545 -1.336399 0.890462 0.051215 -0.009690 -164052.000000 0 0 1
5.698669 -20.804067 18.455049 28.387900 -1.303434 0.863077 0.045498 0.002700 533142.000000 0 0 1
6.340869 -19.596467 18.970849 28.002165 -1.257857 0.826468 0.049564 0.003943 1043950.000000 0 0 1
7.449269 -18.845267 18.142849 27.199240 -1.194360 0.840574 0.043550 -0.000710 -2949.470000 0 0 1
6.912069 -18.261267 16.977849 25.874658 -1.208952 0.855081 0.028986 -0.003312 -363852.000000 0 0 1
7.814769 -17.461967 16.245449 25.097919 -1.149998 0.866782 0.043803 -0.005802 -503109.000000 0 0 1
7.258869 -16.437467 15.258549 23.573392 -1.154946 0.866788 0.035129 -0.001426 -526863.000000 0 1 0
6.660169 -17.069367 14.187049 23.173120 -1.198782 0.911931 0.037398 -0.006318 -131410.000000 0 1 0
6.169369 -16.188667 13.211249 21.786949 -1.206696 0.919292 0.034604 -0.013829 -497.051000 0 1 0
6.486769 -16.513167 11.687849 21.245439 -1.196491 0.988271 0.040025 -0.012603 201185.000000 0 1 0
7.798369 -16.041367 11.438349 21.189050 -1.118297 1.000569 0.036274 -0.010985 -177497.000000 0 1 0
8.177969 -16.204767 10.131549 20.787543 -1.103424 1.061703 0.031294 -0.012513 208319.000000 0 1 0
9.704269 -15.951867 10.002749 21.182301 -1.024262 1.078986 0.023043 -0.005792 385338.000000 0 1 0
10.119269 -16.146167 8.682949 20.940199 -1.010955 1.143233 0.020201 -0.013183 -1019090.000000 0 1 0
11.491769 -15.908867 8.594349 21.424650 -0.945227 1.158032 0.018712 -0.010763 -340829.000000 0 1 0
12.402069 -16.864067 7.815249 22.344713 -0.936696 1.213483 0.024748 -0.013054 -17242.100000 0 1 0
12.552869 -18.062067 8.518949 23.587821 -0.963444 1.201286 0.024242 -0.014474 -234754.000000 0 1 0
13.333069 -18.978667 7.793649 24.468377 -0.958375 1.246629 0.032272 -0.012199 242261.000000 0 1 0
13.893469 -20.202167 8.607349 25.985428 -0.968358 1.233181 0.042882 -0.013584 -152724.000000 0 0 1
12.853269 -20.996567 9.076949 26.238395 -1.021483 1.217554 0.050483 -0.010247 -536218.000000 0 0 1
13.310669 -22.241367 9.599149 27.640477 -1.031507 1.216121 0.046827 -0.011559 533255.000000 0 0 1
12.208869 -23.192067 10.194149 28.122040 -1.086233 1.199851 0.051442 -0.016408 400758.000000 0 0 1
12.092869 -22.839367 11.588749 28.322664 -1.083848 1.149253 0.058083 -0.018653 -257753.000000 0 0 1
11.048969 -23.441867 12.338449 28.702581 -1.130343 1.126445 0.053470 -0.013556 156135.000000 0 0 1
11.363669 -24.883867 12.892349 30.241569 -1.142411 1.130384 0.052844 -0.019440 -385759.000000 0 0 1
12.394769 -24.820767 13.828049 30.998641 -1.107652 1.108409 0.044489 -0.024939 -420305.000000 0 0 1
12.687969 -26.186527 14.160249 32.360955 -1.119607 1.117900 0.030033 -0.025520 -220794.000000 0 0 1
13.918269 -26.330937 15.056549 33.372685 -1.084539 1.102727 0.041903 -0.019919 -402855.000000 0 0 1
13.679869 -25.864867 16.364549 33.525045 -1.084299 1.060852 0.031561 -0.013915 150509.000000 0 0 1
14.489469 -26.435067 17.374149 34.793944 -1.069401 1.047955 0.031349 -0.016410 -438811.000000 0 0 1
14.211269 -25.824137 18.754049 34.936522 -1.067715 1.004152 0.023409 -0.013410 -1594.060000 0 0 1
14.662969 -24.472467 19.020649 34.288327 -1.030993 0.982762 0.010894 -0.012488 -110356.000000 0 0 1
16.066469 -24.379767 19.106249 34.893455 -0.988114 0.991351 0.011872 -0.014660 68883.200000 0 0 1
16.671969 -22.952967 19.521549 34.436668 -0.942601 0.968080 0.002923 -0.015890 -106944.000000 0 0 1
16.650069 -21.909467 18.584049 33.205669 -0.920958 0.976815 0.000566 -0.011757 207536.000000 0 0 1
15.380269 -21.313567 18.365349 32.064105 -0.945708 0.960916 0.008817 -0.004990 -194313.000000 0 0 1
15.414269 -20.291067 17.167449 30.725371 -0.921143 0.977932 0.005630 -0.004369 259096.000000 0 0 1
16.194969 -19.083367 17.297849 30.424784 -0.867091 0.966061 0.000849 -0.002793 1768660.000000 0 0 1
17.618469 -19.298967 17.064049 31.209652 -0.830887 0.992312 0.001975 -0.002368 1444670.000000 0 0 1
18.522069 -18.065067 17.384249 31.170913 -0.772908 0.979175 0.014505 -0.000437 -74544.700000 0 0 1
18.560669 -17.631367 18.733749 31.722498 -0.759727 0.939055 0.005344 0.004300 193921.000000 0 0 1
19.237169 -16.404167 18.935649 31.586772 -0.706079 0.927945 0.013611 -0.000667 -311690.000000 0 0 1
19.596869 -16.167767 20.438849 32.606449 -0.689811 0.893312 0.010069 0.008629 -152910.000000 0 0 1
20.524969 -17.140667 20.857449 33.913272 -0.695788 0.908381 0.013698 0.006395 -66427.100000 0 0 1
20.986769 -16.941467 22.176549 34.917862 -0.679143 0.882650 0.011072 0.012430 4050.430000 0 0 1
33.647160 -0.165167 -7.905150 34.563710 -0.004909 1.801551 0.109003 -0.029636 -6028.050000 0 0 1
34.887460 -0.111267 -8.587850 35.929074 -0.003189 1.812155 0.098859 -0.032515 562072.000000 0 0 1
35.593390 -1.363167 -8.407250 36.598217 -0.038280 1.802584 0.100516 -0.033097 -316726.000000 0 0 1
-34.875898 -1.575867 -9.167450 36.095066 0.045154 1.827590 0.088897 -0.033822 -657188.000000 0 0 1
-34.116880 -2.733367 -8.871850 35.357355 0.079947 1.824426 0.100855 -0.027922 606493.000000 0 0 1
-32.818351 -2.626267 -9.460750 34.255616 0.079854 1.850615 0.126262 -0.029673 1004190.000000 0 0 1
-31.773411 -3.796667 -9.230950 33.304276 0.118928 1.851644 0.120592 -0.024697 -14003.300000 0 0 1
-31.386621 -3.696967 -7.898350 32.575627 0.117248 1.815699 0.120550 -0.031572 455306.000000 0 0 1
-30.229641 -4.507567 -7.709550 31.521207 0.148020 1.817886 0.115010 -0.036699 217620.000000 0 0 1
-29.779711 -4.597967 -6.231150 30.770111 0.153190 1.774713 0.118869 -0.049857 3092.870000 0 0 1
-29.227231 -3.387267 -5.686150 29.967264 0.115379 1.761699 0.111050 -0.042033 602177.000000 0 0 1
-29.133531 -3.490567 -4.307250 29.656350 0.119244 1.716551 0.113967 -0.036352 -195016.000000 0 0 1
-28.999231 -2.088867 -3.680650 29.306415 0.071908 1.696721 0.117941 -0.031677 22346.800000 0 0 1
-27.722771 -1.470967 -3.778350 28.017703 0.053010 1.706064 0.104729 -0.027007 620719.000000 0 0 1
-27.669661 -0.129667 -3.319150 27.868328 0.004686 1.690181 0.100989 -0.031833 -615221.000000 0 0 1
-26.281131 0.319933 -2.866150 26.438892 -0.012173 1.679416 0.112030 -0.016845 -605889.000000 0 0 1
-25.822981 -0.191767 -1.689550 25.878905 0.007426 1.636130 0.092621 -0.018825 486948.000000 0 0 1
-24.461631 0.113633 -1.422350 24.503212 -0.004645 1.628876 0.086012 -0.018273 77978.500000 0 1 0
-24.007231 -0.755467 -0.207850 24.020014 0.031458 1.579450 0.077190 -0.017330 -259200.000000 0 1 0
-23.832331 -2.116167 -0.407350 23.929565 0.088562 1.587820 0.062365 -0.016706 749155.000000 0 1 0
-23.105531 -2.731967 0.692050 23.276773 0.117692 1.541061 0.041854 -0.013060 -29188.000000 0 1 0
-23.147931 -4.264867 0.730550 23.548875 0.182201 1.539769 0.035980 -0.006088 -731036.000000 0 1 0
-24.321731 -4.713167 1.323150 24.809500 0.191412 1.517439 0.050423 -0.013723 -178959.000000 0 1 0
-24.249431 -6.129267 1.473750 25.055434 0.247574 1.511943 0.036839 -0.009880 -1072770.000000 0 0 1
-25.465841 -6.796567 2.031550 26.435385 0.260810 1.493871 0.062033 -0.010076 -828198.000000 0 0 1
-25.533101 -6.808367 3.472050 26.652359 0.260586 1.440153 0.054098 -0.011798 931038.000000 0 0 1
-26.889741 -7.107067 3.829150 28.075451 0.258395 1.433982 0.069105 0.000265 720325.000000 0 0 1
-27.011741 -7.530067 5.351650 28.547788 0.271868 1.382218 0.065203 -0.004490 63310.300000 0 0 1
-26.236081 -8.697767 5.595950 28.201024 0.320117 1.371040 0.056684 -0.000933 242212.000000 0 0 1
-26.053771 -9.132367 6.961150 28.472034 0.337138 1.323802 0.048050 -0.008761 -54122.800000 0 0 1
-25.411341 -8.185667 8.050550 27.884633 0.311631 1.277918 0.054599 -0.010583 -459445.000000 0 0 1
-24.042531 -8.090767 7.778250 26.533092 0.324615 1.273273 0.053566 -0.015701 -621685.000000 0 0 1
-23.470731 -6.915867 8.274250 25.829589 0.286550 1.244708 0.052209 -0.010486 -333728.000000 0 0 1
-22.108731 -6.681967 7.623450 24.322041 0.293503 1.251985 0.030965 -0.017483 -411305.000000 0 1 0
-20.991131 -7.112867 8.343550 23.681961 0.326708 1.210751 0.024627 -0.025236 -22463.100000 0 1 0
-19.801031 -6.503467 7.881350 22.282091 0.317341 1.209264 0.019511 -0.022454 829913.000000 0 1 0
-18.515531 -6.829667 8.733050 21.580904 0.353378 1.154183 0.005347 -0.020306 410822.000000 0 1 0
-18.434331 -6.022567 9.911550 21.779226 0.315772 1.098321 0.001044 -0.012024 -354661.000000 0 1 0
-17.376031 -6.365067 10.733950 21.392948 0.351133 1.045174 -0.004063 -0.016165 -1069810.000000 0 1 0
-17.216331 -5.323567 11.861650 21.574085 0.299890 0.988659 -0.011337 -0.007486 115485.000000 0 1 0
-18.425231 -5.196067 12.600950 22.918817 0.274870 0.988662 0.018589 -0.014462 477827.000000 0 1 0
-18.573431 -3.875567 12.909350 22.948718 0.205710 0.973353 0.024286 -0.007078 386928.000000 0 1 0
-19.823731 -3.636867 13.812250 24.433284 0.181443 0.969994 0.033677 -0.014683 269979.000000 0 1 0
-19.699431 -4.234367 15.114850 25.188413 0.211727 0.927206 0.044350 -0.014403 297549.000000 0 0 1
-20.905031 -4.108667 15.842750 26.549844 0.194066 0.931392 0.049883 -0.002689 -29613.100000 0 0 1
-20.829531 -4.965767 17.174150 27.449583 0.234032 0.894817 0.044214 0.007940 -445597.000000 0 0 1
-21.843531 -4.768367 18.103250 28.768122 0.214925 0.890168 0.047382 0.003852 47908.500000 0 0 1
-21.603531 -5.523167 19.225250 29.441946 0.250299 0.859273 0.043700 0.007387 -390535.000000 0 0 1
-22.456331 -5.081267 20.404150 30.764190 0.222526 0.845652 0.033880 0.012778 -410869.000000 0 0 1
-22.225331 -3.757467 20.806650 30.675733 0.167479 0.825381 0.037656 0.006999 225886.000000 0 0 1
-22.870431 -3.521267 22.031750 31.950805 0.152766 0.809926 0.037418 0.003518 -254458.000000 0 0 1
-22.853031 -2.081567 22.509250 32.144366 0.090834 0.795042 0.036328 0.009508 -255800.000000 0 0 1
-23.626531 -1.155167 21.782850 32.156491 0.048854 0.826572 0.048167 0.002807 -97974.500000 0 0 1
-23.642031 0.197133 22.216450 32.443106 -0.008338 0.816492 0.046189 -0.000105 544794.000000 0 0 1
-25.023231 0.770633 21.720950 33.144466 -0.030787 0.856161 0.049867 -0.005331 1125210.000000 0 0 1
-26.121441 0.452533 22.571050 34.525161 -0.017322 0.858258 0.042467 -0.002452 -86130.500000 0 0 1
-27.248831 1.240533 22.265950 35.210939 -0.045495 0.886202 0.021611 -0.000795 -407823.000000 0 0 1
-28.197621 1.284533 23.430950 36.684674 -0.045523 0.877973 0.019338 0.005743 -696376.000000 0 0 1
-27.816161 2.242733 24.399850 37.069143 -0.080453 0.852337 0.027180 0.005093 188533.000000 0 0 1
-28.822661 2.428233 25.373150 38.476471 -0.084049 0.850715 0.027440 0.003418 -70649.700000 0 0 1
-28.322091 3.349033 26.551150 38.965631 -0.117702 0.821124 0.043984 -0.003515 302212.000000 0 0 1
-27.303651 2.733633 27.334750 38.731779 -0.099787 0.787322 0.038937 -0.014437 413577.000000 0 0 1
-26.880501 3.592133 28.402950 39.270757 -0.132846 0.762286 0.043016 -0.014555 -208621.000000 0 0 1
-25.625171 3.045933 29.083750 38.881765 -0.118310 0.725745 0.057392 -0.022331 -259164.000000 0 0 1
-25.978211 2.073233 30.044550 39.772361 -0.079638 0.714512 0.061375 -0.017361 133918.000000 0 0 1
-24.828131 1.611333 30.693650 39.511171 -0.064809 0.681173 0.047295 -0.022892 -188800.000000 0 0 1
-25.147271 0.458933 31.658450 40.433319 -0.018248 0.671355 0.040819 -0.021448 -163157.000000 0 0 1
-25.251981 -0.746667 30.944550 39.947281 0.029560 0.684659 0.036828 -0.016281 -66446.400000 0 0 1
-25.631041 -1.890467 31.706650 40.814652 0.073624 0.681157 0.042063 -0.007160 -510218.000000 0 0 1
-26.538801 -2.812267 30.868250 40.805216 0.105574 0.712885 0.036045 0.005227 -1133070.000000 0 0 1
-27.814091 -2.373367 30.631050 41.442946 0.085123 0.739043 0.039041 0.000241 -1057770.000000 0 0 1
-27.980921 -1.330967 29.649350 40.789550 0.047531 0.757020 0.043892 -0.002956 -1032980.000000 0 0 1
-29.404991 -1.065467 29.144150 41.414613 0.036218 0.790181 0.035269 -0.016265 41990.800000 0 0 1
-30.169511 -0.441467 30.158350 42.660525 0.014632 0.785637 0.058379 -0.008384 -157134.000000 0 0 1
-31.533221 -0.257667 29.791050 43.381068 0.008171 0.813816 0.041786 -0.011686 251642.000000 0 0 1
-32.351631 0.089733 31.052850 44.843233 -0.002774 0.805881 0.040281 -0.006515 -303771.000000 0 0 1
-32.619771 -1.045567 31.765250 45.543098 0.032042 0.798926 0.041363 -0.007003 -97384.100000 0 0 1
-33.093691 -0.769067 33.066450 46.788609 0.023235 0.785945 0.066890 -0.016503 -48082.200000 0 0 1
-33.248671 -2.086167 33.869450 47.507535 0.062662 0.777132 0.061933 -0.013014 401227.000000 0 0 1
-34.323281 -2.912867 33.404650 47.983779 0.084663 0.800754 0.029147 -0.004764 426343.000000 0 0 1
-34.275038 -4.115467 34.086950 48.514281 0.119500 0.791728 0.030318 -0.000788 -251416.000000 0 0 1
-35.357316 -5.070467 33.571150 49.019094 0.142435 0.816387 0.029720 -0.005363 407294.000000 0 0 1
35.117860 -4.628867 34.046750 49.131168 -0.131054 0.805187 0.032917 -0.011591 -123433.000000 0 0 1
34.048320 -5.282367 33.415150 47.997539 -0.153916 0.800727 0.029985 -0.014930 -1197590.000000 0 0 1
32.769850 -4.957967 34.157950 47.594223 -0.150158 0.770315 0.041303 -0.015332 -1283890.000000 0 0 1
32.543210 -5.675167 -33.262249 46.879049 -0.172652 2.359632 0.048982 -0.019504 200995.000000 0 0 1
32.096920 -7.038067 -33.435649 46.879519 -0.215859 2.364885 0.048173 -0.016085 -47690.200000 0 0 1
30.675110 -7.232267 -34.043649 46.392220 -0.231541 2.394728 0.043308 -0.022354 118631.000000 0 0 1
29.658880 -6.981767 -33.084149 44.977274 -0.231193 2.397311 0.045521 -0.026238 -657905.000000 0 0 1
28.400720 -7.243267 -33.605349 44.591314 -0.249715 2.424364 0.065333 -0.026356 -454025.000000 0 0 1
27.274290 -7.056567 -32.551449 43.049725 -0.253174 2.428185 0.060857 -0.023128 351847.000000 0 0 1
26.010160 -7.590467 -32.897749 42.619309 -0.283942 2.452617 0.061696 -0.026751 61958.600000 0 0 1
24.940760 -7.073367 -32.132749 41.286651 -0.276350 2.462725 0.068913 -0.027111 -251660.000000 0 0 1
23.611560 -7.608167 -32.714949 41.056764 -0.311717 2.492814 0.074562 -0.032614 -220118.000000 0 0 1
23.297960 -8.983367 -32.519949 41.000523 -0.368019 2.486776 0.081814 -0.039484 45573.500000 0 0 1
23.004160 -9.302567 -31.156649 39.830465 -0.384282 2.469036 0.083189 -0.033804 -407580.000000 0 0 1
22.929760 -10.831767 -30.988149 40.042058 -0.441316 2.455757 0.081005 -0.027233 -789073.000000 0 0 1
21.889660 -11.274467 -31.754749 40.182520 -0.475622 2.482034 0.093439 -0.027496 -931149.000000 0 0 1
21.794260 -12.654467 -31.591549 40.412266 -0.526057 2.468234 0.078664 -0.020292 573045.000000 0 0 1
20.495160 -13.279067 -32.255149 40.457136 -0.574906 2.493551 0.056887 -0.011131 1311610.000000 0 0 1
19.217560 -12.761667 -31.945049 39.403819 -0.586198 2.516159 0.046216 -0.006002 87859.000000 0 0 1
18.910960 -11.455367 -32.546249 39.346006 -0.544639 2.544868 0.045491 -0.012197 172881.000000 0 0 1
17.524560 -10.975667 -31.984949 38.086906 -0.559535 2.567690 0.042592 -0.010351 1436920.000000 0 0 1
16.388260 -11.615867 -32.584249 38.278411 -0.616602 2.589147 0.030622 -0.002167 528844.000000 0 0 1
15.152360 -11.276767 -31.988249 37.148453 -0.639795 2.608211 0.040552 -0.004780 51114.700000 0 0 1
13.888160 -11.679767 -32.728049 37.422228 -0.699238 2.635328 0.035636 -0.002605 -713318.000000 0 0 1
13.649860 -13.028767 -32.848949 37.882990 -0.762122 2.620179 0.053008 -0.008739 414016.000000 0 0 1
12.495160 -13.440167 -33.581349 38.268448 -0.821819 2.641463 0.040272 -0.017162 989452.000000 0 0 1
11.120260 -13.501067 -32.833149 37.201541 -0.881795 2.652107 0.028041 -0.014829 165446.000000 0 0 1
10.636460 -12.267367 -32.455049 36.289844 -0.856485 2.677725 0.053455 -0.016334 -176879.000000 0 0 1
9.622160 -12.343467 -31.462349 35.140099 -0.908659 2.679991 0.046694 -0.021792 -345071.000000 0 0 1
8.371760 -11.576267 -31.823349 34.882974 -0.944680 2.719635 0.032163 -0.011318 -855230.000000 0 0 1
8.598760 -10.230967 -31.915849 34.601052 -0.871865 2.745033 0.030910 -0.007516 210317.000000 0 0 1
7.416160 -9.560967 -32.282749 34.475896 -0.911068 2.782984 0.037102 -0.000834 -54717.500000 0 0 1
7.689660 -8.035067 -32.521749 34.370879 -0.807361 2.812082 0.047640 -0.001476 -66886.900000 0 0 1
8.102960 -7.414367 -31.323949 33.193683 -0.741052 2.804354 0.035699 -0.007128 434833.000000 0 0 1
8.664660 -6.130567 -31.713349 33.442439 -0.615766 2.818621 0.039071 0.001800 157519.000000 0 0 1
8.892960 -5.149767 -30.495549 32.180481 -0.524898 2.816563 0.035976 0.000201 -9613.550000 0 0 1
7.663560 -4.626767 -30.050949 31.355967 -0.543162 2.852071 0.049738 -0.003856 55119.300000 0 0 1
7.841660 -3.761867 -28.926249 30.205482 -0.447299 2.849519 0.051623 0.001412 652141.000000 0 0 1
6.487560 -3.077367 -28.569149 29.457680 -0.442917 2.895358 0.046522 -0.000800 -408964.000000 0 0 1
5.943960 -2.264467 -29.624749 30.299905 -0.363994 2.930095 0.043743 0.006688 1512740.000000 0 0 1
4.660560 -1.603667 -29.390949 29.801350 -0.331403 2.975442 0.045311 0.001510 2047550.000000 0 0 1
3.420960 -2.556667 -29.160649 29.471732 -0.641805 2.996170 0.032570 -0.000779 -178781.000000 0 0 1
3.510260 -3.393567 -28.063149 28.484708 -0.768497 2.969336 0.045034 -0.009425 -669461.000000 0 0 1
2.551160 -4.406367 -28.036749 28.495329 -1.045983 2.961946 0.043323 -0.013246 -207394.000000 0 0 1
2.822660 -5.454167 -26.913649 27.605432 -1.093228 2.917249 0.039182 -0.020024 57742.300000 0 0 1
2.601060 -4.891867 -25.632349 26.224287 -1.082103 2.928719 0.044510 -0.023869 -58390.400000 0 0 1
2.836860 -5.930067 -24.683549 25.543905 -1.124589 2.881315 0.042952 -0.032556 -127879.000000 0 0 1
2.727260 -5.456867 -23.215549 24.003689 -1.107321 2.884628 0.049913 -0.036850 -68292.200000 0 1 0
3.757060 -4.566267 -22.826249 23.579736 -0.882315 2.888111 0.053657 -0.037796 -13474.100000 0 1 0
3.655860 -4.199467 -21.448749 22.159641 -0.854490 2.887610 0.051261 -0.039997 230599.000000 0 1 0
4.635460 -3.086367 -21.011149 21.736641 -0.587414 2.882503 0.059502 -0.042452 -721262.000000 0 1 0
5.998360 -3.327967 -20.984449 22.077201 -0.506531 2.825648 0.054932 -0.035091 -894340.000000 0 1 0
6.651160 -2.157767 -20.522149 21.680694 -0.313707 2.813204 0.059287 -0.025330 301213.000000 0 1 0
8.178460 -2.281867 -20.301949 22.005982 -0.272090 2.745473 0.052042 -0.021450 -959930.000000 0 1 0
8.908460 -2.571767 -21.493049 23.407815 -0.281047 2.734308 0.057151 -0.026274 52338.100000 0 1 0
10.160160 -3.160167 -21.228249 23.745612 -0.301550 2.676960 0.041458 -0.026775 482177.000000 0 1 0
11.246960 -2.312467 -20.488449 23.486553 -0.202782 2.630781 0.026599 -0.022858 -1162970.000000 0 1 0
11.031660 -2.161667 -19.055549 22.124292 -0.193499 2.608610 0.026999 -0.026590 712072.000000 0 1 0
12.183560 -1.823867 -18.268049 22.033775 -0.148596 2.548280 0.021810 -0.030718 378034.000000 0 1 0
12.712160 -0.338567 -18.248649 22.242456 -0.026627 2.532980 0.026743 -0.025225 160838.000000 0 1 0
13.096260 0.075533 -19.561849 23.541106 0.005767 2.551637 0.024653 -0.026400 225672.000000 0 1 0
13.294060 1.470633 -19.514749 23.658407 0.110175 2.540742 0.049088 -0.034593 -151576.000000 0 1 0
13.325160 2.199033 -20.843149 24.836113 0.163555 2.566657 0.037263 -0.023039 -794652.000000 0 1 0
14.558360 2.184233 -21.471949 26.033849 0.148922 2.540592 0.031512 -0.018848 -550333.000000 0 0 1
14.655460 3.429733 -22.148349 26.778628 0.229887 2.544708 0.041166 -0.022425 -208478.000000 0 0 1
16.068560 3.630033 -22.732849 28.074155 0.222180 2.514510 0.043593 -0.022100 162511.000000 0 0 1
16.443060 2.800433 -23.859049 29.111353 0.168692 2.531472 0.030490 -0.020514 -95359.400000 0 0 1
17.203160 1.696333 -23.513049 29.183724 0.098288 2.507637 0.024233 -0.018442 -700067.000000 0 0 1
9.288069 27.077533 3.698250 28.864131 1.240355 1.442317 -0.012450 0.010692 -57715.600000 0 0 1
9.329569 27.196333 5.097050 29.200365 1.240331 1.395343 -0.010122 0.007625 1006130.000000 0 0 1
10.579869 27.760833 5.571450 30.226454 1.206682 1.385413 -0.000700 0.014005 982129.000000 0 0 1
10.376769 28.287033 7.073650 30.949477 1.219200 1.340203 0.003597 -0.001318 182009.000000 0 0 1
10.125669 27.252733 8.013950 30.157321 1.215056 1.301827 -0.002417 -0.012859 -122482.000000 0 0 1
10.016169 27.788033 9.368950 30.988315 1.224843 1.263652 0.016746 -0.009891 -807057.000000 0 0 1
10.099669 26.669933 10.462350 30.376791 1.208793 1.219176 0.025683 -0.007064 -615787.000000 0 0 1
11.260469 25.957633 10.686050 30.245471 1.161494 1.209689 0.026208 -0.002714 -549659.000000 0 0 1
11.908169 25.354833 9.564650 29.599908 1.131713 1.241760 0.016281 -0.011029 -411530.000000 0 0 1
13.261569 24.669433 9.803650 29.674260 1.077546 1.234095 0.020251 -0.012498 35005.100000 0 0 1
14.308569 25.558533 10.148750 30.999530 1.060433 1.237263 0.012973 -0.005124 218720.000000 0 0 1
15.512869 24.820833 10.372650 31.053417 1.012201 1.230225 0.014272 -0.007704 872783.000000 0 0 1
16.652169 25.768933 10.900350 32.559949 0.997089 1.229427 0.019702 -0.010935 10513.200000 0 0 1
17.287769 26.585233 9.930050 33.230219 0.994226 1.267334 0.023704 -0.018074 -812943.000000 0 0 1
18.651169 26.664433 10.096450 34.070462 0.960421 1.269938 0.015652 -0.023577 -1043310.000000 0 0 1
19.228069 27.581533 11.226450 35.447042 0.961995 1.248537 0.034248 -0.027615 -696840.000000 0 0 1
19.206669 28.975333 11.016250 36.466750 0.985432 1.263912 0.038902 -0.039173 1515690.000000 0 0 1
17.865669 29.562033 11.094950 36.279386 1.027188 1.259997 0.027447 -0.022684 1281410.000000 0 0 1
17.945669 31.078233 11.511150 37.688329 1.047134 1.260406 0.038685 -0.019214 -487448.000000 0 0 1
18.488169 31.902833 10.471550 38.330882 1.045576 1.294090 0.056271 -0.032599 32146.300000 0 0 1
17.747569 32.159033 9.285950 37.886785 1.066519 1.323176 0.067380 -0.037018 -4169.850000 0 0 1
16.362669 32.818833 9.438450 37.866833 1.108289 1.318887 0.063913 -0.025003 -48938.200000 0 0 1
16.435869 34.175133 9.796150 39.166849 1.122520 1.317999 0.061431 -0.024810 490670.000000 0 0 1
15.125769 -34.017513 9.731850 38.479722 -1.152403 1.315111 0.065228 -0.008492 692536.000000 0 0 1
15.350969 -32.454113 10.054350 37.282860 -1.128977 1.297738 0.066982 -0.001870 -241359.000000 0 0 1
16.117069 -31.850013 9.102750 36.838068 -1.102336 1.321108 0.081896 -0.009624 -338608.000000 0 0 1
16.238269 -30.478313 9.378550 35.784999 -1.081269 1.305619 0.071155 -0.016761 610856.000000 0 0 1
17.010769 -29.772213 8.155550 35.245764 -1.051699 1.337289 0.073008 -0.017508 971689.000000 0 0 1
16.164569 -29.836413 6.982650 34.644801 -1.074291 1.367856 0.071864 -0.017666 678758.000000 0 0 1
16.817469 -29.305013 5.840550 34.288818 -1.049807 1.399628 0.068081 -0.013019 -113953.000000 0 0 1
16.139369 -29.725613 4.561950 34.130671 -1.073386 1.436734 0.071809 -0.010565 -134793.000000 0 0 1
16.460569 -30.992113 4.071650 35.327606 -1.082563 1.455286 0.061660 -0.016430 -141055.000000 0 0 1
16.175869 -31.082213 2.652250 35.139680 -1.090945 1.495247 0.056453 -0.007723 -38773.400000 0 0 1
16.513069 -32.480613 2.069250 36.495938 -1.100453 1.514068 0.038425 -0.006014 171613.000000 0 0 1
17.901369 -32.756413 2.135850 37.389884 -1.070644 1.513641 0.038757 -0.005411 88016.100000 0 0 1
18.190669 -34.045313 1.630750 38.634740 -1.080081 1.528574 0.049120 -0.000846 305198.000000 0 0 1
19.624969 34.130633 1.817750 39.412482 1.048965 1.524659 0.058670 -0.005157 298145.000000 0 0 1
19.931369 33.718233 3.140350 39.294281 1.036935 1.490792 0.050756 -0.031277 -97617.000000 0 0 1
21.289969 33.331533 3.194150 39.679421 1.002382 1.490210 0.030477 -0.023621 -137030.000000 0 0 1
21.748669 33.157133 4.673450 39.927950 0.990266 1.453480 0.036184 -0.026637 -542317.000000 0 0 1
21.130269 32.082733 5.348950 38.786612 0.988387 1.432448 0.049502 -0.034882 -333636.000000 0 0 1
22.008869 31.058733 5.690350 38.489158 0.954308 1.422409 0.030576 -0.037922 -801094.000000 0 0 1
21.417469 30.061033 6.667950 37.507802 0.951753 1.392071 0.027478 -0.035832 -142733.000000 0 0 1
20.322269 29.399833 6.067950 36.251411 0.965975 1.402619 0.034521 -0.027225 -291833.000000 0 0 1
19.370469 28.945133 7.027050 35.530483 0.981033 1.371709 0.021970 -0.038251 -298659.000000 0 0 1
17.951969 28.972933 6.449750 34.688663 1.016081 1.383775 0.051367 -0.026050 -910074.000000 0 0 1
17.325169 30.259533 6.384650 35.448055 1.050803 1.389695 0.039476 -0.028714 241237.000000 0 0 1
17.860869 31.080633 5.374850 36.247833 1.049216 1.421967 0.043590 -0.026480 -622057.000000 0 0 1
17.608469 32.592533 5.554250 37.459059 1.075461 1.421972 0.056816 -0.026232 -555947.000000 0 0 1
16.297669 33.038133 5.506350 37.248519 1.112524 1.422425 0.068440 -0.018583 -906392.000000 0 0 1
16.215569 -34.291613 5.830950 38.377850 -1.129085 1.418270 0.066380 -0.021369 707115.000000 0 0 1
14.758069 -33.725113 5.939150 37.288837 -1.158303 1.410841 0.068029 -0.018462 816831.000000 0 0 1
13.890769 -33.806413 4.837250 36.867682 -1.180936 1.439211 0.048156 -0.005782 -937172.000000 0 0 1
12.861969 -32.902813 4.866250 35.660983 -1.198152 1.433911 0.043990 -0.003045 -490704.000000 0 0 1
12.038369 -33.022413 3.525850 35.324690 -1.221217 1.470817 0.034550 0.000383 440043.000000 0 0 1
11.048269 -31.982913 3.522050 34.020226 -1.238187 1.467082 0.036082 -0.008970 59161.200000 0 0 1
10.575069 -31.803913 2.244550 33.591055 -1.249788 1.503927 0.034685 -0.006193 -483031.000000 0 0 1
9.730569 -30.521113 2.047250 32.100055 -1.262169 1.506976 0.040119 -0.004840 153781.000000 0 0 1
9.126569 -30.216313 0.802850 31.574743 -1.277468 1.545367 0.050295 -0.007499 537413.000000 0 0 1
8.046069 -31.084613 0.405550 32.111631 -1.317511 1.558167 0.047273 -0.012042 145278.000000 0 0 1
8.311969 -31.762113 -0.970550 32.846044 -1.314842 1.600349 0.066196 -0.019725 -270637.000000 0 0 1
9.521669 -32.467313 -0.982550 33.848988 -1.285526 1.599828 0.060083 -0.018427 -430264.000000 0 0 1
9.789469 -33.208513 -2.139050 34.687383 -1.284128 1.632502 0.069568 -0.016675 488233.000000 0 0 1
11.131569 -34.000913 -1.990150 35.832033 -1.254404 1.626366 0.042170 -0.002002 110471.000000 0 0 1
11.020469 33.851933 -0.895750 35.611887 1.256068 1.595952 0.032629 -0.000325 97878.000000 0 0 1
12.111469 32.956933 -0.941350 35.124539 1.218623 1.597600 0.027580 -0.000273 -164220.000000 0 0 1
12.206469 31.964233 0.250250 34.216556 1.206008 1.563483 0.028520 0.000675 -455270.000000 0 0 1
12.505569 32.545633 1.542350 34.899661 1.203943 1.526588 0.020285 0.001296 748657.000000 0 0 1
13.812469 33.084133 1.767350 35.895232 1.175299 1.521540 0.031039 -0.000507 357172.000000 0 0 1
15.034669 32.159033 1.823850 35.546745 1.133477 1.519465 0.043168 -0.005352 -536206.000000 0 0 1
15.397569 31.704733 0.552250 35.250251 1.118690 1.555129 0.040703 -0.005954 -271499.000000 0 0 1
15.969569 30.432533 0.537250 34.372298 1.087543 1.555165 0.054470 -0.004253 -42033.200000 0 0 1
16.655269 30.062433 -0.824150 34.377712 1.064870 1.594772 0.053171 -0.007514 634796.000000 0 0 1
17.827369 30.777233 -1.225550 35.588694 1.045782 1.605240 0.039580 0.000980 440772.000000 0 0 1
17.639669 32.114333 -1.666150 36.677846 1.068508 1.616239 0.051659 -0.003407 -241156.000000 0 0 1
18.925269 32.778333 -2.218550 37.914468 1.047182 1.629344 0.044553 -0.000180 963066.000000 0 0 1
19.811469 33.389933 -1.207450 38.843788 1.035291 1.601886 0.033003 0.005167 153834.000000 0 0 1
20.781469 34.156033 -1.829950 40.023153 1.024203 1.616535 0.028804 0.000230 -1515290.000000 0 0 1
21.956369 -34.120613 -0.952450 40.585780 -0.999009 1.594266 0.031864 0.001417 -79127.200000 0 0 1
22.860969 33.572533 -0.520750 40.620316 0.972975 1.583617 0.029963 0.007806 1115870.000000 0 0 1
23.587369 32.790433 -1.516150 40.421222 0.947210 1.608314 0.041568 0.009073 -118447.000000 0 0 1
24.316069 33.548133 -2.671050 41.519669 0.943612 1.635173 0.037853 0.006771 -679771.000000 0 0 1
23.472569 34.301833 -3.550250 41.715483 0.970689 1.656006 0.037937 -0.002922 97220.500000 0 0 1
24.275069 -33.626513 -4.385050 41.704316 -0.945521 1.676137 0.035608 -0.000275 222915.000000 0 0 1
23.535869 -33.021213 -5.614650 40.937293 -0.951564 1.708382 0.046706 -0.008221 238769.000000 0 0 1
22.539869 -32.025113 -5.397450 39.532088 -0.957512 1.707758 0.054848 -0.007248 588407.000000 0 0 1
21.981369 -31.674213 -6.699650 39.132105 -0.964120 1.742850 0.061597 -0.013675 205918.000000 0 0 1
21.046669 -30.423313 -6.642450 37.585401 -0.965599 1.748459 0.072374 -0.012562 981771.000000 0 0 1
19.756769 -30.722013 -6.082950 37.029370 -0.999300 1.735818 0.060897 -0.003216 491164.000000 0 0 1
18.902569 -29.587113 -6.176450 35.649024 -1.002279 1.744932 0.054173 -0.008784 1116800.000000 0 0 1
17.640169 -29.630413 -5.234250 34.878852 -1.033810 1.721435 0.030961 -0.001506 848210.000000 0 0 1
16.472169 -30.246813 -5.705250 34.910628 -1.072115 1.734957 0.029528 -0.004330 -405589.000000 0 0 1
15.461769 -30.226813 -4.733750 34.280241 -1.097971 1.709329 0.004846 0.001954 -401873.000000 0 0 1
14.275869 -31.139113 -4.927550 34.608171 -1.140934 1.713663 0.008758 0.001354 -649948.000000 0 0 1
14.607969 -32.534213 -5.007350 36.013071 -1.148772 1.710291 0.014494 0.008206 -1069110.000000 0 0 1
13.461569 -33.311713 -5.121050 36.291999 -1.186753 1.712376 0.033845 0.002443 -836017.000000 0 0 1
13.644769 33.903933 -5.089250 36.899280 1.188176 1.709160 0.028850 -0.005589 -22765.600000 0 0 1
14.040069 33.349033 -3.797950 36.382770 1.172315 1.675376 0.023316 -0.005812 152798.000000 0 0 1
14.428069 31.940633 -3.751650 35.248377 1.146517 1.677433 0.034647 -0.009854 45050.200000 0 0 1
13.378769 30.950033 -4.310050 33.992242 1.162784 1.697934 0.045547 -0.017433 681787.000000 0 0 1
12.236969 30.642833 -3.506250 33.181628 1.190857 1.676662 0.033050 -0.014475 440110.000000 0 0 1
12.541269 29.493133 -2.756150 32.167137 1.168734 1.656584 0.036138 -0.008509 -663770.000000 0 0 1
11.331569 28.698533 -2.308550 30.940906 1.194739 1.645477 0.026814 -0.002813 -450000.000000 0 0 1
10.647469 29.387533 -1.279450 31.283105 1.223195 1.611707 0.018310 -0.002503 -9643.290000 0 0 1
9.895769 28.524833 -0.413350 30.195417 1.236870 1.584486 0.012802 0.009030 336068.000000 0 0 1
8.800169 29.325133 0.354950 30.619151 1.279257 1.559204 0.004131 0.016948 955776.000000 0 0 1
7.746669 28.506933 0.916350 29.554963 1.305457 1.539786 0.001947 0.010315 581115.000000 0 0 1
6.785969 29.295333 1.577450 30.112361 1.343171 1.518387 0.029456 0.009286 397822.000000 0 0 1
5.639469 28.508133 2.308650 29.152138 1.375498 1.491520 0.028864 -0.001212 631133.000000 0 0 1
4.885269 27.748433 1.388550 28.209386 1.396527 1.521553 0.024853 -0.006382 -35558.400000 0 0 1
3.714369 27.200233 1.964450 27.522868 1.435079 1.499360 0.030461 -0.010971 -35975.000000 0 0 1
3.082169 26.323433 0.893250 26.518310 1.454239 1.537106 0.026971 -0.013154 -644144.000000 0 0 1
1.878469 25.766733 1.330150 25.869335 1.498022 1.519356 0.030967 -0.011697 -492769.000000 0 0 1
1.385569 24.955733 0.318650 24.996199 1.515332 1.558048 0.013422 -0.005115 110516.000000 0 1 0
0.082369 24.222133 0.726350 24.233161 1.567396 1.540818 0.020549 -0.003100 190440.000000 0 1 0
-1.034631 25.036433 0.958250 25.076118 -1.529495 1.532573 0.027305 -0.008792 -515901.000000 0 0 1
-2.165631 24.252933 1.256050 24.381804 -1.481739 1.519258 0.030925 -0.002681 -61631.200000 0 1 0
-3.418131 25.130833 1.497250 25.406380 -1.435612 1.511830 0.048484 -0.021944 1544270.000000 0 0 1
-4.609431 24.326833 1.913750 24.833528 -1.383537 1.493657 0.045307 -0.019699 1657710.000000 0 1 0
-5.634131 25.102933 2.473650 25.846076 -1.350014 1.474943 0.045035 -0.022938 463865.000000 0 0 1
-6.806631 25.652233 1.593050 26.587687 -1.311430 1.510844 0.049547 -0.022781 189048.000000 0 0 1
-6.397631 26.676333 0.673750 27.441034 -1.335418 1.546241 0.047130 -0.023877 323069.000000 0 0 1
-7.409331 26.874433 -0.309650 27.878831 -1.301778 1.581904 0.034744 -0.014501 -4950.350000 0 0 1
-7.153031 28.046833 -1.285150 28.973131 -1.321081 1.615168 0.026003 -0.008460 -86736.500000 0 0 1
-7.690531 29.253433 -0.848650 30.259343 -1.313720 1.598846 0.032126 -0.019897 -155316.000000 0 0 1
-7.483431 30.201833 -1.870750 31.171336 -1.327908 1.630847 0.028948 -0.010619 -71771.500000 0 0 1
-7.792831 31.655033 -1.426950 32.631358 -1.329416 1.614540 0.015660 -0.008730 -530224.000000 0 0 1
-7.850631 32.666533 -2.442950 33.685350 -1.334943 1.643383 0.003033 0.008660 536341.000000 0 0 1
-6.739531 32.902133 -3.352950 33.752243 -1.368755 1.670301 0.004060 0.004249 1073850.000000 0 0 1
-5.428731 33.388733 -2.668750 33.932298 -1.409615 1.649527 0.017239 -0.007639 -166313.000000 0 0 1
-5.442331 -33.959313 -2.533550 34.485834 1.411887 1.644329 0.019652 -0.001740 509838.000000 0 0 1
-4.294331 -33.581413 -1.767550 33.900985 1.443608 1.622959 0.034185 -0.007525 420876.000000 0 0 1
-4.082331 -32.084613 -1.810350 32.393907 1.444240 1.626711 0.044498 -0.013573 284076.000000 0 0 1
-5.163631 -31.361313 -1.236850 31.807622 1.407611 1.609691 0.030678 -0.002911 145499.000000 0 0 1
-5.129831 -30.117113 -1.825750 30.605376 1.402086 1.630486 0.039495 0.002626 1080860.000000 0 0 1
-6.577431 -29.493913 -1.731050 30.267970 1.351377 1.628018 0.054131 0.003958 1047710.000000 0 0 1
-6.934731 -29.236713 -0.399150 30.050544 1.337908 1.584079 0.043384 0.004088 -291449.000000 0 0 1
-8.223731 -28.691613 -0.222950 29.847749 1.291655 1.578266 0.027155 -0.002100 -88019.200000 0 0 1
-8.367531 -28.106413 1.227150 29.351183 1.281443 1.528975 0.026906 -0.001907 -376434.000000 0 0 1
-7.557331 -27.039813 1.580650 28.120512 1.298262 1.514557 0.041016 -0.009434 -578515.000000 0 0 1
-7.480731 -26.688013 2.948950 27.873064 1.297507 1.464799 0.038134 -0.004225 743024.000000 0 0 1
-8.476731 -25.584513 3.541350 27.183882 1.250856 1.440151 0.037456 -0.003703 758323.000000 0 0 1
-8.007931 -24.311813 3.316550 25.810670 1.252604 1.441945 0.043469 -0.005634 83752.500000 0 0 1
-9.081731 -23.395513 3.512950 25.341047 1.200519 1.431722 0.044218 -0.011864 595596.000000 0 0 1
-8.485931 -21.988813 3.791350 23.872437 1.202486 1.411304 0.026835 0.006352 466882.000000 0 1 0
-7.822531 -21.961813 5.046950 23.853405 1.228620 1.357603 0.024466 0.004420 12663.800000 0 1 0
-7.186131 -20.704013 5.398950 22.570895 1.236717 1.329255 0.014962 0.003028 616261.000000 0 1 0
-8.158931 -19.559013 5.862550 21.988466 1.175598 1.300913 0.017665 -0.003399 117504.000000 0 1 0
-8.813831 -19.961213 7.028450 22.924501 1.154993 1.259187 0.026508 -0.003882 -359985.000000 0 1 0
-9.202631 -18.801813 7.714750 22.309504 1.115621 1.217699 0.007521 -0.008574 -476876.000000 0 1 0
-26.788111 28.872933 -5.633950 39.786814 -0.822836 1.712877 0.073907 -0.014998 444821.000000 0 0 1
-25.908101 29.533533 -4.720750 39.569493 -0.850697 1.690384 0.053414 -0.025162 62392.500000 0 0 1
-25.059861 28.712433 -3.981150 38.317751 -0.853221 1.674882 0.043922 -0.025268 97926.900000 0 0 1
-24.126931 29.562633 -3.070850 38.281695 -0.886298 1.651100 0.029324 -0.019221 311790.000000 0 0 1
-24.858531 30.039833 -1.872750 39.036462 -0.879499 1.618789 0.020875 -0.018520 862211.000000 0 0 1
-24.223931 31.142833 -1.247250 39.474429 -0.909719 1.602398 0.019057 -0.018025 -312644.000000 0 0 1
-22.861631 30.900133 -0.602250 38.442621 -0.933819 1.586463 0.025431 -0.019729 87253.900000 0 0 1
-21.766931 30.810033 -1.518850 37.753998 -0.955729 1.611037 0.034704 -0.024693 -129594.000000 0 0 1
-20.538431 30.824933 -0.848450 37.050284 -0.983053 1.593698 0.034104 -0.027282 193.022000 0 0 1
-19.376131 30.247233 -1.731550 35.962867 -1.001063 1.618963 0.053978 -0.026053 525850.000000 0 0 1
-18.225031 29.959233 -0.952950 35.080130 -1.024276 1.597965 0.047724 -0.024928 -558277.000000 0 0 1
-17.180331 29.450833 -1.694450 34.137758 -1.042705 1.620452 0.044655 -0.020868 -615419.000000 0 0 1
-15.797731 29.845533 -1.157450 33.788516 -1.083972 1.605059 0.047777 -0.020027 -283231.000000 0 0 1
-15.550931 29.178933 0.033050 33.064221 -1.081137 1.569797 0.035079 -0.025798 403725.000000 0 0 1
-14.392431 29.734333 0.671250 33.041235 -1.120003 1.550479 0.028343 -0.028589 433603.000000 0 0 1
-14.064331 29.091333 2.068750 32.378863 -1.120473 1.506861 0.027468 -0.028345 -103555.000000 0 0 1
-14.986131 29.406633 3.099050 33.150238 -1.099484 1.477175 0.010654 -0.014541 -224273.000000 0 0 1
-14.776031 28.652333 4.291650 32.522385 -1.094667 1.438450 0.015617 -0.027287 400412.000000 0 0 1
-13.461431 29.031233 5.083950 32.401685 -1.136618 1.413241 0.031356 -0.022746 622936.000000 0 0 1
-13.424231 30.251733 5.760150 33.593997 -1.153151 1.398481 0.021302 -0.026557 -461563.000000 0 0 1
-13.216631 31.353933 4.995750 34.390492 -1.171868 1.425015 0.029166 -0.018096 -204336.000000 0 0 1
-12.942031 32.679533 5.769750 35.619350 -1.193718 1.408096 0.031258 -0.014195 -616036.000000 0 0 1
-14.047231 33.183133 6.420950 36.601552 -1.170346 1.394455 0.024233 -0.008036 -559648.000000 0 0 1
-13.687131 34.342833 7.131450 37.651365 -1.191546 1.380238 0.039010 -0.023993 148154.000000 0 0 1
-14.874831 -33.897713 7.963350 37.864634 1.157283 1.358903 0.032557 -0.015838 129438.000000 0 0 1
-15.118231 34.027533 9.101650 38.331109 -1.152698 1.331058 0.021150 -0.017239 -478928.000000 0 0 1
-16.300431 34.321133 9.773450 39.232188 -1.127398 1.319027 0.037944 -0.016714 -1074250.000000 0 0 1
-16.409831 33.412233 11.065850 38.834429 -1.114268 1.281843 0.049478 -0.020755 480763.000000 0 0 1
-15.678131 33.805633 12.238550 39.222528 -1.136548 1.253469 0.055304 -0.023590 1013410.000000 0 0 1
-14.242231 33.701733 12.231350 38.577894 -1.170963 1.248173 0.040122 -0.010877 1041290.000000 0 0 1
-13.643331 33.934933 13.682850 39.050487 -1.188529 1.212810 0.045651 -0.011529 186828.000000 0 0 1
-13.992631 32.862533 14.546150 38.565921 -1.168254 1.184051 0.047868 -0.013034 556591.000000 0 0 1
-12.947831 31.870533 14.589950 37.366346 -1.184902 1.169668 0.023859 -0.006605 124248.000000 0 0 1
-13.514031 30.476033 14.394950 36.312976 -1.153418 1.163189 0.021252 -0.013853 -129487.000000 0 0 1
-13.694631 30.267233 12.964850 35.661403 -1.145901 1.198716 0.017724 -0.011679 626048.000000 0 0 1
-15.006431 29.810233 12.620650 35.680860 -1.104433 1.209263 0.008051 -0.020448 500252.000000 0 0 1
-15.245331 29.816733 11.046350 35.263005 -1.098149 1.252177 0.002922 -0.011275 402149.000000 0 0 1
-14.606631 28.659933 10.410450 33.810101 -1.099456 1.257801 0.002024 -0.007401 477959.000000 0 0 1
-14.873631 28.620533 9.014650 33.490651 -1.091526 1.298266 -0.003009 -0.003869 -76105.100000 0 0 1
-14.347231 27.282533 8.430650 31.957089 -1.086663 1.303825 -0.003861 -0.007506 -355786.000000 0 0 1
-12.960631 27.223233 8.293050 31.270706 -1.126461 1.302383 0.025653 -0.017388 -406634.000000 0 0 1
-12.535031 25.959333 7.878750 29.884589 -1.120945 1.304003 0.027426 -0.023543 549594.000000 0 0 1
-11.167131 25.887133 7.119850 29.078183 -1.163536 1.323429 0.058934 -0.034721 471755.000000 0 0 1
-11.282731 26.237533 5.737450 29.131195 -1.164679 1.372548 0.055793 -0.036975 -14484.700000 0 0 1
-10.087431 25.956533 5.070150 28.305552 -1.200132 1.390702 0.076867 -0.031961 -342799.000000 0 0 1
-10.166331 26.375133 3.560150 28.489939 -1.202894 1.445507 0.051360 -0.025997 -22993.000000 0 0 1
-9.829831 27.702833 3.339450 29.584193 -1.229824 1.457676 0.049534 -0.022527 -131459.000000 0 0 1
-10.210031 28.157333 2.075150 30.023098 -1.222935 1.501623 0.037497 -0.021386 -109296.000000 0 0 1
-9.812531 29.585933 1.658350 31.214793 -1.250551 1.517644 0.046219 -0.020712 -225865.000000 0 0 1
-10.451831 30.598533 2.341250 32.419014 -1.241643 1.498515 0.026417 -0.031953 -356294.000000 0 0 1
-10.145731 31.897133 1.847850 33.522791 -1.262839 1.515646 0.020333 -0.019277 -119928.000000 0 0 1
-10.766031 33.095533 2.642950 34.902821 -1.256292 1.495001 0.014676 -0.011811 523910.000000 0 0 1
-12.053631 33.564933 2.261150 35.735242 -1.226025 1.507479 0.029962 -0.018454 -115559.000000 0 0 1
-12.024431 34.320733 1.048350 36.381296 -1.233806 1.541977 0.030421 -0.011496 -358605.000000 0 0 1
-13.235631 -33.659213 0.421350 36.170459 1.196144 1.559147 0.042278 -0.013143 892394.000000 0 0 1
-14.194931 34.137333 -0.123150 36.971188 -1.176728 1.574127 0.040088 -0.019819 461080.000000 0 0 1
-14.525731 34.181033 -1.517850 37.170469 -1.168956 1.611643 0.044021 -0.011379 16098.100000 0 0 1
-13.360831 33.780433 -2.436650 36.408333 -1.194158 1.637772 0.031808 -0.006600 -149010.000000 0 0 1
-13.120531 32.374933 -2.477850 35.020342 -1.185757 1.641610 0.027780 -0.005848 1092520.000000 0 0 1
-11.737431 32.002033 -2.701850 34.193529 -1.219259 1.649895 0.022164 0.004110 1098350.000000 0 0 1
-11.610431 30.483633 -2.632650 32.725905 -1.206886 1.651329 0.014951 -0.001624 51857.500000 0 0 1
-11.531931 29.731633 -3.829650 32.118868 -1.200793 1.690314 0.013559 -0.001446 -77481.600000 0 0 1
-10.331731 29.914333 -4.578750 31.977757 -1.238246 1.714476 0.010327 0.002162 206677.000000 0 0 1
-10.381031 29.238333 -5.939050 31.589844 -1.229631 1.759927 0.023632 0.000962 -196597.000000 0 0 1
-10.487431 27.810033 -5.962650 30.313979 -1.210177 1.768784 0.017086 0.002943 699.474000 0 0 1
-10.455531 27.315233 -7.272750 30.138563 -1.205229 1.814512 0.015631 0.007294 -344463.000000 0 0 1
-11.087131 25.934533 -7.398650 29.159295 -1.166806 1.827333 0.029089 0.005530 -18398.500000 0 0 1
-10.536531 24.932633 -6.537150 27.845808 -1.170960 1.807771 -0.004033 0.010398 25058.300000 0 0 1
-11.051131 23.631733 -6.749650 26.947061 -1.133371 1.823970 0.017589 0.007808 -255156.000000 0 0 1
-10.576931 22.603633 -5.765950 25.613314 -1.133132 1.797858 0.017508 0.005031 -1448540.000000 0 0 1
-9.252831 22.251133 -5.908850 24.812140 -1.176713 1.811250 0.039250 -0.002052 -915778.000000 0 1 0
-8.956131 21.020133 -5.249650 23.443914 -1.168016 1.796635 0.050788 -0.002789 -346618.000000 0 1 0
-8.925131 21.021933 -3.678250 23.132427 -1.169296 1.730483 0.037137 -0.004645 -350972.000000 0 1 0
-10.092331 20.880533 -2.897850 23.371978 -1.120568 1.695104 0.047715 -0.006873 -336549.000000 0 1 0
-10.712331 19.651933 -2.953750 22.576030 -1.071720 1.702008 0.063771 -0.011998 -98590.500000 0 1 0
-11.857131 19.527733 -1.922550 22.926406 -1.025104 1.654752 0.052467 -0.006189 -282701.000000 0 1 0
-11.340331 19.466533 -0.595750 22.536724 -1.043303 1.597234 0.040007 -0.017839 378923.000000 0 1 0
-11.021231 18.184633 -0.077150 21.263922 -1.025923 1.574425 0.036330 -0.011398 -72681.600000 0 1 0
-10.779231 18.332933 1.467350 21.317631 -1.039269 1.501909 0.033007 -0.015340 -1067420.000000 0 1 0
-11.940931 18.535233 2.154950 22.153657 -0.998489 1.473369 0.048082 -0.018717 -1028260.000000 0 1 0
-11.709131 18.697533 3.542850 22.343976 -1.011306 1.411565 0.041753 -0.010386 -77590.800000 0 1 0
-12.952931 18.577833 4.468650 23.084262 -0.961935 1.375987 0.047534 -0.019502 200102.000000 0 1 0
-13.357531 17.243833 4.684650 22.309625 -0.911720 1.359238 0.028096 -0.023681 -427189.000000 0 1 0
-14.681331 17.295733 5.121950 23.257649 -0.866975 1.348750 0.039453 -0.025004 -518162.000000 0 1 0
-15.137031 15.831533 5.457850 22.573331 -0.807820 1.326593 0.027461 -0.030836 -507544.000000 0 1 0
-14.539331 15.204633 6.578650 22.042043 -0.807762 1.267718 0.030858 -0.027883 153510.000000 0 1 0
-14.976831 15.711433 7.842550 23.079432 -0.809331 1.224085 0.024555 -0.024952 -658845.000000 0 1 0
-13.846131 15.769533 8.885150 22.789019 -0.850253 1.170287 0.017938 -0.014132 429945.000000 0 1 0
-12.787331 16.712733 8.764250 22.795687 -0.917685 1.176163 0.019732 -0.023913 448241.000000 0 1 0
-11.780031 16.272333 7.850550 21.568243 -0.944190 1.198252 0.021992 -0.021114 239500.000000 0 1 0
-10.577131 17.290533 7.755750 21.702302 -1.021797 1.205346 0.040894 -0.023017 539061.000000 0 1 0
-9.742931 17.266333 8.898250 21.730849 -1.057061 1.148917 0.040947 -0.024567 -323532.000000 0 1 0
-8.986231 18.453933 8.860050 22.356218 -1.117639 1.163299 0.040517 -0.022162 36059.900000 0 1 0
-7.675031 18.423833 9.698050 22.189995 -1.176078 1.118484 0.037902 -0.022719 182007.000000 0 1 0
-6.685631 17.633333 9.034750 20.910734 -1.208395 1.124018 0.031352 -0.015890 -61997.000000 0 1 0
-5.422331 17.661133 9.672250 20.853530 -1.272911 1.088496 0.028717 -0.019946 539308.000000 0 1 0
-4.448931 18.742933 9.121750 21.314241 -1.337744 1.128556 0.028230 -0.020573 -996919.000000 0 1 0
-4.879231 20.028433 9.468050 22.684554 -1.331836 1.140237 0.041642 -0.027840 119034.000000 0 1 0
-4.395131 21.091933 8.570450 23.187053 -1.365356 1.192194 0.050272 -0.027578 1238300.000000 0 1 0
-2.929531 21.687333 8.724050 23.559109 -1.436529 1.191459 0.049261 -0.018877 1657190.000000 0 1 0
-1.910131 20.697233 8.418550 22.425344 -1.478768 1.185964 0.032767 -0.007647 541446.000000 0 1 0
-0.730931 21.424933 8.027250 22.891019 -1.536694 1.212507 0.023563 -0.012054 -35292.800000 0 1 0
0.489269 20.549133 7.984450 22.051252 1.546991 1.200292 0.009959 -0.005508 -465563.000000 0 1 0
0.989569 20.066233 9.224450 22.107090 1.521521 1.140366 0.007171 -0.002955 -92785.800000 0 1 0
2.223269 19.371133 9.108350 21.520822 1.456524 1.133784 0.003405 -0.013775 184308.000000 0 1 0
2.783869 19.062433 10.546450 21.962556 1.425782 1.069912 -0.003572 -0.020871 680398.000000 0 1 0
3.853069 18.068833 10.529350 21.264903 1.360699 1.052787 0.012775 -0.018688 701798.000000 0 1 0
4.377369 17.851333 11.854450 21.871430 1.330329 0.997974 0.006297 -0.016742 434791.000000 0 1 0
5.888469 18.203833 11.890350 22.526296 1.257945 1.014737 0.024491 -0.021396 544688.000000 0 1 0
6.797069 17.452033 11.070350 21.756062 1.199399 1.036960 0.022123 -0.022638 -41639.100000 0 1 0
7.504169 16.562033 11.872650 21.715739 1.145372 0.992342 0.023548 -0.022606 -54173.600000 0 1 0
8.791369 16.023733 11.141150 21.404986 1.068993 1.023368 0.031031 -0.025725 472356.000000 0 1 0
9.743569 17.028433 10.883450 22.435556 1.051073 1.064321 0.040513 -0.031985 -1355370.000000 0 1 0
10.882469 16.452633 10.412550 22.305570 0.986419 1.085112 0.035492 -0.028109 -642609.000000 0 1 0
11.884769 17.463833 9.758450 23.269305 0.973253 1.138045 0.037529 -0.023712 161778.000000 0 1 0
12.934869 16.940433 8.989050 23.132058 0.918679 1.171688 0.033921 -0.019572 -52106.900000 0 1 0
13.848269 17.968433 8.631750 24.272335 0.914178 1.207218 0.031249 -0.017398 3611.450000 0 1 0
14.949569 17.595933 7.634150 24.318444 0.866532 1.251473 0.026332 -0.016417 -221749.000000 0 1 0
15.980069 16.804033 8.164050 24.584341 0.810526 1.232285 0.038540 -0.017629 -106167.000000 0 1 0
16.926069 16.472733 7.182750 24.686730 0.771826 1.275571 0.058672 -0.013217 -343455.000000 0 1 0
18.320769 16.072733 7.677950 25.552578 0.720129 1.265604 0.034775 -0.014645 -337691.000000 0 0 1
18.419569 14.824633 8.436950 25.104430 0.677680 1.228051 0.035567 -0.012560 215915.000000 0 0 1
19.568569 14.839033 9.257350 26.245463 0.648798 1.210318 0.031414 -0.005466 -263806.000000 0 0 1
19.791269 13.634233 10.104550 26.070837 0.603238 1.172791 0.028174 -0.007041 -193478.000000 0 0 1
20.581569 12.608033 9.540150 25.953380 0.549624 1.194382 0.044381 -0.014257 148219.000000 0 0 1
20.825869 11.704433 10.599250 26.135315 0.512020 1.153213 0.056635 -0.012819 -167096.000000 0 0 1
21.842669 10.616033 10.246550 26.358948 0.452403 1.171542 0.056335 -0.004466 21996.700000 0 0 1
23.229469 10.988333 10.191050 27.644334 0.441843 1.193241 0.045228 -0.011014 1250170.000000 0 0 1
24.028969 10.127133 9.418650 27.724739 0.398864 1.224177 0.059409 -0.012366 -411657.000000 0 0 1
24.248169 8.651633 9.907550 27.585938 0.342716 1.203437 0.077188 -0.023790 -1920000.000000 0 0 1
23.172569 7.845033 9.765150 26.341425 0.326437 1.191018 0.074198 -0.020184 -811751.000000 0 0 1
23.424369 6.443033 10.070050 26.298662 0.268419 1.177851 0.069446 -0.025792 230105.000000 0 0 1
24.400469 5.615833 9.137250 26.653514 0.226213 1.220883 0.079054 -0.032088 589251.000000 0 0 1
23.951669 5.609333 7.835150 25.817371 0.230048 1.262450 0.084036 -0.026573 -122784.000000 0 0 1
25.032169 5.265033 7.047250 26.532881 0.207309 1.301966 0.091506 -0.028033 -441715.000000 0 0 1
24.564469 5.042933 5.584150 25.690991 0.202481 1.351689 0.098393 -0.035862 -123117.000000 0 0 1
23.864269 3.806333 5.420750 24.766430 0.158167 1.350135 0.112077 -0.039065 506754.000000 0 1 0
23.502269 3.678233 4.060650 24.132445 0.155246 1.401727 0.100356 -0.032911 144845.000000 0 1 0
22.458269 2.541633 3.810150 22.920536 0.112692 1.403788 0.089636 -0.025890 667510.000000 0 1 0
23.066269 1.256633 4.091350 23.459988 0.054425 1.395503 0.091399 -0.025108 915232.000000 0 1 0
22.107869 0.239233 3.768950 22.428109 0.010821 1.401949 0.062503 -0.019285 329791.000000 0 1 0
22.490169 -1.169567 4.213650 22.911360 -0.051957 1.385833 0.058726 -0.020438 -654961.000000 0 1 0
22.295569 -1.414767 5.609950 23.034007 -0.063370 1.324771 0.053507 -0.019490 689724.000000 0 1 0
22.594769 -2.791867 5.873850 23.512129 -0.122939 1.318300 0.050212 -0.019860 -370001.000000 0 1 0
22.278569 -3.160467 7.312950 23.660144 -0.140921 1.256568 0.061201 -0.011626 -286768.000000 0 1 0
22.353869 -4.542867 7.539150 24.024402 -0.200495 1.251591 0.055178 -0.016099 605029.000000 0 1 0
22.187069 -4.798467 8.924050 24.391187 -0.212993 1.196227 0.065156 -0.014484 -259954.000000 0 1 0
22.176069 -6.338567 9.278150 24.860401 -0.278406 1.188330 0.080321 -0.023105 191144.000000 0 1 0
20.941869 -6.988367 8.996950 23.839972 -0.322083 1.183821 0.078802 -0.010982 644856.000000 0 1 0
20.887569 -8.338667 9.411550 24.380344 -0.379831 1.174472 0.089720 -0.012564 -93656.300000 0 1 0
-25.889211 -33.199113 4.950450 42.390321 0.908484 1.453747 0.040963 -0.024320 -49356.800000 0 0 1
-26.465411 -34.321913 5.589250 43.699558 0.913931 1.442543 0.039257 -0.022997 190885.000000 0 0 1
-26.814611 -33.960113 6.901650 43.817182 0.902434 1.412628 0.034518 -0.011051 -135194.000000 0 0 1
-27.553291 33.728333 7.747350 44.235797 -0.885824 1.394751 0.034280 -0.005910 371930.000000 0 0 1
-28.939041 33.605133 7.469750 44.972994 -0.859865 1.403929 0.042234 -0.013023 3313.960000 0 0 1
-29.460541 32.351433 7.867150 44.457066 -0.832133 1.392899 0.038248 -0.010898 30305.300000 0 0 1
-30.986921 32.173433 7.985650 45.377193 -0.804182 1.393891 0.052952 -0.012057 -24485.700000 0 0 1
-31.579611 32.264233 6.718550 45.644183 -0.796121 1.423066 0.037576 -0.013013 -578993.000000 0 0 1
-32.973841 32.157633 6.779250 46.554761 -0.772867 1.424658 0.022132 -0.009725 -481889.000000 0 0 1
-33.636781 32.269433 5.407450 46.925365 -0.764654 1.455305 0.018743 -0.001906 -266791.000000 0 0 1
-33.389011 31.132833 4.575450 45.880433 -0.750445 1.470905 0.020170 -0.000642 187076.000000 0 0 1
-34.330237 31.168633 3.541850 46.503694 -0.737166 1.494560 0.028641 0.006763 -102502.000000 0 0 1
-34.282045 29.846733 2.727350 45.535970 -0.716346 1.510866 0.032205 -0.002630 -115574.000000 0 0 1
-34.607061 28.697333 3.405250 45.086376 -0.692314 1.495197 0.048236 -0.012705 -52782.200000 0 0 1
-34.140647 27.581233 2.731550 43.974647 -0.679522 1.508640 0.046527 -0.017523 -465942.000000 0 0 1
-34.420396 26.255933 3.413850 43.425707 -0.651644 1.492102 0.055391 -0.020319 -360871.000000 0 0 1
-35.760202 25.860433 3.261350 44.251446 -0.626103 1.497029 0.065223 -0.019603 -486851.000000 0 0 1
35.688790 24.665533 3.909650 43.558737 0.604747 1.480920 0.064106 -0.006142 843282.000000 0 0 1
34.129160 24.451333 3.858950 42.161104 0.621671 1.479139 0.073475 -0.009451 427498.000000 0 0 1
33.609980 23.658333 2.834450 41.199291 0.613344 1.501943 0.066035 -0.023857 -572.651000 0 0 1
34.078810 22.310233 2.618150 40.816252 0.579648 1.506607 0.057768 -0.014676 -206540.000000 0 0 1
32.990370 21.483633 1.862850 39.412957 0.577225 1.523514 0.069639 -0.023229 1873740.000000 0 0 1
31.684790 21.245633 2.507050 38.230722 0.590673 1.505172 0.065249 -0.031672 2006550.000000 0 0 1
31.681160 20.268133 3.630950 37.784612 0.569138 1.474552 0.047511 -0.014830 -415092.000000 0 0 1
32.225820 18.871433 3.286650 37.489152 0.529764 1.483014 0.054598 -0.025591 -42957.000000 0 0 1
31.367680 18.154333 2.393050 36.321314 0.524655 1.504863 0.048103 -0.032261 370428.000000 0 0 1
31.791780 16.831133 2.053250 36.030822 0.486904 1.513780 0.045005 -0.030212 -357743.000000 0 0 1
31.191020 15.725433 2.966150 35.056625 0.466974 1.486085 0.060018 -0.027326 487364.000000 0 0 1
29.766180 15.802633 2.936850 33.828594 0.488055 1.483871 0.063132 -0.017960 380312.000000 0 0 1
29.184230 14.899933 3.828150 32.990635 0.472050 1.454497 0.067075 -0.025320 33167.300000 0 0 1
27.649590 15.106533 3.894650 31.747054 0.500042 1.447809 0.049427 -0.014902 178864.000000 0 0 1
26.961170 14.784033 2.703250 30.867132 0.501572 1.483107 0.048193 -0.018621 -452289.000000 0 0 1
25.633860 15.213133 2.686550 29.929112 0.535610 1.480912 0.025240 -0.009881 -535464.000000 0 0 1
24.890260 14.564333 1.503050 28.877396 0.529423 1.518723 0.022624 -0.017608 -944256.000000 0 0 1
25.245160 15.060633 0.200850 29.396957 0.537897 1.563964 0.027746 -0.016722 797183.000000 0 0 1
26.498560 14.585133 -0.297650 30.248775 0.503160 1.580637 0.040606 -0.015157 -264684.000000 0 0 1
27.170550 15.307733 -1.468550 31.220540 0.513069 1.617852 0.050273 -0.012362 20476.800000 0 0 1
27.544550 16.679333 -1.330750 32.228454 0.544483 1.612099 0.047728 -0.022987 622477.000000 0 0 1
28.271840 16.997733 -0.119450 32.988394 0.541320 1.574417 0.041112 -0.021388 -572180.000000 0 0 1
28.971830 18.343533 -0.205450 34.291316 0.564439 1.576788 0.058974 -0.020546 373905.000000 0 0 1
30.099960 18.307233 -1.104750 35.247451 0.546438 1.602144 0.047679 -0.022343 880104.000000 0 0 1
30.829640 19.525333 -1.225450 36.513108 0.564567 1.604365 0.037295 -0.018407 113275.000000 0 0 1
30.184890 20.638133 -2.078850 36.624878 0.599719 1.627587 0.032228 -0.017105 -441031.000000 0 0 1
31.108160 21.608533 -2.439750 37.955219 0.607110 1.635120 0.002276 -0.012758 -12963.700000 0 0 1
30.466020 22.599033 -3.203150 38.067766 0.638218 1.655039 0.019777 -0.007425 -746426.000000 0 0 1
31.413440 23.716533 -3.652950 39.530016 0.646681 1.663338 0.006357 -0.004948 -369065.000000 0 0 1
31.782230 24.604433 -2.627550 40.278931 0.658783 1.636077 0.021999 -0.003995 428850.000000 0 0 1
32.674760 24.062033 -1.641350 40.611764 0.634747 1.611223 0.036239 -0.000861 -699761.000000 0 0 1
32.633700 24.703633 -0.238350 40.930241 0.647965 1.576620 0.044423 -0.015520 4808.850000 0 0 1
33.070890 26.069633 -0.156750 42.110973 0.667563 1.574519 0.058407 -0.014751 1798970.000000 0 0 1
34.444690 26.124933 0.383750 43.233043 0.648894 1.561920 0.063262 -0.019026 2180010.000000 0 0 1
35.237660 27.451933 0.037550 44.668811 0.661836 1.569956 0.052599 -0.013308 283605.000000 0 0 1
35.842223 27.558133 -1.257150 45.229371 0.655471 1.598595 0.039258 -0.014291 116368.000000 0 0 1
34.883390 27.598033 -2.282350 44.538875 0.669322 1.622063 0.023920 -0.015156 -299442.000000 0 0 1
35.320680 27.134633 -3.681250 44.692173 0.655071 1.653259 0.020782 -0.010172 64797.800000 0 0 1
-35.591229 28.127633 -4.278450 45.565387 -0.668796 1.664832 0.017250 -0.006195 243751.000000 0 0 1
-35.213506 27.878233 -5.625250 45.264007 -0.669654 1.695395 0.018911 -0.008210 -23788.600000 0 0 1
35.386010 28.021433 -6.669050 45.627257 0.669769 1.717486 0.003935 -0.006420 261942.000000 0 0 1
34.498610 26.931733 -6.561450 44.255225 0.662837 1.719609 -0.004305 0.002077 -224162.000000 0 0 1
33.310820 27.035133 -7.309850 43.519456 0.681776 1.739564 -0.010142 -0.001540 475780.000000 0 0 1
32.164060 26.073733 -6.851950 41.968030 0.681200 1.734796 -0.018030 -0.002212 -74502.500000 0 0 1
32.298060 24.677633 -7.210250 41.281206 0.652439 1.746359 -0.025319 0.006401 746035.000000 0 0 1
33.493360 23.982133 -6.742350 41.742150 0.621401 1.733031 -0.021465 0.005285 823539.000000 0 0 1
33.483570 22.497933 -7.008250 40.944133 0.591624 1.742810 -0.023145 0.008083 -379192.000000 0 0 1
32.695560 21.719233 -6.152050 39.731252 0.586353 1.726263 0.001351 -0.001296 41408.300000 0 0 1
33.058900 20.364533 -6.227250 39.324085 0.552107 1.729823 0.021629 -0.012468 -607333.000000 0 0 1
31.957110 19.439933 -5.765150 37.847124 0.546510 1.723719 0.038605 -0.016253 -749977.000000 0 0 1
30.799060 19.426633 -6.542150 36.996971 0.562726 1.748560 0.016388 -0.022522 -219066.000000 0 0 1
29.665600 18.970433 -5.816650 35.689754 0.568941 1.734505 0.071300 -0.031109 -86672.000000 0 0 1
28.408180 18.911033 -6.665150 34.771771 0.587326 1.763673 0.051436 -0.035036 -503713.000000 0 0 1
28.453220 17.867733 -7.618050 34.451071 0.560731 1.793766 0.045807 -0.033708 -296743.000000 0 0 1
27.349950 17.858833 -8.481950 33.747609 0.578464 1.824855 0.053417 -0.033967 -258346.000000 0 0 1
27.232030 16.555933 -9.365250 33.217319 0.546251 1.856611 0.043366 -0.026627 -216098.000000 0 0 1
26.219960 16.532333 -10.337950 32.675335 0.562562 1.892711 0.039474 -0.023963 -144523.000000 0 0 1
26.371060 15.454333 -11.248650 32.569945 0.530087 1.923428 0.029461 -0.013029 -165216.000000 0 0 1
25.688060 15.823033 -12.608750 32.699012 0.552078 1.966655 0.030688 -0.008137 1200640.000000 0 0 1
24.240660 15.700733 -12.547250 31.488983 0.574758 1.980639 0.034319 -0.010417 1300510.000000 0 0 1
23.632460 15.698433 -13.815050 31.556133 0.586344 2.023939 0.022398 -0.012123 -399084.000000 0 0 1
23.561460 14.357433 -14.596850 31.214521 0.547274 2.057404 0.018302 -0.012710 -77205.900000 0 0 1
24.741860 13.740933 -15.128350 32.091118 0.506958 2.061695 0.023042 -0.014890 458119.000000 0 0 1
25.250260 14.358333 -16.277250 33.296940 0.517042 2.081569 0.023422 -0.019719 -332867.000000 0 0 1
26.626060 13.861433 -16.786950 34.393140 0.479989 2.080696 0.032985 -0.011993 117834.000000 0 0 1
26.617860 12.559433 -17.227350 34.103246 0.440869 2.100355 0.030489 -0.014520 13601.600000 0 0 1
27.926450 12.134533 -17.552250 35.145625 0.409904 2.093720 0.032874 -0.003691 198779.000000 0 0 1
27.969150 10.693433 -18.110750 34.994601 0.365181 2.114758 0.018121 -0.001347 -449937.000000 0 0 1
27.328530 10.631433 -19.350450 35.132831 0.371008 2.154094 0.023219 -0.007193 -261799.000000 0 0 1
27.476950 9.372633 -20.006850 35.257667 0.328732 2.174198 0.013710 0.006595 40606.000000 0 0 1
28.871070 9.001933 -20.581250 36.580887 0.302245 2.168352 0.013528 0.004087 -390320.000000 0 0 1
29.224440 9.905233 -21.619150 37.677170 0.326785 2.181934 0.017054 -0.005893 315651.000000 0 0 1
29.822350 9.265833 -22.794450 38.662839 0.301245 2.201323 0.015267 0.000545 964500.000000 0 0 1
31.318280 8.779833 -22.675150 39.649496 0.273326 2.179604 0.011005 -0.005588 236338.000000 0 0 1
32.254510 9.807933 -22.907850 40.759275 0.295195 2.167632 0.009659 0.001868 -245581.000000 0 0 1
33.535100 9.222133 -22.868750 41.624877 0.268366 2.152444 -0.008134 0.001879 627.666000 0 0 1
34.653130 10.276533 -22.594150 42.625604 0.288293 2.129468 0.011669 -0.002119 -84772.300000 0 0 1
34.534350 10.868633 -21.330050 42.020465 0.304906 2.103206 0.003071 -0.001562 -373410.000000 0 0 1
35.479420 11.827933 -21.062150 42.922062 0.321788 2.083697 -0.011123 0.007520 -751524.000000 0 0 1
35.316430 12.546833 -19.718550 42.349669 0.341361 2.055123 -0.020267 0.002254 -390294.000000 0 0 1
-35.829702 11.952133 -18.621150 42.111379 -0.321974 2.028833 -0.012293 0.003721 149814.000000 0 0 1
35.606260 12.713033 -17.495950 41.659755 0.342937 2.004211 -0.004206 0.000233 -70840.400000 0 0 1
-35.738564 11.820633 -16.315950 41.026608 -0.319426 1.979796 -0.006229 -0.002043 -6380.000000 0 0 1
35.166890 10.652833 -16.238150 40.173007 0.294136 1.986906 -0.008737 -0.000409 635732.000000 0 0 1
35.705770 9.726833 -15.331250 40.056966 0.265963 1.963553 -0.012896 -0.008762 75590.700000 0 0 1
34.801160 8.457833 -15.134650 38.880757 0.238411 1.970622 0.028343 -0.002706 -558629.000000 0 0 1
33.717240 8.668633 -14.297850 37.635435 0.251648 1.960489 0.032809 -0.005261 -248042.000000 0 0 1
33.961490 8.394533 -12.936750 37.298934 0.242321 1.924996 0.039360 -0.010460 -539839.000000 0 0 1
32.833000 8.882833 -12.017650 36.074014 0.264221 1.910427 0.052977 -0.013411 -269446.000000 0 0 1
32.830450 10.289433 -11.826450 36.380981 0.303715 1.901885 0.050931 -0.013895 796075.000000 0 0 1
31.883550 10.794133 -10.838850 35.363183 0.326437 1.882311 0.044832 -0.005893 568121.000000 0 0 1
32.299500 10.405033 -9.351550 35.199061 0.311645 1.839702 0.061906 -0.008048 1194650.000000 0 0 1
33.503950 11.009533 -8.775250 36.341842 0.317488 1.814671 0.063181 -0.006581 1026130.000000 0 0 1
33.376000 12.378633 -8.388650 36.572631 0.355157 1.802226 0.071508 -0.016001 -733048.000000 0 0 1
33.285730 12.743733 -6.873150 36.298522 0.365643 1.761297 0.064242 -0.024578 582445.000000 0 0 1
34.533180 12.650433 -6.159350 37.289563 0.351145 1.736733 0.069228 -0.023668 698222.000000 0 0 1
34.310640 12.923833 -4.770850 36.973050 0.360235 1.700193 0.066316 -0.022003 -99038.300000 0 0 1
35.556420 12.919933 -3.865250 38.027934 0.348531 1.672615 0.067368 -0.020330 -214004.000000 0 0 1
-35.413160 14.061133 -4.069550 38.319298 -0.377969 1.677198 0.059662 -0.022606 450249.000000 0 0 1
-34.094092 13.906533 -3.530150 36.990009 -0.387287 1.666377 0.061514 -0.028547 1009010.000000 0 0 1
-33.183991 15.157233 -3.562750 36.655316 -0.428464 1.668146 0.061262 -0.027957 359480.000000 0 0 1
-33.762401 16.116133 -2.663350 37.506305 -0.445356 1.641867 0.076790 -0.024695 771235.000000 0 0 1
-32.798441 17.053533 -2.174750 37.030937 -0.479480 1.629558 0.063293 -0.024402 299260.000000 0 0 1
-33.357821 17.960133 -0.986350 37.898331 -0.493900 1.596825 0.068611 -0.025697 589178.000000 0 0 1
-34.509337 18.736533 -1.339450 39.290535 -0.497407 1.604894 0.052685 -0.019126 650965.000000 0 0 1
-35.019169 19.404133 -0.196250 40.036247 -0.505986 1.575698 0.037400 -0.020626 383219.000000 0 0 1
35.342890 20.073733 -0.466550 40.648398 0.516536 1.582274 0.033917 -0.018156 329721.000000 0 0 1
35.413410 21.302733 -1.201350 41.344398 0.541554 1.599858 0.043184 -0.014692 92838.900000 0 0 1
35.296030 21.148133 -2.634950 41.231010 0.539805 1.634747 0.009950 -0.003439 -34122.000000 0 0 1
35.612260 22.502033 -3.353950 42.259005 0.563519 1.650246 0.027550 -0.028502 890662.000000 0 0 1
-34.751311 22.866633 -3.493050 41.746113 -0.581984 1.654568 0.043239 -0.015657 834724.000000 0 0 1
-34.641054 23.933533 -4.431050 42.337346 -0.604593 1.675649 0.048992 -0.024828 -996411.000000 0 0 1
-33.212971 24.247233 -4.765550 41.397346 -0.630612 1.686169 0.064126 -0.032392 -824158.000000 0 0 1
-32.644521 23.318033 -5.685250 40.518113 -0.620260 1.711575 0.035310 -0.015368 -2173650.000000 0 0 1
-31.376631 23.659233 -5.948850 39.744699 -0.646082 1.721037 0.047590 -0.011831 -2238140.000000 0 0 1
-30.862071 22.809033 -7.154750 39.037288 -0.636465 1.755118 0.034433 -0.031469 -676258.000000 0 0 1
-31.431601 23.051233 -8.426850 39.878775 -0.632778 1.783713 0.055918 -0.039003 67416.000000 0 0 1
-30.540321 22.687433 -9.483850 39.209364 -0.638921 1.815096 0.032701 -0.037965 382483.000000 0 0 1
-31.257341 22.560333 -10.860050 40.049103 -0.625182 1.845403 0.036274 -0.012750 195020.000000 0 0 1
-31.849971 23.824233 -11.238250 41.331743 -0.642229 1.846167 0.042541 -0.013313 98245.800000 0 0 1
-32.357091 23.639533 -12.524650 41.984232 -0.630958 1.873726 0.024009 -0.003787 -551956.000000 0 0 1
-32.754271 25.004533 -13.177550 43.263342 -0.652021 1.880304 0.044777 -0.008873 -91761.400000 0 0 1
-31.767471 25.965533 -13.422150 43.168684 -0.685238 1.886961 0.047714 -0.008400 -437275.000000 0 0 1
-30.761301 25.651333 -14.361550 42.550002 -0.695063 1.915079 0.043238 -0.010502 -276325.000000 0 0 1
-29.401761 26.273033 -14.021450 41.848977 -0.729261 1.912453 0.041636 -0.008787 27350.800000 0 0 1
-28.501561 25.625133 -13.091950 40.501674 -0.732306 1.899953 0.049373 -0.016643 519236.000000 0 0 1
-28.996021 25.460633 -11.748250 40.336515 -0.720568 1.866336 0.057508 -0.019162 -459711.000000 0 0 1
-29.191851 26.660033 -10.845450 40.994455 -0.740098 1.838543 0.075616 -0.012266 -291826.000000 0 0 1
-27.975271 27.295933 -10.600650 40.497624 -0.773108 1.835641 0.059894 -0.014433 -501102.000000 0 0 1
-28.179441 28.552333 -9.966550 41.335805 -0.791971 1.814308 0.047409 -0.015213 -181149.000000 0 0 1
-26.910471 29.320333 -9.597950 40.938686 -0.828229 1.807446 0.043326 -0.009461 -176416.000000 0 0 1
-27.243361 30.453733 -8.772150 41.792119 -0.840983 1.782269 0.015081 -0.013666 543297.000000 0 0 1
-26.114311 31.324533 -8.533850 41.665456 -0.875860 1.777074 0.024125 -0.014227 442701.000000 0 0 1
34.189380 -25.216687 33.712132 54.233779 -0.635491 0.900003 0.028802 -0.006656 -208606.000000 0 0 1
33.728410 -23.927367 34.004664 53.539160 -0.617015 0.882611 0.024922 -0.012888 965708.000000 0 0 1
32.679210 -23.833767 -33.607530 52.587501 -0.630137 2.264096 0.010470 -0.007975 1001000.000000 0 0 1
32.223180 -22.380967 -33.259190 51.433595 -0.607066 2.273972 0.006141 -0.007027 102413.000000 0 0 1
31.720450 -21.619067 34.286440 51.469709 -0.598236 0.841764 0.003566 -0.006113 102177.000000 0 0 1
31.496700 -20.230167 -33.978700 50.555453 -0.570939 2.307848 -0.003521 0.001928 163640.000000 0 0 1
31.150810 -19.469867 33.320931 49.595697 -0.558613 0.834091 0.000728 -0.002789 -760131.000000 0 0 1
32.278140 -19.163967 32.588358 49.710532 -0.535784 0.855869 0.007042 -0.010023 -671818.000000 0 0 1
31.976020 -18.778667 31.204069 48.464400 -0.531009 0.871270 0.011235 -0.000300 -651316.000000 0 0 1
33.128240 -18.670167 30.207879 48.565125 -0.513204 0.899492 0.004230 0.002028 -438193.000000 0 0 1
34.098860 -17.732867 30.652969 49.160872 -0.479553 0.897555 -0.006330 0.002489 107742.000000 0 0 1
35.172290 -17.665667 29.731169 49.326546 -0.465455 0.923864 0.006637 -0.003092 -496989.000000 0 0 1
-35.652584 -16.529567 30.198179 49.560704 0.434130 0.915597 0.002935 -0.010154 -465837.000000 0 0 1
-34.522326 -16.504367 29.349909 48.224499 0.445957 0.916489 0.013432 -0.005703 447749.000000 0 0 1
-33.509651 -15.595967 29.773269 47.461337 0.435601 0.892694 0.018136 -0.008388 618052.000000 0 0 1
-32.228361 -16.124067 30.461709 47.186529 0.463893 0.869041 0.029789 -0.015129 -341614.000000 0 0 1
-31.413281 -15.151067 31.026109 46.679423 0.449399 0.843753 0.030808 -0.012993 -731483.000000 0 0 1
-30.403371 -15.817867 31.707469 46.689758 0.479729 0.824247 0.038059 -0.019761 -998787.000000 0 0 1
-29.343241 -14.882967 32.232959 46.059659 0.469393 0.795666 0.043649 -0.023129 -597667.000000 0 0 1
-29.717831 -14.135367 33.373562 46.869529 0.443981 0.778379 0.048327 -0.030936 -55148.600000 0 0 1
-28.705251 -13.229567 33.711085 46.210931 0.431862 0.753199 0.042469 -0.024134 -220374.000000 0 0 1
-28.728101 -12.651067 -33.474880 45.890314 0.414819 2.388320 0.036047 -0.014140 -170236.000000 0 0 1
-28.580611 -13.565067 -32.455260 45.323352 0.443142 2.368970 0.041515 -0.016486 152688.000000 0 0 1
-28.952701 -12.957067 -31.239430 44.520181 0.420794 2.348565 0.059892 -0.009349 -278414.000000 0 0 1
-29.188141 -13.857167 -30.031720 44.112049 0.443247 2.319658 0.063931 -0.017166 -267866.000000 0 0 1
-30.389461 -14.562767 -30.124460 45.200405 0.446873 2.300253 0.058824 -0.016653 -505013.000000 0 0 1
-30.582611 -15.149567 -28.797860 44.655596 0.459933 2.271673 0.052666 -0.007126 493845.000000 0 0 1
-31.962661 -15.851867 -28.796960 45.849300 0.460402 2.249878 0.040858 -0.010144 257079.000000 0 0 1
-31.841421 -16.996667 -29.600720 46.679390 0.490314 2.257677 0.050133 -0.012191 510918.000000 0 0 1
-33.053271 -17.762567 -29.684080 47.845294 0.493112 2.240072 0.031946 -0.011405 332792.000000 0 0 1
-32.782481 -19.096267 -30.383820 48.605915 0.527463 2.246063 0.040859 -0.009555 -378951.000000 0 0 1
-33.854691 -19.967267 -30.578650 49.798451 0.532881 2.231976 0.008221 -0.008572 -621422.000000 0 0 1
-33.362171 -21.251067 -31.026390 50.272052 0.567168 2.235937 0.017004 -0.004548 -305673.000000 0 0 1
-34.451346 -22.209267 -31.477270 51.681383 0.572609 2.225676 0.015426 -0.004016 -451686.000000 0 0 1
-35.211223 -22.669567 -30.374370 51.733373 0.572016 2.198309 0.010150 -0.000562 -247356.000000 0 0 1
35.555120 -23.627867 -30.703540 52.584694 -0.586530 2.194305 0.020194 -0.002771 150700.000000 0 0 1
-35.705904 -25.058807 -31.193430 53.627283 0.611941 2.191578 0.023644 -0.003881 -58473.900000 0 0 1
-35.316845 -25.275997 -32.503270 54.245904 0.621180 2.213278 0.035617 -0.012251 -515722.000000 0 0 1
-34.663073 -26.523037 -32.446600 54.385494 0.653137 2.210059 0.033851 -0.007730 -61853.200000 0 0 1
-34.856010 -27.512697 -33.555090 55.658189 0.668197 2.217900 0.037983 -0.012328 -551944.000000 0 0 1
35.635200 -28.097757 -33.591140 56.459863 -0.667679 2.208007 0.050136 -0.011498 -848375.000000 0 0 1
35.605980 -29.412427 -34.208018 57.472299 -0.690426 2.208322 0.044153 -0.013891 72009.200000 0 0 1
-35.489436 -30.532187 -33.386830 57.501260 0.710454 2.190296 0.044608 -0.026404 173954.000000 0 0 1
35.526990 -30.832237 -32.201970 57.006672 -0.714768 2.171085 0.053925 -0.024592 385310.000000 0 0 1
-35.416767 -31.717457 -31.443820 57.000511 0.730351 2.155127 0.042594 -0.025942 41597.300000 0 0 1
35.580580 -32.307837 -30.234330 56.779298 -0.737228 2.132334 0.025006 -0.020176 389601.000000 0 0 1
34.629990 -33.323027 -30.624310 56.986917 -0.766167 2.138138 0.041593 -0.018969 535859.000000 0 0 1
34.188710 -34.049657 -29.473770 56.541579 -0.783360 2.119142 0.026950 -0.013138 301117.000000 0 0 1
32.845970 33.931192 -29.655070 55.763847 0.801648 2.131518 0.032380 -0.016861 -253384.000000 0 0 1
31.710010 -34.033047 -29.816500 55.252119 -0.820719 2.140811 0.044242 -0.018561 -1267400.000000 0 0 1
30.623040 33.946867 -29.400040 54.355521 0.836829 2.142284 0.036507 -0.015812 -463298.000000 0 0 1
29.370960 34.230620 -30.244000 54.305508 0.861658 2.161473 0.013930 -0.014813 -346604.000000 0 0 1
29.588220 33.984418 -31.627680 55.051917 0.854441 2.182797 0.028197 -0.017960 498725.000000 0 0 1
28.362500 34.224876 -32.337850 54.968264 0.878793 2.199752 0.023118 -0.003191 553527.000000 0 0 1
28.151490 33.558235 -33.694940 55.263102 0.872791 2.226502 0.020849 -0.012241 -233318.000000 0 0 1
27.773730 32.236499 -33.480580 54.143524 0.859628 2.237460 0.015711 -0.012475 13246.100000 0 0 1
27.576100 31.534649 33.929187 53.907932 0.852267 0.890027 0.020999 -0.011673 -93186.800000 0 0 1
27.525960 29.985009 34.117316 53.110926 0.828130 0.873199 0.019161 -0.024866 160525.000000 0 0 1
28.770350 29.391199 -34.102762 53.428213 0.796072 2.263073 0.028277 -0.023160 378489.000000 0 0 1
28.585970 28.006559 -33.863410 52.423807 0.775160 2.273070 0.019825 -0.021613 -163590.000000 0 0 1
29.917070 27.274649 -33.713470 52.683352 0.739228 2.265199 0.034809 -0.029644 -488648.000000 0 0 1
30.605340 27.606949 -32.545820 52.517243 0.733936 2.239178 0.040976 -0.022046 -1219700.000000 0 0 1
31.727120 26.822539 -32.448480 52.715866 0.701825 2.233861 0.042029 -0.017353 -796247.000000 0 0 1
32.587640 27.130429 -31.202920 52.646336 0.694268 2.205190 0.037214 -0.015851 -349613.000000 0 0 1
33.417230 28.293789 -31.151860 53.737213 0.702565 2.189166 0.028914 -0.012319 209323.000000 0 0 1
32.838240 29.580249 -31.380760 54.204181 0.733250 2.188220 0.031021 -0.012977 -175979.000000 0 0 1
31.797550 30.008529 -30.344330 53.220056 0.756461 2.177506 0.030457 -0.009436 -19092.700000 0 0 1
32.463230 30.257689 -29.125620 53.081925 0.750248 2.151595 0.030353 -0.006511 368880.000000 0 0 1
31.562180 30.409099 -28.022320 52.020524 0.766794 2.139664 0.033041 -0.006004 -180366.000000 0 0 1
32.246280 30.878529 -26.753280 52.048478 0.763734 2.110646 0.035275 -0.005941 -330639.000000 0 0 1
32.740820 32.176749 -26.775710 53.143608 0.776709 2.098831 0.025124 -0.010333 67212.400000 0 0 1
33.126860 32.615999 -25.469480 53.008364 0.777628 2.071999 0.009364 -0.007017 -73641.900000 0 0 1
33.356290 34.147100 -25.385570 54.065642 0.797113 2.059557 0.015471 -0.006610 716456.000000 0 0 1
32.166400 -33.777357 -25.515540 53.166060 -0.809823 2.071362 0.018659 0.000551 798757.000000 0 0 1
32.294040 -32.373157 -25.317420 52.267562 -0.786622 2.076452 0.008604 -0.005225 -549817.000000 0 0 1
33.045080 -31.561017 -26.476190 52.811587 -0.762431 2.095935 0.008665 -0.010741 683312.000000 0 0 1
34.413350 -31.903247 -26.606930 53.944643 -0.747566 2.086591 0.020590 -0.015054 -196460.000000 0 0 1
35.291140 -31.270917 -25.696470 53.699566 -0.725073 2.069768 0.028046 -0.013183 -1423800.000000 0 0 1
-35.092097 -31.814027 -26.063050 54.063575 0.736442 2.073825 0.009068 -0.015316 -1303180.000000 0 0 1
-34.742011 -33.124347 -25.665220 54.432832 0.761567 2.061790 0.009932 -0.012566 -107937.000000 0 0 1
-34.639889 -33.524647 -24.289250 53.979547 0.769039 2.037530 0.007212 -0.004113 -404132.000000 0 0 1
-33.612561 -32.795727 -23.413350 52.474269 0.773099 2.033297 0.003587 -0.008681 -152360.000000 0 0 1
-33.745831 -31.406567 -23.352750 51.676924 0.749509 2.039689 -0.031812 -0.004084 -306878.000000 0 0 1
-33.011441 -30.905497 -22.235550 50.391712 0.752462 2.027792 -0.001420 -0.007582 38670.300000 0 0 1
-32.714501 -29.390037 -22.458450 49.380106 0.731919 2.042953 0.006495 -0.012385 -65658.300000 0 0 1
-33.901211 -28.658997 -22.598750 49.812987 0.701799 2.041678 -0.002946 -0.006228 -516030.000000 0 0 1
-34.254493 -28.357587 -23.965650 50.516091 0.691494 2.065097 0.004215 -0.004381 298194.000000 0 0 1
-35.590181 -27.606157 -24.205650 51.133887 0.659727 2.063918 0.006783 -0.000552 252649.000000 0 0 1
-35.488614 -26.341837 -23.590550 50.098385 0.638530 2.061089 -0.001878 -0.003233 71363.800000 0 0 1
35.487530 -25.313957 -24.245850 49.880080 -0.619610 2.078398 0.003257 0.003703 203730.000000 0 0 1
-35.692502 -24.824967 -25.633910 50.471091 0.607715 2.103533 0.007174 0.009183 -329945.000000 0 0 1
-34.624608 -23.938667 -25.570250 49.252015 0.604915 2.116678 0.002660 0.000519 -516089.000000 0 0 1
-34.234329 -23.463967 -26.836320 49.424034 0.600855 2.144779 0.005642 0.004398 543435.000000 0 0 1
-32.997331 -22.490167 -26.863380 48.127670 0.598253 2.162974 0.018544 -0.005976 292808.000000 0 0 1
-33.105781 -21.244367 -26.188460 47.256230 0.570527 2.158174 0.013738 -0.001494 541468.000000 0 0 1
-34.145893 -20.282667 -26.546080 47.770524 0.535996 2.160001 0.006953 0.001009 1706420.000000 0 0 1
-35.401526 -20.254767 -25.552750 48.129686 0.519685 2.130476 0.005460 -0.002045 735137.000000 0 0 1
-35.209014 -19.723967 -24.226950 47.070741 0.510638 2.111445 -0.000996 -0.007637 -489596.000000 0 0 1
-34.476434 -20.506567 -23.353150 46.416736 0.536587 2.098001 0.000361 -0.011030 -405699.000000 0 0 1
-35.202650 -21.777067 -22.788050 47.252116 0.553998 2.074035 -0.001021 -0.011309 332034.000000 0 0 1
35.366140 -21.377967 -22.111150 46.868798 -0.543704 2.062090 0.002767 -0.011763 -10649.000000 0 0 1
34.965600 -22.388367 -21.232750 46.633269 -0.569524 2.043520 0.006049 -0.008347 -364555.000000 0 0 1
33.858120 -22.013667 -20.237150 45.172071 -0.576497 2.035325 0.001596 -0.012205 -673808.000000 0 0 1
32.652850 -21.768467 -20.874450 44.450168 -0.588000 2.059651 0.006204 -0.003154 -1371310.000000 0 0 1
31.592830 -21.989567 -20.011850 43.383431 -0.608057 2.050232 0.000091 -0.004066 -541957.000000 0 0 1
30.313190 -21.215967 -20.439150 42.270150 -0.610654 2.075486 -0.000314 0.013915 -816467.000000 0 0 1
29.739540 -21.969067 -21.469550 42.755370 -0.636240 2.096878 0.001600 0.013592 -208329.000000 0 0 1
28.602080 -21.336767 -22.012950 41.927396 -0.640928 2.123541 0.007168 0.017774 -267044.000000 0 0 1
28.888100 -20.113567 -22.936750 42.013954 -0.608210 2.148297 -0.003082 0.018810 -589996.000000 0 0 1
29.308040 -18.921467 -22.218150 41.359754 -0.573281 2.137901 -0.005549 0.022195 205754.000000 0 0 1
29.464550 -17.859267 -23.106350 41.485136 -0.544913 2.161540 -0.008695 0.024559 -257224.000000 0 0 1
30.174670 -16.575167 -22.629850 41.198992 -0.502311 2.152301 -0.016930 0.014998 -318108.000000 0 0 1
29.436200 -15.833067 -21.675950 39.837453 -0.493488 2.146124 -0.021201 -0.000241 116338.000000 0 0 1
30.175950 -15.212167 -20.630450 39.593098 -0.466935 2.118891 -0.021408 -0.004010 -283907.000000 0 0 1
30.767110 -16.165067 -19.545950 39.874410 -0.483761 2.083102 -0.008228 -0.007926 376452.000000 0 0 1
31.931680 -16.768967 -20.098150 41.288813 -0.483566 2.079184 -0.009460 -0.008717 54350.800000 0 0 1
32.488630 -17.760567 -19.313150 41.760586 -0.500283 2.051579 -0.004304 -0.011251 -854790.000000 0 0 1
33.669300 -18.477867 -19.923050 43.266398 -0.501925 2.049325 -0.001696 -0.015573 -152651.000000 0 0 1
34.709230 -17.564567 -20.279050 43.868947 -0.468475 2.051343 -0.017685 -0.017044 -190636.000000 0 0 1
35.681170 -18.130467 -21.073150 45.232039 -0.470126 2.055436 -0.011414 -0.022070 -137651.000000 0 0 1
-35.124981 -17.083367 -21.752550 44.707708 0.452676 2.078933 0.001726 -0.015682 984205.000000 0 0 1
-34.100945 -16.482667 -20.921150 43.269473 0.450239 2.075455 0.028232 -0.025716 252010.000000 0 0 1
-33.263891 -15.666567 -21.677650 42.683115 0.440162 2.103511 0.042808 -0.020393 -951158.000000 0 0 1
-32.082551 -15.163467 -20.849350 41.157213 0.441520 2.102008 0.047169 -0.014494 -616518.000000 0 0 1
-30.929311 -15.921167 -20.674450 40.466514 0.475386 2.107031 0.054229 -0.028177 20652.400000 0 0 1
-31.149721 -17.090467 -19.942850 40.744404 0.501810 2.082269 0.051913 -0.028931 -1365440.000000 0 0 1
-29.984921 -18.030367 -20.059850 40.330971 0.541385 2.091373 0.043528 -0.033781 -786208.000000 0 0 1
-30.254971 -19.278967 -19.525850 40.844836 0.567336 2.069229 0.034975 -0.035004 -158167.000000 0 0 1
-29.256591 -20.198867 -19.836750 40.711657 0.604257 2.079734 0.032754 -0.028584 -354554.000000 0 0 1
-29.642071 -21.591867 -19.297550 41.439794 0.629546 2.055196 0.027750 -0.011454 70387.800000 0 0 1
-30.657831 -22.204667 -20.074450 42.847793 0.626832 2.058395 0.031800 -0.017379 129115.000000 0 0 1
-30.916751 -23.521067 -19.627450 43.523820 0.650369 2.038636 0.028402 -0.008837 836865.000000 0 0 1
-31.995971 -24.162467 -20.616350 45.084375 0.646803 2.045735 0.020886 -0.009340 996859.000000 0 0 1
-31.376911 -24.455167 -21.880250 45.401664 0.662053 2.073648 0.024189 -0.012468 464415.000000 0 0 1
-32.254621 -25.178987 -22.700150 46.793576 0.662819 2.077288 0.024525 -0.007899 88894.700000 0 0 1
-31.639671 -25.313277 -24.112350 47.151206 0.674771 2.107590 0.030103 -0.006555 424750.000000 0 0 1
-30.520941 -26.185767 -24.218450 46.944175 0.709098 2.112853 0.042409 -0.009364 -42151.400000 0 0 1
-30.296041 -26.359317 -25.628570 47.639136 0.716024 2.138827 0.039316 -0.006363 -358631.000000 0 0 1
-28.856861 -26.590217 -26.086070 47.119435 0.744541 2.157496 0.046782 -0.011498 -298702.000000 0 0 1
-28.024541 -25.455197 -26.137370 46.005479 0.737392 2.175035 0.048652 -0.014313 -407877.000000 0 0 1
-26.702131 -25.845327 -26.367750 45.565809 0.769094 2.187898 0.034537 -0.012719 -235602.000000 0 0 1
-25.609881 -24.789967 -26.515290 44.423745 0.769131 2.210393 0.037767 -0.013054 -144961.000000 0 0 1
-25.604791 -24.170367 -27.793650 44.858655 0.756588 2.239007 0.035780 -0.013985 -336701.000000 0 0 1
-24.692131 -23.125167 -27.875180 43.834922 0.752640 2.259987 0.056857 -0.012367 -488480.000000 0 0 1
-24.776531 -22.400167 -29.218900 44.377788 0.735069 2.289504 0.024036 -0.011599 -166411.000000 0 0 1
-24.135531 -23.153067 -30.225980 45.079909 0.764625 2.305676 0.014189 -0.000185 92239.600000 0 0 1
-24.365931 -22.668067 -31.529650 45.843851 0.749315 2.329198 0.007157 0.005366 -470071.000000 0 0 1
-23.668031 -23.468867 -32.668190 46.670912 0.781173 2.346150 0.003267 0.002786 194567.000000 0 0 1
-24.175231 -24.822867 -32.726220 47.661536 0.798615 2.327651 0.010288 0.002277 190697.000000 0 0 1
-23.767831 -25.477827 -33.908550 48.619124 0.820108 2.342605 0.009077 0.005771 141421.000000 0 0 1
-19.620231 -14.493267 -12.372750 27.351292 0.636223 2.040211 -0.000570 0.006218 -218609.000000 0 0 1
-19.845831 -14.092767 -11.045750 26.729603 0.617480 1.996806 0.005408 0.002392 563091.000000 0 0 1
-18.834331 -14.689867 -10.217450 25.979232 0.662396 1.975007 -0.006870 -0.007828 425231.000000 0 0 1
-19.059431 -14.175067 -8.803250 25.331633 0.639476 1.925721 0.005966 -0.010848 -25680.000000 0 0 1
-20.199731 -14.685867 -8.145150 26.268751 0.628639 1.886063 0.037806 -0.019810 122546.000000 0 0 1
-20.453331 -13.980167 -6.936650 25.727435 0.599577 1.843795 0.015610 -0.021096 162101.000000 0 0 1
-21.725231 -14.355167 -6.109250 26.746578 0.583902 1.801243 0.035820 -0.023020 61745.800000 0 0 1
-21.693131 -15.627967 -5.550950 27.306379 0.624294 1.775507 0.016217 -0.017543 344862.000000 0 0 1
-21.328631 -15.672967 -4.200650 26.799214 0.633723 1.728191 0.025586 -0.020952 -542999.000000 0 0 1
-21.055531 -17.087467 -3.632350 27.358927 0.681740 1.703956 0.009041 -0.006510 -24443.200000 0 0 1
-22.139031 -17.821467 -3.077850 28.586965 0.677770 1.678672 0.023479 -0.007105 242044.000000 0 0 1
-21.700531 -19.071567 -2.541050 29.001632 0.721008 1.658526 0.008917 -0.002017 -474927.000000 0 0 1
-22.813631 -20.015167 -2.121250 30.423155 0.720150 1.640578 0.030908 -0.017147 -404882.000000 0 0 1
-23.068631 -20.873567 -3.205250 31.275248 0.735486 1.673462 0.014437 -0.013158 176341.000000 0 0 1
-24.309331 -21.533867 -3.003850 32.614017 0.724929 1.663030 0.019966 -0.008564 43648.300000 0 0 1
-24.502431 -22.808667 -3.869350 33.698313 0.749613 1.685873 0.023531 -0.014617 -851897.000000 0 0 1
-23.549231 -23.788667 -3.585950 33.664908 0.790456 1.677518 0.026469 -0.013549 -536259.000000 0 0 1
-23.431931 -24.827467 -4.531350 34.438229 0.814307 1.702758 0.023912 -0.002490 177029.000000 0 0 1
-22.172631 -24.710067 -5.452050 33.644284 0.839468 1.733564 0.028571 0.002262 326747.000000 0 0 1
-21.872931 -23.520467 -6.180050 32.708263 0.821677 1.760884 0.010506 0.006744 -1249.860000 0 0 1
-21.294631 -22.538767 -5.346750 31.464982 0.813774 1.741552 -0.000796 0.005434 -952721.000000 0 0 1
-21.191731 -21.185967 -5.967650 30.554010 0.785262 1.767375 0.014636 0.011655 15206.700000 0 0 1
-20.024331 -20.827767 -6.684250 29.655504 0.805063 1.798146 0.004116 0.017938 55698.500000 0 0 1
-20.200231 -19.580167 -7.340350 29.074267 0.769812 1.826027 -0.002009 0.012250 298815.000000 0 0 1
-19.044031 -19.168367 -8.295450 28.265100 0.788652 1.868669 0.017304 0.001597 170821.000000 0 0 1
-19.081031 -19.730167 -9.598350 29.077372 0.802122 1.907203 -0.001921 0.001025 291944.000000 0 0 1
-17.813931 -19.768867 -10.258350 28.519782 0.837368 1.938735 0.043064 -0.004594 723873.000000 0 0 1
-17.262031 -18.449967 -10.944550 27.534745 0.818650 1.979567 0.033361 -0.008588 93441.900000 0 0 1
-16.914731 -17.385867 -10.051250 26.256506 0.799133 1.963632 0.038173 -0.014229 1504770.000000 0 0 1
-15.534631 -17.485367 -9.562750 25.268736 0.844407 1.958909 0.052003 -0.013641 1420070.000000 0 0 1
-15.182731 -16.242767 -8.652250 23.858001 0.819117 1.941913 0.029530 -0.005422 169973.000000 0 1 0
-15.780931 -16.469867 -7.372950 23.971956 0.806757 1.883430 0.004298 -0.003942 223264.000000 0 1 0
-16.105331 -15.230267 -6.794250 23.184144 0.757480 1.868218 0.014129 -0.001232 -104498.000000 0 1 0
-16.657731 -15.421267 -5.375550 23.327924 0.746873 1.803320 0.004959 -0.005320 -89905.200000 0 1 0
-17.084331 -14.320867 -4.670850 22.776708 0.697630 1.777333 0.001004 0.000714 152931.000000 0 1 0
-17.517331 -14.652067 -3.395050 23.088229 0.696565 1.718378 0.002772 0.001052 -169721.000000 0 1 0
-18.323831 -13.513767 -2.731150 22.931286 0.635451 1.690181 0.005026 0.005230 -527409.000000 0 1 0
-19.655731 -13.371867 -3.125850 23.977605 0.597384 1.701534 0.022367 -0.008383 -215003.000000 0 1 0
-20.234931 -12.277667 -2.392450 23.789018 0.545372 1.671536 0.017821 -0.007278 -14700.300000 0 1 0
-21.749631 -12.214267 -2.745850 25.095308 0.511694 1.680433 0.018426 -0.005338 158190.000000 0 0 1
-22.018331 -11.449167 -3.928450 25.126143 0.479506 1.727790 0.025516 -0.020894 789704.000000 0 0 1
-23.442031 -11.505367 -4.060050 26.426999 0.456261 1.725040 0.029878 -0.015331 518914.000000 0 0 1
-23.906931 -10.733367 -5.276950 26.731867 0.421993 1.769504 0.035626 -0.021545 -267676.000000 0 0 1
-23.468031 -11.365667 -6.476850 26.867759 0.451012 1.814258 0.042858 -0.027641 545232.000000 0 0 1
-24.182031 -10.899167 -7.618150 27.597077 0.423447 1.850477 0.050178 -0.026852 39344.800000 0 0 1
-23.467631 -11.353667 -8.916750 27.552566 0.450605 1.900356 0.063957 -0.032637 -994106.000000 0 0 1
-22.232231 -10.839167 -9.210750 26.393135 0.453632 1.927282 0.048558 -0.022376 -638858.000000 0 0 1
-21.724631 -11.347567 -10.456750 26.647148 0.481357 1.974052 0.030596 -0.011711 -447327.000000 0 0 1
-20.269731 -10.898767 -10.607050 25.340770 0.493341 2.002674 0.020165 0.001729 -604613.000000 0 0 1
-20.143331 -9.495867 -10.918050 24.801796 0.440519 2.026631 0.026518 -0.011626 1062570.000000 0 1 0
-18.896631 -8.934067 -10.464750 23.375440 0.441641 2.034967 0.015131 0.003117 601479.000000 0 1 0
-18.798531 -7.441067 -10.900350 22.968933 0.376908 2.065271 -0.022698 0.002816 -78265.300000 0 1 0
-18.474331 -7.310267 -12.280750 23.357177 0.376793 2.124429 0.002489 -0.007339 460608.000000 0 1 0
-18.827731 -6.040867 -12.747050 23.525790 0.310473 2.143413 0.031224 -0.017963 -118397.000000 0 1 0
-18.211731 -5.796867 -14.116050 23.759918 0.308164 2.206957 0.039357 -0.015083 53998.500000 0 1 0
-19.000631 -6.393067 -15.127050 25.114198 0.324567 2.217214 0.040094 -0.017864 446223.000000 0 0 1
-18.361631 -6.232867 -16.359550 25.369923 0.327246 2.271611 0.030590 -0.017679 -259469.000000 0 0 1
-18.744531 -7.295367 -17.492450 26.656437 0.371161 2.286593 0.036875 -0.016845 589097.000000 0 0 1
-20.118331 -7.256767 -17.904950 27.892564 0.346179 2.267803 0.060292 -0.021277 1021580.000000 0 0 1
-20.335631 -8.074067 -19.022850 28.993056 0.377952 2.286459 0.081495 -0.022516 -311786.000000 0 0 1
-21.785131 -7.992067 -19.544950 30.339251 0.351614 2.270791 0.068903 -0.023834 -632077.000000 0 0 1
-22.111631 -6.786567 -20.212250 30.716718 0.297796 2.288984 0.071924 -0.027334 -19724.300000 0 0 1
-23.317031 -6.866767 -20.919350 32.069544 0.286399 2.281427 0.073772 -0.032753 737055.000000 0 0 1
-24.624331 -6.608867 -20.064850 32.444306 0.262208 2.237552 0.088119 -0.033053 168579.000000 0 0 1
-24.632131 -5.232067 -19.672850 31.955241 0.209298 2.233991 0.084630 -0.021404 50682.500000 0 0 1
-25.787721 -4.815567 -18.993650 32.387575 0.184612 2.197464 0.096627 -0.017477 -356018.000000 0 0 1
-25.624721 -3.323267 -18.685750 31.887736 0.128970 2.196892 0.066861 -0.013374 22245.000000 0 0 1
-25.834901 -2.310867 -19.650550 32.541148 0.089210 2.219141 0.070801 -0.008711 952476.000000 0 0 1
-27.242841 -2.191767 -19.913150 33.815821 0.080280 2.200457 0.086699 -0.005391 728141.000000 0 0 1
-27.659301 -0.975267 -20.820150 34.633318 0.035245 2.215748 0.082004 0.002885 -367233.000000 0 0 1
-27.200041 -0.949767 -22.141150 35.085251 0.034904 2.253724 0.077943 0.007228 30425.600000 0 0 1
-27.874811 -1.776067 -23.062450 36.222039 0.063630 2.261003 0.073228 0.005878 132737.000000 0 0 1
-27.217051 -1.627067 -24.512250 36.664228 0.059710 2.303068 0.070279 0.008308 -107165.000000 0 0 1
-27.340611 -0.354567 -25.178060 37.169469 0.012968 2.314999 0.065384 0.007996 187052.000000 0 0 1
-26.852441 0.914833 -24.623250 36.444409 -0.034056 2.312627 0.064173 0.014855 1082680.000000 0 0 1
-25.304321 0.892433 -24.315350 35.104720 -0.035253 2.335956 0.060813 0.013858 953124.000000 0 0 1
-24.369631 1.005733 -25.385610 35.203972 -0.041247 2.376186 0.058770 0.007956 209562.000000 0 0 1
-23.064331 0.838733 -24.861150 33.922612 -0.036349 2.393339 0.063081 0.006322 284608.000000 0 0 1
-22.128131 0.095233 -25.855590 34.031967 -0.004304 2.433716 0.048144 0.001513 13371.300000 0 0 1
-21.906531 0.809333 -27.068270 34.831629 -0.036928 2.460869 0.027625 0.004615 291056.000000 0 0 1
-20.815631 0.256033 -27.779270 34.713742 -0.012299 2.498489 0.019012 -0.004143 -7525.660000 0 0 1
-20.631031 0.901133 -29.145740 35.720101 -0.043651 2.525163 0.009017 0.008976 -172739.000000 0 0 1
-19.872431 2.099833 -29.169310 35.357764 -0.105275 2.540956 0.016195 0.003737 308034.000000 0 0 1
-20.072831 2.904333 -30.359240 36.510781 -0.143693 2.552625 0.009179 0.001115 32363.100000 0 0 1
-19.419731 2.388533 -31.692810 37.246010 -0.122381 2.588502 0.004120 -0.003733 385849.000000 0 0 1
-18.004831 2.360533 -31.718760 36.548951 -0.130362 2.621641 -0.006112 -0.003651 69685.800000 0 0 1
-17.456731 1.764033 -32.842410 37.235375 -0.100710 2.650932 -0.007238 0.000735 2041060.000000 0 0 1
-15.840531 1.701933 -32.850930 36.510308 -0.107031 2.690042 0.002857 -0.009922 1806570.000000 0 0 1
-15.344231 3.000533 -32.927080 36.450531 -0.193111 2.698281 0.003932 -0.006689 602976.000000 0 0 1
-13.916731 2.852333 -33.046820 35.970870 -0.202157 2.735599 0.002845 -0.008591 569765.000000 0 0 1
-13.087831 4.094133 -33.276780 35.991629 -0.303176 2.750702 0.018837 -0.006272 -477717.000000 0 0 1
-13.102931 4.983633 -32.191830 35.111783 -0.363448 2.730885 0.030156 -0.017767 119261.000000 0 0 1
-12.597231 6.206433 -32.667360 35.557931 -0.457776 2.735593 0.049922 -0.013282 -117670.000000 0 0 1
-12.391631 7.241733 -31.503530 34.618891 -0.528874 2.714104 0.048668 -0.017932 519416.000000 0 0 1
-11.263031 6.940833 -30.640780 33.374967 -0.552282 2.733997 0.071180 -0.027639 864229.000000 0 0 1
-11.428031 5.949633 -29.641130 32.320189 -0.480005 2.731563 0.064446 -0.020414 1004030.000000 0 0 1
-9.991431 5.302933 -29.354280 31.458283 -0.487942 2.773784 0.075732 -0.029159 1293700.000000 0 0 1
-9.475231 4.605733 -30.520350 32.287529 -0.452451 2.809210 0.061145 -0.023970 129401.000000 0 0 1
-9.980131 3.319433 -30.777020 32.524554 -0.321094 2.812297 0.055199 -0.020229 -362575.000000 0 0 1
-9.629831 2.733933 -32.115990 33.639929 -0.276624 2.839441 0.049098 -0.015647 48733.100000 0 0 1
-10.214431 1.405933 -32.266330 33.873696 -0.136782 2.832297 0.042894 -0.011564 499306.000000 0 0 1
-9.914031 0.781333 -33.518740 34.962901 -0.078648 2.853173 0.032880 -0.008057 -711682.000000 0 0 1
-10.527731 1.379533 33.824472 35.451815 -0.130296 0.304166 0.032631 -0.010703 -496686.000000 0 0 1
-11.902831 1.174633 33.661117 35.722933 -0.098367 0.341411 0.002027 -0.005119 -569833.000000 0 0 1
-12.163531 1.561033 32.291979 34.542152 -0.127639 0.362940 0.000839 -0.001051 340478.000000 0 0 1
-13.606331 1.332533 31.752449 34.570593 -0.097623 0.406573 0.007713 -0.000542 342353.000000 0 0 1
-14.535631 2.309833 32.208199 35.411693 -0.157591 0.428631 0.011634 0.003617 102805.000000 0 0 1
-15.794931 1.892033 31.716309 35.482163 -0.119219 0.464900 0.009840 0.005622 -604460.000000 0 0 1
-16.813331 2.943533 31.452399 35.785554 -0.173315 0.497217 0.024668 0.002434 -837249.000000 0 0 1
-17.289631 3.789433 32.495589 37.003439 -0.215762 0.498758 0.018836 -0.007487 1006500.000000 0 0 1
-16.397131 4.880633 32.854495 37.041927 -0.289301 0.480088 0.022074 -0.004040 202217.000000 0 0 1
-16.850131 5.447733 34.206998 38.519131 -0.312698 0.477705 0.008771 -0.003724 1379040.000000 0 0 1
-18.131531 6.147833 34.168630 39.166868 -0.326903 0.510734 0.010259 -0.007425 1047280.000000 0 0 1
-19.222131 5.428733 -33.920200 39.364215 -0.275252 2.609410 0.001699 -0.002727 -49975.800000 0 0 1
-20.539131 6.217533 -34.125864 40.312383 -0.293947 2.580239 0.000316 -0.003944 -245127.000000 0 0 1
-20.772431 7.509233 -33.581080 40.194171 -0.346883 2.559786 0.007489 -0.008315 196642.000000 0 0 1
-20.199931 8.498433 34.194546 40.614376 -0.398236 0.569942 -0.002321 -0.013082 -225195.000000 0 0 1
-20.280031 9.937733 -33.887800 40.723718 -0.455636 2.553750 0.002418 -0.008448 -713120.000000 0 0 1
-19.365031 10.168933 -32.828940 39.448079 -0.483540 2.553871 0.011606 -0.008398 476228.000000 0 0 1
-18.916731 11.510333 -32.568950 39.383588 -0.546627 2.544489 0.030070 -0.011287 -4869.880000 0 0 1
-18.138831 12.151433 -33.730560 40.179910 -0.590246 2.567137 0.016142 -0.026188 -626179.000000 0 0 1
-18.932931 12.559733 33.758350 40.691879 -0.585724 0.592389 0.023870 -0.023254 59303.500000 0 0 1
-18.233831 12.679433 32.572637 39.423563 -0.607618 0.598427 0.021106 -0.022293 -113794.000000 0 0 1
-19.040931 12.073133 31.376409 38.636727 -0.565089 0.623075 0.027973 -0.025673 -165918.000000 0 0 1
-19.109231 10.657733 31.283479 38.175988 -0.508756 0.610338 0.023966 -0.019067 -523180.000000 0 0 1
-17.933731 9.998033 30.946299 37.138293 -0.508582 0.585797 0.030946 -0.016278 -438550.000000 0 0 1
-18.045431 8.474233 30.979659 36.840053 -0.439038 0.571809 0.035731 -0.012347 -48574.700000 0 0 1
-18.795731 8.078433 29.861839 36.197652 -0.405931 0.600654 0.033333 -0.020515 56031.800000 0 0 1
-18.938631 6.670033 29.867269 35.989094 -0.338626 0.591872 0.028366 -0.015756 -27016.900000 0 0 1
-19.558831 5.999333 28.642179 35.198214 -0.297622 0.620239 0.035287 -0.018423 -643064.000000 0 0 1
-20.898231 6.235733 28.379659 35.791416 -0.289975 0.655213 0.053748 -0.028438 -592688.000000 0 0 1
-21.611831 5.132633 27.809929 35.592237 -0.233172 0.673973 0.053117 -0.024284 952550.000000 0 0 1
-23.136831 5.439833 27.596569 36.420810 -0.230922 0.710993 0.045033 -0.016950 460034.000000 0 0 1
-23.321231 6.050533 26.376269 35.723890 -0.253846 0.740195 0.041258 -0.020455 -570383.000000 0 0 1
-24.688431 6.284733 26.356089 36.655967 -0.249268 0.768416 0.048123 -0.018099 -1111640.000000 0 0 1
-25.104551 7.022533 25.074249 36.170049 -0.272760 0.804832 0.042153 -0.008313 -401098.000000 0 0 1
-25.094611 6.177033 23.909959 35.207689 -0.241352 0.824244 0.039232 -0.002942 -107417.000000 0 0 1
-26.189411 5.326933 23.836199 35.810974 -0.200663 0.842483 0.038440 0.001380 -820448.000000 0 0 1
-26.301301 4.688533 22.415249 34.873832 -0.176409 0.872710 0.035780 0.008307 45449.400000 0 0 1
-26.840501 5.561633 21.409849 34.781114 -0.204319 0.907700 0.030271 0.007068 141465.000000 0 0 1
-26.978561 4.846833 20.220649 34.061844 -0.177759 0.935215 0.039229 0.007351 -206085.000000 0 0 1
-27.830041 5.439733 19.077749 34.176928 -0.193029 0.978575 0.044905 -0.001501 53401.800000 0 0 1
-29.203311 5.496033 19.392749 35.484060 -0.186023 0.992593 0.042366 -0.002141 -77551.400000 0 0 1
-29.983051 5.970133 18.326349 35.643806 -0.196546 1.030777 0.048700 -0.000173 656128.000000 0 0 1
-31.515171 6.112233 18.632049 37.117633 -0.191567 1.044918 0.048220 0.000787 647702.000000 0 0 1
-31.869241 7.080433 19.559449 38.057235 -0.218620 1.031015 0.056137 -0.013151 -789318.000000 0 0 1
-33.090381 6.783033 20.120849 39.317063 -0.202184 1.033566 0.054916 -0.009542 -1131290.000000 0 0 1
-33.678671 7.887933 21.033849 40.483270 -0.230065 1.024450 0.053756 -0.010085 -79301.600000 0 0 1
-33.128471 7.934733 22.327449 40.730462 -0.235085 0.990615 0.045630 -0.008915 340133.000000 0 0 1
-33.825261 8.935633 23.068349 41.906355 -0.258270 0.987865 0.049817 -0.007353 99676.600000 0 0 1
-0.431231 32.502433 11.710850 34.550516 -1.557529 1.224997 0.039118 -0.000175 4111.230000 0 0 1
-0.991231 32.841133 12.969850 35.323357 -1.540623 1.194826 0.027366 -0.002052 -36322.700000 0 0 1
-0.510731 34.056033 13.401950 36.601728 -1.555801 1.195921 0.026116 -0.004294 -313516.000000 0 0 1
-0.387631 34.143633 14.938850 37.270728 -1.559444 1.158385 0.025954 -0.001834 127847.000000 0 0 1
-1.604131 34.010533 15.633250 37.465826 -1.523666 1.140360 0.012871 0.008881 6513.800000 0 0 1
-1.306131 -34.371913 16.969150 38.354744 1.532815 1.112494 0.017182 -0.007598 664419.000000 0 0 1
-2.573731 -34.129013 17.855750 38.603645 1.495527 1.089938 0.013851 0.001929 305090.000000 0 0 1
-3.347631 33.470833 18.178750 38.235720 -1.471111 1.075333 0.004499 0.007130 -52290.800000 0 0 1
-4.188931 33.906733 19.252750 39.215840 -1.447876 1.057624 0.003461 0.007668 -223203.000000 0 0 1
-5.115031 32.743533 19.649050 38.527752 -1.415834 1.035615 0.004444 0.003787 114119.000000 0 0 1
-6.048531 32.494733 18.587650 37.920880 -1.386764 1.058512 -0.004456 0.003973 781623.000000 0 0 1
-7.162731 31.721033 19.089450 37.708563 -1.348717 1.039981 0.001152 -0.012486 393875.000000 0 0 1
-8.307531 31.550033 18.089450 37.304797 -1.313328 1.064537 -0.017002 -0.011686 -497033.000000 0 0 1
-8.899831 32.778633 17.842050 38.366451 -1.305675 1.087113 -0.006802 -0.005882 -198760.000000 0 0 1
-9.631631 32.751033 16.601750 37.960724 -1.284774 1.118157 -0.003869 0.008128 -81542.000000 0 0 1
-10.448331 34.028533 16.385450 39.186626 -1.272888 1.139401 0.037168 -0.005331 -163365.000000 0 0 1
-11.528631 34.051133 17.309250 39.899864 -1.244342 1.122071 0.046646 -0.010469 -14176.600000 0 0 1
-12.380831 -33.598313 16.974250 39.626466 1.217740 1.128123 0.028489 -0.015802 -485121.000000 0 0 1
-13.764531 -33.747213 17.569650 40.460219 1.183523 1.121596 0.067366 -0.015514 -622991.000000 0 0 1
-13.762631 -33.535013 18.997950 40.925899 1.181360 1.088061 0.053733 -0.006430 -345559.000000 0 0 1
-14.999131 -33.746913 19.621250 41.818913 1.152560 1.082417 0.046098 -0.012183 -235047.000000 0 0 1
-14.972431 -33.357113 21.149550 42.239486 1.148897 1.046383 0.048186 -0.016294 -377942.000000 0 0 1
-15.199131 -31.992713 21.387550 41.376014 1.127282 1.027563 0.056403 -0.014774 67767.000000 0 0 1
-15.145731 -31.700413 22.806550 41.886132 1.125085 0.995016 0.039428 -0.010143 27372.600000 0 0 1
-14.924431 -30.192213 22.965950 40.764485 1.111708 0.972324 0.055061 -0.021190 -62535.200000 0 0 1
-14.950531 -29.703213 24.329650 41.203533 1.104488 0.939149 0.041929 -0.020876 -87104.200000 0 0 1
-14.790231 -28.297813 24.427750 40.202389 1.089183 0.917737 0.034502 -0.009824 -203519.000000 0 0 1
-16.044131 -27.465513 24.070650 39.889406 1.042109 0.922995 0.046847 -0.005993 514263.000000 0 0 1
-17.085231 -27.704413 25.056950 41.076640 1.018190 0.914730 0.051430 -0.003782 -160813.000000 0 0 1
-18.273031 -27.118513 24.674150 40.964998 0.977857 0.924389 0.053863 -0.005886 -1929250.000000 0 0 1
-19.305831 -27.079013 25.790150 42.084675 0.951436 0.911177 0.053238 -0.006282 -181459.000000 0 0 1
-20.203931 -28.186413 25.876250 43.269539 0.948886 0.929762 0.064867 -0.007848 713506.000000 0 0 1
-21.096431 -28.365613 24.780250 43.170918 0.931318 0.959410 0.064229 -0.009945 -774396.000000 0 0 1
-22.397831 -27.595313 24.549350 43.195309 0.888990 0.966317 0.051463 -0.005767 -363605.000000 0 0 1
-22.314931 -26.312913 23.987750 42.020682 0.867430 0.963249 0.052411 -0.005729 1681320.000000 0 0 1
-23.649831 -26.027313 23.454950 42.271388 0.833220 0.982595 0.041638 -0.003049 1306820.000000 0 0 1
-23.920131 -24.582113 22.993050 41.293260 0.799046 0.980240 0.034366 0.012039 -142381.000000 0 0 1
-24.302931 -23.720813 24.100750 41.643194 0.773277 0.953609 0.028756 0.009874 880929.000000 0 0 1
-25.225601 -22.679813 23.704050 41.383413 0.732306 0.960890 0.017237 0.017808 701789.000000 0 0 1
-25.830801 -21.778313 24.815750 41.920719 0.700483 0.937297 0.024500 0.015107 360838.000000 0 0 1
-26.949091 -22.234313 25.562950 43.290676 0.689829 0.939124 0.021449 0.020642 241561.000000 0 0 1
-27.146461 -21.445913 26.668650 43.681511 0.668618 0.914073 0.015678 0.008479 -210618.000000 0 0 1
-28.109151 -22.158113 27.726550 45.275467 0.667559 0.911708 0.006984 0.002293 741942.000000 0 0 1
-29.490331 -22.153413 27.416350 45.957693 0.644275 0.931593 0.004543 0.006906 438004.000000 0 0 1
-29.845581 -22.987813 26.314150 45.952505 0.656320 0.961076 0.000585 0.013385 -1056280.000000 0 0 1
-31.380411 -23.099613 26.142550 46.922865 0.634556 0.979860 -0.012974 0.011900 323036.000000 0 0 1
-32.012801 -23.637313 24.958050 46.972825 0.636017 1.010627 -0.021062 0.016816 422734.000000 0 0 1
-31.530241 -24.910513 24.537650 47.082757 0.668645 1.022587 -0.016387 0.013217 -687804.000000 0 0 1
-31.981811 -25.373413 23.141650 46.927415 0.670685 1.055104 -0.017884 0.012237 -594642.000000 0 0 1
-33.260861 -25.914013 23.164350 48.108295 0.661875 1.068426 -0.006176 0.007545 -636454.000000 0 0 1
-33.507941 -26.454413 21.841450 47.954843 0.668304 1.097909 0.005065 0.007862 -95353.700000 0 0 1
-34.840473 -27.182413 21.610050 49.190816 0.662548 1.115965 0.006216 -0.003126 -536528.000000 0 0 1
-35.070731 -28.436713 22.341250 50.375929 0.681315 1.111307 0.013423 -0.006760 317131.000000 0 0 1
-34.192466 -29.547813 22.109550 50.309345 0.712658 1.115786 0.011849 -0.007840 -489711.000000 0 0 1
-34.558106 -30.461313 20.940050 50.602766 0.722473 1.144158 0.020732 -0.002629 -138275.000000 0 0 1
-34.255190 -30.030813 19.634050 49.606085 0.719780 1.163858 0.001992 0.008164 268921.000000 0 0 1
-34.861463 -30.961013 18.786550 50.267687 0.726210 1.187769 0.010869 0.009571 -501109.000000 0 0 1
-35.241993 -30.401413 17.389450 49.685380 0.711791 1.213235 0.010848 0.019917 -79328.200000 0 0 1
-34.168516 -30.057413 16.495150 48.404809 0.721475 1.223055 0.027448 0.013537 393751.000000 0 0 1
-34.565937 -29.498013 15.233050 47.926846 0.706455 1.247346 0.034909 0.014409 -29533.900000 0 0 1
-35.345365 -30.415613 14.256350 48.761131 0.710573 1.274091 0.039758 0.006345 -45491.100000 0 0 1
-34.567658 -31.430013 13.631450 48.668112 0.737892 1.286908 0.037712 -0.004396 -20398.600000 0 0 1
-35.272428 -32.246813 12.712150 49.453007 0.740617 1.310823 0.033659 -0.003999 -41542.200000 0 0 1
-35.401644 -31.578513 11.267050 48.758848 0.728381 1.337612 0.034881 -0.002000 -241451.000000 0 0 1
35.371850 -30.587713 11.225850 48.091534 -0.712994 1.335196 0.024117 -0.000023 -149768.000000 0 0 1
35.502700 -29.869013 10.015750 47.464880 -0.699431 1.358184 0.006924 -0.004286 65089.900000 0 0 1
34.401770 -28.804313 9.808450 45.927942 -0.697070 1.355577 0.036328 0.003454 111597.000000 0 0 1
34.823520 -27.790813 8.911050 45.435819 -0.673549 1.373393 0.033138 -0.028412 713991.000000 0 0 1
33.757090 -26.841713 8.719650 44.000579 -0.671772 1.371305 0.029359 -0.019474 611798.000000 0 0 1
34.030640 -25.749613 7.650550 43.355022 -0.647750 1.393405 0.023091 -0.020244 138514.000000 0 0 1
34.648720 -24.555413 8.102750 43.233744 -0.616538 1.382264 0.034496 -0.025761 52701.100000 0 0 1
34.842470 -23.662413 7.016450 42.698221 -0.596578 1.405721 0.035501 -0.037991 -91207.400000 0 0 1
35.475680 -22.312513 7.436250 42.563716 -0.561436 1.395186 0.045129 -0.044009 440085.000000 0 0 1
34.525370 -21.564413 8.223650 41.528947 -0.558309 1.371457 0.046308 -0.036337 361040.000000 0 0 1
34.845680 -20.167913 8.064150 41.060889 -0.524669 1.373116 0.057719 -0.037278 154101.000000 0 0 1
34.008120 -19.248413 9.061550 40.114402 -0.515040 1.342937 0.076581 -0.026882 413698.000000 0 0 1
34.454660 -19.304113 10.387650 40.837184 -0.510698 1.313603 0.066941 -0.034783 -133943.000000 0 0 1
33.542790 -18.599513 11.194550 39.954706 -0.506292 1.286814 0.073498 -0.021032 72985.300000 0 0 1
33.905980 -18.743913 12.638350 40.751412 -0.505006 1.255464 0.064746 -0.036624 -47835.500000 0 0 1
35.066240 -18.029313 12.972850 41.508940 -0.474904 1.252939 0.041616 -0.022598 -244298.000000 0 0 1
35.514800 -18.284713 14.278150 42.420482 -0.475455 1.227507 0.045346 -0.016358 232813.000000 0 0 1
-34.852688 -17.591313 14.462450 41.633239 0.467427 1.216023 0.039831 -0.021653 744663.000000 0 0 1
-33.714691 -18.090313 13.746450 40.655931 0.492474 1.225881 0.025756 -0.020959 -337146.000000 0 0 1
-32.584751 -17.613313 14.383450 39.735103 0.495550 1.200402 0.009107 -0.017596 -1596830.000000 0 0 1
-31.376081 -17.636213 13.510450 38.445113 0.512079 1.211707 0.031269 -0.021739 -1016070.000000 0 0 1
-30.914861 -18.984913 13.230550 38.616098 0.550725 1.221095 0.020167 -0.019624 77916.100000 0 0 1
-29.738511 -18.788213 12.452550 37.315439 0.563460 1.230559 -0.016847 -0.000478 -620969.000000 0 0 1
-29.032911 -20.038613 12.091450 37.291542 0.604121 1.240587 -0.023241 -0.002878 -709519.000000 0 0 1
-29.730111 -20.990913 11.321650 38.114009 0.614774 1.269198 -0.006588 -0.006903 -698582.000000 0 0 1
-28.798401 -21.745313 10.574250 37.603475 0.646749 1.285748 -0.005429 -0.003207 -187227.000000 0 0 1
-29.373421 -22.617513 9.425850 38.251750 0.656178 1.321816 0.007197 -0.004131 325384.000000 0 0 1
-30.034921 -23.864713 9.664050 39.560269 0.671418 1.324012 0.014528 -0.015481 -319552.000000 0 0 1
-31.293651 -23.778413 10.260250 40.619924 0.649774 1.315439 0.037276 -0.019381 -584764.000000 0 0 1
-32.035341 -25.127013 10.401450 42.021661 0.665127 1.320670 0.056689 -0.026066 111833.000000 0 0 1
-32.627371 -25.686013 9.240250 42.540555 0.666920 1.351841 0.047116 -0.018210 232404.000000 0 0 1
-33.338701 -26.909413 9.440050 43.871403 0.679087 1.353925 0.053417 -0.011108 362379.000000 0 0 1
-33.449731 -27.660813 8.115950 44.157375 0.690951 1.385949 0.045723 -0.011096 1161850.000000 0 0 1
-32.131391 -28.130813 7.738650 43.401102 0.719109 1.391532 0.040742 -0.010398 949116.000000 0 0 1
-32.173341 -29.007513 6.648250 43.826464 0.733699 1.418514 0.029775 -0.013268 217839.000000 0 0 1
-30.865361 -29.021613 5.806150 42.762553 0.754621 1.434599 0.038878 -0.008038 387999.000000 0 0 1
-30.602741 -27.893213 5.018850 41.710286 0.739111 1.450178 0.027571 0.001011 180649.000000 0 0 1
-29.317531 -28.104913 4.431250 40.853883 0.764284 1.462117 0.034398 -0.006946 276552.000000 0 0 1
-28.727671 -26.849413 3.865050 39.510868 0.751615 1.472817 0.020722 -0.000751 -306510.000000 0 0 1
-29.175711 -26.590113 2.583350 39.559195 0.739066 1.505446 0.025361 0.001870 -308394.000000 0 0 1
-28.751891 -25.336613 2.111850 38.380661 0.722339 1.515745 0.022864 -0.007326 -398883.000000 0 0 1
-29.090401 -24.914713 0.708150 38.307908 0.708231 1.552310 0.038589 -0.008279 -359782.000000 0 0 1
-28.330311 -25.481313 -0.333450 38.105315 0.732504 1.579547 0.038105 -0.011166 -120205.000000 0 0 1
-28.595351 -24.845513 -1.591650 37.914733 0.715345 1.612788 0.047328 -0.017244 -36280.600000 0 0 1
-30.025661 -24.788213 -2.157250 38.995507 0.690138 1.626145 0.063484 -0.013851 -126899.000000 0 0 1
-30.823611 -23.706413 -1.703450 38.922882 0.655613 1.614575 0.053533 -0.007374 -380375.000000 0 0 1
-32.155551 -23.926113 -2.101250 40.135441 0.639698 1.623174 0.062538 -0.013176 -326838.000000 0 0 1
-33.020691 -22.669413 -1.977350 40.102098 0.601623 1.620124 0.066256 -0.011711 -249034.000000 0 0 1
-32.997451 -22.131113 -0.719550 39.738340 0.590784 1.588905 0.060694 -0.011786 589021.000000 0 0 1
-33.806381 -20.926413 -0.660150 39.764582 0.554279 1.587399 0.055799 -0.009820 356703.000000 0 0 1
-33.797591 -20.316813 0.741850 39.441100 0.541251 1.551986 0.053613 -0.014824 -237803.000000 0 0 1
-34.222848 -21.262113 1.659050 40.324102 0.555923 1.529642 0.043988 -0.016221 67795.000000 0 0 1
-34.334531 -20.676913 2.987250 40.191024 0.542050 1.496401 0.045004 -0.025709 -653318.000000 0 0 1
-35.420834 -21.480013 3.763250 41.595535 0.545129 1.480200 0.045445 -0.009425 567538.000000 0 0 1
35.089600 -21.500513 3.064850 41.266758 -0.549729 1.496459 0.048858 -0.013378 -103787.000000 0 0 1
34.234470 -20.492713 3.525950 40.054744 -0.539389 1.482654 0.056852 -0.019950 -975871.000000 0 0 1
32.975600 -20.263413 2.697450 38.797839 -0.551011 1.501214 0.051432 -0.004263 -302801.000000 0 0 1
32.015450 -21.266313 2.915450 38.545362 -0.586329 1.495087 0.051170 -0.009233 -830480.000000 0 0 1
30.724060 -20.777713 2.643550 37.184265 -0.594621 1.499643 0.053826 -0.006049 -339584.000000 0 0 1
29.713500 -21.838313 3.039650 37.000587 -0.633808 1.488552 0.047795 0.008712 -436018.000000 0 0 1
29.562990 -22.854613 2.128550 37.427722 -0.658111 1.513895 0.033184 0.000852 777689.000000 0 0 1
28.347310 -23.598913 2.410350 36.963339 -0.694242 1.505541 0.028568 0.006843 1093920.000000 0 0 1
27.933420 -24.680013 1.337750 37.298372 -0.723641 1.534922 0.026728 0.001961 -57313.700000 0 0 1
27.380680 -24.137513 0.186450 36.501451 -0.722529 1.565688 0.030458 -0.009045 -148333.000000 0 0 1
26.994450 -25.190913 -0.674650 36.928817 -0.750852 1.589066 0.024123 -0.012139 91267.100000 0 0 1
26.263560 -24.634813 -1.981650 36.063493 -0.753409 1.625773 0.042786 -0.012455 345387.000000 0 0 1
27.039450 -24.191513 -3.106550 36.414445 -0.729865 1.656211 0.025408 -0.028244 199967.000000 0 0 1
27.460890 -25.266713 -3.994550 37.529504 -0.743809 1.677436 0.028809 -0.030230 -398587.000000 0 0 1
26.295960 -25.799713 -4.849750 37.156732 -0.775873 1.701691 0.034844 -0.033158 210869.000000 0 0 1
25.772460 -24.855713 -5.805450 36.272984 -0.767293 1.731536 0.049884 -0.047022 329975.000000 0 0 1
24.591560 -24.236813 -5.324850 34.935969 -0.778133 1.723810 0.056439 -0.040539 192752.000000 0 0 1
23.819260 -23.356513 -6.417250 33.971531 -0.775589 1.760839 0.054647 -0.046890 -58963.300000 0 0 1
23.264560 -24.097413 -7.451050 34.313892 -0.802981 1.789684 0.063563 -0.056622 114043.000000 0 0 1
22.170360 -23.445613 -8.085150 33.265466 -0.813347 1.816305 0.059227 -0.054251 102329.000000 0 0 1
22.320260 -21.976813 -8.669650 32.501340 -0.777645 1.840813 0.052812 -0.050008 -775522.000000 0 0 1
23.043360 -21.970013 -9.864250 33.331386 -0.761558 1.871241 0.065717 -0.049589 15605.500000 0 0 1
22.872660 -20.693213 -10.522450 32.589716 -0.735413 1.899563 0.055941 -0.044217 -41009.700000 0 0 1
23.700560 -20.629413 -11.834050 33.575794 -0.716229 1.930992 0.054439 -0.041876 820898.000000 0 0 1
25.097560 -20.435913 -11.581450 34.375049 -0.683375 1.914434 0.060428 -0.047100 386116.000000 0 0 1
25.823760 -20.293013 -12.767550 35.237526 -0.666039 1.941561 0.052341 -0.053633 801800.000000 0 0 1
27.355740 -20.604413 -12.575950 36.483323 -0.645548 1.922720 0.037960 -0.041292 717428.000000 0 0 1
27.575200 -21.978113 -12.737950 37.492459 -0.672924 1.917444 0.025395 -0.043225 146649.000000 0 0 1
28.546470 -22.606213 -11.925750 38.316645 -0.669788 1.887296 0.020151 -0.034075 -426342.000000 0 0 1
28.847800 -23.986513 -12.432250 39.523527 -0.693646 1.890782 0.006262 -0.028266 -435576.000000 0 0 1
29.945260 -24.116813 -13.324850 40.692639 -0.678003 1.904401 -0.006593 -0.021313 331383.000000 0 0 1
30.139820 -25.432913 -13.782050 41.775432 -0.700902 1.907002 0.019282 -0.013683 -105707.000000 0 0 1
-3.513731 -8.697667 -27.871150 29.407426 1.186859 2.816932 0.014572 -0.001665 -61820.200000 0 0 1
-3.832931 -7.550467 -27.135880 28.426342 1.101054 2.839122 0.011643 -0.003496 -236747.000000 0 0 1
-4.671031 -6.696667 -27.831510 29.004428 0.961740 2.856234 0.015886 -0.008531 -449380.000000 0 0 1
-4.726631 -5.323467 -27.095100 28.014724 0.844715 2.884658 0.007221 -0.017025 46634.600000 0 0 1
-5.459331 -5.355367 -25.878270 26.984609 0.775785 2.854253 0.013287 -0.016187 231725.000000 0 0 1
-5.318131 -4.152367 -25.147420 26.036847 0.662920 2.879461 0.016527 -0.023101 158418.000000 0 0 1
-5.808531 -4.250367 -23.678450 24.748205 0.631716 2.846497 0.013812 -0.019754 25703.700000 0 1 0
-4.997831 -5.128767 -22.943950 24.035545 0.798327 2.839057 0.012302 -0.020871 322240.000000 0 1 0
-5.546231 -5.134967 -21.673350 22.953489 0.746914 2.806042 0.014195 -0.012409 6087.300000 0 1 0
-4.794131 -6.116767 -20.762550 22.169394 0.906031 2.783426 0.014790 -0.012630 -613957.000000 0 1 0
-5.183131 -7.455167 -21.021850 22.898964 0.963272 2.733870 0.007154 -0.004074 -63316.900000 0 1 0
-4.448631 -8.336867 -20.268250 22.362818 1.080624 2.705330 0.010710 -0.014904 -1218120.000000 0 1 0
-5.070331 -9.793967 -20.267550 23.073873 1.093090 2.643251 0.018561 -0.006451 414015.000000 0 1 0
-6.196631 -9.887267 -19.426850 22.661835 1.010955 2.600700 0.020516 -0.009219 874798.000000 0 1 0
-7.425031 -9.225267 -19.825750 23.093224 0.893100 2.603152 0.021269 -0.006919 -268007.000000 0 1 0
-8.451631 -9.292767 -18.725550 22.548433 0.832766 2.550728 0.018553 -0.003339 -875248.000000 0 1 0
-8.849931 -10.601867 -18.416450 23.019264 0.875221 2.498167 0.034966 -0.016460 308843.000000 0 1 0
-9.727631 -10.622667 -17.295050 22.507479 0.829351 2.447155 0.036792 -0.008936 261289.000000 0 1 0
-10.596231 -11.914767 -17.167850 23.430255 0.843904 2.393109 0.055619 -0.013135 444331.000000 0 1 0
-11.641031 -12.106467 -18.127850 24.712327 0.804995 2.394334 0.056492 -0.015136 523863.000000 0 1 0
-11.202031 -12.624567 -19.333750 25.664354 0.845031 2.423909 0.057198 -0.016564 -305340.000000 0 0 1
-12.369131 -12.352967 -20.353050 26.829794 0.784744 2.431956 0.041765 -0.015892 1635800.000000 0 0 1
-13.575231 -13.130267 -20.403750 27.802946 0.768738 2.394798 0.035438 -0.001873 931298.000000 0 0 1
-14.293431 -13.158767 -19.147450 27.277833 0.744089 2.348916 0.031485 0.001183 -1242330.000000 0 0 1
-15.530831 -14.044567 -19.192950 28.404681 0.735187 2.312706 0.027437 0.000359 -405209.000000 0 0 1
-15.307031 -15.418967 -19.355850 29.098087 0.789041 2.298549 0.041250 -0.008493 -30656.400000 0 0 1
-15.804031 -15.850767 -20.602250 30.421488 0.786875 2.314783 0.042747 -0.006726 41272.000000 0 0 1
-15.207131 -17.219567 -20.951350 31.092272 0.847380 2.310196 0.019286 -0.002230 -363892.000000 0 0 1
-15.635431 -18.230367 -20.079550 31.304973 0.861873 2.267141 0.026915 0.001430 56596.200000 0 0 1
-15.271131 -19.460967 -20.656750 32.227907 0.905451 2.266543 0.014133 0.003441 -161306.000000 0 0 1
-15.945331 -20.716467 -20.031150 32.934367 0.914810 2.224605 0.023757 -0.007289 -93103.200000 0 0 1
-15.557631 -21.926267 -20.595350 33.866938 0.953694 2.224494 0.013664 -0.002851 -381206.000000 0 0 1
-16.342531 -22.912267 -20.063050 34.562643 0.951223 2.190119 0.029923 -0.005256 -374572.000000 0 0 1
-15.885531 -24.351767 -20.421250 35.530073 0.992781 2.183107 0.024005 0.004216 -191177.000000 0 0 1
-16.076631 -24.731567 -21.736150 36.641079 0.994389 2.205847 0.008366 0.002301 14604.600000 0 0 1
-15.510531 -25.998207 -21.924150 37.378492 1.032881 2.197582 0.016117 0.005725 -279871.000000 0 0 1
-15.570031 -26.643917 -23.348250 38.697092 1.041945 2.218503 0.019276 -0.002097 -841626.000000 0 0 1
-16.769231 -27.256537 -23.680350 39.810613 1.019248 2.207844 0.031453 -0.002429 -595030.000000 0 0 1
-16.637931 -28.643057 -23.719350 40.741294 1.044561 2.192221 0.032009 0.006744 -679848.000000 0 0 1
-17.781831 -29.242817 -24.525950 42.105321 1.024460 2.192586 0.041225 -0.003386 -371024.000000 0 0 1
-17.582631 -29.362977 -25.954030 42.952823 1.031258 2.219614 0.035091 -0.001994 142082.000000 0 0 1
-17.936131 -28.160127 -26.642730 42.714548 1.003662 2.244314 0.046857 -0.015946 -20527.200000 0 0 1
-16.792631 -27.697407 -27.554110 42.524908 1.025765 2.275689 0.052105 -0.016662 -341651.000000 0 0 1
-16.775831 -28.415517 -28.772530 43.780459 1.037484 2.287894 0.053167 -0.004029 -528058.000000 0 0 1
-15.555931 -28.145957 -29.368180 43.550797 1.065892 2.310871 0.028302 -0.002074 -769553.000000 0 0 1
-15.563531 -28.232237 -30.909120 44.661576 1.066980 2.335155 0.040610 0.000966 -27970.900000 0 0 1
-15.874031 -29.585817 -31.304860 45.905334 1.078344 2.321213 0.027284 -0.002730 181855.000000 0 0 1
-16.390131 -29.599787 -32.591510 46.978615 1.065098 2.337482 0.028130 0.000009 -252581.000000 0 0 1
-16.489531 -31.054877 -33.188540 48.350690 1.082673 2.327341 0.031906 -0.005290 599793.000000 0 0 1
-15.288631 -31.606107 -33.761000 48.708247 1.120254 2.336614 0.037385 -0.010018 693573.000000 0 0 1
-15.647231 -32.649637 34.027727 49.686224 1.123889 0.816395 0.038252 -0.006798 -2399.570000 0 0 1
-14.393231 -33.197797 33.345995 49.205835 1.161698 0.826188 0.035347 -0.013617 277449.000000 0 0 1
-13.553131 -34.023197 34.145069 50.071459 1.191713 0.820403 0.048836 -0.010833 530682.000000 0 0 1
-12.438031 34.183180 33.428569 49.403073 -1.221824 0.827594 0.054246 -0.010672 -14524.700000 0 0 1
-11.426731 33.328661 34.142534 49.062027 -1.240505 0.801116 0.064099 -0.011601 -757342.000000 0 0 1
-10.713331 34.152116 -33.631020 49.114031 -1.266824 2.325062 0.066654 -0.008296 -343660.000000 0 0 1
-9.841931 33.389084 -32.802270 47.829734 -1.284149 2.326517 0.060716 -0.009749 -78107.800000 0 0 1
-8.896731 34.289505 -31.999100 47.737453 -1.316935 2.305429 0.054740 -0.009674 -343548.000000 0 0 1
-9.589531 -33.725787 -31.022510 46.816492 1.293769 2.295135 0.060937 -0.013467 -117094.000000 0 0 1
-8.798131 -32.786457 -30.337270 45.527012 1.308626 2.300109 0.056778 -0.015225 -233197.000000 0 0 1
-9.688831 -31.687107 -29.627140 44.449000 1.274058 2.300357 0.060522 -0.019656 689025.000000 0 0 1
-10.122631 -31.867507 -28.286700 43.796610 1.263229 2.272952 0.068301 -0.012318 -31231.800000 0 0 1
-10.793231 -33.061367 -28.004710 44.652118 1.255244 2.248718 0.067283 -0.015216 -476114.000000 0 0 1
-11.105731 -33.255377 -26.495490 43.946198 1.248488 2.217937 0.079880 -0.014413 -546511.000000 0 0 1
-9.963731 -33.365077 -25.729120 43.295403 1.280599 2.207153 0.064147 -0.018016 -812159.000000 0 0 1
-10.269031 -33.524867 -24.367050 42.698042 1.273560 2.178134 0.075114 -0.028574 278150.000000 0 0 1
-9.040731 -33.751027 -23.436350 42.072903 1.309075 2.161615 0.068091 -0.032063 384868.000000 0 0 1
-8.483031 33.662897 -23.556550 41.953111 -1.323937 2.166990 0.050893 -0.024499 128578.000000 0 0 1
-7.779231 33.391001 -22.360150 40.932282 -1.341905 2.148703 0.060425 -0.021642 -20714.600000 0 0 1
-7.031031 32.040469 -22.152050 39.582071 -1.354778 2.164758 0.052076 -0.022699 449990.000000 0 0 1
-5.903231 31.841279 -23.022050 39.733235 -1.387482 2.188808 0.025831 -0.024060 493916.000000 0 0 1
-5.209531 30.642559 -22.754250 38.520923 -1.402397 2.202721 0.006112 -0.018299 585272.000000 0 0 1
-3.721231 30.756009 -23.251250 38.735001 -1.450390 2.214628 0.009914 -0.025675 591947.000000 0 0 1
-3.613631 30.937369 -24.639550 39.715067 -1.454518 2.240059 0.016122 -0.026671 -1067710.000000 0 0 1
-2.523531 31.731429 -24.873950 40.397589 -1.491436 2.234107 0.003837 -0.028846 -907718.000000 0 0 1
-2.388831 32.141469 -26.371480 41.644153 -1.496610 2.256552 0.005884 -0.006907 -458376.000000 0 0 1
-1.524031 33.181696 -26.670590 42.598920 -1.524899 2.247320 0.017344 -0.018718 -388030.000000 0 0 1
-2.051931 -34.250871 -26.420510 43.305611 1.510959 2.226976 0.031379 -0.019086 -613813.000000 0 0 1
-1.172631 -33.176397 -26.976640 42.776015 1.535466 2.253185 0.000933 -0.007519 -63276.300000 0 0 1
0.124469 -33.179807 -26.408510 42.406656 -1.567045 2.243042 0.033430 -0.018554 -354465.000000 0 0 1
0.927769 -32.146277 -26.887700 41.918877 -1.541943 2.267147 0.020319 -0.013584 120667.000000 0 0 1
2.250869 -32.039087 -26.077240 41.371390 -1.500658 2.252762 0.027212 -0.013570 -49743.200000 0 0 1
2.071169 -31.469347 -24.785150 40.111260 -1.505076 2.236878 0.019673 -0.012895 58349.500000 0 0 1
3.276769 -30.897267 -24.348650 39.474486 -1.465138 2.235492 0.019168 -0.013061 -347144.000000 0 0 1
3.175869 -30.162867 -22.963050 38.041903 -1.465892 2.218837 0.022429 -0.009957 -205540.000000 0 0 1
3.138669 -31.046447 -21.828550 38.081737 -1.470043 2.181205 0.029160 -0.008132 404762.000000 0 0 1
2.879369 -30.257257 -20.665050 36.753730 -1.475919 2.167909 0.030522 -0.002594 -322687.000000 0 0 1
2.781169 -31.115867 -19.387050 36.766694 -1.481652 2.126215 0.025102 0.005975 -655055.000000 0 0 1
1.598269 -31.848497 -19.252450 37.249672 -1.520655 2.113962 0.018798 0.004871 -291610.000000 0 0 1
1.539169 -33.175927 -19.760350 38.645603 -1.524435 2.107519 0.030466 0.004033 -307996.000000 0 0 1
2.179969 -34.331941 -18.934850 39.267836 -1.507385 2.073958 0.020561 -0.004844 1271050.000000 0 0 1
3.622869 -34.358926 -18.867750 39.365632 -1.465743 2.070648 0.018434 -0.001883 1208140.000000 0 0 1
4.172569 33.302750 -18.086850 38.126338 1.446154 2.065070 0.031911 -0.023625 445356.000000 0 0 1
5.358469 32.578409 -18.759550 37.973499 1.407777 2.087500 0.044322 -0.025199 510040.000000 0 0 1
6.503369 33.416258 -18.993150 38.983071 1.378582 2.079694 0.061464 -0.021293 505639.000000 0 0 1
7.570069 32.579449 -19.471250 38.702145 1.342490 2.097984 0.056014 -0.031543 61856.900000 0 0 1
8.882869 33.371944 -19.528450 39.673069 1.310650 2.085451 0.046574 -0.037344 -626211.000000 0 0 1
9.496269 33.518500 -18.299350 39.351432 1.294717 2.054458 0.035965 -0.022202 -673054.000000 0 0 1
10.773069 34.039094 -18.541550 40.230685 1.264280 2.049784 0.040262 -0.008748 -224404.000000 0 0 1
11.729169 34.084206 -17.339550 39.999581 1.239366 2.019162 0.017498 -0.007106 -276302.000000 0 0 1
12.223569 32.879041 -16.791850 38.889757 1.214857 2.017262 0.023828 -0.010155 -158433.000000 0 0 1
12.832669 33.103886 -15.534050 38.753727 1.200983 1.983230 0.015477 -0.012600 764968.000000 0 0 1
14.158369 32.253199 -15.359450 38.427086 1.157148 1.981990 0.019967 -0.004701 959357.000000 0 0 1
13.900869 30.903699 -14.977350 37.048533 1.148098 1.986969 0.035518 -0.010406 -588205.000000 0 0 1
15.067569 30.130859 -14.915450 36.842515 1.107092 1.987604 0.040235 -0.012280 -240545.000000 0 0 1
14.916269 28.848749 -13.978050 35.357196 1.093601 1.977232 0.048807 -0.011163 -215128.000000 0 0 1
14.851469 29.184139 -12.589550 35.082430 1.100063 1.937839 0.050742 -0.013615 -295724.000000 0 0 1
13.536169 29.216739 -12.091050 34.395337 1.136936 1.930003 0.058725 -0.014323 176511.000000 0 0 1
12.876769 27.842699 -11.754850 32.851234 1.137610 1.936729 0.053782 -0.014047 -772049.000000 0 0 1
12.294669 27.215919 -12.849150 32.511010 1.146492 1.977109 0.036268 -0.015290 -77829.000000 0 0 1
11.713969 25.923059 -12.635150 31.126662 1.146385 1.988789 0.060582 -0.018883 954789.000000 0 0 1
10.657269 25.764169 -11.451250 30.141349 1.178581 1.960504 0.062465 -0.019401 263122.000000 0 0 1
9.487669 26.566899 -11.618350 30.509049 1.227789 1.961476 0.053011 -0.012787 327608.000000 0 0 1
8.821869 26.637929 -10.358750 29.911676 1.250988 1.924433 0.038601 0.000476 -225746.000000 0 0 1
7.639469 27.602999 -10.416450 30.476047 1.300792 1.919619 0.043441 -0.001158 -189204.000000 0 0 1
8.106769 28.915629 -10.629150 31.856116 1.297454 1.910981 0.048325 -0.003468 203310.000000 0 0 1
7.150369 29.802259 -10.087350 32.265416 1.335320 1.888764 0.026614 -0.004266 265331.000000 0 0 1
7.632769 31.275299 -10.328250 33.809411 1.331424 1.881244 0.053556 -0.011717 811353.000000 0 0 1
8.865869 31.549809 -9.641850 34.160787 1.296850 1.856934 0.044265 -0.008275 242507.000000 0 0 1
9.243269 32.896895 -9.890650 35.573427 1.296882 1.852544 0.051936 -0.012327 319688.000000 0 0 1
10.317569 33.187358 -10.981250 36.447782 1.269380 1.876839 0.025649 -0.005539 -266305.000000 0 0 1
11.590469 32.662719 -10.726850 36.280263 1.229805 1.870949 0.024695 -0.005551 -921238.000000 0 0 1
12.417569 33.138135 -11.786450 37.299496 1.212270 1.892301 0.030384 -0.004275 -217839.000000 0 0 1
13.893469 32.938163 -11.421750 37.528755 1.171635 1.880049 0.044366 -0.008823 -179340.000000 0 0 1
14.346569 33.722375 -10.326050 38.074268 1.168560 1.845444 0.040846 -0.007505 566904.000000 0 0 1
15.775969 33.834989 -10.331450 38.735340 1.134502 1.840783 0.040836 -0.007272 675424.000000 0 0 1
16.240069 -33.767747 -9.375450 38.625117 -1.122517 1.815975 0.054578 -0.017075 31776.300000 0 0 1
16.186769 -34.096051 -8.026250 38.587211 -1.127560 1.780329 0.043378 -0.016439 206305.000000 0 0 1
16.974469 -33.209327 -7.264850 37.996974 -1.098280 1.763176 0.038547 -0.010205 -524762.000000 0 0 1
17.232769 -33.637897 -5.814450 38.239826 -1.097355 1.723441 0.040832 -0.005221 21872.900000 0 0 1
18.192869 34.069315 -5.555850 39.020074 1.080323 1.713666 0.042920 -0.015422 1167630.000000 0 0 1
19.569769 -34.294998 -5.746950 39.901757 -1.052252 1.715326 0.051453 -0.011889 323525.000000 0 0 1
20.434169 33.474433 -6.535350 39.759322 1.022735 1.735918 0.037549 -0.006114 -45327.200000 0 0 1
20.551669 32.171429 -5.992350 38.642984 1.002323 1.726494 0.031507 -0.004612 428711.000000 0 0 1
21.602269 32.061429 -4.995750 38.981416 0.977887 1.699307 0.037873 0.001575 241804.000000 0 0 1
22.072869 30.644179 -4.792250 38.068923 0.946579 1.697015 0.019857 -0.004954 144796.000000 0 0 1
22.973669 30.137309 -5.793950 38.335580 0.919470 1.722515 0.020856 0.001058 287263.000000 0 0 1
23.116769 28.771389 -5.509650 37.316673 0.893947 1.718984 0.010527 -0.000022 27482.800000 0 0 1
24.042269 27.974819 -6.493750 37.453838 0.860856 1.745057 0.014178 0.006721 -195288.000000 0 0 1
25.361169 28.439729 -6.473850 38.651233 0.842557 1.739084 0.020509 -0.001933 -648541.000000 0 0 1
26.326269 27.632669 -7.057150 38.812887 0.809604 1.753638 0.011747 -0.002409 -324136.000000 0 0 1
27.020769 26.659819 -6.053350 38.438405 0.778674 1.728936 0.014563 -0.000121 -470867.000000 0 0 1
28.131469 27.204919 -5.377950 39.502019 0.768656 1.707364 0.020326 -0.008192 -195956.000000 0 0 1
28.702669 26.242129 -4.536050 39.154416 0.740646 1.686907 0.017466 -0.002099 -324812.000000 0 0 1
29.926669 26.755269 -3.758950 40.318478 0.729506 1.664163 0.025754 -0.005883 -417199.000000 0 0 1
29.627169 27.655929 -2.687750 40.618266 0.750999 1.637016 0.035150 -0.013975 -102387.000000 0 0 1
30.791769 27.991449 -1.981350 41.660293 0.737796 1.618374 0.050634 -0.017309 -26936.600000 0 0 1
30.590669 29.312439 -1.205850 42.384693 0.764063 1.599250 0.060064 -0.020683 133031.000000 0 0 1
30.642969 30.312919 -2.198650 43.158993 0.779984 1.621761 0.039317 -0.013872 -110730.000000 0 0 1
30.263969 31.547459 -1.713850 43.750283 0.806160 1.609980 0.057161 -0.009238 -30769.700000 0 0 1
33.136050 22.396433 19.487249 44.489896 0.594363 1.117407 0.038342 -0.002191 111837.000000 0 0 1
32.997190 22.485033 20.871949 45.055849 0.598149 1.089142 0.028056 -0.017873 74659.900000 0 0 1
33.698500 23.639533 21.356649 46.373730 0.611733 1.092200 0.040313 -0.011550 83196.200000 0 0 1
33.730270 23.691033 22.923249 47.164303 0.612313 1.063255 0.019155 -0.006351 267955.000000 0 0 1
32.538090 24.268533 23.437349 46.872149 0.640840 1.047166 0.005579 -0.003368 358536.000000 0 0 1
32.638590 24.457533 24.802849 47.734995 0.643081 1.024420 0.004698 -0.006521 -191980.000000 0 0 1
31.381960 24.965433 25.539169 47.543132 0.672012 1.003707 -0.002000 -0.006242 -57626.300000 0 0 1
31.120820 26.318233 25.331879 47.988112 0.701980 1.014696 -0.021392 0.001851 317226.000000 0 0 1
29.798210 26.627433 25.727399 47.527387 0.729263 0.998793 -0.019387 0.003142 13767.600000 0 0 1
29.610400 28.128333 25.944569 48.384910 0.759735 1.004853 -0.027650 0.005424 -281274.000000 0 0 1
29.667130 28.902633 24.799199 48.275263 0.772346 1.031300 -0.028591 0.005046 63712.200000 0 0 1
29.336270 30.207433 25.111299 49.027371 0.800028 1.033064 -0.030307 -0.000862 -293499.000000 0 0 1
29.394350 31.130233 23.926139 49.046706 0.814071 1.061202 -0.026952 0.001400 83597.300000 0 0 1
30.677830 31.311433 23.366549 49.674246 0.795619 1.081057 -0.028766 -0.000654 -184859.000000 0 0 1
30.577250 32.247233 22.304549 49.722682 0.811974 1.105622 -0.022210 -0.000319 424268.000000 0 0 1
32.007100 32.646633 21.873249 50.682306 0.795290 1.124558 -0.011720 -0.010736 391249.000000 0 0 1
32.683740 33.491633 22.779449 52.046322 0.797606 1.117783 -0.006884 -0.004116 -126654.000000 0 0 1
34.041320 33.624733 22.417249 52.839069 0.779242 1.132657 -0.003167 0.002311 112831.000000 0 0 1
34.731800 -33.902813 23.080149 53.743762 -0.773320 1.126915 0.001425 0.008483 -122147.000000 0 0 1
34.245460 -32.630713 22.648649 52.444983 -0.761258 1.124247 -0.007755 0.004986 131558.000000 0 0 1
34.636190 -31.567913 23.468749 52.411649 -0.739086 1.106518 -0.006100 0.004986 -692674.000000 0 0 1
33.723580 -30.312113 23.287549 50.974640 -0.732174 1.096350 -0.005941 0.002417 935518.000000 0 0 1
32.388370 -30.571113 23.754119 50.476307 -0.756542 1.080826 -0.002028 -0.001772 554914.000000 0 0 1
31.478550 -30.851813 22.719449 49.587365 -0.775343 1.094861 -0.004149 0.009854 -394835.000000 0 0 1
30.600860 -32.067213 23.033649 49.952655 -0.808793 1.091551 -0.007379 0.009908 311756.000000 0 0 1
29.583060 -31.959113 24.029199 49.738765 -0.823988 1.066595 -0.005031 0.003266 317646.000000 0 0 1
28.856030 -33.162013 24.151349 50.156527 -0.854718 1.068409 -0.011080 0.005595 -99700.600000 0 0 1
28.245510 -33.288313 25.536949 50.577232 -0.867167 1.041519 -0.007964 0.007232 -223909.000000 0 0 1
27.763100 34.130033 25.607579 50.905766 0.887907 1.043685 -0.011575 -0.004504 7317.660000 0 0 1
27.177260 33.822533 26.843659 51.021066 0.893910 1.016754 -0.013021 0.003192 -450555.000000 0 0 1
26.912910 32.310833 27.087909 50.020490 0.876292 0.998533 -0.005682 -0.000512 173036.000000 0 0 1
26.255460 31.607033 26.054549 48.653810 0.877624 1.005686 -0.007505 -0.004773 1177390.000000 0 0 1
24.825060 31.858033 26.139729 48.109285 0.908843 0.996385 -0.006621 -0.002841 740250.000000 0 0 1
24.082560 31.616433 24.816399 46.855333 0.919843 1.012622 0.016213 -0.018916 -187039.000000 0 0 1
24.246060 32.431333 23.629139 46.882822 0.928825 1.042568 0.015817 -0.024600 -1145560.000000 0 0 1
25.443060 32.269633 22.992949 47.088791 0.903137 1.060668 -0.004627 -0.010032 -1158370.000000 0 0 1
25.724660 33.271833 21.803349 47.372556 0.912633 1.092516 0.006420 -0.006227 -372352.000000 0 0 1
27.082300 33.480133 21.557749 48.157106 0.890648 1.106656 -0.004334 -0.000003 -369353.000000 0 0 1
27.116220 34.225033 20.343949 48.171761 0.900773 1.134792 -0.002939 -0.003948 117658.000000 0 0 1
28.487820 -34.225613 19.678149 48.684474 -0.876636 1.154695 -0.004520 -0.006699 249469.000000 0 0 1
29.312800 33.421133 19.359149 48.486998 0.850793 1.160082 -0.009689 -0.008172 -102871.000000 0 0 1
30.372860 33.894533 18.559549 49.150858 0.840141 1.183589 -0.002917 -0.008361 -21151.000000 0 0 1
31.322510 32.848233 17.888249 48.786222 0.809170 1.195373 -0.009940 -0.000174 53081.800000 0 0 1
32.026630 32.104733 18.834649 49.103594 0.786616 1.177138 -0.010011 -0.010475 -147326.000000 0 0 1
32.941450 31.252333 18.163049 48.905458 0.759091 1.190290 0.007665 -0.010491 302253.000000 0 0 1
33.872500 30.512033 19.171249 49.455709 0.733252 1.172721 0.024477 -0.021960 274885.000000 0 0 1
34.888570 31.324633 19.737349 50.872467 0.731625 1.172361 0.034399 -0.019951 147489.000000 0 0 1
35.814570 30.592033 20.512149 51.374158 0.706915 1.160076 0.054987 -0.019410 128071.000000 0 0 1
-34.724680 31.425333 20.945849 51.303836 -0.735563 1.150238 0.066680 -0.018084 -250216.000000 0 0 1
-33.916711 31.980933 19.935149 50.700429 -0.756031 1.166693 0.070957 -0.017891 456003.000000 0 0 1
-32.797531 32.777533 20.362749 50.642732 -0.785093 1.157002 0.059766 -0.011619 568319.000000 0 0 1
-33.019531 34.098033 21.202849 51.985826 -0.801466 1.150689 0.043135 -0.012341 -578260.000000 0 0 1
-33.378711 34.012333 22.554149 52.722545 -0.794800 1.128751 0.044886 -0.011298 146281.000000 0 0 1
-33.053391 -33.624513 23.347849 52.614224 0.793963 1.111011 0.036130 -0.008973 -133199.000000 0 0 1
-33.148721 -33.942613 24.854499 53.560105 0.797231 1.088236 0.037238 -0.016186 488190.000000 0 0 1
-34.468908 -34.023713 25.390369 54.684454 0.778898 1.087944 0.030045 -0.001694 141748.000000 0 0 1
-34.468831 34.316233 26.725409 55.497312 -0.783180 1.068360 0.030375 -0.006421 81579.900000 0 0 1
35.867216 34.116533 27.317109 56.538654 0.760388 1.066538 0.019323 -0.011180 39287.200000 0 0 1
-35.872575 33.229233 28.418389 56.556418 -0.747164 1.044333 0.037298 -0.019855 -537541.000000 0 0 1
34.644530 33.158133 29.060599 56.073377 0.763479 1.025981 0.049571 -0.028909 -820674.000000 0 0 1
34.566090 32.072733 30.179969 55.984867 0.748000 1.001459 0.045086 -0.018968 -384913.000000 0 0 1
34.556880 30.711733 29.796079 55.001771 0.726554 0.998303 0.024241 -0.016923 902284.000000 0 0 1
35.752446 30.256933 29.132339 55.158069 0.702336 1.014363 0.023488 -0.013176 260329.000000 0 0 1
35.669150 28.761933 28.777419 54.108011 0.678603 1.010011 0.037805 -0.012718 -592171.000000 0 0 1
34.643430 28.474233 27.857009 52.791686 0.687966 1.014932 0.022253 -0.003070 328045.000000 0 0 1
34.274870 27.108033 27.572209 51.670483 0.669168 1.007926 0.031415 -0.007827 242148.000000 0 0 1
33.799840 26.237733 28.769479 51.560942 0.660102 0.978858 0.027132 -0.014110 -715300.000000 0 0 1
34.915040 25.745433 29.488169 52.454165 0.635371 0.973789 0.031116 -0.013617 167163.000000 0 0 1
34.809670 24.320833 29.826919 51.892785 0.609840 0.958461 0.029864 -0.006018 -304187.000000 0 0 1
35.371880 23.371733 28.751589 51.225596 0.583891 0.974872 0.029954 -0.015693 -501530.000000 0 0 1
34.646090 23.281833 27.531959 50.004040 0.591679 0.987720 0.021730 -0.011975 371127.000000 0 0 1
35.390930 22.641633 26.460919 49.652207 0.569142 1.008742 0.024831 -0.024297 -72849.900000 0 0 1
35.287740 21.067533 26.533709 48.919354 0.538226 0.997509 0.014830 -0.025239 -461356.000000 0 0 1
33.979090 20.564233 26.395489 47.688448 0.544236 0.984237 0.042296 -0.020569 -10260.900000 0 0 1
33.641060 19.335133 27.085499 47.320107 0.521645 0.961380 0.046068 -0.022293 -317874.000000 0 0 1
33.572980 19.474633 28.624099 48.225982 0.525635 0.935345 0.025479 -0.021809 -857611.000000 0 0 1
32.409990 20.093833 29.039299 47.931727 0.554988 0.919966 0.027474 -0.013557 -433446.000000 0 0 1
32.388460 21.523233 28.996729 48.508475 0.586525 0.930084 0.022800 -0.026398 -863421.000000 0 0 1
31.185190 22.094733 29.784519 48.454214 0.616408 0.908798 0.032543 -0.029898 336397.000000 0 0 1
29.850850 21.780633 29.353199 47.191943 0.630349 0.899507 0.038584 -0.036167 1003000.000000 0 0 1
29.289330 22.604833 28.343309 46.606721 0.657293 0.917084 0.026676 -0.034535 -274125.000000 0 0 1
29.156840 24.111933 28.783179 47.539226 0.690973 0.920451 0.016689 -0.022912 -753476.000000 0 0 1
30.318510 24.942233 28.809909 48.696385 0.688414 0.937726 0.005039 -0.012011 128868.000000 0 0 1
30.268160 26.100833 29.553799 49.707565 0.711603 0.934086 -0.009548 -0.008530 -490515.000000 0 0 1
30.570830 25.917233 31.046929 50.697045 0.703202 0.911702 0.000594 -0.017749 119413.000000 0 0 1
31.915150 25.516233 31.277239 51.457950 0.674437 0.917482 0.009929 -0.022749 80797.700000 0 0 1
32.313530 25.411633 32.600801 52.466442 0.666398 0.900313 0.023633 -0.019977 -218670.000000 0 0 1
31.925210 24.092733 33.364923 52.085477 0.646478 0.875543 0.035674 -0.018908 -527401.000000 0 0 1
32.127450 24.124333 -33.864190 52.544646 0.644074 2.271145 0.028400 -0.028095 254818.000000 0 0 1
31.755650 22.911333 -33.184440 51.327941 0.625003 2.273808 0.017493 -0.023499 -499801.000000 0 0 1
32.139250 22.776833 -31.719730 50.575258 0.616536 2.248722 0.009615 -0.028864 -221461.000000 0 0 1
31.525490 23.672433 -30.751000 49.998646 0.644076 2.233229 0.000175 -0.031987 418323.000000 0 0 1
31.965660 23.434933 -29.437560 49.371747 0.632616 2.209609 0.033928 -0.042097 -1145090.000000 0 0 1
33.243300 24.096633 -28.986200 50.258974 0.627214 2.185525 0.038663 -0.015005 -557025.000000 0 0 1
33.756550 23.448533 -27.825320 49.634532 0.607117 2.165911 0.043044 -0.021029 672779.000000 0 0 1
34.996690 24.096033 -27.457200 50.589376 0.602982 2.144500 0.050180 -0.012811 849955.000000 0 0 1
35.739217 23.509433 -26.236960 50.183295 0.581842 2.120955 0.045127 -0.011596 123318.000000 0 0 1
-35.087082 22.468033 -26.599050 49.431015 -0.569562 2.138983 0.036974 -0.015369 513882.000000 0 0 1
-35.464404 21.102633 -26.249480 48.908898 -0.536762 2.137319 0.018911 -0.006125 -551950.000000 0 0 1
-34.446308 20.087233 -26.801660 48.045541 -0.527935 2.162576 0.037115 0.004363 316819.000000 0 0 1
-33.218621 20.232933 -26.082840 46.831217 -0.547072 2.161510 0.039387 -0.000518 416174.000000 0 0 1
-32.345041 19.107133 -26.246980 45.827810 -0.533574 2.180629 0.019892 -0.004982 57395.700000 0 0 1
-30.993341 19.293033 -25.574150 44.574045 -0.556792 2.181868 0.024396 -0.008548 -212902.000000 0 0 1
-31.292571 19.648933 -24.251850 44.197939 -0.560690 2.151617 0.017528 -0.002169 -1026270.000000 0 0 1
-30.100331 19.910133 -23.666150 43.157039 -0.584389 2.151214 0.030657 0.003101 -1041320.000000 0 0 1
-30.251441 20.345533 -22.214950 42.691854 -0.592063 2.118064 0.016074 -0.003061 236099.000000 0 0 1
-30.808331 19.338433 -21.369850 42.187661 -0.560540 2.101967 -0.003200 0.004738 238435.000000 0 0 1
-31.489571 19.866533 -20.211850 42.364975 -0.562825 2.068135 0.006286 0.006684 -928183.000000 0 0 1
-32.274601 18.724133 -19.508050 42.104715 -0.525697 2.052537 -0.009794 0.006511 38620.600000 0 0 1
-33.061071 19.030033 -18.348150 42.330027 -0.522287 2.019119 -0.010348 -0.003043 563683.000000 0 0 1
-33.947561 20.122033 -18.525950 43.595228 -0.535063 2.009707 -0.011884 -0.002213 -1542980.000000 0 0 1
-35.071517 20.127633 -17.515850 44.067425 -0.521009 1.979564 0.000374 -0.011671 -502604.000000 0 0 1
-34.629669 20.578733 -16.256150 43.439160 -0.536182 1.954360 0.003428 -0.015299 728088.000000 0 0 1
-35.807044 20.548033 -15.440750 44.077010 -0.520973 1.928702 0.004655 -0.012194 -159002.000000 0 0 1
-35.637358 21.382433 -14.153350 43.903839 -0.540420 1.899030 0.007860 -0.009208 -299897.000000 0 0 1
35.869542 22.755133 -14.348750 44.836444 0.565320 1.896551 0.015808 -0.008358 71255.200000 0 0 1
34.508670 23.104233 -14.279050 43.915204 0.589975 1.901967 0.024215 -0.009962 -341457.000000 0 0 1
34.195980 24.519633 -14.714550 44.576848 0.622066 1.907199 0.024028 -0.010237 52596.700000 0 0 1
34.661090 25.431633 -13.718250 45.125929 0.633002 1.879684 0.019984 -0.010656 31471.000000 0 0 1
34.378040 26.774433 -14.139150 45.810866 0.661695 1.884561 0.010929 0.001081 -30106.500000 0 0 1
35.475850 27.597033 -14.878650 47.344549 0.661126 1.890477 0.043178 0.003285 210958.000000 0 0 1
35.731576 27.193033 -16.211350 47.739024 0.650527 1.917270 0.047014 -0.000391 -170636.000000 0 0 1
-34.841973 27.882233 -16.537250 47.590573 -0.674892 1.925689 0.064987 -0.007572 -860364.000000 0 0 1
-34.463422 27.801933 -18.057550 47.819976 -0.678818 1.958016 0.055769 -0.008202 -116297.000000 0 0 1
-33.980561 26.515833 -18.462250 46.889472 -0.662627 1.975493 0.045442 -0.010664 349776.000000 0 0 1
-32.618381 26.323633 -18.101450 45.656926 -0.679006 1.978461 0.039348 -0.004354 150172.000000 0 0 1
-31.999831 24.940833 -18.572050 44.620123 -0.662056 2.000087 0.030771 -0.007110 -371344.000000 0 0 1
-31.685311 25.077633 -19.970250 45.073912 -0.669511 2.029801 0.023852 -0.003069 146228.000000 0 0 1
-31.145001 23.854933 -20.457550 44.244551 -0.653619 2.051468 0.017860 -0.000473 -96745.600000 0 0 1
-30.768781 23.972233 -21.948250 44.756134 -0.661872 2.083341 0.015866 0.003763 -141272.000000 0 0 1
-31.896111 24.123733 -22.752850 46.010962 -0.647535 2.088067 0.029240 -0.002379 -9962.650000 0 0 1
-31.487961 23.906733 -24.096550 46.299755 -0.649385 2.118170 0.040650 -0.001394 681940.000000 0 0 1
-32.525851 24.500233 -25.148560 47.860657 -0.645581 2.124045 0.019267 -0.001823 605754.000000 0 0 1
-32.299981 25.928633 -25.249240 48.508833 -0.676412 2.118242 0.015549 0.000802 232656.000000 0 0 1
-33.247601 26.497633 -26.144310 49.910445 -0.672896 2.122131 0.022665 -0.006520 164740.000000 0 0 1
-32.849501 27.936533 -26.482590 50.605011 -0.704750 2.121538 0.015341 -0.003333 805953.000000 0 0 1
-31.576791 28.056133 -27.130680 50.202730 -0.726428 2.141735 0.016629 -0.006060 180757.000000 0 0 1
-31.200171 29.380933 -27.319020 50.823408 -0.755377 2.138300 0.020865 -0.010287 140380.000000 0 0 1
-29.845081 29.536433 -28.048960 50.496276 -0.780200 2.159719 0.015749 -0.007704 -641178.000000 0 0 1
-28.835661 28.864233 -27.320140 49.102234 -0.785893 2.160835 -0.007457 -0.004319 -11537.500000 0 0 1
-27.551511 28.970333 -27.919840 48.763546 -0.810495 2.180416 0.008291 -0.006103 562129.000000 0 0 1
-26.836301 30.362033 -27.791970 49.136887 -0.846961 2.171961 -0.001250 -0.006200 -1193630.000000 0 0 1
-26.119121 30.581133 -26.619220 48.228592 -0.863931 2.155484 -0.004412 -0.000558 -157371.000000 0 0 1
-26.876861 30.574233 -25.407550 47.986383 -0.849666 2.128777 -0.005290 0.002668 -177437.000000 0 0 1
-26.040501 30.914533 -24.170450 47.095931 -0.870767 2.109726 -0.019133 -0.000488 4574.950000 0 0 1
-25.903931 32.357633 -24.231050 48.012226 -0.895720 2.099813 -0.005262 0.004204 78921.900000 0 0 1
-24.783731 32.732833 -23.445650 47.279702 -0.922734 2.089659 0.001433 0.011677 188624.000000 0 0 1
-24.466231 34.219633 -23.743750 48.304714 -0.950090 2.084655 -0.000571 0.017540 100206.000000 0 0 1
-25.297451 -33.602513 -23.050150 47.962478 0.925478 2.072120 -0.009756 0.008531 237464.000000 0 0 1
-24.951031 -32.297613 -23.479850 47.084956 0.913028 2.092860 0.002302 0.003301 -93331.400000 0 0 1
16.354769 8.300833 -25.680680 31.557560 0.469668 2.521411 0.039005 -0.018143 -719837.000000 0 0 1
15.094269 7.807733 -25.379430 30.543626 0.477364 2.551563 0.029970 -0.016500 -671580.000000 0 0 1
15.095069 6.426533 -25.204160 30.073429 0.402495 2.564564 0.034388 -0.016223 -341274.000000 0 0 1
13.707969 5.783033 -25.171800 29.239894 0.399220 2.607777 0.031787 -0.019580 -261628.000000 0 0 1
12.971669 6.019733 -24.007750 27.944113 0.434491 2.604372 0.032939 -0.031625 -883133.000000 0 0 1
11.737769 5.417533 -24.024650 27.282021 0.432415 2.647931 0.031760 -0.027480 -853739.000000 0 0 1
10.954469 5.569233 -22.675150 25.791068 0.470344 2.644948 0.036966 -0.034585 153697.000000 0 0 1
11.531869 4.765933 -21.605550 24.949908 0.391905 2.617857 0.038502 -0.031158 502962.000000 0 1 0
11.036269 5.080533 -20.299950 23.657959 0.431427 2.602277 0.049327 -0.030502 -280441.000000 0 1 0
11.438869 6.438333 -19.679550 23.655539 0.512653 2.553358 0.052656 -0.035898 -375409.000000 0 1 0
10.926869 6.689133 -18.357650 22.386252 0.549322 2.532279 0.035616 -0.028259 -234006.000000 0 1 0
11.306969 7.987733 -17.882750 22.615132 0.615037 2.482818 0.043791 -0.027344 527602.000000 0 1 0
12.826269 8.116833 -17.571350 23.219571 0.564209 2.429119 0.048106 -0.027289 101568.000000 0 1 0
13.221969 7.724733 -16.272850 22.344968 0.528747 2.386569 0.056982 -0.032785 -194450.000000 0 1 0
14.614269 7.786933 -16.159750 23.137647 0.489566 2.343981 0.056006 -0.029362 -547791.000000 0 1 0
15.067569 7.794833 -14.671250 22.428478 0.477412 2.283835 0.052609 -0.028271 -1007610.000000 0 1 0
16.445969 7.638933 -14.533950 23.239167 0.434836 2.246450 0.051536 -0.029362 -101431.000000 0 1 0
16.895969 7.898533 -13.214750 22.858045 0.437295 2.187222 0.039135 -0.027278 -131306.000000 0 1 0
17.329669 9.344133 -12.926350 23.552511 0.494513 2.151762 0.050272 -0.024158 -901471.000000 0 1 0
16.281669 10.242333 -13.079150 23.260746 0.561522 2.167942 0.051973 -0.020046 287047.000000 0 1 0
16.826569 11.559533 -13.087650 24.249594 0.601935 2.140884 0.062147 -0.018068 -132973.000000 0 1 0
15.713369 12.536533 -12.758250 23.808561 0.673414 2.136332 0.078146 -0.021631 -325832.000000 0 1 0
15.318869 12.553833 -11.373250 22.838942 0.686519 2.092060 0.101023 -0.016450 130345.000000 0 1 0
15.673069 13.768933 -10.703250 23.447562 0.720814 2.044827 0.076757 -0.000655 -30217.500000 0 1 0
14.947769 15.131633 -10.992150 23.942211 0.791511 2.047791 0.055901 0.001210 742132.000000 0 1 0
13.652369 15.200833 -10.369350 22.912353 0.839014 2.040437 0.064157 -0.013014 640682.000000 0 1 0
13.141169 16.487733 -10.514550 23.560378 0.897871 2.033402 0.053972 -0.013178 -93622.500000 0 1 0
12.063069 16.903833 -9.476850 22.826912 0.950982 1.998916 0.049606 -0.015430 -37394.600000 0 1 0
12.528569 16.926233 -8.156450 22.582960 0.933606 1.940326 0.051122 -0.011651 40458.100000 0 1 0
11.529869 17.137833 -7.175850 21.866322 0.978578 1.905161 0.040348 -0.016077 139995.000000 0 1 0
12.065869 17.063633 -5.669050 21.653889 0.955314 1.835686 0.042602 -0.009420 566781.000000 0 1 0
12.873369 18.156633 -5.221150 22.861482 0.954044 1.801212 0.043919 -0.008845 253338.000000 0 1 0
13.472769 17.982533 -3.962750 22.816450 0.927798 1.745361 0.050235 0.000988 -538221.000000 0 1 0
14.516269 19.076533 -3.725650 24.259362 0.920325 1.724982 0.050049 -0.008066 -487164.000000 0 1 0
15.627769 18.864533 -4.553650 24.916531 0.878964 1.754585 0.053673 -0.019943 -162020.000000 0 1 0
16.458269 19.975833 -4.791850 26.322431 0.881646 1.753861 0.047790 -0.024559 806445.000000 0 0 1
17.811069 19.762033 -5.587250 27.184361 0.837276 1.777803 0.053395 -0.014778 651788.000000 0 0 1
18.816569 19.184933 -4.793750 27.296611 0.795091 1.747329 0.047654 -0.026659 -217682.000000 0 0 1
18.930469 17.799833 -5.121250 26.484409 0.754626 1.765391 0.050723 -0.029057 -960331.000000 0 0 1
20.039669 16.956833 -4.537150 26.640350 0.702262 1.741942 0.066155 -0.031433 491931.000000 0 0 1
21.349569 17.488833 -4.863750 28.023552 0.686319 1.745239 0.057714 -0.034922 1808240.000000 0 0 1
22.388769 16.564233 -4.430750 28.200396 0.636971 1.728567 0.064570 -0.035705 1051120.000000 0 0 1
23.866669 16.887633 -4.755350 29.621333 0.615797 1.732032 0.067657 -0.037959 309007.000000 0 0 1
24.381569 17.922533 -3.987950 30.521826 0.633887 1.701830 0.061687 -0.039425 2717.030000 0 0 1
25.790769 18.030033 -3.967150 31.717253 0.610114 1.696203 0.061274 -0.032459 12956.000000 0 0 1
26.184569 19.329333 -3.288450 32.711904 0.635903 1.671494 0.066819 -0.029792 -279483.000000 0 0 1
26.024169 20.437233 -4.140350 33.347869 0.665724 1.695274 0.064655 -0.034745 242172.000000 0 0 1
26.123069 21.672433 -3.473350 34.119983 0.692548 1.672771 0.071936 -0.013769 -354542.000000 0 0 1
26.027569 22.905833 -4.375350 34.946462 0.721689 1.696327 0.042593 -0.014204 844231.000000 0 0 1
27.156169 23.370233 -5.203250 36.203579 0.710608 1.715018 0.043761 -0.009729 1189260.000000 0 0 1
27.637169 22.510533 -6.202550 36.180227 0.683521 1.743082 0.048696 -0.010241 -229699.000000 0 0 1
28.844469 23.054833 -6.948650 37.574093 0.674302 1.756799 0.033938 -0.006192 -549158.000000 0 0 1
28.376969 24.043733 -7.824750 38.007633 0.702923 1.778152 0.025405 -0.006487 282836.000000 0 0 1
29.283669 24.808033 -8.641450 39.340138 0.702845 1.792262 0.007906 -0.003954 19044.300000 0 0 1
30.345069 24.164833 -9.575650 39.955668 0.672502 1.812809 0.007971 -0.008465 175107.000000 0 0 1
29.805869 23.727733 -10.831950 39.607149 0.672344 1.847810 0.006622 -0.008261 -32786.100000 0 0 1
30.752869 23.037533 -11.589250 40.134494 0.642937 1.863728 0.004240 -0.013445 -241468.000000 0 0 1
30.196669 22.566133 -12.956250 39.861430 0.641774 1.901842 0.002772 -0.009744 19731.300000 0 0 1
30.173369 23.583533 -13.917050 40.746773 0.663421 1.919362 0.012681 0.001890 139857.000000 0 0 1
29.634969 23.083333 -15.133350 40.498024 0.661756 1.953771 0.008293 -0.003604 -140862.000000 0 0 1
29.656769 24.002733 -16.410750 41.532732 0.680417 1.977004 0.004987 0.003144 196755.000000 0 0 1
30.998469 24.446933 -16.663450 42.851233 0.667782 1.970198 -0.004385 0.007153 589477.000000 0 0 1
31.159169 25.126633 -17.893750 43.845499 0.678629 1.991178 0.001751 0.006058 340420.000000 0 0 1
32.632069 25.590633 -18.087650 45.242629 0.665043 1.982086 0.006213 0.004305 5957.620000 0 0 1
33.467469 24.500233 -18.297550 45.333577 0.631921 1.986267 0.016426 0.000275 -1023400.000000 0 0 1
34.774669 25.005033 -18.456050 46.638558 0.623403 1.977654 0.028788 -0.007319 -606528.000000 0 0 1
35.815169 23.876633 -18.355550 46.794724 0.588000 1.973880 0.026463 -0.015603 -344366.000000 0 0 1
35.769769 23.068633 -19.526650 46.828712 0.572796 2.000917 0.014077 -0.011953 669426.000000 0 0 1
-35.004622 23.541133 -20.473350 46.889941 -0.592041 2.022641 0.026641 -0.004936 99956.300000 0 0 1
-35.173522 22.798733 -21.784350 47.238933 -0.575094 2.050090 0.022158 -0.013170 141083.000000 0 0 1
-34.932622 21.405533 -21.537150 46.285351 -0.549754 2.054784 0.000937 -0.012564 194263.000000 0 0 1
-34.689222 20.772833 -22.743150 46.390770 -0.539556 2.083175 0.014186 -0.010932 -143099.000000 0 0 1
-34.274922 19.294233 -22.725950 45.425835 -0.512713 2.094726 0.000178 -0.004509 -494429.000000 0 0 1
-35.181522 18.395533 -22.165650 45.469233 -0.481780 2.080005 -0.000188 -0.002711 -255478.000000 0 0 1
-34.945422 17.157633 -22.632450 45.031041 -0.456409 2.097396 -0.012087 -0.002175 -395690.000000 0 0 1
35.657669 16.161633 -22.354550 45.082077 0.425549 2.089625 -0.015014 -0.003671 -140505.000000 0 0 1
34.627569 16.328833 -23.312250 44.823658 0.440634 2.117750 0.034542 -0.005459 221924.000000 0 0 1
33.623369 15.309233 -23.254450 43.654015 0.427265 2.132583 0.053484 0.001595 14007.800000 0 0 1
33.903769 13.869533 -23.751250 43.657203 0.388314 2.146040 0.025081 -0.008232 -649697.000000 0 0 1
33.785369 13.773033 -25.143220 44.309470 0.387095 2.174197 0.042310 -0.003613 357365.000000 0 0 1
34.013269 12.418433 -25.500680 44.287748 0.350068 2.184373 0.030367 -0.000562 -348058.000000 0 0 1
33.993969 12.044733 -27.013630 45.059979 0.340518 2.213677 0.051741 -0.008474 59984.500000 0 0 1
32.701569 11.904633 -27.590750 44.411287 0.349126 2.241140 0.047383 -0.014719 451625.000000 0 0 1
32.120569 13.093833 -28.138780 44.665091 0.387081 2.252343 0.057316 -0.010682 14346.000000 0 0 1
32.622569 13.444033 -29.587580 46.047790 0.390901 2.268606 0.050337 -0.007047 526076.000000 0 0 1
33.989969 13.861933 -29.684880 47.208720 0.387233 2.250806 0.048254 -0.008229 747493.000000 0 0 1
34.414969 13.974833 -31.087970 48.437051 0.385727 2.267668 0.037339 -0.009235 701830.000000 0 0 1
-35.766422 14.046233 -31.124940 49.449929 -0.374216 2.251607 0.043452 -0.006595 1057260.000000 0 0 1
-35.050922 12.819533 -30.776900 48.374840 -0.350628 2.260381 0.033226 -0.009203 466438.000000 0 0 1
-34.884922 12.651133 -29.343510 47.308039 -0.347903 2.239877 0.022942 -0.002876 -606301.000000 0 0 1
-33.726922 11.640833 -29.197600 46.103298 -0.332347 2.256617 0.024644 -0.012060 162243.000000 0 0 1
-34.057922 10.339133 -29.532640 46.249503 -0.294733 2.263410 0.028865 -0.019884 -35700.600000 0 0 1
-32.826622 9.696533 -29.681370 45.305558 -0.287219 2.285161 0.034824 -0.020429 -24085.600000 0 0 1
-33.004522 8.221233 -30.209550 45.491802 -0.244126 2.297040 0.053948 -0.026705 -611060.000000 0 0 1
-33.369422 8.234333 -31.615610 46.699779 -0.241930 2.314471 0.035697 -0.024936 320360.000000 0 0 1
-33.945622 7.033433 -32.133170 47.268542 -0.204306 2.318287 0.045055 -0.030259 -187038.000000 0 0 1
-35.326722 6.602133 -31.610620 47.862268 -0.184756 2.292214 0.046251 -0.019922 -838028.000000 0 0 1
-35.328622 5.946233 -30.367950 46.964684 -0.166749 2.273932 0.047937 -0.029790 479076.000000 0 0 1
35.144469 5.414933 -30.033210 46.545128 0.152874 2.272146 0.038429 -0.019474 107017.000000 0 0 1
35.075269 4.510233 -28.750640 45.576485 0.127886 2.253408 0.060929 -0.022803 284894.000000 0 0 1
-35.862622 3.331233 -28.990780 46.235161 -0.092623 2.248530 0.079236 -0.025028 846180.000000 0 0 1
35.691269 2.402033 -27.947690 45.395042 0.067199 2.234013 0.085720 -0.018521 -383368.000000 0 0 1
-35.041622 1.270833 -28.020650 44.885266 -0.036251 2.244997 0.104215 -0.019286 610343.000000 0 0 1
-33.703522 1.592033 -27.591020 43.585850 -0.047201 2.256254 0.097482 -0.016776 1360190.000000 0 0 1
-32.855022 0.412133 -27.582230 42.899903 -0.012543 2.269132 0.091351 -0.019095 782008.000000 0 0 1
-31.681922 0.509933 -26.558560 41.344423 -0.016094 2.268388 0.087209 -0.015656 518500.000000 0 0 1
-32.060622 0.346633 -25.146710 40.747523 -0.010811 2.235892 0.080894 -0.008680 338690.000000 0 0 1
-30.912222 0.622533 -24.386550 39.378380 -0.020136 2.238632 0.088449 0.002243 42646.100000 0 0 1
-31.176022 0.366133 -22.866250 38.664503 -0.011744 2.203592 0.078908 0.006973 -128347.000000 0 0 1
-31.451122 -1.004567 -22.541450 38.707870 0.031930 2.192410 0.086645 -0.005290 246802.000000 0 0 1
-31.577722 -1.308067 -21.152850 38.030338 0.041400 2.160614 0.078441 -0.008408 442192.000000 0 0 1
-33.053322 -1.164367 -20.674450 39.003983 0.035212 2.129468 0.068913 -0.004133 277511.000000 0 0 1
-34.015322 -2.088367 -21.100750 40.082977 0.061318 2.125189 0.060597 -0.007623 944752.000000 0 0 1
-35.300722 -1.835067 -20.476750 40.851019 0.051937 2.095844 0.049856 -0.005095 1156970.000000 0 0 1
35.663569 -3.170867 -20.263550 41.140686 -0.088677 2.085806 0.045854 -0.008868 67583.600000 0 0 1
35.020969 -3.854967 -21.355050 41.199116 -0.109635 2.115702 0.040302 -0.007003 114076.000000 0 0 1
-35.842322 -4.325967 -22.333250 42.451856 0.120113 2.124786 0.031746 -0.002049 -435736.000000 0 0 1
35.287469 -5.259867 -23.402450 42.667861 -0.147968 2.151341 0.032920 0.006473 -577317.000000 0 0 1
34.983469 -6.568867 -22.923350 42.337608 -0.185609 2.142947 0.030068 0.010110 138691.000000 0 0 1
34.775769 -7.545067 -23.951450 42.894686 -0.213652 2.163226 0.020765 0.013473 581424.000000 0 0 1
33.341469 -7.531367 -24.595250 42.110585 -0.222157 2.194522 0.008787 0.025729 374181.000000 0 0 1
33.059269 -6.267967 -25.139540 42.002371 -0.187374 2.212457 0.024769 0.011109 -327889.000000 0 0 1
31.661769 -6.079167 -25.168300 40.900699 -0.189695 2.233628 0.015023 0.012595 20418.900000 0 0 1
31.214669 -4.929567 -26.130740 41.005753 -0.156631 2.261715 0.030532 -0.014236 44409.500000 0 0 1
31.454369 -5.095567 -27.508320 42.095722 -0.160603 2.282957 0.022919 -0.013184 448903.000000 0 0 1
30.798069 -4.071067 -28.288590 42.015937 -0.131424 2.309436 0.037291 -0.023469 250673.000000 0 0 1
30.686769 -4.396467 -29.796390 42.998041 -0.142301 2.336398 0.044282 -0.018686 65704.000000 0 0 1
30.060169 -3.301767 -30.454690 42.918569 -0.109400 2.359716 0.042032 -0.026145 103876.000000 0 0 1
29.722069 -3.707467 -31.765650 43.660087 -0.124097 2.385565 0.055690 -0.032027 -412147.000000 0 0 1
29.220369 -2.602667 -32.727160 43.950777 -0.088836 2.410780 0.055629 -0.025843 1065170.000000 0 0 1
28.057169 -1.850967 -32.254960 42.790341 -0.065876 2.424608 0.041298 -0.020210 1983200.000000 0 0 1
26.756169 -2.453767 -32.184530 41.925619 -0.091453 2.445975 0.056292 -0.019337 506944.000000 0 0 1
25.993369 -2.849567 -33.434770 42.445955 -0.109191 2.477866 0.058386 -0.022273 -634304.000000 0 0 1
26.587669 -3.910467 -34.192902 43.489659 -0.146031 2.475481 0.064452 -0.026734 61684.300000 0 0 1
26.014169 -4.060367 33.150956 42.334495 -0.154834 0.671206 0.070055 -0.021746 -529050.000000 0 0 1
26.638669 -5.235367 32.359799 42.239606 -0.194059 0.698044 0.058536 -0.036623 725352.000000 0 0 1
28.030169 -5.097267 32.013619 42.854922 -0.179884 0.727223 0.060154 -0.028127 958797.000000 0 0 1
28.290069 -4.239767 30.871479 42.087431 -0.148761 0.747327 0.073984 -0.023995 -688965.000000 0 0 1
28.692069 -2.785467 31.187249 42.469261 -0.096778 0.746090 0.053330 -0.024378 -282271.000000 0 0 1
29.992669 -2.826867 31.748559 43.766681 -0.093974 0.759174 0.043437 -0.022256 197594.000000 0 0 1
30.552769 -1.526767 31.869529 44.175441 -0.049930 0.764930 0.029864 -0.015153 -114051.000000 0 0 1
32.005869 -1.453567 32.378689 45.550719 -0.045384 0.780123 0.024706 -0.022045 -456579.000000 0 0 1
32.921969 -1.832867 31.420919 45.546565 -0.055616 0.809496 0.030942 -0.016599 -160913.000000 0 0 1
34.220669 -1.867467 32.013529 46.897843 -0.054517 0.819451 0.033173 -0.015037 1613430.000000 0 0 1
35.457969 -2.362367 31.120969 47.237306 -0.066526 0.851545 0.024850 -0.007064 1046600.000000 0 0 1
35.674569 -1.478067 30.025969 46.652099 -0.041408 0.871585 0.023431 -0.001391 48427.200000 0 0 1
-34.960822 -1.941767 29.295459 45.653625 0.055484 0.874097 0.028639 -0.001955 -133931.000000 0 0 1
-34.778422 -1.223467 27.935889 44.625658 0.035164 0.894377 0.030684 0.000099 -285009.000000 0 0 1
-35.786422 -1.414667 26.994379 44.848253 0.039510 0.924912 0.044887 -0.007335 -486315.000000 0 0 1
-35.293322 -1.071367 25.749759 43.701447 0.030347 0.940703 0.038044 -0.008065 -158216.000000 0 0 1
-26.820061 15.358633 12.268750 33.252451 -0.520070 1.192909 0.055047 -0.007381 110384.000000 0 0 1
-28.061641 14.765933 12.592250 34.118224 -0.484384 1.192781 0.011568 0.009371 301859.000000 0 0 1
-28.723831 15.434133 13.639450 35.345516 -0.493063 1.174625 0.025173 -0.008402 823935.000000 0 0 1
-30.054111 14.703133 14.106050 36.309949 -0.454988 1.171804 0.033972 -0.004582 1050700.000000 0 0 1
-30.864971 15.478533 14.959050 37.629837 -0.464840 1.161971 0.035453 -0.014194 -291470.000000 0 0 1
-32.044611 14.796833 15.299050 38.469004 -0.432588 1.161790 0.033662 0.003907 -53882.000000 0 0 1
-32.902631 15.493533 16.388850 39.890188 -0.440090 1.147411 0.046842 -0.005804 -121782.000000 0 0 1
-32.227501 15.525233 17.610250 39.871865 -0.448932 1.113336 0.028962 -0.001106 -65219.400000 0 0 1
-32.878391 16.323633 18.592150 41.147511 -0.460832 1.101968 0.016570 -0.008160 -402841.000000 0 0 1
-32.034981 16.636633 19.784450 41.163601 -0.478989 1.069424 0.017558 -0.006487 -487948.000000 0 0 1
-31.561501 15.516533 20.523350 40.719762 -0.456928 1.042556 0.031466 -0.011415 -101363.000000 0 0 1
-30.502151 15.853533 21.390450 40.487863 -0.479324 1.014179 0.018395 -0.010452 16287.300000 0 0 1
-30.916361 16.557833 22.733750 41.794816 -0.491696 0.995674 0.026144 -0.026802 -300639.000000 0 0 1
-31.370841 17.954433 22.605250 42.632015 -0.519824 1.011911 0.020785 -0.024656 241791.000000 0 0 1
-31.566421 18.620633 23.849850 43.726219 -0.532951 0.993887 0.024442 -0.024595 -185171.000000 0 0 1
-32.526381 17.914633 24.912150 44.715934 -0.503436 0.979882 0.011933 -0.023187 48110.000000 0 0 1
-33.778361 17.537133 24.392950 45.205583 -0.478876 1.000834 0.050167 -0.029503 239005.000000 0 0 1
-34.792481 18.569133 24.333650 46.340651 -0.490251 1.017959 0.041561 -0.035408 255238.000000 0 0 1
35.640600 17.867033 23.906950 46.486831 0.464696 1.030636 0.027903 -0.044449 -59493.600000 0 0 1
35.162390 16.966733 24.869150 46.289721 0.449570 1.003623 0.036211 -0.032215 -452878.000000 0 0 1
33.916300 16.459533 24.446750 44.931895 0.451817 0.995499 0.052192 -0.028361 81061.300000 0 0 1
33.299330 15.484733 25.468750 44.690933 0.435271 0.964429 0.048246 -0.021171 -386103.000000 0 0 1
32.971020 16.216933 26.658950 45.395778 0.457110 0.943132 0.046869 -0.025351 100458.000000 0 0 1
32.799690 15.375633 27.813150 45.670571 0.438356 0.916003 0.045291 -0.021741 218003.000000 0 0 1
31.725100 14.209433 27.764750 44.489002 0.421100 0.896841 0.038457 -0.010607 144595.000000 0 0 1
32.091390 13.070833 27.074650 43.974318 0.386784 0.907532 0.039075 -0.009254 -148092.000000 0 0 1
31.105070 12.072733 27.195550 43.045025 0.370230 0.886932 0.030588 -0.002881 -162164.000000 0 0 1
31.682120 10.651833 26.961850 42.943679 0.324337 0.892019 0.033517 0.001281 -326106.000000 0 0 1
32.566430 10.280533 27.970250 44.142911 0.305778 0.884561 0.027502 0.008357 -457212.000000 0 0 1
33.170870 9.108233 27.447150 44.006960 0.267981 0.897329 0.026328 0.009839 -90362.800000 0 0 1
34.294340 8.470933 28.295450 45.260258 0.242160 0.895444 0.012691 0.016001 -317210.000000 0 0 1
35.479210 9.222133 28.272250 46.294083 0.254303 0.913840 0.019272 0.010766 -54442.400000 0 0 1
-35.294404 8.395233 28.916750 46.393462 -0.233523 0.897849 0.031267 0.005877 86420.700000 0 0 1
-33.869661 8.901733 29.174550 45.580140 -0.257011 0.876205 0.035616 0.004211 -202186.000000 0 0 1
-33.188201 9.184033 28.013150 44.390762 -0.269970 0.887880 0.038467 0.005296 -1358590.000000 0 0 1
-32.102991 9.967033 28.241950 43.903890 -0.301035 0.872038 0.041243 -0.000360 -1086630.000000 0 0 1
-31.595611 10.627133 26.870950 42.816662 -0.324462 0.892353 0.038371 0.000465 -64400.400000 0 0 1
-30.814121 9.774433 26.091250 41.542784 -0.307167 0.891742 0.040229 0.003389 -143885.000000 0 0 1
-30.066341 10.412433 25.105150 40.529892 -0.333388 0.902789 0.039635 0.003688 15025.900000 0 0 1
-29.169631 9.366033 24.353150 39.136503 -0.310690 0.899168 0.033284 -0.004118 397826.000000 0 0 1
-28.289031 9.892633 23.367050 38.002006 -0.336406 0.908550 0.032233 -0.010653 262499.000000 0 0 1
-27.681421 8.800333 22.668550 36.845218 -0.307810 0.908109 0.022030 0.005331 -307350.000000 0 0 1
-26.631301 9.261233 21.655850 35.552391 -0.334676 0.915840 0.019473 0.008168 -784461.000000 0 0 1
-25.597201 9.978133 22.376050 35.432576 -0.371694 0.887296 0.020552 0.005077 1869930.000000 0 0 1
-24.484031 10.530433 21.588050 34.298713 -0.406177 0.889999 0.003552 0.014047 1693250.000000 0 0 1
-23.818031 9.646433 20.480350 32.860265 -0.384814 0.897897 -0.007893 0.018151 -730070.000000 0 0 1
-24.629031 9.728433 19.290250 32.761949 -0.376187 0.941222 -0.009430 0.013802 733234.000000 0 0 1
-24.241031 8.787833 18.258950 31.594981 -0.347784 0.954635 -0.003478 0.015549 -86721.700000 0 0 1
-24.344831 7.277833 18.619250 31.501018 -0.290491 0.938414 -0.004826 0.021477 -422125.000000 0 0 1
-23.181231 6.819933 19.279050 30.912178 -0.286128 0.897365 0.008896 0.018693 532724.000000 0 0 1
-23.144131 5.433733 19.682150 30.863624 -0.230602 0.879270 0.030577 0.007835 -287490.000000 0 0 1
-23.166931 4.401633 18.556650 30.007171 -0.187758 0.904082 0.022387 0.004587 -1149600.000000 0 0 1
-24.447131 4.192633 18.076850 30.692229 -0.169846 0.941011 0.042033 0.005009 -330123.000000 0 0 1
-24.497131 3.140433 17.074550 30.025190 -0.127501 0.965903 0.053256 0.003765 -187280.000000 0 0 1
-24.241331 1.657533 17.460450 29.920843 -0.068270 0.947697 0.050693 0.007225 -459530.000000 0 0 1
-22.976231 1.270233 17.915250 29.162937 -0.055228 0.909278 0.032994 0.009316 86108.800000 0 0 1
-23.100131 -0.051267 18.466350 29.574056 0.002219 0.896420 0.054737 -0.000791 -480090.000000 0 0 1
-21.788731 -0.791867 18.704850 28.727117 0.036327 0.861735 0.047754 0.005079 -678661.000000 0 0 1
-20.971431 -0.446267 19.782450 28.833061 0.021277 0.814678 0.030245 0.008763 -148045.000000 0 0 1
-19.995231 -1.446067 19.948850 28.281743 0.072195 0.787863 0.024169 0.006909 116595.000000 0 0 1
-18.898831 -1.105367 21.008950 28.280092 0.058422 0.733422 0.019405 0.006246 254940.000000 0 0 1
-19.329231 -1.026067 22.318250 29.542787 0.053034 0.714448 0.022003 0.002824 -578733.000000 0 0 1
-18.279831 -0.721867 23.193750 29.540199 0.039469 0.667844 0.021314 -0.003629 -809625.000000 0 0 1
-18.573131 -0.984467 24.702550 30.921616 0.052955 0.645371 0.025353 -0.003065 -225880.000000 0 0 1
-19.299831 0.012133 25.282650 31.807169 -0.000629 0.651999 0.030371 -0.014460 46416.600000 0 0 1
-20.710631 -0.056467 25.053950 32.505905 0.002726 0.690778 0.058975 -0.017733 133642.000000 0 0 1
-21.448231 1.126433 25.776650 33.551917 -0.052470 0.694675 0.050189 -0.026063 -535062.000000 0 0 1
-21.239231 2.353133 25.144850 32.998570 -0.110342 0.704403 0.049815 -0.021876 -243699.000000 0 0 1
-22.428831 2.895133 24.660550 33.460080 -0.128371 0.742155 0.041841 -0.014187 -909792.000000 0 0 1
-22.254831 3.885733 23.478350 32.582347 -0.172859 0.766151 0.042383 -0.007707 375286.000000 0 0 1
-21.599231 3.345833 22.277550 31.209143 -0.153684 0.775866 0.043128 -0.001173 1331040.000000 0 0 1
-20.190431 3.130033 22.373050 30.298580 -0.153801 0.740073 0.033269 -0.002906 50951.400000 0 0 1
-19.554031 2.471733 21.148350 28.908862 -0.125738 0.750200 0.023038 -0.000607 -308475.000000 0 0 1
-19.314831 3.347333 20.058450 28.046546 -0.171599 0.773909 0.017967 0.007182 296418.000000 0 0 1
-18.950431 2.532733 18.904850 26.887300 -0.132863 0.791028 0.022209 0.001260 169826.000000 0 0 1
-18.444631 3.321133 17.644650 25.740397 -0.178151 0.815527 0.010270 0.009781 -1633820.000000 0 0 1
-17.225731 3.882433 17.743750 25.032774 -0.221682 0.782971 0.024735 -0.006402 -1632590.000000 0 0 1
-16.940731 4.608533 16.552550 24.129108 -0.265611 0.814820 0.029738 -0.011250 -974306.000000 0 1 0
-15.519631 5.098633 16.448750 23.182243 -0.317420 0.781950 0.037022 -0.013727 -884288.000000 0 1 0
-15.061031 6.073633 17.410750 23.808778 -0.383321 0.750608 0.029783 -0.016782 6498.570000 0 1 0
-15.559131 7.362833 17.244250 24.365181 -0.441992 0.784500 0.029326 -0.023574 -589028.000000 0 1 0
-15.187031 8.137133 15.874250 23.427562 -0.491872 0.826317 0.029033 -0.029929 -147600.000000 0 1 0
-15.771431 7.840233 14.644750 22.905807 -0.461338 0.877148 0.037736 -0.023053 171180.000000 0 1 0
-17.139631 8.217233 14.510850 23.913482 -0.447056 0.918760 0.024044 -0.016136 415044.000000 0 1 0
-17.763031 7.433733 13.309850 23.408071 -0.396348 0.965992 0.035957 -0.014409 -139217.000000 0 1 0
-17.542131 6.046733 13.339950 22.852650 -0.331943 0.947472 0.035222 -0.014642 180370.000000 0 1 0
-17.859031 5.461033 12.141250 22.275049 -0.296756 0.994335 0.028595 -0.022533 4032.010000 0 1 0
-17.445231 3.957033 12.185650 21.644497 -0.223052 0.972796 0.017203 -0.013006 585712.000000 0 1 0
-18.214531 3.215533 13.185550 22.714919 -0.174736 0.951479 0.024089 -0.013209 748080.000000 0 1 0
-17.645631 1.947233 13.374150 22.226738 -0.109907 0.925150 0.014531 -0.011480 -205604.000000 0 1 0
-18.386331 1.168733 14.490550 23.439265 -0.063480 0.904324 0.013592 -0.007118 130817.000000 0 1 0
-19.693131 0.808333 14.110950 24.240291 -0.041023 0.949453 0.028302 -0.003526 2401.350000 0 1 0
-20.509331 0.291833 15.118850 25.481316 -0.014228 0.935606 0.030113 -0.004520 189860.000000 0 0 1
-21.999631 0.100133 14.746450 26.484931 -0.004552 0.980284 0.038371 -0.005123 54820.800000 0 0 1
-22.052031 -0.987167 13.878150 26.074310 0.044735 1.009536 0.043923 -0.010923 1154870.000000 0 0 1
-23.381731 -1.251367 13.383150 26.969983 0.053468 1.051552 0.070164 -0.013857 799428.000000 0 0 1
-23.482731 -2.394667 12.340750 26.635825 0.101624 1.089065 0.078826 -0.028436 -128585.000000 0 0 1
-23.071631 -3.637167 12.917750 26.690774 0.156360 1.065601 0.061082 -0.024213 396080.000000 0 0 1
-23.131631 -4.641067 11.900050 26.423911 0.198008 1.103637 0.067021 -0.027135 -227378.000000 0 0 1
-22.975931 -6.066967 12.498750 26.849958 0.258165 1.086593 0.056519 -0.021026 602946.000000 0 0 1
-24.224631 -6.486867 13.066750 28.278121 0.261641 1.090457 0.067672 -0.025677 942632.000000 0 0 1
-24.296631 -7.846267 13.376150 28.823802 0.312364 1.088216 0.078606 -0.030145 -369393.000000 0 0 1
-25.334781 -8.175167 14.445450 30.287877 0.312137 1.073628 0.070753 -0.012063 -147159.000000 0 0 1
-26.684011 -7.974467 14.105050 31.218280 0.290400 1.101992 0.064592 -0.025886 -218090.000000 0 0 1
-27.530861 -8.350767 15.126350 32.503693 0.294503 1.086740 0.058264 -0.010814 -1297880.000000 0 0 1
-28.957331 -7.806367 15.123850 33.588647 0.263322 1.103732 0.054358 -0.025848 329545.000000 0 0 1
-29.950151 -8.277867 14.165750 34.149716 0.269656 1.143059 0.060250 -0.024064 1233590.000000 0 0 1
-30.147541 -9.724567 14.109450 34.677342 0.312029 1.151762 0.065188 -0.026384 -758540.000000 0 0 1
-30.496221 -10.555267 15.370450 35.744704 0.333212 1.126297 0.055943 -0.014417 -334492.000000 0 0 1
-29.374611 -10.780367 16.207750 35.238832 0.351735 1.092869 0.055983 -0.015641 205061.000000 0 0 1
-29.731371 -11.244467 17.497550 36.284387 0.361575 1.067594 0.053258 -0.000814 -503236.000000 0 0 1
-28.585441 -11.263867 18.508850 35.868923 0.375360 1.028606 0.053102 0.009229 -685294.000000 0 0 1
-27.561691 -12.103767 18.100450 35.125123 0.413796 1.029423 0.055276 0.005066 -1042710.000000 0 0 1
-26.487641 -11.926167 18.966350 34.692233 0.423065 0.992375 0.052762 0.003699 -526958.000000 0 0 1
-25.315141 -12.876467 18.672250 33.989891 0.470541 0.989214 0.052079 0.007438 -152114.000000 0 0 1
-24.773131 -12.707367 17.375650 32.819177 0.473954 1.012861 0.049084 0.003618 -161481.000000 0 0 1
-23.654531 -13.540167 17.221750 32.240683 0.519888 1.007280 0.042930 -0.002744 -309976.000000 0 0 1
-22.951231 -13.488267 15.842950 30.978887 0.531321 1.033970 0.057605 -0.008183 123307.000000 0 0 1
-22.378031 -12.154367 15.587250 29.857449 0.497560 1.021537 0.050759 -0.012926 133293.000000 0 0 1
-21.946331 -12.099367 14.255250 28.831377 0.503853 1.053611 0.050634 -0.008955 -56413.800000 0 0 1
-20.777031 -11.147367 14.016350 27.430036 0.492438 1.034465 0.029887 -0.013962 -265847.000000 0 0 1
-21.223131 -9.799367 14.044750 27.270935 0.432566 1.029779 0.030740 -0.016001 1116530.000000 0 0 1
-20.174631 -8.826767 13.733150 25.952398 0.412426 1.013178 0.029670 -0.017583 864334.000000 0 0 1
-19.554231 -8.706467 12.292150 24.683344 0.418894 1.049513 0.036880 -0.011054 77093.500000 0 1 0
-18.789531 -9.812867 11.780950 24.251384 0.481290 1.063536 0.024720 -0.019700 616487.000000 0 1 0
-18.709131 -10.077067 10.441850 23.677227 0.494062 1.114075 0.037867 -0.004342 -400068.000000 0 1 0
-17.924431 -11.405167 10.102250 23.524849 0.566678 1.126936 0.016766 0.004025 431121.000000 0 1 0
-16.517031 -11.446767 10.128050 22.503737 0.606032 1.103963 0.026396 -0.003866 171943.000000 0 1 0
-15.902931 -11.564267 11.367550 22.712478 0.628735 1.046622 0.023956 -0.002495 148196.000000 0 1 0
-14.440431 -12.082467 11.157450 21.886086 0.696728 1.035848 0.030537 -0.004098 474639.000000 0 1 0
-14.239031 -13.501967 11.037450 22.513961 0.758835 1.058421 0.028778 -0.003404 130741.000000 0 1 0
-12.859231 -13.772667 10.928850 21.782698 0.819683 1.045208 0.040608 -0.007657 -101313.000000 0 1 0
-12.568031 -15.271167 10.878650 22.572305 0.882193 1.067921 0.043061 -0.006950 -219810.000000 0 1 0
-12.877731 -15.885267 9.671950 22.621324 0.889582 1.129006 0.022681 -0.006774 153965.000000 0 1 0
-12.659331 -17.306067 9.703250 23.535328 0.939243 1.145836 0.014191 -0.001991 -2783.940000 0 1 0
-13.033131 -18.085567 8.485550 23.852773 0.946354 1.207083 0.004789 0.002847 -290275.000000 0 1 0
-12.255031 -17.848867 7.294650 22.846876 0.969120 1.245822 0.014579 -0.005462 -71248.800000 0 1 0
-12.611831 -18.591967 6.134050 23.288325 0.974750 1.304256 0.007354 -0.001859 -261202.000000 0 1 0
-11.657131 -18.232567 4.990650 22.208597 1.001939 1.344144 0.012826 -0.005483 -117156.000000 0 1 0
-12.043631 -18.745367 3.701350 22.586231 0.999722 1.406177 0.025907 -0.011985 222481.000000 0 1 0
-10.949631 -18.720267 2.808850 21.868527 1.041548 1.441998 0.033347 -0.022858 108209.000000 0 1 0
-11.100531 -19.697867 1.632750 22.669222 1.057617 1.498709 0.034960 -0.014457 -50221.000000 0 1 0
-11.204431 -21.060367 2.020150 23.940746 1.081866 1.486315 0.039181 -0.021720 -5125.750000 0 1 0
-11.761231 -21.985467 1.090750 24.957505 1.079577 1.527078 0.050775 -0.021732 -481177.000000 0 1 0
-10.919131 -22.251967 -0.128450 24.786971 1.114613 1.575979 0.065762 -0.020192 -385877.000000 0 1 0
-10.623531 -21.282267 -1.111150 23.812370 1.107811 1.617476 0.054997 -0.022244 -249122.000000 0 1 0
-11.539931 -21.210867 -2.182050 24.245252 1.072527 1.660917 0.064260 -0.019114 255227.000000 0 1 0
-12.734531 -20.232067 -2.017750 23.991168 1.009023 1.655000 0.065549 -0.018524 104952.000000 0 1 0
-13.572331 -20.609567 -0.968950 24.696180 0.988437 1.610041 0.059726 -0.009994 -1015370.000000 0 1 0
-14.616031 -19.720167 -0.820250 24.559849 0.932969 1.604201 0.055569 0.003967 -336577.000000 0 1 0
25.907569 -20.376467 -4.483050 33.264099 -0.666459 1.705979 0.053736 -0.004780 560887.000000 0 0 1
24.712469 -20.303967 -3.699150 32.196908 -0.687778 1.685942 0.046935 -0.007615 442842.000000 0 0 1
24.785869 -21.236867 -2.653050 32.747252 -0.708436 1.651901 0.036909 -0.009525 -756143.000000 0 0 1
23.481469 -21.562567 -1.963650 31.940250 -0.742823 1.632314 0.029267 -0.006626 -580650.000000 0 0 1
22.614469 -22.364967 -2.750150 31.924431 -0.779851 1.657049 0.042336 -0.015360 150194.000000 0 0 1
21.378169 -22.526267 -2.069650 31.124625 -0.811542 1.637341 0.027051 -0.010754 913295.000000 0 0 1
20.228069 -23.302667 -2.846750 30.988595 -0.855912 1.662790 0.023594 -0.016811 917400.000000 0 0 1
19.514969 -22.478667 -3.738250 30.001650 -0.855856 1.695723 0.024236 -0.021496 -856500.000000 0 0 1
18.569769 -23.162667 -4.507350 30.027682 -0.895013 1.721472 0.021334 -0.015825 -474189.000000 0 0 1
17.728169 -22.170267 -5.295350 28.876451 -0.896277 1.755220 0.006011 -0.005609 -917957.000000 0 0 1
16.784069 -21.459267 -4.565550 27.623348 -0.907043 1.736837 0.008497 -0.003395 -182195.000000 0 0 1
17.289869 -20.520167 -3.615850 27.075657 -0.870626 1.704743 0.009069 -0.010230 -551912.000000 0 0 1
16.274469 -20.077067 -2.532150 25.968418 -0.889625 1.668460 0.033463 -0.007533 101796.000000 0 0 1
15.860069 -21.095467 -1.630550 26.442753 -0.926129 1.632499 0.029550 -0.010487 154830.000000 0 0 1
15.058869 -20.491367 -0.637050 25.437600 -0.937037 1.595843 0.048158 -0.001972 -202084.000000 0 0 1
14.942569 -21.392167 0.584350 26.100702 -0.961073 1.548406 0.042018 -0.003864 -35900.700000 0 0 1
14.015169 -22.461767 0.519050 26.480660 -1.012948 1.551194 0.055179 -0.002759 -189487.000000 0 0 1
13.141869 -22.548467 1.595950 26.147450 -1.043099 1.509722 0.043365 0.003089 -62285.700000 0 0 1
12.013469 -23.578667 1.543350 26.507714 -1.099573 1.512541 0.044974 -0.004280 179285.000000 0 0 1
12.548269 -24.883267 1.754950 27.923393 -1.103726 1.507906 0.043539 0.001130 12271.900000 0 0 1
11.532669 -25.841717 1.686250 28.348549 -1.151039 1.511278 0.047539 0.005071 -271604.000000 0 0 1
11.919069 -27.235547 2.117350 29.804738 -1.158277 1.499696 0.053299 -0.002094 -121866.000000 0 0 1
11.891469 -27.370527 3.550850 30.052642 -1.160938 1.452365 0.064703 -0.007836 94513.900000 0 0 1
12.127769 -28.683607 3.988350 31.396481 -1.170781 1.443420 0.062193 -0.012235 -146050.000000 0 0 1
11.947769 -28.862807 5.533450 31.724279 -1.178322 1.395476 0.073942 -0.007888 -171074.000000 0 0 1
12.243669 -30.159377 6.065850 33.110270 -1.185158 1.386554 0.061654 -0.013364 -128650.000000 0 0 1
12.208469 -30.147007 7.454850 33.368601 -1.186018 1.345486 0.066330 -0.011699 103434.000000 0 0 1
11.712169 -31.428777 8.082550 34.500298 -1.214081 1.334324 0.048641 -0.011140 -64902.100000 0 0 1
11.614069 -31.398067 9.476350 34.792620 -1.216506 1.294944 0.041254 -0.003588 -128866.000000 0 0 1
10.925469 -32.566547 9.806850 35.722824 -1.247114 1.292699 0.041714 -0.000844 -97407.300000 0 0 1
10.945869 -32.884037 11.269150 36.444007 -1.249469 1.256426 0.043296 -0.001449 382333.000000 0 0 1
12.165469 -33.436907 11.793150 37.484714 -1.221851 1.250748 0.039030 -0.003661 445827.000000 0 0 1
12.236769 -33.857557 13.127750 38.319845 -1.223985 1.221131 0.042799 -0.000956 -7783.710000 0 0 1
11.236069 33.835931 13.681250 38.187643 1.250179 1.204389 0.043386 -0.004504 98661.000000 0 0 1
11.487669 32.533039 13.220050 36.947732 1.231356 1.204881 0.041808 -0.005551 434855.000000 0 0 1
10.404369 31.628569 13.515650 35.934525 1.252992 1.185192 0.046881 -0.000623 604808.000000 0 0 1
10.166369 30.534519 12.482450 34.518451 1.249394 1.200795 0.044518 0.000120 155668.000000 0 0 1
9.596869 30.821209 11.210850 34.172064 1.268939 1.236536 0.021194 0.003377 580292.000000 0 0 1
10.530069 31.590709 10.434650 34.896091 1.249051 1.267130 0.016244 -0.001852 589400.000000 0 0 1
10.060969 31.777599 8.986350 34.522361 1.264175 1.307458 0.024434 -0.002370 -266136.000000 0 0 1
8.987469 32.640299 8.768450 34.972124 1.302106 1.317365 0.024185 0.000460 -438905.000000 0 0 1
8.688469 32.867182 7.379650 34.787934 1.312357 1.357040 0.019188 -0.001422 -444592.000000 0 0 1
9.144469 34.170178 6.759450 36.012672 1.309308 1.381980 0.019317 0.003863 -68487.800000 0 0 1
8.411469 -33.449447 7.197750 35.233875 -1.324436 1.365063 0.029115 0.003438 35400.900000 0 0 1
8.631269 -32.333547 6.325350 34.058290 -1.309934 1.383990 0.039840 -0.006586 -177435.000000 0 0 1
7.838169 -31.087327 6.712950 32.755495 -1.323810 1.364393 0.030191 -0.006091 -338637.000000 0 0 1
8.251169 -30.636377 7.990950 32.718873 -1.307713 1.324070 0.042924 -0.008538 -23956.900000 0 0 1
7.762969 -29.386787 8.432650 31.542931 -1.312531 1.300166 0.047444 -0.001648 -132974.000000 0 0 1
8.730069 -28.213087 8.177350 30.644109 -1.270708 1.300674 0.047488 -0.007845 -289784.000000 0 0 1
8.764769 -27.283527 9.225550 30.105195 -1.259962 1.259342 0.048548 -0.006466 -269124.000000 0 0 1
9.625369 -26.193957 9.093750 29.350765 -1.218648 1.255782 0.076810 -0.008560 -266487.000000 0 0 1
9.283469 -25.128807 8.017950 27.962962 -1.216913 1.279980 0.049980 -0.009243 -74782.600000 0 0 1
9.306269 -25.593657 6.712350 28.048129 -1.222043 1.329136 0.048087 -0.000078 -278067.000000 0 0 1
8.637269 -24.798867 5.752550 26.882672 -1.235643 1.355141 0.049755 0.002677 177489.000000 0 0 1
8.605169 -25.430497 4.364050 27.199339 -1.244511 1.409653 0.048406 -0.001519 462424.000000 0 0 1
7.590169 -26.415237 4.143850 27.794728 -1.290994 1.421151 0.048895 -0.005160 110252.000000 0 0 1
7.947269 -27.745757 4.468850 29.205423 -1.291833 1.417178 0.043074 0.002138 -25461.900000 0 0 1
6.931169 -28.717797 3.854450 29.792780 -1.333971 1.441057 0.033981 -0.004745 94897.000000 0 0 1
5.682669 -28.825187 4.542250 29.729046 -1.376150 1.417407 0.028106 -0.006030 179584.000000 0 0 1
4.745669 -29.495447 3.734750 30.107327 -1.411269 1.446428 0.032180 0.001119 110514.000000 0 0 1
4.814769 -31.041777 3.991950 31.665590 -1.416916 1.444394 0.041108 -0.004175 -277070.000000 0 0 1
5.875269 -31.594717 3.240150 32.299280 -1.386939 1.470311 0.043416 -0.015630 -84737.000000 0 0 1
5.853969 -32.998217 3.504150 33.696147 -1.395220 1.466615 0.044107 -0.012455 -358157.000000 0 0 1
7.003169 -33.736467 2.837250 34.572295 -1.366119 1.488637 0.035794 -0.004348 -318552.000000 0 0 1
6.864669 -33.995297 1.438450 34.711281 -1.371546 1.529344 0.053611 -0.010932 -328533.000000 0 0 1
7.895869 33.875911 1.056150 34.799965 1.341803 1.540442 0.040390 -0.005568 -618634.000000 0 0 1
7.591469 33.042629 -0.182450 33.903968 1.344968 1.576178 0.053511 -0.008931 830006.000000 0 0 1
6.511169 32.097699 -0.028550 32.751464 1.370657 1.571668 0.052994 -0.010798 -77978.900000 0 0 1
5.252569 32.652129 -0.195250 33.072483 1.411298 1.576700 0.060976 -0.020148 -1165560.000000 0 0 1
3.997069 31.883799 0.204250 32.134015 1.446083 1.564440 0.064299 -0.018812 -164804.000000 0 0 1
3.709369 30.990369 -0.841050 31.222904 1.451669 1.597737 0.071504 -0.019581 -425822.000000 0 0 1
2.527769 30.307559 -0.542350 30.417625 1.487585 1.588627 0.054947 -0.023098 -186526.000000 0 0 1
2.209069 29.201079 -1.610050 29.328745 1.495290 1.625721 0.044807 -0.021374 100061.000000 0 0 1
1.704569 29.740119 -2.832550 29.923295 1.513543 1.665599 0.044324 -0.028741 18850.400000 0 0 1
1.683969 28.788169 -3.842750 29.092287 1.512368 1.703272 0.041189 -0.019340 -61076.100000 0 0 1
1.425869 29.348539 -5.274550 29.852818 1.522251 1.748414 0.037015 -0.023215 -296958.000000 0 0 1
0.099869 29.767939 -5.450550 30.262992 1.567441 1.751891 0.039090 -0.022482 -283723.000000 0 0 1
-0.004131 30.679709 -6.515050 31.363840 -1.570662 1.780045 0.023789 -0.014324 -150641.000000 0 0 1
0.006669 30.137469 -7.957750 31.170384 1.570575 1.828953 0.015712 -0.014275 215842.000000 0 0 1
-1.203031 29.451119 -8.344550 30.634086 -1.529971 1.846677 0.018932 -0.011415 671745.000000 0 0 1
-1.341731 28.972639 -9.664350 30.571453 -1.524519 1.892437 0.023355 -0.013144 -49175.000000 0 0 1
-1.433431 30.080379 -10.793850 31.990485 -1.523179 1.914959 0.007896 -0.018558 160161.000000 0 0 1
-0.174231 30.722479 -10.950150 32.616052 -1.565125 1.913175 0.007056 -0.017751 224620.000000 0 0 1
-0.355431 32.021529 -11.554950 34.044405 -1.559697 1.917084 -0.005037 -0.018363 81691.900000 0 0 1
-0.739031 33.173264 -10.571150 34.824716 -1.548522 1.879216 -0.005773 -0.012199 914679.000000 0 0 1
0.348469 33.528699 -9.665750 34.895871 1.560404 1.851455 -0.012652 -0.019312 789727.000000 0 0 1
-0.158031 -34.359852 -8.678550 35.439267 1.566197 1.818198 0.002107 -0.013289 88032.400000 0 0 1
0.802869 -34.106120 -7.468050 34.923399 -1.547260 1.786301 0.022799 -0.013147 3118.260000 0 0 1
2.003269 -33.479147 -7.831150 34.441157 -1.511031 1.800180 0.035583 -0.009187 -586926.000000 0 0 1
2.750669 -33.057377 -6.717650 33.844987 -1.487779 1.770606 0.040987 -0.019350 126938.000000 0 0 1
4.041769 -32.309597 -7.240950 33.356818 -1.446348 1.789614 0.030105 -0.011282 1119090.000000 0 0 1
5.038569 -33.107807 -7.883850 34.404493 -1.419768 1.802002 0.036007 -0.006453 541143.000000 0 0 1
5.818169 -33.935027 -6.995850 35.133731 -1.400997 1.771257 0.058042 -0.010911 -639893.000000 0 0 1
6.221769 33.566184 -7.785350 35.014437 1.387518 1.795017 0.059035 -0.006923 68723.200000 0 0 1
5.237069 32.580329 -8.097250 33.977495 1.411416 1.811424 0.046835 -0.006712 201165.000000 0 0 1
4.262369 32.946348 -9.086850 34.441261 1.442138 1.837793 0.043777 -0.010182 799230.000000 0 0 1
3.219169 31.825039 -9.382850 33.335177 1.469987 1.856122 0.024338 -0.018512 111761.000000 0 0 1
3.801969 30.815979 -10.168550 32.672296 1.448040 1.887282 0.035755 -0.011829 7253.960000 0 0 1
2.975369 29.694739 -10.430650 31.613744 1.470931 1.907037 0.021829 -0.015060 -43795.900000 0 0 1
3.722269 28.741199 -11.383350 31.136674 1.442003 1.945066 0.021625 -0.009593 133435.000000 0 0 1
3.850869 29.284889 -12.672850 32.140863 1.440050 1.976092 0.032990 -0.012389 -723420.000000 0 0 1
4.983669 28.764329 -13.265050 32.065326 1.399241 1.997298 0.037082 -0.013921 -588226.000000 0 0 1
5.166969 29.166829 -14.738550 33.085138 1.395463 2.032499 0.041736 -0.016297 -202693.000000 0 0 1
4.269869 28.554539 -15.662150 32.846559 1.422362 2.067839 0.049812 -0.019577 104431.000000 0 0 1
4.460969 28.878969 -16.986850 33.800121 1.417536 2.097363 0.068584 -0.020913 -364990.000000 0 0 1
3.288569 28.388499 -17.821550 33.679804 1.455469 2.128391 0.053745 -0.018403 -222986.000000 0 0 1
3.449669 27.010829 -18.147650 32.723421 1.443770 2.158651 0.075080 -0.011286 239895.000000 0 0 1
2.450069 26.548359 -19.041550 32.762766 1.478770 2.190993 0.069703 -0.022094 441466.000000 0 0 1
3.074969 25.354659 -19.827950 32.333601 1.450107 2.230940 0.080338 -0.012875 533540.000000 0 0 1
3.443569 24.298899 -18.910050 30.982005 1.430017 2.227306 0.085128 -0.018205 19495.600000 0 0 1
4.320669 23.351679 -19.471250 30.709912 1.387839 2.257560 0.073043 -0.017746 13761.100000 0 0 1
4.601169 22.158079 -18.515750 29.240113 1.366054 2.256517 0.074859 -0.012967 -500455.000000 0 0 1
3.761869 21.092679 -18.519050 28.319745 1.394303 2.283560 0.091345 -0.015404 -720697.000000 0 0 1
4.416369 20.032879 -17.827850 27.178168 1.353811 2.286253 0.076049 -0.016040 504247.000000 0 0 1
3.432869 18.867879 -17.495050 25.958779 1.390822 2.310346 0.059289 -0.021746 225444.000000 0 0 1
2.630869 19.071079 -16.350350 25.257899 1.433711 2.274881 0.064837 -0.024391 -315723.000000 0 0 1
1.731969 18.011579 -16.124450 24.236637 1.474932 2.298682 0.032529 -0.009434 338863.000000 0 1 0
2.374569 16.715479 -15.434650 22.875188 1.429682 2.311400 0.023512 -0.013220 1301560.000000 0 1 0
3.423769 15.954379 -16.155350 22.962137 1.359405 2.351198 0.039420 -0.014641 680042.000000 0 1 0
3.055169 15.013679 -17.109650 22.967036 1.370045 2.411279 0.040733 -0.016692 -323697.000000 0 1 0
2.807369 15.599979 -18.491650 24.355324 1.392742 2.432948 0.024029 -0.014855 -1332540.000000 0 1 0
3.917669 16.168679 -19.053650 25.294582 1.333078 2.423816 0.045477 -0.014722 -1308700.000000 0 0 1
3.785769 16.607479 -20.402750 26.578424 1.346670 2.445952 0.019984 -0.020025 -388927.000000 0 0 1
4.219169 15.646979 -21.526650 26.944870 1.307413 2.496285 0.035131 -0.025232 146148.000000 0 0 1
3.502769 14.424379 -21.737450 26.322022 1.332571 2.542464 0.026258 -0.019786 663018.000000 0 0 1
2.232069 14.620379 -22.403650 26.845133 1.419298 2.558115 0.030989 -0.022314 1094330.000000 0 0 1
1.555269 13.263779 -22.852350 26.468408 1.454072 2.612731 0.040163 -0.020145 267206.000000 0 0 1
0.954069 12.583379 -21.772250 25.165106 1.495121 2.616298 0.038600 -0.016685 -40217.200000 0 0 1
-0.036331 11.683279 -22.187150 25.075286 -1.567687 2.656907 0.032685 -0.012433 -122202.000000 0 0 1
-0.643331 10.792479 -21.084750 23.695108 -1.511258 2.667781 0.026302 -0.016973 -253588.000000 0 1 0
-1.772131 11.308479 -20.400350 23.392230 -1.415352 2.630273 0.029511 -0.012315 97326.100000 0 1 0
-2.319731 10.525879 -19.366650 22.163989 -1.353880 2.633736 0.032020 -0.012673 576021.000000 0 1 0
-3.331831 9.396679 -19.825250 22.190971 -1.230051 2.675637 0.041128 -0.013096 -60424.000000 0 1 0
-2.685231 8.421279 -20.520250 22.342987 -1.262125 2.734865 0.032236 -0.012221 -846464.000000 0 1 0
-3.586731 7.695579 -21.270750 22.902650 -1.134654 2.761813 0.028408 0.002641 -721160.000000 0 1 0
-2.939431 6.526579 -21.971650 23.108221 -1.147628 2.826654 0.022438 -0.000135 -54926.600000 0 1 0
-2.491331 5.492979 -21.154650 21.997699 -1.144996 2.863845 0.026472 -0.002839 -65299.300000 0 1 0
-1.795031 4.512179 -21.913950 22.445559 -1.192171 2.923517 0.028179 -0.000549 163069.000000 0 1 0
-1.163431 3.384679 -21.016650 21.319221 -1.239714 2.972915 0.025317 -0.006689 -281379.000000 0 1 0
0.159169 3.467879 -20.572850 20.863693 1.524930 2.974424 0.022358 -0.015165 -543405.000000 0 1 0
0.614769 2.272779 -19.980950 20.119191 1.306626 3.024298 0.025182 -0.007679 -894397.000000 0 1 0
2.088069 2.091179 -19.740150 19.960125 0.786142 2.992992 0.028335 -0.019141 -773373.000000 0 1 0
2.830169 1.784279 -20.892850 21.159033 0.562509 2.982806 0.038365 -0.024999 460834.000000 0 1 0
4.248869 1.717479 -20.696850 21.198166 0.384139 2.923681 0.045819 -0.027695 735303.000000 0 1 0
4.951069 1.270379 -21.972550 22.559253 0.251168 2.913029 0.047450 -0.014756 -815643.000000 0 1 0
6.298469 0.973779 -21.826550 22.738013 0.153391 2.857494 0.043771 -0.017242 -748919.000000 0 1 0
6.857469 0.553179 -23.049050 24.053889 0.080494 2.851528 0.045005 -0.011828 387445.000000 0 1 0
8.403069 0.393679 -23.045350 24.532727 0.046815 2.791590 0.042813 -0.016359 142988.000000 0 1 0
9.063469 1.574279 -23.293850 25.044526 0.171979 2.765474 0.037187 -0.019285 -550664.000000 0 0 1
10.420669 1.343279 -23.550150 25.787677 0.128198 2.721945 0.030900 -0.005340 -666427.000000 0 0 1
13.739369 -21.242967 22.396749 33.788286 -0.996693 0.846170 0.019497 0.014709 -280150.000000 0 0 1
12.690369 -22.204567 22.621449 34.144080 -1.051581 0.846606 0.008835 0.021238 895364.000000 0 0 1
11.400269 -21.667367 22.288349 33.109084 -1.086449 0.832297 0.008685 0.019109 472340.000000 0 0 1
11.036469 -21.425967 20.830749 31.855860 -1.095144 0.858060 0.017156 0.003783 -982388.000000 0 0 1
11.555769 -20.161167 20.491649 30.982513 -1.050339 0.848120 0.011234 -0.000960 -34515.400000 0 0 1
11.262269 -19.847367 19.184249 29.812616 -1.054659 0.871742 0.033582 -0.001424 75346.500000 0 0 1
11.455569 -18.358867 18.797749 28.664149 -1.012931 0.855564 0.051406 -0.012377 -467508.000000 0 0 1
10.351769 -17.614167 19.142049 27.997072 -1.039473 0.817953 0.068671 -0.015259 -728609.000000 0 0 1
10.557169 -16.295367 18.627449 26.906777 -0.995925 0.806131 0.069914 -0.013695 -148686.000000 0 0 1
9.568669 -15.218967 19.110249 26.236959 -1.009517 0.754854 0.069611 -0.010914 -249645.000000 0 0 1
8.310569 -15.476267 18.549649 25.547405 -1.077998 0.758182 0.059955 -0.010506 -618420.000000 0 0 1
7.330669 -14.633867 19.133549 25.178989 -1.106398 0.707635 0.037237 -0.003880 1227870.000000 0 0 1
5.847469 -14.844667 18.633949 24.531227 -1.195551 0.708097 0.003416 -0.000519 761135.000000 0 1 0
5.600169 -14.603767 17.242449 23.279475 -1.204617 0.736727 -0.009442 -0.002836 717143.000000 0 1 0
4.206669 -14.732767 16.892049 22.805522 -1.292666 0.736685 -0.015703 -0.001460 701386.000000 0 1 0
3.672269 -16.191367 16.762349 23.592844 -1.347765 0.780610 -0.004859 -0.002512 -802100.000000 0 1 0
2.383769 -16.181267 16.222549 23.036642 -1.424532 0.789492 0.008475 -0.005555 -566112.000000 0 1 0
1.842769 -17.503067 16.368549 24.035028 -1.465900 0.821629 0.021240 -0.006462 -28809.000000 0 1 0
0.335769 -17.591367 16.130449 23.869653 -1.551712 0.828784 0.032001 -0.000626 -296212.000000 0 1 0
-0.051131 -17.663667 14.786749 23.035965 1.567902 0.873825 0.031001 0.001154 282400.000000 0 1 0
-1.459431 -17.718767 14.573449 22.988477 1.488615 0.884152 0.032516 0.002583 423253.000000 0 1 0
-1.938931 -18.425267 13.261049 22.783883 1.465950 0.949566 0.030959 -0.005065 -430898.000000 0 1 0
-3.333731 -18.485167 13.177049 22.944494 1.392368 0.959046 0.020512 -0.011744 -708151.000000 0 1 0
-3.733531 -19.523067 12.293949 23.371576 1.381841 1.016881 0.045258 -0.020207 424355.000000 0 1 0
-5.294131 -19.501667 12.328049 23.671156 1.305714 1.023003 0.037863 -0.026033 480636.000000 0 1 0
-6.002931 -20.027467 13.425449 24.847078 1.279583 0.999975 0.025131 -0.015969 -139889.000000 0 1 0
-6.055831 -21.447967 13.430249 26.020376 1.295610 1.028454 -0.012368 0.001745 -204996.000000 0 0 1
-6.843931 -21.988467 14.649149 27.293399 1.269050 1.004241 -0.007436 0.005120 839598.000000 0 0 1
-8.243531 -21.695367 14.669049 27.455887 1.207678 1.007144 0.001400 0.011749 453627.000000 0 0 1
-8.930531 -22.566667 15.554249 28.826091 1.193968 1.000847 0.009502 0.011233 1033110.000000 0 0 1
-10.446231 -22.159267 15.686549 29.089941 1.130276 1.001258 0.031538 0.006634 962478.000000 0 0 1
-10.530631 -20.989767 16.463149 28.679257 1.105787 0.959360 0.026221 -0.000425 -551541.000000 0 0 1
-11.781331 -20.396967 16.237749 28.609448 1.047009 0.967250 0.045243 -0.007531 -197376.000000 0 0 1
-12.047531 -19.233267 17.176449 28.462115 1.011198 0.922932 0.046899 -0.007298 -283571.000000 0 0 1
-12.247231 -19.732867 18.483849 29.682207 1.015330 0.898576 0.052540 -0.012322 -140211.000000 0 0 1
-12.552531 -18.702967 19.418949 29.739916 0.979695 0.859311 0.049509 -0.014323 -501475.000000 0 0 1
-13.198131 -19.261167 20.683049 31.192495 0.970059 0.845873 0.057180 -0.021744 -180379.000000 0 0 1
-14.457731 -19.854967 20.436549 31.951498 0.941415 0.876803 0.049319 -0.018697 -86861.600000 0 0 1
-14.837931 -20.570967 21.555949 33.286451 0.945915 0.866380 0.043675 -0.006966 -28005.900000 0 0 1
-16.273031 -21.131967 21.400149 34.195584 0.914576 0.894619 0.051194 -0.010526 -444834.000000 0 0 1
-16.462031 -22.190167 20.414949 34.353633 0.932524 0.934453 0.061195 -0.011508 107102.000000 0 0 1
-17.777331 -22.487267 19.999649 34.952777 0.901844 0.961622 0.047153 -0.007762 -352089.000000 0 0 1
-18.595631 -23.280167 20.986949 36.444694 0.896802 0.957144 0.047301 -0.008834 -862551.000000 0 0 1
-19.075731 -22.445467 22.034549 36.785919 0.866378 0.928552 0.059686 -0.007384 -515101.000000 0 0 1
-20.018631 -23.076867 22.813649 38.128073 0.856244 0.929365 0.043350 0.000820 -658709.000000 0 0 1
-20.609831 -22.125467 23.820629 38.493166 0.820849 0.903547 0.037078 0.011735 228049.000000 0 0 1
-21.586731 -21.202667 23.300149 38.189488 0.776423 0.914585 0.029185 0.015808 632232.000000 0 0 1
-21.530731 -20.044667 24.084609 38.018804 0.749670 0.884738 0.035444 0.010685 77540.200000 0 0 1
-22.604131 -18.997867 23.759789 37.899779 0.698929 0.893214 0.028816 0.008240 -144794.000000 0 0 1
-22.193831 -18.232167 22.620749 36.560585 0.687712 0.903685 0.035778 0.010013 636041.000000 0 0 1
-23.213731 -17.295767 22.211849 36.488178 0.640336 0.916324 0.024820 0.009731 207572.000000 0 0 1
-22.954631 -16.750167 20.775349 35.200828 0.630387 0.939496 0.027504 0.011132 179442.000000 0 0 1
-21.844031 -15.849267 20.734249 34.033367 0.627679 0.915703 0.025380 0.012074 132610.000000 0 0 1
-21.378131 -15.589667 19.437349 32.830972 0.630078 0.937205 0.020141 0.008842 -38286.800000 0 0 1
-20.297731 -14.516367 19.256549 31.520430 0.620836 0.913571 0.022973 -0.007081 -12250.200000 0 0 1
-19.896231 -14.410567 17.899449 30.395966 0.626840 0.941129 0.025838 -0.007232 -182496.000000 0 0 1
-19.199431 -13.245267 17.593249 29.216052 0.603900 0.924571 0.031716 -0.016812 -315698.000000 0 0 1
-18.498931 -13.324867 16.199849 27.967797 0.624224 0.953010 0.018266 -0.018985 285372.000000 0 0 1
-17.995131 -12.084767 15.633249 26.725733 0.591381 0.945976 0.018691 -0.016089 497429.000000 0 0 1
-16.702331 -11.671067 16.045149 25.935082 0.609899 0.903753 0.015274 -0.022373 43204.200000 0 0 1
-16.159031 -10.405367 15.352049 24.598198 0.572100 0.896801 0.020297 -0.017406 184646.000000 0 1 0
-16.941231 -9.261167 15.686649 24.876605 0.500279 0.888498 0.020349 -0.008770 259927.000000 0 1 0
-16.582131 -8.091367 14.922749 23.730270 0.453967 0.890725 0.012072 -0.003392 -421260.000000 0 1 0
-16.806731 -6.696867 15.606549 23.893066 0.379181 0.859016 0.019653 0.000632 107228.000000 0 1 0
-15.975331 -6.469767 16.702949 24.001200 0.384796 0.801094 0.009586 0.007507 572852.000000 0 1 0
-14.631531 -6.042067 16.422349 22.809687 0.391619 0.767034 0.016060 -0.003970 583429.000000 0 1 0
-13.786431 -6.103867 17.734149 23.277090 0.416804 0.704599 0.010155 0.002957 -127349.000000 0 1 0
-13.829831 -7.310067 18.562449 24.274798 0.486243 0.700252 0.008315 -0.005878 19613.100000 0 1 0
-13.270331 -8.468367 17.950549 23.875451 0.567995 0.719946 0.010082 -0.003758 -405190.000000 0 1 0
-13.282231 -9.705167 18.839849 25.010955 0.631026 0.717786 0.020769 -0.008631 1199300.000000 0 0 1
-14.617631 -10.232567 19.040149 26.094211 0.610736 0.752958 0.019788 -0.008012 993354.000000 0 0 1
-15.365631 -9.575467 20.039949 27.007254 0.557285 0.734716 0.009111 -0.007307 -1146060.000000 0 0 1
-16.711431 -10.241267 20.358649 28.260044 0.549800 0.766412 0.000317 -0.001438 1066990.000000 0 0 1
-17.864631 -10.209667 19.478149 28.333384 0.519201 0.812807 0.012149 -0.002970 1237750.000000 0 0 1
-18.205831 -8.970167 18.942749 27.762275 0.457797 0.819865 0.011554 -0.004645 -1473540.000000 0 0 1
-19.212031 -9.010367 17.827649 27.714868 0.438538 0.872058 0.043502 -0.004127 -417508.000000 0 0 1
-20.471531 -9.386867 18.352549 29.051900 0.429927 0.887032 0.042263 -0.002157 -370321.000000 0 0 1
-21.458931 -9.427567 17.363149 29.169225 0.413946 0.933212 0.059435 -0.004072 596405.000000 0 0 1
-22.931131 -9.623867 17.875549 30.626636 0.397361 0.947567 0.059275 0.002242 611027.000000 0 0 1
-23.510231 -8.472967 18.378849 31.021029 0.345905 0.936682 0.058854 0.007276 93816.200000 0 0 1
-24.913931 -8.592267 18.478349 32.186649 0.332105 0.959292 0.050558 0.013155 442829.000000 0 0 1
-25.691091 -7.425867 19.225549 32.936263 0.281376 0.947494 0.061679 0.013972 317631.000000 0 0 1
-25.487191 -7.540267 20.591849 33.622564 0.287641 0.911651 0.061055 0.010194 517684.000000 0 0 1
-26.223071 -6.513767 21.262249 34.382581 0.243471 0.904089 0.054571 0.009074 -428092.000000 0 0 1
-26.068561 -6.666767 22.799749 35.268176 0.250373 0.867850 0.057390 0.002892 562519.000000 0 0 1
-24.885731 -6.277767 23.504749 34.802058 0.247108 0.829311 0.042399 -0.004000 85180.400000 0 0 1
-23.720031 -6.994567 23.274249 33.959601 0.286753 0.815711 0.039948 0.002521 -360719.000000 0 0 1
-22.658531 -6.798267 24.405229 33.988832 0.291485 0.769819 0.032675 -0.002583 113007.000000 0 0 1
-22.103531 -5.528967 24.573629 33.511175 0.245110 0.747638 0.023235 -0.001172 330003.000000 0 0 1
-21.235731 -5.365167 25.677649 33.750303 0.247469 0.706232 0.024331 -0.005391 39490.600000 0 0 1
-20.698031 -3.946567 25.830369 33.334545 0.188412 0.684266 0.026724 -0.008054 -144164.000000 0 0 1
-19.761031 -3.649267 26.847279 33.534936 0.182613 0.642540 0.015827 -0.008710 -45829.000000 0 0 1
-20.224431 -3.600667 28.203769 34.891905 0.176189 0.629506 0.025597 -0.011907 36271.600000 0 0 1
-20.975331 -2.308767 28.689489 35.614347 0.109629 0.634177 0.035301 -0.017380 -33643.400000 0 0 1
-22.169531 -2.186667 27.990449 35.773382 0.098316 0.672225 0.039781 -0.019435 -1016850.000000 0 0 1
-23.054631 -1.266267 28.536509 36.707653 0.054869 0.680276 0.040242 -0.015853 -162682.000000 0 0 1
-24.341931 -1.036467 27.744109 36.923427 0.042554 0.720621 0.040065 -0.018306 -700169.000000 0 0 1
-24.068131 -0.305967 26.521649 35.815729 0.012712 0.736978 0.030568 -0.019972 -47616.700000 0 0 1
-25.223551 -0.101867 25.746379 36.043223 0.004039 0.775145 0.043778 -0.012678 -84343.900000 0 0 1
-26.045301 -1.312667 25.225619 36.282402 0.050357 0.802018 0.036392 -0.009180 -6340.790000 0 0 1
-26.950671 -1.838467 26.206929 37.636708 0.068110 0.800549 0.028063 -0.010164 254350.000000 0 0 1
-27.418031 -3.177067 26.079069 37.973149 0.115361 0.813751 0.018306 -0.006770 -104364.000000 0 0 1
-26.388801 -4.316667 26.108169 37.371633 0.162143 0.797344 0.033246 -0.014057 -214066.000000 0 0 1
-25.853751 -4.747167 27.361389 37.942030 0.181593 0.765355 0.035876 -0.007947 -215630.000000 0 0 1
-24.884631 -5.743467 27.232059 37.333863 0.226832 0.753323 0.044624 -0.016134 -389298.000000 0 0 1
-24.438931 -6.080467 28.669169 38.159595 0.243851 0.720772 0.030176 -0.012374 -770429.000000 0 0 1
-25.499821 -6.362367 29.502739 39.511166 0.244514 0.727719 0.037302 -0.009775 -272556.000000 0 0 1
-25.127871 -7.069067 30.681189 40.282961 0.274236 0.704953 0.033775 -0.002822 680585.000000 0 0 1
-26.475331 -7.361267 31.445999 41.761014 0.271193 0.718189 0.022457 -0.000112 659741.000000 0 0 1
-27.335541 -8.156767 30.688759 41.899458 0.289983 0.748900 0.014770 -0.002171 341794.000000 0 0 1
-28.527311 -8.576167 31.369499 43.259723 0.292035 0.759554 0.023128 -0.002482 984136.000000 0 0 1
-29.537371 -9.334867 30.433499 43.425729 0.306103 0.794254 0.018404 -0.009150 206620.000000 0 0 1
-29.161381 -10.700567 30.216629 43.335124 0.351688 0.799203 0.032227 -0.010456 734106.000000 0 0 1
-30.145361 -11.343767 29.388099 43.601425 0.359912 0.831163 0.022598 -0.009220 327610.000000 0 0 1
-29.641611 -12.745467 28.975519 43.366493 0.406086 0.839071 0.031429 -0.011232 348974.000000 0 0 1
-28.618751 -12.535267 27.996419 41.951941 0.412837 0.840158 0.039025 -0.011210 -384270.000000 0 0 1
-27.918781 -13.701467 27.686779 41.638279 0.456230 0.843389 0.047432 -0.018132 -31715.300000 0 0 1
-26.579771 -13.266067 27.000649 40.143590 0.462930 0.833077 0.050018 -0.015609 972194.000000 0 0 1
-25.565031 -12.608867 27.824849 39.834364 0.458199 0.797478 0.041964 -0.022625 650717.000000 0 0 1
-25.902231 -11.363967 28.419739 40.096719 0.413439 0.783030 0.045681 -0.026974 -1016530.000000 0 0 1
-25.808251 -10.217367 27.453559 39.040470 0.376963 0.790897 0.046016 -0.024695 229707.000000 0 0 1
-24.506531 -9.800067 27.064399 37.803348 0.380417 0.772847 0.031152 -0.010841 209704.000000 0 0 1
-23.886931 -10.404967 25.932419 36.760566 0.410808 0.787751 0.030636 -0.008643 -172258.000000 0 0 1
-24.548831 -10.277767 24.541339 36.201587 0.396494 0.825883 0.039183 0.000382 -363754.000000 0 0 1
-25.788201 -10.960067 24.510099 37.227669 0.401873 0.852127 0.047963 -0.007811 -68.178400 0 0 1
-26.402131 -10.750967 23.240749 36.780270 0.386698 0.886819 0.047512 0.000330 130409.000000 0 0 1
-27.744911 -11.538067 23.080649 37.889622 0.394106 0.915802 0.059657 -0.002958 1345010.000000 0 0 1
-29.009691 -11.093767 23.587749 39.000202 0.365256 0.921268 0.061453 -0.007178 689862.000000 0 0 1
-29.064331 -10.916467 24.965989 39.839744 0.359294 0.893536 0.063968 -0.010984 -869288.000000 0 0 1
-30.472691 -10.664167 25.514709 41.149845 0.336638 0.901998 0.029595 -0.004414 -687531.000000 0 0 1
-31.003691 -9.446967 25.027659 40.949454 0.295767 0.913240 0.038731 -0.010682 2252260.000000 0 0 1
-32.397601 -9.156667 25.481979 42.222984 0.275450 0.922901 0.031415 -0.006754 2442660.000000 0 0 1
-32.804671 -9.147367 26.973919 43.444368 0.271936 0.900926 0.016442 -0.003283 -575847.000000 0 0 1
-33.062261 -10.427167 27.532699 44.270627 0.305506 0.899607 0.009010 -0.011411 450835.000000 0 0 1
-33.836061 -10.236267 28.732969 45.554843 0.293772 0.888298 0.013781 -0.011396 -184063.000000 0 0 1
-34.315542 -11.499067 29.499059 46.690250 0.323338 0.886919 0.016862 -0.003978 842515.000000 0 0 1
-35.494398 -12.179567 28.990529 47.419879 0.330551 0.913021 0.008536 -0.001405 1043530.000000 0 0 1
35.072460 -11.705367 29.636009 47.385505 -0.322124 0.895122 0.019724 0.001335 -413533.000000 0 0 1
33.871910 -12.289067 28.900679 46.190656 -0.348041 0.894790 0.017725 -0.003005 -599065.000000 0 0 1
33.749790 -11.769867 27.586389 45.150714 -0.335551 0.913493 0.014144 0.002948 -402293.000000 0 0 1
32.784690 -12.453867 26.850269 44.168672 -0.363032 0.917379 0.016752 0.010029 -511920.000000 0 0 1
32.746480 -12.052167 25.322619 43.114055 -0.352659 0.943028 0.008300 0.006566 164917.000000 0 0 1
32.040260 -10.835367 25.067499 42.099441 -0.326106 0.932989 0.018771 -0.002338 299442.000000 0 0 1
32.370860 -10.337967 23.776049 41.473445 -0.309123 0.960288 0.011777 0.001198 -447640.000000 0 0 1
31.939200 -8.847467 23.617779 40.696310 -0.270234 0.951648 0.028418 0.017235 87114.500000 0 0 1
30.528110 -8.793467 23.461149 39.493241 -0.280453 0.934706 0.040194 0.006415 -26640.200000 0 0 1
30.268210 -7.430967 23.145549 38.821389 -0.240743 0.932029 0.051470 0.011355 -147500.000000 0 0 1
28.768370 -7.238367 22.895749 37.473035 -0.246492 0.913482 0.055084 0.013727 -159490.000000 0 0 1
28.303160 -7.757767 21.664249 36.477274 -0.267525 0.934885 0.047952 0.009539 877099.000000 0 0 1
26.909000 -7.461567 21.443849 35.208066 -0.270493 0.915921 0.061525 -0.014240 702247.000000 0 0 1
15.043069 -17.361367 26.428209 35.016585 -0.856819 0.715548 0.017954 0.013684 131864.000000 0 0 1
14.137169 -18.401167 26.106869 34.928944 -0.915701 0.726614 0.016089 0.009720 -55101.900000 0 0 1
14.819569 -19.584567 26.020769 35.780656 -0.923023 0.756519 0.004302 0.014841 25577.500000 0 0 1
13.888769 -20.934967 25.923249 36.099662 -0.985042 0.769725 -0.013070 0.003879 874634.000000 0 0 1
13.260069 -21.264767 27.120069 36.925843 -1.013226 0.745945 -0.007170 0.001181 50241.900000 0 0 1
12.113469 -20.497567 27.441659 36.330855 -1.037042 0.714644 0.004931 -0.003892 -547793.000000 0 0 1
11.425669 -20.800167 28.763319 37.289695 -1.068486 0.689840 0.009310 -0.008581 8381.370000 0 0 1
12.151269 -20.517667 29.941559 38.276951 -1.036106 0.672551 0.013949 -0.011665 34526.300000 0 0 1
11.358669 -19.734867 30.819249 38.318539 -1.048539 0.636315 0.025590 -0.014050 254359.000000 0 0 1
11.201769 -18.262367 30.474399 37.251613 -1.020597 0.612750 0.030746 -0.009620 1169750.000000 0 0 1
12.441169 -17.515767 30.535949 37.336697 -0.953202 0.613126 0.020882 0.003706 687225.000000 0 0 1
12.176069 -16.242967 30.038859 36.254982 -0.927538 0.594293 0.018106 0.009267 632162.000000 0 0 1
13.217969 -15.127667 30.422449 36.456638 -0.852668 0.583602 0.017673 0.003177 705486.000000 0 0 1
12.705469 -13.840267 29.981659 35.381942 -0.828121 0.559780 0.034587 0.000767 198503.000000 0 0 1
13.422469 -12.756367 30.548359 35.722399 -0.759959 0.544937 0.031554 0.006156 110678.000000 0 0 1
12.846769 -11.330667 30.224889 34.741437 -0.722773 0.515603 0.028967 0.002480 -158475.000000 0 0 1
12.973569 -10.866167 28.885729 33.477939 -0.697229 0.529957 0.037413 0.000862 -67725.600000 0 0 1
14.240669 -10.615367 28.296919 33.409554 -0.640567 0.560535 0.041334 0.001544 -442171.000000 0 0 1
14.422769 -9.755467 27.027139 32.150453 -0.594706 0.572322 0.035514 0.004428 -89181.400000 0 0 1
14.626869 -8.401567 27.354409 32.137133 -0.521378 0.552571 0.023903 0.003787 937502.000000 0 0 1
16.014069 -8.139167 27.644499 32.968391 -0.470227 0.576244 0.043384 -0.004273 199338.000000 0 0 1
16.458469 -6.696967 27.551009 32.783970 -0.386441 0.572811 0.034937 -0.003669 -317172.000000 0 0 1
17.828569 -6.447467 27.748059 33.606286 -0.347004 0.599389 0.041851 -0.009217 -157658.000000 0 0 1
18.229169 -5.159467 27.269029 33.204257 -0.275820 0.607196 0.042346 -0.007285 1062930.000000 0 0 1
19.798069 -5.018667 27.147819 33.972852 -0.248263 0.644994 0.050510 -0.006270 299422.000000 0 0 1
20.227069 -5.724867 26.026999 33.456137 -0.275816 0.679409 0.061066 -0.008702 555882.000000 0 0 1
21.606469 -5.586667 25.689219 34.029198 -0.253023 0.715269 0.076648 -0.010331 898402.000000 0 0 1
22.707169 -6.148267 26.653889 35.550619 -0.264423 0.723120 0.070402 -0.020070 -524732.000000 0 0 1
23.083969 -5.158267 27.603959 36.351835 -0.219845 0.708475 0.080445 -0.017192 352170.000000 0 0 1
24.109669 -5.631367 28.493289 37.747264 -0.229459 0.715380 0.080637 -0.029336 414182.000000 0 0 1
24.698869 -4.350667 29.244019 38.524993 -0.174360 0.708879 0.091109 -0.026745 -53108.700000 0 0 1
25.315469 -3.412167 28.379939 38.182939 -0.133978 0.732863 0.075542 -0.014841 123859.000000 0 0 1
25.492769 -2.181967 28.972109 38.652624 -0.085384 0.723413 0.068223 -0.019419 -25672.200000 0 0 1
26.341069 -1.229767 28.011349 38.470767 -0.046652 0.755221 0.064601 -0.014437 106162.000000 0 0 1
27.709169 -1.466167 28.147069 39.524742 -0.052863 0.778257 0.063428 -0.012531 -837459.000000 0 0 1
28.532169 -0.822667 27.231619 39.450254 -0.028825 0.808924 0.050134 0.000399 1291420.000000 0 0 1
30.081469 -0.915167 27.553479 40.803511 -0.030414 0.829463 0.026450 0.000490 1252040.000000 0 0 1
30.461369 0.040333 28.528989 41.734876 0.001324 0.818144 0.012679 0.009537 87942.200000 0 0 1
31.823769 0.008533 28.917419 42.999645 0.000268 0.833210 0.022071 -0.003264 297168.000000 0 0 1
32.078269 1.293433 29.827919 43.822290 0.040299 0.822138 0.017104 -0.002026 -145679.000000 0 0 1
32.246769 2.540433 29.158349 43.549021 0.078619 0.837190 0.014703 0.009151 190316.000000 0 0 1
32.376069 3.609033 30.055799 44.323651 0.111014 0.825624 0.007983 0.008605 -105659.000000 0 0 1
32.442769 5.048333 29.442869 44.101037 0.154369 0.839785 0.012434 0.013389 19178.500000 0 0 1
32.680669 6.068633 30.432069 45.066232 0.183604 0.829460 0.000438 0.021453 620926.000000 0 0 1
31.464769 6.604433 30.971189 44.641514 0.206896 0.804078 0.000076 0.018134 300851.000000 0 0 1
31.692069 7.466033 32.228549 45.812752 0.231362 0.790508 -0.001779 0.011110 -112323.000000 0 0 1
32.043469 6.690833 33.358148 46.736679 0.205847 0.775963 -0.014845 0.008344 171426.000000 0 0 1
32.155869 7.518633 -34.116070 47.480901 0.229692 2.372471 -0.009779 0.000020 -323874.000000 0 0 1
32.458969 6.743233 -32.811840 46.644107 0.204833 2.351038 0.005325 -0.007011 -303111.000000 0 0 1
31.469769 5.857833 -32.337490 45.501361 0.184035 2.361279 -0.011135 -0.003722 159457.000000 0 0 1
31.557869 4.561133 -32.887480 45.807089 0.143538 2.371658 0.000616 -0.006239 -305253.000000 0 0 1
31.618969 3.512033 -31.783830 44.970050 0.110620 2.355729 -0.001696 -0.012491 -200423.000000 0 0 1
31.546469 2.197133 -32.303390 45.205266 0.069535 2.366839 0.004746 -0.009130 120422.000000 0 0 1
31.964569 1.262933 -31.315880 44.766204 0.039490 2.345554 0.012397 -0.014178 29613.700000 0 0 1
31.938269 -0.082567 -31.996390 45.208725 -0.002585 2.357102 0.027692 -0.029645 -801201.000000 0 0 1
33.015069 -0.184567 -32.891630 46.603521 -0.005590 2.354314 0.019737 -0.024863 -264269.000000 0 0 1
33.703669 -1.412867 -32.950070 47.155494 -0.041896 2.344450 0.026695 -0.023817 289975.000000 0 0 1
34.745669 -1.523767 -31.813430 47.134676 -0.043827 2.311690 0.040720 -0.027287 -753635.000000 0 0 1
34.106269 -1.727367 -30.551000 45.821228 -0.050603 2.300627 0.042078 -0.026463 -77667.500000 0 0 1
34.926069 -1.576267 -29.397740 45.678682 -0.045101 2.269959 0.055116 -0.022784 -218090.000000 0 0 1
34.219469 -1.617267 -27.988590 44.237414 -0.047226 2.255819 0.052979 -0.022696 -127043.000000 0 0 1
33.742469 -0.321067 -27.752010 43.690175 -0.009515 2.259064 0.042684 -0.021566 332457.000000 0 0 1
32.802269 -0.235367 -26.687390 42.287835 -0.007175 2.253753 0.034339 -0.015563 25764.000000 0 0 1
32.313369 1.205233 -26.468240 41.787248 0.037281 2.256742 0.025154 -0.006004 -118482.000000 0 0 1
31.379369 1.546533 -27.464490 41.729543 0.049245 2.289161 0.015754 -0.014612 72508.200000 0 0 1
30.576469 2.655033 -27.152500 40.978383 0.086615 2.295088 0.007713 -0.005593 46216.600000 0 0 1
30.056469 3.189833 -28.525280 41.560293 0.105732 2.327267 0.005498 -0.005985 -232057.000000 0 0 1
28.960069 4.051433 -28.371450 40.743575 0.138995 2.341084 0.008541 -0.004434 193926.000000 0 0 1
28.520569 4.654433 -29.603840 41.369964 0.161770 2.368262 0.020998 -0.008331 108652.000000 0 0 1
27.227269 5.483733 -29.445110 40.477278 0.198747 2.385392 0.028977 -0.015299 -464540.000000 0 0 1
26.067469 4.829833 -29.067080 39.341268 0.183204 2.402150 0.027469 -0.011492 -628465.000000 0 0 1
25.329969 5.605233 -28.202170 38.319556 0.217779 2.397900 0.034236 -0.017118 523597.000000 0 0 1
23.903669 4.983633 -27.891390 37.069551 0.205544 2.422505 0.035384 -0.010079 863422.000000 0 0 1
22.984469 5.031633 -28.979450 37.328430 0.215515 2.459630 0.059936 -0.019460 503740.000000 0 0 1
21.734969 4.613933 -28.420320 36.075086 0.209176 2.478042 0.058209 -0.017489 695170.000000 0 0 1
20.672169 4.274033 -29.541810 36.308738 0.203880 2.521162 0.045450 -0.012530 345086.000000 0 0 1
20.823469 2.956133 -30.034300 36.666262 0.141019 2.530683 0.046594 -0.012982 222920.000000 0 0 1
19.963969 2.606833 -31.125390 37.069469 0.129842 2.567435 0.035282 -0.012177 70848.200000 0 0 1
20.216569 3.279433 -32.470770 38.390301 0.160814 2.578872 0.029310 -0.008387 1128430.000000 0 0 1
21.432869 2.776033 -33.117760 39.545673 0.128805 2.563408 0.066339 -0.008497 923981.000000 0 0 1
21.679269 3.476233 34.279248 40.708006 0.158995 0.569675 0.058321 -0.022475 630453.000000 0 0 1
23.174069 3.258233 33.857502 41.158037 0.139683 0.604789 0.068222 -0.015302 657210.000000 0 0 1
23.490369 1.869133 33.508738 40.964943 0.079403 0.612896 0.085092 -0.015647 94241.200000 0 0 1
24.831669 1.597433 33.150134 41.449909 0.064242 0.643895 0.083944 -0.015625 -188674.000000 0 0 1
25.103569 0.101133 32.835045 41.332065 0.004029 0.652743 0.067553 -0.011551 -742243.000000 0 0 1
24.569769 -0.276667 31.569229 40.004579 -0.011260 0.661388 0.076691 -0.016947 1456400.000000 0 0 1
23.130269 -0.440667 31.496419 39.079764 -0.019049 0.633514 0.083933 -0.020159 999281.000000 0 0 1
22.426769 -1.435267 32.478819 39.495489 -0.063911 0.605281 0.078264 -0.022519 -788215.000000 0 0 1
22.544169 -2.785467 32.133349 39.351627 -0.122933 0.615353 0.085585 -0.033046 317427.000000 0 0 1
21.821369 -3.695667 32.964261 39.704819 -0.167768 0.591270 0.078962 -0.029360 83608.600000 0 0 1
21.937269 -5.158167 32.474119 39.527445 -0.230938 0.606657 0.078102 -0.030327 -164213.000000 0 0 1
23.181669 -5.797567 32.602360 40.421720 -0.245066 0.632494 0.074368 -0.025926 -246344.000000 0 0 1
23.014869 -7.122567 32.164989 40.187084 -0.300128 0.642865 0.077267 -0.026685 -352846.000000 0 0 1
24.289569 -7.977067 31.959979 40.927461 -0.317318 0.674702 0.067697 -0.029388 -62020.000000 0 0 1
25.108369 -7.613967 30.890789 40.529539 -0.294430 0.704123 0.078084 -0.028916 249333.000000 0 0 1
26.206169 -8.520267 30.675289 41.235077 -0.314344 0.731890 0.066142 -0.030743 570034.000000 0 0 1
26.693669 -8.365067 29.189429 40.429557 -0.303680 0.764133 0.058516 -0.020072 589553.000000 0 0 1
25.723869 -8.730867 28.177859 39.139970 -0.327207 0.767101 0.055694 -0.013011 580324.000000 0 0 1
26.369769 -8.630567 26.931689 38.667393 -0.316302 0.800294 0.068438 -0.010500 408441.000000 0 0 1
25.547469 -9.374167 25.853249 37.535832 -0.351678 0.811016 0.058149 -0.014521 39006.300000 0 0 1
24.270469 -8.924967 25.494019 36.313299 -0.352381 0.792514 0.052180 -0.014684 -253225.000000 0 0 1
23.625369 -9.789067 24.588459 35.476418 -0.392812 0.805025 0.062314 -0.019149 42114.000000 0 0 1
22.298169 -9.228167 24.021989 34.050306 -0.392391 0.787689 0.058544 -0.011751 -84161.500000 0 0 1
21.248269 -9.522267 24.909919 34.097897 -0.421309 0.751682 0.046375 -0.011402 -770666.000000 0 0 1
20.057169 -8.954167 24.462249 32.876569 -0.419883 0.731665 0.036342 -0.010335 -13840.900000 0 0 1
18.952669 -8.745067 25.541479 32.985558 -0.432307 0.685152 0.034113 -0.006312 457010.000000 0 0 1
18.152569 -9.851367 25.965629 33.177991 -0.497220 0.671939 0.036227 -0.003083 136293.000000 0 0 1
18.926469 -10.698867 26.775979 34.491014 -0.514503 0.681994 0.037035 -0.001582 -658270.000000 0 0 1
18.228869 -11.623567 27.751249 35.178556 -0.567641 0.661831 0.027902 0.003111 -553230.000000 0 0 1
17.425569 -12.527067 27.062039 34.538845 -0.623292 0.670478 0.019926 0.004398 -10462.200000 0 0 1
16.740369 -13.507567 27.865089 35.201669 -0.678926 0.657399 0.019340 0.006985 321255.000000 0 0 1
17.594869 -14.599067 28.618589 36.629712 -0.692611 0.674059 0.017254 0.017076 154698.000000 0 0 1
16.757569 -15.390067 29.474469 37.234589 -0.742886 0.657392 0.007283 0.017112 301312.000000 0 0 1
17.404469 -16.456767 30.122489 38.485128 -0.757418 0.671797 0.022953 0.009270 -628458.000000 0 0 1
17.479069 -17.778567 29.282039 38.458200 -0.793893 0.705328 0.019273 0.014536 -714134.000000 0 0 1
18.527069 -17.748667 28.400209 38.273220 -0.763944 0.734690 0.011694 0.017335 -367551.000000 0 0 1
18.814269 -18.909767 27.592099 38.378118 -0.787930 0.768500 0.006419 0.017394 215569.000000 0 0 1
19.806869 -18.679367 26.409679 37.930225 -0.756110 0.800609 0.020274 0.014437 388376.000000 0 0 1
21.125269 -18.403967 26.838659 38.798152 -0.716664 0.806885 0.040836 0.004466 188728.000000 0 0 1
21.932769 -17.813367 25.828189 38.281298 -0.682124 0.830245 0.029643 0.007878 -272236.000000 0 0 1
23.353069 -17.447567 26.237449 39.219729 -0.641656 0.837953 0.040889 0.004806 -618671.000000 0 0 1
24.140769 -18.613567 26.395749 40.323407 -0.656833 0.857141 0.050318 -0.004422 -1604380.000000 0 0 1
25.429169 -18.228167 26.594589 41.063133 -0.621926 0.866299 0.045661 -0.007191 -1618070.000000 0 0 1
26.390669 -19.428667 26.728169 42.288716 -0.634607 0.886613 0.033918 -0.015211 -283665.000000 0 0 1
26.300169 -20.177567 27.943639 43.355277 -0.654420 0.870392 0.030977 -0.006307 -124928.000000 0 0 1
26.844969 -21.453067 27.784739 44.191381 -0.674220 0.890869 0.036802 -0.014422 -187690.000000 0 0 1
26.190369 -22.528467 28.649469 44.880501 -0.710375 0.878443 0.037073 -0.009364 -136588.000000 0 0 1
26.236369 -22.246667 30.024349 45.658765 -0.703292 0.853193 0.031318 -0.010343 -190926.000000 0 0 1
25.408669 -23.142067 30.726949 46.100988 -0.738747 0.841274 0.036255 -0.016161 -349310.000000 0 0 1
25.264369 -23.072467 32.289449 47.045038 -0.740083 0.814335 0.027310 -0.007400 -161409.000000 0 0 1
24.820469 -24.247767 32.833337 47.770680 -0.773727 0.813015 0.016521 -0.006139 -216181.000000 0 0 1
24.823969 -24.103267 34.246778 48.683044 -0.770669 0.790536 0.023894 -0.001759 -537232.000000 0 0 1
24.525269 -25.446017 -33.632040 48.786296 -0.803822 2.331422 0.007739 -0.001265 931399.000000 0 0 1
23.202869 -26.010167 -33.813530 48.561886 -0.842380 2.341023 0.018607 -0.001847 786020.000000 0 0 1
22.891569 -26.429757 33.510192 48.430248 -0.857013 0.806642 0.016628 -0.005913 -1094500.000000 0 0 1
21.552169 -27.100247 33.363812 48.083920 -0.898943 0.803952 0.033137 -0.015396 -546437.000000 0 0 1
21.702669 -28.488707 33.490686 49.033033 -0.919787 0.818903 0.017605 -0.005177 988250.000000 0 0 1
20.454969 -29.096477 33.897131 49.132741 -0.958056 0.809433 0.038878 -0.007365 811608.000000 0 0 1
20.584269 -30.641497 34.061563 50.227518 -0.979264 0.825560 0.013042 -0.009704 -466695.000000 0 0 1
21.334169 -31.048277 -33.448520 50.378029 -0.968761 2.296886 0.010375 -0.009649 103431.000000 0 0 1
21.644369 -32.424047 -33.488290 51.393220 -0.982189 2.280500 -0.031631 -0.000800 -169612.000000 0 0 1
22.521369 -32.804817 -32.295920 51.248361 -0.969170 2.252587 -0.023068 -0.001504 -901124.000000 0 0 1
23.063569 -34.152766 -32.156060 52.271903 -0.976836 2.233397 -0.039110 0.001427 540322.000000 0 0 1
23.662169 -34.276158 -30.884050 51.851497 -0.966584 2.208840 -0.030661 0.000604 933.181000 0 0 1
24.970769 -33.542687 -30.512920 51.765717 -0.930858 2.201165 -0.027715 0.000986 -458867.000000 0 0 1
25.218169 -33.533807 -29.102730 51.063109 -0.926002 2.177225 -0.008644 -0.007919 215549.000000 0 0 1
26.399969 -32.802567 -28.755530 50.988697 -0.893127 2.169968 0.003716 -0.003426 74402.200000 0 0 1
26.905969 -32.981927 -27.259430 50.545180 -0.886508 2.140412 0.010288 -0.005581 484993.000000 0 0 1
27.873569 -34.038757 -27.193770 51.721117 -0.884650 2.124425 0.017254 0.001215 -494804.000000 0 0 1
28.668569 -33.838037 -26.097660 51.458599 -0.867913 2.102681 0.018513 -0.002768 -183920.000000 0 0 1
-26.423471 -31.086013 9.681750 41.931805 0.866296 1.337801 0.041384 -0.016814 113202.000000 0 0 1
-25.479611 -32.163713 9.561350 42.132344 0.900839 1.341866 0.042098 -0.018565 581023.000000 0 0 1
-24.879131 -32.522713 10.823250 42.353757 0.917779 1.312386 0.039926 -0.014093 294776.000000 0 0 1
-25.501951 -33.848313 11.435650 43.895693 0.925111 1.307237 0.028728 -0.008344 68302.300000 0 0 1
-25.354151 33.688033 10.671850 43.492585 -0.925623 1.322893 0.033517 -0.007084 -67274.200000 0 0 1
-25.578761 32.586533 11.499950 42.993069 -0.905301 1.300016 0.027507 -0.008296 -97239.000000 0 0 1
-25.595011 31.338033 10.654550 41.841323 -0.885931 1.313319 0.023811 -0.011389 689344.000000 0 0 1
-26.800571 31.142033 9.898450 42.261994 -0.860185 1.334384 0.031574 -0.014216 456051.000000 0 0 1
-26.706041 30.002033 9.036950 41.170391 -0.843455 1.349493 0.041316 -0.015571 -78938.300000 0 0 1
-25.746241 29.983533 7.798350 40.282694 -0.861285 1.375976 0.037520 -0.007393 -443177.000000 0 0 1
-24.407231 29.798733 8.110850 39.363223 -0.884535 1.363258 0.027549 -0.004319 -997154.000000 0 0 1
-23.693431 29.725333 6.923250 38.638135 -0.897839 1.390642 0.025266 -0.003824 -458861.000000 0 0 1
-22.347131 28.994333 7.050450 37.279679 -0.914152 1.380527 0.059393 -0.000268 -270583.000000 0 0 1
-22.356531 27.592233 7.133750 36.222040 -0.889838 1.372555 0.053855 -0.009123 65556.000000 0 0 1
-22.855931 26.943933 5.979150 35.834611 -0.867303 1.403158 0.047988 -0.015468 -240309.000000 0 0 1
-23.253831 25.425733 6.173250 35.004537 -0.829985 1.393513 0.052269 -0.011840 761748.000000 0 0 1
-24.473831 25.278633 6.950350 35.864816 -0.801573 1.375769 0.058283 -0.016356 1109840.000000 0 0 1
-24.807731 23.926333 7.215450 35.213004 -0.767314 1.364426 0.065882 -0.022333 -70667.600000 0 0 1
-25.315761 22.941433 6.081750 34.701366 -0.736236 1.394627 0.054389 -0.031774 620274.000000 0 0 1
-26.663321 23.276233 5.689750 35.848138 -0.717678 1.411404 0.055678 -0.033890 973728.000000 0 0 1
-27.085141 22.782133 4.400550 35.665043 -0.699322 1.447096 0.051650 -0.030874 -44291.300000 0 0 1
-26.641011 23.653833 3.253550 35.774752 -0.726075 1.479725 0.038218 -0.030614 68075.500000 0 0 1
-25.218391 23.679833 3.162350 34.737619 -0.753944 1.479635 0.042890 -0.034669 607427.000000 0 0 1
-24.829931 24.475633 2.066350 34.926378 -0.778213 1.511599 0.044210 -0.038973 691816.000000 0 0 1
-23.390231 25.108133 2.161350 34.383029 -0.820805 1.507894 0.049866 -0.032791 709733.000000 0 0 1
-23.135931 25.745033 0.942750 34.626100 -0.838724 1.543566 0.047918 -0.030207 466786.000000 0 0 1
-21.916231 26.504233 0.975550 34.405628 -0.879869 1.542438 0.052961 -0.034947 -114579.000000 0 0 1
-21.486631 27.088133 -0.397450 34.577453 -0.900208 1.582291 0.058883 -0.028733 49479.900000 0 0 1
-21.036831 26.139433 -1.343750 33.580111 -0.893140 1.610823 0.061364 -0.032078 1305420.000000 0 0 1
-19.765131 25.497033 -1.010050 32.276606 -0.911365 1.602095 0.052177 -0.039781 719108.000000 0 0 1
-19.248231 24.536533 -2.121650 31.257595 -0.905595 1.638725 0.056660 -0.037295 -112921.000000 0 0 1
-20.202931 23.601833 -2.599550 31.176315 -0.862835 1.654275 0.073927 -0.037420 169729.000000 0 0 1
-19.728831 22.752733 -3.664450 30.337136 -0.856460 1.691883 0.077835 -0.030968 -463028.000000 0 0 1
-20.838531 21.877733 -4.230650 30.508654 -0.809721 1.709915 0.049139 -0.024958 100791.000000 0 0 1
-21.709431 22.652133 -5.074250 31.783117 -0.806645 1.731135 0.045554 -0.016890 1666910.000000 0 0 1
-23.030131 22.038633 -5.231250 32.302543 -0.763402 1.733458 0.056328 -0.024957 1559640.000000 0 0 1
-23.740131 22.422033 -6.555450 33.306386 -0.756852 1.768912 0.049810 -0.005503 33129.000000 0 0 1
-23.187831 21.816533 -7.733650 32.763485 -0.754937 1.809090 0.040190 -0.009574 903424.000000 0 0 1
-22.064431 22.524933 -8.330950 32.613133 -0.795725 1.829107 0.036093 -0.017606 535422.000000 0 0 1
-21.355331 21.741333 -9.447850 31.906075 -0.794355 1.871418 0.019983 -0.026153 -640026.000000 0 0 1
-22.061731 21.584133 -10.619250 32.639903 -0.774456 1.902174 0.020406 -0.016046 -318645.000000 0 0 1
-21.235231 21.185633 -11.677050 32.188811 -0.784229 1.942032 0.009944 -0.010240 326155.000000 0 0 1
-22.037931 21.261133 -13.069950 33.294591 -0.767460 1.974204 0.003465 -0.008112 470150.000000 0 0 1
-22.906431 20.176233 -13.243950 33.274422 -0.722112 1.980156 0.006144 -0.011261 -776460.000000 0 0 1
-23.735531 20.294933 -14.305250 34.349671 -0.707415 2.000344 0.008795 -0.009935 -600103.000000 0 0 1
-24.747731 19.138333 -14.389750 34.435315 -0.658270 2.001904 0.023038 -0.017161 -110727.000000 0 0 1
-24.259731 18.072533 -15.162850 33.838780 -0.640268 2.035425 0.017045 -0.008982 -402827.000000 0 0 1
-25.261741 17.140033 -15.385450 34.185499 -0.596149 2.037626 0.047681 -0.003572 -301442.000000 0 0 1
-24.975931 16.291833 -16.631750 34.144342 -0.577991 2.079564 0.053449 -0.007534 -454024.000000 0 0 1
-23.933031 15.391633 -16.584150 32.935184 -0.571518 2.098486 0.056560 -0.006389 -594734.000000 0 0 1
-23.738131 14.797233 -17.890550 33.204348 -0.557414 2.139810 0.064364 -0.008265 223958.000000 0 0 1
-22.951031 13.421533 -17.812750 32.002835 -0.529161 2.161083 0.067990 -0.007795 -21704.000000 0 0 1
-21.743831 13.560833 -17.120450 30.818829 -0.557638 2.159784 0.063996 -0.012429 -499625.000000 0 0 1
-21.010931 12.363933 -17.189750 29.829743 -0.531885 2.184944 0.072223 -0.004985 300015.000000 0 0 1
-19.668631 12.418233 -16.394650 28.457901 -0.563169 2.184748 0.061471 -0.006726 574007.000000 0 0 1
-18.713231 13.355833 -16.852650 28.505703 -0.619869 2.203346 0.043656 0.004373 706687.000000 0 0 1
-17.663631 13.594833 -15.900150 27.379520 -0.655960 2.190423 0.043805 0.007333 209932.000000 0 0 1
-16.744331 14.746733 -16.233850 27.593054 -0.722049 2.199790 0.032063 0.009435 -347063.000000 0 0 1
-15.906231 14.500933 -17.347250 27.644391 -0.739215 2.249153 0.053330 0.000772 -1025.750000 0 0 1
-15.233531 15.674033 -17.736250 28.148008 -0.799649 2.252487 0.050305 -0.000394 -214019.000000 0 0 1
-14.482631 15.504733 -19.057550 28.519004 -0.819469 2.302637 0.048671 0.004255 395382.000000 0 0 1
-13.625831 14.348633 -19.034450 27.456453 -0.811230 2.336799 0.040225 0.011867 71599.800000 0 0 1
-12.784331 14.223533 -20.160050 27.788048 -0.838636 2.382548 0.055733 -0.000777 471734.000000 0 0 1
-11.691131 13.116233 -19.958850 26.590860 -0.842782 2.419752 0.044939 0.000251 274810.000000 0 0 1
-12.161731 11.868233 -20.319550 26.488616 -0.773185 2.445113 0.048300 0.003022 -484872.000000 0 0 1
-11.237231 10.884433 -20.008150 25.398274 -0.769451 2.477986 0.024601 0.008753 -342814.000000 0 0 1
-11.453531 9.620833 -20.836850 25.649915 -0.698653 2.518976 0.033128 -0.005192 48957.500000 0 0 1
-11.113031 9.859933 -22.155050 26.675157 -0.725721 2.550891 0.043325 -0.007966 -189948.000000 0 0 1
-11.471031 8.766233 -22.887450 27.060428 -0.652531 2.578841 0.039878 -0.008496 -42161.200000 0 0 1
-11.231831 8.819933 -24.401250 28.273066 -0.665690 2.612086 0.041472 -0.015614 32299.600000 0 0 1
-9.829931 8.660533 -24.644350 27.910148 -0.722239 2.652988 0.041186 -0.005942 418867.000000 0 0 1
-9.643731 8.109033 -25.943640 28.841471 -0.699164 2.689479 0.029394 -0.012385 -333262.000000 0 0 1
-9.566531 9.100333 -27.143280 30.184304 -0.760429 2.688852 0.056170 -0.009445 -158488.000000 0 0 1
-8.305931 9.667033 -27.427380 30.244027 -0.860984 2.706591 0.041487 -0.010759 -51446.900000 0 0 1
-7.895131 10.726833 -26.579770 29.730157 -0.936305 2.677067 0.035124 -0.007503 -615910.000000 0 0 1
-6.412531 11.029833 -26.755700 29.641951 -1.044180 2.696636 0.033985 -0.007856 -638086.000000 0 0 1
-6.022531 11.562633 -27.987370 30.874880 -1.090599 2.705661 0.045775 -0.004090 -600082.000000 0 0 1
-4.660631 11.815333 -28.024560 30.768483 -1.195078 2.716063 0.062389 -0.019412 -760399.000000 0 0 1
-4.149831 12.725833 -29.222290 32.142031 -1.255574 2.712062 0.064653 -0.022609 675016.000000 0 0 1
-2.735231 12.921533 -29.237080 32.081994 -1.362196 2.717284 0.070460 -0.034146 643573.000000 0 0 1
-2.139931 12.559933 -30.467980 33.024673 -1.402039 2.745518 0.070770 -0.031011 -140945.000000 0 0 1
-0.609931 12.585833 -30.515920 33.015096 -1.522372 2.749999 0.072804 -0.038711 -803088.000000 0 0 1
0.004869 11.540533 -29.838860 31.992835 1.570374 2.772550 0.050731 -0.025699 259756.000000 0 0 1
1.399869 11.400233 -30.087880 32.205675 1.448615 2.776923 0.054187 -0.027261 530117.000000 0 0 1
1.889369 10.885233 -31.444550 33.328932 1.398937 2.803717 0.060946 -0.019316 -761225.000000 0 0 1
1.802369 11.811333 -32.513290 34.639142 1.419368 2.789429 0.075087 -0.031053 264005.000000 0 0 1
1.846869 11.127833 -33.757540 35.592290 1.406327 2.819108 0.079440 -0.028650 -32116.100000 0 0 1
2.109969 12.031333 33.607009 35.758020 1.397189 0.348619 0.079489 -0.033339 -413380.000000 0 0 1
3.472969 12.298333 33.431694 35.790902 1.295570 0.365113 0.075579 -0.039067 -467299.000000 0 0 1
3.741669 13.259733 32.396469 35.204429 1.295765 0.402107 0.070402 -0.025722 376254.000000 0 0 1
5.257069 13.503033 32.151389 35.265855 1.199526 0.423427 0.063272 -0.026094 270802.000000 0 0 1
5.870569 12.317533 31.639119 34.456045 1.126041 0.407169 0.066295 -0.026632 685582.000000 0 0 1
7.268369 12.509233 31.363899 34.539894 1.044434 0.432195 0.052602 -0.017676 773378.000000 0 0 1
7.944669 11.221833 30.843649 33.769483 0.954744 0.419338 0.023616 -0.012050 -8589.260000 0 0 1
7.530969 10.870533 29.569089 32.391589 0.964927 0.420553 0.036355 -0.016040 38232.400000 0 0 1
8.238269 9.682233 29.211369 31.857790 0.865801 0.410478 0.032933 -0.006032 156437.000000 0 0 1
7.644369 8.882933 28.010449 30.363270 0.860199 0.396260 0.032465 -0.006615 415692.000000 0 0 1
6.534869 8.129133 28.526729 30.373699 0.893692 0.350527 0.040439 -0.014736 440633.000000 0 0 1
6.021769 7.230333 27.534949 29.098331 0.876345 0.329289 0.048626 -0.013207 168181.000000 0 0 1
5.100369 6.144733 28.123019 29.234837 0.878005 0.276674 0.071013 -0.024013 210280.000000 0 0 1
5.870569 5.133033 28.764929 29.803234 0.718472 0.264737 0.066789 -0.018384 -196391.000000 0 0 1
5.077969 4.382133 29.599829 30.350268 0.711976 0.222838 0.070445 -0.019832 -747846.000000 0 0 1
5.727469 3.220533 30.465719 31.166260 0.512235 0.212425 0.073795 -0.014503 125877.000000 0 0 1
6.101669 1.982133 29.852689 30.534280 0.314097 0.211687 0.083107 -0.014889 544488.000000 0 0 1
7.065569 2.066733 28.775789 29.702520 0.284569 0.250456 0.080210 -0.019607 233301.000000 0 0 1
7.287169 0.794633 27.958819 28.903803 0.108616 0.256413 0.072566 -0.022534 -75624.000000 0 0 1
7.889869 -0.234167 28.686619 29.752764 -0.029671 0.268513 0.033536 -0.002428 -90180.900000 0 0 1
7.877569 -1.475667 28.010659 29.134700 -0.185179 0.278681 0.053313 -0.007870 320623.000000 0 0 1
8.655069 -2.698367 28.660549 30.060248 -0.302217 0.306363 0.030459 0.010713 1953390.000000 0 0 1
10.109169 -2.631367 28.689559 30.532117 -0.254644 0.349185 0.013424 0.006167 1408230.000000 0 0 1
10.738869 -3.890267 28.876779 31.053597 -0.347555 0.376652 0.002788 0.009086 -94832.300000 0 0 1
12.280769 -3.767967 28.888239 31.615585 -0.297700 0.418415 -0.004331 0.013077 265123.000000 0 0 1
13.038769 -4.966467 28.732009 31.940627 -0.363933 0.452071 -0.004378 0.014879 223867.000000 0 0 1
12.945069 -5.926667 29.806009 33.031778 -0.429348 0.445620 0.011393 0.014854 -508454.000000 0 0 1
12.145169 -7.211267 29.473119 32.682905 -0.535816 0.446903 0.014228 0.010059 -1216570.000000 0 0 1
10.823669 -7.017467 29.176819 31.901151 -0.575211 0.416277 0.013405 0.012406 -1513910.000000 0 0 1
10.285969 -8.273267 28.793109 31.674773 -0.677373 0.429862 0.027076 0.003340 602641.000000 0 0 1
8.750669 -8.189867 28.494629 30.912652 -0.752306 0.398152 0.037488 -0.002138 700720.000000 0 0 1
8.079869 -7.774667 29.687589 31.734566 -0.766150 0.361133 0.041579 0.001319 -584083.000000 0 0 1
6.700369 -7.685367 29.498429 31.210850 -0.853762 0.332792 0.046464 0.007424 -741816.000000 0 0 1
5.943969 -6.874867 30.506109 31.831074 -0.857890 0.289541 0.042215 0.003300 -318409.000000 0 0 1
5.889369 -7.597067 31.755089 33.178092 -0.911351 0.293939 0.031816 0.002321 93307.400000 0 0 1
5.301669 -6.898167 32.856965 33.989301 -0.915521 0.258848 0.025012 0.007780 95306.400000 0 0 1
6.025669 -5.604967 33.368391 34.368210 -0.749242 0.241800 0.035161 0.010170 -97150.900000 0 0 1
6.025469 -4.517367 32.444729 33.307257 -0.643317 0.228073 0.046770 0.005567 -248446.000000 0 0 1
6.407669 -3.302567 32.942191 33.721701 -0.475898 0.215433 0.036347 0.011406 -391486.000000 0 0 1
6.168969 -2.055667 32.031209 32.684558 -0.321655 0.200282 0.044032 0.022473 -407345.000000 0 0 1
4.830969 -1.699867 31.863849 32.272786 -0.338339 0.159362 0.060200 0.015015 -657460.000000 0 0 1
4.731969 -0.450067 31.097539 31.458720 -0.094827 0.151678 0.072230 -0.004276 -601270.000000 0 0 1
3.323969 0.098733 30.991289 31.169192 0.029695 0.106893 0.063067 -0.000509 -599629.000000 0 0 1
2.794369 0.480433 32.238859 32.363303 0.170264 0.087723 0.064502 -0.003940 406904.000000 0 0 1
1.419369 0.875333 32.137359 32.180595 0.552613 0.051843 0.066240 -0.007537 582096.000000 0 0 1
0.792169 1.025633 33.506536 33.531588 0.913131 0.038658 0.048555 -0.004233 -478999.000000 0 0 1
1.152069 2.154933 34.267230 34.354244 1.079838 0.071189 0.035145 0.000018 -259989.000000 0 0 1
0.461369 2.400433 -33.152730 33.242720 1.380910 3.067995 0.022925 0.001746 -443221.000000 0 0 1
1.099569 3.447933 -32.222180 32.424777 1.262085 3.029747 0.018260 0.010260 949572.000000 0 0 1
2.279069 2.994333 -31.499250 31.723224 0.920212 3.022693 0.010194 0.015234 668723.000000 0 0 1
2.753569 3.976133 -30.646860 31.026147 0.965105 2.985070 0.011288 0.017529 -275735.000000 0 0 1
3.886469 3.466433 -29.753740 30.206056 0.728335 2.968319 0.008966 0.018924 -86063.000000 0 0 1
3.488369 2.648933 -28.636430 28.969479 0.649466 2.989812 0.016946 0.007349 393439.000000 0 0 1
4.637369 2.228033 -27.927490 28.397430 0.447887 2.959414 0.022134 0.007424 262332.000000 0 0 1
4.188169 1.377733 -26.767680 27.128354 0.317808 2.978346 0.017824 0.004620 -72912.900000 0 0 1
3.285969 0.328533 -26.915160 27.116994 0.099649 3.019508 0.031151 0.006148 -85023.900000 0 0 1
3.061169 -0.370467 -25.709270 25.893524 -0.120436 3.022225 0.033067 0.005154 -211092.000000 0 0 1
3.794269 -1.708267 -25.454850 25.792713 -0.423039 2.979556 0.055002 -0.010771 494688.000000 0 0 1
5.195869 -1.718667 -25.197380 25.784857 -0.319447 2.927720 0.058136 -0.016065 240212.000000 0 0 1
5.613469 -3.028067 -24.971250 25.772923 -0.494691 2.891521 0.059461 -0.025145 -613284.000000 0 0 1
7.028469 -3.061867 -24.404150 25.580011 -0.410846 2.837210 0.063083 -0.028200 18883.000000 0 0 1
7.932769 -3.327967 -25.483800 26.896622 -0.397221 2.816034 0.044878 -0.014552 220126.000000 0 0 1
9.288269 -3.484167 -25.058650 26.950831 -0.358871 2.764642 0.039072 -0.013849 718793.000000 0 0 1
-29.316941 -4.238867 17.630849 34.471697 0.143593 1.033915 0.045751 -0.000048 -419048.000000 0 0 1
-30.685161 -4.090767 17.854649 35.736564 0.132533 1.047638 0.027213 0.013829 -580475.000000 0 0 1
-31.168891 -5.287467 18.516149 36.637479 0.168040 1.040965 0.028117 0.008962 -242524.000000 0 0 1
-32.629971 -5.243767 18.949349 38.095800 0.159342 1.050182 0.032276 0.013499 -595496.000000 0 0 1
-33.543841 -5.182367 17.901249 38.373180 0.153283 1.085462 0.030552 0.017298 -270960.000000 0 0 1
-34.870858 -5.176767 18.367749 39.751099 0.147379 1.090470 0.031414 0.020406 -499435.000000 0 0 1
35.856270 -5.081967 17.244849 40.110887 -0.140794 1.126382 0.024747 0.014597 355087.000000 0 0 1
34.535510 -5.265267 17.759449 39.189571 -0.151294 1.100481 0.021636 0.019518 736545.000000 0 0 1
33.477090 -5.137967 16.825149 37.817983 -0.152289 1.109736 0.030960 0.012929 619213.000000 0 0 1
32.053420 -5.552567 17.258749 36.825496 -0.171526 1.083020 0.045940 0.012644 -112022.000000 0 0 1
31.424890 -4.634667 18.107149 36.563269 -0.146428 1.052699 0.055749 0.010075 -222621.000000 0 0 1
30.257480 -5.240267 18.586249 35.894625 -0.171488 1.026519 0.057016 -0.000873 -432507.000000 0 0 1
29.824680 -4.644667 19.967549 36.190986 -0.154491 0.986363 0.053380 0.003319 519152.000000 0 0 1
28.928650 -3.501567 19.983549 35.333695 -0.120456 0.969676 0.058745 -0.001760 1054080.000000 0 0 1
29.612100 -2.287767 19.618449 35.594857 -0.077105 0.987043 0.068811 -0.000780 472906.000000 0 0 1
28.707310 -1.052267 19.943749 34.970988 -0.036639 0.963932 0.054031 -0.002642 457178.000000 0 0 1
29.256650 0.124033 19.424649 35.118142 0.004239 0.984688 0.055696 -0.001791 -64918.900000 0 0 1
28.365770 1.183833 19.671849 34.539832 0.041710 0.964849 0.049642 -0.002593 47514.500000 0 0 1
28.757530 2.543133 19.089049 34.610039 0.088204 0.986579 0.042022 0.002097 -88794.400000 0 0 1
28.489790 2.473133 17.712049 33.637794 0.086591 1.016257 0.048043 -0.002537 112251.000000 0 0 1
28.398430 3.771333 17.145549 33.386578 0.132028 1.031484 0.041829 0.000688 117759.000000 0 0 1
28.038480 3.659833 15.618149 32.302899 0.129795 1.066158 0.046586 -0.003500 -124585.000000 0 0 1
27.944310 4.937133 15.047549 32.119907 0.174873 1.083226 0.039360 0.002580 235413.000000 0 0 1
27.431690 4.954133 13.717749 31.067952 0.178673 1.113482 0.039577 0.003892 22003.300000 0 0 1
26.942440 6.353033 13.309949 30.714994 0.231570 1.122604 0.046876 0.014948 -353726.000000 0 0 1
25.851260 6.784333 14.066649 30.202407 0.256650 1.086319 0.035758 0.014056 -235453.000000 0 0 1
25.213060 7.862633 13.390149 29.611070 0.302290 1.101565 0.052025 -0.001150 156849.000000 0 0 1
23.960960 8.416833 14.172749 29.083285 0.337808 1.061783 0.055176 -0.003500 167199.000000 0 0 1
22.733860 7.765133 14.126349 27.868968 0.329142 1.039230 0.064109 -0.000888 97350.600000 0 0 1
22.682760 6.433433 14.527249 27.693638 0.276368 1.018586 0.072700 -0.007148 -1616110.000000 0 0 1
21.447560 5.644633 14.162549 26.314207 0.257347 1.002485 0.080948 -0.013841 -824512.000000 0 0 1
21.379260 5.460233 12.739349 25.478970 0.250053 1.047204 0.094292 -0.022658 31345.600000 0 0 1
20.247760 4.771133 12.329449 24.181621 0.231416 1.035764 0.093227 -0.022434 -768460.000000 0 1 0
19.937660 4.839433 10.868949 23.217761 0.238123 1.083622 0.101781 -0.023016 -396678.000000 0 1 0
20.876660 4.134333 10.111749 23.562154 0.195507 1.127242 0.101309 -0.027730 465238.000000 0 1 0
20.494760 4.120633 8.721049 22.651081 0.198413 1.175570 0.109489 -0.032603 459596.000000 0 1 0
21.529360 3.338133 7.815949 23.146177 0.153825 1.226348 0.095976 -0.028908 -320541.000000 0 1 0
21.572460 1.961033 8.172349 23.151759 0.090655 1.210031 0.080215 -0.031123 1095710.000000 0 1 0
22.472260 1.215333 7.319349 23.665425 0.054029 1.256356 0.067064 -0.025436 -32263.200000 0 1 0
24.004660 1.361933 7.296349 25.125988 0.056675 1.276161 0.065821 -0.027458 -551422.000000 0 0 1
24.572960 0.950433 8.518949 26.025106 0.038659 1.237314 0.052807 -0.004336 268932.000000 0 0 1
24.606160 1.928433 9.542249 26.461981 0.078212 1.201883 0.048277 -0.006653 -616317.000000 0 0 1
25.123460 1.555533 10.970849 27.458467 0.061837 1.159778 0.048348 -0.001722 130738.000000 0 0 1
26.521360 1.378433 11.081349 28.776360 0.051928 1.175496 0.035517 -0.000231 143746.000000 0 0 1
26.937590 0.874333 12.356949 29.649492 0.032446 1.140910 0.047230 -0.010609 -109540.000000 0 0 1
28.426810 0.530433 12.518449 31.065679 0.018657 1.156040 0.075851 -0.012787 -27173.000000 0 0 1
29.198280 1.708633 12.660149 31.870650 0.058452 1.162294 0.063322 -0.002493 -309537.000000 0 0 1
30.563480 1.399733 12.777349 33.156390 0.045766 1.175192 0.070206 -0.003614 12375.800000 0 0 1
31.444210 2.668533 13.101149 34.168692 0.084663 1.177294 0.059218 0.000857 -26087.500000 0 0 1
31.439090 3.638533 12.066649 33.871216 0.115220 1.206544 0.066281 -0.013114 215023.000000 0 0 1
32.028020 4.852733 12.488349 34.717458 0.150372 1.202835 0.057345 -0.014534 874225.000000 0 0 1
33.553560 4.984733 12.123949 36.023313 0.147482 1.227537 0.047834 -0.008830 720844.000000 0 0 1
34.406870 4.054433 12.782649 36.927865 0.117297 1.217330 0.038060 -0.007578 279469.000000 0 0 1
35.687990 4.132433 12.177549 37.934184 0.115280 1.243992 0.035503 -0.005603 467150.000000 0 0 1
-34.988212 3.172533 12.827249 37.400244 -0.090427 1.220717 0.046566 -0.003088 -185469.000000 0 0 1
-34.982798 1.772133 12.493249 37.188949 -0.050614 1.228193 0.043934 -0.002342 1109210.000000 0 0 1
35.612860 0.964033 12.881049 37.883064 0.027063 1.223857 0.058162 0.000739 740236.000000 0 0 1
35.523150 0.719233 14.406949 38.340209 0.020244 1.185573 0.064586 0.007483 146100.000000 0 0 1
-35.262225 -0.165667 14.988149 38.315748 0.004698 1.168889 0.045788 0.011286 416662.000000 0 0 1
-35.555946 -0.339267 16.390349 39.153339 0.009541 1.138872 0.058177 0.008233 -496318.000000 0 0 1
-34.579784 -1.201767 17.173749 38.628272 0.034739 1.110080 0.038428 0.014575 -465184.000000 0 0 1
-33.369951 -0.465467 17.360549 37.618599 0.013948 1.091124 0.037215 0.009146 -71028.900000 0 0 1
-32.372541 -1.261967 17.943649 37.034424 0.038963 1.064990 0.041931 0.011944 -155490.000000 0 0 1
-32.229531 -1.277467 19.432449 37.656270 0.039616 1.028565 0.023688 0.008839 -238168.000000 0 0 1
-33.377701 -1.838567 20.044949 38.977574 0.055028 1.030642 0.035789 0.003035 162930.000000 0 0 1
-33.442051 -1.620567 21.429349 39.751906 0.048421 1.001455 0.027822 0.003315 164176.000000 0 0 1
-34.252902 -2.647167 22.250149 40.930892 0.077130 0.996073 0.034945 0.009080 191284.000000 0 0 1
-33.581001 -3.911467 22.278749 40.488589 0.115956 0.988136 0.037943 0.002288 658821.000000 0 0 1
-34.283067 -5.007067 22.944249 41.555240 0.145025 0.985869 0.040759 0.001396 115458.000000 0 0 1
-34.326218 -4.978567 24.506779 42.469490 0.144033 0.955691 0.033688 -0.005961 -99095.100000 0 0 1
-33.090991 -5.046367 25.184779 41.889767 0.151334 0.925775 0.032868 -0.009171 -494210.000000 0 0 1
-33.138921 -4.785667 26.565919 42.741534 0.143421 0.900079 0.035447 -0.021235 365198.000000 0 0 1
-31.923401 -3.945567 27.088019 42.052727 0.122971 0.870892 0.032939 -0.015669 299907.000000 0 0 1
-31.961711 -2.580567 26.679839 41.713596 0.080565 0.876824 0.028564 -0.002886 134695.000000 0 0 1
-31.420111 -2.418467 25.338609 40.436586 0.076820 0.893580 0.025799 0.003370 -81288.600000 0 0 1
-31.175421 -0.917967 24.977739 39.957940 0.029437 0.895536 0.021750 0.001143 -630972.000000 0 0 1
-32.373711 -0.241067 24.877829 40.829177 0.007446 0.915600 0.041151 -0.014391 -789457.000000 0 0 1
-32.199831 1.158633 24.611869 40.545230 -0.035967 0.918488 0.019911 -0.003842 -770878.000000 0 0 1
-33.501841 1.946033 24.658979 41.644035 -0.058022 0.937088 0.038980 0.000467 -227008.000000 0 0 1
-34.291566 1.701433 23.494649 41.602944 -0.049576 0.970684 0.043707 0.011141 -359930.000000 0 0 1
-35.384728 2.538433 23.286749 42.435779 -0.071615 0.989925 0.040230 0.015401 -142133.000000 0 0 1
-35.110193 3.873233 22.542449 41.903337 -0.109872 1.002777 0.041362 0.022979 -90194.000000 0 0 1
-34.518210 3.613433 21.254649 40.697959 -0.104302 1.021305 0.036275 -0.000143 -838465.000000 0 0 1
-35.426166 3.537633 20.213849 40.940540 -0.099529 1.054415 0.038576 -0.003941 -456546.000000 0 0 1
-34.936567 2.773733 18.928349 39.831391 -0.079227 1.075592 0.040408 -0.002295 1097880.000000 0 0 1
-33.818321 3.424133 18.245149 38.578349 -0.100907 1.078175 0.045897 -0.006793 1132200.000000 0 0 1
-33.319681 2.635133 17.162649 37.572618 -0.078922 1.096417 0.052257 0.002198 161114.000000 0 0 1
-32.416201 3.430733 16.172349 36.388527 -0.105441 1.110252 0.044740 -0.002766 399440.000000 0 0 1
-33.096961 4.510433 15.520549 36.832598 -0.135445 1.135829 0.050485 -0.009915 976050.000000 0 0 1
-32.185251 5.157033 14.581049 35.708436 -0.158879 1.150166 0.064088 -0.010942 106627.000000 0 0 1
-32.676741 6.536933 14.145549 36.202175 -0.197442 1.169364 0.070802 -0.019075 -555694.000000 0 0 1
-31.730111 7.318233 13.485549 35.245092 -0.226676 1.178164 0.083630 -0.021392 -433248.000000 0 0 1
-32.165071 8.644033 13.096049 35.788512 -0.262537 1.196166 0.064279 -0.020552 -450674.000000 0 0 1
-31.106801 9.267733 12.196649 34.673941 -0.289559 1.211354 0.074732 -0.016802 -441908.000000 0 0 1
-31.466441 10.448333 11.555149 35.111623 -0.320592 1.235449 0.064138 -0.001010 -423430.000000 0 0 1
-30.465891 11.135933 10.856849 34.206004 -0.350435 1.247814 0.043436 -0.014340 -634250.000000 0 0 1
-30.779691 12.627433 10.779049 34.971837 -0.389313 1.257474 0.042297 -0.004700 203676.000000 0 0 1
-30.187281 13.278433 9.640749 34.358882 -0.414397 1.286388 0.030516 -0.009031 192159.000000 0 0 1
-30.251051 14.686033 9.850449 35.040505 -0.451958 1.285839 0.038306 -0.010681 -1154.250000 0 0 1
-29.715841 15.567933 8.690449 34.654230 -0.482579 1.317315 0.043526 -0.013542 19329.600000 0 0 1
-28.303881 15.542933 8.636549 33.425775 -0.502186 1.309452 0.052745 -0.006835 956.514000 0 0 1
-27.721021 16.540533 7.834549 33.217833 -0.537974 1.332699 0.042953 -0.015657 258347.000000 0 0 1
-26.260821 16.825533 8.293349 32.272417 -0.569816 1.310901 0.051538 -0.007254 132616.000000 0 0 1
-25.973171 17.306933 9.623649 32.661142 -0.587776 1.271706 0.047308 -0.007913 336647.000000 0 0 1
-26.418991 18.680933 9.865649 33.827081 -0.615477 1.274846 0.060054 -0.016636 -100451.000000 0 0 1
-26.283571 19.070733 11.353649 34.400935 -0.627686 1.234451 0.074819 -0.006255 1391360.000000 0 0 1
-24.935231 19.134433 11.920149 33.615208 -0.654523 1.208304 0.065612 -0.004599 1487430.000000 0 0 1
-24.910731 19.502233 13.331249 34.330800 -0.664217 1.171991 0.070537 -0.009380 86417.300000 0 0 1
-25.549551 18.491833 14.304949 34.631763 -0.626497 1.144986 0.070150 -0.005498 -72761.400000 0 0 1
-24.705931 17.396133 14.524449 33.525634 -0.613491 1.122718 0.070489 -0.004134 1390.660000 0 0 1
-25.127691 16.650333 15.623249 33.951736 -0.585202 1.092620 0.063331 -0.003164 -175295.000000 0 0 1
-24.062831 15.649033 16.134949 32.927931 -0.576615 1.058697 0.061828 0.000724 159728.000000 0 0 1
-23.010431 16.344433 16.824749 32.858676 -0.617609 1.033246 0.067464 -0.000593 189053.000000 0 0 1
-21.917331 15.518233 17.127349 31.851704 -0.616098 1.003064 0.051567 -0.012978 -244713.000000 0 0 1
-22.150331 14.513833 18.316349 32.199024 -0.580052 0.965692 0.047876 0.003711 -502191.000000 0 0 1
-22.205731 15.058933 19.602649 33.228449 -0.595914 0.939817 0.041652 0.008192 124618.000000 0 0 1
-22.611731 14.079633 20.525449 33.627675 -0.556922 0.914264 0.020158 0.012669 -413475.000000 0 0 1
-22.235731 14.427533 22.010349 34.453402 -0.575563 0.877802 0.019779 0.013039 -429932.000000 0 0 1
-20.885031 14.499033 22.350749 33.852068 -0.606844 0.849648 0.030494 0.005817 -695142.000000 0 0 1
-20.335131 15.759833 22.080049 33.903075 -0.659313 0.861540 0.040496 0.017815 -1805880.000000 0 0 1
-18.871431 15.783633 22.442149 33.300211 -0.696532 0.831275 0.058841 0.007280 -609641.000000 0 0 1
-18.008131 15.003933 21.617549 31.886192 -0.694645 0.825813 0.044420 0.011408 -152.330000 0 0 1
-17.617931 15.694033 20.480449 31.243287 -0.727708 0.855932 0.043655 0.007048 -1787510.000000 0 0 1
-16.512731 14.941333 19.687949 29.724217 -0.735481 0.846840 0.045270 0.015049 1190120.000000 0 0 1
-15.280031 14.653533 20.373149 29.381467 -0.764472 0.804597 0.054427 0.014358 927828.000000 0 0 1
-14.616731 15.770633 21.007849 30.061461 -0.823353 0.797036 0.043932 0.009448 -599045.000000 0 0 1
-13.523631 15.298733 22.028849 30.036811 -0.846908 0.747494 0.025492 0.011969 975240.000000 0 0 1
-12.349531 14.684833 21.470149 28.794488 -0.871567 0.729311 0.020881 0.016614 203551.000000 0 0 1
-11.497131 14.256833 22.492649 29.006216 -0.892147 0.683381 0.042938 0.009017 -479642.000000 0 0 1
-10.269531 13.558133 21.939449 27.760145 -0.922548 0.659462 0.044576 0.005832 -1391960.000000 0 0 1
-9.857831 12.515933 22.778849 27.797507 -0.903648 0.610334 0.056707 -0.000132 -175548.000000 0 0 1
-8.660631 11.840733 22.504249 26.863558 -0.939288 0.577694 0.058728 0.007466 945273.000000 0 0 1
-7.350931 12.724333 22.714349 27.053401 -1.046930 0.574229 0.049530 0.012084 57940.500000 0 0 1
-7.013731 13.488033 21.546549 26.369931 -1.091280 0.614455 0.044393 0.009215 125096.000000 0 0 1
-6.165131 14.628833 21.801549 26.968855 -1.171947 0.629372 0.029713 0.013468 244458.000000 0 0 1
-6.822031 15.834933 22.544949 28.382388 -1.164005 0.652894 0.034353 0.005471 -215168.000000 0 0 1
-7.877631 16.440333 21.874149 28.474902 -1.123955 0.694786 0.020878 0.006198 -915656.000000 0 0 1
-7.480831 17.331533 20.938349 28.191476 -1.163322 0.733674 0.017118 0.008491 -1167800.000000 0 0 1
-8.562631 17.666233 19.858649 27.924548 -1.119472 0.779658 0.027177 0.014586 483895.000000 0 0 1
-9.582831 18.552733 20.259249 29.094187 -1.094021 0.800521 0.014902 0.018280 -883790.000000 0 0 1
-10.529531 17.887533 21.007549 29.532220 -1.038763 0.779389 0.014788 0.013239 -1314150.000000 0 0 1
-11.923931 18.558733 21.147849 30.558767 -0.999714 0.806487 0.007271 0.009809 92366.100000 0 0 1
-12.598531 18.599733 19.927049 30.029325 -0.975434 0.845194 0.015704 0.011277 383222.000000 0 0 1
-13.841831 19.309233 20.106849 31.124398 -0.948851 0.868443 0.017593 0.006767 673230.000000 0 0 1
-14.634931 19.498633 18.797049 30.784850 -0.926936 0.913986 0.028188 -0.000306 -299323.000000 0 0 1
-15.344831 18.302933 18.483449 30.200978 -0.873086 0.912190 0.042008 0.004992 213462.000000 0 0 1
-16.038031 18.645033 17.283549 30.059554 -0.860424 0.958220 0.064381 -0.006011 -776761.000000 0 0 1
-16.780431 17.444433 16.586249 29.342712 -0.804797 0.970048 0.060495 -0.004054 1123210.000000 0 0 1
-17.914631 16.904133 17.289349 30.093277 -0.756385 0.958772 0.058474 -0.004248 531335.000000 0 0 1
-19.049531 17.733933 17.347249 31.277853 -0.749647 0.982893 0.062624 -0.006910 -801803.000000 0 0 1
33.223670 -10.051867 12.096550 36.758384 -0.293796 1.235464 0.056349 -0.022254 158059.000000 0 0 1
31.987820 -10.425667 11.486050 35.550590 -0.315069 1.241803 0.025420 -0.011727 146635.000000 0 0 1
31.537350 -11.571867 12.045950 35.687777 -0.351673 1.226497 0.066633 -0.013949 -1382210.000000 0 0 1
30.055410 -11.753067 11.885150 34.390682 -0.372764 1.217927 0.030106 -0.003420 -1648580.000000 0 0 1
29.360920 -10.821467 12.651950 33.752623 -0.353119 1.186568 0.030783 -0.001681 -91578.200000 0 0 1
27.962940 -10.997567 12.734050 32.634774 -0.374709 1.169949 0.023205 -0.002245 313957.000000 0 0 1
27.445700 -11.955667 13.840150 32.981118 -0.410824 1.137749 0.013741 0.001786 -434996.000000 0 0 1
27.742850 -11.483567 15.158850 33.635231 -0.392456 1.103265 0.021738 -0.003240 404386.000000 0 0 1
27.066950 -12.238667 16.201950 33.836488 -0.424651 1.071474 0.030664 -0.007928 1209050.000000 0 0 1
25.595460 -11.787067 16.538450 32.673886 -0.431563 1.040062 0.041820 -0.020080 705832.000000 0 0 1
25.504060 -10.432167 16.960250 32.356410 -0.388275 1.019056 0.043074 -0.022264 25375.100000 0 0 1
24.744260 -9.597567 16.059150 31.020767 -0.370006 1.026647 0.052933 -0.018301 308190.000000 0 0 1
24.730960 -8.089167 16.432550 30.774725 -0.316118 1.007516 0.069400 -0.022595 272867.000000 0 0 1
25.795560 -7.275967 15.937750 31.182727 -0.274920 1.034323 0.059933 -0.019734 71666.600000 0 0 1
25.816460 -6.042667 16.488650 31.223052 -0.229923 1.014444 0.068276 -0.016151 152403.000000 0 0 1
27.123720 -5.224267 16.306950 32.076561 -0.190279 1.037499 0.066826 -0.009631 -15387.300000 0 0 1
27.413030 -4.959567 14.942950 31.612707 -0.178984 1.078458 0.069718 -0.009403 499023.000000 0 0 1
28.647440 -4.250667 14.820750 32.533038 -0.147304 1.097795 0.063112 -0.004441 394950.000000 0 0 1
28.874230 -3.606967 13.436450 32.051046 -0.124276 1.138210 0.066726 -0.009054 1477.340000 0 0 1
29.349970 -4.557167 12.442750 32.202648 -0.154040 1.174083 0.033391 -0.006284 362713.000000 0 0 1
29.436690 -3.915167 11.168750 31.726774 -0.132227 1.211058 0.049033 -0.012923 -13472.600000 0 0 1
29.964940 -4.739467 9.964850 31.932090 -0.156868 1.253432 0.054271 -0.006442 276389.000000 0 0 1
31.324960 -5.144667 9.940350 33.264564 -0.162782 1.267333 0.066324 -0.012915 305684.000000 0 0 1
31.669820 -5.496867 8.597050 33.273147 -0.171856 1.309453 0.066381 -0.022930 -181309.000000 0 0 1
32.970490 -6.325367 8.615550 34.659647 -0.189546 1.319587 0.064484 -0.021760 -231498.000000 0 0 1
34.115330 -5.524667 8.723550 35.643765 -0.160547 1.323542 0.073758 -0.019010 23857.400000 0 0 1
35.319010 -6.300767 8.653050 36.905384 -0.176539 1.334127 0.068644 -0.023719 233834.000000 0 0 1
-35.208787 -5.509567 8.224050 36.573884 0.155224 1.343996 0.067112 -0.019058 -352501.000000 0 0 1
-35.357385 -4.879367 6.980950 36.368758 0.137135 1.377649 0.057669 -0.013815 791326.000000 0 0 1
-34.183923 -4.060267 6.766950 35.083016 0.118223 1.376696 0.048414 0.000521 762796.000000 0 0 1
-34.217419 -3.364767 5.351750 34.796475 0.098020 1.416382 0.059477 -0.003537 -256322.000000 0 0 1
-34.043353 -4.120167 4.188650 34.546642 0.120441 1.449251 0.062008 -0.012830 121615.000000 0 0 1
-34.076731 -3.298567 3.022350 34.369154 0.096498 1.482745 0.066093 -0.008552 183576.000000 0 0 1
-33.492541 -3.991467 1.723850 33.773566 0.118615 1.519733 0.099206 -0.014197 556676.000000 0 0 1
-34.249790 -5.166267 1.340150 34.663157 0.149712 1.532125 0.090821 -0.005554 550821.000000 0 0 1
-35.182712 -4.998267 0.256350 35.536905 0.141122 1.563583 0.070384 -0.005522 -4002.650000 0 0 1
-34.605694 -5.078367 -1.157950 34.995496 0.145709 1.603891 0.109825 -0.013186 -907687.000000 0 0 1
-34.063516 -6.346867 -1.447750 34.679992 0.184212 1.612554 0.105663 -0.022294 115610.000000 0 0 1
-33.141181 -6.421367 -2.502950 33.850208 0.191386 1.644806 0.106588 -0.023928 -501287.000000 0 0 1
-31.737581 -5.930367 -2.158550 32.358965 0.184726 1.637552 0.118402 -0.030915 -1071280.000000 0 0 1
-31.059031 -6.803667 -1.293250 31.821782 0.215650 1.611448 0.125716 -0.028304 -859324.000000 0 0 1
-29.812291 -6.326667 -0.916250 30.489981 0.209114 1.600852 0.117571 -0.034771 -617740.000000 0 0 1
-29.187821 -7.328367 0.095050 30.093901 0.245991 1.567638 0.089980 -0.028992 -144862.000000 0 0 1
-28.768441 -8.555367 -0.439050 30.016833 0.289058 1.585424 0.090151 -0.028536 232604.000000 0 0 1
-28.393741 -9.458067 0.553250 29.932685 0.321544 1.552312 0.098508 -0.020709 -205699.000000 0 0 1
-27.875301 -10.799367 0.077050 29.894225 0.369612 1.568219 0.077085 -0.025353 -145832.000000 0 0 1
-26.652801 -10.784967 -0.643350 28.759367 0.384506 1.593168 0.069562 -0.025936 656355.000000 0 0 1
-26.144051 -12.120667 -1.021450 28.835141 0.434115 1.606228 0.050909 -0.016647 118771.000000 0 0 1
-26.978511 -12.965067 -2.001850 29.999007 0.447983 1.637576 0.054907 -0.014262 -208832.000000 0 0 1
-28.147041 -13.604067 -1.527950 31.299540 0.450216 1.619633 0.074623 -0.023594 478960.000000 0 0 1
-28.467121 -14.773467 -2.347950 32.158128 0.478705 1.643874 0.070809 -0.024273 122834.000000 0 0 1
-29.584861 -15.674067 -1.689950 33.523071 0.487203 1.621229 0.087739 -0.022969 471079.000000 0 0 1
-29.117301 -16.355667 -0.534750 33.400764 0.511794 1.586807 0.061450 -0.017435 500159.000000 0 0 1
-30.078691 -17.274667 -0.001050 34.686334 0.521320 1.570827 0.073965 -0.015441 165324.000000 0 0 1
-30.154511 -18.682267 -0.669450 35.479146 0.554672 1.589666 0.066096 -0.006123 -7576.060000 0 0 1
-29.075571 -19.513967 -0.266450 35.017920 0.591098 1.578405 0.076888 -0.014285 403683.000000 0 0 1
-29.381511 -20.940667 -0.295650 36.081465 0.619209 1.578990 0.060177 -0.010829 82482.700000 0 0 1
-30.205181 -21.372367 0.957850 37.014166 0.615790 1.544916 0.049605 -0.004083 -168380.000000 0 0 1
-29.519081 -21.535567 2.165650 36.603918 0.630282 1.511597 0.043515 -0.009262 -108946.000000 0 0 1
-30.453381 -21.851767 3.182150 37.616941 0.622406 1.486102 0.027604 -0.002807 212122.000000 0 0 1
-29.759431 -22.136267 4.519950 37.363993 0.639547 1.449529 0.011956 0.001367 -78573.600000 0 0 1
-28.987881 -21.021867 4.947950 36.148283 0.627436 1.433486 0.012804 -0.000963 212491.000000 0 0 1
-28.466881 -21.217367 6.264750 36.052560 0.640509 1.396143 -0.001476 -0.000019 159025.000000 0 0 1
-27.809111 -19.939367 6.903450 34.908203 0.622050 1.371724 0.005500 0.005900 142486.000000 0 0 1
-27.176711 -20.126967 8.150650 34.786513 0.637455 1.334293 0.003828 0.000108 -325833.000000 0 0 1
-26.692521 -18.851167 8.522550 33.771157 0.614898 1.315676 0.011625 -0.007470 79762.500000 0 0 1
-25.587191 -19.096867 9.569450 33.331202 0.641158 1.279596 0.018756 -0.001843 -8923.410000 0 0 1
-26.153261 -19.721667 10.734250 34.469716 0.646108 1.254119 0.013093 -0.005008 506457.000000 0 0 1
-25.170191 -20.115067 11.708750 34.281909 0.674230 1.222238 0.028715 -0.004239 207916.000000 0 0 1
-24.613131 -19.016067 12.608350 33.561697 0.657808 1.185669 0.022675 -0.005909 -825871.000000 0 0 1
-23.698631 -18.109867 12.103450 32.188288 0.652511 1.185299 0.021531 -0.004795 -301588.000000 0 0 1
-23.365131 -16.990267 12.926650 31.649594 0.628725 1.150063 0.023647 -0.003370 222036.000000 0 0 1
-22.705931 -17.270167 14.322850 31.921184 0.650252 1.105493 0.023893 -0.007660 -616030.000000 0 0 1
-23.609831 -17.785667 15.262950 33.267277 0.645620 1.094155 0.023844 -0.006876 -582163.000000 0 0 1
-23.022431 -17.843667 16.493650 33.473411 0.659345 1.055562 0.032752 -0.008049 -412969.000000 0 0 1
-23.899131 -18.467067 17.608850 34.961016 0.657877 1.042953 0.024716 0.011555 648671.000000 0 0 1
-24.898631 -17.527967 18.055650 35.400254 0.613388 1.035562 0.034384 0.005217 200751.000000 0 0 1
-25.931221 -18.133167 18.779750 36.795638 0.610242 1.035170 0.015121 0.022661 -192202.000000 0 0 1
-26.853631 -17.117767 19.488150 37.335284 0.567500 1.021630 0.016179 0.019757 17797.100000 0 0 1
-26.228941 -16.553267 20.649350 37.260752 0.562979 0.983413 0.031313 0.012382 45829.600000 0 0 1
-27.014881 -15.564667 21.247750 37.729690 0.522699 0.972595 0.042003 0.009939 -164787.000000 0 0 1
-26.292581 -14.851567 22.415650 37.607582 0.514179 0.932235 0.041492 0.007833 355421.000000 0 0 1
-25.121811 -14.125567 22.068450 36.299497 0.512225 0.917314 0.039284 0.006785 662509.000000 0 0 1
-24.344831 -13.697367 23.208650 36.317077 0.512496 0.877526 0.030545 0.001548 216471.000000 0 0 1
-22.977331 -13.107067 22.791650 34.917220 0.518397 0.859609 0.026601 0.009704 -165454.000000 0 0 1
-23.035731 -11.782267 22.248350 34.124123 0.472788 0.860599 0.040196 0.006653 -224558.000000 0 0 1
-21.925731 -11.384267 21.499550 32.750112 0.478905 0.854663 0.030797 0.005380 -632682.000000 0 0 1
-21.604031 -9.880267 21.743350 32.204458 0.428936 0.829607 0.036144 0.008456 -49280.800000 0 0 1
-21.236831 -9.633667 23.093550 32.819546 0.425869 0.790272 0.028165 0.004971 -865163.000000 0 0 1
-19.877031 -9.700267 23.294350 32.121928 0.454013 0.759493 0.016296 0.012683 -1148930.000000 0 0 1
-19.371031 -9.708967 24.752450 32.896575 0.464616 0.719049 -0.000246 0.001580 198671.000000 0 0 1
-19.600931 -10.950567 25.362450 33.872781 0.509480 0.724613 0.006626 0.001469 144219.000000 0 0 1
-18.819631 -10.959467 26.545450 34.335832 0.527335 0.687063 0.005102 -0.007612 -1363280.000000 0 0 1
-18.846631 -12.355867 27.236750 35.351146 0.580302 0.691229 0.009170 -0.015359 582844.000000 0 0 1
-20.141131 -12.530267 27.811150 36.553151 0.556528 0.706188 0.019497 -0.012767 617797.000000 0 0 1
-21.153231 -13.122667 26.978250 36.708167 0.555257 0.745220 0.008203 -0.009975 1203820.000000 0 0 1
-22.492131 -13.431267 27.762450 38.171305 0.538324 0.756399 0.018826 -0.013180 663643.000000 0 0 1
-22.457431 -14.565467 28.514350 39.109554 0.575377 0.753806 0.019006 -0.012977 472937.000000 0 0 1
-21.459731 -14.584267 29.580650 39.347627 0.596911 0.720043 0.004899 -0.007972 568913.000000 0 0 1
-21.707131 -15.510567 30.774850 40.729211 0.620416 0.714232 0.008547 -0.009876 -426733.000000 0 0 1
-21.642831 -16.909467 30.461150 41.014922 0.663232 0.733726 0.017848 -0.008073 -30267.200000 0 0 1
-21.871731 -17.832467 31.523450 42.309543 0.684013 0.730161 0.015029 -0.007333 -14748.300000 0 0 1
-23.307431 -18.094467 32.043950 43.559853 0.660146 0.744200 0.041003 -0.009568 116330.000000 0 0 1
-23.809831 -16.990467 32.796750 43.945544 0.619789 0.728304 0.045382 -0.022169 -543208.000000 0 0 1
-25.072941 -17.317067 33.310650 45.145682 0.604435 0.740920 0.047808 -0.022139 -319278.000000 0 0 1
-25.763491 -16.297067 34.252750 45.854146 0.564020 0.727268 0.048812 -0.021665 -35153.300000 0 0 1
-25.275461 -16.253067 -33.056249 44.673557 0.571465 2.403794 0.052555 -0.023363 -483686.000000 0 0 1
-25.802591 -15.123067 -32.440349 44.123204 0.530141 2.396790 0.064292 -0.023727 -489974.000000 0 0 1
-25.105881 -14.652767 -31.136649 42.596946 0.528302 2.390523 0.064019 -0.015536 -404060.000000 0 0 1
-25.566211 -15.448067 -30.059949 42.377759 0.543530 2.359348 0.069719 -0.009492 157325.000000 0 0 1
-24.862231 -15.180867 -28.848549 40.997903 0.548177 2.351331 0.084590 -0.006363 23171.100000 0 0 1
-25.392811 -15.870967 -27.532949 40.678566 0.558612 2.314260 0.062613 -0.007334 223689.000000 0 0 1
-26.686371 -15.533167 -27.047649 41.048959 0.527127 2.290168 0.069697 -0.013151 415715.000000 0 0 1
-26.753101 -14.389167 -26.179749 40.101818 0.493467 2.282113 0.073288 -0.010125 -432666.000000 0 0 1
-25.861281 -14.385867 -24.931649 38.695557 0.507645 2.270907 0.062091 -0.021929 -929201.000000 0 0 1
-24.569331 -13.872967 -25.209449 37.836855 0.514018 2.299988 0.045662 -0.019641 270314.000000 0 0 1
-23.675131 -14.252967 -24.172749 36.714857 0.541905 2.289476 0.055532 -0.020923 -40346.800000 0 0 1
-23.081631 -15.666067 -24.333749 37.017816 0.596304 2.288096 0.046350 -0.018385 -1081710.000000 0 0 1
-22.044031 -15.851267 -25.273649 37.093926 0.623412 2.320391 0.028044 -0.014334 120232.000000 0 0 1
-21.725031 -17.239567 -25.355849 37.577902 0.670786 2.311428 0.037380 -0.017542 65833.300000 0 0 1
-20.894931 -17.664467 -26.619449 38.173638 0.701814 2.342456 0.026210 -0.012988 427382.000000 0 0 1
-21.583031 -17.664467 -27.902349 39.451258 0.685886 2.356413 0.028923 -0.014161 118496.000000 0 0 1
-22.647531 -18.576467 -27.944949 40.483527 0.686963 2.332672 0.039703 -0.019712 -386796.000000 0 0 1
-23.452231 -18.556267 -29.274749 41.849171 0.669375 2.345536 0.036314 -0.012246 -117600.000000 0 0 1
-22.759831 -18.970667 -30.437249 42.477315 0.694846 2.369644 0.021941 -0.009996 -77130.000000 0 0 1
-23.422731 -18.550367 -31.588449 43.480692 0.669832 2.384002 0.021117 -0.008856 -370465.000000 0 0 1
-22.610831 -18.810767 -32.896749 44.128117 0.693913 2.412055 0.015857 -0.009955 -128131.000000 0 0 1
-21.430331 -18.087367 -33.196949 43.456293 0.701005 2.440156 0.012042 -0.007583 437370.000000 0 0 1
-20.226831 -18.680367 -32.727749 42.768989 0.745672 2.442182 0.009074 -0.010240 226003.000000 0 0 1
-19.724931 -19.963267 -33.525749 43.721629 0.791403 2.444637 0.017011 -0.009829 -789822.000000 0 0 1
-19.373531 -19.713567 33.740750 43.616472 0.794097 0.686328 0.011549 -0.009269 55947.200000 0 0 1
-19.169231 -20.762567 32.836650 43.321925 0.825278 0.710603 0.014928 -0.006682 -522911.000000 0 0 1
-20.382731 -21.358167 32.117450 43.625195 0.808763 0.743339 0.017987 -0.002214 -270917.000000 0 0 1
-21.275531 -22.056567 32.973150 45.015208 0.803421 0.748825 0.015120 0.000176 -241170.000000 0 0 1
-22.501931 -22.396367 32.385050 45.351137 0.783047 0.775465 0.014198 0.007991 -344064.000000 0 0 1
-22.470131 -23.633367 31.435050 45.294649 0.810624 0.803749 0.023647 0.011299 -730040.000000 0 0 1
-22.108031 -24.854267 32.034850 46.181503 0.843809 0.804221 0.017870 0.014990 84316.600000 0 0 1
-22.025931 -25.886617 31.085750 46.060639 0.865802 0.829984 0.025932 0.017255 -47831.400000 0 0 1
-21.256231 -27.097087 31.635250 46.763966 0.905611 0.827813 0.035177 0.008890 -95252.400000 0 0 1
-21.935431 -27.693907 32.757050 48.178210 0.900911 0.823151 0.016071 0.006160 225530.000000 0 0 1
-21.197531 -28.684617 33.468250 48.910800 0.934382 0.817193 0.028795 0.005656 -725572.000000 0 0 1
-22.133931 -29.546637 -34.305349 50.396147 0.927860 2.319533 0.018357 0.000185 -321888.000000 0 0 1
-23.066431 -30.325527 33.541150 50.761270 0.920528 0.848962 0.020417 -0.000203 885019.000000 0 0 1
-24.282631 -29.638317 33.263650 50.739988 0.884398 0.855858 0.010199 0.001403 -901367.000000 0 0 1
-25.314551 -29.442807 -34.273049 51.791382 0.860648 2.293950 0.015096 -0.001069 -988809.000000 0 0 1
-26.250211 -28.428377 33.997150 51.507790 0.825213 0.849926 0.010538 0.004350 -89337.400000 0 0 1
-27.155041 -28.121677 -33.589249 51.540883 0.802884 2.280621 0.007796 0.009843 -353884.000000 0 0 1
-28.204691 -27.157637 -34.175149 51.970979 0.766488 2.288400 -0.001880 0.003927 -64534.800000 0 0 1
-29.207241 -27.898697 33.758150 52.640411 0.762488 0.874609 0.008338 -0.003157 235396.000000 0 0 1
-30.375661 -27.078727 33.623450 52.787069 0.728078 0.880243 0.018639 -0.011574 532943.000000 0 0 1
