# x y z rho theta phi s1 s2 stress_xx np intf bulk
-0.694107 -10.564332 -14.322993 17.811092 1.505188 2.505060 0.006292 -0.004490 -1947060.000000 1 0 0
2.191293 -13.385432 -13.056093 18.826394 -1.408528 2.337131 -0.001939 0.008283 -208634.000000 1 0 0
2.142293 -11.192232 -14.721893 18.616917 -1.381675 2.482879 0.005488 0.003530 1022870.000000 1 0 0
-5.577407 -6.342432 -16.457893 18.498544 0.849491 2.667453 0.023568 -0.003560 -767943.000000 1 0 0
4.511793 -14.082932 -11.386893 18.664045 -1.260755 2.226980 0.006673 0.001431 1469530.000000 1 0 0
14.223693 -10.479932 -7.930093 19.365660 -0.634996 1.992694 0.046579 -0.008207 1325120.000000 1 0 0
7.069593 10.765468 -10.813693 16.816967 0.989731 2.269235 0.021839 -0.010597 -217104.000000 1 0 0
5.803293 -4.267832 -12.625593 14.536099 -0.634102 2.623102 -0.008982 0.000140 2774050.000000 1 0 0
13.656893 0.528168 -10.047593 16.963013 0.038655 2.204736 0.023124 0.000713 536434.000000 1 0 0
14.030293 5.008968 -10.326893 18.126875 0.342907 2.176938 0.008352 -0.006007 -345921.000000 1 0 0
4.072393 4.326268 -13.461093 14.714007 0.815617 2.725930 0.003133 0.000684 1514550.000000 1 0 0
10.325293 -4.907332 -13.730393 17.866652 -0.443671 2.447279 0.015778 -0.007162 699792.000000 1 0 0
2.630693 -7.612732 -11.949393 14.410490 -1.238078 2.548498 -0.001136 0.000458 635306.000000 1 0 0
-5.463207 -2.049032 -15.141593 16.226922 0.358823 2.773778 0.010464 0.001585 498564.000000 1 0 0
10.660893 0.075868 -9.652693 14.381755 0.007116 2.306591 0.019017 -0.001921 2139190.000000 1 0 0
-1.425807 -9.526732 -16.968793 19.512341 1.422235 2.625277 0.020423 -0.009881 901635.000000 1 0 0
8.550693 1.719968 -18.014793 20.015129 0.198501 2.690701 0.017558 -0.009799 145986.000000 1 0 0
16.350993 -5.887732 -8.815793 19.486881 -0.345630 2.040247 0.059703 -0.009017 -541715.000000 1 0 0
10.180693 7.517768 -9.866393 16.047088 0.636058 2.232979 0.011828 -0.005851 827522.000000 1 0 0
13.786793 -2.273532 -10.621993 17.551961 -0.163436 2.220781 0.042589 -0.004579 369308.000000 1 0 0
7.268593 -1.855732 -13.641593 15.568212 -0.249968 2.638813 -0.000010 -0.002790 -410755.000000 1 0 0
-2.744407 6.662968 -13.789593 15.558913 -1.180082 2.660052 0.004576 -0.000654 1034710.000000 1 0 0
11.293493 1.778568 -13.999893 18.074935 0.156203 2.456795 0.022753 -0.010497 1001010.000000 1 0 0
-2.261307 10.724868 -12.867993 16.903300 -1.362993 2.436067 0.006476 -0.005843 -1601330.000000 1 0 0
2.935593 -1.162032 -15.312993 15.635081 -0.376917 2.938263 -0.002327 -0.003764 1205230.000000 1 0 0
-8.902707 0.494568 -15.339893 17.743030 -0.055496 2.615068 0.014587 0.001739 -1513220.000000 1 0 0
2.427093 -1.893932 -18.083993 18.344169 -0.662631 2.972970 0.007761 -0.011050 199828.000000 1 0 0
1.082693 7.917368 -13.252393 15.475233 1.434890 2.598978 0.003674 0.002622 -987028.000000 1 0 0
9.411093 -9.071232 -9.867593 16.377585 -0.767012 2.217434 0.017103 -0.002715 -27275.000000 1 0 0
3.945993 7.297368 -13.514493 15.857615 1.075089 2.591048 0.003122 0.000100 644646.000000 1 0 0
-2.502607 9.109868 -15.456393 18.114989 -1.302696 2.592959 0.010497 -0.003731 -554321.000000 1 0 0
5.560793 -7.735132 -15.293493 18.017924 -0.947498 2.584495 -0.004260 0.002366 -174860.000000 1 0 0
4.390093 7.327768 -16.388393 18.481031 1.031036 2.661102 0.014345 0.002364 441738.000000 1 0 0
-0.173807 5.079968 -13.499393 14.424628 -1.536595 2.781480 0.004116 -0.002839 2760620.000000 1 0 0
8.863093 4.255368 -16.578693 19.274740 0.447619 2.606312 0.017988 -0.010141 -997254.000000 1 0 0
5.367293 0.214668 -14.406793 15.375617 0.039974 2.784708 -0.006046 -0.002266 -265824.000000 1 0 0
6.298193 7.876668 -11.648793 15.407904 0.896299 2.428018 0.004268 -0.003475 -1128330.000000 1 0 0
2.853893 -8.413732 -14.987193 17.422730 -1.243780 2.606476 0.001468 -0.004035 -237937.000000 1 0 0
4.014693 11.490268 -13.822293 18.417377 1.234657 2.419619 0.018026 -0.004493 -2436750.000000 1 0 0
0.650893 -4.557432 -13.806893 14.554179 -1.428936 2.819752 0.004475 -0.000788 695748.000000 1 0 0
8.522493 -0.069932 -11.624393 14.414030 -0.008205 2.508943 0.001830 -0.002564 -631030.000000 1 0 0
-0.952707 -5.163432 -16.306493 17.130977 1.388338 2.830082 0.006132 -0.007952 251587.000000 1 0 0
4.489493 0.959068 -11.773793 12.637150 0.210462 2.769809 -0.005218 -0.000300 754792.000000 1 0 0
-2.897707 -7.309532 -15.663793 17.526562 1.193373 2.676360 0.009016 -0.003005 2954240.000000 1 0 0
11.275193 -3.739132 -11.351593 16.430756 -0.320212 2.333494 0.028341 -0.008489 446713.000000 1 0 0
6.517693 -7.055032 -12.527193 15.785574 -0.824967 2.487475 -0.005795 0.001671 -1819890.000000 1 0 0
3.462093 -4.057432 -14.758193 15.692453 -0.864406 2.794790 -0.001403 0.000675 4078200.000000 1 0 0
-0.514907 -1.713632 -18.405593 18.492363 1.278902 3.044681 0.011163 -0.013426 283477.000000 1 0 0
14.994993 2.897868 -8.491393 17.474301 0.190902 2.078230 0.020484 0.002799 607407.000000 1 0 0
6.945693 4.252668 -14.318793 16.472876 0.549396 2.624448 0.004613 -0.002634 3862530.000000 1 0 0
10.253293 -9.633832 -13.968793 19.825940 -0.754259 2.352615 0.031721 -0.007547 -534230.000000 1 0 0
9.039093 -3.162432 -15.587493 18.294155 -0.336552 2.590681 0.020041 -0.012494 -918692.000000 1 0 0
-5.210707 -2.182532 -18.047293 18.910835 0.396654 2.838226 0.006154 0.006505 -1482770.000000 1 0 0
5.075293 -9.076332 -11.015493 15.148580 -1.060933 2.384977 -0.005757 0.001149 885675.000000 1 0 0
-2.386407 3.982668 -17.288293 17.900884 -1.030967 2.879225 0.007280 0.007554 624414.000000 1 0 0
9.629793 9.161968 -14.351293 19.561037 0.760508 2.394500 0.028512 -0.012862 183632.000000 1 0 0
9.795493 9.995568 -11.538493 18.138354 0.795507 2.260279 0.017625 -0.009814 1548750.000000 1 0 0
11.980393 -5.890332 -9.665293 16.481617 -0.456957 2.197439 0.035416 -0.007258 -301516.000000 1 0 0
8.190293 6.784768 -13.615093 17.276710 0.691815 2.478448 0.006423 -0.003893 567467.000000 1 0 0
4.157993 -4.201732 -17.584893 18.551871 -0.790630 2.817302 0.008171 -0.007560 -118946.000000 1 0 0
9.332293 -7.414832 -12.352493 17.165532 -0.671400 2.374037 0.012158 -0.004699 337085.000000 1 0 0
12.089393 -8.636432 -8.900493 17.319357 -0.620313 2.110526 0.033500 -0.006958 -655296.000000 1 0 0
-2.805907 -2.531732 -13.894993 14.399778 0.734077 2.876030 0.004761 -0.002056 -2029260.000000 1 0 0
-0.300007 6.075168 -17.681193 18.698188 -1.521454 2.810261 0.017707 0.005905 1922340.000000 1 0 0
1.262393 -8.399332 -17.444493 19.402390 -1.421616 2.688482 0.019011 -0.010620 1669590.000000 1 0 0
0.120993 8.515268 -16.066993 18.184408 1.556588 2.654204 0.010920 0.003835 -422604.000000 1 0 0
1.842993 3.319168 -15.024893 15.497125 1.063926 2.894092 0.008230 -0.000826 2168090.000000 1 0 0
-1.832207 -0.481032 -15.919493 16.031800 0.256748 3.023157 0.007270 -0.002388 1453370.000000 1 0 0
14.100193 -4.249732 -8.466893 16.987169 -0.292736 2.092582 0.045198 -0.005747 244525.000000 1 0 0
0.620193 0.577868 -14.613193 14.637758 0.750085 3.083649 0.000486 -0.004430 1628870.000000 1 0 0
8.866993 2.730968 -12.615293 15.659737 0.298773 2.507463 0.006073 -0.001943 1335610.000000 1 0 0
5.882493 0.958968 -17.187893 18.191949 0.161599 2.807803 0.009098 -0.002657 571504.000000 1 0 0
15.365193 1.565568 -12.351493 19.776236 0.101540 2.245367 0.037244 -0.009282 -1019630.000000 1 0 0
8.829593 -11.171032 -11.934893 18.579433 -0.901936 2.268385 0.026118 -0.003605 924563.000000 1 0 0
-4.477207 0.745868 -15.111693 15.778623 -0.165076 2.849808 0.008633 -0.001200 1434730.000000 1 0 0
2.501193 5.085168 -17.248193 18.155304 1.113682 2.824148 0.016229 -0.000944 1850500.000000 1 0 0
5.956093 -11.744432 -12.273493 18.001259 -1.101452 2.321034 0.007068 0.000827 279227.000000 1 0 0
12.802493 7.111768 -8.548493 16.957529 0.507055 2.099150 0.012641 -0.009718 -1384800.000000 1 0 0
-4.867507 3.662268 -15.823393 16.955370 -0.645030 2.774119 0.002679 0.001512 1539490.000000 1 0 0
-0.589007 -4.533232 -19.159393 19.697194 1.441589 2.907376 0.019390 -0.013538 -791758.000000 1 0 0
9.779593 4.388768 -10.272693 14.846883 0.421829 2.334926 0.002293 -0.002976 -171318.000000 1 0 0
13.339993 3.663368 -12.808193 18.852731 0.268009 2.317715 0.015453 -0.013323 -282344.000000 1 0 0
-6.163507 5.815668 -17.258493 19.226710 -0.756369 2.685161 0.005563 0.000994 -1037420.000000 1 0 0
-10.022207 3.122468 -15.588693 18.793663 -0.302024 2.548946 0.016294 -0.001397 153066.000000 1 0 0
10.803593 13.328768 -8.108793 18.976991 0.889657 2.012296 0.044664 -0.014898 369290.000000 1 0 0
7.423293 13.429068 -12.110093 19.547365 1.065823 2.238934 0.034724 -0.011177 1042450.000000 1 0 0
5.300093 15.218368 -11.032293 19.529495 1.235664 2.171113 0.033524 -0.012804 826941.000000 1 0 0
14.129793 9.439168 -9.765293 19.598721 0.588948 2.092389 0.039433 -0.012667 -1307910.000000 1 0 0
8.406793 -17.166032 -2.012693 19.219723 -1.115395 1.675709 0.024582 -0.006780 -704520.000000 1 0 0
0.765793 -16.032632 0.046907 16.050979 -1.523068 1.567874 0.005563 -0.009931 3075890.000000 1 0 0
-9.205407 -11.745032 7.476107 16.690640 0.906030 1.106356 0.014543 -0.006277 962184.000000 1 0 0
2.110293 -15.922232 -2.646293 16.278012 -1.439027 1.734090 0.015092 -0.009646 2744960.000000 1 0 0
-1.203907 -11.082032 -9.405693 14.585194 1.462585 2.271662 -0.001589 0.000102 589492.000000 1 0 0
-4.722007 -12.706632 -12.951793 18.748461 1.214994 2.333417 0.009884 -0.005164 -583400.000000 1 0 0
-8.016307 -17.945932 -1.933793 19.749866 1.150697 1.668868 0.009062 -0.011021 683408.000000 1 0 0
-11.401307 -7.022332 -8.953593 16.108065 0.552046 2.160176 0.021026 -0.011101 2629910.000000 1 0 0
-13.624807 -11.649632 -4.821393 18.563273 0.707408 1.833536 0.038402 -0.008534 488643.000000 1 0 0
-5.766607 -13.423132 9.825407 17.606046 1.165034 0.978738 0.016607 -0.007714 731054.000000 1 0 0
0.114193 -14.082732 -3.675893 14.555018 -1.562688 1.826113 0.008104 -0.002912 384753.000000 1 0 0
-14.729007 -11.591832 1.787607 18.828430 0.666768 1.475711 0.038454 -0.007379 1394190.000000 1 0 0
-3.999707 -16.506032 -7.425893 18.536198 1.333061 1.982985 -0.001495 -0.008352 -2256360.000000 1 0 0
0.477093 -15.235132 -9.194293 17.800895 -1.539491 2.113563 -0.002003 0.005745 20622.300000 1 0 0
4.532993 -14.200932 -2.583193 15.129024 -1.261816 1.742381 0.012487 0.000389 -823061.000000 1 0 0
-3.576907 -18.036232 -2.354093 18.537575 1.375019 1.698130 0.003321 -0.017199 1010190.000000 1 0 0
-0.937507 -13.540532 0.754007 13.593875 1.501670 1.515301 0.006823 -0.005959 1904710.000000 1 0 0
-8.413107 -11.281332 -10.650993 17.649149 0.930018 2.218661 0.030136 -0.012216 836829.000000 1 0 0
-3.643407 -14.210732 -0.426993 14.676568 1.319818 1.599894 -0.003178 -0.001282 4247510.000000 1 0 0
-1.616407 -14.995532 -7.304593 16.758157 1.463418 2.021815 -0.005178 0.001228 -192525.000000 1 0 0
-14.263907 -7.976032 -1.910793 16.453792 0.509861 1.687190 0.025823 -0.008889 936704.000000 1 0 0
-10.684507 -7.245432 -11.784493 17.479395 0.595893 2.310668 0.028153 -0.009754 -46127.400000 1 0 0
-9.414207 -14.776732 6.833707 18.806346 1.003546 1.198911 0.005914 -0.001519 -759619.000000 1 0 0
-2.323207 -14.254032 -12.201093 18.906120 1.409231 2.272280 0.001228 0.000561 723018.000000 1 0 0
2.373793 -17.963632 -4.735493 18.728370 -1.439413 1.826423 0.029396 -0.004769 296130.000000 1 0 0
-6.541607 -9.579132 -9.282893 14.856799 0.971638 2.245703 0.009956 -0.008055 -631852.000000 1 0 0
-10.892507 -15.435432 0.128507 18.892215 0.956267 1.563994 0.022159 -0.002421 -305997.000000 1 0 0
-12.573407 -11.100232 3.990907 17.240448 0.723250 1.337192 0.025092 -0.004719 1729820.000000 1 0 0
-17.141807 -8.849132 -1.648393 19.361454 0.476548 1.656037 0.041506 -0.014563 1152970.000000 1 0 0
-1.442707 -19.216232 -4.011293 19.683380 1.495859 1.776025 0.015411 -0.012570 185526.000000 1 0 0
3.207993 -14.307032 -8.723593 17.061168 -1.350220 2.107508 0.003634 0.005415 1193110.000000 1 0 0
-4.273107 -8.070532 -13.076393 15.949451 1.083851 2.531971 0.008839 -0.003770 356286.000000 1 0 0
5.607493 -16.534032 1.257607 17.504278 -1.243821 1.498889 0.026460 -0.010056 3195510.000000 1 0 0
-2.814907 -13.786732 -3.222193 14.435380 1.369389 1.795908 -0.003776 -0.001261 -826583.000000 1 0 0
-0.398907 -14.052332 3.741107 14.547269 1.542417 1.310705 0.004561 -0.002506 -4955910.000000 1 0 0
1.296493 -16.261932 7.039507 17.767554 -1.491239 1.163422 0.023237 -0.006544 2045530.000000 1 0 0
-5.471207 -10.436932 -14.557693 18.729390 1.087964 2.461103 0.018531 -0.011099 -3723.830000 1 0 0
-0.336507 -17.295132 -5.867493 18.266425 1.551342 1.897811 0.015666 -0.005302 108045.000000 1 0 0
-6.449207 -13.450332 -1.341493 14.976759 1.123697 1.660488 -0.005224 -0.002094 2813150.000000 1 0 0
-1.679707 -17.749032 -0.148893 17.828957 1.476441 1.579148 0.003356 -0.009364 1908510.000000 1 0 0
-9.455407 -9.736132 -5.028093 14.473379 0.800025 1.925596 0.014336 -0.006505 958919.000000 1 0 0
-0.698607 -16.758232 4.858407 17.462260 1.529133 1.288852 0.016038 -0.007338 1293030.000000 1 0 0
-6.757307 -9.855032 -6.363993 13.538215 0.969752 2.060173 0.012047 -0.005763 2002770.000000 1 0 0
-5.981207 -14.480332 -8.619293 17.881472 1.179085 2.073759 -0.003363 -0.011100 -1082320.000000 1 0 0
-5.666107 -12.110932 -10.318893 16.889612 1.133197 2.228070 0.005999 -0.009889 925743.000000 1 0 0
-10.603907 -12.086032 -8.893093 18.373952 0.850626 2.076023 0.049529 -0.025949 -412809.000000 1 0 0
4.101793 -17.079032 6.590407 18.760371 -1.335095 1.211843 0.038646 -0.011442 -120679.000000 1 0 0
-6.644807 -14.374432 -4.194293 16.381998 1.137789 1.829710 0.001609 -0.010425 -1668010.000000 1 0 0
-2.823507 -12.299332 -7.124393 14.491471 1.345140 2.084753 -0.003142 -0.001695 1647670.000000 1 0 0
-6.994107 -12.885232 4.375907 15.300173 1.073498 1.280743 0.001173 0.002615 1639120.000000 1 0 0
2.679393 -16.434932 2.358107 16.818050 -1.409188 1.430120 0.020941 -0.009900 2817250.000000 1 0 0
-6.263207 -12.038832 7.223807 15.373504 1.091080 1.081634 0.005726 -0.001711 352106.000000 1 0 0
-11.046707 -12.849032 -1.213393 16.988222 0.860680 1.642283 0.028771 0.000585 704348.000000 1 0 0
-14.285607 -8.845232 4.586007 17.416893 0.554397 1.304347 0.029918 -0.008306 1140410.000000 1 0 0
-7.949207 -15.572832 4.380807 18.024829 1.098821 1.325295 0.001502 0.006753 253689.000000 1 0 0
-16.515907 -9.174032 1.118307 18.925873 0.507030 1.511673 0.036352 -0.010237 716298.000000 1 0 0
-6.638607 -17.086732 2.308707 18.475866 1.200222 1.445511 -0.004091 0.004841 542730.000000 1 0 0
-11.521207 -14.919532 -4.854093 19.465170 0.913223 1.822829 0.054089 -0.012693 -313334.000000 1 0 0
-10.026007 -9.907432 -12.650793 18.939920 0.779450 2.302238 0.037044 -0.011118 -1204540.000000 1 0 0
-4.322807 -16.003532 -4.489093 17.174156 1.306977 1.835255 -0.004150 -0.008636 -986256.000000 1 0 0
-11.820907 -8.331232 -0.124193 14.462320 0.613932 1.579384 0.007446 0.000430 1833640.000000 1 0 0
-9.613307 -11.245432 3.403507 15.180885 0.863486 1.344677 0.005266 0.004903 2390200.000000 1 0 0
-13.963907 -12.906632 -0.747293 19.029721 0.746071 1.610076 0.025639 0.001470 -780501.000000 1 0 0
5.639893 -14.973832 -7.061993 17.489876 -1.210580 1.986437 0.010486 -0.004222 1250490.000000 1 0 0
-7.401407 -10.546632 -1.303693 12.950362 0.958877 1.671636 0.001843 0.000045 897792.000000 1 0 0
-11.649507 -8.180232 -6.119293 15.494288 0.612198 1.976797 0.020549 -0.008947 -282211.000000 1 0 0
-14.390607 -6.515732 -9.391093 18.377621 0.425161 2.107152 0.030849 -0.017812 1271200.000000 1 0 0
-3.862207 -16.411232 1.426607 16.919822 1.339663 1.486380 -0.003082 -0.004866 1829300.000000 1 0 0
-7.900807 -15.660232 -0.021393 17.540413 1.103544 1.572016 0.009399 0.000890 1845390.000000 1 0 0
1.110393 -18.637032 3.670507 19.027468 -1.511287 1.376674 0.021840 -0.012136 -731628.000000 1 0 0
-14.131207 -8.841932 -4.666193 17.310232 0.559104 1.843735 0.028831 -0.014549 -1111110.000000 1 0 0
-3.254207 -14.435232 11.156107 18.531716 1.349068 0.924792 0.006105 -0.008776 70894.500000 1 0 0
-10.789707 -12.168632 -4.078293 16.766808 0.845388 1.816497 0.028631 -0.012363 2106860.000000 1 0 0
-9.951607 -10.718532 0.388307 14.631206 0.822484 1.544254 0.008222 0.002717 2107130.000000 1 0 0
0.086893 -13.113832 -11.117893 17.192663 -1.564170 2.274000 0.001636 0.001284 1121600.000000 1 0 0
-5.883007 -12.635832 -6.422793 15.346866 1.135061 2.002599 -0.001774 -0.011614 2865750.000000 1 0 0
1.835293 -15.889132 9.886307 18.803507 -1.455800 1.017177 0.017349 0.000111 446248.000000 1 0 0
-8.876507 -15.795432 -5.542593 18.947516 1.058812 1.867661 0.033847 -0.014983 407157.000000 1 0 0
-3.258107 -15.630732 5.860807 17.008354 1.365296 1.219001 0.004713 -0.002196 787660.000000 1 0 0
-17.450107 -5.446932 -6.679393 19.462518 0.302560 1.921110 0.026742 -0.013685 -205266.000000 1 0 0
18.862593 5.562768 -2.804693 19.864745 0.286781 1.712459 0.026024 0.005567 -1424180.000000 1 0 0
12.807693 -12.360732 -6.053093 18.800655 -0.767641 1.898597 0.029735 0.000596 748556.000000 1 0 0
11.023993 -13.514732 -1.668093 17.520243 -0.886554 1.666150 0.028215 -0.000550 3635640.000000 1 0 0
18.582793 -2.709732 4.607107 19.336191 -0.144799 1.330219 0.037039 -0.010775 -1720000.000000 1 0 0
9.108493 -16.626632 4.833007 19.564444 -1.069624 1.321182 0.056347 -0.024717 888051.000000 1 0 0
18.028093 -0.975932 6.840407 19.306883 -0.054081 1.208632 0.059270 -0.011293 -647603.000000 1 0 0
18.127393 -4.222032 -5.012093 19.275606 -0.228829 1.833842 0.067225 -0.008463 -165926.000000 1 0 0
5.256593 -11.771332 14.817707 19.640786 -1.150808 0.716003 0.003205 -0.000514 -602748.000000 1 0 0
15.867893 -8.883232 -0.841093 18.204649 -0.510355 1.617015 0.047994 -0.007779 116339.000000 1 0 0
13.906193 -12.629532 -1.455993 18.841634 -0.737324 1.648149 0.057979 -0.001851 974310.000000 1 0 0
10.951193 -1.869732 13.891207 17.787360 -0.169103 0.674596 0.008882 -0.009630 -253640.000000 1 0 0
16.906493 -6.082132 -1.373193 18.019642 -0.345335 1.647076 0.045741 -0.009206 -1376930.000000 1 0 0
17.805493 3.614568 -0.880393 18.189991 0.200281 1.619215 0.026191 0.004421 1054930.000000 1 0 0
9.723993 -11.096932 9.619007 17.613155 -0.851243 0.993063 0.017952 -0.003073 277248.000000 1 0 0
9.110393 -11.072432 4.339007 14.980821 -0.882307 1.276948 0.006784 -0.002734 -200189.000000 1 0 0
14.002693 -10.032432 6.833807 18.531757 -0.621691 1.193120 0.035834 -0.011710 -1688700.000000 1 0 0
16.345793 -0.588232 -4.682793 17.013509 -0.035971 1.849635 0.029611 0.002280 -620975.000000 1 0 0
15.774893 -0.564532 -1.681293 15.874277 -0.035771 1.676908 0.018662 0.000205 1969670.000000 1 0 0
12.813093 -5.217132 -0.282893 13.837407 -0.386674 1.591242 0.012060 -0.002704 1273260.000000 1 0 0
14.185093 -7.546432 1.064207 16.102733 -0.488917 1.504660 0.032986 -0.002089 1960730.000000 1 0 0
15.517693 2.531568 3.750207 16.163901 0.161716 1.336651 0.015656 -0.006906 906026.000000 1 0 0
15.871193 -7.030232 5.051807 18.078708 -0.416980 1.287592 0.040765 -0.009979 -759855.000000 1 0 0
13.623493 -12.074632 3.345807 18.509206 -0.725200 1.389033 0.030556 -0.004497 -70062.600000 1 0 0
13.920293 -0.861732 9.260607 16.741445 -0.061826 0.984650 0.033821 -0.010016 -688543.000000 1 0 0
14.132293 -2.832032 -1.484693 14.489528 -0.197775 1.673443 0.008270 -0.001798 -201108.000000 1 0 0
15.015493 1.867368 9.266907 17.743384 0.123728 1.021281 0.048972 -0.012740 -2496010.000000 1 0 0
14.381293 -10.203232 -3.120993 17.907208 -0.617060 1.745978 0.053859 -0.006728 993387.000000 1 0 0
7.319693 -12.627832 6.146807 15.837401 -1.045476 1.172206 0.002868 -0.004434 646524.000000 1 0 0
12.415293 -4.566932 7.051507 14.990668 -0.352485 1.081060 0.009814 0.001315 2132150.000000 1 0 0
14.976093 -8.845432 -5.666193 18.292915 -0.533506 1.885724 0.057711 -0.008656 1392360.000000 1 0 0
14.312393 -4.491832 4.686307 15.715681 -0.304107 1.267997 0.012721 -0.002509 1352010.000000 1 0 0
17.108293 -4.259832 0.967807 17.657194 -0.244030 1.515958 0.031457 -0.008766 -1411370.000000 1 0 0
10.209093 -14.417132 1.001407 17.694126 -0.954640 1.514171 0.030168 -0.002915 344446.000000 1 0 0
16.337393 -2.497032 8.631807 18.645473 -0.151668 1.089483 0.057630 -0.007796 679252.000000 1 0 0
15.976393 -2.578832 3.234307 16.503219 -0.160035 1.373539 0.018845 -0.005902 1364160.000000 1 0 0
7.813493 -15.090432 2.618507 17.193847 -1.093028 1.417908 0.016945 -0.009495 2727950.000000 1 0 0
16.517993 -7.073932 7.963407 19.654528 -0.404625 1.153633 0.044353 -0.003627 1419430.000000 1 0 0
10.268693 -8.509432 5.189007 14.310216 -0.691984 1.199731 0.002537 -0.002308 1412390.000000 1 0 0
10.944893 -11.793732 2.103507 16.226754 -0.822711 1.440798 0.020539 -0.001723 761138.000000 1 0 0
12.377993 -7.265232 12.045707 18.737592 -0.530767 0.872566 0.024206 -0.010156 -1414350.000000 1 0 0
15.217493 -9.861932 4.337907 18.645300 -0.575014 1.335990 0.045918 -0.005182 -2102980.000000 1 0 0
7.307893 -10.357632 7.878707 14.925142 -0.956351 1.014692 0.007073 -0.001472 827602.000000 1 0 0
15.254893 -3.321732 -4.348593 16.206663 -0.214402 1.842446 0.040250 -0.001818 2542130.000000 1 0 0
11.868693 -9.051532 9.818407 17.866091 -0.651541 0.988964 0.013788 -0.005280 -504256.000000 1 0 0
16.903593 -6.720532 2.470607 18.357584 -0.378419 1.435804 0.044609 -0.009107 1194770.000000 1 0 0
17.545093 3.940968 2.136607 18.108744 0.220952 1.452533 0.018816 0.001619 208309.000000 1 0 0
14.740293 -4.946032 8.880607 17.905436 -0.323740 1.051842 0.040951 -0.006788 1600680.000000 1 0 0
12.733993 -12.533832 6.183707 18.907399 -0.777477 1.237614 0.020254 -0.006821 -2027210.000000 1 0 0
18.208793 0.707368 -0.592593 18.232160 0.038828 1.603305 0.021772 -0.002325 1955090.000000 1 0 0
11.692193 -2.093032 11.083907 16.246266 -0.177135 0.819970 0.011976 -0.006532 1984600.000000 1 0 0
5.866493 -12.466532 10.708207 17.449810 -1.130961 0.910112 0.009988 -0.002084 -2956860.000000 1 0 0
10.725893 -4.944732 11.109507 16.214694 -0.431971 0.815986 0.007933 -0.002223 883955.000000 1 0 0
17.791193 1.472168 5.269807 18.613562 0.082559 1.283754 0.035914 -0.005806 -1990650.000000 1 0 0
12.225993 -7.666032 7.204507 16.129100 -0.560056 1.107748 0.014680 -0.007128 -828542.000000 1 0 0
10.744293 -7.900332 14.303707 19.556357 -0.634030 0.750410 0.039513 -0.012545 -607934.000000 1 0 0
14.165193 -0.179532 3.811807 14.670201 -0.012673 1.307947 0.008617 -0.004123 1552200.000000 1 0 0
11.648193 -7.636232 2.562607 14.161899 -0.580282 1.388843 0.008154 0.000532 -79866.000000 1 0 0
9.312993 6.046168 3.613807 11.676797 0.575826 1.256144 0.007892 -0.001409 3174340.000000 1 0 0
-3.956307 14.905068 -9.930393 18.341923 -1.311345 2.142903 0.004909 -0.004643 47580.300000 1 0 0
8.898293 -6.448332 9.258507 14.369431 -0.627092 0.870663 0.005674 -0.001705 1061900.000000 1 0 0
5.832893 -10.554132 -8.457093 14.728705 -1.065910 2.182412 -0.001943 0.002169 -938395.000000 1 0 0
5.341793 1.076368 0.556007 5.477450 0.198837 1.469113 0.004994 -0.000579 3725560.000000 1 0 0
-0.534507 9.861468 11.066207 14.832235 -1.516648 0.728623 0.003336 0.001275 797418.000000 1 0 0
-6.337207 -5.262632 1.032907 8.301951 0.693025 1.446056 0.006245 -0.003371 1890420.000000 1 0 0
-0.974607 4.108368 -10.853293 11.645708 -1.337877 2.770568 0.004677 -0.000641 2037670.000000 1 0 0
10.934793 5.768968 1.297807 12.431210 0.485467 1.466207 0.006206 -0.000327 846191.000000 1 0 0
-10.020007 -1.837032 -13.736193 17.101410 0.181323 2.503477 0.018666 -0.003373 497772.000000 1 0 0
7.418593 10.852568 -5.989893 14.446196 0.971176 1.998338 0.008494 -0.005116 1776630.000000 1 0 0
-12.425107 -2.856532 -9.669093 16.001075 0.225973 2.219655 0.010930 -0.005597 449372.000000 1 0 0
-3.917407 -8.721932 2.497407 9.882066 1.148654 1.315305 0.006535 0.000442 -1149590.000000 1 0 0
7.956793 -6.585832 -5.900293 11.895259 -0.691404 2.089806 -0.002152 -0.005145 2383070.000000 1 0 0
14.394793 3.084768 -4.217493 15.313820 0.211105 1.849807 0.020125 0.002863 1319780.000000 1 0 0
-2.675307 -4.908332 9.826407 11.305188 1.071758 0.517225 0.003089 -0.003875 1552250.000000 1 0 0
3.485593 -1.851132 -4.561193 6.031627 -0.488202 2.428302 -0.006358 0.000942 -2286540.000000 1 0 0
-4.038307 8.454968 -3.437093 9.980382 -1.125208 1.922380 -0.000935 0.000118 427317.000000 1 0 0
5.792293 0.092468 11.705607 13.060645 0.015963 0.459554 -0.000656 -0.009702 2007970.000000 1 0 0
7.036593 4.735968 12.424007 15.043237 0.592408 0.599024 0.001685 -0.005688 2363890.000000 1 0 0
1.213793 -14.464832 12.454407 19.126341 -1.487079 0.861678 -0.000488 -0.000812 -958315.000000 1 0 0
2.951993 8.711168 -9.086793 12.929366 1.244067 2.350126 0.003571 -0.002840 926568.000000 1 0 0
-4.380407 -8.918532 -4.601193 10.949847 1.114247 2.004469 0.007786 -0.003568 1293240.000000 1 0 0
5.725993 -6.590732 -3.971993 9.591739 -0.855492 1.997756 -0.003640 -0.003545 2145180.000000 1 0 0
-3.204907 3.488468 8.604907 9.822692 -0.827737 0.503243 -0.000655 0.000928 3383660.000000 1 0 0
-3.750107 3.219568 -11.151193 12.197460 -0.709424 2.724381 -0.000602 -0.000527 832963.000000 1 0 0
3.073193 -6.120632 8.623707 11.012492 -1.105467 0.671187 0.004380 -0.003195 -1020670.000000 1 0 0
-5.070107 -8.734032 10.482707 14.555977 1.044838 0.766756 0.004781 -0.006708 2158640.000000 1 0 0
-13.109707 -2.497632 6.423607 14.810987 0.188262 1.122195 0.004501 0.002806 -769546.000000 1 0 0
3.884293 -5.927232 -8.347293 10.949753 -0.990683 2.437697 -0.008079 0.000345 1064400.000000 1 0 0
2.891193 -0.547432 12.263207 12.611302 -0.187129 0.235498 0.002500 -0.007393 508340.000000 1 0 0
1.448293 -1.498032 -7.480893 7.765655 -0.802278 2.869946 -0.002826 0.001370 -170104.000000 1 0 0
3.579593 -3.523232 3.470207 6.104833 -0.777463 0.966193 0.003167 -0.000052 1150640.000000 1 0 0
1.515793 0.352968 -11.855693 11.957410 0.228783 3.011065 0.001263 -0.001402 1906330.000000 1 0 0
4.041993 3.548868 -10.641593 11.923744 0.720526 2.673589 0.000959 -0.000626 618679.000000 1 0 0
2.764793 3.240868 3.463807 5.490471 0.864504 0.888114 0.000216 0.002783 -473335.000000 1 0 0
-5.387707 0.878368 2.567507 6.032497 -0.161610 1.131157 -0.001811 0.000393 911968.000000 1 0 0
-9.462807 -9.348532 5.585307 14.426899 0.779323 1.173263 0.009066 -0.001607 -1804540.000000 1 0 0
-3.080307 3.911268 -0.618093 5.016807 -0.903695 1.694315 0.000368 -0.000555 935600.000000 1 0 0
-15.918707 -6.596532 4.889207 17.911556 0.392849 1.294324 0.037958 -0.008321 582728.000000 1 0 0
0.941793 6.727868 -8.050393 10.533755 1.431716 2.440669 0.002242 -0.000104 152214.000000 1 0 0
-1.706907 6.588868 -9.444093 11.641203 -1.317310 2.517108 0.000865 0.002177 308392.000000 1 0 0
2.047493 -0.364232 5.232407 5.630540 -0.176050 0.378309 0.007075 -0.001768 4423360.000000 1 0 0
-3.397707 -0.598432 -6.346093 7.223256 0.174340 2.643644 0.006178 -0.004083 -414003.000000 1 0 0
1.858893 -1.043732 -2.466893 3.260432 -0.511615 2.428917 0.002008 0.000456 1718640.000000 1 0 0
2.435293 -8.630832 -7.600193 11.755205 -1.295784 2.273835 -0.004406 0.000809 3020410.000000 1 0 0
-2.418107 13.969268 -5.606493 15.245342 -1.399393 1.947386 0.002022 0.002312 2947180.000000 1 0 0
6.806393 -5.147632 -8.202493 11.836637 -0.647517 2.336404 -0.004598 -0.002359 3793530.000000 1 0 0
-14.188607 -5.030532 -2.192893 15.212876 0.340720 1.715447 0.013061 -0.004819 -458583.000000 1 0 0
-2.729007 6.913668 -6.811493 10.081801 -1.194844 2.312605 0.000168 0.000587 -1803460.000000 1 0 0
-5.691107 -1.156532 -8.156993 10.013131 0.200487 2.522887 0.007507 -0.006086 848497.000000 1 0 0
-5.692207 -10.649032 3.456407 12.559851 1.079909 1.292004 0.002413 0.000747 -2593450.000000 1 0 0
8.073893 -7.662032 6.753107 13.019176 -0.759231 1.025461 0.003880 -0.002073 1520160.000000 1 0 0
8.841393 -5.909132 13.126607 16.893664 -0.589166 0.680889 0.017064 -0.006414 -179820.000000 1 0 0
-4.866507 9.559668 -0.716893 10.751004 -1.099922 1.637527 0.000988 0.000106 -123158.000000 1 0 0
2.771793 6.652168 12.160107 14.135147 1.175998 0.534988 -0.001128 -0.002259 926221.000000 1 0 0
5.970793 -2.824432 10.995507 12.826884 -0.441849 0.540943 0.001121 -0.006890 -287256.000000 1 0 0
-9.705107 -6.542332 -1.172493 11.762906 0.593140 1.670639 0.007650 -0.003285 -957705.000000 1 0 0
0.909693 -13.415832 6.288507 14.844440 -1.503093 1.133351 0.006799 -0.002524 1566750.000000 1 0 0
-0.601707 -3.238832 8.729407 9.330307 1.387111 0.360850 0.001839 -0.004130 -170023.000000 1 0 0
4.210893 0.724068 3.390207 5.454301 0.170286 0.900056 0.001570 0.001356 514208.000000 1 0 0
-10.298707 5.638068 8.241207 14.344640 -0.500886 0.958785 -0.005084 -0.007479 721077.000000 1 0 0
9.335393 7.910068 0.028607 12.235994 0.702936 1.568458 0.002834 0.002698 -1078390.000000 1 0 0
4.253993 2.843968 8.187207 9.654790 0.589299 0.558607 0.000613 -0.000967 3474520.000000 1 0 0
1.368493 2.666168 -9.851293 10.297048 1.096581 2.846277 0.002158 -0.001322 1204820.000000 1 0 0
-1.333607 -10.250432 3.047207 10.776611 1.441420 1.284125 0.005618 -0.003061 -326758.000000 1 0 0
-9.986007 9.538868 9.096107 16.536309 -0.762501 0.988350 0.008254 -0.008143 1028350.000000 1 0 0
9.751493 -1.982032 -7.672193 12.565134 -0.200523 2.227606 0.015344 -0.001456 2324750.000000 1 0 0
-5.279607 -1.936932 6.635607 8.698117 0.351624 0.703043 -0.006278 0.000164 55740.400000 1 0 0
3.205693 -7.834832 -4.895093 9.778701 -1.182419 2.095073 -0.008090 -0.001503 2125210.000000 1 0 0
-5.027907 4.914668 -13.104693 14.871677 -0.774009 2.649158 -0.002940 -0.002812 2090010.000000 1 0 0
-5.807107 9.722068 5.484307 12.582477 -1.032356 1.119793 0.001222 -0.001867 2048640.000000 1 0 0
-0.428807 -1.816632 -9.393593 9.577244 1.338994 2.945442 0.001082 -0.002081 824194.000000 1 0 0
-16.751607 0.186568 6.273607 17.888804 -0.011137 1.212478 0.018076 -0.007947 -424274.000000 1 0 0
-6.046607 -2.945032 4.082307 7.867649 0.453238 1.025265 -0.008136 0.000456 1724720.000000 1 0 0
1.045793 -5.732532 -5.126793 7.761418 -1.390349 2.292345 -0.003688 -0.000742 1093480.000000 1 0 0
-7.002807 1.363368 -8.510093 11.104943 -0.192283 2.443911 0.000731 -0.000365 1030210.000000 1 0 0
8.016193 1.961368 4.900807 9.598136 0.239961 1.034914 0.002312 -0.000440 1701480.000000 1 0 0
0.555493 -8.063732 -0.504493 8.098571 -1.502017 1.633131 0.000159 0.000550 1118950.000000 1 0 0
5.407493 5.470368 -3.302793 8.371042 0.791178 1.976374 -0.000769 0.000249 -36784.500000 1 0 0
-0.809707 -0.276532 -1.180393 1.457883 0.329101 2.514373 0.003609 -0.000928 1840000.000000 1 0 0
9.059893 6.289968 -6.311193 12.707341 0.606867 2.090539 0.004032 -0.003454 908449.000000 1 0 0
-15.025107 -7.173632 2.402207 16.822171 0.445440 1.427506 0.025178 -0.006259 1387850.000000 1 0 0
-6.487207 6.852768 8.884807 12.960868 -0.812795 0.815492 -0.001431 -0.002909 -1355610.000000 1 0 0
-9.461707 -3.211932 -9.728393 13.945682 0.327260 2.342827 0.011307 -0.005604 1675260.000000 1 0 0
14.892593 3.344468 -1.258693 15.315322 0.220908 1.653074 0.007097 0.001379 2671860.000000 1 0 0
12.052893 1.715268 -5.761993 13.469036 0.141363 2.012849 0.018274 -0.000120 -957083.000000 1 0 0
1.582393 -9.353632 12.665407 15.824252 -1.403209 0.642868 -0.001232 -0.005359 547050.000000 1 0 0
-3.706307 6.418868 7.907107 10.837939 -1.047154 0.753094 -0.000571 -0.000392 351788.000000 1 0 0
-3.987407 13.151168 -12.436793 18.534467 -1.276408 2.306365 0.006862 -0.007505 1066780.000000 1 0 0
-10.306007 7.889668 6.454607 14.495606 -0.653373 1.109309 -0.004055 -0.002804 -196142.000000 1 0 0
8.110393 -9.263032 -7.118893 14.221844 -0.851646 2.095042 0.005228 -0.001606 998577.000000 1 0 0
5.817293 -3.776932 -0.264393 6.940894 -0.575854 1.608898 0.000951 -0.001492 -566888.000000 1 0 0
-1.639307 -4.503132 4.170507 6.352846 1.221671 0.854655 0.000450 -0.001073 1133070.000000 1 0 0
9.833393 -2.055132 -2.601593 10.377257 -0.206030 1.824201 0.005392 -0.000556 -1422890.000000 1 0 0
13.533993 7.065368 1.392707 15.330624 0.481129 1.479826 0.004502 0.000592 -65938.800000 1 0 0
5.370693 -3.674632 -3.211993 7.257007 -0.600044 2.029299 -0.001005 -0.002488 -2717470.000000 1 0 0
-12.285707 -6.112332 1.858307 13.847473 0.461658 1.436192 0.005321 -0.002185 920720.000000 1 0 0
3.717893 -5.710832 -0.249093 6.818972 -0.993701 1.607334 -0.000703 -0.000176 -1029020.000000 1 0 0
-5.171307 3.703668 -8.719093 10.792690 -0.621513 2.511326 -0.001400 0.000817 1222240.000000 1 0 0
-1.719207 -9.362132 7.197507 11.933537 1.389186 0.923373 0.004471 -0.003638 1181290.000000 1 0 0
-7.430907 -7.501332 2.595407 10.873109 0.790114 1.329770 0.009008 -0.002316 -3777270.000000 1 0 0
-5.677507 13.087168 -8.593693 16.654117 -1.161477 2.112983 0.001193 -0.008494 1788890.000000 1 0 0
9.301693 -13.921732 -4.239393 17.271611 -0.981773 1.818785 0.019911 0.002860 1774900.000000 1 0 0
-6.432707 -5.153932 -6.796593 10.683464 0.675477 2.260332 0.013916 -0.005763 883731.000000 1 0 0
3.371893 0.396568 -6.222893 7.088816 0.117072 2.642143 -0.001893 -0.001025 1120220.000000 1 0 0
-3.792107 5.814268 5.007107 8.559025 -0.992871 0.945905 0.001384 0.002885 1397480.000000 1 0 0
-2.634107 -10.765132 -2.837293 11.440140 1.330823 1.821424 0.005532 -0.000604 844498.000000 1 0 0
-12.540607 -0.525632 1.648607 12.659424 0.041890 1.440198 -0.005078 0.000948 -24377.200000 1 0 0
8.404393 -11.989832 -6.151493 15.881774 -0.959426 1.968530 0.015615 -0.001823 -1271780.000000 1 0 0
6.080793 3.925668 1.089507 7.319422 0.573265 1.421390 0.002042 -0.000135 -369289.000000 1 0 0
3.437393 -4.850632 -11.011293 12.513707 -0.954290 2.646529 -0.005529 0.001159 258079.000000 1 0 0
-7.678807 4.249368 8.554507 12.255644 -0.505441 0.798188 -0.006236 -0.000789 2063690.000000 1 0 0
8.135293 8.695168 4.165507 12.615086 0.818652 1.234280 0.007738 0.000357 3041600.000000 1 0 0
0.195293 10.601168 -6.311093 12.339076 1.552377 2.107693 -0.003469 0.002288 1282800.000000 1 0 0
5.312893 8.041068 3.317007 10.192553 0.986922 1.239325 0.005629 0.000461 2513210.000000 1 0 0
8.026893 6.634668 -3.736193 11.063858 0.690725 1.915262 0.001664 -0.002614 29425.400000 1 0 0
10.522893 2.507968 -8.206693 13.578328 0.233970 2.219804 0.008806 -0.001656 1612600.000000 1 0 0
3.323793 -12.541632 -0.254093 12.977083 -1.311731 1.590378 0.000284 -0.001512 -1688430.000000 1 0 0
0.540793 2.128568 5.326407 5.761413 1.321996 0.391083 0.004999 0.000892 666036.000000 1 0 0
-4.809807 13.454668 1.466107 14.363559 -1.227471 1.468547 -0.002460 -0.001390 1485350.000000 1 0 0
8.163393 4.046168 -8.090993 12.185098 0.460160 2.296962 -0.000554 -0.000671 1528700.000000 1 0 0
-13.818207 -0.551232 -3.566693 14.281737 0.039871 1.823206 -0.003454 0.002682 -576046.000000 1 0 0
-8.588007 -0.002432 -0.584793 8.607895 0.000283 1.638785 -0.003991 -0.001584 243807.000000 1 0 0
1.792393 -3.783332 -1.179893 4.349531 -1.128360 1.845507 0.001284 -0.000685 -2213860.000000 1 0 0
8.029493 -5.632632 -0.238393 9.811021 -0.611727 1.595097 0.001874 -0.001756 1616670.000000 1 0 0
-2.342607 -1.317032 7.249307 7.731419 0.512167 0.355011 0.001428 -0.001827 2163630.000000 1 0 0
-5.844607 8.918368 -11.720093 15.844788 -0.990673 2.403393 -0.006315 -0.001185 -1636370.000000 1 0 0
-6.110507 9.244668 -8.811393 14.157783 -0.986744 2.242564 -0.006029 0.002126 732355.000000 1 0 0
-1.560607 14.004568 -8.477293 16.444693 -1.459819 2.112391 0.011720 -0.003181 331480.000000 1 0 0
-1.535007 7.143968 9.785507 12.212644 -1.359147 0.641398 0.001434 -0.001602 224488.000000 1 0 0
10.010093 2.334068 -3.963693 11.016383 0.229078 1.938850 0.007212 -0.000905 -1432160.000000 1 0 0
-2.972807 -7.543132 -6.986793 10.702882 1.195380 2.282065 0.006951 -0.004996 2013160.000000 1 0 0
-5.479707 -5.030532 -1.690693 7.628360 0.742687 1.794285 0.009436 -0.002196 197587.000000 1 0 0
5.638293 7.408568 -8.759593 12.783102 0.920260 2.325740 0.002899 -0.001798 637756.000000 1 0 0
-9.488107 5.195268 -7.466593 13.144010 -0.500965 2.174944 -0.006554 0.002379 165484.000000 1 0 0
-0.459607 6.149068 -5.285893 8.121757 -1.496191 2.279475 0.002546 0.001237 -370120.000000 1 0 0
-8.228707 2.758668 -6.329093 10.741475 -0.323474 2.200890 -0.003563 0.002535 736716.000000 1 0 0
3.605893 1.447468 -1.997493 4.368936 0.381728 2.045645 0.001096 -0.000768 1468610.000000 1 0 0
-6.677707 12.388568 -3.604793 14.528005 -1.076421 1.821543 0.004616 0.000522 1860040.000000 1 0 0
-6.624607 3.127968 -2.336793 7.689617 -0.441140 1.879569 -0.001393 0.000671 -1451270.000000 1 0 0
12.069293 4.000968 -0.729393 12.736074 0.320099 1.628097 0.002209 -0.000353 1025330.000000 1 0 0
2.227493 12.307568 -5.419793 13.631292 1.391749 1.979695 0.004262 -0.002706 -177934.000000 1 0 0
-9.113707 -1.434432 -4.312593 10.184091 0.156112 2.008062 0.004494 -0.000941 501319.000000 1 0 0
-1.220207 5.877968 3.511407 6.954811 -1.366113 1.041543 0.006275 0.000603 1688860.000000 1 0 0
11.453093 2.652068 12.145407 16.903187 0.227549 0.769113 0.025615 -0.003695 -999536.000000 1 0 0
-7.036107 -2.349832 -5.803893 9.418794 0.322321 2.234709 0.009712 -0.004439 1176730.000000 1 0 0
7.560193 -7.336032 10.888207 15.150146 -0.770351 0.768885 0.010734 -0.002755 -783136.000000 1 0 0
-5.421507 -1.992532 -10.998093 12.422599 0.352200 2.657998 0.010074 -0.003270 215499.000000 1 0 0
0.767193 -6.192032 4.521407 7.705386 -1.447525 0.943713 0.001623 -0.001867 635331.000000 1 0 0
-4.803707 -9.395432 7.387507 12.881188 1.098165 0.960011 -0.000344 -0.003161 1453110.000000 1 0 0
-8.860907 9.400268 1.675607 13.026449 -0.814926 1.441808 0.001144 0.000823 -81292.500000 1 0 0
-8.105107 7.289668 -9.083693 14.189626 -0.732479 2.265508 -0.006285 0.001397 -1511220.000000 1 0 0
-1.238907 -10.631432 -0.066593 10.703582 1.454787 1.577018 0.003382 -0.001144 31851.000000 1 0 0
-3.962607 10.318868 7.760907 13.506035 -1.204145 0.958650 0.002752 -0.001675 1281040.000000 1 0 0
-7.463507 12.118968 2.016107 14.374909 -1.018801 1.430081 -0.001758 -0.004112 3034400.000000 1 0 0
-8.128207 -8.221432 -2.964293 11.935105 0.791100 1.821791 0.014316 -0.004406 -909676.000000 1 0 0
5.416993 4.603568 -8.074493 10.757978 0.704400 2.419703 0.000670 0.000865 888688.000000 1 0 0
-8.923907 -0.198932 -10.352593 13.669377 0.022288 2.430052 0.007553 -0.003563 -3124910.000000 1 0 0
-15.213907 -2.316332 -1.565293 15.468630 0.151091 1.672161 0.005325 -0.000701 209614.000000 1 0 0
-7.190507 -5.852932 8.709307 12.720544 0.683208 0.816653 0.000097 -0.003835 -2151270.000000 1 0 0
8.018793 3.395068 -0.916193 8.755966 0.400505 1.675625 0.000071 0.001731 289348.000000 1 0 0
11.838093 7.131368 -5.805093 14.989862 0.542189 1.968463 0.000867 -0.005865 594029.000000 1 0 0
3.783293 13.304068 -9.469393 16.762486 1.293739 2.171127 0.011806 -0.011128 -672699.000000 1 0 0
-9.849107 5.466268 -0.604693 11.280543 -0.506675 1.624427 -0.007175 0.002909 1531440.000000 1 0 0
11.301493 -1.287832 -5.120193 12.473918 -0.113463 1.993768 0.025547 -0.002814 444480.000000 1 0 0
10.588793 1.744168 -1.156293 10.793594 0.163252 1.678130 0.007354 0.000873 1348420.000000 1 0 0
14.631293 5.156468 4.884307 16.264082 0.338836 1.265776 0.014437 -0.006147 2531480.000000 1 0 0
0.779893 -0.854032 10.254407 10.319422 -0.830742 0.112311 0.006008 -0.005674 2861750.000000 1 0 0
-7.852307 1.338468 -12.649793 14.948829 -0.168833 2.579621 0.005515 -0.002666 -1231520.000000 1 0 0
3.104093 -11.492032 -7.822893 14.244291 -1.306984 2.152197 -0.005345 0.000646 169629.000000 1 0 0
2.874193 5.053168 -6.793093 8.941007 1.053641 2.433753 0.000076 0.001485 -689503.000000 1 0 0
6.450393 7.976668 0.643607 10.278571 0.890799 1.508139 0.004617 -0.000334 -14749.200000 1 0 0
-9.044907 -5.424932 6.688307 12.488943 0.540256 1.005651 -0.001210 0.002178 40490.500000 1 0 0
-0.201407 -6.879232 -11.825193 13.682090 1.541527 2.614519 0.004227 -0.001118 2234910.000000 1 0 0
6.444893 -13.309132 -4.600193 15.486491 -1.119831 1.872393 0.007506 0.001045 3179920.000000 1 0 0
-3.309807 -0.380232 9.935207 10.478919 0.114379 0.323547 -0.000728 -0.000338 -69347.900000 1 0 0
8.548193 8.514768 7.052107 13.975160 0.783439 1.041858 0.004095 -0.000697 -551023.000000 1 0 0
-7.935607 5.658868 -2.686893 10.110195 -0.619463 1.839789 -0.000039 -0.001621 484292.000000 1 0 0
-5.372407 5.807368 -6.451893 10.208585 -0.824285 2.254936 -0.003885 0.001392 -1357030.000000 1 0 0
3.342693 -13.642432 2.576107 14.280262 -1.330509 1.389407 0.012352 -0.010246 -1857460.000000 1 0 0
-11.258207 -7.056632 6.426507 14.759515 0.559892 1.120298 0.010308 -0.003617 -26473.400000 1 0 0
-12.921507 -3.717432 -6.798393 15.066612 0.280128 2.038931 0.010661 -0.005160 1794190.000000 1 0 0
6.026593 0.419368 -7.252193 9.438749 0.069474 2.447044 -0.004334 0.002144 742492.000000 1 0 0
-1.465707 2.233468 -2.532093 3.680784 -0.990042 2.329418 0.001573 -0.000773 2905910.000000 1 0 0
7.581893 0.885768 -4.934593 9.089548 0.116300 2.144667 0.001259 0.001329 387314.000000 1 0 0
3.698493 -4.516732 10.906207 12.370330 -0.884671 0.491465 0.004581 -0.005683 -671535.000000 1 0 0
6.059893 -2.588732 2.181407 6.941352 -0.403725 1.251117 0.006202 -0.000086 -618965.000000 1 0 0
-6.443107 7.823668 1.154307 10.200776 -0.881865 1.457395 -0.002497 -0.000099 1561070.000000 1 0 0
6.006193 -3.445932 7.980407 10.565780 -0.520879 0.714674 0.005465 -0.006526 -1481480.000000 1 0 0
6.671793 -2.278832 -7.846293 10.548469 -0.329138 2.409582 -0.004559 -0.001321 1440910.000000 1 0 0
12.048893 -8.059632 -5.928093 15.661282 -0.589554 1.958992 0.029422 -0.008416 984817.000000 1 0 0
5.617293 -9.649332 10.148507 15.088266 -1.043610 0.833067 0.002043 0.000817 1959950.000000 1 0 0
-6.602307 7.526468 -4.442193 10.953139 -0.850715 1.988391 -0.004884 0.000360 480965.000000 1 0 0
-1.423207 -7.477232 9.616107 12.263932 1.382707 0.669557 0.003318 -0.006479 -583108.000000 1 0 0
10.089693 -9.218232 0.742707 13.686830 -0.740294 1.516505 0.003849 -0.001329 1132200.000000 1 0 0
11.068093 6.171268 9.915807 16.090695 0.508639 0.906831 0.010196 -0.003984 1496290.000000 1 0 0
-15.306007 -4.280832 -5.010493 16.664466 0.272715 1.876191 0.015524 -0.009361 2297560.000000 1 0 0
-4.821407 -4.563032 7.835207 10.269260 0.757873 0.702891 -0.002850 -0.001974 -1618680.000000 1 0 0
3.041393 10.852168 -11.094493 15.814784 1.297550 2.348334 0.005753 -0.005510 436682.000000 1 0 0
9.885093 -1.258532 1.634607 10.098064 -0.126635 1.408208 0.004471 -0.000664 -723418.000000 1 0 0
-1.607107 -2.637532 0.659207 3.158152 1.023550 1.360518 0.000866 -0.001865 -734121.000000 1 0 0
1.540593 3.012268 0.898607 3.500669 1.098039 1.311194 0.001841 0.001232 78702.000000 1 0 0
-8.982307 -2.450932 4.220607 10.222643 0.266378 1.145195 -0.007775 -0.000245 1774990.000000 1 0 0
9.826493 4.916168 -2.587193 11.288146 0.463885 1.802047 0.001746 -0.000295 1279960.000000 1 0 0
2.515693 8.464968 2.607107 9.207682 1.281921 1.283725 0.001820 0.000374 1364720.000000 1 0 0
-8.161407 -0.148632 2.411407 8.511495 0.018210 1.283551 -0.007471 -0.001734 1030190.000000 1 0 0
6.815293 2.057568 13.744707 15.478979 0.293203 0.477907 -0.001543 -0.008233 -1845470.000000 1 0 0
6.813693 4.403168 3.896607 8.999880 0.573716 1.123020 0.001446 0.000486 26781.500000 1 0 0
-0.391607 3.393368 7.836207 8.548360 -1.455901 0.411076 0.000544 0.000643 -232503.000000 1 0 0
2.725693 -10.206732 9.213407 14.017619 -1.309837 0.853601 -0.001870 -0.002733 3323170.000000 1 0 0
1.387593 -4.498532 6.892907 8.347118 -1.271601 0.599207 0.002984 -0.002773 -1027850.000000 1 0 0
-0.187707 10.801768 -1.887593 10.967061 -1.553421 1.743772 -0.000623 0.000401 2663830.000000 1 0 0
8.695893 5.622968 8.151007 13.178590 0.573998 0.903959 0.002935 -0.003144 737532.000000 1 0 0
2.605193 11.363168 -2.878893 12.008191 1.345425 1.812899 0.003789 -0.004657 1254290.000000 1 0 0
1.495993 2.407368 -6.756893 7.327279 1.014774 2.744413 -0.000796 0.001108 1215010.000000 1 0 0
-13.586707 -2.237932 3.509707 14.210032 0.163249 1.321226 -0.000040 -0.002080 -981600.000000 1 0 0
-0.996807 -10.705132 -5.239493 11.960174 1.477949 2.024256 0.000485 -0.001271 -412311.000000 1 0 0
-5.713507 2.853868 0.456907 6.402929 -0.463244 1.499376 0.000855 0.000564 1661650.000000 1 0 0
3.773093 7.278668 -4.980593 9.592786 1.092556 2.116713 -0.000060 0.000170 -2307570.000000 1 0 0
2.928193 9.739568 -6.472093 12.054936 1.278744 2.137535 0.003135 -0.001103 1517940.000000 1 0 0
-12.163107 1.704868 -2.581393 12.550352 -0.139260 1.777958 -0.006059 0.001924 550626.000000 1 0 0
-2.543407 9.667068 -5.725993 11.519901 -1.313527 2.090995 -0.003679 0.002676 -434575.000000 1 0 0
-1.435407 3.410068 1.784707 4.107814 -1.172376 1.121351 0.003619 -0.000471 2062690.000000 1 0 0
12.809993 3.785768 9.770707 16.549764 0.287353 0.939262 0.030150 -0.009752 1335190.000000 1 0 0
-2.524007 -9.472032 11.656407 15.230293 1.310378 0.699221 0.000913 -0.007911 1542800.000000 1 0 0
-0.489907 -9.005132 -7.470193 11.710516 1.516447 2.262571 0.000931 -0.002015 2401170.000000 1 0 0
2.405593 7.708268 -0.424893 8.086087 1.268295 1.623367 -0.000241 0.001654 2062260.000000 1 0 0
-11.805107 -1.312832 -5.560593 13.115040 0.110754 2.008638 0.002343 0.003171 -1714760.000000 1 0 0
-6.131507 -7.133232 -11.047793 14.509724 0.860773 2.436276 0.013385 -0.004152 221432.000000 1 0 0
-4.670607 -2.282732 -1.405593 5.385269 0.454602 1.834861 0.003329 -0.002348 -2135180.000000 1 0 0
-10.568607 3.733868 4.397507 12.040569 -0.339610 1.196923 -0.010826 -0.000508 2702990.000000 1 0 0
6.784193 9.344568 -3.618593 12.101258 0.942830 1.874468 0.004108 -0.001232 480885.000000 1 0 0
1.361593 -2.701532 -11.542693 11.932559 -1.103948 2.885265 0.000460 0.000368 -1010970.000000 1 0 0
1.168493 8.809368 7.577707 11.678698 1.438924 0.864726 0.000028 0.003310 2047330.000000 1 0 0
10.332893 0.461368 10.515607 14.749899 0.044621 0.777132 0.002847 -0.006067 -92626.000000 1 0 0
-5.207707 -0.882332 -3.966893 6.605676 0.167834 2.214957 0.006284 -0.004065 479298.000000 1 0 0
11.738793 5.700068 5.511607 14.165728 0.452041 1.171163 0.008384 -0.002493 1762800.000000 1 0 0
9.973193 -3.445432 3.688307 11.177620 -0.332633 1.234522 0.009604 -0.002897 -745251.000000 1 0 0
7.256193 -1.665032 -3.398493 8.183790 -0.225559 1.999037 0.000296 0.000617 -4435670.000000 1 0 0
2.324593 9.272168 10.510307 14.207160 1.325153 0.738039 0.000318 0.002731 942419.000000 1 0 0
2.437793 -10.812332 6.349407 12.773579 -1.349040 1.050574 -0.001117 -0.000930 1054890.000000 1 0 0
5.838893 -7.512332 -1.195893 9.589471 -0.910088 1.695831 -0.002202 -0.003209 -501054.000000 1 0 0
-0.232507 -5.598732 -2.302993 6.058352 1.529292 1.960739 0.000588 0.001387 2331180.000000 1 0 0
7.761793 -5.061832 2.744607 9.664390 -0.577883 1.282842 0.003411 -0.003019 1205990.000000 1 0 0
-2.647107 -12.584832 4.692307 13.689519 1.363477 1.220936 0.006056 0.000180 -284858.000000 1 0 0
4.866793 -10.307732 -1.101393 11.451990 -1.129676 1.667120 0.000138 -0.003273 1157940.000000 1 0 0
0.874993 0.224668 1.102807 1.425578 0.251336 0.686315 0.000823 0.001847 -1658330.000000 1 0 0
-1.710907 8.615868 2.451807 9.119855 -1.374770 1.298605 0.001525 0.003502 1002370.000000 1 0 0
-7.442707 0.604168 -3.117293 8.091750 -0.080998 1.966268 -0.001158 0.000966 -781191.000000 1 0 0
4.415993 -6.392732 12.926307 15.081692 -0.966283 0.541210 0.008159 -0.006411 -129954.000000 1 0 0
-5.083207 13.006868 8.412307 16.302900 -1.198238 1.028621 0.006138 -0.004971 1350240.000000 1 0 0
0.539393 6.078368 8.263107 10.272120 1.482288 0.636096 0.000715 0.003068 557119.000000 1 0 0
7.909793 -0.531032 -0.686593 7.957275 -0.067035 1.657189 0.004061 -0.000727 3340410.000000 1 0 0
2.465193 -9.227332 -2.354293 9.836845 -1.309732 1.812476 -0.004053 -0.001450 3171020.000000 1 0 0
-7.188607 12.298168 4.886207 15.059749 -1.041832 1.240361 0.004510 -0.007648 156586.000000 1 0 0
-14.924607 0.224668 0.136707 14.926924 -0.015052 1.561638 -0.007287 0.000937 -759318.000000 1 0 0
6.846793 -0.510632 3.985107 7.938539 -0.074442 1.044892 0.004173 0.001385 2239380.000000 1 0 0
-4.237007 -5.058032 5.094407 8.336000 0.873499 0.913305 0.000809 -0.001802 -114085.000000 1 0 0
2.835293 5.118768 6.884507 9.035326 1.064963 0.704471 0.001156 0.000680 -414515.000000 1 0 0
2.039393 -7.204132 1.825107 7.706468 -1.294928 1.331697 -0.000651 -0.000752 3785160.000000 1 0 0
-2.492107 6.491368 -1.719693 7.162807 -1.204236 1.813251 0.001553 0.000123 1650450.000000 1 0 0
2.758793 -3.802232 -6.535293 8.048475 -0.943113 2.518352 -0.006061 -0.000433 -772346.000000 1 0 0
-5.005207 0.891268 -12.189493 13.207202 -0.176221 2.746453 0.002624 0.001208 619723.000000 1 0 0
-7.404907 6.430568 -11.911593 15.429546 -0.715091 2.452776 -0.001885 -0.003330 1112050.000000 1 0 0
-0.964207 11.225368 -9.075193 14.467125 -1.485111 2.248875 -0.000062 0.002374 117728.000000 1 0 0
4.634593 5.879268 -0.552293 7.506682 0.903234 1.644436 0.001635 0.000514 623248.000000 1 0 0
-2.649907 13.520468 3.649807 14.252935 -1.377257 1.311838 -0.000419 0.000652 1501250.000000 1 0 0
1.311093 -7.912432 10.126207 12.917648 -1.406588 0.669866 0.000894 -0.003083 -595774.000000 1 0 0
13.002993 -0.268332 -0.995693 13.043819 -0.020633 1.647205 0.012983 -0.002779 -12171.700000 1 0 0
-1.029807 3.125868 -5.415693 6.337293 -1.252548 2.595528 0.002731 -0.002229 1234250.000000 1 0 0
6.578193 1.122668 7.339207 9.919525 0.169037 0.737912 0.003440 -0.002022 1105270.000000 1 0 0
5.434393 -6.165732 6.929207 10.750013 -0.848361 0.870327 0.003603 -0.002665 1384940.000000 1 0 0
12.224393 -4.893432 2.613307 13.424263 -0.380765 1.374875 0.006864 -0.001728 -1139200.000000 1 0 0
4.353893 -9.242132 13.835207 17.198440 -1.130542 0.636055 0.003730 -0.003134 323466.000000 1 0 0
-2.698107 -4.331632 -1.373793 5.284896 1.013720 1.833764 0.006175 -0.003089 1878320.000000 1 0 0
-9.290507 -5.205432 -7.573893 13.068049 0.510713 2.189001 0.014129 -0.006108 654942.000000 1 0 0
-10.511907 -3.146232 7.773907 13.447401 0.290816 0.954401 -0.006399 0.003283 -755245.000000 1 0 0
12.061593 -0.539632 1.736207 12.197854 -0.044710 1.427974 0.008008 -0.001564 -543964.000000 1 0 0
-7.681707 4.793068 4.326907 10.035151 -0.557850 1.125002 -0.006170 0.002139 2440230.000000 1 0 0
-1.175107 10.675668 7.040007 12.841825 -1.461164 0.990575 0.000423 0.002838 699895.000000 1 0 0
7.409893 -9.989632 1.936607 12.587681 -0.932591 1.416333 0.000103 -0.006252 1727500.000000 1 0 0
-4.339507 -1.770532 1.641707 4.966015 0.387386 1.233869 -0.003323 0.001248 1405240.000000 1 0 0
6.730993 -14.951832 -0.981693 16.426420 -1.147794 1.630595 0.019830 -0.006909 -1981750.000000 1 0 0
-10.497507 1.597368 2.398807 10.885932 -0.151008 1.348614 -0.012386 0.002799 -535358.000000 1 0 0
-3.047507 8.301068 -11.401993 14.429153 -1.218950 2.481940 -0.001750 0.001984 -443527.000000 1 0 0
-1.308507 -5.206832 -6.759293 8.631994 1.324589 2.470353 -0.001252 -0.000588 -168400.000000 1 0 0
12.818993 -0.430132 6.471907 14.366530 -0.033542 1.103488 0.010596 -0.004942 1940490.000000 1 0 0
5.925393 -13.223532 3.710407 14.957914 -1.149528 1.320123 0.004156 -0.004316 579298.000000 1 0 0
-5.550107 3.457268 -4.915593 8.180431 -0.557102 2.215419 0.000601 -0.000664 2658780.000000 1 0 0
-4.526107 8.127168 3.417807 9.910495 -1.062663 1.218699 0.001506 0.000462 -249295.000000 1 0 0
13.973993 6.102368 -3.939493 15.748999 0.411734 1.823624 0.022698 -0.002387 -158126.000000 1 0 0
-6.722107 -8.503132 5.295907 12.063856 0.901847 1.116322 0.006120 -0.001566 1067850.000000 1 0 0
1.631993 11.411268 2.830207 11.869731 1.428744 1.330038 -0.000623 -0.001083 978843.000000 1 0 0
-7.505807 7.362768 5.966807 12.089263 -0.775778 1.054615 -0.003462 -0.002319 -562940.000000 1 0 0
-17.373107 -4.067432 5.078707 18.551607 0.229980 1.293495 0.030394 -0.007065 909289.000000 1 0 0
7.439793 -13.074532 -8.584593 17.320194 -1.053461 2.089369 0.023182 -0.001760 -1208530.000000 1 0 0
-2.262307 12.831668 -2.814293 13.330041 -1.396283 1.783521 -0.006337 0.004238 1652110.000000 1 0 0
-5.494007 13.851068 -5.785893 15.984766 -1.193182 1.941169 0.008092 -0.001919 3324510.000000 1 0 0
-5.759907 2.501668 7.395007 9.701598 -0.409742 0.704020 -0.003770 0.001327 1354090.000000 1 0 0
-7.563607 5.115368 1.422507 9.241140 -0.594651 1.416250 -0.007401 0.002555 1143850.000000 1 0 0
10.651493 -5.660432 -5.034693 13.070689 -0.488468 1.966210 0.016300 -0.005165 2203320.000000 1 0 0
-9.453407 -0.806332 6.688907 11.608556 0.085089 0.956719 -0.012660 0.000777 -293163.000000 1 0 0
-11.258607 -4.584532 -2.588993 12.428880 0.386700 1.780638 0.004974 -0.003633 1214900.000000 1 0 0
6.591593 -4.351932 13.509007 15.648696 -0.583529 0.529089 0.009239 -0.009269 -767422.000000 1 0 0
0.287193 10.279968 -11.702093 15.578806 1.542866 2.420606 0.001270 0.000564 -1323640.000000 1 0 0
-11.810907 -3.313432 1.377307 12.343960 0.273509 1.458986 0.001788 -0.003064 4227140.000000 1 0 0
5.169593 5.975368 5.495107 9.624236 0.857572 0.963115 0.002841 0.001370 -4073850.000000 1 0 0
-7.067807 -0.007432 8.055407 10.716508 0.001052 0.720187 -0.012464 0.002833 173385.000000 1 0 0
1.679093 2.058268 9.660807 10.019332 0.886508 0.268324 0.002877 -0.003028 3798490.000000 1 0 0
10.341493 -4.992632 -2.022893 11.660400 -0.449774 1.745163 0.006506 -0.001442 77996.000000 1 0 0
-9.680007 -2.373932 -1.711993 10.112814 0.240494 1.740905 0.001522 -0.001891 -1692480.000000 1 0 0
-1.906107 -5.272832 -9.897593 11.375339 1.223917 2.626185 0.008606 -0.004553 2425730.000000 1 0 0
7.645793 -1.556032 6.620407 10.232750 -0.200773 0.867176 0.006586 -0.003870 2155630.000000 1 0 0
1.491193 -11.931132 -2.493993 12.279884 -1.446458 1.775315 0.001330 0.000166 -2762790.000000 1 0 0
-0.836607 -1.537132 4.735607 5.048630 1.072367 0.353986 0.006843 -0.002390 2305970.000000 1 0 0
7.581393 1.505668 9.941707 12.592938 0.196049 0.660856 -0.001922 -0.004551 1518090.000000 1 0 0
-3.752107 10.793568 -8.037193 13.970536 -1.236239 2.183762 -0.004692 0.002723 2548150.000000 1 0 0
-9.593707 12.757168 6.412307 17.201809 -0.926001 1.188805 0.004964 -0.002737 307688.000000 1 0 0
-2.483107 -2.547432 -11.053993 11.612320 0.798184 2.830238 0.009676 -0.003171 -1611110.000000 1 0 0
1.144693 -11.902432 11.046107 16.278658 -1.474918 0.824991 -0.005266 0.000818 1445330.000000 1 0 0
1.377793 3.504468 -1.921993 4.227726 1.196206 2.042738 0.000298 -0.000380 3144990.000000 1 0 0
-1.935207 -9.396132 -11.979993 15.347721 1.367679 2.466376 0.002822 -0.001310 1953770.000000 1 0 0
1.266093 -2.633732 1.551207 3.308441 -1.122690 1.082793 0.006237 -0.000904 1363710.000000 1 0 0
-1.045907 -2.306232 -6.610793 7.079209 1.145024 2.775776 0.000782 -0.003785 -1089230.000000 1 0 0
1.694393 5.838968 4.074707 7.319000 1.288366 0.980352 0.000368 0.003211 -1669010.000000 1 0 0
-11.076607 8.658768 3.650407 14.525528 -0.663493 1.316763 -0.008509 -0.001802 1956420.000000 1 0 0
-16.291107 -1.494932 3.822707 16.800241 0.091507 1.341247 0.012501 -0.003815 913563.000000 1 0 0
-12.089007 0.260468 6.707307 13.827506 -0.021543 1.064353 -0.012750 0.002724 339695.000000 1 0 0
-5.244007 3.071568 4.634407 7.642766 -0.529860 0.919298 -0.003744 0.002797 145592.000000 1 0 0
5.148093 -6.046932 3.964407 8.876078 -0.865515 1.107790 0.000733 -0.002210 2182400.000000 1 0 0
9.933093 3.525768 6.439107 12.351497 0.341079 1.022397 0.003499 0.001052 3185930.000000 1 0 0
-12.214107 5.869768 3.133807 13.908966 -0.447985 1.343537 -0.012230 0.000040 1477840.000000 1 0 0
-4.796507 12.293668 -1.288293 13.258976 -1.198801 1.668114 -0.007623 0.004734 655198.000000 1 0 0
-1.769807 -12.151932 10.346407 16.057703 1.426173 0.870654 0.007494 -0.004806 633956.000000 1 0 0
5.152093 6.349368 13.929807 16.152339 0.889122 0.530801 0.000303 -0.002381 -363711.000000 1 0 0
12.945393 -3.694332 -5.923593 14.707829 -0.277989 1.985317 0.021013 -0.005549 1760440.000000 1 0 0
3.498793 -2.561232 6.460807 7.780970 -0.631903 0.591089 0.004493 -0.001423 1424310.000000 1 0 0
7.275793 -11.824132 -0.614493 13.896937 -1.019178 1.615029 0.005775 -0.000291 -1529530.000000 1 0 0
-6.003607 -6.584932 -4.140893 9.826068 0.831544 2.005806 0.014179 -0.004439 -598600.000000 1 0 0
0.302593 -8.961332 5.056207 10.293797 -1.537043 1.057341 0.002104 -0.002392 1521320.000000 1 0 0
-10.254907 2.502168 -0.378793 10.562550 -0.239321 1.606666 -0.009912 0.003478 -515995.000000 1 0 0
-1.986907 9.058868 -0.313393 9.279499 -1.354882 1.604575 0.003117 0.001229 11427.700000 1 0 0
-3.528507 2.306368 -6.666393 7.887363 -0.578929 2.577734 0.003766 -0.003436 781424.000000 1 0 0
-12.661107 3.034768 6.416907 14.515170 -0.235254 1.112877 -0.007098 -0.003716 642024.000000 1 0 0
11.402993 1.729468 8.039907 14.059140 0.150521 0.962021 0.009409 -0.010251 -2855600.000000 1 0 0
6.026793 2.638168 -3.218593 7.324036 0.412612 2.025789 -0.000642 0.001348 753514.000000 1 0 0
10.494093 -2.316232 6.428507 12.522644 -0.217235 1.031712 0.009091 -0.002665 2789410.000000 1 0 0
-1.037807 11.059468 4.167607 11.864141 -1.477232 1.211861 0.001848 0.001813 857315.000000 1 0 0
-1.576707 -12.294432 7.465307 14.469619 1.443247 1.028704 0.003041 -0.000756 -1033840.000000 1 0 0
8.098693 8.619268 -7.757593 14.144287 0.816527 2.151319 0.004872 -0.005066 1523820.000000 1 0 0
-4.651507 -5.947232 -8.773393 11.574908 0.907047 2.430986 0.012271 -0.006388 566010.000000 1 0 0
-8.477107 -5.384232 -11.714693 15.430014 0.565865 2.432902 0.016295 -0.003520 1143470.000000 1 0 0
6.022693 -0.579532 -9.966293 11.659145 -0.095929 2.595971 -0.003890 0.001974 858073.000000 1 0 0
-11.195407 -5.509232 -5.372093 13.584850 0.457306 1.977351 0.007079 -0.006012 632840.000000 1 0 0
3.928493 8.903768 -2.711193 10.102510 1.155270 1.842495 0.003951 -0.002827 811020.000000 1 0 0
11.668293 -10.406632 -4.069693 16.155787 -0.728307 1.825443 0.022088 -0.004993 791164.000000 1 0 0
3.908293 -11.313332 3.892407 12.586384 -1.238173 1.256386 0.002297 -0.002179 867669.000000 1 0 0
-1.068307 0.883968 3.194107 3.482097 -0.691255 0.409565 0.004012 -0.000054 -1069560.000000 1 0 0
-10.628707 -5.175932 4.417107 12.620243 0.453175 1.213223 0.004703 -0.002649 3531880.000000 1 0 0
4.617693 -8.683232 2.743907 10.210320 -1.082038 1.298713 -0.002577 -0.001074 5103990.000000 1 0 0
-3.693407 -5.798132 2.634407 7.362044 1.003615 1.204846 0.002586 -0.000459 2541650.000000 1 0 0
9.960793 5.086668 12.405207 16.702717 0.472146 0.733694 0.014780 -0.002512 -284894.000000 1 0 0
1.601493 -12.336032 -5.281893 13.514468 -1.441696 1.972332 0.001737 -0.000557 1582510.000000 1 0 0
9.808893 -10.681432 -1.767893 14.609340 -0.827955 1.692105 0.003425 -0.002301 1517030.000000 1 0 0
9.542193 -4.482432 -9.236493 14.016363 -0.439155 2.290257 0.010919 -0.005337 2567520.000000 1 0 0
-7.376207 -3.083032 -13.140293 15.381184 0.395901 2.595017 0.011076 -0.000157 1966820.000000 1 0 0
0.444593 6.278768 -2.480093 6.765460 1.500105 1.946128 0.001820 -0.000886 2218120.000000 1 0 0
-5.987107 -9.556232 0.989907 11.320200 1.011109 1.483238 0.005641 -0.000407 357311.000000 1 0 0
-8.950307 -4.167332 0.486707 9.884915 0.435757 1.521539 -0.001365 -0.002317 2564660.000000 1 0 0
1.812293 3.810868 12.103807 12.818318 1.126892 0.335461 0.001821 -0.005641 362678.000000 1 0 0
6.590593 4.288068 9.631107 12.433088 0.576821 0.684658 -0.001673 -0.000335 2125680.000000 1 0 0
-8.292707 9.830568 -3.628293 13.363142 -0.870051 1.845763 -0.000437 0.002198 1453230.000000 1 0 0
16.452393 2.112268 -5.950793 17.622566 0.127688 1.915248 0.031409 0.005088 -50468.600000 1 0 0
-10.930207 2.666968 -5.140493 12.369592 -0.239323 1.999371 -0.006042 0.005139 1327530.000000 1 0 0
-13.837307 3.978468 1.449507 14.470672 -0.279966 1.470459 -0.012388 0.003809 294498.000000 1 0 0
-17.411307 10.445268 3.189807 20.553154 -0.540355 1.414968 0.023962 -0.006971 -364787.000000 1 0 0
-14.333407 2.845268 -1.215493 14.663545 -0.195959 1.653784 -0.007679 0.002896 -1036190.000000 1 0 0
-14.373807 5.073268 5.173307 16.096816 -0.339302 1.243603 -0.011051 -0.001314 -212725.000000 1 0 0
-17.341507 7.492768 3.092807 19.142490 -0.407845 1.408517 0.000684 -0.002859 -955423.000000 1 0 0
-15.114807 12.825668 -3.324893 20.100002 -0.703652 1.736978 0.046724 -0.005020 55497.800000 1 0 0
-8.460107 12.475668 -9.701993 17.926081 -0.974900 2.142686 0.013016 -0.015539 407007.000000 1 0 0
-12.207707 8.880868 -9.907393 18.056976 -0.628932 2.151574 0.011478 -0.004350 -708124.000000 1 0 0
-13.899907 -3.449932 -12.255393 18.849512 0.243282 2.278605 0.025036 -0.004837 -875439.000000 1 0 0
-14.618007 5.932768 -7.745993 17.575104 -0.385542 2.027216 0.016025 0.001877 113928.000000 1 0 0
-10.823407 13.660468 -8.523893 19.401322 -0.900758 2.025667 0.028203 -0.012073 -222041.000000 1 0 0
-10.909307 13.600668 3.906707 17.867667 -0.894767 1.350369 0.006943 -0.006945 -424050.000000 1 0 0
-15.191407 3.261768 3.071907 15.838390 -0.211500 1.375606 -0.012456 0.001365 -123082.000000 1 0 0
-11.027007 9.335768 -12.570493 19.151207 -0.702533 2.286808 0.018112 -0.015708 565345.000000 1 0 0
-12.908307 11.610668 -9.146193 19.623579 -0.732524 2.055653 0.033796 -0.017241 186194.000000 1 0 0
-8.746107 14.545268 -3.490293 17.327474 -1.029420 1.773615 0.010790 -0.006835 1473010.000000 1 0 0
-16.657707 8.210968 -4.157093 19.031044 -0.457970 1.791009 0.024345 -0.002674 -348033.000000 1 0 0
-16.889207 6.779368 0.295107 18.201435 -0.381715 1.554582 0.007535 0.003793 -582928.000000 1 0 0
-10.312807 2.880468 -12.610293 16.542992 -0.272369 2.437616 0.002858 -0.005034 545039.000000 1 0 0
-16.820107 0.942968 2.336407 17.007763 -0.056003 1.432988 0.005794 -0.003963 771691.000000 1 0 0
-12.609007 1.249368 -7.087793 14.518429 -0.098763 2.080814 0.000297 0.000281 -104808.000000 1 0 0
-12.290907 9.025568 -5.517693 16.216418 -0.633396 1.917983 0.014953 0.002466 -480587.000000 1 0 0
-9.668907 13.997768 1.231607 17.057026 -0.966308 1.498528 0.017585 -0.008886 26909.100000 1 0 0
-12.249807 11.209468 2.753007 16.831191 -0.741081 1.406492 0.002945 -0.001658 479654.000000 1 0 0
-12.551607 6.843268 -3.721893 14.772463 -0.499159 1.825489 -0.003014 0.008087 366117.000000 1 0 0
-15.786607 3.805368 -9.593593 18.860934 -0.236538 2.104411 0.026698 -0.004113 -1412310.000000 1 0 0
-15.040207 5.905368 -4.871893 16.876509 -0.374144 1.863643 0.005037 0.005348 1858260.000000 1 0 0
-17.784507 5.271568 7.446207 19.988100 -0.288163 1.189060 -0.002394 -0.012266 -917763.000000 1 0 0
-15.942807 10.244468 -2.026993 19.058618 -0.571139 1.677354 0.024499 0.003617 -2397960.000000 1 0 0
-8.768207 10.016368 -8.299493 15.687277 -0.851747 2.128287 -0.001136 -0.004237 124972.000000 1 0 0
-16.899807 4.278468 -1.402793 17.489328 -0.247957 1.651091 -0.004143 0.002884 -310179.000000 1 0 0
-10.189007 5.406068 -4.595093 12.415970 -0.487810 1.949908 -0.006754 0.003529 -97600.300000 1 0 0
-18.177707 2.824668 5.992607 19.347329 -0.154159 1.255879 0.020245 -0.012275 -369027.000000 1 0 0
-10.328207 10.194968 -5.736193 15.604908 -0.778906 1.947212 0.003619 -0.000401 974638.000000 1 0 0
-15.173707 0.514268 -5.934693 16.301118 -0.033879 1.943427 -0.005642 0.002871 463610.000000 1 0 0
-16.327107 -4.011032 -8.972093 19.056790 0.240896 2.061003 0.021392 -0.017991 -2328150.000000 1 0 0
-9.973507 9.708768 -1.086293 13.961055 -0.771948 1.648684 -0.001921 0.000947 2587120.000000 1 0 0
-17.437007 -3.063732 -3.263093 18.002318 0.173928 1.753063 0.026705 -0.006035 16410.700000 1 0 0
-11.881607 5.081768 -11.646893 17.396754 -0.404156 2.304314 0.010710 -0.003914 601839.000000 1 0 0
-16.275907 7.097368 5.797907 18.678692 -0.411206 1.255180 0.001447 -0.005232 -1415100.000000 1 0 0
-11.976107 6.037168 -8.877393 16.083614 -0.466923 2.155500 0.003838 -0.000706 25599.600000 1 0 0
-14.533707 8.545368 -0.222593 16.861243 -0.531526 1.583998 0.006509 0.001438 698869.000000 1 0 0
-15.036907 11.966968 3.790007 19.587778 -0.672199 1.376080 0.014261 -0.006399 1562220.000000 1 0 0
-17.155107 4.081768 -4.169893 18.120335 -0.233590 1.803000 -0.000100 0.001315 1153630.000000 1 0 0
-13.867207 13.575268 -0.750893 19.420381 -0.774760 1.609471 0.030722 -0.000219 267339.000000 1 0 0
-9.968607 6.840968 -13.202493 17.901893 -0.601439 2.400145 -0.001106 -0.009652 131372.000000 1 0 0
-15.761607 -1.041032 -8.364993 17.874146 0.065953 2.057816 0.007015 -0.008044 -763762.000000 1 0 0
-11.538707 11.969068 -0.061493 16.625406 -0.803703 1.574495 0.014142 -0.002582 -116466.000000 1 0 0
-12.019207 7.457468 -1.044593 14.183312 -0.555330 1.644512 -0.007650 0.006130 1825250.000000 1 0 0
-11.405207 0.225868 -11.869293 16.462378 -0.019801 2.376034 0.010776 -0.004071 635190.000000 1 0 0
-19.053507 -1.180032 -4.761693 19.674916 0.061854 1.815242 0.024291 -0.003280 -979535.000000 1 0 0
-17.815307 1.433668 -5.177693 18.607769 -0.080301 1.852773 0.001034 0.005305 -829109.000000 1 0 0
-13.297607 -0.052432 -9.634493 16.421101 0.003943 2.197792 0.008271 -0.000924 233771.000000 1 0 0
-6.184007 11.367668 -13.250993 18.521734 -1.072572 2.368035 -0.003608 -0.005508 -911054.000000 1 0 0
16.339793 5.763968 7.166907 18.750379 0.339128 1.178591 0.038541 -0.014528 -171719.000000 1 0 0
14.873893 10.178568 -5.451193 18.829536 0.600128 1.864503 0.041619 -0.014075 126377.000000 1 0 0
2.416693 16.966768 4.444207 17.704875 1.429311 1.317067 0.009285 -0.004462 2099320.000000 1 0 0
-3.961507 18.144368 -5.864293 19.475666 -1.355837 1.876651 0.013537 -0.004311 761498.000000 1 0 0
5.420293 14.630968 5.783107 16.639986 1.216006 1.215847 0.004978 -0.007109 -730327.000000 1 0 0
9.761193 5.996568 15.152207 18.995502 0.550888 0.647369 0.026316 -0.004338 -1211110.000000 1 0 0
4.626193 12.678368 -1.118593 13.542301 1.220920 1.653490 0.002534 -0.004467 1783170.000000 1 0 0
3.550293 13.576868 13.137207 19.222959 1.315028 0.818370 0.011571 -0.004285 -777109.000000 1 0 0
-0.858107 12.378368 9.325307 15.521653 -1.501584 0.926303 0.004279 0.002009 1174550.000000 1 0 0
-7.799707 13.901068 8.386307 18.011254 -1.059481 1.086467 0.012826 -0.010136 2321340.000000 1 0 0
11.444993 12.731568 -4.103593 17.604549 0.838564 1.806059 0.024328 -0.010555 -32653.100000 1 0 0
-5.751907 16.162368 0.891707 17.178525 -1.228890 1.518865 0.007844 -0.000254 747053.000000 1 0 0
3.187393 10.667668 6.865007 13.080021 1.280450 1.018261 -0.001767 0.003696 1413350.000000 1 0 0
-1.181907 15.685568 2.558407 15.936731 -1.495588 1.409563 -0.000408 -0.001725 -1778070.000000 1 0 0
9.865293 8.909268 9.550907 16.368228 0.734521 0.947761 0.012896 -0.005532 2350630.000000 1 0 0
7.176093 12.320268 6.277907 15.578750 1.043372 1.156027 0.008477 -0.007754 218048.000000 1 0 0
11.843693 14.018068 -1.523293 18.414660 0.869278 1.653613 0.014739 -0.003907 -894975.000000 1 0 0
9.774193 16.011668 -1.153793 18.794669 1.022734 1.632224 0.015294 -0.002143 385414.000000 1 0 0
10.034393 13.734468 3.061507 17.282867 0.939828 1.392715 0.010559 -0.002435 2424220.000000 1 0 0
-6.069807 14.590368 6.294007 17.009878 -1.176561 1.191765 0.000343 -0.005365 -580217.000000 1 0 0
-0.951807 18.222068 -6.275593 19.295926 -1.518610 1.902050 0.023711 -0.001608 2484010.000000 1 0 0
-3.591607 15.880368 5.503207 17.186362 -1.348372 1.244847 0.004416 -0.001151 1720780.000000 1 0 0
7.034893 12.311468 10.663307 17.741705 1.051664 0.926006 0.006937 -0.003397 2990330.000000 1 0 0
1.461293 14.666768 6.281507 16.022072 1.471491 1.167934 0.001443 -0.001366 -264355.000000 1 0 0
17.510893 7.634168 -1.393793 19.153447 0.411123 1.643631 0.036652 0.003141 178078.000000 1 0 0
2.098693 16.195868 -3.332493 16.667818 1.441932 1.772089 0.005826 -0.006361 1424510.000000 1 0 0
6.612193 11.115768 0.673907 12.951276 1.034174 1.518739 0.009138 -0.001678 1131160.000000 1 0 0
12.685793 9.303968 3.294507 16.073175 0.632803 1.364364 0.009572 0.003692 -1522230.000000 1 0 0
6.026393 14.158268 -3.449493 15.769368 1.168380 1.791326 0.007127 -0.007102 678206.000000 1 0 0
3.078793 16.448068 1.620607 16.812028 1.385755 1.474251 0.008168 -0.013200 -2407200.000000 1 0 0
2.776193 18.894768 -2.524593 19.263776 1.424911 1.702228 0.021584 -0.015943 -238741.000000 1 0 0
3.935093 11.950568 10.730607 16.536232 1.252697 0.864639 0.009371 -0.002180 2018980.000000 1 0 0
7.947293 11.546468 3.456007 14.436910 0.967974 1.329062 0.004059 0.001669 1202340.000000 1 0 0
0.715593 12.442368 0.268307 12.465817 1.513347 1.549271 0.001573 -0.002026 -2230590.000000 1 0 0
12.001393 9.803768 -4.530193 16.145276 0.684953 1.855204 0.015219 -0.007373 1411320.000000 1 0 0
-1.389207 16.411568 10.002907 19.269863 -1.486350 1.025003 0.012028 -0.008055 1016630.000000 1 0 0
8.241693 14.618768 -7.957793 18.573108 1.057439 2.013582 0.023608 -0.009592 1400090.000000 1 0 0
14.520993 7.556268 -1.389093 16.428207 0.479809 1.655453 0.017463 0.000487 1907740.000000 1 0 0
12.549393 8.343868 6.074507 16.248293 0.586766 1.187634 0.012508 -0.004672 -1082270.000000 1 0 0
-3.171607 14.209968 10.302607 17.836087 -1.351200 0.954978 0.011709 -0.006497 1214410.000000 1 0 0
-4.590407 17.155568 -3.106393 18.028728 -1.309346 1.743963 0.013419 -0.003868 -1500770.000000 1 0 0
-7.127707 16.394968 -1.749993 17.962786 -1.160697 1.668374 0.016309 -0.006675 1215210.000000 1 0 0
8.322493 11.234668 -1.801393 14.097045 0.933218 1.698932 0.010691 -0.003741 -1024500.000000 1 0 0
8.544593 12.897568 -4.119093 16.010130 0.985686 1.831003 0.022735 -0.007803 2057050.000000 1 0 0
2.514793 14.719268 -7.305393 16.623772 1.401580 2.025788 0.004995 -0.008063 -1137670.000000 1 0 0
11.351493 11.358368 9.742907 18.782789 0.785701 1.025450 0.024754 -0.014705 -369013.000000 1 0 0
8.575593 15.776368 1.559607 18.024066 1.072902 1.484159 0.009285 -0.002505 315299.000000 1 0 0
5.991093 9.986068 7.859507 14.049434 1.030417 0.977113 0.005156 0.004237 2851920.000000 1 0 0
14.441593 11.448368 2.784707 18.638115 0.670296 1.420826 0.016868 0.003126 2136460.000000 1 0 0
12.115993 12.599068 1.244107 17.523744 0.804941 1.499741 0.014027 0.002077 1858430.000000 1 0 0
5.164093 15.871068 8.244807 18.615464 1.256223 1.111965 0.016951 -0.010918 74138.500000 1 0 0
11.480193 15.025368 5.237407 19.621084 0.918361 1.300593 0.022150 -0.008887 39792.500000 1 0 0
5.925493 16.767768 1.854407 17.880390 1.231108 1.466898 0.003223 -0.014482 532529.000000 1 0 0
-0.622107 16.126168 -4.261293 16.691283 -1.532238 1.828955 0.005056 -0.001791 1071690.000000 1 0 0
15.963493 6.455168 2.600107 17.414444 0.384269 1.420928 -0.000199 0.000541 -543056.000000 1 0 0
7.625093 16.603668 -3.095593 18.531231 1.140284 1.738630 0.021414 -0.013805 428595.000000 1 0 0
14.890293 8.224068 7.505007 18.592505 0.504616 1.155285 0.040455 -0.011443 400886.000000 1 0 0
2.075993 12.926768 8.688507 15.713091 1.411560 0.984899 0.006137 0.000708 1941480.000000 1 0 0
15.945193 7.380868 -5.802893 18.504052 0.433521 1.889779 0.030626 -0.005113 -1954430.000000 1 0 0
-2.937607 16.987768 0.614507 17.250838 -1.399565 1.535167 0.002237 -0.004249 1303680.000000 1 0 0
-2.877107 18.700368 4.619407 19.476151 -1.418140 1.331331 0.008954 -0.003890 877656.000000 1 0 0
-0.729507 18.984868 0.828607 19.016940 -1.532389 1.527210 0.007070 -0.012455 352104.000000 1 0 0
7.058193 16.585268 -5.965793 18.986308 1.168443 1.890427 0.025100 -0.015213 150425.000000 1 0 0
10.976993 9.950868 0.864307 14.841199 0.736406 1.512526 0.004487 0.003566 -1178420.000000 1 0 0
9.062293 8.709468 14.403207 19.116285 0.765548 0.717499 0.026461 -0.006942 634751.000000 1 0 0
6.336993 12.284968 -8.380993 16.165363 1.094563 2.115838 0.019413 -0.008941 2076990.000000 1 0 0
6.380293 8.960468 13.378507 17.320005 0.952029 0.688136 0.012851 -0.009069 368243.000000 1 0 0
16.649993 9.400568 3.015807 19.356860 0.513982 1.414359 0.024369 0.000988 -86077.400000 1 0 0
2.522293 14.683668 -0.709193 14.915597 1.400681 1.618361 0.001499 -0.005472 832490.000000 1 0 0
9.097593 12.944768 8.345507 17.888005 0.958193 1.085419 0.014487 -0.014483 1554050.000000 1 0 0
7.212493 9.312868 10.593207 15.841894 0.911820 0.838360 0.007473 -0.002150 -133991.000000 1 0 0
4.338993 15.728868 -5.266893 17.145387 1.301629 1.883035 0.014149 -0.012061 1554290.000000 1 0 0
0.257993 16.346668 -8.202693 18.291099 1.555015 2.035830 0.016110 -0.003419 1385040.000000 1 0 0
-2.408007 15.688668 -2.010393 15.999203 -1.418498 1.696785 -0.004319 0.000091 -741223.000000 1 0 0
13.344393 10.573068 7.708207 18.689009 0.670042 1.145659 0.037820 -0.014663 1776760.000000 1 0 0
-1.093307 15.900368 7.143507 17.465587 -1.502145 1.149433 0.009957 -0.004382 4107500.000000 1 0 0
13.308493 13.388168 6.811907 20.068909 0.788383 1.224490 0.034639 -0.016188 -1015040.000000 1 0 0
5.420393 17.438568 4.620007 18.836900 1.269436 1.323005 0.006453 -0.013924 700181.000000 1 0 0
10.758793 9.471168 -1.771793 14.442780 0.721835 1.693783 0.003858 0.000451 219795.000000 1 0 0
3.219193 12.821268 4.804207 14.065153 1.324799 1.222211 -0.000738 0.002303 1868450.000000 1 0 0
-0.121007 18.119568 3.679607 18.489805 -1.564118 1.370451 0.003128 -0.004750 2916100.000000 1 0 0
-7.638907 15.859068 -5.833693 18.544404 -1.121916 1.890810 0.031165 -0.013282 390938.000000 1 0 0
-12.496607 -9.159132 8.179007 17.520019 0.632486 1.085085 0.024659 -0.007020 577555.000000 1 0 0
-13.258807 -11.796932 6.808207 19.008295 0.727119 1.204489 0.035336 -0.008467 -839986.000000 1 0 0
-6.608607 -12.175632 12.307907 18.531171 1.073518 0.844409 0.022416 -0.011613 -867872.000000 1 0 0
-1.834407 -10.528132 14.425607 17.952848 1.398289 0.637599 -0.000353 -0.006511 30313.800000 1 0 0
-8.876307 2.915568 11.028807 14.454202 -0.317364 0.702828 -0.002430 0.000057 1097370.000000 1 0 0
0.437893 10.071768 15.132207 18.182848 1.527346 0.587689 -0.003618 -0.005286 517691.000000 1 0 0
1.017293 -6.748332 16.609207 17.956632 -1.421176 0.389860 0.000312 -0.011677 1681210.000000 1 0 0
5.931793 2.319268 17.739907 18.848594 0.372715 0.344693 0.005849 -0.011885 1145120.000000 1 0 0
-5.079307 -3.076832 17.728307 18.696501 0.544643 0.323227 0.023950 -0.009928 867258.000000 1 0 0
-4.344707 8.121668 12.998207 15.930831 -1.079579 0.616486 0.001825 -0.003930 -859916.000000 1 0 0
0.128893 -4.856132 18.572207 19.197018 -1.544260 0.255834 0.011755 -0.020007 249382.000000 1 0 0
-11.634607 2.100968 11.191607 16.279749 -0.178654 0.812816 0.000997 -0.002683 1301390.000000 1 0 0
-3.463407 -6.124832 14.362407 15.993358 1.056154 0.455541 0.014366 -0.011565 993596.000000 1 0 0
-7.528807 -2.374732 14.681207 16.669137 0.305542 0.493370 0.014453 -0.000028 1993720.000000 1 0 0
-6.168907 -1.145532 10.576907 12.297912 0.183603 0.535415 -0.004203 -0.000213 800315.000000 1 0 0
-4.011507 2.377168 11.082407 12.023430 -0.534951 0.398268 -0.001299 0.001261 521863.000000 1 0 0
-6.493807 6.223168 13.511107 16.231062 -0.764120 0.587331 0.003021 -0.005993 1022910.000000 1 0 0
-9.071007 5.501368 12.548607 16.432157 -0.545169 0.701831 0.002683 -0.006925 384857.000000 1 0 0
-12.309907 -2.308732 15.700207 20.083839 0.185397 0.673356 0.012681 0.004310 1154750.000000 1 0 0
-3.513907 -7.649832 16.924507 18.902551 1.140199 0.461567 0.023863 -0.012248 -1933070.000000 1 0 0
-0.588607 -5.352132 14.392107 15.366344 1.461260 0.358001 0.004603 -0.008503 2361790.000000 1 0 0
-14.358407 -2.224332 13.525107 19.850442 0.153693 0.821190 0.009588 0.006008 212719.000000 1 0 0
-6.548507 1.454268 12.137607 13.867926 -0.218530 0.504888 0.001714 -0.000299 1203290.000000 1 0 0
2.173993 -2.214632 14.464107 14.793284 -0.794658 0.211352 0.001972 -0.006630 2650820.000000 1 0 0
-12.601407 4.013968 9.161507 16.088525 -0.308372 0.964967 -0.006146 -0.005221 -1359760.000000 1 0 0
-9.128607 -3.070532 12.576307 15.840554 0.324475 0.653549 -0.003401 0.006637 813820.000000 1 0 0
-7.198307 -7.257432 15.217707 18.332064 0.789488 0.591484 0.024335 -0.011853 -687721.000000 1 0 0
-3.257507 6.070068 19.387707 20.575235 -1.078260 0.341410 0.026396 -0.002884 -98586.000000 1 0 0
0.684193 5.289868 16.179207 17.035773 1.442170 0.318457 0.006985 -0.005310 623113.000000 1 0 0
3.313293 1.401268 16.772507 17.153964 0.400110 0.211282 0.006968 -0.009463 1060570.000000 1 0 0
-11.752907 11.425968 7.905007 18.198152 -0.771294 1.121441 0.006713 -0.006384 -765284.000000 1 0 0
0.598893 -9.387632 15.455007 18.092638 -1.507087 0.546757 -0.005554 -0.003208 -274630.000000 1 0 0
-2.495207 -3.701432 18.848007 19.369410 0.977652 0.232553 0.024173 -0.020014 560988.000000 1 0 0
-12.898807 2.268568 13.776507 19.008361 -0.174094 0.760110 -0.000906 -0.008310 -701591.000000 1 0 0
-5.463607 -0.685532 15.812507 16.743845 0.124820 0.335100 0.017752 -0.001011 1271230.000000 1 0 0
-4.554607 -5.926432 11.677907 13.865084 0.915545 0.569348 0.004950 -0.005383 213650.000000 1 0 0
2.385393 1.764768 13.924907 14.237540 0.636956 0.209948 0.001241 -0.007274 778190.000000 1 0 0
-0.002907 3.236168 14.311407 14.672736 -1.569898 0.222385 0.007380 -0.004962 -976452.000000 1 0 0
-13.161307 7.001768 12.219307 19.275794 -0.488916 0.884185 0.009151 -0.010617 1289430.000000 1 0 0
0.816193 1.358568 18.286707 18.355259 1.029808 0.086453 0.016662 -0.008500 1304490.000000 1 0 0
-2.039907 6.345368 12.518807 14.182576 -1.259752 0.489242 0.001009 -0.002419 1098220.000000 1 0 0
-13.477407 -2.562532 10.746707 17.426956 0.187893 0.906289 0.011267 0.003200 750138.000000 1 0 0
-2.640107 3.526668 13.463307 14.165740 -0.928184 0.316234 0.002111 0.000358 -855695.000000 1 0 0
3.486893 5.972068 16.351307 17.753571 1.042324 0.400118 0.004921 -0.003570 421106.000000 1 0 0
-3.910707 12.269868 12.337207 17.833956 -1.262251 0.806843 0.013192 -0.009412 670899.000000 1 0 0
3.695493 -1.484732 16.967207 17.428345 -0.382030 0.230550 0.008421 -0.012352 835334.000000 1 0 0
-15.735207 0.645768 8.995007 18.136260 -0.041017 1.051847 0.012933 -0.004947 752604.000000 1 0 0
-4.759607 4.570968 15.136007 16.512006 -0.765184 0.411138 0.013070 -0.005793 2227450.000000 1 0 0
-8.026807 -8.265732 10.372207 15.502730 0.800062 0.837857 0.007721 -0.007467 3433880.000000 1 0 0
-2.739407 -0.436732 14.745707 15.004365 0.158095 0.185949 0.010299 -0.004624 1898920.000000 1 0 0
-1.913307 0.955868 17.240507 17.372666 -0.463319 0.123426 0.017064 -0.009006 1372350.000000 1 0 0
-0.722007 -2.457132 14.355207 14.581864 1.284999 0.176546 0.009308 -0.005440 279152.000000 1 0 0
5.022593 -8.234532 16.536707 19.144102 -1.023098 0.528029 0.009178 -0.006704 174542.000000 1 0 0
-4.523607 9.903668 10.636907 15.221349 -1.142334 0.797057 0.000572 -0.006368 -715370.000000 1 0 0
-6.255907 1.999668 15.119307 16.484190 -0.309381 0.409800 0.019017 0.000385 152295.000000 1 0 0
-4.990407 6.858268 17.195807 19.173831 -0.941754 0.458229 0.023519 -0.005144 356434.000000 1 0 0
-4.070307 9.168068 15.715607 18.644066 -1.152972 0.568094 0.007813 -0.002608 -611501.000000 1 0 0
-4.586907 -9.773432 18.549307 21.462444 1.131989 0.527103 0.035034 -0.008898 20258.200000 1 0 0
-6.902507 -4.104032 11.103407 13.703041 0.536418 0.626153 0.000389 0.000734 422518.000000 1 0 0
-2.330307 -0.867732 19.601407 19.758504 0.356461 0.126185 0.026810 -0.010135 -710223.000000 1 0 0
-5.747407 -4.553132 15.328607 16.992054 0.669971 0.446175 0.020571 -0.009008 1414030.000000 1 0 0
-12.850207 0.091768 9.581307 16.029276 -0.007141 0.930120 -0.002310 0.002723 826262.000000 1 0 0
-14.588707 8.554068 10.357907 19.831508 -0.530321 1.021256 0.005524 -0.011807 -25875.100000 1 0 0
-8.449607 10.326168 12.983607 18.617188 -0.885013 0.799035 0.013561 -0.010897 -561068.000000 1 0 0
-10.586007 7.151068 10.774207 16.711818 -0.594107 0.870158 0.004245 -0.005064 -321193.000000 1 0 0
-9.953207 -6.609532 14.693107 18.937784 0.586196 0.682716 0.029294 -0.008092 -804084.000000 1 0 0
-0.751707 -13.323632 14.468007 19.682669 1.514437 0.745036 -0.004386 -0.004618 958619.000000 1 0 0
3.830593 -5.640232 16.882007 18.206807 -0.974198 0.383833 0.014493 -0.012036 1696690.000000 1 0 0
-7.352907 9.259668 10.447207 15.778176 -0.899676 0.847138 0.002175 -0.007170 876333.000000 1 0 0
-10.365807 -6.742632 11.689007 17.016049 0.576705 0.813526 0.015754 -0.005872 1550000.000000 1 0 0
-10.909307 -3.915132 10.628107 15.725709 0.344564 0.828689 0.002879 0.005123 -1024960.000000 1 0 0
-10.183407 -10.254732 9.780507 17.450491 0.788888 0.975841 0.018888 -0.008583 973655.000000 1 0 0
-10.005407 -3.728332 15.190707 18.567882 0.356693 0.612667 0.023009 -0.003890 1831020.000000 1 0 0
5.608593 -3.324232 15.963807 17.243839 -0.535037 0.387732 0.006625 -0.013098 1141670.000000 1 0 0
-11.365607 0.456868 15.260307 19.033201 -0.040176 0.640540 0.013098 -0.003745 -345897.000000 1 0 0
-3.196907 3.228468 18.666507 19.211500 -0.790310 0.238760 0.022230 -0.007155 -208937.000000 1 0 0
0.470493 7.319668 13.968907 15.777493 1.506607 0.483509 0.001434 -0.005213 961430.000000 1 0 0
-13.155707 -7.428632 12.002507 19.295528 0.514036 0.899456 0.016180 -0.006715 43685.600000 1 0 0
-1.608507 -1.088732 12.105407 12.260242 0.595025 0.159095 0.006126 -0.004385 96719.400000 1 0 0
2.007093 -4.878732 13.081007 14.104723 -1.180504 0.383341 0.002635 -0.008808 703989.000000 1 0 0
-14.551507 -4.023132 8.501807 17.326647 0.269737 1.057928 0.015026 -0.003596 -2453840.000000 1 0 0
7.920293 0.893968 16.126907 17.989090 0.112395 0.459030 0.009019 -0.009468 1051590.000000 1 0 0
-1.342707 11.339868 13.362807 17.577261 -1.452939 0.707125 -0.002855 -0.001769 1310470.000000 1 0 0
2.912493 -12.275132 -13.921493 18.787481 -1.337836 2.405352 0.001813 0.007695 -761175.000000 1 0 0
0.802393 -10.693332 -13.926493 17.576643 -1.495900 2.485414 0.000116 -0.000067 -1892770.000000 1 0 0
3.310993 -14.303732 -12.435493 19.240605 -1.343325 2.273542 0.006680 0.004842 -683422.000000 1 0 0
-5.035607 -10.311032 -16.104493 19.774463 1.116495 2.522506 0.013495 -0.013712 122919.000000 1 0 0
-1.021307 -12.046032 -14.929893 19.210717 1.486215 2.460944 0.005995 -0.003475 -266638.000000 1 0 0
5.720193 -15.039932 -11.909893 20.019133 -1.207358 2.207969 0.021466 0.004429 575539.000000 1 0 0
1.843493 -11.943132 -16.127393 20.152659 -1.417649 2.498527 0.009222 0.004617 -768744.000000 1 0 0
1.334093 -14.353132 -13.971193 20.074522 -1.478115 2.340561 0.004412 0.010903 -870457.000000 1 0 0
-0.941407 -10.605832 -15.891293 19.128594 1.482265 2.551270 0.014149 -0.010288 -1057090.000000 1 0 0
-5.910107 -5.564632 -15.030193 17.082189 0.755300 2.646396 0.019835 -0.003432 60623.000000 1 0 0
-6.356107 -7.721832 -16.549493 19.336817 0.882107 2.597996 0.019912 -0.003683 379482.000000 1 0 0
4.993893 -12.585532 -11.330293 17.655314 -1.193055 2.267574 0.003031 0.005897 -99503.000000 1 0 0
-1.711107 -15.489032 -13.052693 20.327587 1.460770 2.268053 0.003943 -0.000160 -37565.600000 1 0 0
15.536593 -7.237332 -9.018193 19.367304 -0.435936 2.055154 0.035739 0.000070 -66410.700000 1 0 0
19.218493 -3.567632 -4.031893 19.958322 -0.183546 1.774212 0.054161 -0.015359 644961.000000 1 0 0
15.112393 -11.538732 -8.771193 20.939450 -0.652103 2.003012 0.054022 -0.007490 609836.000000 1 0 0
18.350493 -3.604732 -6.478993 19.791716 -0.193968 1.904303 0.102604 -0.006021 836190.000000 1 0 0
9.737193 -9.166932 -15.369493 20.373190 -0.755241 2.425533 0.037542 -0.009663 365133.000000 1 0 0
1.438893 1.803468 -15.281293 15.454475 0.897369 2.991746 0.006104 -0.005345 210971.000000 1 0 0
4.869593 -4.401632 -13.970693 15.435917 -0.734966 2.702357 -0.005984 0.000193 1972230.000000 1 0 0
13.080293 -5.458132 -8.647293 16.603040 -0.395313 2.118614 0.040280 -0.005480 -1270260.000000 1 0 0
2.989493 0.883668 -12.306393 12.695087 0.287407 2.893499 -0.001890 0.000048 -733418.000000 1 0 0
0.641993 6.389668 -13.087593 14.578240 1.470659 2.685428 0.006962 0.000731 -193639.000000 1 0 0
3.171293 -1.212032 -16.895293 17.233021 -0.365058 2.943289 0.002622 -0.005788 -161770.000000 1 0 0
13.095893 4.259668 -11.366293 17.856085 0.314474 2.260813 0.002892 -0.009789 307402.000000 1 0 0
-3.707407 9.451068 -16.449293 19.329945 -1.196968 2.588635 0.014435 -0.005700 -385507.000000 1 0 0
-0.287407 -5.221132 -17.755693 18.509658 1.515805 2.855190 0.011310 -0.008719 434764.000000 1 0 0
-0.332307 -8.544532 -17.631293 19.595457 1.531925 2.690025 0.024240 -0.010766 -292045.000000 1 0 0
5.659393 -10.182732 -12.008293 16.730686 -1.063524 2.371348 0.002640 -0.000782 105238.000000 1 0 0
1.848893 -9.826332 -17.959493 20.555257 -1.384814 2.633590 0.022043 -0.008141 -428459.000000 1 0 0
11.124093 8.595868 -14.315693 20.064233 0.657887 2.365267 0.043058 -0.020533 -529174.000000 1 0 0
10.996993 -3.738032 -12.906093 17.363005 -0.327661 2.408801 0.025978 -0.009588 591563.000000 1 0 0
4.960793 7.404668 -12.316193 15.202867 0.980521 2.515158 0.001276 -0.001591 -1077410.000000 1 0 0
9.558593 -5.865332 -12.666493 16.917708 -0.550373 2.416913 0.004693 -0.003034 -1509620.000000 1 0 0
-3.196907 0.353468 -16.012593 16.332430 -0.110118 2.943364 0.008332 0.000402 -979599.000000 1 0 0
-0.709207 10.808368 -12.816893 16.780838 -1.505274 2.439948 0.006366 -0.000084 -2811970.000000 1 0 0
6.796493 -5.474032 -12.541893 15.279280 -0.678037 2.533682 -0.004844 -0.000284 -980197.000000 1 0 0
17.743693 -6.222132 -8.091693 20.470199 -0.337269 1.977181 0.044824 -0.014641 555685.000000 1 0 0
13.109893 4.751368 -13.952993 19.726398 0.347702 2.356504 0.011314 -0.015958 325653.000000 1 0 0
14.243293 0.834468 -11.489393 18.318675 0.058520 2.248744 0.028056 -0.002973 -52692.200000 1 0 0
14.837993 6.120968 -11.111493 19.521720 0.391253 2.176312 0.016519 -0.014892 -49984.300000 1 0 0
8.291993 1.529768 -11.751993 14.463978 0.182436 2.519225 -0.003506 0.001304 864538.000000 1 0 0
9.899893 1.221268 -8.892193 13.363026 0.122742 2.298869 0.006390 -0.001157 302876.000000 1 0 0
-0.091807 -5.781332 -13.001793 14.229506 1.554918 2.723144 0.003694 -0.002818 407952.000000 1 0 0
10.488193 -5.790032 -9.114293 15.053139 -0.504418 2.221158 0.020175 -0.007633 -580232.000000 1 0 0
10.316493 8.532168 -11.091993 17.385632 0.691014 2.262691 0.020428 -0.012278 820662.000000 1 0 0
8.492293 8.006868 -14.575693 18.672969 0.755985 2.466385 0.018367 -0.005342 1599510.000000 1 0 0
8.633593 10.587568 -10.580293 17.279413 0.886708 2.229771 0.024411 -0.008696 -504287.000000 1 0 0
6.940893 1.811868 -18.023293 19.398400 0.255344 2.762801 0.009837 -0.003311 -116273.000000 1 0 0
12.310593 2.492968 -12.984993 18.065869 0.199804 2.372811 0.022241 -0.008546 -1240780.000000 1 0 0
2.692093 -0.912832 -19.314293 19.522360 -0.326913 2.995463 0.016475 -0.014785 -471418.000000 1 0 0
10.296393 -2.153332 -15.530293 18.757466 -0.206163 2.546243 0.032712 -0.010096 444408.000000 1 0 0
8.309793 -0.778632 -13.022293 15.467354 -0.093428 2.571630 0.002457 -0.002999 564751.000000 1 0 0
0.558293 4.258868 -14.691993 15.307001 1.440450 2.857163 0.004149 -0.000429 695870.000000 1 0 0
4.057893 -7.704532 -15.739193 17.987454 -1.086026 2.636252 -0.000179 -0.002892 -2382140.000000 1 0 0
11.512393 -5.782532 -14.391593 19.315558 -0.465476 2.411448 0.037993 -0.011146 -256521.000000 1 0 0
-5.755407 4.300368 -16.972193 18.430225 -0.641699 2.741151 0.004587 0.000499 -310212.000000 1 0 0
11.459993 7.799068 -8.992593 16.523426 0.597551 2.146271 0.017380 -0.011142 -2547000.000000 1 0 0
9.577493 5.996768 -13.314293 17.463103 0.559412 2.437848 0.010286 -0.005559 256569.000000 1 0 0
12.094493 0.597868 -10.205493 15.836233 0.049393 2.271086 0.020161 0.001035 -1438040.000000 1 0 0
5.527193 -7.358432 -13.763693 16.557041 -0.926568 2.552220 -0.004728 0.000367 -602202.000000 1 0 0
8.628793 -10.196032 -10.718593 17.126102 -0.868460 2.247034 0.018352 -0.000351 184103.000000 1 0 0
10.259193 4.548868 -15.876293 19.442220 0.417347 2.526272 0.030011 -0.011338 -327047.000000 1 0 0
9.946393 -0.322032 -11.010793 14.841563 -0.032365 2.406680 0.012751 -0.001844 -1555980.000000 1 0 0
-1.685407 5.476768 -13.965493 15.095382 -1.272256 2.752227 0.004276 -0.001675 706645.000000 1 0 0
1.410693 -0.751932 -14.976793 15.061865 -0.489716 3.035258 0.000875 -0.003380 95270.300000 1 0 0
11.604593 -10.470932 -14.122293 21.065283 -0.734089 2.305552 0.055715 -0.008320 -89133.000000 1 0 0
9.297793 -7.753332 -10.792593 16.218605 -0.695066 2.298886 0.015214 -0.004627 42822.800000 1 0 0
14.022093 -1.011232 -9.649093 17.051295 -0.071992 2.172304 0.028775 0.001210 898193.000000 1 0 0
4.044293 11.126068 -12.289593 17.063991 1.222148 2.374896 0.015841 -0.007685 -1038940.000000 1 0 0
-1.265107 2.867568 -17.089893 17.374921 -1.155303 2.960211 0.004015 0.001790 -234961.000000 1 0 0
5.983893 -0.555632 -17.758993 18.748267 -0.092589 2.815290 0.000387 0.003009 163917.000000 1 0 0
6.415193 -6.611132 -16.081393 18.533023 -0.800439 2.621384 0.001339 0.001951 303642.000000 1 0 0
-1.686207 -5.441832 -19.835293 20.637240 1.270318 2.861902 0.028352 -0.016920 -1143810.000000 1 0 0
-0.043407 -4.321732 -15.243193 15.844058 1.560753 2.865311 0.001991 -0.005547 180510.000000 1 0 0
0.521893 0.666668 -13.040893 13.068347 0.906608 3.076761 0.001450 -0.003649 270119.000000 1 0 0
15.787393 0.690968 -13.645793 20.878862 0.043739 2.283088 0.050700 -0.015747 572710.000000 1 0 0
-0.192807 6.988268 -16.352493 17.784181 -1.543213 2.737594 0.012462 0.005816 -379015.000000 1 0 0
-4.796107 -0.638932 -18.373493 18.999898 0.132439 2.884098 0.007042 0.002604 -4822.980000 1 0 0
10.410093 -8.388332 -13.012593 18.656412 -0.678260 2.342680 0.015037 -0.011514 272714.000000 1 0 0
4.411693 8.688768 -17.248393 19.810724 1.100971 2.627338 0.020168 -0.004371 -389836.000000 1 0 0
9.166393 0.720068 -16.951593 19.284650 0.078394 2.644599 0.020534 -0.008067 -314898.000000 1 0 0
3.490093 4.854568 -18.476693 19.419983 0.947479 2.828634 0.022103 -0.002165 -278948.000000 1 0 0
1.568993 -8.208632 -15.900793 17.963256 -1.381935 2.657686 0.009949 -0.008323 -253041.000000 1 0 0
4.624993 7.795168 -14.881493 17.424524 1.035307 2.594527 0.006801 0.001678 774461.000000 1 0 0
-5.535607 -0.444632 -15.264793 16.243600 0.080150 2.792671 0.004678 0.001533 -218532.000000 1 0 0
2.838393 3.368568 -13.765393 14.453019 0.870608 2.831887 0.002949 -0.001362 -280209.000000 1 0 0
-2.144507 -10.392032 -18.116593 20.995337 1.367292 2.611750 0.028171 -0.011219 1713.970000 1 0 0
6.275893 -9.174832 -15.468893 19.048648 -0.970867 2.518492 -0.004829 -0.000277 40833.000000 1 0 0
-1.749107 5.400268 -17.543793 18.439277 -1.257566 2.828664 0.011153 0.008087 217449.000000 1 0 0
10.063493 -12.173632 -11.776293 19.701580 -0.880007 2.211467 0.041475 0.001740 -128887.000000 1 0 0
10.876893 3.577368 -9.410193 14.820799 0.317752 2.258716 0.006236 -0.003333 -823384.000000 1 0 0
4.793593 -0.336332 -10.956193 11.963687 -0.070048 2.728260 -0.004984 -0.000488 247199.000000 1 0 0
6.415893 9.448168 -11.534793 16.232159 0.974261 2.361166 0.011885 -0.007405 315027.000000 1 0 0
10.946793 -9.462332 -9.605793 17.367765 -0.712791 2.156855 0.033305 -0.004524 -619754.000000 1 0 0
3.250993 -2.517232 -14.557793 15.127284 -0.658870 2.866328 -0.003153 -0.002824 -38526.900000 1 0 0
9.206193 -4.512332 -14.824693 18.024612 -0.455729 2.536535 0.011810 -0.006359 969696.000000 1 0 0
-4.010707 -6.534432 -16.539893 18.230541 1.020306 2.707526 0.013531 -0.007376 -1071440.000000 1 0 0
5.843893 -7.678432 -11.201093 14.784244 -0.920242 2.430482 -0.004528 0.000978 24415.400000 1 0 0
5.605393 6.380068 -16.885593 18.901030 0.849943 2.675584 0.015696 -0.008151 -1109000.000000 1 0 0
9.111693 1.342768 -19.461293 21.530627 0.146314 2.699571 0.037075 -0.016088 508638.000000 1 0 0
13.131793 5.759868 -9.251593 17.064936 0.413350 2.143779 0.006839 -0.007073 159338.000000 1 0 0
-1.498807 -0.920332 -17.429693 17.518208 0.550681 3.041024 0.009389 -0.003984 413081.000000 1 0 0
-0.319007 -0.715732 -19.699893 19.715471 1.151517 3.101836 0.013571 -0.012047 -229399.000000 1 0 0
3.048293 6.465568 -16.605993 18.079122 1.130236 2.735111 0.011326 0.004834 125531.000000 1 0 0
7.667793 3.788768 -15.650493 17.835014 0.458928 2.641452 0.008801 -0.005969 -264664.000000 1 0 0
3.146793 -9.991632 -14.921893 18.231782 -1.265688 2.529513 0.002405 0.002593 -43831.500000 1 0 0
8.993793 -10.397232 -13.314793 19.138298 -0.857648 2.340211 0.022498 -0.006185 747119.000000 1 0 0
3.866393 0.038368 -14.830993 15.326735 0.009923 2.886560 -0.002521 -0.004373 -2586020.000000 1 0 0
-1.172907 -3.055332 -18.924393 19.205296 1.204256 2.970349 0.019528 -0.008518 191200.000000 1 0 0
9.215793 9.955968 -13.021793 18.804766 0.823987 2.335708 0.026457 -0.014180 11649.400000 1 0 0
4.680793 2.113668 -10.740093 11.904915 0.424152 2.695538 -0.004131 0.001564 -101078.000000 1 0 0
-0.294307 7.056168 -18.926693 20.201382 -1.529111 2.784454 0.025714 0.001835 9507.000000 1 0 0
0.883893 -1.960332 -17.730293 17.860220 -1.147203 3.020899 0.010309 -0.009445 -2225930.000000 1 0 0
-4.352207 -2.272632 -14.033293 14.867409 0.481233 2.805033 0.009933 -0.002699 -2835010.000000 1 0 0
10.143193 5.982768 -10.328993 15.664162 0.532909 2.290820 0.009212 -0.005442 134486.000000 1 0 0
8.408493 5.634768 -17.296193 20.040250 0.590395 2.612118 0.028129 -0.016446 -706257.000000 1 0 0
11.220893 0.232768 -13.618093 17.646956 0.020741 2.452301 0.018960 -0.001423 242657.000000 1 0 0
6.772193 11.987068 -11.739693 18.093446 1.056541 2.276851 0.027224 -0.012305 -335311.000000 1 0 0
-0.828307 0.577868 -15.279993 15.313334 -0.609147 3.075592 0.003562 -0.005147 -603874.000000 1 0 0
-4.213307 -3.095532 -18.904993 19.614612 0.633639 2.871784 0.016138 -0.001557 -103077.000000 1 0 0
5.769893 -12.064932 -13.850993 19.253681 -1.124710 2.373727 0.002360 0.002333 -343854.000000 1 0 0
2.188693 -4.818632 -14.125493 15.084400 -1.144443 2.783111 -0.001587 -0.000670 -480465.000000 1 0 0
11.835293 1.790868 -15.529793 19.607545 0.150177 2.484926 0.039490 -0.010461 368380.000000 1 0 0
9.758393 2.247468 -13.873493 17.109972 0.226364 2.516387 0.013193 -0.007810 740028.000000 1 0 0
-2.226907 -4.210232 -16.372493 17.051208 1.084275 2.858498 0.007951 -0.007992 -1297880.000000 1 0 0
-2.668907 10.235368 -14.323393 17.805769 -1.315723 2.505502 0.014213 -0.005950 328950.000000 1 0 0
3.498793 5.804968 -13.725793 15.308056 1.028376 2.682914 0.004736 -0.000345 -6799.240000 1 0 0
-4.956107 -2.592032 -16.530893 17.451419 0.481876 2.815346 0.008769 0.000237 328152.000000 1 0 0
-4.239107 6.114668 -13.642993 15.539963 -0.964602 2.642317 -0.002201 -0.000130 -1003840.000000 1 0 0
5.968693 -1.162632 -14.106293 15.361136 -0.192379 2.734588 -0.003402 -0.000292 -2630310.000000 1 0 0
6.805393 -2.969032 -12.611593 14.634917 -0.411383 2.609499 -0.004278 -0.002524 1753390.000000 1 0 0
3.112393 -3.263432 -18.351593 18.897564 -0.809083 2.900631 0.009904 -0.013897 -90562.300000 1 0 0
7.499893 -12.059132 -12.070493 18.637807 -1.014410 2.275273 0.022582 0.004157 -814916.000000 1 0 0
-6.145907 -5.578132 -17.745993 19.591018 0.737008 2.704114 0.039977 -0.000191 569889.000000 1 0 0
0.572793 8.733268 -11.942493 14.806120 1.505303 2.509159 0.002848 0.000259 258210.000000 1 0 0
0.473893 8.590468 -14.544393 16.898523 1.515687 2.607420 0.005514 0.005036 -593577.000000 1 0 0
7.772593 -2.442432 -15.021793 17.088971 -0.304466 2.644629 0.004042 -0.009858 -758991.000000 1 0 0
14.216193 1.557468 -8.923393 16.856832 0.109121 2.128647 0.011367 0.005837 808184.000000 1 0 0
2.874393 10.772168 -14.685493 18.438152 1.310037 2.492236 0.012181 0.004632 -242974.000000 1 0 0
6.214193 0.974468 -15.552993 16.776810 0.155547 2.757271 0.004660 -0.004902 798383.000000 1 0 0
16.787593 -5.332432 -10.283093 20.396080 -0.307562 2.099217 0.084326 -0.016141 769540.000000 1 0 0
4.951793 -4.353332 -11.256393 13.045234 -0.721171 2.611725 -0.005020 0.001577 -217869.000000 1 0 0
8.682893 -3.525532 -17.101693 19.501023 -0.385695 2.640304 0.005563 -0.011212 547784.000000 1 0 0
13.461993 -9.384532 -8.906993 18.671615 -0.608786 2.068073 0.052000 -0.006680 -453434.000000 1 0 0
2.406893 -7.809232 -13.547693 15.821416 -1.271823 2.598836 -0.000243 -0.001305 307448.000000 1 0 0
-6.695707 -2.469432 -18.529993 19.856767 0.353331 2.773965 0.010868 0.001993 -855688.000000 1 0 0
-1.480907 -6.529932 -15.707893 17.075450 1.347781 2.738650 0.009144 -0.008632 742984.000000 1 0 0
1.906393 -7.291032 -18.399493 19.883028 -1.315051 2.752851 0.023213 -0.013821 -77323.700000 1 0 0
5.411693 11.009068 -14.387193 18.907070 1.113918 2.435561 0.025442 -0.012101 -1068210.000000 1 0 0
5.545793 -3.431132 -17.337893 18.523796 -0.554050 2.781827 0.010740 -0.007585 -382771.000000 1 0 0
4.010793 13.057068 -14.015493 19.570578 1.272771 2.369068 0.023677 -0.009925 139468.000000 1 0 0
9.458593 10.107568 -15.643093 20.888615 0.818554 2.417169 0.039589 -0.016979 224064.000000 1 0 0
2.634593 3.838268 -16.298093 16.949962 0.969255 2.863357 0.010296 -0.002057 222655.000000 1 0 0
16.664193 1.703668 -11.447893 20.289210 0.101881 2.170303 0.044939 -0.009990 -407541.000000 1 0 0
9.889493 -3.636832 -10.559793 14.917702 -0.352397 2.357274 0.016143 -0.003954 67099.200000 1 0 0
14.607593 -2.105432 -11.993193 19.017131 -0.143147 2.253189 0.059189 -0.007556 487575.000000 1 0 0
-2.604407 -8.723232 -16.284593 18.656518 1.280661 2.631836 0.011134 0.001671 -333430.000000 1 0 0
13.924593 8.145868 -8.846293 18.398542 0.529316 2.072380 0.028956 -0.011167 -550948.000000 1 0 0
-8.168407 0.278368 -16.729593 18.619335 -0.034065 2.687151 0.009888 0.001135 -646237.000000 1 0 0
-3.288607 3.965468 -15.984793 16.794448 -0.878436 2.829817 0.001660 0.002171 -337572.000000 1 0 0
15.158693 4.033168 -9.634493 18.408581 0.260039 2.121597 0.023801 -0.002810 1437100.000000 1 0 0
5.416093 1.080468 -13.076993 14.195394 0.196907 2.741985 -0.003972 -0.000203 236320.000000 1 0 0
7.854693 -7.747932 -12.864593 16.947696 -0.778556 2.432689 0.007200 -0.001219 -2927080.000000 1 0 0
3.273693 -6.168032 -11.820193 13.728752 -1.082851 2.607991 -0.002465 0.000407 -951253.000000 1 0 0
-3.215007 3.626168 -18.606593 19.227341 -0.845427 2.886799 0.009413 0.004935 -871300.000000 1 0 0
0.982293 5.141268 -17.740293 18.496365 1.382011 2.854684 0.016588 -0.006648 -607708.000000 1 0 0
6.253293 7.179068 -10.193793 13.948337 0.854211 2.390326 0.001403 -0.002565 472913.000000 1 0 0
9.768693 3.716668 -11.732093 15.712510 0.363555 2.413841 0.012597 -0.004226 287841.000000 1 0 0
4.412293 1.548368 -17.568993 18.180629 0.337495 2.881467 0.007522 -0.003390 156888.000000 1 0 0
2.644293 8.147868 -13.266893 15.792102 1.256982 2.568258 0.004136 0.000855 -1910900.000000 1 0 0
14.349993 -3.502632 -9.852793 17.755795 -0.239405 2.159046 0.048433 -0.003784 -74364.700000 1 0 0
-1.186607 9.363668 -16.332393 18.863546 -1.444744 2.617579 0.018163 0.003458 -1547800.000000 1 0 0
-5.113007 2.095368 -15.746193 16.687600 -0.388936 2.804096 0.007756 -0.001679 568732.000000 1 0 0
4.476893 4.345868 -11.934493 13.467043 0.770549 2.659874 0.001401 -0.001373 592630.000000 1 0 0
9.125093 3.169568 -17.742593 20.201809 0.334309 2.643023 0.020537 -0.009568 839625.000000 1 0 0
-4.119507 14.333268 -13.548293 20.148676 -1.290931 2.308264 0.010471 -0.010254 -362500.000000 1 0 0
15.482493 -4.847132 -7.940293 18.062406 -0.303406 2.025953 0.048861 -0.007353 60205.500000 1 0 0
1.358993 9.101268 -16.948193 19.285258 1.422572 2.644171 0.014205 0.005274 49394.000000 1 0 0
0.631993 -3.221232 -12.887593 13.299090 -1.377061 2.892183 0.000944 -0.002085 81242.200000 1 0 0
7.574693 3.559868 -13.014993 15.473806 0.439335 2.570107 0.001606 -0.001346 -128915.000000 1 0 0
-2.696007 7.604468 -15.057493 17.082871 -1.230092 2.649695 0.005427 -0.002245 -974330.000000 1 0 0
12.077293 -5.056532 -11.030093 17.119943 -0.396506 2.270882 0.044934 -0.010615 -1029670.000000 1 0 0
0.796693 -4.533032 -20.026593 20.548662 -1.396820 2.915695 0.027177 -0.016042 443014.000000 1 0 0
3.505393 -4.631932 -16.231093 17.239227 -0.922965 2.797912 0.001022 -0.004700 431832.000000 1 0 0
-5.453407 4.139568 -14.403393 15.947833 -0.649287 2.697863 0.001012 0.001350 308929.000000 1 0 0
12.254993 -7.449632 -9.919893 17.438066 -0.546197 2.175921 0.031756 -0.005950 101504.000000 1 0 0
-1.936407 -1.832132 -15.018993 15.253738 0.757735 2.965928 0.009214 -0.001925 299730.000000 1 0 0
7.101293 5.863268 -14.269593 16.983155 0.690194 2.568486 0.010488 -0.003535 -306373.000000 1 0 0
4.448193 -5.493532 -18.441893 19.750157 -0.890160 2.775573 0.009863 -0.009792 168036.000000 1 0 0
7.641293 7.316768 -12.233093 16.173219 0.763706 2.428557 0.006294 -0.004860 -978374.000000 1 0 0
12.204493 -2.486532 -10.942593 16.579289 -0.200988 2.291636 0.031945 -0.008351 721511.000000 1 0 0
7.491893 -0.649832 -10.604293 13.000068 -0.086521 2.524753 -0.004236 -0.000280 -871546.000000 1 0 0
5.332493 3.997068 -14.380693 15.849806 0.643225 2.707639 0.000915 -0.001564 1027220.000000 1 0 0
14.765893 2.949468 -12.871693 19.809377 0.197154 2.278088 0.021735 -0.016213 -46287.100000 1 0 0
-6.593107 6.554268 -15.904093 18.421934 -0.782444 2.612616 0.004859 -0.000460 364180.000000 1 0 0
-11.130407 3.758868 -16.584093 20.323562 -0.325686 2.525259 0.043397 -0.018581 -15919.100000 1 0 0
-4.886507 6.658768 -17.810493 19.632391 -0.937714 2.707375 0.004636 0.001927 310000.000000 1 0 0
-10.037807 1.535868 -15.625493 18.635248 -0.151831 2.565305 0.033592 -0.011870 -895518.000000 1 0 0
-7.401907 5.811168 -18.240293 20.524770 -0.665584 2.665291 0.008303 0.002672 -585062.000000 1 0 0
-8.610507 3.822168 -15.900693 18.481933 -0.417766 2.606727 0.004883 0.008164 -855803.000000 1 0 0
9.014193 13.457668 -11.804993 20.043013 0.980615 2.200596 0.052012 -0.014916 -52712.100000 1 0 0
13.729793 9.155068 -11.281093 19.989636 0.588097 2.170438 0.027125 -0.011963 235279.000000 1 0 0
8.622693 15.771968 -9.040393 20.120500 1.070483 2.036792 0.047749 -0.012589 79053.100000 1 0 0
7.376493 13.530168 -13.658393 20.591983 1.071655 2.295999 0.038557 -0.012137 187623.000000 1 0 0
4.608093 16.115668 -12.160093 20.707900 1.292289 2.198416 0.057029 -0.019699 132240.000000 1 0 0
11.075293 11.017168 -11.544393 19.424549 0.782767 2.207216 0.040369 -0.007874 742907.000000 1 0 0
15.685393 9.886468 -9.730193 20.939208 0.562400 2.054078 0.050466 -0.004129 541400.000000 1 0 0
13.286793 10.631168 -9.166293 19.328257 0.674821 2.064900 0.063248 -0.013542 -294676.000000 1 0 0
10.573093 11.750468 -8.107193 17.764863 0.838091 2.044698 0.027578 -0.007001 198428.000000 1 0 0
5.442993 16.149468 -9.757493 19.637723 1.245715 2.090790 0.035980 -0.020967 -76677.400000 1 0 0
6.771293 14.792568 -11.522393 19.935797 1.141517 2.187041 0.033062 0.002931 -25248.000000 1 0 0
10.884193 13.732768 -9.647693 20.003313 0.900602 2.074080 0.054253 -0.009212 -627223.000000 1 0 0
8.320293 -18.515832 -1.170693 20.333072 -1.148474 1.628404 0.041120 -0.006752 -214865.000000 1 0 0
7.492993 -17.284932 -3.316393 19.128833 -1.161749 1.745048 0.030594 -0.002255 -61266.000000 1 0 0
4.483693 -18.303932 5.606307 19.661335 -1.330569 1.281640 0.040131 -0.002951 -89804.900000 1 0 0
9.950593 -16.980632 -2.360393 19.822402 -1.040737 1.690157 0.031870 -0.003471 -956387.000000 1 0 0
-9.622907 -12.105832 -10.145693 18.495583 0.899174 2.151422 0.047659 -0.018953 -1444240.000000 1 0 0
-5.117507 -6.994732 -12.297793 15.044961 0.939161 2.527684 0.012110 -0.001761 168017.000000 1 0 0
-10.764207 -9.433332 -5.848093 15.461439 0.719600 1.958688 0.019112 -0.009342 -1441730.000000 1 0 0
-4.455707 -11.536132 -14.011693 18.688585 1.202209 2.418475 0.014123 -0.008369 505158.000000 1 0 0
-2.981907 -15.456732 7.419607 17.402669 1.380218 1.130344 0.005993 0.001225 288454.000000 1 0 0
-4.715107 -11.898732 -11.565193 17.250094 1.193510 2.305601 0.003658 -0.005731 212689.000000 1 0 0
-14.310707 -13.004832 -4.218893 19.791944 0.737627 1.785607 0.054761 -0.014531 -66683.200000 1 0 0
-3.270807 -12.208332 -3.205493 13.039046 1.309028 1.819180 0.001865 -0.003248 1076740.000000 1 0 0
-2.480507 -17.356732 -1.460493 17.593808 1.428844 1.653904 -0.006048 -0.009813 -1301690.000000 1 0 0
-5.770307 -12.191432 3.726807 13.993447 1.128729 1.301218 -0.001003 0.002313 -674135.000000 1 0 0
-8.728007 -10.581332 -12.074193 18.273719 0.881086 2.292602 0.029087 -0.009799 -359492.000000 1 0 0
-9.787307 -12.003132 -7.507793 17.211435 0.886738 2.022178 0.037610 -0.017024 95040.300000 1 0 0
-10.733307 -15.382632 6.176807 19.747967 0.961579 1.252676 0.031917 -0.004252 -1240880.000000 1 0 0
-9.430707 -15.898432 0.429307 18.490070 1.035403 1.547576 0.015532 0.004911 -1765640.000000 1 0 0
-14.833307 -7.354632 -8.101693 18.432445 0.460297 2.025877 0.025189 -0.022767 -137326.000000 1 0 0
-2.264207 -16.676232 5.106807 17.587007 1.435847 1.276179 0.005933 -0.001543 -411853.000000 1 0 0
4.219293 -15.717632 5.730407 17.253520 -1.308536 1.232236 0.025346 -0.009637 -1026570.000000 1 0 0
3.998893 -14.790732 -10.025593 18.310363 -1.306745 2.150214 -0.000964 0.006336 335970.000000 1 0 0
-7.530407 -14.119932 -0.331893 16.005926 1.080851 1.591533 -0.002755 0.003435 1160440.000000 1 0 0
3.087493 -14.896332 9.643807 18.012116 -1.366425 1.005807 0.021302 -0.006776 101897.000000 1 0 0
2.534393 -17.285432 10.264707 20.262614 -1.425213 1.039579 0.037130 -0.003389 64523.900000 1 0 0
-8.030907 -17.138432 -5.837893 19.806623 1.132590 1.869984 0.030411 -0.015116 -248207.000000 1 0 0
-6.468207 -9.126332 -7.774093 13.622193 0.954228 2.178146 0.011234 -0.007125 196085.000000 1 0 0
-6.058607 -13.087532 -4.911893 15.235383 1.137242 1.899060 -0.002932 -0.008507 211455.000000 1 0 0
2.328393 -19.552732 -4.796193 20.266578 -1.452272 1.809718 0.031029 -0.005729 226193.000000 1 0 0
-5.490807 -12.840232 8.352607 16.272264 1.166704 1.031767 0.008921 -0.004849 1153800.000000 1 0 0
2.302393 -17.579332 3.435307 18.059215 -1.440566 1.379405 0.024827 -0.013072 276639.000000 1 0 0
-17.885107 -9.988332 -2.475993 20.634301 0.509324 1.691080 0.074019 -0.020902 683697.000000 1 0 0
-3.505607 -15.365332 2.604707 15.973954 1.346485 1.407005 -0.000283 -0.003924 -325335.000000 1 0 0
-10.207107 -10.363132 -14.200993 20.328496 0.792983 2.344201 0.050181 -0.015413 65443.500000 1 0 0
6.081693 -14.473732 -5.611193 16.672174 -1.173008 1.914058 0.005612 -0.003605 400284.000000 1 0 0
-7.178507 -12.244532 -10.835893 17.857102 1.040539 2.222839 0.020233 -0.014919 -1598350.000000 1 0 0
-7.013207 -14.377332 3.860607 16.455912 1.116959 1.333986 -0.005044 0.007352 906241.000000 1 0 0
3.302493 -15.001732 -3.197793 15.690261 -1.354112 1.776042 0.013029 -0.006558 -509646.000000 1 0 0
-7.625407 -11.416932 7.672807 15.727846 0.981938 1.061173 0.007336 -0.009189 -1201410.000000 1 0 0
-12.561107 -12.329732 -1.121093 17.636909 0.776103 1.634404 0.028053 0.000834 -2131470.000000 1 0 0
-1.885907 -13.815732 4.037807 14.516714 1.435130 1.288930 -0.001480 0.000298 -4573780.000000 1 0 0
-3.072107 -14.085432 5.248607 15.342266 1.356054 1.221644 0.001653 0.000892 -326766.000000 1 0 0
-14.597607 -10.379532 -4.552493 18.481072 0.618099 1.819691 0.042093 -0.011919 1411310.000000 1 0 0
-6.169407 -8.625632 -10.484393 14.912599 0.949914 2.350482 0.010452 -0.007791 -42652.700000 1 0 0
0.892693 -19.520132 2.344907 19.680728 -1.525096 1.451365 0.024842 -0.016206 252335.000000 1 0 0
6.369493 -14.138732 -8.181593 17.533187 -1.147527 2.056278 0.015086 -0.000931 -2205370.000000 1 0 0
-3.975807 -16.706432 -5.842893 18.139771 1.337162 1.898747 -0.002550 -0.009818 -118024.000000 1 0 0
-3.439507 -13.595232 -13.154393 19.227547 1.323002 2.324224 0.010349 -0.004435 -932062.000000 1 0 0
-8.150907 -14.743032 -4.534593 17.445825 1.065756 1.833740 0.009069 -0.011670 -980766.000000 1 0 0
-4.503907 -14.343832 10.139207 18.133787 1.266549 0.977456 0.014844 -0.003914 -50139.000000 1 0 0
-0.088107 -12.080032 -9.905893 15.622472 1.563503 2.257614 0.006581 0.000269 284938.000000 1 0 0
2.568593 -17.229432 6.957707 18.757950 -1.422805 1.190796 0.030861 -0.009640 -1635800.000000 1 0 0
-2.922707 -19.130532 -3.334293 19.637642 1.419191 1.741414 0.001079 -0.016708 840293.000000 1 0 0
0.667393 -15.448532 -3.155593 15.781645 -1.527622 1.772107 0.007722 -0.004619 -60006.500000 1 0 0
6.039193 -17.932832 0.580207 18.931322 -1.245958 1.540144 0.028190 -0.011509 -451338.000000 1 0 0
-7.138707 -16.861932 3.826607 18.706384 1.170314 1.364781 -0.002481 0.008430 655793.000000 1 0 0
-5.171207 -13.462232 -9.579993 17.313270 1.204048 2.157156 -0.004808 -0.009982 186597.000000 1 0 0
5.679693 -15.132732 -2.183993 16.310374 -1.211741 1.705102 0.015075 -0.002596 -1540000.000000 1 0 0
-8.832607 -10.193832 -0.643493 13.503453 0.856820 1.618468 0.004511 0.001386 35285.800000 1 0 0
-7.098707 -18.236332 -3.242093 19.835993 1.199581 1.734978 0.004835 -0.021367 121080.000000 1 0 0
7.976693 -15.924132 -1.146193 17.847111 -1.106414 1.635063 0.016265 -0.004505 -652531.000000 1 0 0
-7.983807 -10.060532 -9.665393 16.074057 0.899984 2.215928 0.026197 -0.011673 -1879420.000000 1 0 0
-9.128007 -15.163632 -6.984593 19.027369 1.028932 1.946666 0.045113 -0.020020 -185401.000000 1 0 0
-11.371007 -10.383432 -11.947793 19.490131 0.740033 2.230671 0.045743 -0.010494 -730511.000000 1 0 0
6.594593 -16.178232 2.507407 17.649672 -1.183737 1.428249 0.029394 -0.010072 1107530.000000 1 0 0
-2.223907 -11.378232 -6.027693 13.066867 1.377777 2.050252 0.002282 -0.003529 -69979.500000 1 0 0
-12.330807 -15.103432 -3.527593 19.814297 0.886121 1.749783 0.046445 -0.020813 -950042.000000 1 0 0
-0.365907 -19.521232 -2.922793 19.742216 1.552054 1.719390 0.032235 -0.020877 -927206.000000 1 0 0
-5.842007 -15.642232 -4.701193 17.346748 1.213362 1.845241 -0.005946 -0.010434 -3063630.000000 1 0 0
1.974493 -15.929132 -1.019293 16.083371 -1.447471 1.634214 0.011686 -0.012813 670621.000000 1 0 0
-13.085107 -12.004032 5.190607 18.500249 0.742335 1.286409 0.027775 -0.009034 233683.000000 1 0 0
1.943093 -15.276732 -8.642993 17.659430 -1.444283 2.082228 0.006152 0.006600 -2109460.000000 1 0 0
-11.767507 -16.691232 -0.389193 20.426035 0.956715 1.589851 0.064066 -0.014333 538592.000000 1 0 0
-7.403707 -16.711632 -1.054593 18.308623 1.153756 1.628429 0.007821 -0.002596 552401.000000 1 0 0
-2.850807 -14.468932 -1.787693 14.855064 1.376259 1.691431 -0.004626 -0.004108 278628.000000 1 0 0
-1.741307 -10.392932 -13.169093 16.866244 1.404791 2.466735 0.000737 -0.001632 -624804.000000 1 0 0
1.407393 -19.567132 4.956907 20.234237 -1.498994 1.323301 0.035222 -0.012862 -128661.000000 1 0 0
-17.538907 -9.436832 2.345307 20.054115 0.493623 1.453579 0.055748 -0.014759 678734.000000 1 0 0
-2.714107 -15.870032 -8.053993 18.002530 1.401414 2.034631 -0.004479 0.003615 -1635510.000000 1 0 0
-10.247807 -12.187632 -0.036993 15.923482 0.871646 1.573119 0.012879 0.002236 37587.300000 1 0 0
-6.889607 -11.416332 -6.656093 14.903117 1.027817 2.033785 0.007607 -0.011274 510755.000000 1 0 0
-2.351407 -13.721232 -6.703793 15.451283 1.401075 2.019576 -0.008900 -0.000091 354279.000000 1 0 0
-14.207807 -14.442232 -1.096693 20.288977 0.793580 1.624876 0.059308 -0.006912 27860.200000 1 0 0
-9.585207 -11.241632 -4.581593 15.467433 0.864764 1.871517 0.016713 -0.010247 962139.000000 1 0 0
9.522493 -15.172032 -5.220793 18.658111 -1.010305 1.854396 0.023934 -0.000287 282679.000000 1 0 0
-5.540607 -10.841132 -9.356893 15.355126 1.098330 2.226057 0.006331 -0.008627 -100507.000000 1 0 0
-10.347707 -16.044032 -4.916693 19.714458 0.997975 1.822852 0.048449 -0.015977 777629.000000 1 0 0
2.362593 -17.368032 -3.246993 17.826198 -1.435595 1.753966 0.024711 -0.009540 403752.000000 1 0 0
-0.467507 -14.447632 -8.199193 16.618646 1.538449 2.086760 -0.003843 0.002690 -1366680.000000 1 0 0
-0.627907 -18.308232 -7.092593 19.644096 1.536513 1.940195 0.014008 -0.000592 151696.000000 1 0 0
-1.701907 -10.070632 -10.538593 14.675696 1.403381 2.371862 0.000478 -0.000942 318260.000000 1 0 0
-5.083007 -17.261932 2.032707 18.109201 1.284427 1.458312 -0.002395 -0.001586 -880853.000000 1 0 0
0.224393 -12.896332 -2.643493 13.166388 -1.553398 1.772946 0.002598 -0.002964 -1347780.000000 1 0 0
2.656793 -14.976732 3.052307 15.513788 -1.395228 1.372756 0.019729 -0.009426 -913501.000000 1 0 0
-9.524207 -13.152932 6.734407 17.580170 0.944070 1.177681 0.008354 -0.004746 -127813.000000 1 0 0
-1.076507 -17.774832 -4.553493 18.380365 1.510307 1.821140 0.014591 -0.012604 -14009.600000 1 0 0
-9.517207 -17.588232 -2.495093 20.153129 1.074802 1.694922 0.038518 -0.019852 892030.000000 1 0 0
1.385593 -16.257432 1.478107 16.383185 -1.485774 1.480452 0.009107 -0.013329 -535522.000000 1 0 0
-0.300407 -18.021132 3.941907 18.449663 1.554128 1.355479 0.013877 -0.014488 -1001890.000000 1 0 0
-17.520807 -9.106432 -0.121493 19.746406 0.479322 1.576949 0.043805 -0.014602 1192340.000000 1 0 0
-14.850607 -7.299832 -10.721593 19.717521 0.456866 2.145707 0.048686 -0.021629 406025.000000 1 0 0
2.847793 -12.739832 -8.781893 15.733241 -1.350877 2.162980 -0.001961 0.002863 412342.000000 1 0 0
-11.554207 -14.832832 1.481807 18.860232 0.909016 1.492147 0.036512 0.004779 163475.000000 1 0 0
-2.217007 -15.422132 10.557407 18.820630 1.428020 0.975265 0.014320 0.002527 -849656.000000 1 0 0
-7.103507 -15.917032 1.336807 17.481384 1.151037 1.494251 0.002463 0.004634 -650473.000000 1 0 0
-12.493007 -15.134132 -6.131493 20.559970 0.880707 1.873629 0.062123 -0.014199 545659.000000 1 0 0
0.907493 -13.765232 -5.081393 14.701214 -1.504965 1.923722 0.004863 -0.001650 694758.000000 1 0 0
6.060993 -16.508232 -7.348393 19.059282 -1.218926 1.966605 0.023228 -0.008254 388021.000000 1 0 0
-6.530607 -12.947932 5.920407 15.663620 1.103655 1.183192 0.004548 0.000663 325015.000000 1 0 0
-2.543507 -13.620132 0.641107 13.870416 1.386177 1.524559 0.003040 -0.005562 1071150.000000 1 0 0
-4.242207 -15.565232 0.133707 16.133525 1.304715 1.562509 -0.005681 -0.003219 142630.000000 1 0 0
-17.701007 -7.457732 -2.212793 19.334939 0.398747 1.685493 0.025178 -0.011951 446414.000000 1 0 0
1.323693 -12.587232 -11.993693 17.436721 -1.466020 2.329307 -0.000862 0.005437 -115756.000000 1 0 0
1.229793 -17.275932 -5.631593 18.212222 -1.499731 1.885170 0.023848 -0.002452 -1267650.000000 1 0 0
-12.808707 -6.313732 -9.297693 17.040343 0.457972 2.147935 0.024812 -0.009830 243933.000000 1 0 0
-11.325507 -13.516432 -8.912993 19.758605 0.873365 2.038787 0.058747 -0.022434 288616.000000 1 0 0
-4.245907 -9.961632 3.456907 11.367148 1.167888 1.261788 0.008202 -0.000437 -3700440.000000 1 0 0
-7.063507 -14.368132 9.630507 18.683764 1.113884 1.029266 0.017179 -0.007869 -626234.000000 1 0 0
-5.234907 -15.705732 -7.920093 18.352170 1.249065 2.017020 -0.010235 -0.020333 -1751710.000000 1 0 0
-0.215107 -13.652532 2.180307 13.827206 1.555042 1.412453 0.004866 -0.006744 462737.000000 1 0 0
-10.874007 -13.459432 -4.974793 18.004136 0.891251 1.850753 0.045045 -0.011797 -506784.000000 1 0 0
-9.706507 -10.565232 6.527807 15.762382 0.827734 1.143800 0.017029 -0.003903 -258811.000000 1 0 0
-15.448607 -8.083932 -5.137493 18.176998 0.482097 1.857338 0.035257 -0.012307 -235486.000000 1 0 0
-14.593507 -7.453532 5.343507 17.235970 0.472205 1.255582 0.030231 -0.009741 599135.000000 1 0 0
-1.529407 -19.329532 0.033107 19.389971 1.491838 1.569089 0.015103 -0.014602 -446521.000000 1 0 0
-15.044407 -12.112532 -1.635793 19.383587 0.677854 1.655287 0.041900 -0.006452 440659.000000 1 0 0
-4.399207 -12.178432 -6.902593 14.673548 1.224153 2.060552 -0.000375 -0.007526 -61096.700000 1 0 0
-7.296007 -18.461932 1.875507 19.939714 1.194442 1.476598 0.012641 0.004080 50365.900000 1 0 0
-2.390707 -11.870732 -8.632093 14.870870 1.372060 2.190102 -0.003448 -0.000394 633145.000000 1 0 0
-1.325807 -20.360732 -5.104493 21.032665 1.505772 1.815938 0.026358 -0.008624 -160162.000000 1 0 0
-5.318007 -9.041032 -13.789593 17.325540 1.039093 2.491308 0.012491 -0.009355 431308.000000 1 0 0
-8.178307 -19.246432 -1.066693 20.939142 1.168988 1.621761 0.018170 -0.001200 135142.000000 1 0 0
-17.105607 -7.404932 5.627807 19.470671 0.408539 1.277572 0.047659 -0.012598 -84608.800000 1 0 0
-3.604807 -14.624832 -4.287993 15.661010 1.329128 1.848139 -0.006039 -0.004177 -3474490.000000 1 0 0
-2.958807 -14.877032 -10.854993 18.652385 1.374474 2.191936 -0.003435 0.000390 -60005.600000 1 0 0
0.028993 -16.865932 6.254707 17.988381 -1.569077 1.215671 0.026783 -0.008278 -314242.000000 1 0 0
-11.107307 -11.687932 3.709107 16.545014 0.810864 1.344692 0.018363 -0.000694 -942796.000000 1 0 0
-0.224007 -14.746832 -0.089593 14.748805 1.555607 1.576871 0.000484 -0.003662 1431730.000000 1 0 0
-7.319607 -9.525232 -2.589293 12.288659 0.915595 1.783093 0.009088 -0.002023 -273887.000000 1 0 0
-10.999507 -14.417732 -1.056293 18.165239 0.919081 1.628978 0.028535 -0.005584 -90237.000000 1 0 0
0.478893 -14.593132 -10.635193 18.063669 -1.537992 2.200322 -0.004488 0.004730 -315810.000000 1 0 0
-1.430207 -14.032932 -3.946893 14.647410 1.469229 1.843629 -0.003949 -0.002844 -2947260.000000 1 0 0
-11.508507 -8.048732 -7.719793 16.025699 0.610305 2.073405 0.021455 -0.009893 672654.000000 1 0 0
-0.180507 -17.251532 -0.295893 17.255013 1.560333 1.587945 0.005908 -0.014833 -383369.000000 1 0 0
-12.838307 -9.600132 4.513507 16.654021 0.642074 1.296348 0.024372 -0.004284 723049.000000 1 0 0
4.058693 -16.811432 1.572507 17.365771 -1.333905 1.480120 0.024029 -0.014797 773568.000000 1 0 0
-3.992807 -17.986632 -8.015993 20.092724 1.352351 1.981168 0.010638 -0.006500 171193.000000 1 0 0
-13.369707 -11.196432 2.567807 17.626764 0.697162 1.424599 0.025893 -0.006176 937318.000000 1 0 0
-8.495507 -12.289232 4.039207 15.476242 0.965935 1.306744 0.009326 0.000405 2321670.000000 1 0 0
-8.230007 -9.406932 -5.993593 13.861693 0.852030 2.017933 0.012354 -0.007285 -823844.000000 1 0 0
3.746893 -17.494632 -5.420893 18.694583 -1.359810 1.864993 0.011897 0.005577 -474242.000000 1 0 0
-2.613207 -13.012032 11.400407 17.496031 1.372603 0.861105 0.008143 -0.003916 333355.000000 1 0 0
-0.043207 -16.710832 -9.496793 19.220896 1.568211 2.087581 0.002036 0.004993 -268793.000000 1 0 0
-6.990207 -10.976232 -14.539393 19.512422 1.003721 2.411534 0.019070 -0.004807 -509892.000000 1 0 0
-4.690307 -18.752932 -1.433293 19.383647 1.325714 1.644807 0.015787 -0.020691 -314794.000000 1 0 0
-2.505907 -17.236532 1.136307 17.454764 1.426424 1.505650 0.007751 -0.011394 844226.000000 1 0 0
4.089093 -14.686332 -7.414793 16.952527 -1.299246 2.023486 0.008838 0.001553 515368.000000 1 0 0
-0.959507 -15.835432 -6.143693 17.012540 1.510278 1.940273 -0.001036 -0.002404 -168056.000000 1 0 0
-9.392007 -15.350832 8.308107 19.821264 1.021728 1.138286 0.015138 -0.006559 -468298.000000 1 0 0
-7.118607 -12.061632 -1.778693 14.118119 1.037624 1.697119 -0.002400 -0.001452 923073.000000 1 0 0
-7.139807 -15.179532 -9.445993 19.251540 1.131143 2.083645 0.023331 -0.015353 -567207.000000 1 0 0
-4.978307 -13.316832 -0.634693 14.231106 1.213047 1.615410 -0.002545 -0.000646 2176530.000000 1 0 0
-6.591407 -13.688532 -7.375293 16.888383 1.122035 2.022732 0.006674 -0.014034 526354.000000 1 0 0
5.757193 -15.330632 0.191307 16.377122 -1.211556 1.559115 0.020649 -0.007559 -245382.000000 1 0 0
-14.246507 -12.766032 0.840207 19.147859 0.730646 1.526902 0.022857 -0.004602 917701.000000 1 0 0
0.983593 -15.348132 11.152407 18.997600 -1.506798 0.943395 0.009581 0.003560 178363.000000 1 0 0
-9.332407 -10.844232 1.865607 14.428156 0.860188 1.441130 0.006760 0.004830 374396.000000 1 0 0
-9.379307 -8.797132 -3.738193 13.391602 0.753380 1.853699 0.012843 -0.005139 -929085.000000 1 0 0
-12.199907 -7.079132 -12.327293 18.732698 0.525779 2.289039 0.039233 -0.012657 114992.000000 1 0 0
-13.314407 -8.445232 -0.712193 15.782985 0.565254 1.615936 0.016680 -0.005496 177827.000000 1 0 0
-11.293207 -9.805732 0.286907 14.958985 0.715015 1.551616 0.006531 0.003004 1218480.000000 1 0 0
-15.795707 -12.130432 2.840207 20.117617 0.654895 1.429143 0.054204 -0.009293 -52104.300000 1 0 0
-10.386107 -12.410332 -2.592493 16.389282 0.873962 1.729646 0.027528 -0.009359 781419.000000 1 0 0
-3.471007 -8.908932 -12.002393 15.345175 1.199279 2.468922 0.007463 -0.001883 -411823.000000 1 0 0
-0.227407 -15.568932 3.945507 16.062702 1.556191 1.322625 0.012878 -0.009538 -776978.000000 1 0 0
-15.760707 -7.768932 1.122207 17.607258 0.457976 1.507018 0.029289 -0.006667 438995.000000 1 0 0
-6.056107 -13.543032 -13.160293 19.831375 1.150294 2.296430 0.017876 -0.011001 -745212.000000 1 0 0
-15.380307 -10.364032 0.963707 18.571369 0.592960 1.518881 0.043718 -0.008403 1518050.000000 1 0 0
-9.920107 -8.326332 -12.678393 18.123961 0.698272 2.345547 0.030964 -0.003931 368977.000000 1 0 0
-13.503107 -11.799432 -6.394193 19.038020 0.718167 1.913319 0.059618 -0.010949 79547.800000 1 0 0
-12.216807 -11.390332 -4.143593 17.209282 0.750403 1.813962 0.029302 -0.007836 -823705.000000 1 0 0
-11.717707 -10.928332 -8.963993 18.359909 0.750555 2.080865 0.047531 -0.025206 365860.000000 1 0 0
-13.138407 -8.585732 -5.811093 16.736228 0.578820 1.925398 0.019749 -0.011978 -2637030.000000 1 0 0
-13.582707 -8.170532 -3.348493 16.200615 0.541551 1.778986 0.022551 -0.011199 316888.000000 1 0 0
-4.339607 -16.891632 -3.159093 17.723975 1.319326 1.749992 -0.001773 -0.015038 62720.400000 1 0 0
-15.539907 -8.881332 -1.877393 17.996982 0.519213 1.675304 0.043319 -0.009539 -1096550.000000 1 0 0
-9.286407 -15.461232 3.515807 18.375199 1.029917 1.378275 0.012162 0.000860 -1275030.000000 1 0 0
4.953393 -16.921432 7.913707 19.326089 -1.286024 1.148909 0.051117 -0.032460 -267259.000000 1 0 0
-8.244607 -15.454532 5.981907 18.509439 1.080729 1.241707 0.004977 0.003340 -621910.000000 1 0 0
0.937293 -16.102232 8.575707 18.267543 -1.512653 1.082128 0.017108 0.001649 319506.000000 1 0 0
-10.819807 -7.674432 -10.241993 16.758984 0.616937 2.228289 0.027088 -0.015227 943551.000000 1 0 0
-4.812507 -16.067432 5.591707 17.680209 1.279781 1.249002 0.006473 -0.005393 499031.000000 1 0 0
-1.252607 -13.111532 -11.955693 17.788195 1.475551 2.307856 -0.001153 -0.001675 -1468420.000000 1 0 0
-6.423707 -14.375932 -2.626693 15.963425 1.150575 1.736092 -0.000801 -0.006082 383553.000000 1 0 0
-17.669807 -6.881432 -7.334793 20.331635 0.371375 1.939876 0.039386 -0.023762 136814.000000 1 0 0
-17.320107 -3.917632 -10.175693 20.466526 0.222447 2.091150 0.047972 -0.026140 277725.000000 1 0 0
-15.240807 -5.161632 -9.238093 18.554434 0.326547 2.091962 0.019723 -0.018281 15734.500000 1 0 0
-16.133007 -5.426732 -5.756393 17.968289 0.324485 1.896910 0.024253 -0.010823 411095.000000 1 0 0
-15.134607 -4.450632 -12.313493 20.012160 0.286007 2.233563 0.041822 -0.022155 -880290.000000 1 0 0
-18.746507 -5.233632 -5.765993 20.299485 0.272247 1.858808 0.043014 -0.017817 -350999.000000 1 0 0
-17.361707 -4.290232 -7.790393 19.507055 0.242256 1.981618 0.025723 -0.018528 1002550.000000 1 0 0
12.174393 -7.840732 8.789707 16.939654 -0.572170 1.025252 0.018052 -0.004707 9580.410000 1 0 0
16.012593 -3.428232 1.868807 16.481758 -0.210912 1.457166 0.021622 -0.006555 792793.000000 1 0 0
11.927393 -2.192832 12.661107 17.532109 -0.181818 0.763867 0.024638 -0.007472 372544.000000 1 0 0
9.811893 -10.043732 5.219707 14.979824 -0.797074 1.214880 0.003586 -0.001624 -24859.400000 1 0 0
16.942793 -2.053932 7.255307 18.544982 -0.120639 1.168831 0.051284 -0.012804 -342694.000000 1 0 0
5.244993 -12.787532 9.247207 16.629545 -1.181558 0.981145 0.012836 -0.002212 49566.100000 1 0 0
15.064693 -9.070932 -2.193293 17.721098 -0.541986 1.694882 0.043199 -0.006561 373564.000000 1 0 0
11.065593 -8.512232 6.519907 15.408265 -0.655709 1.133884 0.009852 -0.002517 -2959740.000000 1 0 0
19.830893 -3.093232 3.685707 20.406294 -0.154734 1.389183 0.058664 -0.018196 -167281.000000 1 0 0
13.536893 -8.499232 6.829407 17.381749 -0.560651 1.167006 0.022630 -0.007171 -1413600.000000 1 0 0
8.313693 -11.132832 8.880307 16.489915 -0.929364 1.002105 0.010391 -0.001069 -727900.000000 1 0 0
16.762693 0.002368 -0.577793 16.772648 0.000141 1.605252 0.015377 -0.000846 -247529.000000 1 0 0
12.465193 -12.259932 2.286407 17.632771 -0.777097 1.440762 0.028052 -0.002118 -1256780.000000 1 0 0
10.309993 -11.722732 3.531207 16.005868 -0.849431 1.348347 0.015213 -0.000465 -206251.000000 1 0 0
16.371293 2.952068 2.476707 16.818680 0.178403 1.423000 0.007471 -0.002161 -1127730.000000 1 0 0
18.320993 -3.227132 0.797807 18.620141 -0.174355 1.527937 0.037702 -0.010472 -25249.200000 1 0 0
13.459293 -11.620032 -0.290693 17.783762 -0.712191 1.587143 0.053363 -0.003009 -106664.000000 1 0 0
16.774093 -7.584432 -0.744293 18.424108 -0.424642 1.611205 0.043737 -0.007541 -474649.000000 1 0 0
10.238493 -5.676432 9.817207 15.278291 -0.506231 0.872963 0.005058 -0.001280 915536.000000 1 0 0
11.287393 -13.123832 6.281607 18.414635 -0.860486 1.222688 0.029332 -0.005806 -2035160.000000 1 0 0
13.123193 -1.677432 10.421707 16.841732 -0.127133 0.903579 0.032259 -0.006907 1409690.000000 1 0 0
15.535693 -2.103732 -1.282293 15.729835 -0.134594 1.652407 0.012239 -0.002969 -512659.000000 1 0 0
10.433793 -12.493832 9.296607 18.745313 -0.875007 1.051876 0.024926 -0.009863 136765.000000 1 0 0
14.494693 1.346568 3.467607 14.964413 0.092635 1.336947 0.010576 -0.006460 582726.000000 1 0 0
14.939993 -5.787632 5.366807 16.896825 -0.369590 1.247575 0.027078 -0.005708 -956935.000000 1 0 0
14.342993 -3.342032 -2.988793 15.027425 -0.228923 1.771021 0.019963 -0.002154 1847820.000000 1 0 0
14.078893 0.694368 9.727607 17.126696 0.049280 0.966748 0.042053 -0.010069 -157224.000000 1 0 0
15.397693 -3.375132 4.506207 16.394705 -0.215784 1.292355 0.018298 -0.003144 -1468060.000000 1 0 0
18.503593 4.678668 -4.075593 19.516233 0.247661 1.781176 0.020829 -0.000011 398537.000000 1 0 0
18.299193 -5.802732 -5.091493 19.860902 -0.307073 1.830048 0.077521 -0.011992 462493.000000 1 0 0
17.310493 0.239268 6.102107 18.356092 0.013821 1.231918 0.046206 -0.005904 495962.000000 1 0 0
17.041893 -6.632632 4.046807 18.729510 -0.371158 1.353013 0.049382 -0.011126 256347.000000 1 0 0
9.951693 -6.549332 14.083707 18.446700 -0.582057 0.702110 0.030149 -0.009655 -659872.000000 1 0 0
8.598393 -12.238532 5.258407 15.854490 -0.958349 1.232727 0.008447 -0.004695 -982297.000000 1 0 0
16.857693 -10.124732 -0.574993 19.672890 -0.540861 1.600028 0.058739 -0.004733 400359.000000 1 0 0
14.845093 -8.823332 0.404907 17.274024 -0.536262 1.547354 0.047951 -0.007894 335940.000000 1 0 0
10.060293 -12.895432 1.345007 16.410688 -0.908281 1.488745 0.019376 -0.002718 426106.000000 1 0 0
16.672493 -8.384132 8.902707 20.676651 -0.465943 1.125674 0.049748 -0.007899 338799.000000 1 0 0
19.197793 -0.200232 -1.544893 19.260894 -0.010430 1.651091 0.050517 -0.008195 348653.000000 1 0 0
13.374593 -1.113432 7.793007 15.519356 -0.083058 1.044716 0.017766 -0.006260 -268893.000000 1 0 0
12.806093 -9.882732 -3.104293 16.471218 -0.657258 1.760398 0.025628 -0.002996 -1429750.000000 1 0 0
8.858293 -15.172532 1.402107 17.625010 -1.042346 1.491160 0.027324 -0.000161 -440958.000000 1 0 0
11.498893 -8.295832 11.143107 18.033696 -0.624975 0.904721 0.025664 -0.008729 404857.000000 1 0 0
13.922293 -4.135332 -0.566193 14.534503 -0.288729 1.609761 0.011878 -0.005457 -1068070.000000 1 0 0
7.092093 -13.412132 10.975607 18.725571 -1.084389 0.944523 0.020167 0.004407 -859892.000000 1 0 0
15.422593 -6.772532 1.811407 16.941215 -0.413778 1.463668 0.033257 -0.008087 763377.000000 1 0 0
15.830193 -6.100732 -2.563693 17.157694 -0.367845 1.720777 0.050649 -0.007658 54204.300000 1 0 0
11.221193 -8.414232 3.885507 14.553750 -0.643406 1.300542 0.010871 -0.002291 552947.000000 1 0 0
10.596993 -14.557332 -0.543293 18.014087 -0.941558 1.600960 0.029058 -0.001204 454241.000000 1 0 0
13.310793 -12.836932 4.733307 19.088432 -0.767278 1.320215 0.021243 -0.003506 156593.000000 1 0 0
12.796093 -11.014032 6.556707 18.111855 -0.710693 1.200371 0.014706 -0.006729 -580783.000000 1 0 0
10.934693 -10.394732 1.373707 15.149423 -0.760088 1.479994 0.012888 -0.003218 209641.000000 1 0 0
13.935693 -7.385532 11.828907 19.714783 -0.487337 0.927293 0.037762 -0.014700 -1312600.000000 1 0 0
15.473093 -1.847932 -4.987193 16.361648 -0.118866 1.880535 0.035568 -0.000916 -549066.000000 1 0 0
13.047793 -11.217532 -7.142493 18.630435 -0.710114 1.964247 0.040950 -0.005199 181700.000000 1 0 0
17.672193 -5.433732 1.901307 18.586199 -0.298299 1.468320 0.055035 -0.007948 644154.000000 1 0 0
10.629693 -9.905432 9.203207 17.199040 -0.750143 1.006170 0.008971 -0.003082 -489219.000000 1 0 0
16.411793 1.748268 10.010607 19.303255 0.106125 1.025587 0.065728 -0.013543 -418598.000000 1 0 0
18.135893 3.855668 0.670507 18.553338 0.209480 1.534649 0.018124 0.001097 803645.000000 1 0 0
13.219893 -3.989132 5.794007 14.974954 -0.293064 1.173515 0.012698 -0.005297 -715315.000000 1 0 0
12.116293 -6.108732 6.675607 15.122331 -0.466982 1.113593 0.012434 -0.003998 -301210.000000 1 0 0
16.630993 -10.286332 3.805007 19.921763 -0.553914 1.378618 0.046058 -0.001695 -982179.000000 1 0 0
16.276293 -7.926732 -5.351393 18.878246 -0.453202 1.858206 0.063860 -0.012461 761449.000000 1 0 0
13.992093 -0.409732 5.390607 15.000173 -0.029275 1.203204 0.012336 -0.004946 362338.000000 1 0 0
18.205493 -4.124132 5.211207 19.380534 -0.222772 1.298557 0.055831 -0.013002 -19300.200000 1 0 0
13.531093 -13.403832 7.293707 20.394885 -0.780673 1.205074 0.040216 -0.006063 -38290.500000 1 0 0
15.148193 -13.526132 -0.976293 20.331678 -0.728890 1.618833 0.065793 -0.000374 608190.000000 1 0 0
17.795993 -6.146432 8.379407 20.608019 -0.332556 1.152057 0.058635 0.002795 402952.000000 1 0 0
14.333793 3.364468 9.408507 17.472758 0.230549 1.002179 0.035253 -0.013939 1060460.000000 1 0 0
18.814593 3.662368 3.102707 19.417225 0.192252 1.410317 0.038295 -0.003809 509098.000000 1 0 0
14.682893 -10.448432 8.182407 19.791636 -0.618473 1.144581 0.032384 -0.016879 -837102.000000 1 0 0
14.854693 -4.814732 10.464107 18.797369 -0.313438 0.980413 0.049431 -0.010036 327988.000000 1 0 0
17.703193 -8.025132 1.989707 19.538800 -0.425608 1.468786 0.072443 -0.016187 -48246.100000 1 0 0
18.356793 -5.836232 -2.008093 19.366618 -0.307827 1.674671 0.049958 -0.011255 -136126.000000 1 0 0
14.239293 -12.983432 -5.563493 20.056904 -0.739298 1.851868 0.040251 -0.001113 403057.000000 1 0 0
15.396093 -1.370332 9.285407 18.031535 -0.088771 1.029843 0.066487 -0.011339 -1901370.000000 1 0 0
13.065693 -9.985232 10.310807 19.409532 -0.652548 1.010752 0.020072 -0.013083 -1347000.000000 1 0 0
16.499693 2.284568 4.958507 17.379468 0.137586 1.281468 0.021877 -0.007379 -1913730.000000 1 0 0
14.877893 2.445268 0.099907 15.077832 0.162899 1.564170 0.007825 0.000515 -728644.000000 1 0 0
15.240493 -9.598732 -7.033593 19.335969 -0.562056 1.943094 0.059864 -0.008910 1535500.000000 1 0 0
16.208293 -0.126732 -3.166593 16.515209 -0.007819 1.763729 0.022061 0.002629 254418.000000 1 0 0
11.886093 2.646768 13.677007 18.312431 0.219103 0.727454 0.034388 -0.010637 -503119.000000 1 0 0
17.501493 -2.755832 9.727807 20.212053 -0.156180 1.068673 0.056957 -0.009617 227790.000000 1 0 0
8.210793 -17.898132 4.490407 20.197128 -1.140689 1.346594 0.064399 -0.022846 -454776.000000 1 0 0
6.794193 -11.238332 6.655507 14.722667 -1.027034 1.101725 0.007181 -0.004815 -89203.400000 1 0 0
18.124093 2.119268 -1.320093 18.295264 0.116402 1.643014 0.028196 0.002602 585531.000000 1 0 0
17.485193 -2.213632 3.572107 17.983105 -0.125930 1.370829 0.025251 -0.006946 -1433310.000000 1 0 0
12.651593 -13.522132 -1.908493 18.615939 -0.818646 1.673496 0.042046 0.002871 1632040.000000 1 0 0
15.028293 -8.238732 4.358307 17.683923 -0.501472 1.321775 0.031106 -0.004588 -452069.000000 1 0 0
11.207293 -2.980232 15.027807 18.982102 -0.259904 0.657237 0.021337 -0.006200 254279.000000 1 0 0
12.019993 -13.590832 -6.710693 19.344879 -0.846656 1.925058 0.024274 0.000086 -335158.000000 1 0 0
10.574493 -12.009232 -1.308093 16.054677 -0.848843 1.652364 0.017176 -0.002896 -594614.000000 1 0 0
13.123993 -7.989732 2.162607 15.516181 -0.546856 1.430964 0.024919 -0.000021 -2052330.000000 1 0 0
8.781693 -7.878832 10.004507 15.468817 -0.731259 0.867477 0.011956 -0.002111 -1387620.000000 1 0 0
15.729193 -3.891032 8.251707 18.183462 -0.242508 1.099768 0.053829 -0.007511 -954566.000000 1 0 0
10.682993 -16.986132 4.543807 20.574285 -1.009380 1.348112 0.063038 -0.026902 1260530.000000 1 0 0
15.096393 -6.404832 8.455207 18.450297 -0.401246 1.094749 0.037905 0.001138 1096090.000000 1 0 0
16.617993 -4.819432 -0.427693 17.308019 -0.282269 1.595510 0.036599 -0.009609 -899442.000000 1 0 0
14.051993 -10.554232 3.572307 17.933535 -0.644195 1.370258 0.043463 -0.003302 -730290.000000 1 0 0
15.008593 -10.013432 -4.575093 18.613386 -0.588358 1.819137 0.057171 -0.012650 525143.000000 1 0 0
13.592293 -6.636832 -0.110893 15.126475 -0.454227 1.578127 0.025145 -0.003379 302631.000000 1 0 0
17.911693 -0.935732 -4.880693 18.588316 -0.052194 1.836479 0.043085 0.001025 127151.000000 1 0 0
14.367293 0.208368 -1.573793 14.454734 0.014502 1.679890 0.015517 -0.000976 -1952100.000000 1 0 0
4.762393 -12.802132 11.768507 18.029773 -1.214658 0.859619 0.002047 -0.001172 -970327.000000 1 0 0
12.143093 -7.704832 13.604607 19.796577 -0.565404 0.813141 0.037755 -0.006654 -422916.000000 1 0 0
11.964493 -5.756632 11.747207 17.728079 -0.448449 0.846468 0.018666 -0.002623 503660.000000 1 0 0
13.229293 -4.523232 8.449407 16.336043 -0.329450 1.027191 0.022076 -0.006769 319261.000000 1 0 0
15.266193 -1.120032 3.106007 15.619167 -0.073236 1.370603 0.013001 -0.002107 499303.000000 1 0 0
15.182393 -10.286932 5.853607 19.250733 -0.595504 1.261832 0.045634 -0.009624 -692314.000000 1 0 0
13.625193 -7.952832 -5.703793 16.775776 -0.528337 1.917715 0.043327 -0.009817 -321123.000000 1 0 0
9.412893 -2.032732 13.455107 16.546131 -0.212686 0.621188 -0.004212 -0.012917 -591847.000000 1 0 0
9.932493 -9.193032 13.736507 19.283617 -0.746754 0.777968 0.039956 -0.004678 84660.400000 1 0 0
20.264493 6.298268 -2.972693 21.427896 0.301338 1.709975 0.059717 0.003087 -581064.000000 1 0 0
11.264293 -3.535832 10.549107 15.832563 -0.304157 0.841571 0.012194 -0.005709 741724.000000 1 0 0
10.406493 -14.016932 -3.082093 17.727627 -0.932162 1.745542 0.023435 -0.000159 571022.000000 1 0 0
14.800393 -12.929232 2.723207 19.840174 -0.718022 1.433104 0.042768 0.002230 -622517.000000 1 0 0
11.183793 -0.341532 14.416707 18.249255 -0.030529 0.660006 0.023358 -0.010118 73508.700000 1 0 0
18.942393 -1.689932 5.743107 19.865885 -0.088979 1.277516 0.062068 -0.014575 557437.000000 1 0 0
19.013993 -0.461132 8.007107 20.636335 -0.024247 1.172325 0.077786 -0.010490 603795.000000 1 0 0
18.965893 0.793068 0.849907 19.001484 0.041791 1.526053 0.034647 -0.008269 436699.000000 1 0 0
18.431293 0.921168 3.873507 18.856436 0.049937 1.363902 0.030103 -0.010043 69292.400000 1 0 0
16.689893 -4.045732 -4.348993 17.715366 -0.237819 1.818824 0.040614 -0.004182 -340406.000000 1 0 0
10.876093 -8.071932 15.888407 20.877906 -0.638472 0.705919 0.050546 -0.013968 239414.000000 1 0 0
16.521293 -7.490932 6.424407 19.244225 -0.425687 1.230427 0.044086 -0.010086 264582.000000 1 0 0
18.725293 2.403568 6.187207 19.866939 0.127661 1.254096 0.041094 -0.007783 160622.000000 1 0 0
15.250693 1.703568 7.702607 17.170205 0.111243 1.105595 0.034589 -0.011203 -114213.000000 1 0 0
8.731193 -15.415332 3.901407 18.140760 -1.055452 1.354040 0.029619 -0.020700 694599.000000 1 0 0
11.404693 -15.079732 1.892107 19.001195 -0.923280 1.471053 0.038261 0.001572 754688.000000 1 0 0
8.751293 -16.001032 6.205507 19.264643 -1.070320 1.242829 0.051021 -0.014752 -77300.800000 1 0 0
14.542593 -11.716532 -2.651393 18.862503 -0.678189 1.711828 0.051423 -0.002037 1088760.000000 1 0 0
13.680993 -4.883532 3.235107 14.882351 -0.342859 1.351668 0.007034 0.001995 -1585810.000000 1 0 0
-1.114807 10.212268 -5.548093 11.675382 -1.462063 2.065983 -0.003426 0.003874 -3333420.000000 1 0 0
8.192993 -1.728132 -7.986093 11.571052 -0.207881 2.332532 -0.002160 -0.000897 -875573.000000 1 0 0
3.044593 -10.175332 7.650507 13.089583 -1.280062 0.946566 -0.002762 -0.001298 678266.000000 1 0 0
-6.378707 1.411368 8.347807 10.600272 -0.217754 0.664040 -0.009806 0.002357 -382176.000000 1 0 0
7.175393 -6.222832 -7.176893 11.904524 -0.714422 2.217891 -0.005547 -0.003128 -754833.000000 1 0 0
-11.324307 -4.565032 -4.138993 12.892273 0.383191 1.897628 0.007879 -0.004032 419594.000000 1 0 0
2.147193 -3.183032 2.817807 4.762580 -0.977339 0.937685 0.002831 -0.001601 780920.000000 1 0 0
-3.747707 -4.164532 8.945207 10.554874 0.838030 0.559547 -0.003322 -0.003177 -1843000.000000 1 0 0
-4.810507 -1.022132 -2.437893 5.488994 0.209365 2.031013 0.001469 -0.001330 -498654.000000 1 0 0
5.050893 -5.194632 -3.595393 8.088422 -0.799427 2.031425 -0.001308 -0.003261 17650.200000 1 0 0
2.709393 14.239168 -8.827093 16.970925 1.382767 2.117800 0.014515 -0.011844 -920521.000000 1 0 0
5.512293 -5.539432 13.696007 15.768681 -0.787854 0.518512 0.005664 -0.007407 -526194.000000 1 0 0
-4.805707 -0.848632 9.842907 10.986256 0.174786 0.460278 -0.000862 0.000037 -4414110.000000 1 0 0
-0.879707 12.039968 -2.540693 12.336525 -1.497860 1.778230 -0.002389 0.001768 413338.000000 1 0 0
3.119993 9.385268 -10.512893 14.433937 1.249854 2.386701 0.006199 -0.002117 -388844.000000 1 0 0
-10.619007 2.609368 1.172407 10.997575 -0.240952 1.463987 -0.014758 0.003843 346972.000000 1 0 0
5.584193 -8.957432 -0.626993 10.574115 -1.013338 1.630126 -0.002344 -0.004537 516652.000000 1 0 0
-6.980107 5.411668 9.303207 12.828005 -0.659497 0.759433 -0.000645 -0.002125 136267.000000 1 0 0
-5.777007 -1.852432 5.158307 7.963256 0.310298 0.866151 -0.007753 -0.000254 -71520.800000 1 0 0
6.591093 -3.784132 -7.354993 10.576298 -0.521179 2.339804 -0.005034 -0.001834 316602.000000 1 0 0
6.107693 4.734668 11.077607 13.506827 0.659433 0.609125 0.001245 -0.002702 908881.000000 1 0 0
3.764293 -9.965932 3.118707 11.100272 -1.209647 1.286004 -0.003980 -0.001847 1267770.000000 1 0 0
-6.576907 6.604168 -5.741893 10.947149 -0.787466 2.122936 -0.005582 -0.000876 -153885.000000 1 0 0
-11.131607 8.600568 5.253107 15.015911 -0.657825 1.213400 -0.006049 -0.001277 305459.000000 1 0 0
-9.166507 -5.508532 5.072307 11.836261 0.541111 1.127920 0.000907 -0.000301 -346977.000000 1 0 0
3.244993 9.802868 -8.005893 13.066006 1.251125 2.230303 0.004968 -0.004552 844628.000000 1 0 0
-8.145507 -8.560332 5.967907 13.237994 0.810224 1.103116 0.003547 -0.001671 -2401050.000000 1 0 0
-7.748107 -5.631132 -7.544193 12.192524 0.628471 2.237954 0.013331 -0.007583 -684473.000000 1 0 0
9.232993 -1.455532 6.953207 11.649628 -0.156358 0.931213 0.004278 -0.004802 1606710.000000 1 0 0
-3.919507 -0.515332 -4.843693 6.252157 0.130729 2.457074 0.005206 -0.005149 -149915.000000 1 0 0
9.018593 1.150668 -4.361793 10.083863 0.126903 2.018117 0.004083 0.001131 -2752110.000000 1 0 0
-1.997207 -10.609832 10.697707 15.198629 1.384732 0.789979 0.002753 -0.006147 263651.000000 1 0 0
-12.884107 0.306768 -2.595793 13.146576 -0.023805 1.769552 -0.004008 0.002434 -835063.000000 1 0 0
-9.822607 -5.090732 -6.072693 12.620490 0.478154 2.072793 0.009981 -0.004945 -366696.000000 1 0 0
-5.800507 8.406368 -0.153593 10.214524 -0.966804 1.585834 -0.002057 0.000493 338238.000000 1 0 0
6.171693 9.555068 0.460507 11.384252 0.997303 1.530334 0.008744 -0.001667 512524.000000 1 0 0
-0.579507 -12.124032 0.027707 12.137905 1.523034 1.568514 0.005648 -0.002338 -499555.000000 1 0 0
6.178893 4.687968 2.497907 8.148331 0.649050 1.259225 0.002713 0.000576 183277.000000 1 0 0
3.394693 -7.465932 -8.222093 11.613220 -1.144048 2.357450 -0.006777 -0.000063 686154.000000 1 0 0
-6.584807 -9.891932 4.534907 12.719095 0.983481 1.206231 0.004524 0.001760 -2047780.000000 1 0 0
-0.168107 6.666668 -9.142093 11.315944 -1.545586 2.511368 0.000761 0.001646 -2648550.000000 1 0 0
-17.230107 -2.800232 4.125907 17.937140 0.161111 1.338698 0.029315 -0.006599 921458.000000 1 0 0
-8.308707 0.783068 -9.232093 12.445053 -0.093969 2.406589 0.004540 -0.002196 823200.000000 1 0 0
-9.997007 -5.816332 -11.927693 16.614443 0.526935 2.371593 0.014691 -0.000915 -528842.000000 1 0 0
2.155293 9.520968 6.479207 11.716409 1.348175 0.984832 -0.000449 0.003554 493015.000000 1 0 0
-11.324907 1.693268 -1.248493 11.518655 -0.148418 1.679398 -0.008395 0.001845 -2022580.000000 1 0 0
-5.974107 -5.378332 -3.146893 8.632459 0.732966 1.943937 0.014238 -0.004728 539414.000000 1 0 0
-6.911707 -8.325832 1.357307 10.905662 0.877938 1.446014 0.008334 0.000138 -533975.000000 1 0 0
0.026893 11.130668 -7.837993 13.613472 1.568380 2.184321 0.000356 0.001865 426609.000000 1 0 0
-2.950507 9.301468 -4.210993 10.628041 -1.263627 1.978187 -0.000811 0.001156 -188086.000000 1 0 0
3.514493 -4.783632 9.355007 11.079303 -0.937165 0.565412 0.004882 -0.006024 -1285140.000000 1 0 0
-8.959607 1.546768 -0.520193 9.107011 -0.170953 1.627947 -0.007601 0.001311 -1184540.000000 1 0 0
2.455093 3.509568 -10.634093 11.464226 0.960377 2.758704 0.001541 0.000182 -1672670.000000 1 0 0
-13.614707 0.438368 0.962707 13.655740 -0.032187 1.500239 -0.006627 0.001891 -1149330.000000 1 0 0
9.453793 -12.605032 -5.106893 16.563254 -0.927294 1.884230 0.024850 -0.002529 -2303030.000000 1 0 0
-4.621107 9.463768 -8.299093 13.408672 -1.116557 2.238182 -0.006419 0.002131 -655514.000000 1 0 0
-2.411307 7.166768 8.411607 11.310708 -1.246237 0.732230 0.001703 -0.000102 -1396220.000000 1 0 0
-10.679607 -1.153632 -4.498893 11.645811 0.107605 1.967424 0.000391 0.000004 -2221740.000000 1 0 0
2.577593 -7.145132 9.721407 12.337044 -1.224579 0.663267 0.001036 -0.002429 -2295440.000000 1 0 0
-16.269407 -6.710532 3.323407 17.910050 0.391204 1.384154 0.042074 -0.008271 643658.000000 1 0 0
-10.655407 0.006568 6.070707 12.263410 -0.000616 1.052932 -0.009690 0.001292 -1713640.000000 1 0 0
-8.472707 9.866268 9.499207 16.104812 -0.861241 0.939940 0.004393 -0.008872 -319386.000000 1 0 0
0.322393 -6.055132 -3.692493 7.099511 -1.517604 2.117770 -0.003293 0.001152 449702.000000 1 0 0
4.853393 1.585368 -2.973493 5.908508 0.315725 2.098159 -0.001849 0.001228 1532.320000 1 0 0
0.209793 5.359668 3.923807 6.645775 1.531673 0.939215 0.004315 0.002314 -2842150.000000 1 0 0
6.029693 -11.328732 -1.439093 12.913882 -1.081685 1.682466 -0.002044 -0.001864 -2773090.000000 1 0 0
6.284593 -13.502932 5.244607 15.790224 -1.135190 1.232222 0.006109 -0.005657 425845.000000 1 0 0
8.290093 -8.171332 -5.949093 13.072414 -0.778184 2.043267 0.001383 -0.004274 753332.000000 1 0 0
-13.020507 -1.355332 -4.628293 13.884942 0.103719 1.910632 -0.000413 0.002965 -4026170.000000 1 0 0
-6.814007 -1.471832 -7.117693 9.962858 0.212733 2.366595 0.006541 -0.003616 -699731.000000 1 0 0
-5.596407 12.680668 -4.731493 14.646028 -1.155173 1.899754 0.002373 0.003296 712727.000000 1 0 0
-4.304307 6.883468 -6.783093 10.579203 -1.011974 2.266821 -0.000350 0.001570 -2897320.000000 1 0 0
-9.444707 -3.744632 -8.225593 13.072304 0.377468 2.251369 0.009139 -0.004383 785234.000000 1 0 0
-2.343407 -6.316032 9.143607 11.357349 1.215515 0.634981 0.000640 -0.004356 -878024.000000 1 0 0
7.527693 -6.021332 9.992707 13.884408 -0.674674 0.767416 0.005501 -0.001949 225033.000000 1 0 0
9.559693 -4.841732 12.193307 16.232894 -0.468813 0.720997 0.005569 -0.005274 -898317.000000 1 0 0
-6.465607 2.779668 -9.054593 11.468055 -0.406027 2.480870 -0.002498 0.000047 716154.000000 1 0 0
7.303893 5.557868 8.947207 12.817538 0.650470 0.798134 -0.000023 -0.002023 30333.200000 1 0 0
12.615093 3.331668 11.296607 17.258445 0.258206 0.857202 0.031678 -0.006974 -634935.000000 1 0 0
-7.384507 -7.289532 -3.952393 11.103586 0.778926 1.934734 0.016232 -0.007254 -1954670.000000 1 0 0
2.244193 1.419468 -5.790893 6.370693 0.563980 2.711649 -0.001591 0.001251 -429590.000000 1 0 0
12.865593 6.934268 -6.974593 16.194212 0.494341 2.016047 0.014383 -0.005983 -793142.000000 1 0 0
0.782793 -7.831932 1.051507 7.940881 -1.471178 1.437989 0.000024 0.000038 875811.000000 1 0 0
-10.155607 -6.100432 -8.535193 14.601409 0.540931 2.195117 0.014810 -0.006273 282514.000000 1 0 0
-6.765707 0.282868 3.104107 7.449181 -0.041785 1.140979 -0.005761 0.000196 -440472.000000 1 0 0
10.726793 -7.834532 1.301407 13.346821 -0.630819 1.473134 0.003135 -0.000871 -274987.000000 1 0 0
6.156493 1.020568 10.455907 12.176615 0.164277 0.538093 0.003181 -0.006077 -326135.000000 1 0 0
-13.055307 5.363268 1.848807 14.234598 -0.389792 1.440547 -0.012185 0.003176 432964.000000 1 0 0
2.014193 7.392168 3.751007 8.530603 1.304778 1.115518 -0.000846 0.002301 -118489.000000 1 0 0
10.086793 -9.387532 -0.847793 13.805357 -0.749507 1.632245 0.003329 -0.002747 695397.000000 1 0 0
6.796793 -11.682532 -9.063893 16.273662 -1.043873 2.161526 0.005452 -0.001672 -306400.000000 1 0 0
10.204593 3.562268 11.953907 16.115811 0.335859 0.735120 0.007509 -0.005385 -1833530.000000 1 0 0
-11.007807 -3.148832 -2.019393 11.626044 0.278614 1.745377 0.000697 -0.000903 -1303090.000000 1 0 0
12.390393 1.071368 6.895107 14.220132 0.086253 1.064566 0.010394 -0.006654 371430.000000 1 0 0
-9.655807 9.215068 3.080007 13.698122 -0.762047 1.344008 -0.001415 -0.000884 840179.000000 1 0 0
-6.609807 7.742668 -8.825693 13.473356 -0.864166 2.285042 -0.005448 0.000612 -1252080.000000 1 0 0
8.460493 5.462868 12.141807 15.774865 0.573340 0.692436 0.009717 -0.004510 -1805870.000000 1 0 0
1.329393 4.930868 -2.646793 5.752065 1.307452 2.048956 -0.000465 -0.000000 649027.000000 1 0 0
1.171093 0.537568 9.522807 9.609594 0.430339 0.134498 0.003572 -0.003994 683357.000000 1 0 0
2.448693 12.543668 -3.901593 13.362714 1.378007 1.867089 0.001660 -0.003868 259196.000000 1 0 0
2.072693 0.629068 12.901507 13.082075 0.294667 0.166340 0.000345 -0.009772 -453611.000000 1 0 0
-12.332907 -1.909832 0.761607 12.503124 0.153636 1.509845 -0.002497 -0.001098 -632028.000000 1 0 0
3.357293 8.778968 -1.199093 9.475206 1.205532 1.697687 0.003769 -0.000277 400158.000000 1 0 0
3.732793 -2.845732 -5.823593 7.479717 -0.651365 2.463204 -0.006575 0.000870 -1593630.000000 1 0 0
-7.662007 -7.301132 9.179507 14.009862 0.761285 0.856326 0.000377 -0.003996 -162964.000000 1 0 0
-7.057007 10.821268 -3.584693 13.407133 -0.992917 1.841461 0.004888 0.003286 -3221.800000 1 0 0
0.311193 0.506668 2.536407 2.605171 1.020005 0.230269 0.004062 0.001118 -2430370.000000 1 0 0
-7.160707 4.508168 -1.942993 8.681851 -0.561879 1.796507 0.000420 -0.000287 -1174540.000000 1 0 0
-6.833207 -3.888132 -6.005393 9.893181 0.517318 2.223106 0.008938 -0.004880 174773.000000 1 0 0
2.957393 -6.114032 13.472807 15.087879 -1.120269 0.466927 0.001384 -0.006836 -1306620.000000 1 0 0
-5.472607 -0.568132 -11.761793 12.985067 0.103443 2.704046 0.007858 -0.000912 -1153350.000000 1 0 0
11.811193 2.434368 -0.530293 12.071107 0.203261 1.614741 0.002119 0.000980 -2186870.000000 1 0 0
6.110693 -10.903132 10.976907 16.634643 -1.059963 0.850134 0.008025 -0.002104 302358.000000 1 0 0
-8.108107 6.515368 -10.459593 14.751085 -0.676909 2.358979 -0.000836 -0.003019 889393.000000 1 0 0
2.842893 7.893268 11.093007 13.908290 1.225093 0.647520 -0.000396 0.001116 721671.000000 1 0 0
-6.203407 -10.038232 -0.448793 11.808885 1.017262 1.608810 0.009844 0.001670 -564372.000000 1 0 0
11.346693 4.367168 6.268107 13.678771 0.367408 1.094787 0.007927 -0.004332 1824920.000000 1 0 0
-7.930307 10.666268 1.485807 13.374105 -0.931472 1.459471 -0.003453 -0.001424 472633.000000 1 0 0
4.226393 -2.664132 -3.472993 6.084544 -0.562442 2.178263 -0.004312 -0.001293 -4758190.000000 1 0 0
6.340393 6.493468 6.337607 11.069371 0.797325 0.961201 0.004451 0.000123 -5370630.000000 1 0 0
-0.274807 10.350568 -10.236193 14.559856 -1.544253 2.350463 -0.001253 0.000428 -132193.000000 1 0 0
14.007493 6.452068 -2.410393 15.609261 0.431647 1.725837 0.011887 0.000988 847936.000000 1 0 0
1.355193 9.449768 -6.212793 11.390060 1.428357 2.147731 0.002937 -0.000693 1032000.000000 1 0 0
0.588093 7.363268 7.271407 10.365179 1.491097 0.793265 0.000964 0.002737 134986.000000 1 0 0
12.210093 6.387668 1.959307 13.918605 0.481993 1.429558 0.005197 -0.000091 -1529710.000000 1 0 0
-6.790707 6.632768 -3.125993 9.993956 -0.773633 1.888924 -0.003948 -0.000420 27637.800000 1 0 0
1.054593 9.801268 11.255607 14.962143 1.463611 0.719292 0.001300 0.000658 -1272000.000000 1 0 0
-3.577607 13.835068 -11.048293 18.063033 -1.317750 2.228944 0.005866 -0.001680 -130522.000000 1 0 0
-10.049407 -5.574632 -2.294693 11.718904 0.506462 1.767881 0.006369 -0.005253 -360199.000000 1 0 0
-4.005607 3.852068 -12.533293 13.710096 -0.765861 2.724240 -0.002164 -0.001320 -696845.000000 1 0 0
-3.300107 8.363268 2.441007 9.316302 -1.194958 1.305687 0.002840 0.001404 -1585920.000000 1 0 0
7.035393 9.002768 7.199007 13.504529 0.907457 1.008558 0.008445 0.001777 -793037.000000 1 0 0
-1.340707 -2.339332 -8.175593 8.608733 1.050379 2.823028 0.002245 -0.002524 -1065860.000000 1 0 0
0.772093 -1.345632 4.865807 5.107145 -1.049882 0.308648 0.006293 -0.001789 1669920.000000 1 0 0
2.854893 -8.842832 -6.068893 11.098538 -1.258512 2.149357 -0.003863 -0.002186 427514.000000 1 0 0
5.285593 3.940068 8.785307 10.983772 0.640573 0.643761 0.002036 -0.001805 250750.000000 1 0 0
6.171693 -7.471632 -2.748493 10.073196 -0.880392 1.847153 -0.003556 -0.003958 820917.000000 1 0 0
1.897993 2.336768 -8.341493 8.868109 0.888643 2.795239 -0.001752 -0.000977 179735.000000 1 0 0
-5.503007 10.986668 -0.688793 12.307087 -1.106445 1.626793 -0.000584 0.001338 636044.000000 1 0 0
-5.445707 3.314568 -3.361493 7.207061 -0.546761 2.056032 -0.001386 0.001687 -213830.000000 1 0 0
1.950393 13.587968 -6.292593 15.100782 1.428232 2.000615 -0.000587 -0.003388 807543.000000 1 0 0
-5.314107 -2.581032 2.650507 6.475079 0.452138 1.149066 -0.006400 -0.000255 858612.000000 1 0 0
10.206893 -3.423632 -1.822793 10.918997 -0.323631 1.738519 0.002702 0.000729 459711.000000 1 0 0
2.253893 -3.208932 7.159107 8.162726 -0.958474 0.501113 0.005403 -0.003681 -2139190.000000 1 0 0
-2.870207 9.834768 -11.679393 15.536054 -1.286840 2.421524 -0.000123 -0.001044 -2199260.000000 1 0 0
0.324393 -2.051632 9.252507 9.482791 -1.413980 0.220831 0.006299 -0.005218 -166896.000000 1 0 0
9.472993 2.693568 5.118507 11.099190 0.277030 1.091494 0.002268 -0.001480 1422670.000000 1 0 0
13.444093 2.078768 -5.084993 14.523156 0.153408 1.928506 0.017517 -0.000936 -1264400.000000 1 0 0
-6.529907 3.860768 7.499307 10.666997 -0.533956 0.791135 -0.005560 0.000218 -74126.300000 1 0 0
10.626593 0.167868 1.852207 10.788110 0.015796 1.398252 0.002177 0.000825 1134760.000000 1 0 0
15.293793 6.669368 -4.557893 17.296096 0.411221 1.837467 0.027668 -0.003975 -958779.000000 1 0 0
8.003393 -4.971332 -9.289993 13.231493 -0.555828 2.349156 -0.001960 -0.000211 1137380.000000 1 0 0
4.394293 5.588468 -2.075893 7.406086 0.904456 1.854898 0.002091 -0.000893 189657.000000 1 0 0
-1.654207 -10.516532 1.485607 10.748994 1.414779 1.432144 0.005476 -0.001075 -841561.000000 1 0 0
-2.778807 12.245168 -12.848293 17.965092 -1.347645 2.367679 0.007285 -0.010842 -573437.000000 1 0 0
8.319593 4.303368 -9.659093 13.454838 0.477358 2.371563 0.001284 -0.001611 -1056640.000000 1 0 0
4.066193 7.620168 -8.917693 12.414754 1.080624 2.372172 0.004896 -0.002331 -1517460.000000 1 0 0
-1.776607 -5.106032 -2.433493 5.928725 1.235955 1.993753 0.004555 -0.002097 608798.000000 1 0 0
-3.284107 -9.289132 6.974707 12.071449 1.230969 0.954784 0.004047 -0.003992 -2007910.000000 1 0 0
1.093593 7.299068 -1.361893 7.505138 1.422076 1.753269 0.002151 -0.000161 2187560.000000 1 0 0
0.301393 -0.659132 -2.302193 2.413583 -1.141924 2.836598 0.003876 0.000519 434917.000000 1 0 0
4.155393 -6.722932 7.701307 11.035182 -1.017180 0.798354 0.004400 -0.002591 -1782440.000000 1 0 0
-14.006607 3.811168 6.091007 15.741996 -0.265666 1.173499 -0.009892 0.001781 -409607.000000 1 0 0
4.249693 6.345368 12.625007 14.755148 0.980675 0.544022 0.002761 -0.002946 -2305300.000000 1 0 0
8.359393 10.025368 -7.032793 14.827260 0.875769 2.064982 0.016954 -0.009400 797800.000000 1 0 0
12.428193 5.370468 9.660907 16.632349 0.407886 0.951023 0.022180 -0.004179 -86040.100000 1 0 0
7.491093 4.077068 0.394907 8.537851 0.498422 1.524526 0.003129 0.001488 -1387690.000000 1 0 0
-10.882607 -7.564332 -1.097693 13.298691 0.607419 1.653432 0.010458 -0.004650 -2028620.000000 1 0 0
10.374093 6.756368 0.191407 12.381718 0.577270 1.555337 0.006165 0.002040 -975239.000000 1 0 0
14.619893 3.795268 4.114807 15.654934 0.253990 1.304828 0.013470 -0.006712 479944.000000 1 0 0
2.076193 5.572768 8.237807 10.160108 1.214166 0.625280 -0.000429 0.001710 461863.000000 1 0 0
4.188893 0.082368 11.629107 12.360815 0.019661 0.345801 -0.000505 -0.006954 -1110800.000000 1 0 0
-1.596307 -1.446132 -0.403093 2.191342 0.736078 1.755798 0.006698 -0.004269 -752377.000000 1 0 0
3.076893 -5.208132 -9.508793 11.269829 -1.037179 2.575008 -0.007754 -0.000066 383188.000000 1 0 0
-3.959907 -5.317732 -1.298993 6.756221 0.930721 1.764267 0.004464 -0.003451 -1169680.000000 1 0 0
-1.402607 -8.691932 8.573907 12.289381 1.410807 0.798659 0.003656 -0.003951 -76536.700000 1 0 0
3.925693 8.580468 -5.912093 11.135005 1.141711 2.130514 0.002852 -0.000591 408297.000000 1 0 0
-14.326907 -1.857332 -2.827793 14.720950 0.128920 1.764091 0.000539 0.000363 -574809.000000 1 0 0
8.918893 -10.570132 -6.621493 15.333574 -0.869923 2.017317 0.005268 0.000102 600077.000000 1 0 0
14.761093 6.105268 1.642207 16.058051 0.392180 1.468350 0.002060 0.000936 -1343020.000000 1 0 0
-5.728907 0.401268 -8.631093 10.367119 -0.069929 2.554482 0.005169 -0.004075 69307.900000 1 0 0
-7.973107 -4.564332 -13.011293 15.927878 0.519928 2.526791 0.014730 -0.002747 724969.000000 1 0 0
0.832993 -10.589332 11.962207 15.997570 -1.492295 0.726127 -0.001892 -0.001843 -367692.000000 1 0 0
0.199593 11.707668 3.428607 12.201011 1.553750 1.285950 0.000623 0.000826 -1460630.000000 1 0 0
5.145293 -13.178532 -3.658493 14.612745 -1.198567 1.823852 0.005999 -0.000660 801074.000000 1 0 0
-7.509607 1.490968 -7.004293 10.376767 -0.195993 2.311758 -0.002482 0.000772 1127220.000000 1 0 0
1.439293 2.751068 4.174807 5.202784 1.088780 0.639460 0.004294 0.002008 -1638050.000000 1 0 0
17.212493 5.479668 2.461607 18.230638 0.308209 1.435357 0.008802 -0.000391 122644.000000 1 0 0
2.601093 -8.126532 -3.463393 9.208762 -1.261026 1.956377 -0.004038 -0.000314 420947.000000 1 0 0
-0.334307 -9.390832 -0.627593 9.417715 1.535212 1.637485 0.004722 0.000980 -967356.000000 1 0 0
0.724993 11.805968 -5.481693 13.036696 1.509464 2.004773 0.000065 -0.000962 -1084560.000000 1 0 0
6.039393 -4.997332 7.791207 11.052172 -0.691260 0.788446 0.005037 -0.004604 -1025220.000000 1 0 0
-6.029307 -1.959132 -9.516693 11.434954 0.314173 2.553943 0.010751 -0.004230 -371636.000000 1 0 0
2.072793 -1.301732 11.095507 11.362274 -0.560760 0.217121 -0.000167 -0.006136 -124449.000000 1 0 0
18.048093 2.010968 -5.716893 19.038396 0.110965 1.875785 0.033564 0.004866 -37074.500000 1 0 0
-8.949107 4.872268 7.758907 12.807270 -0.498566 0.919999 -0.004812 -0.006454 547416.000000 1 0 0
11.294993 -7.078032 -4.884293 14.196186 -0.559787 1.922030 0.021991 -0.007002 162349.000000 1 0 0
10.881293 0.580368 9.039507 14.158109 0.053286 0.878290 0.005181 -0.006955 -89513.600000 1 0 0
-8.440507 -7.351132 -1.679893 11.318275 0.716523 1.719770 0.011129 -0.003697 -826750.000000 1 0 0
10.251593 -10.360932 -3.280093 14.939982 -0.790703 1.792151 0.011884 -0.000060 1120560.000000 1 0 0
7.744393 -13.873732 -3.816993 16.340914 -1.061675 1.806559 0.013424 -0.000611 211114.000000 1 0 0
1.904593 -1.203632 -11.679493 11.894820 -0.563591 2.951028 -0.002818 -0.001358 493845.000000 1 0 0
-11.773807 -2.633332 -6.467093 13.688691 0.220039 2.062854 0.007447 -0.004444 348108.000000 1 0 0
2.730293 -11.963632 -6.332693 13.808909 -1.346423 2.047209 -0.000604 -0.000957 609202.000000 1 0 0
-5.549007 1.453568 1.098207 5.840411 -0.256195 1.381634 -0.003080 0.000874 513711.000000 1 0 0
0.188093 6.883568 -3.970393 7.948768 1.543478 2.093815 0.003006 -0.001425 1205140.000000 1 0 0
5.453893 -11.718832 3.619207 13.422914 -1.135213 1.297789 -0.001851 -0.006244 -1581830.000000 1 0 0
-4.417807 -9.223932 1.068707 10.282999 1.124130 1.466679 0.007559 0.000308 -155226.000000 1 0 0
7.152193 -6.224432 -4.598193 10.537589 -0.716152 2.022347 -0.001301 -0.003246 -309026.000000 1 0 0
-7.060107 -6.066832 2.149107 9.553545 0.709875 1.343901 0.004620 -0.001847 -6736.290000 1 0 0
-5.869107 -0.639632 7.216407 9.323738 0.108554 0.685690 -0.008685 0.002366 -158722.000000 1 0 0
4.144293 -5.003132 3.261107 7.269203 -0.879012 1.105576 0.000026 -0.000550 -374261.000000 1 0 0
-2.372007 10.588568 -8.805693 13.974420 -1.350419 2.252516 -0.003262 0.001672 -1477090.000000 1 0 0
-2.358307 -4.878032 2.781607 6.090497 1.120472 1.096500 0.000402 -0.000543 476596.000000 1 0 0
15.066893 5.075268 6.416407 17.144675 0.324911 1.187208 0.020316 -0.011730 621728.000000 1 0 0
6.780393 0.299268 0.150207 6.788656 0.044109 1.548668 0.004345 -0.001204 4191700.000000 1 0 0
-9.788207 9.305168 0.428007 13.512156 -0.760105 1.539115 -0.003646 -0.000275 -1724390.000000 1 0 0
7.159193 10.496268 -2.611093 12.970871 0.972205 1.773486 0.005222 -0.002136 -256105.000000 1 0 0
1.709693 -4.306732 -5.419293 7.130198 -1.192895 2.434183 -0.005728 -0.000294 -82873.900000 1 0 0
0.867193 -8.152032 -7.667893 11.225160 -1.464817 2.322794 -0.002633 0.000899 1580830.000000 1 0 0
-10.339307 0.258368 -10.662893 14.854808 -0.024984 2.371444 0.004704 -0.002487 -4537190.000000 1 0 0
5.969393 -2.475732 0.610407 6.491186 -0.393146 1.476621 0.002936 -0.000418 -295294.000000 1 0 0
-3.388207 5.397668 -1.014993 6.453292 -1.010246 1.728735 0.002131 0.000262 930657.000000 1 0 0
-0.359207 4.578368 -5.127193 6.883211 -1.492499 2.411157 0.001369 0.000457 -378601.000000 1 0 0
4.018093 -9.639832 10.052207 14.495458 -1.175873 0.804498 -0.001934 -0.000594 327638.000000 1 0 0
7.292393 -13.454532 -0.847393 15.327149 -1.074114 1.626112 0.011730 -0.006887 398339.000000 1 0 0
13.036893 -0.034932 0.608007 13.051110 -0.002679 1.524193 0.006423 -0.003028 208514.000000 1 0 0
9.218393 2.419168 -0.570593 9.547603 0.256641 1.630595 0.004616 0.000717 678035.000000 1 0 0
-0.782507 -5.813532 4.627507 7.471499 1.436999 0.902876 -0.000385 0.000232 -103427.000000 1 0 0
11.508293 -3.716132 3.355407 12.550267 -0.312340 1.300147 0.008511 -0.001552 -1342240.000000 1 0 0
1.531193 -8.122732 11.676307 14.305925 -1.384476 0.616016 0.001378 -0.004356 512871.000000 1 0 0
9.392693 -5.806532 -5.989793 12.562488 -0.553692 2.067807 0.001996 -0.006592 300691.000000 1 0 0
3.214793 6.424368 -0.064893 7.184122 1.106824 1.579829 0.000038 0.001758 -684646.000000 1 0 0
6.385093 -1.323632 11.382107 13.117690 -0.204405 0.520257 -0.002749 -0.007464 299801.000000 1 0 0
-4.751307 -7.521632 -3.881193 9.706365 1.007404 1.982161 0.014437 -0.003611 -58529.300000 1 0 0
-3.347707 -8.601132 -5.803693 10.902727 1.199620 2.132130 0.009246 -0.004203 -910841.000000 1 0 0
9.771193 5.326168 2.263307 11.356357 0.499065 1.370154 0.004757 -0.001655 -273705.000000 1 0 0
8.871893 -1.339832 0.367107 8.980000 -0.149887 1.529904 0.003979 -0.000372 988003.000000 1 0 0
-3.935507 9.648968 9.164607 13.877350 -1.183525 0.849444 0.000432 -0.002355 327700.000000 1 0 0
-14.371607 -3.500732 -6.064493 15.986754 0.238934 1.959884 0.008205 -0.004041 852268.000000 1 0 0
10.624693 6.092868 -6.044093 13.657899 0.520678 2.029219 -0.000342 -0.002455 -527398.000000 1 0 0
-1.915607 4.657468 2.700207 5.714252 -1.180588 1.078627 0.006896 0.000454 708880.000000 1 0 0
6.972493 -3.705532 2.782207 8.371816 -0.488490 1.232023 0.003231 -0.001548 -2043950.000000 1 0 0
8.264993 -11.070432 -1.602593 13.908015 -0.929486 1.686281 0.005330 -0.002757 -1381640.000000 1 0 0
4.481893 0.450568 1.820307 4.858384 0.100194 1.186752 0.003812 0.000219 703459.000000 1 0 0
-10.843307 2.277068 3.797107 11.712403 -0.206990 1.240635 -0.013210 0.000672 -53061.100000 1 0 0
-0.793807 -3.119032 4.329407 5.394651 1.321583 0.639261 0.002179 -0.001309 680815.000000 1 0 0
8.708193 -8.686532 -8.524493 14.965140 -0.784153 2.176844 0.007768 -0.003432 -263018.000000 1 0 0
12.015093 -4.769932 1.020907 12.967535 -0.377913 1.491987 0.005916 -0.000447 594788.000000 1 0 0
2.748393 4.829268 3.481207 6.557004 1.053399 1.011117 0.001563 0.001572 -623666.000000 1 0 0
6.067593 7.448468 2.058207 9.825048 0.887210 1.359747 0.002975 0.000073 -104683.000000 1 0 0
-1.606707 -1.363132 -10.324693 10.537500 0.703565 2.940279 0.006335 -0.002818 1042410.000000 1 0 0
-0.915607 -8.661432 6.055507 10.607917 1.465477 0.963258 0.000703 -0.002801 -607561.000000 1 0 0
-4.305407 -0.294132 2.271507 4.876760 0.068211 1.086278 -0.002258 0.001257 947370.000000 1 0 0
-8.335007 6.157068 -7.961793 13.067975 -0.636230 2.225923 -0.007179 0.001380 -820081.000000 1 0 0
6.352093 11.056268 -9.408593 15.846506 1.049320 2.206486 0.014458 -0.009477 65010.500000 1 0 0
-11.185507 -5.891332 3.047707 13.004303 0.484774 1.334235 0.006005 -0.001490 389516.000000 1 0 0
1.477893 -6.331732 3.075407 7.192574 -1.341491 1.128981 0.001371 -0.002578 820781.000000 1 0 0
10.132093 2.326268 7.456607 12.793429 0.225683 0.948569 0.004367 -0.004685 -2697350.000000 1 0 0
-3.990307 -2.594832 -10.676793 11.689722 0.576575 2.722230 0.006678 -0.003603 -2986970.000000 1 0 0
-8.408007 11.877568 5.866807 15.690463 -0.954795 1.187576 0.002643 -0.003234 -221932.000000 1 0 0
6.811193 6.057168 -2.883893 9.560255 0.726870 1.877224 0.003718 -0.000872 -3358280.000000 1 0 0
3.947193 -9.925432 -2.362793 10.939713 -1.192287 1.788495 -0.002811 -0.004435 282143.000000 1 0 0
8.512893 -12.940532 -7.408793 17.170233 -0.988924 2.016941 0.018917 -0.002153 773149.000000 1 0 0
-1.388107 9.531468 3.727007 10.327938 -1.426179 1.201599 -0.002483 0.002363 227920.000000 1 0 0
0.459593 -13.183632 4.792607 14.035258 -1.535950 1.222317 0.004245 -0.005295 -1814510.000000 1 0 0
-11.204307 -7.047732 -5.090893 14.181827 0.561485 1.937964 0.011266 -0.008351 -139821.000000 1 0 0
3.591893 10.240068 -3.368293 11.362486 1.233437 1.871759 0.004364 -0.003060 -599414.000000 1 0 0
11.669693 -8.032132 -7.456293 16.009159 -0.602824 2.055280 0.032523 -0.008622 64322.600000 1 0 0
11.686093 -4.697732 -5.800793 13.866602 -0.382224 2.002400 0.019389 -0.007457 307653.000000 1 0 0
1.303993 -10.341732 -2.631993 10.750777 -1.445368 1.818129 -0.002269 0.000452 -207151.000000 1 0 0
2.362493 -12.157932 -3.821393 12.961471 -1.378871 1.870071 0.001845 0.000694 -1663030.000000 1 0 0
-7.566207 -5.731632 7.172407 11.897165 0.648303 0.923707 -0.000835 -0.000124 -2268870.000000 1 0 0
-7.272207 -0.875932 9.438807 11.947524 0.119872 0.659951 -0.009331 0.001964 202545.000000 1 0 0
16.237093 2.653168 -7.473593 18.070337 0.161970 1.997183 0.028089 0.004223 394696.000000 1 0 0
-2.044207 6.291068 -5.492693 8.598023 -1.256620 2.263776 0.000601 0.002116 11014.100000 1 0 0
7.720393 1.226468 8.415407 11.485981 0.157544 0.748563 0.004107 -0.005706 -812653.000000 1 0 0
7.865193 8.207568 -3.820693 11.992628 0.806697 1.895035 0.004381 -0.002109 -436047.000000 1 0 0
8.049693 0.571268 4.142707 9.071159 0.070849 1.096525 0.005422 -0.000107 1040770.000000 1 0 0
-7.056707 6.049268 5.182007 10.641615 -0.708680 1.062194 -0.001790 -0.001255 -627681.000000 1 0 0
-6.050907 -2.112432 -4.585893 7.880752 0.335882 2.191872 0.005779 -0.003468 -994847.000000 1 0 0
-15.060107 -2.181432 3.044307 15.518804 0.143848 1.373347 0.005474 -0.002559 -2888030.000000 1 0 0
1.178293 1.220268 -10.557693 10.693096 0.802897 2.982285 0.002245 -0.002386 358046.000000 1 0 0
1.469493 -9.204132 9.257907 13.137134 -1.412477 0.788778 0.000454 -0.001901 137916.000000 1 0 0
-0.072907 -6.666232 -1.102793 6.757227 1.559860 1.734732 0.001113 0.001598 543152.000000 1 0 0
-0.346507 -10.272732 -8.350193 13.242915 1.537078 2.253046 -0.000412 -0.001392 -316135.000000 1 0 0
-4.582907 6.590768 3.851907 8.903845 -0.963196 1.123409 -0.000127 0.001323 -231711.000000 1 0 0
10.738393 -1.104732 -8.595193 13.798944 -0.102516 2.243225 0.026808 -0.001922 510333.000000 1 0 0
3.079793 -1.036832 6.248507 7.043010 -0.324738 0.479571 0.004472 -0.002521 716446.000000 1 0 0
2.030893 -12.321932 6.700207 14.172061 -1.407446 1.078358 0.005937 -0.004085 830197.000000 1 0 0
2.884693 -4.903932 -1.322493 5.841146 -1.039068 1.799186 0.001678 -0.001230 -1991270.000000 1 0 0
-1.214207 9.619868 -1.576993 9.823598 -1.445242 1.732025 -0.000423 0.001037 -21585.500000 1 0 0
4.557593 -2.565832 2.689907 5.881390 -0.512754 1.095773 0.002833 0.001101 -1375450.000000 1 0 0
17.773193 6.715568 -2.655493 19.184287 0.361265 1.709662 0.030867 0.005996 7369.460000 1 0 0
-7.098607 3.436568 -5.466693 9.596091 -0.450862 2.176912 -0.003506 0.001170 343089.000000 1 0 0
-13.817407 -6.144632 2.305307 15.296787 0.418440 1.419515 0.008668 -0.004736 -14366.400000 1 0 0
6.671893 -6.072132 3.361007 9.627113 -0.738371 1.214166 0.000424 -0.002681 1778070.000000 1 0 0
-4.804007 1.988068 3.529107 6.283749 -0.392376 0.974448 -0.000060 -0.000050 209122.000000 1 0 0
6.992593 -12.010332 -5.402193 14.910671 -1.043557 1.941535 0.007114 0.001138 -444071.000000 1 0 0
2.865993 -12.402532 3.438307 13.185548 -1.343701 1.306984 0.006337 -0.007099 -1155220.000000 1 0 0
3.241793 11.271768 -6.105493 13.222671 1.290752 2.050757 0.002624 -0.001643 -674020.000000 1 0 0
-5.569307 -8.406732 6.428507 11.958931 0.985696 1.003269 0.003931 -0.001021 -66286.000000 1 0 0
-4.098307 6.590968 6.355507 10.031424 -1.014497 0.884651 0.000878 0.000363 454142.000000 1 0 0
4.293693 4.399768 -7.018593 9.330295 0.797599 2.422247 -0.001275 0.001034 -2286110.000000 1 0 0
-0.305207 -2.657532 1.546207 3.089722 1.456451 1.046694 0.003896 -0.000956 -2651150.000000 1 0 0
-13.073407 -0.934732 6.446607 14.606384 0.071377 1.113688 -0.001194 0.002261 -154245.000000 1 0 0
-0.582807 -9.319032 -5.940893 11.066988 1.508338 2.137450 -0.000506 -0.000189 1784.090000 1 0 0
2.014293 -1.672732 -3.990493 4.772781 -0.693023 2.560920 -0.001196 0.000856 -1142800.000000 1 0 0
11.333693 -1.858532 1.223607 11.550063 -0.162536 1.464658 0.006353 -0.000944 778866.000000 1 0 0
0.482793 -4.211832 -1.949293 4.666086 -1.456667 2.001772 -0.000084 -0.000668 -1545440.000000 1 0 0
1.211193 -7.450632 -11.266193 13.561195 -1.409644 2.551281 -0.003798 -0.000988 -748989.000000 1 0 0
-4.425407 4.168068 -10.056293 11.751002 -0.755461 2.597856 -0.002247 0.000256 -304.788000 1 0 0
-1.046107 5.873568 -2.084693 6.319738 -1.394540 1.906962 0.003276 -0.000714 -511540.000000 1 0 0
-11.335907 1.755268 -3.925293 12.124013 -0.153621 1.900499 -0.005551 0.002799 -298595.000000 1 0 0
-1.713807 -11.334632 4.170907 12.198667 1.420732 1.221842 0.010255 -0.002594 -129067.000000 1 0 0
-3.486907 -5.607732 -9.773493 11.795183 1.014499 2.547399 0.005876 -0.004251 -784173.000000 1 0 0
-12.874807 -3.730132 -8.402193 15.819968 0.282002 2.130710 0.014320 -0.004505 -172447.000000 1 0 0
11.469493 4.467168 0.634007 12.325048 0.371407 1.519333 0.007823 0.000017 284584.000000 1 0 0
-8.865707 -2.291332 -3.036493 9.647344 0.252915 1.890989 0.003425 -0.002374 -366276.000000 1 0 0
-2.493607 -6.159732 -6.241393 9.116762 1.186138 2.324860 0.003590 -0.002196 289169.000000 1 0 0
-0.059607 2.737568 -1.847493 3.303190 -1.549026 2.164344 0.001668 -0.000106 1360950.000000 1 0 0
8.121493 5.879268 -5.139193 11.266576 0.626596 2.044455 0.005731 -0.001317 -780850.000000 1 0 0
-9.807907 -0.958632 -0.983793 9.903629 0.097431 1.670297 -0.002498 -0.000616 -232467.000000 1 0 0
6.151593 0.575868 -8.842293 10.787023 0.093341 2.531711 -0.003403 0.001098 649924.000000 1 0 0
-4.237207 2.489668 7.904007 9.307293 -0.531232 0.556276 -0.004042 0.003140 -308003.000000 1 0 0
-10.161007 -3.442132 1.275607 10.803773 0.326626 1.452450 0.000566 -0.003212 2556150.000000 1 0 0
-1.811907 -8.187632 -7.895493 11.517774 1.353008 2.326093 0.002937 -0.005084 118309.000000 1 0 0
-9.516307 -9.837132 4.080107 14.282036 0.801974 1.281079 0.006806 0.001014 -102852.000000 1 0 0
-1.095207 -10.809532 7.335307 13.109241 1.469822 0.976951 0.006368 -0.001001 36230.000000 1 0 0
9.484593 3.800168 -3.687193 10.862512 0.381082 1.917120 0.004099 -0.000834 -791366.000000 1 0 0
12.770193 -0.628732 3.178907 13.174922 -0.049195 1.327107 0.005801 -0.002882 -360384.000000 1 0 0
6.503593 11.871068 -6.840393 15.166079 1.069603 2.038718 0.011366 -0.006388 589269.000000 1 0 0
-11.842507 -0.050032 -6.588593 13.552012 0.004225 2.078499 0.000496 0.001786 266680.000000 1 0 0
-7.552207 -6.639532 -11.496793 15.274012 0.721176 2.422954 0.015927 -0.004918 -2527950.000000 1 0 0
4.057793 6.045968 6.609607 9.833937 0.979692 0.833725 0.001572 0.002081 -2531350.000000 1 0 0
-4.242707 -1.420232 -7.464193 8.702402 0.323022 2.601608 0.006424 -0.005874 376144.000000 1 0 0
9.546593 9.227468 0.957707 13.311679 0.768402 1.498789 0.005701 0.002857 -1023680.000000 1 0 0
-9.051807 4.086268 4.840507 11.048227 -0.424043 1.117284 -0.010523 0.001397 1030430.000000 1 0 0
-6.845707 7.861768 -12.273193 16.102868 -0.854373 2.437462 -0.004864 -0.002985 -1294060.000000 1 0 0
11.169793 -3.542232 7.253407 13.781277 -0.307094 1.016526 0.006958 -0.001291 403093.000000 1 0 0
11.860093 6.974168 6.488107 15.211718 0.531576 1.130154 0.011885 -0.005707 46887.100000 1 0 0
-9.667307 -0.854932 -14.967993 17.838961 0.088206 2.566353 0.006420 0.002837 428897.000000 1 0 0
1.798293 -13.047332 11.936907 17.775165 -1.433831 0.834498 -0.001164 0.000122 222631.000000 1 0 0
2.828093 2.989868 13.023307 13.658110 0.813197 0.306080 -0.001123 -0.005325 -1362800.000000 1 0 0
-2.644307 -1.448232 10.959707 11.366834 0.501060 0.268451 0.004436 -0.002933 -283069.000000 1 0 0
2.551193 -10.069632 -8.285993 13.287729 -1.322662 2.244113 -0.006885 0.001224 -1154870.000000 1 0 0
13.934093 3.589168 -7.463493 16.209404 0.252102 2.049290 0.020177 -0.002075 -1569150.000000 1 0 0
7.194293 -1.598632 5.087307 8.955120 -0.218656 0.966614 0.003376 -0.000524 713735.000000 1 0 0
-1.255607 8.667668 10.246607 13.479540 -1.426936 0.707237 0.004974 0.000442 443787.000000 1 0 0
-12.266707 -4.760332 0.934907 13.191168 0.370179 1.499863 0.004537 -0.004354 25206.800000 1 0 0
-4.891007 4.868468 -5.291593 8.696257 -0.783089 2.224954 0.000559 -0.000279 -117433.000000 1 0 0
-11.200907 0.226168 1.991207 11.378769 -0.020189 1.394897 -0.010920 0.001941 -3184520.000000 1 0 0
-1.331807 2.189968 -4.128593 4.859521 -1.024413 2.586001 0.001117 -0.001217 767636.000000 1 0 0
3.066993 -9.817732 13.084407 16.643197 -1.268009 0.666207 0.001094 -0.001093 -1004090.000000 1 0 0
8.704093 4.688668 -1.481393 9.996968 0.494106 1.719528 0.000206 -0.002172 -692161.000000 1 0 0
4.027193 2.290068 3.744707 5.956973 0.517050 0.891011 -0.000142 0.001407 321536.000000 1 0 0
-5.668507 -3.269032 7.435907 9.905113 0.523111 0.721654 -0.006212 -0.000092 -121605.000000 1 0 0
1.884493 -5.787032 7.661407 9.784591 -1.255985 0.671310 0.001755 -0.003030 -1223410.000000 1 0 0
-5.792607 -6.185232 -9.837193 12.983903 0.818166 2.430494 0.015428 -0.005630 -697483.000000 1 0 0
-11.711207 -5.815032 5.461607 14.170255 0.460872 1.175125 0.006200 -0.001836 -1037690.000000 1 0 0
10.516293 6.172668 4.676707 13.060086 0.530778 1.204573 0.007522 -0.001248 -1372130.000000 1 0 0
1.476893 -3.630632 0.337307 3.934015 -1.184453 1.484950 0.005481 -0.001046 -636132.000000 1 0 0
8.730093 4.440168 7.041507 12.062854 0.470508 0.947475 0.003742 0.000921 673612.000000 1 0 0
-7.950607 12.302268 3.517607 15.064246 -0.997047 1.335113 -0.002216 -0.003543 -391113.000000 1 0 0
-6.182907 13.335168 -7.132293 16.337829 -1.136646 2.022558 0.005852 -0.005749 229064.000000 1 0 0
4.441393 -6.905732 -0.906593 8.260570 -0.999255 1.680767 -0.001810 -0.003265 -2282080.000000 1 0 0
-1.926607 -8.076332 11.053807 13.824819 1.336623 0.644230 0.004198 -0.005972 -155695.000000 1 0 0
11.507293 8.711968 -5.616393 15.487416 0.648018 1.941898 0.007895 -0.009388 490659.000000 1 0 0
-3.296607 -2.917932 -1.877193 4.786000 0.724540 1.973846 0.006534 -0.003387 -2573570.000000 1 0 0
-2.186107 6.057768 4.784907 8.023151 -1.224465 0.931803 0.004990 0.001977 1509390.000000 1 0 0
0.378893 -11.394732 -5.521793 12.667820 -1.537557 2.021825 -0.001760 -0.002314 -1747060.000000 1 0 0
-8.950407 6.267468 -1.640193 11.049035 -0.610890 1.719794 -0.002275 0.001042 -784736.000000 1 0 0
2.877393 -0.011432 3.849307 4.805901 -0.003973 0.641909 0.002912 -0.000037 -94770.400000 1 0 0
-10.105607 3.937768 -1.073593 10.898712 -0.371562 1.669463 -0.006783 0.002546 -339920.000000 1 0 0
6.432193 5.554068 13.592107 16.030164 0.712268 0.558769 0.008504 -0.004517 -2207730.000000 1 0 0
-8.729207 -1.637532 5.567107 10.482044 0.185437 1.010888 -0.009163 0.000802 -303313.000000 1 0 0
12.922093 -1.798832 -1.375993 13.119056 -0.138317 1.675875 0.014205 -0.003238 -1341920.000000 1 0 0
5.100793 -5.579432 5.506107 9.352292 -0.830184 0.941292 0.003992 -0.003675 30837.600000 1 0 0
-9.012807 -1.370632 3.047507 9.612317 0.150920 1.248187 -0.009311 -0.000421 500120.000000 1 0 0
1.898093 5.419468 5.621307 8.035701 1.233911 0.796040 0.004427 0.001510 -995737.000000 1 0 0
9.214493 2.994268 -7.457493 12.226476 0.314189 2.226789 0.003305 -0.001960 -814103.000000 1 0 0
2.248293 -2.279532 -1.521693 3.544945 -0.792297 2.014466 0.000445 -0.000954 122804.000000 1 0 0
-6.103007 0.403168 -3.967993 7.290693 -0.065965 2.146297 0.002335 0.001122 -1590660.000000 1 0 0
-4.166207 4.226768 5.004407 7.763179 -0.792614 0.870252 -0.000072 0.002068 507967.000000 1 0 0
-6.360407 1.711968 -12.360593 14.006065 -0.262929 2.651984 0.001906 0.001048 -2636810.000000 1 0 0
-0.085707 3.156168 6.328007 7.071946 -1.543648 0.462804 0.002566 0.000339 894591.000000 1 0 0
-8.672407 9.560268 -2.071593 13.072906 -0.834056 1.729932 -0.003979 0.003016 1214570.000000 1 0 0
-1.317207 -3.793632 -6.075793 7.282989 1.236604 2.557557 -0.000046 -0.001308 386774.000000 1 0 0
-3.338307 7.070668 -2.889793 8.336039 -1.129688 1.924807 0.001151 0.002596 641905.000000 1 0 0
6.869093 -0.429432 -4.297993 8.114283 -0.062435 2.129022 -0.000958 0.001800 113151.000000 1 0 0
-5.205907 -10.896132 6.932007 13.924076 1.125086 1.049686 0.000627 -0.001493 442007.000000 1 0 0
9.683593 8.403268 -1.410293 12.898675 0.714728 1.680352 0.004503 0.002446 -540968.000000 1 0 0
13.755893 4.563868 -4.263493 15.107311 0.320348 1.856897 0.010500 -0.001202 900084.000000 1 0 0
4.636093 1.125668 -6.839193 8.338767 0.238196 2.532501 -0.003384 0.002013 -431103.000000 1 0 0
9.048393 -4.760432 3.576207 10.831638 -0.484315 1.234320 0.003763 -0.001753 -1194860.000000 1 0 0
-8.798307 -3.381232 -0.871393 9.465847 0.366903 1.662983 -0.000394 -0.001952 9350.580000 1 0 0
-8.522507 -4.290932 -10.515793 14.199546 0.466430 2.404718 0.013123 -0.004785 462867.000000 1 0 0
10.443793 -1.121932 10.806107 15.069953 -0.107015 0.771217 0.004848 -0.006627 892106.000000 1 0 0
2.079693 -11.564032 9.761507 15.275437 -1.392857 0.877556 -0.004104 -0.004892 851949.000000 1 0 0
-6.385307 -10.649732 2.025907 12.581464 1.030690 1.409069 0.006024 0.003013 -679125.000000 1 0 0
-3.733707 -1.681832 6.545807 7.721187 0.423224 0.559026 -0.000478 -0.002738 -2052570.000000 1 0 0
4.694193 -7.581432 3.910507 9.736818 -1.016401 1.157510 -0.002222 -0.000436 265729.000000 1 0 0
11.456493 -9.461332 -5.346493 15.790915 -0.690305 1.916204 0.023044 -0.006781 878816.000000 1 0 0
11.260993 1.152968 11.552707 16.174188 0.102030 0.775218 0.014508 -0.005390 -661619.000000 1 0 0
-10.227007 -3.535932 4.265907 11.631529 0.332879 1.195279 -0.001349 -0.000182 926718.000000 1 0 0
1.940393 8.767768 9.035807 12.739101 1.352997 0.782296 0.000801 0.003709 148116.000000 1 0 0
6.495693 8.795268 4.109007 11.680527 0.934667 1.211321 0.007206 0.001422 1789470.000000 1 0 0
-4.298307 3.604668 0.377307 5.622405 -0.697853 1.503638 0.002064 -0.000767 -461303.000000 1 0 0
4.813593 6.900568 4.244207 9.423471 0.961707 1.103598 0.004303 0.000820 -1460960.000000 1 0 0
-8.274707 13.205068 1.123707 15.623934 -1.011025 1.498812 0.002046 -0.003642 962791.000000 1 0 0
8.906493 8.113868 -9.059993 15.074612 0.738863 2.215561 0.002690 -0.007180 -97232.600000 1 0 0
6.977393 2.002468 6.070407 9.462755 0.279482 0.874337 0.001715 -0.000332 -688789.000000 1 0 0
11.557693 -6.180432 3.115507 13.471614 -0.491057 1.337419 0.007039 -0.001130 -516440.000000 1 0 0
11.295693 4.754368 -1.952793 12.410080 0.398394 1.728808 0.005164 0.000704 480801.000000 1 0 0
-3.947007 14.310768 -5.982393 16.005186 -1.301680 1.953876 0.001225 0.001313 662100.000000 1 0 0
7.152993 -3.002332 7.051707 10.483600 -0.397399 0.833023 0.005603 -0.005209 -1302210.000000 1 0 0
-8.058907 -0.486332 0.843707 8.117533 0.060274 1.466672 -0.005192 -0.000383 266261.000000 1 0 0
-3.272007 1.053868 10.623207 11.165537 -0.311594 0.312954 0.000571 0.001127 -182565.000000 1 0 0
7.065693 -1.227132 -1.904393 7.420012 -0.171959 1.830357 0.004679 -0.000206 -1551820.000000 1 0 0
-7.934907 5.420768 2.919707 10.043514 -0.599331 1.275832 -0.007645 0.002227 660418.000000 1 0 0
9.520493 -2.076232 2.980207 10.189806 -0.214718 1.273988 0.004172 -0.001332 -1624320.000000 1 0 0
0.181393 3.429668 1.632207 3.802582 1.517956 1.127149 0.005722 0.001437 -990516.000000 1 0 0
-7.614407 -3.165632 3.927007 9.133554 0.394003 1.126355 -0.005700 -0.000842 -1601190.000000 1 0 0
-2.154407 8.426768 -6.737993 11.002383 -1.320496 2.229905 -0.001284 0.001395 -191127.000000 1 0 0
4.444593 9.807968 7.432207 13.083897 1.145316 0.966671 0.000315 0.005070 923490.000000 1 0 0
-11.715007 -3.163532 6.760707 13.890878 0.263750 1.062487 0.001770 0.000534 -2205360.000000 1 0 0
-4.707807 2.334268 -5.611893 7.688016 -0.460305 2.389050 0.003679 -0.002558 -942235.000000 1 0 0
-2.738107 2.965668 -1.922693 4.470925 -0.825274 2.015337 0.003270 0.001286 450660.000000 1 0 0
2.368893 5.220168 11.566707 12.909319 1.144790 0.460126 0.001537 -0.004240 258873.000000 1 0 0
-0.765907 1.610168 4.590707 4.924820 -1.126802 0.370470 0.005157 -0.000987 -37412.700000 1 0 0
5.114393 1.586968 7.752707 9.422311 0.300874 0.604471 0.001378 0.000548 -352250.000000 1 0 0
3.407393 -8.155332 1.854607 9.031020 -1.175030 1.363965 -0.001718 -0.001046 3083530.000000 1 0 0
5.029293 6.390868 -4.576093 9.331538 0.904064 2.083333 0.001846 0.000057 -2453350.000000 1 0 0
-4.022307 2.902168 -8.007893 9.419548 -0.625022 2.587039 0.003460 -0.004428 -515221.000000 1 0 0
-8.714107 -2.231732 -12.910793 15.735465 0.250717 2.533064 0.013866 -0.004287 -296801.000000 1 0 0
-7.969807 8.191568 1.374307 11.511227 -0.799119 1.451122 -0.001628 0.000783 -1911360.000000 1 0 0
7.339493 0.941468 -6.496293 9.846641 0.127578 2.291278 -0.002326 0.001687 420755.000000 1 0 0
8.895293 8.887268 5.568907 13.752182 0.784947 1.153875 0.007765 0.001294 637498.000000 1 0 0
9.329393 -1.021732 -1.425193 9.492770 -0.109083 1.721501 0.004920 -0.000519 919511.000000 1 0 0
5.353193 0.083168 4.266007 6.845612 0.015535 0.898002 0.001175 0.001124 -292182.000000 1 0 0
-4.287507 -7.248432 -7.892593 11.541902 1.036644 2.323783 0.011836 -0.007207 24078.400000 1 0 0
-2.227607 7.497268 -0.533393 7.839373 -1.281981 1.638889 0.003811 0.000002 245793.000000 1 0 0
13.340093 -3.356332 -7.423793 15.631242 -0.246481 2.065684 0.031754 -0.005840 707382.000000 1 0 0
-4.837607 -5.181632 1.617907 7.271133 0.819721 1.346407 0.002834 -0.001750 1233190.000000 1 0 0
-8.988907 1.222868 2.580507 9.431589 -0.135212 1.293660 -0.009477 0.002533 -2126900.000000 1 0 0
-1.071507 11.059968 10.163907 15.059085 -1.474216 0.829919 0.005050 -0.000772 554643.000000 1 0 0
-8.393307 0.234368 7.204707 11.063921 -0.027916 0.861646 -0.011600 0.000797 -773470.000000 1 0 0
-5.900007 12.908168 -2.242993 14.368782 -1.142074 1.727539 -0.007522 0.000455 815362.000000 1 0 0
-12.979207 -0.783932 3.172607 13.384312 0.060326 1.331479 -0.003197 -0.000470 236430.000000 1 0 0
-6.664507 12.726468 8.644107 16.766015 -1.088390 1.029120 0.007685 -0.008410 1962700.000000 1 0 0
-7.913607 0.942768 -14.187893 16.272993 -0.118574 2.629799 0.005478 -0.000971 -383067.000000 1 0 0
7.347493 2.908268 3.846407 8.788545 0.376896 1.117800 0.003652 0.000855 -197251.000000 1 0 0
-1.772607 0.766568 -1.966993 2.756596 -0.408166 2.365361 0.002005 -0.000529 1087170.000000 1 0 0
-6.261207 9.654168 -10.356393 15.480974 -0.995441 2.303626 -0.006111 -0.003066 -373820.000000 1 0 0
-10.053307 13.811868 5.297207 17.885667 -0.941607 1.270116 -0.002650 -0.004182 739162.000000 1 0 0
-5.722707 8.445068 2.468207 10.495742 -0.975236 1.333410 -0.000819 -0.000861 -1507660.000000 1 0 0
-2.393007 -10.660632 -1.216193 10.993393 1.349985 1.681653 0.004117 0.001056 313163.000000 1 0 0
-2.247507 -12.420032 8.864107 15.423387 1.391775 0.958536 0.002757 -0.001718 18296.300000 1 0 0
-14.769807 -6.463632 -1.726393 16.214382 0.412515 1.677471 0.025841 -0.006485 512555.000000 1 0 0
-2.712607 -9.428832 3.273807 10.343062 1.290668 1.248736 0.005375 -0.001223 727677.000000 1 0 0
4.719993 -2.636432 7.518207 9.260267 -0.509397 0.623435 0.005562 -0.001623 -1458360.000000 1 0 0
-14.909207 -1.323732 -0.344793 14.971827 0.088554 1.593828 -0.004290 -0.001303 -499337.000000 1 0 0
5.516793 8.741968 -2.837993 10.719665 1.007844 1.838737 0.003476 -0.001447 -1097270.000000 1 0 0
-5.657507 -5.706432 8.497207 11.695011 0.789703 0.757484 0.001313 -0.001847 -4031760.000000 1 0 0
3.388893 3.564268 7.029207 8.578949 0.810615 0.610511 0.001962 -0.000242 599288.000000 1 0 0
3.280793 2.331468 9.381707 10.208613 0.617832 0.405262 0.005084 -0.005501 2097620.000000 1 0 0
9.943993 -3.144532 5.225007 11.664981 -0.306274 1.106356 0.009562 -0.001661 -375298.000000 1 0 0
6.479293 9.965668 -5.052293 12.915937 0.994308 1.972696 0.006262 -0.003631 148327.000000 1 0 0
-4.443707 12.089168 -8.616593 15.496457 -1.218549 2.160406 -0.003049 -0.003627 -828484.000000 1 0 0
-3.316307 -7.284432 2.221307 8.306326 1.143577 1.300078 0.006711 -0.003291 993277.000000 1 0 0
-7.435507 -4.095732 1.091907 8.558858 0.503483 1.442871 0.002008 -0.002615 2407160.000000 1 0 0
-1.901807 -4.015732 -10.910793 11.780847 1.128500 2.754861 0.008160 -0.002358 -836542.000000 1 0 0
-5.243007 8.322868 -4.440993 10.792668 -1.008644 1.994876 -0.002116 -0.001014 -1815860.000000 1 0 0
-10.989907 -3.302832 -10.226493 15.371009 0.291946 2.298706 0.012745 -0.003622 33599.000000 1 0 0
4.673993 -11.320332 -7.799293 14.519817 -1.179232 2.137849 -0.001898 0.000819 -3205870.000000 1 0 0
-9.321607 -3.960032 7.160007 12.403222 0.401721 0.955415 -0.005831 0.002122 -818813.000000 1 0 0
-5.657707 -9.706632 -5.190493 12.376169 1.043067 2.003574 0.010645 -0.007789 411690.000000 1 0 0
4.757393 4.390268 -9.491193 11.488689 0.745287 2.543007 -0.000419 0.002452 500552.000000 1 0 0
-3.327507 -7.332332 -14.122293 16.256523 1.144776 2.623399 0.005934 -0.002643 -67435.500000 1 0 0
0.701493 -0.879632 -8.784293 8.856051 -0.897591 3.014206 -0.000477 -0.002307 293989.000000 1 0 0
-7.769007 2.160468 -2.926693 8.578498 -0.271235 1.918953 -0.001200 0.000705 -13545.400000 1 0 0
-2.310407 7.497968 -12.525793 14.780155 -1.271890 2.582004 -0.001394 -0.000631 -213620.000000 1 0 0
-9.914507 8.936268 7.594807 15.356935 -0.733551 1.053477 0.001462 -0.007656 -663807.000000 1 0 0
-10.600307 -3.165132 -14.478893 18.221496 0.290162 2.489153 0.020941 0.000738 -109607.000000 1 0 0
-3.418307 4.881568 7.913907 9.906789 -0.959904 0.645437 0.000522 0.000798 -126641.000000 1 0 0
8.655293 -2.240232 -3.627793 9.648503 -0.253270 1.956267 0.002729 0.000442 -5531950.000000 1 0 0
2.019793 -8.435332 -1.048493 8.736917 -1.335777 1.691093 -0.002838 0.000530 -518506.000000 1 0 0
-13.497507 -2.941032 4.943707 14.672171 0.214541 1.227127 0.011357 -0.002468 405183.000000 1 0 0
7.023793 2.702468 -1.969493 7.779197 0.367299 1.826756 0.001702 -0.000119 -52074.800000 1 0 0
-11.156207 4.472268 8.809107 14.901762 -0.381262 0.938318 -0.005324 -0.006418 -3399430.000000 1 0 0
-1.744407 -2.641632 7.876507 8.488848 0.987178 0.382149 0.000582 -0.002807 -1696820.000000 1 0 0
3.207493 11.965268 -9.972693 15.903152 1.308887 2.248607 0.004899 -0.006170 219665.000000 1 0 0
3.720493 -5.031432 -7.026093 9.408685 -0.934081 2.413984 -0.009381 -0.000903 311869.000000 1 0 0
8.200593 -13.827932 -9.736993 18.795490 -1.035506 2.115365 0.026832 0.004198 233480.000000 1 0 0
-6.316907 -5.716632 -0.470893 8.532581 0.735556 1.626012 0.010146 -0.003500 -316073.000000 1 0 0
-1.301107 -4.059332 9.914107 10.791690 1.260619 0.406071 0.001623 -0.003552 932006.000000 1 0 0
2.748793 3.352568 1.864407 4.719279 0.884035 1.164661 -0.000583 0.003120 -306437.000000 1 0 0
-9.240707 13.457468 7.831207 18.105853 -0.969079 1.123507 0.006551 -0.006914 211071.000000 1 0 0
4.022093 -11.106132 -0.006193 11.812004 -1.223338 1.571321 -0.001220 -0.002042 -206226.000000 1 0 0
-12.441707 -1.354032 -9.197193 15.531189 0.108403 2.204553 0.007471 -0.002674 543258.000000 1 0 0
-4.134307 0.947268 -13.525393 14.174839 -0.225236 2.837714 0.003276 -0.000202 485977.000000 1 0 0
3.782693 -3.211632 5.013507 7.053978 -0.703933 0.780254 0.002110 0.002531 -538003.000000 1 0 0
1.637893 -1.175932 1.016707 2.258141 -0.622674 1.103761 0.003293 0.001271 281005.000000 1 0 0
8.135793 -9.102232 7.468707 14.311650 -0.841404 1.021764 0.008609 -0.002291 -1021850.000000 1 0 0
-0.073807 2.359168 -6.472993 6.889902 -1.539521 2.791934 0.000240 -0.002355 -380868.000000 1 0 0
-3.766807 -9.728432 -3.331893 10.951380 1.201377 1.879941 0.008877 -0.000872 668468.000000 1 0 0
-9.418807 2.297168 -5.441193 11.117441 -0.239221 2.082231 -0.004821 0.003586 -1974060.000000 1 0 0
8.920693 -7.630632 5.371607 12.909666 -0.707612 1.141653 0.001141 -0.000167 1270610.000000 1 0 0
-5.563507 -4.315432 4.674607 8.451480 0.659727 0.984702 -0.002686 -0.000530 -1018680.000000 1 0 0
-0.213607 -12.432632 10.431607 16.230662 1.553617 0.872766 0.004858 -0.002758 -2170830.000000 1 0 0
-14.290907 -8.392832 3.082207 16.857333 0.531018 1.386921 0.020766 -0.006358 -1188860.000000 1 0 0
10.983993 -1.457832 -3.551893 11.635691 -0.131952 1.881006 0.019139 -0.000279 -75960.400000 1 0 0
-13.655207 2.998968 2.705207 14.239966 -0.216189 1.379662 -0.011763 -0.000142 -1543450.000000 1 0 0
-6.459607 6.210368 1.082207 9.025872 -0.765729 1.450607 -0.002931 0.000556 352825.000000 1 0 0
7.027193 -6.891832 -0.350693 9.848948 -0.775674 1.606411 -0.003404 -0.003042 -425275.000000 1 0 0
-6.971007 7.767668 10.075907 14.507085 -0.839398 0.803001 0.004311 -0.003584 254390.000000 1 0 0
-12.637607 -5.178332 -2.048793 13.810206 0.388888 1.719699 0.003671 -0.006951 -2696760.000000 1 0 0
-9.444907 -5.676732 0.147807 11.020590 0.541181 1.557384 0.005766 -0.002558 -807902.000000 1 0 0
-1.896107 1.894068 2.205607 3.470940 -0.784860 0.882206 0.003000 0.001259 494684.000000 1 0 0
-7.180207 7.397868 7.562707 12.785866 -0.800328 0.937891 -0.000610 -0.005670 -229731.000000 1 0 0
5.697593 7.038568 -0.397593 9.064330 0.890300 1.614674 0.004260 -0.001316 -1598370.000000 1 0 0
0.003093 -4.155632 7.528207 8.599023 -1.570052 0.504384 0.001458 -0.002756 -1628500.000000 1 0 0
6.420493 0.654468 13.033807 14.544112 0.101583 0.459765 -0.002508 -0.008759 209360.000000 1 0 0
5.802093 6.124868 -7.787893 11.481705 0.812454 2.316225 -0.001268 -0.001070 -691592.000000 1 0 0
9.912193 5.380268 9.167107 14.533916 0.497293 0.888291 0.005065 -0.003513 -1409510.000000 1 0 0
-1.316207 -5.048632 -8.386493 9.876960 1.315767 2.585069 0.001953 -0.001595 668453.000000 1 0 0
9.951793 -3.535232 -7.990793 13.243444 -0.341331 2.218526 0.014607 -0.007260 719110.000000 1 0 0
8.351493 -5.437732 1.320907 10.052918 -0.577154 1.439020 0.003666 -0.002560 936907.000000 1 0 0
15.800993 3.166868 -4.959993 16.861256 0.197801 1.869378 0.027689 0.004814 -990848.000000 1 0 0
-6.938707 3.651268 1.147707 7.924308 -0.484401 1.425451 -0.004025 0.000657 1034030.000000 1 0 0
-1.797107 3.858768 0.339407 4.270232 -1.134946 1.491230 0.003770 -0.000919 -307362.000000 1 0 0
-2.663307 10.174768 6.860807 12.557460 -1.314784 0.992792 0.001159 0.001361 -1469980.000000 1 0 0
5.409693 -5.791332 -8.719493 11.782778 -0.819457 2.403897 -0.007810 -0.001165 -1142980.000000 1 0 0
-1.214207 -1.048432 6.178807 6.383664 0.712262 0.254023 0.002631 -0.001940 -192746.000000 1 0 0
-5.671907 4.947168 -7.796093 10.836238 -0.717255 2.373801 -0.004156 0.000828 -87358.400000 1 0 0
6.801593 -1.224432 2.568507 7.372796 -0.178114 1.214958 0.003128 0.001504 -1262930.000000 1 0 0
8.815893 7.516568 3.292507 12.044059 0.706011 1.293900 0.006019 0.000152 413560.000000 1 0 0
-5.250407 -4.766432 -7.839593 10.570944 0.737120 2.406274 0.012866 -0.007888 1343330.000000 1 0 0
-2.353007 7.954968 -9.986293 12.982457 -1.283206 2.448407 -0.001426 0.000812 569595.000000 1 0 0
-2.848207 -2.329332 1.637907 4.027507 0.685515 1.151979 -0.002241 0.002914 -147913.000000 1 0 0
5.922993 -2.014332 -9.235393 11.154903 -0.327816 2.546189 -0.006023 0.000872 1087360.000000 1 0 0
1.125593 -7.588332 5.251207 9.296500 -1.423538 0.970535 -0.000703 -0.001321 729877.000000 1 0 0
1.651593 11.827268 1.321007 12.014870 1.432051 1.460626 0.000750 -0.001037 -490025.000000 1 0 0
-1.107607 7.178768 2.562707 7.702530 -1.417714 1.231621 0.004377 0.001442 206957.000000 1 0 0
8.760893 7.767568 -6.624593 13.452642 0.725373 2.085685 0.005712 -0.005755 -252415.000000 1 0 0
3.668093 -10.871132 5.378507 12.671415 -1.245376 1.132431 0.005118 0.000186 -225592.000000 1 0 0
7.957093 -6.992432 12.387407 16.298997 -0.720960 0.707467 0.013489 -0.004331 -214882.000000 1 0 0
-8.511507 -0.013032 -4.070493 9.434767 0.001531 2.016880 0.002458 0.000432 -1675870.000000 1 0 0
-3.353807 -4.959832 11.262907 12.755432 0.976227 0.488604 0.005620 -0.008032 202044.000000 1 0 0
-8.130107 0.071268 -11.669993 14.222955 -0.008766 2.533089 0.007446 -0.003458 -2522930.000000 1 0 0
1.424993 -5.008832 5.387307 7.492802 -1.293623 0.768437 0.003219 -0.001644 -732438.000000 1 0 0
6.664593 3.697868 -7.640993 10.792395 0.506561 2.357455 0.000548 0.000713 -100386.000000 1 0 0
16.302793 4.121768 -1.238793 16.861335 0.247637 1.644332 0.017451 0.006989 544270.000000 1 0 0
7.886693 7.446468 0.275607 10.850151 0.756695 1.545392 0.004059 -0.000578 -3747000.000000 1 0 0
5.373693 -10.455432 14.006407 18.285844 -1.096042 0.698248 0.004780 -0.002998 -96551.300000 1 0 0
-5.052807 -9.321032 8.993107 13.902823 1.074049 0.867343 -0.002435 -0.004661 482780.000000 1 0 0
-12.619207 -3.266032 2.793507 13.330980 0.253257 1.359682 0.003627 -0.002543 -34505.500000 1 0 0
-2.135907 -1.402832 -6.002593 6.523891 0.581130 2.739117 0.003286 -0.004719 -2823700.000000 1 0 0
-2.351207 12.917968 -4.413193 13.852016 -1.390757 1.895044 -0.001357 0.005624 509898.000000 1 0 0
3.935993 -0.387232 -4.922693 6.314657 -0.098067 2.464769 -0.003271 0.001698 -379228.000000 1 0 0
-8.848707 3.766168 -7.481693 12.184390 -0.402394 2.231964 -0.004181 0.001189 381406.000000 1 0 0
-4.597807 7.982368 -11.396693 14.654100 -1.048214 2.461817 -0.005727 0.001349 -2676890.000000 1 0 0
-10.044607 -6.515032 7.377007 14.062717 0.575397 1.018576 0.001027 0.000845 -258266.000000 1 0 0
8.031493 5.322668 4.240307 10.526912 0.585269 1.156215 0.002903 -0.001200 -1826210.000000 1 0 0
-6.651407 -7.535032 3.995207 10.815711 0.847604 1.192445 0.008463 -0.000862 -535467.000000 1 0 0
-4.054007 11.858168 8.181407 14.966180 -1.241378 0.992426 -0.000387 -0.001262 -1102750.000000 1 0 0
-7.203407 10.008768 -7.878493 14.633358 -0.946965 2.139325 -0.004636 -0.001497 690940.000000 1 0 0
13.063393 5.501968 4.645307 14.916527 0.398626 1.254109 0.005588 -0.003538 445102.000000 1 0 0
5.389093 3.979768 -3.776793 7.690581 0.636091 2.084141 -0.000556 0.001084 548022.000000 1 0 0
-2.913607 -4.181332 5.080807 7.196336 0.962212 0.786924 -0.001059 -0.000987 -923932.000000 1 0 0
12.516493 -2.299732 -5.332693 13.798151 -0.181709 1.967607 0.021401 -0.005753 -1249670.000000 1 0 0
-5.330407 9.885168 7.030007 13.249558 -1.076257 1.011507 0.000113 -0.000375 564381.000000 1 0 0
1.759893 3.819568 -0.405093 4.224976 1.139033 1.666824 0.000545 -0.000649 590564.000000 1 0 0
-0.195807 9.630368 7.760607 12.369695 -1.550467 0.892601 0.001598 0.002084 220580.000000 1 0 0
-5.670507 2.208168 5.868907 8.454273 -0.371346 0.803497 -0.005285 0.001573 675967.000000 1 0 0
8.856793 0.989768 10.758407 13.970174 0.111291 0.691801 0.001678 -0.005286 -1114690.000000 1 0 0
0.533193 -2.870732 -10.199693 10.609388 -1.387155 2.862783 -0.000628 0.000231 -1128920.000000 1 0 0
1.237693 10.531368 -2.599393 10.917804 1.453809 1.811193 0.000690 0.000515 577885.000000 1 0 0
2.275793 -4.378632 11.590307 12.597098 -1.091474 0.402518 0.003398 -0.006774 -653880.000000 1 0 0
6.491593 -3.096632 9.463907 11.886776 -0.445097 0.649856 0.004409 -0.006988 639769.000000 1 0 0
-10.634907 -8.258432 5.584007 14.576834 0.660272 1.177674 0.009165 -0.002953 -734070.000000 1 0 0
-2.922507 0.843068 -6.871493 7.514601 -0.280849 2.724866 0.005498 -0.003532 856915.000000 1 0 0
11.007993 2.645968 -5.119793 12.425350 0.235893 1.995493 0.009897 -0.001502 -2440690.000000 1 0 0
-1.995307 -4.061432 0.045407 4.525322 1.114148 1.560762 0.001393 -0.001568 807188.000000 1 0 0
-1.084907 -6.465832 -10.567793 12.436328 1.404554 2.586311 0.004654 -0.002591 593627.000000 1 0 0
0.285393 6.838968 -6.555493 9.477733 1.529090 2.334599 0.002081 0.001233 -3049690.000000 1 0 0
2.065993 3.781868 -6.240493 7.583838 1.070807 2.537235 -0.001373 0.001433 -942186.000000 1 0 0
1.611493 -14.834132 6.387307 16.231022 -1.462587 1.166334 0.020847 -0.006628 -784125.000000 1 0 0
-1.716707 5.446468 -10.542093 11.989446 -1.265457 2.645147 0.001022 0.001098 -351813.000000 1 0 0
13.644093 4.279668 -0.858593 14.325293 0.303945 1.630768 0.006971 0.000551 297124.000000 1 0 0
-2.388807 3.361468 -6.192293 7.439782 -0.952962 2.554080 0.002113 -0.001913 -642632.000000 1 0 0
5.649893 7.807968 14.279207 17.227345 0.944402 0.593714 0.008558 -0.003167 847539.000000 1 0 0
16.036393 0.556668 -5.742093 17.042517 0.034699 1.914448 0.027687 0.004396 85711.300000 1 0 0
6.253193 -8.232032 10.610207 14.813685 -0.921169 0.772392 0.004164 0.002667 423304.000000 1 0 0
0.054993 -5.903532 -6.339393 8.662714 -1.561481 2.391759 -0.002477 -0.001644 -1151940.000000 1 0 0
8.637893 5.437968 -7.593893 12.722103 0.561863 2.210435 0.002270 -0.003093 -539760.000000 1 0 0
-15.928707 -0.713532 5.196607 16.770139 0.044765 1.255737 0.009610 -0.008841 76442.800000 1 0 0
-0.243307 4.072468 -12.288993 12.948495 -1.511123 2.821058 0.001629 -0.001812 794867.000000 1 0 0
-11.404807 3.815668 5.780007 13.343067 -0.322860 1.122774 -0.008881 -0.002217 -496363.000000 1 0 0
5.306393 -9.520532 -9.513593 14.467438 -1.062318 2.288407 -0.006230 0.000533 76247.500000 1 0 0
1.576093 11.162168 -11.750493 16.283493 1.430524 2.376936 0.003371 -0.000760 -1221710.000000 1 0 0
5.921893 2.366168 1.273707 6.503068 0.380129 1.373659 0.004486 0.000305 -228278.000000 1 0 0
5.648593 4.522768 5.007007 8.799554 0.675161 0.965499 0.001575 0.001089 384862.000000 1 0 0
0.365593 -1.641932 -6.333293 6.552877 -1.351710 2.881984 -0.002095 -0.000721 -1695120.000000 1 0 0
12.585593 6.684368 -4.458693 14.931774 0.488227 1.874026 0.005958 -0.006177 335844.000000 1 0 0
7.283393 3.231668 12.825907 15.099516 0.417606 0.555901 0.001671 -0.006393 -342942.000000 1 0 0
-2.613907 -0.315232 8.459307 8.859558 0.120018 0.301734 0.000970 -0.000511 746950.000000 1 0 0
2.321393 -15.108232 13.383107 20.316375 -1.418338 0.851660 0.001364 0.001989 -328458.000000 1 0 0
18.870693 4.504568 -1.592493 19.466130 0.234322 1.652696 0.024436 0.003213 159897.000000 1 0 0
-0.337407 -13.267732 7.296307 15.145384 1.545371 1.068144 0.001768 -0.003402 -812450.000000 1 0 0
4.287693 1.563368 -0.510493 4.592280 0.349637 1.682190 0.002519 -0.000417 145182.000000 1 0 0
2.748893 -0.532432 -7.367693 7.881801 -0.191321 2.778415 -0.005659 0.001258 934931.000000 1 0 0
7.304093 -11.233432 0.920807 13.430847 -0.994273 1.502183 0.000277 -0.002632 404145.000000 1 0 0
-11.970507 -7.502632 1.200907 14.178318 0.559864 1.485994 0.007611 -0.001256 336988.000000 1 0 0
0.068693 -6.935632 9.792107 11.999711 -1.560892 0.616290 0.001769 -0.005418 -921443.000000 1 0 0
-4.776007 -7.131532 10.611607 13.648267 0.980695 0.680106 0.002608 -0.004790 -1031430.000000 1 0 0
11.840993 0.726268 -1.580893 11.968116 0.061258 1.703276 0.007968 -0.000678 2077250.000000 1 0 0
6.583993 -9.707232 -7.330793 13.831841 -0.974813 2.129390 -0.005961 -0.002239 -500799.000000 1 0 0
-11.014007 4.830168 3.280407 12.465952 -0.413290 1.304511 -0.011643 -0.000239 -36871.800000 1 0 0
6.075393 -9.068532 2.042407 11.104958 -0.980529 1.385825 -0.000188 -0.003931 2892590.000000 1 0 0
11.585693 -1.298832 5.859907 13.048132 -0.111640 1.105039 0.008835 -0.005519 62798.500000 1 0 0
-6.610307 3.632368 4.148307 8.608061 -0.502460 1.067964 -0.007342 0.001810 -1911810.000000 1 0 0
9.450093 6.330268 -3.122393 11.795164 0.590212 1.838708 0.005309 -0.001153 -430395.000000 1 0 0
-2.290807 6.503568 10.982107 12.967300 -1.232129 0.560654 0.001407 -0.003796 -368945.000000 1 0 0
1.795993 9.828768 3.032307 10.441511 1.390062 1.276142 -0.000665 0.001015 92325.300000 1 0 0
2.868893 6.168868 -5.629193 8.830249 1.135489 2.262032 -0.001530 0.001562 -2080050.000000 1 0 0
11.954893 0.110568 -5.452093 13.139901 0.009249 1.998658 0.021448 -0.001852 582265.000000 1 0 0
-2.601407 -12.606932 6.310907 14.336304 1.367305 1.114970 0.007223 -0.000806 -279515.000000 1 0 0
10.871993 1.919168 -2.734393 11.373668 0.174724 1.813589 0.007264 0.000127 22869.800000 1 0 0
-8.959907 5.443968 0.753207 10.511139 -0.545983 1.499077 -0.007211 0.002017 -160153.000000 1 0 0
1.169193 -10.163432 5.590307 11.658211 -1.456261 1.070692 -0.001532 -0.002055 -445847.000000 1 0 0
9.258893 -5.853032 -1.238493 11.023563 -0.563726 1.683384 0.004661 -0.002430 -317595.000000 1 0 0
-7.837807 8.522268 -4.413193 12.390987 -0.827211 1.934953 -0.004579 0.000876 -239701.000000 1 0 0
-7.403207 -0.094932 -1.674193 7.590745 0.012822 1.793182 -0.001460 0.000278 -1158200.000000 1 0 0
4.075393 8.890668 2.793607 10.171384 1.140987 1.292567 0.004211 -0.001059 110684.000000 1 0 0
-1.332207 -10.481032 -3.702793 11.195422 1.444368 1.907886 0.003248 0.000302 -1216600.000000 1 0 0
3.217893 7.821068 -3.633093 9.204526 1.180468 1.976545 0.002782 -0.001676 -647920.000000 1 0 0
-4.244407 1.708668 -11.044093 11.954352 -0.382719 2.748831 0.000074 -0.000631 -99226.900000 1 0 0
1.229993 2.862968 10.957907 11.392331 1.165018 0.277048 0.001788 -0.003193 628064.000000 1 0 0
2.068193 5.577468 -8.119293 10.065212 1.215702 2.509290 -0.000206 0.002025 774456.000000 1 0 0
15.475793 6.274068 4.097607 17.194606 0.385163 1.330173 0.006871 -0.004244 -59518.000000 1 0 0
-4.571607 9.115968 4.662707 11.213443 -1.105954 1.141959 0.001871 0.000163 187548.000000 1 0 0
-0.930307 -8.197132 -12.294893 14.806175 1.457788 2.550603 0.004872 -0.001875 -187602.000000 1 0 0
14.248793 -4.261932 -5.197193 15.754459 -0.290638 1.906980 0.033499 -0.002013 699133.000000 1 0 0
-5.927807 -6.198432 -5.692793 10.294044 0.807712 2.156779 0.014965 -0.005916 410708.000000 1 0 0
-8.745407 2.624668 -12.390493 15.391405 -0.291567 2.506517 0.005285 -0.004135 -322368.000000 1 0 0
10.421093 5.276468 13.915407 18.168072 0.468695 0.698315 0.020853 -0.007133 283755.000000 1 0 0
-0.517007 10.985868 5.666607 12.372026 -1.523770 1.095032 0.000827 0.002812 596371.000000 1 0 0
0.391493 11.115268 -0.465993 11.131918 1.535590 1.612670 0.000281 -0.000400 -224320.000000 1 0 0
-1.492607 -0.607632 3.586907 3.932302 0.386607 0.422261 0.002113 0.000357 28651.000000 1 0 0
-4.931007 6.875768 8.792107 12.202138 -0.948648 0.766218 0.000392 -0.003503 -2634840.000000 1 0 0
3.523793 -8.801232 -11.288593 14.741476 -1.189967 2.443035 -0.006441 0.001603 -24302.500000 1 0 0
6.712593 -3.852532 11.987907 14.269227 -0.521027 0.573286 0.008116 -0.007151 -800465.000000 1 0 0
-2.327707 -1.986232 -12.541193 12.909099 0.706407 2.902276 0.004762 -0.003066 920866.000000 1 0 0
-16.049907 -5.033232 5.259107 17.623597 0.303886 1.267767 0.025770 -0.007633 1567060.000000 1 0 0
-9.059907 7.351268 5.694907 12.982875 -0.681658 1.116703 -0.006826 -0.000769 -4172580.000000 1 0 0
-12.783807 1.519768 5.984207 14.196695 -0.118327 1.135674 -0.009696 -0.002898 490425.000000 1 0 0
-3.630407 3.570268 10.136407 11.343431 -0.777046 0.465510 0.001421 0.000837 648067.000000 1 0 0
1.986093 -12.338832 -1.057893 12.542347 -1.411202 1.655242 0.002682 -0.000578 -2666480.000000 1 0 0
10.135893 -5.141232 -3.637093 11.933023 -0.469415 1.880517 0.015154 -0.002135 509431.000000 1 0 0
3.013693 -13.388832 1.034807 13.762775 -1.349396 1.495536 0.002135 -0.002413 453299.000000 1 0 0
10.054493 -1.693432 -6.098893 11.880952 -0.166859 2.109861 0.015465 -0.000794 1025030.000000 1 0 0
11.752793 -5.402132 -1.484193 13.019754 -0.430847 1.685040 0.016252 -0.002725 -1135260.000000 1 0 0
1.340693 0.904868 5.914607 6.131788 0.593699 0.266945 0.005424 -0.002827 468385.000000 1 0 0
-10.813907 11.778568 6.662907 17.322517 -0.828071 1.175980 -0.000931 -0.002718 -307310.000000 1 0 0
4.797993 -14.058132 3.039607 15.162157 -1.241896 1.368955 0.009621 -0.008843 -4540550.000000 1 0 0
5.240893 -3.423432 -1.667993 6.478352 -0.578632 1.831201 0.000563 -0.000851 -1528420.000000 1 0 0
2.097293 -2.933432 -7.722993 8.523396 -0.950099 2.704753 -0.006245 0.000582 -77538.600000 1 0 0
-2.769407 15.014168 -8.873593 17.658865 -1.388394 2.097285 0.010015 -0.002626 -825055.000000 1 0 0
-2.351907 6.113168 -8.099493 10.416529 -1.203524 2.461575 0.001749 0.000040 -646643.000000 1 0 0
2.679993 -3.559532 -11.499793 12.332796 -0.925438 2.771949 -0.007420 0.001620 -1882570.000000 1 0 0
14.629293 2.682268 -2.676393 15.112043 0.181335 1.748839 0.015851 0.002208 734825.000000 1 0 0
-3.470007 13.262668 2.309907 13.902338 -1.314895 1.403870 -0.002465 -0.000311 -704806.000000 1 0 0
7.925093 -5.029632 14.034207 16.883817 -0.565506 0.589493 0.010505 -0.008259 -1543380.000000 1 0 0
-11.507107 7.286768 2.933407 13.932530 -0.564503 1.358665 -0.010685 0.002754 971008.000000 1 0 0
-2.317007 12.014068 4.100907 12.904410 -1.380278 1.247397 0.000103 0.000327 180869.000000 1 0 0
1.770293 1.461068 0.695407 2.398384 0.689994 1.276624 -0.002055 0.002109 -1466860.000000 1 0 0
-7.064907 8.739268 5.316907 12.432105 -0.890949 1.128877 -0.000397 -0.003531 -517582.000000 1 0 0
-1.250907 9.335368 1.114107 9.484466 -1.437593 1.453058 0.002691 0.002522 526905.000000 1 0 0
4.940193 13.040468 -8.441793 16.301018 1.208667 2.115154 0.014549 -0.014419 -2190070.000000 1 0 0
8.825693 6.966868 7.295207 13.403364 0.668235 0.995264 0.000906 -0.000857 -1248020.000000 1 0 0
7.183193 -13.650332 2.790807 15.675408 -1.086387 1.391805 0.012955 -0.005987 144688.000000 1 0 0
4.146293 -13.474132 -1.201893 14.148799 -1.272270 1.655845 0.000875 0.003409 -3488030.000000 1 0 0
12.019893 -11.812132 -4.739693 17.506255 -0.776681 1.844961 0.019785 -0.001661 -1236330.000000 1 0 0
2.933893 0.024268 -1.970293 3.534171 0.008271 2.162165 -0.001465 -0.000474 583952.000000 1 0 0
-13.594107 -2.999332 -10.745993 17.586134 0.217156 2.228182 0.016953 -0.009797 -81814.900000 1 0 0
-6.598807 13.789768 4.968907 16.074576 -1.124472 1.256533 0.006359 -0.007426 382190.000000 1 0 0
7.271693 -4.328732 -0.649893 8.487508 -0.536946 1.647442 -0.001682 -0.000705 -1058190.000000 1 0 0
11.761493 1.986868 -7.275093 13.971662 0.167350 2.118471 0.018804 -0.001856 -151160.000000 1 0 0
-7.494107 -4.595132 9.684507 13.079242 0.550044 0.737059 -0.001224 0.000411 180663.000000 1 0 0
0.919893 2.902768 8.568007 9.093020 1.263906 0.341474 0.003374 -0.000661 -1311330.000000 1 0 0
1.541793 8.080968 -8.637593 11.928419 1.382269 2.380552 0.001880 -0.001251 -209304.000000 1 0 0
-8.636507 -2.192532 -5.613093 10.531062 0.248616 2.132943 0.006583 -0.003617 500148.000000 1 0 0
6.632393 -0.436032 7.147407 9.760338 -0.065648 0.749116 0.004408 -0.002689 389957.000000 1 0 0
-10.931807 6.591768 7.166607 14.639538 -0.542615 1.059237 -0.005966 -0.003523 -81023.200000 1 0 0
-6.058707 11.188968 4.859407 13.620381 -1.074511 1.205983 -0.001494 -0.001931 -190078.000000 1 0 0
6.005993 -1.152932 -6.920293 9.235348 -0.189656 2.417841 -0.004354 0.000983 -641597.000000 1 0 0
4.514893 -5.774932 11.472207 13.614170 -0.907246 0.568580 0.005293 -0.006830 -1520300.000000 1 0 0
-9.005107 -7.359932 2.656707 11.929738 0.685205 1.346217 0.006802 -0.001863 -2553900.000000 1 0 0
-1.242907 12.773168 -9.504993 15.970082 -1.473796 2.208280 0.009859 0.001429 793905.000000 1 0 0
-4.711207 9.248268 -2.253893 10.621015 -1.099645 1.784633 -0.002290 -0.000424 376966.000000 1 0 0
-3.405107 9.738268 -0.173393 10.317882 -1.234422 1.587602 0.003786 -0.000718 -2677140.000000 1 0 0
-3.406307 10.801968 -6.452893 13.035539 -1.265325 2.088658 -0.004330 0.002220 426324.000000 1 0 0
4.874793 -4.853232 0.372307 6.888837 -0.783182 1.516725 -0.001131 -0.000869 -1699330.000000 1 0 0
-2.193307 3.056968 -10.812393 11.448296 -0.948436 2.806726 0.003650 -0.000251 -82304.200000 1 0 0
-3.501407 12.065268 -2.186493 12.751914 -1.288349 1.743112 -0.004361 0.004214 -1072690.000000 1 0 0
-0.259607 0.467468 0.050107 0.537060 -1.063857 1.477361 -0.001404 0.001781 -2164460.000000 1 0 0
-4.898107 -1.826832 0.138507 5.229527 0.356987 1.544308 -0.003128 0.000588 311805.000000 1 0 0
2.538693 2.516868 -2.428193 4.321540 0.781081 2.167455 -0.005123 0.000306 177110.000000 1 0 0
6.026193 -9.860232 8.635307 14.425939 -1.022210 0.929049 0.004046 -0.000237 -1009920.000000 1 0 0
-4.276807 -5.453632 6.621707 9.585415 0.905756 0.808187 -0.000999 -0.002275 95111.700000 1 0 0
-6.276007 5.295968 -12.108393 14.630404 -0.700909 2.545648 -0.001977 -0.001541 1282420.000000 1 0 0
-12.918207 3.081968 7.961907 15.484527 -0.234198 1.030739 -0.005387 -0.005698 481290.000000 1 0 0
4.770093 -7.468132 -4.923993 10.137676 -1.002387 2.077974 -0.007302 -0.003086 149154.000000 1 0 0
-5.992807 2.468168 -1.044293 6.564765 -0.390684 1.730550 -0.000577 0.001324 -395912.000000 1 0 0
-6.797907 -2.713732 -14.588793 16.322033 0.379817 2.676566 0.012074 0.001382 -361706.000000 1 0 0
2.663293 -6.076532 0.861507 6.690259 -1.157722 1.441667 -0.000461 -0.000405 139504.000000 1 0 0
4.831793 -7.951432 13.068607 16.042443 -1.024761 0.618711 0.005101 -0.005617 -35217.300000 1 0 0
-9.915507 -1.704232 7.940607 12.816978 0.170212 0.902642 -0.006360 0.002441 -378024.000000 1 0 0
-4.431607 13.315768 -0.113593 14.034305 -1.249518 1.578890 -0.002105 0.002220 511789.000000 1 0 0
6.830693 2.197568 -4.496893 8.468159 0.311262 2.130618 0.000270 0.002348 -1367600.000000 1 0 0
4.943893 4.495168 0.166707 6.684041 0.737895 1.545853 -0.000258 0.000611 -1000610.000000 1 0 0
-5.856307 12.326468 1.913507 13.780409 -1.127266 1.431489 -0.002453 -0.002249 761188.000000 1 0 0
6.508793 -7.314532 6.636407 11.828299 -0.843621 0.975128 0.001107 -0.001907 -243974.000000 1 0 0
-0.430707 4.971368 7.716007 9.188949 -1.484375 0.574056 -0.000062 0.001599 -1094750.000000 1 0 0
-5.750507 -3.421932 -1.747293 6.915995 0.536784 1.826209 0.006551 -0.002131 -160034.000000 1 0 0
2.399693 -6.513532 -5.163293 8.651255 -1.217810 2.210336 -0.006108 0.001219 -1206490.000000 1 0 0
-14.467307 -4.913832 -3.788093 15.741613 0.327425 1.813824 0.013079 -0.007464 107740.000000 1 0 0
-12.422107 -5.143832 -6.351693 14.869827 0.392591 2.012138 0.012743 -0.010572 -483415.000000 1 0 0
-14.769007 -3.837332 -1.294693 15.314207 0.254203 1.655439 0.006360 -0.003568 408077.000000 1 0 0
11.810093 2.958968 8.884007 15.071807 0.245492 0.940424 0.014039 -0.008496 -1807530.000000 1 0 0
8.761093 -6.573332 7.706807 13.392547 -0.643685 0.957636 0.006498 -0.004264 170056.000000 1 0 0
-8.843807 -1.735832 -9.826993 13.334010 0.193813 2.399398 0.008457 -0.004784 -96966.600000 1 0 0
-8.807507 5.024068 -3.897893 10.863103 -0.518393 1.937799 -0.001424 -0.001633 -457724.000000 1 0 0
-4.006307 -6.264732 4.122107 8.502302 1.001837 1.064636 0.006363 -0.001679 -1883090.000000 1 0 0
-0.144507 -9.271232 3.565507 9.934257 1.555211 1.203696 0.000666 -0.002158 663615.000000 1 0 0
7.945193 -10.398332 3.437907 13.530358 -0.918343 1.313891 0.000958 -0.003284 437415.000000 1 0 0
-0.119107 6.394468 9.685407 11.606486 -1.552172 0.583604 0.000153 -0.000076 104767.000000 1 0 0
0.040493 3.543568 -9.778293 10.400650 1.559370 2.793901 0.002258 0.000419 -674954.000000 1 0 0
4.426893 -3.125132 11.121807 12.371678 -0.614703 0.453377 0.004586 -0.007240 -2519650.000000 1 0 0
8.589493 -9.149432 1.308307 12.617573 -0.816953 1.466920 -0.000374 -0.002034 -660862.000000 1 0 0
-0.327707 -0.436032 11.404207 11.417244 0.926293 0.047792 0.006937 -0.005328 -546556.000000 1 0 0
10.790793 6.058768 11.497707 16.892222 0.511611 0.822145 0.020710 -0.003114 -383421.000000 1 0 0
-6.288307 -2.949332 -11.953393 13.824795 0.438557 2.615218 0.010279 -0.003419 153714.000000 1 0 0
-1.735407 2.792968 8.398707 9.019457 -1.014827 0.373169 0.001548 0.000011 188833.000000 1 0 0
-1.674807 13.529768 -6.974593 15.313541 -1.447636 2.043677 0.006969 0.000893 729365.000000 1 0 0
7.653193 3.101368 9.856707 12.858636 0.385014 0.697355 0.001919 -0.003607 517005.000000 1 0 0
6.527893 8.434068 -7.972293 13.315567 0.912117 2.212698 0.008292 -0.006340 -423775.000000 1 0 0
6.591393 -2.991632 -3.903993 8.224201 -0.426067 2.065415 -0.000052 -0.000085 -2426460.000000 1 0 0
2.061393 8.136768 1.087907 8.464034 1.322674 1.441907 0.000977 0.001612 608861.000000 1 0 0
-17.573807 6.372568 6.338207 19.738825 -0.347871 1.243902 0.007331 -0.006245 -467035.000000 1 0 0
-14.629307 3.081068 -10.374493 18.197245 -0.207576 2.177440 0.027641 -0.004342 -1307860.000000 1 0 0
-18.156607 0.110168 -4.441293 18.692234 -0.006068 1.810692 0.017621 0.001087 424312.000000 1 0 0
-13.083807 7.997968 -0.053093 15.334808 -0.548678 1.574259 -0.005721 0.005253 -2627720.000000 1 0 0
-12.714707 -4.317332 -12.920693 18.634576 0.327339 2.336954 0.029045 -0.001370 -381479.000000 1 0 0
-17.230207 -0.495532 -8.631693 19.277752 0.028752 2.035048 0.020486 -0.012804 -797947.000000 1 0 0
-16.725707 -2.283032 -2.039793 17.003596 0.135660 1.691048 0.018459 -0.003500 -427702.000000 1 0 0
-15.424107 4.016568 1.682707 16.027084 -0.254751 1.465611 -0.009457 0.002022 -1032340.000000 1 0 0
-13.192007 5.814468 4.392707 15.070931 -0.415141 1.275034 -0.009786 -0.002605 -486395.000000 1 0 0
-10.092007 14.310268 2.726807 17.721960 -0.956570 1.416317 0.015280 -0.009023 336057.000000 1 0 0
-11.796207 2.496868 -6.522393 13.708627 -0.208588 2.066655 -0.003896 0.003854 460283.000000 1 0 0
-15.946707 10.677168 3.747307 19.553560 -0.589998 1.377960 0.009099 -0.004910 -980721.000000 1 0 0
-12.758507 1.190268 -8.688393 15.481744 -0.093023 2.166634 0.004031 0.001046 844044.000000 1 0 0
-12.349107 14.298068 4.071107 19.326384 -0.858408 1.358556 0.020216 -0.012623 90844.500000 1 0 0
-10.509707 11.195868 -1.055593 15.392066 -0.817000 1.639431 0.006896 -0.000475 493461.000000 1 0 0
-16.931107 5.602968 8.735607 19.858663 -0.319584 1.115321 0.000906 -0.014475 73610.400000 1 0 0
-11.759007 12.734268 -9.393893 19.714996 -0.825195 2.067448 0.030710 -0.007955 -373000.000000 1 0 0
-17.166007 -0.481832 2.953307 17.424867 0.028062 1.400486 0.015662 -0.004244 767890.000000 1 0 0
-13.089507 14.984468 -0.784393 19.911925 -0.852795 1.610200 0.036501 -0.008601 42708.900000 1 0 0
-16.428107 4.821668 -10.625493 20.150243 -0.285484 2.126232 0.045574 -0.009143 537319.000000 1 0 0
-11.676507 7.593468 -9.100693 16.638034 -0.576600 2.149550 0.001270 0.000206 -283772.000000 1 0 0
-14.985107 13.550768 -1.869393 20.289687 -0.735176 1.663062 0.046351 -0.008319 157131.000000 1 0 0
-11.882307 10.576168 -5.556193 16.849802 -0.727306 1.906833 0.024216 -0.004819 790096.000000 1 0 0
-17.605907 2.873468 -1.014493 17.867680 -0.161784 1.627605 0.002466 0.001290 -570384.000000 1 0 0
-9.553307 15.435368 0.501507 18.159509 -1.016579 1.543176 0.025079 -0.012545 258243.000000 1 0 0
-8.074407 13.129268 -3.773293 15.868569 -1.019425 1.810880 0.006213 -0.003698 -598628.000000 1 0 0
-17.692707 11.384068 1.934407 21.127490 -0.571745 1.479109 0.036537 -0.010197 -72211.400000 1 0 0
-7.917807 15.591368 -7.388993 18.983668 -1.100902 1.970591 0.045525 -0.024149 -692493.000000 1 0 0
-6.243907 15.224868 -5.320793 17.294329 -1.181603 1.883530 0.008008 -0.003803 -433429.000000 1 0 0
-17.273707 5.344868 -0.291893 18.084075 -0.300078 1.586938 0.009230 0.001428 296871.000000 1 0 0
-5.423607 12.420868 -12.322393 18.317610 -1.159097 2.308658 -0.000677 -0.007636 399520.000000 1 0 0
-10.892407 3.831468 -11.530393 16.317924 -0.338238 2.355491 -0.002430 -0.005014 77741.400000 1 0 0
-11.944507 11.100268 1.232207 16.352539 -0.748780 1.495372 0.010165 -0.001794 263750.000000 1 0 0
-12.857507 0.115768 -11.158093 17.024451 -0.009004 2.285529 0.009351 -0.006826 997384.000000 1 0 0
-14.300407 -2.111032 -13.055793 19.478496 0.146562 2.305365 0.046214 -0.012120 238756.000000 1 0 0
-18.752307 -2.287032 -3.673493 19.245106 0.121361 1.762854 0.028071 -0.005305 266616.000000 1 0 0
-18.168707 4.736268 -5.222593 19.488705 -0.255007 1.842093 0.021520 -0.002366 -54441.700000 1 0 0
-8.130807 15.256168 -2.209993 17.428275 -1.081136 1.697944 0.019386 -0.011047 -177468.000000 1 0 0
-16.122107 9.116368 -5.386093 19.288352 -0.514633 1.853800 0.036078 -0.002003 -187292.000000 1 0 0
-18.177207 1.779668 2.122807 18.387071 -0.097596 1.455087 0.013256 -0.004209 5092.710000 1 0 0
-15.691407 -2.622132 -8.677493 18.121664 0.165576 2.070136 0.009737 -0.008847 -691138.000000 1 0 0
-9.655807 10.644468 -7.120693 16.038815 -0.834062 2.030817 0.009181 -0.003504 367462.000000 1 0 0
-13.851407 12.137768 -7.966793 20.066307 -0.719557 1.979068 0.045156 -0.011506 231472.000000 1 0 0
-10.965507 6.573368 -3.867793 13.357071 -0.540021 1.864573 -0.004081 0.003194 -247398.000000 1 0 0
-13.083507 4.698468 -12.677993 18.814496 -0.344771 2.310192 0.035554 -0.017448 484321.000000 1 0 0
-17.607607 8.974868 2.620707 19.936003 -0.471390 1.438959 0.010342 -0.007976 891921.000000 1 0 0
-13.419807 8.761868 -6.639893 17.347903 -0.578415 1.963566 0.013065 -0.000148 -147384.000000 1 0 0
-15.670007 6.990768 -3.855093 17.586407 -0.419626 1.791800 0.000025 0.005992 -1343790.000000 1 0 0
-14.853407 -0.246532 -9.430793 17.596145 0.016596 2.136438 0.016899 -0.006047 -1039310.000000 1 0 0
-9.870207 5.839168 -6.064593 12.972901 -0.534217 2.057236 -0.005618 0.003109 382981.000000 1 0 0
-12.804707 12.339568 -0.870093 17.804003 -0.766901 1.619686 0.023393 -0.001603 -911326.000000 1 0 0
-10.418907 3.525768 -14.084293 17.870422 -0.326304 2.478568 0.004253 -0.005860 346048.000000 1 0 0
-11.023407 6.276568 -12.142393 17.559855 -0.517605 2.334340 0.006815 -0.005180 -602357.000000 1 0 0
-5.846207 11.683968 -14.821693 19.757931 -1.106860 2.419107 0.001655 -0.012740 -101298.000000 1 0 0
-15.794907 13.344168 3.369607 20.949945 -0.701491 1.409254 0.027740 -0.007460 286045.000000 1 0 0
-15.463007 11.281268 -3.123293 19.393983 -0.630294 1.732545 0.046485 0.003379 563592.000000 1 0 0
-18.132407 7.687268 -4.594393 20.223420 -0.400983 1.799979 0.033470 -0.004007 587561.000000 1 0 0
-4.044207 16.360968 -10.655893 19.939532 -1.328468 2.134606 0.019574 -0.007066 -353986.000000 1 0 0
-15.604607 4.444968 -4.570693 16.856831 -0.277500 1.845382 0.002999 0.006161 1383450.000000 1 0 0
-18.635507 -1.792132 -6.196993 19.720461 0.095873 1.890454 0.025197 -0.007986 620732.000000 1 0 0
-10.766207 8.619568 -5.798893 14.961127 -0.675115 1.968820 0.002491 0.002563 265113.000000 1 0 0
-11.012407 13.644768 -6.919993 18.850441 -0.891754 1.946686 0.032283 -0.007553 248349.000000 1 0 0
-9.492807 10.567668 -4.392293 14.868801 -0.838928 1.870674 -0.004868 0.000944 -95395.500000 1 0 0
-11.124107 6.360968 -0.257693 12.816945 -0.519440 1.590903 -0.009877 0.004011 -460552.000000 1 0 0
-14.687007 9.562868 -1.421393 17.583429 -0.577156 1.651722 0.014095 0.005410 -870115.000000 1 0 0
-18.595107 3.660968 4.611807 19.505114 -0.194392 1.332095 0.018191 -0.007279 599834.000000 1 0 0
-14.640107 13.407468 0.643907 19.862214 -0.741478 1.538372 0.013013 0.003510 67658.800000 1 0 0
-16.918107 2.708468 -9.193693 19.444334 -0.158746 2.063286 0.032519 -0.006749 513858.000000 1 0 0
-9.070407 8.523968 -8.775293 15.229448 -0.754351 2.184875 -0.001041 0.000242 -2751210.000000 1 0 0
-17.565907 4.707668 -2.739693 18.391007 -0.261847 1.720322 0.003231 0.004054 725075.000000 1 0 0
-13.460507 5.878268 -4.570893 15.382859 -0.411743 1.872494 0.000605 0.007991 -1061570.000000 1 0 0
-12.264307 9.690568 3.317707 15.978971 -0.668702 1.361645 -0.007099 0.001598 930345.000000 1 0 0
-17.436707 2.516668 -4.070293 18.081473 -0.143342 1.797851 0.005696 0.005278 787190.000000 1 0 0
-11.181707 1.580868 -12.671593 16.973479 -0.140449 2.413662 0.011702 -0.003414 -423141.000000 1 0 0
-11.119207 12.069568 3.493507 16.778434 -0.826359 1.361048 0.004289 -0.006673 312619.000000 1 0 0
-16.262807 13.633368 -4.134793 21.620456 -0.697672 1.763226 0.042018 -0.000506 594794.000000 1 0 0
-11.087907 4.136868 -4.645793 12.713723 -0.357101 1.944876 -0.007971 0.004355 -691500.000000 1 0 0
-11.048707 15.175768 -9.017493 20.825298 -0.941492 2.018622 0.045902 -0.017116 413530.000000 1 0 0
-15.532807 7.272468 -0.359693 17.154774 -0.437886 1.591765 0.006793 0.005108 -527957.000000 1 0 0
-12.784007 8.391968 -4.098793 15.832122 -0.580891 1.832670 0.004830 0.005254 686166.000000 1 0 0
-19.057107 2.024568 -5.952193 20.067407 -0.105840 1.871937 0.034437 -0.003071 -607590.000000 1 0 0
-12.283707 10.147568 -8.949893 18.274660 -0.690454 2.082592 0.017132 -0.009568 529180.000000 1 0 0
-16.914707 10.947768 -0.964893 20.171563 -0.574428 1.618649 0.030602 -0.003175 482028.000000 1 0 0
-10.423207 6.586368 -14.696193 19.183367 -0.563542 2.443532 0.010793 -0.015934 -77621.700000 1 0 0
-13.745107 12.877468 -4.195593 19.296636 -0.752819 1.789973 0.036755 -0.012747 339568.000000 1 0 0
-18.092807 7.771668 -0.074693 19.691472 -0.405714 1.574589 0.028695 -0.001213 59898.800000 1 0 0
-12.788107 6.660968 -2.203393 14.586265 -0.480206 1.722436 -0.008670 0.008792 490774.000000 1 0 0
-13.659907 8.604668 -10.597393 19.311606 -0.562130 2.151674 0.020013 -0.009422 208851.000000 1 0 0
-14.949207 1.388868 -0.984293 15.045816 -0.092640 1.636263 -0.006768 0.003058 -1061230.000000 1 0 0
-13.325707 2.805068 -2.429193 13.832710 -0.207472 1.747324 -0.008986 0.006380 -215595.000000 1 0 0
-11.091707 9.139268 -10.999393 18.098034 -0.689189 2.224042 0.013781 -0.012658 -27762.800000 1 0 0
-15.194907 4.522968 -8.270593 17.881419 -0.289312 2.051637 0.011523 -0.003885 727914.000000 1 0 0
-18.543207 10.622068 4.356707 21.809626 -0.520200 1.369683 0.053241 -0.014734 966722.000000 1 0 0
-15.280307 6.303268 -6.396093 17.723684 -0.391243 1.940006 0.011758 0.006140 239718.000000 1 0 0
-7.759607 11.283068 -13.108693 18.956713 -0.968359 2.334369 -0.003067 -0.009426 -1548660.000000 1 0 0
-16.729907 9.157068 -2.875893 19.287624 -0.500804 1.720460 0.019067 -0.000408 457593.000000 1 0 0
-20.634107 -0.921032 -4.785593 21.201806 0.044607 1.798475 0.049775 -0.009613 353625.000000 1 0 0
-15.423607 4.368468 4.223707 16.577421 -0.276004 1.313169 -0.009022 -0.000313 -359561.000000 1 0 0
-6.885207 12.561268 -9.530093 17.205063 -1.069390 2.157852 0.002419 -0.009945 -308194.000000 1 0 0
-17.345507 1.505668 5.610607 18.292419 -0.086587 1.259054 0.019089 -0.010126 -34618.300000 1 0 0
-10.301307 14.239368 -3.091093 17.844646 -0.944512 1.744897 0.037898 -0.011975 995728.000000 1 0 0
-9.859307 8.373868 -13.070293 18.389131 -0.704109 2.361377 -0.001072 -0.009582 60524.900000 1 0 0
-13.732607 11.793668 2.877607 18.329095 -0.709585 1.413147 0.008617 -0.003714 -62320.800000 1 0 0
-16.788407 6.656368 1.858707 18.155238 -0.377473 1.468238 -0.001388 0.002232 672819.000000 1 0 0
-9.282307 13.313568 -8.662793 18.397182 -0.961948 2.061080 0.028109 -0.018585 -1047140.000000 1 0 0
-5.597607 9.897268 -12.990293 17.263743 -1.056077 2.422587 -0.002312 -0.004906 -75070.500000 1 0 0
-15.813107 1.800368 3.244807 16.242674 -0.113365 1.369673 -0.010491 -0.001102 -680227.000000 1 0 0
-18.616907 -4.909532 4.404107 19.750668 0.257843 1.345921 0.047548 -0.009581 981607.000000 1 0 0
-5.284607 14.523268 -9.193693 17.982669 -1.221817 2.107438 0.003882 -0.006505 -1104430.000000 1 0 0
-15.211307 -0.801332 -6.871193 16.710454 0.052631 1.994557 -0.002519 -0.002153 321390.000000 1 0 0
-8.893707 10.957368 -9.570493 17.051577 -0.888983 2.166713 0.003066 -0.012168 475784.000000 1 0 0
-16.583407 1.223668 -6.162693 17.733740 -0.073655 1.925713 -0.003813 0.000205 -829031.000000 1 0 0
-11.085007 8.652568 -1.598093 14.152675 -0.662777 1.683956 -0.000100 -0.000401 -49406.500000 1 0 0
-10.695207 10.869868 -12.919293 19.986236 -0.793497 2.273666 0.018793 -0.015158 -362847.000000 1 0 0
-13.831707 11.569268 -10.451093 20.842011 -0.696564 2.096063 0.053127 -0.028084 -168284.000000 1 0 0
-13.022507 5.814668 -7.709793 16.212247 -0.419947 2.066390 0.005485 0.004651 -808451.000000 1 0 0
-8.828907 15.398568 -4.881293 18.409034 -1.050196 1.839164 0.029064 -0.011925 112758.000000 1 0 0
-8.567907 6.183968 -12.920893 16.691314 -0.625181 2.456102 -0.000782 -0.006484 -1864140.000000 1 0 0
-16.310607 7.476868 4.273207 18.444505 -0.429822 1.336993 0.002241 -0.000684 -629514.000000 1 0 0
-12.555407 5.360568 -10.220993 17.054109 -0.403524 2.213457 0.008016 -0.003323 521127.000000 1 0 0
-12.432007 8.904568 -13.264493 20.243342 -0.621557 2.285313 0.040266 -0.027219 -402106.000000 1 0 0
-10.713207 5.209968 -8.478193 14.621776 -0.452638 2.189320 -0.005779 0.002162 -1998080.000000 1 0 0
-17.685707 -4.577532 -2.790993 18.480468 0.253269 1.722400 0.021817 -0.007465 60889.900000 1 0 0
-8.919007 13.013868 -11.138693 19.312688 -0.969973 2.185547 0.032441 -0.019647 98857.100000 1 0 0
-15.060907 6.168968 6.092207 17.378207 -0.388756 1.212621 -0.000047 -0.005222 -1877780.000000 1 0 0
-16.358807 -3.164132 -4.463493 17.249495 0.191061 1.832535 0.012216 -0.005466 276386.000000 1 0 0
-11.052207 -1.115732 -12.751093 16.911136 0.100610 2.424935 0.014223 -0.001234 192168.000000 1 0 0
-15.121207 7.043368 -8.815393 18.867196 -0.435910 2.056956 0.009942 0.005078 -242985.000000 1 0 0
-14.913307 9.331868 1.087707 17.625936 -0.559132 1.509046 0.006054 -0.002073 -230345.000000 1 0 0
-19.348507 5.294368 7.822507 21.531063 -0.267094 1.198975 0.042114 -0.022619 57179.400000 1 0 0
-16.243207 0.575968 0.896407 16.278116 -0.035444 1.515700 0.003736 -0.000956 -942358.000000 1 0 0
-17.306207 3.810768 6.962807 19.039628 -0.216738 1.196411 -0.002787 -0.005764 1143250.000000 1 0 0
-15.330807 4.025368 -1.546793 15.925759 -0.256771 1.668075 -0.005743 0.003135 -1847490.000000 1 0 0
-10.869607 13.270568 0.532207 17.162156 -0.884531 1.539781 0.017900 -0.011180 -1293290.000000 1 0 0
-13.518707 3.331168 0.012307 13.923084 -0.241599 1.569912 -0.010098 0.003566 -704892.000000 1 0 0
-14.889607 0.243968 -4.364493 15.518013 -0.016384 1.855896 -0.004705 0.004460 -1216220.000000 1 0 0
-18.777207 6.850568 3.538907 20.298711 -0.349829 1.395559 0.015117 -0.006303 1151160.000000 1 0 0
-14.053807 1.485868 -6.522093 15.564543 -0.105336 2.003179 0.001233 0.003298 -1660230.000000 1 0 0
-14.480707 12.166968 5.299307 19.642013 -0.698788 1.297617 0.011977 -0.006498 554970.000000 1 0 0
17.600193 5.417868 6.257007 19.449170 0.298625 1.243261 0.034402 -0.011911 -820798.000000 1 0 0
18.513393 7.354668 -0.188293 19.921654 0.378144 1.580248 0.038150 0.000470 333808.000000 1 0 0
16.570293 5.095068 8.617907 19.359820 0.298307 1.109461 0.048177 -0.012445 254295.000000 1 0 0
11.681393 12.388068 10.927307 20.231787 0.814750 1.000233 0.026931 -0.016880 598074.000000 1 0 0
-2.269807 16.103468 -0.490293 16.270037 -1.430767 1.600936 -0.002746 -0.005232 -76112.900000 1 0 0
15.052193 12.691068 3.566407 20.008773 0.700497 1.391597 0.028814 -0.003011 -49793.600000 1 0 0
13.662493 11.885268 6.823907 19.351719 0.715945 1.210421 0.038236 -0.004773 734087.000000 1 0 0
-0.739607 15.914068 8.660807 18.133234 -1.524355 1.072852 0.008099 -0.002712 -31607.200000 1 0 0
0.667093 12.854668 9.473707 15.982448 1.518948 0.936319 0.002255 0.000083 326273.000000 1 0 0
0.755693 15.470168 -3.846293 15.959046 1.521987 1.814203 0.004690 -0.001831 -351711.000000 1 0 0
5.429193 10.222568 13.585807 17.848003 1.082580 0.705643 0.011987 -0.010688 -69937.200000 1 0 0
-1.371507 16.525768 -2.889293 16.832411 -1.487994 1.743301 -0.002438 0.003139 -557569.000000 1 0 0
8.483293 10.068168 3.356407 13.586749 0.870623 1.321177 0.007553 0.001797 427698.000000 1 0 0
12.737493 13.372868 -4.799393 19.081706 0.809728 1.825045 0.048179 -0.025641 275025.000000 1 0 0
2.356493 11.552368 7.884007 14.183365 1.369573 0.981396 0.004985 0.004254 137625.000000 1 0 0
-0.317807 14.957968 -8.725593 17.319867 -1.549553 2.098778 0.012995 -0.003831 -1565090.000000 1 0 0
2.375593 15.831968 0.360107 16.013255 1.421857 1.548306 0.005427 -0.009459 -1237020.000000 1 0 0
1.855093 13.513368 5.297007 14.632525 1.434371 1.200381 0.000112 0.003401 343262.000000 1 0 0
17.561093 9.208268 -1.826993 19.912862 0.482942 1.662675 0.028078 0.000790 185949.000000 1 0 0
-7.251307 14.919968 7.277807 18.115005 -1.118400 1.157363 0.011638 -0.009921 -1362360.000000 1 0 0
8.638893 16.034568 -0.025593 18.213690 1.076618 1.572201 0.013173 -0.006807 49686.900000 1 0 0
15.651093 10.482468 2.323807 18.979961 0.590141 1.448054 0.021994 0.004487 265503.000000 1 0 0
14.229493 7.513968 8.789307 18.335488 0.485840 1.070871 0.034328 -0.013147 -898462.000000 1 0 0
4.074693 18.522368 -1.654493 19.037295 1.354258 1.657814 0.023042 -0.018182 -433079.000000 1 0 0
-0.335007 17.536368 -5.017293 18.243072 -1.551695 1.849412 0.011404 -0.004041 278647.000000 1 0 0
1.327593 13.579368 -0.711393 13.662643 1.473341 1.622888 -0.000431 -0.004379 23125.100000 1 0 0
10.219293 14.708868 4.301507 18.419764 0.963588 1.335093 0.014165 -0.012878 225491.000000 1 0 0
-1.586707 15.282668 -5.242793 16.234668 -1.467343 1.899629 0.007331 0.000611 550986.000000 1 0 0
15.234193 8.776668 -6.213293 18.647132 0.522673 1.910496 0.042492 -0.012427 680567.000000 1 0 0
-2.241107 18.429668 0.720507 18.579407 -1.449787 1.532007 0.003391 -0.009569 225684.000000 1 0 0
-3.751207 19.398068 3.426207 20.052319 -1.379774 1.399090 0.013550 -0.013653 419592.000000 1 0 0
1.793393 17.642868 -2.697393 17.937753 1.469495 1.721744 0.006081 -0.008000 -194558.000000 1 0 0
2.910293 12.173468 3.399707 12.970009 1.336132 1.305577 0.002349 -0.000202 508825.000000 1 0 0
-2.546807 16.188668 1.932707 16.501350 -1.414755 1.453403 0.001566 -0.005648 -1033800.000000 1 0 0
11.801993 12.756868 -2.547493 17.564579 0.824260 1.716345 0.011083 -0.000937 450561.000000 1 0 0
7.101693 11.690768 4.819907 14.503090 1.024908 1.232016 0.006417 0.000096 202399.000000 1 0 0
7.071693 15.718668 2.019807 17.354106 1.148033 1.454144 0.006555 -0.006827 -2377480.000000 1 0 0
5.462593 12.167668 10.292707 16.847311 1.148822 0.913548 0.007676 0.001424 208661.000000 1 0 0
-1.298307 14.281868 3.249007 14.704197 -1.480140 1.348000 -0.001196 0.001323 -21988.100000 1 0 0
4.567593 15.946268 1.660607 16.670453 1.291829 1.471017 0.001597 -0.012560 -2129090.000000 1 0 0
7.203193 13.087268 12.011207 19.168507 1.067648 0.893599 0.014801 -0.007477 95576.600000 1 0 0
0.776093 17.216568 -9.470193 19.664615 1.525749 2.073259 0.025540 -0.009653 430433.000000 1 0 0
9.816793 9.424368 15.661507 20.747794 0.765006 0.715368 0.036711 -0.010566 -80857.100000 1 0 0
13.469293 7.526168 -0.142293 15.430013 0.509548 1.580018 0.001011 0.002234 811166.000000 1 0 0
12.366993 13.506268 -0.081393 18.313067 0.829403 1.575241 0.012872 -0.002623 509048.000000 1 0 0
9.304893 12.406868 3.564107 15.912708 0.927309 1.344901 0.009242 0.002725 693187.000000 1 0 0
-0.663407 12.960768 0.862407 13.006359 -1.519655 1.504441 0.000937 -0.002579 -858959.000000 1 0 0
16.037193 7.243768 -0.934693 17.622071 0.424255 1.623862 0.024590 0.002248 -433972.000000 1 0 0
-4.178607 18.515768 -2.338393 19.124919 -1.348836 1.693372 0.010425 -0.000215 34917.900000 1 0 0
11.555093 9.093768 -3.136993 15.035209 0.666759 1.780984 0.006885 -0.004295 825880.000000 1 0 0
14.765093 9.801168 7.770207 19.350633 0.586020 1.157590 0.046510 -0.016085 152980.000000 1 0 0
4.424393 13.881868 4.743507 15.322610 1.262257 1.256050 0.001874 0.001782 203716.000000 1 0 0
2.126493 16.021568 5.727707 17.146990 1.438841 1.230214 0.002028 0.002437 458151.000000 1 0 0
6.110493 18.548568 5.516107 20.293224 1.252561 1.295512 0.018382 -0.020926 -607787.000000 1 0 0
10.794293 17.186868 -0.798093 20.311134 1.010003 1.610100 0.025007 -0.009078 -943610.000000 1 0 0
10.051493 13.459768 -4.405093 17.366713 0.929359 1.827250 0.029521 -0.013327 1593800.000000 1 0 0
16.555893 7.895068 2.441107 18.503748 0.444976 1.438486 0.009330 0.001402 -77244.100000 1 0 0
3.953693 14.004268 -0.528193 14.561257 1.295637 1.607078 0.001225 -0.005491 309889.000000 1 0 0
5.523693 13.017468 -2.444093 14.350584 1.169494 1.741944 0.005441 -0.006294 -40060.200000 1 0 0
-6.112207 16.914668 -2.910593 18.219128 -1.224041 1.731239 0.014820 -0.003332 -1991790.000000 1 0 0
18.139993 9.946268 2.665807 20.858910 0.501542 1.442644 0.042009 -0.000417 626333.000000 1 0 0
7.842593 12.874668 9.378107 17.754218 1.023677 1.014295 0.011393 -0.008526 1025980.000000 1 0 0
-2.708807 15.734968 6.822107 17.362834 -1.400315 1.166998 0.006503 -0.002202 1901610.000000 1 0 0
10.979893 16.009668 6.390507 20.437860 0.969645 1.252783 0.018987 -0.016542 62626.000000 1 0 0
13.531793 11.924368 1.532607 18.101073 0.722337 1.486025 0.015665 0.002927 -44359.200000 1 0 0
17.483693 7.687868 -5.613193 19.907053 0.414269 1.856643 0.041093 0.005551 -871630.000000 1 0 0
9.526093 9.293968 8.058607 15.558452 0.773065 1.026336 0.010570 -0.003154 20813.600000 1 0 0
-2.049307 14.163768 -1.963293 14.445294 -1.427107 1.707131 -0.003451 0.000993 482550.000000 1 0 0
10.968793 11.517868 0.916307 15.931582 0.809811 1.513249 0.010179 0.003258 587653.000000 1 0 0
11.706893 9.694368 -0.515993 15.208496 0.691636 1.604731 0.004656 0.004922 -1755070.000000 1 0 0
-0.490207 16.009568 11.308907 19.607090 -1.540186 0.956019 0.013935 -0.006617 -179117.000000 1 0 0
2.011693 20.127268 -1.781593 20.305859 1.471179 1.658647 0.026153 -0.015471 -365601.000000 1 0 0
9.269193 14.381168 1.818707 17.205918 0.998271 1.464896 0.007663 -0.001137 -373932.000000 1 0 0
8.516893 11.610968 -5.073393 15.267330 0.937925 1.909542 0.019502 -0.007554 -163418.000000 1 0 0
10.445093 10.193768 10.251307 17.835419 0.773222 0.958470 0.007733 -0.007864 -336709.000000 1 0 0
-5.142107 15.801668 5.943707 17.648276 -1.256189 1.227294 -0.002981 -0.002765 72582.500000 1 0 0
14.549693 9.002168 -2.082793 17.235737 0.554070 1.691934 0.031319 -0.004322 -422073.000000 1 0 0
12.272793 9.670168 6.934707 17.094554 0.667341 1.153087 0.014659 -0.007727 -1400230.000000 1 0 0
3.146993 13.028868 9.834207 16.624278 1.333796 0.937808 0.007796 -0.001862 -861342.000000 1 0 0
8.554493 12.617968 -2.560993 15.458045 0.975015 1.737238 0.016777 -0.004289 -650768.000000 1 0 0
9.358793 16.963968 2.316807 19.512325 1.066659 1.451780 0.011918 -0.011491 -82385.800000 1 0 0
9.603993 14.063468 -7.331293 18.540919 0.971637 1.977312 0.038502 -0.023174 -180944.000000 1 0 0
6.358193 11.438868 7.349107 15.009454 1.063480 1.059129 0.004621 -0.001577 -772881.000000 1 0 0
5.525293 16.761468 -5.546993 18.499859 1.252371 1.875321 0.025809 -0.012077 -1084260.000000 1 0 0
-4.156907 17.160968 -4.602793 18.247312 -1.333144 1.825796 0.009975 -0.003662 251251.000000 1 0 0
0.043393 18.278868 -0.357693 18.282419 1.568422 1.590362 0.003834 -0.016569 -820303.000000 1 0 0
6.585793 15.456268 -2.695893 17.015779 1.168001 1.729902 0.013895 -0.009856 676454.000000 1 0 0
-0.785207 20.599468 0.680107 20.625644 -1.532697 1.537816 0.012202 -0.010607 -93099.300000 1 0 0
-1.303107 18.963668 4.391307 19.509033 -1.502188 1.343760 0.003979 -0.004873 464195.000000 1 0 0
7.245093 13.705268 -4.395093 16.113429 1.084504 1.847057 0.019358 -0.005681 -1013670.000000 1 0 0
-1.151707 12.097368 7.773007 14.425408 -1.475879 1.001735 0.002504 0.005689 321261.000000 1 0 0
7.591793 10.818168 10.967607 17.174297 0.958888 0.878111 0.010657 -0.005220 -57047.800000 1 0 0
1.505493 15.933468 -7.298593 17.590093 1.476590 1.998658 0.014509 -0.008392 -661128.000000 1 0 0
8.788493 7.184268 14.716407 18.585585 0.685299 0.657016 0.023107 -0.008576 -44442.700000 1 0 0
11.332793 11.233068 -4.733293 16.643860 0.780979 1.859163 0.022250 -0.011883 -468759.000000 1 0 0
-3.335507 17.186168 4.627207 18.108038 -1.379099 1.312397 0.005110 -0.002290 -440779.000000 1 0 0
3.861693 15.264568 -6.704993 17.113639 1.323011 1.973375 0.021335 -0.014057 -1098270.000000 1 0 0
-4.548807 14.011768 9.526007 17.543264 -1.256888 0.996790 0.013693 -0.007583 -250124.000000 1 0 0
6.083793 17.724068 0.554307 18.747330 1.240147 1.541225 0.004414 -0.014457 -173151.000000 1 0 0
9.763193 10.691568 -2.064093 14.624980 0.830754 1.712404 0.010127 -0.001850 -1085330.000000 1 0 0
7.028993 18.018568 -2.717093 19.530953 1.198856 1.710366 0.019761 -0.013168 203613.000000 1 0 0
3.454393 10.422368 10.494707 15.188728 1.250750 0.807989 0.002630 0.001764 549404.000000 1 0 0
0.006293 18.746468 2.228407 18.878451 1.570461 1.452481 0.005418 -0.006686 339959.000000 1 0 0
-0.928307 17.159268 -7.450293 18.729899 -1.516750 1.979887 0.020265 -0.000203 780412.000000 1 0 0
10.004293 8.741568 13.074307 18.639700 0.718140 0.793405 0.025530 -0.007897 -5745.920000 1 0 0
3.597793 11.540768 5.628207 13.334548 1.268598 1.135061 -0.001278 0.002906 298351.000000 1 0 0
13.031793 13.905468 8.313307 20.791843 0.817821 1.159459 0.036645 -0.024954 -302444.000000 1 0 0
-0.669907 17.368868 6.751107 18.646818 -1.532246 1.200329 0.010198 -0.006185 -526571.000000 1 0 0
12.048693 13.682168 5.911407 19.165528 0.848796 1.257244 0.016459 -0.009281 -859626.000000 1 0 0
4.818093 14.468068 -4.430693 15.879863 1.249332 1.853563 0.006678 -0.005882 -511742.000000 1 0 0
3.838693 17.700368 4.650707 18.699403 1.357233 1.319449 0.008300 -0.008023 -370056.000000 1 0 0
6.987493 11.641968 2.178507 13.751595 1.030231 1.411708 0.009921 0.000828 511814.000000 1 0 0
6.450293 8.647068 11.838707 16.016649 0.929891 0.738989 0.007910 -0.002527 296604.000000 1 0 0
-5.362907 14.899768 1.816407 15.939360 -1.225301 1.456591 0.002503 -0.000998 -51260.900000 1 0 0
6.741393 13.823368 6.030607 16.519689 1.117052 1.197104 0.007606 -0.006140 -1027060.000000 1 0 0
5.922093 15.997468 5.082007 17.799353 1.216250 1.281251 0.005684 -0.011285 827926.000000 1 0 0
1.310793 18.131168 4.433607 18.711342 1.498627 1.331574 0.010025 -0.002386 488720.000000 1 0 0
7.497993 17.923868 -6.762293 20.572155 1.174593 1.905735 0.034828 -0.012979 506112.000000 1 0 0
-2.476107 18.746168 -5.996993 19.837183 -1.439470 1.877912 0.021610 0.002763 959062.000000 1 0 0
13.586293 10.049368 -4.513393 17.491365 0.636857 1.831785 0.024312 -0.008856 -607493.000000 1 0 0
-1.601507 17.992168 10.083907 20.687391 -1.482019 1.061638 0.022298 -0.007197 -205590.000000 1 0 0
3.367893 11.818568 -1.590693 12.391592 1.293188 1.699520 0.003968 -0.005550 -656488.000000 1 0 0
4.361493 13.938368 -10.784393 18.154995 1.267536 2.206841 0.019959 -0.018343 -112093.000000 1 0 0
11.501193 13.413668 2.474207 17.841682 0.862008 1.431672 0.017363 -0.002264 411758.000000 1 0 0
15.794993 6.351868 -6.993293 18.404732 0.382354 1.960563 0.015323 -0.004114 -298458.000000 1 0 0
2.440293 16.130068 3.051507 16.596561 1.420647 1.385880 0.003444 -0.005975 -203512.000000 1 0 0
13.456393 10.609068 3.704107 17.531322 0.667630 1.357907 0.013207 0.005116 -729188.000000 1 0 0
-5.045507 19.282268 -5.729493 20.738614 -1.314869 1.850709 0.013139 -0.008358 -479106.000000 1 0 0
5.376593 12.017068 0.166407 13.166069 1.150096 1.558157 0.005816 -0.003057 567579.000000 1 0 0
4.765693 15.384168 9.711207 18.806701 1.270392 1.028190 0.016375 -0.006569 -250317.000000 1 0 0
7.709993 9.446268 14.085707 18.630167 0.886258 0.713509 0.014566 -0.011195 -2449180.000000 1 0 0
-5.055107 13.544768 6.985807 16.056661 -1.213592 1.120678 -0.000946 -0.002853 -552718.000000 1 0 0
-4.526207 17.057268 0.483507 17.654199 -1.311420 1.543405 0.005726 -0.006605 -1736190.000000 1 0 0
-0.688107 16.648468 3.682707 17.064798 -1.529488 1.353278 0.003776 -0.004597 -1587640.000000 1 0 0
7.891993 16.553468 -4.642893 18.917117 1.125915 1.818763 0.026984 -0.018149 237765.000000 1 0 0
3.133393 16.399568 -4.529493 17.299719 1.382006 1.835709 0.012272 -0.008219 -773915.000000 1 0 0
9.389993 14.507868 8.231307 19.141699 0.996368 1.126282 0.012535 -0.012131 192723.000000 1 0 0
12.744093 10.883968 9.196207 19.116561 0.706835 1.068933 0.035843 -0.017391 -288296.000000 1 0 0
3.768793 12.267168 12.292607 17.770633 1.272723 0.806904 0.012037 -0.003627 619731.000000 1 0 0
-3.268207 19.346868 6.038007 20.529004 -1.403449 1.272261 0.018855 -0.009938 264592.000000 1 0 0
-2.869207 15.754168 10.187107 18.979023 -1.390647 1.004209 0.020176 -0.010240 1029710.000000 1 0 0
1.921193 14.239968 7.737607 16.319873 1.436691 1.076830 0.006908 -0.002354 -48336.400000 1 0 0
4.303793 17.186168 7.960007 19.422892 1.325421 1.148533 0.016225 -0.012641 -33530.900000 1 0 0
-1.980107 13.447868 9.615807 16.650217 -1.424604 0.955111 0.008930 -0.000596 -1375850.000000 1 0 0
5.863593 17.691768 3.138107 18.900479 1.250759 1.403991 0.000054 -0.017060 338212.000000 1 0 0
7.333393 15.260968 -6.790093 18.242290 1.122844 1.952193 0.023904 -0.011520 98503.300000 1 0 0
11.062693 7.806168 9.616807 16.607300 0.614495 0.953207 0.016405 -0.003059 1003170.000000 1 0 0
9.128393 16.389368 -2.533393 18.930320 1.062617 1.705026 0.029346 -0.010175 928739.000000 1 0 0
14.701193 11.381768 -6.518993 19.701954 0.658815 1.908033 0.059948 -0.016009 438640.000000 1 0 0
10.935193 6.469568 16.128107 20.531673 0.534241 0.667255 0.038142 -0.015148 -284354.000000 1 0 0
8.486393 8.450168 10.246307 15.761060 0.783259 0.863077 0.008876 -0.003097 -978983.000000 1 0 0
16.465793 9.479068 4.630807 19.555548 0.522347 1.331723 0.040699 -0.000031 92727.300000 1 0 0
-3.417107 14.513468 4.656907 15.620633 -1.339564 1.268068 -0.000513 0.001403 -977683.000000 1 0 0
4.740993 14.590668 12.838207 20.004604 1.256625 0.874002 0.014819 -0.003976 -850174.000000 1 0 0
16.117193 10.558568 -4.545393 19.796663 0.579961 1.802467 0.050157 -0.019445 -161117.000000 1 0 0
14.614493 14.146368 6.273007 21.285059 0.769123 1.271640 0.042896 -0.009223 -384720.000000 1 0 0
6.209193 9.545268 9.384307 14.755726 0.994070 0.881522 0.004699 0.002148 109688.000000 1 0 0
10.442893 12.192268 8.715707 18.266608 0.862531 1.073400 0.020095 -0.013812 189197.000000 1 0 0
7.858093 11.381268 -0.260193 13.832953 0.966515 1.589607 0.006614 -0.003506 -375006.000000 1 0 0
7.465093 13.418668 -8.657593 17.627881 1.063113 2.084184 0.023712 -0.007794 -217634.000000 1 0 0
2.719393 15.303468 -2.160893 15.692695 1.394934 1.708936 0.003676 -0.006146 683854.000000 1 0 0
12.243493 13.650668 -7.488793 19.807218 0.839688 1.958522 0.047425 -0.024346 -210426.000000 1 0 0
-8.045007 14.631668 9.783207 19.352493 -1.068080 1.040804 0.022686 -0.013283 356914.000000 1 0 0
11.475993 9.590968 2.333307 15.137021 0.696158 1.416034 0.011951 0.005200 -1907690.000000 1 0 0
12.116393 8.627568 4.549607 15.554447 0.618772 1.273961 0.008891 0.000296 202171.000000 1 0 0
14.086693 7.973368 6.165807 17.321279 0.515060 1.206847 0.015544 -0.007584 -2862050.000000 1 0 0
16.279893 7.395068 7.338507 19.328105 0.426379 1.181345 0.053781 -0.011987 741599.000000 1 0 0
13.590793 8.356368 2.383407 16.131310 0.551271 1.422503 0.004968 0.003790 -2229920.000000 1 0 0
-4.220607 17.238868 -7.189993 19.149102 -1.330689 1.955705 0.008950 -0.011621 110527.000000 1 0 0
3.186593 19.331668 -4.010193 19.998735 1.407427 1.772687 0.030543 -0.022009 291967.000000 1 0 0
-0.105007 14.857168 6.435407 16.191385 -1.563729 1.162051 0.004948 0.001478 -602445.000000 1 0 0
6.732693 16.330668 8.204207 19.476368 1.179755 1.135985 0.023386 -0.006053 292692.000000 1 0 0
12.839093 15.157768 -2.038193 19.968837 0.868029 1.673043 0.033690 -0.013451 -429689.000000 1 0 0
12.473693 15.812968 4.246907 20.583469 0.902906 1.362978 0.019714 -0.007648 -496094.000000 1 0 0
2.978293 18.070668 1.483207 18.374416 1.407451 1.489987 0.018148 -0.013723 -572354.000000 1 0 0
10.408993 14.609968 -1.249393 17.982193 0.951758 1.640332 0.018434 0.001784 -1746680.000000 1 0 0
-6.395207 15.717768 -0.487993 16.976014 -1.184375 1.599546 0.007132 -0.004228 -242772.000000 1 0 0
-3.877407 15.868268 -2.521093 16.528525 -1.331143 1.723924 0.004634 -0.000197 -1880130.000000 1 0 0
-6.787307 17.133868 1.687407 18.506332 -1.193627 1.479490 0.009388 -0.005825 395560.000000 1 0 0
0.038693 19.367268 -6.762593 20.514025 1.568798 1.906737 0.033498 -0.007715 -19385.700000 1 0 0
4.792393 14.734868 7.209907 17.089942 1.256346 1.135278 0.012375 -0.005813 -578586.000000 1 0 0
8.632393 12.382568 6.912007 16.601869 0.961992 1.141381 0.015387 -0.010135 -553328.000000 1 0 0
-7.621207 17.426468 -5.572793 19.819703 -1.158524 1.855814 0.041973 -0.015432 206822.000000 1 0 0
-8.001307 17.669868 -1.294293 19.440174 -1.145598 1.637424 0.040306 -0.012191 386813.000000 1 0 0
-13.836107 -9.231632 9.076307 18.948357 0.588381 1.071279 0.037019 -0.015323 236810.000000 1 0 0
-12.619807 -12.961932 7.664207 19.647170 0.798771 1.170065 0.034923 -0.010023 -11202.100000 1 0 0
-3.937907 -15.044232 12.472207 19.934693 1.314785 0.894828 0.021825 -0.006130 662271.000000 1 0 0
-2.091007 -14.019332 14.981007 20.623883 1.422736 0.757740 0.025012 -0.003963 -1109150.000000 1 0 0
-7.204607 -13.636932 12.693907 19.975174 1.084753 0.882161 0.035623 -0.015447 174363.000000 1 0 0
-9.950007 -11.520532 8.846707 17.606520 0.858416 1.044346 0.020270 -0.010435 346634.000000 1 0 0
-10.620307 -10.852532 11.183407 18.858340 0.796213 0.935990 0.034052 -0.011446 177169.000000 1 0 0
-5.973107 -12.225832 10.850707 17.403644 1.116339 0.897619 0.015484 -0.008191 301590.000000 1 0 0
-12.499607 -10.457032 7.254007 17.838451 0.696656 1.152012 0.020717 -0.005648 -213602.000000 1 0 0
-7.833107 -11.134932 12.311607 18.355379 0.957744 0.835596 0.021925 -0.015667 -489383.000000 1 0 0
-14.804607 -11.580532 7.235007 20.140269 0.663808 1.203353 0.050097 -0.010592 192523.000000 1 0 0
-11.247807 -9.269132 9.197107 17.234174 0.689254 1.007879 0.019430 -0.003489 -530523.000000 1 0 0
-5.615107 -11.603732 13.425407 18.612297 1.120107 0.765091 0.032234 -0.019392 -745428.000000 1 0 0
3.850193 -12.550432 14.742707 19.740434 -1.273133 0.727517 0.001144 0.000769 -359705.000000 1 0 0
6.351693 -12.847532 14.387707 20.307861 -1.111647 0.783455 0.007723 0.001746 -269206.000000 1 0 0
6.549493 -8.614832 16.241907 19.516935 -0.920763 0.587741 0.008799 -0.003058 -336822.000000 1 0 0
0.639393 -1.634832 14.335307 14.442387 -1.197981 0.121848 0.003110 -0.005999 -251226.000000 1 0 0
-0.125307 -6.271532 15.620607 16.833039 1.550819 0.381860 0.001388 -0.008375 -240796.000000 1 0 0
-1.461707 -4.826432 18.436007 19.113278 1.276723 0.267005 0.014023 -0.018430 -1565510.000000 1 0 0
-5.348307 12.405768 13.042807 18.778240 -1.163758 0.802974 0.016216 -0.013716 -258837.000000 1 0 0
-4.085407 8.722868 11.582807 15.064541 -1.132783 0.693710 -0.001745 -0.003320 -336998.000000 1 0 0
-0.571407 -3.893632 15.008707 15.516062 1.425082 0.256431 0.007266 -0.008188 -455071.000000 1 0 0
-4.348907 9.217068 14.117507 17.411817 -1.129936 0.625278 0.002677 -0.005395 422508.000000 1 0 0
-13.531307 -2.478932 16.764807 21.686405 0.181191 0.687151 0.014246 0.007674 203284.000000 1 0 0
-0.314607 0.802568 17.265507 17.287014 -1.197205 0.049886 0.015533 -0.009239 -6692.160000 1 0 0
-3.463007 -7.418732 15.316307 17.367190 1.134066 0.490897 0.016577 -0.015217 209421.000000 1 0 0
-7.484807 5.556468 12.467407 15.567046 -0.638598 0.642025 0.003390 -0.004657 -1321980.000000 1 0 0
-9.903907 9.863568 13.478307 19.417573 -0.783357 0.803587 0.015236 -0.011108 90103.000000 1 0 0
-5.587707 2.109068 11.085207 12.591762 -0.360915 0.494188 -0.002330 0.001855 -1448400.000000 1 0 0
-7.177507 -7.648632 16.773907 19.783381 0.817164 0.558825 0.026259 -0.010472 -219262.000000 1 0 0
-4.763607 3.055568 18.331107 19.184836 -0.570334 0.299447 0.024463 -0.008815 -282796.000000 1 0 0
1.077293 -8.333032 16.539707 18.551601 -1.442230 0.470037 0.003458 -0.007644 565711.000000 1 0 0
-15.010407 -3.657632 13.806307 20.719670 0.239015 0.841509 0.016958 -0.000397 219917.000000 1 0 0
-14.332807 2.113768 13.127407 19.550606 -0.146422 0.834622 0.000716 -0.000165 -1310060.000000 1 0 0
-5.576307 0.910768 16.063207 17.027957 -0.161899 0.338231 0.020540 -0.002170 203339.000000 1 0 0
4.529393 5.635868 15.194807 16.827376 0.893820 0.444138 0.002799 -0.001298 -200127.000000 1 0 0
-1.055507 -11.835232 13.904707 18.290098 1.481848 0.707127 -0.004737 -0.007711 143649.000000 1 0 0
-5.912307 -4.128832 16.863707 18.340863 0.609615 0.404089 0.031387 -0.010423 -21924.000000 1 0 0
-12.949107 -1.456732 9.736607 16.266621 0.112026 0.929090 -0.000146 0.007960 -860046.000000 1 0 0
-14.664007 10.166468 10.157707 20.532151 -0.606211 1.053281 0.007903 -0.004496 408940.000000 1 0 0
-3.530907 -3.496732 17.657007 18.342965 0.780535 0.274342 0.022175 -0.015469 -1111140.000000 1 0 0
-7.932707 9.234168 11.950607 17.059154 -0.861066 0.794643 0.004476 -0.008036 229712.000000 1 0 0
-4.272607 10.594468 16.408407 19.993343 -1.187460 0.608173 0.003713 -0.002724 270092.000000 1 0 0
-12.499807 12.763068 8.371407 19.728699 -0.795819 1.132578 0.010537 -0.005540 6604.740000 1 0 0
-12.587107 3.198168 10.495207 16.697692 -0.248818 0.891119 -0.005021 -0.002682 669434.000000 1 0 0
-10.213407 -3.551532 13.639007 17.405447 0.334653 0.670348 0.010643 0.004158 -1322420.000000 1 0 0
-4.187807 -6.427632 17.683707 19.276039 0.993345 0.409316 0.032171 -0.016212 -635604.000000 1 0 0
0.657593 -3.755132 17.540407 17.949912 -1.397436 0.214014 0.007654 -0.025892 -565464.000000 1 0 0
-5.918107 1.731668 13.538607 14.876712 -0.284659 0.427383 0.011784 0.003511 -1237650.000000 1 0 0
-10.676407 8.651468 10.235507 17.134736 -0.681011 0.930598 0.007899 -0.009944 338234.000000 1 0 0
4.434293 2.457368 17.208707 17.939934 0.506042 0.286495 0.004805 -0.010883 -543708.000000 1 0 0
0.549593 -5.438332 13.301207 14.380529 -1.470079 0.389904 0.004973 -0.009066 -1533000.000000 1 0 0
-4.202207 5.661068 20.628507 21.800036 -0.932242 0.329327 0.043853 -0.004889 -273028.000000 1 0 0
-10.864507 10.844968 9.087207 17.838952 -0.784498 1.036306 0.013066 -0.008679 17665.300000 1 0 0
0.560193 4.047968 13.059207 13.683668 1.433281 0.303272 0.005185 -0.004409 -2467630.000000 1 0 0
-3.199907 7.084368 13.313807 15.417041 -1.146542 0.528474 0.002554 -0.002788 -1067950.000000 1 0 0
0.618193 8.867468 14.091007 16.660452 1.501194 0.562779 -0.000809 -0.003291 122207.000000 1 0 0
-4.311207 -6.595432 13.088607 15.277365 0.991849 0.541897 0.012201 -0.009013 71116.800000 1 0 0
-5.179407 8.202368 16.372807 19.030868 -1.007570 0.534882 0.020375 -0.005527 377404.000000 1 0 0
1.494793 -10.678432 15.730707 19.071404 -1.431718 0.600891 -0.002860 -0.001995 -461686.000000 1 0 0
-15.274707 -1.125332 14.253807 20.922573 0.073540 0.821308 0.014759 0.005732 611788.000000 1 0 0
-13.609507 -5.297032 8.305807 16.800705 0.371175 1.053683 0.022454 -0.002803 -242441.000000 1 0 0
-14.159107 -1.836332 12.002507 18.652416 0.128973 0.871757 0.009355 0.005047 375390.000000 1 0 0
9.238793 1.121868 17.049907 19.424552 0.120839 0.499650 0.020723 -0.005797 203128.000000 1 0 0
4.974893 -6.660332 16.590407 18.556702 -0.929254 0.464516 0.016210 -0.020270 -249776.000000 1 0 0
-6.218907 -2.644332 11.191707 13.073699 0.402047 0.543222 -0.002503 -0.001049 -29011.900000 1 0 0
0.656293 -6.307732 18.105107 19.183668 -1.467124 0.336921 0.010933 -0.013782 158271.000000 1 0 0
-8.566807 11.821268 12.382607 19.143185 -0.943688 0.867361 0.018013 -0.003361 183961.000000 1 0 0
-6.758207 -5.751432 14.904807 17.346631 0.705091 0.537027 0.024720 -0.008292 -161660.000000 1 0 0
-4.386007 -8.932532 17.223507 19.891616 1.114363 0.523914 0.029418 -0.010583 -115667.000000 1 0 0
2.438193 -6.100932 16.197007 17.478822 -1.190598 0.385356 0.007477 -0.013619 -24923.800000 1 0 0
2.238993 5.034368 16.022007 16.942924 1.152324 0.331221 0.005772 -0.007398 -2105890.000000 1 0 0
0.877793 -8.779732 13.989307 16.539496 -1.471148 0.562711 -0.000475 -0.006656 -489872.000000 1 0 0
-9.935007 -2.840332 11.191807 15.232479 0.278463 0.745523 -0.009064 0.003740 -895402.000000 1 0 0
-1.355807 10.035068 12.418207 16.023504 -1.436503 0.684082 0.000421 -0.001431 -454848.000000 1 0 0
-12.365607 -3.637432 11.244207 17.104717 0.286088 0.853467 0.006201 0.005679 -658867.000000 1 0 0
-1.986807 6.735368 20.078607 21.271179 -1.283950 0.336443 0.018774 0.002318 -341340.000000 1 0 0
0.251093 -13.328332 15.752207 20.635879 -1.551960 0.702327 -0.006680 -0.002763 -17163.000000 1 0 0
4.058393 -8.761032 15.342907 18.128184 -1.136993 0.561689 0.006205 -0.007397 -86711.600000 1 0 0
4.384293 -4.368232 16.076607 17.226746 -0.783563 0.367481 0.004726 -0.009340 -72828.500000 1 0 0
7.909893 1.824268 14.838907 16.914122 0.226668 0.500571 -0.000134 -0.006903 -393389.000000 1 0 0
-6.496107 -0.117032 11.811607 13.480622 0.018014 0.502894 -0.002200 0.002823 386153.000000 1 0 0
-3.466507 -10.896832 18.522907 21.768227 1.262799 0.553072 0.043535 -0.008509 -480409.000000 1 0 0
3.236093 -1.509432 13.468907 13.934208 -0.436438 0.259153 0.002143 -0.007872 829065.000000 1 0 0
-2.618007 8.573268 15.995107 18.335712 -1.274421 0.510813 0.008414 -0.001324 -1732890.000000 1 0 0
-3.318207 3.904168 14.835007 15.694919 -0.866352 0.332556 0.007605 -0.003054 -139229.000000 1 0 0
-4.318207 -8.985332 19.896607 22.254395 1.122802 0.464484 0.036745 -0.012015 -91985.700000 1 0 0
-5.593807 -3.048332 19.261507 20.287648 0.498956 0.319411 0.032406 -0.008532 -1203750.000000 1 0 0
-6.622007 -8.758832 10.983107 15.530511 0.923442 0.785273 0.011322 -0.008424 852410.000000 1 0 0
-11.708807 2.448568 12.727807 17.466790 -0.206151 0.754395 0.002132 -0.010562 -66876.100000 1 0 0
-11.671707 -7.554332 11.391807 17.974147 0.574429 0.884355 0.018815 -0.005519 -1232860.000000 1 0 0
-11.072407 -7.407432 15.432707 20.387170 0.589616 0.712115 0.040600 -0.015634 -1146990.000000 1 0 0
0.333993 5.491868 17.754507 18.587488 1.510055 0.300509 0.007125 -0.006006 6173.990000 1 0 0
-2.341307 -0.191732 13.181907 13.389592 0.081709 0.176358 0.005140 -0.001483 -98128.700000 1 0 0
-6.065307 -10.474732 18.626007 22.213422 1.045930 0.576267 0.046278 -0.003722 1118170.000000 1 0 0
0.270993 2.562168 19.232707 19.404514 1.465421 0.133170 0.028608 -0.009829 -264121.000000 1 0 0
-0.861507 10.942168 14.801907 18.427417 -1.492226 0.638057 -0.000429 -0.001238 -204819.000000 1 0 0
-12.912207 -2.338832 14.227907 19.355324 0.179191 0.744997 0.013557 0.005015 -176938.000000 1 0 0
-13.958107 8.308868 11.810507 20.083678 -0.536936 0.942132 0.016814 -0.010086 125735.000000 1 0 0
-17.920207 -0.738532 6.837307 19.194479 0.041189 1.206585 0.038944 -0.013311 -655635.000000 1 0 0
-2.052307 -7.868432 17.482007 19.280684 1.315653 0.435377 0.009135 -0.016973 -2155510.000000 1 0 0
5.559893 2.629268 14.488807 15.740108 0.441733 0.401432 0.000683 -0.005354 -3245020.000000 1 0 0
-14.080207 -6.567532 11.018607 19.047163 0.436439 0.953919 0.022948 -0.008628 500735.000000 1 0 0
3.041093 7.494268 16.401907 18.287560 1.185309 0.458113 0.003188 -0.009924 -584902.000000 1 0 0
0.940693 2.026768 14.604407 14.774350 1.136251 0.151820 0.005987 -0.007249 -1198390.000000 1 0 0
-14.223707 0.835368 9.461607 17.103617 -0.058663 0.984604 0.004028 -0.002691 -2509960.000000 1 0 0
-9.681907 -5.271832 15.492007 19.014043 0.498613 0.618470 0.024778 -0.001405 -321628.000000 1 0 0
-2.627807 -0.102532 18.187607 18.376750 0.038998 0.143598 0.023034 -0.010326 98916.200000 1 0 0
6.857893 3.600568 17.556307 19.189026 0.483467 0.415502 0.021173 -0.009179 -544251.000000 1 0 0
-4.249607 -0.934732 14.804107 15.430311 0.216510 0.285868 0.013903 -0.001001 -782168.000000 1 0 0
4.495393 -8.858932 17.933007 20.500780 -1.101213 0.505882 0.018789 -0.005120 -118247.000000 1 0 0
1.963593 6.983168 13.503307 15.328393 1.296685 0.492963 0.003083 -0.002365 -871359.000000 1 0 0
-3.662907 -1.024232 20.461907 20.812390 0.272659 0.183780 0.027842 -0.009931 -1356930.000000 1 0 0
-10.765007 1.472068 16.394407 19.667968 -0.135903 0.585278 0.020370 -0.002135 -39753.500000 1 0 0
-4.001307 7.094768 18.419007 20.139663 -1.057283 0.416368 0.026063 -0.000509 -540526.000000 1 0 0
-12.746407 0.946968 14.663007 19.451772 -0.074157 0.716950 0.009783 -0.002583 -519396.000000 1 0 0
-15.999007 -4.569232 8.302607 18.595145 0.278189 1.107954 0.035065 -0.007607 -2566110.000000 1 0 0
-2.416007 0.799168 15.708607 15.913394 -0.319451 0.160602 0.011754 -0.003687 171748.000000 1 0 0
-13.745307 -8.938732 12.114607 20.386224 0.576594 0.934458 0.031784 -0.018265 678660.000000 1 0 0
6.136593 -3.167132 14.464007 16.027976 -0.476449 0.445437 0.009482 -0.008356 578641.000000 1 0 0
-15.714307 0.586268 7.412507 17.384718 -0.037291 1.130309 0.014126 -0.006995 635907.000000 1 0 0
-14.188907 5.744768 12.374807 19.684088 -0.384704 0.890954 0.016987 -0.017620 295893.000000 1 0 0
0.273493 9.425768 16.602207 19.093276 1.541789 0.516543 0.000242 -0.011646 -385063.000000 1 0 0
-10.420307 -5.442232 10.756707 15.934474 0.481306 0.829752 0.007386 -0.001351 58796.900000 1 0 0
-3.251207 -10.851132 15.059107 18.843941 1.279689 0.644919 0.017674 -0.010477 -1412400.000000 1 0 0
-3.534907 2.639768 12.550707 13.303541 -0.641432 0.338026 0.003238 0.001114 -2141790.000000 1 0 0
-12.371507 -7.789732 7.315007 16.347582 0.561937 1.106865 0.019411 -0.007278 31075.400000 1 0 0
-8.260007 -1.928232 13.270707 15.749840 0.229335 0.568716 0.004025 0.003117 -85849.400000 1 0 0
-9.876907 6.457068 9.511207 15.156190 -0.579010 0.892399 0.000830 -0.002802 -343273.000000 1 0 0
-17.839407 -3.578432 6.538207 19.333851 0.197964 1.225820 0.040357 -0.013863 168674.000000 1 0 0
-1.305807 -0.054432 20.578107 20.619568 0.041660 0.063426 0.031672 -0.010354 -335591.000000 1 0 0
-2.852107 2.533968 20.102407 20.461239 -0.726400 0.187556 0.033563 -0.008612 -201723.000000 1 0 0
-3.826607 11.244468 11.145807 16.288340 -1.242780 0.817179 0.003081 -0.005907 -655317.000000 1 0 0
-4.226407 -4.861332 14.970607 16.297673 0.855151 0.406341 0.018218 -0.010872 -196504.000000 1 0 0
-0.132407 -14.251332 13.268407 19.472253 1.561506 0.821122 -0.001723 -0.003495 -379564.000000 1 0 0
-11.944807 0.413968 8.289907 14.545527 -0.034643 0.964378 -0.009785 0.000237 -534655.000000 1 0 0
-7.848407 1.943268 15.353807 17.352613 -0.242719 0.484705 0.018433 -0.001261 -327773.000000 1 0 0
3.466593 -2.316832 18.308807 18.777577 -0.589154 0.223915 0.012502 -0.014196 -78951.700000 1 0 0
-2.207407 4.812868 12.653207 13.716414 -1.140775 0.396323 -0.001706 -0.000904 -481455.000000 1 0 0
-10.393107 -6.219032 13.189007 17.906506 0.539228 0.742843 0.010182 -0.005470 -563752.000000 1 0 0
2.320693 -3.744432 14.140707 14.811009 -1.015966 0.302002 0.001930 -0.009066 -579834.000000 1 0 0
6.597693 1.038468 17.006907 18.271367 0.156118 0.374213 -0.001065 -0.007514 -883947.000000 1 0 0
-2.023407 -5.760332 13.860807 15.145877 1.232994 0.414907 0.008081 -0.009734 -2214140.000000 1 0 0
-12.897507 3.568168 14.703607 19.881489 -0.269905 0.738376 -0.003906 -0.003987 86255.800000 1 0 0
-13.256507 -6.730632 13.462607 20.056874 0.469807 0.834941 0.014195 -0.001384 -555203.000000 1 0 0
-9.658707 6.891068 12.072407 16.926916 -0.619700 0.776732 0.005233 -0.004496 -279019.000000 1 0 0
-1.284907 -2.472332 12.860107 13.158487 1.091502 0.213364 0.006208 -0.005126 435267.000000 1 0 0
0.225193 6.607268 15.386307 16.746497 1.536727 0.405823 0.002795 -0.004183 316941.000000 1 0 0
-16.335207 -0.734932 9.599607 18.961318 0.044960 1.039939 0.024492 -0.003329 11963.500000 1 0 0
-1.345807 2.692168 13.794307 14.118849 -1.107231 0.214825 0.002053 -0.002093 -3413960.000000 1 0 0
-11.345107 -3.514332 16.080507 19.991116 0.300392 0.636161 0.024064 -0.002552 339977.000000 1 0 0
-5.171507 -1.560932 17.140507 17.971588 0.293138 0.305303 0.023596 -0.003999 424933.000000 1 0 0
-12.007307 6.593568 11.182407 17.683235 -0.502175 0.886183 0.004420 -0.005898 -1749970.000000 1 0 0
-2.689507 4.754868 18.664107 19.447137 -1.056031 0.284737 0.017343 -0.004638 477568.000000 1 0 0
5.109293 -1.910432 16.303507 17.191829 -0.357817 0.322869 0.002313 -0.011252 9404.740000 1 0 0
-8.130607 -4.229932 12.130307 15.203403 0.479714 0.647046 0.007137 -0.001127 -1927640.000000 1 0 0
-11.595307 -0.932232 16.028107 19.804556 0.080225 0.627813 0.023022 -0.002712 265527.000000 1 0 0
1.959193 1.968668 17.364607 17.585326 0.787811 0.158604 0.009413 -0.012383 -1910120.000000 1 0 0
-8.992507 -7.556132 11.415707 16.379215 0.698818 0.799643 0.010681 -0.008673 809703.000000 1 0 0
-7.218307 6.763868 14.809307 17.809252 -0.752908 0.588901 0.004240 -0.008347 -1147590.000000 1 0 0
-5.853707 3.475768 15.563207 16.987062 -0.535828 0.412354 0.017377 -0.000471 423080.000000 1 0 0
-9.449507 4.298568 11.586507 15.556929 -0.426920 0.730589 -0.001502 -0.003220 -371041.000000 1 0 0
-10.321007 0.098568 14.077307 17.455758 -0.009550 0.632662 0.008291 0.000732 -286117.000000 1 0 0
7.976693 -0.626432 15.638907 17.566886 -0.078372 0.472904 0.004058 -0.012263 27730.800000 1 0 0
-8.650007 -7.527232 14.630107 18.588219 0.716105 0.664762 0.030902 -0.008130 -1593180.000000 1 0 0
-0.186507 4.062668 15.647607 16.167488 -1.524921 0.254282 0.005211 -0.008289 209643.000000 1 0 0
-8.117307 3.130368 9.613307 12.965553 -0.368067 0.735568 -0.008890 0.001267 -485464.000000 1 0 0
-2.010707 -9.542232 13.207307 16.417372 1.363118 0.636011 -0.000490 -0.004615 314151.000000 1 0 0
-6.084907 10.192268 10.519307 15.860777 -1.032577 0.845673 0.005978 -0.009170 -1817060.000000 1 0 0
-8.730507 -2.879832 15.620207 18.124736 0.318620 0.531955 0.021182 -0.005022 196309.000000 1 0 0
4.091693 5.475268 17.757207 19.027321 0.929023 0.367446 0.010148 -0.010354 148434.000000 1 0 0
-6.873907 -1.056432 15.200907 16.716287 0.152494 0.429084 0.015142 -0.000782 -479896.000000 1 0 0
-0.932907 -9.819432 15.557007 18.420424 1.476074 0.565068 -0.004723 -0.003903 -658704.000000 1 0 0
-4.464307 5.756768 16.184807 17.748758 -0.911181 0.422945 0.018153 -0.006729 -126127.000000 1 0 0
3.679193 0.043268 17.436107 17.820106 0.011760 0.207973 0.010163 -0.011441 -914591.000000 1 0 0
1.313193 0.182168 19.264307 19.309873 0.137842 0.068712 0.015133 -0.010870 -538413.000000 1 0 0
-6.431707 6.487368 17.884307 20.082362 -0.789707 0.472248 0.027242 -0.003584 679445.000000 1 0 0
-12.192207 0.673668 10.903707 16.370540 -0.055198 0.841887 0.001276 0.002862 -434710.000000 1 0 0
-5.370307 5.112768 13.766007 15.635970 -0.760836 0.494078 0.009256 -0.004909 -652814.000000 1 0 0
-8.720507 -9.610032 9.927207 16.338586 0.833887 0.917770 0.013114 -0.004712 139058.000000 1 0 0
6.839693 -3.580432 17.031707 18.699731 -0.482253 0.425580 0.009825 -0.011439 775547.000000 1 0 0
-16.654907 1.866068 9.489707 19.259353 -0.111578 1.055569 0.024621 -0.007503 375190.000000 1 0 0
-4.144507 -9.472932 11.563807 15.512415 1.158377 0.729579 0.005163 -0.009181 634904.000000 1 0 0
-11.104407 -3.752732 9.081507 14.827833 0.325900 0.911623 -0.000830 0.004506 -537113.000000 1 0 0
3.808393 -5.325532 18.471507 19.597493 -0.949995 0.340630 0.016358 -0.014739 -23805.800000 1 0 0
2.512093 -1.849632 15.965007 16.266936 -0.634670 0.192969 0.004329 -0.008374 -493223.000000 1 0 0
-3.018607 -4.368632 20.204907 20.891032 0.966154 0.257000 0.026559 -0.019945 -1079700.000000 1 0 0
-6.303307 -3.368532 14.388207 16.065466 0.490793 0.461022 0.013809 -0.003614 681882.000000 1 0 0
-9.748607 5.167068 14.016907 17.838375 -0.487383 0.666852 0.010139 -0.008474 695494.000000 1 0 0
-5.944907 -5.149032 11.807707 14.187192 0.713781 0.587589 0.003916 -0.002577 -585487.000000 1 0 0
6.004193 1.802268 19.289507 20.282593 0.291611 0.314221 0.021437 -0.018062 195753.000000 1 0 0
-2.882007 11.806668 13.494207 18.160314 -1.331378 0.733165 0.005723 -0.012327 -29283.500000 1 0 0
3.279093 1.299268 15.173707 15.578252 0.377250 0.228393 0.001163 -0.006219 -912255.000000 1 0 0
-5.726907 7.410268 12.829807 15.884379 -0.912841 0.630556 0.000674 -0.008799 -1627490.000000 1 0 0
-1.766807 -1.625132 15.219207 15.407366 0.743654 0.156443 0.013150 -0.006459 156381.000000 1 0 0
-7.375907 10.338468 14.196007 19.047692 -0.951105 0.729830 0.025864 -0.011686 612493.000000 1 0 0
-10.109507 2.008468 10.684207 14.845483 -0.196118 0.767435 -0.007661 0.000779 -1037270.000000 1 0 0
-13.669607 5.177268 9.191107 17.266694 -0.362048 1.009478 0.001877 -0.006163 -346431.000000 1 0 0
0.671293 -4.444732 20.018107 20.516601 -1.420898 0.220890 0.026548 -0.029358 -408726.000000 1 0 0
-14.229407 -2.886232 7.446407 16.317333 0.200121 1.096908 0.008669 0.000660 -315173.000000 1 0 0
-2.310507 2.418768 17.673707 17.987463 -0.808286 0.187051 0.012338 -0.004321 -632842.000000 1 0 0
-6.285107 -8.323432 14.465907 17.833804 0.924033 0.624679 0.016414 -0.012685 -596309.000000 1 0 0
-8.000507 2.148368 12.119807 14.680372 -0.262340 0.599569 -0.001425 0.002490 -2006.380000 1 0 0
-14.568207 -3.471832 9.993007 18.004068 0.233952 0.982383 0.015530 -0.001645 551695.000000 1 0 0
-0.568007 6.824468 12.932107 14.633366 -1.487757 0.486999 0.003630 -0.001788 -1111080.000000 1 0 0
-1.790607 -2.368232 19.369707 19.595927 0.923406 0.152095 0.018988 -0.014020 -192406.000000 1 0 0
-12.816407 10.324468 7.548307 18.106128 -0.678126 1.140773 0.001095 -0.006267 -963931.000000 1 0 0
-19.546107 2.363168 6.670907 20.787878 -0.120318 1.244113 0.050787 -0.019533 217737.000000 1 0 0
-16.029407 8.442068 6.602507 19.282207 -0.484748 1.221311 0.003252 -0.005170 454102.000000 1 0 0
-12.504207 7.235768 13.671507 19.890240 -0.524586 0.812966 0.021977 -0.011858 252853.000000 1 0 0
-16.102307 7.941568 10.510907 20.804614 -0.458188 1.041159 0.014112 -0.016366 857505.000000 1 0 0
1.803193 10.956168 15.060107 18.710851 1.407676 0.635313 0.002154 -0.009906 94459.300000 1 0 0
2.167693 14.343468 12.850007 19.379284 1.420804 0.845871 0.006189 -0.003244 -340514.000000 1 0 0
-3.474107 13.717268 11.827407 18.442354 -1.322747 0.874582 0.009801 -0.005277 496543.000000 1 0 0
8.884693 4.837168 15.851507 18.804421 0.498563 0.568021 0.019706 -0.000409 169817.000000 1 0 0
-0.561307 12.624668 12.827907 18.007013 -1.526364 0.777907 -0.002138 -0.003418 -542551.000000 1 0 0
3.632593 13.272768 14.707307 20.141177 1.303651 0.752166 0.008177 -0.004907 53319.800000 1 0 0
-2.830907 -4.154732 -13.768893 14.658043 0.972684 2.791498 0.004170 -0.003787 -233550.000000 1 0 0
5.578293 -11.492632 16.357607 20.754981 -1.118913 0.663033 0.009711 -0.004470 299270.000000 1 0 0
7.808493 -13.530232 7.376007 17.275567 -1.047374 1.129666 0.002640 -0.006355 -260129.000000 1 0 0
-0.066707 15.751268 1.430207 15.816207 -1.566561 1.480246 -0.001566 -0.002469 -3483060.000000 1 0 0
-13.797607 7.928668 9.106507 18.334836 -0.521564 1.051029 -0.000354 -0.005381 253702.000000 1 0 0
-15.500807 -9.862532 4.964307 19.031261 0.566655 1.306894 0.040771 -0.011629 -44537.400000 1 0 0
9.393293 -11.007232 11.181507 18.287132 -0.864346 0.912916 0.015503 -0.009645 254779.000000 1 0 0
-5.601807 -10.767532 -16.715593 20.657469 1.091080 2.513550 0.023276 -0.013100 13641.700000 1 0 0
-1.911807 -12.313832 -14.735393 19.298115 1.416769 2.439615 0.006670 -0.004799 33759.800000 1 0 0
5.373893 -15.656132 -12.544593 20.769208 -1.240152 2.219306 0.020683 -0.001521 218406.000000 1 0 0
2.614893 -12.109732 -16.656293 20.758501 -1.358128 2.502076 0.016530 0.005610 291962.000000 1 0 0
0.641293 -13.905832 -14.442793 20.059354 -1.524712 2.374603 0.014562 0.005863 263849.000000 1 0 0
-6.702607 -5.906532 -14.633193 17.144748 0.722347 2.593479 0.025416 -0.002179 12694.000000 1 0 0
-6.136007 -8.160632 -17.362893 20.142406 0.926078 2.610012 0.013051 -0.004664 -32564.500000 1 0 0
-2.209807 -16.297132 -13.025793 20.979777 1.436023 2.240653 0.003795 -0.003729 249068.000000 1 0 0
16.126993 -7.980032 -8.969893 20.105218 -0.459499 2.033252 0.050740 -0.011328 94908.700000 1 0 0
18.803993 -3.130132 -3.297493 19.345835 -0.164949 1.742082 0.035936 -0.018735 47263.200000 1 0 0
16.008893 -11.349332 -9.021993 21.598341 -0.616700 2.001727 0.061372 -0.009015 355091.000000 1 0 0
18.853693 -2.802832 -6.557693 20.157404 -0.147581 1.902151 0.179123 -0.003000 -216537.000000 1 0 0
10.121593 -9.743232 -16.019593 21.307383 -0.766354 2.421634 0.070604 0.005951 64539.700000 1 0 0
-4.126807 10.282368 -16.260893 19.676744 -1.189128 2.543483 0.001074 0.003715 381624.000000 1 0 0
2.673993 -9.745032 -18.423293 21.012701 -1.302992 2.639899 0.020944 0.003450 348899.000000 1 0 0
11.373493 7.994668 -15.007693 20.457319 0.612684 2.394415 0.048208 -0.035228 431413.000000 1 0 0
18.599593 -6.165832 -8.499893 21.359085 -0.320103 1.980080 0.062095 -0.011921 368469.000000 1 0 0
12.303293 5.224368 -13.785193 19.201473 0.401559 2.371611 0.010690 -0.014512 -5871.460000 1 0 0
15.699793 6.316968 -10.763193 20.055770 0.382539 2.137274 0.010799 -0.017460 166193.000000 1 0 0
3.561593 -0.542432 -19.218193 19.552956 -0.151139 2.956282 0.022434 -0.009829 148918.000000 1 0 0
10.103193 -1.427832 -14.948193 18.098665 -0.140395 2.542642 0.020346 -0.004853 4910.150000 1 0 0
12.380893 -5.711432 -14.013193 19.551893 -0.432220 2.369881 0.045638 -0.008535 33063.400000 1 0 0
10.384693 6.423268 -13.051493 17.872931 0.553935 2.389466 0.024862 -0.005331 572696.000000 1 0 0
10.470993 5.468068 -15.989193 19.879531 0.481258 2.505300 0.026622 -0.027480 329363.000000 1 0 0
12.035093 -10.190532 -14.921393 21.710328 -0.702595 2.328554 0.062643 -0.010709 164439.000000 1 0 0
-1.434307 2.197268 -17.741493 17.934486 -0.992477 2.994757 -0.001282 -0.002124 320193.000000 1 0 0
6.250593 -1.171132 -17.086293 18.231370 -0.185216 2.785287 0.001269 0.003070 -31097.400000 1 0 0
6.338393 -5.769932 -15.646693 17.840581 -0.738485 2.640438 -0.025630 -0.005041 127325.000000 1 0 0
-1.878107 -4.985232 -20.645993 21.322215 1.210506 2.889071 0.033083 -0.020708 155985.000000 1 0 0
16.385193 -0.002932 -13.393793 21.162897 -0.000179 2.256077 0.063277 -0.007101 14105.000000 1 0 0
-3.853207 -0.539032 -18.432693 18.838841 0.138990 2.933569 0.006627 -0.007962 1912.960000 1 0 0
4.879693 8.595268 -18.069893 20.596384 1.054452 2.641073 0.034387 -0.007151 -3843.090000 1 0 0
9.785093 0.101268 -17.321593 19.894619 0.010349 2.627354 0.035725 -0.012478 -139190.000000 1 0 0
4.148593 4.179668 -18.360693 19.281999 0.789129 2.831218 0.021433 -0.006645 425724.000000 1 0 0
-2.043307 -11.333832 -18.044493 21.406414 1.392428 2.573536 0.037466 -0.015923 212044.000000 1 0 0
7.086093 -9.143332 -15.963993 19.714520 -0.911486 2.514536 0.031751 -0.012485 300027.000000 1 0 0
10.075893 -12.730332 -11.006593 19.614536 -0.901268 2.166564 0.020955 0.019581 197662.000000 1 0 0
6.453693 6.755068 -16.679893 19.118052 0.808211 2.631027 0.022622 -0.024236 55440.200000 1 0 0
8.958593 1.917668 -20.201893 22.182207 0.210877 2.715833 0.053255 -0.018537 22393.900000 1 0 0
-1.079007 -0.763732 -20.267893 20.310958 0.615948 3.076461 0.019541 -0.012912 259581.000000 1 0 0
-1.039407 6.867168 -19.484993 20.685824 -1.420578 2.799185 0.022087 -0.004046 -89056.300000 1 0 0
8.835993 6.007868 -18.058093 20.982468 0.597130 2.607297 0.039349 -0.023116 117841.000000 1 0 0
11.901393 -0.083832 -13.035693 17.651613 -0.007044 2.401637 0.005796 -0.006242 -25404.500000 1 0 0
-4.072307 -2.813932 -19.801193 20.410515 0.604655 2.896631 0.005054 -0.007512 336153.000000 1 0 0
5.647993 -11.295432 -14.394493 19.149100 -1.107129 2.421441 -0.009672 -0.004136 157823.000000 1 0 0
11.275393 1.955468 -16.279393 19.899170 0.171720 2.528885 0.034457 -0.004436 -316207.000000 1 0 0
-2.781407 -4.273832 -17.141293 17.883673 0.993859 2.852449 0.008401 -0.005930 116261.000000 1 0 0
-6.541907 -4.733632 -17.565893 19.332987 0.626381 2.710709 0.024238 -0.008053 -17847.600000 1 0 0
3.065893 10.460068 -15.562093 18.999775 1.285678 2.530580 0.006880 -0.001881 197015.000000 1 0 0
16.793593 -6.004532 -10.954493 20.930362 -0.343384 2.121607 0.063062 -0.013253 -38521.600000 1 0 0
9.297593 -3.048632 -17.646893 20.178013 -0.316848 2.635325 0.001461 -0.011949 82598.900000 1 0 0
-7.064507 -1.703832 -18.954493 20.299830 0.236662 2.775482 0.008224 0.006523 497891.000000 1 0 0
1.842693 -7.535132 -19.315393 20.814853 -1.330957 2.759703 0.028307 -0.019657 250660.000000 1 0 0
5.798893 10.466168 -13.710593 18.197477 1.064841 2.424065 0.021861 -0.010473 158368.000000 1 0 0
6.039893 -3.291232 -18.137193 19.397687 -0.498931 2.779107 0.010181 -0.007632 440945.000000 1 0 0
4.833293 13.372868 -14.370593 20.216534 1.223980 2.361479 0.026137 -0.016851 107594.000000 1 0 0
9.494793 11.050768 -15.536093 21.298844 0.860987 2.388290 0.050558 -0.016265 33180.900000 1 0 0
17.320193 1.041868 -11.632493 20.889937 0.060081 2.161381 0.067979 -0.002442 189257.000000 1 0 0
14.734993 -2.960932 -12.386193 19.475751 -0.198305 2.260074 0.063934 -0.010087 77787.300000 1 0 0
-8.576807 0.445568 -17.570793 19.557426 -0.051904 2.686956 0.021473 -0.005752 285525.000000 1 0 0
-3.395307 4.444768 -19.053793 19.857771 -0.918466 2.856065 0.015781 0.002349 122807.000000 1 0 0
4.060893 1.793468 -16.721093 17.300356 0.415883 2.882088 0.009445 -0.011433 305426.000000 1 0 0
-5.008707 14.278168 -13.877993 20.531729 -1.233414 2.313021 0.015544 -0.019513 358875.000000 1 0 0
1.206193 9.381868 -17.842893 20.195127 1.442931 2.654131 0.021893 0.000226 465525.000000 1 0 0
1.427293 -5.125932 -19.634993 20.343187 -1.299230 2.876956 0.023264 -0.011678 443221.000000 1 0 0
4.206393 -6.278732 -17.964993 19.489925 -0.980529 2.743386 0.016408 -0.021159 121266.000000 1 0 0
-6.575307 7.502968 -15.856593 18.733946 -0.851196 2.580003 -0.002823 -0.005395 44745.400000 1 0 0
-11.893807 3.194068 -16.610893 20.678164 -0.262359 2.503622 0.068436 -0.030149 264814.000000 1 0 0
-4.335107 7.003768 -17.118093 18.996711 -1.016547 2.693115 0.001230 0.003283 408491.000000 1 0 0
-8.125007 5.377068 -17.803093 20.294795 -0.584621 2.640846 0.017335 -0.004713 250823.000000 1 0 0
-8.455307 4.569568 -15.335193 18.098102 -0.495472 2.581747 -0.003511 -0.009491 463482.000000 1 0 0
9.585293 13.761768 -12.500593 20.917192 0.962412 2.211329 0.053188 -0.016672 443650.000000 1 0 0
14.421193 9.295068 -11.917393 20.890030 0.572529 2.177889 0.068083 -0.016422 -47425.800000 1 0 0
8.638293 15.522368 -9.956893 20.364276 1.062972 2.081670 0.031236 -0.012303 55914.200000 1 0 0
8.188693 13.520668 -14.151093 21.215951 1.026238 2.300975 0.049665 -0.022705 69466.500000 1 0 0
4.325093 15.549268 -12.868293 20.641684 1.299500 2.243896 0.043853 -0.022019 217212.000000 1 0 0
11.417993 11.221568 -10.682193 19.245867 0.776722 2.159205 0.052669 -0.028675 -73480.800000 1 0 0
16.027693 10.141468 -8.881493 20.943190 0.564151 2.008737 0.060789 -0.044205 412366.000000 1 0 0
13.101293 11.346768 -9.762893 19.892388 0.713756 2.083787 0.055168 -0.014595 -177738.000000 1 0 0
10.978893 11.322768 -7.362293 17.405301 0.800816 2.007540 0.027339 -0.013986 214671.000000 1 0 0
5.260293 17.037168 -10.042193 20.464149 1.271328 2.083714 0.055156 -0.015373 25252.000000 1 0 0
11.632493 13.445368 -10.157493 20.476022 0.857563 2.089860 0.071577 -0.031930 235387.000000 1 0 0
8.316493 -19.324932 -1.668493 21.104523 -1.164403 1.649937 0.032070 -0.007793 207076.000000 1 0 0
7.739593 -17.975532 -3.920293 19.959703 -1.164224 1.768492 0.027467 0.022399 -107950.000000 1 0 0
3.825493 -18.545732 4.965407 19.576359 -1.367376 1.314352 0.054326 -0.028307 -351790.000000 1 0 0
10.475193 -17.767032 -2.454093 20.770644 -1.038069 1.689225 0.036701 -0.006481 654815.000000 1 0 0
-3.573507 -14.816832 7.797707 17.120534 1.334137 1.097908 0.022956 -0.026737 81209.000000 1 0 0
-15.250607 -13.061132 -4.344793 20.543890 0.708217 1.783894 0.055579 -0.012424 125748.000000 1 0 0
-9.500007 -12.849632 -7.186393 17.521627 0.934165 1.993408 0.036804 -0.012575 104401.000000 1 0 0
-11.491107 -15.320932 6.746407 20.304938 0.927278 1.232103 0.033574 -0.006515 270081.000000 1 0 0
-14.731807 -6.811332 -7.328993 17.808271 0.433081 1.994950 0.052929 -0.042530 -183344.000000 1 0 0
4.204093 -14.915232 6.238707 16.705089 -1.296058 1.188059 0.019518 -0.018707 65913.400000 1 0 0
2.916493 -14.099532 9.155507 17.062416 -1.366823 1.004406 0.014990 -0.004304 302290.000000 1 0 0
3.054293 -17.689932 9.580207 20.348041 -1.399825 1.080579 0.022966 0.002148 256370.000000 1 0 0
-7.290107 -16.857732 -6.362293 19.437272 1.162633 1.904267 -0.020790 -0.011918 -95928.400000 1 0 0
2.305593 -19.987332 -3.951793 20.504289 -1.455951 1.764740 0.043296 -0.007621 128802.000000 1 0 0
-17.283207 -10.509132 -2.994693 20.447965 0.546321 1.717779 -0.025865 -0.024802 95839.000000 1 0 0
-4.238407 -14.814732 2.854307 15.671230 1.292146 1.387637 -0.000256 0.000472 166952.000000 1 0 0
-11.061807 -10.134832 -14.547193 20.897349 0.741694 2.340784 0.059198 -0.010218 101025.000000 1 0 0
0.621993 -20.406232 2.554807 20.574941 -1.540325 1.446304 0.026349 -0.014410 115439.000000 1 0 0
5.604493 -18.703732 0.925607 19.547293 -1.279665 1.523426 0.018458 0.001203 115927.000000 1 0 0
-7.516807 -18.848632 -3.835993 20.651590 1.191326 1.757629 0.012972 -0.028701 24799.000000 1 0 0
-8.896307 -15.768132 -7.679893 19.666190 1.057120 1.971985 0.057341 -0.019168 -176198.000000 1 0 0
-11.697907 -11.219732 -12.257893 20.321893 0.764536 2.218287 0.041856 -0.006910 248075.000000 1 0 0
-13.274607 -15.049932 -3.621393 20.391913 0.847994 1.749333 0.058804 -0.014871 -23574.100000 1 0 0
-0.337007 -20.398732 -2.559893 20.561490 1.554277 1.695620 0.038498 -0.019272 426853.000000 1 0 0
-11.670207 -16.810632 -1.326593 20.507338 0.963963 1.635530 0.051794 -0.007891 155245.000000 1 0 0
0.651393 -20.090032 5.196507 20.761440 -1.538384 1.317810 0.031665 -0.018306 109790.000000 1 0 0
-18.316307 -8.892332 2.305507 20.490877 0.451970 1.458044 0.064216 -0.008052 64170.200000 1 0 0
-15.075107 -14.713832 -0.820093 21.081467 0.773271 1.609707 0.076608 -0.014349 59626.500000 1 0 0
10.181193 -15.769932 -4.887493 19.396779 -0.997515 1.825516 0.028421 0.006190 -77473.500000 1 0 0
-0.521507 -19.243432 -6.963793 20.471347 1.543702 1.917897 0.021079 -0.000931 125297.000000 1 0 0
-9.734207 -17.815532 -3.391593 20.582781 1.070730 1.736329 0.032082 0.012732 433784.000000 1 0 0
-14.683407 -6.879832 -11.556993 19.912273 0.438168 2.190011 0.047919 -0.018597 33738.300000 1 0 0
-11.990207 -15.532032 1.954507 19.718752 0.913384 1.471514 0.048006 -0.002828 155888.000000 1 0 0
-2.560507 -16.295532 10.409907 19.505556 1.414941 1.007839 0.019941 -0.003491 281020.000000 1 0 0
-12.180207 -14.740032 -6.937293 20.340895 0.880202 1.918832 0.050550 -0.009598 106285.000000 1 0 0
5.714293 -17.026132 -6.631393 19.144651 -1.246990 1.924510 0.030329 -0.013558 -315541.000000 1 0 0
-17.526807 -7.298732 -3.133093 19.242576 0.394592 1.734345 0.014593 -0.014911 -19068.700000 1 0 0
-11.624407 -13.563432 -9.813493 20.381319 0.862229 2.073155 0.055021 -0.024007 -134919.000000 1 0 0
-7.886307 -14.134832 10.044107 19.049184 1.061882 1.015409 0.033502 -0.001006 565926.000000 1 0 0
-15.695707 -8.167532 -6.050993 18.699688 0.479808 1.900315 0.041049 -0.010005 94918.400000 1 0 0
-0.776907 -19.603532 0.544007 19.626461 1.531186 1.543075 0.015910 -0.014813 16680.600000 1 0 0
-14.716607 -11.236132 -1.800493 18.602983 0.652085 1.667733 0.027155 -0.015029 155385.000000 1 0 0
-7.005507 -18.894032 1.080907 20.179939 1.215732 1.517207 0.017235 -0.007957 73418.400000 1 0 0
-1.560207 -21.241032 -4.834993 21.840166 1.497475 1.794026 0.017323 -0.002186 8205.440000 1 0 0
-8.831907 -19.904832 -1.271193 21.813318 1.153188 1.629105 0.030348 0.000199 131458.000000 1 0 0
-17.959507 -7.472532 5.217007 20.139508 0.394288 1.308765 0.063331 -0.008957 255412.000000 1 0 0
-2.831707 -15.817632 -10.815093 19.369622 1.393651 2.163196 -0.001888 0.006496 32616.500000 1 0 0
-3.137707 -18.387032 -8.121193 20.344088 1.401777 1.981431 0.003938 0.003677 127011.000000 1 0 0
3.694693 -17.425232 -6.366893 18.916310 -1.361860 1.914081 0.011217 0.021625 114116.000000 1 0 0
0.484093 -17.395832 -9.102893 19.639551 -1.542975 2.052735 0.001195 0.006084 117352.000000 1 0 0
-7.644907 -10.383432 -14.889193 19.696404 0.936147 2.427877 0.020450 -0.010427 530657.000000 1 0 0
-5.030107 -19.540432 -1.841693 20.261350 1.318846 1.661819 0.011274 -0.017457 306996.000000 1 0 0
-9.886207 -16.161632 8.336407 20.698578 1.021812 1.156274 0.016561 -0.007564 208845.000000 1 0 0
-7.243607 -14.884932 -10.343093 19.519493 1.117894 2.129262 0.027153 -0.021516 216942.000000 1 0 0
-12.627607 -7.925432 -12.386693 19.382959 0.560486 2.264060 0.044670 -0.017520 240152.000000 1 0 0
-15.767207 -13.078832 2.791507 20.674941 0.692469 1.435364 0.064056 -0.009291 209217.000000 1 0 0
-6.020307 -14.489332 -13.236193 20.527582 1.177000 2.271558 -0.002397 -0.000455 383789.000000 1 0 0
-14.333107 -11.947732 -6.831893 19.871110 0.694881 1.921768 0.073413 -0.013974 59288.900000 1 0 0
-12.123507 -10.773432 -8.119093 18.137418 0.726503 2.034924 0.054050 -0.010348 255959.000000 1 0 0
-9.859107 -14.703532 3.536907 18.052855 0.980126 1.373601 0.010736 -0.000140 573945.000000 1 0 0
5.406293 -17.724132 8.143907 20.240951 -1.274736 1.156716 0.064546 -0.031030 236614.000000 1 0 0
-4.966107 -16.875132 5.115807 18.319492 1.284590 1.287778 0.004928 0.006629 418274.000000 1 0 0
-17.891407 -7.630832 -6.794493 20.603329 0.403147 1.906863 0.022680 -0.025178 97152.600000 1 0 0
-16.995207 -4.447032 -10.894593 20.671364 0.255926 2.125908 0.055046 -0.015295 -331674.000000 1 0 0
-15.756407 -4.353432 -13.025193 20.901492 0.269571 2.243586 0.051077 -0.025330 318018.000000 1 0 0
-19.405007 -5.876132 -6.002693 21.145107 0.294038 1.858635 0.059142 -0.014405 -79357.000000 1 0 0
5.304793 -13.722332 9.088707 17.292999 -1.201911 1.017410 0.026963 -0.000596 134512.000000 1 0 0
19.620893 -3.404832 2.813207 20.111848 -0.171820 1.430458 0.035381 -0.010246 -269338.000000 1 0 0
18.122393 -2.300832 0.727107 18.282331 -0.126285 1.531015 0.036236 -0.022042 105990.000000 1 0 0
14.165593 -11.531332 0.338407 18.268830 -0.683242 1.552272 0.056948 0.003009 107354.000000 1 0 0
11.128693 -13.629132 5.492907 18.432934 -0.886053 1.268206 0.030415 -0.000195 368470.000000 1 0 0
9.762193 -13.142532 9.471907 18.914111 -0.931923 1.046291 0.021918 -0.001417 386953.000000 1 0 0
17.619693 4.789368 -4.405893 18.783064 0.265407 1.807570 0.007395 0.006763 -89076.000000 1 0 0
18.844393 -6.187932 -4.415593 20.319919 -0.317277 1.789848 0.059349 -0.015075 -12596.600000 1 0 0
17.573893 -9.960932 0.027207 20.200560 -0.515652 1.569449 0.066954 -0.004972 349206.000000 1 0 0
17.222693 -9.038032 8.487807 21.221452 -0.483270 1.159319 0.077662 -0.016375 6110.520000 1 0 0
19.953593 0.268568 -1.878693 20.043639 0.013459 1.664664 0.061907 -0.009077 194692.000000 1 0 0
7.406293 -13.339032 11.869107 19.330252 -1.063943 0.909656 0.019062 0.000579 150819.000000 1 0 0
16.164293 -6.451232 -3.380993 17.729463 -0.379734 1.762671 0.055838 -0.007779 248905.000000 1 0 0
14.399893 -6.698032 12.291907 20.082618 -0.435377 0.912125 0.050046 -0.016598 369285.000000 1 0 0
16.732693 0.859168 9.915907 19.469114 0.051302 1.036408 0.095472 -0.034055 161492.000000 1 0 0
16.658193 -10.115332 2.870907 19.699173 -0.545718 1.424538 0.047605 -0.006739 328754.000000 1 0 0
16.524693 -7.315732 -6.035193 19.052794 -0.416779 1.893110 0.071756 -0.003143 259853.000000 1 0 0
18.873893 -4.474732 5.788207 20.242292 -0.232788 1.280803 0.154686 -0.015819 -168261.000000 1 0 0
13.116093 -13.622932 8.119707 20.580229 -0.804351 1.165230 0.033870 -0.006069 87457.900000 1 0 0
15.294293 -14.219132 -1.609393 20.944910 -0.748985 1.647711 0.063240 -0.000450 251570.000000 1 0 0
18.592893 -6.629932 8.562707 21.516775 -0.342528 1.161510 0.081417 -0.010693 286305.000000 1 0 0
19.575593 3.203568 2.766507 20.027986 0.162213 1.432221 0.049387 -0.007631 267795.000000 1 0 0
15.420293 -11.040732 8.093807 20.620206 -0.621375 1.167428 0.055262 -0.023438 265331.000000 1 0 0
14.246693 -4.219832 10.887107 18.420216 -0.287964 0.938447 0.044903 -0.006639 -36173.900000 1 0 0
18.622293 -7.811632 1.879307 20.281597 -0.397184 1.478002 0.077610 -0.018275 110407.000000 1 0 0
18.878893 -5.097332 -1.718593 19.630307 -0.263713 1.658456 0.055830 -0.012015 281218.000000 1 0 0
14.581793 -13.456132 -6.312893 20.821834 -0.745272 1.878831 0.049116 -0.002467 446781.000000 1 0 0
13.927493 -9.606132 10.437907 19.879707 -0.603796 1.018018 0.029226 -0.008086 590675.000000 1 0 0
14.187493 2.590968 0.736107 14.440911 0.180633 1.519800 0.000063 -0.003046 -181176.000000 1 0 0
12.794193 2.922468 13.719507 18.985707 0.224569 0.763207 0.032670 -0.017041 162091.000000 1 0 0
18.118593 -3.425932 9.458207 20.723853 -0.186877 1.096860 0.065037 -0.006151 119528.000000 1 0 0
7.363193 -17.871032 4.918607 19.944500 -1.179972 1.321611 0.055488 -0.031278 388598.000000 1 0 0
11.719993 -2.597532 15.730107 19.787412 -0.218107 0.651862 0.027017 0.014117 111209.000000 1 0 0
11.157893 -13.361032 -7.036993 18.775916 -0.875012 1.954965 0.019117 -0.004248 35519.500000 1 0 0
10.951893 -17.303632 3.689807 20.808035 -1.006519 1.392528 0.056762 -0.029246 571515.000000 1 0 0
18.455493 -0.314432 -4.410693 18.977837 -0.017036 1.805354 0.059188 -0.007323 270786.000000 1 0 0
4.450693 -13.699432 11.754507 18.591706 -1.256672 0.886349 0.010382 -0.002543 197494.000000 1 0 0
8.969993 -2.760332 13.875807 16.751664 -0.298533 0.594687 -0.003666 -0.012756 78210.100000 1 0 0
9.235293 -9.384832 14.352607 19.477244 -0.793429 0.742336 0.040556 0.000698 257775.000000 1 0 0
21.037993 5.806368 -2.723293 21.993803 0.269290 1.694936 0.073700 0.005060 518846.000000 1 0 0
14.488493 -13.402232 1.960707 19.833825 -0.746471 1.471778 0.036126 -0.003763 77902.900000 1 0 0
10.554993 0.309468 14.128007 17.638147 0.029311 0.641847 0.008239 -0.029365 107091.000000 1 0 0
19.690193 0.122868 7.684407 21.136909 0.006240 1.198716 0.107868 -0.013077 108196.000000 1 0 0
19.912393 0.828068 0.777407 19.944760 0.041562 1.531808 0.054803 -0.013384 -170542.000000 1 0 0
17.863693 0.581368 3.191707 18.155894 0.032533 1.394083 0.026178 -0.007776 -156257.000000 1 0 0
10.112793 -8.487232 16.272507 20.954622 -0.698224 0.681610 0.036940 -0.006115 121550.000000 1 0 0
19.072493 3.185068 5.773507 20.180139 0.165471 1.280644 0.044132 -0.001289 135853.000000 1 0 0
15.347593 2.416668 7.082507 17.074859 0.156180 1.143083 0.033778 -0.013362 -94078.400000 1 0 0
11.264393 -16.010932 2.017007 19.680061 -0.957696 1.468126 0.016146 0.006531 211263.000000 1 0 0
9.544193 -15.984232 6.728507 19.795456 -1.032512 1.223984 0.055885 -0.011313 182963.000000 1 0 0
6.156593 6.886368 7.182907 11.701276 0.841292 0.909859 0.004648 -0.000394 -765446.000000 1 0 0
18.596693 2.539168 -6.284893 19.793540 0.135700 1.893912 0.039445 0.005892 343322.000000 1 0 0
14.213993 4.439868 -7.146593 16.517379 0.302756 2.018250 0.024005 -0.004735 217900.000000 1 0 0
-10.467407 -3.910732 -13.905393 17.838733 0.357552 2.464673 0.017389 -0.005575 -166064.000000 1 0 0
7.611193 -14.216632 -10.372493 19.173718 -1.079253 2.142392 0.017485 0.006402 -143907.000000 1 0 0
2.095593 -15.505332 14.216107 21.140117 -1.436457 0.833254 0.003033 -0.002267 210807.000000 1 0 0
-9.512007 -7.977632 2.142907 12.598133 0.697892 1.399868 0.006152 0.003099 438618.000000 1 0 0
-13.782507 3.209168 -9.963593 17.306919 -0.228767 2.184256 0.020333 -0.003229 264781.000000 1 0 0
-12.960107 -5.096332 -13.405893 19.330156 0.374659 2.337163 0.035038 -0.002703 77253.800000 1 0 0
-17.855007 -1.204732 -8.727393 19.910300 0.067371 2.024542 0.052921 -0.023783 413911.000000 1 0 0
-12.549707 14.958168 4.724307 20.088828 -0.872731 1.333402 0.026167 -0.020110 304155.000000 1 0 0
-17.518707 5.926968 9.408007 20.749570 -0.326234 1.100212 0.026213 -0.025107 301766.000000 1 0 0
-12.856407 15.309768 0.077307 19.992053 -0.872282 1.566929 0.028623 -0.024351 202556.000000 1 0 0
-16.018807 5.678768 -10.611493 20.036326 -0.340684 2.128940 0.043786 -0.015156 -72040.500000 1 0 0
-17.742407 2.749268 -0.082593 17.954340 -0.153732 1.575396 0.006103 -0.000204 284.623000 1 0 0
-9.981607 15.471268 -0.345693 18.414997 -0.997824 1.589570 0.027892 -0.013576 -17791.200000 1 0 0
-18.582107 11.708168 1.854207 22.041189 -0.562242 1.486572 0.076058 -0.024448 -162718.000000 1 0 0
-8.700907 16.027068 -7.704193 19.797153 -1.073430 1.970512 0.066356 -0.037888 176152.000000 1 0 0
-14.815807 -1.528132 -12.510793 19.451562 0.102779 2.269436 0.040510 -0.039297 78237.300000 1 0 0
-18.975407 5.075168 -4.852793 20.232968 -0.261343 1.813003 0.047154 -0.005912 23243.100000 1 0 0
-16.785407 9.422568 -5.993393 20.160740 -0.511519 1.872639 0.048765 0.007501 -171215.000000 1 0 0
-18.998207 1.393268 2.404207 19.200346 -0.073206 1.445250 0.027803 -0.011400 431244.000000 1 0 0
-13.472107 12.061968 -7.099093 19.426422 -0.730228 1.944896 0.037038 -0.005989 78703.900000 1 0 0
-13.878907 5.215968 -12.633493 19.479105 -0.359489 2.276496 0.073218 -0.033570 109956.000000 1 0 0
-14.218507 9.275668 -6.662793 18.237236 -0.578037 1.944794 0.029311 -0.006585 16646.000000 1 0 0
-6.367707 11.196568 -15.448593 20.113922 -1.053695 2.446594 -0.001363 -0.037736 7984.610000 1 0 0
-15.167107 14.037168 3.202107 20.912597 -0.746727 1.417073 0.033210 -0.013155 140063.000000 1 0 0
-18.722507 8.426568 -4.681593 21.058410 -0.422918 1.794984 0.061740 -0.010180 9789.450000 1 0 0
-4.853207 16.496668 -11.135093 20.486190 -1.284675 2.145447 0.011906 0.001677 -24271.000000 1 0 0
-19.149007 -2.549632 -6.451893 20.366934 0.132368 1.893132 0.020923 -0.010511 -135263.000000 1 0 0
-10.312907 14.030668 -6.405793 18.553972 -0.936948 1.923303 0.027351 -0.012597 -93974.700000 1 0 0
-19.226107 3.194368 4.076507 19.911431 -0.164643 1.364606 0.030700 -0.008913 -9284.000000 1 0 0
-15.037307 12.551668 0.754507 19.601894 -0.695545 1.532295 0.008058 -0.000670 135453.000000 1 0 0
-16.942207 2.516168 -8.263693 19.017311 -0.147437 2.020319 -0.006391 -0.014199 265997.000000 1 0 0
-16.555607 14.378768 -3.623693 22.225397 -0.715144 1.734570 0.037775 0.042158 20151.500000 1 0 0
-11.504107 15.811368 -8.477993 21.312443 -0.941796 1.979909 0.082556 -0.020577 109833.000000 1 0 0
-18.942607 2.016468 -6.895193 20.259126 -0.106052 1.918085 0.035183 -0.012996 154281.000000 1 0 0
-17.287807 10.321868 -0.355293 20.137911 -0.538255 1.588440 0.027762 -0.004786 -47886.100000 1 0 0
-11.331707 6.329368 -14.801593 19.686433 -0.509387 2.421687 0.018649 -0.023544 309078.000000 1 0 0
-13.412207 12.090968 -4.611693 18.637235 -0.733638 1.820839 0.042327 -0.016798 282031.000000 1 0 0
-18.898607 7.380668 0.241907 20.290149 -0.372325 1.558874 0.032984 -0.008537 118324.000000 1 0 0
-14.414207 9.132568 -10.362893 19.964036 -0.564746 2.116568 0.026732 -0.009047 653104.000000 1 0 0
-18.644407 11.492668 4.723207 22.405447 -0.552401 1.358397 0.049690 -0.016111 253010.000000 1 0 0
-8.143607 12.047768 -13.521293 19.856798 -0.976399 2.319842 -0.009234 -0.013101 425958.000000 1 0 0
-21.004907 -1.389632 -5.524193 21.763591 0.066061 1.827431 0.050246 -0.015057 9412.690000 1 0 0
-10.432107 13.316668 -3.275593 17.230555 -0.906268 1.762064 0.022750 -0.002652 157498.000000 1 0 0
-18.622107 -5.015832 3.460107 19.593718 0.263104 1.393273 0.040430 -0.013386 -63624.500000 1 0 0
-11.479907 11.404968 -12.937893 20.718365 -0.782124 2.245243 0.036576 -0.021116 304876.000000 1 0 0
-14.739307 11.406168 -10.222593 21.256746 -0.658598 2.072489 0.050759 -0.019450 170047.000000 1 0 0
-12.652907 9.451268 -14.009293 21.111201 -0.641555 2.296411 0.056540 -0.028240 323927.000000 1 0 0
-18.381707 -5.027532 -3.255193 19.332861 0.266978 1.739978 0.023884 -0.014153 -202184.000000 1 0 0
-9.619607 12.499168 -11.521793 19.532479 -0.914856 2.201705 0.033599 -0.019905 -7437.680000 1 0 0
-15.433107 7.886268 -8.507593 19.306816 -0.472406 2.027121 0.015388 0.003692 -3369.550000 1 0 0
-14.443407 9.137068 1.890007 17.195062 -0.564054 1.460658 0.004021 -0.000130 -128529.000000 1 0 0
-19.821007 6.109768 7.703107 22.125539 -0.299006 1.215195 0.054353 -0.020868 356436.000000 1 0 0
-18.669407 5.924168 3.719207 19.936776 -0.307270 1.383147 0.007113 -0.009790 166177.000000 1 0 0
-14.879107 12.911268 5.734907 20.517745 -0.714706 1.287513 0.030602 -0.011509 116811.000000 1 0 0
18.153093 6.142568 5.989507 20.078349 0.326282 1.267878 0.042293 -0.005410 97701.500000 1 0 0
18.195593 7.797668 0.589607 19.804819 0.404871 1.541021 0.033954 0.003286 -53132.800000 1 0 0
16.874093 4.195068 8.627807 19.410633 0.243670 1.110193 0.049388 -0.016798 -73731.600000 1 0 0
12.154593 13.181168 10.704707 20.882243 0.825895 1.032560 0.041987 -0.021708 95137.400000 1 0 0
15.070493 12.626568 4.514007 20.172413 0.697388 1.345114 0.028360 -0.001608 139893.000000 1 0 0
5.227493 10.441668 14.488007 18.607995 1.106639 0.678380 0.012988 -0.004160 247241.000000 1 0 0
12.859493 14.313868 -4.751793 19.820013 0.838869 1.812902 0.036887 0.014525 260198.000000 1 0 0
17.105793 9.280568 -2.657693 19.641803 0.497097 1.706521 -0.006573 -0.008895 -84432.000000 1 0 0
14.533593 7.847368 9.625307 19.116826 0.495092 1.043152 0.043797 -0.011282 146423.000000 1 0 0
4.825793 19.082068 -1.812793 19.766128 1.323093 1.662637 0.024883 -0.016728 363232.000000 1 0 0
-4.526207 18.887768 3.222707 19.688072 -1.335595 1.406368 0.012689 -0.028400 245373.000000 1 0 0
6.837193 12.631568 12.760107 19.212602 1.074674 0.844436 0.024831 -0.006325 -64012.000000 1 0 0
0.274693 17.068568 -10.263293 19.918500 1.554704 2.112112 0.023973 -0.002954 127703.000000 1 0 0
10.618893 9.028768 15.981807 21.206077 0.704642 0.717210 0.039346 -0.013571 72321.200000 1 0 0
-1.170207 12.211168 1.151907 12.321076 -1.475257 1.477169 0.000236 -0.000944 374478.000000 1 0 0
-4.770507 19.254468 -2.257793 19.964717 -1.327926 1.684128 0.017435 0.004449 -116579.000000 1 0 0
6.216193 18.355368 6.440207 20.421480 1.244261 1.249956 0.024287 -0.021933 54691.200000 1 0 0
11.315193 17.457168 -1.545193 20.860823 0.995709 1.644936 0.030755 -0.003803 360156.000000 1 0 0
18.293193 10.763168 3.125807 21.453610 0.531824 1.424575 0.034889 -0.000331 263664.000000 1 0 0
11.425593 16.845868 6.458007 21.354936 0.974822 1.263573 0.026999 -0.007823 -83137.300000 1 0 0
17.637293 8.346868 -4.946393 20.129856 0.442020 1.819063 0.013923 0.018292 357049.000000 1 0 0
0.337893 15.599168 11.089207 19.142067 1.549139 0.952913 0.003780 0.001689 347459.000000 1 0 0
1.087193 19.952068 -1.912193 20.072954 1.516360 1.666203 0.018968 -0.020087 173622.000000 1 0 0
13.902493 9.554368 -1.659893 16.950531 0.602112 1.668879 0.010720 -0.008690 -356921.000000 1 0 0
10.090793 17.319968 1.826907 20.128164 1.043261 1.479908 0.034177 -0.017447 185249.000000 1 0 0
0.529093 17.487468 -0.156893 17.496174 1.540550 1.579764 0.000082 -0.009538 -70751.300000 1 0 0
0.033393 21.024568 0.907507 21.044171 1.569208 1.527659 0.016686 -0.004411 273530.000000 1 0 0
5.882993 17.226268 -0.229493 18.204576 1.241702 1.583403 0.008478 -0.023590 -123426.000000 1 0 0
7.441993 18.469368 -1.989993 20.011519 1.187761 1.670403 0.024214 -0.017495 77058.000000 1 0 0
10.082893 9.624968 12.733707 18.879938 0.762167 0.830567 0.022286 -0.011499 140360.000000 1 0 0
12.680293 14.787768 8.294107 21.172155 0.861973 1.168268 0.038714 -0.022904 187346.000000 1 0 0
0.231593 17.656868 6.834807 18.934974 1.557681 1.201497 0.008264 -0.005345 180868.000000 1 0 0
7.300893 17.950968 -7.691193 20.849334 1.184516 1.948615 0.039942 -0.014594 56408.400000 1 0 0
-0.921707 18.566468 9.751307 20.991696 -1.521193 1.087691 0.026731 -0.009433 117127.000000 1 0 0
16.085193 6.791068 -7.784093 19.116593 0.399491 1.990172 0.044405 -0.001606 -43721.200000 1 0 0
-5.523107 19.415168 -6.539893 21.218475 -1.293644 1.884114 0.020941 -0.011317 252772.000000 1 0 0
3.849693 15.507868 9.930707 18.813109 1.327474 1.014716 0.016599 -0.009296 154892.000000 1 0 0
8.767993 15.067968 7.781907 19.091345 1.043795 1.150956 0.012841 -0.006319 -142945.000000 1 0 0
-2.506107 19.471968 6.591207 20.709470 -1.442797 1.246892 0.016317 -0.010219 63126.600000 1 0 0
4.697493 18.007468 8.230207 20.348751 1.315620 1.154411 0.018666 -0.017451 105135.000000 1 0 0
14.201693 12.137168 -6.232093 19.693601 0.707175 1.892784 -0.002365 -0.015038 -85289.400000 1 0 0
11.665893 6.861368 15.664307 20.701255 0.531665 0.712570 0.043843 -0.016407 246164.000000 1 0 0
17.307993 9.423568 5.066907 20.348066 0.498583 1.319137 0.064912 -0.006151 160644.000000 1 0 0
5.087193 14.630068 11.954407 19.565947 1.236153 0.913498 0.007725 -0.030482 326486.000000 1 0 0
16.216193 11.503368 -4.540893 20.393923 0.616991 1.795338 0.061667 0.014706 158476.000000 1 0 0
15.330193 14.033668 6.887407 21.895092 0.741273 1.250799 0.054026 0.000240 247969.000000 1 0 0
12.686293 14.312268 -8.007193 20.733986 0.845550 1.967290 0.073641 -0.029964 340947.000000 1 0 0
-8.752407 15.193268 9.488707 19.936790 -1.048157 1.074764 0.038288 -0.018204 113069.000000 1 0 0
-3.996007 17.711968 -7.982593 19.834406 -1.348901 1.985001 -0.002286 0.036711 61627.800000 1 0 0
2.501493 19.265368 -4.664993 19.979340 1.441675 1.806463 0.026959 -0.028117 62148.900000 1 0 0
6.880893 16.485868 9.129707 20.061956 1.175396 1.098339 0.019266 -0.014454 357662.000000 1 0 0
13.708793 15.157768 -1.656093 20.504428 0.835552 1.651652 0.063966 -0.019755 83495.200000 1 0 0
12.679593 16.661668 4.620607 21.441392 0.920290 1.353593 0.033363 -0.019189 287262.000000 1 0 0
2.935293 18.313268 0.565707 18.555640 1.411866 1.540305 0.026070 -0.017637 35842.300000 1 0 0
-6.835407 17.996268 1.291907 19.293975 -1.207803 1.503787 -0.008334 0.013312 11965.700000 1 0 0
0.453793 19.873968 -6.074593 20.786563 1.547967 1.867361 0.036239 -0.006970 203418.000000 1 0 0
-7.701307 18.052068 -6.283193 20.607421 -1.167557 1.880629 0.059700 -0.017367 134020.000000 1 0 0
-7.581407 18.503768 -1.469593 20.050608 -1.181937 1.644156 0.039718 -0.011280 136203.000000 1 0 0
-14.582507 -9.771032 8.843207 19.655149 0.590342 1.104123 0.044917 -0.003436 434850.000000 1 0 0
-13.287007 -13.440432 8.142107 20.578719 0.791138 1.164014 0.044563 -0.011566 118907.000000 1 0 0
-3.990407 -15.991532 12.422407 20.639008 1.326258 0.924931 0.044580 -0.003359 142832.000000 1 0 0
-2.068407 -14.968932 14.969507 21.270481 1.433486 0.790107 0.024731 -0.009387 403232.000000 1 0 0
-6.887407 -14.066232 13.479707 20.663924 1.115470 0.860141 0.008415 -0.001306 93391.000000 1 0 0
-10.042007 -11.571332 11.410207 19.103153 0.856039 0.930673 0.038340 -0.003815 -112234.000000 1 0 0
-7.666807 -10.387232 12.873607 18.231958 0.934955 0.786819 0.023382 -0.011689 309375.000000 1 0 0
-15.397907 -12.202132 6.829907 20.799885 0.670123 1.236227 0.063425 -0.022054 218303.000000 1 0 0
-4.705207 -11.844832 13.297607 18.419158 1.192674 0.764188 0.029394 -0.027426 162874.000000 1 0 0
3.476493 -12.630732 13.873007 19.080926 -1.302206 0.756764 -0.001201 0.003427 391046.000000 1 0 0
6.682193 -13.436032 15.056207 21.257188 -1.109284 0.783727 0.020490 0.003890 273878.000000 1 0 0
6.950193 -9.184532 16.887907 20.441679 -0.923003 0.598555 0.028021 -0.004256 539881.000000 1 0 0
-5.414807 13.195968 13.565907 19.684704 -1.181410 0.810467 0.016802 -0.011337 455817.000000 1 0 0
-13.773007 -1.658232 17.177707 22.079835 0.119820 0.679349 0.026910 -0.013775 300120.000000 1 0 0
-10.087907 8.931968 13.449007 19.037377 -0.724698 0.786323 0.004027 -0.014299 442877.000000 1 0 0
-7.454307 -8.546432 16.914507 20.364399 0.853547 0.590626 0.034935 -0.013329 58344.600000 1 0 0
-5.010607 2.139168 18.289407 19.083623 -0.403502 0.289515 0.024063 -0.000288 532679.000000 1 0 0
-15.637807 -3.647832 14.519507 21.648644 0.229172 0.835659 0.027249 -0.001913 62446.100000 1 0 0
-14.591507 2.836668 12.568007 19.465703 -0.192010 0.868924 0.007998 0.001660 227321.000000 1 0 0
-13.826707 10.604068 10.257207 20.219654 -0.654246 1.038760 -0.049011 0.027907 4418.590000 1 0 0
-4.641907 11.191268 15.768107 19.885296 -1.177614 0.655156 0.019705 -0.005512 195341.000000 1 0 0
-13.351407 12.893268 7.971107 20.199876 -0.767943 1.165151 0.019228 -0.021794 128815.000000 1 0 0
-3.846507 -6.186332 18.536807 19.916816 1.014519 0.374443 0.030949 -0.017529 137446.000000 1 0 0
0.379893 -2.848132 17.592407 17.825515 -1.438196 0.161900 0.005974 -0.026597 9232.370000 1 0 0
-4.521107 6.379468 21.162007 22.560332 -0.954258 0.353928 0.042355 0.000645 121371.000000 1 0 0
2.128493 -10.560632 16.428607 19.645777 -1.371911 0.580404 0.002879 -0.009776 259409.000000 1 0 0
-14.766707 -0.323732 14.210107 20.496039 0.021920 0.804724 -0.013287 0.009186 -43081.000000 1 0 0
-14.055507 -5.847032 7.672507 17.047359 0.394219 1.103952 0.028983 -0.004175 60856.600000 1 0 0
10.027093 0.637668 16.834107 19.604499 0.063509 0.538096 0.027402 0.007412 628733.000000 1 0 0
-7.956507 12.031868 11.685707 18.564149 -0.986528 0.889916 0.026711 -0.016871 127801.000000 1 0 0
-2.192107 7.657668 20.177007 21.692322 -1.291989 0.375988 0.023622 -0.003448 556742.000000 1 0 0
1.149393 -13.619332 15.647507 20.776231 -1.486602 0.717967 -0.007855 0.001429 614497.000000 1 0 0
-3.691207 -11.623032 17.953207 21.703399 1.263293 0.596677 0.042038 -0.009360 397914.000000 1 0 0
-2.218207 8.862268 16.807007 19.129447 -1.325537 0.497887 0.007250 -0.005347 439318.000000 1 0 0
-4.146007 -9.629132 20.573607 23.090753 1.164218 0.471277 0.039894 -0.012609 254518.000000 1 0 0
-6.474707 -3.401332 19.305907 20.644829 0.483702 0.362128 0.029230 -0.005030 341029.000000 1 0 0
-11.060707 -8.355532 15.373307 20.700066 0.646964 0.733748 0.083300 -0.019923 276961.000000 1 0 0
-0.410207 6.055668 17.930207 18.929652 -1.503160 0.326402 0.012230 -0.007136 11861.700000 1 0 0
-6.206507 -10.998732 19.405807 23.153363 1.057046 0.576928 0.057598 0.000927 367145.000000 1 0 0
0.814893 3.301668 18.988307 19.290435 1.328820 0.177218 0.025173 -0.002605 84608.200000 1 0 0
-18.442407 -0.237632 7.452907 19.892830 0.012884 1.186774 0.039489 -0.014442 139556.000000 1 0 0
-1.785907 -8.765332 17.646407 19.784241 1.369801 0.469173 0.005285 -0.009394 328363.000000 1 0 0
5.642693 3.497868 14.864707 16.279883 0.554919 0.420041 0.000554 -0.008476 373023.000000 1 0 0
-14.140207 -6.937432 10.145607 18.735175 0.456113 0.998544 0.040984 -0.003271 123217.000000 1 0 0
3.490093 7.967668 17.092307 19.178411 1.157940 0.470754 0.010701 -0.002846 213978.000000 1 0 0
6.452793 4.352668 17.140707 18.825199 0.593434 0.426258 0.026365 -0.037742 321047.000000 1 0 0
4.142593 -9.740632 17.960107 20.847217 -1.168680 0.532558 -0.004854 -0.004816 482020.000000 1 0 0
-4.228707 -0.283932 20.276807 20.715007 0.067043 0.206052 0.020811 -0.001412 482629.000000 1 0 0
-11.385407 1.645768 17.092607 20.603235 -0.143556 0.592391 0.047303 -0.006340 171871.000000 1 0 0
-16.720107 -4.040632 8.623707 19.242064 0.237117 1.106080 0.035292 -0.010405 383164.000000 1 0 0
-13.111607 -9.598132 11.857507 20.115637 0.631903 0.940397 0.031908 -0.021927 92123.300000 1 0 0
-14.871507 5.874568 13.022607 20.621847 -0.376207 0.887316 0.022729 -0.019612 109247.000000 1 0 0
1.018693 9.007768 17.017507 19.281421 1.458184 0.489462 -0.001354 -0.018809 22763.300000 1 0 0
-3.844607 -10.118332 14.943507 18.451831 1.207680 0.626873 0.020688 -0.015485 659939.000000 1 0 0
-18.206507 -4.304532 7.028807 19.985245 0.232165 1.211410 0.081928 -0.002078 -208714.000000 1 0 0
-0.865507 -0.674332 21.147707 21.176151 0.661877 0.051836 0.033453 -0.016315 227995.000000 1 0 0
-1.922507 2.549168 20.298107 20.547687 -0.924631 0.156020 0.025533 -0.008683 -95612.100000 1 0 0
-8.131307 1.814168 16.251507 18.262553 -0.219514 0.473711 0.019756 0.004891 557273.000000 1 0 0
2.647393 -2.100932 18.738707 19.041055 -0.670817 0.178443 0.008002 -0.015423 110728.000000 1 0 0
-12.860907 4.374868 14.203207 19.653842 -0.327889 0.763141 0.010843 -0.009285 173478.000000 1 0 0
-13.390307 -5.790432 13.439307 19.835433 0.408151 0.826383 0.020697 0.004647 54351.500000 1 0 0
-17.253107 -0.704432 9.356407 19.639458 0.040807 1.074231 0.037387 -0.017660 162897.000000 1 0 0
-7.359007 7.679868 14.600507 18.064058 -0.806730 0.629600 0.012599 -0.013669 -262331.000000 1 0 0
-9.631707 0.737968 13.941207 16.960886 -0.076469 0.605949 0.016225 -0.000611 230216.000000 1 0 0
7.382193 -0.779232 14.913807 16.659100 -0.105166 0.461838 0.002924 -0.010136 160376.000000 1 0 0
3.895093 6.073768 18.468207 19.827685 1.000563 0.372459 0.014035 -0.009000 23548.800000 1 0 0
1.462593 0.502868 20.145907 20.205188 0.331158 0.076621 0.016908 -0.005545 206944.000000 1 0 0
-7.134407 7.118468 17.781807 20.439301 -0.784280 0.515632 0.026032 -0.003746 680209.000000 1 0 0
7.445493 -2.849632 16.993807 18.770862 -0.365533 0.438642 0.008337 0.003232 372520.000000 1 0 0
-16.281007 2.704068 9.243607 18.916328 -0.164585 1.060246 0.013663 -0.009700 277861.000000 1 0 0
3.711493 -6.101032 19.011607 20.308594 -1.024268 0.359320 0.015509 -0.022771 122854.000000 1 0 0
-3.535607 -3.747032 20.703607 21.334951 0.814421 0.243881 0.020788 -0.015102 343750.000000 1 0 0
-9.934207 5.887968 14.607107 18.620533 -0.535032 0.668968 0.017018 -0.005515 90712.700000 1 0 0
6.732493 2.146168 19.793307 21.016839 0.308594 0.342901 0.036069 -0.013631 -28109.100000 1 0 0
-7.545507 11.097468 14.741607 19.934981 -0.973667 0.738492 0.032726 -0.011171 239809.000000 1 0 0
-14.330607 5.357068 8.532807 17.517799 -0.357736 1.062038 0.000322 -0.018058 328534.000000 1 0 0
1.588793 -4.690432 20.038107 20.640983 -1.244196 0.242285 0.041308 -0.034733 307733.000000 1 0 0
-6.267307 -8.381832 13.517907 17.095849 0.928753 0.658824 0.016510 -0.009184 258763.000000 1 0 0
-13.401207 10.393168 6.802807 18.272616 -0.659647 1.189316 0.004777 -0.008558 405296.000000 1 0 0
-19.652307 2.702868 7.551807 21.226127 -0.136677 1.207049 0.036030 -0.019142 -101987.000000 1 0 0
-16.720407 9.076668 6.452807 20.089715 -0.497337 1.243800 0.038256 -0.008181 101678.000000 1 0 0
-13.162607 7.254468 14.356007 20.784044 -0.503720 0.808309 0.030762 -0.014311 120160.000000 1 0 0
-16.651707 8.524568 11.021607 21.712288 -0.473149 1.038375 0.025920 -0.013964 453796.000000 1 0 0
2.536493 10.403968 15.304707 18.679144 1.331661 0.610525 0.003630 -0.020674 354344.000000 1 0 0
1.672493 14.635668 13.606207 20.053152 1.457015 0.825068 0.008253 -0.009581 684358.000000 1 0 0
9.039093 4.615668 16.762307 19.595523 0.472119 0.544445 0.024864 -0.004711 11659.500000 1 0 0
-0.434007 13.243968 13.536907 18.943044 -1.538038 0.774728 0.000055 0.008607 220096.000000 1 0 0
4.248493 13.859768 15.130107 20.953831 1.273356 0.764008 0.024163 0.020251 69934.000000 1 0 0
-3.639507 -4.643632 -13.866593 15.069563 0.906035 2.739316 0.006184 -0.006121 86750.700000 1 0 0
5.176493 -12.054232 17.010007 21.481176 -1.165176 0.656953 -0.024133 0.016715 133713.000000 1 0 0
8.756893 -13.581232 7.394407 17.771052 -0.998100 1.141652 0.013912 -0.009648 299914.000000 1 0 0
-0.314107 15.351468 0.604707 15.366584 -1.550338 1.531434 -0.003957 -0.001807 -368747.000000 1 0 0
-14.321207 7.895468 8.314507 18.345747 -0.503851 1.100431 0.003046 -0.002036 36549.900000 1 0 0
-16.277907 -9.848632 4.418007 19.531631 0.544110 1.342624 0.058473 -0.013902 304781.000000 1 0 0
8.956993 -10.226232 11.501007 17.806648 -0.851466 0.868617 0.010645 -0.005036 135037.000000 1 0 0
-25.494567 6.025168 31.059573 40.632164 -0.232073 0.700673 0.077193 -0.019407 -162926.000000 0 0 1
-24.169507 5.597668 30.892303 39.621123 -0.227588 0.676621 0.066705 -0.015026 81701.000000 0 0 1
-23.561507 4.989568 32.042043 40.084074 -0.208685 0.644549 0.056200 -0.004824 635776.000000 0 0 1
-22.144707 4.372168 31.839983 39.029328 -0.194929 0.616692 0.057079 -0.008433 324238.000000 0 0 1
-22.184407 3.107468 31.150513 38.368721 -0.139169 0.623444 0.034372 -0.021445 582783.000000 0 0 1
-20.882307 2.552768 31.004333 37.468067 -0.121642 0.596179 0.033856 -0.014923 210309.000000 0 0 1
-20.689307 1.329568 32.000043 38.128965 -0.064175 0.574879 0.020438 -0.005505 41276.800000 0 0 1
-21.435707 0.124368 31.743473 38.303435 -0.005802 0.593949 0.031054 0.009573 353819.000000 0 0 1
-21.213407 -0.883232 32.731540 39.014644 0.041612 0.575436 0.024579 0.008782 -63310.600000 0 0 1
-21.894107 -2.290632 32.540234 39.286967 0.104244 0.594782 0.028216 -0.022065 -142674.000000 0 0 1
-21.022707 -3.229432 31.954803 38.386103 0.152425 0.587268 0.048094 -0.023327 -62029.600000 0 0 1
-21.172207 -4.629332 32.306354 38.902360 0.215264 0.590886 0.056986 -0.035461 374506.000000 0 0 1
-22.516507 -5.420432 31.954243 39.464514 0.236236 0.627163 0.047952 -0.023031 1541580.000000 0 0 1
-23.736707 -5.072932 32.606675 40.649246 0.210549 0.639914 0.030012 -0.022373 546918.000000 0 0 1
-23.721307 -5.299932 34.004240 41.798063 0.219815 0.620589 0.034475 -0.022642 37023.500000 0 0 1
-25.084137 -4.867832 -33.572343 42.190187 0.191678 2.491022 0.035220 -0.017767 697153.000000 0 0 1
-25.234347 -5.101832 -32.167043 41.200966 0.199489 2.466638 0.042884 -0.023995 466572.000000 0 0 1
-26.479157 -4.692832 -31.596543 41.491083 0.175406 2.436461 0.055545 -0.023305 144978.000000 0 0 1
-26.697507 -5.195732 -30.167443 40.618064 0.192212 2.407905 0.041478 -0.017086 -524863.000000 0 0 1
-26.777557 -6.615232 -30.041633 40.783557 0.242195 2.398843 0.038203 -0.015652 506414.000000 0 0 1
-26.775407 -6.886532 -28.665813 39.825564 0.251740 2.374288 0.012249 -0.013807 -118863.000000 0 0 1
-27.034917 -8.383532 -28.458323 40.137844 0.300697 2.358896 0.014194 -0.009244 121647.000000 0 0 1
-28.391307 -8.759232 -28.595953 41.237349 0.299253 2.337060 0.032431 -0.009607 -124861.000000 0 0 1
-28.513787 -10.167532 -28.662553 41.688808 0.342527 2.328887 0.026147 -0.005822 527335.000000 0 0 1
-29.941477 -10.572432 -28.212073 42.475751 0.339437 2.297209 0.059874 -0.004344 493767.000000 0 0 1
-29.882107 -11.197232 -26.908633 41.741979 0.358520 2.271351 0.075239 -0.008653 -344015.000000 0 0 1
-31.165087 -11.404132 -26.388653 42.399032 0.350792 2.242586 0.074015 -0.007571 -466708.000000 0 0 1
-31.072257 -12.331932 -25.172193 41.847353 0.377813 2.216204 0.077979 -0.008619 -275495.000000 0 0 1
-30.432097 -11.676132 -24.096693 40.535111 0.366357 2.207396 0.081996 -0.010032 198670.000000 0 0 1
-30.519807 -12.295432 -22.851293 40.060178 0.382976 2.177818 0.088615 -0.018069 -740391.000000 0 0 1
-29.612367 -11.677832 -21.837193 38.602164 0.375632 2.172077 0.098492 -0.020106 -701436.000000 0 0 1
-29.603257 -12.181932 -20.488593 38.007035 0.390386 2.140133 0.098618 -0.015665 408223.000000 0 0 1
-28.810287 -13.362932 -20.167093 37.620636 0.434291 2.136565 0.105495 -0.014524 370935.000000 0 0 1
-28.406967 -13.428332 -18.655793 36.541955 0.441580 2.106598 0.103232 -0.020869 18725.300000 0 0 1
-27.664237 -12.359232 -18.137493 35.313302 0.420155 2.110191 0.087042 -0.022810 95454.600000 0 0 1
-27.420377 -12.593832 -16.778593 34.525394 0.430550 2.078279 0.092549 -0.020910 -38601.300000 0 0 1
-27.239037 -11.241532 -16.076093 33.567513 0.391406 2.070218 0.074962 -0.020553 -268958.000000 0 0 1
-26.093217 -10.480532 -16.369993 32.537274 0.381934 2.097996 0.077154 -0.026868 52002.300000 0 0 1
-25.993917 -9.263132 -15.675193 31.736430 0.342327 2.087386 0.069784 -0.029936 -271919.000000 0 0 1
-24.569407 -8.688532 -15.789193 30.470395 0.339907 2.115520 0.082757 -0.026352 -319555.000000 0 0 1
-23.597407 -9.345532 -15.035793 29.500028 0.377088 2.105618 0.068846 -0.034638 -407994.000000 0 0 1
-22.412407 -8.605332 -15.117193 28.370711 0.366597 2.132755 0.093942 -0.059284 -389937.000000 0 0 1
-21.332807 -8.940032 -14.101893 27.090150 0.396841 2.118296 0.061185 -0.031290 265059.000000 0 0 1
-20.555907 -10.159132 -14.137293 26.937266 0.459013 2.123303 0.057784 -0.024851 1171040.000000 0 0 1
-19.366507 -10.201632 -13.341093 25.634345 0.484831 2.118160 0.086318 -0.024447 278595.000000 0 0 1
-18.420207 -11.293732 -13.804993 25.640402 0.550008 2.139343 0.095995 -0.012976 -218574.000000 0 0 1
-17.635307 -10.970132 -14.965793 25.599273 0.556479 2.195205 0.107523 -0.030603 687449.000000 0 0 1
-18.347607 -11.143832 -16.181193 26.882163 0.545823 2.216713 0.088465 -0.035215 -72377.100000 0 0 1
-17.403907 -10.932032 -17.381493 26.916939 0.560852 2.272796 0.085681 -0.034321 142957.000000 0 0 1
-18.078707 -11.166132 -18.620893 28.253492 0.553289 2.290371 0.072502 -0.027225 224376.000000 0 0 1
-17.452907 -10.538332 -19.669093 28.329024 0.543220 2.338255 0.071648 -0.033811 6258.020000 0 0 1
-18.254707 -10.770032 -21.014493 29.846890 0.533024 2.351918 0.073490 -0.029669 234514.000000 0 0 1
-19.543807 -10.229332 -21.107293 30.530598 0.482196 2.334151 0.074059 -0.040936 -281769.000000 0 0 1
-20.395207 -10.868232 -22.012893 31.916303 0.489606 2.331880 0.061010 -0.031194 -360646.000000 0 0 1
-21.716507 -10.140532 -22.169093 32.648212 0.436860 2.317236 0.054816 -0.027935 -561741.000000 0 0 1
-21.533407 -8.963532 -22.891393 32.681010 0.394446 2.346823 0.053654 -0.037103 729581.000000 0 0 1
-22.726907 -8.537632 -23.562393 33.831787 0.359351 2.341245 0.046139 -0.039990 439847.000000 0 0 1
-22.300707 -7.641532 -24.712493 34.152919 0.330120 2.379776 0.041108 -0.037324 190378.000000 0 0 1
-21.489507 -8.382932 -25.634163 34.484529 0.371938 2.408865 0.056219 -0.036781 308107.000000 0 0 1
-20.929607 -7.610932 -26.659493 34.737635 0.348778 2.445655 0.042703 -0.037796 343265.000000 0 0 1
-19.676607 -8.299132 -27.320163 34.676155 0.399137 2.478132 0.073585 -0.035832 400511.000000 0 0 1
-19.927307 -9.448032 -28.073903 35.700237 0.442734 2.475721 0.079417 -0.032312 -827821.000000 0 0 1
-18.775907 -9.946532 -28.634313 35.656585 0.487163 2.503206 0.052730 -0.019132 -897769.000000 0 0 1
-18.925207 -11.237932 -29.476153 36.787201 0.535854 2.500196 0.064732 -0.018202 -239952.000000 0 0 1
-19.320707 -10.888232 -30.806113 37.958660 0.513189 2.517631 0.066808 -0.012792 431989.000000 0 0 1
-19.587907 -12.099632 -31.527613 39.039436 0.553339 2.510840 0.053524 -0.008119 81479.300000 0 0 1
-20.245507 -11.881532 -32.913803 40.427339 0.530711 2.522055 0.044748 -0.010472 47930.900000 0 0 1
-19.248607 -11.455832 -33.829053 40.572771 0.536847 2.556728 0.048984 -0.010223 140448.000000 0 0 1
-19.687407 -11.572032 33.099194 40.212717 0.531392 0.603943 0.052443 -0.016655 -111747.000000 0 0 1
-18.924107 -12.600132 32.202713 39.419537 0.587419 0.614741 0.055897 -0.016659 424032.000000 0 0 1
-17.670407 -12.131732 31.647203 38.222607 0.601646 0.595317 0.058546 -0.015436 1150040.000000 0 0 1
-17.215407 -12.971332 30.550763 37.389502 0.645720 0.614443 0.061208 -0.017627 66810.800000 0 0 1
-17.146907 -14.509932 30.750653 38.080930 0.702291 0.630881 0.060211 -0.010708 -74238.600000 0 0 1
-18.326107 -15.309532 30.402113 38.658977 0.695954 0.665808 0.059218 -0.014346 971779.000000 0 0 1
-18.347407 -16.669332 30.737913 39.488141 0.737513 0.678669 0.066123 -0.019698 -181172.000000 0 0 1
-18.562607 -16.945632 32.286097 40.915974 0.739892 0.661482 0.048425 -0.019825 -15798.800000 0 0 1
-17.467707 -16.624732 33.117961 40.967083 0.760677 0.629360 0.051038 -0.015616 233976.000000 0 0 1
-17.981607 -16.292932 -33.814723 41.620107 0.736169 2.519158 0.055375 -0.022753 336871.000000 0 0 1
-16.875907 -15.712232 -32.910183 40.183959 0.749705 2.530442 0.051472 -0.015630 -92785.400000 0 0 1
-16.432807 -14.491632 -33.513683 40.040123 0.722709 2.562578 0.050383 -0.013172 -132100.000000 0 0 1
-15.483807 -13.764832 -32.728343 38.734523 0.726695 2.577249 0.058914 -0.009797 152233.000000 0 0 1
-15.798107 -13.330232 -31.251953 37.469452 0.700876 2.557232 0.071408 -0.016475 -319770.000000 0 0 1
-15.751407 -14.407632 -30.339773 37.097015 0.740871 2.528460 0.069776 -0.019871 -91474.800000 0 0 1
-16.095107 -14.044832 -29.022823 36.036565 0.717478 2.507098 0.062504 -0.015760 -102159.000000 0 0 1
-16.133807 -15.281832 -28.043443 35.780844 0.758285 2.471487 0.065671 -0.013067 495005.000000 0 0 1
-14.888307 -15.832632 -27.628873 35.152362 0.816127 2.475068 0.059191 -0.021628 22135.400000 0 0 1
-14.239707 -16.660932 -28.536343 35.981645 0.863594 2.486646 0.062222 -0.020279 300233.000000 0 0 1
-12.818607 -17.122532 -28.059983 35.282579 0.928166 2.490287 0.044447 -0.012370 259210.000000 0 0 1
-11.835307 -16.174832 -28.274453 34.657529 0.939103 2.524949 0.047941 -0.015403 -299755.000000 0 0 1
-10.504607 -16.655332 -28.067653 34.286148 1.008105 2.529817 0.063510 -0.019067 744141.000000 0 0 1
-9.535607 -15.545132 -28.543133 33.871660 1.020572 2.573047 0.052585 -0.022396 -319509.000000 0 0 1
-9.662907 -14.348532 -27.810883 32.752058 0.978118 2.585140 0.059824 -0.025588 -447654.000000 0 0 1
-8.561607 -14.090632 -26.986193 31.624383 1.024800 2.593145 0.067368 -0.028490 -436547.000000 0 0 1
-8.143807 -12.639532 -27.049203 30.947354 0.998430 2.634251 0.050953 -0.026943 -237331.000000 0 0 1
-7.596007 -12.348932 -28.326073 31.820777 1.019337 2.668526 0.056098 -0.023294 226816.000000 0 0 1
-7.331407 -10.994532 -28.548143 31.458317 0.982685 2.708069 0.052002 -0.016866 -29334.900000 0 0 1
-6.464007 -10.704732 -29.819973 32.335823 1.027554 2.744518 0.048220 -0.006728 388931.000000 0 0 1
-5.076507 -10.978332 -29.578193 31.955659 1.137669 2.753417 0.059040 -0.010053 927270.000000 0 0 1
-4.206507 -10.589232 -30.631183 32.681736 1.192668 2.785474 0.067351 -0.009310 -157334.000000 0 0 1
-4.100507 -9.081432 -31.092963 32.650557 1.146674 2.831466 0.051546 -0.007825 -1265190.000000 0 0 1
-3.030307 -8.671732 -31.902493 33.198655 1.234615 2.861238 0.048114 -0.012385 -269366.000000 0 0 1
-3.062407 -7.334832 -32.272913 33.237313 1.175282 2.900110 0.027721 -0.011770 1276380.000000 0 0 1
-1.677007 -6.834232 -32.913253 33.657113 1.330167 2.930960 0.047388 -0.020117 1481550.000000 0 0 1
-1.308507 -7.452832 34.093772 34.923376 1.396996 0.218402 0.052261 -0.019368 1265590.000000 0 0 1
0.002293 -6.992932 33.642444 34.361536 -1.570468 0.204942 0.072890 -0.010945 1507790.000000 0 0 1
0.502493 -7.562832 32.278681 33.156631 -1.504451 0.230636 0.071522 -0.013259 345976.000000 0 0 1
-0.213307 -7.111332 31.112903 31.915972 1.540810 0.224803 0.071152 -0.010039 233996.000000 0 0 1
0.513593 -7.557432 30.032083 30.972643 -1.502942 0.247072 0.075780 -0.016662 -159984.000000 0 0 1
0.090193 -7.009832 28.680893 29.525235 -1.557930 0.239728 0.078083 -0.011887 -104139.000000 0 0 1
0.324693 -5.601732 28.602143 29.147340 -1.512898 0.193719 0.077652 -0.024399 79956.700000 0 0 1
0.075493 -5.065832 27.339523 27.804998 -1.555895 0.183235 0.080647 -0.014102 256788.000000 0 0 1
-1.296907 -4.354532 27.213893 27.590576 1.281332 0.165431 0.069865 -0.008601 549151.000000 0 0 1
-2.493107 -5.096432 27.157793 27.744097 1.115837 0.205949 0.055902 -0.001474 198571.000000 0 0 1
-3.592207 -4.339732 26.680693 27.268968 0.879363 0.208092 0.037460 -0.016859 1674820.000000 0 0 1
-5.040807 -4.840232 27.144343 28.029502 0.765102 0.251981 0.021728 -0.008796 1482750.000000 0 0 1
-5.337707 -6.103632 26.609983 27.817920 0.852242 0.295773 0.020614 -0.004142 443044.000000 0 0 1
-6.701207 -6.473332 26.848003 28.418752 0.768103 0.334031 0.014814 -0.009233 1000400.000000 0 0 1
-6.930007 -8.039732 26.734273 28.764278 0.859394 0.377941 0.017420 -0.005265 252123.000000 0 0 1
-6.241507 -8.663332 27.813043 29.792199 0.946476 0.366554 0.022848 -0.007531 57771.500000 0 0 1
-6.406307 -10.066032 27.820293 30.271017 1.004021 0.405157 0.032745 -0.004133 -122463.000000 0 0 1
-5.570107 -10.735232 28.928043 31.354473 1.092173 0.395996 0.032438 -0.007520 -226980.000000 0 0 1
-5.725307 -12.134932 29.108263 32.051938 1.129959 0.431931 0.045348 -0.014256 -263862.000000 0 0 1
-4.998607 -12.602732 30.170203 33.076519 1.193199 0.422337 0.057867 -0.018987 -293403.000000 0 0 1
-4.763007 -14.117832 30.194713 33.670761 1.245412 0.458396 0.065431 -0.029837 233677.000000 0 0 1
-5.951107 -14.803032 30.525463 34.443422 1.188550 0.481612 0.082229 -0.037036 -88119.800000 0 0 1
-5.774707 -16.201532 30.497283 35.013157 1.228405 0.513514 0.077776 -0.040781 164415.000000 0 0 1
-6.370007 -16.965032 31.713473 36.525795 1.211606 0.519135 0.102246 -0.035673 -327508.000000 0 0 1
-7.734907 -16.775732 31.913283 36.874268 1.138769 0.524724 0.099065 -0.033282 -687485.000000 0 0 1
-8.068807 -16.825732 33.294400 38.167106 1.123641 0.510844 0.110871 -0.030350 -144344.000000 0 0 1
-9.499707 -17.244732 33.685067 39.016778 1.067281 0.528928 0.106320 -0.023802 -49036.100000 0 0 1
-9.914507 -18.547632 33.309999 39.393758 1.079898 0.563173 0.105750 -0.031926 287866.000000 0 0 1
-10.552907 -18.524332 32.021713 38.469531 1.052971 0.587387 0.090215 -0.032627 -221874.000000 0 0 1
-11.143507 -19.938932 31.663253 39.042290 1.061160 0.624939 0.081650 -0.035970 706892.000000 0 0 1
-12.376907 -20.331932 32.304399 40.126668 1.023973 0.635019 0.070418 -0.028023 880745.000000 0 0 1
-12.625907 -21.744232 32.280062 40.917326 1.044722 0.661764 0.061157 -0.027958 -101319.000000 0 0 1
-11.947307 -22.573632 33.407828 42.052229 1.084016 0.652717 0.072882 -0.032230 432486.000000 0 0 1
-10.515807 -22.641232 33.253378 41.581182 1.135988 0.643965 0.074991 -0.029121 647337.000000 0 0 1
-9.910507 -23.336932 -33.923113 42.351011 1.169205 2.499758 0.070624 -0.037334 -308716.000000 0 0 1
-10.070107 -24.870532 -33.763003 43.126451 1.186072 2.470084 0.067220 -0.032090 -584601.000000 0 0 1
-9.499507 -25.739082 33.545294 43.336218 1.217235 0.685550 0.068487 -0.024525 -140177.000000 0 0 1
-9.648107 -27.118802 33.827264 44.416204 1.228989 0.705022 0.064946 -0.024544 -598969.000000 0 0 1
-8.988207 -28.008042 32.704000 43.986247 1.260263 0.732500 0.053524 -0.026304 964411.000000 0 0 1
-7.614507 -27.671122 32.472970 43.337807 1.302264 0.723794 0.052661 -0.032253 611557.000000 0 0 1
-6.659907 -28.333872 33.306050 44.231839 1.339936 0.718205 0.059988 -0.035116 56151.500000 0 0 1
-5.243907 -27.761232 33.094472 43.513546 1.384103 0.706628 0.067566 -0.038249 -92407.900000 0 0 1
-4.936407 -26.589992 33.832008 43.312822 1.387237 0.674357 0.073519 -0.036010 -16052.100000 0 0 1
-4.945307 -25.442672 33.024074 41.980652 1.378819 0.665432 0.098875 -0.030863 -100986.000000 0 0 1
-4.737007 -24.199332 33.919093 41.935090 1.377491 0.628607 0.096696 -0.037371 455048.000000 0 0 1
-3.452107 -24.241432 -33.697113 41.654045 1.429342 2.513204 0.093229 -0.037675 476159.000000 0 0 1
-2.985307 -23.010032 -33.150443 40.463879 1.441778 2.530916 0.087932 -0.033866 -72873.100000 0 0 1
35.115121 -14.986632 2.139307 38.239345 -0.403382 1.514822 0.117114 -0.041053 203849.000000 0 0 1
36.030161 -15.513732 3.097607 39.350268 -0.406584 1.491996 0.083101 -0.042044 693327.000000 0 0 1
35.295521 -16.284132 4.064407 39.082812 -0.432265 1.466613 0.093110 -0.038166 124479.000000 0 0 1
35.910211 -16.387432 5.468207 39.849623 -0.428118 1.433141 0.077318 -0.021023 -136916.000000 0 0 1
-36.230567 -17.105732 5.421807 40.430880 0.441108 1.436290 0.094794 -0.019951 -171023.000000 0 0 1
-35.560764 -17.047432 6.667307 39.995448 0.447023 1.403313 0.080900 -0.015523 417731.000000 0 0 1
-34.294661 -17.950532 6.696507 39.283439 0.482208 1.399493 0.064727 -0.024032 81943.100000 0 0 1
-34.574135 -19.319132 6.533807 40.140881 0.509555 1.407297 0.078045 -0.028686 288395.000000 0 0 1
-33.389327 -20.082132 6.745207 39.542850 0.541488 1.399378 0.061054 -0.024280 276721.000000 0 0 1
-33.547727 -21.615332 7.087607 40.532786 0.572369 1.395032 0.061366 -0.020702 -332750.000000 0 0 1
-33.536397 -22.453932 5.974307 40.799036 0.589989 1.423835 0.089210 -0.024734 224264.000000 0 0 1
-33.748977 -23.802232 6.279207 41.772816 0.614256 1.419906 0.103198 -0.027475 -207657.000000 0 0 1
-33.248157 -24.791532 5.236307 41.802858 0.640712 1.445204 0.108657 -0.025575 62889.800000 0 0 1
-33.939297 -24.635732 3.992507 42.127607 0.627882 1.475882 0.115586 -0.022074 368015.000000 0 0 1
-33.385067 -25.479552 2.965607 42.101842 0.651897 1.500299 0.110302 -0.020009 171298.000000 0 0 1
-33.878547 -25.102282 1.532607 42.192765 0.637683 1.534464 0.104274 -0.019583 78254.500000 0 0 1
-35.195624 -25.487132 1.195907 43.471324 0.626755 1.543283 0.100818 -0.013692 -34992.800000 0 0 1
-35.619285 -24.978732 -0.076493 43.504901 0.611578 1.572555 0.097699 -0.010615 158423.000000 0 0 1
36.638171 -23.891132 0.118407 43.739636 -0.577838 1.568089 0.109971 -0.014951 406149.000000 0 0 1
35.313971 -24.422732 0.178607 42.936911 -0.605058 1.566637 0.089416 -0.005485 610460.000000 0 0 1
34.415091 -23.395732 0.659407 41.619630 -0.597047 1.554952 0.111219 -0.012756 575062.000000 0 0 1
32.928471 -23.597732 0.297007 40.512040 -0.621804 1.563465 0.065195 -0.002265 121662.000000 0 0 1
32.644411 -23.457732 -1.066893 40.212697 -0.623089 1.597331 0.077572 -0.012582 -34622.000000 0 0 1
31.266071 -23.562632 -1.337893 39.173394 -0.645812 1.604956 0.069381 -0.006303 94367.600000 0 0 1
30.980141 -23.282732 -2.834293 38.857277 -0.644484 1.643802 0.062449 0.000147 -164479.000000 0 0 1
31.358891 -21.998032 -3.194693 38.438256 -0.611727 1.654005 0.096992 -0.027104 3.981500 0 0 1
31.034381 -21.533732 -4.498693 38.040408 -0.606598 1.689335 0.086921 -0.044702 121623.000000 0 0 1
31.158211 -19.990032 -4.726893 37.319955 -0.570423 1.697796 0.096242 -0.043818 382919.000000 0 0 1
30.024511 -19.515132 -4.027693 36.035177 -0.576356 1.682802 0.100823 -0.051627 225253.000000 0 0 1
29.729251 -18.130132 -4.297493 35.085588 -0.547625 1.693591 0.096201 -0.047930 -409571.000000 0 0 1
28.741361 -17.533032 -3.321293 33.830519 -0.547760 1.669129 0.114473 -0.044139 -705021.000000 0 0 1
29.141291 -17.214732 -1.965993 33.903200 -0.533578 1.628817 0.106393 -0.036499 131614.000000 0 0 1
29.832471 -18.158432 -1.183593 34.944325 -0.546777 1.604674 0.104234 -0.024712 -158635.000000 0 0 1
29.006321 -19.400932 -0.755593 34.904638 -0.589514 1.592445 0.098222 -0.027401 399100.000000 0 0 1
27.998921 -19.159632 0.245607 33.927738 -0.600110 1.563557 0.088710 -0.010489 453604.000000 0 0 1
27.330421 -20.392632 0.438807 34.102843 -0.641033 1.557929 0.060660 -0.004157 315299.000000 0 0 1
26.171321 -20.163532 1.506507 33.072279 -0.656457 1.525229 0.055257 0.004711 -579771.000000 0 0 1
25.566121 -21.332232 1.862207 33.349040 -0.695364 1.514927 0.042756 0.016941 -17874.000000 0 0 1
24.498821 -21.259632 2.805107 32.558145 -0.714727 1.484533 0.028587 0.017508 783119.000000 0 0 1
23.148321 -20.708732 2.225707 31.139206 -0.729829 1.499259 0.014386 0.013024 -553796.000000 0 0 1
23.060821 -19.337032 1.827407 30.150650 -0.697793 1.510150 0.051633 -0.009054 41165.900000 0 0 1
23.117921 -18.419932 2.933107 29.704129 -0.672775 1.471891 0.064885 -0.007357 -483430.000000 0 0 1
23.098721 -16.952432 2.404707 28.752713 -0.633125 1.487064 0.049339 -0.002707 -212185.000000 0 0 1
21.868521 -16.549432 1.870407 27.488440 -0.647820 1.502700 0.051267 -0.005157 -326020.000000 0 0 1
21.941921 -15.194432 1.512107 26.732099 -0.605664 1.514201 0.071656 -0.012773 -175713.000000 0 0 1
20.605121 -14.639732 0.983507 25.295455 -0.617732 1.531906 0.069979 -0.009047 102500.000000 0 0 1
19.635221 -14.456632 2.012707 24.466040 -0.634649 1.488438 0.077174 -0.011905 698635.000000 0 1 0
18.760221 -13.321932 1.836207 23.082275 -0.617483 1.491162 0.101145 -0.021101 314537.000000 0 1 0
19.334121 -11.987632 2.349607 22.869898 -0.555014 1.467877 0.111596 -0.019387 -57190.900000 0 1 0
20.382521 -11.507332 1.511607 23.455294 -0.513959 1.506305 0.111794 -0.017593 509094.000000 0 1 0
20.757521 -10.192732 1.903707 23.203245 -0.456452 1.488659 0.119492 -0.023472 87543.100000 0 1 0
21.662721 -9.513432 0.857007 23.675163 -0.413804 1.534590 0.135513 -0.019178 367822.000000 0 1 0
20.876821 -9.127132 -0.269393 22.786373 -0.412150 1.582619 0.124031 -0.018321 733028.000000 0 1 0
21.731321 -8.646832 -1.264493 23.422574 -0.378692 1.624809 0.117508 -0.011108 -196800.000000 0 1 0
20.980721 -8.504932 -2.609593 22.788912 -0.385126 1.685560 0.128702 -0.009856 -222629.000000 0 1 0
21.649221 -7.829032 -3.631693 23.306045 -0.346999 1.727260 0.117356 -0.010043 66619.300000 0 1 0
22.586021 -8.543132 -4.412293 24.547541 -0.361616 1.751523 0.105098 -0.007118 -521211.000000 0 1 0
22.061221 -9.671332 -5.350293 24.675044 -0.413154 1.789362 0.084130 -0.009465 -388652.000000 0 1 0
21.409821 -9.297432 -6.542293 24.240963 -0.409688 1.844071 0.073647 -0.017932 277711.000000 0 1 0
20.039421 -8.994332 -6.356193 22.866517 -0.421882 1.852476 0.071804 -0.012227 -258460.000000 0 1 0
19.257321 -9.140032 -7.696993 22.663369 -0.443143 1.917312 0.070694 -0.007093 -304567.000000 0 1 0
19.258521 -10.442832 -8.358893 23.448123 -0.496870 1.935299 0.065371 -0.005569 889858.000000 0 1 0
20.473721 -10.849732 -9.001393 24.857896 -0.487307 1.941331 0.057777 -0.002292 251079.000000 0 1 0
20.424121 -12.293032 -9.621093 25.706590 -0.541807 1.954401 0.040428 -0.000561 -83974.700000 0 0 1
19.391921 -12.504032 -10.563793 25.376980 -0.572715 2.000141 0.065225 -0.000447 170417.000000 0 0 1
19.398721 -13.811032 -11.057693 26.255048 -0.618705 2.005525 0.064917 -0.000147 673748.000000 0 0 1
18.160121 -14.082032 -12.009993 25.929395 -0.659583 2.052377 0.074131 -0.005258 750113.000000 0 0 1
18.138921 -15.436432 -12.412393 26.858358 -0.705081 2.051206 0.068548 -0.010115 -501519.000000 0 0 1
17.193921 -15.653032 -13.377193 26.825317 -0.738521 2.092869 0.075073 -0.009124 -791447.000000 0 0 1
17.102821 -17.137332 -13.697493 27.817547 -0.786406 2.085647 0.056352 -0.016707 -482188.000000 0 0 1
16.472121 -17.948832 -12.725893 27.485263 -0.828273 2.052182 0.049147 -0.010950 203856.000000 0 0 1
16.467821 -19.306132 -13.105093 28.559750 -0.864572 2.047515 0.048216 -0.012908 71727.800000 0 0 1
15.456221 -20.098832 -12.167793 28.123175 -0.915239 2.018238 0.036669 -0.018310 703889.000000 0 0 1
14.119221 -19.953132 -12.619493 27.508753 -0.954975 2.047378 0.040215 -0.024552 -513433.000000 0 0 1
13.223721 -20.434832 -11.671393 26.993899 -0.996451 2.017918 0.036095 -0.017633 -198447.000000 0 0 1
11.777721 -20.452832 -12.195093 26.566018 -1.048325 2.047720 0.046492 -0.021304 -288429.000000 0 0 1
10.858321 -20.962332 -11.278893 26.163637 -1.092859 2.016497 0.047648 -0.021967 -207361.000000 0 0 1
9.523521 -20.783432 -11.744193 25.701645 -1.141122 2.045352 0.050028 -0.021079 405154.000000 0 0 1
8.512521 -21.291132 -10.699893 25.303419 -1.190449 2.007399 0.050756 -0.017942 -382340.000000 0 0 1
8.547721 -22.659732 -10.509193 26.400192 -1.210080 1.980211 0.057638 -0.016656 -59790.000000 0 0 1
7.717421 -23.110132 -9.459393 26.136505 -1.248499 1.941126 0.060645 -0.022776 -184602.000000 0 0 1
7.777821 -24.647332 -9.334693 27.479482 -1.265122 1.917391 0.058604 -0.022586 -317738.000000 0 0 1
8.933321 -25.227402 -8.825993 28.180209 -1.230463 1.889355 0.042630 -0.013136 -864584.000000 0 0 1
9.120721 -26.517532 -9.393893 29.573844 -1.239521 1.894038 0.037108 -0.011527 -104018.000000 0 0 1
10.577921 -26.982782 -9.289793 30.434572 -1.197184 1.880985 0.033744 -0.010521 -45128.900000 0 0 1
10.965221 -27.645062 -8.083993 30.819417 -1.193187 1.836203 0.041470 -0.005404 1213150.000000 0 0 1
12.401521 -27.890422 -8.078593 31.574309 -1.152399 1.829533 0.040131 0.001959 1115420.000000 0 0 1
12.807721 -28.175042 -6.594593 31.644263 -1.144143 1.780733 0.038180 -0.009219 -144579.000000 0 0 1
12.335721 -29.316012 -5.932093 32.354108 -1.172502 1.755188 0.039767 -0.017254 -368413.000000 0 0 1
10.950121 -29.296342 -5.681393 31.787718 -1.213104 1.750491 0.054622 -0.014827 -359801.000000 0 0 1
10.628621 -30.387982 -4.696993 32.533963 -1.234332 1.715675 0.065231 -0.015841 102380.000000 0 0 1
10.858421 -31.742932 -5.090493 33.932759 -1.241200 1.721382 0.064528 -0.021856 568972.000000 0 0 1
9.685121 -32.240802 -5.770593 34.155096 -1.278973 1.740563 0.073410 -0.026306 874936.000000 0 0 1
9.751321 -33.781522 -6.082593 35.683013 -1.289777 1.742095 0.076197 -0.025417 16988.000000 0 0 1
9.313521 33.730491 -4.897493 35.333739 1.301393 1.709851 0.070107 -0.027623 -20126.700000 0 0 1
9.678321 32.362037 -4.940593 34.137674 1.280198 1.716032 0.077834 -0.016582 -25182.000000 0 0 1
9.077421 31.401016 -3.886893 32.917036 1.289387 1.689154 0.074131 -0.016512 -111498.000000 0 0 1
7.775421 31.011416 -4.248593 32.252374 1.325133 1.702910 0.061947 -0.014596 -626578.000000 0 0 1
7.299221 30.062906 -3.304093 31.112280 1.332607 1.677196 0.053299 -0.016704 184487.000000 0 0 1
5.813621 29.636796 -3.474293 30.400798 1.377094 1.685330 0.046747 -0.013283 278830.000000 0 0 1
5.601521 28.914756 -4.692093 29.823747 1.379441 1.728780 0.062161 -0.021003 96578.500000 0 0 1
5.403721 29.736316 -5.801193 30.775030 1.391037 1.760434 0.051868 -0.014982 -638793.000000 0 0 1
5.711021 28.958616 -7.111093 30.360909 1.376082 1.807211 0.055563 -0.012756 384014.000000 0 0 1
4.777621 27.913266 -7.455993 29.284260 1.401279 1.828238 0.071662 -0.022460 179999.000000 0 0 1
5.070221 26.714736 -6.837593 28.038133 1.383236 1.817148 0.071580 -0.025618 -901175.000000 0 0 1
4.230021 25.493276 -7.275093 26.846362 1.406367 1.845218 0.072574 -0.035683 631060.000000 0 0 1
2.844521 25.515016 -6.815493 26.562347 1.459771 1.830283 0.067338 -0.032697 1025810.000000 0 0 1
1.996621 26.354236 -7.577493 27.494556 1.495180 1.850010 0.072282 -0.028911 -474998.000000 0 0 1
1.550121 25.729956 -8.951893 27.286808 1.510623 1.905053 0.094166 -0.032427 -1234410.000000 0 0 1
2.573521 25.361986 -9.799993 27.311045 1.469671 1.937809 0.084740 -0.037164 -1093730.000000 0 0 1
2.195921 24.827496 -11.057993 27.267303 1.482579 1.988366 0.100958 -0.034080 -563188.000000 0 0 1
1.750921 23.339166 -11.057993 25.885548 1.495916 2.012177 0.099168 -0.033075 -96123.700000 0 0 1
0.544621 23.072166 -10.383993 25.307089 1.547196 1.993601 0.101096 -0.026970 -392429.000000 0 0 1
0.462221 21.690566 -10.237993 23.989806 1.549490 2.011708 0.065732 -0.025607 -996071.000000 0 1 0
-0.579879 21.082966 -9.328093 23.061678 -1.543299 1.987211 0.067351 -0.020582 -1293360.000000 0 1 0
-1.844579 21.196966 -9.879493 23.458862 -1.483994 2.005499 0.078716 -0.020356 -901847.000000 0 1 0
-2.807279 20.515766 -9.098093 22.617532 -1.434806 1.984779 0.055909 -0.013610 -624178.000000 0 1 0
-4.212879 20.576866 -9.640993 23.110701 -1.368849 2.001121 0.063018 -0.014395 -746347.000000 0 1 0
-5.106779 19.649866 -9.074993 22.238523 -1.316532 1.991141 0.048335 -0.024028 174098.000000 0 1 0
-6.076379 19.219866 -10.036493 22.517922 -1.264589 2.032765 0.051668 -0.024731 -495371.000000 0 1 0
-6.871579 18.056166 -9.429193 21.497753 -1.207154 2.024851 0.048631 -0.029819 -223199.000000 0 1 0
-7.937179 18.437666 -8.582993 21.831493 -1.164287 1.974848 0.068650 -0.027624 208570.000000 0 1 0
-9.170779 18.548866 -9.281793 22.678520 -1.111629 1.992458 0.084724 -0.035882 -907582.000000 0 1 0
-10.344979 18.783166 -8.395393 23.028428 -1.067371 1.943964 0.106449 -0.041089 -833694.000000 0 1 0
-10.596979 17.797366 -7.458493 22.015251 -1.033748 1.916424 0.088899 -0.032576 -249628.000000 0 1 0
-11.645679 18.165666 -6.588093 22.561387 -1.000716 1.867121 0.100098 -0.028047 14617.800000 0 1 0
-11.966379 17.069966 -5.559093 21.575019 -0.959386 1.831399 0.079423 -0.030836 -416509.000000 0 1 0
-12.851779 17.528266 -4.606693 22.217784 -0.938132 1.779654 0.078783 -0.022230 -374128.000000 0 1 0
-13.364579 16.445166 -3.822693 21.532961 -0.888374 1.749270 0.077763 -0.015844 338573.000000 0 1 0
-14.666479 16.797366 -3.052993 22.507284 -0.853020 1.706860 0.060813 -0.009978 -729163.000000 0 1 0
-15.852079 16.781166 -3.747793 23.386788 -0.813861 1.731743 0.097862 -0.027208 -585738.000000 0 1 0
-16.839579 17.332666 -2.874993 24.336357 -0.799827 1.689209 0.083423 -0.019818 407107.000000 0 1 0
-18.285779 17.391066 -3.445393 25.469385 -0.760325 1.706488 0.088354 -0.032744 38536.700000 0 0 1
-18.265379 17.994766 -4.725793 26.072375 -0.777935 1.753060 0.078159 -0.037456 402857.000000 0 0 1
-19.577279 18.345966 -5.160393 27.321675 -0.752941 1.760813 0.050968 -0.034245 386588.000000 0 0 1
-19.571379 19.203266 -6.396693 28.155318 -0.775905 1.799991 0.037683 -0.019927 109751.000000 0 0 1
-19.132179 20.568166 -6.177393 28.761952 -0.821553 1.787259 0.045507 -0.023778 115382.000000 0 0 1
-19.389979 21.356366 -7.337393 29.764122 -0.833620 1.819882 0.038439 -0.011205 88380.300000 0 0 1
-19.114679 22.848566 -7.017793 30.605184 -0.874144 1.802156 0.042746 -0.012975 -166523.000000 0 0 1
-17.822479 23.061066 -6.519193 29.865588 -0.912838 1.790852 0.056355 -0.023217 -148298.000000 0 0 1
-17.832579 24.281866 -5.832493 30.685955 -0.937355 1.762030 0.056636 -0.021233 46975.900000 0 0 1
-16.443679 24.487536 -5.199093 29.951036 -0.979447 1.745267 0.058160 -0.024056 -208541.000000 0 0 1
-16.441779 25.632756 -4.400393 30.769038 -1.000465 1.714302 0.045149 -0.028736 -1451510.000000 0 0 1
-15.229279 25.914356 -3.879093 30.307295 -1.039487 1.699140 0.056741 -0.031292 -1485500.000000 0 0 1
-14.510579 27.032116 -4.604393 31.024065 -1.078151 1.719760 0.063065 -0.027130 -454996.000000 0 0 1
-15.221879 28.220466 -4.476293 32.374951 -1.076134 1.709505 0.071677 -0.028203 -4897.420000 0 0 1
-14.478579 29.327066 -4.974893 33.082557 -1.112207 1.721747 0.063883 -0.023168 -544632.000000 0 0 1
-15.012079 30.680326 -4.611893 34.466135 -1.115740 1.705008 0.056983 -0.022442 -548777.000000 0 0 1
-16.312379 30.895866 -5.080793 35.305278 -1.085017 1.715208 0.081791 -0.023254 -349999.000000 0 0 1
-16.907479 32.002536 -4.455393 36.467460 -1.084753 1.693277 0.080314 -0.025939 -8377.150000 0 0 1
13.196793 -8.524132 18.430453 24.217716 -0.573505 0.705894 0.109030 -0.020185 -212931.000000 0 1 0
13.582793 -9.723932 19.085853 25.363693 -0.621318 0.718966 0.089856 -0.018524 -12888.200000 0 0 1
13.899393 -10.683132 18.133053 25.221619 -0.655302 0.768508 0.091901 -0.019551 -126966.000000 0 0 1
14.298893 -12.094532 18.688953 26.457759 -0.702072 0.786440 0.107577 -0.030314 442195.000000 0 0 1
15.523193 -12.171232 19.444953 27.698639 -0.664950 0.792569 0.085793 -0.022476 916003.000000 0 0 1
15.759093 -13.324832 20.293853 28.943749 -0.701895 0.793790 0.080881 -0.019616 80744.300000 0 0 1
16.378793 -14.576532 19.522853 29.357826 -0.727242 0.843307 0.082339 -0.019594 -599586.000000 0 0 1
15.544193 -14.947732 18.499953 28.413111 -0.765839 0.861755 0.088084 -0.026135 -130689.000000 0 0 1
15.830793 -16.217132 17.953553 28.912617 -0.797453 0.900831 0.090555 -0.024994 -352807.000000 0 0 1
15.014893 -16.432732 16.651653 27.798547 -0.830453 0.928530 0.083773 -0.022384 -925925.000000 0 0 1
13.637693 -16.309532 16.799253 27.096170 -0.874381 0.902071 0.103770 -0.019072 -805456.000000 0 0 1
13.000693 -16.106732 15.569253 25.900704 -0.891705 0.925903 0.115430 -0.028172 -230246.000000 0 0 1
12.575093 -17.344532 14.743453 26.006445 -0.943477 0.968040 0.083790 -0.017464 -598170.000000 0 0 1
13.628293 -18.003132 14.103153 26.622210 -0.922833 1.012489 0.075752 -0.013707 -18601.200000 0 0 1
13.107493 -19.092732 13.416953 26.764779 -0.969177 1.045706 0.070259 -0.014104 -67003.300000 0 0 1
14.182593 -20.055632 12.836653 27.715591 -0.955279 1.089243 0.070443 -0.018760 -230896.000000 0 0 1
14.754393 -20.823732 13.832253 29.028454 -0.954364 1.074119 0.043343 -0.008301 -86804.700000 0 0 1
15.308993 -21.967832 13.182553 29.845110 -0.962166 1.113305 0.026901 -0.003498 14377.700000 0 0 1
16.033793 -23.034232 14.086653 31.402104 -0.962702 1.105610 0.015065 -0.008622 712220.000000 0 0 1
17.317293 -22.629432 14.564653 32.001702 -0.917603 1.098288 0.021545 -0.005441 231210.000000 0 0 1
17.882493 -23.575332 15.431553 33.372334 -0.921861 1.090090 0.025662 -0.015870 274552.000000 0 0 1
19.251393 -23.095932 15.994553 34.056775 -0.875936 1.081909 0.026383 -0.008848 -347796.000000 0 0 1
20.259093 -23.153532 15.046153 34.247680 -0.851972 1.115940 0.010530 -0.021430 -770402.000000 0 0 1
21.422593 -22.575732 15.622453 34.823156 -0.811601 1.105573 0.024794 -0.020625 -312288.000000 0 0 1
22.718693 -23.056932 14.996653 35.674371 -0.792787 1.136937 0.019422 -0.030026 -726878.000000 0 0 1
23.016893 -24.331332 15.435553 36.878820 -0.813152 1.138950 0.026676 -0.022623 -343298.000000 0 0 1
24.140793 -24.807332 14.764053 37.631886 -0.799015 1.167635 0.032486 -0.023575 -327710.000000 0 0 1
24.770193 -26.144312 15.357153 39.152645 -0.812380 1.167733 0.043572 -0.018985 460778.000000 0 0 1
25.404593 -25.951532 16.677453 39.962642 -0.796048 1.140295 0.032517 -0.015202 555790.000000 0 0 1
25.586893 -27.195762 17.345053 41.172192 -0.815870 1.135939 0.040322 0.000911 -342.853000 0 0 1
26.006593 -27.027752 18.849453 41.977900 -0.804650 1.105114 0.031103 0.012473 -317593.000000 0 0 1
25.105493 -26.347382 19.652653 41.360574 -0.809530 1.075657 0.033711 0.014095 -307362.000000 0 0 1
25.530693 -26.216172 21.023553 42.203006 -0.798644 1.049329 0.034668 0.017467 -2517.160000 0 0 1
24.292993 -26.149122 21.937353 41.894791 -0.822179 1.019691 0.035782 0.012060 -71417.700000 0 0 1
23.841193 -27.497872 22.196953 42.629100 -0.856504 1.023126 0.037818 0.017185 246306.000000 0 0 1
22.699793 -27.431912 23.067053 42.424985 -0.879513 0.995940 0.037827 0.009471 508902.000000 0 0 1
22.094693 -28.823512 23.333153 43.167190 -0.916786 0.999730 0.071407 0.003218 -290174.000000 0 0 1
23.004993 -29.676052 23.977033 44.551048 -0.911359 1.002505 0.060863 -0.005526 196297.000000 0 0 1
22.891193 -30.979522 23.471893 45.107286 -0.934428 1.023527 0.072700 -0.009258 -261040.000000 0 0 1
23.911793 -31.931262 24.105413 46.609551 -0.928030 1.027246 0.049717 -0.007093 -370256.000000 0 0 1
23.707293 -32.187742 25.447463 47.388394 -0.935971 1.003922 0.050598 -0.008863 964412.000000 0 0 1
24.923193 -32.584152 26.127043 48.636559 -0.917835 1.003695 0.054628 -0.014209 247092.000000 0 0 1
24.655993 -32.838592 27.648273 49.504728 -0.926768 0.978223 0.052966 -0.025452 227989.000000 0 0 1
23.948393 -34.023922 27.934143 50.114560 -0.957478 0.979539 0.039574 -0.016605 262001.000000 0 0 1
22.599493 -34.119021 27.519963 49.317269 -0.985773 0.978800 0.049572 -0.014037 -63075.900000 0 0 1
21.823793 32.870839 28.116153 48.448819 0.984694 0.951666 0.078112 -0.029070 284344.000000 0 0 1
21.319093 33.051662 29.442263 49.130061 0.997928 0.928205 0.059398 -0.036664 194448.000000 0 0 1
20.965793 31.837206 30.064073 48.549157 0.988447 0.903009 0.071903 -0.039111 164152.000000 0 0 1
20.671793 32.048696 31.561273 49.503090 0.997936 0.879467 0.057467 -0.039966 232598.000000 0 0 1
21.886393 32.369955 32.218543 50.644473 0.976269 0.881271 0.047435 -0.031471 369374.000000 0 0 1
21.728393 32.806866 33.561158 51.718129 0.985814 0.864626 0.035942 -0.034128 -108130.000000 0 0 1
22.989693 32.530165 -33.843353 52.269590 0.955575 2.275065 0.009871 -0.031233 -203553.000000 0 0 1
23.223693 31.127296 -33.643043 51.381930 0.929804 2.284667 0.020044 -0.028089 487505.000000 0 0 1
24.458293 30.874706 -32.971973 51.367368 0.900843 2.267751 0.011946 -0.017227 369173.000000 0 0 1
24.695193 29.389606 -33.031603 50.642751 0.871978 2.281342 0.029071 -0.016317 -296236.000000 0 0 1
24.956593 28.850096 33.961288 51.073757 0.857633 0.843375 0.043134 -0.024910 38356.500000 0 0 1
24.411993 27.585956 33.846995 50.025488 0.846363 0.827668 0.056781 -0.033875 -259034.000000 0 0 1
24.709493 26.879996 32.487881 48.872852 0.827446 0.843647 0.085406 -0.040133 -732683.000000 0 0 1
25.977493 26.330326 32.423237 49.187219 0.792143 0.851068 0.073679 -0.038038 -504771.000000 0 0 1
26.135393 25.773706 31.135493 48.132750 0.778431 0.867327 0.102565 -0.054026 -503313.000000 0 0 1
27.428093 24.974006 31.032053 48.363101 0.738601 0.874152 0.088857 -0.036172 -534364.000000 0 0 1
27.392093 23.880356 31.946793 48.385904 0.717013 0.849645 0.114724 -0.041898 -258432.000000 0 0 1
28.477093 23.900836 32.813450 49.587471 0.698250 0.847674 0.115187 -0.047951 -1281130.000000 0 0 1
28.350393 23.171766 -34.066932 50.012312 0.685222 2.320157 0.096584 -0.046387 -930148.000000 0 0 1
27.627693 23.838986 -33.035473 49.223258 0.711916 2.306536 0.095883 -0.040095 1433350.000000 0 0 1
26.209993 24.036156 -33.225163 48.668387 0.742161 2.322227 0.104114 -0.043704 504488.000000 0 0 1
25.321993 22.835366 -33.501883 47.802023 0.733809 2.347380 0.092423 -0.047504 -1513770.000000 0 0 1
25.043793 22.015266 -32.361823 46.466666 0.721131 2.341238 0.071949 -0.052107 273918.000000 0 0 1
24.751693 20.719566 -32.643733 45.908169 0.696955 2.361809 0.076537 -0.040039 -324569.000000 0 0 1
24.818293 19.681666 -31.508743 44.677919 0.670477 2.353561 0.075644 -0.042729 224954.000000 0 0 1
23.778293 19.788166 -30.507893 43.447787 0.694066 2.349242 0.059149 -0.026899 683602.000000 0 0 1
23.920393 18.986566 -29.411643 42.399523 0.670912 2.337380 0.063647 -0.023351 415616.000000 0 0 1
22.595793 18.969466 -28.557343 41.060106 0.698374 2.339913 0.079988 -0.025382 638954.000000 0 0 1
22.578493 18.173066 -27.383343 39.873501 0.677712 2.327812 0.085347 -0.022348 81102.800000 0 0 1
23.143393 18.821466 -26.234013 39.725151 0.682771 2.292132 0.076272 -0.009573 25224.500000 0 0 1
22.999393 18.109966 -24.884593 38.421164 0.667017 2.275331 0.081023 -0.000355 205421.000000 0 0 1
23.734393 16.848966 -24.849493 38.271482 0.617337 2.277454 0.093489 -0.024506 568364.000000 0 0 1
23.541493 16.120966 -23.666693 37.070200 0.600444 2.263252 0.097302 -0.014568 -281587.000000 0 0 1
24.567693 14.993466 -23.482593 37.145763 0.547953 2.255152 0.119273 -0.029312 -45968.500000 0 0 1
25.872993 15.439166 -23.110393 37.971961 0.538011 2.225113 0.137273 -0.036778 339986.000000 0 0 1
26.790893 14.374366 -23.115293 38.192814 0.492450 2.220846 0.138035 -0.042416 -113386.000000 0 0 1
26.766593 13.439166 -21.835093 37.065252 0.465316 2.200739 0.119442 -0.035531 -745576.000000 0 0 1
25.674993 12.566966 -21.903393 36.012393 0.455183 2.224610 0.110199 -0.026504 -270720.000000 0 0 1
25.278393 12.129766 -20.583193 34.782124 0.447396 2.204055 0.091015 -0.036542 546020.000000 0 0 1
23.759393 11.752566 -20.694793 33.628946 0.459358 2.233672 0.082676 -0.032789 571081.000000 0 0 1
22.929493 12.901866 -20.595793 33.412669 0.512523 2.234967 0.107011 -0.031361 -78118.200000 0 0 1
21.640393 12.582266 -21.076993 32.723991 0.526649 2.270621 0.088944 -0.033726 394433.000000 0 0 1
20.543493 13.696366 -20.921393 32.362481 0.588026 2.273746 0.094148 -0.031850 -158898.000000 0 0 1
20.812093 14.791066 -21.783393 33.562405 0.617868 2.277120 0.072996 -0.019090 454290.000000 0 0 1
19.828793 15.826366 -21.819793 33.462788 0.673612 2.281097 0.061648 -0.013406 143135.000000 0 0 1
18.563593 15.566066 -22.651593 33.166308 0.697795 2.322617 0.045007 -0.002937 -307410.000000 0 0 1
17.754093 14.512566 -22.155893 31.885827 0.685274 2.339009 0.049744 -0.006633 220219.000000 0 0 1
16.558593 14.503466 -22.941093 31.793572 0.719332 2.376855 0.062061 -0.027336 607286.000000 0 0 1
15.384093 13.782866 -22.175993 30.305319 0.730555 2.391686 0.032832 -0.024988 207373.000000 0 0 1
14.213493 13.953566 -22.928493 30.371716 0.776170 2.426342 0.039850 -0.021468 -153709.000000 0 0 1
13.063293 13.366066 -22.305193 29.100222 0.796854 2.444163 0.056471 -0.023933 936198.000000 0 0 1
11.729693 13.649066 -23.066093 29.256235 0.860884 2.479027 0.061450 -0.022824 116098.000000 0 0 1
11.490993 15.019166 -23.242593 29.963918 0.917708 2.458598 0.043784 -0.019011 79347.000000 0 0 1
11.286493 15.358466 -24.619793 31.135214 0.937048 2.482810 0.046683 -0.019506 -571144.000000 0 0 1
11.120293 16.853266 -24.755093 31.945392 0.987542 2.457383 0.045109 -0.019767 209222.000000 0 0 1
12.323593 17.599866 -24.642993 32.694086 0.959930 2.424538 0.055226 -0.020785 45912.900000 0 0 1
13.343593 17.444366 -25.616373 33.742494 0.917813 2.432837 0.053762 -0.032124 -331061.000000 0 0 1
13.069493 17.670566 -27.134203 34.918841 0.933972 2.460785 0.064507 -0.039621 -750624.000000 0 0 1
14.192593 17.482866 -27.931633 35.878355 0.888901 2.463083 0.060765 -0.034302 -195432.000000 0 0 1
13.712793 17.096766 -29.224443 36.529551 0.894795 2.498128 0.066119 -0.033492 520334.000000 0 0 1
14.799893 17.345666 -30.326623 37.942232 0.864428 2.496899 0.067201 -0.037041 220734.000000 0 0 1
15.952093 16.571166 -30.249923 38.001718 0.804431 2.491478 0.051905 -0.031531 -634101.000000 0 0 1
16.843893 16.969766 -31.269103 39.363008 0.789121 2.488779 0.054402 -0.027787 10861.900000 0 0 1
18.062593 16.024066 -31.372413 39.588587 0.725665 2.485630 0.054828 -0.023483 -108713.000000 0 0 1
19.035593 16.216966 -30.316303 39.299134 0.705613 2.451873 0.060342 -0.026571 142783.000000 0 0 1
20.177293 15.446966 -30.565513 39.748993 0.653387 2.448014 0.057905 -0.022526 37917.500000 0 0 1
21.297493 16.213766 -31.338813 41.213961 0.650694 2.434715 0.057017 -0.027770 -519550.000000 0 0 1
21.125393 16.560666 -32.711353 42.315133 0.664860 2.454418 0.047399 -0.024808 150814.000000 0 0 1
22.224893 17.323466 -33.181133 43.532010 0.662092 2.437538 0.056352 -0.025783 144035.000000 0 0 1
22.084393 17.903266 33.626680 44.034089 0.681216 0.701847 0.054333 -0.012377 -190150.000000 0 0 1
23.341693 18.412566 33.257785 44.608715 0.667891 0.729445 0.068143 -0.020513 287730.000000 0 0 1
23.225193 18.994066 31.989453 43.857830 0.685514 0.753367 0.086322 -0.017604 319190.000000 0 0 1
24.388893 19.995366 31.662623 44.689534 0.686731 0.783423 0.096970 -0.025969 1147370.000000 0 0 1
25.755393 19.613766 31.628153 45.259034 0.650846 0.797043 0.078189 -0.026131 941749.000000 0 0 1
26.653693 20.702466 31.354713 46.066576 0.660384 0.822162 0.081401 -0.035539 1914350.000000 0 0 1
28.201393 20.343466 31.276213 46.769399 0.624921 0.838294 0.097720 -0.034214 1319830.000000 0 0 1
28.752393 19.881666 32.478037 47.715863 0.604984 0.822140 0.082045 -0.033945 317473.000000 0 0 1
30.150093 19.643566 32.410620 48.428773 0.577447 0.837607 0.061710 -0.026624 408937.000000 0 0 1
30.845393 19.016066 33.648809 49.449887 0.552461 0.822402 0.051225 -0.020164 -56192.800000 0 0 1
30.891893 19.776366 -33.381503 49.595750 0.569441 2.309151 0.043882 -0.029098 1258330.000000 0 0 1
29.655593 19.705966 -32.612913 48.284380 0.586497 2.312349 0.064139 -0.038785 1150240.000000 0 0 1
30.010293 20.070566 -31.120893 47.665031 0.589471 2.282214 0.058186 -0.035442 -133996.000000 0 0 1
30.888593 19.116366 -30.580673 47.483872 0.554187 2.270541 0.040945 -0.030429 -224367.000000 0 0 1
31.436893 19.633766 -29.363543 47.286157 0.558272 2.240783 0.028045 -0.025865 -122552.000000 0 0 1
32.845593 19.047066 -29.209933 47.904528 0.525507 2.226545 0.031659 -0.014157 -73894.400000 0 0 1
33.901793 19.590166 -29.956503 49.300083 0.523974 2.223877 -0.003225 -0.011368 323733.000000 0 0 1
35.140593 19.589466 -29.254993 49.743975 0.508552 2.199518 -0.002507 0.000247 901511.000000 0 0 1
36.338393 20.351466 -29.902073 51.271775 0.510529 2.193468 -0.005198 0.005641 856784.000000 0 0 1
-36.303836 19.635366 -30.943453 51.585011 -0.495800 2.214114 -0.008488 0.001218 273682.000000 0 0 1
-35.257336 20.393566 -31.507203 51.494476 -0.524401 2.229201 -0.000560 -0.002588 -179318.000000 0 0 1
-34.549736 19.738666 -32.726363 51.520035 -0.519058 2.259085 0.000535 -0.001385 2955.700000 0 0 1
-33.674036 18.690366 -32.330223 50.284329 -0.506703 2.269138 0.025987 0.004697 320792.000000 0 0 1
-33.005536 18.124666 -33.440723 50.360211 -0.502183 2.296993 0.034950 -0.002939 -455005.000000 0 0 1
-32.230236 16.824766 -33.196033 49.232483 -0.481107 2.310773 0.028612 0.005919 -445732.000000 0 0 1
-33.024636 15.722166 -32.986603 49.253721 -0.444324 2.304639 0.031334 0.008873 -335498.000000 0 0 1
-32.361836 14.548066 -33.332583 48.682602 -0.422475 2.324977 0.028336 0.017327 -216365.000000 0 0 1
-33.392936 13.439166 -33.377683 49.089398 -0.382621 2.318473 0.038042 0.009042 3098.920000 0 0 1
-32.792436 12.194666 -33.727283 48.596124 -0.356028 2.337871 0.059997 -0.003909 109706.000000 0 0 1
-33.763936 11.212666 -33.764173 49.048411 -0.320631 2.330056 0.066038 -0.009493 -212656.000000 0 0 1
-33.034336 9.865266 -33.695293 48.207505 -0.290206 2.344744 0.074150 -0.009916 327916.000000 0 0 1
-32.083536 9.642766 33.518160 47.389907 -0.291963 0.785146 0.050764 -0.016657 88457.800000 0 0 1
-32.429436 8.557466 32.713163 46.851356 -0.257999 0.797870 0.083512 -0.035854 -1098320.000000 0 0 1
-31.253136 7.991666 32.019863 45.452138 -0.250343 0.789114 0.096061 -0.027865 -1000530.000000 0 0 1
-30.311636 7.359066 32.853477 45.302341 -0.238172 0.759464 0.077081 -0.010989 -202700.000000 0 0 1
-29.264736 6.853166 32.054023 43.941450 -0.230033 0.753248 0.078517 -0.015295 -122510.000000 0 0 1
21.045193 -4.880332 -31.173893 37.927949 -0.227870 2.535577 0.022212 -0.030425 785369.000000 0 0 1
22.256893 -4.859332 -31.986123 39.269510 -0.214956 2.522712 0.025640 -0.026966 1154560.000000 0 0 1
23.171093 -3.808632 -31.708873 39.457038 -0.162913 2.504167 0.026051 -0.021563 -127865.000000 0 0 1
22.805693 -2.386632 -32.153273 39.492133 -0.104271 2.522093 0.024814 -0.025073 -901557.000000 0 0 1
23.592693 -1.369132 -31.619553 39.475129 -0.057967 2.499759 0.026185 -0.020734 -52482.300000 0 0 1
23.461093 -0.147932 -32.301193 39.922573 -0.006305 2.513408 0.026691 -0.022298 -418706.000000 0 0 1
24.315793 1.025268 -31.820663 40.060748 0.042140 2.488668 0.039150 -0.020713 -454234.000000 0 0 1
25.683993 0.865968 -32.097583 41.117784 0.033703 2.466462 0.047255 -0.021590 -407290.000000 0 0 1
26.475193 1.718168 -31.282213 41.017859 0.064806 2.438194 0.049504 -0.018118 1345960.000000 0 0 1
28.016993 1.837768 -31.635113 42.297868 0.065501 2.415708 0.055572 -0.022354 1248250.000000 0 0 1
28.348393 2.255568 -32.955913 43.529428 0.079399 2.429651 0.068916 -0.026700 -115212.000000 0 0 1
28.642393 1.094168 -33.755223 44.283167 0.038182 2.437592 0.064275 -0.023554 -557639.000000 0 0 1
29.459993 1.504668 33.278254 44.470185 0.051031 0.725260 0.061241 -0.035331 -591642.000000 0 0 1
28.876393 2.288468 32.279464 43.371038 0.079085 0.731365 0.052977 -0.028261 -153157.000000 0 0 1
28.889493 3.641968 32.565197 43.684766 0.125404 0.729573 0.050869 -0.025431 -12688.500000 0 0 1
28.179793 4.664368 31.646993 42.630848 0.164034 0.734226 0.054297 -0.023449 -1429.550000 0 0 1
28.618193 5.988068 31.896183 43.269209 0.206264 0.741944 0.060829 -0.021136 110085.000000 0 0 1
28.022393 6.862768 30.943523 42.306663 0.240176 0.750409 0.052743 -0.016880 -69527.300000 0 0 1
28.362193 8.326768 31.208293 42.984958 0.285563 0.758268 0.045018 -0.010784 -49446.600000 0 0 1
29.633193 8.709768 30.741523 43.577832 0.285869 0.787753 0.036642 -0.012922 -451810.000000 0 0 1
29.838893 10.060268 31.032063 44.210377 0.325184 0.792709 0.041505 -0.012060 -583479.000000 0 0 1
31.128693 10.669868 30.507263 44.872427 0.330216 0.823216 0.051431 -0.000401 -1280740.000000 0 0 1
32.217293 10.187168 31.227443 46.009625 0.306254 0.824784 0.065583 -0.006742 1346510.000000 0 0 1
33.536493 10.384568 30.596893 46.569362 0.300286 0.853940 0.077297 -0.008315 1762640.000000 0 0 1
34.080993 11.820168 30.794593 47.429289 0.333844 0.864167 0.080103 -0.007090 -885877.000000 0 0 1
34.407493 12.054968 32.184763 48.631850 0.336994 0.847573 0.074690 -0.012249 246998.000000 0 0 1
34.777393 13.430368 32.397628 49.390770 0.368537 0.855362 0.070336 -0.005410 -244423.000000 0 0 1
33.649493 14.455068 32.337896 48.856698 0.405742 0.847455 0.065188 -0.005755 -1070680.000000 0 0 1
33.207293 14.904368 31.074713 47.859192 0.421879 0.864140 0.061885 -0.009107 158869.000000 0 0 1
32.112593 15.780568 31.142413 47.435165 0.456755 0.854593 0.057052 -0.018545 63544.300000 0 0 1
30.724693 15.183668 31.449733 46.514904 0.458984 0.828310 0.058114 -0.009623 -497518.000000 0 0 1
30.087493 14.350368 30.460033 45.155331 0.445042 0.830426 0.059233 -0.002450 826281.000000 0 0 1
28.690393 14.273168 30.763953 44.421648 0.461637 0.805786 0.047637 -0.003738 711948.000000 0 0 1
27.801293 13.799468 29.588053 42.881116 0.460732 0.809305 0.036949 0.002057 -6671.060000 0 0 1
28.200793 12.558668 29.061583 42.397883 0.418964 0.815576 0.037493 0.000174 76746.400000 0 0 1
27.505193 12.268468 27.867383 41.032207 0.419557 0.824180 0.032246 -0.008102 -114042.000000 0 0 1
27.184293 10.804868 27.495343 40.146293 0.378321 0.816359 0.027384 0.002588 -187871.000000 0 0 1
28.240893 9.919068 27.211823 40.452679 0.337771 0.832968 0.037065 -0.009638 -270882.000000 0 0 1
27.756993 8.631668 27.050833 39.707731 0.301493 0.821330 0.032877 -0.014685 172132.000000 0 0 1
28.832993 7.656968 26.506453 39.906925 0.259571 0.844364 0.058659 -0.025964 188660.000000 0 0 1
29.286193 7.959068 25.192263 39.442084 0.265360 0.877969 0.057053 -0.023179 -97375.400000 0 0 1
30.304593 7.061668 24.832453 39.810630 0.228938 0.897247 0.057325 -0.021406 -186418.000000 0 0 1
30.794893 7.406768 23.406513 39.383378 0.236036 0.934371 0.074376 -0.019926 -44015.100000 0 0 1
31.586793 8.585368 23.187753 40.113663 0.265391 0.954458 0.099113 -0.027165 227915.000000 0 0 1
30.943893 9.792968 22.809953 39.670149 0.306502 0.958204 0.100084 -0.029128 -373101.000000 0 0 1
30.380893 9.844368 21.353753 38.417353 0.313356 0.981428 0.082666 -0.016610 720204.000000 0 0 1
31.326293 10.459068 20.429353 38.834098 0.322238 1.016827 0.109832 -0.023857 748326.000000 0 0 1
31.039893 10.153268 19.089753 37.828329 0.316134 1.041829 0.085494 -0.030012 211597.000000 0 0 1
32.107393 10.794568 18.081853 38.397406 0.324330 1.080470 0.122981 -0.059439 1235090.000000 0 0 1
33.428393 10.299568 18.012453 39.344466 0.298879 1.095261 0.141326 -0.052182 341703.000000 0 0 1
34.258793 10.303768 19.171853 40.588083 0.292156 1.078839 0.157473 -0.046891 -195641.000000 0 0 1
35.659993 9.756568 18.779053 41.466596 0.267064 1.100813 0.171463 -0.050766 -81154.700000 0 0 1
35.654393 8.379768 18.498353 41.032247 0.230838 1.103107 0.151247 -0.037896 -53259.100000 0 0 1
-36.636336 7.955368 17.702453 41.459448 -0.213825 1.129643 0.160462 -0.038571 -816064.000000 0 0 1
36.569693 6.420868 17.459053 41.029118 0.173807 1.131251 0.152173 -0.045084 141731.000000 0 0 1
35.383393 6.013668 16.771853 39.616206 0.168349 1.133647 0.118327 -0.040151 692618.000000 0 0 1
35.601293 4.848168 16.004353 39.333143 0.135347 1.151747 0.118363 -0.041132 406483.000000 0 0 1
34.332693 3.919368 15.996053 38.078458 0.113666 1.137261 0.082396 -0.028264 472809.000000 0 0 1
34.146593 3.229568 17.265553 38.399469 0.094299 1.104445 0.088996 -0.016088 -354116.000000 0 0 1
32.946093 2.525868 17.291753 37.293830 0.076517 1.088672 0.064287 -0.006912 -421690.000000 0 0 1
32.774193 1.693568 18.550753 37.698095 0.051628 1.056311 0.049522 -0.012345 31370.100000 0 0 1
33.633493 0.587368 18.619853 38.448092 0.017462 1.065250 0.055560 -0.014670 -199196.000000 0 0 1
33.315493 -0.154632 19.783053 38.746808 -0.004641 1.034946 0.047425 -0.005024 146512.000000 0 0 1
33.929393 -1.549032 19.852653 39.341213 -0.045623 1.041846 0.054802 -0.000155 -42239.800000 0 0 1
33.455893 -2.296832 20.932453 39.531504 -0.068545 1.012770 0.052095 0.008299 -112409.000000 0 0 1
33.879893 -3.666932 20.955153 40.005149 -0.107814 1.019477 0.047176 0.002017 -143210.000000 0 0 1
33.498893 -4.389432 22.237153 40.446680 -0.130290 0.988684 0.044252 0.007275 -44231.700000 0 0 1
34.231493 -3.998132 23.373293 41.642418 -0.116270 0.974858 0.056074 -0.005186 6386.690000 0 0 1
33.567693 -4.483632 24.508123 41.803601 -0.132784 0.944352 0.057909 -0.008871 -23023.500000 0 0 1
34.165893 -4.156532 25.912463 43.081791 -0.121062 0.925455 0.057896 -0.013433 124721.000000 0 0 1
33.300693 -4.420732 27.000023 43.098495 -0.131980 0.893777 0.062743 -0.011800 141744.000000 0 0 1
33.881093 -3.929532 28.200423 44.256452 -0.115464 0.879930 0.063229 -0.011678 126281.000000 0 0 1
33.029493 -4.280332 29.438643 44.451123 -0.128873 0.846952 0.071503 -0.016381 177937.000000 0 0 1
32.982993 -5.676132 29.591733 44.674008 -0.170423 0.846788 0.076792 -0.026698 248393.000000 0 0 1
31.979793 -6.099232 30.509163 44.617450 -0.188458 0.817846 0.078144 -0.033229 -4717.090000 0 0 1
32.056693 -7.612732 30.840983 45.130383 -0.233158 0.818421 0.078194 -0.030510 -78768.700000 0 0 1
33.189193 -7.824032 31.640123 46.517044 -0.231513 0.822783 0.077568 -0.031760 -563438.000000 0 0 1
33.973693 -8.859132 31.133113 46.925119 -0.255084 0.845358 0.077384 -0.031485 26381.200000 0 0 1
35.271993 -9.049932 31.967923 48.455783 -0.251158 0.850332 0.088580 -0.032429 162229.000000 0 0 1
35.159793 -9.574332 33.268345 49.342290 -0.265863 0.830867 0.069442 -0.028777 -578702.000000 0 0 1
36.413793 -9.691932 33.867062 50.664344 -0.260130 0.838661 0.045455 -0.019947 -599071.000000 0 0 1
36.417793 -10.114532 -32.884143 50.099164 -0.270908 2.286808 0.051462 -0.021315 -388654.000000 0 0 1
35.918293 -9.208732 -31.897983 48.912225 -0.250974 2.281210 0.038512 -0.018729 237241.000000 0 0 1
36.510593 -7.926732 -31.806203 49.066190 -0.213790 2.276055 0.050234 -0.013192 192206.000000 0 0 1
35.662593 -6.891132 -30.950593 47.720513 -0.190879 2.276514 0.060745 -0.015503 82109.000000 0 0 1
35.829893 -7.051532 -29.552613 46.977252 -0.194322 2.251170 0.045708 -0.006687 254411.000000 0 0 1
35.105993 -6.091832 -28.773773 45.798156 -0.171816 2.250128 0.056890 -0.011712 -19636.800000 0 0 1
35.677593 -5.922732 -27.333653 45.333188 -0.164507 2.217990 0.058183 -0.007733 -379942.000000 0 0 1
-36.380436 -5.392132 -27.399803 45.862407 0.147144 2.211095 0.061346 -0.008892 -464253.000000 0 0 1
-35.887236 -5.096432 -26.093453 44.662463 0.141069 2.194736 0.067426 -0.009590 -772843.000000 0 0 1
-34.490736 -4.568232 -25.950233 43.403850 0.131682 2.211648 0.076690 -0.009473 -1523170.000000 0 0 1
-34.206636 -4.241432 -24.585293 42.338166 0.123365 2.190371 0.090205 -0.020963 567012.000000 0 0 1
-32.894236 -4.365432 -24.029193 40.969377 0.131940 2.197547 0.100423 -0.020872 431277.000000 0 0 1
-31.782236 -3.495932 -24.610193 40.348403 0.109556 2.226784 0.101395 -0.018516 -584438.000000 0 0 1
-31.418136 -3.811232 -25.952473 40.928665 0.120717 2.257628 0.093938 -0.013916 -71033.000000 0 0 1
-30.219036 -3.176432 -26.331143 40.207075 0.104729 2.284831 0.099238 -0.020965 -20261.400000 0 0 1
-29.757836 -3.675232 -27.711933 40.828756 0.122882 2.316836 0.098021 -0.015699 220695.000000 0 0 1
-30.675836 -3.434332 -28.783173 42.205125 0.111491 2.321267 0.109756 -0.012478 188859.000000 0 0 1
-30.317136 -4.222732 -29.911273 42.797715 0.138395 2.344653 0.090396 -0.014205 -427088.000000 0 0 1
-31.431936 -4.519332 -30.972583 44.358672 0.142803 2.343719 0.069161 -0.009142 329302.000000 0 0 1
-32.500036 -5.369032 -30.548793 44.925578 0.163722 2.318541 0.069468 -0.007389 722867.000000 0 0 1
-33.502236 -4.870232 -29.677853 45.021038 0.144359 2.290550 0.083527 -0.012897 156496.000000 0 0 1
-34.664936 -4.073132 -30.344323 46.249606 0.116964 2.286434 0.120233 -0.019396 -204401.000000 0 0 1
-34.237536 -2.837332 -30.955413 46.243885 0.082683 2.304190 0.135167 -0.025482 157325.000000 0 0 1
-33.832036 -1.838932 -29.992143 45.249497 0.054301 2.295371 0.140611 -0.019277 -5291.520000 0 0 1
-33.214036 -0.525832 -30.550603 45.130788 0.015830 2.314387 0.135369 -0.023505 298377.000000 0 0 1
-34.156436 0.316068 -31.216813 46.273658 -0.009253 2.311237 0.155552 -0.021464 307412.000000 0 0 1
-33.577936 1.395668 -31.897883 46.334658 -0.041541 2.330110 0.152115 -0.020804 -447761.000000 0 0 1
-34.727436 2.253468 -32.338083 47.506047 -0.064799 2.319535 0.131304 -0.022995 -64478.900000 0 0 1
-35.497836 1.702968 -33.415013 48.780729 -0.047937 2.325406 0.128429 -0.030939 -108924.000000 0 0 1
36.541593 2.201068 -33.427553 49.573521 0.060162 2.310816 0.111498 -0.030787 -255188.000000 0 0 1
35.629993 1.510568 33.768984 49.113364 0.042371 0.812656 0.085949 -0.034985 -272510.000000 0 0 1
35.765093 1.817068 32.393057 48.288236 0.050762 0.835473 0.083348 -0.026801 -125235.000000 0 0 1
-36.460736 1.241068 31.791463 48.390316 -0.034025 0.853991 0.082442 -0.019957 -493725.000000 0 0 1
-36.370136 1.387968 30.234443 47.316327 -0.038144 0.877618 0.081347 -0.019803 -157821.000000 0 0 1
-35.944536 2.644968 29.755343 46.737415 -0.073452 0.880651 0.089889 -0.022866 35068.700000 0 0 1
-35.354136 2.645168 28.506723 45.492253 -0.074680 0.893577 0.064412 -0.006047 -252270.000000 0 0 1
-34.830836 4.033568 28.170303 44.978026 -0.115291 0.893982 0.056650 -0.001865 -301623.000000 0 0 1
-34.203436 4.037768 26.871433 43.683550 -0.117508 0.908235 0.069358 0.002722 378262.000000 0 0 1
-33.696436 5.310368 26.517363 43.206717 -0.156309 0.910017 0.069505 -0.002731 -137393.000000 0 0 1
-33.000136 5.539768 25.150293 41.859709 -0.166320 0.926266 0.072112 -0.008761 335629.000000 0 0 1
-31.841536 4.724268 24.996673 40.755807 -0.147294 0.910529 0.053687 0.000403 621094.000000 0 0 1
-31.036136 4.961968 23.816803 39.434794 -0.158535 0.922343 0.056353 -0.004220 461549.000000 0 0 1
-31.643236 4.653268 22.419753 39.058835 -0.146008 0.959414 0.074695 -0.017598 -118698.000000 0 0 1
-31.812136 3.268468 22.302653 38.988501 -0.102384 0.961816 0.077489 -0.009912 -186158.000000 0 0 1
-32.408336 2.926568 21.049953 38.755201 -0.090059 0.996610 0.116163 -0.023024 27042.200000 0 0 1
-32.289136 1.414568 20.628953 38.342444 -0.043781 1.002711 0.117135 -0.026800 205218.000000 0 0 1
-30.987036 1.053868 20.191653 37.000134 -0.033997 0.993550 0.134477 -0.028474 59725.800000 0 0 1
-30.769036 1.428668 18.828153 36.100887 -0.046399 1.022138 0.144406 -0.033348 -190886.000000 0 0 1
-29.296836 1.232268 18.418753 34.627641 -0.042037 1.009943 0.146147 -0.037816 -437743.000000 0 0 1
-28.831236 -0.097332 18.514053 34.263972 0.003376 0.999960 0.170140 -0.037800 1090340.000000 0 0 1
-27.466936 -0.313532 18.075253 32.882300 0.011414 0.988797 0.171141 -0.038007 964026.000000 0 0 1
-27.224536 -0.311132 16.556053 31.864950 0.011428 1.024449 0.197762 -0.030408 -822272.000000 0 0 1
-27.398036 0.942268 16.008353 31.745986 -0.034378 1.042267 0.183211 -0.035082 189811.000000 0 0 1
-27.576636 0.782268 14.622153 31.223231 -0.028359 1.083419 0.169641 -0.022374 -120747.000000 0 0 1
-27.178336 2.029168 13.806753 30.551692 -0.074523 1.101886 0.163272 -0.024918 407333.000000 0 0 1
-25.773236 2.121168 13.579553 29.208959 -0.082116 1.087263 0.136164 -0.034178 658885.000000 0 0 1
-25.397536 3.334968 12.920253 28.689541 -0.130564 1.103642 0.123872 -0.029269 1224190.000000 0 0 1
-23.840936 3.516868 12.678653 27.230623 -0.146458 1.086481 0.097036 -0.028702 1202840.000000 0 0 1
-23.120436 3.985168 13.818553 27.228451 -0.170688 1.038511 0.052875 -0.020391 175984.000000 0 0 1
-21.765336 4.186268 13.462653 25.932561 -0.190016 1.024951 0.066561 -0.026105 694.029000 0 0 1
-20.985836 4.765668 14.671553 26.045564 -0.223303 0.972418 0.043528 -0.022494 -206690.000000 0 0 1
-21.334836 6.125368 14.975353 26.776045 -0.279586 0.977277 0.044981 -0.020091 389177.000000 0 0 1
-20.872036 6.423368 16.288053 27.243389 -0.298552 0.929953 0.034780 -0.012668 -171244.000000 0 0 1
-21.055936 7.920968 16.608253 27.962980 -0.359811 0.934852 0.048978 -0.012888 -493681.000000 0 0 1
-20.259736 8.737168 15.822353 27.150357 -0.407159 0.948666 0.052620 -0.018327 179224.000000 0 0 1
-20.692736 10.114468 15.781053 27.920126 -0.454642 0.970095 0.053889 -0.010786 -75641.200000 0 0 1
-20.217536 11.052668 16.884253 28.565508 -0.500296 0.938410 0.074674 -0.009870 -332239.000000 0 0 1
-20.762336 10.623868 18.116353 29.532075 -0.472955 0.910379 0.080077 -0.014424 265796.000000 0 0 1
-20.056836 11.037068 19.255753 29.914504 -0.503066 0.871482 0.075502 -0.002196 -395123.000000 0 0 1
-12.381007 -33.542129 -20.154093 41.043285 1.217192 2.084085 0.091336 -0.040084 841484.000000 0 0 1
-13.589907 -33.883129 -19.450693 41.365220 1.189358 2.060335 0.112658 -0.035709 714799.000000 0 0 1
-14.663707 -32.970429 -19.683893 41.103882 1.152314 2.070177 0.091061 -0.057041 -546064.000000 0 0 1
-15.884907 -33.496029 -18.986393 41.650899 1.127974 2.044119 0.080371 -0.040048 -2032940.000000 0 0 1
-16.298607 33.558568 -19.587393 42.136540 -1.118673 2.054267 0.070973 -0.042627 -256369.000000 0 0 1
-17.059107 32.725368 -18.771893 41.404671 -1.090269 2.041346 0.071875 -0.040026 359880.000000 0 0 1
-18.482507 33.176768 -18.303193 42.158129 -1.062525 2.019897 0.075267 -0.042214 -443905.000000 0 0 1
-18.538107 -34.004429 -17.376193 42.448730 1.071671 1.992533 0.071370 -0.040131 -262018.000000 0 0 1
-19.855307 -33.835329 -16.897993 42.715394 1.040123 1.977512 0.043263 -0.035281 -61796.600000 0 0 1
-20.039907 33.705368 -15.498093 42.164447 -1.034385 1.947184 0.047462 -0.030584 -581371.000000 0 0 1
-19.899807 32.285768 -15.441993 40.949094 -1.018431 1.957462 0.052716 -0.035521 30051.000000 0 0 1
-20.225707 31.769468 -14.213993 40.254390 -1.003871 1.931683 0.058126 -0.028007 -128959.000000 0 0 1
-20.453507 30.222268 -14.185693 39.153101 -0.975832 1.941545 0.059046 -0.026447 -256235.000000 0 0 1
-19.381607 29.451468 -13.736793 37.838276 -0.988758 1.942324 0.076462 -0.030218 -446952.000000 0 0 1
-19.622307 28.103068 -14.043293 37.040943 -0.961262 1.959651 0.083803 -0.030971 -366457.000000 0 0 1
-18.448507 27.287068 -13.513393 35.602574 -0.976298 1.960119 0.080665 -0.026971 -406760.000000 0 0 1
-17.263007 27.850968 -14.002093 35.633502 -1.015920 1.974631 0.103344 -0.028392 -1102050.000000 0 0 1
-16.128407 27.153068 -13.603593 34.387096 -1.034814 1.977519 0.109399 -0.035301 417545.000000 0 0 1
-14.801107 27.542568 -14.339493 34.398937 -1.077686 2.000783 0.095776 -0.038440 524796.000000 0 0 1
-14.837907 27.491768 -15.754593 34.988112 -1.075878 2.037880 0.083296 -0.032476 -967551.000000 0 0 1
-13.614107 27.879068 -16.284293 35.039471 -1.116530 2.054139 0.099102 -0.031733 -585892.000000 0 0 1
-13.659507 27.890568 -17.861893 35.826152 -1.115379 2.092746 0.113862 -0.042020 -139774.000000 0 0 1
-13.390307 26.598768 -18.436793 35.024422 -1.104418 2.125155 0.087246 -0.032363 157242.000000 0 0 1
-13.532407 26.647468 -19.850893 35.878567 -1.100904 2.157093 0.077335 -0.036795 -149219.000000 0 0 1
-12.814007 25.500768 -20.647693 35.225206 -1.105155 2.197110 0.051107 -0.025436 84746.400000 0 0 1
-11.466407 25.878068 -20.824593 35.139957 -1.153701 2.205102 0.037742 -0.020811 -521479.000000 0 0 1
-10.691807 24.915368 -21.442493 34.566903 -1.165437 2.239945 0.059207 -0.021241 464025.000000 0 0 1
-9.502307 25.515168 -22.262993 35.170421 -1.214291 2.256223 0.069709 -0.020838 609927.000000 0 0 1
-10.048007 26.114068 -23.433493 36.497063 -1.203485 2.267985 0.067582 -0.018405 256077.000000 0 0 1
-9.028307 26.341368 -24.376893 37.008254 -1.240602 2.289870 0.055525 -0.022442 -513868.000000 0 0 1
-9.381907 27.175768 -25.565893 38.472814 -1.238377 2.297645 0.060323 -0.022666 -580518.000000 0 0 1
-10.322107 26.503968 -26.346523 38.770420 -1.199413 2.317948 0.054752 -0.017502 -335173.000000 0 0 1
-10.654207 27.196068 -27.555993 40.155585 -1.197417 2.327091 0.076756 -0.017136 166581.000000 0 0 1
-12.003507 26.698268 -28.135583 40.601634 -1.148276 2.336392 0.057491 -0.009708 -74264.700000 0 0 1
-12.309507 27.283068 -29.338183 41.912036 -1.146964 2.346186 0.064676 -0.007185 -454661.000000 0 0 1
-13.579907 26.984568 -29.837533 42.460089 -1.104554 2.350009 0.043166 0.005082 -764493.000000 0 0 1
-13.724407 27.129868 -31.388683 43.699411 -1.102457 2.372132 0.036211 0.001638 43886.400000 0 0 1
-12.816907 26.499768 -32.308013 43.707191 -1.120305 2.402666 0.051156 -0.000915 415047.000000 0 0 1
-12.841207 25.088268 -32.176453 42.774314 -1.097721 2.422248 0.040811 -0.002502 -396887.000000 0 0 1
-11.940107 24.565468 -33.261243 43.038804 -1.118369 2.454069 0.024618 0.001461 -375732.000000 0 0 1
-12.500207 24.575268 33.672425 43.520469 -1.100253 0.686113 0.020869 0.009869 -87802.600000 0 0 1
-11.912807 23.656768 32.779056 42.142902 -1.104298 0.679627 0.019430 0.002913 -302365.000000 0 0 1
-12.498407 23.675068 31.344013 41.220944 -1.085067 0.706882 0.024724 0.014445 -1244230.000000 0 0 1
-13.714507 23.058268 31.204913 41.152376 -1.034227 0.710130 0.048058 -0.004063 -1124160.000000 0 0 1
-14.098407 23.083068 29.882733 40.305966 -1.022497 0.735646 0.052573 -0.001265 676704.000000 0 0 1
-15.517007 22.433368 29.708013 40.331124 -0.965667 0.742763 0.043397 -0.010033 743569.000000 0 0 1
-15.318107 21.082468 29.906973 39.667896 -0.942453 0.716766 0.048044 -0.013850 -450081.000000 0 0 1
-16.501907 20.363368 29.966873 39.811973 -0.889763 0.718627 0.045853 -0.022263 -530389.000000 0 0 1
-16.231207 18.882068 30.165513 39.114483 -0.860750 0.690055 0.048581 -0.026284 -97887.300000 0 0 1
-15.632607 18.329868 29.033813 37.726977 -0.864651 0.692618 0.047308 -0.033621 25752.500000 0 0 1
-15.427507 16.903768 29.290803 37.171179 -0.831027 0.663246 0.047483 -0.039675 -151965.000000 0 0 1
-15.066407 16.157168 28.055693 35.709560 -0.820318 0.667029 0.047842 -0.034710 387091.000000 0 0 1
-13.865807 16.635468 27.449793 34.964133 -0.875955 0.667964 0.048660 -0.037294 329104.000000 0 0 1
-13.386807 15.695468 26.477063 33.564702 -0.864616 0.661883 0.039957 -0.028612 124733.000000 0 0 1
-12.281207 16.318768 25.575973 32.730119 -0.925645 0.673858 0.037492 -0.027511 23756.100000 0 0 1
-12.653407 17.284768 24.588703 32.610984 -0.938879 0.716665 0.033797 -0.024017 -252352.000000 0 0 1
-13.088207 18.587968 25.018753 33.804611 -0.957309 0.737579 0.026160 -0.023631 391991.000000 0 0 1
-12.029307 19.586668 25.657343 34.447657 -1.020032 0.730530 0.018586 -0.023424 576856.000000 0 0 1
-11.617207 19.327268 26.991073 35.171307 -1.029584 0.695993 0.034000 -0.029393 167221.000000 0 0 1
-12.595807 19.761868 27.914103 36.446988 -1.003344 0.698384 0.046865 -0.022366 -27379.500000 0 0 1
-12.252207 19.286268 29.328283 37.178286 -1.004838 0.661852 0.045544 -0.018573 617387.000000 0 0 1
-11.027007 19.921568 29.723673 37.442763 -1.065254 0.653694 0.026568 -0.020724 426165.000000 0 0 1
-10.876207 19.681368 31.071243 38.354534 -1.065948 0.626463 0.024436 -0.021746 90158.200000 0 0 1
-9.707207 20.528768 31.672563 38.971932 -1.129097 0.622022 0.012508 -0.021854 1074600.000000 0 0 1
-8.439107 19.831768 31.532683 38.194603 -1.168473 0.599568 0.026413 -0.026322 920224.000000 0 0 1
-7.466307 20.661968 32.157143 38.945405 -1.224042 0.599358 0.029243 -0.018625 -195534.000000 0 0 1
-6.469807 19.960768 33.126162 39.212668 -1.257355 0.564638 0.030677 -0.016518 -720736.000000 0 0 1
-6.943707 19.423468 -33.936823 39.713903 -1.227464 2.595446 0.033072 -0.026343 10699.300000 0 0 1
-5.869207 18.998768 -33.086203 38.601782 -1.271171 2.600441 0.024327 -0.026717 1202610.000000 0 0 1
-4.816307 17.912268 -33.644673 38.418878 -1.308126 2.637748 0.022161 -0.028008 218173.000000 0 0 1
-5.361307 16.644268 -33.936623 38.176821 -1.259179 2.665806 0.021137 -0.028917 -98386.400000 0 0 1
-4.893307 16.095468 33.053639 37.088430 -1.275658 0.470787 0.025582 -0.024627 90478.300000 0 0 1
-5.517707 14.724268 32.788300 36.363743 -1.212257 0.447167 0.030045 -0.021623 274560.000000 0 0 1
-4.826607 13.634168 33.438332 36.432249 -1.230555 0.408236 0.039906 -0.019466 740053.000000 0 0 1
-5.695407 12.480268 33.460268 36.163301 -1.142672 0.389090 0.045941 -0.019741 604292.000000 0 0 1
-4.922007 11.186068 33.819176 35.959574 -1.156279 0.346763 0.071087 -0.027799 183819.000000 0 0 1
-4.614007 11.021268 -33.053863 35.147052 -1.174320 2.794733 0.068961 -0.030533 -27068.200000 0 0 1
-3.808507 9.836968 -32.980873 34.626704 -1.201405 2.832038 0.086921 -0.032235 343942.000000 0 0 1
-3.644607 9.261968 -31.585273 33.116411 -1.195904 2.836320 0.082969 -0.028659 842186.000000 0 0 1
-4.800507 8.523468 -31.119453 32.620771 -1.057867 2.837025 0.089900 -0.024398 700081.000000 0 0 1
-4.914307 8.558568 -29.721483 31.317184 -1.049565 2.820994 0.099499 -0.018608 512147.000000 0 0 1
-6.158007 7.784468 -29.183793 30.825521 -0.901528 2.813756 0.105838 -0.024853 598131.000000 0 0 1
-5.721907 6.533568 -28.692243 29.977867 -0.851530 2.847668 0.108237 -0.015893 832549.000000 0 0 1
-6.907307 5.803268 -28.345483 29.746516 -0.698756 2.833458 0.118186 -0.034600 325616.000000 0 0 1
-6.765407 5.122068 -26.977933 28.281004 -0.648028 2.836850 0.103558 -0.035094 -329785.000000 0 0 1
-6.895907 5.906268 -25.787293 27.339020 -0.708249 2.803055 0.075817 -0.023396 111607.000000 0 0 1
-5.818707 6.729868 -25.402513 26.915351 -0.857882 2.804719 0.073986 -0.022770 -301037.000000 0 0 1
-6.175507 7.705368 -24.241593 26.175645 -0.895169 2.754770 0.045349 -0.016159 271999.000000 0 0 1
-6.609307 7.093368 -23.001793 24.961596 -0.820709 2.742689 0.038339 -0.010754 1191900.000000 0 1 0
-7.847007 7.560668 -22.416693 24.924834 -0.766816 2.689127 0.040136 -0.009302 914735.000000 0 1 0
-7.670107 7.750568 -20.900293 23.573801 -0.790616 2.660716 0.029513 -0.010088 -208983.000000 0 1 0
-7.045207 8.925268 -20.516593 23.456895 -0.902580 2.635511 0.006689 -0.007316 -193807.000000 0 1 0
-6.833507 9.089068 -19.100093 22.228844 -0.926120 2.604594 0.008778 -0.008028 -863170.000000 0 1 0
-8.029707 9.318868 -18.191993 21.960558 -0.859571 2.547031 0.003795 -0.009661 -1065410.000000 0 1 0
-7.792007 9.400368 -16.819093 20.783748 -0.878677 2.513658 -0.002242 -0.010055 -152415.000000 0 1 0
-8.891807 9.792668 -16.032293 20.784489 -0.833575 2.451769 0.003601 -0.014054 91236.700000 0 1 0
-9.557807 11.209468 -16.192193 21.890431 -0.864763 2.403410 0.019082 -0.022877 -43223.600000 0 1 0
-8.625507 12.216968 -15.831493 21.778197 -0.956037 2.384655 0.002972 -0.020278 195227.000000 0 1 0
-9.074307 13.499368 -16.099393 22.885944 -0.978971 2.351053 0.023471 -0.021212 -58585.400000 0 1 0
-7.917107 14.444068 -15.740893 22.783489 -1.069396 2.333516 0.032751 -0.024463 63517.000000 0 1 0
-7.401407 14.364868 -14.409193 21.650753 -1.095028 2.298998 0.029625 -0.027297 132864.000000 0 1 0
-8.207207 14.992768 -13.442393 21.744868 -1.069943 2.237230 0.026331 -0.040797 -117039.000000 0 1 0
-7.337907 15.781568 -12.350893 21.341212 -1.135566 2.187972 0.018334 -0.035782 461957.000000 0 1 0
-6.823107 17.071068 -12.605393 22.290628 -1.190559 2.171838 0.029846 -0.036273 260208.000000 0 1 0
-6.061507 17.257968 -13.801893 22.914440 -1.233027 2.217204 0.041790 -0.024553 -103511.000000 0 1 0
-6.037907 18.798768 -14.150193 24.291520 -1.260018 2.192617 0.063138 -0.013148 12999.600000 0 1 0
-5.391707 19.642768 -13.233393 24.290565 -1.302906 2.146942 0.058518 -0.024262 -167300.000000 0 1 0
-5.417007 21.026068 -13.615893 25.628735 -1.318647 2.130901 0.059803 -0.017449 -258586.000000 0 0 1
-4.885807 22.041668 -12.594493 25.852031 -1.352661 2.079650 0.073443 -0.015995 -506440.000000 0 0 1
-5.201407 23.413468 -12.898193 27.232490 -1.352192 2.064207 0.069448 -0.022601 -137575.000000 0 0 1
-6.538207 23.825168 -13.076693 27.953295 -1.302965 2.057602 0.064040 -0.030534 -499.612000 0 0 1
-7.403107 23.906668 -11.796793 27.667654 -1.270494 2.011278 0.041376 -0.032749 -276832.000000 0 0 1
-7.782607 22.611868 -11.352093 26.471410 -1.239314 2.014009 0.048162 -0.028369 -83819.700000 0 0 1
-8.524407 22.523968 -10.159293 26.138207 -1.208996 1.969990 0.062858 -0.029878 181261.000000 0 0 1
-7.799607 23.091668 -8.891493 25.944511 -1.245061 1.920598 0.060439 -0.023708 173786.000000 0 0 1
-7.920107 24.503768 -8.866293 27.235526 -1.258175 1.902381 0.048417 -0.023723 -86533.500000 0 0 1
-7.327507 24.973468 -7.673393 27.133880 -1.285395 1.857506 0.049477 -0.019835 73187.600000 0 0 1
-7.526207 26.522968 -7.509293 28.574484 -1.294303 1.836716 0.056519 -0.022622 -248872.000000 0 0 1
-6.662707 27.411668 -8.138493 29.360284 -1.332359 1.851669 0.043597 -0.025612 -534393.000000 0 0 1
-6.682407 27.329868 -9.561193 29.715192 -1.330992 1.898385 0.045254 -0.023173 302896.000000 0 0 1
-5.769807 28.358268 -10.316293 30.723085 -1.370075 1.913233 0.048210 -0.018313 356099.000000 0 0 1
-6.273907 29.677768 -10.390793 32.064005 -1.362463 1.900819 0.040291 -0.012075 -10743.400000 0 0 1
-7.302207 29.746268 -11.365593 32.670161 -1.330073 1.926115 0.049074 -0.016306 -685231.000000 0 0 1
-8.363307 30.815268 -11.250993 33.854254 -1.305779 1.909576 0.056855 -0.013654 -574020.000000 0 0 1
-9.382007 30.313368 -10.421093 33.399424 -1.270646 1.888109 0.059053 -0.010077 -747347.000000 0 0 1
-10.337707 31.268668 -10.126393 34.454922 -1.251500 1.869104 0.054386 -0.018602 -449756.000000 0 0 1
-11.350707 30.891868 -9.043993 34.131216 -1.218676 1.838977 0.069009 -0.016917 -2533.490000 0 0 1
-12.215207 29.895968 -9.542093 33.675388 -1.182906 1.858087 0.069868 -0.026491 100454.000000 0 0 1
-13.407307 29.752068 -8.758693 33.788403 -1.147415 1.833013 0.088580 -0.021827 1079780.000000 0 0 1
-14.390507 28.694168 -9.374793 33.441422 -1.105939 1.854939 0.096057 -0.029946 480879.000000 0 0 1
-14.168007 27.383368 -8.882293 32.085455 -1.093330 1.851292 0.077155 -0.024637 -281808.000000 0 0 1
-15.290707 26.608268 -9.212193 32.041694 -1.049218 1.862419 0.097141 -0.025355 -18939.300000 0 0 1
-15.441107 25.184868 -8.590493 30.765272 -1.020792 1.853785 0.086633 -0.027487 401663.000000 0 0 1
-14.487907 24.239068 -9.126893 29.677130 -1.032063 1.883403 0.086561 -0.024047 524572.000000 0 0 1
-14.945407 22.965768 -8.757693 28.766107 -0.993881 1.880152 0.098766 -0.028541 195775.000000 0 0 1
-13.952207 21.793168 -8.993093 27.394926 -1.001334 1.905274 0.104548 -0.027370 -19205.000000 0 0 1
-13.827607 21.413368 -10.324693 27.501533 -0.997417 1.955649 0.100076 -0.025967 287302.000000 0 0 1
-13.132407 20.164668 -10.501493 26.255577 -0.993537 1.982282 0.101772 -0.032120 6659.960000 0 0 1
-13.166607 19.741068 -12.003593 26.592397 -0.982587 2.039121 0.102397 -0.024666 503853.000000 0 0 1
-14.482407 19.597668 -12.535693 27.403509 -0.934381 2.045920 0.102533 -0.012597 390780.000000 0 0 1
-14.396407 18.945968 -13.804193 27.509307 -0.921010 2.096476 0.095244 -0.011540 764161.000000 0 0 1
-15.826207 18.605768 -14.333193 28.321085 -0.865950 2.101449 0.091292 -0.006931 1171120.000000 0 0 1
-16.641507 19.720368 -14.765993 29.729905 -0.869869 2.090556 0.068812 -0.006659 -152914.000000 0 0 1
-17.946507 19.286068 -15.035593 30.333127 -0.821361 2.089417 0.055535 -0.001481 -389314.000000 0 0 1
-18.840607 20.319868 -15.734693 31.866065 -0.823155 2.087223 0.055064 -0.004263 -21421.300000 0 0 1
-19.402307 21.346368 -14.939993 32.485694 -0.833071 2.048673 0.056867 -0.009603 263781.000000 0 0 1
-19.790907 22.469668 -15.740993 33.828166 -0.848700 2.054795 0.067653 -0.018865 -141242.000000 0 0 1
-20.162007 23.686968 -14.906193 34.493095 -0.865614 2.017672 0.064407 -0.010900 846608.000000 0 0 1
-21.467707 23.592268 -14.298993 34.955955 -0.832513 1.992217 0.069129 -0.011761 946219.000000 0 0 1
-21.853307 24.700668 -13.454293 35.618928 -0.846485 1.958138 0.066670 -0.020943 108605.000000 0 0 1
-25.560157 -0.449732 3.902307 25.860238 0.017593 1.419318 0.135158 -0.047827 -60043.000000 0 0 1
-26.364947 0.146868 4.880407 26.813250 -0.005571 1.387761 0.162335 -0.040457 215417.000000 0 0 1
-27.764507 -0.014332 4.699507 28.159429 0.000516 1.403122 0.161422 -0.037472 333024.000000 0 0 1
-28.418827 0.511268 6.010307 29.051935 -0.017989 1.362410 0.167017 -0.026692 -451247.000000 0 0 1
-28.500707 1.961668 5.951807 29.181543 -0.068720 1.365397 0.187117 -0.032521 39077.300000 0 0 1
-28.819967 2.629668 7.124007 29.803643 -0.090993 1.329428 0.196326 -0.027123 -1099880.000000 0 0 1
-27.693297 2.909768 8.058807 28.988443 -0.104687 1.289084 0.202855 -0.025325 -962509.000000 0 0 1
-27.184307 1.713768 8.638607 28.575323 -0.062959 1.263681 0.195774 -0.034084 65864.900000 0 0 1
-26.342127 2.026368 9.735107 28.156458 -0.076774 1.217758 0.185184 -0.044111 -615602.000000 0 0 1
-25.594477 0.733468 10.086007 27.519862 -0.028649 1.195553 0.167365 -0.036104 -550550.000000 0 0 1
-24.593007 0.468568 9.139307 26.240475 -0.019051 1.215050 0.158927 -0.040079 -55080.000000 0 0 1
-24.758507 -0.811632 8.644507 26.236805 0.032770 1.235043 0.130493 -0.030293 -355826.000000 0 0 1
-23.532207 -1.368932 7.868607 24.850629 0.058107 1.248615 0.107859 -0.035964 17096.800000 0 1 0
-22.546507 -1.609532 8.858407 24.277705 0.071266 1.197294 0.110378 -0.049986 -664539.000000 0 1 0
-21.499907 -2.426532 8.450607 23.228148 0.112387 1.198443 0.116419 -0.029506 87213.100000 0 1 0
-20.358107 -2.349032 9.525807 22.598927 0.114878 1.135680 0.088100 -0.020209 510955.000000 0 1 0
-19.619307 -1.150332 9.722807 21.926547 0.058566 1.111379 0.070877 -0.021000 916869.000000 0 1 0
-20.323507 -0.329032 10.651807 22.948076 0.016188 1.088099 0.090472 -0.028113 -345158.000000 0 1 0
-19.922207 1.169168 10.491107 22.546056 -0.058619 1.086801 0.060308 -0.018540 -267909.000000 0 1 0
-20.418907 2.034168 9.490707 22.608475 -0.099294 1.137587 0.071170 -0.022696 -937792.000000 0 1 0
-21.775107 2.218568 9.610007 23.904593 -0.101535 1.157080 0.094364 -0.019509 -1484400.000000 0 1 0
-22.249507 3.585168 9.068507 24.292629 -0.159761 1.188230 0.091713 -0.029131 -273385.000000 0 1 0
-21.894207 4.621268 9.948907 24.488634 -0.208019 1.152432 0.070593 -0.025169 426213.000000 0 1 0
-22.456007 5.832868 9.549607 25.089632 -0.254131 1.180330 0.066609 -0.016331 -252106.000000 0 0 1
-22.252207 6.983568 10.565607 25.603965 -0.304103 1.145429 0.060895 -0.019959 110779.000000 0 0 1
-23.030507 6.718268 11.754207 26.715179 -0.283836 1.115217 0.052809 -0.018936 540869.000000 0 0 1
-23.170707 7.826568 12.581907 27.503477 -0.325746 1.095653 0.067022 -0.019584 240500.000000 0 0 1
-24.069807 7.486068 13.831607 28.752569 -0.301531 1.068937 0.081175 -0.020830 473961.000000 0 0 1
-25.465727 7.608768 13.626507 29.867680 -0.290341 1.097043 0.087776 -0.022420 162590.000000 0 0 1
-26.195667 7.099168 14.717807 30.874343 -0.264649 1.073899 0.089589 -0.024150 -768115.000000 0 0 1
-27.669957 6.859868 14.541907 32.002366 -0.243018 1.099097 0.113611 -0.028339 -869369.000000 0 0 1
-27.988397 5.772068 13.672707 31.679806 -0.203379 1.124541 0.139689 -0.023950 -908353.000000 0 0 1
-29.359787 5.590068 13.667107 32.863898 -0.188147 1.141897 0.169905 -0.035680 -957784.000000 0 0 1
-29.768217 4.594468 12.547507 32.629677 -0.153133 1.176084 0.195018 -0.025367 -472813.000000 0 0 1
-30.855427 3.816768 12.971507 33.688056 -0.123073 1.175537 0.177387 -0.029426 30966.000000 0 0 1
-31.000507 2.695268 12.123607 33.395775 -0.086725 1.199281 0.180096 -0.009830 -763674.000000 0 0 1
-32.353457 2.042168 12.285207 34.667607 -0.063037 1.208555 0.143530 -0.001334 -930807.000000 0 0 1
-32.286787 0.889968 13.127907 34.865035 -0.027557 1.184743 0.168236 -0.006891 350960.000000 0 0 1
-33.551317 0.302268 13.444307 36.145977 -0.009009 1.189693 0.130510 -0.002049 125281.000000 0 0 1
-33.588967 -0.886932 14.461407 36.580564 0.026399 1.164369 0.131364 -0.015659 -41422.200000 0 0 1
-32.949477 -2.024432 13.926707 35.829032 0.061363 1.171577 0.152105 -0.013021 221633.000000 0 0 1
-33.046387 -3.054732 14.914307 36.384498 0.092176 1.148443 0.175026 -0.011298 -23576.400000 0 0 1
-32.906527 -4.486632 14.284607 36.152723 0.135509 1.164600 0.171528 -0.015229 179125.000000 0 0 1
-34.045637 -4.903932 13.541507 36.966558 0.143056 1.195748 0.122858 -0.013546 385781.000000 0 0 1
-33.986027 -6.275032 13.081607 36.953410 0.182579 1.208949 0.121005 -0.017366 -1003220.000000 0 0 1
-35.210272 -6.664632 12.256507 37.873507 0.187068 1.241247 0.117212 -0.009952 641328.000000 0 0 1
-36.442867 -6.877932 12.984107 39.293455 0.186538 1.234027 0.082855 -0.008955 1134020.000000 0 0 1
36.222011 -5.656232 13.264607 38.986881 -0.154904 1.223632 0.082554 -0.010009 -402660.000000 0 0 1
34.710171 -5.607032 12.937007 37.464663 -0.160155 1.218225 0.071793 -0.006041 212501.000000 0 0 1
33.881591 -6.392532 13.763507 37.124935 -0.186481 1.190996 0.067350 -0.001584 755244.000000 0 0 1
32.503921 -6.178532 13.402107 35.697278 -0.187845 1.185927 0.077863 -0.000497 1246380.000000 0 0 1
31.523021 -7.325632 13.836407 35.196760 -0.228337 1.166778 0.063459 -0.005901 362436.000000 0 0 1
31.174851 -7.358832 15.222107 35.464578 -0.231807 1.127167 0.085280 0.004843 84230.800000 0 0 1
30.228521 -8.364232 15.521207 34.994739 -0.269946 1.111263 0.084241 0.013450 120954.000000 0 0 1
29.903631 -8.430932 17.049007 35.439758 -0.274804 1.068921 0.055146 0.007279 137136.000000 0 0 1
31.026271 -8.733332 17.843307 36.841338 -0.274382 1.065201 0.043960 0.009725 -153846.000000 0 0 1
30.673051 -8.796732 19.240007 37.261192 -0.279294 1.028207 0.037122 0.001359 10044.300000 0 0 1
31.850101 -9.222332 20.149407 38.800502 -0.281846 1.024755 0.046241 0.003677 195923.000000 0 0 1
32.841601 -8.240732 20.315007 39.486453 -0.245848 1.030395 0.060250 0.005876 -432070.000000 0 0 1
34.068751 -8.644432 19.771507 40.327640 -0.248491 1.058395 0.029204 0.015950 -658298.000000 0 0 1
35.292821 -8.063132 20.456607 41.582089 -0.224609 1.056460 0.030842 0.005285 -361322.000000 0 0 1
35.378211 -8.507832 21.787507 42.411042 -0.236001 1.031278 0.040555 -0.000989 26049.400000 0 0 1
-36.637857 -8.394832 22.235807 43.671924 0.225242 1.036593 0.041679 -0.001619 -8655.150000 0 0 1
-36.512587 -8.808132 23.735207 44.430983 0.236713 1.007231 0.040952 0.000016 -85628.400000 0 0 1
36.244251 -7.861832 24.650907 44.532251 -0.213603 0.984173 0.045534 -0.002645 609304.000000 0 0 1
35.597291 -8.570332 25.730007 44.750989 -0.236262 0.958242 0.045759 -0.013380 67844.600000 0 0 1
35.283891 -7.800832 27.019707 45.120622 -0.217587 0.928753 0.067365 -0.019606 -5103.890000 0 0 1
36.471711 -7.699032 27.769207 46.482144 -0.208042 0.930520 0.060447 -0.028163 -144862.000000 0 0 1
36.423601 -6.789432 28.824507 46.942809 -0.184287 0.909634 0.060361 -0.037337 -271286.000000 0 0 1
-35.559919 -6.599432 29.489607 46.665804 0.183499 0.886753 0.080208 -0.035084 -111499.000000 0 0 1
-35.298646 -7.557132 30.527107 47.275881 0.210907 0.868827 0.073049 -0.033859 -622356.000000 0 0 1
-33.994567 -7.278532 30.939607 46.538876 0.210924 0.843554 0.069605 -0.042866 -233558.000000 0 0 1
-33.579557 -8.097232 32.177907 47.207728 0.236619 0.820817 0.058376 -0.032780 -2696.190000 0 0 1
-33.527997 -9.526232 32.006207 47.320957 0.276832 0.827981 0.055544 -0.029443 167559.000000 0 0 1
-32.971987 -10.180632 33.123907 47.832943 0.299480 0.805859 0.040253 -0.021055 -167232.000000 0 0 1
-33.285767 -11.693832 33.102907 48.378616 0.337847 0.817226 0.041831 -0.016820 222542.000000 0 0 1
-34.663907 -11.938332 33.340107 49.554747 0.331679 0.832818 0.032277 -0.020900 103715.000000 0 0 1
-34.959483 -13.294832 33.255807 50.048644 0.363403 0.844012 0.033891 -0.020180 -2380540.000000 0 0 1
-36.379787 -13.520732 33.414607 51.213622 0.355835 0.859976 0.040975 -0.017235 -2390330.000000 0 0 1
36.534471 -14.859332 33.323007 51.633227 -0.386287 0.869277 0.041397 -0.022915 -33855.600000 0 0 1
35.174081 -14.939232 33.682207 50.940041 -0.401636 0.848362 0.031568 -0.019620 -494642.000000 0 0 1
34.812001 -16.382532 33.982307 51.332835 -0.439852 0.847313 0.024655 -0.006511 -22181.200000 0 0 1
35.455521 -16.981332 -33.089639 51.384665 -0.446664 2.270459 0.029292 -0.013907 513709.000000 0 0 1
35.459611 -18.413632 -33.180839 51.936634 -0.478956 2.263827 0.026677 -0.021380 -611828.000000 0 0 1
36.066381 -18.992232 -31.896739 51.758001 -0.484693 2.234790 0.025607 -0.006928 -106920.000000 0 0 1
35.173461 -19.067732 -30.810939 50.498165 -0.496762 2.227033 0.030890 -0.006411 -116798.000000 0 0 1
35.685221 -19.876232 -29.769739 50.544406 -0.508192 2.200595 0.025949 -0.006238 -724247.000000 0 0 1
34.619501 -20.120532 -28.700039 49.264976 -0.526474 2.192677 0.047853 -0.011928 381144.000000 0 0 1
33.460771 -20.825432 -29.144939 49.017846 -0.556716 2.207537 0.046857 -0.004035 571224.000000 0 0 1
32.436781 -19.952232 -29.592939 48.228398 -0.551457 2.231408 0.045351 -0.003536 -1157030.000000 0 0 1
31.062761 -20.550632 -29.748139 47.667341 -0.584476 2.244747 0.047537 0.002935 -915598.000000 0 0 1
30.052701 -19.781832 -30.333939 47.059893 -0.582145 2.271272 0.036841 0.005882 -262201.000000 0 0 1
28.818541 -20.440732 -30.256139 46.516296 -0.616934 2.278962 0.047424 0.006779 262367.000000 0 0 1
27.738821 -19.926632 -31.273239 46.309052 -0.622946 2.312189 0.048587 0.008333 463588.000000 0 0 1
28.120921 -20.096632 -32.635639 47.536783 -0.620491 2.327508 0.036109 0.001314 -84839.200000 0 0 1
27.078321 -19.791432 -33.525739 47.422689 -0.631162 2.355981 0.053905 0.002233 76744.500000 0 0 1
27.572421 -19.877232 33.225107 47.531574 -0.624622 0.796782 0.054945 0.002760 -59653.800000 0 0 1
28.531901 -18.949832 32.799107 47.423064 -0.586267 0.807056 0.028748 0.004810 -23839.800000 0 0 1
28.771461 -18.875632 31.419007 46.596572 -0.580619 0.830811 0.037385 0.005688 409070.000000 0 0 1
27.570721 -18.330232 30.540407 45.042852 -0.586740 0.825717 0.030183 0.006953 460641.000000 0 0 1
27.251321 -17.005232 30.981607 44.628157 -0.557891 0.803465 0.033970 0.002870 539132.000000 0 0 1
26.333021 -16.384032 30.079507 43.204644 -0.556573 0.800692 0.032706 -0.001715 146160.000000 0 0 1
26.065721 -14.915632 30.506507 42.808234 -0.519751 0.777554 0.039287 -0.004620 403731.000000 0 0 1
27.222521 -14.062032 30.435907 43.187392 -0.476807 0.788739 0.053642 -0.004122 697349.000000 0 0 1
27.047821 -12.837832 31.163807 43.215477 -0.443150 0.765370 0.069809 -0.017833 -143042.000000 0 0 1
28.349381 -12.009932 31.211307 43.841437 -0.400718 0.778577 0.071682 -0.024068 35500.600000 0 0 1
28.712501 -11.426332 30.001807 43.070608 -0.378744 0.800187 0.069183 -0.028040 412527.000000 0 0 1
30.125401 -11.305532 29.849007 43.889840 -0.359018 0.822912 0.078463 -0.026849 604308.000000 0 0 1
30.523951 -10.740532 28.437707 43.078693 -0.338342 0.849799 0.083162 -0.025308 -134530.000000 0 0 1
30.324651 -9.338732 28.413607 42.592599 -0.298742 0.840484 0.086487 -0.029742 -134564.000000 0 0 1
30.941071 -8.933532 27.257807 42.191776 -0.281083 0.868404 0.104490 -0.027337 -259023.000000 0 0 1
30.905841 -7.377932 27.106607 41.765692 -0.234337 0.864506 0.100462 -0.021255 -567069.000000 0 0 1
29.665801 -6.786432 26.912807 40.625295 -0.224893 0.846693 0.101232 -0.020759 -907864.000000 0 0 1
29.735921 -5.478432 26.383607 40.128954 -0.182193 0.853339 0.088456 -0.019298 1083470.000000 0 0 1
28.291121 -4.832032 26.288707 38.920845 -0.169164 0.829235 0.078292 -0.010538 1257870.000000 0 0 1
27.518821 -5.334232 25.211707 37.701058 -0.191465 0.838301 0.078702 -0.015119 -932452.000000 0 0 1
26.255221 -4.804132 25.224807 36.724750 -0.180976 0.813635 0.077264 -0.013853 -961236.000000 0 0 1
25.344021 -5.250032 24.055907 35.335095 -0.204262 0.821951 0.075893 -0.013928 -342771.000000 0 0 1
25.559121 -4.490432 22.879307 34.596176 -0.173913 0.848213 0.079999 -0.001732 129778.000000 0 0 1
24.775321 -4.780232 21.753307 33.314765 -0.190601 0.859306 0.071268 -0.003013 -136195.000000 0 0 1
25.295521 -3.961832 20.546107 32.828372 -0.155360 0.894557 0.070892 -0.004774 -21200.700000 0 0 1
24.878121 -2.594932 20.553707 32.374519 -0.103930 0.882952 0.059694 0.000281 167307.000000 0 0 1
25.477221 -1.757232 19.581407 32.180867 -0.068864 0.916653 0.053694 0.001231 -154339.000000 0 0 1
24.404821 -0.741832 19.107307 31.003787 -0.030388 0.906774 0.049067 -0.004630 -430473.000000 0 0 1
23.453821 -1.389232 18.351207 29.812389 -0.059164 0.907705 0.051699 -0.006324 -1157410.000000 0 0 1
22.496021 -0.457332 17.962807 28.791363 -0.020327 0.897079 0.065614 -0.008033 -412308.000000 0 0 1
21.222321 -1.107232 17.402907 27.467691 -0.052126 0.884628 0.076806 -0.017488 -272687.000000 0 0 1
21.446421 -1.785032 16.161007 26.913073 -0.083041 0.926684 0.099772 -0.020109 -461846.000000 0 0 1
20.385721 -2.607832 15.837907 25.946440 -0.127233 0.914221 0.115266 -0.026383 -814423.000000 0 0 1
20.540721 -3.085832 14.385807 25.266481 -0.149115 0.965065 0.115346 -0.032161 -231586.000000 0 0 1
19.761321 -4.169832 13.925707 24.532074 -0.207959 0.967144 0.129625 -0.029465 369985.000000 0 1 0
19.846721 -4.239432 12.523407 23.847450 -0.210446 1.017909 0.114883 -0.029213 65337.900000 0 1 0
18.705021 -5.080732 11.885507 22.736687 -0.265225 1.020728 0.103422 -0.029212 193715.000000 0 1 0
18.939521 -6.422632 12.199007 23.425871 -0.326943 1.023068 0.124242 -0.038529 528512.000000 0 1 0
17.738821 -7.134032 12.035207 22.592176 -0.382376 1.008990 0.104557 -0.027307 -160858.000000 0 1 0
17.782421 -8.597732 12.570107 23.412456 -0.450358 1.004040 0.116758 -0.035180 -379843.000000 0 1 0
18.451021 -9.419232 11.635607 23.760250 -0.472012 1.059040 0.096877 -0.043705 430770.000000 0 1 0
18.088321 -10.798932 11.635207 24.066208 -0.538219 1.066186 0.106733 -0.047714 -178526.000000 0 1 0
18.769521 -11.536432 10.498807 24.405105 -0.551112 1.126094 0.097796 -0.045173 -21640.700000 0 1 0
18.263321 -11.093432 9.234507 23.278515 -0.545855 1.162881 0.096764 -0.039133 619355.000000 0 1 0
19.016121 -11.632832 8.152807 23.736131 -0.549004 1.220180 0.116616 -0.047114 47670.300000 0 1 0
18.550421 -11.085732 6.805107 22.656590 -0.538653 1.265727 0.096333 -0.035268 -121751.000000 0 1 0
18.750021 -9.668932 6.651607 22.120023 -0.476109 1.265364 0.070176 -0.030662 868259.000000 0 1 0
19.710021 -9.457432 5.596607 22.566568 -0.447381 1.320177 0.089475 -0.024731 241437.000000 0 1 0
19.896221 -7.966332 5.339207 22.086856 -0.380846 1.326641 0.079629 -0.025088 -530217.000000 0 1 0
20.492721 -7.715132 4.103607 22.278117 -0.360069 1.385539 0.090696 -0.026812 480992.000000 0 1 0
20.925921 -6.372232 4.041507 22.244849 -0.295593 1.388099 0.101565 -0.025408 -135400.000000 0 1 0
21.489321 -5.995132 2.630107 22.464416 -0.272064 1.453448 0.107746 -0.029239 359837.000000 0 1 0
20.467221 -6.128232 1.641407 21.427939 -0.290922 1.494120 0.059830 -0.034404 664021.000000 0 1 0
20.854621 -5.547332 0.436407 21.584220 -0.259980 1.550576 0.055530 -0.025791 -411192.000000 0 1 0
-26.334557 -15.405532 0.348807 30.511653 0.529312 1.559364 0.074057 -0.013398 426152.000000 0 0 1
-25.290527 -14.774132 -0.433793 29.292899 0.528703 1.585606 0.071128 -0.008826 224837.000000 0 0 1
-24.034307 -15.366732 -0.344893 28.528991 0.568864 1.582886 0.077436 -0.013500 210152.000000 0 0 1
-23.121207 -14.885132 0.854707 27.511596 0.571995 1.539724 0.093270 -0.020538 -84055.100000 0 0 1
-23.603107 -15.336132 2.117207 28.227401 0.576200 1.495720 0.081707 -0.008666 -251425.000000 0 0 1
-22.686407 -15.097032 3.129607 27.429690 0.587171 1.456452 0.092560 -0.003509 -292551.000000 0 0 1
-23.067907 -15.802132 4.423007 28.308986 0.600606 1.413913 0.087820 -0.003205 36437.800000 0 0 1
-22.633107 -17.181832 4.467907 28.765171 0.649329 1.414841 0.089852 -0.012489 405823.000000 0 0 1
-23.362707 -17.842132 5.484607 29.903824 0.652212 1.386344 0.095126 -0.018436 95277.500000 0 0 1
-23.123707 -19.385132 5.514307 30.674041 0.697676 1.390043 0.066421 -0.015660 46266.200000 0 0 1
-23.794807 -19.983332 6.600207 31.766163 0.698554 1.361497 0.068402 -0.020886 -52447.500000 0 0 1
-23.856407 -21.364232 6.395807 32.656775 0.730342 1.373673 0.066169 -0.022829 -318140.000000 0 0 1
-24.628107 -21.968432 7.560007 33.857191 0.728381 1.345607 0.074093 -0.022991 -217012.000000 0 0 1
-23.956907 -22.028432 8.799007 33.713614 0.743486 1.306746 0.089653 -0.023588 115940.000000 0 0 1
-24.783407 -22.622132 9.809407 34.960014 0.739839 1.286388 0.095441 -0.021836 446751.000000 0 0 1
-23.903607 -23.004632 11.014507 34.955899 0.766236 1.250237 0.084798 -0.023514 394103.000000 0 0 1
-23.284007 -21.898332 11.684907 34.032617 0.754739 1.220321 0.081740 -0.022708 11521.400000 0 0 1
-22.654607 -22.271632 12.875007 34.278603 0.776874 1.185753 0.087212 -0.023756 -170110.000000 0 0 1
-23.251607 -21.570032 14.124107 34.718783 0.747899 1.151832 0.072813 -0.015559 -59297.800000 0 0 1
-24.561107 -22.013032 14.395007 35.986634 0.730743 1.159269 0.067704 -0.011700 -70530.400000 0 0 1
-25.089047 -21.417532 15.569607 36.477166 0.706615 1.129810 0.068573 -0.006006 -810610.000000 0 0 1
-26.481857 -21.840432 15.979107 37.863242 0.689640 1.135122 0.037450 -0.005195 -811960.000000 0 0 1
-27.499067 -21.433032 15.064207 37.980309 0.662059 1.162951 0.037344 -0.002071 361936.000000 0 0 1
-27.963987 -22.552832 14.276607 38.657940 0.678689 1.192534 0.039321 -0.010239 57134.500000 0 0 1
-29.133937 -23.396932 14.816407 40.196127 0.676617 1.193291 0.045618 -0.011866 -411617.000000 0 0 1
-28.667847 -24.174732 15.926207 40.741959 0.700574 1.169182 0.038005 -0.009171 339939.000000 0 0 1
-29.517477 -25.265292 16.337407 42.148871 0.707934 1.172757 0.023306 -0.003763 166153.000000 0 0 1
-29.318597 -26.575302 15.569607 42.523399 0.736357 1.195936 0.038744 -0.002394 -116246.000000 0 0 1
-30.006337 -26.598812 14.351407 42.589200 0.725273 1.227096 0.046317 -0.011663 -265429.000000 0 0 1
-31.193777 -27.360002 14.510307 43.956461 0.720017 1.234380 0.044385 -0.009905 -23421.200000 0 0 1
-31.878547 -27.563072 13.165407 44.150795 0.712925 1.267999 0.054777 -0.021399 -279432.000000 0 0 1
-31.149197 -28.458852 12.399007 43.976290 0.740295 1.284973 0.072199 -0.031565 -65510.000000 0 0 1
-31.817757 -28.719112 11.180907 44.296385 0.734257 1.315625 0.070539 -0.016295 9026.430000 0 0 1
-31.306107 -29.957182 10.437807 44.569641 0.763383 1.334410 0.074483 -0.020746 32849.100000 0 0 1
-31.462097 -31.185402 11.119307 45.673098 0.780981 1.324871 0.055603 -0.011515 -122575.000000 0 0 1
-30.984667 -32.224942 10.288007 45.873081 0.805017 1.344601 0.062401 -0.017000 -211042.000000 0 0 1
-30.912847 -33.611752 10.960607 46.962633 0.827201 1.335234 0.054888 -0.016424 304678.000000 0 0 1
-32.225867 -34.115096 11.165907 48.239235 0.813868 1.337208 0.047619 -0.012237 227704.000000 0 0 1
-32.216797 32.858588 11.760807 47.496583 -0.795260 1.320580 0.062170 -0.016858 509204.000000 0 0 1
-33.617867 32.480050 12.414407 48.365609 -0.768186 1.311212 0.070649 -0.012146 1301800.000000 0 0 1
-34.708913 32.144666 11.580407 48.704148 -0.747061 1.330726 0.034071 -0.013648 265035.000000 0 0 1
-35.217000 33.299405 10.884107 49.674453 -0.757418 1.349895 0.053004 -0.009053 -1258200.000000 0 0 1
-36.591867 33.232268 10.229807 50.477691 -0.737320 1.366723 0.039626 0.005231 -386289.000000 0 0 1
-36.644937 32.343863 9.164607 49.728934 -0.723134 1.385446 0.022921 -0.004068 -407776.000000 0 0 1
35.392101 32.256103 8.701407 48.670026 0.739074 1.391046 0.012244 0.000382 -561272.000000 0 0 1
35.236441 31.477516 7.410107 47.826253 0.729114 1.415232 0.017184 -0.002326 -18154.200000 0 0 1
35.428841 30.073976 7.502007 47.073633 0.703829 1.410746 0.037653 -0.010411 27637.300000 0 0 1
35.318731 29.536896 6.200307 46.457344 0.696484 1.436935 0.067130 -0.010238 38395.300000 0 0 1
35.457961 28.009336 6.122407 45.599054 0.668571 1.436124 0.078506 -0.015568 968322.000000 0 0 1
34.285461 27.345926 6.677107 44.360751 0.673273 1.419704 0.077349 -0.013037 1076820.000000 0 0 1
34.451871 26.966306 8.013707 44.478451 0.664118 1.389636 0.061311 -0.010438 -336912.000000 0 0 1
33.538751 25.772546 8.234607 43.091539 0.655199 1.378518 0.062617 -0.005958 -359687.000000 0 0 1
33.861981 24.667386 7.398207 42.542298 0.629578 1.396005 0.072436 -0.009490 60885.000000 0 0 1
32.824751 23.725136 7.448307 41.180379 0.625853 1.388925 0.066719 -0.007491 -386565.000000 0 0 1
33.236011 22.376866 6.812007 40.641850 0.592561 1.402391 0.057187 -0.006881 784491.000000 0 0 1
34.239231 21.563566 7.489907 41.151076 0.562037 1.387766 0.082562 -0.010310 1409650.000000 0 0 1
35.572041 21.846466 7.017607 42.330663 0.550757 1.404247 0.085600 -0.014242 1319460.000000 0 0 1
36.539041 20.575766 7.113507 42.533112 0.512858 1.402760 0.075273 -0.011772 595532.000000 0 0 1
36.229251 19.673566 6.036307 41.665871 0.497476 1.425411 0.097000 -0.022339 523827.000000 0 0 1
-36.326547 18.502366 6.249307 41.243295 -0.471087 1.418687 0.097631 -0.024142 101296.000000 0 0 1
36.565601 17.309266 5.430107 40.818377 0.442122 1.437370 0.093769 -0.022717 -270384.000000 0 0 1
-36.359147 17.304566 4.091307 40.474367 -0.444210 1.469539 0.104452 -0.025064 98764.800000 0 0 1
36.527391 16.158166 3.390407 40.085303 0.416480 1.486115 0.099182 -0.026288 -406730.000000 0 0 1
-35.909058 15.765066 2.157007 39.276589 -0.413692 1.515850 0.112764 -0.012867 196938.000000 0 0 1
-34.740142 15.048566 2.440407 37.938007 -0.408775 1.506426 0.114140 -0.023610 -655583.000000 0 0 1
-33.674837 15.867066 2.764907 37.328316 -0.440331 1.496658 0.121620 -0.029490 -1781800.000000 0 0 1
-32.398487 15.109066 3.054607 35.878635 -0.436368 1.485556 0.112703 -0.030377 -578246.000000 0 0 1
-32.420987 14.367466 4.289007 35.720303 -0.417146 1.450434 0.116163 -0.031486 1060410.000000 0 0 1
-31.062697 13.898966 4.380207 34.311203 -0.420730 1.442786 0.112246 -0.032342 805397.000000 0 0 1
-30.727327 13.121566 5.667007 33.888923 -0.403591 1.402784 0.114954 -0.027333 35310.200000 0 0 1
-31.283917 11.789066 5.843507 33.938358 -0.360384 1.397754 0.127272 -0.025503 467152.000000 0 0 1
-30.932167 11.274766 7.104607 33.680777 -0.349533 1.358260 0.113610 -0.011769 -48676.400000 0 0 1
-31.116507 9.705566 7.226307 33.386443 -0.302348 1.352625 0.121444 -0.010674 -642618.000000 0 0 1
-32.429147 9.310066 7.405507 34.542271 -0.279571 1.354729 0.112110 -0.012883 -840149.000000 0 0 1
-32.422057 7.885166 7.483007 34.195921 -0.238572 1.350184 0.131301 -0.013231 410835.000000 0 0 1
-33.826107 7.305466 7.114807 35.329815 -0.212704 1.368027 0.116199 -0.009827 510562.000000 0 0 1
-34.744735 7.361466 8.183507 36.446640 -0.208785 1.344332 0.108294 -0.006636 216739.000000 0 0 1
-35.947973 6.643166 7.928507 37.406546 -0.182738 1.357221 0.078154 -0.008963 476276.000000 0 0 1
-36.609087 6.170866 9.236207 38.257187 -0.166991 1.326963 0.083016 -0.010119 -75783.400000 0 0 1
36.174371 7.095366 10.162607 38.238828 0.193685 1.301797 0.092331 -0.007311 361991.000000 0 0 1
-36.240177 7.855966 10.882507 38.645771 -0.213472 1.285339 0.107780 -0.015518 110467.000000 0 0 1
36.281491 8.750766 11.885307 39.168649 0.236671 1.262496 0.094744 -0.023446 148173.000000 0 0 1
35.761511 8.106566 13.053407 38.922918 0.222917 1.228803 0.083982 -0.027647 580001.000000 0 0 1
34.993321 9.086766 13.723507 38.670874 0.254060 1.208011 0.124589 -0.040029 -407955.000000 0 0 1
34.209361 8.702966 14.981707 38.346754 0.249118 1.169415 0.116846 -0.048400 336248.000000 0 0 1
32.947901 8.055266 14.739607 36.982530 0.239781 1.160855 0.109214 -0.043337 855307.000000 0 0 1
32.366051 7.529866 15.945707 36.858184 0.228581 1.123396 0.103213 -0.040804 803321.000000 0 0 1
30.842031 7.299066 15.657107 35.350421 0.232384 1.111953 0.075865 -0.031417 -69579.200000 0 0 1
30.026611 8.410666 15.792707 34.953487 0.273108 1.101991 0.060091 -0.033285 -308004.000000 0 0 1
28.641801 8.261166 15.645807 33.665872 0.280809 1.087458 0.057766 -0.026176 -708.297000 0 0 1
27.910321 7.630866 16.873907 33.495446 0.266884 1.042842 0.050435 -0.017845 -618335.000000 0 0 1
27.869221 8.488666 17.987507 34.238887 0.295662 1.017666 0.067559 -0.028758 307479.000000 0 0 1
27.160221 7.926866 19.102007 34.137948 0.283968 0.976949 0.058756 -0.025171 41784.200000 0 0 1
27.915721 6.948666 20.025307 35.051168 0.243958 0.962687 0.059231 -0.022566 -2587.090000 0 0 1
27.247021 6.868966 21.256207 35.233637 0.246954 0.923173 0.036081 -0.008873 262963.000000 0 0 1
27.752421 5.682566 21.872107 35.789349 0.201968 0.913303 0.051708 -0.012265 -351655.000000 0 0 1
27.215021 5.467966 23.293707 36.237451 0.198277 0.872639 0.048901 -0.010623 -564018.000000 0 0 1
25.895421 5.048766 23.428707 35.284093 0.192552 0.844638 0.020359 -0.011652 -654991.000000 0 0 1
24.971621 6.095966 23.653407 34.931738 0.239433 0.826938 0.026213 -0.006892 12307.200000 0 0 1
23.510821 5.682266 23.357507 33.624693 0.237140 0.802858 0.047584 -0.022838 -199741.000000 0 0 1
23.214421 5.345266 22.049507 32.460160 0.226312 0.824016 0.072720 -0.012976 57098.300000 0 0 1
21.832921 5.246966 21.803007 31.298214 0.235851 0.800119 0.078447 -0.017726 -1136960.000000 0 0 1
21.128721 3.860866 22.020307 30.760739 0.180737 0.772945 0.082365 -0.019113 -3037.100000 0 0 1
19.857221 3.732066 21.422307 29.447458 0.185778 0.756161 0.087355 -0.025434 99086.900000 0 0 1
18.832521 4.485966 22.031007 29.328366 0.233845 0.720942 0.085957 -0.022642 -1457970.000000 0 0 1
17.566221 4.377166 21.184907 27.866324 0.244208 0.707124 0.111743 -0.027171 -497957.000000 0 0 1
16.885721 3.130966 21.470007 27.493486 0.183339 0.674671 0.098448 -0.026214 1027130.000000 0 0 1
15.767121 2.899866 20.574607 26.083056 0.181886 0.661924 0.103521 -0.028174 801790.000000 0 0 1
14.703021 1.881366 21.046307 25.742289 0.127266 0.613606 0.106678 -0.026914 -299128.000000 0 0 1
15.124721 0.545766 20.982607 25.871314 0.036069 0.624873 0.086326 -0.028803 181869.000000 0 0 1
14.261621 -0.313834 21.743907 26.005573 -0.022002 0.580616 0.094027 -0.031061 20484.900000 0 0 1
14.492721 -1.873734 21.669607 26.136598 -0.128575 0.593317 0.064909 -0.024902 -1610.080000 0 0 1
14.063921 -2.431934 20.446307 24.935109 -0.171227 0.609419 0.077194 -0.018824 119394.000000 0 1 0
14.163021 -3.809834 20.520107 25.222625 -0.262778 0.620549 0.065874 -0.012169 -71555.400000 0 0 1
13.743221 -4.401334 19.181107 24.003391 -0.309934 0.645000 0.067021 -0.011748 -251975.000000 0 1 0
12.357621 -4.433534 18.972307 23.071963 -0.344466 0.605338 0.073230 -0.015477 -438972.000000 0 1 0
12.054521 -5.048734 17.748507 22.041114 -0.396629 0.634707 0.070706 -0.012608 -744752.000000 0 1 0
10.583121 -5.188134 17.426907 21.038448 -0.455799 0.594665 0.063844 -0.013768 -621530.000000 0 1 0
9.934321 -5.987034 18.414307 21.762859 -0.542374 0.562106 0.065622 -0.002445 -884540.000000 0 1 0
8.595921 -6.134934 18.039607 20.903462 -0.619864 0.529626 0.046783 -0.016887 -604328.000000 0 1 0
7.895421 -7.064834 19.046107 21.794581 -0.729936 0.507645 0.051451 -0.021086 -437919.000000 0 1 0
8.031421 -8.454934 18.921207 22.226150 -0.811081 0.552331 0.055165 -0.020943 -491811.000000 0 1 0
9.306721 -8.966434 19.182807 23.129896 -0.766778 0.592851 0.091952 -0.032861 -229151.000000 0 1 0
9.450421 -10.433934 18.642807 23.360902 -0.834820 0.646770 0.093475 -0.033788 167047.000000 0 1 0
9.383521 -10.495434 17.204207 22.230370 -0.841274 0.685811 0.074801 -0.031029 -196360.000000 0 1 0
10.014121 -11.646134 16.809407 22.769964 -0.860602 0.740358 0.077790 -0.031456 -89300.300000 0 1 0
9.612521 -12.147634 15.413907 21.853012 -0.901378 0.787887 0.062455 -0.024453 -87150.900000 0 1 0
10.358121 -13.239934 14.990407 22.523296 -0.906917 0.842564 0.057921 -0.022054 -35382.900000 0 1 0
10.019121 -13.405534 13.637107 21.588466 -0.928970 0.887072 0.043387 -0.016558 -438483.000000 0 1 0
10.825921 -14.552434 12.979807 22.303572 -0.931195 0.949658 0.060468 -0.022775 1312420.000000 0 1 0
12.180721 -14.232234 12.568307 22.558564 -0.862913 0.979857 0.045789 -0.025171 1034870.000000 0 1 0
12.390821 -13.186934 11.650207 21.521037 -0.816513 0.998766 0.022219 -0.023062 -299431.000000 0 1 0
13.892021 -13.115634 11.193207 22.142629 -0.756659 1.040829 0.053318 -0.026456 818160.000000 0 1 0
14.369121 -14.234534 10.441607 22.762267 -0.780693 1.094237 0.055964 -0.021315 20748.600000 0 1 0
15.643921 -13.881534 9.937907 23.155804 -0.725778 1.127216 0.068614 -0.030268 -106339.000000 0 1 0
16.408221 -15.078534 9.335007 24.160594 -0.743193 1.174100 0.062975 -0.030440 -151098.000000 0 1 0
17.044421 -15.860134 10.349507 25.478785 -0.749422 1.152504 0.078488 -0.027316 253601.000000 0 0 1
16.177521 -16.654434 11.205407 25.780681 -0.799923 1.121154 0.084632 -0.018508 196825.000000 0 0 1
16.805421 -17.362334 12.417107 27.167212 -0.801696 1.096107 0.076830 -0.014006 322536.000000 0 0 1
17.754721 -18.419234 12.163807 28.327664 -0.803766 1.126972 0.084052 -0.019812 371211.000000 0 0 1
18.142621 -19.062134 13.396207 29.529274 -0.810108 1.099930 0.072567 -0.013707 46103.200000 0 0 1
19.500221 -19.786534 13.192207 30.753860 -0.792686 1.127454 0.040934 -0.020428 396703.000000 0 0 1
20.541521 -18.819134 13.094107 30.782618 -0.741667 1.131422 0.051940 -0.025663 234598.000000 0 0 1
21.815021 -19.424034 12.885407 31.925256 -0.727484 1.155335 0.047834 -0.030044 995757.000000 0 0 1
22.770221 -18.792334 11.819007 31.801317 -0.689980 1.190009 0.056104 -0.026665 -20259.700000 0 0 1
22.406421 -19.107534 10.524107 31.271431 -0.706100 1.227556 0.050476 -0.022083 271141.000000 0 0 1
21.193121 -18.643534 9.925407 29.920620 -0.721484 1.232665 0.060362 -0.023281 491382.000000 0 0 1
20.932521 -17.085134 9.833807 28.753713 -0.684542 1.221751 0.107867 -0.030590 -215057.000000 0 0 1
21.892621 -16.434934 9.044807 28.830582 -0.643953 1.251685 0.095182 -0.021004 -108855.000000 0 0 1
21.799121 -15.030834 9.202407 28.032338 -0.603655 1.236316 0.120164 -0.032789 108470.000000 0 0 1
-34.911570 25.062568 8.493007 43.807319 -0.622630 1.375689 0.092131 -0.018906 565318.000000 0 0 1
-34.034987 24.361068 9.414707 42.900801 -0.621229 1.349543 0.094537 -0.025841 15356.200000 0 0 1
-32.991897 25.188068 9.798207 42.648669 -0.652061 1.338983 0.103938 -0.020087 -833515.000000 0 0 1
-31.832147 24.390268 10.415207 41.432443 -0.653798 1.316693 0.108468 -0.025865 139983.000000 0 0 1
-31.128087 23.589868 9.410707 40.174633 -0.648495 1.334354 0.094426 -0.025506 325854.000000 0 0 1
-30.197357 22.673468 9.928307 39.045331 -0.644040 1.313697 0.087344 -0.020790 153764.000000 0 0 1
-29.432687 21.788168 8.871807 37.679123 -0.637245 1.333108 0.080696 -0.023598 -112438.000000 0 0 1
-30.242737 20.894168 8.149707 37.651124 -0.604580 1.352616 0.083984 -0.031600 -109932.000000 0 0 1
-29.510727 20.045868 7.307507 36.415924 -0.596680 1.368757 0.079938 -0.037611 -393931.000000 0 0 1
-30.363987 19.294468 6.284607 36.520467 -0.566071 1.397851 0.080088 -0.033894 -99860.100000 0 0 1
-30.994347 18.131768 6.874007 36.560396 -0.529319 1.381653 0.094094 -0.030980 1018340.000000 0 0 1
-32.092157 17.732668 6.023207 37.156872 -0.504802 1.407976 0.081697 -0.029910 419128.000000 0 0 1
-32.834907 16.483068 6.512307 37.312636 -0.465245 1.395364 0.087988 -0.021494 -491125.000000 0 0 1
-33.686827 16.787668 7.598607 38.397487 -0.462323 1.371588 0.085919 -0.024017 361023.000000 0 0 1
-34.501002 15.651068 7.903507 38.700653 -0.425878 1.365128 0.087408 -0.026867 918.231000 0 0 1
-35.505712 15.797468 9.051907 39.901787 -0.418628 1.341949 0.105502 -0.029592 -486198.000000 0 0 1
-36.509517 16.714168 8.823307 41.111544 -0.429324 1.354495 0.113952 -0.030100 -559313.000000 0 0 1
36.130291 17.017268 10.002607 41.170833 0.440177 1.325387 0.143985 -0.029911 423387.000000 0 0 1
35.195321 18.283468 9.856207 40.867355 0.479114 1.327219 0.123143 -0.031123 19783.500000 0 0 1
33.982891 17.970168 9.241707 39.536983 0.486422 1.334865 0.104736 -0.029544 -84209.600000 0 0 1
33.102201 19.094768 9.166007 39.298621 0.523218 1.335388 0.091546 -0.019012 -89697.900000 0 0 1
31.687361 18.852168 8.648407 37.871996 0.536693 1.340405 0.069695 -0.024013 -835521.000000 0 0 1
30.920861 19.991768 8.900607 37.881279 0.573943 1.333618 0.058466 -0.016447 494041.000000 0 0 1
29.550291 19.889168 8.468307 36.612989 0.592417 1.337390 0.037806 -0.017329 870878.000000 0 0 1
29.271051 19.915068 6.899107 36.069406 0.597428 1.378337 0.027010 -0.014976 -770295.000000 0 0 1
29.580691 18.674468 6.205507 35.528318 0.563121 1.395232 0.043094 -0.018893 189633.000000 0 0 1
29.453461 18.581668 4.731907 35.145067 0.562818 1.435747 0.047306 -0.022053 -1229.140000 0 0 1
28.019021 18.896568 4.200807 34.055728 0.593351 1.447130 0.072637 -0.022741 196155.000000 0 0 1
27.019121 18.085568 4.887207 32.878648 0.589866 1.421600 0.062961 -0.031037 2224430.000000 0 0 1
25.660821 18.286468 4.358707 31.809920 0.619147 1.433340 0.087652 -0.028840 1623590.000000 0 0 1
24.978721 19.598668 4.814307 32.112643 0.665289 1.420310 0.092507 -0.024365 -812024.000000 0 0 1
25.557221 20.811868 4.321807 33.241291 0.683414 1.440414 0.076601 -0.025737 337924.000000 0 0 1
24.918821 22.012468 4.858007 33.602033 0.723549 1.425713 0.077703 -0.019920 48782.200000 0 0 1
25.670521 23.350668 4.644707 35.011465 0.738110 1.437742 0.036222 -0.007320 -790510.000000 0 0 1
26.861321 23.330968 5.352507 35.979355 0.715177 1.421476 0.041219 -0.010106 -846280.000000 0 0 1
27.700321 24.371668 4.939307 37.224760 0.721561 1.437715 0.028656 0.002852 -246044.000000 0 0 1
29.116281 24.173968 5.565207 38.250622 0.692919 1.424785 0.025965 -0.002244 190904.000000 0 0 1
29.961691 23.114568 5.069707 38.179682 0.657101 1.437618 0.023962 -0.000898 853888.000000 0 0 1
30.506401 23.255768 3.729807 38.540663 0.651342 1.473869 0.027760 -0.005295 45952.000000 0 0 1
31.389171 24.484768 3.371507 39.951859 0.662450 1.486307 0.057464 -0.018579 -714424.000000 0 0 1
30.655601 25.680068 3.352007 40.130633 0.697307 1.487171 0.037983 -0.013527 -529128.000000 0 0 1
31.420601 26.706568 2.834107 41.334334 0.704477 1.502177 0.083837 -0.015271 -1471590.000000 0 0 1
30.722711 28.096068 2.883807 41.732366 0.740771 1.501639 0.063285 -0.003265 -636113.000000 0 0 1
29.663141 28.318468 2.052807 41.061559 0.762211 1.520782 0.088951 -0.013086 -856661.000000 0 0 1
28.524531 27.618568 2.517607 39.784074 0.769263 1.507472 0.065950 -0.007416 -1230640.000000 0 0 1
27.172421 28.026468 1.884707 39.081652 0.800869 1.522553 0.037319 -0.007148 -224782.000000 0 0 1
26.935421 29.371168 2.338707 39.920571 0.828630 1.512179 0.043978 -0.001737 320731.000000 0 0 1
25.664221 29.852868 1.917907 39.414773 0.860703 1.522117 0.033360 -0.006603 384715.000000 0 0 1
25.340121 31.319068 2.342507 40.354592 0.890534 1.512716 0.044258 -0.015830 -91195.100000 0 0 1
25.201721 31.587468 3.748407 40.582576 0.897374 1.478300 0.019519 -0.026304 -99635.400000 0 0 1
26.376521 31.445968 4.496907 41.289126 0.872847 1.461667 0.029615 -0.029179 -414392.000000 0 0 1
26.188521 31.466068 6.064107 41.385088 0.876681 1.423738 0.031645 -0.034005 -178955.000000 0 0 1
25.717921 30.357968 6.780907 40.360852 0.867956 1.401989 0.030115 -0.038145 381587.000000 0 0 1
26.536721 29.177768 6.714007 40.007720 0.832766 1.402181 0.039668 -0.038854 -17194.000000 0 0 1
25.808121 27.944968 7.281807 38.729899 0.825130 1.381655 0.054154 -0.026489 -1226530.000000 0 0 1
24.674321 27.773568 6.545207 37.723109 0.844421 1.396407 0.025453 -0.033005 -1155730.000000 0 0 1
24.083121 26.534468 6.870007 36.486597 0.833789 1.381377 0.037375 -0.020871 -801013.000000 0 0 1
22.889421 26.223568 5.990807 35.319837 0.853181 1.400356 0.045104 -0.014837 -778181.000000 0 0 1
23.121021 25.967368 4.611007 35.073455 0.843317 1.438947 0.031634 -0.013171 177007.000000 0 0 1
23.607921 27.056768 3.838307 36.112813 0.853365 1.464309 0.017295 -0.004332 -205641.000000 0 0 1
23.775121 26.611968 2.400707 35.766138 0.841640 1.503623 0.020912 -0.002251 220276.000000 0 0 1
24.849621 25.730468 1.992207 35.826381 0.802811 1.515160 0.003811 0.014047 762164.000000 0 0 1
24.762921 25.433168 0.645107 35.503021 0.798750 1.552625 0.019263 0.005109 316022.000000 0 0 1
25.961621 24.544168 0.079907 35.727138 0.757340 1.568560 0.039106 -0.000557 -180601.000000 0 0 1
27.124621 25.374068 0.138707 37.143070 0.752066 1.567062 0.060981 -0.006245 539286.000000 0 0 1
28.242021 24.904668 -0.606993 37.659298 0.722685 1.586915 0.075258 -0.002569 768798.000000 0 0 1
29.016531 23.701968 0.034107 37.466566 0.684927 1.569886 0.066228 -0.008056 -754620.000000 0 0 1
28.131821 22.628668 -0.058793 36.103455 0.677406 1.572425 0.054495 -0.009112 59290.500000 0 0 1
28.447311 21.678968 0.948807 35.778868 0.651184 1.544275 0.050854 -0.008382 96244.000000 0 0 1
27.148821 20.925268 1.317807 34.302507 0.656657 1.532370 0.051257 -0.013865 182534.000000 0 0 1
26.629321 19.933668 0.443007 33.266622 0.642579 1.557479 0.084195 -0.032462 105462.000000 0 0 1
25.339921 19.549468 0.823607 32.015178 0.657113 1.545068 0.080669 -0.036485 -589504.000000 0 0 1
24.796121 18.388368 0.012207 30.870372 0.638092 1.570401 0.098693 -0.038224 1117530.000000 0 0 1
23.395121 18.121468 0.312407 29.594204 0.659050 1.560240 0.091327 -0.036908 1274590.000000 0 0 1
22.875221 17.076068 -0.462193 28.549632 0.641249 1.586986 0.108765 -0.048643 323682.000000 0 0 1
21.399621 16.807768 -0.047093 27.211157 0.665789 1.572527 0.083958 -0.036097 -25620.900000 0 0 1
20.752721 15.856268 -0.923493 26.133303 0.652437 1.606141 0.079958 -0.035264 156815.000000 0 0 1
19.406621 15.549168 -0.730093 24.878236 0.675491 1.600147 0.077498 -0.028187 221376.000000 0 1 0
18.352921 16.647468 -1.156093 24.805331 0.736710 1.617420 0.067085 -0.027927 -13346.300000 0 1 0
18.439721 17.792968 -0.381793 25.627306 0.767550 1.585695 0.070285 -0.027522 598609.000000 0 0 1
17.318621 18.640168 -0.686793 25.453137 0.822133 1.597782 0.045597 -0.025173 657916.000000 0 0 1
17.583021 20.154268 -0.296393 26.747804 0.853428 1.581878 0.053378 -0.022998 -72507.600000 0 0 1
17.627321 20.266368 1.127007 26.883420 0.854929 1.528862 0.063143 -0.013907 98670.900000 0 0 1
17.822121 21.583568 1.634507 28.038367 0.880564 1.512468 0.084084 -0.020130 -378030.000000 0 0 1
16.721821 22.582368 1.272407 28.128307 0.933415 1.525545 0.077737 -0.025700 282387.000000 0 0 1
15.434521 22.244368 1.785607 27.133462 0.964202 1.504940 0.069219 -0.020767 245186.000000 0 0 1
14.446621 23.155168 1.378307 27.327027 1.012985 1.520337 0.061774 -0.025868 -234494.000000 0 0 1
13.072521 22.887468 2.006907 26.433968 1.051849 1.494802 0.063926 -0.024336 -178429.000000 0 0 1
12.836721 23.288568 3.313207 26.797690 1.067030 1.446841 0.068299 -0.012575 -561570.000000 0 0 1
11.479121 23.127568 3.580407 26.066721 1.110082 1.433005 0.056256 -0.016167 -341992.000000 0 0 1
11.084221 23.475568 5.013507 26.440452 1.129668 1.380026 0.064315 -0.014238 -81040.300000 0 0 1
11.622921 22.493968 5.901007 25.997938 1.093868 1.341821 0.065518 -0.035961 39772.500000 0 0 1
11.119521 22.564368 7.224807 26.172358 1.112932 1.291117 0.044085 -0.018206 -977651.000000 0 0 1
11.807521 21.619668 8.247107 25.977729 1.070916 1.247738 0.050341 -0.017650 585400.000000 0 0 1
13.137321 21.950968 8.600007 26.988782 1.031492 1.246490 0.065455 -0.014582 425882.000000 0 0 1
14.169921 21.961968 7.617707 27.223963 0.997801 1.287194 0.069182 -0.010881 -1338400.000000 0 0 1
15.522121 21.750568 8.238107 27.962294 0.950973 1.271744 0.081052 -0.016308 -1128650.000000 0 0 1
15.696621 20.522768 8.966407 27.348938 0.917865 1.236767 0.082977 -0.012261 327573.000000 0 0 1
16.979721 20.344168 9.565407 28.172560 0.875297 1.224380 0.071288 -0.012068 453777.000000 0 0 1
17.293821 21.201868 10.834107 29.427425 0.886571 1.193763 0.044219 0.003936 -244109.000000 0 0 1
16.433421 20.917068 11.927107 29.151963 0.904869 1.149290 0.052697 -0.010560 4830.610000 0 0 1
16.617821 21.638568 13.070207 30.252437 0.915892 1.124045 0.061605 -0.007988 16127.500000 0 0 1
17.756321 21.184768 14.022007 30.995129 0.873214 1.101349 0.061963 0.001009 2200780.000000 0 0 1
19.145221 21.329868 13.545507 31.701475 0.839321 1.129311 0.067013 0.003181 1558500.000000 0 0 1
20.034821 20.877268 14.537007 32.381769 0.805987 1.105234 0.052872 -0.001304 -772624.000000 0 0 1
21.448021 21.393968 14.373707 33.530925 0.784136 1.127776 0.056867 -0.006536 -740519.000000 0 0 1
21.988221 20.830668 13.197907 33.039119 0.758371 1.159865 0.054866 -0.001070 398731.000000 0 0 1
23.384121 21.136368 13.110507 34.138667 0.734953 1.176632 0.067851 -0.009680 667914.000000 0 0 1
24.127721 20.535368 11.922807 33.852646 0.705139 1.210879 0.068519 -0.012741 3993.900000 0 0 1
23.784521 21.219968 10.735607 33.633967 0.728475 1.245922 0.092753 -0.009439 744164.000000 0 0 1
24.791221 20.974468 9.744807 33.904192 0.702193 1.279262 0.098457 -0.025769 49742.500000 0 0 1
24.646721 21.941968 8.535207 34.084609 0.727407 1.317690 0.085397 -0.024322 -103876.000000 0 0 1
25.071421 23.275368 8.756007 35.312697 0.748266 1.320226 0.064169 -0.018491 433009.000000 0 0 1
26.482521 23.416868 8.666407 36.397531 0.724039 1.330383 0.052895 -0.022327 -151042.000000 0 0 1
27.025921 24.549968 9.547907 37.739421 0.737429 1.315021 0.071321 -0.023214 -259594.000000 0 0 1
28.262021 25.031168 9.073307 38.828162 0.724848 1.334937 0.063665 -0.012936 127243.000000 0 0 1
28.826981 26.030568 9.944007 40.093249 0.734466 1.320158 0.072515 -0.009870 -439840.000000 0 0 1
30.023931 26.572168 9.206107 41.137197 0.724484 1.345095 0.065089 -0.016051 -862333.000000 0 0 1
29.703151 27.405068 8.109607 41.219906 0.745179 1.372764 0.068136 -0.021765 844994.000000 0 0 1
30.900251 28.061768 7.616707 42.429973 0.737294 1.390306 0.068400 -0.012080 523330.000000 0 0 1
30.818391 29.077668 6.460407 42.860482 0.756344 1.419489 0.087325 -0.017140 -31425.300000 0 0 1
30.743281 30.465968 6.744107 43.804196 0.780868 1.416221 0.081186 -0.016705 105663.000000 0 0 1
30.616741 31.252668 5.587607 44.105957 0.795676 1.443769 0.089354 -0.016655 49923.600000 0 0 1
30.589511 32.786668 5.890207 45.225859 0.820053 1.440185 0.048426 -0.009871 487979.000000 0 0 1
29.450371 33.157868 6.668507 44.846824 0.844546 1.421548 0.042800 -0.020611 399274.000000 0 0 1
29.423301 -33.611929 6.674007 45.166745 -0.851750 1.422490 0.035880 -0.005511 -347021.000000 0 0 1
28.061821 -33.060129 7.102507 43.941820 -0.866993 1.408450 0.052913 -0.022603 -386943.000000 0 0 1
27.084021 -33.367229 6.141607 43.412389 -0.888965 1.428849 0.049542 -0.022837 -1016840.000000 0 0 1
25.858521 -32.871229 6.597507 42.340382 -0.904242 1.414338 0.039093 -0.036622 -689337.000000 0 0 1
24.760821 -32.977629 5.561107 41.611876 -0.926760 1.436753 0.045422 -0.025781 -463143.000000 0 0 1
25.162021 -32.282229 4.349407 41.160503 -0.908719 1.464929 0.022133 -0.002013 195467.000000 0 0 1
24.211121 -32.421029 3.302107 40.598096 -0.929364 1.489370 0.031702 -0.014785 -208208.000000 0 0 1
24.746721 -31.877429 1.998407 40.405004 -0.910669 1.521317 0.034185 0.000894 -137826.000000 0 0 1
24.799721 -30.494329 2.061907 39.359646 -0.888024 1.518386 0.036318 0.010963 -11266.300000 0 0 1
25.448421 -29.858729 1.002407 39.245008 -0.864972 1.545251 0.025723 0.012490 -805545.000000 0 0 1
25.639621 -28.383629 1.335807 38.272771 -0.836148 1.535887 0.023821 0.014922 -279886.000000 0 0 1
24.534221 -27.523329 1.290207 36.893445 -0.842754 1.535818 0.017647 0.022109 -152337.000000 0 0 1
23.840421 -27.440029 0.052707 36.350016 -0.855478 1.569346 0.025528 0.010905 95513.700000 0 0 1
22.593421 -26.496829 0.104107 34.821767 -0.864746 1.567807 0.011688 0.010042 -134038.000000 0 0 1
22.866221 -25.115229 0.065307 33.965322 -0.832236 1.568874 0.017491 0.009965 -185225.000000 0 0 1
23.207321 -24.602129 1.385907 33.849154 -0.814564 1.529841 0.014025 0.016048 -136259.000000 0 0 1
22.036021 -24.225729 2.313407 32.830231 -0.832696 1.500272 0.016256 0.009632 -83741.300000 0 0 1
22.375621 -23.499129 3.461207 32.632154 -0.809884 1.464529 0.016747 0.003340 -277539.000000 0 0 1
21.230321 -23.399729 4.284607 31.884663 -0.833969 1.436010 0.028597 0.002504 17286.600000 0 0 1
21.255021 -22.403329 5.515307 31.370427 -0.811694 1.394065 0.027981 -0.001234 -108457.000000 0 0 1
21.182621 -20.986429 5.267807 30.280083 -0.780746 1.395937 0.049220 -0.001038 593572.000000 0 0 1
19.918421 -20.488629 4.806107 28.976302 -0.799509 1.404163 0.036356 0.005945 147585.000000 0 0 1
19.936821 -18.930829 4.861507 27.919301 -0.759521 1.395777 0.046789 0.001433 -19255.300000 0 0 1
19.876521 -18.402929 6.163507 27.780078 -0.746922 1.347067 0.071543 -0.010593 1074250.000000 0 0 1
18.607221 -18.545329 6.872907 27.155014 -0.783732 1.314914 0.060121 0.001417 1269170.000000 0 0 1
18.629893 -26.422612 -11.859493 34.436534 -0.956673 1.922382 0.091115 -0.020396 44188.300000 0 0 1
19.010293 -25.168082 -12.299193 33.854006 -0.923891 1.942605 0.098531 -0.025790 -575575.000000 0 0 1
17.907893 -24.598532 -12.928093 33.059280 -0.941520 1.972577 0.051047 -0.020380 -284390.000000 0 0 1
18.209093 -23.182732 -13.520593 32.431721 -0.904985 2.000822 0.047462 -0.022553 -423272.000000 0 0 1
18.084493 -22.089432 -12.632593 31.218172 -0.884760 1.987398 0.048543 -0.017487 181078.000000 0 0 1
19.235393 -21.862732 -11.804693 31.421810 -0.849240 1.955932 0.045678 -0.022491 -348762.000000 0 0 1
19.334793 -22.547932 -10.355393 31.455963 -0.861966 1.906256 0.051418 -0.017938 -295205.000000 0 0 1
18.545693 -22.132032 -9.273393 30.327634 -0.873335 1.881547 0.047163 -0.018511 405026.000000 0 0 1
17.156893 -22.321032 -9.583893 29.739510 -0.915470 1.898914 0.049993 -0.001318 60025.900000 0 0 1
16.173493 -21.645832 -8.598493 28.355916 -0.929098 1.878881 0.039848 -0.006482 -918111.000000 0 0 1
15.994593 -20.265732 -8.601993 27.212518 -0.902649 1.892417 0.027231 -0.014162 -159963.000000 0 0 1
15.073293 -19.777332 -7.690493 26.028651 -0.919564 1.870736 0.027089 -0.014055 512038.000000 0 0 1
13.553493 -20.029232 -7.975593 25.465219 -0.975890 1.889352 0.031267 -0.008887 126351.000000 0 0 1
13.136793 -21.316932 -7.889093 26.253089 -1.018506 1.876015 0.034845 -0.011661 -115384.000000 0 0 1
11.760293 -21.480832 -8.201293 25.826185 -1.069891 1.893949 0.035099 -0.012569 283546.000000 0 0 1
11.203393 -22.847532 -7.981393 26.668865 -1.114895 1.874732 0.032591 -0.010526 -218922.000000 0 0 1
11.609493 -23.267232 -6.654993 26.840889 -1.107978 1.821352 0.034953 -0.005911 521953.000000 0 0 1
10.906893 -24.393832 -6.110393 27.410878 -1.150343 1.795604 0.024118 -0.001223 92803.800000 0 0 1
11.387993 -24.664432 -4.736993 27.576433 -1.138241 1.743429 0.035885 -0.006067 -326080.000000 0 0 1
10.580093 -25.593392 -4.077693 27.992636 -1.178799 1.716987 0.062005 -0.010978 -398661.000000 0 0 1
11.208793 -26.258362 -3.006293 28.708473 -1.167347 1.675707 0.048303 -0.012715 -130955.000000 0 0 1
10.262593 -27.144842 -2.198793 29.103229 -1.209339 1.646420 0.066923 -0.012353 416964.000000 0 0 1
9.158993 -26.442792 -1.632093 28.031627 -1.237359 1.629053 0.053489 -0.008395 85489.100000 0 0 1
8.417193 -27.260212 -0.752393 28.540049 -1.271311 1.597162 0.058537 -0.018021 180154.000000 0 0 1
7.708193 -26.482732 0.377507 27.584304 -1.287557 1.557110 0.062934 -0.016101 320705.000000 0 0 1
6.461193 -25.872802 0.082907 26.667504 -1.326073 1.567687 0.066023 -0.024722 -128982.000000 0 0 1
5.947993 -25.265852 1.236607 25.985979 -1.339590 1.523191 0.054454 -0.022596 68405.500000 0 0 1
4.476993 -24.827732 1.026907 25.249045 -1.392391 1.530114 0.055915 -0.026962 463796.000000 0 0 1
3.522193 -25.874742 0.850507 26.127217 -1.435503 1.538238 0.061701 -0.022965 -22052.900000 0 0 1
2.259593 -25.248412 0.693707 25.358811 -1.481540 1.543437 0.056370 -0.023158 -261589.000000 0 0 1
1.157793 -26.206972 0.274707 26.233973 -1.526646 1.560325 0.067850 -0.022506 -153448.000000 0 0 1
0.685193 -27.127052 1.261407 27.165007 -1.545543 1.524345 0.064552 -0.019581 46841.900000 0 0 1
1.231093 -28.383832 0.947507 28.426313 -1.527450 1.537458 0.059935 -0.021565 172227.000000 0 0 1
0.525293 -29.503252 1.781407 29.561651 -1.552994 1.510499 0.072562 -0.012975 320859.000000 0 0 1
0.875293 -29.415152 3.157207 29.597048 -1.541049 1.463920 0.059881 -0.008487 -112911.000000 0 0 1
0.311793 -30.466082 3.892207 30.715283 -1.560563 1.443736 0.066246 -0.004409 -176983.000000 0 0 1
0.477493 -30.487162 5.387007 30.963121 -1.555136 1.395925 0.052490 -0.008917 -274133.000000 0 0 1
1.817893 -30.591582 5.809007 31.191252 -1.511442 1.383464 0.047442 -0.000466 -128506.000000 0 0 1
1.992793 -30.470902 7.214007 31.376567 -1.505489 1.338804 0.049763 -0.004911 648631.000000 0 0 1
3.427893 -30.869102 7.699207 31.998901 -1.460203 1.327804 0.054127 -0.005235 718796.000000 0 0 1
3.631493 -32.207202 7.400607 33.245460 -1.458516 1.346311 0.044175 -0.005705 -1293190.000000 0 0 1
4.919993 -32.637202 7.593807 33.868262 -1.421175 1.344658 0.032065 -0.007740 -943289.000000 0 0 1
5.112293 34.103682 7.673607 35.328188 1.422000 1.351842 0.032974 0.003215 -100503.000000 0 0 1
5.487093 33.567718 6.394507 34.609097 1.408766 1.384965 0.026445 0.003407 9635.940000 0 0 1
5.481393 32.157186 6.288107 33.221537 1.401963 1.380369 0.013133 -0.002161 -340000.000000 0 0 1
5.731293 31.713226 4.791307 32.581176 1.392004 1.423204 0.031237 -0.009087 -431264.000000 0 0 1
7.061493 31.850336 4.399707 32.919082 1.352617 1.436743 0.036586 -0.013874 -495061.000000 0 0 1
7.665193 30.534876 4.285807 31.772660 1.324848 1.435494 0.034510 -0.010481 -319382.000000 0 0 1
9.064993 30.567816 3.677607 32.095019 1.282504 1.455959 0.021501 -0.008516 78106.400000 0 0 1
10.056093 31.030156 4.612907 32.943504 1.257401 1.430310 0.022928 -0.009060 -538786.000000 0 0 1
11.307393 31.151186 4.026307 33.383598 1.222601 1.449895 0.038335 -0.012027 -419145.000000 0 0 1
12.362193 31.616006 5.061807 34.322260 1.198063 1.422778 0.036266 -0.018571 -171507.000000 0 0 1
12.854093 30.613356 5.861107 33.715839 1.173266 1.396070 0.047738 -0.019229 -72655.900000 0 0 1
14.037093 31.103766 6.490607 34.736324 1.146863 1.382838 0.064812 -0.018900 280587.000000 0 0 1
14.538993 30.007016 7.406807 34.156465 1.119609 1.352210 0.071036 -0.023265 -306069.000000 0 0 1
13.835093 29.915186 8.613307 34.066364 1.137615 1.315183 0.054927 -0.011381 -57917.100000 0 0 1
14.468993 29.022146 9.532807 33.801052 1.108309 1.284890 0.057577 -0.012381 175107.000000 0 0 1
14.220293 29.242026 11.044407 34.340817 1.118172 1.243365 0.037962 -0.000435 -99337.200000 0 0 1
14.870793 30.375286 11.561407 35.741637 1.115528 1.241400 0.062063 -0.022718 -104114.000000 0 0 1
14.372793 30.704416 12.831107 36.248802 1.132991 1.208980 0.052300 -0.012103 -383585.000000 0 0 1
15.273193 31.609726 13.683807 37.678797 1.120695 1.199128 0.059342 -0.009949 707063.000000 0 0 1
16.422093 30.857756 14.148607 37.710334 1.081732 1.186193 0.062152 -0.013487 684377.000000 0 0 1
17.210993 31.661566 15.014407 39.039793 1.072886 1.176030 0.067894 -0.013545 458777.000000 0 0 1
18.340093 30.845066 15.770307 39.197955 1.034366 1.156742 0.065803 -0.017468 1133290.000000 0 0 1
19.542893 30.581376 15.049807 39.289208 1.002161 1.177698 0.054731 -0.014260 318864.000000 0 0 1
19.802593 29.180226 14.977107 38.313731 0.974557 1.169179 0.037906 -0.005145 -819534.000000 0 0 1
21.200393 28.913136 14.430407 38.647933 0.938105 1.188145 0.057266 -0.013314 343560.000000 0 0 1
22.261293 29.129076 15.415807 39.770785 0.918250 1.172752 0.063568 -0.014133 753010.000000 0 0 1
23.504693 29.064646 14.721407 40.173922 0.890771 1.195614 0.068688 -0.016251 152063.000000 0 0 1
24.662193 29.180986 15.740707 41.322192 0.869127 1.179998 0.085056 -0.022532 -317797.000000 0 0 1
25.057493 28.028836 16.423907 41.027287 0.841312 1.158934 0.077028 -0.009328 -77418.900000 0 0 1
25.886593 28.292716 17.532207 42.166002 0.829779 1.141985 0.070107 -0.012920 17161.600000 0 0 1
26.851393 27.084276 17.806407 42.090657 0.789716 1.133989 0.044293 -0.001589 -26973.900000 0 0 1
26.155693 25.935756 18.246607 41.106233 0.781176 1.110862 0.044507 0.002111 210333.000000 0 0 1
25.765493 25.993926 19.631107 41.532218 0.789811 1.078476 0.061614 0.001598 -83819.900000 0 0 1
25.067093 24.668406 20.002407 40.459680 0.777382 1.053676 0.060694 -0.004443 456846.000000 0 0 1
26.085593 23.645856 20.089207 40.535921 0.736379 1.052282 0.044283 -0.000910 918123.000000 0 0 1
25.478693 22.378366 20.163607 39.452834 0.720705 1.034354 0.047856 -0.005491 319900.000000 0 0 1
26.540493 21.293166 20.440207 39.693812 0.676136 1.029851 0.024887 0.000377 531225.000000 0 0 1
25.899593 19.980766 20.298807 38.497552 0.657101 1.015406 0.011248 0.010300 417040.000000 0 0 1
26.795693 18.886466 20.236207 38.525470 0.613962 1.017766 0.022920 -0.000812 264824.000000 0 0 1
27.424393 18.598166 21.641607 39.577118 0.595918 0.992234 0.031908 0.004713 170132.000000 0 0 1
26.443493 18.075366 22.525607 39.158398 0.599598 0.957895 0.024483 0.010970 522887.000000 0 0 1
27.040793 17.628166 23.772207 40.088334 0.577717 0.936022 0.042215 0.011432 -248517.000000 0 0 1
26.059793 16.939166 24.726607 39.717166 0.576383 0.898777 0.020479 0.012603 -109394.000000 0 0 1
25.671093 15.662666 24.244307 38.627847 0.547834 0.892281 0.023074 0.004978 612559.000000 0 0 1
24.702493 14.976266 25.049707 38.235972 0.545014 0.856436 0.030694 0.004355 224031.000000 0 0 1
24.177593 13.720866 24.353407 36.958174 0.516182 0.851381 0.041173 0.001086 257758.000000 0 0 1
22.918893 13.332566 24.890307 36.367023 0.526876 0.816989 0.019223 0.002668 576663.000000 0 0 1
22.373393 12.134066 24.363807 35.233498 0.496946 0.807239 0.040062 -0.000103 -390408.000000 0 0 1
21.151393 11.645366 25.116607 34.840206 0.503282 0.765684 0.040601 -0.005274 -334581.000000 0 0 1
19.946793 12.350066 24.910407 34.218811 0.554382 0.755434 0.053306 -0.002378 567853.000000 0 0 1
18.811693 11.503966 25.194607 33.481178 0.548856 0.718945 0.062184 -0.007352 460501.000000 0 0 1
17.467493 12.231766 25.122207 32.952309 0.610900 0.703812 0.053738 -0.015925 -298763.000000 0 0 1
17.401793 13.042266 26.287307 34.116647 0.643167 0.691151 0.078813 -0.012845 -379462.000000 0 0 1
16.319993 13.911166 26.380407 33.996891 0.705886 0.682552 0.093912 -0.014815 -497652.000000 0 0 1
15.950993 14.226366 27.884407 35.133514 0.728311 0.653979 0.081581 -0.002256 -125097.000000 0 0 1
15.432293 13.178866 28.656507 35.114578 0.706800 0.616191 0.092491 0.000030 -74361.300000 0 0 1
15.544493 13.420166 30.060607 36.405662 0.712187 0.599332 0.082879 0.000776 560745.000000 0 0 1
16.981293 13.217766 30.656607 37.455323 0.661413 0.612028 0.075351 0.001578 25904.100000 0 0 1
17.890193 14.218666 30.374007 38.010653 0.671546 0.645013 0.089588 -0.007113 -705932.000000 0 0 1
19.182093 13.657466 30.446007 38.489458 0.618728 0.658319 0.075675 0.002071 82861.800000 0 0 1
20.256693 14.737866 30.049807 39.121979 0.628981 0.694919 0.052944 -0.001030 64257.100000 0 0 1
19.931293 15.272466 28.812307 38.218499 0.653824 0.716843 0.076249 -0.008177 199302.000000 0 0 1
20.107993 14.494666 27.671507 37.150222 0.624577 0.730480 0.060855 -0.002344 -446963.000000 0 0 1
19.911793 15.338466 26.379907 36.436898 0.656380 0.761229 0.057061 -0.003114 -240723.000000 0 0 1
21.087993 15.994366 25.975307 37.084225 0.648893 0.794781 0.058436 0.002067 74707.700000 0 0 1
20.908793 16.495666 24.673107 36.304915 0.667957 0.823568 0.048066 0.005723 104783.000000 0 0 1
22.034293 17.466866 24.232607 37.119007 0.670282 0.859475 0.045519 -0.000749 -196649.000000 0 0 1
21.907393 17.937666 22.926207 36.432193 0.686097 0.890164 0.051896 -0.009075 -147988.000000 0 0 1
23.013993 18.692266 22.514007 37.228016 0.682144 0.921332 0.044279 -0.009697 -100599.000000 0 0 1
23.250593 20.086966 23.173707 38.485023 0.712528 0.924607 0.063777 -0.010977 -58638.100000 0 0 1
22.437093 21.059666 22.521407 38.133272 0.753741 0.938998 0.066204 -0.011652 275156.000000 0 0 1
22.581193 22.382266 23.103307 39.301894 0.780974 0.942408 0.081884 -0.015975 547688.000000 0 0 1
21.553993 23.490726 22.634207 39.098544 0.828367 0.953415 0.088240 -0.027425 476836.000000 0 0 1
22.150793 24.281176 21.683207 39.375050 0.831248 0.987613 0.087309 -0.019489 -64237.700000 0 0 1
21.336693 25.396996 21.453707 39.503461 0.872062 0.996690 0.088027 -0.018517 -23645.100000 0 0 1
21.926993 26.328166 20.370407 39.861244 0.876353 1.034410 0.086532 -0.016486 -170682.000000 0 0 1
21.677393 25.700326 19.061707 38.649253 0.870107 1.055035 0.069795 -0.016264 439650.000000 0 0 1
22.220793 26.508126 17.976107 38.981852 0.873156 1.091516 0.061642 -0.016688 36738.900000 0 0 1
22.196793 25.784246 16.584407 37.849273 0.860027 1.117235 0.042646 0.003611 -1914420.000000 0 0 1
20.948493 25.495586 16.167407 36.745738 0.882992 1.115219 0.032568 0.004980 -1700970.000000 0 0 1
20.887693 25.158326 14.805207 35.894724 0.877881 1.145641 0.040781 0.006178 -264961.000000 0 0 1
19.463193 25.028446 14.227207 34.751293 0.909837 1.148999 0.053429 0.007993 -873325.000000 0 0 1
18.768293 26.207556 14.048707 35.163205 0.949320 1.159794 0.054637 0.011194 -328979.000000 0 0 1
17.870093 26.517696 15.115307 35.369491 0.977807 1.129232 0.055292 0.012120 -425471.000000 0 0 1
16.467593 25.966416 14.744307 34.100307 1.005617 1.123665 0.047754 0.000763 -958308.000000 0 0 1
16.327793 24.562576 14.714807 32.961227 0.984127 1.108027 0.037362 0.003916 -189497.000000 0 0 1
16.100593 23.900306 15.967807 32.945782 0.977970 1.064811 0.051215 0.007226 -827682.000000 0 0 1
14.902393 24.206636 16.869307 33.054743 1.018962 1.035211 0.109086 -0.014954 -530345.000000 0 0 1
14.890793 25.550526 17.398307 34.311312 1.043121 1.039012 0.087157 -0.021175 -604180.000000 0 0 1
13.728393 25.946586 18.036907 34.453216 1.084139 1.019821 0.092421 -0.021159 -607992.000000 0 0 1
13.986793 27.214896 18.850007 35.938888 1.096060 1.018667 0.107931 -0.038240 -202758.000000 0 0 1
14.109793 28.406146 18.088607 36.512917 1.109779 1.052498 0.100675 -0.028211 190412.000000 0 0 1
14.559593 29.458526 18.964707 37.940039 1.111767 1.047359 0.093764 -0.022260 55572.400000 0 0 1
14.622093 30.902306 18.295507 38.774781 1.128841 1.079419 0.073915 -0.027811 -799199.000000 0 0 1
13.367993 31.397526 18.013107 38.587302 1.168277 1.085111 0.078295 -0.019839 -952502.000000 0 0 1
13.428693 32.625182 17.252407 39.273118 1.180326 1.115985 0.059229 -0.018689 -996165.000000 0 0 1
12.173593 33.444321 17.168707 39.515610 1.221708 1.121336 0.060057 -0.031452 -1129690.000000 0 0 1
12.175293 -33.533002 16.477407 39.296373 -1.222513 1.138110 0.048852 -0.031961 -557749.000000 0 0 1
12.958393 -32.501052 16.986807 38.894600 -1.191405 1.118825 0.055052 -0.033856 -525725.000000 0 0 1
12.747893 -31.968582 18.417907 39.034835 -1.191357 1.079428 0.071966 -0.035431 -28223.400000 0 0 1
13.312693 -32.929452 19.318407 40.432381 -1.186606 1.072653 0.086903 -0.037131 260977.000000 0 0 1
13.134193 -32.468672 20.673807 40.670972 -1.186400 1.037565 0.078119 -0.034118 -1044550.000000 0 0 1
14.138993 -33.012762 21.606407 41.911698 -1.166143 1.029179 0.089245 -0.031490 -231067.000000 0 0 1
15.439993 -32.450932 21.352407 41.801694 -1.126700 1.034678 0.096905 -0.030447 543152.000000 0 0 1
16.338193 -33.004592 22.331607 43.069018 -1.111134 1.025692 0.104357 -0.029800 539003.000000 0 0 1
17.771293 -32.418972 22.255007 43.151986 -1.069355 1.028931 0.111199 -0.029996 362123.000000 0 0 1
17.702793 -31.030432 22.520207 42.230751 -1.052352 1.008340 0.116858 -0.027653 869044.000000 0 0 1
18.804493 -30.384122 21.835007 41.875665 -1.016601 1.022277 0.106188 -0.018754 526948.000000 0 0 1
-4.554307 13.236068 18.154553 22.924289 -1.239402 0.656824 0.006250 0.005321 -370776.000000 0 1 0
-4.382307 14.623968 18.123653 23.696664 -1.279646 0.700036 0.004766 0.006293 -88980.500000 0 1 0
-5.519807 15.220368 17.568153 23.890749 -1.222889 0.744608 0.015943 0.001262 -172051.000000 0 1 0
-5.224407 16.703968 17.337753 24.635638 -1.267671 0.790110 0.016721 -0.000706 -36921.600000 0 1 0
-4.924707 17.361568 18.542153 25.874471 -1.294401 0.771853 0.010484 0.006034 174652.000000 0 0 1
-4.430407 18.648068 18.346053 26.532181 -1.337541 0.807282 0.000789 -0.005622 -550034.000000 0 0 1
-3.714507 19.115868 19.646253 27.662054 -1.378873 0.780980 -0.007995 -0.008195 -278908.000000 0 0 1
-4.559807 19.497668 20.727453 28.819754 -1.341061 0.768132 -0.018524 -0.007678 250958.000000 0 0 1
-3.892707 20.097568 21.835553 29.930867 -1.379475 0.753158 -0.023315 -0.002569 -443096.000000 0 0 1
-4.884007 20.363168 22.938153 31.059154 -1.335398 0.739907 -0.007353 -0.002723 -281899.000000 0 0 1
-5.443007 19.237968 23.583623 30.917843 -1.295072 0.703189 0.005712 -0.010826 866221.000000 0 0 1
-6.505107 19.573968 24.528763 32.048664 -1.249945 0.699196 0.003734 -0.017477 1070210.000000 0 0 1
-5.981507 20.140968 25.911023 33.358929 -1.282111 0.681332 0.002449 -0.024207 -231158.000000 0 0 1
-5.527007 21.479668 25.714953 33.958545 -1.318946 0.711711 0.004723 -0.018621 646109.000000 0 0 1
-4.524407 21.957368 26.637843 34.816246 -1.367586 0.699603 0.013815 -0.012589 1166860.000000 0 0 1
-3.033307 21.586768 26.316393 34.172241 -1.431193 0.691782 0.020645 -0.011089 426459.000000 0 0 1
-2.676707 20.201468 26.585143 33.496775 -1.439063 0.653990 0.031529 -0.009014 1230740.000000 0 0 1
-1.296707 19.952168 26.213303 32.968284 -1.505897 0.651613 0.033269 -0.010423 1028700.000000 0 0 1
-0.691107 18.735368 26.902443 32.790747 -1.533925 0.608637 0.032535 -0.000428 -340532.000000 0 0 1
-1.186007 17.480468 26.396053 31.681620 -1.503053 0.585988 0.029205 -0.000089 45733.800000 0 0 1
-0.478707 16.337968 26.860413 31.442649 -1.541504 0.546657 0.025637 0.002403 -200009.000000 0 0 1
0.948893 16.058068 26.354543 30.875944 1.511774 0.548011 0.033109 0.002708 -209829.000000 0 0 1
1.054593 15.732668 24.963553 29.526395 1.503864 0.563360 0.024542 0.003962 -356968.000000 0 0 1
0.707193 14.413368 24.562943 28.488304 1.521771 0.531177 0.029227 0.001971 -379506.000000 0 0 1
0.864093 14.211768 23.050453 27.093254 1.510070 0.553325 0.021663 -0.005633 8305.160000 0 0 1
2.217093 14.320668 22.667853 26.904063 1.417198 0.568808 0.023627 -0.008655 -257312.000000 0 0 1
2.445193 13.626068 21.453253 25.532152 1.393237 0.573062 0.015283 -0.011896 87596.100000 0 0 1
3.910793 13.512068 20.997653 25.273934 1.289065 0.590248 0.012495 -0.013097 197763.000000 0 0 1
4.396793 14.581068 20.161453 25.267045 1.277926 0.646935 0.017265 -0.014953 436821.000000 0 0 1
5.822993 14.589368 20.154653 25.553218 1.191044 0.662052 0.030227 -0.015999 549951.000000 0 0 1
6.425493 15.704668 19.255053 25.664774 1.182431 0.722353 0.035814 -0.021524 -142111.000000 0 0 1
6.105293 15.380868 17.936253 24.403993 1.192930 0.745171 0.035872 -0.032508 305880.000000 0 1 0
6.628593 16.336868 16.999553 24.491148 1.185348 0.803613 0.033115 -0.021652 17878.700000 0 1 0
6.592793 15.896268 15.488153 23.152519 1.177649 0.837985 0.029628 -0.020372 -9959.950000 0 1 0
7.685293 15.085468 15.103953 22.688422 1.099617 0.842349 0.030251 -0.018146 126821.000000 0 1 0
7.846193 13.811668 15.597753 22.262408 1.054175 0.794514 0.039437 -0.021136 -588609.000000 0 1 0
9.040493 13.045368 15.029653 21.858697 0.964781 0.812642 0.042177 -0.023245 -654585.000000 0 1 0
10.266893 13.636868 15.322953 22.938312 0.925456 0.839269 0.029011 -0.026434 -419266.000000 0 1 0
11.242693 13.189768 14.382753 22.521805 0.864922 0.878100 0.042113 -0.019282 200875.000000 0 1 0
12.641693 13.824768 14.509453 23.695165 0.830069 0.911782 0.048592 -0.002246 -451971.000000 0 1 0
13.370193 13.166768 15.551053 24.371317 0.777733 0.878783 0.044280 -0.016953 622146.000000 0 1 0
14.725693 13.574768 15.724353 25.463221 0.744753 0.905195 0.042548 -0.014866 149276.000000 0 0 1
15.714293 13.027268 14.724253 25.168479 0.692180 0.945882 0.057251 -0.023023 -1279820.000000 0 0 1
17.026993 13.527868 14.849853 26.333246 0.671375 0.971671 0.055568 -0.025816 -439624.000000 0 0 1
17.731993 13.053568 13.788953 25.979885 0.634584 1.011305 0.051565 -0.027703 -1374210.000000 0 0 1
19.106293 13.682668 13.716653 27.210520 0.621472 1.042464 0.055752 -0.027409 -383459.000000 0 0 1
19.988693 13.176668 14.733253 28.111229 0.582820 1.019132 0.032594 -0.021533 328914.000000 0 0 1
21.339093 13.538068 14.524753 29.147978 0.565349 1.049147 0.034644 -0.029061 168601.000000 0 0 1
22.204693 13.393568 15.807453 30.369584 0.542759 1.023357 0.037361 -0.021239 -111528.000000 0 0 1
22.314193 12.024768 16.206053 30.085784 0.494269 1.001949 0.043976 -0.025056 343764.000000 0 0 1
23.207593 11.900968 17.295153 31.294532 0.473839 0.985247 0.036196 -0.023605 -226607.000000 0 0 1
23.444193 10.405468 17.516153 31.059935 0.417719 0.971639 0.050744 -0.015725 -434203.000000 0 0 1
22.247493 9.865068 17.987353 30.262442 0.417372 0.934303 0.033310 -0.004945 40776.100000 0 0 1
22.226893 8.485768 17.703953 29.655910 0.364701 0.931066 0.034249 -0.002131 223908.000000 0 0 1
20.979493 7.688368 18.203453 28.820407 0.351272 0.887159 0.060997 -0.006320 124153.000000 0 0 1
21.006193 6.358068 17.795253 28.255198 0.293910 0.889495 0.078797 -0.014990 522845.000000 0 0 1
19.890893 5.655268 18.316953 27.624997 0.277005 0.845901 0.084482 -0.015224 -355989.000000 0 0 1
19.745193 4.230168 17.699653 26.852275 0.211048 0.851110 0.109423 -0.012294 -654572.000000 0 0 1
19.025293 4.221968 16.491153 25.529295 0.218375 0.868503 0.101433 -0.019706 340682.000000 0 0 1
18.770393 2.867568 16.012753 24.838657 0.151599 0.870204 0.090736 -0.021369 36243.600000 0 1 0
17.909593 1.837968 16.819153 24.637686 0.102267 0.819400 0.107590 -0.020524 -118924.000000 0 1 0
18.427393 1.352768 18.026853 25.814070 0.073279 0.797728 0.121387 -0.023378 -191262.000000 0 0 1
17.489493 0.513668 18.623853 25.553750 0.029362 0.754213 0.109924 -0.025304 -478108.000000 0 0 1
18.075093 -0.125132 19.856953 26.851876 -0.006923 0.738470 0.118431 -0.030025 -352931.000000 0 0 1
18.810393 -1.287332 19.532053 27.147545 -0.068331 0.767746 0.111969 -0.029065 -137188.000000 0 0 1
18.134093 -2.491732 19.825153 26.983157 -0.136551 0.745538 0.079023 -0.023289 -120323.000000 0 0 1
18.538093 -3.716732 19.008253 26.810235 -0.197868 0.782728 0.075234 -0.016310 106629.000000 0 0 1
17.877293 -3.638632 17.731553 25.441015 -0.200791 0.799637 0.093113 -0.024448 477444.000000 0 0 1
17.555893 -4.918032 17.164053 25.039991 -0.273135 0.815553 0.096142 -0.022525 -247840.000000 0 0 1
16.988093 -4.765432 15.745453 23.647916 -0.273487 0.842193 0.076142 -0.026325 1261750.000000 0 1 0
15.547193 -4.514932 15.778953 22.606972 -0.282628 0.798240 0.066741 -0.017962 1475670.000000 0 1 0
15.006393 -4.369532 14.475953 21.303471 -0.283344 0.823700 0.056569 -0.022952 105575.000000 0 1 0
15.400893 -3.141032 13.574753 20.768426 -0.201192 0.858433 0.057546 -0.016301 -357786.000000 0 1 0
14.707193 -1.936332 13.829453 20.280648 -0.130906 0.820434 0.054997 -0.012373 -39320.400000 0 1 0
15.279093 -0.767832 13.230653 20.225984 -0.050212 0.857749 0.058177 -0.017113 125189.000000 0 1 0
14.316693 0.469868 13.307353 19.551832 0.032808 0.822189 0.065526 -0.013066 -344432.000000 0 1 0
14.783793 1.724068 12.784553 19.620850 0.116094 0.861131 0.067928 -0.013502 -12209.300000 0 1 0
15.868393 2.347868 13.427553 20.919311 0.146893 0.873857 0.087531 -0.021166 -116834.000000 0 1 0
16.085993 3.767968 12.914453 20.969975 0.230091 0.907326 0.080073 -0.024436 -436818.000000 0 1 0
15.060693 4.654068 13.250453 20.592701 0.299712 0.871795 0.064919 -0.017184 83524.300000 0 1 0
15.094293 5.818668 12.436153 20.404717 0.367934 0.915399 0.067950 -0.024139 -1234620.000000 0 1 0
13.935993 6.710868 12.638553 19.974501 0.448778 0.885717 0.047303 -0.021044 -1419940.000000 0 1 0
14.054793 7.942668 11.955853 20.088942 0.514379 0.933349 0.032165 -0.026735 143055.000000 0 1 0
13.144493 8.949468 12.352653 20.136005 0.597760 0.910361 0.024716 -0.009826 -566060.000000 0 1 0
13.489993 9.665168 13.667653 21.498840 0.621694 0.881831 0.038453 -0.018804 -74286.100000 0 1 0
13.301193 8.854468 14.833453 21.802630 0.587326 0.822554 0.051586 -0.023557 588329.000000 0 1 0
13.866293 9.387468 16.061853 23.203055 0.595122 0.806222 0.069198 -0.027195 -158961.000000 0 1 0
13.244093 8.842768 17.340953 23.543772 0.588701 0.742854 0.059847 -0.029565 -976183.000000 0 1 0
12.091693 9.524968 17.672953 23.436453 0.667213 0.716545 0.059725 -0.028842 -1019710.000000 0 1 0
11.285693 9.015268 18.677353 23.611130 0.674023 0.658289 0.053922 -0.011877 -209363.000000 0 1 0
11.784393 9.267468 20.114053 25.086511 0.666405 0.640516 0.063678 -0.016049 -94793.800000 0 0 1
12.950793 8.495468 20.420953 25.630282 0.580568 0.648897 0.085804 -0.023545 183219.000000 0 0 1
13.458793 8.997968 21.626053 27.014602 0.589310 0.642614 0.088873 -0.014332 36796.800000 0 0 1
14.995293 8.732268 21.644253 27.741395 0.527328 0.675787 0.087065 -0.015387 256513.000000 0 0 1
15.598793 9.524168 20.649153 27.575708 0.548156 0.724521 0.073878 -0.012079 -199510.000000 0 0 1
16.598393 8.790568 19.946653 27.397987 0.487049 0.755347 0.069203 -0.014099 -26738.300000 0 0 1
17.366093 9.798968 19.060253 27.584311 0.513724 0.807950 0.064821 -0.013487 -223333.000000 0 0 1
18.219693 10.561068 19.887753 28.965775 0.525323 0.814001 0.061093 -0.015021 49652.600000 0 0 1
19.111193 11.346668 19.121753 29.319380 0.535788 0.860329 0.049378 -0.015336 287475.000000 0 0 1
20.161093 12.105868 19.981753 30.859232 0.540755 0.866480 0.045729 -0.008312 -295245.000000 0 0 1
19.647393 13.230868 20.678753 31.443390 0.592661 0.853101 0.047341 -0.007287 -212600.000000 0 0 1
20.406893 13.813968 21.696153 32.832759 0.595072 0.848901 0.055091 0.000788 -597089.000000 0 0 1
21.585093 14.684068 21.213053 33.638248 0.597373 0.888441 0.025958 0.000077 -625333.000000 0 0 1
22.730793 13.934768 20.970853 33.921135 0.549949 0.904315 -0.012922 0.012765 225872.000000 0 0 1
23.887993 14.799668 20.923253 35.034967 0.554666 0.930777 -0.010526 0.010206 1311860.000000 0 0 1
25.318193 14.198168 20.794353 35.707198 0.511089 0.949171 -0.007887 0.001621 472962.000000 0 0 1
25.578093 13.645468 19.516053 34.947303 0.490074 0.978289 0.002677 -0.011917 1038230.000000 0 0 1
26.662493 12.668468 19.689953 35.483417 0.443564 0.982547 0.032202 -0.017042 1111030.000000 0 0 1
27.024593 11.872168 18.416653 34.791524 0.413928 1.012970 0.066829 -0.029661 -91954.300000 0 0 1
27.460693 12.645768 17.295453 34.830128 0.431555 1.051158 0.070991 -0.037782 289169.000000 0 0 1
27.628593 11.799868 16.144453 34.106002 0.403639 1.077694 0.099362 -0.049384 -592897.000000 0 0 1
26.426493 11.658668 15.230253 32.653402 0.415490 1.085555 0.072129 -0.056849 -564240.000000 0 0 1
26.246393 12.740668 14.353853 32.515087 0.451920 1.113580 0.085796 -0.052813 192693.000000 0 0 1
25.132993 12.480268 13.505853 31.142134 0.460899 1.122219 0.071923 -0.046494 173695.000000 0 0 1
24.764593 13.652368 12.563153 30.943578 0.503830 1.152721 0.056635 -0.046124 -12486.200000 0 0 1
24.228893 14.727668 13.374153 31.349823 0.546176 1.130055 0.038052 -0.038266 300460.000000 0 0 1
23.875793 15.865468 12.584653 31.307189 0.586501 1.157125 0.021735 -0.027355 -695977.000000 0 0 1
22.896393 16.806968 13.248353 31.340674 0.633211 1.134351 0.028654 -0.025008 -1038120.000000 0 0 1
21.598693 16.274868 13.266953 30.122864 0.645745 1.114721 0.053347 -0.024711 257973.000000 0 0 1
20.616293 17.335368 13.469853 30.116166 0.699162 1.107093 0.050751 -0.017288 21631.800000 0 0 1
20.037493 17.858168 12.137053 29.457144 0.727953 1.146122 0.075322 -0.006856 -388744.000000 0 0 1
18.996693 17.032768 11.653253 28.049739 0.730943 1.142359 0.076213 -0.007705 871755.000000 0 0 1
17.686393 17.401068 12.142953 27.623486 0.777267 1.115656 0.053174 -0.004723 839861.000000 0 0 1
16.505993 16.787568 11.320253 26.123139 0.793855 1.122599 0.053788 -0.012264 52868.000000 0 0 1
16.100793 15.624668 11.925453 25.408310 0.770392 1.082239 0.048193 -0.005865 -127765.000000 0 0 1
15.037693 14.985768 11.283553 24.042130 0.783669 1.082271 0.051131 -0.016289 -175553.000000 0 1 0
15.477693 13.785968 10.350853 23.167910 0.727653 1.107639 0.065112 -0.022891 -150743.000000 0 1 0
15.748193 12.550168 11.028853 22.959702 0.672865 1.069735 0.061328 -0.023409 184866.000000 0 1 0
16.451693 11.665868 10.222753 22.610957 0.616806 1.101661 0.078306 -0.021768 -390479.000000 0 1 0
16.702893 10.365168 10.919253 22.486739 0.555401 1.063763 0.074713 -0.032608 -1111460.000000 0 1 0
17.306093 9.425468 10.108153 22.147575 0.498713 1.096851 0.076202 -0.029182 226818.000000 0 1 0
17.940093 8.295468 10.687253 22.469515 0.433116 1.075112 0.084380 -0.025724 283505.000000 0 1 0
19.177393 8.622368 11.554153 23.992000 0.422530 1.068336 0.069805 -0.027517 -761216.000000 0 1 0
18.873893 9.304468 12.785753 24.622600 0.458017 1.024801 0.058924 -0.030788 1178620.000000 0 1 0
20.054393 9.370668 13.645153 26.003429 0.437116 1.018382 0.070162 -0.035127 668805.000000 0 0 1
19.603593 9.502868 15.131053 26.524595 0.451374 0.963738 0.057190 -0.021143 310789.000000 0 0 1
19.024493 8.396268 15.860653 26.153183 0.415629 0.919205 0.075872 -0.024469 744009.000000 0 0 1
17.707393 8.005668 15.511053 24.864337 0.424606 0.897166 0.080566 -0.030840 -122797.000000 0 1 0
17.107593 6.802968 16.190653 24.517083 0.378486 0.849468 0.083510 -0.021671 -1404200.000000 0 1 0
16.597393 6.932668 17.512753 25.104419 0.395668 0.798759 0.094314 -0.013049 212991.000000 0 0 1
15.981193 5.746768 17.925753 24.693248 0.345198 0.758400 0.098263 -0.001757 304009.000000 0 1 0
14.696793 5.299668 17.147053 23.197061 0.346087 0.738928 0.098396 -0.029545 -356856.000000 0 1 0
14.062493 4.105368 17.690053 22.968364 0.284044 0.691654 0.092972 -0.018167 479983.000000 0 1 0
13.281393 3.472068 16.700953 21.618800 0.255701 0.687996 0.066889 -0.016019 -1789.660000 0 1 0
12.997093 1.965768 16.912053 21.419762 0.150109 0.660715 0.061904 -0.013545 -392661.000000 0 1 0
14.159993 1.205668 16.796953 22.002197 0.084941 0.702202 0.075103 -0.019530 -133463.000000 0 1 0
13.906493 -0.194432 16.830253 21.833135 -0.013980 0.690609 0.066816 -0.005103 -202331.000000 0 1 0
13.140293 -0.985332 17.939353 22.258899 -0.074845 0.633533 0.051622 -0.009550 524393.000000 0 1 0
11.759193 -0.759732 17.684053 21.250448 -0.064518 0.587781 0.039646 -0.004038 286036.000000 0 1 0
10.855593 -1.489332 18.518853 21.517666 -0.136344 0.534281 0.044201 -0.015183 371915.000000 0 1 0
-25.943927 14.174268 28.946183 41.374857 -0.500031 0.795948 0.084058 -0.009140 -94311.100000 0 0 1
-24.905507 14.108668 29.901883 41.393978 -0.515414 0.763569 0.079960 -0.010411 356314.000000 0 0 1
-24.507007 12.741068 30.189493 40.918623 -0.479437 0.741001 0.066606 -0.002576 69176.000000 0 0 1
-23.226707 12.675668 31.058463 40.801724 -0.499564 0.705628 0.060536 -0.005974 -183767.000000 0 0 1
-23.466807 13.108968 32.388590 42.089867 -0.509435 0.692722 0.054214 -0.005367 234826.000000 0 0 1
-22.378907 13.056768 33.321659 42.209331 -0.528155 0.660903 0.056693 -0.003976 -133988.000000 0 0 1
-22.726507 13.198468 -33.436623 42.528831 -0.526146 2.475449 0.075755 -0.006785 -179184.000000 0 0 1
-23.520907 12.132368 -32.949323 42.262102 -0.476217 2.464891 0.051145 -0.002208 253845.000000 0 0 1
-23.904007 12.398768 -31.595593 41.514003 -0.478488 2.435777 0.045567 -0.010228 -17530.300000 0 0 1
-24.895707 11.325668 -31.069333 41.392879 -0.426942 2.419760 0.037564 -0.010583 -171420.000000 0 0 1
-24.368907 10.136968 -30.508193 40.340446 -0.394206 2.428387 0.060428 -0.017155 100240.000000 0 0 1
-23.954207 9.147768 -31.443433 40.573084 -0.364794 2.457484 0.046671 -0.015357 -78802.200000 0 0 1
-23.053607 8.092068 -30.806903 39.319405 -0.337575 2.471081 0.043424 0.000942 -189888.000000 0 0 1
-23.797307 7.307368 -29.880053 38.891220 -0.297928 2.446974 0.039587 -0.001836 943794.000000 0 0 1
-22.868607 6.481868 -29.130283 37.597356 -0.276195 2.457189 0.029761 0.008042 506187.000000 0 0 1
-23.448707 5.535368 -28.013293 36.948975 -0.231819 2.431285 0.017565 0.012673 -251167.000000 0 0 1
-24.084407 4.391368 -28.460053 37.540876 -0.180351 2.431204 0.041463 0.001327 106071.000000 0 0 1
-24.597007 3.523668 -27.429063 37.010573 -0.142288 2.405525 0.061057 0.009205 -153888.000000 0 0 1
-25.292877 2.253968 -28.073713 37.854238 -0.088880 2.406288 0.073993 0.012939 587431.000000 0 0 1
-26.592977 2.341468 -28.651233 39.160721 -0.087822 2.391509 0.092485 -0.007008 547657.000000 0 0 1
-26.809757 3.372468 -29.588833 40.070384 -0.125135 2.401523 0.077702 -0.000577 -1070090.000000 0 0 1
-28.067667 3.101668 -30.434513 41.517151 -0.110060 2.393605 0.125687 -0.011953 366667.000000 0 0 1
-29.241407 3.379368 -29.652123 41.781915 -0.115057 2.359852 0.106486 -0.011209 1035670.000000 0 0 1
-30.480407 3.567668 -30.341213 43.155216 -0.116518 2.350504 0.110792 -0.015618 734434.000000 0 0 1
-30.758477 5.048968 -30.740823 43.778695 -0.162698 2.349261 0.118277 -0.037705 -534287.000000 0 0 1
-29.884117 5.605568 -31.693133 43.919671 -0.185422 2.376930 0.121732 -0.032132 8937.270000 0 0 1
-30.269247 6.866168 -32.196563 44.721250 -0.223062 2.374510 0.117590 -0.036526 -374587.000000 0 0 1
-30.153667 8.058268 -31.230063 44.153099 -0.261138 2.356486 0.093210 -0.033181 196688.000000 0 0 1
-28.816257 8.443268 -30.943003 43.117686 -0.285026 2.371205 0.058014 -0.039761 415581.000000 0 0 1
-28.176767 7.878168 -29.800893 41.762291 -0.272636 2.365397 0.051099 -0.031746 -315629.000000 0 0 1
-28.391387 8.577068 -28.443613 41.093504 -0.293383 2.335285 0.031392 -0.012033 456020.000000 0 0 1
-29.728647 8.566068 -27.912993 41.668995 -0.280543 2.304836 0.052501 -0.011774 754724.000000 0 0 1
-30.029837 7.402568 -27.243383 41.216393 -0.241689 2.292926 0.049622 -0.004152 -135813.000000 0 0 1
-31.439587 7.386268 -26.577663 41.825551 -0.230751 2.259376 0.055920 -0.003484 413620.000000 0 0 1
-31.595947 8.324968 -25.549563 41.477574 -0.257627 2.234432 0.014361 0.003513 34860.600000 0 0 1
-31.533557 7.792168 -24.237293 40.528132 -0.242254 2.211845 0.014437 0.001551 -178591.000000 0 0 1
-31.048107 8.943468 -23.297293 39.833835 -0.280460 2.195506 0.012134 -0.005803 -276264.000000 0 0 1
-31.963927 9.880268 -22.766093 40.467361 -0.299791 2.168298 0.014545 0.002943 -173647.000000 0 0 1
-31.303937 10.793368 -21.977993 39.742489 -0.332028 2.156769 0.023825 -0.003658 -304022.000000 0 0 1
-32.269797 11.724768 -21.189793 40.346218 -0.348505 2.123745 0.017861 -0.003465 48758.500000 0 0 1
-32.853307 10.999468 -20.088993 40.048667 -0.323075 2.096260 0.017820 -0.010697 -72844.900000 0 0 1
-33.358577 11.825568 -19.070393 40.203465 -0.340677 2.065018 0.005940 -0.004604 -175771.000000 0 0 1
-32.467947 12.872068 -18.277793 39.419988 -0.377446 2.052927 0.015768 -0.005496 257856.000000 0 0 1
-31.607727 12.385868 -17.241593 38.075329 -0.373471 2.040731 0.040428 -0.005916 577097.000000 0 0 1
-32.293667 11.867768 -16.103993 37.987675 -0.352175 2.008573 0.032887 0.001541 -77560.700000 0 0 1
-32.906487 12.904868 -15.126193 38.447031 -0.373736 1.975155 0.018677 0.003356 -152870.000000 0 0 1
-33.849527 13.712968 -15.765493 39.779225 -0.384908 1.978307 0.008549 0.003375 -357929.000000 0 0 1
-34.547804 14.471468 -14.852693 40.293630 -0.396678 1.948311 -0.001065 0.007773 -294263.000000 0 0 1
-35.258770 15.752268 -15.323293 41.546578 -0.420158 1.948538 -0.000241 0.003071 -514406.000000 0 0 1
-36.205657 15.435268 -16.263793 42.586478 -0.402990 1.962648 -0.000631 -0.001297 -591071.000000 0 0 1
36.441231 16.545668 -16.713893 43.371381 0.426206 1.966402 -0.003684 -0.003732 -568442.000000 0 0 1
36.152001 16.501668 -18.282693 43.743904 0.428207 2.001982 -0.011055 0.000060 687645.000000 0 0 1
35.156231 15.671268 -18.907093 42.883883 0.419323 2.027387 0.024871 -0.004341 1397580.000000 0 0 1
33.797551 15.894768 -18.511293 41.684363 0.439601 2.030946 0.078399 -0.021560 252603.000000 0 0 1
32.803811 14.801368 -18.871493 40.636237 0.423859 2.053754 0.106719 -0.026662 -423260.000000 0 0 1
32.587011 14.563968 -20.256693 41.040907 0.420294 2.086990 0.102838 -0.025076 419555.000000 0 0 1
31.550511 13.644668 -20.552293 40.050074 0.408181 2.109665 0.073391 -0.027778 25248.100000 0 0 1
31.857251 12.169768 -20.201693 39.637055 0.364902 2.105594 0.071416 -0.013211 -207427.000000 0 0 1
31.910191 11.858968 -18.859793 38.917698 0.355818 2.076710 0.075591 -0.012263 154863.000000 0 0 1
32.608321 10.620968 -18.662493 39.043517 0.314877 2.069164 0.056680 -0.004433 -21024.600000 0 0 1
33.021941 10.460468 -17.174493 38.663073 0.306773 2.031088 0.048565 -0.000712 -440736.000000 0 0 1
31.943861 10.655168 -16.318993 37.419947 0.321954 2.022061 0.064648 -0.005331 18539.600000 0 0 1
32.428041 10.412468 -15.012793 37.220711 0.310696 1.985966 0.018230 -0.001292 -137789.000000 0 0 1
31.714831 11.251168 -13.938993 36.424097 0.340909 1.963498 0.045530 -0.007955 -1364010.000000 0 0 1
30.366961 11.025168 -13.856093 35.152496 0.348266 1.975962 0.071964 -0.009402 -1179340.000000 0 0 1
29.709301 12.099768 -13.211293 34.692726 0.386760 1.961467 0.083006 -0.009215 257160.000000 0 0 1
28.169321 11.957868 -13.385893 33.401847 0.401447 1.983135 0.110614 -0.014196 -606662.000000 0 0 1
27.607521 10.913168 -12.664893 32.274943 0.376445 1.974043 0.098087 -0.010718 206020.000000 0 0 1
26.193821 10.828168 -12.812593 31.105113 0.391993 1.995349 0.106980 -0.008450 443793.000000 0 0 1
25.723021 10.291868 -14.209393 31.136846 0.380596 2.044688 0.105622 -0.023212 -1010080.000000 0 0 1
25.901821 8.912168 -14.464093 30.976460 0.331387 2.056621 0.100795 -0.019847 522789.000000 0 0 1
27.232221 8.484968 -14.717693 32.096714 0.302045 2.047150 0.100758 -0.023001 405032.000000 0 0 1
27.976921 7.573968 -13.648993 32.036980 0.264385 2.010906 0.099603 -0.020556 82816.600000 0 0 1
27.642221 6.210268 -13.686093 31.463772 0.220997 2.020812 0.096999 -0.030082 569360.000000 0 0 1
26.428221 5.953468 -12.991993 30.044742 0.221571 2.017973 0.109180 -0.028122 -2457.120000 0 0 1
26.197421 4.442968 -12.952893 29.560485 0.167997 2.024372 0.113797 -0.033798 -96706.400000 0 0 1
25.373921 3.957068 -11.910193 28.308072 0.154704 2.005052 0.109745 -0.037002 587508.000000 0 0 1
24.825921 2.649968 -12.016693 27.708295 0.106339 2.019376 0.091855 -0.037527 -319632.000000 0 0 1
24.041821 2.137868 -10.807493 26.445823 0.088690 1.991788 0.081287 -0.034646 -33968.800000 0 0 1
24.818121 1.861468 -9.627493 26.685067 0.074864 1.939903 0.089351 -0.030305 953249.000000 0 0 1
23.960721 1.618368 -8.514993 25.480196 0.067440 1.911532 0.093425 -0.015422 -60253.600000 0 0 1
24.785221 1.239168 -7.245293 25.852214 0.049955 1.854859 0.107828 -0.009682 144803.000000 0 0 1
25.018421 -0.139232 -6.901193 25.953174 -0.005565 1.839943 0.082992 -0.016178 497732.000000 0 0 1
25.585321 -0.927132 -7.931993 26.802700 -0.036221 1.871236 0.081609 -0.019201 -541840.000000 0 0 1
26.002221 -2.337232 -7.490793 27.160452 -0.089645 1.850216 0.094705 -0.022613 192847.000000 0 0 1
27.230121 -2.446632 -6.773993 28.166514 -0.089610 1.813675 0.098775 -0.023538 628030.000000 0 0 1
27.249221 -3.648032 -5.970893 28.133250 -0.133085 1.784659 0.112050 -0.031625 1046520.000000 0 0 1
28.648031 -3.874032 -5.245293 29.380792 -0.134413 1.750286 0.106192 -0.024985 2328670.000000 0 0 1
29.817111 -4.144432 -6.083193 30.712240 -0.138110 1.770185 0.088236 -0.017701 1549240.000000 0 0 1
30.893121 -4.726032 -5.357993 31.708491 -0.151803 1.740588 0.087574 -0.013800 1061440.000000 0 0 1
32.152811 -4.993532 -6.306793 33.143842 -0.154075 1.762249 0.070651 -0.016145 749943.000000 0 0 1
31.934541 -5.994532 -7.280993 33.298081 -0.185554 1.791238 0.073065 -0.022771 -68140.500000 0 0 1
32.633981 -5.761032 -8.468393 34.203507 -0.174734 1.820987 0.076501 -0.020991 -430079.000000 0 0 1
31.924601 -6.497432 -9.654393 33.979466 -0.200782 1.858889 0.075691 -0.021204 972551.000000 0 0 1
30.617301 -5.993732 -9.926893 32.739688 -0.193318 1.878852 0.074260 -0.022077 1408930.000000 0 0 1
29.508021 -6.597532 -9.194693 31.603688 -0.219967 1.866003 0.078729 -0.024582 618628.000000 0 0 1
28.255621 -5.686732 -9.157293 30.241942 -0.198607 1.878427 0.081926 -0.022520 -769433.000000 0 0 1
27.503321 -5.787332 -10.356393 29.952976 -0.207397 1.923840 0.068012 -0.021393 407608.000000 0 0 1
26.428921 -4.855732 -10.301593 28.778270 -0.181702 1.936883 0.088711 -0.023849 -4211.640000 0 0 1
25.115421 -5.384532 -9.701593 27.457212 -0.211194 1.931930 0.115743 -0.025647 -1791120.000000 0 0 1
25.086321 -5.938032 -8.344693 27.096451 -0.232426 1.883847 0.111060 -0.028538 679838.000000 0 0 1
23.828021 -6.519232 -8.000093 25.966834 -0.267060 1.883980 0.102650 -0.031770 281761.000000 0 0 1
22.730821 -5.502332 -7.600993 24.591482 -0.237496 1.885033 0.107613 -0.019750 -558600.000000 0 1 0
22.330821 -4.752032 -8.714493 24.437466 -0.209674 1.935426 0.108428 -0.015365 -39083.100000 0 1 0
21.852321 -3.538332 -8.275593 23.633222 -0.160527 1.928547 0.094416 -0.019094 -344583.000000 0 1 0
21.741821 -2.489032 -9.396893 23.816038 -0.113985 1.976387 0.095498 -0.010121 -271707.000000 0 1 0
23.001321 -2.205432 -9.976493 25.168534 -0.095591 1.978375 0.086503 -0.017007 534103.000000 0 0 1
22.963721 -1.440532 -11.164393 25.574426 -0.062649 2.022551 0.093901 -0.018577 -7529.680000 0 0 1
24.355021 -1.570332 -11.830993 27.122046 -0.064388 2.022182 0.079527 -0.018381 -130365.000000 0 0 1
25.396121 -0.929932 -11.151393 27.752141 -0.036601 1.984301 0.074204 -0.028959 199161.000000 0 0 1
26.622421 -1.185732 -11.817893 29.151704 -0.044509 1.988205 0.073769 -0.028696 -104930.000000 0 0 1
27.723921 -0.199232 -11.392693 29.974138 -0.007186 1.960684 0.076116 -0.022853 -671727.000000 0 0 1
28.984871 -0.492732 -11.941193 31.352155 -0.016998 1.961537 0.078183 -0.027405 155686.000000 0 0 1
29.932911 0.534468 -11.740393 32.157451 0.017854 1.944527 0.083671 -0.024786 -25270.300000 0 0 1
29.804701 1.743768 -12.726693 32.455040 0.058440 1.973745 0.088600 -0.028621 -513144.000000 0 0 1
29.979141 1.470568 -14.075293 33.151551 0.049014 2.009288 0.076863 -0.030172 371877.000000 0 0 1
30.053551 2.679468 -14.847693 33.628105 0.088921 2.028095 0.084115 -0.027387 42700.100000 0 0 1
30.316791 2.450268 -16.341993 34.527849 0.080647 2.063828 0.086488 -0.029002 -48444.400000 0 0 1
29.140111 2.047568 -16.979393 33.788140 0.070151 2.097313 0.071611 -0.015064 -430711.000000 0 0 1
29.537031 1.724668 -18.250593 34.763412 0.058324 2.123505 0.061604 -0.015323 -709262.000000 0 0 1
28.593391 1.019368 -19.173093 34.441670 0.035635 2.161184 0.035947 -0.006535 -686488.000000 0 0 1
28.328641 -0.315432 -18.762193 33.979866 -0.011134 2.155744 0.047695 -0.008692 12746.500000 0 0 1
27.611821 -0.967832 -19.770293 33.973723 -0.035037 2.191895 0.016262 -0.005728 -262932.000000 0 0 1
27.531521 -2.545432 -19.640893 33.915019 -0.092193 2.188446 0.020616 -0.010401 586465.000000 0 0 1
26.395821 -2.997032 -18.858993 32.578876 -0.113058 2.188141 0.030649 -0.008256 1054610.000000 0 0 1
26.190821 -4.414332 -18.905093 32.601349 -0.166976 2.189386 0.041324 -0.006622 -267901.000000 0 0 1
27.087121 -5.171232 -17.892693 32.872515 -0.188641 2.146357 0.035361 -0.001148 78365.300000 0 0 1
28.429731 -5.151532 -18.352293 34.228563 -0.179257 2.136688 0.041374 -0.005361 -36375.200000 0 0 1
29.315661 -5.172032 -17.268293 34.414413 -0.174629 2.096446 0.046012 -0.009538 349271.000000 0 0 1
30.821181 -4.999332 -17.641393 35.863035 -0.160804 2.085079 0.071418 -0.011116 453506.000000 0 0 1
31.497821 -6.065732 -18.288693 36.924005 -0.190247 2.088984 0.059406 -0.008101 -323173.000000 0 0 1
32.798721 -5.633332 -18.564693 38.106933 -0.170095 2.079647 0.079283 -0.004272 -819343.000000 0 0 1
33.653251 -6.735732 -19.152793 39.303192 -0.197541 2.079802 0.068299 0.002952 -358203.000000 0 0 1
34.209611 -7.640932 -18.226893 39.508239 -0.219749 2.050306 0.075982 -0.002127 -63015.900000 0 0 1
34.793681 -8.785732 -18.750393 40.489092 -0.247339 2.052283 0.067211 -0.001800 -77054.500000 0 0 1
35.645921 -9.650032 -17.791093 40.991192 -0.264382 2.019749 0.069709 -0.001642 -753102.000000 0 0 1
34.863071 -10.123832 -16.690393 39.956162 -0.282616 2.001728 0.073182 -0.001909 147236.000000 0 0 1
35.391061 -10.984832 -15.727793 40.256145 -0.300956 1.972181 0.067662 -0.000962 -975876.000000 0 0 1
36.614751 -10.486432 -14.947393 40.914909 -0.278933 1.944782 0.084650 -0.009135 -106174.000000 0 0 1
-36.081507 -11.389232 -14.008493 40.346346 0.305755 1.925386 0.087401 -0.007847 668357.000000 0 0 1
-35.671926 -12.689132 -14.385693 40.502451 0.341759 1.933904 0.068994 0.002294 262669.000000 0 0 1
-34.297776 -12.776932 -15.153493 39.613328 0.356603 1.963335 0.081409 -0.007812 327877.000000 0 0 1
-34.220588 -12.054032 -16.383893 39.809299 0.338673 1.994961 0.082565 -0.003205 511586.000000 0 0 1
-32.839147 -12.121132 -16.742693 38.802696 0.353593 2.016932 0.097397 -0.009599 508952.000000 0 0 1
-32.466187 -11.200732 -17.953093 38.753364 0.332211 2.052473 0.109061 -0.007428 104813.000000 0 0 1
-32.703197 -9.843032 -17.731493 38.481037 0.292356 2.049676 0.109284 -0.006869 380279.000000 0 0 1
-33.960307 -9.343832 -18.168693 39.632197 0.268496 2.047027 0.097964 -0.007982 -61552.900000 0 0 1
-34.311583 -7.991832 -17.532493 39.351524 0.228839 2.032568 0.107013 -0.011483 298358.000000 0 0 1
-35.544172 -7.494432 -18.073193 40.573328 0.207805 2.032468 0.104377 -0.008760 336660.000000 0 0 1
-35.818751 -6.230032 -17.469193 40.335703 0.172209 2.018720 0.095274 -0.017195 -22898.300000 0 0 1
24.761893 27.040368 -26.926923 45.490570 0.829354 2.204239 0.065398 0.002862 -237993.000000 0 0 1
25.273593 25.918268 -26.324503 44.760368 0.797991 2.199530 0.068082 -0.007540 610037.000000 0 0 1
26.659593 25.761368 -26.689263 45.680397 0.768265 2.194765 0.071012 -0.016192 912123.000000 0 0 1
27.502593 24.795368 -25.810203 45.137229 0.733679 2.179514 0.055227 -0.015218 -155426.000000 0 0 1
27.898493 25.449868 -24.604693 45.071195 0.739532 2.148268 0.068203 -0.011445 306123.000000 0 0 1
28.525193 24.571168 -23.640393 44.455563 0.711067 2.131492 0.059589 -0.011595 193802.000000 0 0 1
28.955093 25.330068 -22.386893 44.510479 0.718720 2.097814 0.045388 -0.001704 -145618.000000 0 0 1
27.897593 25.925468 -21.705093 43.835107 0.748774 2.088807 0.060120 0.003279 -293752.000000 0 0 1
28.470793 26.863968 -20.839993 44.345959 0.756368 2.060020 0.032976 0.011441 -58043.600000 0 0 1
27.454193 27.772768 -20.145193 43.941872 0.791167 2.047048 0.046960 0.019736 -175027.000000 0 0 1
26.671293 27.001868 -19.246293 42.554418 0.791557 2.040111 0.065463 0.017454 -59796.100000 0 0 1
25.827793 27.845168 -18.507193 42.248603 0.822967 2.024230 0.054326 0.014487 -141859.000000 0 0 1
25.050293 27.191368 -17.345393 40.838099 0.826359 2.009466 0.045909 0.011720 -331754.000000 0 0 1
24.019193 26.385368 -17.836193 39.890338 0.832307 2.034351 0.052520 0.009719 -333457.000000 0 0 1
22.969293 26.452968 -16.875393 38.886075 0.855770 2.019691 0.039249 0.023455 -55412.200000 0 0 1
21.789593 25.525668 -17.216193 37.719271 0.864196 2.044775 0.041288 0.017778 -389654.000000 0 0 1
21.221593 25.984368 -18.402593 38.264851 0.885951 2.072508 0.039645 0.014045 -259045.000000 0 0 1
20.312593 25.013868 -18.924593 37.368907 0.888749 2.101831 0.039706 0.011766 57508.700000 0 0 1
19.730293 25.448468 -20.261493 38.045198 0.911297 2.132423 0.040788 0.009769 -410006.000000 0 0 1
18.785193 26.426168 -20.065493 38.129383 0.952822 2.124978 0.030508 0.007286 -668840.000000 0 0 1
17.790593 26.423468 -21.073693 38.194311 0.978224 2.155257 0.029174 0.006432 -144981.000000 0 0 1
16.702493 27.468268 -20.937493 38.364797 1.024468 2.148077 0.028434 0.003705 -501460.000000 0 0 1
15.809293 27.242268 -19.882793 37.247823 1.044971 2.133881 0.036149 0.001623 -572559.000000 0 0 1
14.911193 28.305168 -19.775093 37.610909 1.085938 2.124429 0.029897 -0.002974 -152228.000000 0 0 1
14.330893 28.392168 -18.347393 36.716706 1.103357 2.094050 0.034675 -0.009168 3506.770000 0 0 1
13.376893 27.394768 -18.070193 35.439335 1.116552 2.105854 0.047280 -0.011821 -250532.000000 0 0 1
13.020993 27.512168 -16.661793 34.699870 1.128751 2.071643 0.061108 -0.013093 171960.000000 0 0 1
12.083893 26.329768 -16.200393 33.192316 1.140529 2.080681 0.067716 -0.015714 370344.000000 0 0 1
12.700493 25.033768 -16.120093 32.370503 1.101298 2.092072 0.065385 -0.017035 -485678.000000 0 0 1
11.780893 24.000568 -16.092693 31.205632 1.114488 2.112619 0.079800 -0.016765 -333338.000000 0 0 1
12.542993 22.669268 -16.132793 30.520311 1.065420 2.127737 0.073469 -0.014902 140018.000000 0 0 1
13.007193 22.545068 -17.462793 31.343521 1.047504 2.161737 0.071242 -0.011561 -576174.000000 0 0 1
13.940093 21.519668 -17.660393 31.133772 0.995981 2.173950 0.073422 -0.009708 -649354.000000 0 0 1
13.419393 20.106268 -17.998393 30.137755 0.982270 2.210807 0.076951 -0.009917 22024.600000 0 0 1
12.808993 19.531868 -16.833893 28.791389 0.990355 2.195288 0.075231 -0.013263 -261761.000000 0 0 1
12.392193 18.207768 -17.023593 27.836881 0.973210 2.228812 0.071145 -0.019586 -180300.000000 0 0 1
13.502893 17.130168 -17.046293 27.682971 0.903260 2.234157 0.072330 -0.014088 -21891.100000 0 0 1
14.177293 17.047368 -15.801193 27.226569 0.877058 2.189966 0.076112 -0.014994 -224060.000000 0 0 1
15.100093 16.007768 -15.824693 27.105024 0.814568 2.194233 0.072872 -0.012487 -907330.000000 0 0 1
15.544293 15.589668 -14.424193 26.319577 0.786856 2.150816 0.111612 -0.012034 -1030300.000000 0 0 1
16.328393 16.472768 -13.612993 26.893904 0.789800 2.101539 0.091056 -0.012755 2371880.000000 0 0 1
17.742493 16.663868 -13.978293 28.069079 0.754059 2.092083 0.075494 -0.013767 1487230.000000 0 0 1
18.595593 15.479468 -14.428793 28.170908 0.694203 2.108526 0.059890 -0.013454 -1669190.000000 0 0 1
18.811093 14.452068 -13.483993 27.286215 0.655094 2.087675 0.079062 -0.017764 331553.000000 0 0 1
19.958393 14.679768 -12.701493 27.841712 0.634168 2.044521 0.092322 -0.016450 -677057.000000 0 0 1
20.629993 13.433268 -12.229393 27.488313 0.577185 2.031853 0.115471 -0.031401 -223655.000000 0 0 1
19.940493 12.795268 -11.127693 26.175708 0.570499 2.009886 0.150599 -0.031397 749452.000000 0 0 1
20.628393 11.625768 -10.641593 25.960211 0.513210 1.993162 0.155995 -0.016566 134177.000000 0 0 1
20.831093 10.389168 -11.584693 26.001430 0.462634 2.032574 0.135331 -0.017857 -267088.000000 0 0 1
21.745493 10.462568 -12.675993 27.258257 0.448444 2.054468 0.117416 -0.006375 498954.000000 0 0 1
21.744293 9.316568 -13.484793 27.229622 0.404798 2.088890 0.110139 -0.019097 11424.100000 0 0 1
22.392193 7.995368 -12.886893 27.044560 0.342951 2.067472 0.109973 -0.002990 -549487.000000 0 0 1
21.677593 7.389768 -11.821593 25.773567 0.328540 2.047296 0.106796 -0.016695 151264.000000 0 0 1
22.178293 6.274868 -11.147893 25.603245 0.275722 2.021289 0.101772 0.004770 -1018880.000000 0 0 1
22.028593 4.964468 -11.972893 25.558854 0.221662 2.058325 0.088159 -0.006477 375435.000000 0 0 1
20.793893 4.232968 -11.976693 24.366887 0.200824 2.084625 0.060829 -0.020736 1177070.000000 0 1 0
19.694993 4.833468 -12.638193 23.895168 0.240660 2.128102 0.014295 -0.032475 -29561.800000 0 1 0
18.673593 3.809168 -13.179793 23.171529 0.201226 2.175833 0.009756 -0.039747 -205989.000000 0 1 0
19.204993 3.137168 -14.287893 24.141612 0.161922 2.204132 0.019646 -0.041822 315982.000000 0 1 0
19.086693 1.727868 -14.088893 23.786220 0.090281 2.204723 0.054531 -0.037577 -865316.000000 0 1 0
20.138993 0.881568 -14.826593 25.023670 0.043746 2.204958 0.079949 -0.030615 -925914.000000 0 0 1
21.345993 1.023768 -14.097793 25.601704 0.047924 2.153949 0.100911 -0.019223 1128390.000000 0 0 1
22.584193 0.803568 -14.816893 27.022801 0.035566 2.151139 0.069565 -0.022334 777742.000000 0 0 1
22.846693 -0.638432 -15.307493 27.508150 -0.027937 2.160929 0.061934 -0.024184 -1319720.000000 0 0 1
21.885093 -1.198732 -16.182993 27.244880 -0.054719 2.206797 0.064265 -0.023023 -63007.200000 0 0 1
22.345093 -2.312732 -16.906793 28.115681 -0.103133 2.215961 0.061788 -0.025732 -771385.000000 0 0 1
21.320693 -2.946332 -17.810993 27.937148 -0.137321 2.262095 0.062737 -0.026885 -826036.000000 0 0 1
20.285393 -3.582232 -17.089993 26.765601 -0.174790 2.263352 0.085802 -0.026663 -89541.000000 0 0 1
19.521693 -4.225632 -18.079493 26.941056 -0.213170 2.306455 0.093880 -0.030296 -520387.000000 0 0 1
18.759593 -5.349032 -17.335093 26.096741 -0.277765 2.297303 0.101971 -0.030110 71588.700000 0 0 1
19.654593 -6.349032 -16.876993 26.672947 -0.312449 2.255881 0.103764 -0.024040 618276.000000 0 0 1
18.903193 -7.278832 -16.179093 25.924412 -0.367560 2.244759 0.108086 -0.020706 141432.000000 0 0 1
19.760593 -8.455232 -15.572993 26.542232 -0.404310 2.197805 0.121147 -0.018804 534629.000000 0 0 1
20.425393 -9.359632 -16.522093 27.888688 -0.429681 2.204868 0.110285 -0.017020 785331.000000 0 0 1
21.181993 -10.284032 -15.784293 28.347522 -0.451987 2.161341 0.097441 -0.022753 -552707.000000 0 0 1
21.852493 -11.237532 -16.764193 29.746457 -0.474978 2.169497 0.075650 -0.019819 -1193880.000000 0 0 1
22.883193 -10.726832 -17.501593 30.741034 -0.438349 2.176479 0.074680 -0.016165 -632223.000000 0 0 1
23.310993 -11.692732 -18.467993 31.956050 -0.464925 2.186972 0.062371 -0.007523 -752447.000000 0 0 1
22.622693 -11.844132 -19.848593 32.342485 -0.482310 2.231535 0.075811 -0.008593 351924.000000 0 0 1
21.222793 -12.097532 -19.872593 31.490906 -0.518088 2.253713 0.077818 -0.018981 626726.000000 0 0 1
20.800493 -13.412232 -19.541593 31.534462 -0.572714 2.239144 0.060188 -0.011525 -728397.000000 0 0 1
19.301793 -13.694332 -19.607893 30.733750 -0.617063 2.262684 0.059977 -0.014574 -445099.000000 0 0 1
18.764993 -13.734832 -20.924393 31.282595 -0.631842 2.303501 0.074581 -0.008275 -164122.000000 0 0 1
17.365593 -13.768932 -20.763993 30.369239 -0.670388 2.323642 0.077748 -0.004953 -330289.000000 0 0 1
16.606093 -13.273132 -21.995893 30.590156 -0.674310 2.373233 0.074130 -0.010159 -632620.000000 0 0 1
16.705793 -14.054032 -23.172993 31.836880 -0.699402 2.386002 0.068700 -0.007624 351022.000000 0 0 1
16.045393 -13.485932 -24.283893 32.078535 -0.698945 2.429527 0.073470 -0.009734 -177488.000000 0 0 1
16.149793 -14.309232 -25.617613 33.493761 -0.725044 2.441601 0.064294 -0.016425 -128286.000000 0 0 1
15.391293 -15.524832 -25.573983 33.644329 -0.789718 2.434306 0.079200 -0.018468 478953.000000 0 0 1
15.506193 -16.221832 -26.782673 34.941399 -0.807950 2.444174 0.079225 -0.023780 -311065.000000 0 0 1
16.572993 -17.315532 -26.852433 35.993678 -0.807306 2.412879 0.066451 -0.024205 -261665.000000 0 0 1
17.905293 -16.864132 -27.011533 36.532470 -0.755462 2.402952 0.065172 -0.017778 -23941.200000 0 0 1
18.719393 -18.017632 -26.849633 37.362461 -0.766298 2.372621 0.068652 -0.017776 -630665.000000 0 0 1
20.193293 -17.709932 -27.077173 38.139009 -0.719973 2.360238 0.058008 -0.011220 -531490.000000 0 0 1
20.830093 -17.199732 -25.899233 37.423172 -0.690226 2.335141 0.050997 -0.010012 -148050.000000 0 0 1
22.139093 -16.778732 -26.187733 38.176729 -0.648524 2.326719 0.056730 -0.006885 -283027.000000 0 0 1
22.856993 -16.242032 -24.891493 37.494428 -0.617800 2.296781 0.048496 -0.000265 63745.300000 0 0 1
22.446093 -14.966132 -24.388093 36.367448 -0.588066 2.305817 0.057677 -0.007472 -88461.300000 0 0 1
21.066993 -14.718932 -24.223193 35.316118 -0.609835 2.326631 0.077108 -0.009125 -89051.100000 0 0 1
20.900393 -13.445332 -23.402293 34.136061 -0.571654 2.326168 0.085145 -0.006294 64793.500000 0 0 1
21.294493 -12.256732 -24.097593 34.414777 -0.522272 2.346489 0.091488 -0.013555 299562.000000 0 0 1
20.957993 -11.096732 -23.332893 33.268586 -0.486949 2.348085 0.090963 -0.014847 39612.600000 0 0 1
20.935993 -9.794232 -24.138793 33.420414 -0.437572 2.377885 0.107567 -0.018089 -302383.000000 0 0 1
20.734693 -8.656032 -23.348393 32.403731 -0.395472 2.375386 0.106586 -0.027072 214976.000000 0 0 1
20.520593 -7.521932 -24.146393 32.568734 -0.351347 2.405947 0.078723 -0.023125 -604912.000000 0 0 1
19.781893 -6.423932 -23.358593 31.276413 -0.313995 2.414099 0.074326 -0.036957 -67717.100000 0 0 1
18.422493 -6.768032 -23.132393 30.336481 -0.352072 2.438007 0.068233 -0.027765 155023.000000 0 0 1
17.727093 -5.796632 -22.375093 29.128946 -0.316033 2.446727 0.058376 -0.030511 -15413.300000 0 0 1
18.117893 -5.805032 -20.848593 28.224462 -0.310069 2.401893 0.086055 -0.035496 -831578.000000 0 0 1
17.713993 -6.877932 -20.039893 27.616821 -0.370359 2.382762 0.098153 -0.034567 -64085.300000 0 0 1
18.165593 -8.125032 -20.432993 28.522133 -0.420586 2.369412 0.111405 -0.025242 -178433.000000 0 0 1
17.667493 -9.235832 -19.468693 27.865227 -0.481688 2.344338 0.095926 -0.017867 -599366.000000 0 0 1
16.305193 -9.471132 -19.432593 27.077432 -0.526232 2.371243 0.075679 -0.016717 -918870.000000 0 0 1
15.886093 -10.503432 -18.594693 26.616773 -0.584189 2.344247 0.086091 -0.017686 1163130.000000 0 0 1
14.327393 -10.627832 -18.281393 25.542794 -0.638222 2.368445 0.061372 -0.010265 1719210.000000 0 0 1
13.684793 -9.795532 -17.267493 24.112078 -0.621249 2.369045 0.061387 -0.009320 590255.000000 0 1 0
13.820893 -8.374832 -17.490393 23.813205 -0.544786 2.395701 0.062176 -0.024273 -601526.000000 0 1 0
12.670093 -7.511632 -16.920493 22.433433 -0.535155 2.425313 0.050801 -0.012718 91528.000000 0 1 0
11.502193 -7.653432 -17.715593 22.465923 -0.587118 2.479250 0.041037 -0.016670 331082.000000 0 1 0
10.534593 -6.640732 -17.408493 21.404032 -0.562454 2.520645 0.021008 -0.011356 -1622.480000 0 1 0
9.128493 -6.848532 -17.958093 21.277332 -0.643653 2.575496 0.007929 -0.003206 -483481.000000 0 1 0
9.048293 -6.662632 -19.363593 22.387742 -0.634702 2.615786 0.020745 -0.010200 -437289.000000 0 1 0
7.743793 -6.371932 -19.752293 22.152221 -0.688516 2.671799 0.020304 -0.007552 -798606.000000 0 1 0
7.435893 -6.105032 -21.263893 23.339174 -0.687428 2.716697 0.036532 -0.012409 -2878.400000 0 1 0
7.482793 -7.237732 -22.132693 24.458803 -0.768752 2.701934 0.034130 -0.008635 -64998.200000 0 1 0
6.810393 -6.983832 -23.304193 25.263427 -0.797971 2.745169 0.050969 -0.013934 -384208.000000 0 0 1
6.768893 -8.247232 -24.250193 26.493520 -0.883532 2.727112 0.051968 -0.013768 -299793.000000 0 0 1
5.916893 -9.268532 -23.843393 26.256859 -1.002630 2.709479 0.052279 -0.009910 -43102.400000 0 0 1
6.099593 -10.300832 -24.844393 27.578180 -1.036172 2.692569 0.064780 -0.003445 86010.300000 0 0 1
5.147393 -11.510032 -24.750493 27.777029 -1.150266 2.670431 0.059575 -0.006377 219819.000000 0 0 1
5.684393 -12.324932 -23.706193 27.316658 -1.138659 2.621613 0.052577 -0.011355 153406.000000 0 0 1
4.809093 -13.380432 -23.385593 27.368764 -1.225761 2.595312 0.056682 -0.016037 -918881.000000 0 0 1
5.331393 -14.382332 -22.296493 27.063052 -1.215809 2.539006 0.066890 -0.017442 298201.000000 0 0 1
6.405093 -15.177332 -22.824093 28.148105 -1.171455 2.516412 0.094417 -0.019663 923586.000000 0 0 1
7.684193 -14.567132 -23.051993 28.330946 -1.085390 2.521231 0.086192 -0.017593 756843.000000 0 0 1
8.542193 -13.967532 -21.857693 27.309700 -1.021909 2.498698 0.066989 -0.004140 -26092.800000 0 0 1
9.053293 -14.915232 -20.911593 27.234554 -1.025258 2.446248 0.075620 -0.008593 -18812.900000 0 0 1
8.125493 -15.398732 -19.979493 26.501409 -1.085256 2.424779 0.092132 -0.014446 -140580.000000 0 0 1
8.826593 -16.071632 -18.751993 26.226767 -1.068565 2.367412 0.083187 -0.010618 170926.000000 0 0 1
9.511093 -17.263832 -18.970393 27.356472 -1.067243 2.337065 0.098965 -0.012772 -312713.000000 0 0 1
10.237093 -17.646232 -17.794893 27.071124 -1.045116 2.288078 0.100254 -0.009611 -226686.000000 0 0 1
9.473293 -18.360132 -16.581893 26.491449 -1.094454 2.247125 0.101114 -0.026461 -289483.000000 0 0 1
9.081593 -19.720732 -16.757393 27.426133 -1.139237 2.228121 0.111718 -0.034755 469283.000000 0 0 1
8.276193 -20.034032 -17.915793 28.121761 -1.179042 2.261499 0.118949 -0.024901 -633302.000000 0 0 1
6.784393 -19.785032 -17.709593 27.406297 -1.240456 2.273374 0.108960 -0.014769 -1000690.000000 0 0 1
6.493293 -18.436632 -17.452793 26.204431 -1.232167 2.299663 0.091316 -0.008759 -559261.000000 0 0 1
5.106093 -18.296832 -17.299393 25.692708 -1.298650 2.309485 0.070013 -0.008768 -331154.000000 0 0 1
4.698793 -16.915532 -16.963693 24.412717 -1.299848 2.339037 0.037319 0.003387 -114228.000000 0 1 0
5.044293 -16.396832 -15.699793 23.254773 -1.272347 2.311925 0.022723 0.002190 57656.200000 0 1 0
4.815093 -14.979232 -15.735893 22.252659 -1.259777 2.356251 0.014981 0.011554 176630.000000 0 1 0
10.731793 29.951068 -18.066293 36.587276 1.226737 2.087235 0.065392 -0.030925 23544.500000 0 0 1
9.649393 29.474668 -18.853893 36.295125 1.254414 2.117016 0.091776 -0.034059 136766.000000 0 0 1
8.753793 28.700968 -18.042993 35.013198 1.274759 2.112177 0.084257 -0.036611 702655.000000 0 0 1
7.640893 28.040668 -18.946293 34.693289 1.304762 2.148508 0.094632 -0.034747 -4533.400000 0 0 1
6.756493 29.006668 -19.377893 35.532235 1.341948 2.147616 0.105984 -0.048312 -588667.000000 0 0 1
6.064193 28.586368 -20.572593 35.737745 1.361759 2.184201 0.099360 -0.042835 489983.000000 0 0 1
4.996993 29.555768 -21.135493 36.677274 1.403310 2.184936 0.096510 -0.042903 392760.000000 0 0 1
3.762193 29.596168 -20.441193 36.165310 1.444357 2.171491 0.100732 -0.041348 797949.000000 0 0 1
2.802693 30.520368 -20.989193 37.146927 1.479223 2.171268 0.110753 -0.050763 519734.000000 0 0 1
1.318393 30.495468 -20.534593 36.788330 1.527591 2.162990 0.117014 -0.045687 824212.000000 0 0 1
0.457093 29.376668 -20.820893 36.009820 1.555238 2.187318 0.120456 -0.048826 421325.000000 0 0 1
0.355093 29.002668 -22.209093 36.531146 1.558553 2.224272 0.135495 -0.061583 -287737.000000 0 0 1
-0.371907 27.604468 -22.316393 35.498822 -1.557324 2.250615 0.130479 -0.051197 1327460.000000 0 0 1
-1.787207 27.549168 -22.074993 35.347646 -1.506014 2.245302 0.139582 -0.042418 1028960.000000 0 0 1
-2.343207 26.237268 -22.206393 34.452993 -1.481724 2.271220 0.130284 -0.050637 512847.000000 0 0 1
-3.362507 25.794968 -21.101993 33.495984 -1.441172 2.252331 0.097483 -0.048175 555546.000000 0 0 1
-4.546107 26.578768 -21.013393 34.185679 -1.401393 2.232782 0.089142 -0.043831 129683.000000 0 0 1
-5.426907 25.941968 -20.145193 33.290627 -1.364576 2.220727 0.069072 -0.040102 144008.000000 0 0 1
-6.641407 26.789368 -19.674393 33.894841 -1.327784 2.190082 0.061029 -0.047382 -16897.800000 0 0 1
-7.753707 26.126468 -19.189193 33.330728 -1.282300 2.184282 0.066614 -0.038631 -883293.000000 0 0 1
-8.648107 26.998468 -18.546093 33.877199 -1.260805 2.150111 0.066177 -0.043190 299238.000000 0 0 1
-9.865207 26.257668 -17.923293 33.287113 -1.211405 2.139387 0.079336 -0.038140 81136.600000 0 0 1
-9.610607 25.441468 -16.782593 31.957589 -1.209614 2.123690 0.091110 -0.039022 -748698.000000 0 0 1
-10.774407 24.828668 -16.324393 31.607537 -1.161369 2.113522 0.056537 -0.031886 -463215.000000 0 0 1
-10.577207 24.086368 -14.962293 30.263850 -1.157013 2.087935 0.064728 -0.025565 -92262.000000 0 0 1
-9.915407 22.830668 -15.021393 29.072271 -1.161073 2.113778 0.070642 -0.022113 -102622.000000 0 0 1
-10.156807 22.138368 -13.803493 27.996508 -1.140659 2.086381 0.086517 -0.019564 339789.000000 0 0 1
-9.484507 20.689968 -13.807793 26.621153 -1.140970 2.116100 0.090203 -0.011939 203256.000000 0 0 1
-10.206007 19.657368 -14.457093 26.449617 -1.091911 2.149083 0.075574 -0.010701 -314545.000000 0 0 1
-10.390307 19.721768 -15.890893 27.375666 -1.085904 2.190108 0.076987 -0.002182 332141.000000 0 0 1
-9.072307 19.832868 -16.713693 27.477208 -1.141774 2.224682 0.069051 -0.006570 561871.000000 0 0 1
-8.385307 18.581168 -16.858993 26.453711 -1.146879 2.261788 0.072170 -0.010532 148815.000000 0 0 1
-7.715007 18.400668 -18.109293 26.945360 -1.173782 2.307803 0.078182 -0.018017 283984.000000 0 0 1
-7.130607 16.950068 -18.276993 25.926797 -1.172588 2.353143 0.063767 -0.021955 472103.000000 0 0 1
-8.113207 15.931668 -18.489493 25.719711 -1.099776 2.372992 0.061482 -0.027319 -96430.700000 0 0 1
-8.043207 15.198268 -19.678393 26.132732 -1.084048 2.423432 0.071933 -0.033936 208893.000000 0 0 1
-6.865007 14.205768 -19.934193 25.422514 -1.120634 2.472066 0.060370 -0.029607 156467.000000 0 0 1
-6.875307 13.189668 -18.929193 24.073876 -1.090282 2.475587 0.026423 -0.025819 107344.000000 0 1 0
-5.613307 12.564068 -18.821793 23.315765 -1.150628 2.510284 0.034753 -0.018843 604460.000000 0 1 0
-4.707807 13.164468 -17.664793 22.528017 -1.227354 2.472082 0.035470 -0.007901 341466.000000 0 1 0
-4.138107 14.439468 -17.834993 23.317571 -1.291694 2.441641 0.030719 -0.017200 -212210.000000 0 1 0
-3.530907 14.905668 -16.649993 22.624511 -1.338200 2.397831 0.034488 -0.004092 37136.400000 0 1 0
-2.765807 16.263468 -16.724993 23.492030 -1.402345 2.363058 0.059351 -0.013513 1895.030000 0 1 0
-3.603207 17.347168 -16.930093 24.505823 -1.365997 2.333474 0.045946 -0.015395 -303754.000000 0 1 0
-2.820207 18.484668 -16.700193 25.070560 -1.419394 2.299801 0.059799 -0.018730 426363.000000 0 0 1
-3.424107 19.780168 -17.357693 26.538068 -1.399387 2.283746 0.079524 -0.014948 404103.000000 0 0 1
-3.421107 19.662068 -18.771193 27.398149 -1.398526 2.325573 0.084775 -0.021346 62666.300000 0 0 1
-4.036407 20.780668 -19.411993 28.722016 -1.378947 2.312924 0.106684 -0.024584 412575.000000 0 0 1
-3.049907 21.975868 -19.582293 29.592345 -1.432893 2.293927 0.091046 -0.025112 -481758.000000 0 0 1
-2.062507 21.876868 -20.591693 30.114267 -1.476796 2.323734 0.110885 -0.023636 721690.000000 0 0 1
-0.842807 22.572668 -20.294693 30.366268 -1.533476 2.302758 0.105029 -0.028110 968356.000000 0 0 1
0.009493 22.064168 -19.104093 29.185509 1.570366 2.284416 0.110053 -0.029483 -646148.000000 0 0 1
-0.436307 22.505768 -17.811093 28.704268 -1.551412 2.240181 0.104519 -0.028936 -115630.000000 0 0 1
0.546193 22.089568 -16.885693 27.809602 1.546075 2.223315 0.115368 -0.030345 243909.000000 0 0 1
0.003193 22.126368 -15.436893 26.979137 1.570652 2.179956 0.112758 -0.032318 796780.000000 0 0 1
-0.992207 21.165568 -14.999993 25.960846 -1.523952 2.186818 0.101979 -0.023419 519962.000000 0 0 1
-1.098407 21.113668 -13.585793 25.131002 -1.518820 2.141945 0.110859 -0.027505 307197.000000 0 0 1
-1.903307 19.891768 -13.006593 23.842745 -1.475404 2.147801 0.068075 -0.022406 -19758.300000 0 1 0
-1.273907 18.674768 -13.270693 22.945176 -1.502686 2.187520 0.066136 -0.019144 -563988.000000 0 1 0
-2.025607 17.628968 -12.805993 21.883260 -1.456396 2.195918 0.046087 -0.018477 -566218.000000 0 1 0
-1.389807 16.257468 -13.062693 20.901454 -1.485516 2.245884 0.024262 -0.008700 -240001.000000 0 1 0
-0.300907 16.023268 -12.151993 20.112349 -1.552019 2.219565 0.025625 -0.008353 312612.000000 0 1 0
-0.012707 14.650768 -12.015893 18.948004 -1.569929 2.257706 0.017752 -0.008533 259455.000000 0 1 0
0.686893 13.952368 -13.239893 19.246692 1.521605 2.329395 0.022507 -0.006298 -351274.000000 0 1 0
-0.150907 13.872468 -14.356393 19.964322 -1.559919 2.373306 0.031961 -0.014310 -209962.000000 0 1 0
0.459893 12.997368 -15.225493 20.023953 1.535428 2.434670 0.030902 -0.011690 -18884.100000 0 1 0
-0.308807 12.882668 -16.593293 21.009423 -1.546830 2.481283 0.037039 -0.010216 260200.000000 0 1 0
-0.110607 14.087068 -17.287993 22.300951 -1.562945 2.457849 0.050888 -0.014675 47099.000000 0 1 0
-0.369207 13.947368 -18.677393 23.313309 -1.544331 2.500006 0.060670 -0.014060 637.062000 0 1 0
-0.917707 15.277968 -19.325093 24.651931 -1.510801 2.471748 0.066192 -0.017240 -92576.100000 0 1 0
0.115393 16.225368 -19.475093 25.348671 1.563685 2.446959 0.070992 -0.018390 -33872.700000 0 0 1
-0.397107 17.534668 -19.752893 26.415886 -1.548153 2.415487 0.108100 -0.030321 190302.000000 0 0 1
0.683493 18.524368 -20.239293 27.445370 1.533916 2.400067 0.126206 -0.033480 188913.000000 0 0 1
1.250493 18.187268 -21.492493 28.182755 1.502148 2.438137 0.107829 -0.043613 -118396.000000 0 0 1
1.815493 19.292368 -22.125293 29.411223 1.476968 2.422303 0.097840 -0.031437 -197163.000000 0 0 1
2.418593 18.970968 -23.470493 30.275588 1.443991 2.457873 0.103840 -0.035604 -993901.000000 0 0 1
3.518293 18.163668 -23.512993 29.919192 1.379466 2.474920 0.086000 -0.031142 -1057860.000000 0 0 1
3.880493 17.904668 -24.860093 30.881379 1.357366 2.506504 0.090383 -0.039953 -465350.000000 0 0 1
4.822193 16.778468 -25.027443 30.514643 1.290936 2.532519 0.057664 -0.028304 -857829.000000 0 0 1
6.151193 16.939368 -24.560993 30.463449 1.222473 2.508573 0.050004 -0.016696 117558.000000 0 0 1
7.009193 15.859468 -24.831493 30.286210 1.154652 2.532023 0.047256 -0.031135 74549.300000 0 0 1
7.410393 15.653268 -26.306953 31.495944 1.128647 2.559382 0.037037 -0.029831 -1201990.000000 0 0 1
8.424793 16.591668 -26.651773 32.505039 1.100950 2.532081 0.026000 -0.025025 260800.000000 0 0 1
8.798493 16.739768 -28.029003 33.812103 1.086876 2.548048 0.040469 -0.026869 169044.000000 0 0 1
9.403393 15.455768 -28.686783 33.915130 1.024218 2.578935 0.040658 -0.035775 -1165120.000000 0 0 1
10.683593 15.232868 -28.216863 33.798976 0.959164 2.558645 0.054810 -0.034697 -858576.000000 0 0 1
11.173693 13.939468 -28.370633 33.526899 0.895089 2.579619 0.049683 -0.020086 4613.720000 0 0 1
10.599093 12.904868 -27.307693 32.009162 0.883187 2.592735 0.041820 -0.019907 -365947.000000 0 0 1
9.260393 12.625768 -27.612143 31.742642 0.937970 2.625746 0.045538 -0.029661 -828143.000000 0 0 1
8.662693 11.972268 -26.580593 30.412257 0.944431 2.634189 0.047742 -0.027318 430498.000000 0 0 1
7.154493 11.574568 -26.711753 29.977911 1.017158 2.670445 0.046445 -0.038656 932809.000000 0 0 1
6.272793 12.686268 -26.748063 30.261331 1.111594 2.654938 0.054793 -0.038130 -945575.000000 0 0 1
5.010293 12.335068 -26.319963 29.495718 1.184971 2.673281 0.071339 -0.039236 -786993.000000 0 0 1
3.908293 13.390968 -26.371903 29.834041 1.286824 2.655047 0.084193 -0.038082 -442010.000000 0 0 1
3.441593 13.747068 -27.659593 31.078602 1.325487 2.668116 0.083624 -0.039724 243840.000000 0 0 1
4.279193 14.615268 -28.407093 32.231669 1.285968 2.649489 0.089511 -0.046302 -19364.500000 0 0 1
4.079393 14.268668 -29.929513 33.406767 1.292326 2.681276 0.098334 -0.054231 -215470.000000 0 0 1
4.726793 13.101468 -30.303073 33.350671 1.224547 2.710763 0.091347 -0.050824 -266958.000000 0 0 1
4.683293 12.931768 -31.666313 34.524183 1.223335 2.731845 0.095488 -0.051415 -886788.000000 0 0 1
5.766193 12.013068 -32.257513 34.901431 1.123282 2.749853 0.077513 -0.039902 -51566.200000 0 0 1
7.123693 12.415068 -32.195443 35.233896 1.049869 2.723250 0.075063 -0.031986 651006.000000 0 0 1
7.728993 12.469068 -30.856623 34.166448 1.015907 2.697792 0.071200 -0.036157 -425240.000000 0 0 1
7.865293 11.046268 -30.174833 33.081768 0.952041 2.719244 0.073268 -0.031629 -425123.000000 0 0 1
9.034093 10.319368 -30.477073 33.420894 0.851711 2.718727 0.069973 -0.025216 -235378.000000 0 0 1
9.025493 9.085468 -29.807403 32.442048 0.788710 2.735798 0.066980 -0.025742 356728.000000 0 0 1
10.119293 8.035468 -30.246953 32.891442 0.671117 2.737856 0.044770 -0.017949 -30450.100000 0 0 1
11.305293 8.319268 -29.566073 32.728772 0.634399 2.698352 0.054056 -0.021646 -646425.000000 0 0 1
12.054293 7.105068 -29.512983 32.661967 0.532605 2.698870 0.026035 -0.006721 -451447.000000 0 0 1
13.265593 7.216968 -28.551603 32.299452 0.498253 2.655073 0.027551 0.005243 475116.000000 0 0 1
14.057793 6.030068 -28.430323 32.284152 0.405210 2.647982 0.016366 0.001795 -174459.000000 0 0 1
15.003193 5.790968 -29.412543 33.522064 0.368364 2.641230 0.010577 0.004741 -1037120.000000 0 0 1
15.900993 4.586468 -29.055923 33.438360 0.280817 2.623852 0.010561 0.000672 -72835.700000 0 0 1
16.617493 4.883168 -27.872223 32.815350 0.285812 2.585578 0.002283 -0.003085 -144597.000000 0 0 1
17.493393 3.834568 -27.560273 32.867786 0.215788 2.565356 0.007545 0.004195 -82683.900000 0 0 1
18.276793 4.152168 -26.244003 32.249486 0.223391 2.521424 0.014262 0.003799 17645.800000 0 0 1
19.141293 5.261768 -26.358293 32.997498 0.268265 2.496089 0.038606 -0.004175 248251.000000 0 0 1
19.637893 5.755868 -25.090643 32.377727 0.285115 2.457409 0.052845 -0.010660 515049.000000 0 0 1
20.804093 6.789268 -25.292533 33.445727 0.315446 2.428322 0.055040 -0.006910 362448.000000 0 0 1
20.381393 8.131868 -25.740063 33.824241 0.379631 2.435641 0.063731 -0.014198 746367.000000 0 0 1
21.346693 8.717468 -26.625493 35.222044 0.387706 2.427874 0.069560 -0.015387 -248369.000000 0 0 1
21.430493 8.139568 -28.091163 36.257854 0.362983 2.457133 0.070626 -0.013449 -85306.800000 0 0 1
20.355193 8.424068 -28.970283 36.394726 0.392392 2.491458 0.065268 -0.011086 -301797.000000 0 0 1
19.244993 7.641168 -28.685793 35.378410 0.377958 2.516361 0.057580 -0.003592 -1193990.000000 0 0 1
17.904693 8.130868 -29.234813 35.232986 0.426274 2.549468 0.037559 -0.003313 -513334.000000 0 0 1
17.776393 7.874768 -30.623933 36.274473 0.417009 2.575920 0.037243 -0.001386 50363.300000 0 0 1
16.877493 8.711468 -31.285023 36.599072 0.476491 2.595969 0.024067 -0.002324 -709814.000000 0 0 1
16.511893 8.241168 -32.710263 37.556900 0.462931 2.627933 0.020926 0.012145 438339.000000 0 0 1
15.588993 7.147868 -32.811853 37.023322 0.429917 2.659978 0.015929 0.014831 6792.350000 0 0 1
14.226893 7.488468 -32.821253 36.547452 0.484513 2.686101 0.017643 0.013458 78986.700000 0 0 1
13.298293 6.253068 -33.144953 36.256494 0.439538 2.724276 0.014910 0.003462 347395.000000 0 0 1
13.334793 5.317468 -32.113963 35.176679 0.379443 2.721211 0.026226 0.002171 -197014.000000 0 0 1
12.752493 4.121068 -32.571233 35.220654 0.312565 2.751244 0.036515 -0.009978 -188896.000000 0 0 1
12.566793 3.000668 -31.619133 34.156959 0.234389 2.753681 0.033939 -0.010574 1115870.000000 0 0 1
13.751993 2.421468 -30.954063 33.957839 0.174295 2.717820 0.020013 -0.009747 1114460.000000 0 0 1
13.495393 1.509268 -29.935763 32.871772 0.111373 2.715731 0.032624 -0.008814 -77423.200000 0 0 1
12.826793 0.150468 -30.388453 32.984956 0.011730 2.742161 0.042893 -0.010031 317514.000000 0 0 1
13.598393 -0.656232 -31.264343 34.099942 -0.048221 2.730900 0.045991 -0.013050 -135067.000000 0 0 1
14.618793 -1.383132 -30.632973 33.970593 -0.094332 2.694597 0.042974 -0.016286 -202043.000000 0 0 1
14.967093 -2.693532 -31.418393 34.905363 -0.178058 2.690800 0.056950 -0.019054 -817885.000000 0 0 1
13.945593 -3.612732 -31.408723 34.554873 -0.253486 2.711560 0.070182 -0.019342 -537174.000000 0 0 1
14.208093 -4.653132 -32.247833 35.544961 -0.316490 2.707473 0.059924 -0.023329 -294563.000000 0 0 1
13.298093 -5.893132 -32.105853 35.247043 -0.417148 2.716210 0.079551 -0.020218 -187052.000000 0 0 1
13.560293 -6.601932 -30.902823 34.386792 -0.453079 2.687554 0.074697 -0.020121 256305.000000 0 0 1
13.252693 -7.993532 -31.035823 34.680725 -0.542742 2.679006 0.081638 -0.017873 -20833.000000 0 0 1
13.630293 -8.863332 -29.783663 33.932434 -0.576563 2.641909 0.056486 -0.014424 -1412430.000000 0 0 1
14.960493 -9.006932 -29.509323 34.289084 -0.541924 2.607251 0.082239 -0.012619 -1181890.000000 0 0 1
15.159493 -9.674832 -28.256693 33.494078 -0.568037 2.574809 0.082321 -0.006784 -26565.200000 0 0 1
14.933293 -11.219632 -28.265613 33.879614 -0.644343 2.557650 0.066046 -0.005772 1548070.000000 0 0 1
13.517393 -11.598732 -28.234573 33.383253 -0.709155 2.578804 0.065854 -0.015236 1604450.000000 0 0 1
13.322993 -12.976532 -28.390953 33.940222 -0.772225 2.561658 0.070841 -0.025762 215186.000000 0 0 1
-10.221807 -2.916732 -18.253893 21.123382 0.277957 2.614267 0.036722 0.008210 324198.000000 0 1 0
-11.136507 -2.460732 -19.247393 22.372732 0.217467 2.606666 0.055180 0.001692 103271.000000 0 1 0
-11.920407 -3.522432 -19.735793 23.323918 0.287320 2.579537 0.051864 0.003755 -156040.000000 0 1 0
-13.023407 -3.009432 -20.708893 24.648003 0.227093 2.568421 0.063196 -0.019375 577865.000000 0 1 0
-13.970607 -2.096632 -20.065393 24.539636 0.148963 2.528153 0.058817 -0.017371 491534.000000 0 1 0
-14.919107 -1.640132 -20.990493 25.804468 0.109495 2.520846 0.055482 -0.018926 -366052.000000 0 0 1
-15.569507 -0.424732 -20.509593 25.753317 0.027273 2.492093 0.061246 -0.014894 -4530.210000 0 0 1
-14.723207 0.698668 -20.817493 25.507430 -0.047418 2.525486 0.059171 -0.018101 355469.000000 0 0 1
-15.320607 1.916668 -20.397093 25.581947 -0.124457 2.493644 0.059627 -0.012033 -116129.000000 0 0 1
-14.893407 3.277468 -21.021293 25.970177 -0.216609 2.513994 0.081439 -0.025052 484114.000000 0 0 1
-13.544007 3.656268 -20.732793 25.033120 -0.263670 2.546710 0.080797 -0.028584 701215.000000 0 0 1
-13.339607 4.827968 -21.443993 25.711850 -0.347261 2.557136 0.095495 -0.029651 -1046050.000000 0 0 1
-12.110907 5.535168 -20.982193 24.850846 -0.428693 2.576101 0.068834 -0.025456 -1093090.000000 0 1 0
-12.200707 6.171468 -19.764793 24.033129 -0.468300 2.536409 0.074642 -0.030385 135188.000000 0 1 0
-10.912907 6.364768 -19.244493 23.020693 -0.528000 2.560685 0.049041 -0.016962 -325703.000000 0 1 0
-11.026107 6.952768 -17.851493 22.104113 -0.562597 2.510884 0.048040 -0.022082 -251664.000000 0 1 0
-11.526507 8.233268 -17.844693 22.783330 -0.620252 2.470648 0.036151 -0.025586 911501.000000 0 1 0
-12.693307 8.191568 -16.960893 22.713294 -0.573096 2.413941 0.070754 -0.027324 809961.000000 0 1 0
-13.384807 9.586268 -16.787193 23.512963 -0.621519 2.365927 0.089527 -0.031423 -99725.600000 0 1 0
-12.733707 10.626968 -16.052093 23.081365 -0.695458 2.339852 0.048266 -0.024054 589605.000000 0 1 0
-13.590907 11.825668 -16.014893 24.104688 -0.716057 2.297473 0.062492 -0.032316 385779.000000 0 1 0
-12.940907 13.081468 -15.429093 24.013513 -0.790800 2.268575 0.064328 -0.022170 -245680.000000 0 1 0
-13.155507 13.223868 -13.976693 23.308496 -0.787990 2.213847 0.084064 -0.025783 16934.400000 0 1 0
-12.705607 14.490268 -13.597493 23.585846 -0.850927 2.185248 0.083012 -0.025949 -725003.000000 0 1 0
-13.201907 14.866368 -12.159493 23.305633 -0.844629 2.119686 0.076965 -0.023208 569622.000000 0 1 0
-14.592007 15.110968 -12.077193 24.230696 -0.802868 2.092578 0.078038 -0.021073 282122.000000 0 1 0
-15.505007 14.033468 -12.246093 24.234485 -0.735622 2.100545 0.074394 -0.022513 -631741.000000 0 1 0
-16.895407 14.389368 -11.704393 25.089869 -0.705465 2.056125 0.048128 -0.012550 -642538.000000 0 0 1
-17.899807 13.449368 -11.905093 25.357836 -0.644377 2.059502 0.049645 -0.013581 -332673.000000 0 0 1
-19.066207 13.886668 -11.221093 26.120351 -0.629494 2.014837 0.084640 -0.013637 -655848.000000 0 0 1
-20.295407 13.394168 -11.952993 27.095781 -0.583346 2.027663 0.072384 -0.019703 -1016590.000000 0 0 1
-20.539607 12.026068 -11.728993 26.534337 -0.529694 2.028658 0.088596 -0.026395 961900.000000 0 0 1
-21.722407 11.683768 -12.483193 27.644231 -0.493480 2.039316 0.114500 -0.023302 575694.000000 0 0 1
-22.284107 10.276268 -12.146993 27.381245 -0.432086 2.030435 0.109072 -0.023634 -84390.800000 0 0 1
-21.383707 9.220568 -12.420293 26.392148 -0.407107 2.060773 0.112277 -0.027031 423780.000000 0 0 1
-21.709807 8.122868 -11.574493 25.908794 -0.358031 2.033914 0.104018 -0.028880 -409759.000000 0 0 1
-20.630907 7.056968 -11.629393 24.711898 -0.329582 2.060766 0.109268 -0.032014 -456081.000000 0 1 0
-20.800707 6.119468 -12.698293 25.126957 -0.286123 2.100602 0.126357 -0.035441 204719.000000 0 0 1
-19.712107 5.239268 -12.704493 24.029591 -0.259783 2.127867 0.125711 -0.038451 -260271.000000 0 1 0
-19.864207 4.037768 -13.731493 24.483549 -0.200536 2.166203 0.138158 -0.049833 -269794.000000 0 1 0
-20.897907 3.164268 -13.372093 25.010957 -0.150274 2.134889 0.130807 -0.049707 -30950.200000 0 0 1
-20.661607 1.836068 -13.842693 24.937789 -0.088631 2.159266 0.111908 -0.054989 366206.000000 0 1 0
-21.759807 0.757268 -13.470793 25.603221 -0.034787 2.124847 0.137458 -0.048171 172754.000000 0 0 1
-22.936307 0.924268 -14.212293 26.998476 -0.040275 2.125170 0.108615 -0.041631 -345115.000000 0 0 1
-23.430107 -0.384032 -14.380093 27.493717 0.016389 2.121201 0.094362 -0.042194 -541978.000000 0 0 1
-24.766307 -0.441632 -15.112093 29.016209 0.017830 2.118602 0.091652 -0.035249 628410.000000 0 0 1
-25.894527 0.206468 -14.468493 29.663217 -0.007973 2.080317 0.127582 -0.043675 1332060.000000 0 0 1
-27.149887 -0.228932 -15.001993 31.019809 0.008432 2.075589 0.089958 -0.025749 210599.000000 0 0 1
-28.317457 0.201168 -14.128693 31.647098 -0.007104 2.033585 0.095081 -0.021225 -644622.000000 0 0 1
-28.455637 -0.411632 -12.870793 31.233796 0.014465 1.995531 0.115537 -0.026039 -10647.100000 0 0 1
-29.729107 -0.190732 -12.305393 32.175750 0.006416 1.963235 0.127889 -0.027630 194317.000000 0 0 1
-29.945417 -0.871532 -10.880193 31.872656 0.029096 1.919165 0.134446 -0.039381 -33245.500000 0 0 1
-30.095477 -2.273832 -10.687993 32.017827 0.075411 1.911143 0.142762 -0.040719 238959.000000 0 0 1
-29.007317 -3.085832 -11.094493 31.209527 0.105983 1.934228 0.141455 -0.036918 -178736.000000 0 0 1
-29.177747 -4.567132 -10.785993 31.441012 0.155268 1.920964 0.131846 -0.037149 146583.000000 0 0 1
-30.217417 -5.132732 -11.595593 32.770337 0.168254 1.932474 0.128298 -0.032420 367870.000000 0 0 1
-30.661697 -6.395632 -11.176893 33.256078 0.205639 1.913554 0.136486 -0.033106 -257664.000000 0 0 1
-29.820807 -7.590032 -11.665393 32.908517 0.249229 1.933154 0.127091 -0.033330 301923.000000 0 0 1
-28.459527 -7.653432 -11.296193 31.561427 0.262708 1.936826 0.072323 -0.027446 381802.000000 0 0 1
-27.683197 -8.566432 -12.072593 31.392526 0.300099 1.965537 0.075715 -0.027622 902564.000000 0 0 1
-26.157937 -8.663632 -11.723293 29.945480 0.319834 1.973044 0.090948 -0.035201 593872.000000 0 0 1
-25.451997 -7.419832 -11.898293 29.059034 0.283661 1.992650 0.076757 -0.032494 1279700.000000 0 0 1
-24.139107 -7.448432 -11.293893 27.671784 0.299294 1.991209 0.088552 -0.044867 636704.000000 0 0 1
-24.116907 -7.386832 -9.712593 27.028225 0.297220 1.938368 0.088757 -0.043556 -606832.000000 0 0 1
-24.341907 -6.123932 -9.112593 26.703377 0.246465 1.919045 0.084604 -0.035402 -286140.000000 0 0 1
-25.702527 -5.843232 -9.030393 27.862363 0.223541 1.900864 0.095424 -0.037539 -994795.000000 0 0 1
-25.939567 -4.455232 -8.405193 27.628925 0.170095 1.879913 0.107819 -0.040814 -313230.000000 0 0 1
-25.758027 -4.466532 -7.015593 27.067405 0.171696 1.832979 0.107351 -0.033915 442820.000000 0 0 1
-26.109117 -3.188032 -6.525593 27.100423 0.121503 1.813979 0.148787 -0.035618 -170285.000000 0 0 1
-25.860547 -2.961032 -5.057793 26.516351 0.114003 1.762715 0.147669 -0.029856 1554840.000000 0 0 1
-24.449807 -3.211032 -4.755393 25.114091 0.130584 1.761298 0.108472 -0.024533 1805890.000000 0 0 1
-24.176707 -2.945132 -3.400293 24.591644 0.121220 1.709511 0.079645 -0.021457 -46498.700000 0 1 0
-22.837807 -3.542632 -2.927393 23.295607 0.153895 1.696792 0.060117 -0.011399 -57576.400000 0 1 0
-22.927607 -4.905032 -2.786893 23.611465 0.210759 1.689103 0.083782 -0.018281 274384.000000 0 1 0
-21.679607 -5.508032 -2.583593 22.517077 0.248801 1.685789 0.065665 -0.019545 -311200.000000 0 1 0
-21.881507 -7.059332 -2.507593 23.128393 0.312074 1.679430 0.091095 -0.018685 -199284.000000 0 1 0
-22.456707 -7.392032 -1.303793 23.677958 0.317997 1.625888 0.094464 -0.010014 137792.000000 0 1 0
-23.242107 -8.539932 -1.456693 24.804192 0.352121 1.629558 0.106833 -0.018643 -230507.000000 0 1 0
-23.532607 -9.168932 -0.132393 25.256097 0.371532 1.576038 0.098741 -0.026531 -473689.000000 0 0 1
-22.423007 -9.848232 0.339907 24.492743 0.413838 1.556918 0.085875 -0.018293 -13402.400000 0 1 0
-22.826207 -10.626032 1.472807 25.221369 0.435684 1.512368 0.079566 -0.017500 214216.000000 0 0 1
-21.597107 -11.337432 2.042907 24.477456 0.483409 1.487238 0.080450 -0.013787 171532.000000 0 1 0
-20.985407 -12.326532 1.197607 24.367293 0.531093 1.521628 0.096003 -0.015956 -534156.000000 0 1 0
-19.704607 -12.560932 1.655407 23.426244 0.567510 1.500073 0.087239 -0.019417 -814336.000000 0 1 0
-18.985407 -13.745332 0.966607 23.458776 0.626649 1.529580 0.094041 -0.011135 -722286.000000 0 1 0
-19.658007 -14.964232 1.134407 24.731607 0.650649 1.524911 0.089561 -0.007669 21791.200000 0 1 0
-19.050007 -16.109632 0.580807 24.955167 0.701963 1.547520 0.078688 -0.011550 422706.000000 0 1 0
-17.698807 -16.492832 1.286007 24.226331 0.750142 1.517688 0.089160 -0.022307 -198179.000000 0 1 0
-16.587707 -15.671732 1.063907 22.844849 0.757012 1.524208 0.098094 -0.022057 253460.000000 0 1 0
-15.354807 -16.252332 1.499607 22.408865 0.813787 1.503826 0.096258 -0.027192 697261.000000 0 1 0
-15.082307 -16.281932 3.041607 22.401533 0.823628 1.434599 0.084567 -0.018135 -558259.000000 0 1 0
-14.913007 -15.025532 3.609507 21.475403 0.789157 1.401918 0.070595 -0.024343 230426.000000 0 1 0
-14.060207 -14.971932 4.754907 21.082156 0.816792 1.343297 0.043618 -0.018333 164680.000000 0 1 0
-14.673207 -15.456532 6.104007 22.169039 0.811391 1.291854 0.074462 -0.015354 -407002.000000 0 1 0
-15.608807 -14.547532 6.687007 22.360269 0.750220 1.267091 0.067963 -0.017531 469330.000000 0 1 0
-16.011507 -14.872032 8.015507 23.276470 0.748519 1.219238 0.075355 -0.022567 -13708.300000 0 1 0
-16.889607 -16.124632 8.250107 24.765437 0.762231 1.231175 0.057962 -0.019628 -308349.000000 0 1 0
-16.170907 -17.315132 8.066107 25.027467 0.819555 1.242649 0.052580 -0.008807 -96541.300000 0 0 1
-16.853507 -18.407232 8.625207 26.405702 0.829434 1.238048 0.050306 -0.012584 -75993.800000 0 0 1
-16.658807 -18.628832 10.162607 26.978284 0.841168 1.184570 0.066358 -0.016377 50008.100000 0 0 1
-15.416707 -19.223332 10.471407 26.774274 0.894850 1.168970 0.060551 -0.011967 -20544.200000 0 0 1
-15.297907 -19.646032 11.835807 27.569528 0.909193 1.127070 0.075292 -0.019531 412120.000000 0 0 1
-13.901907 -20.284932 12.082507 27.399425 0.969983 1.114110 0.067742 -0.017175 60868.800000 0 0 1
-12.757807 -19.534032 11.888407 26.185383 0.992240 1.099536 0.077686 -0.023423 -1327430.000000 0 0 1
-11.628607 -20.228432 12.275007 26.364555 1.049064 1.086498 0.071993 -0.024159 -294775.000000 0 0 1
-10.456107 -19.287632 12.657307 25.328844 1.074027 1.047522 0.089187 -0.026877 492916.000000 0 0 1
-9.733407 -18.767732 11.514707 24.073958 1.092360 1.072072 0.074948 -0.021148 507921.000000 0 1 0
-8.659207 -17.918932 11.964307 23.220996 1.120644 1.029513 0.064979 -0.020804 820563.000000 0 1 0
-7.758907 -17.266132 10.878907 21.832787 1.148465 1.049179 0.038758 -0.016350 327556.000000 0 1 0
-6.721507 -18.091832 10.391707 21.919868 1.215079 1.076881 0.036243 -0.009751 -51322.400000 0 1 0
-5.990907 -17.461432 9.363107 20.699284 1.240287 1.101409 0.029495 -0.000748 356130.000000 0 1 0
-4.809707 -18.305232 8.814807 20.878593 1.313854 1.134933 0.020821 0.002523 889711.000000 0 1 0
-3.533107 -18.215932 9.456607 20.826196 1.379218 1.099465 0.028521 -0.003965 266152.000000 0 1 0
-2.582807 -18.811732 8.611807 20.849829 1.434352 1.145007 0.034640 -0.003326 -425079.000000 0 1 0
-1.206507 -19.025832 9.215807 21.174727 1.507467 1.120506 0.028375 -0.011124 -94589.500000 0 1 0
-0.290607 -19.763432 8.401407 21.476996 1.556093 1.168881 0.028528 0.002398 -812168.000000 0 1 0
0.877793 -19.997532 9.061207 21.972193 -1.526929 1.145716 0.040338 -0.005951 -1350450.000000 0 1 0
2.070193 -20.537132 8.303407 22.248732 -1.470333 1.188332 0.054948 -0.018128 -283388.000000 0 1 0
2.025093 -21.899732 7.930907 23.379447 -1.478587 1.224703 0.045214 -0.009499 -139033.000000 0 1 0
2.439793 -22.813432 8.947107 24.626327 -1.464256 1.198973 0.056027 -0.013890 76312.800000 0 1 0
2.324393 -24.248332 8.481307 25.793739 -1.475230 1.235750 0.063033 -0.018081 -286881.000000 0 0 1
2.512093 -25.149382 9.562207 27.022913 -1.471240 1.209106 0.070850 -0.023663 -145133.000000 0 0 1
1.878293 -26.387222 9.256607 28.026742 -1.499734 1.234199 0.072558 -0.023212 -446954.000000 0 0 1
1.853993 -27.490442 10.363607 29.437494 -1.503457 1.211031 0.088957 -0.034590 43696.900000 0 0 1
0.960593 -27.433182 11.454607 29.744079 -1.535795 1.175474 0.083683 -0.041962 296765.000000 0 0 1
-0.408107 -27.653702 11.087007 29.796233 1.556040 1.189532 0.066714 -0.041323 699852.000000 0 0 1
-1.383207 -27.686872 12.282307 30.320475 1.520879 1.153727 0.079253 -0.040614 62733.400000 0 0 1
-1.064307 -28.733082 13.139007 31.612597 1.533772 1.142166 0.075323 -0.035869 -275626.000000 0 0 1
-1.177007 -28.375692 14.503407 31.889090 1.529341 1.098640 0.079795 -0.036664 45414.100000 0 0 1
-0.564207 -29.471422 15.402207 33.258248 1.551654 1.089296 0.049482 -0.019698 87155.900000 0 0 1
-0.661407 -29.232082 16.778907 33.711775 1.548174 1.049832 0.053846 -0.009514 -276707.000000 0 0 1
-0.292607 -30.352732 17.503807 35.039367 1.561156 1.047721 0.042158 -0.006684 -100125.000000 0 0 1
-0.805607 -30.285352 18.952507 35.735823 1.544202 1.011783 0.040765 -0.012080 -1061860.000000 0 0 1
-2.139507 -30.541962 19.138007 36.106125 1.500859 1.012138 0.021874 -0.005785 -1193010.000000 0 0 1
-2.487107 -30.208682 20.495607 36.589890 1.488651 0.976237 0.030546 -0.014193 135098.000000 0 0 1
-4.023207 -30.192022 20.685707 36.819056 1.438323 0.974211 0.052813 -0.023017 23887.800000 0 0 1
-4.668707 -29.077412 20.047907 35.625992 1.411594 0.973109 0.041054 -0.021143 817217.000000 0 0 1
-6.001107 -28.822622 20.512707 35.882140 1.365521 0.962258 0.046282 -0.030789 800401.000000 0 0 1
-6.167907 -27.764802 21.605207 35.717115 1.352198 0.921159 0.057485 -0.030309 -336508.000000 0 0 1
-5.516707 -28.206622 22.789607 36.679883 1.377652 0.900382 0.051768 -0.029507 208068.000000 0 0 1
-5.386207 -27.233432 23.798707 36.565688 1.375537 0.862095 0.054265 -0.029228 -486100.000000 0 0 1
-4.376107 -27.684972 24.858607 37.464094 1.414025 0.845267 0.061245 -0.031481 -233523.000000 0 0 1
-4.801707 -28.769252 25.646607 38.839087 1.405417 0.849538 0.063998 -0.034523 148576.000000 0 0 1
-4.059407 -29.951392 25.413007 39.489057 1.436084 0.871675 0.053245 -0.030674 53433.700000 0 0 1
-4.416707 -31.081082 26.439807 41.043932 1.429639 0.870842 0.066480 -0.023662 199044.000000 0 0 1
-3.725907 -30.865782 27.654207 41.609303 1.450664 0.843817 0.064288 -0.032470 136379.000000 0 0 1
-3.944207 -32.013372 28.514207 43.051978 1.448209 0.846885 0.053840 -0.031106 -110230.000000 0 0 1
-3.240307 -31.937182 29.883207 43.857602 1.469684 0.821165 0.075078 -0.033228 -12122.800000 0 0 1
-1.844707 -31.756952 29.845007 43.619163 1.512773 0.817266 0.085292 -0.034594 -197512.000000 0 0 1
-1.302807 -31.485532 31.119907 44.288652 1.529442 0.791666 0.084449 -0.034693 -19205.300000 0 0 1
-29.172367 2.997768 -9.626193 30.865470 -0.102401 1.887963 0.160415 -0.032323 -139147.000000 0 0 1
-30.061417 2.615068 -10.622993 31.990239 -0.086772 1.909293 0.129158 -0.032423 -240273.000000 0 0 1
-30.687907 3.747168 -11.240493 32.895860 -0.121504 1.919521 0.099291 -0.029457 353105.000000 0 0 1
-31.642637 3.376068 -12.420293 34.160181 -0.106292 1.942915 0.102113 -0.029107 202946.000000 0 0 1
-32.736767 2.577268 -12.010593 34.965591 -0.078565 1.921435 0.106090 -0.031436 -1807.550000 0 0 1
-33.410797 2.112268 -13.166293 35.973522 -0.063137 1.945503 0.107318 -0.024431 35461.100000 0 0 1
-34.701438 1.362768 -12.756693 36.997029 -0.039251 1.922825 0.082914 -0.024369 114460.000000 0 0 1
-34.420056 0.182468 -12.071093 36.475812 -0.005301 1.908090 0.110340 -0.029802 -330294.000000 0 0 1
-35.260192 -0.802732 -12.552893 37.436622 0.022762 1.912731 0.093555 -0.023318 -424532.000000 0 0 1
-34.667250 -2.218832 -12.289293 36.847906 0.063917 1.910825 0.099212 -0.032751 450963.000000 0 0 1
-33.430727 -2.458532 -12.966393 35.941414 0.073409 1.939884 0.097174 -0.027627 357058.000000 0 0 1
-32.950617 -3.774032 -12.739893 35.528740 0.114039 1.937543 0.107961 -0.034758 -118480.000000 0 0 1
-33.640747 -4.945732 -13.466893 36.572084 0.145970 1.947900 0.121254 -0.029892 48196.800000 0 0 1
-33.333617 -6.169732 -12.839293 36.249732 0.183019 1.932844 0.120979 -0.032595 38663.100000 0 0 1
-34.193069 -7.088132 -13.452793 37.421721 0.204402 1.938519 0.120782 -0.028801 -347518.000000 0 0 1
-34.038187 -8.470332 -12.778093 37.331279 0.243894 1.920148 0.111932 -0.033410 -271482.000000 0 0 1
-32.766567 -9.067032 -12.772293 36.317908 0.269961 1.930162 0.105863 -0.026159 13195.900000 0 0 1
-32.430057 -9.584332 -14.042593 36.616423 0.287359 1.964385 0.095791 -0.018741 -239155.000000 0 0 1
-31.220197 -10.551232 -14.001693 35.806097 0.325910 1.972560 0.087694 -0.020688 -57068.700000 0 0 1
-31.498167 -11.800632 -13.485993 36.238949 0.358459 1.952111 0.090090 -0.016881 285045.000000 0 0 1
-30.314097 -12.590932 -13.425793 35.464461 0.393668 1.959048 0.085100 -0.016046 200721.000000 0 0 1
-30.458527 -14.040832 -13.872493 36.294805 0.431949 1.962991 0.093389 -0.020221 -154020.000000 0 0 1
-30.659357 -14.059532 -15.336393 37.052281 0.429960 1.997544 0.090661 -0.021678 -3665.530000 0 0 1
-30.726157 -15.383232 -15.843793 37.838688 0.464172 2.002831 0.091579 -0.024409 -683721.000000 0 0 1
-29.570927 -16.374732 -15.727493 37.281706 0.505713 2.006287 0.079916 -0.020513 -1601800.000000 0 0 1
-28.432917 -15.812332 -16.241693 36.362800 0.507536 2.033822 0.086896 -0.028322 -2053930.000000 0 0 1
-27.483227 -16.814832 -16.213493 36.068597 0.549067 2.037022 0.097016 -0.034532 440986.000000 0 0 1
-26.098297 -16.333232 -16.819993 35.082870 0.559200 2.070808 0.101239 -0.035299 1111550.000000 0 0 1
-26.185817 -16.222732 -18.214793 35.786209 0.554652 2.104806 0.088948 -0.033997 453454.000000 0 0 1
-24.896007 -15.869932 -18.717993 34.957534 0.567501 2.135836 0.070165 -0.018394 88842.800000 0 0 1
-24.924707 -15.541032 -20.244493 35.673578 0.557534 2.174254 0.074029 -0.024155 26152.400000 0 0 1
-25.311407 -16.690732 -20.989293 36.875443 0.582966 2.176322 0.073321 -0.034379 -577181.000000 0 0 1
-26.683377 -16.781832 -21.175393 37.974067 0.561417 2.162322 0.084778 -0.035270 -1154990.000000 0 0 1
-27.128027 -18.032432 -21.853993 39.226209 0.586651 2.161719 0.082802 -0.025112 -333860.000000 0 0 1
-26.858927 -18.081132 -23.216293 39.841254 0.592504 2.192868 0.069996 -0.017819 105199.000000 0 0 1
-27.506977 -19.203432 -23.818993 41.143043 0.609469 2.188214 0.050048 -0.025231 -545997.000000 0 0 1
-26.846977 -19.502932 -25.232973 41.687258 0.628257 2.220929 0.049721 -0.030030 2045560.000000 0 0 1
-25.424827 -19.836332 -25.221943 40.939569 0.662548 2.234549 0.067342 -0.026459 1323660.000000 0 0 1
-25.136267 -21.059632 -24.680893 41.042496 0.697379 2.215986 0.057544 -0.019679 -1151670.000000 0 0 1
-23.622307 -21.183732 -24.609293 40.154466 0.731027 2.230478 0.058922 -0.010107 -633943.000000 0 0 1
-22.958207 -21.311932 -25.827143 40.599495 0.748228 2.260287 0.060329 -0.020079 -610171.000000 0 0 1
-21.582007 -21.415632 -25.580133 39.733556 0.781529 2.270239 0.062856 -0.022216 -200526.000000 0 0 1
-20.640407 -21.048232 -26.744493 39.803547 0.795180 2.307584 0.055116 -0.023883 -402359.000000 0 0 1
-20.620507 -21.912432 -27.851163 41.000576 0.815764 2.317587 0.059367 -0.009660 -710425.000000 0 0 1
-21.561707 -21.604132 -28.819463 41.978651 0.786381 2.327498 0.071794 -0.026491 -199658.000000 0 0 1
-21.025707 -21.925532 -30.281993 42.892988 0.806345 2.354615 0.076063 -0.026189 293463.000000 0 0 1
-20.670707 -23.291932 -30.646253 43.691933 0.844952 2.348180 0.070703 -0.025057 -56679.400000 0 0 1
-19.964107 -23.301932 -31.859983 44.233518 0.862392 2.374985 0.076508 -0.024367 73733.700000 0 0 1
-19.162007 -24.558232 -32.238373 44.828584 0.908203 2.373371 0.069367 -0.024846 -329119.000000 0 0 1
-18.504107 -24.496032 -33.485373 45.428270 0.923853 2.399572 0.064129 -0.018597 -635655.000000 0 0 1
-19.259607 -24.612632 33.562513 45.860183 0.906812 0.749772 0.061225 -0.015399 -276311.000000 0 0 1
-18.407907 -24.702832 32.255145 44.603535 0.930391 0.762441 0.062459 -0.017149 -54338.400000 0 0 1
-17.766507 -23.459932 31.977533 43.457794 0.922631 0.743905 0.061165 -0.022330 -323432.000000 0 0 1
-17.185407 -23.511532 30.698083 42.314332 0.939609 0.759069 0.065636 -0.019307 74581.100000 0 0 1
-16.223007 -22.307632 30.400173 41.048593 0.942021 0.736848 0.050045 -0.013380 -12560.800000 0 0 1
-16.860507 -21.100932 30.059813 40.411860 0.896640 0.732004 0.057489 -0.016952 138431.000000 0 0 1
-15.995507 -19.971432 29.840943 39.308984 0.895495 0.708809 0.056985 -0.018896 91682.500000 0 0 1
-15.510007 -19.196132 31.060403 39.671154 0.891211 0.671408 0.053925 -0.023850 -65552.100000 0 0 1
-14.939507 -17.966732 30.690313 38.573147 0.877135 0.650734 0.054293 -0.023734 -154897.000000 0 0 1
-14.293107 -17.443532 31.815273 38.997197 0.884342 0.616625 0.059609 -0.027312 -168616.000000 0 0 1
-13.901407 -15.940632 31.618693 38.040697 0.853626 0.589568 0.059276 -0.026360 -222575.000000 0 0 1
-12.760107 -15.803032 30.803253 36.897108 0.891531 0.582951 0.066620 -0.028080 -222923.000000 0 0 1
-12.437407 -14.468332 30.565693 36.031699 0.860738 0.558030 0.056587 -0.026760 -898473.000000 0 0 1
-10.939407 -14.329832 30.463493 35.398293 0.918774 0.534365 0.068167 -0.026437 -844397.000000 0 0 1
-10.566607 -12.980732 30.310313 34.624669 0.887563 0.504541 0.061584 -0.025266 423859.000000 0 0 1
-9.166407 -12.715232 30.452543 34.249928 0.946181 0.475362 0.060683 -0.024203 778090.000000 0 0 1
-9.053907 -11.204832 30.232603 33.489279 0.891175 0.444665 0.054768 -0.016548 -615999.000000 0 0 1
-9.396907 -10.488432 31.388893 34.403077 0.840234 0.421720 0.062841 -0.015417 15971.800000 0 0 1
-9.285007 -9.072232 31.240193 33.829964 0.773808 0.393827 0.048652 -0.010695 -236691.000000 0 0 1
-10.018107 -8.188932 32.272570 34.769813 0.685269 0.381310 0.037291 -0.011516 215532.000000 0 0 1
-11.400707 -8.027832 31.973963 34.882038 0.613507 0.411227 0.035413 -0.017456 542109.000000 0 0 1
-12.251707 -7.457532 32.973975 35.958339 0.546787 0.410291 0.044742 -0.014170 442539.000000 0 0 1
-11.963107 -6.024632 33.426855 36.010648 0.466524 0.381118 0.028998 -0.011325 -445905.000000 0 0 1
-12.321807 -5.101632 32.418286 35.054228 0.392545 0.390277 0.039316 -0.014478 172866.000000 0 0 1
-12.324607 -3.813632 33.019290 35.450152 0.300088 0.372477 0.033909 -0.014960 -324083.000000 0 0 1
-12.007407 -2.711732 32.028913 34.313009 0.222112 0.366929 0.025861 -0.011463 1050040.000000 0 0 1
-10.603607 -2.721132 31.671423 33.510000 0.251203 0.332793 0.034467 -0.012334 1135710.000000 0 0 1
-10.328307 -1.557432 30.976183 32.689807 0.149665 0.325224 0.022200 -0.013847 -128651.000000 0 0 1
-8.804107 -1.294532 30.934193 32.188700 0.145991 0.280105 0.039595 -0.013156 131701.000000 0 0 1
-8.326007 -0.946532 32.214603 33.286619 0.113198 0.254480 0.054881 -0.025410 -412186.000000 0 0 1
-7.010407 -0.489632 32.292246 33.048067 0.069730 0.214280 0.069556 -0.031074 -343979.000000 0 0 1
-6.727107 0.338268 33.584342 34.253123 -0.050242 0.197932 0.100771 -0.040963 43786.400000 0 0 1
-7.537007 1.489368 33.659002 34.524674 -0.195094 0.224408 0.093783 -0.023479 235670.000000 0 0 1
-6.853207 2.619968 33.115240 33.918282 -0.365154 0.218036 0.106084 -0.022697 663305.000000 0 0 1
-7.694307 3.936668 33.405586 34.505549 -0.472911 0.253175 0.101457 -0.026726 873460.000000 0 0 1
-8.895907 3.965568 32.636323 34.058663 -0.419334 0.290019 0.064535 -0.012817 365698.000000 0 0 1
-9.472507 5.252568 32.622629 34.373737 -0.506297 0.320567 0.051434 -0.011388 -311515.000000 0 0 1
-10.869307 5.255468 31.991793 34.194102 -0.450372 0.360859 0.024996 0.001027 -342460.000000 0 0 1
-11.577207 6.431068 32.209933 34.826286 -0.507051 0.390092 0.023258 0.002891 532629.000000 0 0 1
-12.952607 6.314668 31.822933 34.933425 -0.453615 0.425192 -0.002235 0.004649 999467.000000 0 0 1
-13.732307 7.696368 31.989863 35.653355 -0.510836 0.457302 0.005390 0.001731 150941.000000 0 0 1
-14.213007 7.905568 33.280696 37.042035 -0.507607 0.454553 0.005779 0.000594 205063.000000 0 0 1
-14.906307 9.170468 33.400283 37.707750 -0.551526 0.482652 0.011325 0.009579 247685.000000 0 0 1
-15.716507 9.194968 -33.513783 38.140918 -0.529356 2.643893 0.014469 0.010959 152501.000000 0 0 1
-14.898107 9.320968 -32.389513 36.849892 -0.559065 2.644469 0.019501 0.001445 -165908.000000 0 0 1
-15.735507 9.645868 -31.280543 36.319710 -0.549924 2.608531 0.030235 0.001985 -1066630.000000 0 0 1
-14.984607 10.029468 -30.030053 35.027600 -0.589836 2.600848 0.043446 -0.007874 550470.000000 0 0 1
-14.078207 11.171268 -30.104293 35.060827 -0.670774 2.603388 0.052177 -0.010132 765093.000000 0 0 1
-12.942007 10.940168 -30.911243 35.251777 -0.701772 2.640109 0.052625 -0.017416 -1059040.000000 0 0 1
-12.000507 12.123168 -31.136133 35.502706 -0.790483 2.640394 0.057983 -0.017618 -322718.000000 0 0 1
-12.530907 13.160268 -31.929213 36.738140 -0.809890 2.624181 0.055238 -0.021257 -139661.000000 0 0 1
-11.611307 14.215168 -32.112623 36.988025 -0.885880 2.622339 0.048667 -0.028012 -131791.000000 0 0 1
-11.831507 15.476368 -31.187623 36.771869 -0.918087 2.583257 0.060582 -0.027342 811363.000000 0 0 1
-13.075007 16.210268 -31.280393 37.579137 -0.892051 2.554198 0.064417 -0.022871 990064.000000 0 0 1
-13.096407 17.274168 -30.379953 37.320963 -0.922100 2.521834 0.063326 -0.017349 56812.200000 0 0 1
-14.529107 17.840668 -30.187453 37.956115 -0.887348 2.490340 0.059891 -0.026181 -1305.490000 0 0 1
-14.876807 18.714668 -31.247923 39.344515 -0.899156 2.488508 0.056629 -0.023796 1805170.000000 0 0 1
-16.309607 19.010868 -31.384633 40.154845 -0.861728 2.468007 0.054132 -0.024572 1831030.000000 0 0 1
-16.843807 20.187968 -30.581253 40.329653 -0.875459 2.431470 0.033681 -0.026255 -787574.000000 0 0 1
-16.256007 21.459268 -30.892793 40.977098 -0.922494 2.424780 0.035147 -0.018678 271932.000000 0 0 1
-16.975007 22.663768 -30.553043 41.656760 -0.927940 2.394176 0.011014 -0.009050 191186.000000 0 0 1
-18.375407 22.756468 -31.211113 42.774361 -0.891511 2.388634 0.023737 -0.002060 -409598.000000 0 0 1
-19.443607 22.194268 -30.515963 42.448361 -0.851364 2.373009 0.026918 -0.011562 480538.000000 0 0 1
-20.550407 21.965868 -31.420953 43.498217 -0.818678 2.377991 0.058781 -0.014086 -88495.200000 0 0 1
-21.767407 21.266168 -30.810893 43.305670 -0.773751 2.362391 0.089235 -0.023103 -592381.000000 0 0 1
-22.640607 21.964168 -29.936503 43.488113 -0.770234 2.330055 0.116043 -0.019241 765467.000000 0 0 1
-23.482007 22.953768 -30.537323 44.842036 -0.774023 2.319921 0.123257 -0.012929 -331616.000000 0 0 1
-24.743607 22.432468 -31.257983 45.744106 -0.736448 2.323100 0.125471 -0.025176 -730999.000000 0 0 1
-24.548607 21.752768 -32.506493 46.178882 -0.725088 2.351706 0.117389 -0.018610 -87435.500000 0 0 1
-25.742487 21.400968 -33.152743 47.114556 -0.693566 2.351335 0.137575 -0.020323 -269953.000000 0 0 1
-25.489307 20.648468 33.771468 47.080528 -0.680859 0.770858 0.126732 -0.008264 -60112.500000 0 0 1
-25.070927 19.326268 33.958050 46.424188 -0.656721 0.750316 0.128511 -0.015727 143821.000000 0 0 1
-25.050407 18.656468 32.750863 45.257107 -0.640137 0.761702 0.104620 -0.021758 -171891.000000 0 0 1
-24.969907 17.118268 32.757591 44.604833 -0.600966 0.746021 0.085742 -0.003779 -69314.700000 0 0 1
-26.014667 16.365368 33.336322 45.342018 -0.561530 0.744806 0.087459 -0.004893 77498.100000 0 0 1
-25.936477 15.041068 32.814108 44.448850 -0.525524 0.740333 0.092690 -0.015120 -860688.000000 0 0 1
-26.967447 14.074768 33.291977 45.096541 -0.481027 0.740342 0.062807 -0.002747 336773.000000 0 0 1
-28.361917 14.332868 32.998993 45.812258 -0.467923 0.766548 0.064550 0.010777 1606830.000000 0 0 1
-29.277357 13.246868 32.824942 45.936043 -0.424899 0.774774 0.072455 0.009693 301795.000000 0 0 1
-29.307127 12.077468 33.851644 46.375713 -0.390894 0.752557 0.058583 -0.002105 -601966.000000 0 0 1
-28.176067 11.250068 33.697035 45.342530 -0.379883 0.733006 0.069439 -0.016675 -155805.000000 0 0 1
-28.462397 9.924468 34.072777 45.492387 -0.335505 0.724279 0.076772 -0.017124 -603987.000000 0 0 1
-27.185197 9.103468 -33.927063 44.417943 -0.323132 2.439999 0.068391 -0.018703 -110973.000000 0 0 1
-26.293757 8.719768 33.302451 43.318001 -0.320216 0.693849 0.065662 -0.016055 -141219.000000 0 0 1
-25.497797 9.798468 32.910432 42.769665 -0.366888 0.692769 0.054989 -0.014024 -1501980.000000 0 0 1
-24.128007 9.412568 32.392134 41.472974 -0.371951 0.674464 0.051564 -0.006099 -681473.000000 0 0 1
-24.174707 9.142568 31.003893 40.363900 -0.361562 0.694913 0.054058 -0.010407 713051.000000 0 0 1
-22.871207 9.038968 30.417613 39.115550 -0.376372 0.679901 0.049817 -0.005817 712765.000000 0 0 1
-22.904107 9.118068 28.851353 37.949149 -0.378865 0.707078 0.060586 -0.010072 77396.900000 0 0 1
-23.399607 10.361868 28.357763 38.197810 -0.416869 0.734162 0.057312 -0.001178 318255.000000 0 0 1
-23.196207 10.517268 26.962133 37.089535 -0.425682 0.756931 0.056031 -0.005955 -951648.000000 0 0 1
-23.731207 11.859868 26.397573 37.425373 -0.463454 0.787895 0.057877 -0.006942 673082.000000 0 0 1
-25.140557 12.051768 26.465213 38.440867 -0.447012 0.811425 0.077489 -0.007281 307533.000000 0 0 1
-25.899017 11.239168 25.607263 38.115744 -0.409436 0.834121 0.078264 -0.002683 -310571.000000 0 0 1
-27.421447 11.561368 25.726973 39.337999 -0.399002 0.857939 0.087314 -0.004587 331326.000000 0 0 1
-27.603517 12.806268 25.085063 39.436215 -0.434383 0.881373 0.096605 -0.011565 409336.000000 0 0 1
-28.733247 13.540968 25.585443 40.786913 -0.440396 0.892721 0.096622 -0.014934 663177.000000 0 0 1
-28.891437 14.995568 25.076403 41.090245 -0.478757 0.914387 0.118415 -0.024231 -164571.000000 0 0 1
-27.885057 15.824668 25.580173 41.016360 -0.516177 0.897383 0.131813 -0.026989 -142043.000000 0 0 1
-28.005237 17.182568 25.147733 41.375626 -0.550322 0.917520 0.123925 -0.019673 -278751.000000 0 0 1
-22.504907 -9.645232 31.930843 40.237795 0.404902 0.654170 0.056039 -0.025880 463828.000000 0 0 1
-21.613407 -9.010932 30.983803 38.837255 0.395002 0.647183 0.055104 -0.022258 436264.000000 0 0 1
-22.206207 -9.005632 29.669173 38.137605 0.385278 0.679399 0.046624 -0.017346 -70195.100000 0 0 1
-21.405907 -8.369932 28.560333 36.660077 0.372733 0.677634 0.068307 -0.018510 -427392.000000 0 0 1
-20.963907 -6.988232 28.770633 36.277681 0.321762 0.654969 0.064562 -0.014767 1020720.000000 0 0 1
-19.735207 -6.730332 29.500713 36.125723 0.328663 0.615279 0.060902 -0.003584 1119680.000000 0 0 1
-18.410207 -7.107732 28.767563 34.885933 0.368445 0.601270 0.060014 -0.004693 -427632.000000 0 0 1
-18.130207 -8.559332 28.788033 35.081583 0.441082 0.608332 0.058269 -0.006304 163091.000000 0 0 1
-17.564907 -9.156132 29.929213 35.890368 0.480522 0.584648 0.063217 -0.013661 176917.000000 0 0 1
-16.085007 -8.796532 30.274953 35.393209 0.500443 0.544495 0.056318 -0.014970 -101534.000000 0 0 1
-15.137407 -9.389732 29.442043 34.411366 0.555212 0.544106 0.052130 -0.011039 -1422050.000000 0 0 1
-13.882907 -9.026832 29.881403 34.163095 0.576524 0.506044 0.045618 -0.018039 -423585.000000 0 0 1
-12.691407 -9.930632 29.439743 33.561701 0.663959 0.500833 0.047598 -0.015783 250638.000000 0 0 1
-12.407807 -9.836632 28.079343 32.236044 0.670322 0.513452 0.055741 -0.018080 -330982.000000 0 0 1
-11.307607 -10.632232 27.733563 31.781392 0.754625 0.510224 0.063326 -0.020365 -465605.000000 0 0 1
-10.812607 -10.385532 26.265963 30.243554 0.765254 0.518666 0.050672 -0.016104 415597.000000 0 0 1
-11.724107 -10.931032 25.299043 29.949687 0.750406 0.564758 0.051846 -0.020501 389154.000000 0 0 1
-11.306807 -10.552632 23.994053 28.546743 0.750911 0.572558 0.058045 -0.021466 -206665.000000 0 0 1
-12.378307 -10.816032 22.951853 28.231128 0.718144 0.621514 0.074591 -0.022154 -1451080.000000 0 0 1
-12.439507 -12.212032 22.738453 28.651568 0.776171 0.654061 0.070832 -0.019406 1040260.000000 0 0 1
-13.636507 -12.653832 22.048953 28.848399 0.748038 0.700835 0.074552 -0.019305 646556.000000 0 0 1
-14.924707 -12.418232 22.835053 29.973305 0.693986 0.704638 0.071554 -0.018658 -1265020.000000 0 0 1
-16.099907 -13.146632 22.466053 30.606609 0.684761 0.746565 0.055766 -0.011143 787838.000000 0 0 1
-17.120507 -12.768632 23.417693 31.694449 0.640814 0.739422 0.056534 -0.007021 -150779.000000 0 0 1
-18.417707 -13.472932 22.976953 32.383209 0.631569 0.781961 0.066273 -0.010290 -575092.000000 0 0 1
-18.427907 -14.864632 23.208953 33.154194 0.678775 0.795356 0.066722 -0.012141 276531.000000 0 0 1
-19.738307 -15.402632 23.174153 34.115733 0.662639 0.824014 0.055088 -0.006863 663314.000000 0 0 1
-20.557507 -15.449432 24.518833 35.531243 0.644475 0.809219 0.061975 -0.007669 232070.000000 0 0 1
-19.927407 -16.379832 25.397953 36.200228 0.687997 0.793161 0.075255 -0.008907 359662.000000 0 0 1
-20.622707 -16.492532 26.621173 37.496487 0.674574 0.781349 0.068035 -0.013823 -243035.000000 0 0 1
-19.944907 -17.431732 27.627643 38.274682 0.718260 0.764360 0.067750 -0.015591 -163967.000000 0 0 1
-20.115607 -18.797332 27.419153 38.855982 0.751534 0.787441 0.069434 -0.011689 75670.500000 0 0 1
-19.852107 -19.499132 28.634573 39.928199 0.776429 0.771090 0.061047 -0.012886 -97036.000000 0 0 1
-19.882707 -21.011232 28.494293 40.604417 0.812988 0.792940 0.057113 -0.003011 231835.000000 0 0 1
-21.173007 -21.529432 28.217423 41.328388 0.793745 0.819261 0.050526 0.000439 -76632.400000 0 0 1
-21.090207 -22.899432 27.901933 41.805487 0.826503 0.840054 0.057131 0.012686 8823.270000 0 0 1
-22.360007 -23.568932 27.337893 42.459685 0.811714 0.871270 0.057973 0.009843 484261.000000 0 0 1
-23.270107 -23.953632 28.383803 43.828241 0.799871 0.866347 0.053268 0.010014 -79123.400000 0 0 1
-24.525007 -24.381232 27.948753 44.464067 0.782458 0.891084 0.038791 0.007342 -259494.000000 0 0 1
-25.195117 -25.323302 28.973813 45.995059 0.787936 0.889329 0.016365 0.005922 -298090.000000 0 0 1
-26.054857 -24.673032 29.895503 46.704981 0.758165 0.876178 0.011106 0.012629 69298.600000 0 0 1
-26.413697 -25.568342 30.910343 48.029916 0.769137 0.871650 0.009564 0.020347 -357951.000000 0 0 1
-27.730057 -25.149702 31.559073 48.963647 0.736640 0.870374 0.019449 0.005936 -452851.000000 0 0 1
-28.826197 -25.028032 30.696873 48.986223 0.714988 0.893558 0.029075 0.001027 -135622.000000 0 0 1
-29.757527 -24.103032 31.217523 49.406481 0.680797 0.886858 0.041967 -0.014881 -121207.000000 0 0 1
-30.882837 -23.666032 30.258193 49.288832 0.653862 0.909810 0.052049 -0.016229 -494282.000000 0 0 1
-31.851587 -24.643532 30.118133 50.288460 0.658497 0.928660 0.057457 -0.019227 -825913.000000 0 0 1
-32.846607 -24.276332 29.208993 50.213596 0.636477 0.949985 0.055487 -0.020133 -535023.000000 0 0 1
-34.182394 -24.923332 29.553753 51.604582 0.630008 0.961005 0.062346 -0.024523 -663287.000000 0 0 1
-33.995997 -26.345142 29.683973 52.258326 0.659278 0.966694 0.066778 -0.029670 13078.300000 0 0 1
-35.073574 -26.938292 30.383403 53.656112 0.654954 0.968833 0.060253 -0.022959 143480.000000 0 0 1
-34.800384 -28.403942 30.653173 54.382605 0.684539 0.971989 0.060701 -0.028179 -75614.900000 0 0 1
-33.935637 -28.639972 31.727153 54.575523 0.700971 0.950417 0.058683 -0.028811 -290534.000000 0 0 1
-33.597687 -30.003952 31.767303 55.119899 0.728954 0.956564 0.059564 -0.035847 109538.000000 0 0 1
-32.598827 -30.335372 32.905895 55.368911 0.749448 0.934398 0.060491 -0.025481 -129450.000000 0 0 1
-33.101977 -30.212802 -34.066299 56.294467 0.739798 2.220744 0.053798 -0.017421 -326628.000000 0 0 1
-32.111987 -30.523032 -33.113333 55.311192 0.760035 2.212640 0.044298 -0.018569 18226.100000 0 0 1
-32.534567 -30.260852 -31.654593 54.554839 0.749206 2.189813 0.042531 -0.022099 -41644.700000 0 0 1
-32.696607 -28.895902 -31.394763 53.755673 0.723769 2.194477 0.041881 -0.011014 383515.000000 0 0 1
-31.481517 -28.189772 -31.097303 52.467051 0.730289 2.205205 0.041032 -0.004508 553392.000000 0 0 1
-31.734487 -26.676942 -31.011813 51.773250 0.699029 2.213039 0.035151 -0.002731 318425.000000 0 0 1
-32.387717 -26.232782 -29.773803 51.221113 0.680785 2.191097 0.023072 -0.006375 274717.000000 0 0 1
-32.400817 -24.797832 -29.603963 50.409722 0.653250 2.198474 0.027658 0.002425 -501580.000000 0 0 1
-31.063367 -24.275632 -29.097833 48.999214 0.663350 2.206623 0.030876 -0.001174 -472149.000000 0 0 1
-31.035787 -22.839132 -29.076083 48.272814 0.634414 2.217211 0.029964 0.002830 1313420.000000 0 0 1
-29.722047 -22.373732 -28.639783 46.949133 0.645269 2.226879 0.029556 -0.003583 1269100.000000 0 0 1
-29.402837 -20.878832 -28.779293 46.137838 0.617470 2.244350 0.038755 -0.012438 -105967.000000 0 0 1
-28.998847 -20.404332 -30.061203 46.485974 0.613155 2.274010 0.047557 -0.000622 164598.000000 0 0 1
-28.786567 -19.025232 -29.925583 45.674571 0.584004 2.285232 0.042899 -0.009021 -294328.000000 0 0 1
-28.480547 -18.365232 -31.318843 46.144265 0.572735 2.316809 0.051713 -0.005373 448855.000000 0 0 1
-29.562217 -18.241932 -32.231223 47.387176 0.552876 2.318788 0.051408 -0.010766 573505.000000 0 0 1
-30.575377 -17.285932 -31.940643 47.474854 0.514555 2.308771 0.044729 -0.006826 -160662.000000 0 0 1
-31.407397 -16.732832 -33.092273 48.595378 0.489516 2.319891 0.045635 -0.010735 192057.000000 0 0 1
-32.223897 -17.729632 -33.713923 49.893366 0.502998 2.312737 0.064027 -0.020037 -19014.200000 0 0 1
-33.591747 -17.426132 -33.622463 50.621592 0.478545 2.297209 0.072072 -0.018772 145920.000000 0 0 1
-34.475873 -18.239032 33.591420 51.474573 0.486607 0.859808 0.064740 -0.021428 -29441.500000 0 0 1
-34.764303 -19.557132 33.975370 52.396221 0.512438 0.865274 0.045445 -0.021974 -108478.000000 0 0 1
-35.421242 -20.177532 32.927534 52.402478 0.517801 0.891355 0.047217 -0.018510 -339707.000000 0 0 1
-35.732802 -21.641932 33.312688 53.431653 0.544571 0.897631 0.039706 -0.018301 158838.000000 0 0 1
-34.554482 -22.424932 33.281494 52.957980 0.575653 0.891236 0.055692 -0.020899 121091.000000 0 0 1
-34.834944 -23.762732 33.700310 53.980105 0.598647 0.896549 0.054510 -0.026574 -417457.000000 0 0 1
-33.524837 -24.623032 33.693010 53.529687 0.633488 0.889981 0.055319 -0.024470 1299930.000000 0 0 1
-32.558087 -24.262832 -33.514243 52.649012 0.640433 2.260826 0.034722 -0.025377 1263210.000000 0 0 1
-31.780697 -23.023432 -33.745273 51.757459 0.626946 2.281000 0.037011 -0.026722 -348728.000000 0 0 1
-30.428187 -22.997332 -33.034873 50.458445 0.647197 2.284575 0.038311 -0.015618 -379424.000000 0 0 1
-29.518827 -23.989032 -33.499203 50.685613 0.682418 2.292842 0.043122 -0.015282 630682.000000 0 0 1
-28.211377 -23.909232 -32.922183 49.511648 0.703043 2.298207 0.054268 -0.013326 637945.000000 0 0 1
-27.997647 -24.411832 -31.461623 48.678943 0.717085 2.273533 0.040404 -0.000567 -737915.000000 0 0 1
-27.849557 -25.787622 -31.346413 49.225978 0.746975 2.261119 0.051439 -0.005705 -148028.000000 0 0 1
-27.631547 -25.904392 -29.979433 48.304309 0.753148 2.240351 0.032345 0.003801 66786.600000 0 0 1
-27.228917 -27.331872 -29.476403 48.552070 0.787285 2.223214 0.032624 -0.001786 322024.000000 0 0 1
-28.258267 -28.284312 -29.695003 49.802863 0.785859 2.209619 0.023804 0.005192 192031.000000 0 0 1
-27.904127 -29.538982 -29.122523 49.993130 0.813851 2.192635 0.026951 0.001103 206431.000000 0 0 1
-28.688237 -30.798152 -29.627223 51.471482 0.820852 2.184140 0.039195 0.009156 -6787.010000 0 0 1
-28.400577 -31.083942 -30.960913 52.262628 0.830478 2.204844 0.047906 -0.007030 173680.000000 0 0 1
-28.993417 -32.284582 -31.433893 53.581733 0.839055 2.197716 0.069584 0.000376 7952.340000 0 0 1
-28.468077 -32.648532 -32.884283 54.385054 0.853693 2.220131 0.048414 -0.015237 995885.000000 0 0 1
-27.079597 -33.010712 -32.910013 53.908076 0.883783 2.227468 0.054560 -0.015067 576639.000000 0 0 1
-26.523217 -33.272372 34.078676 54.515025 0.897793 0.895505 0.059937 -0.023606 -256809.000000 0 0 1
-25.088537 -33.804602 34.057884 54.149102 0.932330 0.890575 0.065515 -0.021696 -224762.000000 0 0 1
-24.713907 34.049620 32.783194 53.337526 -0.942951 0.908871 0.060301 -0.016827 183872.000000 0 0 1
-23.654607 33.092766 32.848352 52.284662 -0.950208 0.891482 0.058796 -0.012166 -47243.200000 0 0 1
-23.489607 32.161796 31.622893 50.854205 -0.939985 0.899713 0.055699 -0.019645 -369392.000000 0 0 1
-24.585007 31.295716 31.515903 50.765112 -0.904916 0.901010 0.082884 -0.046138 -160926.000000 0 0 1
-24.539907 30.561436 30.292023 49.535998 -0.894247 0.912822 0.076895 -0.033213 9968.220000 0 0 1
-25.957187 30.064286 29.906543 49.719595 -0.858580 0.925414 0.083441 -0.036800 -107276.000000 0 0 1
-26.342937 29.030766 30.809923 49.859674 -0.833900 0.904686 0.083993 -0.036972 -383407.000000 0 0 1
-27.711047 28.780606 30.669453 50.367060 -0.804329 0.916099 0.084305 -0.038608 -320557.000000 0 0 1
-28.113247 27.437136 31.330693 50.247024 -0.773228 0.897542 0.075547 -0.050953 -187047.000000 0 0 1
-27.527257 26.351016 30.671633 48.917022 -0.763570 0.893083 0.088372 -0.037671 -276565.000000 0 0 1
-27.815677 25.100336 31.178753 48.742727 -0.734129 0.876741 0.079776 -0.031029 -165460.000000 0 0 1
-28.974887 24.355456 30.502803 48.612275 -0.698995 0.892495 0.076308 -0.024188 -57006.700000 0 0 1
-28.845477 24.272986 29.120923 47.636830 -0.699529 0.913080 0.090348 -0.024575 350403.000000 0 0 1
-29.873927 23.464346 28.497503 47.488259 -0.665803 0.927175 0.087520 -0.015191 766316.000000 0 0 1
-29.462427 23.128166 27.040923 46.196950 -0.665531 0.945497 0.105173 -0.027208 851378.000000 0 0 1
-28.292647 22.304966 26.869563 44.943952 -0.667607 0.929985 0.096979 -0.027233 409297.000000 0 0 1
-27.580967 22.603966 25.700963 43.956667 -0.686548 0.946300 0.098123 -0.033373 518655.000000 0 0 1
-26.114947 22.056866 25.808763 42.832091 -0.701355 0.924096 0.108282 -0.039270 340516.000000 0 0 1
-26.067337 20.647966 26.134593 42.294935 -0.669906 0.904711 0.123198 -0.038474 3330.710000 0 0 1
-24.813507 20.276566 26.657463 41.682965 -0.685116 0.876911 0.098646 -0.031011 -137716.000000 0 0 1
-24.857907 18.977066 27.405943 41.582813 -0.652036 0.851216 0.116660 -0.031283 -174854.000000 0 0 1
-23.596707 18.655666 27.956913 41.066135 -0.668986 0.821972 0.089489 -0.015088 176446.000000 0 0 1
-23.689507 17.552766 28.860873 41.258240 -0.637685 0.796074 0.082364 -0.016830 -276669.000000 0 0 1
-22.496107 16.584366 28.964773 40.250144 -0.635265 0.767543 0.071309 -0.017085 -184616.000000 0 0 1
-21.446207 17.116866 29.741123 40.465557 -0.673600 0.745168 0.085336 -0.020251 -157815.000000 0 0 1
-20.322307 16.262866 29.730143 39.514028 -0.674892 0.719106 0.067812 -0.016361 -208438.000000 0 0 1
-19.258307 16.668166 30.730733 39.913508 -0.713427 0.692060 0.059769 -0.018137 -640514.000000 0 0 1
-19.605207 16.291266 32.018173 40.925944 -0.693340 0.672376 0.059085 -0.012396 -317523.000000 0 0 1
-18.544607 16.327466 32.901902 41.146370 -0.721904 0.644116 0.060175 -0.016222 -952809.000000 0 0 1
-18.996607 15.919166 -33.918933 42.009343 -0.697486 2.510552 0.053785 -0.021407 124164.000000 0 0 1
-19.804307 16.822366 -33.188173 42.150414 -0.704163 2.477335 0.063901 -0.024088 -459893.000000 0 0 1
-21.160907 16.630466 -33.434623 42.921211 -0.666087 2.463829 0.072611 -0.017134 -1242030.000000 0 0 1
-22.070807 17.365866 -32.470093 42.930184 -0.666656 2.428506 0.086343 -0.026860 -295104.000000 0 0 1
-22.262907 16.816066 -31.163633 41.828090 -0.646910 2.411392 0.088884 -0.030303 262165.000000 0 0 1
-23.086107 17.706666 -30.437813 42.106470 -0.654282 2.378754 0.078609 -0.027170 -505653.000000 0 0 1
-22.985707 17.301466 -28.912153 40.787204 -0.645230 2.358668 0.076391 -0.026424 187900.000000 0 0 1
-23.642807 16.128866 -28.444373 40.351022 -0.598672 2.353111 0.073982 -0.028713 704325.000000 0 0 1
-25.051207 16.053166 -28.724673 41.356667 -0.569890 2.338604 0.083973 -0.022752 438286.000000 0 0 1
-25.845957 15.059366 -27.897573 40.903210 -0.527571 2.321343 0.088040 -0.018620 -219070.000000 0 0 1
-25.622607 13.720466 -28.161393 40.470152 -0.491629 2.340407 0.071486 -0.015129 423677.000000 0 0 1
-26.512127 12.905366 -27.370113 40.231386 -0.453009 2.318992 0.047174 -0.010235 441633.000000 0 0 1
-26.127777 11.411866 -27.516873 39.624105 -0.411799 2.338449 0.063601 -0.010011 -100975.000000 0 0 1
-25.007007 11.045966 -26.756953 38.253082 -0.415943 2.345454 0.060864 -0.014969 -684611.000000 0 0 1
-24.311707 10.096566 -27.461823 38.041444 -0.393623 2.377329 0.051304 -0.002942 89362.300000 0 0 1
-23.118707 9.532566 -26.589773 36.501513 -0.391091 2.386863 0.073874 -0.004587 506550.000000 0 0 1
-23.505207 8.741066 -25.454933 35.733102 -0.356031 2.363656 0.066627 -0.004664 228138.000000 0 0 1
-22.381507 8.086366 -24.875193 34.425229 -0.346703 2.378332 0.095590 -0.000560 135768.000000 0 0 1
-22.793807 7.078566 -23.794493 33.702249 -0.301105 2.354660 0.079319 0.008177 54139.400000 0 0 1
-23.359307 5.918066 -24.395993 34.290599 -0.248129 2.362353 0.076985 -0.008725 257062.000000 0 0 1
-24.038307 5.211366 -23.398693 33.948452 -0.213490 2.331238 0.063135 0.002999 -420461.000000 0 0 1
35.492531 24.476168 -10.161593 44.295153 0.603722 1.802264 0.008376 0.002827 283419.000000 0 0 1
36.271021 23.894168 -9.105793 44.378302 0.582514 1.777450 0.012154 -0.003187 105741.000000 0 0 1
-36.100677 22.979168 -9.566193 43.849893 -0.566848 1.790723 0.017721 -0.010636 47444.900000 0 0 1
-35.146856 22.593468 -8.435393 42.625370 -0.571319 1.770007 0.031994 -0.006282 191904.000000 0 0 1
-35.795471 21.619268 -7.582893 42.499515 -0.543331 1.750180 0.017985 -0.015181 431622.000000 0 0 1
-34.820191 21.115868 -6.699693 41.269983 -0.545131 1.733856 0.051617 -0.012919 -29377.000000 0 0 1
-35.438434 20.216768 -5.605893 41.182841 -0.518428 1.707342 0.044434 -0.006515 -48117.900000 0 0 1
-35.872335 18.936568 -6.141993 41.026115 -0.485708 1.721071 0.034363 -0.005930 525094.000000 0 0 1
-36.405037 18.049268 -5.147793 40.958547 -0.460274 1.696813 0.040195 -0.012720 -9837.580000 0 0 1
36.183351 16.873768 -5.832493 40.348196 0.436359 1.715859 0.035955 -0.006995 544313.000000 0 0 1
35.035081 17.345068 -6.565993 39.641147 0.459702 1.737199 0.037721 -0.014837 211102.000000 0 0 1
34.393831 16.252568 -7.121993 38.701478 0.441442 1.755875 0.055812 -0.013063 -81837.200000 0 0 1
33.610511 16.693568 -8.391293 38.454590 0.460986 1.790779 0.031861 -0.017949 -82199.000000 0 0 1
33.135901 15.663168 -9.188393 37.785571 0.441566 1.816431 0.037836 -0.021090 -26338.900000 0 0 1
32.447021 16.168668 -10.336393 37.697162 0.462295 1.848549 0.052903 -0.014117 -252301.000000 0 0 1
31.815741 14.931368 -11.079493 36.850269 0.438794 1.876184 0.062718 -0.017610 820360.000000 0 0 1
30.622091 14.270968 -10.596293 35.406983 0.436108 1.874725 0.072236 -0.008551 1018510.000000 0 0 1
30.699721 13.765768 -9.292093 34.904330 0.421523 1.840262 0.057438 -0.011482 -797800.000000 0 0 1
29.588371 12.711068 -9.015093 33.441215 0.405758 1.843753 0.078991 0.000532 124171.000000 0 0 1
29.781701 11.522268 -9.676493 33.366853 0.369155 1.865026 0.077676 -0.001003 -226282.000000 0 0 1
28.795871 10.626968 -9.299093 32.071916 0.353540 1.864966 0.091683 -0.007321 -667911.000000 0 0 1
29.066911 9.214368 -9.832793 32.038629 0.306984 1.882735 0.110656 -0.006715 -111142.000000 0 0 1
30.192151 8.657968 -9.185493 32.724604 0.279268 1.855310 0.094456 -0.006624 235920.000000 0 0 1
30.289211 7.264568 -9.498593 32.564298 0.235394 1.866787 0.096042 -0.012295 187892.000000 0 0 1
31.295511 6.612468 -8.479193 33.091245 0.208229 1.829923 0.095438 -0.015882 388324.000000 0 0 1
32.633411 6.910868 -8.778093 34.492819 0.208689 1.828117 0.091275 -0.015106 -67098.200000 0 0 1
33.582091 6.386368 -7.865893 35.077269 0.187928 1.796964 0.100551 -0.022936 424147.000000 0 0 1
35.056591 6.791368 -8.117893 36.619496 0.191356 1.794336 0.092533 -0.021861 206642.000000 0 0 1
35.463981 6.130268 -9.298793 37.171786 0.171168 1.823639 0.088540 -0.017035 137018.000000 0 0 1
-36.489977 6.333768 -9.472793 38.227855 -0.171863 1.821203 0.082737 -0.016115 -419509.000000 0 0 1
-35.945174 5.438668 -10.663793 37.886028 -0.150166 1.856122 0.074933 -0.012479 681888.000000 0 0 1
-34.532350 5.510668 -10.910593 36.631840 -0.158246 1.873230 0.082653 -0.010040 1144330.000000 0 0 1
-34.103355 6.635468 -11.696793 36.659013 -0.192168 1.895544 0.066164 -0.010848 74975.400000 0 0 1
-33.464827 7.812968 -10.815193 36.026456 -0.229360 1.875700 0.070115 -0.005140 205257.000000 0 0 1
-34.453618 8.513668 -10.026393 36.879031 -0.242252 1.846135 0.076279 -0.001379 667662.000000 0 0 1
-35.031836 9.674168 -10.627993 37.865199 -0.269438 1.855299 0.057247 -0.000252 598949.000000 0 0 1
-35.814198 10.567168 -9.576793 38.549148 -0.286914 1.821856 0.054189 -0.004889 810244.000000 0 0 1
-34.939044 11.091268 -8.607293 37.654197 -0.307385 1.801423 0.069087 -0.005111 324383.000000 0 0 1
-35.774877 11.770868 -7.691793 38.439028 -0.317869 1.772260 0.062446 -0.008910 135434.000000 0 0 1
-35.016089 12.734568 -6.765393 37.869068 -0.348807 1.750413 0.063763 -0.013957 -14977.400000 0 0 1
-34.301699 13.670568 -7.532393 37.685912 -0.379246 1.772025 0.055426 -0.012593 48051.500000 0 0 1
-33.702617 14.689768 -6.721193 37.374191 -0.411037 1.751615 0.064360 -0.015187 -9459.640000 0 0 1
-32.754487 15.685868 -7.390593 37.061081 -0.446619 1.771559 0.046917 -0.008123 -482814.000000 0 0 1
-33.338627 16.607468 -8.296693 38.158972 -0.462162 1.789971 0.030331 -0.008009 -153403.000000 0 0 1
-32.508557 17.680568 -8.703693 38.015300 -0.498128 1.801798 0.031114 -0.002873 249753.000000 0 0 1
-33.296627 18.555268 -9.702593 39.333239 -0.508409 1.820046 0.012944 -0.004690 696589.000000 0 0 1
-32.622737 18.603368 -10.962993 39.121803 -0.518263 1.854827 0.009254 -0.004963 61151.300000 0 0 1
-33.619667 19.084668 -11.814393 40.423835 -0.516303 1.867389 0.003089 -0.009735 38893.100000 0 0 1
-33.180727 19.035268 -13.328993 40.508816 -0.520845 1.906082 -0.005021 0.005736 -697242.000000 0 0 1
-32.239387 19.996468 -13.565793 40.289795 -0.555176 1.914212 0.001029 -0.002193 -637766.000000 0 0 1
-32.277977 20.139068 -14.970393 40.884747 -0.557827 1.945676 -0.008590 -0.002150 -7664.630000 0 0 1
-31.429827 21.389168 -15.397693 41.017307 -0.597544 1.955619 0.017508 -0.013426 -457097.000000 0 0 1
-30.090687 21.238568 -15.004293 39.770027 -0.614620 1.957650 0.005170 -0.010364 32324.200000 0 0 1
-29.353067 22.475768 -14.988593 39.892614 -0.653476 1.955974 0.016771 -0.013965 102035.000000 0 0 1
-28.880377 23.065668 -16.311293 40.399994 -0.673925 1.986403 -0.000023 -0.015811 -673365.000000 0 0 1
-29.899287 23.618068 -17.147393 41.782934 -0.668565 1.993680 0.007277 -0.008269 12562.500000 0 0 1
-29.458387 24.337068 -18.246593 42.344157 -0.690484 2.016299 -0.009011 -0.007873 -361022.000000 0 0 1
-28.543527 25.599768 -18.039293 42.373307 -0.731082 2.010557 0.009448 -0.005592 24421.300000 0 0 1
-29.248777 26.688668 -17.586393 43.325018 -0.739663 1.988779 0.024136 -0.007124 -465387.000000 0 0 1
-28.513767 27.864568 -17.533893 43.553490 -0.773884 1.985133 0.032234 -0.008966 -272603.000000 0 0 1
-29.349167 29.026468 -16.991493 44.638776 -0.779870 1.961289 0.040654 -0.011213 -239530.000000 0 0 1
-29.577657 28.995668 -15.587293 44.255511 -0.775462 1.930729 0.037739 -0.011169 406587.000000 0 0 1
-28.414047 29.002668 -14.741493 43.195190 -0.795650 1.919071 0.039585 -0.012181 116764.000000 0 0 1
-28.497767 29.921968 -13.515193 43.475365 -0.809772 1.886905 0.040678 -0.007737 -49308.200000 0 0 1
-27.853227 31.160868 -13.665093 43.971999 -0.841388 1.886797 0.051161 -0.001654 -120065.000000 0 0 1
-28.215137 31.955768 -12.556093 44.440078 -0.847485 1.857237 0.049157 -0.004690 137528.000000 0 0 1
-27.687537 33.404268 -12.513493 45.155646 -0.878703 1.851591 0.037492 -0.007559 -246671.000000 0 0 1
-28.165367 -34.104329 -13.601293 46.275137 0.880485 1.869124 0.028431 -0.014087 -54091.000000 0 0 1
-27.417437 -32.908429 -13.843893 45.014819 0.876170 1.883404 0.045174 -0.018610 109048.000000 0 0 1
-27.722327 -32.133229 -15.127593 45.054588 0.858958 1.913210 0.032797 -0.017809 -64439.400000 0 0 1
-27.344807 -32.816729 -16.290393 45.717098 0.876102 1.935134 0.037084 -0.023478 -213367.000000 0 0 1
-27.413637 -32.041929 -17.446993 45.635406 0.863086 1.963094 0.038774 -0.008591 -82469.400000 0 0 1
-26.543437 -32.471829 -18.662393 45.904887 0.885518 1.989465 0.033611 -0.003339 -373172.000000 0 0 1
-26.729727 -33.786129 -19.175493 47.155915 0.901478 1.989570 0.040888 -0.005595 -135659.000000 0 0 1
-26.202587 33.365868 -18.460093 46.266962 -0.905076 1.981212 0.024240 -0.018696 -830952.000000 0 0 1
-26.429757 31.996868 -19.122393 45.694612 -0.880395 2.002570 0.038100 -0.024317 454017.000000 0 0 1
-27.767397 31.517268 -19.145593 46.161892 -0.848566 1.998463 0.049058 -0.027126 309187.000000 0 0 1
-28.623427 32.165168 -20.064893 47.502616 -0.843596 2.006883 0.057454 -0.027414 920218.000000 0 0 1
-30.177487 31.856568 -19.958393 48.206422 -0.812459 1.997662 0.057472 -0.026010 1324160.000000 0 0 1
-30.464827 30.525868 -20.223193 47.633096 -0.786399 2.009274 0.039031 -0.013214 57821.000000 0 0 1
-31.805277 30.347068 -20.627693 48.559468 -0.761941 2.009529 0.047846 -0.013242 -72721.500000 0 0 1
-32.005037 28.915168 -21.088893 48.011986 -0.734722 2.025551 0.032673 -0.015218 -790229.000000 0 0 1
-33.319937 28.579668 -21.409793 48.840504 -0.708967 2.024571 0.030445 -0.019073 -423627.000000 0 0 1
-33.454377 27.227168 -21.735393 48.300531 -0.683135 2.037565 0.026723 -0.003833 25638.200000 0 0 1
-34.933623 26.762368 -21.829893 49.123585 -0.653721 2.031286 0.034734 -0.000752 232876.000000 0 0 1
-35.702944 27.423468 -22.774893 50.452379 -0.654985 2.039145 0.025363 0.006651 -287822.000000 0 0 1
36.553001 26.634768 -23.233793 50.846257 0.629704 2.045351 0.024550 0.003370 96142.800000 0 0 1
35.757891 27.256868 -24.344693 51.129519 0.651302 2.067054 0.038315 -0.003853 -533503.000000 0 0 1
36.432831 27.384168 -25.576583 52.262849 0.644546 2.082179 0.029604 -0.001070 -658112.000000 0 0 1
35.602471 27.858868 -26.588603 52.446223 0.663978 2.102461 0.067973 -0.010586 -485715.000000 0 0 1
36.291661 28.097568 -27.915523 53.719963 0.658820 2.117236 0.066053 -0.002795 -8329.320000 0 0 1
-36.645137 26.900968 -28.594123 53.704302 -0.633243 2.132273 0.028899 0.023936 84820.500000 0 0 1
-35.956132 27.276868 -29.792243 54.078172 -0.648992 2.154251 -0.000829 0.022713 -413823.000000 0 0 1
-35.837092 26.047568 -30.781653 53.947040 -0.628508 2.178021 -0.018880 0.021578 423344.000000 0 0 1
-34.967794 24.995568 -30.345393 52.615282 -0.620601 2.185530 -0.014032 0.024252 -180596.000000 0 0 1
-33.595627 25.060968 -30.601153 51.895557 -0.640910 2.201444 -0.024331 0.030020 -444776.000000 0 0 1
-32.908957 24.051668 -29.688483 50.427058 -0.631135 2.200297 -0.032740 0.035735 -517653.000000 0 0 1
-33.029007 22.693468 -30.133913 50.139421 -0.602000 2.215551 -0.023133 0.019546 84916.400000 0 0 1
-33.095417 21.889268 -28.983323 49.137355 -0.584347 2.201661 -0.016116 0.022053 126355.000000 0 0 1
-32.537307 20.388468 -29.224913 48.254135 -0.559762 2.221373 -0.009529 0.010968 -665152.000000 0 0 1
-31.162897 20.227168 -29.315163 47.324869 -0.575727 2.238832 0.053898 0.001995 -749743.000000 0 0 1
-30.895567 18.878068 -29.534373 46.724690 -0.548489 2.255048 0.046110 0.001229 193176.000000 0 0 1
-29.410847 18.517268 -29.815513 45.791396 -0.561905 2.279850 0.080705 -0.011620 -229460.000000 0 0 1
-28.901907 19.157268 -30.979293 46.497718 -0.585347 2.299971 0.089516 -0.007811 92168.400000 0 0 1
-27.593427 18.708568 -31.285493 45.718594 -0.595813 2.324447 0.106900 -0.016030 144627.000000 0 0 1
-27.394987 17.322968 -31.897283 45.475347 -0.563861 2.348183 0.105016 -0.016364 -340302.000000 0 0 1
-27.811207 16.313968 -30.935363 44.683391 -0.530506 2.335500 0.073434 -0.008229 116716.000000 0 0 1
-27.720187 15.013868 -31.560053 44.607869 -0.496388 2.356750 0.050192 -0.003755 231483.000000 0 0 1
-28.391747 13.741268 -30.821853 44.101024 -0.450756 2.344643 0.048869 -0.000172 140538.000000 0 0 1
-29.803847 13.751168 -30.826193 45.029080 -0.432285 2.324829 0.038468 0.001859 341653.000000 0 0 1
-30.412517 12.458268 -30.652573 44.941182 -0.388791 2.321372 0.036480 0.004375 171330.000000 0 0 1
-30.227517 11.717168 -29.287173 43.689053 -0.369799 2.305483 0.025114 -0.010137 -525631.000000 0 0 1
-30.487927 12.456568 -28.120653 43.306476 -0.387876 2.277513 0.013094 -0.006302 313379.000000 0 0 1
-30.683837 11.517168 -27.061013 42.502252 -0.359077 2.261002 0.015158 -0.000296 -35702.500000 0 0 1
-30.574197 12.126068 -25.648773 41.709503 -0.377582 2.233104 0.006671 -0.007283 584777.000000 0 0 1
-29.205827 12.414968 -25.349793 40.616792 -0.401943 2.244802 0.022867 -0.016191 518534.000000 0 0 1
-29.006237 12.947968 -24.038993 39.835723 -0.419844 2.218621 0.017380 -0.008847 -1063750.000000 0 0 1
-27.539707 13.064368 -23.730293 38.629522 -0.442945 2.232301 0.043641 -0.011868 -1148380.000000 0 0 1
-26.884837 14.141068 -24.418693 38.974823 -0.484220 2.247883 0.057545 -0.014328 1436660.000000 0 0 1
-25.467097 14.237568 -24.113893 37.851832 -0.509770 2.261475 0.063936 -0.019079 1236490.000000 0 0 1
-25.073487 14.927768 -22.795593 37.029138 -0.537001 2.233959 0.060006 -0.016270 -453683.000000 0 0 1
-25.569347 16.262768 -22.760793 37.898850 -0.566489 2.215006 0.077592 -0.020826 249012.000000 0 0 1
-25.551067 16.865368 -21.470993 37.393866 -0.583418 2.182405 0.070341 -0.019733 546441.000000 0 0 1
-27.007407 16.945968 -20.913693 38.130676 -0.560364 2.151335 0.056153 -0.019888 938985.000000 0 0 1
-27.765697 15.705468 -20.784593 38.073547 -0.514774 2.148267 0.055708 -0.012483 51350.300000 0 0 1
-28.958327 15.950768 -20.110893 38.697025 -0.503471 2.117298 0.051439 -0.005762 -1145620.000000 0 0 1
-29.940877 14.759668 -20.272693 39.054910 -0.458000 2.116573 0.028309 -0.008369 49209.400000 0 0 1
-30.603737 14.550168 -21.507093 40.135410 -0.443805 2.136326 0.018828 -0.006766 651866.000000 0 0 1
-31.491337 15.626768 -21.887993 41.412370 -0.460623 2.127673 0.005390 -0.004413 -48472.500000 0 0 1
-32.104207 15.584968 -23.312293 42.626686 -0.451940 2.149446 -0.007264 0.001103 -10372.400000 0 0 1
-33.181577 14.705968 -23.559493 43.270455 -0.417182 2.146554 0.005813 0.000880 -34678.000000 0 0 1
-33.669207 15.045868 -24.843593 44.465692 -0.420251 2.163630 0.008599 0.002422 -379315.000000 0 0 1
-34.925980 14.265168 -25.259383 45.402153 -0.387761 2.160780 0.012291 0.002001 -365771.000000 0 0 1
-34.904945 12.909468 -25.517653 45.123831 -0.354245 2.171839 0.013823 0.005320 -28776.000000 0 0 1
-34.748162 12.086968 -24.377393 44.133738 -0.334754 2.155980 0.000766 0.003785 -338901.000000 0 0 1
-34.609138 10.619368 -24.760793 43.859552 -0.297718 2.170681 0.013893 -0.005486 402660.000000 0 0 1
-35.798235 9.960268 -25.208483 44.901984 -0.271370 2.166887 0.024130 0.002114 665225.000000 0 0 1
-35.435040 8.762268 -25.907313 44.761683 -0.242414 2.188032 0.027926 0.008703 377440.000000 0 0 1
36.636311 8.135568 -26.520593 45.953766 0.218517 2.185988 0.046504 0.003876 275764.000000 0 0 1
35.824081 7.506368 -25.565053 44.646190 0.206546 2.180488 0.040267 0.010772 95173.900000 0 0 1
34.707251 6.824868 -26.125833 43.974211 0.194164 2.206964 0.046252 0.006354 200111.000000 0 0 1
33.839231 6.041168 -25.119423 42.574343 0.176664 2.201871 0.057544 -0.003063 -171363.000000 0 0 1
34.489911 4.991468 -24.431793 42.560324 0.143725 2.182241 0.062666 -0.008606 -137669.000000 0 0 1
33.609701 4.220868 -23.653893 41.315062 0.124931 2.180378 0.066294 -0.008446 -75702.600000 0 0 1
34.248761 3.071968 -22.800193 41.258495 0.089456 2.156299 0.062938 -0.005407 9629.810000 0 0 1
34.965901 2.073668 -23.534793 42.199536 0.059236 2.162412 0.066847 -0.007120 145386.000000 0 0 1
35.961011 1.575668 -22.674793 42.542018 0.043788 2.132936 0.095307 -0.013830 -40144.000000 0 0 1
-36.322857 0.710268 -23.368893 43.196754 -0.019552 2.142407 0.098760 -0.013302 417250.000000 0 0 1
36.344361 -0.419232 -23.981693 43.545493 -0.011534 2.154032 0.085925 -0.015604 465149.000000 0 0 1
-36.118217 -1.500632 -24.082793 43.436832 0.041524 2.158477 0.096033 -0.020162 80444.300000 0 0 1
-22.879807 29.002668 27.505833 46.056609 -0.902869 0.930768 0.050738 -0.019515 -476576.000000 0 0 1
-24.130207 29.364568 26.935173 46.583778 -0.882936 0.954264 0.042734 -0.021153 657175.000000 0 0 1
-24.274907 28.799868 25.682723 45.588439 -0.870449 0.972349 0.042686 -0.014271 23244.300000 0 0 1
-24.813807 27.287168 25.638023 44.917957 -0.832835 0.963348 0.049628 -0.023649 -32491.700000 0 0 1
-26.138207 27.012468 26.051043 45.733316 -0.801845 0.964741 0.065171 -0.026683 224431.000000 0 0 1
-26.337347 26.774668 27.448053 46.518108 -0.793632 0.939674 0.074222 -0.023250 -527246.000000 0 0 1
-25.740587 25.460568 28.023383 45.783495 -0.779929 0.912102 0.076858 -0.020243 1389170.000000 0 0 1
-24.328007 25.381468 28.346293 45.161745 -0.806587 0.892251 0.080495 -0.017422 1080580.000000 0 0 1
-23.917707 26.162768 29.461073 46.092320 -0.830197 0.877371 0.075973 -0.018989 -400903.000000 0 0 1
-22.469107 25.993868 29.925473 45.563976 -0.858001 0.854257 0.071090 -0.010784 -814119.000000 0 0 1
-21.478107 26.564868 29.120793 44.888996 -0.890885 0.864883 0.067480 -0.017886 837545.000000 0 0 1
-20.162607 26.484068 29.718973 44.622348 -0.920096 0.841948 0.072193 -0.027741 896226.000000 0 0 1
-19.381407 25.199268 29.447073 43.333269 -0.915167 0.823649 0.070649 -0.017855 -705685.000000 0 0 1
-18.871307 25.074068 28.129953 42.144150 -0.925619 0.839990 0.071411 -0.018492 19615.100000 0 0 1
-19.613207 24.210168 27.284453 41.415595 -0.889913 0.851578 0.077212 -0.025245 80377.700000 0 0 1
-19.504907 22.675168 27.570443 40.678422 -0.860417 0.826077 0.068682 -0.018018 20636.200000 0 0 1
-20.277607 22.329268 28.676293 41.618594 -0.833514 0.810652 0.073643 -0.020345 -148502.000000 0 0 1
-20.314907 20.910168 28.727573 40.929257 -0.799836 0.792758 0.070809 -0.021828 154970.000000 0 0 1
-20.840907 20.309668 30.029803 41.816446 -0.772489 0.769679 0.075721 -0.020334 55984.800000 0 0 1
-19.890107 20.426268 31.080313 42.176234 -0.798696 0.742301 0.064663 -0.021037 -77399.900000 0 0 1
-20.362007 19.899068 32.260697 43.027164 -0.773900 0.723074 0.062444 -0.009745 -572601.000000 0 0 1
-19.596307 20.294068 33.512307 43.805698 -0.802888 0.699721 0.074826 -0.017414 -474705.000000 0 0 1
-19.552507 21.675968 33.754020 44.626024 -0.836857 0.713042 0.055518 -0.014595 215477.000000 0 0 1
-18.706707 22.489368 32.923803 44.041905 -0.876962 0.726421 0.069245 -0.008478 -508090.000000 0 0 1
-17.262007 22.556568 33.407082 43.849844 -0.917590 0.704629 0.060038 0.007562 -283853.000000 0 0 1
-16.505407 21.367868 33.250344 42.832226 -0.913087 0.682033 0.067115 -0.013356 -925546.000000 0 0 1
-15.171507 21.476068 33.592831 42.659987 -0.955763 0.664127 0.049939 -0.012338 -998424.000000 0 0 1
-14.491107 20.064068 33.770756 41.869118 -0.945298 0.632454 0.054967 -0.008343 1130700.000000 0 0 1
-13.109107 19.971868 -34.050323 41.595056 -0.989950 2.529791 0.043304 -0.015901 1148640.000000 0 0 1
-12.830307 20.441568 -32.774693 40.702027 -1.010288 2.506868 0.047521 -0.014132 -386778.000000 0 0 1
-11.339907 20.172868 -32.451683 39.857870 -1.058683 2.522121 0.042455 -0.016306 500122.000000 0 0 1
-10.463507 21.168568 -32.974043 40.557129 -1.111724 2.520129 0.034366 -0.014849 30534.300000 0 0 1
-9.144107 21.012468 -32.487433 39.756406 -1.160339 2.527267 0.035463 -0.013835 -486387.000000 0 0 1
-8.328907 22.304168 -32.592773 40.362550 -1.213408 2.510698 0.049501 -0.019103 -266840.000000 0 0 1
-8.429607 23.331868 -31.608373 40.181134 -1.224098 2.476156 0.066491 -0.017795 -22450.700000 0 0 1
-7.861507 22.910668 -30.391093 38.862842 -1.240248 2.468679 0.057648 -0.021911 -116722.000000 0 0 1
-7.519007 24.126468 -29.507603 38.849975 -1.268686 2.433382 0.072458 -0.025025 179500.000000 0 0 1
-6.273107 24.714468 -29.827823 39.240997 -1.322223 2.434292 0.072300 -0.022175 113862.000000 0 0 1
-5.950607 25.713368 -28.892533 39.132665 -1.343379 2.401376 0.089055 -0.022588 489114.000000 0 0 1
-4.596007 26.439568 -29.247073 39.693391 -1.398685 2.399158 0.066295 -0.028207 -334911.000000 0 0 1
-3.534307 25.546868 -29.021163 38.824756 -1.433323 2.415074 0.065079 -0.021738 -645139.000000 0 0 1
-2.329207 25.806068 -29.659593 39.383623 -1.480782 2.423549 0.071964 -0.023762 65369.800000 0 0 1
-1.594807 27.172468 -29.339423 40.021096 -1.512172 2.393664 0.074718 -0.037222 -923516.000000 0 0 1
-0.975207 27.297268 -28.072053 39.167997 -1.535086 2.369868 0.084319 -0.050318 583039.000000 0 0 1
-0.276307 28.564168 -28.066113 40.046157 -1.561123 2.347376 0.090213 -0.049705 -453040.000000 0 0 1
0.276993 28.838968 -26.591233 39.228261 1.561192 2.315643 0.105929 -0.057758 547851.000000 0 0 1
1.378093 28.081768 -26.104053 38.365432 1.521761 2.319112 0.146110 -0.063050 363052.000000 0 0 1
2.569793 28.056068 -26.843893 38.914539 1.479456 2.332032 0.151909 -0.055443 -737430.000000 0 0 1
3.824893 28.319668 -25.998753 38.633775 1.436547 2.308991 0.143272 -0.060490 -322655.000000 0 0 1
4.322193 27.209468 -25.293473 37.400485 1.413264 2.313507 0.138558 -0.044251 52226.000000 0 0 1
5.467793 27.540768 -24.538793 37.289985 1.374810 2.289027 0.105039 -0.032661 -153945.000000 0 0 1
6.167193 26.275968 -24.062593 36.158943 1.340261 2.298916 0.101697 -0.029696 -77130.300000 0 0 1
7.264293 26.505468 -23.201093 35.966658 1.303297 2.271914 0.102249 -0.030417 164739.000000 0 0 1
7.963293 25.320668 -22.793393 34.986983 1.266092 2.280333 0.091974 -0.022274 125937.000000 0 0 1
9.357293 25.447268 -22.188793 35.035195 1.218429 2.256643 0.087145 -0.006611 -584239.000000 0 0 1
9.444093 26.052968 -20.912593 34.717208 1.223033 2.217263 0.088160 -0.004580 2317390.000000 0 0 1
10.839793 26.174868 -20.386293 34.903091 1.178169 2.194546 0.091224 -0.013311 3236820.000000 0 0 1
11.654993 24.855668 -19.931393 33.924969 1.132331 2.198780 0.063763 0.000966 311623.000000 0 0 1
11.973293 24.010568 -21.015893 34.081298 1.108215 2.235264 0.057424 -0.000531 -4909.210000 0 0 1
12.246793 22.726568 -20.488493 32.958446 1.076534 2.241639 0.055265 0.006992 -346442.000000 0 0 1
12.472093 21.803368 -21.695893 33.191139 1.051200 2.283214 0.062000 -0.004367 1071560.000000 0 0 1
11.259293 21.511668 -22.445293 33.065310 1.088601 2.316947 0.061338 -0.014893 1044680.000000 0 0 1
11.526193 20.672268 -23.535693 33.378505 1.062161 2.353382 0.056550 -0.020920 119263.000000 0 0 1
10.611293 20.891468 -24.785993 34.108627 1.100829 2.384270 0.080139 -0.018044 -222100.000000 0 0 1
9.353093 20.324768 -24.592593 33.247138 1.139507 2.403407 0.062397 -0.016851 -739769.000000 0 0 1
8.633493 20.237168 -25.810073 33.915189 1.167558 2.435677 0.058681 -0.016667 208888.000000 0 0 1
7.148893 19.830268 -25.597623 33.159983 1.224795 2.452689 0.051246 -0.022227 141374.000000 0 0 1
6.215593 20.742468 -25.057353 33.117284 1.279656 2.428932 0.072516 -0.014228 -116413.000000 0 0 1
6.381493 21.370968 -23.801393 32.618216 1.280619 2.388674 0.073458 -0.015074 -715664.000000 0 0 1
5.037293 21.777668 -23.170393 32.194848 1.343488 2.374156 0.090627 -0.022440 -143291.000000 0 0 1
4.465293 22.840368 -23.870093 33.337705 1.377731 2.368865 0.095425 -0.019173 814924.000000 0 0 1
3.097393 23.086768 -23.497793 33.086840 1.437430 2.360558 0.115918 -0.021803 1151800.000000 0 0 1
2.317593 24.285068 -24.115093 34.302674 1.475652 2.350416 0.112631 -0.023735 -80284.200000 0 0 1
0.961193 24.051968 -24.393593 34.270518 1.530854 2.362847 0.129970 -0.044712 -231152.000000 0 0 1
0.620193 24.895168 -25.478313 35.627215 1.545889 2.367615 0.125693 -0.035500 -1515160.000000 0 0 1
-0.800707 24.757268 -25.868003 35.815039 -1.538465 2.377870 0.118002 -0.041284 -1514430.000000 0 0 1
-1.147807 23.509168 -26.443333 35.401247 -1.522011 2.414275 0.118438 -0.043592 -139198.000000 0 0 1
-2.509907 23.537368 -26.816863 35.769421 -1.464563 2.418427 0.113986 -0.036092 -58146.400000 0 0 1
-3.033707 22.240368 -27.381103 35.405679 -1.435228 2.454910 0.105703 -0.035842 -508252.000000 0 0 1
-2.378007 21.780068 -28.559553 35.995477 -1.462044 2.487205 0.117620 -0.053084 -156306.000000 0 0 1
-2.774107 20.477268 -28.887503 35.517629 -1.436144 2.520647 0.087129 -0.044444 51734.100000 0 0 1
-4.046707 20.454068 -29.795413 36.366349 -1.375475 2.531008 0.084891 -0.042312 186529.000000 0 0 1
-3.886207 20.833568 -31.150183 37.675908 -1.386380 2.544179 0.068191 -0.040186 -36807.300000 0 0 1
-3.400507 22.122668 -31.423763 38.580160 -1.418279 2.522673 0.075676 -0.038018 -136429.000000 0 0 1
-3.077207 22.148168 -32.952743 39.823282 -1.432743 2.545391 0.053496 -0.025524 311980.000000 0 0 1
-2.046807 21.206368 -33.305563 39.536818 -1.474576 2.572506 0.066314 -0.025506 714902.000000 0 0 1
-1.542007 21.485768 33.622600 39.931132 -1.499150 0.569789 0.063806 -0.015114 832445.000000 0 0 1
-0.302807 20.555068 33.325799 39.156243 -1.556066 0.552723 0.068502 -0.007698 706820.000000 0 0 1
-0.799907 19.320668 32.842553 38.112483 -1.529418 0.532133 0.062926 -0.000473 552077.000000 0 0 1
0.224793 18.528168 32.263143 37.205564 1.558664 0.521327 0.063251 -0.008516 317306.000000 0 0 1
-0.390407 17.161068 31.819273 36.154126 -1.548051 0.494722 0.053516 -0.003955 17969.300000 0 0 1
-1.270807 17.222168 30.758563 35.274740 -1.497141 0.511581 0.042890 -0.002745 -446502.000000 0 0 1
-1.873607 15.997768 30.474543 34.469360 -1.454211 0.486220 0.036744 -0.002516 152095.000000 0 0 1
-2.923107 16.158168 29.310583 33.596745 -1.391826 0.510658 0.040660 -0.001143 -479877.000000 0 0 1
-4.061507 16.815068 29.752113 34.415558 -1.333796 0.526649 0.029434 -0.008089 -712425.000000 0 0 1
-4.249807 18.066268 29.155903 34.561794 -1.339762 0.566867 0.031043 -0.010532 -762986.000000 0 0 1
-5.706307 18.484568 29.177043 35.007729 -1.271371 0.585482 0.021974 -0.017273 -153206.000000 0 0 1
-6.558207 17.679668 28.335633 34.036581 -1.215584 0.587182 0.014266 -0.016188 363240.000000 0 0 1
-7.916607 18.079868 28.477253 34.648352 -1.158077 0.606069 0.018797 -0.008242 293570.000000 0 0 1
-8.888507 17.229768 27.605693 33.733437 -1.094525 0.612266 0.023058 -0.020081 140224.000000 0 0 1
-9.182807 15.866168 28.043363 33.503574 -1.046136 0.578971 0.037010 -0.031434 -147981.000000 0 0 1
-10.124307 15.806068 29.085483 34.616452 -1.001105 0.573105 0.043105 -0.023976 -638290.000000 0 0 1
-10.575307 14.390768 29.505623 34.489319 -0.937051 0.544280 0.048119 -0.033404 222995.000000 0 0 1
-9.600907 13.426868 29.951693 34.198862 -0.950040 0.503686 0.041567 -0.024977 526252.000000 0 0 1
-8.923807 13.695268 31.188663 35.212603 -0.993299 0.482744 0.026930 -0.020361 -68845.900000 0 0 1
-9.642907 13.185168 32.430334 36.311994 -0.939342 0.466601 0.049109 -0.021975 -372972.000000 0 0 1
-9.659307 11.785368 32.581293 35.968567 -0.884217 0.437469 0.038351 -0.013401 292328.000000 0 0 1
-10.336607 11.387368 33.754484 37.092894 -0.833729 0.427515 0.038544 -0.007024 -347003.000000 0 0 1
-10.477207 9.896668 33.902535 36.838809 -0.756912 0.401965 0.035558 -0.009240 -321720.000000 0 0 1
-9.268907 9.181968 34.061718 36.474948 -0.780686 0.365798 0.049215 -0.015008 -63357.500000 0 0 1
-9.369407 8.295868 -33.113233 35.399059 -0.724702 2.780261 0.084097 -0.022935 80587.200000 0 0 1
-8.775707 8.864068 -31.802633 34.161267 -0.790407 2.767818 0.073240 -0.024492 145749.000000 0 0 1
-9.435407 10.098068 -31.407783 34.313943 -0.819310 2.727065 0.065590 -0.020890 452945.000000 0 0 1
-8.683807 10.758868 -30.401723 33.398001 -0.891723 2.714770 0.063207 -0.024130 344.840000 0 0 1
-7.693107 11.795768 -30.992453 34.041976 -0.992882 2.715091 0.034946 -0.022140 -23184.000000 0 0 1
-8.296307 12.956868 -31.493553 35.050720 -1.001269 2.687168 0.031478 -0.017935 249326.000000 0 0 1
-7.267607 13.838568 -31.926953 35.547917 -1.087216 2.686314 0.019881 -0.021425 94986.200000 0 0 1
-7.710907 15.273568 -32.222493 36.483270 -1.103274 2.653466 0.020868 -0.018086 -500903.000000 0 0 1
-8.465707 15.394368 -33.373183 37.715038 -1.068013 2.657027 0.022578 -0.020500 -232032.000000 0 0 1
-8.796707 16.736768 -33.575553 38.533352 -1.086886 2.628718 0.031035 -0.024229 -599138.000000 0 0 1
-9.262807 17.074068 33.216917 38.479696 -1.073724 0.529158 0.034819 -0.029516 496174.000000 0 0 1
-10.448307 16.474868 32.715730 38.090779 -1.005611 0.537701 0.039775 -0.033484 692357.000000 0 0 1
-11.693607 17.076868 33.083612 39.024163 -0.970370 0.559025 0.044440 -0.031670 710490.000000 0 0 1
-12.842707 16.492168 32.167693 38.362576 -0.909169 0.576240 0.062072 -0.031814 227863.000000 0 0 1
-13.120207 15.117668 32.128383 37.853887 -0.856017 0.557185 0.054476 -0.028942 258816.000000 0 0 1
-14.118107 14.707268 33.033666 38.818138 -0.805834 0.552938 0.049508 -0.022078 -145047.000000 0 0 1
-13.959107 13.175568 33.224304 38.370648 -0.756530 0.523893 0.033287 -0.007869 8838.490000 0 0 1
-14.347707 12.438468 32.090613 37.287795 -0.714241 0.534311 0.029191 -0.018747 -181515.000000 0 0 1
-13.235207 11.932168 31.415963 36.118003 -0.733669 0.515970 0.029623 -0.012225 -504314.000000 0 0 1
-13.558507 11.458968 29.947433 34.813644 -0.701671 0.535093 0.039272 -0.010801 266781.000000 0 0 1
-14.300407 10.224768 30.007503 34.777835 -0.620721 0.529946 0.031635 -0.004697 182145.000000 0 0 1
-14.333407 9.587368 28.743763 33.519668 -0.589535 0.540368 0.025438 -0.010354 238160.000000 0 0 1
-15.166407 8.277268 28.512923 33.339464 -0.499585 0.544801 0.027802 0.000202 509991.000000 0 0 1
-14.438807 7.052468 28.729813 32.918363 -0.454356 0.509969 0.002605 -0.001887 521041.000000 0 0 1
-15.262807 5.922268 28.483333 32.853110 -0.370136 0.521665 0.009185 0.003976 716309.000000 0 0 1
-14.308207 4.663768 28.425913 32.163770 -0.315091 0.486902 0.008280 0.003541 1276930.000000 0 0 1
-13.298907 4.632468 27.392093 30.800121 -0.335190 0.474874 0.010688 -0.004939 479332.000000 0 0 1
-13.829307 4.460068 26.080523 29.855245 -0.311977 0.508315 0.025114 -0.002067 -16912.800000 0 0 1
-12.737807 4.433668 24.982013 28.390318 -0.334956 0.495043 0.018505 0.008282 247603.000000 0 0 1
-11.942107 3.250368 24.913403 27.818276 -0.265740 0.461070 0.010377 -0.000535 200092.000000 0 0 1
-11.210207 3.132668 23.713913 26.416511 -0.272497 0.456291 0.011845 0.001147 -187228.000000 0 0 1
-10.280307 1.902168 23.654753 25.862141 -0.182961 0.416160 0.015065 -0.010864 204392.000000 0 0 1
-9.074607 2.070768 24.397453 26.112685 -0.224352 0.364466 0.008017 -0.004734 363810.000000 0 0 1
-8.423407 0.828068 24.521983 25.941611 -0.097991 0.332357 -0.004639 -0.001588 -806357.000000 0 0 1
-6.914307 0.837168 24.386933 25.361999 -0.120491 0.278190 0.024915 -0.011690 -1268850.000000 0 0 1
-6.545907 1.169368 23.026553 23.967446 -0.176776 0.281129 0.033927 -0.008264 540037.000000 0 1 0
-5.166007 1.487368 22.889553 23.512370 -0.280333 0.230680 0.031855 -0.007268 606152.000000 0 1 0
-4.555607 2.813868 23.509603 24.111675 -0.553312 0.223941 0.047176 -0.008043 -349286.000000 0 1 0
-4.447707 2.785668 24.946273 25.492324 -0.559545 0.207351 0.050759 -0.009515 14136.600000 0 0 1
-4.473707 4.108868 25.466283 26.180688 -0.742914 0.234147 0.053927 -0.010685 -69056.400000 0 0 1
5.046193 -23.735632 12.753507 27.413432 -1.361315 1.086904 0.066174 -0.011070 119090.000000 0 0 1
4.610193 -25.004432 13.106007 28.604946 -1.388469 1.094858 0.080599 -0.030255 477772.000000 0 0 1
3.177893 -24.951832 13.258807 28.433939 -1.444117 1.085690 0.084944 -0.031203 840562.000000 0 0 1
2.594593 -26.219682 13.930107 29.803549 -1.472162 1.084452 0.081149 -0.036383 -29711.000000 0 0 1
2.645893 -26.235322 15.362907 30.517401 -1.470284 1.043250 0.073773 -0.031084 -53560.900000 0 0 1
2.692093 -27.501182 15.869307 31.865299 -1.473217 1.049491 0.073992 -0.028829 -371741.000000 0 0 1
2.380293 -27.705852 17.308707 32.754715 -1.485094 1.014041 0.065631 -0.025118 -208408.000000 0 0 1
3.150393 -26.933412 18.197107 32.656827 -1.454356 0.979760 0.072386 -0.029375 205716.000000 0 0 1
2.741193 -27.224822 19.548307 33.627985 -1.470447 0.950458 0.059805 -0.021419 302119.000000 0 0 1
3.474993 -26.269792 20.530307 33.521203 -1.439279 0.911631 0.053557 -0.017615 73657.800000 0 0 1
2.719993 -25.121182 20.838107 32.752082 -1.462942 0.881185 0.049816 -0.017431 345256.000000 0 0 1
3.238893 -24.462832 21.996007 33.056692 -1.439161 0.842763 0.061161 -0.022610 407362.000000 0 0 1
2.308393 -23.240732 22.356507 32.330693 -1.471796 0.807240 0.064044 -0.023290 218237.000000 0 0 1
2.223893 -22.157732 21.412307 30.893328 -1.470765 0.805009 0.056871 -0.021880 1211820.000000 0 0 1
3.455993 -21.453432 21.047307 30.251988 -1.411076 0.801356 0.061538 -0.013056 1050890.000000 0 0 1
3.150293 -20.215932 20.272607 28.802549 -1.416207 0.789997 0.052820 -0.010965 47877.400000 0 0 1
2.690193 -19.077432 20.964507 28.472726 -1.430706 0.743208 0.035947 -0.013364 99117.600000 0 0 1
2.095793 -18.161932 20.066307 27.145991 -1.455910 0.738915 0.018898 -0.018484 109221.000000 0 0 1
1.487893 -16.876132 20.695107 26.745189 -1.482858 0.685997 0.059208 -0.014827 -881182.000000 0 0 1
2.381993 -15.917232 21.023507 26.476783 -1.422250 0.653377 0.019551 0.009982 -1062860.000000 0 0 1
1.843193 -14.604932 21.118307 25.742655 -1.445257 0.608752 0.030567 0.001821 64810.800000 0 0 1
2.873093 -13.440232 20.991707 25.090761 -1.360198 0.579693 0.010914 0.010496 -213718.000000 0 0 1
3.202593 -13.068532 19.632807 23.801056 -1.330471 0.600822 -0.004663 0.000818 543366.000000 0 1 0
2.092093 -12.766932 18.748607 22.778975 -1.408372 0.604007 -0.005970 0.001235 852760.000000 0 1 0
1.251093 -11.491732 19.154307 22.372140 -1.462354 0.542989 -0.007158 -0.006365 -225249.000000 0 1 0
1.847793 -10.223032 19.061307 21.708481 -1.391979 0.499007 -0.000082 -0.002573 -434014.000000 0 1 0
1.614293 -9.351332 20.178407 22.298464 -1.399854 0.439596 0.008605 -0.002762 526576.000000 0 1 0
0.182493 -8.725832 20.229307 22.031757 -1.549885 0.407313 0.011621 -0.013512 562401.000000 0 1 0
-0.340607 -8.211732 21.396107 22.920340 1.529342 0.366747 0.016623 -0.013632 -414236.000000 0 1 0
-1.615807 -7.651732 21.186007 22.583329 1.362685 0.353618 0.023426 -0.022773 -127315.000000 0 1 0
-2.074507 -6.998032 22.533107 23.685797 1.282607 0.313260 0.028597 -0.011979 -192552.000000 0 1 0
-2.371207 -7.987932 23.495907 24.929648 1.282233 0.340797 0.032612 -0.006496 45484.300000 0 1 0
-2.426107 -7.400132 24.762507 25.958230 1.253992 0.304701 0.040617 -0.001595 -117832.000000 0 0 1
-2.393707 -8.372532 25.940907 27.363476 1.292325 0.323866 0.043906 -0.001593 -296989.000000 0 0 1
-1.282307 -9.206832 25.977707 27.590784 1.432409 0.343637 0.047349 -0.001690 -406639.000000 0 0 1
-1.498807 -10.243932 26.891907 28.815955 1.425515 0.367496 0.062955 -0.009326 78446.300000 0 0 1
-0.216707 -11.115832 26.998307 29.197899 1.551303 0.390639 0.067845 -0.010973 517739.000000 0 0 1
0.834993 -10.413232 27.651207 29.558787 -1.490782 0.361224 0.067069 -0.009982 452462.000000 0 0 1
1.847693 -11.329432 28.081707 30.337308 -1.409132 0.388048 0.066864 -0.010317 626189.000000 0 0 1
2.918093 -10.798032 29.094007 31.170082 -1.306858 0.367035 0.072308 -0.013112 560289.000000 0 0 1
2.509593 -10.800232 30.440507 32.397030 -1.342483 0.349313 0.070961 -0.019369 137669.000000 0 0 1
3.571593 -10.273832 31.218307 33.058896 -1.236226 0.335263 0.080067 -0.014103 110255.000000 0 0 1
3.252393 -10.165432 32.706207 34.403635 -1.261142 0.315435 0.073613 -0.017663 -232999.000000 0 0 1
3.474593 -11.375732 33.448707 35.500649 -1.274357 0.341660 0.060099 -0.016836 -18735.600000 0 0 1
2.903293 -11.344832 -33.489839 35.478213 -1.320260 2.805211 0.057344 -0.014647 -354674.000000 0 0 1
3.474493 -10.374332 -32.454939 34.249407 -1.247625 2.816452 0.038239 -0.006297 -232949.000000 0 0 1
3.255193 -9.002632 -32.772639 34.142195 -1.223841 2.857394 0.050174 -0.014994 185366.000000 0 0 1
3.981193 -8.207332 -31.868139 33.147978 -1.119158 2.862806 0.059047 -0.016160 -183536.000000 0 0 1
3.257593 -6.903032 -31.520439 32.431494 -1.129874 2.904004 0.052796 -0.016786 -111309.000000 0 0 1
3.221093 -5.921832 -32.579539 33.269654 -1.072621 2.937557 0.086901 -0.019552 145901.000000 0 0 1
2.754893 -4.690532 -32.031639 32.490251 -1.039745 2.973374 0.065402 -0.011824 40190.800000 0 0 1
2.823193 -3.548632 -33.049139 33.358788 -0.898761 3.005234 0.077593 -0.006846 -355878.000000 0 0 1
1.855493 -3.729232 -34.017439 34.271506 -1.109108 3.019752 0.079594 -0.009956 -529704.000000 0 0 1
2.115593 -2.953932 33.069807 33.268808 -0.949283 0.109431 0.108166 -0.010227 185520.000000 0 0 1
1.306193 -3.279432 31.776407 31.971876 -1.191758 0.110635 0.102478 -0.008859 -7840.220000 0 0 1
-0.069907 -3.035032 31.941707 32.085651 1.547767 0.094758 0.082957 -0.018013 -439358.000000 0 0 1
-0.672907 -3.752532 30.858407 31.093015 1.393361 0.122922 0.096334 -0.022303 505290.000000 0 0 1
-2.234707 -3.798532 30.862507 31.175585 1.039018 0.141840 0.072345 -0.019450 233952.000000 0 0 1
-2.770507 -2.660032 30.303807 30.546231 0.765058 0.126070 0.066428 -0.023835 237382.000000 0 0 1
-4.174107 -2.871132 30.161907 30.584428 0.602520 0.166414 0.056025 -0.021868 825582.000000 0 0 1
-5.052207 -1.746132 29.491607 29.972132 0.332765 0.179306 0.042911 -0.028291 139879.000000 0 0 1
-4.698007 -1.483732 28.177707 28.605173 0.305908 0.173095 0.036011 -0.022730 183510.000000 0 0 1
-5.627607 -0.649732 27.466007 28.044138 0.114945 0.203402 0.014039 -0.020114 318133.000000 0 0 1
-5.849407 0.788968 27.968607 28.584629 -0.134071 0.207984 0.035522 -0.022854 -96158.700000 0 0 1
-6.865307 0.869968 28.928507 29.744711 -0.126048 0.234805 0.029794 -0.023028 -456845.000000 0 0 1
-7.278907 2.177468 29.191907 30.164405 -0.290675 0.254616 0.034543 -0.022354 441697.000000 0 0 1
-8.780907 2.355168 29.569607 30.935624 -0.262047 0.298280 0.031045 -0.018692 271827.000000 0 0 1
-9.646407 2.265668 28.465107 30.140484 -0.230690 0.334988 0.008148 -0.017916 434436.000000 0 0 1
-11.000107 2.416668 28.892207 31.009713 -0.216259 0.371690 -0.003718 -0.004730 -177716.000000 0 0 1
-12.006007 1.646968 28.089307 30.591926 -0.136328 0.407301 0.000273 -0.003077 -701531.000000 0 0 1
-11.916607 0.303068 28.395807 30.796416 -0.025427 0.397455 0.000827 -0.001864 146804.000000 0 0 1
-12.457807 -0.512232 27.365507 30.072086 0.041094 0.427520 0.002993 0.002265 -814308.000000 0 0 1
-12.423107 -2.055732 27.660907 30.392194 0.163990 0.427194 0.007592 0.000380 1133970.000000 0 0 1
-11.143607 -2.550832 28.169007 30.400324 0.225029 0.385522 0.008869 -0.010532 1878650.000000 0 0 1
-9.950807 -2.435032 27.389707 29.242846 0.239991 0.357915 -0.002485 -0.004814 91671.500000 0 0 1
-9.856407 -3.104632 26.009607 27.987268 0.305148 0.378183 -0.005139 -0.000086 -570939.000000 0 0 1
-10.716407 -2.467832 25.062807 27.369251 0.226339 0.413479 -0.012637 0.002888 397932.000000 0 0 1
-10.651307 -2.952232 23.769307 26.213470 0.270383 0.435263 0.001232 0.000782 -453060.000000 0 0 1
-9.616807 -2.370532 22.791007 24.850200 0.241681 0.409962 0.011287 -0.002928 -637908.000000 0 1 0
-8.307007 -2.564032 23.180007 24.756683 0.299382 0.358816 0.014910 -0.008681 -1615660.000000 0 1 0
-7.404607 -2.269032 22.194707 23.507058 0.297350 0.335724 0.013467 -0.005805 4735.330000 0 1 0
-5.923907 -2.336932 22.710307 23.586267 0.375749 0.273389 0.025504 -0.005398 273764.000000 0 1 0
-5.332407 -3.592332 22.821907 23.710312 0.592842 0.274610 0.025610 -0.005319 -35241.300000 0 1 0
-5.910807 -4.542232 23.704707 24.849199 0.655213 0.304682 0.029305 -0.009637 -528764.000000 0 1 0
-5.645007 -6.000932 23.251307 24.667805 0.815951 0.340532 0.035910 -0.010932 -245995.000000 0 1 0
-6.493507 -6.545232 22.250707 24.085259 0.789365 0.392826 0.039514 -0.012663 156851.000000 0 1 0
-6.097007 -6.240132 20.902107 22.649743 0.796999 0.395404 0.036622 -0.013885 -591736.000000 0 1 0
-7.208907 -6.472132 19.892207 22.125929 0.731596 0.453213 0.044487 -0.012245 -894263.000000 0 1 0
-8.074507 -5.410532 19.973907 22.213251 0.590359 0.452884 0.035899 -0.014174 -609255.000000 0 1 0
-9.171907 -5.401932 19.087207 21.854662 0.532266 0.508717 0.047123 -0.006073 355577.000000 0 1 0
-9.879907 -4.033232 19.220207 21.983992 0.387577 0.506842 0.035484 -0.006328 -99311.400000 0 1 0
-9.015007 -3.023932 18.798907 21.066880 0.323639 0.468284 0.035728 -0.007875 233644.000000 0 1 0
-9.618807 -1.728132 18.890607 21.268826 0.177765 0.477421 0.024701 -0.011026 289321.000000 0 1 0
-8.743507 -0.651032 18.154207 20.160556 0.074322 0.449921 0.034096 -0.006442 961595.000000 0 1 0
-7.557507 -0.227732 18.871307 20.329634 0.030124 0.381073 0.028133 -0.000799 998003.000000 0 1 0
-7.821607 0.637568 19.966707 21.453518 -0.081334 0.374485 0.037221 -0.004490 -281693.000000 0 1 0
-7.730407 2.177768 19.661707 21.238753 -0.274598 0.387791 0.038408 -0.015052 -509540.000000 0 1 0
-8.774107 2.590468 18.851607 20.954202 -0.287084 0.451812 0.027344 -0.018781 -139193.000000 0 1 0
-8.593707 3.960068 18.606407 20.874203 -0.431807 0.470462 0.030892 -0.016674 277519.000000 0 1 0
-9.622407 4.471768 17.558107 20.515228 -0.435031 0.543590 0.032046 -0.012545 -1164660.000000 0 1 0
-10.902407 4.512268 18.050307 21.564708 -0.392413 0.578964 0.027926 -0.004958 -1127980.000000 0 1 0
-11.775407 5.186668 17.158807 21.447294 -0.414897 0.643426 0.025599 0.009391 -158330.000000 0 1 0
-11.879307 6.685068 17.351107 22.065108 -0.512579 0.665903 0.033764 0.011802 -922501.000000 0 1 0
-10.662107 7.373168 17.059507 21.425941 -0.605019 0.649795 0.034048 0.008115 559478.000000 0 1 0
-10.822107 8.771968 17.124307 22.075039 -0.681147 0.682923 0.034059 0.002547 -569303.000000 0 1 0
-9.475307 9.423868 16.900207 21.545481 -0.782676 0.669073 0.026300 -0.000225 -550490.000000 0 1 0
-8.610707 9.438868 18.024407 22.093342 -0.831249 0.616634 0.032351 0.005375 324222.000000 0 1 0
-7.659907 10.525568 18.019507 22.229809 -0.941693 0.625618 0.032909 0.000840 244066.000000 0 1 0
-8.097007 11.987368 17.891607 23.008002 -0.976730 0.679916 0.029822 0.003647 -562095.000000 0 1 0
-8.129107 12.254768 16.527307 22.122695 -0.985099 0.727146 0.021847 -0.006661 11641.900000 0 1 0
-8.921907 13.398568 16.333707 22.932773 -0.983335 0.778108 0.033358 -0.009128 33659.700000 0 1 0
-8.723707 14.066668 14.934107 22.293537 -1.015679 0.836742 0.030019 0.000998 167948.000000 0 1 0
-7.549207 14.822068 14.754307 22.234519 -1.099719 0.845207 0.033341 0.005763 -86203.700000 0 1 0
-7.411407 15.335268 13.405707 21.675156 -1.120605 0.903986 0.024451 -0.006519 -39752.000000 0 1 0
-6.499307 16.552268 13.295607 22.203418 -1.196639 0.928783 0.002490 0.002296 637928.000000 0 1 0
-5.115307 16.317768 13.544707 21.815018 -1.267018 0.900920 -0.000940 -0.005261 -10560.300000 0 1 0
-4.343907 17.472968 13.638907 22.587473 -1.327129 0.922504 0.001481 -0.009927 -2090040.000000 0 1 0
-2.902607 17.252768 13.498007 22.097044 -1.404117 0.913661 0.014700 -0.015757 -1802800.000000 0 1 0
-2.169707 16.719668 14.610007 22.309353 -1.441748 0.856769 0.016661 -0.018581 104391.000000 0 1 0
-2.355107 15.348568 14.785907 21.441738 -1.418542 0.809880 0.015296 -0.013424 -171661.000000 0 1 0
-1.483407 14.682568 15.926507 21.712484 -1.470106 0.747312 0.005379 -0.010862 980868.000000 0 1 0
-0.147507 14.338968 15.509607 21.122871 -1.560510 0.746225 -0.006184 -0.015303 885329.000000 0 1 0
0.666193 13.844868 16.584007 21.613734 1.522715 0.696191 -0.000170 0.003600 66941.300000 0 1 0
1.576593 14.855868 17.246607 22.817273 1.465066 0.713833 0.000288 -0.003756 -563532.000000 0 1 0
0.850893 15.822468 17.950907 23.943884 1.517071 0.723176 -0.011456 -0.009208 -488421.000000 0 1 0
1.706993 16.786168 18.455707 25.006047 1.469454 0.740621 0.001008 -0.010768 -477261.000000 0 0 1
0.895093 17.944868 19.107807 26.228378 1.520957 0.754642 0.006429 -0.014733 593575.000000 0 0 1
0.305193 18.922468 18.198307 26.255120 1.554669 0.804969 -0.001795 -0.018187 367106.000000 0 0 1
-0.762407 18.449868 17.397907 25.370575 -1.529497 0.815161 0.004850 -0.016559 -778759.000000 0 0 1
-1.375607 19.520368 16.463707 25.573242 -1.500442 0.871360 0.002262 -0.011607 -360986.000000 0 0 1
-1.976807 20.559268 17.159207 26.851996 -1.474939 0.877561 -0.007270 -0.008516 459.834000 0 0 1
-2.807207 21.323668 16.268607 26.967514 -1.439902 0.923205 0.006271 -0.019719 -289284.000000 0 0 1
-3.526607 22.371168 17.158707 28.413507 -1.414442 0.922420 0.003573 -0.007283 -556372.000000 0 0 1
-4.653907 21.872768 17.818807 28.593474 -1.361151 0.897997 0.012904 -0.008697 -230631.000000 0 0 1
-4.975307 22.900668 18.738207 30.005245 -1.356865 0.896308 0.013943 -0.012117 -62248.200000 0 0 1
-6.078607 22.581068 19.782807 30.630272 -1.307839 0.868650 0.010203 -0.015022 -162425.000000 0 0 1
-7.400307 22.673468 19.336707 30.704380 -1.255311 0.889539 0.009522 -0.015405 -1150270.000000 0 0 1
-8.269307 22.176868 20.284007 31.171074 -1.213886 0.862249 -0.005235 -0.013352 -123475.000000 0 0 1
-9.708507 22.537468 19.808907 31.537048 -1.164047 0.891667 0.017745 -0.021433 56713.100000 0 0 1
-10.050207 23.892868 19.913907 32.686993 -1.172628 0.915707 0.026692 -0.018058 340604.000000 0 0 1
-11.206307 24.231868 19.145007 32.852642 -1.137628 0.948683 0.022087 -0.018136 520890.000000 0 0 1
-11.799507 25.638068 19.419507 34.258666 -1.139465 0.968120 0.031850 -0.018544 -242683.000000 0 0 1
-12.737307 25.700368 20.441107 35.221965 -1.110669 0.951637 0.028282 -0.017319 -64135.600000 0 0 1
-13.217307 27.020368 20.734507 36.533783 -1.115858 0.967277 0.044285 -0.022076 -173752.000000 0 0 1
-14.153507 26.998168 21.957307 37.567888 -1.087946 0.946569 0.053323 -0.022094 1376210.000000 0 0 1
-15.484307 26.389968 21.799607 37.568831 -1.040177 0.951751 0.038648 -0.024977 1657020.000000 0 0 1
-16.236207 26.724768 22.972807 38.801772 -1.024855 0.937189 0.026812 -0.015634 -504631.000000 0 0 1
-17.642607 26.174468 22.909407 39.002632 -0.977707 0.942977 0.042815 -0.016202 -690670.000000 0 0 1
-17.553607 24.776168 23.103107 38.154177 -0.954397 0.920378 0.057437 -0.021060 -1164460.000000 0 0 1
-18.791907 24.275268 23.387307 38.592623 -0.912038 0.919768 0.073914 -0.015227 -1104900.000000 0 0 1
28.079493 23.895268 23.594763 43.773903 0.705066 1.001530 0.071051 -0.017775 42893.900000 0 0 1
27.821293 23.130268 24.763243 43.843493 0.693589 0.970593 0.070615 -0.031167 102236.000000 0 0 1
27.175493 21.949168 24.306103 42.556551 0.679408 0.962892 0.068983 -0.022256 -622803.000000 0 0 1
26.591293 21.189868 25.471713 42.484298 0.672831 0.927850 0.087348 -0.025736 -931141.000000 0 0 1
25.400393 21.686968 25.964763 42.304533 0.706699 0.909984 0.090439 -0.026550 -583714.000000 0 0 1
25.137993 20.907668 27.127673 42.484820 0.693783 0.878215 0.091636 -0.025632 -333230.000000 0 0 1
23.777093 21.190468 27.764903 42.252526 0.727939 0.853807 0.102521 -0.030431 -502103.000000 0 0 1
23.591493 22.450568 28.309003 43.150738 0.760623 0.855224 0.104504 -0.042126 601805.000000 0 0 1
22.344793 22.446268 29.026243 42.961000 0.787664 0.828962 0.140975 -0.045288 501243.000000 0 0 1
22.074893 23.764468 29.785873 44.036906 0.822240 0.827954 0.124745 -0.052659 -290204.000000 0 0 1
21.911893 24.950268 28.982973 44.075613 0.850144 0.853202 0.093521 -0.044673 68924.200000 0 0 1
21.468993 26.151668 29.579593 44.941960 0.883416 0.852407 0.092890 -0.045952 -21175.100000 0 0 1
20.065193 26.177768 30.247063 44.752345 0.916820 0.828643 0.094199 -0.040981 -739618.000000 0 0 1
19.053693 26.543068 29.302493 43.888652 0.948197 0.839741 0.098256 -0.045918 404345.000000 0 0 1
17.894993 26.989368 29.985573 44.133789 0.985310 0.823818 0.081920 -0.042991 190969.000000 0 0 1
16.934393 25.973568 30.650673 43.598895 0.993027 0.791168 0.053912 -0.027023 -1010030.000000 0 0 1
17.318493 25.469368 31.893933 44.337816 0.973638 0.767946 0.063166 -0.031284 119742.000000 0 0 1
16.333493 24.660168 32.519934 43.959675 0.985793 0.738072 0.029488 -0.020635 25076.200000 0 0 1
16.789893 24.135668 33.890480 44.866420 0.962998 0.714587 0.043512 -0.020931 -396689.000000 0 0 1
17.194693 25.168768 -33.475253 45.273799 0.971451 2.402969 0.057198 -0.024794 30418.600000 0 0 1
17.278293 24.858668 -32.137443 44.150968 0.963393 2.386049 0.038198 -0.015271 -463118.000000 0 0 1
17.808893 26.080168 -31.368293 44.511814 0.971672 2.352822 0.041510 0.000283 -228213.000000 0 0 1
16.912593 27.172168 -31.325993 44.784822 1.014052 2.345463 0.047068 -0.003901 20710.000000 0 0 1
17.331293 28.288168 -30.574623 45.115427 1.021113 2.315424 0.055618 -0.008033 -209107.000000 0 0 1
16.868393 28.368368 -29.093393 43.996960 1.034342 2.293292 0.066315 -0.006648 109783.000000 0 0 1
17.438193 27.422568 -28.161723 43.001982 1.004392 2.284838 0.046088 -0.000678 257031.000000 0 0 1
16.886493 27.711468 -26.942823 42.178132 1.023517 2.263716 0.032366 0.009565 -347138.000000 0 0 1
17.520593 26.864668 -25.852893 41.195311 0.992890 2.249223 0.028110 0.019448 -2373.490000 0 0 1
18.880693 27.116268 -25.589223 41.792115 0.962567 2.229760 0.044486 0.016683 -419700.000000 0 0 1
19.489493 26.364768 -24.573293 40.973016 0.934227 2.213977 0.043079 0.014978 160304.000000 0 0 1
21.019093 26.502368 -24.767593 41.923876 0.900275 2.202816 0.041183 0.015236 -222848.000000 0 0 1
21.701593 25.949268 -23.704393 41.306439 0.874305 2.182016 0.047304 0.014864 561724.000000 0 0 1
23.130993 26.040668 -23.922693 42.254638 0.844503 2.172631 0.054119 0.019286 1024920.000000 0 0 1
23.887393 25.843068 -22.606293 41.827218 0.824703 2.141790 0.058960 0.016981 -174633.000000 0 0 1
23.875393 24.538668 -22.041593 40.718699 0.799097 2.142795 0.068207 0.007630 92961.400000 0 0 1
24.483193 24.512268 -20.752793 40.385101 0.785992 2.110489 0.058032 0.018253 -221668.000000 0 0 1
23.689393 23.679268 -19.767493 38.892786 0.785184 2.103955 0.049127 0.013566 -613148.000000 0 0 1
23.990793 22.333168 -19.915093 38.352828 0.749630 2.116781 0.049558 0.009338 290964.000000 0 0 1
23.719193 21.615668 -18.695393 37.139668 0.739032 2.098303 0.054512 0.007869 -554089.000000 0 0 1
24.024293 20.101168 -18.939693 36.605130 0.696723 2.114613 0.071566 0.001498 271100.000000 0 0 1
23.230493 19.373168 -19.870493 36.191324 0.695105 2.152012 0.057763 0.003775 -235843.000000 0 0 1
21.871093 19.239768 -19.561993 35.088245 0.721480 2.162178 0.061069 -0.007244 -620894.000000 0 0 1
20.984693 19.017268 -20.787293 35.130120 0.736255 2.203991 0.055025 0.004218 -219817.000000 0 0 1
21.000093 19.891568 -21.895593 36.278028 0.758296 2.218742 0.056006 0.006696 -103943.000000 0 0 1
20.844693 21.318768 -21.601493 36.818685 0.796641 2.197773 0.050298 0.007243 9655.400000 0 0 1
20.442893 22.107168 -22.881793 37.818186 0.824492 2.220622 0.055907 0.013755 545444.000000 0 0 1
19.069193 21.923668 -23.194793 37.179023 0.854919 2.244478 0.062585 -0.000464 -136550.000000 0 0 1
18.804193 22.570268 -24.437993 38.212958 0.876172 2.264671 0.058290 0.006814 1031320.000000 0 0 1
17.276693 22.765468 -24.776593 37.823672 0.921624 2.285052 0.055915 0.003530 975756.000000 0 0 1
16.626893 23.742668 -23.993193 37.627665 0.959872 2.262237 0.047193 0.003902 -153568.000000 0 0 1
15.260393 23.852668 -24.301793 37.314963 1.001641 2.280042 0.052251 -0.002636 205029.000000 0 0 1
14.434793 24.926868 -23.511993 37.182332 1.045897 2.255370 0.048823 0.000498 189341.000000 0 0 1
14.730493 26.242568 -23.889193 38.423343 1.059303 2.241754 0.037905 0.006771 -38515.100000 0 0 1
13.796193 27.167268 -23.387893 38.410792 1.100909 2.225455 0.056645 0.001292 155791.000000 0 0 1
14.003693 28.574968 -24.040993 39.882346 1.115125 2.217799 0.049671 0.000426 174670.000000 0 0 1
13.935893 28.593568 -25.474733 40.752463 1.117297 2.246068 0.052743 -0.013477 -200108.000000 0 0 1
13.291593 29.737768 -26.008323 41.682540 1.150473 2.244599 0.079556 -0.022588 -484076.000000 0 0 1
13.884593 31.160068 -25.853573 42.803493 1.151616 2.219315 0.097918 -0.022752 150665.000000 0 0 1
15.059693 31.091268 -26.652583 43.632803 1.119730 2.227915 0.061421 -0.003971 477373.000000 0 0 1
15.966393 32.204368 -26.613773 44.725160 1.110528 2.208126 0.066194 -0.016916 882569.000000 0 0 1
17.374593 31.952668 -27.215543 45.426151 1.072756 2.213193 0.047222 0.003415 -108420.000000 0 0 1
18.205593 31.107968 -26.485383 44.728344 1.041301 2.204507 0.011543 0.009699 -876691.000000 0 0 1
19.466693 31.251468 -27.080913 45.705385 1.013705 2.204968 0.029415 0.010918 -754855.000000 0 0 1
20.454293 30.320768 -26.325993 45.064231 0.977324 2.194676 0.008663 0.023531 -457079.000000 0 0 1
20.939593 30.716968 -25.015413 44.808141 0.972462 2.163105 0.016624 0.020215 614319.000000 0 0 1
21.835393 31.846868 -24.902793 45.947323 0.969775 2.143594 0.016070 0.010620 1256340.000000 0 0 1
23.267793 31.760068 -25.569653 46.945705 0.938517 2.146785 0.010301 0.013446 466855.000000 0 0 1
23.229993 31.612468 -26.961203 47.601336 0.937071 2.172922 0.004578 0.018004 194885.000000 0 0 1
24.450793 31.963268 -27.615403 48.806785 0.917786 2.172213 0.006015 0.024024 -106598.000000 0 0 1
24.616893 31.337368 -29.075423 49.329527 0.904932 2.201127 0.018159 0.010307 -202608.000000 0 0 1
23.581993 31.648968 -29.944933 49.542573 0.930432 2.219844 0.027403 -0.011785 -488005.000000 0 0 1
22.319093 31.058168 -29.787333 48.477179 0.947681 2.232499 0.019986 -0.009979 -167587.000000 0 0 1
21.224893 31.714868 -30.677833 48.963847 0.981014 2.247903 0.010409 -0.006461 -916783.000000 0 0 1
20.942293 32.986568 -30.257743 49.418866 1.005129 2.229726 0.035025 -0.012481 527869.000000 0 0 1
19.926093 33.564668 -31.107543 49.913078 1.035050 2.243668 0.046834 -0.022763 1761880.000000 0 0 1
18.410593 33.196868 -30.752033 48.853551 1.064437 2.251672 0.055262 -0.026387 1103990.000000 0 0 1
17.884193 31.874468 -31.138393 48.014847 1.059485 2.276429 0.078743 -0.033885 389868.000000 0 0 1
18.167293 31.361568 -32.465403 48.657999 1.045748 2.301261 0.083520 -0.040192 -634157.000000 0 0 1
17.616093 32.128368 -33.709893 49.788710 1.069257 2.314555 0.104680 -0.047107 -538902.000000 0 0 1
18.082993 33.475768 -33.841293 50.920082 1.075523 2.297750 0.088773 -0.039513 15806.200000 0 0 1
17.701993 -34.117629 33.181486 50.777792 -1.092181 0.858644 0.087876 -0.038408 583193.000000 0 0 1
16.193293 -33.732629 32.987678 49.882862 -1.123237 0.848242 0.100273 -0.037527 444298.000000 0 0 1
15.338693 33.322668 33.049118 49.375297 1.139403 0.837469 0.097582 -0.033404 286864.000000 0 0 1
13.981293 33.563868 32.698166 48.899692 1.176098 0.838366 0.083264 -0.038351 558121.000000 0 0 1
13.567593 -34.073729 31.353713 48.250948 -1.191857 0.863468 0.069546 -0.034809 -1029320.000000 0 0 1
13.817693 -32.692929 31.171023 47.237580 -1.170917 0.850140 0.092620 -0.030595 47595.000000 0 0 1
13.004693 -32.280329 30.104443 46.015423 -1.187820 0.857639 0.101703 -0.037614 -152995.000000 0 0 1
13.243893 -30.886929 29.532233 44.738752 -1.165723 0.849839 0.105045 -0.037686 -95162.600000 0 0 1
13.044593 -29.856929 30.503273 44.632357 -1.158887 0.818340 0.097754 -0.039915 258093.000000 0 0 1
13.422893 -28.630229 29.993203 43.582753 -1.132389 0.811805 0.114957 -0.046265 -539501.000000 0 0 1
13.174093 -27.590129 31.107403 43.616998 -1.125316 0.776751 0.096652 -0.032686 -86656.200000 0 0 1
11.831393 -27.347629 31.475373 43.342517 -1.162481 0.758017 0.079972 -0.031332 -268663.000000 0 0 1
11.261493 -26.446129 30.583583 41.971116 -1.168225 0.754401 0.066967 -0.036519 -859772.000000 0 0 1
11.407793 -24.952129 30.954203 41.363138 -1.141982 0.725222 0.054147 -0.026227 -270362.000000 0 0 1
10.642993 -24.499429 32.039823 41.713854 -1.160976 0.694950 0.067763 -0.024432 -201257.000000 0 0 1
11.131893 -23.245229 32.450456 41.440220 -1.124179 0.671215 0.058728 -0.016875 18190.300000 0 0 1
10.360893 -22.440929 33.518081 41.646190 -1.138258 0.635408 0.052038 -0.015443 -544128.000000 0 0 1
10.315293 -22.945829 -33.376553 41.796060 -1.148317 2.495691 0.047064 -0.012435 158835.000000 0 0 1
11.459893 -23.298529 -32.608643 41.683020 -1.113672 2.469147 0.061210 -0.010256 614213.000000 0 0 1
12.589393 -22.319529 -32.154723 41.116668 -1.057228 2.468723 0.057255 -0.019783 521048.000000 0 0 1
13.132493 -21.578429 -33.224033 41.736403 -1.024082 2.491528 0.048367 -0.013169 696210.000000 0 0 1
14.193093 -20.739229 -32.715233 41.253436 -0.970645 2.486564 0.056087 -0.022021 411512.000000 0 0 1
14.395093 -19.424029 -33.498693 41.311911 -0.933017 2.516438 0.051771 -0.017360 -120414.000000 0 0 1
15.148093 -19.563329 33.523606 41.665582 -0.911917 0.635816 0.057994 -0.007327 620294.000000 0 0 1
14.904393 -18.474729 32.612601 40.336563 -0.891956 0.629177 0.047231 -0.003894 -135165.000000 0 0 1
15.797993 -17.242729 32.821221 40.300383 -0.829096 0.619077 0.060565 0.001438 -1095010.000000 0 0 1
15.593793 -16.485729 34.018777 40.892822 -0.813195 0.588272 0.050205 -0.005515 338025.000000 0 0 1
16.320493 -15.274529 34.026383 40.711970 -0.752305 0.581239 0.063783 -0.003056 341177.000000 0 0 1
17.874293 -15.352629 -34.116686 41.462535 -0.709651 2.537172 0.071639 -0.000488 162533.000000 0 0 1
18.562193 -15.789929 32.938878 40.973730 -0.704871 0.636969 0.077057 -0.006343 416697.000000 0 0 1
19.953993 -15.941229 33.176135 41.868133 -0.674069 0.656070 0.083187 -0.003742 407197.000000 0 0 1
20.677593 -16.699029 32.005473 41.602533 -0.679352 0.693027 0.090969 -0.005516 -187173.000000 0 0 1
20.785293 -15.966229 30.848573 40.479419 -0.655016 0.704276 0.080540 0.006181 196845.000000 0 0 1
21.604693 -16.509129 29.866703 40.389777 -0.652493 0.738526 0.071341 0.004060 -427086.000000 0 0 1
22.010993 -15.634729 28.665503 39.378162 -0.617615 0.755463 0.059776 0.011019 -190296.000000 0 0 1
22.966693 -14.651229 28.983053 39.776185 -0.567846 0.754443 0.038288 0.004860 294242.000000 0 0 1
23.266993 -13.872129 27.777233 38.799016 -0.537632 0.772846 0.028912 0.002050 316492.000000 0 0 1
23.962993 -12.562029 28.235703 39.106068 -0.482840 0.764066 0.030730 0.003759 -162614.000000 0 0 1
22.973493 -11.673329 28.619753 38.511534 -0.470124 0.733034 0.043730 -0.001431 -69081.100000 0 0 1
23.502993 -10.405029 28.808273 38.607926 -0.416776 0.728498 0.034889 -0.009581 297345.000000 0 0 1
22.402793 -9.284729 28.822083 37.667012 -0.392897 0.699474 0.046663 -0.009180 716287.000000 0 0 1
21.583393 -9.128229 29.965713 38.040917 -0.400115 0.663692 0.058736 -0.014875 278858.000000 0 0 1
20.550793 -8.162229 29.756333 37.072853 -0.378067 0.639080 0.061135 -0.016257 292112.000000 0 0 1
19.420093 -8.064629 30.784623 37.280977 -0.393603 0.599273 0.054693 -0.007726 -219283.000000 0 0 1
19.807593 -7.684829 32.102423 38.496271 -0.370096 0.584642 0.057525 -0.015315 -24080.100000 0 0 1
20.137793 -8.814929 32.833851 39.513232 -0.412604 0.589968 0.068174 -0.021481 -396269.000000 0 0 1
20.264793 -8.469129 -33.920583 40.410319 -0.395861 2.566982 0.059741 -0.033097 -392683.000000 0 0 1
19.017293 -8.229729 -33.336863 39.252163 -0.408416 2.585454 0.043455 -0.036228 -321541.000000 0 0 1
19.102193 -7.506029 -32.104673 38.104386 -0.374406 2.572788 0.034671 -0.039496 -315214.000000 0 0 1
17.774693 -7.137529 -31.407963 36.787826 -0.381847 2.593960 0.024250 -0.032293 -1712.340000 0 0 1
17.988993 -6.157629 -30.411553 35.866179 -0.329799 2.582840 0.011802 -0.028291 620329.000000 0 0 1
16.759793 -5.802829 -29.776123 34.658058 -0.333317 2.604383 0.015511 -0.020921 318024.000000 0 0 1
16.950293 -4.754629 -28.712413 33.679691 -0.273476 2.591573 0.001289 -0.014803 -345898.000000 0 0 1
17.718293 -5.114129 -27.583643 33.180560 -0.280998 2.552274 0.002304 -0.013149 210568.000000 0 0 1
17.148193 -6.015329 -26.636103 32.244793 -0.337374 2.542875 0.022779 -0.019597 1147520.000000 0 0 1
15.716193 -5.806529 -25.966493 30.902641 -0.353906 2.568573 0.029975 -0.018214 1095830.000000 0 0 1
15.721393 -4.772629 -25.033853 29.943847 -0.294734 2.560797 0.003305 -0.014773 354636.000000 0 0 1
14.400593 -4.581029 -24.518793 28.801633 -0.307991 2.589252 0.052115 -0.019890 215149.000000 0 0 1
14.310493 -3.470629 -23.395593 27.643973 -0.237930 2.579831 0.063609 -0.022157 -44572.400000 0 0 1
14.511393 -2.175629 -23.904993 28.049288 -0.148817 2.591067 0.038502 -0.023525 301124.000000 0 0 1
13.973493 -1.250629 -22.982393 26.926064 -0.089262 2.593533 0.048665 -0.029716 -56530.000000 0 0 1
14.259293 0.210371 -23.385093 27.390404 0.014752 2.593979 0.028462 -0.026901 -109657.000000 0 0 1
13.755693 0.550371 -24.666393 28.248060 0.039989 2.632540 0.037191 -0.025903 274426.000000 0 0 1
14.194193 1.877371 -24.935593 28.753842 0.131500 2.620366 0.024366 -0.009415 -220959.000000 0 0 1
13.676293 2.485371 -26.231153 29.686553 0.179767 2.654300 0.019234 -0.001129 -549603.000000 0 0 1
12.417693 3.061371 -26.067493 29.035930 0.241713 2.685469 0.032926 -0.019360 -231619.000000 0 0 1
11.893993 3.566371 -27.312983 30.003085 0.291316 2.714899 0.041904 -0.015394 207371.000000 0 0 1
10.588993 4.366371 -27.083053 29.405505 0.391107 2.741487 0.054759 -0.018700 -11079.000000 0 0 1
10.796593 5.629371 -26.541093 29.200785 0.480623 2.711476 0.040255 -0.033849 337734.000000 0 0 1
9.598293 6.409371 -26.523643 28.925955 0.588760 2.731163 0.037203 -0.036776 283690.000000 0 0 1
8.389393 5.029368 -31.491543 32.975653 0.540045 2.840435 0.061536 -0.026987 68289.400000 0 0 1
8.744893 4.104868 -30.448323 31.944067 0.438871 2.834367 0.046892 -0.011324 292365.000000 0 0 1
8.505493 2.769268 -30.837223 32.108356 0.314762 2.859271 0.049020 0.000482 -207641.000000 0 0 1
8.299293 1.826968 -29.663793 30.857036 0.216679 2.862588 0.058964 -0.008475 -42857.800000 0 0 1
9.398293 1.568868 -28.803083 30.338207 0.165406 2.822115 0.063647 -0.013287 407343.000000 0 0 1
9.019093 0.620768 -27.803513 29.236359 0.068720 2.827221 0.073452 -0.016189 -232656.000000 0 0 1
10.222093 0.149068 -26.986013 28.857551 0.014582 2.779466 0.071390 -0.028717 -255306.000000 0 0 1
11.047293 -0.688832 -27.777623 29.901730 -0.062272 2.762400 0.064744 -0.018699 166868.000000 0 0 1
12.128393 -1.114432 -26.940643 29.565826 -0.091629 2.717005 0.055731 -0.021633 555395.000000 0 0 1
12.959393 -2.289032 -27.539593 30.522364 -0.174828 2.695816 0.050940 -0.015948 -223569.000000 0 0 1
12.192493 -3.416332 -27.507883 30.282203 -0.273194 2.710200 0.074580 -0.017642 -377424.000000 0 0 1
12.834493 -4.523532 -28.068773 31.193630 -0.338857 2.690162 0.063171 -0.015096 -293568.000000 0 0 1
12.271093 -5.881632 -27.552443 30.729634 -0.446957 2.682846 0.082443 -0.010425 -138296.000000 0 0 1
12.260293 -6.007032 -26.150583 29.500037 -0.455582 2.660434 0.085363 -0.012971 8801.640000 0 0 1
11.651593 -7.162232 -25.557153 28.986639 -0.551158 2.650223 0.089024 -0.013750 -148109.000000 0 0 1
11.325693 -6.783332 -24.113093 27.490474 -0.539635 2.640678 0.091352 -0.014008 294.434000 0 0 1
12.362993 -6.700432 -23.150193 27.086358 -0.496661 2.595732 0.051578 -0.005536 129790.000000 0 0 1
11.761193 -6.534232 -21.869793 25.677026 -0.507114 2.590067 0.060218 -0.010346 353357.000000 0 0 1
12.820093 -6.462032 -20.760793 25.241298 -0.466886 2.536577 0.062370 -0.022051 331965.000000 0 0 1
13.485593 -5.222032 -20.583293 25.155571 -0.369450 2.529139 0.064719 -0.031319 -147789.000000 0 0 1
14.568393 -5.363532 -19.703793 25.084756 -0.352762 2.474282 0.069110 -0.033134 -322513.000000 0 0 1
15.145093 -4.000532 -19.353793 24.898742 -0.258249 2.461159 0.084014 -0.033611 -195752.000000 0 1 0
15.928093 -3.359732 -20.357093 26.065363 -0.207884 2.467064 0.080502 -0.030320 443179.000000 0 0 1
16.622693 -2.244432 -19.815893 25.961914 -0.134210 2.439152 0.091052 -0.032684 386979.000000 0 0 1
17.742493 -1.687132 -20.757893 27.359323 -0.094805 2.432133 0.050885 -0.031681 -941581.000000 0 0 1
18.899193 -2.380232 -20.815893 28.216066 -0.125284 2.400501 0.067336 -0.032328 -1182680.000000 0 0 1
19.809893 -1.692032 -21.670093 29.408974 -0.085207 2.399200 0.057613 -0.028599 -526089.000000 0 0 1
21.105793 -2.465232 -21.813993 30.452949 -0.116277 2.369307 0.034710 -0.020333 -1172970.000000 0 0 1
22.037493 -2.169832 -20.775193 30.363924 -0.098145 2.324311 0.030787 -0.016477 566463.000000 0 0 1
23.254693 -2.885532 -20.927793 31.417822 -0.123453 2.299780 0.032395 -0.012278 559924.000000 0 0 1
24.356193 -2.243032 -21.836093 32.788264 -0.091834 2.299593 0.028141 -0.013354 -646939.000000 0 0 1
23.946993 -2.062832 -23.204193 33.408806 -0.085929 2.338595 0.033633 -0.015605 413130.000000 0 0 1
24.809593 -1.185032 -23.952293 34.505543 -0.047729 2.338046 0.030668 -0.003493 -279159.000000 0 0 1
26.039093 -1.849132 -24.542593 35.830050 -0.070895 2.325362 0.027816 -0.006185 -1526300.000000 0 0 1
27.018593 -2.107632 -23.551693 35.904438 -0.077849 2.286243 0.034606 -0.004976 614661.000000 0 0 1
28.120093 -2.959432 -23.958093 37.060600 -0.104857 2.273728 0.033516 0.006578 553534.000000 0 0 1
29.143493 -2.261332 -24.827193 38.351614 -0.077438 2.274908 0.041340 -0.000474 -1707340.000000 0 0 1
28.657093 -1.962632 -26.096423 38.808558 -0.068380 2.308297 0.049656 -0.004045 -498825.000000 0 0 1
29.324493 -0.940532 -26.692033 39.664532 -0.032062 2.308979 0.053807 -0.011519 -1089570.000000 0 0 1
28.755593 -0.457832 -28.047983 40.171919 -0.015920 2.343675 0.051868 -0.020399 -126373.000000 0 0 1
27.408793 -0.048232 -28.084893 39.242903 -0.001760 2.368376 0.044126 -0.013617 -96093.200000 0 0 1
27.058993 1.190468 -27.558813 38.640580 0.043967 2.364862 0.036944 -0.010867 -1320160.000000 0 0 1
25.606293 1.464168 -27.857163 37.866179 0.057118 2.397458 0.032979 -0.006784 -302850.000000 0 0 1
24.703793 1.135168 -26.775583 36.448564 0.045919 2.395892 0.023919 -0.008853 49458.200000 0 0 1
23.371993 1.469468 -26.966733 35.715739 0.062790 2.426508 0.022676 -0.006724 -960220.000000 0 0 1
22.452093 1.137068 -25.813293 34.230330 0.050601 2.425088 0.025473 -0.002806 -490953.000000 0 0 1
22.459193 2.067068 -24.736193 33.474876 0.091778 2.402304 0.030803 0.002123 -51200.100000 0 0 1
21.601693 1.616968 -23.756493 32.149940 0.074714 2.402274 0.028474 -0.002331 -614231.000000 0 0 1
21.808093 2.333168 -22.400393 31.349867 0.106581 2.366747 0.034923 -0.003419 -518151.000000 0 0 1
21.498793 3.686868 -22.418693 31.279208 0.169840 2.369896 0.046371 -0.002782 508744.000000 0 0 1
21.805493 4.205168 -21.136993 30.658366 0.190510 2.331507 0.046882 -0.008501 -204852.000000 0 0 1
21.074493 5.536168 -20.838593 30.150130 0.256891 2.333891 0.053203 -0.005232 -3434.290000 0 0 1
21.805293 6.684468 -21.297393 31.204676 0.297457 2.321983 0.057819 -0.003618 500903.000000 0 0 1
21.603493 7.883368 -20.580593 30.861289 0.349897 2.300802 0.062039 -0.000497 -183319.000000 0 0 1
22.268293 7.955868 -19.148493 30.427577 0.343140 2.251466 0.061545 -0.015606 411702.000000 0 0 1
23.691293 8.147968 -19.201393 31.565174 0.331250 2.224725 0.058714 -0.016407 927734.000000 0 0 1
24.211893 8.548968 -17.939593 31.322988 0.339425 2.180628 0.083009 -0.032162 -144321.000000 0 0 1
23.968193 9.968168 -17.355193 31.225652 0.394130 2.160120 0.090997 -0.043745 -19352.200000 0 0 1
22.576293 10.201068 -17.182693 30.149556 0.424390 2.177199 0.082525 -0.047018 427008.000000 0 0 1
22.325393 11.631468 -16.966193 30.357304 0.480304 2.163835 0.074504 -0.039422 -1342340.000000 0 0 1
20.888793 11.948868 -16.598293 29.233892 0.519594 2.174598 0.067556 -0.040903 -866365.000000 0 0 1
20.047093 11.900168 -17.703693 29.273207 0.535708 2.220279 0.066339 -0.045420 6609.080000 0 0 1
19.537593 10.655768 -18.126593 28.702548 0.499303 2.254324 0.059597 -0.043699 -856862.000000 0 0 1
18.580193 10.646168 -19.290893 28.821919 0.520318 2.304080 0.067052 -0.029651 -69279.300000 0 0 1
19.331893 10.509468 -20.513693 30.082928 0.497942 2.321160 0.077393 -0.025256 502830.000000 0 0 1
18.535793 10.072368 -21.593593 30.187936 0.497763 2.367857 0.059792 -0.024112 -603586.000000 0 0 1
19.212193 10.117868 -22.919093 31.571576 0.484730 2.383198 0.080959 -0.030228 -558949.000000 0 0 1
19.343993 11.428368 -23.344293 32.399902 0.533625 2.375327 0.077613 -0.036268 68070.200000 0 0 1
20.221793 11.547768 -24.426593 33.748041 0.518865 2.380080 0.076928 -0.039286 -227478.000000 0 0 1
20.314493 12.996568 -24.830693 34.614342 0.569149 2.370791 0.092110 -0.040204 -47342.300000 0 0 1
21.032493 13.216468 -26.031333 35.981538 0.561029 2.379603 0.092193 -0.038088 71290.700000 0 0 1
21.171793 14.583968 -26.354453 36.817036 0.603196 2.368597 0.102576 -0.037039 544850.000000 0 0 1
19.907093 15.261168 -27.001903 36.855099 0.654053 2.393004 0.080464 -0.033368 248124.000000 0 0 1
18.748593 15.242168 -26.233913 35.665832 0.682604 2.397271 0.067954 -0.033385 -718172.000000 0 0 1
17.671393 15.643568 -27.055383 35.902550 0.724605 2.424285 0.064149 -0.032661 -148226.000000 0 0 1
16.278893 15.358368 -26.471523 34.664439 0.756310 2.439745 0.062542 -0.031535 -260374.000000 0 0 1
16.008893 13.990268 -26.496933 33.972043 0.718210 2.465403 0.055219 -0.028193 672757.000000 0 0 1
14.641693 13.649068 -26.217033 32.984982 0.750326 2.489503 0.044538 -0.023974 574382.000000 0 0 1
14.526693 12.102768 -26.161483 32.278863 0.694624 2.515773 0.041980 -0.026532 485384.000000 0 0 1
13.218193 11.550868 -25.962763 31.340201 0.718185 2.547072 0.041189 -0.023367 393435.000000 0 0 1
13.199293 10.224468 -25.410833 30.405123 0.659074 2.560279 0.052324 -0.022715 -420528.000000 0 0 1
11.799293 9.599168 -25.342813 29.557156 0.682941 2.601026 0.042801 -0.031461 77434.800000 0 0 1
11.009393 10.155168 -24.277993 28.526393 0.745059 2.588819 0.039613 -0.033774 614332.000000 0 0 1
9.837893 9.348568 -24.066493 27.629258 0.759900 2.628134 0.049610 -0.040969 646635.000000 0 0 1
8.904793 9.863668 -22.907793 26.483094 0.836444 2.615940 0.035371 -0.038458 96560.800000 0 0 1
8.043593 10.882768 -23.395393 27.027364 0.934300 2.617181 0.034299 -0.037097 22885.600000 0 0 1
7.380993 11.644068 -22.391293 26.295120 1.005834 2.589708 0.041947 -0.018882 386863.000000 0 0 1
8.283093 12.578068 -21.512393 26.260245 0.988445 2.530811 0.045942 -0.021791 503234.000000 0 0 1
9.203093 11.930368 -20.634493 25.550203 0.913739 2.510877 0.046361 -0.026918 9556.000000 0 0 1
10.062693 12.822668 -19.954293 25.765333 0.905419 2.456662 0.052623 -0.024015 -266796.000000 0 0 1
11.076793 12.055568 -19.064593 25.129480 0.827685 2.432042 0.067137 -0.027573 -177202.000000 0 0 1
12.143193 11.385968 -19.706993 25.796569 0.753227 2.440191 0.084268 -0.033241 -101321.000000 0 0 1
11.834893 10.374068 -20.647593 25.961684 0.719716 2.490315 0.070163 -0.039196 -748239.000000 0 0 1
13.041093 9.782568 -21.422093 26.919784 0.643587 2.491083 0.074684 -0.039745 427534.000000 0 0 1
13.816693 8.795668 -20.740493 26.427879 0.566895 2.473163 0.088483 -0.046747 -11431.300000 0 0 1
14.926293 8.388468 -21.479493 27.468695 0.512004 2.468605 0.086472 -0.042064 -570067.000000 0 0 1
15.677093 7.189268 -20.953693 27.138792 0.429970 2.452926 0.107826 -0.040261 30075.900000 0 0 1
16.491093 7.451968 -19.808693 26.830436 0.424415 2.401331 0.088198 -0.034125 289723.000000 0 0 1
16.872193 6.256268 -19.170593 26.293029 0.355086 2.387822 0.070936 -0.035456 348594.000000 0 0 1
17.723393 6.469468 -17.857593 25.978189 0.349996 2.328709 0.077801 -0.035023 -419889.000000 0 0 1
18.984593 7.072068 -17.989993 27.093703 0.356591 2.296941 0.061052 -0.040305 -91651.600000 0 0 1
19.595593 7.257268 -16.764593 26.790050 0.354690 2.246923 0.063043 -0.053913 -239504.000000 0 0 1
20.268293 6.000368 -16.084793 26.561789 0.287826 2.221267 0.069828 -0.056134 -634806.000000 0 0 1
21.516293 5.787768 -16.708493 27.850006 0.262775 2.214230 0.060114 -0.047745 427601.000000 0 0 1
22.207993 4.649468 -16.154293 27.852714 0.206379 2.189513 0.078540 -0.053299 581358.000000 0 0 1
23.638493 4.393968 -16.717693 29.284237 0.183784 2.178370 0.050370 -0.006690 577227.000000 0 0 1
24.184893 3.206568 -16.062593 29.209553 0.131817 2.153051 0.053113 -0.019928 576878.000000 0 0 1
25.500993 2.884068 -16.506593 30.513703 0.112618 2.142371 0.054837 -0.025744 353333.000000 0 0 1
26.136493 1.700068 -15.764393 30.569962 0.064954 2.112600 0.078394 -0.039099 -370825.000000 0 0 1
25.705193 0.425068 -16.058393 30.311872 0.016535 2.129128 0.074961 -0.025903 414846.000000 0 0 1
26.773193 -0.482832 -15.711493 31.046545 -0.018032 2.101410 0.066516 -0.021841 484464.000000 0 0 1
26.379393 -1.977532 -15.906793 30.867605 -0.074825 2.112181 0.046361 -0.023087 166927.000000 0 0 1
25.578593 -2.561032 -14.846293 29.685614 -0.099791 2.094531 0.046168 -0.024690 769416.000000 0 0 1
25.502493 -3.998232 -14.947693 29.829457 -0.155512 2.095672 0.041371 -0.017881 -718569.000000 0 0 1
24.856893 -4.717932 -13.684293 28.764281 -0.187573 2.066600 0.049603 -0.024578 1273560.000000 0 0 1
23.461193 -4.578032 -13.345393 27.376732 -0.192711 2.079989 0.072765 -0.018811 1021990.000000 0 0 1
22.625893 -5.120432 -14.345193 27.275161 -0.222560 2.124620 0.091093 -0.019688 -1333750.000000 0 0 1
21.162193 -5.074532 -13.911793 25.828807 -0.235349 2.139589 0.112028 -0.021626 -907427.000000 0 0 1
20.757393 -6.133132 -13.081293 25.290411 -0.287293 2.114423 0.114618 -0.017924 424742.000000 0 0 1
21.052093 -5.990932 -11.711493 24.824200 -0.277247 2.062102 0.129278 -0.017526 -808432.000000 0 1 0
20.742993 -7.226632 -10.879493 24.512432 -0.335239 2.030671 0.116978 -0.016726 -954246.000000 0 1 0
19.443593 -7.690132 -10.769393 23.519593 -0.376630 2.046417 0.108384 -0.012946 -154519.000000 0 1 0
19.023493 -8.438832 -11.921893 23.984134 -0.417519 2.091020 0.098689 -0.018877 -1244610.000000 0 1 0
17.662693 -9.053632 -11.827393 23.104679 -0.473665 2.108197 0.108668 -0.015811 -938466.000000 0 1 0
16.536893 -8.235832 -11.746293 21.892308 -0.462069 2.137138 0.093194 -0.019413 -67300.700000 0 1 0
15.328093 -8.837532 -12.160793 21.469450 -0.523004 2.172955 0.078230 -0.015241 748981.000000 0 1 0
14.141493 -7.858332 -12.472893 20.428124 -0.507204 2.227582 0.064484 -0.014617 135534.000000 0 1 0
14.176693 -7.000732 -13.594493 20.851837 -0.458691 2.280958 0.062177 -0.018727 503719.000000 0 1 0
15.293893 -6.098832 -13.583693 21.345154 -0.379450 2.260596 0.069503 -0.019231 281803.000000 0 1 0
15.186193 -5.022332 -14.688293 21.716128 -0.319394 2.313629 0.066018 -0.021491 -17738.100000 0 1 0
14.170193 -4.079332 -14.373593 20.592122 -0.280302 2.343417 0.070933 -0.024836 381274.000000 0 1 0
13.883693 -3.080132 -15.374193 20.943016 -0.218317 2.395131 0.067166 -0.024738 31855.200000 0 1 0
14.971693 -1.970432 -15.568893 21.689274 -0.130858 2.371456 0.082610 -0.029729 -30541.600000 0 1 0
16.094793 -2.575032 -16.180693 22.967106 -0.158647 2.352537 0.082865 -0.032032 650260.000000 0 1 0
17.263493 -1.721732 -16.131693 23.690168 -0.099404 2.319848 0.083503 -0.024715 1204270.000000 0 1 0
18.301793 -2.100432 -15.007393 23.761087 -0.114267 2.254406 0.085814 -0.025606 -78991.900000 0 1 0
17.874893 -1.832832 -13.698493 22.594684 -0.102180 2.222159 0.083331 -0.019113 450949.000000 0 1 0
18.811893 -2.543732 -12.880893 22.940690 -0.134404 2.166978 0.079780 -0.013953 310831.000000 0 1 0
18.395293 -2.747532 -11.385093 21.807248 -0.148265 2.120082 0.081216 -0.013178 -232470.000000 0 1 0
18.422393 -1.587632 -10.624193 21.325539 -0.085967 2.092308 0.083378 -0.010486 563064.000000 0 1 0
18.008193 -1.802932 -9.298793 20.347312 -0.099785 2.045420 0.086586 -0.005486 -620815.000000 0 1 0
18.002593 -0.515432 -8.467093 19.901022 -0.028623 2.010267 0.080556 -0.003316 31037.000000 0 1 0
19.187393 0.083768 -7.944893 20.767387 0.004366 1.963368 0.083379 -0.002905 529074.000000 0 1 0
19.929893 0.948068 -8.810793 21.811225 0.047534 1.986634 0.072781 0.001465 -52863.400000 0 1 0
19.288993 2.264468 -9.385593 21.570406 0.116862 2.020962 0.052511 -0.006227 -443561.000000 0 1 0
19.286893 3.402768 -8.578193 21.381030 0.174632 1.983629 0.051031 0.000500 338420.000000 0 1 0
18.581293 4.457168 -9.182393 21.200168 0.235426 2.018757 0.039737 -0.013723 -446689.000000 0 1 0
18.840693 5.914268 -8.684793 21.572573 0.304168 1.985135 0.067945 -0.000740 205984.000000 0 1 0
17.963993 6.866368 -9.282193 21.354417 0.365094 2.020472 0.047294 -0.010270 524898.000000 0 1 0
18.730693 7.992968 -9.461893 22.455596 0.403336 2.005741 0.090478 0.004335 55271.600000 0 1 0
-26.258497 -29.056172 5.600507 39.561793 0.835933 1.428756 0.069282 -0.007745 -142861.000000 0 0 1
-26.614407 -27.999172 6.570107 39.184775 0.810748 1.402331 0.077677 -0.008844 313341.000000 0 0 1
-25.474707 -27.183272 6.863007 37.881286 0.817833 1.388619 0.075219 -0.008192 -146417.000000 0 0 1
-25.689457 -26.146942 7.931107 37.503510 0.794223 1.357711 0.077758 -0.008968 -739819.000000 0 0 1
-26.453377 -24.987832 7.559507 37.166101 0.756916 1.365969 0.071329 -0.014089 24148.200000 0 0 1
-27.838407 -25.232122 7.549407 38.322714 0.736328 1.372504 0.059833 -0.013406 -111572.000000 0 0 1
-28.607747 -25.435412 8.923907 39.306482 0.726765 1.341765 0.052448 -0.003197 -431529.000000 0 0 1
-28.053257 -26.446332 9.722507 39.760796 0.755922 1.323767 0.048375 -0.004108 -480676.000000 0 0 1
-28.572937 -26.557992 11.038007 40.541057 0.748866 1.295048 0.055879 -0.011117 -64606.400000 0 0 1
-27.638607 -27.408792 11.973607 40.724707 0.781223 1.272373 0.045111 -0.009264 2332340.000000 0 0 1
-26.324327 -26.877572 12.373207 39.603918 0.795797 1.253053 0.049231 -0.008551 1530320.000000 0 0 1
-26.486037 -25.833022 13.265707 39.304379 0.772917 1.226524 0.049854 -0.004118 -64488.700000 0 0 1
-25.196187 -25.428932 14.051907 38.456918 0.789996 1.196741 0.069345 -0.012391 264537.000000 0 0 1
-24.659107 -26.446882 14.838607 39.085719 0.820366 1.181386 0.074646 -0.017484 -433740.000000 0 0 1
-23.582407 -25.926512 15.574007 38.351840 0.832710 1.152633 0.092612 -0.020132 15468.500000 0 0 1
-22.578707 -26.977862 16.094307 38.686300 0.873936 1.141731 0.097210 -0.029082 -168749.000000 0 0 1
-23.196807 -27.861422 17.018307 40.049638 0.876504 1.131911 0.090243 -0.025027 -356999.000000 0 0 1
-22.417807 -28.921632 17.421507 40.528111 0.911410 1.126456 0.095002 -0.016647 -655685.000000 0 0 1
-23.097407 -29.949252 18.360307 42.042226 0.913853 1.118857 0.101439 -0.022298 -479227.000000 0 0 1
-24.237807 -30.507072 17.807507 42.839935 0.899419 1.142111 0.068148 -0.007407 -305251.000000 0 0 1
-24.749607 -31.620342 18.495107 44.209253 0.906686 1.139164 0.075608 -0.003765 -502825.000000 0 0 1
-25.793467 -32.412662 17.733607 45.059565 0.898632 1.166296 0.061056 -0.005662 -554432.000000 0 0 1
-25.240417 -33.208692 16.719807 44.938267 0.920891 1.189567 0.061157 -0.010660 -128295.000000 0 0 1
-26.111127 34.055804 16.235107 45.882104 -0.916683 1.209119 0.051104 -0.007674 -820478.000000 0 0 1
-25.515177 33.220936 15.062707 44.514492 -0.915846 1.225604 0.051304 -0.014430 159300.000000 0 0 1
-24.279007 32.611039 15.371007 43.465134 -0.930823 1.209337 0.040475 -0.019453 596598.000000 0 0 1
-23.165507 33.431381 15.001407 43.351357 -0.964833 1.217447 0.058786 -0.021453 -267752.000000 0 0 1
-21.809507 32.732887 14.886407 42.055934 -0.983056 1.208987 0.088031 -0.029482 -87458.300000 0 0 1
-21.660707 31.924216 13.744607 40.954316 -0.974643 1.228545 0.069224 -0.020898 83781.000000 0 0 1
-20.562607 31.021756 13.877407 39.720934 -0.985444 1.213895 0.071051 -0.019061 286713.000000 0 0 1
-20.406807 30.141926 12.629507 38.528923 -0.975657 1.236830 0.059911 -0.015440 244939.000000 0 0 1
-19.808507 30.843436 11.551507 38.433472 -0.999904 1.265518 0.040999 -0.008700 73234.200000 0 0 1
-20.252807 30.247176 10.358207 37.846536 -0.980782 1.293569 0.049854 -0.006110 79208.600000 0 0 1
-19.792707 30.990086 9.067207 37.872826 -1.002421 1.329036 0.038175 -0.003621 -103212.000000 0 0 1
-18.393407 31.128566 9.046307 37.271178 -1.037106 1.325632 0.041131 -0.016356 -463025.000000 0 0 1
-17.862907 31.606306 7.817807 37.137045 -1.056382 1.358697 0.058112 -0.027693 -42950.600000 0 0 1
-17.255707 30.641176 6.771507 35.811931 -1.057910 1.380566 0.054545 -0.022605 -80076.800000 0 0 1
-18.102507 29.610446 6.211507 35.257086 -1.022069 1.393694 0.039151 -0.009414 175757.000000 0 0 1
-18.071107 28.407596 6.953007 34.378783 -1.004229 1.367144 0.023160 -0.000043 -378668.000000 0 0 1
-19.107307 27.357176 6.496307 33.995680 -0.961119 1.378522 0.020590 0.007329 39433.300000 0 0 1
-18.769307 26.757626 5.281507 33.108182 -0.959094 1.410589 0.024948 -0.000092 -591172.000000 0 0 1
-19.847007 26.124456 4.718907 33.146025 -0.921110 1.427944 0.032592 0.000265 -1082830.000000 0 0 1
-19.523807 25.193906 3.475007 32.062246 -0.911523 1.462200 0.044120 -0.011610 -839828.000000 0 0 1
-19.197707 25.812296 2.197407 32.243684 -0.931312 1.502593 0.046603 -0.014173 924576.000000 0 0 1
-17.981007 26.559476 2.052907 32.139334 -0.975668 1.506878 0.039324 -0.013795 738808.000000 0 0 1
-16.616307 25.861076 2.381907 30.831321 -0.999696 1.493463 0.034641 -0.016499 -110290.000000 0 0 1
-16.111707 24.756496 1.638407 29.583028 -0.993854 1.515385 0.049988 -0.023913 149929.000000 0 0 1
-15.727507 25.119296 0.323407 29.638456 -1.011397 1.559884 0.066303 -0.028226 -275235.000000 0 0 1
-15.569007 23.886846 -0.586593 28.518756 -0.993170 1.591366 0.066631 -0.025804 764560.000000 0 0 1
-16.809707 23.199626 -0.863893 28.662435 -0.943771 1.600941 0.079988 -0.035997 853629.000000 0 0 1
-16.678207 22.119466 -1.806793 27.761445 -0.924736 1.635925 0.078459 -0.026646 -37912.900000 0 0 1
-15.778407 20.887066 -1.456093 26.217320 -0.923838 1.626364 0.076321 -0.028042 25213.100000 0 0 1
-16.330707 20.029666 -0.501293 25.848226 -0.886780 1.590191 0.084314 -0.035454 350798.000000 0 0 1
-15.353907 19.136966 0.067707 24.535087 -0.894644 1.568037 0.098415 -0.030205 139004.000000 0 1 0
-15.930607 18.086266 0.976107 24.121568 -0.848684 1.530319 0.082307 -0.021849 66360.500000 0 1 0
-16.549607 16.949466 0.346407 23.691642 -0.797334 1.556174 0.060664 -0.022356 464954.000000 0 1 0
-17.215707 16.187666 1.339307 23.668858 -0.754631 1.514181 0.075322 -0.034247 -14286.700000 0 1 0
-17.655207 14.786866 0.852607 23.045274 -0.697213 1.533791 0.074366 -0.034671 -284316.000000 0 1 0
-18.506707 15.008566 -0.238793 23.828812 -0.681400 1.580818 0.090502 -0.041243 73967.800000 0 1 0
-19.411807 13.965266 -0.518493 23.918941 -0.623642 1.592475 0.084766 -0.030766 -1047440.000000 0 1 0
-20.297607 14.231766 -1.695793 24.847771 -0.611501 1.639097 0.061683 -0.022293 -961239.000000 0 1 0
-21.020307 13.118866 -2.174093 24.873372 -0.557955 1.658314 0.057312 -0.026515 990943.000000 0 1 0
-22.109507 12.623366 -1.373293 25.496384 -0.518783 1.624685 0.079507 -0.034023 839324.000000 0 0 1
-23.424007 13.460366 -1.075193 27.037411 -0.521563 1.610574 0.097348 -0.034367 420818.000000 0 0 1
-23.197307 14.631066 -0.326093 27.427896 -0.562704 1.582686 0.097833 -0.037010 591523.000000 0 0 1
-24.432607 15.177766 0.123907 28.763383 -0.555869 1.566488 0.082937 -0.025199 239705.000000 0 0 1
-24.194007 16.628066 0.694407 29.365367 -0.602138 1.547147 0.072788 -0.030381 20131.500000 0 0 1
-23.625907 16.626466 2.006107 28.959408 -0.613231 1.501468 0.076367 -0.029222 128139.000000 0 0 1
-23.602407 17.792766 2.802107 29.690199 -0.645963 1.476277 0.067521 -0.032128 -400446.000000 0 0 1
-24.935507 18.403466 3.226507 31.158906 -0.635804 1.467060 0.070942 -0.035241 -1374020.000000 0 0 1
-25.736957 17.631466 4.168407 31.474357 -0.600631 1.437968 0.076420 -0.035191 399819.000000 0 0 1
-27.004237 18.243866 4.284707 32.869837 -0.594157 1.440071 0.071533 -0.038287 -114064.000000 0 0 1
-27.957767 18.175066 3.090607 33.489127 -0.576439 1.478378 0.091400 -0.034373 -1819440.000000 0 0 1
-29.234057 18.675666 3.384507 34.854920 -0.568484 1.473540 0.086928 -0.034878 -109308.000000 0 0 1
-30.062967 18.641866 2.254407 35.445500 -0.555064 1.507151 0.086631 -0.026391 67445.000000 0 0 1
-31.317587 19.548766 2.357807 36.993307 -0.558031 1.507017 0.093255 -0.033288 -134283.000000 0 0 1
-32.480987 18.909866 2.837107 37.691468 -0.527215 1.495453 0.102754 -0.028147 70748.700000 0 0 1
-33.574697 19.806166 2.763007 39.079134 -0.532970 1.500034 0.104159 -0.024162 59703.900000 0 0 1
-34.040877 20.557566 4.060307 39.973503 -0.543288 1.469046 0.090914 -0.024228 -219620.000000 0 0 1
-33.143127 21.588766 4.446307 39.803409 -0.577345 1.458856 0.092294 -0.032187 489837.000000 0 0 1
-33.555507 22.154466 5.659707 40.605723 -0.583536 1.430959 0.083864 -0.031274 -257022.000000 0 0 1
-32.500267 23.094366 6.249207 40.356780 -0.617798 1.415322 0.094177 -0.039655 -228216.000000 0 0 1
-32.534867 24.307236 5.524407 40.986319 -0.641651 1.435598 0.086638 -0.032889 476518.000000 0 0 1
-31.426427 25.145686 5.782207 40.661527 -0.674829 1.428109 0.079643 -0.034386 -266701.000000 0 0 1
-31.813697 26.568056 5.531507 41.815912 -0.695788 1.438125 0.080384 -0.027081 -508514.000000 0 0 1
-32.542787 26.984906 6.693707 42.802148 -0.692302 1.413765 0.093000 -0.022209 60165.700000 0 0 1
-32.968697 28.304836 6.500907 43.935868 -0.709429 1.422287 0.081518 -0.015027 -560142.000000 0 0 1
-34.148812 28.654696 7.389007 45.186617 -0.698139 1.406537 0.072150 -0.009317 -1047620.000000 0 0 1
-33.692187 28.923156 8.684207 45.245197 -0.709381 1.377661 0.079145 -0.020080 173473.000000 0 0 1
-34.615986 29.495356 9.607707 46.481723 -0.705696 1.362597 0.076631 -0.014257 203943.000000 0 0 1
-35.875169 28.681346 9.987907 47.004315 -0.674421 1.356675 0.067602 -0.017034 -58137.400000 0 0 1
-35.481039 27.586106 10.729907 46.206366 -0.660863 1.336440 0.076111 -0.022235 876522.000000 0 0 1
-36.565307 27.076946 11.540707 46.940075 -0.637399 1.322389 0.075582 -0.020793 617517.000000 0 0 1
-36.077777 25.848206 12.301807 46.055078 -0.621686 1.300403 0.108693 -0.017064 111317.000000 0 0 1
-34.983048 25.978516 13.188207 45.526099 -0.638750 1.276899 0.121602 -0.026788 182311.000000 0 0 1
-34.614912 24.782336 13.847107 44.767161 -0.621347 1.256325 0.134077 -0.026780 -573580.000000 0 0 1
-33.423037 25.110316 14.734607 44.325343 -0.644325 1.231929 0.125194 -0.034426 -543769.000000 0 0 1
-33.648157 26.034396 15.754807 45.367413 -0.658513 1.216136 0.116784 -0.037614 301924.000000 0 0 1
-32.411527 26.427186 16.332307 44.895963 -0.684039 1.198472 0.136325 -0.029807 448874.000000 0 0 1
-32.687557 27.639076 17.273707 46.160328 -0.701907 1.187250 0.127671 -0.025892 13996.600000 0 0 1
-33.067207 28.849646 16.595507 46.916448 -0.717387 1.209246 0.129263 -0.018239 209583.000000 0 0 1
-32.905877 29.881076 17.512407 47.774050 -0.737260 1.195479 0.106461 -0.016223 -56314.700000 0 0 1
-32.645397 31.234326 16.823407 48.211327 -0.763312 1.214344 0.090065 -0.013011 1904240.000000 0 0 1
-31.238337 31.441316 16.450707 47.275954 -0.788636 1.215389 0.076570 -0.006273 1513020.000000 0 0 1
-31.070527 32.682996 15.839107 47.795744 -0.810685 1.233018 0.065350 0.003931 -137988.000000 0 0 1
-29.665037 32.857787 15.218007 46.810643 -0.836419 1.239682 0.083742 -0.005568 71220.700000 0 0 1
-29.360257 32.093956 14.048407 45.710004 -0.829852 1.258402 0.077562 -0.003691 143408.000000 0 0 1
-28.913747 30.742936 14.389907 44.589262 -0.816050 1.242193 0.080845 -0.004868 490726.000000 0 0 1
-30.007927 29.658536 14.026607 44.461783 -0.779542 1.249839 0.103732 -0.008075 734200.000000 0 0 1
-30.123517 29.392306 12.673307 43.953915 -0.773113 1.278312 0.104482 -0.017992 -163204.000000 0 0 1
-31.008907 28.333866 12.382307 43.791344 -0.740351 1.284129 0.101957 -0.019778 177253.000000 0 0 1
-31.206737 28.226396 10.845207 43.453520 -0.735294 1.318548 0.101680 -0.015898 872888.000000 0 0 1
-29.999387 27.716436 10.233207 42.105612 -0.745864 1.325301 0.081392 -0.007884 773569.000000 0 0 1
-30.021217 27.890046 8.839007 41.919640 -0.748614 1.358346 0.080014 -0.014490 289628.000000 0 0 1
-28.956837 26.975656 8.172207 40.410016 -0.749992 1.367160 0.079833 -0.017212 486041.000000 0 0 1
-28.655737 27.262356 6.763707 40.126488 -0.760485 1.401428 0.072085 -0.024178 -327901.000000 0 0 1
-27.747477 26.327926 6.240507 38.755981 -0.759153 1.409072 0.060285 -0.018635 -228180.000000 0 0 1
-27.351427 26.724746 4.777207 38.537440 -0.773810 1.446514 0.048118 -0.014646 -362926.000000 0 0 1
-26.463457 27.803316 4.656507 38.665514 -0.810083 1.450073 0.039596 -0.010727 74914.700000 0 0 1
-26.364917 28.304496 3.287807 38.820909 -0.820862 1.486003 0.035710 -0.015049 -890319.000000 0 0 1
-25.482597 29.481676 3.001607 39.083777 -0.858028 1.493921 0.034342 -0.015309 -622780.000000 0 0 1
-24.139807 29.076776 3.108707 37.919035 -0.877905 1.488721 0.031039 -0.006326 -105010.000000 0 0 1
-23.213407 30.148386 2.931407 38.162555 -0.914635 1.493907 0.032342 -0.006758 -115905.000000 0 0 1
-21.771707 29.677686 3.032507 36.931942 -0.937871 1.488593 0.031936 -0.014218 -485310.000000 0 0 1
-20.767607 30.657996 2.848107 37.139170 -0.975402 1.494034 0.034425 -0.024661 -930171.000000 0 0 1
-19.563507 30.019076 3.113107 35.966195 -0.993225 1.484131 0.051690 -0.026675 -158643.000000 0 0 1
-18.284907 30.851486 2.770207 35.969793 -1.035780 1.493705 0.056049 -0.033197 392345.000000 0 0 1
-18.130607 32.073616 3.462307 37.005720 -1.056297 1.477098 0.063880 -0.033527 81531.300000 0 0 1
-16.990907 32.668730 2.849607 36.933143 -1.091201 1.493564 0.074357 -0.023095 142543.000000 0 0 1
-16.497907 33.921246 3.585207 37.890441 -1.118121 1.476034 0.085398 -0.032017 -222056.000000 0 0 1
-17.435207 -33.276452 3.515107 37.731481 1.088173 1.477500 0.083282 -0.039444 217613.000000 0 0 1
-17.157907 -32.394492 4.614307 36.947107 1.083707 1.445580 0.084106 -0.035315 -137730.000000 0 0 1
-18.306707 -31.415762 4.893807 36.688349 1.043177 1.437009 0.083667 -0.030291 -411640.000000 0 0 1
-18.323407 -30.240812 4.112307 35.597262 1.026038 1.455015 0.082550 -0.014578 -268600.000000 0 0 1
-19.230707 -29.304972 4.561607 35.346991 0.990056 1.441383 0.091955 -0.013690 -670597.000000 0 0 1
-19.789507 -28.267242 3.549907 34.688087 0.960012 1.468279 0.054719 -0.021526 -58460.300000 0 0 1
-18.944507 -27.222862 3.111107 33.311523 0.962824 1.477266 0.051346 -0.014369 -40777.900000 0 0 1
-19.557907 -26.503982 2.052507 33.002812 0.935069 1.508564 0.037957 -0.005750 100414.000000 0 0 1
-18.729507 -25.259842 1.766207 31.495611 0.932774 1.514689 0.057288 -0.007117 1044510.000000 0 0 1
-17.452007 -25.561002 1.175107 30.972863 0.971735 1.532847 0.078895 -0.011584 489615.000000 0 0 1
-16.552907 -24.477232 1.018907 29.566396 0.976183 1.536328 0.080264 -0.007065 399245.000000 0 0 1
-15.281907 -24.865532 0.236107 29.187105 1.019724 1.562707 0.084011 -0.012095 -217038.000000 0 0 1
-15.410807 -25.056332 -1.174493 29.439636 1.019387 1.610702 0.068231 -0.014822 -52870.300000 0 0 1
-15.552607 -23.874932 -1.931793 28.559198 0.993424 1.638490 0.099050 -0.022315 -381642.000000 0 0 1
-15.601607 -24.089532 -3.465593 28.908926 0.996074 1.690965 0.054212 -0.020854 -132204.000000 0 0 1
-14.384807 -24.359432 -4.128193 28.589274 1.037374 1.715699 0.079303 -0.019175 -94197.800000 0 0 1
-14.597307 -24.447732 -5.531793 29.006442 1.032525 1.762681 0.052419 -0.016846 -274958.000000 0 0 1
-13.309907 -24.728132 -6.290793 28.778607 1.077019 1.791168 0.074306 -0.021235 -101050.000000 0 0 1
-12.891607 -26.101862 -6.317093 29.789367 1.112044 1.784477 0.060561 -0.022952 225441.000000 0 0 1
-11.652207 -26.244592 -7.007293 29.557650 1.152956 1.810147 0.067830 -0.024873 267718.000000 0 0 1
23.298393 12.503268 28.225183 38.675674 0.492542 0.752779 0.029453 0.000268 -366613.000000 0 0 1
23.976093 11.278068 28.220023 38.709399 0.439679 0.753904 0.024833 -0.002062 113000.000000 0 0 1
23.585493 10.349268 29.221493 38.952259 0.413499 0.722451 0.037355 -0.008182 -386810.000000 0 0 1
23.736793 10.754668 30.736363 40.296678 0.425412 0.703239 0.043559 -0.000143 415745.000000 0 0 1
22.737993 11.703468 31.152953 40.305012 0.475346 0.687350 0.042244 0.006499 550738.000000 0 0 1
23.099593 12.214868 32.428283 41.645981 0.486415 0.678260 0.043589 -0.000503 -443965.000000 0 0 1
22.220193 13.348968 32.993222 41.958130 0.540977 0.665939 0.037773 0.002896 -409896.000000 0 0 1
20.970493 12.829268 33.363247 41.442224 0.549034 0.635029 0.053629 0.004969 -310749.000000 0 0 1
20.172493 13.751268 34.070473 41.914484 0.598327 0.621756 0.050667 0.004375 463592.000000 0 0 1
18.895693 13.067668 -33.569163 40.678002 0.605045 2.541425 0.051231 0.009435 845798.000000 0 0 1
17.787893 12.722268 33.824255 40.278350 0.620868 0.573950 0.051907 0.005992 -120964.000000 0 0 1
16.793893 12.195668 -33.615593 39.506673 0.628092 2.588462 0.045296 0.003923 -1113770.000000 0 0 1
15.447893 12.194068 33.910554 39.207887 0.668224 0.525863 0.042124 0.009830 -481577.000000 0 0 1
15.414993 11.146568 32.991016 38.082478 0.626061 0.523041 0.045950 0.014842 -265742.000000 0 0 1
14.106893 10.857468 32.563539 37.111631 0.655963 0.500280 0.048293 0.013857 -128279.000000 0 0 1
13.920893 9.785468 31.490383 35.793727 0.612692 0.495410 0.055631 0.012320 -129840.000000 0 0 1
14.109393 8.459868 32.041133 36.017753 0.540119 0.474343 0.031323 0.006771 380030.000000 0 0 1
14.969093 7.760568 31.124803 35.398496 0.478290 0.496471 0.027543 -0.010120 227827.000000 0 0 1
15.282993 6.314368 31.530883 35.603900 0.391802 0.483008 0.055508 -0.015727 -460527.000000 0 0 1
14.273593 5.365568 31.502303 34.998856 0.359567 0.450808 0.054205 -0.013268 -562159.000000 0 0 1
14.747793 4.175568 32.130363 35.599059 0.275910 0.445113 0.047582 -0.020373 174079.000000 0 0 1
13.758993 3.000668 32.179013 35.125529 0.214726 0.412517 0.028574 -0.010852 -43044.200000 0 0 1
14.422793 1.908768 32.758120 35.843476 0.131579 0.417954 0.027382 -0.012196 226022.000000 0 0 1
13.490693 0.876068 33.041095 35.699864 0.064848 0.388378 0.030003 -0.015662 -50127.600000 0 0 1
14.110193 -0.397132 33.601487 36.446059 -0.028138 0.397708 0.019603 -0.018938 -371247.000000 0 0 1
14.503193 -1.340032 32.637284 35.739762 -0.092134 0.419746 0.024828 -0.012896 196319.000000 0 0 1
14.994293 -2.581232 33.197984 36.518457 -0.170477 0.429740 0.040915 -0.017829 -273253.000000 0 0 1
15.033293 -3.789632 32.248859 35.781981 -0.246938 0.448128 0.045054 -0.019333 -1250510.000000 0 0 1
15.320393 -5.079332 32.860855 36.610789 -0.320136 0.456563 0.053006 -0.023845 1479820.000000 0 0 1
16.676493 -5.229632 33.359106 37.660117 -0.303880 0.482594 0.046503 -0.025643 1495980.000000 0 0 1
17.933693 -4.889432 32.496621 37.437338 -0.266170 0.519582 0.047276 -0.025843 -507277.000000 0 0 1
18.017593 -3.498632 32.357769 37.200797 -0.191792 0.515971 0.038867 -0.027915 275974.000000 0 0 1
19.153193 -3.172632 31.547323 37.042462 -0.164155 0.551665 0.055232 -0.039413 323296.000000 0 0 1
19.184793 -1.732132 31.084393 36.569059 -0.090043 0.554775 0.057879 -0.039775 -373592.000000 0 0 1
19.096693 -0.999532 32.291004 37.528545 -0.052293 0.534667 0.042054 -0.031562 148825.000000 0 0 1
18.955293 0.408968 32.075403 37.259923 0.021572 0.533848 0.036384 -0.023010 27715.600000 0 0 1
20.187293 1.197168 31.548333 37.473422 0.059234 0.570029 0.061675 -0.029550 112983.000000 0 0 1
20.701493 0.936368 30.197013 36.623602 0.045201 0.601437 0.073506 -0.032841 938446.000000 0 0 1
21.727693 1.847068 29.718903 36.860786 0.084806 0.633016 0.076325 -0.033710 633927.000000 0 0 1
21.225793 3.300168 29.499993 36.492122 0.154244 0.629379 0.075711 -0.026420 -356290.000000 0 0 1
20.979393 4.041868 30.685723 37.390978 0.190327 0.608210 0.066165 -0.030867 692466.000000 0 0 1
20.151393 5.216168 30.562583 36.977811 0.253290 0.597914 0.068298 -0.031831 -10117.700000 0 0 1
19.713993 5.762568 31.934573 37.969273 0.284386 0.571550 0.062143 -0.018791 57681.800000 0 0 1
18.829893 4.898868 32.647544 38.005604 0.254522 0.537446 0.050281 -0.013851 305413.000000 0 0 1
18.598393 5.411868 33.946826 39.084211 0.283167 0.518515 0.037874 -0.006107 -198249.000000 0 0 1
17.471193 4.739168 -33.500153 38.078373 0.264882 2.646171 0.045231 -0.008425 -332197.000000 0 0 1
17.745393 3.384068 -33.252873 37.843155 0.188439 2.643934 0.024843 -0.010221 -173557.000000 0 0 1
16.632693 2.659068 -32.774023 36.849066 0.158528 2.666855 0.024089 -0.009376 -141298.000000 0 0 1
16.836593 1.106768 -32.988183 37.052881 0.065641 2.668800 0.013782 -0.014085 -123801.000000 0 0 1
17.820893 0.521368 -32.152933 36.765026 0.029248 2.635308 -0.002039 -0.015220 172618.000000 0 0 1
17.950293 -0.871632 -32.338263 36.996432 -0.048520 2.634358 0.009652 -0.014030 -415464.000000 0 0 1
18.919593 -1.556732 -31.347093 36.647164 -0.082097 2.597072 0.007742 -0.015524 -137661.000000 0 0 1
18.449093 -1.664632 -30.007033 35.264175 -0.089985 2.588533 0.002829 -0.016418 348594.000000 0 0 1
18.541693 -0.417832 -29.261613 34.644060 -0.022531 2.576681 -0.006056 -0.002898 -204149.000000 0 0 1
18.395493 -0.478532 -27.727363 33.278068 -0.026008 2.555670 -0.000612 -0.008592 308474.000000 0 0 1
17.135993 -0.878932 -27.181153 32.143892 -0.051247 2.578501 0.005589 -0.010111 463286.000000 0 0 1
17.069593 -0.898932 -25.752653 30.909193 -0.052614 2.555614 0.010745 -0.018590 -252492.000000 0 0 1
17.762293 -2.078632 -25.046883 30.776063 -0.116495 2.521532 0.022722 -0.017711 -706145.000000 0 0 1
19.141593 -1.940232 -24.862693 31.437534 -0.101017 2.483010 0.025064 -0.014818 -799509.000000 0 0 1
19.756993 -3.189232 -25.080903 32.086783 -0.160042 2.468117 0.035497 -0.016291 291354.000000 0 0 1
20.410293 -3.299132 -26.524553 33.630584 -0.160254 2.479493 0.041790 -0.017742 190154.000000 0 0 1
21.679293 -2.664532 -26.658333 34.463867 -0.122293 2.455166 0.035941 -0.011956 123763.000000 0 0 1
21.927793 -2.521132 -28.027403 35.675194 -0.114472 2.474506 0.041650 -0.017203 386326.000000 0 0 1
23.403893 -2.119832 -28.316183 36.797311 -0.090330 2.448882 0.026791 -0.019768 339591.000000 0 0 1
24.300593 -3.166432 -28.082453 37.271561 -0.129573 2.424098 0.030369 -0.023510 509796.000000 0 0 1
25.666493 -2.772032 -28.292023 38.300020 -0.107585 2.401928 0.029505 -0.025750 1645440.000000 0 0 1
26.801693 -3.795532 -27.845963 38.834706 -0.140680 2.370340 0.041318 -0.025413 622398.000000 0 0 1
26.855993 -4.936932 -28.682183 39.601581 -0.181800 2.380769 0.062235 -0.036894 63035.800000 0 0 1
27.943993 -5.783732 -28.398673 40.259196 -0.204094 2.353778 0.058302 -0.038167 -319534.000000 0 0 1
27.788693 -6.813232 -27.220683 39.491735 -0.240437 2.331285 0.050497 -0.023755 -416788.000000 0 0 1
27.811693 -6.192632 -25.968583 38.551345 -0.219089 2.309879 0.039566 -0.007862 314374.000000 0 0 1
27.440093 -7.089232 -24.917693 37.737346 -0.252825 2.292005 0.023402 -0.004507 -225625.000000 0 0 1
27.634593 -6.606832 -23.466393 36.850950 -0.234673 2.261127 0.008316 0.008922 499170.000000 0 0 1
29.014693 -6.417232 -23.130993 37.657351 -0.217668 2.232230 0.008772 0.009613 902518.000000 0 0 1
29.157893 -5.943932 -21.763993 36.867118 -0.201098 2.202272 0.013090 0.004522 48782.400000 0 0 1
30.612593 -5.595032 -21.356993 37.743295 -0.180774 2.172258 0.040045 0.002229 -50244.900000 0 0 1
30.918593 -4.321532 -21.997593 38.190694 -0.138872 2.184615 0.046433 -0.003586 -683973.000000 0 0 1
32.217093 -3.939432 -21.722493 39.055433 -0.121674 2.160598 0.062840 -0.006216 -693616.000000 0 0 1
32.609293 -2.598232 -22.381593 39.636504 -0.079510 2.170831 0.071515 -0.012746 274069.000000 0 0 1
31.877193 -1.491332 -21.848593 38.674804 -0.046750 2.171146 0.057641 -0.013224 468613.000000 0 0 1
32.356493 -0.285032 -22.453093 39.384835 -0.008809 2.177418 0.062544 -0.008982 173213.000000 0 0 1
31.295893 0.844568 -22.363393 38.474245 0.026980 2.191068 0.054941 -0.003162 168197.000000 0 0 1
30.176893 0.634068 -23.226493 38.085652 0.021009 2.226666 0.036245 0.001290 236813.000000 0 0 1
29.183093 1.528868 -22.799593 37.064967 0.052341 2.233341 0.033319 0.004762 -192117.000000 0 0 1
27.859993 1.525368 -23.614193 36.553195 0.054697 2.273159 0.022511 0.005501 56471.700000 0 0 1
27.072293 2.671868 -23.319693 35.830936 0.098375 2.279468 0.024231 0.007343 1328.020000 0 0 1
26.014793 2.721868 -24.251393 35.669427 0.104248 2.318413 0.030928 0.008171 -203786.000000 0 0 1
24.993493 3.836268 -23.934793 34.817609 0.152302 2.328746 0.034831 0.008929 -236647.000000 0 0 1
25.531793 5.175068 -24.096193 35.486339 0.199982 2.317233 0.039050 0.012990 153484.000000 0 0 1
24.596893 6.195468 -23.839593 34.809728 0.246747 2.325200 0.052614 -0.003149 -98821.600000 0 0 1
25.182293 7.516768 -23.229593 35.075114 0.290075 2.294656 0.070795 -0.010037 -146975.000000 0 0 1
25.973793 8.290868 -24.071493 36.370498 0.308978 2.294068 0.067562 -0.001703 -187253.000000 0 0 1
26.231993 9.513368 -23.420293 36.429819 0.347911 2.269059 0.081970 -0.010554 -99988.500000 0 0 1
27.149093 10.475968 -24.228093 37.865811 0.368265 2.265087 0.111994 -0.011501 -97589.700000 0 0 1
26.688493 10.846368 -25.518423 38.485182 0.386017 2.295711 0.107869 -0.016349 505634.000000 0 0 1
25.491793 11.631368 -25.488093 37.878267 0.428063 2.308912 0.114527 -0.018769 499176.000000 0 0 1
24.903693 11.927568 -26.902723 38.551489 0.446664 2.343172 0.097068 -0.020854 98644.200000 0 0 1
24.385793 10.745068 -27.592163 38.359494 0.415033 2.373597 0.079772 -0.015314 160319.000000 0 0 1
25.346593 9.873968 -28.116043 39.121054 0.371472 2.372718 0.074809 -0.015653 -127560.000000 0 0 1
26.059293 10.318468 -29.423943 40.636510 0.377020 2.380491 0.064323 -0.012563 -358221.000000 0 0 1
26.840093 11.545168 -29.356303 41.418281 0.406222 2.358559 0.055113 -0.003323 1135420.000000 0 0 1
27.726693 11.799468 -30.466773 42.851151 0.402348 2.361702 0.045932 0.005604 762346.000000 0 0 1
28.779093 10.745268 -30.891083 43.565536 0.357341 2.358977 0.040606 -0.001432 -302877.000000 0 0 1
28.161993 9.648268 -31.609913 43.420888 0.330066 2.386180 0.037947 -0.003266 431382.000000 0 0 1
29.123393 8.675568 -31.955923 44.097828 0.289520 2.381337 0.035927 -0.002922 -21282.800000 0 0 1
28.542793 7.613968 -32.900453 44.216550 0.260686 2.409946 0.045682 0.002499 469569.000000 0 0 1
27.412093 6.927968 -32.323703 42.944631 0.247550 2.422924 0.058044 -0.001297 475938.000000 0 0 1
27.060493 5.946468 -33.280503 43.303840 0.216309 2.447344 0.068620 -0.007767 -716589.000000 0 0 1
25.984193 4.920468 -32.935323 42.238901 0.187148 2.465045 0.054388 -0.011873 -652477.000000 0 0 1
24.675493 5.386368 -32.896983 41.474141 0.214917 2.486830 0.062839 -0.008112 -557004.000000 0 0 1
24.291093 5.963068 -31.636593 40.329758 0.240724 2.472602 0.063496 0.000354 -135688.000000 0 0 1
22.754193 6.205168 -31.705783 39.515997 0.266231 2.502024 0.045307 -0.004104 229107.000000 0 0 1
22.380893 7.255068 -32.588553 40.193956 0.313475 2.516284 0.057011 0.001156 345871.000000 0 0 1
21.095693 7.774868 -32.255973 39.318248 0.353106 2.532875 0.061728 -0.002709 392638.000000 0 0 1
20.546693 8.938168 -33.125443 39.991904 0.410325 2.546870 0.055302 -0.002685 -217766.000000 0 0 1
19.897993 8.585968 33.924805 40.255948 0.407363 0.568466 0.065149 -0.004864 39561.500000 0 0 1
19.742793 9.730668 33.119371 39.766274 0.457929 0.586558 0.050487 -0.002827 508226.000000 0 0 1
18.684093 9.575868 31.953723 38.233925 0.473609 0.581312 0.044977 0.000761 565724.000000 0 0 1
19.123693 8.797568 30.845713 37.343954 0.431168 0.598841 0.048022 -0.013031 -85120.900000 0 0 1
20.105793 9.318468 29.985393 37.285393 0.434000 0.636446 0.056328 -0.013894 -612326.000000 0 0 1
19.527393 10.160868 28.824343 36.268514 0.479786 0.652203 0.050617 -0.011412 682162.000000 0 0 1
18.662193 9.425268 27.885863 34.853041 0.467676 0.643337 0.053469 -0.007830 458408.000000 0 0 1
17.316093 9.657768 28.196883 34.470042 0.508761 0.612851 0.061801 -0.011240 -93848.200000 0 0 1
16.243093 8.841268 27.386413 33.045752 0.498464 0.593940 0.071639 -0.011787 127542.000000 0 0 1
16.120793 9.198268 25.967753 31.918839 0.518509 0.620555 0.072957 -0.010087 558857.000000 0 0 1
15.019593 8.613168 25.245483 30.612240 0.520678 0.601150 0.086671 -0.007905 574735.000000 0 0 1
14.948193 7.072268 25.086703 30.046766 0.441912 0.582805 0.075215 -0.007090 -163910.000000 0 0 1
14.802293 6.401668 26.317733 30.866038 0.408188 0.549772 0.062658 -0.013372 -85388.400000 0 0 1
14.578593 5.040068 26.183923 30.389727 0.332854 0.532374 0.068048 -0.021952 -63589.400000 0 0 1
14.953993 4.294068 27.498293 31.594573 0.279628 0.514886 0.060256 -0.026236 297124.000000 0 0 1
16.345793 4.406968 27.803623 32.552232 0.263347 0.546933 0.061762 -0.017962 457045.000000 0 0 1
16.793293 3.887468 29.054923 33.783364 0.227482 0.535455 0.055370 -0.021925 -7809.490000 0 0 1
17.580893 2.562168 28.945083 33.962779 0.144717 0.550508 0.068472 -0.025991 -293548.000000 0 0 1
16.779393 1.433568 28.716753 33.290465 0.085229 0.530386 0.063546 -0.034026 431444.000000 0 0 1
16.023093 0.867468 29.801123 33.846698 0.054086 0.493936 0.046657 -0.023579 354039.000000 0 0 1
15.656493 -0.695032 29.687483 33.570158 -0.044363 0.485715 0.055352 -0.026910 590140.000000 0 0 1
14.734193 -1.162432 28.658923 32.245644 -0.078730 0.476144 0.047594 -0.022375 902659.000000 0 0 1
15.270593 -1.115132 27.357523 31.350735 -0.072895 0.510239 0.060582 -0.024240 -800237.000000 0 0 1
16.350093 -2.141532 26.885393 31.539437 -0.130238 0.550167 0.057808 -0.027444 187250.000000 0 0 1
17.650493 -2.132432 27.408333 32.669617 -0.120232 0.575437 0.058944 -0.031280 58425.600000 0 0 1
18.353293 -0.916232 27.117463 32.757284 -0.049881 0.595568 0.061872 -0.029713 -1592640.000000 0 0 1
19.786893 -0.923932 27.606253 33.977640 -0.046660 0.622398 0.087930 -0.029963 -87000.000000 0 0 1
20.736193 -1.799132 26.982613 34.077676 -0.086546 0.657050 0.069884 -0.027287 63632.200000 0 0 1
22.039193 -1.469132 27.379453 35.178386 -0.066561 0.678837 0.064089 -0.028316 -311890.000000 0 0 1
23.228493 -1.930232 26.543193 35.324634 -0.082907 0.720604 0.068478 -0.022126 -533569.000000 0 0 1
23.370193 -1.429332 25.195503 34.395091 -0.061084 0.748762 0.066393 -0.011969 97579.800000 0 0 1
22.468193 -2.041432 24.309163 33.165080 -0.090610 0.748112 0.075652 -0.004576 -184610.000000 0 0 1
22.640493 -1.434232 22.889253 32.226803 -0.063264 0.780936 0.064441 -0.024805 -44164.000000 0 0 1
21.940593 -0.194232 22.864453 31.689282 -0.008852 0.764801 0.065034 -0.018007 177398.000000 0 0 1
21.482493 0.120668 21.582653 30.451978 0.005617 0.783080 0.052790 -0.006240 35143.300000 0 0 1
-30.839147 -27.208129 -10.129893 42.355047 0.722927 1.812303 0.025236 0.005710 282270.000000 0 0 1
-30.517077 -26.105729 -9.226393 41.205915 0.707648 1.796620 0.033358 0.006186 -164323.000000 0 0 1
-31.176907 -26.354029 -8.009093 41.601442 0.701763 1.764525 0.059789 -0.002287 -73092.100000 0 0 1
-31.520367 -25.017429 -7.184093 40.878069 0.670882 1.747458 0.078214 -0.009809 855578.000000 0 0 1
-30.356617 -24.331529 -6.665293 39.471175 0.675669 1.740474 0.052665 -0.011288 170679.000000 0 0 1
-29.727577 -25.003229 -5.619393 39.248795 0.699292 1.714464 0.063776 -0.013037 281274.000000 0 0 1
-28.447897 -24.270929 -5.105193 37.741540 0.706332 1.706479 0.054303 -0.011434 -125311.000000 0 0 1
-28.548767 -23.156629 -4.207393 36.999510 0.681488 1.684758 0.052533 -0.011215 54695.900000 0 0 1
-29.155847 -21.920629 -4.726393 36.782009 0.644680 1.699650 0.059623 -0.015442 61218.300000 0 0 1
-29.194127 -20.719429 -3.759793 35.996220 0.617215 1.675437 0.061092 -0.014549 -160638.000000 0 0 1
-27.992527 -19.993729 -3.651593 34.592845 0.620227 1.676553 0.061468 -0.028325 -100821.000000 0 0 1
-28.173007 -18.883929 -2.823893 34.033740 0.590503 1.653865 0.070873 -0.018928 174380.000000 0 0 1
-27.054907 -17.808129 -2.869693 32.516651 0.582133 1.659164 0.073389 -0.014770 332260.000000 0 0 1
-27.284027 -17.062529 -4.031493 32.431481 0.558863 1.695427 0.087389 -0.025297 228106.000000 0 0 1
-26.472417 -15.889129 -4.074593 31.142505 0.540577 1.702010 0.089323 -0.024642 59764.500000 0 0 1
-26.751757 -14.931429 -5.248493 31.082966 0.509077 1.740463 0.086056 -0.033244 776167.000000 0 0 1
-28.094047 -14.412729 -5.236793 32.006659 0.474007 1.735151 0.078057 -0.028711 701320.000000 0 0 1
-28.321187 -13.357629 -6.125693 31.906739 0.440710 1.763983 0.098935 -0.044276 -181175.000000 0 0 1
-29.777357 -12.874229 -6.124493 33.014333 0.408079 1.757387 0.101573 -0.035353 -204612.000000 0 0 1
-30.734317 -13.770029 -6.656193 34.329533 0.421218 1.765923 0.108409 -0.034966 605926.000000 0 0 1
-32.026627 -13.224629 -6.349993 35.226667 0.391600 1.752048 0.103583 -0.033218 227454.000000 0 0 1
-33.207077 -13.895229 -7.058993 36.682649 0.396303 1.764438 0.070008 -0.031380 -263143.000000 0 0 1
-33.733167 -15.047829 -6.368993 37.482367 0.419593 1.741545 0.063004 -0.036135 207860.000000 0 0 1
-33.957517 -16.058929 -7.341393 38.273989 0.441744 1.763804 0.071038 -0.027313 -1062270.000000 0 0 1
-34.887655 -17.146129 -6.810293 39.465407 0.456798 1.744228 0.057096 -0.030761 52209.000000 0 0 1
-36.268677 -16.832829 -6.844193 40.566046 0.434530 1.740324 0.044296 -0.037765 8411.830000 0 0 1
-36.651317 -16.072429 -5.749493 40.431407 0.413268 1.713484 0.061263 -0.040484 -60331.500000 0 0 1
35.152941 -15.993129 -5.465593 39.004899 -0.426970 1.711385 0.083855 -0.045294 302949.000000 0 0 1
34.462181 -15.251429 -6.451993 38.234490 -0.416646 1.740356 0.098798 -0.045504 488678.000000 0 0 1
33.050031 -15.117629 -6.431993 36.908235 -0.429004 1.745961 0.091398 -0.044156 684758.000000 0 0 1
32.360861 -14.535629 -5.140093 35.845926 -0.422166 1.714686 0.109378 -0.048040 -699106.000000 0 0 1
32.326701 -15.390329 -4.012593 36.027472 -0.444335 1.682404 0.110006 -0.051248 228792.000000 0 0 1
31.907571 -14.731329 -2.864093 35.260576 -0.432531 1.652112 0.117262 -0.045037 -727470.000000 0 0 1
32.228671 -15.497129 -1.522393 35.793378 -0.448210 1.613342 0.120049 -0.038157 33004.000000 0 0 1
33.596081 -15.657129 -1.158493 37.083480 -0.436113 1.602042 0.136365 -0.032511 546103.000000 0 0 1
34.362841 -16.566229 -1.937893 38.196862 -0.449223 1.621552 0.121879 -0.030431 -578680.000000 0 0 1
33.818101 -18.005329 -2.090093 38.369576 -0.489244 1.625296 0.128843 -0.036917 -1035130.000000 0 0 1
34.116951 -18.941529 -1.052393 39.036591 -0.506822 1.597759 0.125401 -0.041224 98711.000000 0 0 1
34.090281 -20.347029 -1.403093 39.725528 -0.538105 1.606123 0.105535 -0.031806 562417.000000 0 0 1
35.290831 -20.865029 -2.281393 41.060893 -0.533947 1.626386 0.099907 -0.035114 454083.000000 0 0 1
35.185851 -20.333429 -3.542593 40.792676 -0.524001 1.657750 0.084613 -0.046686 -343625.000000 0 0 1
36.219421 -20.588129 -4.451093 41.899043 -0.516881 1.677231 0.103026 -0.043047 -454950.000000 0 0 1
36.025971 -19.737829 -5.706493 41.473082 -0.501212 1.708829 0.112845 -0.047551 -774009.000000 0 0 1
34.908941 -20.074129 -6.428493 40.779043 -0.521866 1.729099 0.099418 -0.050467 -584395.000000 0 0 1
34.558411 -19.156529 -7.469393 40.212538 -0.506156 1.757629 0.097683 -0.057274 492516.000000 0 0 1
33.294121 -19.600529 -8.298893 39.516463 -0.532075 1.782383 0.114130 -0.063825 508859.000000 0 0 1
33.488271 -20.779029 -9.042293 40.435077 -0.555347 1.796328 0.121670 -0.060308 555554.000000 0 0 1
32.479591 -20.809429 -10.054193 39.862802 -0.569804 1.825770 0.123885 -0.062845 164919.000000 0 0 1
32.568771 -22.124529 -10.786093 40.823516 -0.596710 1.838184 0.118651 -0.049406 27425.600000 0 0 1
32.215271 -23.203929 -9.946593 40.928972 -0.624206 1.816275 0.118691 -0.048689 59498.400000 0 0 1
32.216011 -24.472529 -10.613793 41.826172 -0.649641 1.827361 0.087075 -0.033687 -487704.000000 0 0 1
31.411241 -25.445829 -9.694593 41.570920 -0.680861 1.806170 0.075519 -0.025973 601555.000000 0 0 1
30.096841 -24.922029 -9.490793 40.211970 -0.691619 1.809063 0.074697 -0.026362 700489.000000 0 0 1
29.162451 -25.983229 -9.167493 40.120066 -0.727811 1.801334 0.045221 -0.009690 1610040.000000 0 0 1
27.742521 -25.419829 -8.711093 38.622511 -0.741735 1.798298 0.025163 -0.009358 1221050.000000 0 0 1
26.982221 -25.124729 -9.858593 38.163911 -0.749766 1.832082 0.026882 -0.011850 152418.000000 0 0 1
25.765921 -24.427929 -9.591993 36.777884 -0.758748 1.834656 0.044125 -0.016828 952574.000000 0 0 1
24.802621 -24.080029 -10.804693 36.218216 -0.770617 1.873730 0.078249 -0.031010 102264.000000 0 0 1
24.177121 -25.234929 -11.307193 36.731287 -0.806803 1.883714 0.084317 -0.022682 -24117.000000 0 0 1
23.522021 -24.829929 -12.478093 36.407604 -0.812441 1.920621 0.107234 -0.010737 66337.400000 0 0 1
22.678621 -25.988729 -13.156393 36.916454 -0.853309 1.935190 0.113290 -0.020927 273520.000000 0 0 1
23.446721 -27.074729 -13.642593 38.326362 -0.857086 1.934736 0.119384 -0.015255 2293.420000 0 0 1
22.734221 -28.280129 -13.706493 38.787607 -0.893686 1.931971 0.116330 -0.020114 -95715.200000 0 0 1
23.647221 -29.441929 -14.218393 40.350724 -0.894118 1.930899 0.108553 -0.025748 103736.000000 0 0 1
23.981121 -29.304729 -15.585693 40.948445 -0.884974 1.961260 0.116733 -0.024315 318966.000000 0 0 1
24.404621 -30.535329 -16.112493 42.280070 -0.896528 1.961771 0.103898 -0.029265 -335001.000000 0 0 1
24.436121 -30.531329 -17.661493 42.909374 -0.895835 1.995005 0.093548 -0.024061 -327167.000000 0 0 1
23.103621 -30.424929 -18.070993 42.261264 -0.921329 2.012634 0.088143 -0.021495 -171677.000000 0 0 1
23.072121 -30.614629 -19.500493 43.009854 -0.924976 2.041368 0.061512 -0.010732 -312846.000000 0 0 1
21.686021 -30.231429 -20.009693 42.244652 -0.948532 2.064241 0.041187 -0.002737 -373435.000000 0 0 1
21.644121 -30.120329 -21.406393 42.824477 -0.947704 2.094237 0.023859 0.002851 159136.000000 0 0 1
20.305621 -30.156329 -21.871693 42.427507 -0.978184 2.112396 0.029630 -0.007089 -166919.000000 0 0 1
20.247421 -30.483929 -23.367293 43.419562 -0.984503 2.139066 0.023410 -0.006963 -480575.000000 0 0 1
20.760021 -29.390529 -24.158793 43.340846 -0.955821 2.162064 0.020906 -0.007621 354789.000000 0 0 1
20.652121 -29.543929 -25.572073 44.195981 -0.960721 2.187815 0.020117 -0.013866 -540219.000000 0 0 1
21.014521 -28.224029 -26.296893 43.928720 -0.930785 2.212582 0.024475 -0.016947 482157.000000 0 0 1
19.968321 -27.247629 -26.324153 42.826722 -0.938364 2.232759 0.035497 -0.024027 649426.000000 0 0 1
18.995521 -27.503329 -27.355523 43.192448 -0.966365 2.256658 0.070880 -0.028621 240777.000000 0 0 1
18.318321 -26.152329 -27.796593 42.333861 -0.959770 2.287104 0.072077 -0.032285 -161559.000000 0 0 1
17.420921 -25.676629 -26.825773 41.017068 -0.974664 2.283676 0.054193 -0.018994 -296211.000000 0 0 1
16.945421 -24.416429 -27.109723 40.227433 -0.964097 2.310286 0.047226 -0.013177 46373.100000 0 0 1
15.830021 -23.957329 -26.122583 38.819229 -0.986895 2.308958 0.057287 -0.013759 134407.000000 0 0 1
14.618521 -24.675329 -26.222273 38.861042 -1.035958 2.311450 0.091764 -0.031922 -757983.000000 0 0 1
13.589521 -24.272329 -25.384883 37.659173 -1.060402 2.310500 0.082758 -0.027808 -168240.000000 0 0 1
13.673221 -24.460129 -23.867993 36.809455 -1.061069 2.276304 0.078484 -0.021821 -472441.000000 0 0 1
14.623221 -23.602129 -23.265293 36.223928 -1.016110 2.268244 0.045795 -0.012595 -123142.000000 0 0 1
14.937521 -24.117629 -21.981993 35.888683 -1.016262 2.230022 0.045986 -0.013899 637405.000000 0 0 1
16.294121 -23.600629 -21.393593 35.779518 -0.966535 2.211711 0.040264 -0.014373 345891.000000 0 0 1
16.230921 -22.243029 -20.932193 34.588319 -0.940409 2.220789 0.030568 -0.020937 -720281.000000 0 0 1
17.454621 -21.798629 -20.469593 34.624388 -0.895616 2.203330 0.034899 -0.021387 -1221010.000000 0 0 1
17.459421 -20.349329 -19.914893 33.399544 -0.861685 2.209634 0.050967 -0.018170 732977.000000 0 0 1
16.577721 -20.076429 -18.778093 32.101411 -0.880562 2.195629 0.037585 -0.021820 966654.000000 0 0 1
15.206721 -19.935029 -19.123893 31.533681 -0.919145 2.222396 0.063516 -0.027645 357712.000000 0 0 1
14.215221 -20.066229 -17.891693 30.411161 -0.954445 2.199784 0.068070 -0.026598 359622.000000 0 0 1
14.223821 -18.935229 -17.059093 29.186857 -0.926539 2.195034 0.073130 -0.023616 56880.400000 0 0 1
13.417621 -19.081529 -15.916193 28.239379 -0.957944 2.169554 0.070342 -0.024342 -95733.100000 0 0 1
13.593121 -17.875329 -14.955993 26.981143 -0.920647 2.158333 0.072374 -0.021044 -469888.000000 0 0 1
12.625521 -16.889629 -15.226593 26.009854 -0.928877 2.196190 0.088385 -0.028674 137927.000000 0 0 1
12.791521 -15.708829 -14.503793 24.914862 -0.887403 2.192147 0.084752 -0.017562 -999844.000000 0 1 0
11.444221 -15.130529 -14.183093 23.686773 -0.923233 2.212769 0.073339 -0.009723 -921236.000000 0 1 0
10.736821 -14.611229 -15.305493 23.728157 -0.937073 2.271865 0.072674 -0.004875 -3570.050000 0 1 0
9.520821 -14.124129 -14.754193 22.534934 -0.977678 2.284616 0.071485 -0.006324 197142.000000 0 1 0
8.587721 -13.460129 -15.801593 22.463623 -1.002895 2.351009 0.054188 -0.003032 35500.800000 0 1 0
9.133621 -12.334929 -16.446893 22.496084 -0.933424 2.390730 0.047427 0.003851 274004.000000 0 1 0
10.075521 -12.617429 -17.486693 23.801262 -0.896946 2.396015 0.057167 0.006488 345166.000000 0 1 0
10.359921 -11.368629 -18.400493 23.982323 -0.831788 2.445342 0.054303 0.004291 204565.000000 0 1 0
9.274421 -11.103729 -19.278393 24.103197 -0.874926 2.497804 0.045173 -0.002816 319255.000000 0 1 0
9.519921 -9.927329 -20.042293 24.307905 -0.806344 2.540145 0.039033 -0.002949 51720.900000 0 1 0
9.066021 -10.118829 -21.485593 25.420742 -0.840220 2.577734 0.036541 -0.004013 -185010.000000 0 0 1
10.073221 -10.697529 -22.252893 26.666424 -0.815446 2.558005 0.050713 -0.000792 -404264.000000 0 0 1
9.783921 -10.575229 -23.623993 27.670447 -0.824246 2.593966 0.064132 0.001792 142730.000000 0 0 1
10.840821 -11.375829 -24.426393 29.044475 -0.809475 2.569924 0.090460 -0.003222 6887.960000 0 0 1
10.838021 -12.786129 -24.263293 29.489916 -0.867675 2.537056 0.091093 -0.007411 415097.000000 0 0 1
12.001921 -13.409729 -24.824493 30.661415 -0.840742 2.514323 0.085441 -0.017819 502111.000000 0 0 1
12.010721 -14.902229 -24.434193 31.038100 -0.892427 2.477104 0.081011 -0.024065 11431.700000 0 0 1
10.904721 -15.628729 -24.925893 31.376269 -0.961592 2.488846 0.085829 -0.029161 -181273.000000 0 0 1
10.904021 -16.983329 -24.599793 31.819506 -1.000035 2.454517 0.096014 -0.032710 -102205.000000 0 0 1
9.745221 -17.767929 -25.224553 32.356556 -1.069127 2.464793 0.094114 -0.033951 -65884.100000 0 0 1
9.948521 -18.419629 -26.485523 33.760017 -1.075582 2.472723 0.089851 -0.040745 77395.200000 0 0 1
8.814321 -19.218029 -26.805073 34.139959 -1.140774 2.473739 0.094291 -0.035592 83512.200000 0 0 1
9.051121 -20.118929 -28.043063 35.680631 -1.148041 2.475022 0.078875 -0.039201 423212.000000 0 0 1
10.141421 -21.077829 -27.915793 36.419978 -1.122349 2.444165 0.077743 -0.041552 781275.000000 0 0 1
9.830921 -22.160929 -28.791123 37.638843 -1.153265 2.441731 0.076132 -0.031821 87301.500000 0 0 1
10.609321 -23.444829 -28.455223 38.365576 -1.145846 2.406377 0.067547 -0.029430 26639.300000 0 0 1
10.479121 -24.462829 -29.436463 39.683086 -1.166075 2.406530 0.065493 -0.027606 -50132.400000 0 0 1
11.175021 -25.667129 -29.177733 40.435414 -1.160164 2.376890 0.079255 -0.025579 103487.000000 0 0 1
10.479321 -26.556029 -28.148453 40.092072 -1.194944 2.349132 0.091446 -0.023480 -40211.400000 0 0 1
10.957621 -26.346529 -26.841773 39.175117 -1.176655 2.325639 0.108373 -0.034405 -246488.000000 0 0 1
10.032821 -26.521729 -25.768843 38.315700 -1.209147 2.308432 0.105488 -0.034446 358411.000000 0 0 1
9.128621 -25.320729 -25.451793 37.044093 -1.224781 2.328242 0.098201 -0.028789 -46400.300000 0 0 1
9.877721 -24.324929 -24.852893 36.151595 -1.185065 2.328786 0.098102 -0.024252 -828197.000000 0 0 1
9.126221 -23.220029 -24.493393 34.962608 -1.196311 2.346978 0.102421 -0.035497 -578970.000000 0 0 1
9.874521 -21.857429 -24.335893 34.168539 -1.146472 2.363468 0.115406 -0.040237 13883.700000 0 0 1
10.619721 -21.796329 -23.146193 33.520213 -1.117421 2.332996 0.120549 -0.034210 -366785.000000 0 0 1
11.694721 -20.912729 -23.321793 33.436728 -1.060905 2.342686 0.098103 -0.029497 309119.000000 0 0 1
12.637721 -20.760929 -22.028793 32.802376 -1.023985 2.307110 0.090873 -0.023376 670674.000000 0 0 1
11.975821 -20.236429 -20.863793 31.436145 -1.036432 2.296535 0.089584 -0.023258 -11578.500000 0 0 1
11.577421 -18.869129 -20.880393 30.431423 -1.020463 2.326974 0.073838 -0.018578 -593802.000000 0 0 1
12.708121 -17.884829 -20.782893 30.220723 -0.953023 2.329117 0.076189 -0.017685 -422008.000000 0 0 1
13.601521 -17.889329 -21.874893 31.361448 -0.920726 2.342712 0.073254 -0.016616 273195.000000 0 0 1
14.520721 -16.785929 -21.909693 31.187392 -0.857628 2.349725 0.079066 -0.014258 757100.000000 0 0 1
15.824021 -16.919229 -22.744293 32.464793 -0.818834 2.347011 0.064614 -0.015165 -215385.000000 0 0 1
16.905321 -17.538829 -22.128993 32.910374 -0.803788 2.308245 0.060725 -0.013571 892019.000000 0 0 1
18.101721 -17.157229 -22.865493 33.835980 -0.758617 2.312811 0.044478 -0.012425 1375720.000000 0 0 1
19.509221 -17.385729 -22.241893 34.315814 -0.727907 2.275953 0.024893 -0.009161 545839.000000 0 0 1
19.907821 -18.757729 -22.167193 35.207360 -0.755662 2.251858 0.028435 -0.011998 -273534.000000 0 0 1
21.265621 -18.788629 -21.829593 35.801820 -0.723636 2.226521 0.035833 -0.016046 -305994.000000 0 0 1
21.857821 -20.166229 -21.570993 36.738929 -0.745167 2.198321 0.035080 -0.018348 -422752.000000 0 0 1
21.303621 -20.783829 -20.462693 36.118328 -0.773049 2.173104 0.032156 -0.021991 74340.800000 0 0 1
21.221421 -22.185529 -20.612593 36.978715 -0.807605 2.162069 0.041310 -0.018466 -504494.000000 0 0 1
-16.885907 12.955368 28.466603 35.543254 -0.654437 0.641999 0.047411 -0.025978 188888.000000 0 0 1
-18.216707 13.439768 28.429153 36.341334 -0.635629 0.672476 0.036367 -0.020720 21892.900000 0 0 1
-18.692507 13.307568 27.121633 35.525824 -0.618681 0.702183 0.045462 -0.021237 510689.000000 0 0 1
-19.994307 14.138168 26.843903 36.335317 -0.615482 0.739534 0.055910 -0.011054 518662.000000 0 0 1
-19.724807 15.506168 26.754073 36.678191 -0.666223 0.753312 0.052502 -0.016069 48050.500000 0 0 1
-20.520707 16.131768 25.764053 36.675875 -0.666221 0.791921 0.067359 -0.017255 -590964.000000 0 0 1
-20.526907 17.704568 25.879963 37.477702 -0.711709 0.808557 0.062472 -0.013258 1086220.000000 0 0 1
-19.315907 18.407168 25.496493 36.905275 -0.761313 0.808114 0.047061 -0.024193 1753300.000000 0 0 1
-18.157407 18.222268 26.382113 36.847773 -0.787181 0.772776 0.056528 -0.014814 1716980.000000 0 0 1
-16.902707 19.045668 25.887683 36.312686 -0.844940 0.777157 0.058018 -0.019135 610856.000000 0 0 1
-17.008907 20.484868 25.998223 37.213443 -0.877842 0.797323 0.059883 -0.019841 -243556.000000 0 0 1
-15.849107 21.102768 25.502803 36.700327 -0.926627 0.802525 0.057673 -0.017872 -246637.000000 0 0 1
-15.887207 22.641868 25.419963 37.566369 -0.958948 0.827568 0.051574 -0.017162 -48749.300000 0 0 1
-15.545607 23.359368 26.571293 38.644011 -0.983603 0.812630 0.047944 -0.015525 73032.400000 0 0 1
-15.736407 24.713668 26.199953 39.304420 -1.003793 0.841171 0.047898 -0.021509 -204871.000000 0 0 1
-15.277007 25.690268 27.262673 40.455286 -1.034312 0.831326 0.030576 -0.009849 -178976.000000 0 0 1
-13.872207 25.761168 27.305093 40.020545 -1.076831 0.819924 0.033049 -0.013240 -359988.000000 0 0 1
-13.543907 26.715768 28.303843 41.210159 -1.101594 0.813695 0.045454 -0.009079 407043.000000 0 0 1
-12.015107 26.914668 28.561773 41.043112 -1.150928 0.801128 0.048585 -0.006590 663287.000000 0 0 1
-11.402807 27.452968 27.430913 40.449283 -1.177121 0.825546 0.039768 -0.006774 -1730420.000000 0 0 1
-10.046807 27.502468 27.574803 40.220565 -1.220552 0.815383 0.022281 0.001518 -1137690.000000 0 0 1
-9.263107 28.286868 26.466133 39.829741 -1.254332 0.843996 0.032238 -0.008404 238518.000000 0 0 1
-7.855207 28.198968 26.583023 39.541664 -1.299120 0.833514 0.016744 -0.008408 269114.000000 0 0 1
-7.230207 28.437068 25.328263 38.761626 -1.321819 0.858681 0.033777 -0.015342 -586826.000000 0 0 1
-5.750907 28.097968 25.417463 38.322529 -1.368911 0.845642 0.027583 -0.022928 -872559.000000 0 0 1
-4.964707 29.083268 26.062673 39.366836 -1.401719 0.847250 0.037240 -0.019364 197379.000000 0 0 1
-3.604007 28.685068 26.202053 39.017555 -1.445811 0.834504 0.023872 -0.015726 377751.000000 0 0 1
-2.719407 29.504068 25.253063 38.930739 -1.478885 0.864965 0.022254 -0.012661 -767807.000000 0 0 1
-3.084907 29.327068 23.895333 37.954980 -1.465992 0.889796 0.011715 -0.005378 -176970.000000 0 0 1
-2.535607 30.283368 23.007053 38.116088 -1.487262 0.922782 0.009247 -0.006508 -687392.000000 0 0 1
-2.942307 30.068468 21.538553 37.103628 -1.473253 0.951457 0.010241 0.000114 369788.000000 0 0 1
-4.324407 29.956868 21.225053 36.967788 -1.427432 0.959231 0.004814 0.001932 165322.000000 0 0 1
-4.822007 28.659568 21.571853 36.193473 -1.404106 0.932267 0.003099 -0.002218 278966.000000 0 0 1
-6.355207 28.429268 21.307953 36.092116 -1.350868 0.939271 0.022556 -0.010240 706767.000000 0 0 1
-6.672407 28.607468 19.913953 35.489066 -1.341653 0.975047 0.018763 -0.011573 203439.000000 0 0 1
-7.481007 27.562268 19.384353 34.516623 -1.305760 0.974484 0.015746 -0.013700 -561985.000000 0 0 1
-6.776607 26.165868 19.159653 33.131064 -1.317378 0.954154 0.000628 -0.011087 442505.000000 0 0 1
-5.787507 26.101468 18.138453 32.307667 -1.352595 0.974685 0.002202 -0.009241 569207.000000 0 0 1
-4.507507 26.619768 18.503053 32.730607 -1.403058 0.969983 0.010487 -0.010800 -355778.000000 0 0 1
-3.716307 26.864368 17.221853 32.126274 -1.433333 1.005024 0.006825 -0.006507 -502419.000000 0 0 1
-3.445007 25.711868 16.472053 30.729412 -1.437604 1.005063 0.010743 -0.013791 -57651.500000 0 0 1
-2.584007 26.030268 15.417153 30.363474 -1.471851 1.038221 0.023842 -0.020305 -328345.000000 0 0 1
-1.802607 24.929968 14.707353 29.001016 -1.498615 1.038942 0.032663 -0.022277 292121.000000 0 0 1
-0.836907 24.279568 15.558253 28.848866 -1.536340 1.001188 0.019257 -0.019669 290607.000000 0 0 1
-0.284107 23.219268 14.807453 27.540440 -1.558561 1.003134 0.022507 -0.031067 -1569960.000000 0 0 1
0.965093 22.769668 15.493753 27.558040 1.528437 0.973725 0.016911 -0.021871 -201950.000000 0 0 1
2.043493 23.734668 15.312153 28.319117 1.484911 0.999527 0.033743 -0.026676 723956.000000 0 0 1
3.241593 23.339368 15.939753 28.448370 1.432790 0.976043 0.035117 -0.026275 281432.000000 0 0 1
4.446793 24.291168 15.633053 29.227165 1.389739 1.006430 0.045642 -0.027029 878297.000000 0 0 1
5.687393 23.596068 15.795153 28.958725 1.334276 0.993886 0.049421 -0.021228 166233.000000 0 0 1
6.776993 24.487768 15.871553 29.958048 1.300804 1.012440 0.074967 -0.023465 -590017.000000 0 0 1
8.085493 23.689468 16.001453 29.708797 1.241883 1.002010 0.086051 -0.023256 -406359.000000 0 0 1
8.549493 23.175968 14.730553 28.761233 1.217389 1.033090 0.072904 -0.017520 600420.000000 0 0 1
9.503893 24.046868 14.080453 29.442062 1.194414 1.072144 0.078660 -0.017391 131680.000000 0 0 1
10.209293 23.271468 12.885653 28.492647 1.157376 1.101516 0.070005 -0.014658 -126927.000000 0 0 1
11.172393 22.338568 13.258753 28.277704 1.107037 1.082778 0.072391 -0.010142 -171831.000000 0 0 1
11.866993 21.895968 12.094753 27.686495 1.074138 1.118706 0.075104 -0.014614 46652.100000 0 0 1
12.878093 20.809868 12.450053 27.457234 1.016635 1.100182 0.069123 -0.009221 -171523.000000 0 0 1
12.219393 19.601468 12.823253 26.419064 1.013354 1.064000 0.062730 -0.011432 434607.000000 0 0 1
13.147893 18.599868 13.242553 26.347436 0.955467 1.044178 0.063619 -0.017538 39485.600000 0 0 1
13.728993 18.753968 14.659453 27.479013 0.938877 1.008089 0.054964 -0.013108 13525.100000 0 0 1
14.812493 17.836468 14.840253 27.527852 0.877756 1.001429 0.067677 -0.006690 589309.000000 0 0 1
15.237893 17.717968 16.225353 28.449637 0.860511 0.963903 0.059635 -0.019631 139792.000000 0 0 1
16.382293 16.674068 16.292653 28.493063 0.794225 0.962084 0.037442 -0.015599 -38174.800000 0 0 1
17.130193 16.694668 17.482053 29.627312 0.772523 0.939656 0.051550 -0.016443 -399262.000000 0 0 1
18.347993 16.068668 17.208153 29.849145 0.719267 0.956353 0.049162 -0.017143 -255533.000000 0 0 1
19.255293 15.746068 18.415253 30.948772 0.685472 0.933501 0.051126 -0.018025 -428870.000000 0 0 1
19.674293 16.821768 19.168953 32.210223 0.707397 0.933381 0.072715 -0.011534 303932.000000 0 0 1
18.699993 17.449568 19.997053 32.466279 0.750822 0.907227 0.056903 -0.009059 79722.300000 0 0 1
19.303493 18.623268 20.772153 33.925408 0.767465 0.911844 0.056734 -0.008026 930437.000000 0 0 1
18.214393 19.379368 21.366953 34.115549 0.816377 0.893984 0.078834 -0.016342 946844.000000 0 0 1
18.704793 20.512468 22.002253 35.422165 0.831459 0.900595 0.071431 -0.015743 25976.200000 0 0 1
17.595693 21.541768 22.371253 35.694946 0.885885 0.893441 0.084415 -0.022707 237033.000000 0 0 1
16.910793 21.179068 23.574213 35.920348 0.896991 0.854903 0.095378 -0.024825 -220326.000000 0 0 1
16.219893 22.290568 24.001003 36.551368 0.941749 0.854444 0.085114 -0.028025 -121457.000000 0 0 1
15.379593 22.011268 25.286123 36.883815 0.960934 0.815422 0.097071 -0.029389 807390.000000 0 0 1
14.384693 20.968368 25.155953 35.768895 0.969516 0.790780 0.096383 -0.029283 8884.560000 0 0 1
13.720393 20.807068 26.345393 36.266555 0.987834 0.757672 0.090402 -0.022076 -177412.000000 0 0 1
12.673093 19.650568 26.383123 35.253671 0.997999 0.725181 0.092174 -0.014072 74927.400000 0 0 1
13.137493 18.326368 26.380243 34.703987 0.948842 0.707252 0.084847 -0.018285 -228449.000000 0 0 1
13.752493 17.811268 25.233153 33.809531 0.913286 0.728262 0.095178 -0.023771 -269731.000000 0 0 1
12.775193 17.552668 24.064513 32.409914 0.941642 0.733994 0.102491 -0.022883 -331131.000000 0 0 1
12.427493 18.685168 23.295843 32.346165 0.983880 0.766700 0.097056 -0.024657 397985.000000 0 0 1
13.488493 19.222168 22.484953 32.511603 0.958920 0.807097 0.095490 -0.027843 584610.000000 0 0 1
14.132393 18.349568 21.403953 31.536652 0.914507 0.824804 0.101818 -0.026430 -117157.000000 0 0 1
13.178193 17.933768 20.463253 30.232922 0.937078 0.827317 0.075199 -0.025688 249455.000000 0 0 1
13.821093 17.037668 19.524453 29.368504 0.889259 0.843558 0.054780 -0.021529 558467.000000 0 0 1
12.793093 16.333768 18.593253 27.859725 0.906365 0.840100 0.058125 -0.016562 139848.000000 0 0 1
12.209493 17.184368 17.601953 27.462756 0.953058 0.875075 0.071288 -0.019207 559504.000000 0 0 1
11.312593 16.408768 16.769953 26.047145 0.967204 0.871302 0.054639 -0.017308 376362.000000 0 0 1
10.816293 17.001268 15.456653 25.395737 1.004180 0.916461 0.045739 -0.012152 -570613.000000 0 0 1
9.886493 18.034868 15.670653 25.856693 1.069346 0.919701 0.053532 -0.016910 -46509.000000 0 0 1
9.565093 18.563668 14.434253 25.385989 1.095016 0.966004 0.036773 -0.008168 -254058.000000 0 0 1
8.519893 19.700168 14.605753 25.961765 1.162609 0.973285 0.049099 -0.007567 462910.000000 0 0 1
7.204593 19.241268 14.896353 25.377823 1.212522 0.943469 0.020119 -0.015161 -23393.900000 0 0 1
6.335293 20.346168 15.036053 26.080364 1.268936 0.956324 0.038287 -0.013777 -44451.500000 0 0 1
5.012693 19.937068 15.721253 25.879946 1.324476 0.917926 0.029448 -0.021530 159237.000000 0 0 1
4.139693 19.268768 14.799353 24.646366 1.359174 0.926710 0.030594 -0.028253 322980.000000 0 1 0
2.942293 18.852168 15.461253 24.558332 1.415973 0.889793 0.013794 -0.025559 941276.000000 0 1 0
1.767993 18.401068 14.528353 23.511660 1.475009 0.904700 0.013257 -0.026742 278847.000000 0 1 0
1.132093 19.484568 13.930953 23.979189 1.512760 0.950888 0.014479 -0.028922 -637909.000000 0 1 0
0.280093 19.085468 12.915853 23.046753 1.556122 0.975904 0.014509 -0.033972 -55635.100000 0 1 0
-0.697007 20.153868 12.302853 23.622541 -1.536226 1.022997 0.020385 -0.028448 17572.200000 0 1 0
-1.768807 20.619468 13.050853 24.466629 -1.485222 1.008164 0.023114 -0.026746 63831.500000 0 1 0
-2.858707 20.834468 12.132153 24.278312 -1.434437 1.047531 0.032376 -0.032986 79908.200000 0 1 0
-4.124807 21.409168 12.738253 25.251329 -1.380463 1.042041 0.031575 -0.030929 9624.400000 0 0 1
-4.942007 20.505268 13.516553 25.051680 -1.334295 1.000898 0.031269 -0.031780 -120550.000000 0 0 1
-6.029007 21.179868 14.049953 26.121580 -1.293474 1.002891 0.026071 -0.028060 -676940.000000 0 0 1
-6.658207 20.463968 15.312853 26.411914 -1.256237 0.952349 0.021477 -0.020522 -433541.000000 0 0 1
-7.493207 19.361568 14.995253 25.610078 -1.201534 0.945273 0.031126 -0.014892 51227.800000 0 0 1
-8.109107 18.704968 16.082353 25.966816 -1.161726 0.902891 0.029364 -0.001003 969525.000000 0 0 1
-9.252107 19.566568 16.805053 27.401859 -1.129101 0.910588 0.024834 0.004819 -135514.000000 0 0 1
-10.376807 19.775068 16.011653 27.479165 -1.087552 0.948770 0.017625 -0.002073 -144359.000000 0 0 1
-11.516407 19.957768 16.867753 28.556282 -1.047431 0.938889 0.013128 0.009040 497433.000000 0 0 1
-12.865607 19.828268 16.139853 28.621302 -0.995229 0.971683 0.018192 -0.004097 -271354.000000 0 0 1
-13.388907 20.928368 15.428053 29.245243 -1.001661 1.015093 0.011469 -0.010004 -505863.000000 0 0 1
-14.392407 20.614768 14.522253 29.034564 -0.961306 1.047000 0.018782 -0.011664 -374381.000000 0 0 1
-15.329707 21.834568 14.316653 30.277299 -0.958673 1.078273 0.022298 -0.020667 -340116.000000 0 0 1
-16.319707 21.934268 15.299053 31.328996 -0.931128 1.060615 0.015014 -0.027486 -924771.000000 0 0 1
-17.154007 22.985368 14.971053 32.353046 -0.929667 1.089713 0.026621 -0.024103 -689141.000000 0 0 1
-18.520107 22.828568 15.648253 33.301738 -0.889222 1.081627 0.064922 -0.026009 -1087470.000000 0 0 1
-19.359407 21.855468 15.105053 32.872645 -0.845886 1.093362 0.057768 -0.030912 -101861.000000 0 0 1
-20.432907 21.502468 15.964553 33.685706 -0.810898 1.077052 0.060576 -0.026593 429641.000000 0 0 1
-21.664707 22.426668 15.976153 35.036445 -0.802678 1.097316 0.060324 -0.034430 -412460.000000 0 0 1
-22.566707 22.362968 14.862453 35.074936 -0.780864 1.133232 0.059814 -0.023891 968032.000000 0 0 1
-23.533907 23.430468 14.762053 36.342122 -0.783196 1.152508 0.062879 -0.032892 525783.000000 0 0 1
-22.968507 24.694468 14.090653 36.550179 -0.821594 1.175030 0.053293 -0.019277 -256300.000000 0 0 1
-21.844707 25.267268 14.704053 36.494318 -0.857918 1.156098 0.041096 -0.031247 -277389.000000 0 0 1
-21.506207 26.407968 13.950353 36.803670 -0.887346 1.182029 0.033530 -0.019467 132448.000000 0 0 1
-20.043307 26.850568 14.219153 36.398784 -0.929554 1.169460 0.041315 -0.017845 748250.000000 0 0 1
-19.036507 26.325068 13.352353 35.123826 -0.944713 1.180837 0.036920 -0.013573 429141.000000 0 0 1
-17.723807 26.761468 13.661653 34.884815 -0.985831 1.168403 0.033953 -0.016363 407740.000000 0 0 1
-16.666207 26.132568 12.705253 33.497717 -1.003077 1.181771 0.032998 -0.013719 851097.000000 0 0 1
-15.356407 26.669868 12.972053 33.397235 -1.048364 1.171883 0.038111 -0.008541 941901.000000 0 0 1
-14.385607 26.042568 12.117753 32.124772 -1.066121 1.184016 0.034567 -0.000473 379247.000000 0 0 1
-12.972107 26.634868 12.276053 32.068571 -1.117575 1.177964 0.045769 0.007444 75752.500000 0 0 1
-11.943207 25.890768 11.601653 30.782632 -1.138592 1.184360 0.046347 0.001773 596510.000000 0 0 1
-10.610607 26.184568 11.934453 30.669982 -1.185795 1.171115 0.057556 -0.003919 172400.000000 0 0 1
-9.972207 27.520068 11.441453 31.427789 -1.223152 1.198178 0.057208 -0.000965 -696185.000000 0 0 1
-8.659707 27.684168 11.913253 31.358082 -1.267635 1.181097 0.074181 -0.016658 -123511.000000 0 0 1
-8.121407 28.777868 11.208353 31.933527 -1.295739 1.212168 0.085525 -0.020951 -378295.000000 0 0 1
-6.933907 29.422268 11.961853 32.508997 -1.339351 1.193987 0.070221 -0.022651 135498.000000 0 0 1
-5.724207 28.731968 11.719653 31.553808 -1.374143 1.190260 0.077633 -0.021819 -253219.000000 0 0 1
-4.634407 29.301168 12.417753 32.159552 -1.413931 1.174364 0.071243 -0.024559 -695779.000000 0 0 1
-3.361807 28.715268 11.840353 31.241996 -1.454253 1.182093 0.070710 -0.037218 -855384.000000 0 0 1
-2.930007 29.445568 10.681953 31.459983 -1.471617 1.224367 0.097982 -0.037127 703590.000000 0 0 1
-1.702607 29.086368 10.041553 30.817990 -1.512327 1.238902 0.085469 -0.034564 601557.000000 0 0 1
-1.447807 29.901768 8.739653 31.186430 -1.522415 1.286753 0.082152 -0.031002 729670.000000 0 0 1
-2.382707 29.630568 7.653653 30.695705 -1.490555 1.318798 0.090159 -0.029495 834556.000000 0 0 1
-2.044107 30.383068 6.507853 31.139386 -1.503620 1.360253 0.090159 -0.020302 73993.400000 0 0 1
11.697893 -33.818629 -26.405333 44.472261 -1.237778 2.206506 0.147309 -0.049163 11879.900000 0 0 1
12.438793 -33.494229 -25.240003 43.745225 -1.215211 2.185819 0.138080 -0.044258 607639.000000 0 0 1
13.480793 -32.559329 -25.538073 43.520511 -1.178247 2.197904 0.138829 -0.034958 21798.200000 0 0 1
14.473993 -32.369529 -24.397193 43.040747 -1.150316 2.173461 0.129403 -0.029967 -608563.000000 0 0 1
13.877993 -31.625429 -23.331993 41.679111 -1.157275 2.164941 0.140561 -0.036358 403998.000000 0 0 1
13.984093 -31.980929 -21.947493 41.231385 -1.158584 2.132112 0.095622 -0.029167 270812.000000 0 0 1
15.426293 -31.882429 -21.345293 41.353129 -1.120153 2.113171 0.050762 -0.018239 919191.000000 0 0 1
16.338093 -32.885529 -21.841193 42.725039 -1.109698 2.107381 0.062357 -0.016672 -309741.000000 0 0 1
17.643693 -32.552729 -21.492293 42.812366 -1.074113 2.096719 0.029934 -0.018468 -850642.000000 0 0 1
18.625393 -33.664129 -21.914293 44.276575 -1.065445 2.088563 0.003220 -0.009500 255339.000000 0 0 1
19.930793 -33.539929 -21.359193 44.478966 -1.034622 2.071689 -0.003326 0.007323 596984.000000 0 0 1
20.697993 33.518368 -21.377293 44.820492 1.017600 2.067982 -0.003299 0.020532 103807.000000 0 0 1
22.160293 33.716268 -20.923693 45.449601 0.989336 2.049210 0.020689 0.022499 -187383.000000 0 0 1
22.940793 -33.838329 -21.866693 46.362320 -0.975021 2.061955 0.017540 0.018255 -348247.000000 0 0 1
24.239093 -33.642429 -21.396593 46.660056 -0.946449 2.047174 0.019285 0.026209 -520508.000000 0 0 1
25.253693 -33.065529 -22.371093 47.239221 -0.918555 2.064136 0.026896 0.015218 -149037.000000 0 0 1
25.172593 -31.663029 -22.535493 46.303944 -0.899102 2.079089 0.024525 0.006444 513072.000000 0 0 1
24.090893 -31.276029 -23.429793 45.907693 -0.914450 2.106408 0.006360 0.008643 669204.000000 0 0 1
23.879493 -29.729429 -23.573893 44.830766 -0.894091 2.124501 0.003811 -0.014784 -242441.000000 0 0 1
24.931193 -28.984329 -24.191293 45.242395 -0.860433 2.134954 0.008180 -0.011554 126548.000000 0 0 1
24.719393 -27.622229 -23.946093 44.129936 -0.840801 2.144358 0.026984 -0.007002 563479.000000 0 0 1
25.323393 -26.711129 -25.087393 44.543640 -0.812061 2.169061 0.033532 -0.012101 392325.000000 0 0 1
24.552993 -26.956229 -26.277453 44.944324 -0.832021 2.195266 0.022175 -0.012540 -168677.000000 0 0 1
25.071493 -26.321329 -27.389153 45.514369 -0.809713 2.216511 0.029281 -0.012070 -364637.000000 0 0 1
24.079293 -26.094529 -28.591163 45.587184 -0.825542 2.248718 0.028387 -0.013213 653119.000000 0 0 1
23.215193 -24.981129 -28.604493 44.510886 -0.822022 2.268736 0.044722 -0.021648 916041.000000 0 0 1
22.072393 -25.007929 -27.695163 43.354458 -0.847669 2.263744 0.028742 -0.018049 639031.000000 0 0 1
21.552893 -23.613529 -27.307763 42.045688 -0.830990 2.277694 0.038671 -0.018875 54597.200000 0 0 1
20.883793 -23.025429 -28.414613 42.115239 -0.834134 2.311337 0.057524 -0.016846 270470.000000 0 0 1
20.296193 -21.762629 -28.176643 40.981345 -0.820250 2.328903 0.044448 -0.006952 -47906.800000 0 0 1
19.288693 -21.232029 -29.225573 40.951030 -0.833321 2.365522 0.061536 -0.018548 637901.000000 0 0 1
18.075693 -21.989829 -29.171073 40.758247 -0.882783 2.368436 0.063941 -0.021220 460137.000000 0 0 1
17.001493 -21.377429 -29.867813 40.473837 -0.898927 2.400829 0.063197 -0.027715 -681062.000000 0 0 1
15.811993 -22.295729 -29.846753 40.471562 -0.953927 2.400120 0.062358 -0.027167 -1144160.000000 0 0 1
15.876393 -23.435029 -30.711783 41.766901 -0.975356 2.396926 0.065040 -0.017700 15985.600000 0 0 1
15.214793 -24.531429 -30.135803 41.730655 -1.015644 2.377702 0.069439 -0.024019 -166839.000000 0 0 1
15.411693 -25.874329 -30.875253 43.130991 -1.033592 2.368635 0.093092 -0.021598 481465.000000 0 0 1
14.632093 -26.898529 -30.232173 43.030376 -1.072592 2.349809 0.103767 -0.024374 474110.000000 0 0 1
15.146793 -28.158129 -30.670093 44.305306 -1.077276 2.335391 0.123378 -0.020324 394770.000000 0 0 1
14.370993 -29.310329 -29.966533 44.312683 -1.114935 2.313459 0.134434 -0.043242 -66402.800000 0 0 1
14.535493 -29.603629 -28.577153 43.638390 -1.114372 2.284797 0.165027 -0.049065 -212497.000000 0 0 1
14.166393 -28.539029 -27.718113 42.230991 -1.110044 2.286761 0.153536 -0.044139 237394.000000 0 0 1
15.197193 -28.251029 -26.564693 41.650429 -1.077264 2.262436 0.119832 -0.032480 207019.000000 0 0 1
15.279693 -29.345029 -25.648153 41.862005 -1.090733 2.230248 0.125880 -0.042988 -267440.000000 0 0 1
16.197493 -29.164129 -24.616893 41.459578 -1.063824 2.206516 0.118152 -0.040810 -1146420.000000 0 0 1
15.834693 -28.120629 -23.473693 39.906410 -1.057952 2.199651 0.108314 -0.036679 72042.600000 0 0 1
14.665493 -28.252629 -22.719093 39.108118 -1.091998 2.190668 0.102133 -0.037462 1043910.000000 0 0 1
13.408493 -28.299129 -23.458493 39.127091 -1.128317 2.213730 0.128170 -0.032718 498185.000000 0 0 1
12.134393 -28.159529 -22.607093 38.095711 -1.163925 2.206109 0.105527 -0.021353 -7312.160000 0 0 1
12.063193 -26.837929 -22.065393 36.778752 -1.148372 2.214234 0.084399 -0.020785 1050300.000000 0 0 1
10.837793 -26.619929 -21.311793 35.780873 -1.184158 2.208833 0.085472 -0.012596 868226.000000 0 0 1
10.500293 -25.111029 -21.125793 34.454594 -1.174738 2.230837 0.105731 -0.020945 -65435.800000 0 0 1
11.312393 -24.489629 -20.154893 33.673905 -1.138069 2.212463 0.086896 -0.019153 174277.000000 0 0 1
10.881293 -23.153529 -19.968993 32.453800 -1.131466 2.233569 0.088621 -0.030600 -36178.300000 0 0 1
11.344593 -22.578629 -18.640293 31.399917 -1.105192 2.206373 0.089679 -0.030482 -18174.000000 0 0 1
10.720593 -23.159729 -17.503493 30.946347 -1.137268 2.171966 0.096232 -0.031612 157672.000000 0 0 1
11.066793 -22.404529 -16.370293 29.873455 -1.111998 2.150753 0.079644 -0.031652 44587.200000 0 0 1
10.087393 -22.629729 -15.203593 29.069045 -1.151475 2.121183 0.061404 -0.023989 148695.000000 0 0 1
10.436193 -23.829729 -14.599493 29.831448 -1.158010 2.082197 0.067316 -0.014042 108469.000000 0 0 1
9.490993 -24.135029 -13.601793 29.284592 -1.196126 2.053832 0.068998 -0.012796 62415.400000 0 0 1
9.435593 -25.599829 -13.295193 30.350351 -1.217666 2.024233 0.067237 -0.008736 103496.000000 0 0 1
10.568993 -26.178129 -12.676693 30.946673 -1.187075 1.992845 0.044647 -0.011178 -97496.800000 0 0 1
10.768593 -27.548129 -13.100993 32.349622 -1.198158 1.987755 0.046295 -0.012647 -1114260.000000 0 0 1
12.053493 -28.205029 -12.546593 33.139513 -1.166935 1.959079 0.041212 -0.014968 110140.000000 0 0 1
13.293893 -27.813829 -13.087193 33.490466 -1.124936 1.972268 0.038238 -0.009924 -144047.000000 0 0 1
13.365293 -28.017429 -14.515793 34.268289 -1.125689 2.008204 0.037953 -0.008088 -3083370.000000 0 0 1
14.619093 -27.644929 -15.212393 34.776096 -1.084362 2.023544 0.006973 -0.006315 -1953000.000000 0 0 1
15.625193 -28.501929 -14.774693 35.704316 -1.069324 1.997428 0.056100 -0.009650 -561176.000000 0 0 1
16.858993 -27.982929 -15.234393 36.046590 -1.028560 2.007142 0.066987 -0.016226 -741244.000000 0 0 1
18.105393 -28.717829 -14.875893 37.064958 -1.008282 1.983783 0.064461 -0.018969 -676397.000000 0 0 1
18.300593 -29.922029 -15.602293 38.388423 -1.021884 1.989342 0.048297 -0.011999 -812782.000000 0 0 1
19.661093 -30.201729 -15.549293 39.248994 -0.993724 1.978139 0.069050 -0.010111 -468398.000000 0 0 1
20.159793 -31.138829 -16.638193 40.655545 -0.996239 1.992426 0.053147 -0.014841 -1328.810000 0 0 1
19.621693 -32.451729 -16.507393 41.359637 -1.026970 1.981351 0.027415 -0.002231 -33462.700000 0 0 1
20.124593 -33.299429 -17.506193 42.665185 -1.027183 1.993596 0.025234 -0.007948 35132.500000 0 0 1
19.969393 33.453668 -17.190093 42.584315 1.032640 1.986323 0.001968 0.008702 156748.000000 0 0 1
21.041493 32.901568 -16.438193 42.373008 1.001818 1.969192 0.032636 0.002314 489134.000000 0 0 1
20.618093 31.593968 -15.985593 40.973452 0.992598 1.971586 0.026018 -0.003241 16810.900000 0 0 1
21.579193 31.073568 -14.909693 40.663585 0.963802 1.946212 0.039022 -0.008075 -27713.500000 0 0 1
22.944993 30.862968 -15.241993 41.368029 0.931502 1.948136 0.038959 0.001322 518890.000000 0 0 1
23.756393 30.586768 -14.073693 41.206618 0.910432 1.919351 0.053448 -0.000402 400956.000000 0 0 1
23.410593 29.356668 -13.194093 39.798918 0.897610 1.908709 0.057418 0.002193 -822416.000000 0 0 1
23.670593 28.135568 -13.905493 39.309921 0.871372 1.932363 0.055544 0.007133 27423.400000 0 0 1
23.501393 26.936168 -13.116693 38.077818 0.853393 1.922471 0.023398 0.002696 841291.000000 0 0 1
22.014893 26.538168 -12.793493 36.777756 0.878292 1.926083 0.017478 0.004602 -36354.900000 0 0 1
21.227793 25.995968 -13.863893 36.312767 0.886027 1.962530 0.028974 -0.006076 966993.000000 0 0 1
19.825493 26.213168 -13.600193 35.568885 0.923264 1.963148 0.038156 -0.011449 793059.000000 0 0 1
19.366493 27.646768 -13.863293 36.491036 0.959737 1.960495 0.032767 -0.018854 -1113670.000000 0 0 1
19.450493 28.228868 -15.119793 37.467303 0.967472 1.986186 0.028508 -0.015635 -173236.000000 0 0 1
18.746493 27.621368 -16.180793 37.097022 0.974512 2.022140 0.026403 -0.009475 -145647.000000 0 0 1
18.843793 28.445268 -17.492393 38.343260 0.985713 2.044522 0.015249 0.000756 -80222.600000 0 0 1
18.044193 29.588168 -17.446693 38.799996 1.023169 2.037178 0.013401 -0.000035 -350486.000000 0 0 1
18.178993 30.331668 -18.688893 39.997007 1.030862 2.056982 0.010041 0.006391 -287517.000000 0 0 1
17.085893 31.387468 -18.922893 40.437319 1.072298 2.057773 0.003812 0.003683 -149557.000000 0 0 1
17.032293 32.487968 -17.969493 40.846906 1.087926 2.026309 0.018479 -0.009451 -137148.000000 0 0 1
16.249893 33.522168 -18.558193 41.619722 1.119422 2.032975 0.021356 -0.009341 104856.000000 0 0 1
15.938593 -33.526829 -17.588793 41.078615 -1.127023 2.013267 0.025252 -0.006240 -232042.000000 0 0 1
15.040793 -32.575229 -18.074693 40.175434 -1.138235 2.037443 0.023112 -0.003959 -199258.000000 0 0 1
14.739993 -31.592429 -17.119793 38.838592 -1.134251 2.027279 0.033916 -0.004160 333823.000000 0 0 1
13.570993 -30.605829 -17.463893 37.760775 -1.153434 2.051595 0.042196 0.001089 -241743.000000 0 0 1
12.341093 -31.240029 -17.540293 37.893322 -1.194572 2.052045 0.040446 0.001449 -1493850.000000 0 0 1
11.446693 -30.386129 -18.144293 37.196223 -1.210529 2.080363 0.034844 0.015432 412300.000000 0 0 1
10.052493 -31.095329 -18.373293 37.490665 -1.258121 2.082974 0.061146 -0.001290 -110619.000000 0 0 1
9.378993 -31.498629 -17.175393 37.082654 -1.281397 2.052359 0.058528 -0.000156 629310.000000 0 0 1
8.171193 -32.232829 -17.403493 37.531390 -1.322521 2.052969 0.081632 -0.000400 1400510.000000 0 0 1
6.963893 -31.468629 -18.114093 36.971486 -1.353010 2.082826 0.080877 0.004542 -282987.000000 0 0 1
6.959393 -31.113529 -19.479793 37.362376 -1.350741 2.119257 0.075320 0.014873 -101120.000000 0 0 1
6.803593 -32.156329 -20.400893 38.684814 -1.362293 2.126289 0.087897 -0.004651 -860752.000000 0 0 1
6.654593 -31.887729 -21.980193 39.296816 -1.365061 2.164383 0.081167 0.008443 285301.000000 0 0 1
7.769293 -31.487229 -22.785793 39.635840 -1.328884 2.183252 0.091035 0.002735 592790.000000 0 0 1
8.967293 -32.252429 -22.755793 40.477866 -1.299611 2.167814 0.085710 -0.010415 231403.000000 0 0 1
9.079393 -33.596529 -23.625593 42.063414 -1.306853 2.167194 0.104294 -0.021790 -433869.000000 0 0 1
8.247993 33.637368 -23.123393 41.643645 1.330337 2.159482 0.108787 -0.029548 -273253.000000 0 0 1
8.211093 32.535868 -23.999893 41.255298 1.323588 2.191664 0.118633 -0.042923 -478124.000000 0 0 1
7.073093 31.564268 -23.606593 40.045011 1.350353 2.201238 0.119254 -0.053453 525021.000000 0 0 1
5.702193 31.928968 -23.713993 40.178694 1.394070 2.202119 0.110844 -0.042616 724394.000000 0 0 1
5.338193 32.883368 -22.727993 40.328326 1.409863 2.169502 0.085896 -0.044535 214104.000000 0 0 1
4.043893 33.791568 -23.008793 41.080746 1.451691 2.165287 0.086272 -0.031625 1165070.000000 0 0 1
2.811993 33.207268 -22.686093 40.314870 1.486318 2.168472 0.087935 -0.043882 517278.000000 0 0 1
1.690693 34.023868 -23.065693 41.140105 1.521146 2.165981 0.075376 -0.030102 1455000.000000 0 0 1
0.294493 33.466168 -22.580893 40.372860 1.561997 2.164348 0.071388 -0.040478 792717.000000 0 0 1
0.026193 33.642168 -21.186993 39.757827 1.570018 2.132822 0.058456 -0.040213 428974.000000 0 0 1
-1.203607 33.061068 -20.732993 39.042795 -1.534407 2.130615 0.049657 -0.043510 490797.000000 0 0 1
-1.589407 33.275168 -19.248493 38.474245 -1.523067 2.094736 0.063404 -0.039443 -209187.000000 0 0 1
-0.825507 32.574468 -18.349893 37.396470 -1.545460 2.083672 0.082448 -0.047519 -345993.000000 0 0 1
-1.362907 32.780768 -17.028593 36.964973 -1.529244 2.049544 0.058638 -0.033599 288423.000000 0 0 1
-0.798607 31.849268 -15.898093 35.605660 -1.545727 2.033651 0.063999 -0.026923 738377.000000 0 0 1
0.463793 32.243968 -15.378093 35.726381 1.556413 2.015777 0.051704 -0.024828 -220917.000000 0 0 1
1.397093 31.211768 -15.319993 34.796961 1.526064 2.026694 0.066603 -0.019338 691558.000000 0 0 1
2.644493 31.469068 -14.402093 34.709017 1.486959 1.998671 0.076014 -0.024599 398718.000000 0 0 1
3.579893 32.391568 -14.895093 35.831454 1.460724 1.999507 0.067339 -0.028441 409335.000000 0 0 1
4.577893 32.625468 -13.872293 35.746591 1.431390 1.969336 0.068103 -0.030850 525396.000000 0 0 1
5.983093 33.064768 -14.312793 36.523038 1.391783 1.973475 0.072908 -0.042142 73061.000000 0 0 1
6.833193 32.017368 -14.697493 35.886218 1.360529 1.992766 0.068466 -0.032201 -580090.000000 0 0 1
7.985893 32.459168 -15.394293 36.801580 1.329559 2.002375 0.062011 -0.014815 -182701.000000 0 0 1
8.978993 31.318868 -15.296393 35.992686 1.291589 2.009743 0.057832 -0.028197 -523078.000000 0 0 1
9.594093 31.202368 -13.996893 35.518268 1.272492 1.975858 0.049528 -0.027804 -157393.000000 0 0 1
10.520893 30.127568 -13.946893 34.826360 1.234824 1.982825 0.054475 -0.027879 -60466.700000 0 0 1
10.037093 28.717268 -13.726593 33.374302 1.234554 1.994668 0.059324 -0.029426 -578342.000000 0 0 1
9.212493 28.157868 -14.711493 33.078143 1.254600 2.031691 0.071453 -0.035728 -99876.000000 0 0 1
8.951993 26.806568 -14.381593 31.710574 1.248493 2.041515 0.062625 -0.029790 -209180.000000 0 0 1
8.005993 25.993668 -15.318393 31.215699 1.272018 2.083720 0.070831 -0.029242 132899.000000 0 0 1
8.649393 25.456068 -16.443693 31.515368 1.243258 2.119718 0.071599 -0.024282 -122444.000000 0 0 1
7.827493 24.496268 -17.090193 30.877362 1.261512 2.157341 0.066564 -0.013995 192119.000000 0 0 1
8.551293 23.742968 -18.235993 31.135262 1.225098 2.196542 0.075687 -0.005458 561525.000000 0 0 1
7.700793 22.805468 -18.925193 30.619512 1.245145 2.237089 0.082993 -0.007761 280189.000000 0 0 1
8.587893 21.954368 -19.561693 30.633413 1.197925 2.263440 0.077390 -0.004727 -289121.000000 0 0 1
7.902393 20.960168 -20.463493 30.340254 1.210256 2.311039 0.068819 -0.010514 -194508.000000 0 0 1
6.955793 20.167468 -19.783993 29.094951 1.238671 2.318532 0.060553 -0.013591 78340.600000 0 0 1
6.419593 19.163868 -20.623993 28.875839 1.247561 2.366320 0.055148 -0.019686 -53713.800000 0 0 1
25.411893 -13.016732 -9.420093 30.065557 -0.473384 1.889482 0.074048 -0.003934 285128.000000 0 0 1
25.970793 -12.151332 -8.397693 29.877386 -0.437627 1.855707 0.083279 -0.015141 553190.000000 0 0 1
24.910493 -11.901232 -7.505593 28.609542 -0.445698 1.836249 0.069605 -0.009418 -250030.000000 0 0 1
25.301793 -11.364132 -6.095393 28.398557 -0.422141 1.787117 0.053314 -0.011397 -412051.000000 0 0 1
25.381493 -9.980232 -5.849693 27.893442 -0.374638 1.782081 0.069799 -0.010331 872975.000000 0 0 1
26.432793 -9.294932 -6.556693 28.776353 -0.338139 1.800665 0.064286 -0.020191 -294492.000000 0 0 1
26.759493 -7.880532 -5.953193 28.523915 -0.286399 1.781051 0.109947 -0.020043 -93484.600000 0 0 1
27.412293 -7.964932 -4.693593 28.929289 -0.282774 1.733760 0.112144 -0.024803 781930.000000 0 0 1
28.831293 -8.020632 -4.792093 30.307394 -0.271331 1.729579 0.092756 -0.018514 -329411.000000 0 0 1
29.584293 -8.055132 -3.527693 30.863573 -0.265833 1.685346 0.106070 -0.020949 -644030.000000 0 0 1
29.592393 -6.829632 -2.868793 30.505468 -0.226819 1.664977 0.113422 -0.018996 583764.000000 0 0 1
30.419993 -6.925032 -1.691393 31.244085 -0.223833 1.624958 0.102838 -0.016057 192413.000000 0 0 1
30.816893 -5.521932 -1.214393 31.331252 -0.177304 1.609566 0.099111 -0.024769 -959964.000000 0 0 1
29.714793 -4.721732 -0.971393 30.103277 -0.157584 1.603071 0.145737 -0.019078 -729589.000000 0 0 1
29.955993 -3.431232 -0.521693 30.156376 -0.114045 1.588097 0.139255 -0.014758 -52358.500000 0 0 1
30.606193 -3.190132 0.894607 30.785001 -0.103857 1.541732 0.128989 -0.025240 -179244.000000 0 0 1
29.758893 -3.656532 1.894907 30.042513 -0.122259 1.507680 0.144369 -0.038845 165159.000000 0 0 1
30.211893 -3.255332 3.173007 30.551982 -0.107336 1.466753 0.120959 -0.031720 -72501.900000 0 0 1
29.659193 -4.107132 4.331107 30.253838 -0.137602 1.427144 0.124898 -0.033471 -385082.000000 0 0 1
30.268693 -5.345732 4.324307 31.039817 -0.174807 1.431027 0.110890 -0.043762 116575.000000 0 0 1
29.859693 -6.156432 5.419907 30.965760 -0.203329 1.394861 0.109541 -0.045543 -52369.100000 0 0 1
30.658893 -7.484532 5.471007 32.029952 -0.239439 1.399146 0.079389 -0.036912 396844.000000 0 0 1
32.039293 -7.279932 5.702207 33.347097 -0.223425 1.398956 0.090145 -0.033818 -386249.000000 0 0 1
32.821593 -8.416632 5.691007 34.358175 -0.251027 1.404392 0.084699 -0.036767 558570.000000 0 0 1
34.338093 -8.063232 5.880807 35.758974 -0.230640 1.405589 0.099353 -0.039088 597316.000000 0 0 1
34.970593 -7.542832 4.746107 36.088256 -0.212436 1.438900 0.101874 -0.037264 189738.000000 0 0 1
36.372293 -7.489332 4.979807 37.467749 -0.203069 1.437493 0.110876 -0.034618 809269.000000 0 0 1
-36.032836 -7.126432 3.784707 36.925266 0.195256 1.468120 0.107855 -0.030302 354216.000000 0 0 1
-35.960236 -8.227732 2.876707 37.001481 0.224929 1.492972 0.113433 -0.029408 553545.000000 0 0 1
-34.802436 -8.087432 2.050507 35.788555 0.228329 1.513470 0.148008 -0.030137 223051.000000 0 0 1
-34.380436 -9.285632 1.190507 35.632213 0.263791 1.537379 0.137956 -0.029108 -115782.000000 0 0 1
-34.114036 -10.396232 2.033307 35.720910 0.295808 1.513843 0.134959 -0.032307 206418.000000 0 0 1
-34.003436 -11.552332 1.266907 35.934594 0.327506 1.535533 0.112927 -0.032070 -555543.000000 0 0 1
-33.563236 -12.798532 2.065107 35.979965 0.364305 1.513369 0.088168 -0.034162 589719.000000 0 0 1
-32.234636 -12.882832 2.568707 34.808582 0.380212 1.496934 0.090421 -0.031233 313121.000000 0 0 1
-31.294736 -13.314632 1.605107 34.047265 0.402259 1.523635 0.081446 -0.022077 40066.000000 0 0 1
-29.930036 -13.691732 2.269707 32.991243 0.429039 1.501945 0.086744 -0.019406 388341.000000 0 0 1
-29.156236 -12.546232 2.594107 31.846874 0.406360 1.489250 0.094701 -0.019421 526062.000000 0 0 1
-27.949236 -12.942332 3.228707 30.969151 0.433666 1.466351 0.090764 -0.012267 426241.000000 0 0 1
-27.088936 -11.891332 4.004807 29.853856 0.413647 1.436244 0.096314 -0.007248 740172.000000 0 0 1
-25.823536 -12.430132 4.405507 28.996063 0.448616 1.418271 0.089676 -0.002567 917110.000000 0 0 1
-25.016736 -11.451032 5.069607 27.976135 0.429268 1.388578 0.083349 0.005942 -243672.000000 0 0 1
-23.613636 -11.931232 5.408907 27.003970 0.467854 1.369132 0.083556 0.007739 -440570.000000 0 0 1
-23.545936 -12.692432 6.557607 27.541081 0.494397 1.330384 0.079824 0.000994 -25248.700000 0 0 1
-22.201536 -12.944332 6.908407 26.611840 0.527854 1.308189 0.079391 0.001102 77922.000000 0 0 1
-21.823936 -12.479132 8.314007 26.478966 0.519433 1.251409 0.079934 -0.003579 -825925.000000 0 0 1
-21.565036 -11.091432 8.477807 25.689372 0.475042 1.234480 0.070832 -0.002607 389259.000000 0 0 1
-22.586636 -10.233132 8.971007 26.369529 0.425397 1.223663 0.071370 0.004528 -434720.000000 0 0 1
-23.015236 -10.546632 10.456007 27.390886 0.429690 1.179126 0.077004 -0.002411 -631643.000000 0 0 1
-23.553436 -11.859632 10.689207 28.454777 0.466460 1.185692 0.058528 -0.005856 942448.000000 0 0 1
-24.939036 -11.953932 10.331107 29.522598 0.446972 1.213290 0.057593 -0.009224 473295.000000 0 0 1
-25.966936 -11.363232 11.327707 30.524118 0.412498 1.190596 0.083841 -0.016044 -739807.000000 0 0 1
-26.115236 -12.094332 12.549607 31.396991 0.433706 1.159599 0.060958 -0.020104 -658303.000000 0 0 1
-27.271636 -11.791832 13.223907 32.521703 0.408109 1.152047 0.059961 -0.029567 -748630.000000 0 0 1
-27.292336 -12.452432 14.639307 33.380293 0.428048 1.116799 0.060558 -0.032375 15833.700000 0 0 1
-27.540536 -13.881332 14.612307 34.127584 0.466869 1.128333 0.047288 -0.027288 249283.000000 0 0 1
-27.160736 -14.478632 15.802107 34.598308 0.489754 1.096480 0.028838 -0.016134 -726972.000000 0 0 1
-27.016736 -16.017432 15.627407 35.081021 0.535161 1.109101 0.029914 -0.007868 -43096.100000 0 0 1
-28.261836 -16.688132 15.698207 36.382122 0.533392 1.124662 0.030622 -0.006110 229973.000000 0 0 1
-28.020536 -18.079732 15.596007 36.813891 0.573016 1.133331 0.028559 -0.002665 -581223.000000 0 0 1
-29.133136 -18.851932 16.268107 38.324747 0.574331 1.132408 0.015988 0.003059 -428263.000000 0 0 1
-29.093236 -18.686232 17.707207 38.847610 0.570935 1.097512 0.020097 0.005385 572877.000000 0 0 1
-29.943236 -19.637132 18.441407 40.277783 0.580450 1.095215 0.023311 0.010419 562411.000000 0 0 1
-29.306336 -21.029132 18.629707 40.597435 0.622416 1.094052 0.016230 0.009849 -78359.900000 0 0 1
-28.132136 -20.953232 19.401807 40.085972 0.640174 1.065571 0.027952 0.009463 -79785.300000 0 0 1
-27.586836 -22.239832 19.611707 40.500157 0.678495 1.065305 0.031806 0.000192 910764.000000 0 0 1
-26.141036 -22.122632 20.276407 39.798207 0.702330 1.036215 0.052127 0.001275 1751750.000000 0 0 1
-25.116236 -21.825032 19.302307 38.467342 0.715399 1.045136 0.045166 -0.008251 -10058.000000 0 0 1
-23.862336 -21.744132 19.870707 37.908618 0.738986 1.019052 0.057500 -0.002290 -529738.000000 0 0 1
-22.594936 -21.405632 19.075307 36.504788 0.758375 1.020966 0.061417 -0.002445 130169.000000 0 0 1
-22.168536 -22.454832 18.237007 36.445190 0.791814 1.046741 0.067595 -0.005480 358968.000000 0 0 1
-20.985836 -22.124732 17.520407 35.169216 0.811810 1.049304 0.077521 -0.019721 249105.000000 0 0 1
-20.742236 -23.057232 16.305207 35.039065 0.838203 1.086773 0.081990 -0.020489 -675167.000000 0 0 1
-20.592436 -24.464832 16.509407 35.988011 0.871131 1.094211 0.097925 -0.024737 -385878.000000 0 0 1
-19.455936 -24.990132 17.117507 36.000683 0.909275 1.075290 0.102030 -0.024786 -227011.000000 0 0 1
-18.119636 -24.895832 16.329407 34.853597 0.941643 1.083188 0.099481 -0.029168 -118157.000000 0 0 1
-17.626936 -23.614632 16.194207 33.624575 0.929577 1.068296 0.098259 -0.034720 545169.000000 0 0 1
-16.252836 -23.732032 15.754807 32.796005 0.970312 1.069699 0.097033 -0.034643 1247990.000000 0 0 1
-15.422636 -22.412932 15.877407 31.500623 0.968093 1.042532 0.089761 -0.033665 -146895.000000 0 0 1
-15.775236 -21.357232 14.981107 30.486440 0.934607 1.057097 0.102337 -0.025454 136321.000000 0 0 1
-16.871936 -20.542832 15.357007 30.700290 0.883199 1.046939 0.088549 -0.021453 -92.376900 0 0 1
-16.424336 -19.356632 16.211607 30.120661 0.867167 1.002470 0.092402 -0.024669 -647440.000000 0 0 1
-15.700936 -18.393032 15.508707 28.728784 0.864196 1.000559 0.089036 -0.017382 -60300.200000 0 0 1
-15.724236 -17.191432 16.315807 28.442969 0.829943 0.959863 0.082631 -0.018287 -414698.000000 0 0 1
-14.919536 -16.019932 15.675207 26.924764 0.820949 0.949382 0.081495 -0.014294 90137.300000 0 0 1
-15.547236 -15.284432 14.643207 26.263167 0.776875 0.979357 0.062242 -0.020638 -5361.280000 0 0 1
-15.744536 -15.948032 13.406007 26.114195 0.791819 1.031700 0.085778 -0.024014 -67706.400000 0 0 1
-16.746236 -15.238432 12.463907 25.845603 0.738292 1.067581 0.064255 -0.014206 -307359.000000 0 0 1
-18.081736 -15.290132 12.899807 26.965577 0.701941 1.071987 0.045747 -0.012432 -167258.000000 0 0 1
-18.836236 -14.524132 11.938907 26.613750 0.656853 1.105599 0.071803 -0.017455 -1262790.000000 0 0 1
-20.323736 -14.568432 12.242507 27.841919 0.621925 1.115515 0.047768 -0.019975 -760824.000000 0 0 1
-21.021436 -15.712132 11.815207 28.781435 0.641857 1.147778 0.051356 -0.022420 -134590.000000 0 0 1
-21.243236 -15.694532 10.386907 28.381001 0.636295 1.196110 0.071881 -0.020132 -400916.000000 0 0 1
-21.935536 -16.997932 9.795907 29.428850 0.659250 1.231453 0.078422 -0.016543 870362.000000 0 0 1
-21.013536 -18.076132 9.602307 29.334613 0.710394 1.237312 0.074572 -0.008248 884188.000000 0 0 1
-21.764636 -19.137832 8.955407 30.334062 0.721265 1.271104 0.074215 -0.019980 603734.000000 0 0 1
-21.028636 -20.497032 8.999007 30.713417 0.772597 1.273434 0.065166 -0.009668 -477516.000000 0 0 1
-19.867536 -20.537132 8.242807 29.739479 0.801969 1.289952 0.084555 -0.008580 -817947.000000 0 0 1
-19.548036 -21.911932 8.108107 30.463090 0.842353 1.301387 0.072924 -0.011414 -87230.100000 0 0 1
-18.171336 -22.186732 7.476907 29.637015 0.884566 1.315758 0.074914 -0.018495 -439909.000000 0 0 1
-17.094836 -21.751932 8.220107 28.860875 0.904712 1.281979 0.062454 -0.015524 -579162.000000 0 0 1
-15.855436 -21.849132 7.550007 28.031804 0.943044 1.298092 0.078047 -0.017844 -606814.000000 0 0 1
-14.637536 -21.728832 8.430507 27.522228 0.977978 1.259475 0.042867 -0.006661 -990532.000000 0 0 1
-13.483836 -21.931332 7.675307 26.864614 1.019550 1.281056 0.060260 -0.008032 -1088080.000000 0 0 1
-12.318736 -21.737732 8.388907 26.356290 1.055223 1.246873 0.059191 -0.008556 -1060680.000000 0 0 1
-11.065136 -22.274832 7.759707 26.054144 1.109748 1.268378 0.059690 -0.005519 -551656.000000 0 0 1
-11.052036 -23.683832 7.833407 27.284312 1.134184 1.279595 0.054850 0.000703 -86850.800000 0 0 1
-9.749336 -24.112532 7.482807 27.063927 1.186566 1.290660 0.068481 -0.003736 366320.000000 0 0 1
-9.540736 -25.660042 7.443907 28.370322 1.214823 1.305305 0.065042 -0.003351 -136630.000000 0 0 1
-10.131436 -26.228852 6.303607 28.815519 1.202181 1.350256 0.066828 -0.008295 -268331.000000 0 0 1
-10.265036 -27.612312 6.341807 30.133524 1.214873 1.358754 0.082551 -0.007015 117619.000000 0 0 1
-9.108636 -28.361642 5.617607 30.313487 1.260041 1.384402 0.087424 -0.010084 -511403.000000 0 0 1
-7.867936 -27.966242 6.184907 29.702999 1.296548 1.361036 0.089948 -0.014669 -717614.000000 0 0 1
-6.855936 -28.781352 5.645407 30.120436 1.336947 1.382253 0.082753 -0.010705 -232122.000000 0 0 1
-6.797936 -30.216092 6.264207 31.598488 1.349503 1.371230 0.093638 -0.018480 -894866.000000 0 0 1
-6.437936 -30.196172 7.630307 31.803733 1.360738 1.328514 0.094874 -0.019058 22004.300000 0 0 1
-6.499936 -31.530632 8.155107 33.210476 1.367498 1.322701 0.125520 -0.027920 -179492.000000 0 0 1
-6.665936 -31.578202 9.657807 33.688140 1.362758 1.280034 0.103871 -0.025180 -31435.500000 0 0 1
-5.644936 -30.992722 10.457707 33.193038 1.390634 1.250279 0.080841 -0.018299 258790.000000 0 0 1
-5.869936 -31.251162 11.817107 33.922489 1.385129 1.214980 0.067487 -0.014685 -145541.000000 0 0 1
-5.103936 -30.347112 12.794207 33.327003 1.404170 1.176781 0.071179 -0.017481 229655.000000 0 0 1
-5.570936 -28.990922 12.678607 32.128740 1.380949 1.165143 0.069967 -0.018401 283971.000000 0 0 1
-4.898936 -28.222372 13.644507 31.728133 1.398925 1.126254 0.063339 -0.025346 513418.000000 0 0 1
-5.883936 -27.812042 14.829607 32.063182 1.362310 1.089970 0.061739 -0.025484 680510.000000 0 0 1
-6.342936 -28.836752 15.720607 33.450390 1.354284 1.081542 0.044074 -0.020549 407051.000000 0 0 1
-5.436936 -29.280862 16.748107 34.167649 1.387205 1.058506 0.036068 -0.012054 391912.000000 0 0 1
-5.818936 -30.728832 17.161207 35.673914 1.383648 1.068936 0.038237 -0.013317 132061.000000 0 0 1
-5.737936 -31.584392 16.056507 35.893024 1.391086 1.107004 0.040907 -0.007515 111089.000000 0 0 1
-6.354936 -32.758192 16.491607 37.221734 1.379181 1.111783 0.036037 -0.009068 -53020.900000 0 0 1
-5.823936 -34.061342 15.843907 38.014769 1.401450 1.140893 0.025206 -0.010318 -146264.000000 0 0 1
-6.290936 34.100880 14.511507 37.590287 -1.388367 1.174457 0.038735 -0.012634 96384.300000 0 0 1
-5.805936 32.983134 13.882707 36.253628 -1.396554 1.177827 0.041120 -0.018402 1161120.000000 0 0 1
-4.381936 33.134298 13.185007 35.929479 -1.439312 1.195048 0.062732 -0.015962 1433580.000000 0 0 1
-4.683936 33.682080 11.915507 36.033333 -1.432619 1.233772 0.070882 -0.018084 76430.200000 0 0 1
-3.491936 34.010858 11.254307 35.994326 -1.468484 1.252795 0.080872 -0.022718 -1256840.000000 0 0 1
-3.670936 -33.758522 9.785707 35.339406 1.462481 1.290223 0.078145 -0.023473 -812227.000000 0 0 1
-3.970936 33.557152 8.749407 34.905628 -1.453011 1.317435 0.087250 -0.028860 300705.000000 0 0 1
-4.887936 32.493668 8.947707 34.055716 -1.421488 1.304938 0.098434 -0.033435 824998.000000 0 0 1
-6.368936 32.825132 9.376407 34.727073 -1.379151 1.297400 0.118653 -0.023626 417450.000000 0 0 1
-7.081936 33.512466 8.348807 35.255379 -1.362538 1.331716 0.124443 -0.021597 102417.000000 0 0 1
-8.469236 33.510609 8.687307 35.639278 -1.323247 1.324559 0.111326 -0.025512 158798.000000 0 0 1
-9.352836 33.633482 7.474107 35.700825 -1.299568 1.359882 0.115514 -0.035133 -545954.000000 0 0 1
-9.413136 -33.393062 6.861107 35.366347 1.296037 1.375557 0.125817 -0.033061 13421.400000 0 0 1
-10.097536 -33.447412 5.635407 35.389934 1.277604 1.410878 0.107138 -0.020714 -422843.000000 0 0 1
-10.206536 -32.091652 4.896407 34.029727 1.262869 1.426409 0.091295 -0.022316 360015.000000 0 0 1
-11.130136 -31.095132 5.346807 33.457069 1.227067 1.410297 0.100819 -0.022150 1018800.000000 0 0 1
-12.496636 -31.342082 4.971407 34.105819 1.191396 1.424511 0.095059 -0.019257 837561.000000 0 0 1
-13.532136 -30.437302 5.691307 33.792588 1.152450 1.401571 0.080647 -0.022067 121696.000000 0 0 1
-13.766636 -30.713642 7.028807 34.383894 1.149419 1.364924 0.083814 -0.025704 -108067.000000 0 0 1
-14.870236 -29.981302 7.494707 34.295379 1.110367 1.350484 0.079072 -0.024732 -123699.000000 0 0 1
33.092531 -12.863332 -12.387693 37.603668 -0.370734 1.906494 0.074247 -0.015811 -253263.000000 0 0 1
32.252001 -13.091432 -11.277793 36.589148 -0.385591 1.884126 0.078665 -0.018838 130365.000000 0 0 1
32.147811 -14.383532 -10.757493 36.825146 -0.420705 1.867243 0.069363 -0.020314 842255.000000 0 0 1
33.382081 -14.789432 -9.837593 37.813607 -0.417047 1.833984 0.064111 -0.025908 1269790.000000 0 0 1
34.626071 -15.006532 -10.478293 39.165743 -0.408954 1.841632 0.067397 -0.026916 138202.000000 0 0 1
35.656111 -15.287432 -9.554093 39.954280 -0.405040 1.812262 0.061003 -0.026482 -1315.040000 0 0 1
-36.271507 -15.456832 -10.107293 40.702497 0.402838 1.821743 0.048464 -0.027767 -161390.000000 0 0 1
-35.696800 -14.245832 -10.595093 39.868048 0.379712 1.839782 0.051290 -0.019675 -823496.000000 0 0 1
-34.327972 -14.410032 -10.631993 38.718186 0.397437 1.848969 0.064660 -0.024113 -590356.000000 0 0 1
-33.440697 -13.141732 -10.886993 37.543468 0.374445 1.865006 0.083012 -0.026591 177064.000000 0 0 1
-33.451077 -12.219932 -9.726293 36.917504 0.350246 1.837404 0.093871 -0.026228 231523.000000 0 0 1
-32.770127 -11.023232 -10.005093 35.992982 0.324490 1.852480 0.099121 -0.020763 -245450.000000 0 0 1
-33.163427 -9.881432 -9.048093 35.767633 0.289586 1.826544 0.097965 -0.032569 8315.850000 0 0 1
-32.682887 -9.921632 -7.720693 35.017410 0.294731 1.793104 0.103341 -0.024927 260251.000000 0 0 1
-33.125007 -8.775532 -7.071493 34.989742 0.258973 1.774300 0.126001 -0.039712 -192270.000000 0 0 1
-32.607757 -8.731032 -5.640793 34.224484 0.261622 1.736369 0.119170 -0.028236 -360839.000000 0 0 1
-31.232417 -8.394232 -5.639193 32.828760 0.262562 1.743428 0.132734 -0.040876 153924.000000 0 0 1
-30.675107 -8.477432 -4.317793 32.116544 0.269632 1.705646 0.144671 -0.035790 -157038.000000 0 0 1
-30.185957 -9.949132 -3.947093 32.027438 0.318382 1.694351 0.131233 -0.032460 -178583.000000 0 0 1
-31.224337 -10.877832 -3.702893 33.271578 0.335228 1.682320 0.133885 -0.032297 485750.000000 0 0 1
-31.987267 -10.711632 -2.498593 33.825542 0.323134 1.644731 0.118522 -0.033758 120994.000000 0 0 1
-32.552667 -12.024732 -1.959993 34.757904 0.353846 1.627216 0.110232 -0.025957 123995.000000 0 0 1
-33.665787 -12.435532 -2.765693 35.995510 0.353836 1.647707 0.102122 -0.034617 333851.000000 0 0 1
-34.210151 -13.619832 -2.216493 36.888306 0.378887 1.630919 0.091833 -0.034564 -1138490.000000 0 0 1
-35.711232 -13.615132 -2.415193 38.294870 0.364244 1.633907 0.077646 -0.027584 -882152.000000 0 0 1
-36.285417 -12.604932 -1.576493 38.444780 0.334341 1.611815 0.091849 -0.037014 -1179500.000000 0 0 1
35.773921 -12.918532 -1.250293 38.055553 -0.346543 1.603657 0.108875 -0.030513 -1308700.000000 0 0 1
35.152001 -11.943732 -0.213193 37.126290 -0.327536 1.576539 0.099647 -0.032213 55061.100000 0 0 1
35.699731 -12.018832 1.140907 37.685870 -0.324746 1.540518 0.108406 -0.029184 379689.000000 0 0 1
35.486101 -10.848532 1.928207 37.157395 -0.296689 1.518880 0.101314 -0.031488 -344518.000000 0 0 1
35.665851 -11.083332 3.444307 37.506752 -0.301294 1.478835 0.110864 -0.041323 736697.000000 0 0 1
34.513221 -11.550132 4.187807 36.634761 -0.322942 1.456233 0.108727 -0.044954 503707.000000 0 0 1
34.897571 -12.142032 5.395507 37.341410 -0.334833 1.425798 0.108030 -0.043615 -237947.000000 0 0 1
33.850301 -12.295332 6.515207 36.598716 -0.348409 1.391825 0.098661 -0.033694 -275124.000000 0 0 1
33.350211 -11.087732 7.015807 35.838470 -0.320968 1.373762 0.085525 -0.036164 -116685.000000 0 0 1
33.052361 -11.219732 8.368107 35.893818 -0.327248 1.335496 0.070787 -0.018197 -252530.000000 0 0 1
32.202351 -9.996332 8.827607 34.854623 -0.300991 1.314738 0.070009 -0.028986 -405983.000000 0 0 1
30.830681 -10.095332 8.616207 33.566139 -0.316441 1.311197 0.070601 -0.027724 -242212.000000 0 0 1
30.023671 -9.042632 9.161007 32.666712 -0.292542 1.286545 0.083708 -0.015035 746311.000000 0 0 1
28.513701 -9.223532 8.822307 31.240003 -0.312854 1.284497 0.064655 -0.020410 321697.000000 0 0 1
28.135221 -8.603032 7.602707 30.387563 -0.296746 1.317918 0.087523 -0.023893 334799.000000 0 0 1
27.320121 -9.580332 6.917407 29.766127 -0.337271 1.336260 0.111463 -0.040750 287671.000000 0 0 1
26.357821 -8.985232 5.837607 28.452536 -0.328540 1.364159 0.118940 -0.043226 28158.800000 0 0 1
25.291021 -8.264032 6.420407 27.370634 -0.315821 1.334017 0.133591 -0.039123 505392.000000 0 0 1
24.358821 -7.722132 5.485207 26.135627 -0.306994 1.359350 0.134844 -0.044876 171681.000000 0 0 1
24.787321 -6.374532 4.813507 26.042577 -0.251715 1.384895 0.135176 -0.037769 -643127.000000 0 0 1
25.752021 -6.446732 3.808307 26.818467 -0.245298 1.428312 0.123865 -0.042296 -21099.500000 0 0 1
26.220621 -5.206632 3.335307 26.939827 -0.196020 1.446672 0.135564 -0.039830 146947.000000 0 0 1
26.970821 -5.485932 1.991907 27.595078 -0.200665 1.498550 0.138456 -0.042818 444819.000000 0 0 1
26.051321 -5.750032 0.924907 26.694375 -0.217236 1.536141 0.147417 -0.043134 432421.000000 0 0 1
26.698721 -5.616832 -0.366893 27.285621 -0.207354 1.584243 0.139744 -0.038829 47711.600000 0 0 1
25.793721 -5.800732 -1.601193 26.486381 -0.221209 1.631287 0.147916 -0.032940 -352211.000000 0 0 1
24.796321 -4.851532 -1.754593 25.327327 -0.193215 1.640129 0.161327 -0.028794 105358.000000 0 0 1
23.977521 -5.170132 -2.919793 24.701761 -0.212373 1.689275 0.136070 -0.027793 -110763.000000 0 1 0
22.726621 -4.316332 -3.023193 23.329589 -0.187689 1.700748 0.106188 -0.024327 -696112.000000 0 1 0
22.918121 -2.875532 -3.111893 23.306498 -0.124818 1.704717 0.096121 -0.026472 178972.000000 0 1 0
23.225421 -2.378232 -4.435693 23.764502 -0.102042 1.758550 0.095434 -0.022103 10586.900000 0 1 0
22.088521 -1.519732 -5.041093 22.707377 -0.068694 1.794664 0.067909 -0.014594 86681.500000 0 1 0
21.896821 -0.314532 -4.359993 22.328888 -0.014363 1.767321 0.060588 -0.006227 321046.000000 0 1 0
21.215321 0.630868 -5.174093 21.846260 0.029728 1.809909 0.073860 -0.000891 -579960.000000 0 1 0
21.230721 2.048368 -4.607893 21.821366 0.096184 1.783562 0.091685 0.007008 -114366.000000 0 1 0
22.459721 2.749268 -4.655693 23.101364 0.121803 1.773719 0.118340 0.006661 248340.000000 0 1 0
23.262521 2.486668 -3.514393 23.657544 0.106492 1.719901 0.131428 0.005046 233272.000000 0 1 0
24.541821 3.379868 -3.473093 25.015732 0.136858 1.710083 0.126225 -0.005576 838.838000 0 0 1
24.225621 4.749168 -3.283793 24.904189 0.193584 1.703038 0.123364 0.007046 312728.000000 0 1 0
25.170821 5.533468 -2.572993 25.899996 0.216394 1.670304 0.115468 -0.005001 -210197.000000 0 0 1
24.816321 7.028068 -2.520993 25.915226 0.275977 1.668229 0.103618 -0.007823 -48646.300000 0 0 1
23.680721 7.267668 -1.714093 24.830096 0.297777 1.639884 0.110828 -0.012797 380121.000000 0 1 0
23.131921 8.494268 -2.071593 24.729130 0.351923 1.654666 0.118642 -0.006590 9331.640000 0 1 0
21.936521 8.943468 -1.168393 23.718384 0.387125 1.620077 0.102189 -0.003242 357981.000000 0 1 0
22.309021 9.600668 0.041207 24.287177 0.406393 1.569100 0.085700 -0.007918 1887360.000000 0 1 0
21.049421 9.958268 0.677907 23.296025 0.441889 1.541693 0.056465 -0.006265 1339670.000000 0 1 0
21.362621 10.594068 2.064707 23.934471 0.460375 1.484424 0.065585 -0.008786 -372007.000000 0 1 0
22.065621 11.838968 2.019207 25.122301 0.492446 1.490334 0.076714 -0.021085 199487.000000 0 0 1
21.446321 13.011368 1.620807 25.136973 0.545327 1.506273 0.080977 -0.015354 -417730.000000 0 0 1
20.384721 13.694568 2.537207 24.688367 0.591552 1.467845 0.075292 -0.011002 511198.000000 0 1 0
19.127221 13.011768 2.580107 23.276891 0.597365 1.459724 0.067371 -0.006497 224173.000000 0 1 0
18.115421 13.648868 3.272107 22.916518 0.645699 1.427523 0.061826 -0.013142 -853762.000000 0 1 0
18.252121 13.739068 4.816807 23.347453 0.645251 1.362994 0.064656 -0.007985 -651876.000000 0 1 0
17.997321 12.543168 5.395907 22.590938 0.608674 1.329612 0.060811 -0.004046 226283.000000 0 1 0
18.372321 12.428668 6.744807 23.184184 0.594772 1.275605 0.080021 -0.018140 16896.300000 0 1 0
18.227321 11.004268 7.346007 22.523165 0.543153 1.238565 0.048908 -0.013680 -536802.000000 0 1 0
19.070621 10.178968 6.637707 22.613252 0.490283 1.272877 0.026001 -0.019281 -156026.000000 0 1 0
19.267121 8.914568 7.242907 22.431032 0.433351 1.242008 0.037585 -0.016435 -176088.000000 0 1 0
20.259621 8.033668 6.444007 22.727017 0.377517 1.283313 0.043546 -0.018433 -5347.140000 0 1 0
19.885821 7.768368 5.086407 21.946867 0.372419 1.336910 0.030916 -0.012099 488055.000000 0 1 0
20.804721 6.887868 4.463907 22.365277 0.319714 1.369856 0.044732 -0.018260 -73377.800000 0 1 0
20.626321 6.674768 2.945907 21.878666 0.312969 1.435739 0.062485 -0.010864 -685127.000000 0 1 0
21.569721 5.870068 2.344607 22.476827 0.265709 1.466294 0.060715 -0.009871 -299184.000000 0 1 0
21.321421 5.588068 0.954207 22.062185 0.256322 1.527532 0.067033 -0.003385 156237.000000 0 1 0
22.280721 4.498868 0.354107 22.733142 0.199239 1.555219 0.096335 -0.014738 578155.000000 0 1 0
21.905021 3.155468 0.631807 22.140147 0.143068 1.542256 0.068009 -0.005931 -37098.900000 0 1 0
22.995221 2.390868 0.281007 23.120887 0.103600 1.558642 0.088262 -0.001609 -473372.000000 0 1 0
22.821921 0.882668 0.638207 22.847899 0.038657 1.542860 0.111786 -0.006560 -209443.000000 0 1 0
21.836821 0.132768 -0.097793 21.837444 0.006080 1.575275 0.063806 -0.018273 462216.000000 0 1 0
22.122521 -1.176032 -0.524493 22.159966 -0.053110 1.594467 0.095837 -0.018646 -1703150.000000 0 1 0
22.322221 -2.326332 0.550707 22.449870 -0.103841 1.546263 0.128074 -0.016175 291653.000000 0 1 0
23.496321 -2.181532 1.307307 23.633562 -0.092580 1.515452 0.146084 -0.017030 841720.000000 0 1 0
24.774521 -2.163732 0.676607 24.878031 -0.087116 1.543596 0.163745 -0.029243 402188.000000 0 1 0
25.914021 -1.617932 1.645507 26.016570 -0.062354 1.507506 0.166730 -0.033560 472427.000000 0 0 1
25.677521 -0.251832 1.936207 25.751649 -0.009807 1.495538 0.150320 -0.027600 432670.000000 0 0 1
26.409021 0.174968 3.083107 26.588956 0.006625 1.454580 0.147647 -0.031152 -252878.000000 0 0 1
26.063221 1.599068 3.630007 26.363336 0.061277 1.432666 0.126825 -0.024059 -252084.000000 0 0 1
26.503221 2.745968 2.956107 26.808574 0.103240 1.460304 0.153367 -0.021931 1092070.000000 0 0 1
27.937121 2.899168 3.000007 28.246911 0.103405 1.464389 0.168206 -0.023032 928796.000000 0 0 1
28.482781 3.793768 1.873607 28.795345 0.132416 1.505684 0.184813 -0.025789 -279446.000000 0 0 1
28.055821 3.392768 0.587007 28.266315 0.120345 1.550028 0.201279 -0.017112 195407.000000 0 0 1
28.432091 4.232568 -0.515293 28.750026 0.147781 1.588720 0.184340 -0.018473 -379802.000000 0 0 1
29.846731 4.042968 -1.098393 30.139334 0.134638 1.607248 0.164905 -0.025660 -727693.000000 0 0 1
30.828351 4.357168 -0.170193 31.135207 0.140406 1.576263 0.157115 -0.030501 -1062790.000000 0 0 1
32.070021 4.180368 -0.796093 32.351128 0.129620 1.595407 0.129821 -0.028046 235489.000000 0 0 1
33.271141 4.345268 0.230007 33.554480 0.129867 1.563942 0.096284 -0.028634 518493.000000 0 0 1
33.450501 3.433568 1.334907 33.652747 0.102288 1.531119 0.105936 -0.031417 228154.000000 0 0 1
32.595451 3.833168 2.392807 32.907175 0.117061 1.498018 0.109925 -0.021854 96093.900000 0 0 1
32.515491 2.808568 3.543407 32.828356 0.086162 1.462648 0.113950 -0.020571 -131666.000000 0 0 1
31.799511 1.661168 3.163707 31.999648 0.052191 1.471768 0.139389 -0.022974 151347.000000 0 0 1
31.853161 0.683868 4.211907 32.137699 0.021466 1.439360 0.123047 -0.021821 -21934.200000 0 0 1
33.094501 -0.250732 4.168007 33.356876 -0.007576 1.445517 0.109723 -0.023091 -304683.000000 0 0 1
34.225701 0.419668 4.631207 34.540163 0.012261 1.436309 0.104435 -0.025532 -833459.000000 0 0 1
35.355011 -0.374232 4.451607 35.636129 -0.010585 1.445551 0.091334 -0.034989 -109747.000000 0 0 1
-36.643957 0.389868 4.792907 36.958133 -0.010639 1.440745 0.102564 -0.045178 848039.000000 0 0 1
-36.358237 1.423068 3.838407 36.587975 -0.039120 1.465694 0.082223 -0.042865 103396.000000 0 0 1
-35.811161 0.956768 2.640507 35.921121 -0.026711 1.497221 0.121544 -0.045073 -999080.000000 0 0 1
-35.641164 2.140268 1.592407 35.740860 -0.059978 1.526227 0.104069 -0.042904 286299.000000 0 0 1
-34.526550 3.004768 1.774307 34.702442 -0.086809 1.519645 0.134193 -0.051585 -320096.000000 0 0 1
-33.365277 2.473068 1.218607 33.478990 -0.073986 1.534389 0.161758 -0.052759 -626300.000000 0 0 1
-32.134287 3.387168 1.575407 32.350691 -0.105019 1.522079 0.163016 -0.050125 254638.000000 0 0 1
-31.831647 3.262368 2.953707 32.134424 -0.102132 1.478749 0.166077 -0.048859 -101051.000000 0 0 1
-31.005367 4.305868 3.416407 31.488810 -0.137992 1.462086 0.183247 -0.038641 -528270.000000 0 0 1
-31.243707 4.629468 4.910707 31.964297 -0.147102 1.416554 0.174394 -0.027414 173325.000000 0 0 1
-32.550837 5.008568 5.328307 33.362159 -0.152672 1.410398 0.163850 -0.009942 538477.000000 0 0 1
-33.547537 3.997268 5.370407 34.209015 -0.118593 1.413156 0.148657 -0.013990 -606553.000000 0 0 1
-33.490017 2.926668 6.494107 34.239160 -0.087168 1.379971 0.123847 -0.016432 -750852.000000 0 0 1
-33.827567 3.465068 7.741507 34.874660 -0.102077 1.346951 0.115233 -0.010763 298128.000000 0 0 1
-33.851377 2.663468 8.894707 35.101647 -0.078519 1.314604 0.099847 -0.012793 -389062.000000 0 0 1
-34.984411 1.629768 8.918007 36.139950 -0.046552 1.321458 0.083434 -0.009998 -585985.000000 0 0 1
-34.865449 0.452168 8.137707 35.805395 -0.012968 1.341517 0.086336 -0.016806 363127.000000 0 0 1
-35.878236 -0.527132 8.410307 36.854565 0.014691 1.340565 0.086751 -0.011972 154094.000000 0 0 1
-35.697709 -1.379332 9.716807 37.022228 0.038620 1.305227 0.090472 -0.005582 -255898.000000 0 0 1
-34.458400 -2.050432 9.673607 35.849188 0.059434 1.297568 0.103434 -0.020063 269243.000000 0 0 1
-34.052747 -2.871232 10.785707 35.835249 0.084118 1.265076 0.107192 -0.003549 418045.000000 0 0 1
-32.735077 -3.662332 10.518307 34.577923 0.111415 1.261707 0.138942 -0.000377 194331.000000 0 0 1
-32.946837 -4.680432 9.610207 34.637503 0.141116 1.289656 0.125553 -0.021123 400184.000000 0 0 1
-31.779307 -5.427032 9.284807 33.549735 0.169141 1.290389 0.126966 -0.033283 407417.000000 0 0 1
-32.128367 -6.655632 8.392307 33.866802 0.204268 1.320384 0.123703 -0.016688 196072.000000 0 0 1
-33.110467 -7.513532 8.911807 35.102372 0.223144 1.314106 0.132113 -0.023708 -253184.000000 0 0 1
-33.486887 -8.444832 7.980707 35.445430 0.247032 1.343694 0.119265 -0.029031 105083.000000 0 0 1
-34.435972 -9.539632 8.564307 36.744906 0.270248 1.335558 0.128009 -0.031295 1065400.000000 0 0 1
-35.788344 -9.065632 8.706607 37.931468 0.248094 1.339196 0.124622 -0.036943 395914.000000 0 0 1
-36.601897 -10.160032 8.937707 39.023169 0.270765 1.339709 0.107356 -0.038550 -573380.000000 0 0 1
8.163193 -23.782932 10.443207 27.227305 -1.240159 1.177152 0.088340 -0.020997 147015.000000 0 0 1
7.478993 -24.437932 9.365307 27.218685 -1.273807 1.219541 0.089727 -0.028027 -103615.000000 0 0 1
6.170993 -24.812432 9.746107 27.362831 -1.327036 1.206619 0.095934 -0.030916 248081.000000 0 0 1
5.589093 -25.897602 8.800907 27.917373 -1.358241 1.250078 0.083659 -0.021592 -270898.000000 0 0 1
5.018293 -25.360612 7.604107 26.947474 -1.375443 1.284728 0.092746 -0.019823 -600055.000000 0 0 1
4.938793 -26.288802 6.548407 27.538599 -1.385094 1.330706 0.073538 -0.016770 -827110.000000 0 0 1
4.251793 -25.792422 5.264907 26.665446 -1.407419 1.372047 0.066148 -0.016246 356604.000000 0 0 1
2.840893 -25.768562 5.418807 26.484957 -1.460993 1.364742 0.057180 -0.021152 -254883.000000 0 0 1
2.220193 -26.999972 5.143607 27.575069 -1.488751 1.383166 0.050449 -0.014193 -465347.000000 0 0 1
0.678593 -26.837892 5.118307 27.330020 -1.545517 1.382406 0.053695 -0.017199 -116123.000000 0 0 1
0.217793 -26.513082 6.425107 27.281366 -1.562582 1.333050 0.049334 -0.023726 1991100.000000 0 0 1
-1.264107 -26.418502 6.422907 27.217438 1.522983 1.332564 0.044386 -0.026044 2771740.000000 0 0 1
-2.062007 -27.723432 6.626907 28.578951 1.496555 1.336786 0.051722 -0.018388 -526444.000000 0 0 1
-1.707407 -28.406322 7.838007 29.517261 1.510762 1.302033 0.049538 -0.024137 115260.000000 0 0 1
-2.192207 -29.766242 7.758907 30.838865 1.497282 1.316468 0.064753 -0.021940 61437.000000 0 0 1
-2.031007 -30.493832 9.056007 31.874912 1.504291 1.282717 0.068254 -0.024760 643434.000000 0 0 1
-0.699807 -30.827252 9.457207 32.252875 1.548099 1.273203 0.070291 -0.020644 270683.000000 0 0 1
-0.629107 -31.242502 10.787807 33.058531 1.550663 1.238384 0.072991 -0.015509 92779.300000 0 0 1
0.814793 -31.343372 11.326207 33.336974 -1.544806 1.224146 0.066954 -0.018880 -105235.000000 0 0 1
1.475793 -32.488672 10.802707 34.269378 -1.525403 1.250098 0.064186 -0.014627 206669.000000 0 0 1
2.866593 -32.530082 11.100007 34.491068 -1.482902 1.243142 0.065970 -0.013566 587918.000000 0 0 1
3.259493 -33.076232 12.484007 35.503688 -1.472569 1.211489 0.060211 -0.015398 -580664.000000 0 0 1
2.976493 -32.207282 13.587107 35.082446 -1.478641 1.173105 0.059715 -0.013224 -450.234000 0 0 1
3.565193 -32.559952 14.818107 35.950485 -1.461735 1.145950 0.060239 -0.011536 -736698.000000 0 0 1
3.462093 -31.520852 15.940107 35.491368 -1.461400 1.105009 0.067949 -0.009803 213142.000000 0 0 1
4.100393 -30.230292 15.786507 34.349637 -1.435981 1.093271 0.059780 -0.015013 434698.000000 0 0 1
5.520993 -30.316332 15.817807 34.637615 -1.390658 1.096553 0.059861 -0.011096 131659.000000 0 0 1
6.158493 -29.088002 15.064807 33.331476 -1.362158 1.101824 0.064722 -0.020373 -104907.000000 0 0 1
6.307493 -29.172172 13.642707 32.816513 -1.357858 1.142054 0.053989 -0.018552 -362656.000000 0 0 1
5.117593 -29.135822 12.904707 32.274097 -1.396924 1.159446 0.054942 -0.011003 -585155.000000 0 0 1
5.362293 -29.276542 11.362207 31.858591 -1.389644 1.206122 0.052399 -0.022028 45904.700000 0 0 1
5.715793 -30.544992 10.883607 32.925973 -1.385809 1.233912 0.043409 -0.016751 -464789.000000 0 0 1
7.096093 -30.737992 11.016507 33.414699 -1.343914 1.234821 0.043103 -0.016900 -696327.000000 0 0 1
7.512693 -32.185312 10.584107 34.703864 -1.341482 1.260875 0.029467 -0.011572 -469050.000000 0 0 1
7.241993 -33.168382 11.545307 35.859199 -1.355830 1.242995 0.032690 -0.016979 263291.000000 0 0 1
7.467693 33.756659 11.053807 36.296902 1.353081 1.261342 0.033018 -0.011467 -96836.300000 0 0 1
7.264893 32.613781 12.107707 35.539189 1.351619 1.223150 0.023698 -0.010491 454288.000000 0 0 1
5.882793 32.496028 12.484307 35.305198 1.391705 1.209368 0.022828 -0.009824 728035.000000 0 0 1
5.470893 31.275696 13.051807 34.328552 1.397624 1.180781 0.033166 -0.006405 -377980.000000 0 0 1
4.157193 31.342136 13.802807 34.498249 1.438927 1.159169 0.048782 -0.017237 -275915.000000 0 0 1
4.275593 32.095066 15.005407 35.686639 1.438360 1.136825 0.060507 -0.018931 900383.000000 0 0 1
3.088193 31.800236 15.782607 35.635412 1.473988 1.111976 0.060003 -0.013065 1024910.000000 0 0 1
3.420393 32.025426 17.291307 36.555660 1.464397 1.078089 0.054515 -0.013690 230659.000000 0 0 1
3.682093 33.395544 17.581307 37.919949 1.460983 1.088694 0.061107 -0.010962 72383.700000 0 0 1
4.256293 33.462025 18.872407 38.652178 1.444278 1.060699 0.057907 -0.011870 175860.000000 0 0 1
4.404193 -33.316552 19.440607 38.824306 -1.439366 1.046351 0.056765 -0.018724 -221286.000000 0 0 1
3.184193 -32.875392 19.957207 38.590421 -1.474241 1.027273 0.044832 -0.015150 -469822.000000 0 0 1
3.286693 -31.919892 20.997207 38.347941 -1.468191 0.991369 0.045382 -0.020985 523450.000000 0 0 1
1.903893 -31.343042 21.466207 38.036944 -1.510127 0.971149 0.036922 -0.020193 516410.000000 0 0 1
1.195693 -32.125452 22.409107 39.187274 -1.533594 0.962041 0.047268 -0.017204 -426270.000000 0 0 1
0.130193 -31.353032 22.905207 38.828831 -1.566644 0.939859 0.043513 -0.018782 -346887.000000 0 0 1
-1.006107 -32.260392 23.450207 39.895581 1.539619 0.942472 0.027637 -0.017696 -807990.000000 0 0 1
-1.699107 -32.876282 22.407307 39.822410 1.519160 0.973171 0.025075 -0.018704 -331471.000000 0 0 1
-2.500407 -33.968442 22.784207 40.978375 1.497319 0.981224 0.022853 -0.018684 835406.000000 0 0 1
-3.907007 -33.569262 23.386507 41.098525 1.454931 0.965464 0.037794 -0.016171 266487.000000 0 0 1
-4.750207 -32.970882 22.451707 40.171167 1.427708 0.977736 0.026778 -0.015278 35644.000000 0 0 1
-5.997907 -32.578882 23.046807 40.354848 1.388731 0.962946 0.034589 -0.011425 695093.000000 0 0 1
-7.085907 -32.180572 22.012707 39.627750 1.354063 0.981848 0.016300 -0.009477 100230.000000 0 0 1
-7.612307 -33.346632 21.410007 40.352614 1.346364 1.011520 0.005918 -0.002534 -372856.000000 0 0 1
-8.701907 -32.992672 20.598307 39.856365 1.312916 1.027672 0.028568 -0.020437 436192.000000 0 0 1
-9.833207 -34.114068 20.558007 41.025520 1.290159 1.045924 0.038594 -0.018690 832488.000000 0 0 1
-10.476307 -33.999722 21.837507 41.744590 1.271898 1.020286 0.057050 -0.022075 1190460.000000 0 0 1
-11.799707 33.630554 21.946107 41.855452 -1.233353 1.018867 0.046369 -0.014753 1834890.000000 0 0 1
-12.405207 33.611609 23.409707 42.797708 -1.217230 0.992038 0.036110 -0.011116 252864.000000 0 0 1
-12.827107 -33.340702 23.900907 42.981280 1.203524 0.981138 0.028905 -0.009489 544269.000000 0 0 1
-11.740307 -32.441262 24.193207 42.137650 1.223565 0.959234 0.020183 -0.003642 379195.000000 0 0 1
-12.151607 -31.099612 24.842307 41.617156 1.198305 0.931134 0.016987 -0.005633 -214130.000000 0 0 1
-12.521507 -31.187622 26.190307 42.607371 1.189006 0.908804 0.018531 -0.000092 -8810.410000 0 0 1
-13.190707 -29.994012 26.490707 42.135414 1.156475 0.890911 0.030729 -0.012536 -193630.000000 0 0 1
-13.882507 -29.943502 27.888507 43.210024 1.136671 0.869227 0.039075 -0.013433 149966.000000 0 0 1
-13.030807 -29.694312 29.010807 43.510700 1.157269 0.840955 0.026854 -0.007568 419294.000000 0 0 1
-13.826107 -29.457922 30.191707 44.389972 1.131967 0.822833 0.040203 -0.006646 26420.900000 0 0 1
-13.069807 -28.983132 31.431307 44.707593 1.147157 0.791130 0.032997 -0.004655 -384963.000000 0 0 1
-13.934507 -28.616342 32.520107 45.504098 1.117649 0.774654 0.044141 -0.007392 353550.000000 0 0 1
-13.343907 -28.337552 33.762707 46.054284 1.130706 0.747918 0.034134 -0.009353 -681607.000000 0 0 1
-12.751507 -29.527352 -33.730639 46.607096 1.163135 2.379979 0.039215 -0.006321 991901.000000 0 0 1
-11.389407 -29.836762 34.112907 46.729449 1.206144 0.752462 0.033347 -0.010323 775200.000000 0 0 1
-11.024007 -30.994822 -33.439439 46.908462 1.229077 2.364373 0.038656 -0.004801 -41179.600000 0 0 1
-9.526107 -31.301622 -33.681539 46.957260 1.275369 2.370688 0.040430 -0.012384 -37239.500000 0 0 1
-8.701707 -30.370122 -33.000139 45.684496 1.291750 2.377989 0.050226 -0.022335 -562457.000000 0 0 1
-7.455707 -30.994272 -32.858039 45.780816 1.334730 2.371326 0.054333 -0.029752 177257.000000 0 0 1
-6.484407 -30.339682 -31.803839 44.430035 1.360237 2.368592 0.057876 -0.023158 434576.000000 0 0 1
-7.079407 -30.489722 -30.503239 43.705706 1.342649 2.343290 0.060551 -0.026470 364581.000000 0 0 1
-6.439607 -29.836242 -29.387539 42.370949 1.358225 2.337240 0.058163 -0.014978 -21161.600000 0 0 1
-6.968307 -30.435582 -28.081039 41.993174 1.345723 2.303262 0.072363 -0.020914 130455.000000 0 0 1
-6.196907 -31.491512 -27.497639 42.263898 1.376499 2.279194 0.060151 -0.015208 -157551.000000 0 0 1
-7.006507 -32.243272 -26.623039 42.397003 1.356822 2.249708 0.069294 -0.024931 -69134.100000 0 0 1
-6.331207 -33.364222 -25.832539 42.668203 1.383266 2.221100 0.054100 -0.024368 428379.000000 0 0 1
-5.472707 -32.964962 -24.733239 41.573697 1.406281 2.207969 0.030298 -0.029498 334052.000000 0 0 1
-5.177107 -34.083174 -23.910939 41.954716 1.420052 2.177208 0.053709 -0.033503 -29384.800000 0 0 1
-4.305807 -33.746882 -22.658539 40.875437 1.443891 2.158356 0.065760 -0.044903 216415.000000 0 0 1
-4.942007 -32.974572 -21.611439 39.734118 1.422030 2.145876 0.072140 -0.034546 91686.100000 0 0 1
-5.131907 -31.633252 -22.065939 38.908929 1.409966 2.173798 0.046245 -0.025944 107037.000000 0 0 1
-5.869807 -30.720832 -20.991339 37.667764 1.382003 2.161898 0.075623 -0.036526 -545508.000000 0 0 1
-7.198307 -31.092752 -20.744339 38.064451 1.343294 2.147161 0.088797 -0.040734 -161455.000000 0 0 1
-7.944607 -29.985642 -20.233439 37.035760 1.311800 2.148763 0.091447 -0.040815 305385.000000 0 0 1
-8.279707 -28.746792 -21.140039 36.631036 1.290364 2.185978 0.101843 -0.053205 -704471.000000 0 0 1
-7.169907 -27.904602 -21.359839 35.865263 1.319293 2.208756 0.093888 -0.038034 -156025.000000 0 0 1
-7.287107 -27.042462 -22.492639 35.920961 1.307579 2.247428 0.113156 -0.051349 -615490.000000 0 0 1
-6.404707 -27.440012 -23.735839 36.842429 1.341494 2.270842 0.094760 -0.040135 647044.000000 0 0 1
-5.022107 -27.112122 -23.710039 36.365569 1.387638 2.281004 0.093795 -0.027258 540869.000000 0 0 1
-4.247607 -27.820652 -22.725639 36.172994 1.419288 2.250097 0.071609 -0.028890 -1289010.000000 0 0 1
-2.744607 -27.627762 -22.979239 36.039860 1.471779 2.262183 0.069372 -0.034092 -254430.000000 0 0 1
-2.217507 -26.276952 -22.944339 34.954802 1.486606 2.286833 0.080335 -0.036887 313392.000000 0 0 1
-2.634707 -25.415862 -21.857939 33.625544 1.467501 2.278433 0.095079 -0.040161 -1052650.000000 0 0 1
-2.444607 -23.966832 -22.325339 32.845180 1.469148 2.318169 0.090399 -0.036923 443160.000000 0 0 1
-3.248207 -23.639632 -23.485839 33.480855 1.434246 2.348255 0.093982 -0.035167 -156394.000000 0 0 1
-4.629707 -23.632732 -23.275839 33.491863 1.377344 2.339174 0.078199 -0.043015 -1120760.000000 0 0 1
-5.412507 -23.592332 -24.605739 34.515732 1.345281 2.364400 0.084205 -0.033826 9037.460000 0 0 1
-5.624007 -22.341732 -25.181039 34.130150 1.324193 2.400594 0.103222 -0.033256 1632.460000 0 0 1
-6.324807 -22.478132 -26.403939 35.248228 1.296512 2.417477 0.112806 -0.028218 211692.000000 0 0 1
-6.254907 -21.229832 -27.294839 35.140259 1.284275 2.460269 0.124219 -0.020350 -53398.900000 0 0 1
-6.472007 -21.436932 -28.702039 36.403790 1.277589 2.479058 0.124081 -0.021175 -591620.000000 0 0 1
-5.374707 -21.835432 -29.474039 37.072800 1.329448 2.489856 0.119846 -0.024427 -556470.000000 0 0 1
-5.603707 -22.210532 -30.985439 38.533189 1.323655 2.504996 0.124141 -0.035559 -343259.000000 0 0 1
-6.015607 -21.181732 -31.811339 38.688688 1.294082 2.536130 0.133097 -0.041846 -53033.800000 0 0 1
-7.012107 -21.533632 -32.760139 39.825791 1.255990 2.536740 0.122426 -0.034799 79567.300000 0 0 1
-6.999207 -20.750632 -34.093739 40.521113 1.245479 2.570632 0.121843 -0.033466 -257907.000000 0 0 1
-5.748507 -21.025632 33.600207 40.051173 1.303914 0.575479 0.113373 -0.039449 -727523.000000 0 0 1
-5.547907 -20.393432 32.342607 38.635678 1.305181 0.578804 0.117700 -0.033811 -435591.000000 0 0 1
-4.128007 -20.492132 31.802207 38.057172 1.372013 0.581494 0.080724 -0.033399 -1467120.000000 0 0 1
-3.903207 -21.806932 31.402307 38.430225 1.393683 0.614390 0.091496 -0.036054 -280092.000000 0 0 1
-2.710807 -21.978932 30.691707 37.847098 1.448079 0.625040 0.081764 -0.036118 471864.000000 0 0 1
-1.328707 -21.705232 31.366807 38.167514 1.509657 0.606199 0.064046 -0.042331 -706966.000000 0 0 1
-0.743107 -20.509332 31.072107 37.237894 1.534580 0.583714 0.046041 -0.040703 -310138.000000 0 0 1
0.280093 -20.034432 31.905407 37.675084 -1.556817 0.560749 0.049701 -0.036673 -240961.000000 0 0 1
-0.162907 -19.684532 33.388507 38.759512 1.562521 0.532723 0.047623 -0.035585 -215116.000000 0 0 1
-1.179307 -18.715632 33.301007 38.218094 1.507868 0.512867 0.049811 -0.037953 -278679.000000 0 0 1
-1.672907 -18.345132 -33.698739 38.405045 1.479857 2.641329 0.058538 -0.039166 235068.000000 0 0 1
-2.924507 -17.431232 -33.727039 38.077733 1.404570 2.658886 0.066776 -0.035098 260758.000000 0 0 1
-2.606407 -16.093432 -33.964439 37.674593 1.410236 2.694068 0.083963 -0.032421 800174.000000 0 0 1
-3.759307 -15.226932 -33.804939 37.266147 1.328751 2.707191 0.086755 -0.030214 916154.000000 0 0 1
-3.377307 -13.737532 -34.041939 36.864340 1.329732 2.747742 0.075583 -0.030689 -319607.000000 0 0 1
-2.486907 -13.279732 -33.046839 35.701954 1.385670 2.753496 0.061291 -0.028429 -122940.000000 0 0 1
-2.230107 -11.885332 -33.124139 35.262488 1.385318 2.791553 0.052377 -0.022780 -311308.000000 0 0 1
-1.550107 -11.277332 33.883407 35.744459 1.434199 0.324110 0.053877 -0.019748 -824594.000000 0 0 1
-2.247307 -11.376032 32.665507 34.662658 1.375760 0.341112 0.063604 -0.021356 -90335.500000 0 0 1
-1.542907 -10.935132 31.502107 33.381738 1.430625 0.337175 0.069050 -0.015877 117780.000000 0 0 1
-0.526407 -11.949232 30.910507 33.143939 1.526771 0.369206 0.064788 -0.017781 -219171.000000 0 0 1
-1.094207 -13.173132 30.545807 33.283255 1.487923 0.408411 0.078174 -0.027334 -67980.900000 0 0 1
-0.222207 -14.022532 29.813207 32.947050 1.554951 0.439693 0.064370 -0.029537 -35801.700000 0 0 1
-0.494207 -15.528432 30.081907 33.857017 1.538981 0.476734 0.058757 -0.033036 209915.000000 0 0 1
-1.663607 -16.065032 29.487007 33.620477 1.467610 0.501099 0.061122 -0.033408 279099.000000 0 0 1
-1.949707 -17.289732 30.105207 34.771536 1.458504 0.524049 0.069285 -0.027370 -210960.000000 0 0 1
-2.208907 -18.474432 29.122407 34.558624 1.451796 0.568525 0.076022 -0.032606 -284542.000000 0 0 1
-3.433207 -18.387432 28.428607 34.030432 1.386207 0.581958 0.082606 -0.037475 -39051.000000 0 0 1
-3.737307 -19.613732 27.744307 34.182050 1.382508 0.623803 0.091532 -0.035128 1270660.000000 0 0 1
-4.959307 -19.387732 26.717107 33.380873 1.320370 0.642881 0.064239 -0.038106 1083880.000000 0 0 1
-5.530407 -20.547532 26.105407 33.679055 1.307875 0.683887 0.065529 -0.024874 219295.000000 0 0 1
-4.610707 -21.258932 25.268007 33.341761 1.357221 0.710787 0.074503 -0.033857 -90466.200000 0 0 1
-29.768177 -33.954229 -0.151393 45.155919 0.850996 1.574149 0.035950 -0.022989 -233831.000000 0 0 1
-28.878507 -32.854729 0.178907 43.742810 0.849719 1.566706 0.050833 -0.019967 450260.000000 0 0 1
-29.377927 -32.004629 1.169107 43.459472 0.828164 1.543892 0.039489 -0.018099 -178111.000000 0 0 1
-28.498127 -30.760429 1.296507 41.952690 0.823556 1.539887 0.068360 -0.021693 -417500.000000 0 0 1
-27.234847 -31.032629 1.814507 41.328603 0.850485 1.526878 0.071184 -0.023859 -698306.000000 0 0 1
-26.489037 -29.820029 1.974507 39.934971 0.844485 1.521333 0.084701 -0.016110 279939.000000 0 0 1
-24.996307 -30.092229 2.258507 39.184927 0.877640 1.513127 0.064752 -0.016611 -58178.800000 0 0 1
-24.642207 -30.621929 3.528807 39.463824 0.893181 1.481258 0.059970 -0.014579 1058660.000000 0 0 1
-23.241207 -30.287629 3.721307 38.358080 0.916283 1.473629 0.056808 -0.012441 1306480.000000 0 0 1
-22.676407 -30.749029 5.152607 38.552193 0.935364 1.436742 0.071442 -0.012361 -12214.400000 0 0 1
-23.322107 -30.138529 6.248307 38.617263 0.912217 1.408281 0.078352 -0.008217 -170677.000000 0 0 1
-22.896707 -30.686829 7.446707 39.005053 0.929769 1.378701 0.076129 -0.017852 -283799.000000 0 0 1
-23.627607 -30.124529 8.690907 39.259177 0.905683 1.347575 0.077571 -0.016850 -47522.000000 0 0 1
-23.205907 -28.805929 9.024307 38.075370 0.892653 1.331508 0.094532 -0.015686 22815.800000 0 0 1
-23.768807 -28.470929 10.262007 38.481928 0.875167 1.300859 0.076275 -0.012509 35369.500000 0 0 1
-23.081007 -27.251229 10.963707 37.357265 0.868063 1.272928 0.091244 -0.017839 930493.000000 0 0 1
-21.727107 -27.569329 11.308407 36.878384 0.903360 1.259135 0.091545 -0.018624 146030.000000 0 0 1
-21.142107 -26.537329 12.075907 36.014526 0.898075 1.228866 0.101055 -0.019931 220685.000000 0 0 1
-19.754607 -26.956429 12.603907 35.717672 0.938372 1.210153 0.104070 -0.021156 148925.000000 0 0 1
-19.828707 -28.067129 13.480507 36.914299 0.955738 1.196966 0.104204 -0.016802 51672.000000 0 0 1
-18.531207 -28.138029 14.046807 36.502974 0.988412 1.175791 0.116604 -0.020002 433832.000000 0 0 1
-18.276807 -29.257229 15.076707 37.647500 1.012417 1.158766 0.146886 -0.035120 62618.900000 0 0 1
-18.132507 -30.479629 14.440207 38.292495 1.034131 1.184130 0.147290 -0.026718 -110610.000000 0 0 1
-18.101407 -31.505829 15.405107 39.466385 1.049307 1.169801 0.156402 -0.026555 230436.000000 0 0 1
-18.039307 -32.953829 14.847107 40.395644 1.069943 1.194431 0.137373 -0.028227 201657.000000 0 0 1
-18.052207 -33.906129 15.868207 41.560893 1.081553 1.179047 0.140617 -0.018604 3522.690000 0 0 1
-17.495207 33.098368 15.489007 40.515350 -1.084545 1.178513 0.117234 -0.024134 134393.000000 0 0 1
-17.536507 32.051768 16.613207 40.135316 -1.070159 1.144029 0.115765 -0.025855 752456.000000 0 0 1
-18.742607 31.247368 16.528407 40.010893 -1.030514 1.144943 0.125152 -0.023244 884879.000000 0 0 1
-18.894607 30.259568 17.587807 39.774095 -1.012616 1.112755 0.094562 -0.012726 -68103.100000 0 0 1
-19.521407 30.731468 18.924207 41.032111 -1.004878 1.091444 0.088458 -0.015742 -242047.000000 0 0 1
-18.753407 31.645468 19.641507 41.700297 -1.035829 1.080354 0.091232 -0.008932 -227565.000000 0 0 1
-19.488907 32.120268 20.759507 42.924192 -1.025430 1.065997 0.075159 -0.011571 12939.900000 0 0 1
-18.846807 33.239968 21.593807 43.890661 -1.055001 1.056421 0.066595 -0.000201 178367.000000 0 0 1
-17.626107 32.896568 22.228907 43.439477 -1.078918 1.033609 0.047513 -0.004942 -91412.000000 0 0 1
-17.323707 33.713868 23.367207 44.528217 -1.096134 1.018348 0.047134 -0.012553 316411.000000 0 0 1
-18.155807 33.258468 24.613707 45.183998 -1.071106 0.994713 0.032004 -0.022435 1676090.000000 0 0 1
-19.606007 33.324868 24.533807 45.791375 -1.039002 1.005373 0.026925 -0.023841 1158170.000000 0 0 1
-20.153107 32.361068 25.370307 45.793438 -1.013811 0.983616 0.021407 -0.018268 228206.000000 0 0 1
-21.708007 32.378668 25.412907 46.534198 -0.980185 0.993080 0.064372 -0.022411 176527.000000 0 0 1
-22.266907 31.776268 24.308907 45.787218 -0.959574 1.011122 0.044644 -0.008063 1308900.000000 0 0 1
-23.709307 31.948168 24.223807 46.579068 -0.932359 1.023878 0.032647 -0.007386 1290290.000000 0 0 1
-24.159707 31.530968 22.804307 45.803164 -0.916994 1.049648 0.030265 -0.006324 -295620.000000 0 0 1
-23.868907 32.519768 21.842107 45.873061 -0.937626 1.074534 0.027530 0.002304 17096.800000 0 0 1
-23.898107 32.146668 20.473907 44.985650 -0.931527 1.098288 0.019991 0.004052 56970.400000 0 0 1
-23.559407 33.296368 19.399307 45.166657 -0.955010 1.126852 0.048012 -0.003119 812579.000000 0 0 1
-22.149607 33.561468 19.454107 44.670343 -0.987443 1.120198 0.079812 -0.008508 715578.000000 0 0 1
-21.706907 -33.778429 18.454007 44.189620 0.999622 1.139983 0.096630 -0.008922 521560.000000 0 0 1
-20.243407 -33.299229 18.697707 43.223124 1.024571 1.123438 0.109966 -0.010298 455554.000000 0 0 1
-20.289307 -32.322329 19.683607 42.939881 1.010245 1.094603 0.108424 -0.022774 582016.000000 0 0 1
-19.070607 -31.601329 19.852407 41.910024 1.027826 1.077319 0.108812 -0.029764 378998.000000 0 0 1
-19.201707 -30.644329 21.040307 41.838678 1.011048 1.043856 0.096164 -0.022252 262620.000000 0 0 1
-19.996907 -29.528229 20.626607 41.197689 0.975528 1.046419 0.126962 -0.034519 443605.000000 0 0 1
-19.995107 -28.549029 21.624707 41.018037 0.959817 1.015494 0.111047 -0.024561 90112.600000 0 0 1
-20.924407 -27.321429 21.364507 40.505969 0.917221 1.015211 0.089959 -0.032568 -274942.000000 0 0 1
-20.391407 -26.361929 20.497107 39.126618 0.912413 1.019413 0.091515 -0.027350 -91637.700000 0 0 1
-21.176307 -25.229429 20.364407 38.725562 0.872518 1.017065 0.084741 -0.014913 412635.000000 0 0 1
-22.473407 -25.306129 19.454907 39.037772 0.844616 1.049089 0.086475 -0.019306 1254480.000000 0 0 1
-23.695307 -25.699529 20.093607 40.319802 0.825951 1.049095 0.077161 -0.013647 431090.000000 0 0 1
-24.749407 -25.662629 19.202007 40.494701 0.803511 1.076757 0.072609 -0.009542 -87704.600000 0 0 1
-26.197837 -26.026029 19.683707 41.846496 0.782108 1.081076 0.055623 -0.013216 759425.000000 0 0 1
-26.576017 -27.436029 19.631807 42.946807 0.801319 1.096043 0.042015 -0.010680 46761.700000 0 0 1
-26.749827 -27.937029 18.388207 42.827060 0.807104 1.127013 0.058196 -0.018557 -1202960.000000 0 0 1
-27.888737 -28.896929 18.285307 44.126711 0.803151 1.143533 0.066696 -0.020320 -799722.000000 0 0 1
-29.141957 -28.284629 18.411507 44.589881 0.770470 1.145152 0.031937 -0.017360 23911.100000 0 0 1
-30.226637 -29.237429 18.261507 45.847132 0.768764 1.161119 0.034817 -0.007954 103801.000000 0 0 1
-31.567737 -28.623029 18.581107 46.487174 0.736514 1.159602 0.036425 -0.010634 -602558.000000 0 0 1
-32.005247 -27.607129 17.678907 45.815207 0.711753 1.174641 0.040724 0.001559 -154849.000000 0 0 1
-33.316997 -27.238529 18.048607 46.665962 0.685355 1.173679 0.027007 0.012325 -77225.400000 0 0 1
-33.830057 -26.012529 17.280607 46.040676 0.655499 1.186040 0.023186 0.001862 -235393.000000 0 0 1
-34.116932 -26.286829 15.915207 45.915752 0.656488 1.216834 0.043198 -0.013097 140871.000000 0 0 1
-34.585411 -25.185929 15.141007 45.384268 0.629418 1.230657 0.039251 -0.007052 247791.000000 0 0 1
-33.522747 -24.073329 14.840907 43.858321 0.622783 1.225598 0.017108 -0.002764 291197.000000 0 0 1
-33.344557 -23.264629 15.929907 43.667659 0.609183 1.197380 0.003500 -0.000974 -9846.350000 0 0 1
-32.591217 -22.145029 15.575607 42.369674 0.596820 1.194356 0.021337 0.005874 -530690.000000 0 0 1
-33.350957 -20.884629 15.869007 42.429701 0.559467 1.187470 0.027562 -0.003620 -146370.000000 0 0 1
-33.508847 -20.677029 17.236607 42.982357 0.552871 1.158171 0.028940 -0.001864 115063.000000 0 0 1
-34.603942 -19.838329 17.508407 43.560721 0.520553 1.157172 0.047641 -0.011520 -351833.000000 0 0 1
-34.786302 -19.472629 18.998307 44.161134 0.510320 1.126077 0.040168 -0.000228 -375106.000000 0 0 1
-35.782566 -20.168929 19.685407 45.548798 0.513264 1.123884 0.053031 0.001814 -12813.500000 0 0 1
-35.857091 -19.719629 21.034907 46.011543 0.502805 1.095990 0.046975 0.004545 -397987.000000 0 0 1
36.070441 -19.776029 21.655407 46.487899 -0.501507 1.086225 0.064401 -0.002127 236649.000000 0 0 1
35.479991 -21.065829 22.018907 46.769982 -0.535803 1.080609 0.077150 -0.010459 136704.000000 0 0 1
36.171681 -21.958429 22.885807 48.107414 -0.545595 1.075010 0.073105 -0.004855 -551056.000000 0 0 1
35.443341 -23.288429 23.254007 48.366623 -0.581323 1.069245 0.073667 -0.006426 -718205.000000 0 0 1
34.421871 -23.052229 24.136507 47.946235 -0.590098 1.043258 0.088263 -0.021237 -531003.000000 0 0 1
34.064651 -24.266129 24.865807 48.657516 -0.618970 1.034405 0.090686 -0.040357 -886688.000000 0 0 1
32.990711 -24.095029 25.889107 48.365311 -0.630811 1.005954 0.107668 -0.038963 -1229770.000000 0 0 1
31.687481 -24.192229 25.446107 47.295505 -0.652062 1.002705 0.098345 -0.031787 -783888.000000 0 0 1
30.758261 -24.131529 26.496507 47.227812 -0.665252 0.975159 0.072303 -0.025720 -457290.000000 0 0 1
29.422371 -24.823029 26.246207 46.591009 -0.700813 0.972383 0.059965 -0.024558 -926419.000000 0 0 1
28.556931 -24.016529 25.558107 45.227302 -0.699249 0.970238 0.063002 -0.013315 -954747.000000 0 0 1
27.262421 -24.563029 25.568907 44.725284 -0.733359 0.962235 0.053597 -0.011144 529342.000000 0 0 1
26.109221 -23.590929 25.113607 43.230969 -0.734772 0.950941 0.052275 -0.005682 292325.000000 0 0 1
26.118621 -23.255529 23.712107 42.252409 -0.727475 0.974960 0.054153 -0.004058 620103.000000 0 0 1
27.270421 -22.527329 23.215607 42.309820 -0.690438 0.989982 0.054887 -0.005029 329673.000000 0 0 1
27.153921 -21.775229 21.863807 41.103797 -0.675910 1.009934 0.056749 -0.007210 -12559.100000 0 0 1
26.409821 -20.559429 21.930607 40.014002 -0.661478 0.990737 0.053992 -0.005514 98858.700000 0 0 1
26.301521 -19.952229 20.626807 38.927197 -0.648980 1.012335 0.028906 -0.007292 177920.000000 0 0 1
25.436321 -18.648129 20.621007 37.682690 -0.632617 0.991748 0.042649 -0.007163 199232.000000 0 0 1
26.009621 -17.447929 21.228907 37.836453 -0.590877 0.975118 0.043140 -0.012118 319860.000000 0 0 1
26.244421 -17.508929 22.607107 38.812544 -0.588336 0.949033 0.042013 -0.006800 -320265.000000 0 0 1
26.325521 -16.063529 23.119007 38.542944 -0.547877 0.927514 0.058451 -0.000183 -656730.000000 0 0 1
25.141021 -15.329629 22.978407 37.350712 -0.547555 0.908148 0.051259 0.000292 -237478.000000 0 0 1
25.179421 -14.250629 23.870807 37.508654 -0.515016 0.880964 0.034000 0.002948 86698.800000 0 0 1
23.833821 -13.547629 23.649307 36.206063 -0.516875 0.859011 0.017222 -0.000180 451010.000000 0 0 1
22.693721 -14.191029 24.184807 36.073470 -0.558835 0.836005 0.028382 0.004125 1419520.000000 0 0 1
21.440721 -13.440529 24.123107 34.961074 -0.559942 0.809309 0.029863 0.005313 629394.000000 0 0 1
20.230921 -14.196329 24.539307 34.828200 -0.611876 0.788963 0.052598 0.006073 -960162.000000 0 0 1
19.692921 -15.132929 23.627307 34.279241 -0.655202 0.810329 0.067080 -0.001145 251892.000000 0 0 1
18.425221 -15.605729 24.049307 34.079272 -0.702736 0.787404 0.066406 0.005374 351739.000000 0 0 1
17.849221 -16.717729 23.123907 33.656979 -0.752676 0.813380 0.069445 -0.010087 291351.000000 0 0 1
18.424721 -18.013429 23.393207 34.802243 -0.774111 0.833653 0.061920 -0.013351 468197.000000 0 0 1
17.732821 -18.950729 22.585307 34.404639 -0.818586 0.854678 0.058714 -0.016279 87680.000000 0 0 1
18.045121 -20.369929 22.990707 35.624894 -0.845843 0.869308 0.049337 -0.011219 24060.000000 0 0 1
17.361421 -20.817229 24.199607 36.337267 -0.875669 0.842000 0.051126 -0.014859 374999.000000 0 0 1
17.661721 -22.123829 24.786307 37.626603 -0.897085 0.851648 0.070310 -0.017926 -385799.000000 0 0 1
17.378621 -23.401429 23.867207 37.673425 -0.932028 0.884690 0.064658 -0.021621 411251.000000 0 0 1
18.180121 -23.349429 22.673207 37.279847 -0.909234 0.917019 0.047371 -0.011149 1166060.000000 0 0 1
19.334621 -24.236529 22.762907 38.462799 -0.897431 0.937486 0.052450 -0.007502 934566.000000 0 0 1
20.266221 -24.279529 21.517107 38.251813 -0.875250 0.973375 0.049485 0.011636 46430.200000 0 0 1
19.848621 -25.233429 20.496707 38.089483 -0.904280 1.002591 0.042457 0.004259 235031.000000 0 0 1
20.804721 -25.400729 19.463907 38.169060 -0.884541 1.035682 0.046506 -0.003206 -121992.000000 0 0 1
20.209721 -25.922429 18.147807 37.546612 -0.908604 1.066330 0.043565 -0.010836 10672.800000 0 0 1
19.650821 -27.200829 18.340707 38.241619 -0.945172 1.070597 0.056982 -0.018305 361845.000000 0 0 1
18.785921 -27.598229 17.266507 37.585973 -0.973146 1.093491 0.056783 -0.020335 -27893.700000 0 0 1
17.985921 -28.880529 17.532107 38.274706 -1.013802 1.094985 0.061462 -0.020240 550380.000000 0 0 1
16.994321 -28.592829 18.559707 38.089626 -1.034537 1.061842 0.083341 -0.031954 320422.000000 0 0 1
16.434021 -29.694929 19.194707 38.991059 -1.065325 1.056084 0.098934 -0.033806 729170.000000 0 0 1
15.142821 -29.297729 20.033607 38.587659 -1.093752 1.024915 0.084885 -0.024882 1454390.000000 0 0 1
14.039221 -28.907229 19.210707 37.440338 -1.118683 1.032002 0.081134 -0.026528 1251530.000000 0 0 1
12.810521 -28.576929 19.929107 37.120340 -1.149372 1.004064 0.058905 -0.022362 1528200.000000 0 0 1
11.769721 -27.934929 18.970007 35.759583 -1.172041 1.011621 0.047306 -0.021399 -156326.000000 0 0 1
11.433921 -28.848129 17.975107 35.861589 -1.193441 1.045770 0.041517 -0.026283 -21185.200000 0 0 1
11.034521 -28.145629 16.786507 34.579241 -1.197161 1.063918 0.042639 -0.018751 -58437.200000 0 0 1
10.788621 -29.166429 15.657307 34.817039 -1.216506 1.104364 0.042283 -0.022672 176760.000000 0 0 1
9.681821 -30.025329 15.857707 35.308992 -1.258868 1.105025 0.054958 -0.026835 156853.000000 0 0 1
9.840321 -30.950929 14.772307 35.679308 -1.262970 1.143919 0.042456 -0.020455 -820971.000000 0 0 1
8.637521 -31.757429 14.388307 35.918860 -1.305236 1.158649 0.043909 -0.013022 -1217680.000000 0 0 1
8.316221 -32.661429 15.360207 37.038689 -1.321475 1.143175 0.048366 -0.017808 577373.000000 0 0 1
7.224621 -33.549929 15.022907 37.463057 -1.358696 1.158182 0.044825 -0.015539 570716.000000 0 0 1
7.085821 33.574368 16.102307 37.904239 1.362800 1.132038 0.065394 -0.021009 250268.000000 0 0 1
8.221921 32.725968 16.066207 37.372610 1.324655 1.126423 0.056126 -0.017969 128296.000000 0 0 1
8.101921 31.816268 17.158007 37.044747 1.321449 1.089228 0.072799 -0.032815 230011.000000 0 0 1
9.337921 30.911768 17.384307 36.673537 1.277430 1.076936 0.079377 -0.030679 30035.700000 0 0 1
9.775521 30.030268 16.373107 35.573255 1.256092 1.092503 0.077238 -0.026895 -476291.000000 0 0 1
10.967721 29.397168 16.735607 35.560722 1.213703 1.080802 0.082191 -0.027925 -480031.000000 0 0 1
11.591921 28.611968 15.619507 34.597491 1.185865 1.102391 0.073401 -0.022893 -336629.000000 0 0 1
10.922621 27.449868 15.257707 33.250512 1.192092 1.094072 0.079998 -0.020732 -167805.000000 0 0 1
11.817621 26.656968 14.477707 32.555401 1.153510 1.109946 0.076638 -0.011475 263284.000000 0 0 1
-9.379907 -9.123932 18.780953 22.890020 0.771565 0.608535 0.057791 -0.026737 -263475.000000 0 1 0
-9.569007 -9.507732 17.455453 22.060275 0.782186 0.657926 0.056352 -0.028299 -29036.400000 0 1 0
-9.458307 -10.913432 17.370453 22.589715 0.856706 0.693593 0.063458 -0.021152 7338.030000 0 1 0
-9.739707 -11.287632 15.935053 21.821972 0.858880 0.752138 0.063400 -0.015443 -307008.000000 0 1 0
-11.087707 -11.033832 15.620653 22.106278 0.782963 0.786092 0.062113 -0.016653 -213445.000000 0 1 0
-11.484107 -11.460132 14.335553 21.650114 0.784353 0.847116 0.063158 -0.021175 40811.200000 0 1 0
-11.531407 -13.010932 14.060053 22.359401 0.845610 0.890761 0.055263 -0.022316 616606.000000 0 1 0
-10.230907 -13.624232 13.836053 21.948292 0.926697 0.888737 0.054810 -0.018153 1121640.000000 0 1 0
-10.190907 -15.042732 14.129453 23.016946 0.975356 0.909840 0.078837 -0.018695 -3034.790000 0 1 0
-10.141907 -15.414532 15.654753 24.197880 0.988856 0.867222 0.106677 -0.023980 805359.000000 0 1 0
-11.345707 -15.169332 16.398853 25.055061 0.928617 0.857259 0.100561 -0.019682 672161.000000 0 0 1
-10.923207 -15.103832 17.770153 25.753069 0.944664 0.809279 0.119163 -0.019672 128875.000000 0 0 1
-12.028107 -14.775832 18.802353 26.768061 0.887553 0.792008 0.090965 -0.018892 -104389.000000 0 0 1
-12.511407 -13.430632 18.858053 26.316219 0.820817 0.771889 0.086651 -0.011995 477089.000000 0 0 1
-13.575107 -13.065032 17.973753 26.039094 0.766254 0.808948 0.094336 -0.014796 637961.000000 0 0 1
-15.011507 -13.336032 18.502353 27.304435 0.726362 0.826259 0.064080 -0.008466 8760.430000 0 0 1
-15.350507 -14.680732 18.758153 28.337789 0.763099 0.847381 0.075257 -0.015430 1445420.000000 0 0 1
-16.525007 -14.745732 19.664053 29.617351 0.728560 0.844725 0.070825 -0.014220 1357780.000000 0 0 1
-16.909007 -16.172732 20.034753 30.803622 0.763146 0.862682 0.069619 -0.017923 -391298.000000 0 0 1
-17.851907 -16.795432 19.229453 31.153635 0.754915 0.905559 0.051267 -0.007944 -276775.000000 0 0 1
-18.347507 -18.052032 19.700653 32.413309 0.777281 0.917515 0.063903 -0.010179 802640.000000 0 0 1
-19.656407 -18.525932 18.940653 32.989890 0.755800 0.959249 0.058651 -0.004746 663381.000000 0 0 1
-19.550507 -18.659632 17.509553 32.202308 0.762087 0.995914 0.055288 -0.010116 36668.700000 0 0 1
-19.725807 -17.480532 16.793653 31.252252 0.725125 1.003495 0.048352 -0.012976 -780724.000000 0 0 1
-19.297807 -17.554532 15.353753 30.270525 0.738129 1.038843 0.051614 -0.020596 -801552.000000 0 0 1
-20.027107 -18.439432 14.558353 30.871400 0.744147 1.079714 0.055336 -0.013630 -1547.290000 0 0 1
-19.575707 -18.354332 13.198953 29.904886 0.753209 1.113678 0.066862 -0.019991 159582.000000 0 0 1
-19.687007 -19.632932 12.322253 30.411646 0.784023 1.153618 0.073099 -0.016409 39389.600000 0 0 1
-18.780907 -20.639932 12.738753 30.675806 0.832522 1.142556 0.089309 -0.022305 76286.400000 0 0 1
-18.767707 -21.723832 11.843653 31.055174 0.858275 1.179514 0.076443 -0.016731 -198119.000000 0 0 1
-17.890607 -22.882232 12.394453 31.579944 0.907217 1.167471 0.091055 -0.014294 112104.000000 0 0 1
-17.958507 -24.171232 11.823153 32.350323 0.931809 1.196656 0.100909 -0.027935 -168746.000000 0 0 1
-17.022407 -24.221132 10.784653 31.507687 0.958199 1.221447 0.081525 -0.021953 -280728.000000 0 0 1
-17.239307 -25.507322 9.893653 32.337309 0.976458 1.259858 0.083066 -0.022397 402195.000000 0 0 1
-18.526907 -25.375282 9.308253 32.768808 0.940143 1.282772 0.070007 -0.022990 -114609.000000 0 0 1
-18.738507 -26.342592 8.261753 33.366456 0.952501 1.320587 0.081192 -0.023280 904008.000000 0 0 1
-20.123107 -26.225302 7.531753 33.903292 0.916304 1.346773 0.069030 -0.022839 797601.000000 0 0 1
-20.092407 -25.142812 6.682353 32.871259 0.896585 1.366081 0.064325 -0.024274 -97762.000000 0 0 1
-21.260307 -24.944332 5.914653 33.304707 0.864963 1.392257 0.070208 -0.016212 -12475.000000 0 0 1
-21.063407 -23.754632 4.962153 32.133668 0.845374 1.415754 0.063793 -0.015092 -482067.000000 0 0 1
-21.965707 -23.793432 3.930253 32.620034 0.825319 1.450017 0.056342 -0.015241 -534127.000000 0 0 1
-21.856707 -22.604832 3.165953 31.602489 0.802223 1.470447 0.055398 -0.012386 -59260.900000 0 0 1
-22.574707 -22.655532 1.849753 32.036106 0.787185 1.513025 0.033680 -0.009820 -305058.000000 0 0 1
-21.871507 -23.410232 0.878753 32.049555 0.819366 1.543374 0.034357 -0.014557 60839.000000 0 0 1
-22.284807 -23.124432 -0.432647 32.117583 0.803886 1.584267 0.030592 -0.008920 -457039.000000 0 0 1
-21.541607 -23.959532 -1.482847 32.253664 0.838488 1.616787 0.039175 -0.009314 -541441.000000 0 0 1
-20.196607 -23.509332 -1.561747 31.032736 0.861049 1.621143 0.041797 -0.012808 73526.900000 0 0 1
-19.411907 -24.032332 -2.617547 31.003656 0.891353 1.655324 0.052311 -0.017860 140421.000000 0 0 1
-19.174407 -25.552282 -2.573347 32.049947 0.927040 1.651175 0.062498 -0.007715 -578076.000000 0 0 1
-20.273907 -26.300202 -3.041347 33.346390 0.914075 1.662128 0.067403 -0.009567 -32929.200000 0 0 1
-19.725407 -27.524552 -3.477747 34.040966 0.948985 1.673138 0.065125 -0.012938 38475.500000 0 0 1
-20.724307 -28.435182 -4.224847 35.438761 0.940985 1.690296 0.059644 -0.018287 -48472.100000 0 0 1
-21.246107 -27.869962 -5.396047 35.457710 0.919451 1.723573 0.056355 -0.015649 -136240.000000 0 0 1
-22.233007 -28.712582 -5.972947 36.802107 0.911905 1.733816 0.061277 -0.026866 439859.000000 0 0 1
-22.826907 -28.156572 -7.289847 36.972991 0.889557 1.769263 0.052435 -0.007675 -34230.400000 0 0 1
-21.776607 -28.026982 -8.217947 36.431676 0.910246 1.798326 0.063467 -0.004925 -32852.500000 0 0 1
-22.091007 -27.929172 -9.623547 36.887178 0.901589 1.834742 0.058659 -0.001055 -425905.000000 0 0 1
-22.912207 -26.767212 -10.231547 36.689745 0.862841 1.853410 0.050585 0.005193 -311277.000000 0 0 1
-22.318407 -25.508632 -10.443847 35.466541 0.852003 1.869698 0.045596 0.006453 -154473.000000 0 0 1
-22.093107 -24.739432 -9.282547 34.442859 0.841844 1.843676 0.039983 0.008751 -84137.500000 0 0 1
-21.944407 -23.183732 -9.546747 33.319406 0.812854 1.861391 0.037102 0.003477 473440.000000 0 0 1
-23.148207 -22.531032 -9.960647 33.803866 0.771888 1.869896 0.031433 0.006174 392569.000000 0 0 1
-22.986707 -21.136032 -10.110347 32.822853 0.743479 1.883916 0.043714 0.005553 -105470.000000 0 0 1
-24.250607 -20.397732 -10.573147 33.405850 0.699318 1.892840 0.067310 0.004760 -511418.000000 0 0 1
-24.570907 -20.536532 -11.947147 34.179130 0.696196 1.927882 0.051651 0.005581 1001440.000000 0 0 1
-25.933827 -20.140532 -12.205647 35.031161 0.660317 1.926684 0.049965 -0.003482 795366.000000 0 0 1
-26.201407 -18.580132 -12.194847 34.357668 0.616825 1.933644 0.059933 -0.009071 -857270.000000 0 0 1
-25.533737 -17.918732 -13.247947 33.890423 0.611911 1.972411 0.066906 0.006485 232623.000000 0 0 1
-25.358067 -16.526932 -13.001347 32.942466 0.577599 1.976503 0.079797 -0.011033 -50908.600000 0 0 1
-24.297207 -16.083532 -11.971947 31.501774 0.584730 1.960636 0.057799 -0.005672 -526052.000000 0 0 1
-24.678807 -16.340032 -10.644547 31.453880 0.584840 1.916031 0.090535 -0.012200 -28814.100000 0 0 1
-23.595607 -16.247832 -9.753747 30.263514 0.603031 1.898948 0.073250 -0.008298 -85041.600000 0 0 1
-23.939207 -16.626432 -8.281047 30.300159 0.607044 1.847619 0.054460 -0.014100 57148.600000 0 0 1
-24.254907 -18.000032 -8.064147 31.262312 0.638438 1.831697 0.059345 -0.008191 138482.000000 0 0 1
-25.213567 -18.117332 -7.031247 31.833946 0.623071 1.793505 0.057494 -0.001921 197563.000000 0 0 1
-25.498947 -19.593532 -6.735147 32.855213 0.655177 1.777255 0.056728 0.002064 148927.000000 0 0 1
-26.227697 -20.357432 -7.684547 34.078870 0.660047 1.798245 0.046913 -0.013185 142282.000000 0 0 1
-26.540007 -21.681632 -7.260347 35.031097 0.684986 1.779564 0.049467 -0.003724 180573.000000 0 0 1
-26.029857 -22.805832 -8.259847 35.579271 0.719476 1.805087 0.034299 0.006048 240035.000000 0 0 1
-26.327917 -24.082032 -7.712247 36.504551 0.740875 1.783668 0.044561 0.003402 -193105.000000 0 0 1
-25.957017 -25.112032 -8.592147 37.124195 0.768854 1.804357 0.038405 0.009164 55255.400000 0 0 1
-26.701007 -26.434742 -8.262847 38.470950 0.780387 1.787264 0.058091 -0.001634 360016.000000 0 0 1
-26.259807 -27.048632 -7.059547 38.354180 0.800194 1.755914 0.073067 -0.021582 494466.000000 0 0 1
-27.105827 -28.185062 -6.856847 39.700629 0.804915 1.744381 0.079770 -0.024720 390519.000000 0 0 1
-26.875417 -28.844242 -5.496847 39.805699 0.820718 1.709331 0.090781 -0.028509 -103017.000000 0 0 1
-27.430267 -28.158682 -4.449647 39.561727 0.798501 1.683508 0.072968 -0.029234 -347724.000000 0 0 1
-26.850807 -28.512902 -3.228947 39.298569 0.815411 1.653054 0.065654 -0.026081 -332930.000000 0 0 1
-27.125387 -29.903552 -2.571847 40.455203 0.834075 1.634412 0.073870 -0.016411 -290464.000000 0 0 1
-26.562777 -30.988062 -3.276347 40.946008 0.862141 1.650898 0.091944 -0.037624 -143346.000000 0 0 1
-26.507667 -32.266972 -2.624447 41.841386 0.883076 1.633561 0.080668 -0.041286 226606.000000 0 0 1
-25.439597 -32.315622 -1.487847 41.154419 0.903895 1.606957 0.090910 -0.036688 -240126.000000 0 0 1
-24.142307 -32.027352 -1.933447 40.153960 0.924866 1.618966 0.084178 -0.040036 -841185.000000 0 0 1
-23.202607 -32.186252 -0.914047 39.688175 0.946190 1.593829 0.079137 -0.026838 -385779.000000 0 0 1
-22.245507 -31.012372 -0.959447 38.177878 0.948547 1.595930 0.097835 -0.024719 -553587.000000 0 0 1
-22.851007 -29.800172 -0.587847 37.557480 0.916625 1.586449 0.079995 -0.020405 -140285.000000 0 0 1
-23.107007 -29.015872 -1.719847 37.132364 0.898280 1.617130 0.087990 -0.023673 -338770.000000 0 0 1
-23.660807 -27.657632 -1.307847 36.420995 0.863124 1.606713 0.052558 -0.017707 48656.600000 0 0 1
-25.005907 -27.689662 -0.856247 37.319511 0.836284 1.593742 0.069388 -0.023813 -76392.800000 0 0 1
-25.452377 -26.390692 -0.469247 36.667592 0.803495 1.583594 0.069798 -0.026320 49796.300000 0 0 1
-24.850907 -25.740762 0.798553 35.788156 0.802985 1.548481 0.064570 -0.014804 -249987.000000 0 0 1
-25.137997 -26.449822 2.015853 36.545528 0.810822 1.515608 0.058325 -0.017234 -83012.800000 0 0 1
-24.524707 -25.844972 3.157753 35.768635 0.811604 1.482398 0.063008 -0.007995 -288611.000000 0 0 1
-25.291997 -24.760432 3.862853 35.604575 0.774778 1.462089 0.073425 -0.017562 -449035.000000 0 0 1
-25.384747 -23.549932 3.174053 34.771530 0.747921 1.479386 0.056501 -0.016167 -284654.000000 0 0 1
-26.275057 -22.692032 3.829353 34.928082 0.712356 1.460940 0.053945 -0.010685 -241107.000000 0 0 1
-26.606757 -21.526132 2.866353 34.343993 0.680233 1.487239 0.044560 -0.012825 -332448.000000 0 0 1
-25.520877 -20.648632 2.666653 32.936184 0.680258 1.489743 0.038109 -0.010336 -119232.000000 0 0 1
-25.676067 -19.563132 1.765753 32.327920 0.651087 1.516149 0.033725 -0.007644 -307443.000000 0 0 1
-24.422807 -18.693332 1.768653 30.806530 0.653287 1.513353 0.044993 -0.010028 238736.000000 0 0 1
-23.232007 -19.300932 1.238653 30.228900 0.693236 1.529809 0.049394 -0.016879 356700.000000 0 0 1
-22.156307 -18.469832 1.611853 28.890045 0.694905 1.514975 0.060745 -0.014930 -1202080.000000 0 0 1
-20.809607 -19.096632 1.423553 28.279809 0.742499 1.520437 0.056056 -0.018927 -1219510.000000 0 0 1
-20.436307 -19.290032 0.080853 28.102571 0.756552 1.567919 0.033159 -0.011590 -160408.000000 0 0 1
-19.228107 -20.000732 -0.013347 27.744361 0.805091 1.571277 0.076331 -0.014339 -65518.200000 0 0 1
-18.867707 -20.600632 -1.440147 27.972315 0.829277 1.622304 0.085286 -0.010921 -221839.000000 0 0 1
-18.205007 -19.629932 -2.162947 26.859539 0.823042 1.651412 0.091768 -0.020462 -319541.000000 0 0 1
-18.073407 -20.099132 -3.501947 27.255949 0.838416 1.699636 0.086106 -0.014372 63490.600000 0 0 1
-17.270307 -19.021432 -4.302347 26.049733 0.833612 1.736716 0.097779 -0.016211 816845.000000 0 0 1
-15.869607 -19.180232 -4.010947 25.215341 0.879574 1.730543 0.141657 -0.028724 495542.000000 0 0 1
-15.194407 -18.104932 -4.671047 24.093095 0.872581 1.765907 0.135717 -0.033502 -625736.000000 0 1 0
-13.688107 -18.185032 -4.507847 23.203024 0.925561 1.766318 0.149551 -0.037546 -783041.000000 0 1 0
-13.031607 -19.333732 -4.990247 23.843627 0.977710 1.781646 0.122257 -0.034850 -610405.000000 0 1 0
-11.791907 -19.020932 -5.517447 23.049667 1.015841 1.812515 0.101537 -0.041108 -636288.000000 0 1 0
-10.746207 -20.153032 -5.589247 23.513089 1.080919 1.810802 0.090481 -0.049074 333064.000000 0 1 0
-11.018107 -21.108632 -6.570447 24.701089 1.089726 1.840036 0.086029 -0.041046 -283570.000000 0 1 0
-9.887707 -21.927532 -6.675447 24.962872 1.147172 1.841506 0.087730 -0.034915 -20997.700000 0 1 0
-10.103507 -23.076632 -7.675447 26.334849 1.158114 1.866545 0.087493 -0.014519 -218363.000000 0 0 1
-10.495907 -22.594232 -9.019147 26.495441 1.135918 1.918143 0.083193 -0.015518 168108.000000 0 0 1
-10.630707 -23.604832 -10.015247 27.757975 1.147642 1.939928 0.086370 -0.011583 251450.000000 0 0 1
-11.575807 -23.239032 -11.214747 28.281133 1.108655 1.978547 0.101769 -0.007281 433701.000000 0 0 1
-10.952607 -22.313632 -12.104247 27.647252 1.114497 2.023958 0.091733 -0.009699 -61091.200000 0 0 1
-11.811907 -21.953032 -13.123447 28.172355 1.077171 2.055365 0.102581 -0.014105 -790037.000000 0 0 1
-11.186707 -20.978832 -14.132647 27.658371 1.080913 2.107111 0.096352 -0.007045 -222617.000000 0 0 1
-10.866807 -19.835032 -13.434447 26.305899 1.069598 2.106796 0.110544 -0.009548 -80751.700000 0 0 1
-10.448107 -18.704132 -14.158647 25.680241 1.061375 2.154771 0.104989 -0.006431 -89988.200000 0 0 1
-9.938007 -17.583432 -13.194747 24.125555 1.056365 2.149477 0.098923 -0.009243 -316833.000000 0 1 0
-10.877907 -17.025332 -12.294847 23.650667 1.002246 2.117474 0.101323 -0.020240 -48548.500000 0 1 0
-10.389507 -15.925132 -11.529147 22.236747 0.992738 2.115860 0.092907 -0.026411 49128.600000 0 1 0
-10.167007 -14.582732 -12.344247 21.642655 0.961955 2.177748 0.096474 -0.020161 574884.000000 0 1 0
-11.367707 -13.834432 -12.575647 21.880657 0.882965 2.183080 0.092040 -0.014397 524113.000000 0 1 0
-11.592807 -13.749932 -13.984447 22.781979 0.870312 2.231710 0.111460 -0.019246 1029010.000000 0 1 0
-13.011607 -13.168532 -14.396047 23.451190 0.791392 2.231754 0.118596 -0.021662 1083180.000000 0 1 0
-12.982207 -11.812232 -14.012647 22.459314 0.738246 2.244536 0.084618 -0.011879 315999.000000 0 1 0
-14.068307 -11.129432 -14.643847 23.156506 0.669290 2.255426 0.091730 -0.023820 410819.000000 0 1 0
-14.213507 -9.680232 -14.031047 22.194615 0.597900 2.255163 0.076513 -0.031365 135229.000000 0 1 0
-13.168707 -8.814332 -14.462447 21.453896 0.589851 2.310566 0.059778 -0.018152 243710.000000 0 1 0
-13.318307 -8.200532 -15.701647 22.162304 0.551908 2.358145 0.061470 -0.016648 298764.000000 0 1 0
-12.250507 -7.063932 -15.949547 21.315771 0.523054 2.416218 0.048098 0.000270 40710.400000 0 1 0
-10.948007 -7.549032 -15.868847 20.704276 0.603668 2.444096 0.043418 -0.008472 -291854.000000 0 1 0
-9.983907 -6.496432 -15.856847 19.832338 0.576860 2.497334 0.030836 0.002558 490722.000000 0 1 0
11.331593 21.937468 16.425153 29.655407 1.094004 0.983795 0.094014 -0.007996 -213527.000000 0 0 1
12.215393 22.062968 17.521953 30.708455 1.065147 0.963572 0.113452 -0.031424 146541.000000 0 0 1
12.652293 20.791568 17.954453 30.244540 1.024128 0.935218 0.094198 -0.026709 676122.000000 0 0 1
13.958893 20.835368 18.845253 31.370477 0.980516 0.926380 0.099731 -0.030457 1271400.000000 0 0 1
15.148593 21.184268 18.127453 31.731020 0.950017 0.962726 0.094090 -0.018922 -210333.000000 0 0 1
16.268393 20.943568 18.931453 32.583640 0.910380 0.950826 0.107653 -0.027829 746515.000000 0 0 1
17.609993 21.342268 18.162453 33.098021 0.880923 0.989931 0.079275 -0.013314 231251.000000 0 0 1
17.921393 22.698768 18.424953 34.291242 0.902471 1.003555 0.082241 -0.013368 594573.000000 0 0 1
19.077593 23.065068 17.644253 34.745814 0.879736 1.038156 0.071508 -0.009125 916861.000000 0 0 1
20.475293 22.758868 18.273753 35.652963 0.838168 1.032650 0.055370 -0.010792 -93139.700000 0 0 1
20.777693 21.378468 18.219153 34.938360 0.799648 1.022229 0.066352 -0.006169 764407.000000 0 0 1
22.141293 21.230368 18.646953 35.898109 0.764398 1.024600 0.075253 -0.010892 749246.000000 0 0 1
22.762093 19.801768 18.527553 35.404705 0.715960 1.020068 0.059577 -0.012926 119435.000000 0 0 1
22.811993 19.388768 17.197953 34.526525 0.704458 1.049380 0.052100 -0.006038 193372.000000 0 0 1
22.168793 18.141968 17.016653 33.318957 0.685834 1.034774 0.042325 -0.001390 -162685.000000 0 0 1
22.977793 16.924668 17.492453 33.472515 0.634848 1.020909 0.023579 -0.002119 10503.500000 0 0 1
24.165893 16.765268 16.753253 33.848724 0.606524 1.053025 0.028633 -0.009197 -168895.000000 0 0 1
24.910693 15.625068 17.099153 34.015679 0.560211 1.044095 0.012701 -0.003759 -997342.000000 0 0 1
26.074593 15.497268 16.136453 34.357457 0.536250 1.081886 0.106965 -0.035709 -901704.000000 0 0 1
27.036393 16.526668 16.258153 35.614953 0.548669 1.096741 0.082530 -0.030959 312039.000000 0 0 1
28.173593 16.411868 17.093253 36.814128 0.527472 1.087938 0.080471 -0.045042 498912.000000 0 0 1
29.225093 15.300868 16.722753 36.984768 0.482312 1.101619 0.093138 -0.046194 -353710.000000 0 0 1
29.909593 15.724868 15.557253 37.200583 0.484032 1.139334 0.149945 -0.048653 -145475.000000 0 0 1
29.969793 14.633568 14.686453 36.442032 0.454226 1.155994 0.179273 -0.056587 19326.600000 0 0 1
29.075793 14.787968 13.422353 35.273861 0.470504 1.180440 0.140487 -0.044005 -192499.000000 0 0 1
29.533093 15.616168 12.339453 35.613626 0.486397 1.216979 0.146969 -0.039813 478374.000000 0 0 1
28.646093 15.600868 11.184253 34.482941 0.498693 1.240481 0.120645 -0.037045 772502.000000 0 0 1
27.360893 16.470868 11.285053 33.871232 0.541878 1.231127 0.111545 -0.036538 -192893.000000 0 0 1
27.556793 17.854868 11.142653 34.674657 0.574919 1.243643 0.089817 -0.026538 350523.000000 0 0 1
28.282893 18.580468 12.167453 35.961128 0.581246 1.225633 0.090325 -0.036821 130833.000000 0 0 1
27.705493 18.589368 13.630953 36.041113 0.590971 1.182939 0.084295 -0.034579 767711.000000 0 0 1
26.591993 19.495268 13.855153 35.765414 0.632614 1.172998 0.075371 -0.018351 903459.000000 0 0 1
26.125493 19.352668 15.211153 35.894934 0.637560 1.133194 0.058438 -0.013028 -28692.600000 0 0 1
26.815193 20.223668 16.290953 37.328896 0.646175 1.119184 0.054878 -0.014931 -41667.600000 0 0 1
26.707993 21.663868 16.103053 37.972996 0.681496 1.132866 0.037225 -0.000730 -578584.000000 0 0 1
25.483993 22.193268 16.480653 37.597699 0.716487 1.117043 0.048762 -0.004582 -691232.000000 0 0 1
25.436893 23.672868 16.100753 38.297186 0.749494 1.136892 0.044796 0.003528 -156820.000000 0 0 1
25.228493 23.963768 14.773053 37.801880 0.759694 1.169294 0.069589 -0.010485 77903.600000 0 0 1
25.141993 25.359968 14.553053 38.562147 0.789714 1.183818 0.066627 -0.014336 -346000.000000 0 0 1
24.895293 25.667168 13.059453 38.067420 0.800663 1.220622 0.069140 -0.019737 439577.000000 0 0 1
23.567693 25.439968 12.588353 36.893018 0.823583 1.222590 0.069187 -0.006593 487290.000000 0 0 1
23.399293 25.940068 11.269153 36.707055 0.836849 1.258755 0.060834 -0.025038 24817.000000 0 0 1
22.707693 24.832768 10.394953 35.218756 0.830069 1.271180 0.071118 -0.022897 -296340.000000 0 0 1
21.343493 24.706768 10.767253 34.378814 0.858304 1.252241 0.063483 -0.017364 14841.700000 0 0 1
20.932993 23.325268 10.811253 33.153303 0.839398 1.238622 0.068505 -0.008555 163543.000000 0 0 1
20.908493 22.589168 9.442053 32.196086 0.824017 1.273154 0.080118 -0.005963 -1016340.000000 0 0 1
19.868893 23.013768 8.605453 31.598422 0.858604 1.294974 0.089116 -0.009088 -250205.000000 0 0 1
20.200593 23.717568 7.449753 32.032574 0.865308 1.336079 0.082203 -0.017352 256447.000000 0 0 1
18.882093 24.054568 6.679153 31.301226 0.905288 1.355760 0.079344 -0.016329 -33350.600000 0 0 1
18.252593 22.947268 6.090253 29.947044 0.898858 1.366000 0.082779 -0.007433 581972.000000 0 0 1
17.396993 23.170968 4.953353 29.395320 0.926777 1.401480 0.102755 -0.028027 215720.000000 0 0 1
16.102993 23.981368 5.016353 29.318530 0.979469 1.398852 0.092240 -0.013578 -429950.000000 0 0 1
16.380593 25.314468 5.339353 30.621150 0.996474 1.395532 0.092466 -0.027445 1754410.000000 0 0 1
15.109593 25.936268 5.764953 30.565086 1.043294 1.381047 0.089384 -0.030491 1702310.000000 0 0 1
14.684693 27.257068 5.133353 31.383742 1.076633 1.406491 0.085869 -0.032051 -191192.000000 0 0 1
14.344893 27.151968 3.757453 30.937417 1.084751 1.449042 0.086263 -0.021020 304338.000000 0 0 1
13.989793 28.343968 3.132953 31.763347 1.112304 1.472001 0.079071 -0.021362 -443180.000000 0 0 1
13.609393 28.201568 1.639653 31.356538 1.121185 1.518482 0.087903 -0.021514 -430901.000000 0 0 1
14.605293 27.854468 0.697853 31.459068 1.087865 1.548612 0.100638 -0.026285 -376200.000000 0 0 1
14.762793 26.495868 0.615153 30.337262 1.062462 1.550518 0.087952 -0.024719 -191014.000000 0 0 1
15.827393 26.181368 -0.444247 30.596859 1.027053 1.585316 0.095046 -0.032351 -287326.000000 0 0 1
15.525193 26.656268 -1.736147 30.896641 1.043402 1.627018 0.089259 -0.030276 -280158.000000 0 0 1
16.605493 26.648868 -2.640747 31.509968 1.013549 1.654701 0.068893 -0.019633 -183103.000000 0 0 1
16.237193 27.132568 -4.049747 31.878255 1.031525 1.698178 0.082139 -0.019667 -634973.000000 0 0 1
15.379193 26.354468 -4.803047 30.889267 1.042559 1.726922 0.106184 -0.025644 -499540.000000 0 0 1
15.169193 26.926968 -6.061047 31.494481 1.057765 1.764452 0.101976 -0.020907 348707.000000 0 0 1
13.790893 26.606068 -6.698547 30.707363 1.092587 1.790706 0.123228 -0.031542 398607.000000 0 0 1
13.687493 25.356368 -7.314947 29.728796 1.075814 1.819405 0.119215 -0.024671 -701670.000000 0 0 1
12.336493 25.184268 -7.607947 29.057138 1.115302 1.835711 0.103001 -0.031622 -441571.000000 0 0 1
11.940093 23.780968 -7.993147 27.784720 1.105481 1.862601 0.105197 -0.023605 -92292.100000 0 0 1
12.418693 23.457368 -9.285747 28.119337 1.083894 1.907340 0.094906 -0.025036 48798.700000 0 0 1
12.435093 22.110068 -9.641547 27.137540 1.058469 1.934015 0.097101 -0.019932 -128796.000000 0 0 1
12.733693 21.768168 -11.091847 27.550483 1.041503 1.985153 0.091073 -0.016446 137115.000000 0 0 1
12.491693 20.425468 -11.525747 26.572259 1.021910 2.019448 0.097340 -0.017149 -147311.000000 0 0 1
12.482793 20.305268 -12.940847 27.121754 1.019597 2.068193 0.093330 -0.020162 -144261.000000 0 0 1
13.731593 19.597068 -13.479747 27.464619 0.959603 2.083809 0.083513 -0.016095 -100564.000000 0 0 1
14.894493 20.356868 -13.308247 28.519422 0.939131 2.056282 0.082013 -0.017368 -1353960.000000 0 0 1
16.028093 19.765068 -13.807247 28.951645 0.889426 2.067929 0.079772 -0.012571 -459763.000000 0 0 1
17.298493 20.632268 -13.595647 30.162393 0.873064 2.038400 0.081872 -0.013904 -79345.800000 0 0 1
17.377293 21.867868 -14.376847 31.414450 0.899326 2.046148 0.072969 -0.016653 -243794.000000 0 0 1
16.427693 22.903168 -14.177047 31.550164 0.948575 2.036833 0.078105 -0.019850 -137401.000000 0 0 1
16.790093 24.350368 -14.669447 33.015758 0.967138 2.031208 0.075240 -0.020655 -214901.000000 0 0 1
16.990493 24.496168 -16.095047 33.879044 0.964380 2.065844 0.064099 -0.018456 -46438.200000 0 0 1
15.865793 24.308368 -16.964947 33.621861 0.992533 2.099693 0.054953 -0.015773 23813.500000 0 0 1
16.139293 24.288968 -18.483747 34.526506 0.984316 2.135718 0.051820 -0.003705 -6762.850000 0 0 1
16.588193 23.028468 -18.965947 34.134815 0.946553 2.159903 0.054772 -0.000111 49752.200000 0 0 1
16.433393 23.030968 -20.387447 34.873054 0.951044 2.195207 0.055677 0.009890 -24119.400000 0 0 1
16.844093 21.744868 -21.071747 34.649405 0.911721 2.224514 0.054438 0.009994 -181174.000000 0 0 1
15.869893 20.740468 -20.911647 33.456202 0.917660 2.245986 0.066379 0.005771 97266.500000 0 0 1
16.236693 19.643568 -21.700647 33.472646 0.880066 2.276159 0.062065 0.001256 -20958.500000 0 0 1
15.151593 18.563468 -21.773447 32.376783 0.886252 2.308380 0.058054 -0.006271 -1265120.000000 0 0 1
14.917693 17.781868 -20.580247 31.020621 0.872766 2.296200 0.063973 -0.011551 -67586.000000 0 0 1
13.942793 16.804268 -20.786947 30.147671 0.878196 2.331601 0.057038 -0.015205 771263.000000 0 0 1
12.479693 17.293068 -21.137247 30.026257 0.945682 2.351752 0.061533 -0.012248 -698193.000000 0 0 1
11.741193 17.566368 -20.014547 29.103522 0.981601 2.329115 0.049982 -0.012656 -1148740.000000 0 0 1
10.411293 17.815668 -20.337847 28.972764 1.041934 2.348948 0.053037 -0.009310 -751033.000000 0 0 1
9.500493 17.247268 -19.252347 27.538709 1.067308 2.344936 0.052730 -0.014984 -927935.000000 0 0 1
9.083593 15.935468 -19.409947 26.705745 1.052710 2.384459 0.046222 -0.013055 723471.000000 0 0 1
7.762693 15.665668 -18.910247 25.754028 1.110737 2.395378 0.055158 -0.008905 597564.000000 0 0 1
7.659893 15.612168 -17.377947 24.584686 1.114668 2.355846 0.056233 -0.014902 -314530.000000 0 1 0
7.482993 16.912268 -16.770647 24.965468 1.154231 2.307370 0.073625 -0.022902 -186186.000000 0 1 0
6.927293 16.863568 -15.478847 23.915727 1.181028 2.274734 0.069753 -0.030447 170911.000000 0 1 0
6.359793 18.257968 -15.027947 24.487539 1.235610 2.231532 0.082854 -0.032497 165033.000000 0 1 0
7.382193 19.228568 -14.807047 25.366971 1.204230 2.194091 0.078448 -0.029359 149818.000000 0 0 1
7.961193 19.842268 -15.936347 26.665771 1.189235 2.211342 0.093237 -0.026476 1295200.000000 0 0 1
9.250093 20.765968 -15.619847 27.582046 1.151737 2.172812 0.075252 -0.015650 1254600.000000 0 0 1
9.063793 21.929468 -14.852547 27.993786 1.178864 2.130064 0.076341 -0.022006 -213742.000000 0 0 1
8.816393 21.723568 -13.527647 27.067313 1.185262 2.094139 0.071178 -0.026220 -110641.000000 0 0 1
8.393893 22.968568 -12.675047 27.543953 1.220423 2.048989 0.070185 -0.023565 -337659.000000 0 0 1
7.236593 23.573868 -13.220847 27.980106 1.272953 2.062932 0.079431 -0.025774 222604.000000 0 0 1
6.610893 24.560468 -12.355647 28.276890 1.307860 2.023004 0.062600 -0.028079 404781.000000 0 0 1
5.826193 24.011068 -11.136647 27.101675 1.332751 1.994260 0.059224 -0.025684 -503947.000000 0 0 1
6.726293 23.779568 -10.076247 26.687855 1.295137 1.957955 0.046249 -0.025300 67344.900000 0 0 1
6.097293 23.209168 -8.960947 25.615250 1.313891 1.928184 0.060953 -0.031868 43520.900000 0 0 1
7.125593 23.081768 -7.805447 25.386356 1.271367 1.883325 0.047024 -0.030238 248926.000000 0 0 1
7.473693 24.319368 -7.205747 26.442589 1.272643 1.846792 0.050685 -0.028275 125208.000000 0 0 1
8.354393 24.131168 -6.112947 26.257899 1.237504 1.805756 0.065266 -0.026994 86624.000000 0 0 1
8.826593 25.439568 -5.330447 27.449846 1.236829 1.766227 0.062272 -0.026016 161663.000000 0 0 1
9.555193 26.247268 -6.243947 28.621804 1.221664 1.790718 0.070151 -0.028396 56470.000000 0 0 1
9.623993 27.554968 -5.764447 29.751073 1.234776 1.765786 0.073929 -0.023417 137367.000000 0 0 1
9.860093 28.659068 -6.848447 31.071930 1.239434 1.793027 0.072502 -0.018372 527566.000000 0 0 1
11.216293 28.690668 -7.280047 31.653732 1.198126 1.802864 0.089421 -0.022888 129209.000000 0 0 1
11.397993 29.893368 -8.059247 32.992107 1.206524 1.817571 0.076084 -0.017308 -188166.000000 0 0 1
12.843793 30.037268 -8.523147 33.761583 1.166730 1.826009 0.085946 -0.023915 -123372.000000 0 0 1
13.841693 30.161568 -7.524747 34.028436 1.140551 1.793770 0.071407 -0.018335 -1213790.000000 0 0 1
14.992793 30.513368 -8.167047 34.964984 1.114091 1.806552 0.064576 -0.018308 -360788.000000 0 0 1
16.280393 30.805268 -7.318047 35.602943 1.084614 1.777818 0.054043 -0.013132 574830.000000 0 0 1
16.918093 29.641868 -6.825347 34.805855 1.052162 1.768173 0.051961 -0.016997 -1001050.000000 0 0 1
18.082993 30.075368 -6.210647 35.638386 1.029454 1.745959 0.035595 -0.006046 -456525.000000 0 0 1
19.125493 28.920868 -6.168347 35.217177 0.986515 1.746856 0.027573 -0.006812 -327630.000000 0 0 1
19.023493 28.052468 -4.991947 34.260090 0.974893 1.717024 0.057989 -0.021695 -55689.500000 0 0 1
20.096793 27.134768 -4.877247 34.116920 0.933320 1.714245 0.046962 -0.019043 -550260.000000 0 0 1
20.176193 26.006568 -5.992747 33.456440 0.910980 1.750889 0.053676 -0.011901 -242906.000000 0 0 1
20.515993 26.411568 -7.308047 34.232798 0.910375 1.785933 0.032554 -0.002377 244463.000000 0 0 1
20.445793 25.350568 -8.239247 33.594150 0.892091 1.818583 0.037740 -0.009684 -1246100.000000 0 0 1
21.119293 25.653268 -9.633447 34.596503 0.882033 1.852978 0.038002 -0.010031 531508.000000 0 0 1
22.526593 25.886268 -9.655047 35.647808 0.854683 1.845068 0.025464 -0.002003 519440.000000 0 0 1
23.252393 24.741368 -9.241347 35.188230 0.816413 1.836539 0.036793 -0.002884 -587644.000000 0 0 1
24.803293 24.986268 -9.285747 36.410740 0.789073 1.828673 0.019075 0.004909 870356.000000 0 0 1
25.300493 25.263168 -10.596947 37.291257 0.784660 1.858934 0.028599 0.004886 88639.700000 0 0 1
26.710293 25.397368 -10.579647 38.345729 0.760207 1.850324 0.040062 0.020119 238537.000000 0 0 1
27.389693 25.423268 -11.935547 39.230028 0.748182 1.879942 0.038509 0.016192 68549.700000 0 0 1
27.340393 26.722368 -12.523147 40.229482 0.773967 1.887349 0.053461 0.023298 -89010.100000 0 0 1
28.125993 26.704968 -13.701247 41.133331 0.759488 1.910379 0.035439 0.023557 262402.000000 0 0 1
27.943293 27.944568 -14.636047 42.141907 0.785421 1.925491 0.049094 0.011272 183280.000000 0 0 1
28.440793 29.222568 -14.223647 43.187374 0.798955 1.906409 0.065384 -0.004472 34118.100000 0 0 1
28.516693 30.126568 -15.319047 44.220867 0.812843 1.924550 0.069008 0.008927 -243544.000000 0 0 1
28.696893 31.624168 -14.953447 45.246052 0.833888 1.907621 0.067649 -0.003511 614112.000000 0 0 1
29.999193 31.800168 -14.386947 46.023760 0.814532 1.888723 0.076981 -0.018237 446980.000000 0 0 1
30.228293 33.183968 -14.198647 47.080006 0.831975 1.877151 0.077969 -0.021117 -36562.700000 0 0 1
16.556993 -31.991329 -27.761263 45.478202 -1.093210 2.227400 0.094832 -0.052239 42234.600000 0 0 1
17.559393 -32.843929 -27.209143 46.123675 -1.079829 2.201752 0.072019 -0.033655 325232.000000 0 0 1
18.069393 -32.269629 -26.007253 45.212931 -1.060346 2.183666 0.063852 -0.037739 -295549.000000 0 0 1
19.311093 -33.017529 -25.451873 45.944242 -1.041573 2.157925 -0.004650 -0.024929 247331.000000 0 0 1
20.575293 -32.877229 -26.060393 46.726854 -1.011606 2.162430 0.006625 -0.019902 303949.000000 0 0 1
20.744493 -33.376829 -27.348073 47.877592 -1.014701 2.178773 0.029886 -0.016241 -1680520.000000 0 0 1
22.054693 -33.063429 -28.008743 48.621903 -0.982534 2.184687 0.043139 -0.007348 -1004260.000000 0 0 1
22.303793 -31.814529 -28.533863 48.205858 -0.959361 2.204231 0.038464 -0.018790 -352533.000000 0 0 1
23.438893 -31.331729 -27.875653 48.042803 -0.928520 2.189802 -0.004022 -0.009263 -528671.000000 0 0 1
23.936793 -30.007229 -28.483003 47.798382 -0.897459 2.209181 -0.017418 0.001635 115694.000000 0 0 1
24.493693 -30.207729 -29.795253 48.991887 -0.889479 2.224546 -0.012565 -0.003583 110571.000000 0 0 1
25.018893 -29.072329 -30.448083 48.971737 -0.860195 2.241769 -0.001871 -0.011213 188752.000000 0 0 1
25.448793 -29.322629 -31.947993 50.280532 -0.856008 2.259316 0.014877 -0.000409 6089.830000 0 0 1
26.409093 -30.337629 -32.070163 51.442271 -0.854517 2.243906 0.025475 -0.012043 -490279.000000 0 0 1
26.517493 -30.812629 -33.370293 52.594410 -0.860178 2.258137 0.024993 -0.021752 -308813.000000 0 0 1
27.859793 -31.500329 -33.633773 53.848579 -0.846651 2.245414 0.019760 -0.026984 243286.000000 0 0 1
28.955493 -30.578829 -33.672513 53.919602 -0.812659 2.245281 0.036743 -0.022840 -481889.000000 0 0 1
30.114093 -31.256129 -34.046139 55.162884 -0.804005 2.235966 0.037547 -0.017252 -397116.000000 0 0 1
31.359593 -30.360929 -34.096573 55.387601 -0.769219 2.233943 0.055399 -0.024140 -102403.000000 0 0 1
31.393293 -29.424429 33.034960 54.246147 -0.753036 0.916019 0.060489 -0.018730 -299292.000000 0 0 1
32.591293 -28.708629 32.940017 54.510756 -0.722144 0.921928 0.073481 -0.022386 -263533.000000 0 0 1
32.580693 -27.765229 31.671533 53.249371 -0.705769 0.933807 0.072792 -0.025355 -530386.000000 0 0 1
33.815093 -27.145829 31.469603 53.578844 -0.676429 0.943014 0.059923 -0.032001 -221599.000000 0 0 1
33.833093 -26.173929 30.460913 52.513046 -0.658447 0.951989 0.073557 -0.032054 -396264.000000 0 0 1
34.552093 -26.575829 29.162643 52.445987 -0.655646 0.981169 0.071797 -0.029799 -123963.000000 0 0 1
33.914193 -27.556429 28.309143 52.066658 -0.682337 0.995945 0.071393 -0.040420 114512.000000 0 0 1
32.703193 -27.177729 27.715363 50.756962 -0.693385 0.993166 0.077071 -0.044482 -157812.000000 0 0 1
31.972393 -28.341029 26.943283 50.511270 -0.725263 1.008168 0.063309 -0.036181 554260.000000 0 0 1
30.651993 -28.050929 26.497423 49.279942 -0.741118 1.003099 0.059005 -0.030781 394725.000000 0 0 1
30.088493 -29.210829 25.923273 49.301177 -0.770599 1.017124 0.047088 -0.017642 -139639.000000 0 0 1
28.740793 -28.938629 25.251293 47.969837 -0.788828 1.016436 0.033070 -0.007024 -33304.500000 0 0 1
27.625193 -28.624929 26.052403 47.552766 -0.803169 0.990989 0.028187 -0.009916 -198927.000000 0 0 1
26.493893 -28.356729 25.263703 46.306427 -0.819347 0.993719 0.024243 0.009455 455691.000000 0 0 1
25.188693 -28.200029 26.104533 45.947345 -0.841742 0.966552 0.029491 0.004346 228925.000000 0 0 1
25.148693 -27.006429 26.846193 45.634659 -0.821003 0.941860 0.020534 -0.000862 581483.000000 0 0 1
23.977593 -26.874529 27.679053 45.423510 -0.842305 0.915549 0.030153 -0.012136 438974.000000 0 0 1
23.928093 -25.667129 28.690003 45.326278 -0.820448 0.885418 0.031517 -0.002841 -130801.000000 0 0 1
22.837693 -25.697629 29.617903 45.377842 -0.844255 0.859660 0.055987 -0.008727 512002.000000 0 0 1
22.610193 -24.483729 30.306913 45.046452 -0.825160 0.832820 0.056837 -0.006814 -304058.000000 0 0 1
22.297393 -23.134629 29.635003 43.710619 -0.803824 0.825783 0.059325 -0.012894 -351136.000000 0 0 1
23.318793 -22.703929 28.733613 43.414917 -0.772039 0.847529 0.062983 -0.013276 438344.000000 0 0 1
23.180393 -21.337129 28.383263 42.405346 -0.744016 0.837487 0.088932 -0.006298 -146575.000000 0 0 1
23.742393 -20.282529 29.376873 42.872869 -0.706971 0.815906 0.074976 -0.003834 -158973.000000 0 0 1
23.145493 -20.299729 30.678883 43.462475 -0.719989 0.787145 0.076168 -0.004045 665570.000000 0 0 1
23.981593 -19.542229 31.567833 44.198910 -0.683751 0.775284 0.075708 -0.006070 153501.000000 0 0 1
23.363893 -19.338929 32.968640 44.797287 -0.691421 0.743725 0.081151 0.003231 -162290.000000 0 0 1
23.562793 -20.456429 33.807755 46.006902 -0.714947 0.745364 0.074052 -0.001444 23937.500000 0 0 1
22.984693 -20.152729 -33.226183 45.148730 -0.719842 2.397832 0.073444 -0.008019 -417485.000000 0 0 1
22.936793 -21.295929 -32.161403 44.877265 -0.748319 2.369787 0.060117 0.000732 -516188.000000 0 0 1
24.148993 -21.606229 -31.550733 45.226670 -0.729882 2.342857 0.052473 -0.001029 -490323.000000 0 0 1
23.968393 -22.454229 -30.420893 44.767253 -0.752793 2.317924 0.040735 -0.007720 255835.000000 0 0 1
25.327493 -22.784829 -29.755273 45.232804 -0.732599 2.288724 0.040269 0.002540 194091.000000 0 0 1
26.246893 -23.497029 -30.545113 46.626319 -0.730174 2.285117 0.051653 0.007069 -977366.000000 0 0 1
27.255393 -23.955829 -29.722453 46.905888 -0.721057 2.257073 0.053682 -0.007221 -311549.000000 0 0 1
28.386293 -24.716129 -30.461893 48.421024 -0.716393 2.251197 0.049257 -0.009691 541073.000000 0 0 1
29.325693 -24.002529 -31.292183 49.145888 -0.685909 2.261034 0.055057 -0.005172 484871.000000 0 0 1
28.931493 -23.712529 -32.656883 49.656694 -0.686584 2.288496 0.056807 -0.000160 -11248.100000 0 0 1
29.197893 -24.889929 -33.671603 51.047060 -0.705918 2.291108 0.054871 0.004486 -240384.000000 0 0 1
28.466793 -25.994529 -33.277583 50.926136 -0.740034 2.282927 0.064633 -0.006535 -354219.000000 0 0 1
28.703293 -27.172629 -34.020368 52.149940 -0.758011 2.281486 0.057470 -0.008801 107192.000000 0 0 1
28.055393 -27.301029 32.838791 51.096355 -0.771772 0.872800 0.062157 -0.015871 30543.300000 0 0 1
28.867493 -26.531629 31.969493 50.589604 -0.743259 0.886745 0.054952 -0.022947 -23029.200000 0 0 1
28.556293 -26.565529 30.600173 49.573781 -0.749298 0.905534 0.048379 -0.019931 -373920.000000 0 0 1
29.624193 -25.989729 29.604293 49.289685 -0.720139 0.926522 0.061407 -0.022213 83430.300000 0 0 1
29.826193 -24.590129 29.552803 48.658446 -0.689471 0.918073 0.052695 -0.028036 217332.000000 0 0 1
30.242593 -24.007229 30.784053 49.382380 -0.670962 0.897737 0.050870 -0.015348 -1439390.000000 0 0 1
30.676393 -22.497829 30.768153 48.927218 -0.632787 0.890716 0.040449 -0.004485 360674.000000 0 0 1
31.969993 -22.124829 30.311873 49.299069 -0.605370 0.908592 0.056927 -0.013126 632181.000000 0 0 1
32.951593 -22.638529 31.246343 50.740954 -0.601964 0.907394 0.053111 -0.014278 -1408070.000000 0 0 1
34.327193 -22.063129 30.995343 51.243040 -0.571248 0.921195 0.057061 -0.021893 -1084590.000000 0 0 1
34.857793 -22.653729 29.822423 51.162819 -0.576298 0.948512 0.070827 -0.030824 1288050.000000 0 0 1
36.129893 -22.013329 29.488143 51.570402 -0.547217 0.962094 0.057801 -0.030942 1229590.000000 0 0 1
36.535693 -22.274129 28.011533 51.143325 -0.547488 0.991176 0.072614 -0.032383 -99964.500000 0 0 1
-36.320136 -23.594929 27.792213 51.461443 0.576120 1.000289 0.071866 -0.032309 228802.000000 0 0 1
-35.901036 -23.835729 26.467543 50.572297 0.586105 1.020006 0.071027 -0.023936 -248480.000000 0 0 1
-35.770236 -25.351829 26.218993 51.084838 0.616568 1.031836 0.061134 -0.035899 -494704.000000 0 0 1
36.380793 -26.078929 26.156163 51.844166 -0.621934 1.041976 0.073000 -0.043050 -527724.000000 0 0 1
36.454293 -27.496729 25.855373 52.473669 -0.646234 1.055572 0.075974 -0.039421 522658.000000 0 0 1
-36.012136 -28.439329 26.827763 53.154475 0.668438 1.041747 0.079588 -0.038992 -315313.000000 0 0 1
-35.877236 -29.774129 26.289913 53.524147 0.692702 1.057354 0.080137 -0.033106 -31575.300000 0 0 1
-34.896636 -30.535929 26.936653 53.626500 0.718852 1.044538 0.081501 -0.030693 -386401.000000 0 0 1
-33.449736 -30.053829 26.935223 52.417781 0.731973 1.031122 0.087881 -0.026068 -1434150.000000 0 0 1
-32.864436 -29.948229 25.685153 51.348755 0.739004 1.046955 0.079319 -0.022595 -351468.000000 0 0 1
-31.512536 -29.570329 25.670113 50.263297 0.753613 1.034783 0.059058 -0.013670 -108298.000000 0 0 1
-30.961836 -29.379429 24.242273 49.086393 0.759180 1.054262 0.059223 -0.006549 -124308.000000 0 0 1
-30.894336 -30.620529 23.626893 49.500575 0.780947 1.073211 0.066615 -0.009686 275051.000000 0 0 1
-30.588736 -30.510729 22.278453 48.609720 0.784121 1.094700 0.052733 -0.000792 -789887.000000 0 0 1
-30.592336 -31.872629 21.513653 49.138506 0.805891 1.117628 0.058104 0.000509 338113.000000 0 0 1
-29.484436 -32.764329 21.664053 49.113791 0.838040 1.113973 0.063896 -0.002310 298903.000000 0 0 1
-28.236336 -32.264029 21.219953 47.838736 0.851873 1.111215 0.077122 -0.003593 -326622.000000 0 0 1
-27.139336 -33.331629 21.257753 47.952405 0.887444 1.111509 0.064928 0.010721 -451097.000000 0 0 1
-27.131236 33.893768 20.252453 47.906715 -0.895764 1.134321 0.052342 0.005702 267817.000000 0 0 1
-28.299736 33.063168 20.231353 47.993289 -0.862870 1.135647 0.055449 0.006997 496761.000000 0 0 1
-28.467836 31.886768 21.237153 47.730497 -0.841985 1.109690 0.060792 0.006394 443676.000000 0 0 1
-27.572536 30.804768 20.934953 46.340595 -0.840710 1.102056 0.051501 0.000744 119759.000000 0 0 1
-27.608636 29.823968 21.919553 46.175455 -0.823952 1.076172 0.057251 -0.007731 248843.000000 0 0 1
-26.684636 28.574068 21.679853 44.705293 -0.819577 1.064490 0.053023 -0.005941 -128741.000000 0 0 1
-25.326336 28.915468 21.702053 44.141893 -0.851471 1.056821 0.046006 -0.002988 -791889.000000 0 0 1
-24.575736 27.812368 21.331453 42.808008 -0.847102 1.049153 0.038756 -0.011795 409579.000000 0 0 1
-23.030836 28.055968 21.227853 42.049715 -0.883447 1.041614 0.025055 -0.000359 640253.000000 0 0 1
-22.474736 28.233468 22.508153 42.530688 -0.898480 1.013114 0.036584 -0.007158 1259940.000000 0 0 1
-21.099936 28.671868 22.527453 42.128013 -0.936373 1.006599 0.056816 -0.011711 1354770.000000 0 0 1
-20.313736 28.730468 23.898123 42.534785 -0.955358 0.974177 0.052648 -0.011712 -406979.000000 0 0 1
-20.248936 27.462668 24.514343 42.013933 -0.935456 0.947788 0.056451 -0.025407 424578.000000 0 0 1
-19.803536 27.397568 25.896433 42.584411 -0.944918 0.917106 0.054149 -0.024193 419231.000000 0 0 1
-18.401036 28.001368 26.219453 42.545675 -0.989413 0.906804 0.057712 -0.019170 -253411.000000 0 0 1
-18.300936 29.409168 26.039833 43.334701 -1.014150 0.926169 0.033118 -0.012690 -653542.000000 0 0 1
-17.083436 29.965268 26.419803 43.448442 -1.052646 0.917166 0.027073 -0.004745 -548038.000000 0 0 1
-16.681136 30.110968 27.937643 44.333313 -1.064896 0.889021 0.014431 0.002932 -382731.000000 0 0 1
-16.410836 28.864468 28.512833 43.765908 -1.053824 0.861256 0.027763 0.002035 252075.000000 0 0 1
-16.751236 28.897268 29.919023 44.841989 -1.045450 0.840339 0.023970 0.003512 -178845.000000 0 0 1
-16.570236 27.585768 30.664293 44.450492 -1.029877 0.809511 0.023844 -0.001080 89921.200000 0 0 1
-15.203636 27.331668 30.978503 44.020885 -1.063156 0.790172 0.035026 0.003430 499480.000000 0 0 1
-14.921836 26.206668 31.789193 43.817844 -1.053188 0.759057 0.046048 0.004168 -241515.000000 0 0 1
-15.366236 26.328268 33.301612 45.147494 -1.042493 0.741260 0.043568 0.006357 -1063570.000000 0 0 1
-16.715136 26.174268 33.497492 45.678989 -1.002470 0.747598 0.045921 0.002177 -1184890.000000 0 0 1
-17.213136 26.781968 -33.501013 46.215622 -0.999560 2.381664 0.038204 0.007073 992708.000000 0 0 1
-18.469036 26.009568 -32.947093 45.859719 -0.953333 2.372342 0.029109 0.006146 1672260.000000 0 0 1
-19.718636 26.318968 -33.598713 47.014744 -0.927796 2.366909 0.032651 0.007450 1181650.000000 0 0 1
-20.874836 25.737268 -32.991163 46.760908 -0.889339 2.353965 0.048207 0.006754 504709.000000 0 0 1
-22.137036 25.820468 -33.880653 48.006703 -0.862054 2.354275 0.087207 -0.018301 -92912.300000 0 0 1
-22.154236 25.079368 33.141600 47.097245 -0.847248 0.790226 0.090560 -0.017843 41948.500000 0 0 1
-22.343236 23.593468 33.285519 46.516639 -0.812608 0.773369 0.084970 -0.013445 -320909.000000 0 0 1
-22.699636 22.882668 31.987163 45.410005 -0.789414 0.789208 0.082654 -0.015575 -161572.000000 0 0 1
-24.051036 22.608968 31.703423 45.768164 -0.754502 0.805576 0.098646 -0.022921 -259123.000000 0 0 1
-24.236936 22.060668 30.441933 44.730453 -0.738427 0.822264 0.104906 -0.020438 882641.000000 0 0 1
-25.733236 21.810868 30.003473 45.145563 -0.703085 0.843846 0.112716 -0.020520 955122.000000 0 0 1
-26.309236 20.661668 30.550123 45.303316 -0.665737 0.830717 0.114544 -0.024005 -268214.000000 0 0 1
-27.455136 20.311168 29.802853 45.327013 -0.636938 0.853290 0.115220 -0.030691 -26902.500000 0 0 1
-27.999536 18.894368 30.246513 45.341181 -0.593619 0.840505 0.132260 -0.028381 -86840.000000 0 0 1
-28.778836 18.886968 31.442193 46.621352 -0.580777 0.830623 0.120729 -0.023258 132077.000000 0 0 1
-29.035836 17.557968 31.975163 46.623739 -0.543868 0.815076 0.107851 -0.011072 299562.000000 0 0 1
-29.967336 16.538268 31.200143 46.314193 -0.504283 0.831643 0.086047 -0.010409 -498515.000000 0 0 1
-31.314836 16.890768 31.287773 47.379761 -0.494657 0.849496 0.066965 -0.007706 -1067530.000000 0 0 1
-31.978836 15.673468 31.075893 47.265365 -0.455712 0.853331 0.061271 -0.002227 -487223.000000 0 0 1
-33.488636 15.925868 30.876803 48.254523 -0.443905 0.876462 0.045112 0.007783 -295255.000000 0 0 1
-34.031336 16.256668 32.140263 49.552070 -0.445647 0.865032 0.035466 0.010290 1431590.000000 0 0 1
-35.473236 16.445268 32.092813 50.584049 -0.434103 0.883506 0.040942 0.003628 1277290.000000 0 0 1
-35.921836 16.784868 33.567296 51.950683 -0.437115 0.868283 0.042814 0.008848 -1046800.000000 0 0 1
36.065693 17.024968 33.759737 52.252307 0.441042 0.868345 0.036452 -0.004111 -550745.000000 0 0 1
35.858893 17.454268 -33.162123 51.867505 0.452990 2.264465 0.025897 -0.007719 325449.000000 0 0 1
34.343893 17.649868 -32.853393 50.698779 0.474718 2.275767 0.035258 -0.010210 119019.000000 0 0 1
33.695593 16.424868 -32.730503 49.763994 0.453556 2.288577 0.039626 -0.008650 -1228980.000000 0 0 1
32.537793 16.740968 -32.063663 48.652301 0.475187 2.290334 0.049366 -0.021006 -1036370.000000 0 0 1
31.470393 15.641168 -31.919253 47.474945 0.461254 2.308160 0.056880 -0.015961 -116128.000000 0 0 1
30.783893 15.316468 -33.088813 47.719092 0.461684 2.337005 0.056250 -0.018064 37299.400000 0 0 1
29.867193 14.243868 -33.004563 46.735833 0.445003 2.354904 0.048739 -0.022985 -12141.500000 0 0 1
30.411893 12.874468 -33.529573 47.062378 0.400461 2.363779 0.044431 -0.010731 65919.600000 0 0 1
31.334393 12.190368 -32.716783 46.913080 0.371024 2.342548 0.047868 -0.007963 307386.000000 0 0 1
32.113093 11.250168 -33.441043 47.708703 0.336968 2.347514 0.057174 -0.005956 72867.800000 0 0 1
17.809493 -20.982932 10.147407 29.333110 -0.867022 1.217559 0.025110 -0.014222 -137036.000000 0 0 1
17.710893 -22.212732 10.833607 30.404740 -0.897685 1.206477 0.020572 -0.013378 85163.600000 0 0 1
18.915393 -22.946332 10.913107 31.676839 -0.881394 1.219076 0.017796 -0.016256 -264652.000000 0 0 1
18.611293 -24.262632 11.650207 32.722819 -0.916456 1.206783 0.022751 -0.016347 345739.000000 0 0 1
17.913893 -25.317352 10.949907 32.890368 -0.955005 1.231396 0.021709 -0.017047 1504900.000000 0 0 1
16.474693 -25.230302 11.130507 32.122762 -0.992334 1.216960 0.020510 -0.016335 1167830.000000 0 0 1
15.637093 -26.225022 10.299207 32.223347 -1.033127 1.245469 0.037399 -0.014842 -19221.300000 0 0 1
15.479493 -25.634992 8.999507 31.269132 -1.027556 1.278859 0.042344 -0.016482 247603.000000 0 0 1
14.755193 -26.487672 8.098907 31.383193 -1.062550 1.309777 0.059528 -0.010312 48886.500000 0 0 1
14.602593 -25.927932 6.683207 30.498502 -1.057876 1.349871 0.072222 -0.013135 -335760.000000 0 0 1
13.787893 -24.797632 6.701007 29.153594 -1.063346 1.338871 0.085040 -0.022320 11285.900000 0 0 1
13.470393 -24.353832 5.377807 28.345748 -1.065567 1.379917 0.085368 -0.014631 275630.000000 0 0 1
12.646993 -23.011632 5.409107 26.809328 -1.068267 1.367640 0.090477 -0.018071 -161999.000000 0 0 1
11.964293 -22.597032 4.279007 25.924507 -1.083857 1.404981 0.096865 -0.018556 -307708.000000 0 0 1
11.114093 -21.583832 4.763807 24.740225 -1.095279 1.377033 0.097888 -0.018397 -160393.000000 0 1 0
10.305293 -20.879332 3.673107 23.571959 -1.112311 1.414333 0.079231 -0.015936 -7185.690000 0 1 0
11.163693 -20.249632 2.743607 23.285253 -1.066953 1.452696 0.075740 -0.013331 373640.000000 0 1 0
10.382593 -19.657032 1.689307 22.294638 -1.084854 1.494952 0.050714 0.001258 778072.000000 0 1 0
11.311993 -19.082232 0.558607 22.190196 -1.035686 1.545620 0.041499 0.000071 337361.000000 0 1 0
11.964093 -17.877732 0.824207 21.527474 -0.981030 1.532501 0.039475 -0.002218 58498.600000 0 1 0
12.841293 -17.656532 -0.293493 21.834332 -0.941993 1.584239 0.055179 -0.002111 -249576.000000 0 1 0
13.988993 -16.699832 0.008807 21.784774 -0.873503 1.570392 0.060056 0.004182 -555125.000000 0 1 0
15.021593 -17.387632 0.668707 22.987500 -0.858274 1.541702 0.069752 -0.001446 887395.000000 0 1 0
16.261593 -16.613932 0.576807 23.254996 -0.796115 1.545990 0.068395 -0.011315 1661510.000000 0 1 0
17.543893 -17.226132 1.190407 24.615947 -0.776259 1.522418 0.067550 -0.001841 465546.000000 0 1 0
18.077493 -18.460932 0.626907 25.845595 -0.795892 1.546538 0.048635 -0.002198 899007.000000 0 0 1
19.265993 -18.877332 1.340907 27.006113 -0.775209 1.521124 0.039960 0.002671 863365.000000 0 0 1
19.638993 -20.217432 0.719607 28.194901 -0.799910 1.545271 0.019134 0.003508 -150901.000000 0 0 1
18.764593 -21.241832 1.149407 28.366292 -0.847240 1.530265 0.025602 0.005973 154092.000000 0 0 1
18.962293 -22.435632 0.450907 29.379065 -0.869103 1.555448 0.023742 0.001147 77827.600000 0 0 1
17.801793 -23.411432 0.787507 29.421406 -0.920679 1.544027 0.033208 -0.005461 157478.000000 0 0 1
17.896093 -24.012732 2.095007 30.021167 -0.930326 1.500955 0.026299 -0.002563 967607.000000 0 0 1
16.782893 -24.937332 2.310407 30.147537 -0.978420 1.494084 0.039295 -0.002023 772846.000000 0 0 1
16.898693 -25.875192 3.544207 31.107118 -0.992256 1.456613 0.042616 -0.007575 603275.000000 0 0 1
17.860893 -26.948702 3.491807 32.518252 -0.985494 1.463209 0.031327 0.001630 805947.000000 0 0 1
19.182493 -26.601142 3.881907 33.025111 -0.946039 1.452980 0.036252 0.004381 310989.000000 0 0 1
20.215093 -27.760972 3.947207 34.567354 -0.941404 1.456358 0.045388 0.003153 159520.000000 0 0 1
20.418393 -28.289612 2.680607 34.991407 -0.945613 1.494114 0.027646 0.010929 -309503.000000 0 0 1
21.430793 -29.262992 2.557807 36.361297 -0.938686 1.500394 0.045232 0.014079 65468.100000 0 0 1
21.008793 -30.643002 3.020307 37.275799 -0.969801 1.489681 0.052732 0.007561 -125227.000000 0 0 1
21.061193 -30.852162 4.447007 37.619219 -0.971811 1.452308 0.073198 0.000522 -199889.000000 0 0 1
20.022593 -31.712972 4.848207 37.816953 -1.007630 1.442241 0.068010 -0.012923 -164558.000000 0 0 1
20.088693 -31.924002 6.400307 38.257828 -1.009135 1.402712 0.086724 -0.022918 900730.000000 0 0 1
21.178993 -32.759642 6.909207 39.616676 -0.996888 1.395498 0.074677 -0.038812 961760.000000 0 0 1
20.845693 -33.339442 8.150307 40.155807 -1.012013 1.366409 0.071435 -0.042179 -67625.800000 0 0 1
21.938293 33.996794 8.732107 41.392274 0.997729 1.358240 0.080218 -0.044153 -221404.000000 0 0 1
23.070293 -33.578142 9.181607 41.761608 -0.968806 1.349128 0.090527 -0.045049 -596824.000000 0 0 1
24.091193 33.813874 9.615607 42.617174 0.951754 1.343209 0.109746 -0.048684 -428288.000000 0 0 1
25.111493 -33.698502 10.474707 43.311610 -0.930386 1.326529 0.105116 -0.041518 -500250.000000 0 0 1
25.793893 -32.699622 9.719507 42.767499 -0.902914 1.341529 0.070585 -0.033377 424799.000000 0 0 1
26.663693 -31.874202 10.518707 42.866776 -0.874175 1.322883 0.048485 -0.027497 420646.000000 0 0 1
27.266893 -30.741562 9.636507 42.206508 -0.845226 1.340447 0.042451 -0.024923 -251651.000000 0 0 1
26.340693 -29.738802 9.279007 40.796181 -0.845919 1.341340 0.042151 -0.027382 191517.000000 0 0 1
26.830093 -28.837242 8.255207 40.244116 -0.821439 1.364202 0.048745 -0.019439 40744.000000 0 0 1
26.312693 -27.359452 8.485807 38.896097 -0.804899 1.350861 0.040739 -0.012339 100452.000000 0 0 1
27.058893 -26.656732 9.464907 39.145236 -0.777911 1.326587 0.037760 -0.024835 197526.000000 0 0 1
26.583793 -25.331602 9.668107 37.971837 -0.761283 1.313349 0.051563 -0.029493 412782.000000 0 0 1
27.515593 -24.707332 10.781807 38.520221 -0.731675 1.287106 0.062818 -0.034524 1017000.000000 0 0 1
28.861193 -24.592732 10.342907 39.303265 -0.705714 1.304504 0.043582 -0.028219 -325904.000000 0 0 1
29.665093 -23.843832 11.195607 39.672253 -0.677034 1.284707 0.050517 -0.031489 460932.000000 0 0 1
31.051093 -23.505532 10.555407 40.349684 -0.647963 1.306119 0.058089 -0.025998 582760.000000 0 0 1
30.888693 -22.760432 9.369907 39.496123 -0.635034 1.331277 0.049132 -0.020584 -612900.000000 0 0 1
32.036393 -22.697832 8.570007 40.186653 -0.616409 1.355891 0.046991 -0.023474 -410240.000000 0 0 1
31.963493 -21.904432 7.303307 39.431045 -0.600789 1.384503 0.054844 -0.009244 -446378.000000 0 0 1
31.916493 -20.498632 7.486907 38.664069 -0.570914 1.375925 0.053733 0.003014 -41682.100000 0 0 1
31.963993 -19.904932 6.213307 38.164228 -0.556965 1.407264 0.044971 0.003208 -60435.900000 0 0 1
31.587093 -18.410432 6.101107 37.066318 -0.527711 1.405444 0.057356 0.007775 -234217.000000 0 0 1
32.493993 -17.585532 6.756007 37.560007 -0.496057 1.389940 0.052762 0.017251 -83933.700000 0 0 1
31.932493 -16.277032 6.926607 36.504846 -0.471403 1.379894 0.061012 0.010408 219462.000000 0 0 1
32.337093 -15.638132 8.261207 36.857649 -0.450440 1.344738 0.062150 -0.024330 223276.000000 0 0 1
33.703493 -15.292632 8.416107 37.955512 -0.425960 1.347202 0.074908 -0.015371 73751.100000 0 0 1
34.025793 -14.732332 9.653107 38.314210 -0.408606 1.316106 0.074532 -0.028411 160403.000000 0 0 1
35.559493 -14.649032 9.832207 39.695642 -0.390773 1.320501 0.063691 -0.032602 335375.000000 0 0 1
36.250693 -13.764032 8.934407 39.791770 -0.362876 1.344337 0.072549 -0.026185 -1357250.000000 0 0 1
-35.812436 -14.180532 8.780207 39.505823 0.377025 1.346674 0.070344 -0.028456 -1376200.000000 0 0 1
-35.004436 -13.111032 8.040407 38.234250 0.358379 1.358921 0.074796 -0.032814 -504217.000000 0 0 1
-35.478836 -12.942132 6.704707 38.356221 0.349785 1.395093 0.096575 -0.040245 1243200.000000 0 0 1
-34.411036 -12.500332 5.794907 37.066948 0.348443 1.413816 0.099992 -0.031855 2173520.000000 0 0 1
-33.302936 -13.608332 5.443707 36.385522 0.387917 1.420621 0.087907 -0.022965 694237.000000 0 0 1
-32.400136 -14.002332 6.446407 35.880221 0.407927 1.390151 0.085792 -0.023346 350359.000000 0 0 1
-31.416436 -14.925332 5.967907 35.289855 0.443514 1.400869 0.080530 -0.012391 758427.000000 0 0 1
-30.665136 -15.649532 7.110207 35.154138 0.471882 1.367133 0.069985 -0.018176 -81752.700000 0 0 1
-31.622036 -16.409732 7.739307 36.457226 0.478679 1.356884 0.067426 -0.023607 -67623.100000 0 0 1
-31.179236 -16.659432 9.092507 36.501440 0.490719 1.319046 0.055430 -0.027352 608319.000000 0 0 1
-32.320936 -17.385832 9.870807 38.004511 0.493516 1.308057 0.025099 -0.022245 221455.000000 0 0 1
-33.502936 -16.587432 10.084007 38.720496 0.459723 1.307328 0.045937 -0.020088 923264.000000 0 0 1
-34.503036 -17.158132 10.905407 40.047333 0.461480 1.295000 0.050701 -0.017399 375585.000000 0 0 1
-35.143136 -18.554132 10.481407 41.099339 0.485764 1.312922 0.052149 -0.018884 -842599.000000 0 0 1
-34.263636 -19.668932 10.552407 40.892749 0.521118 1.309792 0.055099 -0.017155 -248332.000000 0 0 1
-33.852936 -20.159332 11.844207 41.142498 0.537102 1.278781 0.053258 -0.027637 -486798.000000 0 0 1
-34.913636 -20.898032 12.679707 42.620003 0.539363 1.268717 0.057536 -0.026905 -194112.000000 0 0 1
-35.255436 -22.231432 12.296407 43.455540 0.562603 1.283912 0.041149 -0.025337 -398295.000000 0 0 1
-36.390436 -22.194032 11.467807 44.140112 0.547657 1.307976 0.050808 -0.020996 -356825.000000 0 0 1
36.332793 -23.639432 11.411607 44.823201 -0.576822 1.313371 0.045286 -0.014896 -191437.000000 0 0 1
35.960893 -24.210832 12.619207 45.150798 -0.592550 1.287533 0.076436 -0.008385 -231684.000000 0 0 1
35.455293 -25.480102 12.408907 45.390465 -0.623136 1.293890 0.032341 0.002478 -477872.000000 0 0 1
34.526893 -25.766982 13.598907 45.177140 -0.641121 1.265042 0.038887 -0.010742 -259497.000000 0 0 1
33.452993 -24.851232 13.567707 43.826580 -0.638922 1.256048 0.041347 -0.014971 -338453.000000 0 0 1
32.668793 -24.919232 14.732407 43.649307 -0.651633 1.226518 0.049050 -0.002065 -609211.000000 0 0 1
32.525593 -23.565632 15.496607 43.051109 -0.626997 1.202573 0.060889 -0.011695 699197.000000 0 0 1
33.714793 -23.120332 16.167607 43.961671 -0.601106 1.194191 0.068224 -0.017927 1060130.000000 0 0 1
34.783293 -22.589232 15.379607 44.234412 -0.575973 1.215696 0.060382 -0.012691 185124.000000 0 0 1
35.875693 -21.854732 16.182207 45.017313 -0.547142 1.203100 0.066302 -0.017142 -201241.000000 0 0 1
35.682893 -20.496132 16.639307 44.387237 -0.521381 1.186543 0.082624 -0.013731 297621.000000 0 0 1
34.511393 -20.244732 17.420907 43.639127 -0.530516 1.160148 0.077997 -0.012008 329898.000000 0 0 1
34.476593 -18.799232 17.971807 43.186021 -0.499209 1.141591 0.092125 -0.006035 -348490.000000 0 0 1
34.075693 -17.819232 17.010707 42.048092 -0.481824 1.154306 0.092747 -0.010125 129091.000000 0 0 1
34.031093 -16.496732 17.512607 41.676718 -0.451377 1.137129 0.091935 -0.008657 938246.000000 0 0 1
35.421193 -15.877332 17.958107 42.769664 -0.421393 1.137484 0.065041 -0.011349 791582.000000 0 0 1
36.094093 -16.445132 19.025607 43.990904 -0.427516 1.123544 0.053819 0.002895 -448326.000000 0 0 1
-36.267836 -15.621532 19.547007 44.062157 0.406711 1.111159 0.045845 -0.009734 -366833.000000 0 0 1
-35.874236 -15.763832 21.041307 44.476913 0.414020 1.078009 0.045086 0.000107 -282875.000000 0 0 1
-35.044036 -16.855532 21.304907 44.340641 0.448317 1.069591 0.044970 -0.001419 -68450.400000 0 0 1
-34.337036 -16.552732 22.501607 44.264515 0.449198 1.037535 0.037995 0.001018 -40111.700000 0 0 1
-33.386236 -17.649832 23.015507 44.225229 0.486309 1.023459 0.038656 0.002640 -630673.000000 0 0 1
-34.026436 -18.929232 23.251607 45.351421 0.507674 1.032471 0.042078 -0.000799 181106.000000 0 0 1
-33.215536 -20.000532 23.709607 45.447096 0.541994 1.021958 0.022383 0.004018 -725264.000000 0 0 1
-32.085236 -20.506432 22.820507 44.393149 0.568691 1.030891 0.023886 0.011308 -150356.000000 0 0 1
-30.956536 -19.640732 22.954607 43.254820 0.565374 1.011390 0.025739 0.017286 -69544.200000 0 0 1
-29.822036 -20.281732 22.393107 42.451781 0.597240 1.015147 0.020648 0.014235 -112041.000000 0 0 1
-28.631936 -19.300532 22.382507 41.149422 0.593125 0.995680 0.035517 0.011423 -50062.300000 0 0 1
-28.020736 -19.121632 23.657907 41.358131 0.598823 0.961823 0.026443 0.010456 -57325.700000 0 0 1
-27.045436 -18.136232 23.711807 40.281861 0.590710 0.941412 0.044642 0.003202 -367068.000000 0 0 1
-26.585236 -17.751132 25.130407 40.662204 0.588722 0.904564 0.036323 -0.003276 -135897.000000 0 0 1
-25.674036 -16.647932 25.242207 39.667100 0.575274 0.881037 0.054103 -0.005184 409924.000000 0 0 1
-25.316636 -16.357032 26.593907 40.196025 0.573627 0.847839 0.049561 -0.013363 -302542.000000 0 0 1
-24.238136 -17.065332 27.352207 40.334303 0.613452 0.825571 0.042587 -0.012596 -562050.000000 0 0 1
-24.689436 -18.444932 27.539907 41.330742 0.641628 0.841520 0.043723 -0.008996 540624.000000 0 0 1
-23.732536 -19.074632 28.400107 41.637014 0.677013 0.820182 0.044752 -0.008860 225280.000000 0 0 1
-24.151336 -20.468832 28.854907 42.835333 0.703055 0.831695 0.035948 -0.002192 -280372.000000 0 0 1
-25.167636 -20.310232 29.818707 43.989439 0.678993 0.825948 0.032142 -0.010810 -87764.000000 0 0 1
-25.592936 -21.519332 30.394207 45.187253 0.699147 0.833042 0.024953 -0.003839 -491151.000000 0 0 1
-26.666336 -21.357932 31.501907 46.471764 0.675309 0.825932 0.039375 -0.010256 -496475.000000 0 0 1
-26.403136 -20.558432 32.684707 46.776755 0.661578 0.797164 0.052265 -0.014360 106005.000000 0 0 1
-27.477536 -20.562632 33.601707 48.030319 0.642440 0.795968 0.050680 -0.020285 1221850.000000 0 0 1
-28.795336 -19.732132 33.256607 48.213383 0.600761 0.809612 0.035868 -0.022768 753274.000000 0 0 1
-29.599836 -20.390032 32.310507 48.330866 0.603208 0.838569 0.046359 -0.020243 1805760.000000 0 0 1
-30.949936 -19.801032 32.374807 48.970476 0.569154 0.848501 0.069506 -0.020349 1731820.000000 0 0 1
-32.024336 -20.133832 31.321407 49.111708 0.561259 0.879212 0.063465 0.001875 -188586.000000 0 0 1
-31.887236 -19.491832 30.057707 47.960328 0.548668 0.893459 0.049468 -0.015403 327443.000000 0 0 1
-32.785836 -20.031132 29.104907 48.200134 0.548446 0.922493 0.052205 -0.016100 307679.000000 0 0 1
-33.622636 -18.987232 28.298607 47.872829 0.514071 0.938349 0.044552 -0.011752 214184.000000 0 0 1
-34.645336 -19.471532 27.452507 48.301967 0.512028 0.966295 0.030419 -0.013452 314893.000000 0 0 1
-35.245636 -18.438732 26.715407 47.916121 0.481995 0.979370 0.045180 -0.009426 365671.000000 0 0 1
-36.430736 -18.868432 25.782107 48.455477 0.477885 1.009743 0.036427 -0.007092 928720.000000 0 0 1
35.694493 -19.249532 26.413207 48.397302 -0.494580 0.993503 0.059153 -0.009088 715700.000000 0 0 1
34.762693 -19.925632 25.561207 47.527370 -0.520473 1.002946 0.102373 -0.010960 481394.000000 0 0 1
33.599093 -20.467732 26.434907 47.398644 -0.547139 0.979167 0.094286 -0.018077 -10838.200000 0 0 1
32.668393 -19.515732 26.890507 46.595998 -0.538497 0.955624 0.079890 -0.021313 -106869.000000 0 0 1
31.517793 -20.077332 27.434807 46.358809 -0.567193 0.937515 0.066515 -0.010807 -206048.000000 0 0 1
-30.324257 -5.891632 34.099652 46.011501 0.191897 0.736072 0.054992 -0.025386 42051.800000 0 0 1
-30.758567 -6.048232 32.761549 45.343023 0.194159 0.763346 0.067273 -0.019271 57295.500000 0 0 1
-30.120887 -5.128732 31.900333 44.172424 0.168654 0.763851 0.068139 -0.016067 -217666.000000 0 0 1
-30.743017 -4.905632 30.506473 43.587191 0.158235 0.795545 0.059816 -0.029698 -73509.300000 0 0 1
-30.513017 -5.970232 29.644063 42.958799 0.193221 0.809227 0.067645 -0.031733 -218822.000000 0 0 1
-29.294737 -5.764432 28.957633 41.592726 0.194291 0.800680 0.054411 -0.022169 -170760.000000 0 0 1
-29.200257 -6.572932 27.684253 40.771023 0.221408 0.824372 0.043147 -0.027236 -236096.000000 0 0 1
-29.927067 -6.071332 26.590853 40.491529 0.200155 0.854360 0.064619 -0.032882 -216778.000000 0 0 1
-29.758777 -6.797032 25.444603 39.739304 0.224552 0.875923 0.075978 -0.026022 173216.000000 0 0 1
-30.534847 -6.226332 24.199573 39.455842 0.201151 0.910523 0.090402 -0.018262 372077.000000 0 0 1
-29.984447 -4.991932 23.800373 38.606272 0.164971 0.906520 0.102355 -0.027753 3173.210000 0 0 1
-30.617987 -4.575232 22.609953 38.335413 0.148332 0.939994 0.117482 -0.026010 -60704.900000 0 0 1
-29.861707 -3.444432 21.938953 37.214290 0.114839 0.940319 0.115350 -0.024697 831621.000000 0 0 1
-28.665327 -3.929032 21.275353 35.913492 0.136217 0.936755 0.134082 -0.026146 407589.000000 0 0 1
-27.833967 -2.832332 21.039553 35.005923 0.101409 0.926009 0.142820 -0.020320 1181580.000000 0 0 1
-26.378327 -3.192432 20.499653 33.559552 0.120439 0.913670 0.144993 -0.014713 1014160.000000 0 0 1
-26.453227 -3.623432 19.167653 32.867939 0.136128 0.948169 0.163417 -0.023974 783374.000000 0 0 1
-25.135487 -3.565132 18.586653 31.463734 0.140897 0.938830 0.127503 -0.018300 526135.000000 0 0 1
-25.146197 -4.101532 17.194453 30.737648 0.161684 0.977142 0.125021 -0.021777 -575949.000000 0 0 1
-25.795097 -3.307432 16.311953 30.698631 0.127524 1.010594 0.165525 -0.025878 -377509.000000 0 0 1
-25.840707 -3.953432 15.092253 30.185226 0.151815 1.047211 0.149282 -0.025160 -359246.000000 0 0 1
-27.224867 -4.102232 14.462053 31.099400 0.149555 1.087131 0.170732 -0.025246 -380357.000000 0 0 1
-27.748507 -2.899432 13.991753 31.211465 0.104112 1.105946 0.180312 -0.033215 975167.000000 0 0 1
-29.040857 -3.067032 13.350553 32.109428 0.105221 1.141993 0.193447 -0.027505 968638.000000 0 0 1
-29.529917 -1.878332 12.525853 32.131622 0.063522 1.170350 0.179837 -0.015482 -102757.000000 0 0 1
-28.906037 -1.621332 11.254153 31.061933 0.056031 1.200048 0.176748 -0.020675 281970.000000 0 0 1
-29.366637 -0.441632 10.586353 31.219630 0.015037 1.224844 0.169193 -0.014536 369522.000000 0 0 1
-30.662227 -0.700532 9.749953 32.182674 0.022843 1.263003 0.168365 -0.013986 574571.000000 0 0 1
-30.374337 -1.087532 8.438253 31.543418 0.035789 1.299986 0.149550 -0.020704 -33226.400000 0 0 1
-31.603207 -1.354432 7.809053 32.581874 0.042831 1.328765 0.136080 -0.026153 15679.700000 0 0 1
-31.479697 -2.120732 6.435353 32.200662 0.067267 1.369590 0.144775 -0.028814 -20299.700000 0 0 1
-30.975077 -1.377032 5.324253 31.459487 0.044427 1.400736 0.153379 -0.041139 961440.000000 0 0 1
-32.029687 -0.526532 4.854353 32.399735 0.016437 1.420403 0.139060 -0.030858 523949.000000 0 0 1
-31.690557 -0.004432 3.448053 31.877586 0.000140 1.462419 0.140015 -0.031534 -56547.300000 0 0 1
-31.708657 -1.053432 2.457853 31.821215 0.033210 1.493480 0.137090 -0.047226 344290.000000 0 0 1
-31.126827 -0.622232 1.244453 31.157908 0.019988 1.530845 0.145919 -0.055575 99448.300000 0 0 1
-31.955447 -1.115832 0.017553 31.974928 0.034904 1.570247 0.152432 -0.051889 85596.000000 0 0 1
-33.277237 -0.660932 -0.067147 33.283868 0.019859 1.572814 0.144517 -0.048434 -398155.000000 0 0 1
-34.018257 -1.235132 -1.094947 34.058278 0.036292 1.602951 0.136588 -0.042236 456668.000000 0 0 1
-35.541823 -0.931832 -0.897947 35.565374 0.026212 1.596047 0.113287 -0.034665 290858.000000 0 0 1
-36.196827 -1.719332 0.070153 36.237706 0.047464 1.568860 0.104807 -0.032568 -158007.000000 0 0 1
35.792451 -1.368832 0.091453 35.818733 -0.038225 1.568243 0.093043 -0.024960 -221323.000000 0 0 1
34.806791 -2.451832 0.595853 34.898127 -0.070325 1.553721 0.095842 -0.027827 -276698.000000 0 0 1
34.975921 -2.884732 1.960253 35.149386 -0.082291 1.514998 0.099421 -0.030847 19541.700000 0 0 1
34.126441 -3.963332 2.224053 34.427727 -0.115619 1.506151 0.095764 -0.022911 -309852.000000 0 0 1
34.134781 -4.447332 3.706053 34.622202 -0.129558 1.463548 0.105101 -0.024081 219625.000000 0 0 1
33.634311 -3.416132 4.589553 34.117457 -0.101220 1.435865 0.105662 -0.032137 361689.000000 0 0 1
33.491301 -3.849032 5.939753 34.231024 -0.114424 1.396394 0.100049 -0.034545 29841.300000 0 0 1
32.934661 -2.708132 6.837053 33.745684 -0.082043 1.366779 0.118204 -0.031606 226901.000000 0 0 1
31.553061 -2.430832 6.680753 32.344042 -0.076888 1.362746 0.124988 -0.030620 317748.000000 0 0 1
31.033301 -1.335032 7.391553 31.929346 -0.042993 1.337180 0.132848 -0.027213 -1018740.000000 0 0 1
29.540891 -1.391832 7.579753 30.529561 -0.047081 1.319896 0.116368 -0.022382 -1218790.000000 0 0 1
28.761541 -1.119932 6.399753 29.486223 -0.038919 1.352013 0.130396 -0.029003 1619490.000000 0 0 1
27.326821 -1.125732 6.574353 28.129070 -0.041172 1.334893 0.121562 -0.017107 1088890.000000 0 0 1
26.649021 -2.483032 6.744853 27.601247 -0.092907 1.323929 0.141379 -0.028358 -964130.000000 0 0 1
26.995221 -3.260432 7.848753 28.301507 -0.120196 1.289786 0.115743 -0.029505 243852.000000 0 0 1
26.685721 -4.576632 7.608453 28.124044 -0.169849 1.296851 0.127518 -0.039565 -328133.000000 0 0 1
26.944621 -5.518332 8.795053 28.875899 -0.202009 1.261298 0.103541 -0.026727 -297421.000000 0 0 1
26.096721 -5.334432 9.900053 28.416651 -0.201632 1.214944 0.098902 -0.017206 369656.000000 0 0 1
26.544221 -6.223232 10.885353 29.356689 -0.230289 1.190930 0.080980 -0.013991 10369.800000 0 0 1
25.634421 -6.371632 12.139253 29.070306 -0.243621 1.140013 0.070745 -0.011799 157120.000000 0 0 1
24.480721 -7.148332 11.917453 28.150134 -0.284100 1.133653 0.092423 -0.029163 123836.000000 0 0 1
23.394121 -6.798532 12.758553 27.500648 -0.282819 1.088363 0.107331 -0.029005 29487.600000 0 0 1
22.260521 -7.796632 12.699153 26.787810 -0.336893 1.076895 0.107492 -0.032753 -478181.000000 0 0 1
22.633321 -8.969432 13.411853 27.795607 -0.377307 1.067270 0.093886 -0.031066 -127591.000000 0 0 1
21.615021 -9.910532 13.543353 27.365128 -0.429902 1.053062 0.140537 -0.049535 -576727.000000 0 0 1
22.006421 -11.063032 14.486353 28.574949 -0.465820 1.039142 0.107545 -0.036050 -314941.000000 0 0 1
21.964521 -10.674332 15.833453 29.104635 -0.452369 0.995578 0.085614 -0.030130 291064.000000 0 0 1
22.386021 -11.763632 16.620753 30.261633 -0.483831 0.989348 0.078235 -0.026505 -285684.000000 0 0 1
22.219621 -11.721032 18.178553 31.008934 -0.485411 0.944391 0.073312 -0.023897 -24672.500000 0 0 1
20.882621 -11.584632 18.613453 30.277850 -0.506483 0.908721 0.065791 -0.021735 -77322.600000 0 0 1
20.672321 -11.938432 19.969053 31.122887 -0.523717 0.874188 0.072214 -0.015272 257983.000000 0 0 1
21.184421 -10.882532 21.056153 31.789476 -0.474551 0.846829 0.045729 -0.005537 279905.000000 0 0 1
20.437821 -9.638332 21.203953 30.987249 -0.440665 0.817181 0.051629 -0.008387 122620.000000 0 0 1
20.652721 -8.666532 20.194753 30.157449 -0.397315 0.837067 0.045947 -0.008542 -516610.000000 0 0 1
21.718821 -7.576932 20.522953 30.827078 -0.335663 0.842305 0.037642 -0.000054 1981500.000000 0 0 1
23.083921 -8.068032 20.742553 32.065777 -0.336237 0.867317 0.040541 0.001217 1798920.000000 0 0 1
23.823821 -8.233832 19.515753 31.878442 -0.332762 0.911965 0.050272 -0.010492 -271857.000000 0 0 1
25.134121 -9.002032 19.775153 33.223746 -0.343926 0.933268 0.062684 -0.009914 -216638.000000 0 0 1
24.997421 -10.368832 20.077853 33.697239 -0.393196 0.932497 0.049388 -0.014091 835743.000000 0 0 1
26.270721 -11.053332 20.106753 34.879915 -0.398263 0.956411 0.053299 -0.017084 946152.000000 0 0 1
26.094421 -12.547732 20.334753 35.381727 -0.448218 0.958529 0.034901 -0.017088 157550.000000 0 0 1
25.243321 -13.130432 19.353553 34.412113 -0.479641 0.973504 0.058976 -0.017055 242036.000000 0 0 1
24.977821 -14.451232 19.640353 34.906635 -0.524508 0.973204 0.047466 -0.013092 -180732.000000 0 0 1
23.969621 -15.142032 18.711953 33.970003 -0.563415 0.987429 0.069776 -0.017774 -245791.000000 0 0 1
24.395821 -15.260132 17.337853 33.595072 -0.558975 1.028524 0.060891 -0.017710 560755.000000 0 0 1
23.446121 -15.901332 16.461253 32.765009 -0.595950 1.044420 0.049741 -0.022634 36472.500000 0 0 1
23.251221 -17.413032 16.665253 33.489754 -0.642802 1.049941 0.038074 -0.015829 -470675.000000 0 0 1
24.389421 -18.186432 16.455353 34.588565 -0.640723 1.074985 0.044406 -0.012775 -379453.000000 0 0 1
24.092321 -19.542532 16.631653 35.198898 -0.681504 1.078665 0.042081 -0.010725 -264116.000000 0 0 1
25.252721 -20.470332 16.263753 36.348921 -0.681182 1.106902 0.037777 -0.004669 -334193.000000 0 0 1
25.571821 -20.433132 14.887053 35.959078 -0.674161 1.143953 0.052976 -0.024676 401640.000000 0 0 1
26.389621 -21.586132 14.574753 37.078250 -0.685607 1.166816 0.048914 -0.034323 -104821.000000 0 0 1
26.856821 -21.614532 13.135353 36.891928 -0.677665 1.206759 0.056734 -0.045385 -195628.000000 0 0 1
25.833821 -21.535932 12.132053 35.754292 -0.694915 1.224605 0.048340 -0.033292 396413.000000 0 0 1
26.442021 -21.447932 10.894353 35.747464 -0.681491 1.261111 0.058544 -0.028627 -464101.000000 0 0 1
25.423621 -21.153132 9.765253 34.484427 -0.693967 1.283690 0.032772 -0.026386 279010.000000 0 0 1
24.662121 -22.298832 9.458753 34.567704 -0.735116 1.293631 0.034917 -0.027660 907277.000000 0 0 1
23.368821 -22.440032 10.102653 33.937007 -0.765126 1.268526 0.029442 -0.014872 753480.000000 0 0 1
22.483821 -23.451732 9.364653 33.811280 -0.806466 1.290159 0.030460 -0.009647 -589984.000000 0 0 1
23.113221 -24.724732 9.319653 35.105403 -0.819072 1.302098 0.029040 -0.006078 40886.900000 0 0 1
22.864921 -25.506222 8.175953 35.216732 -0.839949 1.336497 0.036276 0.002437 -34340.600000 0 0 1
21.415921 -26.015082 7.947353 34.620609 -0.882061 1.339175 0.042664 0.008799 284102.000000 0 0 1
20.519621 -24.940532 7.742553 33.211927 -0.882341 1.335506 0.023742 0.007149 -34185.500000 0 0 1
19.168221 -25.407042 7.706353 32.746395 -0.924456 1.333234 0.045687 -0.009449 595950.000000 0 0 1
18.095121 -24.319032 7.727353 31.281955 -0.931100 1.321190 0.039508 -0.013601 -322034.000000 0 0 1
18.092721 -23.570532 6.514553 30.419664 -0.916127 1.354969 0.056526 -0.010082 -184951.000000 0 0 1
17.052721 -22.631232 6.462353 29.064239 -0.925056 1.346575 0.063306 -0.014707 -204239.000000 0 0 1
16.631321 -22.105632 5.086853 28.127138 -0.925789 1.388944 0.067327 -0.006922 74030.700000 0 0 1
15.673521 -21.045632 5.176353 26.746449 -0.930670 1.376033 0.084241 -0.008728 131173.000000 0 0 1
15.436821 -20.457432 3.968753 25.933626 -0.924369 1.417158 0.086422 -0.006814 53496.700000 0 0 1
14.667221 -19.146832 4.059953 24.458368 -0.917109 1.404030 0.099251 -0.002340 264272.000000 0 1 0
15.457221 -18.143932 4.678053 24.290165 -0.865187 1.376995 0.074199 -0.001693 157607.000000 0 1 0
14.774621 -16.942932 4.659453 22.957850 -0.853655 1.366420 0.062406 0.008679 39647.600000 0 1 0
15.802021 -15.813232 4.740653 22.852483 -0.785753 1.361833 0.049583 0.008545 -11635.000000 0 1 0
16.392921 -15.489732 6.007353 23.339836 -0.757077 1.310480 0.073825 -0.007307 1108980.000000 0 1 0
17.408321 -14.438232 5.969853 23.391266 -0.692405 1.312724 0.086527 -0.013241 887510.000000 0 1 0
18.827221 -14.825432 5.538153 24.595301 -0.667039 1.343678 0.106111 -0.026037 -442380.000000 0 1 0
19.752221 -13.742132 5.447053 24.671174 -0.607852 1.348176 0.113044 -0.031861 551212.000000 0 1 0
21.049821 -14.360032 5.407853 26.048999 -0.598674 1.361672 0.111527 -0.024150 503702.000000 0 0 1
22.142321 -13.258232 5.367853 26.360519 -0.539517 1.365730 0.107634 -0.029239 -56439.000000 0 0 1
22.121221 -12.528732 6.557353 26.254836 -0.515322 1.318366 0.121979 -0.039637 -88722.000000 0 0 1
23.176921 -11.625032 6.574153 26.749403 -0.464909 1.322484 0.120344 -0.042266 -400868.000000 0 0 1
23.333521 -11.000032 8.019153 27.014084 -0.440528 1.269403 0.131779 -0.041021 -223931.000000 0 0 1
23.965821 -11.885832 8.889853 28.189769 -0.460402 1.249963 0.130243 -0.031749 138423.000000 0 0 1
24.200421 -11.244932 10.074553 28.523771 -0.434977 1.209809 0.141976 -0.043212 -43425.200000 0 0 1
24.636121 -12.165232 11.275353 29.699578 -0.458673 1.181382 0.111161 -0.030732 603632.000000 0 0 1
23.592721 -13.142332 11.598453 29.391521 -0.508240 1.165143 0.121634 -0.031355 1297140.000000 0 0 1
24.009721 -14.097132 12.595453 30.558817 -0.530912 1.145961 0.116634 -0.032484 -259349.000000 0 0 1
22.882821 -15.071332 12.941553 30.302679 -0.582419 1.129540 0.097314 -0.029154 36360.000000 0 0 1
21.749021 -14.366932 13.438853 29.326293 -0.583776 1.094768 0.086960 -0.028662 342474.000000 0 0 1
20.681021 -15.315132 13.647453 29.129210 -0.637419 1.083188 0.078841 -0.027623 639832.000000 0 0 1
19.432621 -14.535432 14.167853 28.100420 -0.642214 1.042357 0.076289 -0.030858 -654519.000000 0 0 1
19.616321 -14.008432 15.483453 28.649146 -0.620141 0.999824 0.076714 -0.025083 90046.600000 0 0 1
18.865321 -12.905732 15.971953 27.884791 -0.599974 0.960899 0.089838 -0.033115 1849200.000000 0 0 1
17.258221 -13.026132 16.012253 26.905735 -0.646552 0.933376 0.102770 -0.035805 1517410.000000 0 0 1
16.711521 -13.171032 14.702753 25.863526 -0.667468 0.966146 0.103929 -0.045620 1049140.000000 0 0 1
15.269521 -13.045132 14.769253 24.929192 -0.707000 0.936702 0.116874 -0.045912 1092320.000000 0 1 0
14.705221 -11.701132 14.429153 23.693047 -0.672121 0.915992 0.096210 -0.038601 -579379.000000 0 1 0
15.145521 -10.749932 15.326853 24.080288 -0.617257 0.880858 0.082428 -0.028068 94376.900000 0 1 0
14.982421 -9.493432 14.849953 23.132646 -0.564787 0.873760 0.077840 -0.022110 -390905.000000 0 1 0
15.467621 -8.352132 15.835953 23.659730 -0.495114 0.837502 0.088636 -0.024775 1333290.000000 0 1 0
16.908021 -8.178532 15.906953 24.613020 -0.450529 0.868094 0.092687 -0.033458 1690980.000000 0 1 0
17.668421 -9.021632 16.809753 26.002514 -0.472098 0.867852 0.100643 -0.031365 339378.000000 0 0 1
19.160921 -8.802532 16.459953 26.749870 -0.430644 0.907994 0.086112 -0.029737 -158438.000000 0 0 1
19.728921 -7.650232 17.029853 27.161964 -0.369917 0.893133 0.071418 -0.029875 1127670.000000 0 0 1
20.919821 -7.299332 16.261153 27.483527 -0.335712 0.937669 0.056317 -0.020927 1043060.000000 0 0 1
21.539921 -5.900032 16.733553 27.906816 -0.267354 0.927767 0.044740 -0.012104 130259.000000 0 0 1
22.224621 -5.957232 17.990353 29.207451 -0.261890 0.907204 0.056700 -0.012319 382494.000000 0 0 1
22.435421 -4.647532 18.413753 29.394115 -0.204262 0.893814 0.062488 -0.012687 -274141.000000 0 0 1
-5.734707 -33.065229 -6.484093 34.179522 1.399068 1.761660 0.058761 -0.016222 -57795.000000 0 0 1
-6.481207 -31.869829 -6.631093 33.191316 1.370167 1.771934 0.061138 -0.019680 225037.000000 0 0 1
-6.089307 -30.923929 -5.614893 32.013998 1.376371 1.747097 0.068532 -0.026487 -252117.000000 0 0 1
-6.922807 -29.587729 -5.605593 30.899541 1.340955 1.753220 0.072122 -0.026953 1128960.000000 0 0 1
-8.270807 -29.648629 -5.119693 31.203505 1.298751 1.735616 0.068970 -0.024786 797759.000000 0 0 1
-9.199607 -30.187329 -6.054493 32.133542 1.274987 1.760346 0.063446 -0.021417 -368381.000000 0 0 1
-10.649307 -30.090129 -5.556393 32.399030 1.230639 1.743147 0.040832 -0.018544 -139104.000000 0 0 1
-11.623607 -30.766029 -6.301993 33.486892 1.209567 1.760118 0.043217 -0.018592 -123698.000000 0 0 1
-12.916107 -30.361429 -5.876693 33.513844 1.168577 1.747059 0.051925 -0.015827 -46232.800000 0 0 1
-14.053407 -30.722729 -6.813893 34.464670 1.141783 1.769814 0.057473 -0.010629 -365024.000000 0 0 1
-14.015907 -29.985129 -8.042193 34.062156 1.133544 1.809150 0.075612 -0.013381 -389722.000000 0 0 1
-15.033607 -30.359929 -8.902993 35.028530 1.111013 1.827780 0.084230 -0.015252 -444830.000000 0 0 1
-15.073307 -29.481729 -10.186893 34.643177 1.098168 1.869260 0.083999 -0.017039 -27363.000000 0 0 1
-15.458607 -28.118429 -10.072693 33.631440 1.068131 1.874967 0.086852 -0.019529 416362.000000 0 0 1
-14.316507 -27.279129 -10.012493 32.393877 1.087494 1.885028 0.086258 -0.015049 140390.000000 0 0 1
-14.639307 -25.799029 -9.642693 31.191036 1.054665 1.885095 0.075681 -0.005735 -29073.100000 0 0 1
-15.180607 -25.092629 -10.733393 31.229739 1.026721 1.921641 0.093297 -0.016065 227025.000000 0 0 1
-15.569407 -23.775229 -10.371393 30.252830 0.991013 1.920718 0.087143 0.000041 -240183.000000 0 0 1
-16.282207 -22.964229 -11.468493 30.397244 0.954039 1.957662 0.097183 -0.004954 -289019.000000 0 0 1
-17.615107 -23.388829 -11.597093 31.493204 0.925287 1.947913 0.095518 -0.012006 -327763.000000 0 0 1
-18.200307 -22.898929 -12.806093 31.931304 0.899228 1.983461 0.100885 -0.019235 1168900.000000 0 0 1
-19.689707 -23.394629 -13.061393 33.250462 0.871179 1.974491 0.084135 -0.009246 1119960.000000 0 0 1
-19.807007 -24.779229 -13.378093 34.428202 0.896458 1.969886 0.107212 -0.015370 -30801.800000 0 0 1
-19.680807 -25.641029 -12.287793 34.580145 0.916157 1.934077 0.104080 -0.015228 -906977.000000 0 0 1
-19.724107 -27.091329 -12.725693 35.845833 0.941485 1.933723 0.097253 -0.019532 925457.000000 0 0 1
-18.728307 -27.671029 -13.636693 36.088706 0.975797 1.958287 0.100469 -0.026568 1493600.000000 0 0 1
-17.335907 -27.523729 -13.339893 35.157390 1.008715 1.959980 0.099748 -0.026606 605243.000000 0 0 1
-16.506507 -28.691129 -13.969293 35.927522 1.048724 1.970145 0.085598 -0.027456 -212037.000000 0 0 1
-16.449007 -28.852629 -15.377193 36.599209 1.052649 2.004408 0.100078 -0.041148 103468.000000 0 0 1
-15.895707 -30.103929 -15.845193 37.549836 1.084979 2.006422 0.105172 -0.041849 319187.000000 0 0 1
-16.858507 -31.334029 -15.715593 38.897436 1.077193 1.986711 0.086557 -0.040244 188390.000000 0 0 1
-17.067807 -31.683829 -14.348193 38.743331 1.076677 1.950171 0.094565 -0.038673 12038.500000 0 0 1
-17.108807 -33.059829 -14.167293 39.829333 1.093239 1.934459 0.064057 -0.028550 -1351370.000000 0 0 1
-17.645807 -33.514329 -12.795593 39.978894 1.086162 1.896588 0.085542 -0.022848 198651.000000 0 0 1
-19.013207 -33.218729 -12.542693 40.277849 1.050945 1.887467 0.080064 -0.020537 357296.000000 0 0 1
-19.545107 -31.909429 -12.502893 39.453076 1.021223 1.893261 0.085127 -0.025484 -737342.000000 0 0 1
-19.035907 -30.852229 -11.502693 38.033377 1.017969 1.878044 0.097316 -0.023651 -367520.000000 0 0 1
-19.203107 -31.181829 -10.148993 38.000893 1.018809 1.841150 0.084981 -0.025981 203505.000000 0 0 1
-18.854907 -30.080329 -9.276993 36.693274 1.010890 1.826396 0.087918 -0.015141 -131287.000000 0 0 1
-19.119407 -30.429329 -7.776993 36.769246 1.009812 1.783914 0.083831 -0.018479 -266346.000000 0 0 1
-18.222907 -31.320829 -7.223193 36.949198 1.043856 1.767553 0.084145 -0.019565 -280475.000000 0 0 1
-18.608007 -31.402029 -5.830793 36.964084 1.035855 1.729200 0.093509 -0.027677 679487.000000 0 0 1
-17.680307 -32.386829 -5.009593 37.237024 1.071098 1.705738 0.087238 -0.024310 193510.000000 0 0 1
-16.419807 -31.912129 -4.646493 36.188174 1.095591 1.699550 0.070862 -0.022684 -275054.000000 0 0 1
-16.176407 -32.189729 -3.262893 36.173212 1.105124 1.661121 0.068244 -0.019409 131118.000000 0 0 1
-15.003407 -31.385929 -2.659293 34.889119 1.124879 1.647092 0.060738 -0.013237 283820.000000 0 0 1
-13.705907 -31.872329 -2.932193 34.818027 1.164677 1.655111 0.045006 -0.012013 -300514.000000 0 0 1
-12.739907 -31.084529 -2.278993 33.671160 1.181830 1.638532 0.054817 -0.014786 13185.100000 0 0 1
-11.321807 -31.676829 -2.336993 33.720415 1.227530 1.640157 0.056997 -0.016236 -498094.000000 0 0 1
-11.223607 -32.888029 -1.600493 34.787259 1.241922 1.616821 0.055308 -0.016145 11423.600000 0 0 1
-9.992807 -33.589029 -1.560993 35.078708 1.281633 1.615311 0.075116 -0.019289 573294.000000 0 0 1
-8.831507 -32.973529 -0.698193 34.142885 1.309102 1.591247 0.075333 -0.019183 159664.000000 0 0 1
-9.145507 -33.039029 0.648507 34.287582 1.300749 1.551881 0.079293 -0.014173 -11614.000000 0 0 1
-8.129007 -32.504929 1.471307 33.538276 1.325737 1.526913 0.076129 -0.018656 308314.000000 0 0 1
-7.013907 -33.445129 1.956807 34.228653 1.364078 1.513596 0.083203 -0.016789 -169741.000000 0 0 1
-7.535107 33.801868 2.818907 34.746084 -1.351463 1.489578 0.109573 -0.028184 892508.000000 0 0 1
-6.528007 32.899168 3.382307 33.710683 -1.374916 1.470294 0.106418 -0.024016 485050.000000 0 0 1
-5.878007 33.278068 4.664207 34.113569 -1.395967 1.433641 0.113456 -0.023255 526750.000000 0 0 1
-4.743307 -34.076829 4.530907 34.702426 1.432490 1.439858 0.098610 -0.016321 423731.000000 0 0 1
-4.264607 -33.733129 5.810307 34.494500 1.445042 1.401548 0.081662 -0.012455 -186531.000000 0 0 1
-3.060607 -32.791429 5.671307 33.418690 1.477730 1.400266 0.085163 -0.010392 -260600.000000 0 0 1
-3.353107 -31.587729 4.941407 32.147247 1.465040 1.416473 0.080248 -0.011492 76763.100000 0 0 1
-3.362207 -31.754829 3.533607 32.127247 1.465309 1.460585 0.091170 -0.017765 -427245.000000 0 0 1
-3.753907 -30.452129 2.779207 30.808245 1.448143 1.480464 0.079210 -0.018937 41875.300000 0 0 1
-2.897007 -29.337229 2.905907 29.622795 1.472367 1.472541 0.073559 -0.012785 -214890.000000 0 0 1
-3.469607 -28.243629 2.254707 28.545130 1.448563 1.491726 0.076368 -0.020099 267500.000000 0 0 1
-2.625307 -26.954429 2.437407 27.191441 1.473705 1.481037 0.068928 -0.020594 47459.600000 0 0 1
-3.149507 -25.820729 1.765007 26.071914 1.449420 1.503047 0.081487 -0.029078 -225892.000000 0 0 1
-2.847207 -24.571829 2.405207 24.852895 1.455438 1.473867 0.051845 -0.025524 88465.900000 0 1 0
-3.936407 -24.164629 3.424807 24.721527 1.409315 1.431814 0.037587 -0.018273 96546.600000 0 1 0
-3.849407 -24.916029 4.623507 25.632075 1.417513 1.389424 0.055052 -0.016945 -121865.000000 0 0 1
-4.809307 -24.461029 5.546207 25.538829 1.376662 1.351884 0.045312 -0.013050 -159363.000000 0 0 1
-5.393107 -25.540229 6.439007 26.885865 1.362692 1.328952 0.073414 -0.019093 -435948.000000 0 0 1
-4.643907 -25.945829 7.525307 27.411351 1.393687 1.292693 0.057538 -0.023693 -263010.000000 0 0 1
-5.357207 -26.940329 8.227907 28.673672 1.374502 1.279755 0.064619 -0.025203 580220.000000 0 0 1
-4.528207 -27.220829 9.544207 29.198803 1.405955 1.237807 0.061309 -0.024097 567364.000000 0 0 1
-4.340407 -26.106729 10.399507 28.435017 1.406047 1.196380 0.059618 -0.033888 -859497.000000 0 0 1
-5.494907 -25.629429 10.976707 28.417420 1.359595 1.174215 0.066769 -0.031678 -595765.000000 0 0 1
-5.115807 -24.609429 12.036607 27.868897 1.365835 1.124197 0.068432 -0.033098 456337.000000 0 0 1
-4.474407 -25.187829 13.203407 28.788488 1.394989 1.094338 0.083654 -0.034077 -50048.200000 0 0 1
-3.646707 -24.259329 13.849907 28.171501 1.421592 1.056838 0.068536 -0.037979 544666.000000 0 0 1
-2.452907 -24.850629 14.694807 28.974263 1.472409 1.038901 0.061982 -0.040251 477860.000000 0 0 1
-2.892407 -25.558229 15.857407 30.216659 1.458106 1.018328 0.058564 -0.038199 58938.900000 0 0 1
-1.769407 -25.798729 16.672907 30.768345 1.502319 0.998118 0.052276 -0.041010 166612.000000 0 0 1
-2.135707 -26.431229 18.007507 32.053727 1.490169 0.974247 0.039397 -0.022375 174025.000000 0 0 1
-2.819407 -25.438429 18.763807 31.735520 1.460414 0.938181 0.062133 -0.027987 -47347.700000 0 0 1
-2.811607 -25.769629 20.153007 32.834778 1.462121 0.909969 0.066299 -0.024592 160973.000000 0 0 1
-3.186707 -24.646429 21.139507 32.626375 1.442213 0.865937 0.079896 -0.032825 -90813.900000 0 0 1
-2.927007 -25.181329 22.465607 33.872854 1.455078 0.845665 0.069287 -0.034985 113556.000000 0 0 1
-2.807207 -24.323729 23.627507 34.026215 1.455894 0.803223 0.060799 -0.034486 247234.000000 0 0 1
-1.743207 -23.178529 23.570807 33.103866 1.495730 0.778417 0.059096 -0.031948 119971.000000 0 0 1
-2.177707 -22.232629 22.642407 31.807402 1.473157 0.778654 0.080308 -0.028810 -229530.000000 0 0 1
-1.151007 -21.369629 22.237707 30.862623 1.516986 0.766218 0.078017 -0.030578 -627813.000000 0 0 1
-1.694207 -20.089929 21.548707 29.509700 1.486664 0.752146 0.070015 -0.016381 -1342480.000000 0 0 1
-2.455507 -19.243029 22.301407 29.558019 1.443877 0.715910 0.066994 -0.026463 -1107470.000000 0 0 1
-3.797407 -19.600529 22.324407 29.949628 1.379427 0.729664 0.086319 -0.032293 -1124850.000000 0 0 1
-4.625007 -19.311429 20.993807 28.897438 1.335728 0.757591 0.084226 -0.032622 -827219.000000 0 0 1
-4.540607 -20.198529 19.881407 28.703102 1.349673 0.805630 0.085330 -0.035859 -170277.000000 0 0 1
-5.177207 -21.457129 20.083107 29.841968 1.334040 0.832563 0.077151 -0.026062 -92012.700000 0 0 1
-5.265707 -22.215629 18.735307 29.534278 1.338064 0.883619 0.077447 -0.035227 -183901.000000 0 0 1
-5.916507 -23.444329 18.942907 30.716044 1.323594 0.906239 0.063401 -0.038034 -117746.000000 0 0 1
-5.933307 -24.189929 17.753907 30.586893 1.330265 0.951525 0.070193 -0.036355 18669.700000 0 0 1
-6.506507 -25.646629 17.773607 31.874525 1.322340 0.979290 0.050671 -0.036700 972261.000000 0 0 1
-7.923807 -25.578229 17.960207 32.242853 1.270385 0.979992 0.080845 -0.037937 -126198.000000 0 0 1
-8.530707 -26.813629 17.859407 33.327198 1.262774 1.005246 0.078482 -0.036842 169737.000000 0 0 1
-10.049507 -26.679829 18.124207 33.783025 1.210562 1.004526 0.085153 -0.034542 88372.700000 0 0 1
-10.799507 -25.888329 17.198907 32.903455 1.175587 1.020772 0.102322 -0.040769 60467.300000 0 0 1
-12.181407 -25.801129 17.462007 33.451557 1.129695 1.021592 0.097456 -0.042216 279367.000000 0 0 1
-12.675307 -24.835229 18.554607 33.492170 1.098882 0.983637 0.106328 -0.054623 -664685.000000 0 0 1
-12.745407 -23.540129 18.064807 32.294277 1.074554 0.977157 0.107540 -0.043854 128723.000000 0 0 1
-12.926907 -22.633129 19.077207 32.300206 1.051860 0.938967 0.103933 -0.048718 384569.000000 0 0 1
-11.553607 -22.138129 19.631807 31.764610 1.089793 0.904549 0.101772 -0.044900 670891.000000 0 0 1
-10.819407 -23.096829 20.391107 32.654561 1.132716 0.896370 0.103410 -0.046253 -1038150.000000 0 0 1
-9.461407 -22.988529 20.258407 32.068579 1.180355 0.887025 0.086587 -0.047096 -782525.000000 0 0 1
-8.644007 -24.031929 21.109507 33.134028 1.225517 0.880073 0.066311 -0.041866 280908.000000 0 0 1
-8.819007 -23.825529 22.484107 33.925887 1.216285 0.846322 0.061391 -0.033973 135590.000000 0 0 1
-8.031907 -24.647729 23.315307 34.865823 1.255780 0.838317 0.050781 -0.034956 -32542.700000 0 0 1
-7.898607 -24.040729 24.682007 35.348920 1.253356 0.797861 0.058022 -0.031177 -38105.200000 0 0 1
-6.961707 -24.697129 25.495307 36.172148 1.296042 0.788609 0.058468 -0.027545 -81516.400000 0 0 1
-6.802307 -23.961829 26.713607 36.524751 1.294192 0.750448 0.063839 -0.028832 47446.400000 0 0 1
-5.606907 -24.324429 27.624107 37.231795 1.344248 0.734823 0.061470 -0.031436 644754.000000 0 0 1
-4.325607 -24.087029 27.034207 36.465658 1.393108 0.735701 0.059291 -0.031958 -185307.000000 0 0 1
-3.335207 -24.237329 27.989807 37.175275 1.434049 0.718317 0.054630 -0.030082 -163463.000000 0 0 1
-1.960507 -23.720029 27.500007 36.369407 1.488332 0.713417 0.053096 -0.031997 -563436.000000 0 0 1
-2.016107 -22.344829 27.258607 35.304217 1.480813 0.688647 0.064223 -0.032622 -298112.000000 0 0 1
-0.830807 -21.835729 26.694507 34.497624 1.532767 0.685967 0.058384 -0.037590 89558.400000 0 0 1
0.305393 -21.541529 27.712607 35.101558 -1.556620 0.660806 0.051294 -0.028522 -188262.000000 0 0 1
0.862093 -22.762729 28.232207 36.275923 -1.532941 0.678902 0.050298 -0.030721 403878.000000 0 0 1
1.795893 -22.462229 29.303407 36.965750 -1.491014 0.655542 0.032928 -0.030825 384148.000000 0 0 1
2.266293 -23.724729 30.094107 38.388203 -1.475561 0.669807 0.045243 -0.032004 -66950.200000 0 0 1
3.102793 -24.517329 29.236207 38.281622 -1.444910 0.701750 0.051007 -0.042598 240522.000000 0 0 1
3.585693 -25.693029 29.869707 39.562462 -1.432133 0.715140 0.044883 -0.025770 -756457.000000 0 0 1
4.852093 -25.536329 30.741207 40.257530 -1.383027 0.701905 0.040420 -0.028858 -20569.200000 0 0 1
6.055993 -25.128529 30.120907 39.691146 -1.334305 0.709201 0.046618 -0.030875 279937.000000 0 0 1
6.637593 -26.114729 29.275107 39.787795 -1.321896 0.743977 0.048776 -0.031098 -711651.000000 0 0 1
7.972493 -25.661929 28.657307 39.285322 -1.269576 0.753255 0.048631 -0.029310 88235.500000 0 0 1
7.674193 -24.733029 27.624007 37.864254 -1.269934 0.753127 0.055530 -0.028328 -90258.700000 0 0 1
8.796393 -24.646629 26.797807 37.456045 -1.227987 0.773533 0.044958 -0.016603 -416356.000000 0 0 1
8.722793 -23.503929 25.716607 35.914700 -1.215431 0.772674 0.049532 -0.006783 407187.000000 0 0 1
7.782093 -23.568229 24.613407 34.954860 -1.251874 0.789573 0.052998 -0.013258 612924.000000 0 0 1
7.645893 -22.318929 23.937507 33.609501 -1.240752 0.778134 0.049891 -0.008122 -40607.700000 0 0 1
6.921693 -22.549329 22.606307 32.671505 -1.272969 0.806641 0.054192 -0.001155 -242068.000000 0 0 1
7.703593 -23.102729 21.577207 32.537015 -1.248941 0.845765 0.048363 0.000761 142542.000000 0 0 1
7.017493 -23.151429 20.329807 31.599604 -1.276486 0.871922 0.055972 -0.003114 -161386.000000 0 0 1
7.700693 -24.006629 19.287407 31.743078 -1.260392 0.917749 0.060394 -0.006850 454157.000000 0 0 1
8.968193 -23.498729 18.848907 31.430878 -1.206212 0.927678 0.073252 -0.005266 -91994.100000 0 0 1
9.754493 -24.565329 18.437107 32.226270 -1.192806 0.961715 0.068956 -0.011640 -26497.300000 0 0 1
11.208393 -24.105629 18.141507 32.184215 -1.135563 0.971965 0.059799 -0.007653 266318.000000 0 0 1
11.202693 -23.078629 17.176207 30.873055 -1.118885 0.980810 0.061233 -0.001626 -693291.000000 0 0 1
12.441693 -22.842929 16.570207 30.840994 -1.072060 1.003589 0.056358 -0.007039 -110504.000000 0 0 1
-12.661207 22.489568 11.201307 28.134607 -1.058041 1.161316 0.042447 -0.002351 -221589.000000 0 0 1
-13.514307 21.402968 11.490407 27.798435 -1.007592 1.144669 0.021968 -0.007447 81935.000000 0 0 1
-13.050407 20.158068 10.907207 26.374761 -0.996248 1.144450 0.042957 -0.011326 -376542.000000 0 0 1
-13.963707 19.558768 9.845207 25.970342 -0.950778 1.181979 0.040588 -0.010156 -1142040.000000 0 0 1
-14.032207 20.348668 8.738407 26.216996 -0.967092 1.230983 0.039120 -0.015904 124903.000000 0 0 1
-14.808407 19.731668 7.718607 25.849653 -0.926982 1.267575 0.041324 -0.017252 -451961.000000 0 0 1
-16.316407 19.830968 7.897007 26.867363 -0.882322 1.272465 0.042222 -0.013462 -1506540.000000 0 0 1
-16.802007 18.912168 8.851707 26.801684 -0.844414 1.234210 0.040878 -0.023818 -1943520.000000 0 0 1
-18.152607 18.959868 8.716807 27.658208 -0.807146 1.250169 0.048837 -0.018940 -1689480.000000 0 0 1
-18.834407 17.779268 9.527107 27.597157 -0.756588 1.218322 0.057701 -0.017240 -19498.000000 0 0 1
-18.669907 16.539168 8.952307 26.500063 -0.724955 1.226194 0.057816 -0.025033 -193904.000000 0 0 1
-19.299907 15.526568 9.635807 26.578366 -0.677472 1.199801 0.065716 -0.028006 -293184.000000 0 0 1
-18.503407 14.776168 10.794107 26.023527 -0.673865 1.143092 0.060432 -0.018212 487077.000000 0 0 1
-17.354607 14.125768 10.268407 24.620315 -0.683189 1.140577 0.045531 -0.005727 485727.000000 0 1 0
-16.541207 13.302968 11.127607 23.966730 -0.677316 1.087959 0.035934 -0.002178 573571.000000 0 1 0
-17.231807 12.171368 11.985007 24.263507 -0.614963 1.054167 0.034725 -0.003484 -117462.000000 0 1 0
-18.134707 11.384168 11.240807 24.183107 -0.560579 1.087364 0.021080 -0.005995 -46522.500000 0 1 0
-19.000107 10.637968 12.076307 24.899953 -0.510405 1.064441 0.035851 -0.006705 410765.000000 0 1 0
-20.133007 9.865168 11.318207 25.114963 -0.455615 1.103296 0.047833 -0.018639 -82688.700000 0 0 1
-19.755707 8.864968 10.428307 24.033835 -0.421797 1.121978 0.046585 -0.017021 -135248.000000 0 1 0
-19.136607 9.324168 9.215807 23.196572 -0.453390 1.162232 0.046204 -0.008998 -94256.300000 0 1 0
-19.994607 9.724568 7.948707 23.612147 -0.452676 1.227454 0.054297 -0.008528 -128025.000000 0 1 0
-20.590007 8.677668 7.246707 23.489681 -0.398860 1.257174 0.043966 -0.017990 209284.000000 0 1 0
-21.286807 9.127168 6.132407 23.959127 -0.405060 1.311963 0.043813 -0.015075 -178165.000000 0 1 0
-21.468807 7.931168 5.171907 23.464052 -0.353876 1.348553 0.048748 -0.017543 -9200.250000 0 1 0
-22.269807 6.916868 5.736107 24.014377 -0.301147 1.329603 0.075405 -0.021643 620091.000000 0 1 0
-21.847607 5.737568 5.107807 23.158742 -0.256818 1.348412 0.072836 -0.015844 154612.000000 0 1 0
-22.807107 4.565768 5.501807 23.901470 -0.197579 1.338526 0.085547 -0.023212 -150480.000000 0 1 0
-23.991707 4.610868 4.759107 24.889982 -0.189871 1.378406 0.121623 -0.025163 -431719.000000 0 1 0
-24.678407 3.417568 5.008907 25.412452 -0.137609 1.372393 0.138942 -0.030679 -420214.000000 0 0 1
-25.770167 3.227568 3.937407 26.268268 -0.124596 1.420337 0.144997 -0.034296 -306419.000000 0 0 1
-25.286017 2.939568 2.660407 25.594951 -0.115733 1.466666 0.152795 -0.033710 746106.000000 0 0 1
-26.395797 2.849068 1.760107 26.607392 -0.107520 1.504597 0.160614 -0.039018 432437.000000 0 0 1
-25.969207 2.865968 0.270607 26.128275 -0.109915 1.560439 0.176863 -0.038923 -171807.000000 0 0 1
-25.545647 4.107568 -0.319993 25.875753 -0.159429 1.583163 0.166993 -0.039358 410770.000000 0 0 1
-25.615037 4.178568 -1.752493 26.012724 -0.161705 1.638218 0.170507 -0.028762 -265100.000000 0 0 1
-26.933747 4.736668 -2.317893 27.445134 -0.174084 1.655353 0.186769 -0.038041 540481.000000 0 0 1
-28.013577 3.801068 -2.134793 28.350767 -0.134863 1.646167 0.176655 -0.039682 527827.000000 0 0 1
-29.283127 4.443568 -2.103493 29.692954 -0.150596 1.641697 0.154849 -0.027312 614953.000000 0 0 1
-30.384567 3.324268 -2.038393 30.633768 -0.108973 1.637386 0.154734 -0.032752 -18213.500000 0 0 1
-30.670267 2.778568 -3.329693 30.975355 -0.090348 1.678499 0.146492 -0.032334 316677.000000 0 0 1
-31.703337 1.819668 -3.242293 31.920609 -0.057334 1.672545 0.150051 -0.036068 -97569.400000 0 0 1
-32.079597 1.211268 -4.629193 32.434506 -0.037740 1.714010 0.140439 -0.045227 179830.000000 0 0 1
-31.029597 0.434568 -5.248093 31.473278 -0.014004 1.738326 0.162711 -0.044727 763581.000000 0 0 1
-31.405387 -0.344932 -6.430393 32.058810 0.010983 1.772747 0.164782 -0.041233 -212196.000000 0 0 1
-31.712687 0.347968 -7.762093 32.650662 -0.010972 1.810826 0.149903 -0.034981 104140.000000 0 0 1
-33.073397 0.749268 -7.775693 33.983414 -0.022651 1.801650 0.137326 -0.033062 316332.000000 0 0 1
-33.382557 1.585668 -8.923393 34.590987 -0.047464 1.831715 0.118078 -0.032034 104408.000000 0 0 1
-34.861616 2.042168 -8.977293 36.056824 -0.058512 1.822419 0.119432 -0.029583 334794.000000 0 0 1
-35.286097 2.886168 -7.881593 36.270624 -0.081612 1.789843 0.098204 -0.020186 -536695.000000 0 0 1
-36.587597 2.614268 -7.505793 37.440935 -0.071331 1.772634 0.104919 -0.024570 -817885.000000 0 0 1
36.243011 3.498768 -6.383293 36.966791 0.096238 1.744343 0.119680 -0.023328 603853.000000 0 0 1
34.846001 3.452268 -6.067693 35.538414 0.098750 1.742373 0.124346 -0.028920 763198.000000 0 0 1
34.557191 4.294868 -4.956293 35.173999 0.123649 1.712175 0.132403 -0.033574 -423774.000000 0 0 1
33.120741 4.105168 -4.487393 33.674510 0.123317 1.704452 0.128077 -0.036933 -624082.000000 0 0 1
32.896021 2.837568 -3.882193 33.245623 0.086046 1.687836 0.118353 -0.034586 184995.000000 0 0 1
31.691571 2.153268 -4.217693 32.043427 0.067840 1.702804 0.119099 -0.031446 222754.000000 0 0 1
31.428341 0.822068 -3.510193 31.634441 0.026151 1.681986 0.129792 -0.022798 -343872.000000 0 0 1
32.276061 -0.212832 -3.985993 32.521955 -0.006594 1.693668 0.101639 -0.025366 347857.000000 0 0 1
32.160541 -1.383732 -3.254293 32.354374 -0.042999 1.671549 0.102552 -0.019598 260206.000000 0 0 1
33.361231 -2.253432 -3.718493 33.643378 -0.067444 1.681549 0.082828 -0.017891 289696.000000 0 0 1
33.384921 -3.517632 -3.041393 33.707221 -0.104979 1.661149 0.065479 -0.010568 -57341.800000 0 0 1
34.613441 -4.185432 -3.215493 35.013534 -0.120335 1.662762 0.086059 -0.012118 151189.000000 0 0 1
34.427741 -5.690232 -2.749393 35.002961 -0.163800 1.649425 0.084996 -0.014732 16749.800000 0 0 1
34.268291 -5.890732 -1.364393 34.797673 -0.170237 1.610016 0.076446 -0.013959 -25853.900000 0 0 1
34.366321 -7.258232 -1.027693 35.139467 -0.208143 1.600047 0.089659 -0.015577 -144197.000000 0 0 1
34.063741 -7.605832 0.449507 34.905432 -0.219679 1.557918 0.088837 -0.012174 702601.000000 0 0 1
32.664481 -7.391832 0.703707 33.497802 -0.222547 1.549787 0.075370 -0.019169 561592.000000 0 0 1
32.184941 -7.747132 1.965907 33.162528 -0.236213 1.511481 0.086183 -0.027785 -470822.000000 0 0 1
31.986091 -9.273032 2.193907 33.375326 -0.282173 1.505014 0.100994 -0.026558 -412379.000000 0 0 1
30.824861 -9.883432 1.712907 32.415866 -0.310276 1.517930 0.101410 -0.036202 -392090.000000 0 0 1
29.631131 -9.684632 2.398007 31.265740 -0.315895 1.494023 0.085971 -0.039444 -614056.000000 0 0 1
28.413341 -10.540632 1.927207 30.366709 -0.355237 1.507289 0.089688 -0.037582 -1188430.000000 0 0 1
27.172921 -10.440832 2.531807 29.219662 -0.366844 1.484040 0.117311 -0.040234 -160951.000000 0 0 1
26.474521 -9.299032 2.034907 28.133843 -0.337783 1.498404 0.130297 -0.038971 -676262.000000 0 0 1
25.803321 -9.488032 0.674807 27.500718 -0.352361 1.546256 0.117981 -0.033542 -919719.000000 0 0 1
26.758121 -9.416432 -0.383793 28.369236 -0.338375 1.584325 0.115735 -0.036014 681500.000000 0 0 1
26.172421 -9.510532 -1.689693 27.898045 -0.348544 1.631400 0.112719 -0.019076 105014.000000 0 0 1
25.521321 -10.852832 -2.171093 27.817898 -0.402079 1.648922 0.093752 -0.012226 -658320.000000 0 0 1
24.313821 -11.093932 -1.545493 26.769867 -0.428065 1.628561 0.105045 -0.008170 -767283.000000 0 0 1
23.801321 -12.320532 -2.037593 26.878433 -0.477660 1.646677 0.081408 -0.009380 -186248.000000 0 0 1
22.369221 -12.665432 -1.575693 25.754185 -0.515195 1.632017 0.094246 -0.005411 -206785.000000 0 0 1
21.400721 -11.963632 -2.298893 24.625277 -0.509749 1.664287 0.085988 -0.005313 -440859.000000 0 1 0
20.104021 -12.266732 -1.867893 23.624847 -0.547859 1.649944 0.101655 -0.008351 -219048.000000 0 1 0
18.982821 -11.725432 -2.778593 22.484524 -0.553323 1.694691 0.099594 -0.008348 -51444.700000 0 1 0
18.878421 -12.444732 -3.980393 22.958869 -0.582818 1.745047 0.079261 -0.013756 236178.000000 0 1 0
17.919621 -11.772232 -4.758793 21.962340 -0.581243 1.789208 0.080430 -0.014306 -215311.000000 0 1 0
17.823021 -12.369032 -6.195893 22.561962 -0.606682 1.848987 0.070046 -0.015440 -11702.100000 0 1 0
17.269921 -13.701532 -6.306293 22.929271 -0.670689 1.849420 0.066132 -0.011647 418505.000000 0 1 0
17.453421 -14.283432 -7.577593 23.791979 -0.685845 1.894936 0.063475 -0.015062 130857.000000 0 1 0
16.518321 -15.546832 -7.827393 23.996395 -0.755110 1.903067 0.056157 -0.012617 463574.000000 0 1 0
15.144021 -15.154032 -7.818193 22.805925 -0.785729 1.920707 0.066150 -0.014523 372722.000000 0 1 0
14.283421 -16.014132 -8.513993 23.085853 -0.842460 1.948511 0.061009 -0.016924 -187667.000000 0 1 0
14.388221 -15.988132 -10.039193 23.736610 -0.838019 2.007485 0.069908 -0.023403 -686932.000000 0 1 0
13.534421 -15.104432 -10.762993 22.960105 -0.840164 2.058693 0.071646 -0.013357 260158.000000 0 1 0
13.797921 -13.774132 -10.633093 22.207476 -0.784535 2.070092 0.065459 -0.007214 -222833.000000 0 1 0
13.666021 -12.981432 -11.971993 22.329494 -0.759713 2.136668 0.071448 0.003409 592405.000000 0 1 0
14.839921 -12.998232 -12.801793 23.517295 -0.719337 2.146418 0.074188 0.001374 499954.000000 0 1 0
14.642921 -12.211132 -13.972893 23.638287 -0.695089 2.203234 0.090943 -0.005369 271381.000000 0 1 0
15.930321 -11.717432 -14.723193 24.654528 -0.634184 2.210777 0.086648 -0.013739 267900.000000 0 1 0
16.684321 -12.815332 -15.117893 25.906563 -0.654989 2.193895 0.084177 -0.011029 -667579.000000 0 0 1
17.634421 -12.530932 -16.096493 26.964683 -0.617801 2.210487 0.083669 -0.011155 -9296.910000 0 0 1
18.735121 -13.652732 -16.110993 28.230585 -0.629745 2.178146 0.064536 -0.009652 429240.000000 0 0 1
19.616421 -13.643832 -14.982993 28.203691 -0.607720 2.130862 0.061220 -0.018076 912151.000000 0 0 1
20.690421 -14.606332 -15.017493 29.444245 -0.614706 2.106018 0.046945 -0.015245 992053.000000 0 0 1
21.710421 -14.342832 -13.858293 29.480697 -0.583821 2.060178 0.037466 -0.017091 181664.000000 0 0 1
22.350821 -13.089032 -13.933493 29.411293 -0.529777 2.064336 0.044916 -0.022449 547365.000000 0 0 1
23.457021 -13.070432 -13.005093 29.836227 -0.508360 2.021815 0.041252 -0.017439 759060.000000 0 0 1
24.028021 -11.642132 -12.782993 29.602195 -0.451190 2.017312 0.054710 -0.018728 -365476.000000 0 0 1
23.139321 -10.811832 -12.083093 28.254646 -0.437105 2.012688 0.059903 -0.015177 156954.000000 0 0 1
23.647121 -9.504432 -12.007293 28.172604 -0.382167 2.011089 0.077449 -0.022346 10216.100000 0 0 1
24.829321 -9.260032 -11.041193 28.708036 -0.356970 1.965574 0.081950 -0.018623 289194.000000 0 0 1
26.032021 -9.890432 -11.468693 30.116734 -0.363089 1.961466 0.061360 -0.011670 776995.000000 0 0 1
27.159921 -9.406232 -10.729693 30.680039 -0.333400 1.928078 0.070239 -0.013674 261542.000000 0 0 1
28.495071 -10.139832 -10.922893 32.157345 -0.341873 1.917363 0.065912 -0.010901 -104876.000000 0 0 1
29.099431 -9.834032 -12.147093 33.030848 -0.325896 1.947385 0.066511 -0.013654 419218.000000 0 0 1
30.347191 -10.492732 -12.338393 34.398915 -0.332889 1.937656 0.062193 -0.014972 244994.000000 0 0 1
31.139911 -10.101432 -13.597893 35.449058 -0.313679 1.964477 0.059369 -0.008890 103575.000000 0 0 1
30.546591 -10.664632 -14.795193 35.577048 -0.335897 1.999688 0.047116 -0.006125 730990.000000 0 0 1
31.242621 -10.118132 -15.911393 36.491785 -0.313197 2.021975 0.038413 -0.006005 -319117.000000 0 0 1
30.842901 -10.728432 -17.271493 36.941687 -0.334750 2.057295 0.018861 0.005171 -424596.000000 0 0 1
29.503801 -10.498232 -17.577093 35.911577 -0.341856 2.082261 0.014901 0.002090 -139299.000000 0 0 1
29.123281 -9.130932 -17.969093 35.417901 -0.303820 2.102897 0.009114 0.005438 -12393.800000 0 0 1
27.696221 -8.964732 -18.566093 34.527480 -0.313038 2.138526 0.007945 0.001722 350314.000000 0 0 1
27.557021 -9.492532 -19.895593 35.289264 -0.331739 2.169759 -0.005923 0.009716 -298432.000000 0 0 1
26.216521 -9.464932 -20.280793 34.470298 -0.346466 2.199820 0.029803 0.011969 -580767.000000 0 0 1
26.091521 -9.801832 -21.767493 35.364772 -0.359359 2.233834 0.050759 -0.003375 -131561.000000 0 0 1
25.886721 -11.179732 -22.006593 35.768685 -0.407676 2.233496 0.029899 -0.001767 190117.000000 0 0 1
25.388921 -11.394732 -23.307493 36.299813 -0.421862 2.268009 0.047859 -0.011218 -753452.000000 0 0 1
25.310721 -12.893632 -23.653493 36.964389 -0.471150 2.265164 0.036059 -0.004903 835830.000000 0 0 1
26.440621 -13.506632 -24.310393 38.373568 -0.472273 2.256890 0.034646 0.001515 754356.000000 0 0 1
27.642221 -13.465232 -23.549993 38.729924 -0.453295 2.224407 0.010514 0.006433 -346056.000000 0 0 1
28.882381 -14.049332 -24.248693 40.243941 -0.452735 2.217480 0.006113 0.012861 -73450.800000 0 0 1
29.265391 -13.367332 -25.460113 41.028844 -0.428463 2.240230 0.020676 -0.000534 5618.360000 0 0 1
30.671311 -13.375732 -25.422753 42.023278 -0.411234 2.220522 0.002579 -0.006512 -417557.000000 0 0 1
31.453181 -13.022932 -26.674473 43.248432 -0.392552 2.235433 0.022494 -0.011167 -330704.000000 0 0 1
31.249661 -13.838832 -27.831353 44.075376 -0.416890 2.254217 0.031261 -0.016110 78603.500000 0 0 1
31.701641 -13.215232 -28.997953 44.950169 -0.394958 2.271968 0.025754 -0.014927 -200656.000000 0 0 1
31.744351 -14.148032 -30.281763 46.096158 -0.419261 2.287531 0.031309 -0.018878 228269.000000 0 0 1
32.585991 -15.269832 -29.988273 46.843474 -0.438214 2.265529 0.044561 -0.025406 58567.700000 0 0 1
32.798481 -16.259732 -30.979553 47.956771 -0.460239 2.273115 0.013015 -0.019331 193334.000000 0 0 1
31.566341 -16.910432 -31.685033 47.815666 -0.491807 2.295147 0.014796 -0.010758 342074.000000 0 0 1
30.895091 -16.041032 -32.564203 47.668109 -0.478897 2.322856 0.023222 -0.021350 174918.000000 0 0 1
29.779741 -16.716732 -33.151513 47.595219 -0.511512 2.341347 0.028922 -0.013784 746052.000000 0 0 1
28.776961 -15.839332 -33.979113 47.260745 -0.503163 2.373117 0.045194 -0.009563 160981.000000 0 0 1
28.048221 -14.825532 -33.275913 45.975923 -0.486244 2.380044 0.051899 -0.023225 8474.420000 0 0 1
28.739721 -13.666032 -32.884663 45.761698 -0.443865 2.372593 0.055119 -0.020108 -559672.000000 0 0 1
27.853121 -12.425132 -32.749383 44.751562 -0.419602 2.391762 0.067391 -0.029090 -78605.600000 0 0 1
27.435321 -11.714932 -33.885703 45.146177 -0.403565 2.419732 0.075757 -0.026768 -372575.000000 0 0 1
26.781021 -10.555532 -33.551563 44.208028 -0.375446 2.432491 0.071499 -0.036498 -127776.000000 0 0 1
20.784593 -29.380229 9.546407 37.233467 -0.955098 1.311508 0.055299 -0.016854 -168305.000000 0 0 1
21.294793 -29.165429 8.311907 37.056420 -0.940128 1.344567 0.049057 -0.020084 1252300.000000 0 0 1
22.602993 -29.785529 8.090107 38.256017 -0.921650 1.357715 0.063776 -0.021079 1544940.000000 0 0 1
23.226493 -29.514329 6.677607 38.146507 -0.904060 1.394838 0.053864 -0.013409 299451.000000 0 0 1
23.782993 -28.182129 6.453207 37.436707 -0.869852 1.397555 0.051185 0.001312 576087.000000 0 0 1
24.391793 -28.037429 5.155607 37.518492 -0.854821 1.432945 0.032833 0.006517 199313.000000 0 0 1
24.597393 -26.492329 4.733107 36.459259 -0.822472 1.440610 0.020939 0.007120 -86658.900000 0 0 1
25.461193 -25.705329 5.504107 36.596878 -0.790170 1.419825 0.031100 0.003822 25320.900000 0 0 1
25.393993 -24.321429 5.141307 35.536176 -0.763827 1.425609 0.031768 0.009117 -209077.000000 0 0 1
26.205793 -23.412529 6.059207 35.659558 -0.729163 1.400050 0.038474 -0.003143 579239.000000 0 0 1
27.591793 -23.321929 5.673607 36.570606 -0.701729 1.415026 0.023763 0.004333 972138.000000 0 0 1
28.367593 -22.433229 6.481607 36.742092 -0.669109 1.393460 0.032725 -0.009748 156683.000000 0 0 1
27.936693 -20.908129 6.483407 35.491453 -0.642483 1.387090 0.041091 -0.006488 -303983.000000 0 0 1
28.301993 -20.174629 5.334707 35.163583 -0.619288 1.418497 0.037447 0.012185 14329.700000 0 0 1
27.747793 -18.875729 5.476807 34.003361 -0.597355 1.409025 0.060089 0.006493 15542.600000 0 0 1
27.884593 -18.016329 4.185407 33.461265 -0.573631 1.445386 0.078789 0.008666 870745.000000 0 0 1
29.262293 -17.768029 3.853407 34.450448 -0.545696 1.458708 0.083722 0.009439 752292.000000 0 0 1
29.364293 -17.092729 2.597607 34.075954 -0.527148 1.494492 0.088621 0.005604 333360.000000 0 0 1
30.389793 -15.924229 2.476007 34.398418 -0.482662 1.498754 0.094689 -0.007972 420769.000000 0 0 1
29.998693 -14.865929 3.326107 33.644916 -0.460083 1.471775 0.099493 -0.018001 -304649.000000 0 0 1
31.098493 -14.133829 3.712107 34.360750 -0.426578 1.462552 0.091215 -0.027168 -441156.000000 0 0 1
30.642893 -13.094129 4.696807 33.652683 -0.403829 1.430772 0.093528 -0.032676 11889.300000 0 0 1
30.075393 -13.657129 5.865307 33.547701 -0.426255 1.395058 0.076436 -0.024193 93545.200000 0 0 1
29.879893 -12.635129 6.804907 33.147568 -0.400060 1.364035 0.071689 -0.024571 -381653.000000 0 0 1
29.568893 -13.119529 8.239207 33.381522 -0.417597 1.321400 0.075510 -0.017773 444930.000000 0 0 1
28.155193 -13.206429 8.474907 32.232727 -0.438589 1.304740 0.069676 -0.005673 583517.000000 0 0 1
27.809893 -13.220429 9.897507 32.343941 -0.443763 1.259799 0.079479 -0.003884 -13047.400000 0 0 1
28.290893 -14.358529 10.892607 33.543865 -0.469655 1.240073 0.070792 -0.003027 -1043570.000000 0 0 1
29.495693 -14.234029 11.527507 34.720122 -0.449615 1.232360 0.060684 0.004668 -1044180.000000 0 0 1
29.845593 -15.398429 12.200707 35.731335 -0.476315 1.222330 0.053545 -0.000606 869637.000000 0 0 1
30.967493 -15.214229 13.294607 36.975735 -0.456661 1.203011 0.063781 -0.001500 1176950.000000 0 0 1
32.336593 -14.968129 13.006507 37.932431 -0.433517 1.220809 0.065955 -0.002778 592365.000000 0 0 1
33.093093 -14.988929 14.203407 39.007148 -0.425290 1.198105 0.070428 -0.004655 82600.300000 0 0 1
34.611993 -14.812429 14.005407 40.169012 -0.404372 1.214653 0.082157 -0.006471 -134348.000000 0 0 1
34.970093 -13.464429 13.833307 39.944444 -0.367532 1.217158 0.089205 -0.012018 1361180.000000 0 0 1
36.368593 -13.434629 13.428007 41.030174 -0.353854 1.237382 0.092931 -0.018195 1158970.000000 0 0 1
-36.339136 -12.049729 13.334107 40.540439 0.320182 1.235648 0.088482 -0.024867 -197248.000000 0 0 1
-35.069436 -12.029129 12.723007 39.197451 0.330433 1.240221 0.096684 -0.026300 -335833.000000 0 0 1
-34.375936 -10.824729 12.937707 38.291827 0.305063 1.226142 0.093197 -0.031400 -90200.200000 0 0 1
-33.162536 -10.708229 11.986507 36.852358 0.312333 1.239512 0.104020 -0.029520 480465.000000 0 0 1
-32.100336 -11.637329 12.208607 36.261675 0.347793 1.227407 0.091301 -0.024820 598707.000000 0 0 1
-32.394236 -12.856029 11.566607 36.721253 0.377798 1.250357 0.077037 -0.027140 -862772.000000 0 0 1
-31.396936 -13.954729 11.870707 36.351283 0.418239 1.238139 0.058925 -0.029644 -19667.200000 0 0 1
-30.084036 -13.759329 11.382307 34.984643 0.428960 1.239413 0.073713 -0.030193 -44361.000000 0 0 1
-29.322836 -14.925729 11.646407 34.903365 0.470833 1.230596 0.053582 -0.020523 -417870.000000 0 0 1
-27.911736 -14.909329 11.071107 33.524954 0.490601 1.234244 0.058297 -0.010435 -465330.000000 0 0 1
-27.882336 -14.983729 9.644507 33.090079 0.493111 1.275041 0.063061 -0.014636 -995188.000000 0 0 1
-26.602836 -15.061529 9.153507 31.911553 0.515167 1.279870 0.063214 -0.011229 -1007730.000000 0 0 1
-26.315836 -14.805029 7.640207 31.146186 0.512458 1.322966 0.082314 -0.005127 -4056.130000 0 0 1
-26.763836 -15.894629 6.862307 31.875279 0.535911 1.353811 0.083694 0.000110 224078.000000 0 0 1
-26.817836 -15.623629 5.495807 31.519803 0.527515 1.395540 0.089018 -0.000537 -169966.000000 0 0 1
-27.193236 -16.894029 4.672707 32.352967 0.555904 1.425860 0.074348 -0.002417 -348291.000000 0 0 1
-28.574636 -17.112229 4.678307 33.633685 0.539581 1.431248 0.052170 -0.011085 -475392.000000 0 0 1
-28.933336 -18.118529 3.758807 34.344543 0.559474 1.461133 0.047284 -0.007102 -1228870.000000 0 0 1
-30.406436 -18.397129 3.917307 35.754035 0.544118 1.461013 0.068538 -0.015960 -1748360.000000 0 0 1
-31.114836 -17.500429 3.148207 35.837260 0.512349 1.482836 0.071978 -0.017876 -1831240.000000 0 0 1
-32.417836 -17.831429 3.477607 37.161401 0.502882 1.477078 0.084901 -0.021347 -1110390.000000 0 0 1
-33.350536 -16.704529 2.934507 37.415383 0.464349 1.492285 0.077774 -0.025392 5024.960000 0 0 1
-33.571536 -16.884929 1.547507 37.610419 0.466008 1.529639 0.076765 -0.025326 274271.000000 0 0 1
-34.706736 -16.143129 1.094507 38.293029 0.435364 1.542210 0.091477 -0.027508 525300.000000 0 0 1
-35.557236 -16.791129 -0.019093 39.322505 0.441184 1.571282 0.104871 -0.028500 -101796.000000 0 0 1
-34.876936 -16.693229 -1.250393 38.686277 0.446408 1.603123 0.103578 -0.028345 235625.000000 0 0 1
-35.220536 -17.702229 -2.169893 39.478646 0.465734 1.625788 0.101602 -0.023519 -94671.800000 0 0 1
-34.002236 -18.087129 -3.038893 38.633291 0.488871 1.649538 0.071947 -0.023009 2742.610000 0 0 1
-34.172536 -19.235029 -3.860693 39.403724 0.512678 1.668932 0.078762 -0.030541 707469.000000 0 0 1
-32.941436 -19.829929 -4.326593 38.692166 0.541871 1.682852 0.065697 -0.023996 628830.000000 0 0 1
-33.247536 -20.876929 -5.390693 39.627066 0.560699 1.707255 0.087459 -0.034756 84781.600000 0 0 1
-33.981236 -22.000329 -4.895393 40.776264 0.574563 1.691142 0.109563 -0.035394 117852.000000 0 0 1
-34.320636 -22.907629 -5.890093 41.681635 0.588551 1.712582 0.112317 -0.029897 -82767.900000 0 0 1
-35.017936 -24.178129 -5.485493 42.906041 0.604288 1.698996 0.109088 -0.023856 -476091.000000 0 0 1
-34.139036 -25.081229 -4.934993 42.648517 0.633623 1.686769 0.117385 -0.022233 -601444.000000 0 0 1
-34.750036 -26.360029 -4.856693 43.886257 0.648958 1.681689 0.099193 -0.010216 54019.200000 0 0 1
-33.869836 -27.440129 -4.230593 43.795255 0.680908 1.667547 0.076094 -0.009941 -140159.000000 0 0 1
-32.857136 -27.872729 -5.139293 43.392312 0.703507 1.689513 0.066474 -0.012762 523180.000000 0 0 1
-32.085836 -29.003929 -4.691393 43.505608 0.734992 1.678841 0.064015 -0.008469 495934.000000 0 0 1
-30.927436 -28.834729 -3.677493 42.443749 0.750395 1.657549 0.070586 -0.019682 -139761.000000 0 0 1
-31.446336 -28.490729 -2.381093 42.500156 0.736126 1.626851 0.063665 -0.014548 243679.000000 0 0 1
-30.487736 -28.421529 -1.324693 41.701801 0.750338 1.602568 0.073128 -0.016930 20710.100000 0 0 1
-31.151836 -28.217029 0.071607 42.031449 0.736005 1.569093 0.070723 -0.012593 -322095.000000 0 0 1
-31.752136 -29.363729 0.464807 43.250928 0.746338 1.560049 0.060858 -0.011180 -534509.000000 0 0 1
-32.443136 -29.137929 1.667107 43.638919 0.731777 1.532585 0.077108 -0.009548 -370345.000000 0 0 1
-33.155636 -30.412729 2.056907 45.038441 0.742276 1.525110 0.052963 -0.006499 -699506.000000 0 0 1
-33.964236 -30.292429 3.238907 45.625553 0.728317 1.499748 0.059242 -0.004430 480373.000000 0 0 1
-34.523036 -31.486929 3.773307 46.877549 0.739436 1.490216 0.037679 0.003763 -283218.000000 0 0 1
-35.615636 -32.130429 2.917407 48.055689 0.733998 1.510050 0.031975 0.006463 -1386720.000000 0 0 1
-36.317636 -33.007129 3.708707 49.215808 0.737681 1.495369 0.041417 0.002088 -317087.000000 0 0 1
35.995093 -33.380629 2.785007 49.169801 -0.747730 1.514125 0.041729 -0.000094 -277257.000000 0 0 1
34.904393 33.831068 3.288907 48.720373 0.769784 1.503239 0.036225 0.001173 328040.000000 0 0 1
33.883793 -33.981329 4.175207 48.169228 -0.786835 1.484010 0.035571 -0.003728 676725.000000 0 0 1
33.046493 -32.930929 3.681607 46.798195 -0.783647 1.492045 0.048502 -0.000070 -361536.000000 0 0 1
32.149093 -33.086829 2.442407 46.198136 -0.799772 1.517904 0.045147 -0.007157 -773176.000000 0 0 1
32.881793 -33.230029 1.231307 46.764979 -0.790666 1.544464 0.048380 -0.005544 -171673.000000 0 0 1
32.069193 -33.120429 0.071207 46.102072 -0.801523 1.569252 0.056855 -0.004069 -838751.000000 0 0 1
32.573093 -33.880829 -1.149793 47.013179 -0.805074 1.595256 0.065073 -0.009629 160084.000000 0 0 1
33.770493 -33.516629 -1.809993 47.613934 -0.781625 1.608819 0.052630 -0.008184 -23243.600000 0 0 1
34.956593 -33.611529 -1.060993 48.505917 -0.765784 1.592672 0.051482 0.002839 -417168.000000 0 0 1
36.268993 -33.460729 -1.875293 49.381950 -0.745146 1.608781 0.024326 0.006679 15962.600000 0 0 1
36.659693 33.683668 -2.661593 49.855859 0.743116 1.624207 0.035919 -0.007378 509581.000000 0 0 1
-35.697836 34.085768 -3.616293 49.489925 -0.762301 1.643933 0.031121 -0.002791 -126773.000000 0 0 1
-34.918336 33.003868 -4.379393 48.246498 -0.757219 1.661693 0.028115 -0.004703 449531.000000 0 0 1
-33.897036 32.431768 -3.531693 47.045738 -0.763311 1.645936 0.046363 -0.006385 696054.000000 0 0 1
-33.063436 31.523468 -4.248193 45.879919 -0.761559 1.663523 0.060620 -0.018153 -39069.400000 0 0 1
-31.736736 30.985468 -3.729593 44.511004 -0.773421 1.654685 0.075205 -0.020005 -193681.000000 0 0 1
-30.755736 32.038368 -3.626393 44.559208 -0.805821 1.652270 0.062811 -0.024863 877109.000000 0 0 1
-29.431536 31.568068 -3.331793 43.288094 -0.820409 1.647840 0.056168 -0.025579 879689.000000 0 0 1
-29.121736 31.193768 -1.899593 42.716918 -0.819738 1.615280 0.052938 -0.021678 -327744.000000 0 0 1
-29.911536 30.108668 -1.414793 42.464497 -0.788683 1.604120 0.060807 -0.012818 30272.300000 0 0 1
-29.695136 29.942668 -0.024293 42.170666 -0.789549 1.571372 0.058410 -0.010161 63809.500000 0 0 1
-30.961236 29.394468 0.687707 42.697843 -0.759445 1.554689 0.048172 -0.009112 244797.000000 0 0 1
-31.322036 28.112068 0.301507 42.088588 -0.731442 1.563633 0.049521 -0.023834 -1337110.000000 0 0 1
-32.571236 28.161168 -0.246893 43.058074 -0.712911 1.576530 0.059307 -0.018696 -1156990.000000 0 0 1
-33.127836 26.810568 -0.796793 42.625051 -0.680390 1.589490 0.075118 -0.017924 120609.000000 0 0 1
-33.422236 25.897568 0.226307 42.282161 -0.659223 1.565444 0.082414 -0.022483 -266401.000000 0 0 1
-33.943836 24.723468 -0.171193 41.993609 -0.629510 1.574873 0.078740 -0.011553 -563750.000000 0 0 1
-34.048536 23.560568 0.854307 41.414164 -0.605316 1.550166 0.087577 -0.012907 -66362.300000 0 0 1
-32.816736 22.982268 1.222307 40.082625 -0.610942 1.540297 0.097018 -0.022454 -215033.000000 0 0 1
-32.234436 23.580968 2.306607 40.005517 -0.631585 1.513107 0.093465 -0.025172 -1590040.000000 0 0 1
-30.777736 23.121568 2.472107 38.574438 -0.644296 1.506666 0.074476 -0.037155 613517.000000 0 0 1
-29.742536 23.866968 1.777107 38.176023 -0.676234 1.524229 0.083358 -0.039942 800329.000000 0 0 1
-29.619136 25.204468 2.301407 38.959657 -0.705047 1.511690 0.054452 -0.036052 -858709.000000 0 0 1
-28.950436 26.176868 1.292107 39.051577 -0.735129 1.537703 0.036613 -0.025270 -733197.000000 0 0 1
-27.648436 25.915168 0.922307 37.906234 -0.753050 1.546463 0.027317 -0.024269 -1009560.000000 0 0 1
-27.293336 26.751068 -0.188493 38.217553 -0.775365 1.575728 0.025260 -0.026555 -221337.000000 0 0 1
-25.986136 26.411768 -0.885793 37.062722 -0.793521 1.594698 0.021851 -0.021683 -650659.000000 0 0 1
-26.259136 25.465468 -1.954393 36.631297 -0.770055 1.624175 0.041188 -0.027026 830184.000000 0 0 1
-25.106636 24.879968 -2.638293 35.444556 -0.780864 1.645300 0.033420 -0.015752 1239720.000000 0 0 1
-24.249236 23.882968 -1.768793 34.081523 -0.777789 1.622719 0.036131 -0.016218 125824.000000 0 0 1
-24.920236 22.683768 -1.412893 33.727848 -0.738452 1.612700 0.039685 -0.020051 -399096.000000 0 0 1
-24.090836 21.789668 -0.743793 32.491710 -0.735284 1.593690 0.035596 -0.025425 -1196230.000000 0 0 1
-24.761336 20.461368 -0.392393 32.123906 -0.690599 1.583012 0.053544 -0.028201 -829523.000000 0 0 1
-25.739636 20.569968 0.586007 32.954451 -0.674226 1.553013 0.033934 -0.031317 976870.000000 0 0 1
-27.057736 21.086668 0.260107 34.305048 -0.662004 1.563214 0.044340 -0.033771 1132710.000000 0 0 1
-27.870836 20.313668 -0.831393 34.498113 -0.629827 1.594898 0.051495 -0.034953 -680115.000000 0 0 1
-28.047236 18.976268 -0.507293 33.867441 -0.594836 1.585776 0.058858 -0.028220 181455.000000 0 0 1
-28.939636 18.406968 -1.433693 34.327459 -0.566504 1.612574 0.076307 -0.024784 -65693.000000 0 0 1
-29.197736 16.926868 -1.285493 33.773942 -0.525383 1.608867 0.086007 -0.018409 -368605.000000 0 0 1
-29.869236 16.527268 -0.153693 34.137157 -0.505389 1.575299 0.101788 -0.025317 -55427.000000 0 0 1
-29.939636 15.129568 0.076307 33.545364 -0.467907 1.568522 0.111448 -0.025719 75560.600000 0 0 1
-28.652436 14.438468 0.606807 32.090492 -0.466777 1.551886 0.127700 -0.031383 -578254.000000 0 0 1
-28.406536 14.764968 1.942207 32.073474 -0.479341 1.510204 0.143888 -0.032935 920903.000000 0 0 1
-27.185936 14.211268 2.481307 30.776487 -0.481676 1.490085 0.138879 -0.033364 628036.000000 0 0 1
-26.918236 12.654668 2.375807 29.839177 -0.439455 1.491092 0.153151 -0.034483 -581733.000000 0 0 1
-26.668836 12.267468 1.017407 29.372652 -0.431133 1.536151 0.148300 -0.038516 466586.000000 0 0 1
-26.057236 10.964568 0.943807 28.285899 -0.398298 1.537423 0.159752 -0.031247 56361.600000 0 0 1
-26.107336 10.251668 -0.411193 28.051003 -0.374175 1.585456 0.158833 -0.034037 -987336.000000 0 0 1
-27.368836 9.800868 -0.747493 29.080388 -0.343875 1.596504 0.163551 -0.028026 -595822.000000 0 0 1
-27.378636 9.040368 -1.908793 28.895699 -0.318926 1.636902 0.170123 -0.028443 -681601.000000 0 0 1
-28.781636 8.864868 -2.437693 30.214414 -0.298784 1.651564 0.166920 -0.028004 -635239.000000 0 0 1
-28.701336 7.944968 -3.538793 29.990203 -0.270053 1.689070 0.164100 -0.026700 920237.000000 0 0 1
-30.012636 7.804668 -4.107093 31.281614 -0.254411 1.702471 0.154339 -0.021456 777560.000000 0 0 1
-11.198607 17.984368 -19.811993 29.006230 -1.013863 2.322693 0.086477 -0.016827 273208.000000 0 0 1
-11.775407 16.998468 -20.619993 29.202607 -0.964964 2.354773 0.069841 -0.026329 -80436.900000 0 0 1
-11.044607 16.998468 -21.817293 29.781295 -0.994603 2.392906 0.067329 -0.030214 141074.000000 0 0 1
-11.228107 15.727268 -22.716493 29.823755 -0.950785 2.436716 0.063252 -0.024604 30122.300000 0 0 1
-10.397307 14.665668 -22.294693 28.639817 -0.954085 2.462991 0.067423 -0.030427 -46973.300000 0 0 1
-10.571907 13.509168 -23.063793 28.743719 -0.906772 2.502093 0.056740 -0.029473 -229147.000000 0 0 1
-9.646607 12.341168 -22.765993 27.634252 -0.907338 2.538936 0.035615 -0.022727 -373955.000000 0 0 1
-8.267707 12.443968 -23.044493 27.463721 -0.984368 2.566402 0.033753 -0.021633 -260048.000000 0 0 1
-7.640607 11.309068 -22.535693 26.346372 -0.976622 2.597046 0.025535 -0.017338 -185936.000000 0 0 1
-6.109707 11.418968 -22.451793 25.919189 -1.079504 2.618389 0.035847 -0.013029 -105865.000000 0 0 1
-5.518507 11.114568 -23.685793 26.739565 -1.109944 2.659002 0.033678 -0.016908 2041440.000000 0 0 1
-4.039807 11.210968 -23.588193 26.427423 -1.224936 2.673798 0.044427 -0.015904 2531450.000000 0 0 1
-3.208807 10.962268 -24.848493 27.348041 -1.286037 2.710722 0.067740 -0.025702 -302788.000000 0 0 1
-3.337007 9.678868 -25.424713 27.408614 -1.238786 2.758780 0.059895 -0.025986 224260.000000 0 0 1
-2.584207 9.599768 -26.658263 28.451654 -1.307835 2.784643 0.056579 -0.023443 86487.500000 0 0 1
-2.276107 8.152368 -27.022643 28.317221 -1.298533 2.838048 0.061188 -0.002305 593592.000000 0 0 1
-1.266407 7.372068 -26.325053 27.367126 -1.400672 2.864747 0.071095 -0.011122 794105.000000 0 0 1
-1.577407 7.021368 -24.926193 25.944227 -1.349807 2.860528 0.080737 -0.022673 -93212.000000 0 0 1
-0.540907 6.063968 -24.315393 25.065965 -1.481832 2.896258 0.011414 -0.013543 -45867.900000 0 0 1
0.799493 6.545668 -24.333893 25.211571 1.449258 2.876956 0.051189 0.000382 953675.000000 0 0 1
1.722693 5.694168 -23.609893 24.347859 1.277014 2.894758 0.046851 0.017059 516082.000000 0 1 0
1.835693 6.048268 -22.120993 23.006295 1.276125 2.863275 0.041366 0.006147 -398496.000000 0 1 0
2.282093 7.381168 -22.083193 23.395662 1.270941 2.805047 0.023216 -0.005659 180997.000000 0 1 0
2.476493 7.913268 -20.803293 22.394861 1.267497 2.762313 0.039526 -0.005053 71290.000000 0 1 0
2.691693 9.423868 -20.907893 23.091004 1.292579 2.703250 0.025179 -0.008848 233160.000000 0 1 0
3.537193 9.923768 -19.853693 22.475810 1.228399 2.653729 0.035394 -0.017755 507678.000000 0 1 0
3.621293 11.354768 -19.945193 23.234785 1.262071 2.602977 0.047249 -0.009734 -254126.000000 0 1 0
4.538493 11.891368 -18.821993 22.721575 1.206197 2.546998 0.032223 -0.005460 636909.000000 0 1 0
5.896993 11.525468 -19.098393 23.072918 1.097873 2.545865 0.042473 -0.001175 207584.000000 0 1 0
6.528093 11.117268 -17.906393 22.064645 1.039840 2.517583 0.029990 -0.013310 -299252.000000 0 1 0
7.628493 10.094668 -18.169893 22.141392 0.923660 2.533309 0.047027 -0.033608 -554187.000000 0 1 0
7.145793 8.812068 -18.536193 21.732587 0.889438 2.592353 0.037366 -0.020465 -89150.900000 0 1 0
6.977993 8.649668 -19.956893 22.842651 0.891962 2.633488 0.043919 -0.008476 -141832.000000 0 1 0
6.718993 7.159268 -20.322593 22.570063 0.817112 2.691536 0.046655 -0.015532 421498.000000 0 1 0
7.840493 6.280868 -20.120293 22.488860 0.675400 2.678507 0.048208 -0.027865 527885.000000 0 1 0
7.642093 4.978468 -20.584293 22.514436 0.577396 2.724501 0.047019 -0.013305 -158940.000000 0 1 0
7.949393 4.665868 -22.075393 23.922503 0.530766 2.746050 0.061452 -0.018703 -744998.000000 0 1 0
6.939493 5.193568 -22.888293 24.474551 0.642481 2.779584 0.074217 -0.018925 -129003.000000 0 1 0
7.172393 4.907568 -24.221993 25.733876 0.600064 2.797107 0.078511 -0.014319 -522949.000000 0 0 1
6.010393 5.296968 -25.164803 26.409278 0.722388 2.833380 0.062632 -0.019110 9168.790000 0 0 1
5.799693 6.692368 -25.388203 26.888381 0.856736 2.805975 0.057537 -0.028238 239986.000000 0 0 1
5.359393 7.403268 -24.236793 25.902772 0.944195 2.780987 0.064071 -0.025959 -1109610.000000 0 0 1
5.174793 8.957368 -24.307493 26.417175 1.046925 2.739234 0.063047 -0.037352 300723.000000 0 0 1
4.082793 9.498868 -25.024383 27.076141 1.164851 2.749791 0.073982 -0.038645 167922.000000 0 0 1
2.792793 9.276768 -24.514593 26.359502 1.278374 2.765236 0.062290 -0.027664 -513768.000000 0 0 1
1.591493 9.776768 -25.307333 27.176812 1.409429 2.768516 0.065808 -0.019371 -254084.000000 0 0 1
1.387193 11.168668 -25.210033 27.608136 1.447225 2.721712 0.078727 -0.042432 527417.000000 0 0 1
0.308993 11.615468 -26.036933 28.512040 1.544201 2.721843 0.099250 -0.046398 -89851.900000 0 0 1
0.168293 13.088768 -26.353793 29.425611 1.557939 2.680591 0.095599 -0.047657 -157348.000000 0 0 1
-0.216807 13.873868 -25.252243 28.813313 -1.555171 2.639150 0.087807 -0.048165 -35344.000000 0 0 1
-0.591207 15.156568 -25.612213 29.766701 -1.531809 2.606913 0.084346 -0.050261 -320541.000000 0 0 1
-1.108707 15.897468 -24.392593 29.136872 -1.501168 2.562890 0.096007 -0.039030 868410.000000 0 0 1
-2.338807 15.269668 -23.948493 28.498475 -1.418811 2.568712 0.088384 -0.038459 555207.000000 0 0 1
-2.729107 15.519568 -22.624093 27.570901 -1.396727 2.533219 0.079754 -0.044078 -1355270.000000 0 0 1
-3.878007 14.757268 -22.111493 26.865108 -1.313820 2.537568 0.076411 -0.033732 526351.000000 0 0 1
-5.201807 15.055868 -22.659793 27.698451 -1.238136 2.528876 0.080311 -0.033007 1217550.000000 0 0 1
-5.467607 14.716968 -24.055193 28.725184 -1.215083 2.563351 0.071646 -0.032563 -1307990.000000 0 0 1
-6.901807 14.993368 -24.430693 29.483805 -1.139390 2.547424 0.041971 -0.027858 -849859.000000 0 0 1
-7.284507 16.351468 -24.517893 30.357233 -1.151695 2.510945 0.047259 -0.023352 -38117.100000 0 0 1
-8.521607 16.342568 -25.209223 31.228228 -1.090147 2.510287 0.049644 -0.021592 3565.280000 0 0 1
-9.068407 17.756268 -25.513073 32.379591 -1.098613 2.478247 0.058850 -0.019764 -411809.000000 0 0 1
-9.585607 18.525268 -24.493393 32.171349 -1.093299 2.436176 0.065111 -0.022708 -632411.000000 0 0 1
-10.481907 19.414668 -25.046193 33.378309 -1.075743 2.419423 0.062301 -0.015034 -463254.000000 0 0 1
-11.332007 20.050868 -23.940593 33.220531 -1.056386 2.375545 0.060112 -0.011515 3472.410000 0 0 1
-10.763907 21.225668 -23.397393 33.374072 -1.101471 2.347686 0.071201 -0.014172 301640.000000 0 0 1
-11.492707 22.364668 -23.871493 34.671442 -1.096108 2.330223 0.064738 -0.016652 127059.000000 0 0 1
-11.177807 22.970868 -25.257123 35.923897 -1.117920 2.350506 0.067929 -0.010932 -189221.000000 0 0 1
-11.638707 22.165868 -26.359603 36.354008 -1.087292 2.381948 0.059359 -0.016778 320019.000000 0 0 1
-11.244707 22.752568 -27.606843 37.500141 -1.111786 2.398204 0.072496 -0.013416 5944.610000 0 0 1
-11.817307 22.021468 -28.846903 38.167232 -1.078278 2.427676 0.062770 -0.014606 16418.700000 0 0 1
-10.984107 21.000368 -29.349553 37.723498 -1.088884 2.462301 0.055688 -0.013714 35696.800000 0 0 1
-10.831107 19.860168 -28.506673 36.391888 -1.071516 2.470793 0.056164 -0.012467 -357477.000000 0 0 1
-9.907907 18.878268 -29.214283 36.166697 -1.087482 2.511151 0.042669 -0.021555 -934180.000000 0 0 1
-8.596207 19.383668 -29.254693 36.131128 -1.153380 2.514405 0.045506 -0.021929 75903.500000 0 0 1
-7.552707 18.537768 -29.745273 35.853500 -1.183908 2.549248 0.043814 -0.024036 653609.000000 0 0 1
-7.215407 17.245368 -28.989363 34.494173 -1.174532 2.568842 0.050173 -0.032368 -1436100.000000 0 0 1
-8.201007 16.303368 -29.189213 34.424794 -1.104731 2.582831 0.033221 -0.029070 -517317.000000 0 0 1
-7.955807 14.993868 -28.598683 33.256512 -1.082966 2.605953 0.019420 -0.024516 133891.000000 0 0 1
-9.235907 14.096368 -28.508823 33.117405 -0.990776 2.607716 0.031268 -0.015741 160993.000000 0 0 1
-10.170207 14.680968 -27.646363 32.913300 -0.964954 2.568034 0.042482 -0.019397 -887905.000000 0 0 1
-11.343707 13.953268 -27.590633 32.933515 -0.888192 2.563978 0.074860 -0.024913 -624895.000000 0 0 1
-12.318907 14.377568 -26.492543 32.562628 -0.862359 2.521092 0.066524 -0.021333 48629.200000 0 0 1
-12.965007 15.640968 -26.762883 33.600345 -0.878672 2.492291 0.062023 -0.022946 8178.270000 0 0 1
-13.932507 15.858268 -25.745323 33.292958 -0.849951 2.454820 0.057135 -0.023362 272330.000000 0 0 1
-14.858907 17.078068 -26.045693 34.508342 -0.854772 2.426092 0.039206 -0.019572 110965.000000 0 0 1
-14.273707 18.377668 -25.990953 34.885628 -0.910433 2.411381 0.042312 -0.015137 -23466.000000 0 0 1
-15.243607 19.363968 -26.305803 36.046166 -0.903900 2.388798 0.033116 -0.010858 -72075.900000 0 0 1
-14.787007 20.879368 -26.427583 36.783430 -0.954581 2.372388 0.038136 -0.008042 -111427.000000 0 0 1
-15.833007 21.730968 -26.849903 37.997847 -0.941138 2.355501 0.017431 -0.009659 95597.800000 0 0 1
-15.417807 23.065668 -27.088533 38.775281 -0.981573 2.344240 0.032210 -0.005164 -20843.600000 0 0 1
-14.895207 23.821068 -25.846063 38.174984 -1.011985 2.314532 0.007649 -0.006050 111152.000000 0 0 1
-14.461007 25.149468 -26.182623 39.078718 -1.048960 2.305001 0.030661 -0.014738 127655.000000 0 0 1
-14.092607 25.978768 -25.129323 38.794082 -1.073756 2.275439 0.044131 -0.022815 184572.000000 0 0 1
-13.812007 27.455668 -25.383503 39.861102 -1.104699 2.261136 0.058340 -0.025516 -334487.000000 0 0 1
-15.057307 28.017468 -25.673473 40.875766 -1.077658 2.249887 0.053776 -0.023541 -337846.000000 0 0 1
-15.451507 28.992468 -24.718393 41.113395 -1.081138 2.215829 0.052336 -0.020385 -134366.000000 0 0 1
-16.892507 29.459268 -25.000293 42.168945 -1.050151 2.205402 0.046054 -0.023126 -312526.000000 0 0 1
-17.823607 28.463768 -24.748793 41.717740 -1.011345 2.205879 0.038944 -0.018654 -659766.000000 0 0 1
-19.028907 28.744068 -25.453033 42.850643 -0.986023 2.206811 0.024928 -0.016659 606658.000000 0 0 1
-20.049107 27.554768 -25.237183 42.404567 -0.941780 2.208252 0.030571 -0.004549 399801.000000 0 0 1
-20.591407 27.593968 -23.920893 41.924244 -0.929713 2.178001 0.047804 -0.010422 -491995.000000 0 0 1
-21.439207 26.533268 -23.656993 41.512736 -0.891189 2.177148 0.056466 -0.021534 -354372.000000 0 0 1
-22.228707 26.553568 -22.314593 41.196462 -0.873823 2.143210 0.061328 -0.017533 713418.000000 0 0 1
-23.237407 27.580468 -22.265393 42.384042 -0.870654 2.123893 0.057497 -0.014795 242286.000000 0 0 1
-23.587107 27.887368 -20.930993 42.097071 -0.868746 2.091174 0.044829 -0.015190 -373278.000000 0 0 1
-24.879607 28.714968 -20.885393 43.356013 -0.856839 2.073411 0.031398 -0.011579 -796417.000000 0 0 1
-25.969327 27.906168 -21.114993 43.577553 -0.821333 2.076632 0.018687 -0.010402 -1862740.000000 0 0 1
-27.159887 28.594068 -21.011193 44.685013 -0.811116 2.060321 0.023520 -0.008867 -187015.000000 0 0 1
-28.400957 27.655168 -21.172793 44.941182 -0.772095 2.061359 0.009536 -0.003202 227835.000000 0 0 1
-28.607487 27.257068 -22.511993 45.476652 -0.761230 2.088658 0.002461 -0.000251 92932.800000 0 0 1
-29.876237 26.723568 -22.877093 46.153007 -0.729755 2.089413 -0.003820 0.009805 222039.000000 0 0 1
-29.973687 26.269068 -24.366993 46.714411 -0.719625 2.119540 0.000013 0.017608 -6063.880000 0 0 1
-29.512117 24.972868 -24.629493 45.839078 -0.702278 2.138033 0.021729 0.012713 -342466.000000 0 0 1
-29.660037 24.788168 -26.020763 46.596686 -0.696159 2.163283 0.032216 0.016173 -65518.400000 0 0 1
-29.779247 23.269568 -26.410763 46.106450 -0.663297 2.180740 0.042890 0.009171 -882427.000000 0 0 1
-28.688667 22.443968 -26.227453 44.884859 -0.663873 2.194847 0.057487 -0.007215 -930588.000000 0 0 1
-28.812757 21.161268 -26.763133 44.656909 -0.633469 2.213430 0.065626 -0.015312 445007.000000 0 0 1
-27.644527 20.156168 -26.415233 43.223321 -0.630003 2.228289 0.084152 -0.019740 549905.000000 0 0 1
-27.531327 19.863468 -25.052643 42.192016 -0.625001 2.206541 0.077451 -0.014186 -18587.800000 0 0 1
-26.902437 18.584468 -24.914593 41.107913 -0.604531 2.221917 0.072454 -0.019481 -230289.000000 0 0 1
-27.837677 17.371368 -24.814793 41.139697 -0.557897 2.218283 0.065173 -0.012395 -212017.000000 0 0 1
-28.682237 17.227468 -25.964303 42.350932 -0.540884 2.230744 0.066638 -0.011550 123643.000000 0 0 1
-29.194417 15.925768 -25.882383 42.140738 -0.499387 2.232154 0.047360 -0.010710 -129238.000000 0 0 1
-30.100927 15.489468 -27.058053 43.337370 -0.475247 2.245106 0.037762 -0.015099 -130595.000000 0 0 1
-31.214797 16.258568 -27.422043 44.616959 -0.480197 2.232688 0.021754 -0.002039 -117829.000000 0 0 1
-31.966127 15.369668 -28.239183 45.337748 -0.448179 2.243193 0.022007 0.013361 -392791.000000 0 0 1
-33.130297 15.974868 -29.011243 46.845119 -0.449293 2.238649 0.017716 -0.000905 -504401.000000 0 0 1
-34.220518 16.266668 -28.179013 47.219753 -0.443733 2.210258 0.002104 0.007287 -464690.000000 0 0 1
-35.361736 16.567768 -28.952603 48.612720 -0.438150 2.208780 -0.001169 0.006211 -728955.000000 0 0 1
-36.644247 16.296268 -28.216903 49.036342 -0.418451 2.183924 -0.007961 0.011543 -915757.000000 0 0 1
36.425211 17.258468 -27.231543 48.643680 0.442473 2.164961 0.001004 0.001973 105530.000000 0 0 1
35.299891 16.904068 -26.440823 47.232901 0.446601 2.164937 0.002528 0.000545 104169.000000 0 0 1
35.000881 18.058868 -25.501113 46.920051 0.476330 2.145399 0.011018 0.004049 -286108.000000 0 0 1
34.343611 19.149168 -26.108903 47.200096 0.508641 2.156941 0.008651 -0.009981 43711.400000 0 0 1
33.939961 20.026868 -25.078643 46.711184 0.533084 2.137540 0.023595 -0.005482 -824267.000000 0 0 1
33.177641 21.242868 -25.634433 47.001484 0.569509 2.147658 0.030843 -0.015113 346783.000000 0 0 1
31.886041 21.121868 -26.201813 46.361492 0.585055 2.171427 0.032323 -0.017895 660275.000000 0 0 1
30.786531 21.178168 -25.268723 45.109130 0.602561 2.165386 0.053586 -0.011655 1381960.000000 0 0 1
29.374141 21.122268 -25.963913 44.532181 0.623415 2.193258 0.034076 -0.014967 871866.000000 0 0 1
29.066521 19.879168 -26.513523 44.079597 0.599852 2.216164 0.048711 -0.024015 -1270130.000000 0 0 1
27.918421 19.927868 -27.255093 43.810938 0.619921 2.242227 0.071816 -0.030963 -1111870.000000 0 0 1
27.299721 18.502468 -27.530873 42.960040 0.595639 2.266399 0.091738 -0.029285 -105860.000000 0 0 1
28.054621 17.500068 -28.203603 43.459836 0.557726 2.277010 0.075337 -0.040904 -10137.300000 0 0 1
29.043391 16.927168 -27.351123 43.337415 0.527694 2.253793 0.069799 -0.027893 16936.300000 0 0 1
29.897351 15.849168 -28.079613 43.971723 0.487452 2.263452 0.065010 -0.024980 -85745.200000 0 0 1
29.340731 14.575568 -28.437643 43.382315 0.461060 2.285657 0.076671 -0.019105 149667.000000 0 0 1
28.675941 13.716968 -27.465683 42.009862 0.446173 2.283380 0.077980 -0.023302 71427.800000 0 0 1
29.465871 13.128968 -26.281153 41.608970 0.419160 2.254440 0.073724 -0.022337 -348213.000000 0 0 1
30.022661 14.145068 -25.470803 41.835451 0.440299 2.225385 0.074927 -0.022956 -163340.000000 0 0 1
30.793571 13.533868 -24.480093 41.601497 0.414090 2.199928 0.063857 -0.016775 -277280.000000 0 0 1
-15.049407 -31.140729 -23.337993 41.723993 1.120621 2.164388 0.089901 -0.015552 -260533.000000 0 0 1
-14.443307 -30.109329 -24.033293 41.143407 1.123524 2.194610 0.084298 -0.032917 29702.800000 0 0 1
-14.969007 -29.851529 -25.339003 41.919566 1.105991 2.219893 0.069650 -0.023533 -53272.600000 0 0 1
-14.137307 -28.714629 -26.085033 41.289494 1.113297 2.254617 0.066058 -0.022785 148693.000000 0 0 1
-14.412707 -27.432929 -25.554013 40.165897 1.087052 2.260374 0.068117 -0.020563 3179.830000 0 0 1
-13.863807 -26.406329 -26.373753 39.812990 1.087335 2.294869 0.052422 -0.008912 -262063.000000 0 0 1
-14.139307 -24.998829 -25.876463 38.658153 1.056056 2.304152 0.025856 -0.013619 -388429.000000 0 0 1
-13.634707 -24.808529 -24.591593 37.498197 1.068262 2.286048 0.027537 -0.028545 184687.000000 0 0 1
-14.017307 -23.489529 -24.235893 36.546154 1.032772 2.295827 0.028064 -0.022635 -262240.000000 0 0 1
-13.664307 -23.065229 -22.802793 35.194963 1.035969 2.275620 0.033115 -0.026026 1041960.000000 0 0 1
-12.254307 -22.737829 -22.677293 34.372031 1.076485 2.291296 0.031542 -0.037304 1015730.000000 0 0 1
-12.010207 -22.155629 -21.439193 33.087097 1.074051 2.275702 0.021875 -0.033326 -95615.500000 0 0 1
-10.548507 -21.710129 -21.333493 32.213640 1.118509 2.294614 0.032439 -0.038194 -470527.000000 0 0 1
-10.212207 -20.659329 -22.179793 31.985001 1.111707 2.337054 0.052136 -0.037899 536641.000000 0 0 1
-8.782607 -20.635029 -22.282593 31.614119 1.168404 2.352980 0.076022 -0.029873 464894.000000 0 0 1
-8.310707 -19.512829 -23.206993 31.438557 1.168155 2.401150 0.099937 -0.026314 -345361.000000 0 0 1
-8.651607 -18.226329 -22.772593 30.424338 1.127612 2.416592 0.074352 -0.028512 -252888.000000 0 0 1
-8.726307 -17.247729 -23.754193 30.625059 1.102408 2.458534 0.074093 -0.021360 -408423.000000 0 0 1
-7.496007 -16.686429 -24.478193 30.558288 1.148585 2.499815 0.093060 -0.028469 -385820.000000 0 0 1
-7.089707 -17.536129 -25.512243 31.759318 1.186596 2.503611 0.083118 -0.022897 166434.000000 0 0 1
-6.105907 -16.912729 -26.335653 31.888699 1.224334 2.542525 0.075651 -0.019481 131615.000000 0 0 1
-5.865207 -17.691629 -27.625613 33.325199 1.250675 2.548061 0.077040 -0.007971 156486.000000 0 0 1
-6.854307 -17.434729 -28.600973 34.190159 1.196217 2.561709 0.086109 -0.009709 258673.000000 0 0 1
-6.484207 -18.145229 -29.807683 35.493552 1.227588 2.567721 0.097548 -0.022421 80327.000000 0 0 1
-7.010607 -17.501429 -31.080213 36.351455 1.189796 2.596332 0.095016 -0.022284 423114.000000 0 0 1
-6.270407 -16.318529 -31.556583 36.075342 1.203940 2.635698 0.091093 -0.025281 423343.000000 0 0 1
-6.571407 -15.120529 -30.922943 35.043433 1.160821 2.651773 0.071860 -0.019609 382292.000000 0 0 1
-7.461707 -14.177229 -31.838873 35.642457 1.086318 2.675398 0.066194 -0.018598 419881.000000 0 0 1
-6.685707 -13.749529 -32.942853 36.317761 1.118209 2.707074 0.073395 -0.025540 141130.000000 0 0 1
-7.393907 -13.049329 -33.983263 37.145888 1.055289 2.725956 0.074019 -0.021183 -282021.000000 0 0 1
-7.678507 -11.534229 -33.702323 36.439600 0.983453 2.751521 0.052314 -0.018121 -276288.000000 0 0 1
-6.567907 -10.699129 -33.824093 36.078775 1.020238 2.786191 0.047051 -0.017036 -378873.000000 0 0 1
-6.222007 -10.340929 33.110369 35.241237 1.029137 0.349527 0.037327 -0.016320 -306244.000000 0 0 1
-4.999407 -9.431129 32.990473 34.674365 1.083363 0.312926 0.041550 -0.014154 -258114.000000 0 0 1
-4.938307 -8.846729 31.699193 33.278978 1.061674 0.309359 0.036304 -0.005144 340067.000000 0 0 1
-3.902907 -7.857029 31.697843 32.889495 1.109759 0.270011 0.036819 -0.011282 -4481.320000 0 0 1
-4.161707 -6.777329 30.569703 31.587320 1.020100 0.254521 0.033183 -0.012220 1100800.000000 0 0 1
-5.247107 -5.793029 30.682863 31.662745 0.834807 0.249433 0.014718 -0.011651 444350.000000 0 0 1
-6.476807 -6.367329 30.346623 31.676639 0.776875 0.290807 0.024134 -0.008247 -985376.000000 0 0 1
-7.629607 -5.335529 30.344353 31.740488 0.610269 0.297699 0.013351 -0.009069 -1038790.000000 0 0 1
-8.744407 -6.041129 29.968483 31.797325 0.604563 0.340809 0.005601 -0.008940 -1463810.000000 0 0 1
-9.850307 -5.153029 29.901093 31.900747 0.481983 0.355948 0.013078 -0.012584 -150120.000000 0 0 1
-11.002507 -5.826829 29.157573 31.704435 0.487039 0.403561 0.021787 -0.017265 -683355.000000 0 0 1
-10.669707 -5.815129 27.833973 30.370849 0.499006 0.411630 0.008207 -0.012566 59058.200000 0 0 1
-11.427007 -6.646829 27.005693 30.067662 0.526838 0.455221 0.017486 -0.017723 -308002.000000 0 0 1
-11.164307 -6.413129 25.482823 28.550732 0.521407 0.467838 0.008500 -0.013477 -163728.000000 0 0 1
-10.009707 -7.024529 24.961743 27.796167 0.611914 0.455529 0.016840 -0.011535 133319.000000 0 0 1
-9.539507 -6.480429 23.713823 26.369368 0.596715 0.452643 0.021847 -0.010712 -43303.000000 0 0 1
-10.372207 -6.849929 22.439853 25.652509 0.583660 0.505851 0.036333 -0.013462 394778.000000 0 0 1
-11.651707 -6.231329 22.477853 26.073850 0.491098 0.531428 0.016596 -0.004812 326553.000000 0 0 1
-12.366707 -6.332929 21.236053 25.377380 0.473277 0.579365 0.022094 -0.009484 469842.000000 0 0 1
-13.440407 -5.200429 21.139553 25.584560 0.369184 0.598357 0.019247 -0.003058 614965.000000 0 0 1
-12.839407 -3.911829 20.974653 24.901584 0.295739 0.569256 0.001915 0.003197 388921.000000 0 1 0
-13.925007 -3.015629 20.826053 25.233397 0.213269 0.599998 0.015369 0.000309 286689.000000 0 0 1
-13.608307 -1.660629 20.309753 24.503669 0.121430 0.593756 0.004279 0.002456 -152122.000000 0 1 0
-12.818007 -0.803629 21.103453 24.704309 0.062613 0.546706 0.008711 -0.000402 -61985.100000 0 1 0
-13.025407 0.559371 20.826853 24.570958 -0.042918 0.559311 0.021248 -0.006336 -365345.000000 0 1 0
-12.692307 1.208371 19.380553 23.198290 -0.094919 0.581881 0.037544 -0.015183 154659.000000 0 1 0
-13.602307 0.816371 18.358253 22.862955 -0.059945 0.638536 0.039854 -0.010323 542238.000000 0 1 0
-14.881407 1.471371 18.470253 23.764921 -0.098553 0.680582 0.025447 -0.008563 35837.000000 0 1 0
-15.789907 0.664371 17.553653 23.619765 -0.042051 0.732991 0.040741 -0.006668 -579228.000000 0 1 0
-15.920307 -0.718629 17.958153 24.009746 0.045109 0.725824 0.018058 -0.005543 -111623.000000 0 1 0
-16.906707 -1.323629 17.195553 24.151104 0.078131 0.778456 0.030243 0.001762 -488872.000000 0 1 0
-16.989807 -2.861629 17.379453 24.472186 0.166866 0.781054 0.029142 0.004098 -88490.900000 0 1 0
-17.317207 -3.186629 18.700753 25.685764 0.181979 0.755310 0.032788 0.001862 78938.000000 0 0 1
-17.281107 -4.562829 19.050053 26.122033 0.258144 0.753540 0.042406 0.000540 5718.170000 0 0 1
-17.974607 -4.817129 20.420953 27.628004 0.261843 0.739004 0.046567 0.003792 344411.000000 0 0 1
-17.162307 -4.378729 21.527753 27.877630 0.249807 0.688463 0.049919 0.004734 755944.000000 0 0 1
-17.916507 -4.259029 22.745053 29.265646 0.233384 0.680604 0.050973 0.001944 -134121.000000 0 0 1
-18.320507 -5.604029 23.443553 30.276168 0.296850 0.685151 0.065862 0.004882 -117449.000000 0 0 1
-17.295207 -6.353529 24.021133 30.273856 0.352054 0.654321 0.033542 -0.007332 597376.000000 0 0 1
-16.204507 -6.868229 23.220453 29.136714 0.400894 0.648570 0.041001 -0.008675 356308.000000 0 0 1
-15.143407 -7.573729 24.060543 29.420977 0.463755 0.613214 0.047499 -0.009507 -131074.000000 0 0 1
-15.714207 -8.723629 24.708103 30.553697 0.506783 0.628895 0.051860 -0.014823 379091.000000 0 0 1
-14.973807 -9.124129 25.854113 31.239395 0.547258 0.595956 0.057803 -0.008587 89206.700000 0 0 1
-15.689107 -10.192029 26.687543 32.592185 0.576111 0.611422 0.055603 -0.018228 -243776.000000 0 0 1
-15.667607 -11.488129 26.137813 32.567412 0.632689 0.639196 0.064224 -0.019159 47054.700000 0 0 1
-14.564907 -12.198129 26.653753 32.731536 0.697193 0.619250 0.080620 -0.012386 -143492.000000 0 0 1
-14.749807 -13.697929 26.428543 33.221348 0.748439 0.650916 0.069570 -0.018352 44182.100000 0 0 1
-15.819007 -14.125229 27.250673 34.530599 0.728894 0.661332 0.060946 -0.020006 133568.000000 0 0 1
-16.089007 -15.498529 27.144353 35.155035 0.766707 0.688606 0.069321 -0.011043 766010.000000 0 0 1
-14.987207 -16.444929 27.808013 35.613729 0.831742 0.674815 0.069576 -0.015632 807973.000000 0 0 1
-13.721007 -16.432229 27.189833 34.605942 0.875072 0.666972 0.068966 -0.015632 106630.000000 0 0 1
-12.746907 -17.031229 28.039073 35.195682 0.928292 0.649043 0.074621 -0.019695 -122125.000000 0 0 1
-11.416107 -17.274029 27.345273 34.299906 0.986809 0.648086 0.072408 -0.019200 -177645.000000 0 0 1
-10.357007 -17.873429 28.083533 34.862758 1.045614 0.634201 0.079460 -0.028156 425122.000000 0 0 1
-9.638007 -18.817829 27.327093 34.551005 1.097457 0.658485 0.070954 -0.027163 639298.000000 0 0 1
-8.517007 -19.665029 28.041383 35.292662 1.162081 0.652549 0.082186 -0.031695 637231.000000 0 0 1
-9.068907 -20.595929 28.896703 36.625904 1.156017 0.661667 0.084443 -0.031187 73744.700000 0 0 1
-7.996407 -21.265529 29.512683 37.244647 1.211126 0.656062 0.098592 -0.030841 8427.410000 0 0 1
-8.356707 -22.430229 30.453763 38.734758 1.214163 0.666140 0.083081 -0.029375 -83384.700000 0 0 1
-8.646607 -23.542429 29.632563 38.821368 1.218813 0.702382 0.083875 -0.027688 193327.000000 0 0 1
-9.069207 -24.646629 30.436673 40.200721 1.218204 0.711907 0.059294 -0.032199 -87775.300000 0 0 1
-9.061907 -25.966429 29.611663 40.413169 1.235026 0.748481 0.061852 -0.029112 101744.000000 0 0 1
-9.982407 -25.915229 28.517243 39.805536 1.203118 0.772148 0.059249 -0.025644 420991.000000 0 0 1
-9.693907 -26.867429 27.465493 39.625546 1.224528 0.804980 0.047331 -0.020237 -287971.000000 0 0 1
-10.954007 -27.212829 26.628223 39.618059 1.188110 0.833724 0.038863 -0.017114 40533.600000 0 0 1
-11.361807 -26.370029 25.581833 38.456460 1.163972 0.843014 0.048844 -0.021193 185722.000000 0 0 1
-11.801907 -25.104529 25.973683 38.002035 1.131345 0.818275 0.052194 -0.021385 -698018.000000 0 0 1
-12.144107 -24.196229 24.812553 36.723285 1.105629 0.828933 0.061438 -0.034386 -296754.000000 0 0 1
-13.296707 -24.567629 24.104143 36.896891 1.074712 0.858883 0.056966 -0.030820 -97890.100000 0 0 1
-13.305407 -24.031529 22.790053 35.692223 1.065144 0.878228 0.077660 -0.036946 -639404.000000 0 0 1
-14.593307 -24.088029 21.991453 35.732643 1.026099 0.907847 0.085072 -0.037752 -911375.000000 0 0 1
-14.980407 -25.367229 21.563153 36.508609 1.037360 0.938954 0.087226 -0.041484 192381.000000 0 0 1
-16.115407 -25.130629 20.738653 36.350332 1.000586 0.963655 0.103233 -0.043651 -97764.900000 0 0 1
-16.709407 -26.448329 20.218653 37.249327 1.007340 0.997038 0.107835 -0.034234 -251801.000000 0 0 1
-15.882407 -27.019529 19.259453 36.786307 1.039387 1.019785 0.102979 -0.037245 -33571.800000 0 0 1
-16.267507 -28.390529 19.037453 37.856024 1.050473 1.043856 0.110075 -0.029301 208674.000000 0 0 1
-15.221507 -29.093729 18.164053 37.524288 1.088770 1.065506 0.113266 -0.028777 21638.000000 0 0 1
-15.219407 -28.605729 16.845253 36.519593 1.081846 1.091375 0.114933 -0.031159 -131998.000000 0 0 1
-14.116907 -28.978029 16.052553 36.009689 1.117474 1.108746 0.102236 -0.036565 76263.900000 0 0 1
-14.227607 -28.381029 14.661353 34.969457 1.106104 1.138164 0.097090 -0.027253 -18927.100000 0 0 1
-14.100207 -26.979529 14.526553 33.730277 1.089212 1.125563 0.101565 -0.030675 -186304.000000 0 0 1
-14.418407 -26.466729 13.239953 32.919213 1.071974 1.156883 0.091777 -0.029915 -256487.000000 0 0 1
-13.513107 -26.775529 12.058553 32.325559 1.103411 1.188519 0.078033 -0.025185 -183413.000000 0 0 1
-13.907007 -26.107629 10.862753 31.512102 1.081348 1.218859 0.063509 -0.007494 217085.000000 0 0 1
-13.110507 -26.598929 9.775053 31.224031 1.112848 1.252381 0.069464 -0.010719 135902.000000 0 0 1
-13.411607 -25.938229 8.408653 30.386977 1.093594 1.290418 0.073538 -0.008560 887150.000000 0 0 1
-14.637807 -26.386929 7.772153 31.159939 1.064323 1.318707 0.059624 -0.017777 858465.000000 0 0 1
-14.816107 -25.513329 6.706953 30.256077 1.044674 1.347267 0.066396 -0.019872 387553.000000 0 0 1
-15.764707 -25.971929 5.555853 30.885832 1.025253 1.389928 0.070074 -0.012838 352483.000000 0 0 1
-15.172707 -27.025529 4.820153 31.365971 1.059227 1.416510 0.067045 -0.019237 -38115.000000 0 0 1
-15.755607 -27.144929 3.551553 31.586387 1.044894 1.458119 0.081647 -0.011518 -388309.000000 0 0 1
-15.399507 -28.469229 2.823153 32.490184 1.074953 1.483794 0.079008 -0.009040 -744043.000000 0 0 1
-14.128207 -28.434229 2.293053 31.833469 1.109653 1.498701 0.063495 -0.000716 -1022790.000000 0 0 1
-13.822707 -29.651329 1.562753 32.752263 1.134573 1.523064 0.061646 -0.006810 811715.000000 0 0 1
-12.383907 -29.523029 0.932653 32.028741 1.173622 1.541673 0.045300 -0.004783 639532.000000 0 0 1
-12.188807 -28.747529 -0.227847 31.225620 1.169777 1.578093 0.054688 -0.008600 -60539.000000 0 0 1
-12.522507 -27.366729 -0.233447 30.096604 1.141656 1.578553 0.050632 -0.013887 -449300.000000 0 0 1
-12.326907 -26.692129 -1.610447 29.445134 1.138158 1.625517 0.058533 -0.020875 1103160.000000 0 0 1
-10.931007 -26.643829 -1.980447 28.866983 1.181473 1.639456 0.063600 -0.024637 639814.000000 0 0 1
-10.699807 -25.825929 -3.144347 28.130969 1.178019 1.682806 0.087577 -0.033248 665452.000000 0 0 1
-9.299707 -26.234429 -3.686147 28.076992 1.230132 1.702464 0.077057 -0.033949 321755.000000 0 0 1
-8.731907 -25.443629 -4.649547 27.299135 1.240204 1.741949 0.081497 -0.038809 367340.000000 0 0 1
-7.422407 -25.936529 -4.993547 27.435947 1.292070 1.753824 0.085161 -0.023790 987061.000000 0 0 1
-6.553807 -25.035829 -5.890547 26.541358 1.314764 1.794598 0.066522 -0.018353 -193277.000000 0 0 1
-7.071107 -24.779629 -7.169147 26.747472 1.292825 1.842145 0.080162 -0.017108 -191561.000000 0 0 1
-6.492107 -23.626529 -7.774547 25.706107 1.302634 1.878047 0.075290 -0.014602 -257849.000000 0 0 1
-6.730807 -23.401029 -9.257447 26.050187 1.290728 1.934106 0.077105 -0.015576 -394491.000000 0 0 1
-6.096007 -24.428429 -9.931147 27.065423 1.326245 1.946504 0.063658 -0.017101 -283583.000000 0 0 1
-6.213807 -24.578729 -11.292247 27.753201 1.323172 1.989833 0.052730 -0.004926 55245.200000 0 0 1
-7.439307 -25.322029 -11.901247 28.951479 1.285048 1.994430 0.050352 -0.009721 269270.000000 0 0 1
-7.542207 -25.336729 -13.313747 29.598827 1.281470 2.037345 0.047237 -0.000877 -235653.000000 0 0 1
-8.630107 -26.117329 -13.727947 30.741668 1.251656 2.033711 0.061361 -0.004518 -537112.000000 0 0 1
-8.744907 -25.962429 -15.259947 31.359004 1.245903 2.079014 0.065523 -0.013049 423312.000000 0 0 1
-7.769807 -26.660529 -16.066747 32.082613 1.287216 2.095311 0.056178 -0.020859 213857.000000 0 0 1
-6.607807 -25.880529 -16.206847 31.243028 1.320817 2.116167 0.066577 -0.019806 -491614.000000 0 0 1
-5.435907 -26.615829 -16.881847 31.983561 1.369331 2.126839 0.063568 -0.018401 -408411.000000 0 0 1
-5.641407 -26.791129 -18.279847 32.920250 1.363258 2.159492 0.093811 -0.026310 -358805.000000 0 0 1
-4.659207 -27.499129 -18.948347 33.718691 1.402959 2.167542 0.083103 -0.028385 -421281.000000 0 0 1
-25.612157 14.441568 -4.619093 29.763694 -0.513419 1.726618 0.090207 -0.029448 -64352.600000 0 0 1
-25.261677 13.125568 -4.259593 28.785014 -0.479192 1.719321 0.092740 -0.018228 490033.000000 0 0 1
-24.017307 12.726468 -4.813293 27.603656 -0.487271 1.746064 0.103659 -0.018624 -298965.000000 0 0 1
-23.967807 11.217568 -4.632393 26.865381 -0.437743 1.744092 0.114965 -0.027591 106415.000000 0 0 1
-24.658007 10.357268 -5.531893 27.311026 -0.397659 1.774759 0.120785 -0.024406 898840.000000 0 0 1
-26.084637 10.484668 -5.571793 28.659753 -0.382185 1.766454 0.128738 -0.022591 546249.000000 0 0 1
-26.725997 9.769268 -6.824893 29.262548 -0.350446 1.806194 0.146351 -0.022036 98522.800000 0 0 1
-26.552097 10.575868 -7.978093 29.673436 -0.379045 1.843009 0.172912 -0.014217 -67650.700000 0 0 1
-26.572757 9.846368 -9.158893 29.781667 -0.354858 1.883397 0.156907 -0.019974 -58306.200000 0 0 1
-26.933977 10.728068 -10.397893 30.800110 -0.379048 1.915155 0.127102 -0.020194 -51277.000000 0 0 1
-25.952517 11.676668 -10.676293 30.395081 -0.422791 1.929703 0.118479 -0.015037 149744.000000 0 0 1
-26.474937 12.471868 -11.715893 31.523514 -0.440247 1.951588 0.111089 -0.018844 442964.000000 0 0 1
-25.489307 13.552868 -12.307693 31.382548 -0.488691 1.973800 0.082224 -0.011138 298327.000000 0 0 1
-25.376437 14.673368 -11.498493 31.487881 -0.524257 1.944614 0.082104 -0.008681 -270193.000000 0 0 1
-24.419807 15.530068 -12.021793 31.337414 -0.566443 1.964514 0.058216 -0.006459 -293426.000000 0 0 1
-24.365407 16.971668 -11.469993 31.831923 -0.608405 1.939418 0.050087 -0.008693 -247344.000000 0 0 1
-23.595107 17.085568 -10.312293 30.902898 -0.626728 1.911022 0.047469 -0.002219 -237499.000000 0 0 1
-23.672807 18.407368 -9.838693 31.559989 -0.660916 1.887826 0.018627 0.002782 -4902.580000 0 0 1
-22.668307 18.834368 -8.752393 30.743942 -0.693281 1.859476 0.021367 0.000165 -205361.000000 0 0 1
-22.879707 18.194168 -7.512493 30.181887 -0.671813 1.822348 0.038465 -0.008445 55118.500000 0 0 1
-23.866907 18.720268 -6.649793 31.053139 -0.665132 1.786610 0.031938 -0.009504 -116487.000000 0 0 1
-23.956507 17.987068 -5.285993 30.420233 -0.644027 1.745449 0.044468 -0.006958 -257351.000000 0 0 1
-22.906507 18.203068 -4.393193 29.586482 -0.671481 1.719834 0.053915 -0.021559 -320860.000000 0 0 1
-23.197007 17.627568 -3.150093 29.304528 -0.649811 1.678500 0.052109 -0.019673 441746.000000 0 0 1
-21.965907 17.413568 -2.185393 28.115999 -0.670307 1.648603 0.053483 -0.032946 348933.000000 0 0 1
-21.396707 18.653968 -1.687593 28.436554 -0.717023 1.630177 0.057837 -0.030919 376524.000000 0 0 1
-20.443407 18.424868 -0.668293 27.529172 -0.733512 1.595075 0.102678 -0.040926 193361.000000 0 0 1
-19.670707 19.709168 -0.253993 27.846949 -0.786375 1.579917 0.085283 -0.036748 -224896.000000 0 0 1
-20.382007 20.351068 0.734807 28.812014 -0.784639 1.545290 0.069775 -0.027449 56118.200000 0 0 1
-20.264207 21.748368 0.619807 29.732369 -0.820710 1.549949 0.068687 -0.022686 -23074.000000 0 0 1
-21.244707 22.389568 1.604707 30.906398 -0.811630 1.518851 0.050073 -0.018366 7752.270000 0 0 1
-20.956907 21.980568 2.962707 30.514177 -0.809234 1.473550 0.066701 -0.015782 342664.000000 0 0 1
-22.043007 22.441468 3.731007 31.677028 -0.794355 1.452740 0.055909 -0.025461 -210472.000000 0 0 1
-21.974807 21.964868 5.248207 31.510177 -0.785172 1.403461 0.060104 -0.021740 -92690.200000 0 0 1
-21.026007 22.710068 6.003507 31.525899 -0.823884 1.379195 0.052884 -0.009947 451054.000000 0 0 1
-20.468607 22.071768 7.170807 30.944261 -0.823066 1.336937 0.044297 -0.004302 41627.700000 0 0 1
-21.395107 21.840368 8.379407 31.701211 -0.795696 1.303293 0.039124 -0.016643 -330500.000000 0 0 1
-22.333407 20.750168 8.357107 31.609995 -0.748667 1.303233 0.048645 -0.017412 809073.000000 0 0 1
-22.796907 20.298068 9.608507 32.000531 -0.727479 1.265830 0.055858 -0.019619 176071.000000 0 0 1
-23.498207 21.341068 10.561707 33.453798 -0.737327 1.249591 0.049036 -0.016824 -38285.300000 0 0 1
-24.764607 21.872168 10.140807 34.561734 -0.723457 1.273003 0.062518 -0.016232 768927.000000 0 0 1
-25.166737 22.783168 11.128307 35.725014 -0.735729 1.254026 0.063078 -0.008597 474536.000000 0 0 1
-26.591067 23.369468 10.821707 37.017918 -0.721004 1.274127 0.076250 -0.015914 259548.000000 0 0 1
-27.166117 23.833668 12.003007 38.080360 -0.720149 1.250127 0.072810 -0.016665 -111899.000000 0 0 1
-27.208217 25.258968 12.039707 39.028927 -0.748263 1.257200 0.068125 -0.012817 47124.300000 0 0 1
-27.699507 25.890668 13.404807 40.215398 -0.751658 1.230968 0.081502 -0.014892 217893.000000 0 0 1
-26.843547 25.596368 14.474307 39.815269 -0.761620 1.198735 0.056151 -0.018758 134948.000000 0 0 1
-27.441237 26.117868 15.664107 40.994253 -0.760695 1.178723 0.065335 -0.019683 548387.000000 0 0 1
-26.394527 26.260568 16.801207 40.848122 -0.782854 1.146906 0.057998 -0.029697 190997.000000 0 0 1
-25.819077 25.083468 17.357707 39.963673 -0.770948 1.121494 0.070660 -0.036268 373195.000000 0 0 1
-24.761807 25.382868 18.269707 39.890090 -0.797783 1.095051 0.061844 -0.034420 182609.000000 0 0 1
-24.217707 24.050168 18.821007 38.976124 -0.781927 1.066849 0.077188 -0.036669 493917.000000 0 0 1
-22.936107 24.199768 19.463107 38.607076 -0.812201 1.042418 0.081152 -0.046885 976085.000000 0 0 1
-22.482507 23.002968 20.013007 37.882980 -0.796840 1.014217 0.090562 -0.049125 288088.000000 0 0 1
-20.953107 23.028868 20.361707 37.201621 -0.832559 0.991621 0.073112 -0.050094 35811.200000 0 0 1
-20.259507 22.878368 19.157807 36.067838 -0.846033 1.010827 0.069082 -0.044655 -8710.090000 0 0 1
-18.868907 22.632568 19.315207 35.232741 -0.875838 0.990565 0.058392 -0.041830 312891.000000 0 0 1
-18.510607 21.116268 19.388407 34.124034 -0.851059 0.966510 0.050357 -0.027865 -527643.000000 0 0 1
-18.964607 20.465468 20.544807 34.649399 -0.823444 0.936099 0.070845 -0.028041 -195251.000000 0 0 1
-18.207907 20.702968 21.700307 35.086238 -0.849433 0.903983 0.054713 -0.020919 -597738.000000 0 0 1
-18.982807 20.443968 22.963007 36.133122 -0.822441 0.882126 0.046972 -0.021279 -67776.600000 0 0 1
-20.217207 21.140368 23.042807 37.237368 -0.807716 0.903571 0.073837 -0.033864 229753.000000 0 0 1
-20.804507 20.999968 24.308407 38.271724 -0.790074 0.882589 0.074492 -0.028594 312594.000000 0 0 1
-22.087607 21.842168 24.553007 39.595364 -0.779811 0.901929 0.080277 -0.036490 -38166.700000 0 0 1
-21.791707 23.206768 24.759407 40.329404 -0.816835 0.909767 0.088031 -0.041498 475707.000000 0 0 1
-22.918307 24.068268 24.885407 41.518837 -0.809868 0.928075 0.094311 -0.041094 218145.000000 0 0 1
-23.742607 24.404568 23.618107 41.438018 -0.799146 0.964336 0.080411 -0.043130 374990.000000 0 0 1
-24.845007 23.532468 23.358007 41.432451 -0.758274 0.971864 0.080972 -0.046170 551592.000000 0 0 1
-25.516247 23.899368 22.154807 41.389542 -0.752690 1.005962 0.068863 -0.043908 409719.000000 0 0 1
-26.759107 23.077168 21.719807 41.477169 -0.711651 1.019658 0.084662 -0.042151 -219961.000000 0 0 1
-27.868607 23.142668 22.529807 42.659519 -0.693017 1.014398 0.092712 -0.046942 -246835.000000 0 0 1
-28.957187 22.374868 22.014307 42.705774 -0.657864 1.029219 0.094753 -0.044509 1208380.000000 0 0 1
-30.403057 22.759068 22.481707 44.133301 -0.642591 1.036304 0.125358 -0.034829 -230420.000000 0 0 1
-30.837907 23.951168 21.844207 44.741529 -0.660358 1.060735 0.111940 -0.042762 239269.000000 0 0 1
-32.234597 24.144568 21.702007 45.749389 -0.642878 1.076551 0.101429 -0.038815 580436.000000 0 0 1
-32.955587 23.097568 20.727707 45.268159 -0.611309 1.095179 0.106496 -0.048758 -882786.000000 0 0 1
-32.883877 21.751368 21.127107 44.730594 -0.584389 1.078876 0.100318 -0.045117 551820.000000 0 0 1
-33.688217 20.861268 20.292207 44.518111 -0.554450 1.097504 0.119729 -0.048530 1418120.000000 0 0 1
-35.239773 20.940568 20.564807 45.861316 -0.536167 1.105807 0.115900 -0.046351 437823.000000 0 0 1
-35.930823 19.906068 19.938907 45.660000 -0.505917 1.118889 0.123059 -0.031879 -435269.000000 0 0 1
36.029421 19.937968 20.187407 45.860366 0.505435 1.114983 0.111658 -0.032108 -94391.300000 0 0 1
35.281581 19.348068 19.010307 44.503140 0.501606 1.129438 0.141794 -0.038764 -448602.000000 0 0 1
35.511711 17.934568 18.972507 44.075916 0.467665 1.125804 0.158289 -0.036560 196334.000000 0 0 1
34.862071 17.340868 17.867707 42.840690 0.461576 1.140574 0.173100 -0.050012 -182920.000000 0 0 1
35.004711 15.816968 17.898807 42.377749 0.424393 1.134745 0.179904 -0.064290 -170348.000000 0 0 1
34.237561 15.141168 16.920407 41.082426 0.416381 1.146297 0.206489 -0.055445 -21726.200000 0 0 1
34.482531 13.740968 16.877207 40.776210 0.379205 1.144064 0.161716 -0.044429 303372.000000 0 0 1
33.561071 13.006968 15.848407 39.328091 0.369737 1.156026 0.157931 -0.055704 191723.000000 0 0 1
33.891811 13.310168 14.503807 39.194080 0.374219 1.191732 0.161941 -0.054105 15532.000000 0 0 1
33.093471 12.516468 13.665507 37.928695 0.361587 1.202213 0.166488 -0.051432 -328343.000000 0 0 1
33.292741 12.839368 12.158607 37.697317 0.368075 1.242393 0.174222 -0.055104 -1141300.000000 0 0 1
34.474591 12.523768 11.540707 38.451660 0.348452 1.265962 0.157938 -0.049556 -893417.000000 0 0 1
34.513601 12.641468 10.102907 38.119078 0.351099 1.302556 0.135893 -0.039412 -130750.000000 0 0 1
35.993101 12.506768 9.685507 39.315794 0.334425 1.321882 0.114862 -0.024177 -608378.000000 0 0 1
36.634081 11.300268 10.047407 39.632088 0.299203 1.314482 0.107584 -0.020476 409289.000000 0 0 1
-35.336012 11.224568 9.709707 38.326272 -0.307572 1.314661 0.106155 -0.015724 242370.000000 0 0 1
-34.885237 11.138768 8.227407 37.533214 -0.309066 1.349798 0.113878 -0.031911 -629838.000000 0 0 1
-35.303252 12.254268 7.449707 38.104919 -0.334102 1.374024 0.102366 -0.034803 -32516.900000 0 0 1
-34.908466 12.070568 6.105407 37.437623 -0.332908 1.406983 0.115593 -0.044481 -279635.000000 0 0 1
-35.717942 12.840668 5.049207 38.290321 -0.345115 1.438545 0.125105 -0.039564 -207008.000000 0 0 1
36.325261 12.294368 4.873807 38.657859 0.326351 1.444384 0.116685 -0.041142 -223709.000000 0 0 1
35.285341 13.194168 4.812807 37.977684 0.357830 1.443727 0.099785 -0.037048 -393969.000000 0 0 1
34.977581 14.023068 6.162507 38.184475 0.381296 1.408700 0.114633 -0.032097 -1714490.000000 0 0 1
34.052951 15.023768 5.807407 37.670188 0.415502 1.416014 0.110334 -0.028169 58682.200000 0 0 1
33.281881 15.489168 6.894807 37.351524 0.435581 1.385139 0.107457 -0.030913 665731.000000 0 0 1
32.028411 14.588668 7.181507 35.919666 0.427411 1.369507 0.115725 -0.045461 -235824.000000 0 0 1
32.384541 13.403468 7.914307 35.931153 0.392418 1.348712 0.128996 -0.039972 -451778.000000 0 0 1
31.399001 12.425368 7.915807 34.683527 0.376816 1.340537 0.136810 -0.030913 -579410.000000 0 0 1
31.418451 11.452668 6.767007 34.118544 0.349552 1.371134 0.138473 -0.029481 -294902.000000 0 0 1
30.900851 11.945068 5.565907 33.593550 0.368868 1.404345 0.143138 -0.038947 184439.000000 0 0 1
31.068311 10.900868 4.588507 33.243395 0.337448 1.432327 0.146104 -0.037716 -286116.000000 0 0 1
30.270241 11.214368 3.336807 32.452794 0.354798 1.467794 0.115987 -0.043640 -1064450.000000 0 0 1
28.908631 11.003168 3.431207 31.121566 0.363688 1.460320 0.101687 -0.040991 -905458.000000 0 0 1
28.349691 11.352668 2.193607 30.616988 0.380895 1.499088 0.118742 -0.042278 62269.800000 0 0 1
26.845221 11.003868 2.052707 29.085471 0.389012 1.500163 0.153220 -0.029914 189018.000000 0 0 1
26.618721 9.624468 1.992307 28.375271 0.346943 1.500526 0.108379 -0.027629 635617.000000 0 0 1
25.207521 9.368568 2.033607 26.968959 0.355837 1.495319 0.115597 -0.027396 456542.000000 0 0 1
24.932021 7.853368 2.152607 26.228130 0.305153 1.488631 0.114944 -0.022719 104667.000000 0 0 1
25.417621 7.319268 3.397307 26.667749 0.280375 1.443055 0.127862 -0.016605 1495450.000000 0 0 1
26.847021 7.062868 3.317807 27.958085 0.257249 1.451845 0.155121 -0.026099 725323.000000 0 0 1
27.481321 6.631568 4.617607 28.644773 0.236785 1.408887 0.148684 -0.027816 -90286.400000 0 0 1
28.808391 6.140468 4.476007 29.793681 0.210006 1.419992 0.175707 -0.037985 715068.000000 0 0 1
29.443171 5.775168 5.724507 30.545423 0.193687 1.382272 0.167411 -0.019927 57714.600000 0 0 1
30.979641 5.773668 5.658707 32.017095 0.184256 1.393123 0.170006 -0.030900 -253328.000000 0 0 1
31.468811 7.049068 5.879207 32.780185 0.220364 1.390468 0.159881 -0.036570 -950463.000000 0 0 1
32.769941 7.012468 6.358507 34.109740 0.210811 1.383286 0.133611 -0.023992 -604853.000000 0 0 1
33.183851 8.110968 7.287407 34.929387 0.239725 1.360620 0.114862 -0.026103 88761.000000 0 0 1
32.599981 8.010468 8.586607 34.650486 0.240946 1.320381 0.138651 -0.029407 338659.000000 0 0 1
33.264151 8.928668 9.434507 35.710430 0.262236 1.303427 0.123330 -0.027681 62210.000000 0 0 1
32.716921 8.985468 10.894307 35.634555 0.268034 1.260099 0.139361 -0.036073 -104076.000000 0 0 1
31.424891 9.544468 11.062807 34.655539 0.294869 1.245888 0.132980 -0.037094 291394.000000 0 0 1
30.893221 9.332868 12.330907 34.547718 0.293383 1.205823 0.110259 -0.042330 -504360.000000 0 0 1
29.497161 9.909268 12.601307 33.571849 0.324094 1.186018 0.090885 -0.048835 -460023.000000 0 0 1
29.351291 11.325668 12.604307 33.891557 0.368263 1.189740 0.108931 -0.055299 127639.000000 0 0 1
29.417321 12.049868 11.345807 33.753599 0.388770 1.227985 0.107706 -0.050896 -375731.000000 0 0 1
28.164921 11.971368 10.452607 32.339348 0.401909 1.241670 0.074600 -0.041981 -118899.000000 0 0 1
28.206021 12.899968 9.396607 32.408102 0.428948 1.276626 0.063189 -0.027729 135403.000000 0 0 1
26.935121 13.043768 8.788707 31.191057 0.450982 1.285158 0.066173 -0.025341 126326.000000 0 0 1
26.919621 14.129168 7.749207 31.374346 0.483341 1.321222 0.071199 -0.028844 -7407.380000 0 0 1
26.797821 15.392068 8.327907 32.006140 0.521366 1.307570 0.067947 -0.021125 213513.000000 0 0 1
26.900921 16.424068 7.379807 32.370838 0.548133 1.340797 0.062100 -0.015962 -579554.000000 0 0 1
26.422421 17.778568 8.033107 32.844370 0.592277 1.323709 0.073063 -0.023540 406478.000000 0 0 1
25.044121 18.110668 7.938607 31.909651 0.626095 1.319372 0.073909 -0.019709 631758.000000 0 0 1
24.103221 17.330468 8.667507 30.926301 0.623371 1.286728 0.085342 -0.022544 -243625.000000 0 0 1
22.734821 18.014468 8.801107 30.312582 0.670073 1.276209 0.095728 -0.027958 -431360.000000 0 0 1
22.029721 18.232068 7.625807 29.595099 0.691352 1.310185 0.101820 -0.026862 -472086.000000 0 0 1
21.142521 19.277068 7.742107 29.640374 0.739279 1.306530 0.133707 -0.030599 -516488.000000 0 0 1
20.485021 19.686168 6.389207 29.120496 0.765515 1.349591 0.119207 -0.029587 -183715.000000 0 0 1
21.338021 20.238068 5.415007 29.903392 0.758948 1.388708 0.082866 -0.020442 -152464.000000 0 0 1
20.684921 21.188568 4.617007 29.968953 0.797425 1.416121 0.091136 -0.027201 -217390.000000 0 0 1
18.003593 16.981168 32.745740 41.045986 0.756182 0.647189 0.075417 -0.015868 171332.000000 0 0 1
17.296293 17.936768 31.930813 40.502670 0.803574 0.662652 0.073846 -0.016470 73941.200000 0 0 1
16.531193 17.241068 31.019393 39.150192 0.806415 0.656198 0.082372 -0.018528 -117586.000000 0 0 1
16.045093 18.124968 29.800313 38.392944 0.846192 0.682192 0.092004 -0.025171 1199100.000000 0 0 1
17.126493 18.381368 28.836153 38.245460 0.820724 0.716703 0.096880 -0.019967 921805.000000 0 0 1
16.613193 18.629368 27.551243 37.176909 0.842544 0.736112 0.092533 -0.024768 -604732.000000 0 0 1
17.667693 18.837568 26.498953 37.002647 0.817434 0.772545 0.083931 -0.019417 -601554.000000 0 0 1
18.517693 19.936368 26.684413 38.110650 0.822274 0.795143 0.084210 -0.019390 154552.000000 0 0 1
19.440993 20.216368 25.665993 38.018377 0.804948 0.829704 0.072537 -0.016423 101811.000000 0 0 1
20.372793 21.414168 25.937463 39.323902 0.810314 0.850530 0.091291 -0.018526 49547.500000 0 0 1
19.622393 22.608968 25.939113 39.611126 0.856000 0.856820 0.085448 -0.023001 286934.000000 0 0 1
20.469393 23.676368 26.245853 40.846190 0.857916 0.872970 0.092897 -0.025189 -56715.500000 0 0 1
19.700393 25.033968 26.289683 41.303178 0.904066 0.880838 0.103852 -0.032781 194769.000000 0 0 1
19.328593 25.367268 24.966053 40.501810 0.919691 0.906611 0.098308 -0.030874 410943.000000 0 0 1
18.499193 26.537368 24.863983 40.800364 0.962019 0.915485 0.097276 -0.036055 197121.000000 0 0 1
18.657793 27.269268 23.517183 40.555938 0.970749 0.952227 0.093211 -0.034799 -433177.000000 0 0 1
19.896193 27.889068 23.379583 41.476060 0.951130 0.971952 0.104075 -0.034396 -473733.000000 0 0 1
19.724193 29.184768 22.787653 41.953207 0.976471 0.996590 0.092019 -0.021841 151968.000000 0 0 1
21.038793 29.989068 22.587053 43.036612 0.959032 1.018277 0.098542 -0.020326 -212141.000000 0 0 1
21.701793 29.543768 21.471653 42.483337 0.937248 1.040935 0.088738 -0.020744 -497209.000000 0 0 1
22.878293 30.311268 21.298753 43.541086 0.924244 1.059665 0.094086 -0.039043 286917.000000 0 0 1
23.347293 30.488568 19.807453 43.208611 0.917277 1.094586 0.092880 -0.035667 296843.000000 0 0 1
22.480293 31.384468 19.119253 43.080091 0.949223 1.110954 0.074016 -0.030668 353340.000000 0 0 1
22.567493 31.278968 17.735953 42.452675 0.945792 1.139794 0.083029 -0.018753 -91660.700000 0 0 1
22.037893 32.556468 17.066853 42.858719 0.975734 1.161230 0.100055 -0.025215 -217121.000000 0 0 1
22.955193 33.621668 17.291953 44.230861 0.971742 1.169135 0.086619 -0.027625 665584.000000 0 0 1
23.514393 -34.077929 16.083153 44.417336 -0.966801 1.200285 0.086885 -0.032148 232385.000000 0 0 1
24.479193 33.375668 15.129753 44.068986 0.937975 1.220347 0.075614 -0.032006 -100265.000000 0 0 1
23.880093 32.432068 14.271053 42.728923 0.936114 1.230262 0.088571 -0.033041 -197062.000000 0 0 1
23.154293 32.980868 13.222053 42.410867 0.958694 1.253751 0.087094 -0.035813 -113032.000000 0 0 1
22.381293 31.991768 12.352353 40.950899 0.960342 1.264386 0.081516 -0.036901 104312.000000 0 0 1
23.347693 31.297768 11.560653 40.722399 0.929869 1.282948 0.087881 -0.052735 200117.000000 0 0 1
22.851393 30.215468 10.798253 39.392422 0.923287 1.293122 0.074704 -0.047855 -684980.000000 0 0 1
23.894493 29.721368 9.731953 39.357559 0.893652 1.320934 0.070519 -0.040727 847501.000000 0 0 1
25.070593 29.103368 10.257153 39.758645 0.859702 1.309860 0.077792 -0.027383 300451.000000 0 0 1
25.979493 30.042568 10.773453 41.152852 0.857798 1.305919 0.074349 -0.035493 -734656.000000 0 0 1
27.338893 29.398768 11.232053 41.687668 0.821687 1.297992 0.077658 -0.036067 613995.000000 0 0 1
27.355093 28.542368 12.364253 41.422731 0.806635 1.267687 0.081122 -0.026936 -180382.000000 0 0 1
28.618493 28.480868 12.991353 42.414069 0.782988 1.259494 0.058754 -0.010140 144872.000000 0 0 1
28.635593 27.404768 14.127553 42.078572 0.763439 1.228403 0.041713 -0.015156 -779591.000000 0 0 1
29.845193 27.544068 14.760053 43.211924 0.745323 1.222206 0.036157 -0.029706 -906725.000000 0 0 1
30.028093 26.475668 15.605053 42.967023 0.722610 1.199110 0.048668 -0.025274 276219.000000 0 0 1
31.240393 26.623768 16.553853 44.258527 0.705783 1.187450 0.051573 -0.038369 22516.500000 0 0 1
32.514493 26.734868 15.999853 45.032663 0.688158 1.207567 0.070878 -0.026509 -409439.000000 0 0 1
33.572593 26.700668 16.919153 46.111847 0.671876 1.195105 0.059354 -0.027999 366543.000000 0 0 1
34.973493 26.671568 16.253253 46.890148 0.651531 1.216827 0.078722 -0.033459 130180.000000 0 0 1
35.256693 27.877268 15.636253 47.588537 0.669041 1.236005 0.075810 -0.026349 274244.000000 0 0 1
36.671593 28.102168 15.568653 48.753672 0.653864 1.245771 0.098260 -0.028456 942117.000000 0 0 1
-36.383036 29.300568 14.672053 48.964454 -0.677986 1.266474 0.067299 -0.026099 234009.000000 0 0 1
36.469793 30.562368 15.216653 49.956488 0.697497 1.261280 0.055004 -0.018624 82894.500000 0 0 1
36.615393 31.681068 14.316253 50.490912 0.713275 1.283311 0.034080 0.000764 -170773.000000 0 0 1
35.623293 32.836768 14.511753 50.575323 0.744718 1.279772 0.007684 -0.000580 -611633.000000 0 0 1
35.343793 33.659768 13.408853 50.615818 0.760998 1.302681 -0.024316 0.007087 1431190.000000 0 0 1
34.095693 -33.817929 13.434353 49.866326 -0.781308 1.298019 -0.026056 0.012698 2041500.000000 0 0 1
32.745093 33.646868 13.296553 48.797041 0.798980 1.294820 0.008041 0.001966 84053.700000 0 0 1
32.400393 32.814768 14.389653 48.307935 0.791752 1.268332 0.006741 -0.016124 221977.000000 0 0 1
31.541393 31.746168 13.969353 46.880929 0.788634 1.268226 0.029730 -0.013461 -169519.000000 0 0 1
31.100593 30.811368 15.068553 46.299553 0.780727 1.239300 0.055991 -0.020304 -139354.000000 0 0 1
30.087193 31.401468 15.852753 46.288240 0.806769 1.221242 0.056969 -0.026191 -9382.580000 0 0 1
29.523993 30.513768 16.764753 45.648802 0.801883 1.194740 0.058970 -0.022482 3537.580000 0 0 1
28.417693 31.100468 17.680053 45.687949 0.830443 1.173449 0.055950 -0.027424 231837.000000 0 0 1
27.981193 30.193368 18.717253 45.220816 0.823406 1.144054 0.042046 -0.020477 98836.500000 0 0 1
28.859393 30.214268 19.840653 46.253844 0.808329 1.127465 0.049933 -0.028128 177741.000000 0 0 1
28.746593 28.934968 20.662453 45.722379 0.788664 1.101890 0.058760 -0.026600 -771415.000000 0 0 1
27.534793 28.676268 21.259553 45.082832 0.805702 1.079730 0.067076 -0.032033 -943560.000000 0 0 1
27.631593 27.661068 22.221253 44.971365 0.785931 1.053974 0.053480 -0.026510 109482.000000 0 0 1
26.567993 27.812668 23.334133 44.987604 0.808282 1.025491 0.060670 -0.028334 491245.000000 0 0 1
25.220293 27.700368 22.877053 43.894568 0.832228 1.022561 0.083800 -0.025156 1114650.000000 0 0 1
24.166193 27.764768 23.858863 43.864936 0.854583 0.995699 0.092140 -0.026193 863005.000000 0 0 1
23.885893 26.442068 24.623523 43.313240 0.836145 0.966116 0.092546 -0.033113 192551.000000 0 0 1
25.022393 26.099568 25.441663 44.210698 0.806466 0.957625 0.062360 -0.031879 517547.000000 0 0 1
24.735393 25.088068 26.392383 44.020549 0.792477 0.927861 0.082177 -0.035864 -613407.000000 0 0 1
26.048393 24.683368 27.109173 44.974378 0.758498 0.923829 0.080985 -0.038422 148824.000000 0 0 1
26.547793 25.684868 27.935573 46.313000 0.768879 0.923301 0.110118 -0.040309 -17051.300000 0 0 1
27.196793 26.716968 27.248183 46.860702 0.776499 0.950260 0.070632 -0.022320 -1431490.000000 0 0 1
27.439693 27.961068 28.039333 48.176366 0.794809 0.949593 0.040634 -0.021540 325138.000000 0 0 1
28.344593 27.748468 29.165463 49.234314 0.774771 0.936786 0.050284 -0.018354 690900.000000 0 0 1
28.479693 28.965268 29.858203 50.414204 0.793851 0.936938 0.052353 -0.020257 683226.000000 0 0 1
29.971993 29.367968 30.120903 51.653332 0.775219 0.948213 0.037365 -0.015216 637350.000000 0 0 1
30.691093 29.610568 28.948073 51.543379 0.767481 0.974447 0.011987 -0.012466 -1224930.000000 0 0 1
32.050393 29.713868 29.169683 52.545333 0.747586 0.982273 0.040274 -0.014457 -625106.000000 0 0 1
32.834393 30.259168 27.953423 52.679298 0.744605 1.011448 0.033355 -0.007188 -97458.600000 0 0 1
32.489793 31.555368 27.618453 53.048156 0.770809 1.023208 0.033000 -0.011519 279148.000000 0 0 1
33.184993 31.859968 26.420423 53.050354 0.765030 1.049476 0.038174 -0.014886 77630.200000 0 0 1
32.961093 33.353168 26.019693 53.627343 0.791310 1.064211 0.031998 -0.022482 -13641.600000 0 0 1
33.572193 -33.985629 26.951873 54.849964 -0.791518 1.057129 0.052036 -0.021885 378230.000000 0 0 1
33.277793 -32.626329 26.601983 53.661479 -0.775513 1.052113 0.051103 -0.021501 -205898.000000 0 0 1
34.304693 -31.585229 27.095743 53.931604 -0.744149 1.044413 0.054145 -0.022262 -11.458500 0 0 1
34.175993 -31.462929 28.473223 54.485217 -0.744089 1.020915 0.064261 -0.028429 341119.000000 0 0 1
35.231193 -30.667529 28.965583 54.961253 -0.716256 1.015708 0.068518 -0.033770 -300820.000000 0 0 1
35.122793 -30.352429 30.476853 55.531245 -0.712669 0.989840 0.069637 -0.030975 -278227.000000 0 0 1
35.275793 -31.514029 31.312923 56.727548 -0.729135 0.986050 0.074607 -0.026940 -57307.000000 0 0 1
34.156793 -32.356629 31.394853 56.562132 -0.758340 0.982372 0.065864 -0.032732 -540335.000000 0 0 1
34.214093 -33.392829 32.539922 57.831927 -0.773251 0.973192 0.078101 -0.027171 -762539.000000 0 0 1
33.894493 -32.826429 33.809884 58.047561 -0.769392 0.949055 0.058956 -0.029868 212277.000000 0 0 1
33.838693 -33.729629 -33.311193 58.244146 -0.783784 2.179645 0.062897 -0.035101 -275843.000000 0 0 1
32.781493 33.418868 -33.241063 57.414417 0.795026 2.188258 0.053825 -0.034168 -695498.000000 0 0 1
33.030593 32.401668 34.061936 57.455232 0.775787 0.936212 0.069644 -0.036110 72623.800000 0 0 1
32.188693 31.275168 -34.003663 56.307168 0.771005 2.219176 0.081765 -0.028016 -228959.000000 0 0 1
32.466093 30.193568 33.214851 55.397879 0.749146 0.927834 0.064575 -0.021060 -973531.000000 0 0 1
33.712193 29.621568 33.320529 55.894605 0.720899 0.932122 0.072290 -0.024712 -938960.000000 0 0 1
33.996193 28.756868 32.260803 54.985980 0.702100 0.943807 0.057182 -0.020377 -967402.000000 0 0 1
35.372293 28.158368 32.159743 55.482807 0.672332 0.952516 0.052790 -0.016729 -932050.000000 0 0 1
35.652793 27.031968 32.992952 55.591221 0.648729 0.935405 0.047956 -0.008188 753405.000000 0 0 1
-36.346236 26.576568 32.834797 55.726894 -0.631364 0.940717 0.024355 -0.002864 597351.000000 0 0 1
-35.988736 25.273868 33.518696 55.294308 -0.612249 0.919539 0.004004 -0.000239 -120824.000000 0 0 1
-36.662436 24.136768 33.064404 54.954278 -0.582224 0.925205 0.012068 0.000038 -11240.200000 0 0 1
-36.499836 23.028368 33.971335 54.923541 -0.562843 0.903938 0.000107 -0.008946 108250.000000 0 0 1
36.230293 21.762668 33.355650 53.840944 0.540916 0.902663 0.006337 -0.015387 -86209.700000 0 0 1
-36.250636 21.154068 32.424199 53.037080 -0.528236 0.913031 0.013770 -0.009836 193133.000000 0 0 1
36.337593 20.360968 31.570963 52.265815 0.510738 0.922228 0.011044 -0.001707 -185424.000000 0 0 1
-36.133036 19.587868 30.582653 51.230650 -0.496761 0.931090 0.010324 -0.008854 -55470.300000 0 0 1
-35.571036 20.432668 29.577103 50.572696 -0.521397 0.946109 0.015087 -0.006878 136183.000000 0 0 1
-34.519736 19.753468 28.881723 49.152473 -0.519755 0.942714 0.041984 -0.010364 159214.000000 0 0 1
-34.915136 18.712568 27.788053 48.388044 -0.491988 0.959078 0.059777 -0.009439 -716157.000000 0 0 1
-35.360536 17.508468 28.345323 48.583653 -0.459753 0.947847 0.049171 -0.006306 302323.000000 0 0 1
-35.952136 16.705668 27.310933 48.140653 -0.434981 0.967554 0.057629 -0.013408 122210.000000 0 0 1
-36.637536 15.400268 27.837843 48.522395 -0.397918 0.959767 0.038329 -0.016116 55829.800000 0 0 1
-35.690336 14.445168 28.313273 47.792305 -0.384583 0.936733 0.051202 -0.012958 259943.000000 0 0 1
-36.235736 13.313968 28.917383 48.233861 -0.352114 0.927889 0.060782 -0.017946 -94270.400000 0 0 1
-35.098336 12.361368 29.382373 47.413294 -0.338627 0.902426 0.069617 -0.014225 96780.600000 0 0 1
-34.431736 12.805568 30.571413 47.792660 -0.356060 0.876731 0.068195 -0.005775 327397.000000 0 0 1
-33.519236 11.850268 31.035763 47.193078 -0.339822 0.853123 0.063577 -0.009513 258354.000000 0 0 1
-32.028936 12.089868 30.652703 45.952213 -0.360932 0.840546 0.066912 -0.004938 -733856.000000 0 0 1
-31.640136 11.820068 29.288973 44.706333 -0.357524 0.856426 0.068919 -0.012304 303548.000000 0 0 1
-30.366436 12.382668 29.052083 43.811807 -0.387191 0.845829 0.084103 -0.012200 840590.000000 0 0 1
-29.081836 11.603568 29.562643 43.062116 -0.379642 0.814116 0.083720 -0.012398 243531.000000 0 0 1
-28.723636 10.550668 28.686083 41.943477 -0.352018 0.817671 0.076039 -0.021004 -127085.000000 0 0 1
-27.619836 9.887768 29.261503 41.434996 -0.343780 0.786676 0.082845 -0.016189 -344937.000000 0 0 1
-27.216636 8.668068 28.347303 40.242394 -0.308327 0.789199 0.067639 -0.017193 323622.000000 0 0 1
-28.010836 7.467368 28.428173 40.602088 -0.260529 0.795167 0.069594 -0.021765 1378070.000000 0 0 1
-29.397336 7.653368 28.027013 41.331476 -0.254689 0.825617 0.073503 -0.015384 662143.000000 0 0 1
-30.150336 6.323168 28.103673 41.699420 -0.206725 0.831242 0.069013 -0.009593 -524986.000000 0 0 1
-30.686736 6.047868 29.351123 42.892201 -0.194590 0.817153 0.074806 -0.009793 -52324.100000 0 0 1
-31.316136 4.783368 29.283283 43.140372 -0.151573 0.824682 0.081681 -0.010386 -198237.000000 0 0 1
-32.089536 4.360668 30.559393 44.526736 -0.135063 0.814385 0.072412 -0.012952 845813.000000 0 0 1
-33.321436 5.080568 30.797733 45.657756 -0.151306 0.830462 0.079896 -0.016898 359715.000000 0 0 1
-33.914036 4.726368 31.994683 46.863207 -0.138471 0.819311 0.104459 -0.024860 855287.000000 0 0 1
-35.460436 5.019468 32.039403 48.053730 -0.140617 0.840969 0.086369 -0.030973 936873.000000 0 0 1
-35.709236 6.368668 32.396338 48.633653 -0.176492 0.841788 0.081086 -0.032738 -342946.000000 0 0 1
36.259893 6.620968 32.265418 48.986470 0.180608 0.851760 0.089256 -0.027332 -45480.400000 0 0 1
35.897293 7.983168 32.877589 49.328313 0.218828 0.841285 0.073729 -0.020631 -231455.000000 0 0 1
35.865693 8.117368 -33.936853 50.039480 0.222577 2.316109 0.082715 -0.023504 169635.000000 0 0 1
35.909093 9.431868 -33.485043 49.996711 0.256858 2.304662 0.078348 -0.011354 -200547.000000 0 0 1
35.860793 9.594068 -31.964913 48.987736 0.261414 2.281686 0.073391 -0.006852 1057520.000000 0 0 1
34.634793 9.023468 -31.400073 47.612566 0.254866 2.290938 0.070667 -0.006281 1405430.000000 0 0 1
34.652793 9.349568 -30.047113 46.808754 0.263532 2.267786 0.049273 -0.001261 967835.000000 0 0 1
33.367393 8.703768 -29.381603 45.303610 0.255161 2.276473 0.047218 -0.002870 645700.000000 0 0 1
33.505493 7.328068 -29.229733 45.063243 0.215322 2.276590 0.058442 -0.007697 -837226.000000 0 0 1
32.348893 6.646068 -28.991303 43.944473 0.202630 2.291250 0.056681 -0.000363 -1267780.000000 0 0 1
35.574091 5.993968 -19.490293 41.003843 0.166925 2.066134 0.062091 -0.022952 -337339.000000 0 0 1
35.259091 6.971668 -18.529693 40.437077 0.195209 2.046805 0.059474 -0.012189 371090.000000 0 0 1
35.876541 8.232068 -18.759193 41.313442 0.225551 2.042124 0.028825 -0.010169 -653151.000000 0 0 1
-36.019114 8.377768 -18.231793 41.230594 -0.228529 2.028836 0.044392 -0.015603 340253.000000 0 0 1
-35.002642 7.678768 -18.950393 40.537215 -0.215956 2.057236 0.062139 -0.026009 505769.000000 0 0 1
-34.709347 8.326168 -20.181893 41.004544 -0.235434 2.085396 0.047880 -0.021246 -813450.000000 0 0 1
-33.972477 7.470168 -21.271093 40.772442 -0.216444 2.119642 0.039520 -0.012113 -255047.000000 0 0 1
-34.718703 6.418268 -21.797893 41.493742 -0.182801 2.123899 0.047924 -0.006895 -204523.000000 0 0 1
-35.363532 6.758168 -22.963493 42.703328 -0.188829 2.138556 0.036920 0.002395 -185185.000000 0 0 1
-35.373238 5.429568 -23.838693 43.000343 -0.152305 2.158419 0.067338 0.002843 809794.000000 0 0 1
-34.119627 5.254968 -24.525693 42.347057 -0.152815 2.188493 0.072742 0.003442 728567.000000 0 0 1
-33.969407 3.967968 -25.044803 42.389946 -0.116283 2.202870 0.088309 -0.003460 801541.000000 0 0 1
-32.734487 3.848368 -26.031053 41.999670 -0.117026 2.239274 0.098475 -0.005812 1163510.000000 0 0 1
-31.450327 3.908368 -25.429313 40.633094 -0.123637 2.246989 0.084280 -0.005270 -466047.000000 0 0 1
-30.460967 3.733768 -26.389553 40.474931 -0.121967 2.281012 0.094398 0.000776 -67457.600000 0 0 1
-29.044197 3.850268 -25.763413 39.014656 -0.131797 2.292084 0.072248 -0.003563 27236.900000 0 0 1
-28.812717 5.194568 -25.314253 38.703586 -0.178371 2.283728 0.052371 0.004305 -599773.000000 0 0 1
-27.590047 5.404568 -24.698093 37.422130 -0.193439 2.291597 0.042314 -0.000703 -718405.000000 0 0 1
-27.041277 6.833268 -24.809093 37.328478 -0.247516 2.297776 0.030758 0.002055 336051.000000 0 0 1
-27.807217 7.800068 -24.006993 37.555533 -0.273477 2.264306 0.036667 0.000216 572275.000000 0 0 1
-27.424377 9.105068 -24.368393 37.799700 -0.320556 2.271390 0.023310 -0.009401 345214.000000 0 0 1
-26.070057 9.657568 -23.844293 36.626040 -0.354773 2.279724 0.075434 -0.008249 30899.100000 0 0 1
-26.086877 10.092168 -22.477293 35.883223 -0.369134 2.247724 0.046071 -0.009446 33601.500000 0 0 1
-24.800607 10.341968 -21.953593 34.698511 -0.395079 2.255825 0.097776 -0.018471 -436576.000000 0 0 1
-24.755807 10.581968 -20.445893 33.806250 -0.403947 2.220306 0.112656 -0.028898 -768151.000000 0 0 1
-25.174437 11.902368 -20.140093 34.366291 -0.441648 2.196962 0.090710 -0.027494 1786260.000000 0 0 1
-26.601457 12.161168 -20.064893 35.470149 -0.428794 2.172059 0.084605 -0.010876 1403060.000000 0 0 1
-27.535287 11.393868 -19.064893 35.376297 -0.392339 2.139947 0.062625 -0.011120 -69108.800000 0 0 1
-27.170627 11.604168 -17.733193 34.458175 -0.403635 2.111372 0.076645 -0.018195 264342.000000 0 0 1
-28.122277 10.916768 -16.957693 34.606382 -0.370283 2.082905 0.058021 -0.021751 -460203.000000 0 0 1
-27.599077 10.617168 -15.530193 33.400901 -0.367241 2.054389 0.083494 -0.023659 317260.000000 0 0 1
-26.551527 9.659068 -15.402293 32.179369 -0.348903 2.069900 0.105274 -0.027436 526866.000000 0 0 1
-25.270317 10.169168 -15.717693 31.449114 -0.382587 2.094143 0.099743 -0.025619 -523430.000000 0 0 1
-24.270407 8.952768 -15.711093 30.266205 -0.353391 2.116590 0.082109 -0.025493 -1093880.000000 0 0 1
-22.945207 9.332168 -15.769593 29.364127 -0.386282 2.137716 0.096111 -0.027342 -1255010.000000 0 0 1
-22.267107 8.170368 -15.542293 28.357395 -0.351673 2.150871 0.098358 -0.030645 -327131.000000 0 0 1
-20.740007 8.257668 -15.267793 27.045193 -0.378912 2.170659 0.128285 -0.036109 70475.800000 0 0 1
-20.009207 8.560968 -16.427393 27.267522 -0.404283 2.217367 0.135149 -0.048839 -1491610.000000 0 0 1
-18.682907 8.578968 -16.132093 26.132243 -0.430468 2.236135 0.150300 -0.048326 -1802010.000000 0 0 1
-17.768407 9.088368 -17.274193 26.395311 -0.472798 2.284240 0.114495 -0.043358 -79807.100000 0 0 1
-17.788707 8.250168 -18.449893 26.924003 -0.434260 2.325754 0.153484 -0.053472 -98812.800000 0 0 1
-16.646107 7.444168 -18.535293 26.001261 -0.420524 2.364366 0.143868 -0.045783 -645879.000000 0 0 1
-16.319307 6.924468 -19.935793 26.677779 -0.401287 2.414757 0.115171 -0.037978 97607.400000 0 0 1
-17.158307 5.964768 -20.576293 27.447582 -0.334563 2.418341 0.111416 -0.033529 613028.000000 0 0 1
-18.411207 6.483468 -21.054893 28.710911 -0.338587 2.394020 0.109146 -0.030338 300663.000000 0 0 1
-19.339207 5.420668 -21.641293 29.525144 -0.273282 2.393486 0.090063 -0.009875 -287938.000000 0 0 1
-20.229007 4.813868 -20.727593 29.360163 -0.233623 2.354598 0.087657 -0.017654 355620.000000 0 0 1
-20.812307 3.649668 -21.314493 30.012994 -0.173596 2.360544 0.053612 0.003316 -199542.000000 0 0 1
-21.867107 2.984768 -20.424293 30.070433 -0.135657 2.317489 0.067547 -0.007952 -126432.000000 0 0 1
-22.466507 1.849968 -21.026293 30.826471 -0.082158 2.321407 0.073168 -0.001076 808903.000000 0 0 1
-23.414207 1.205768 -20.151093 30.915134 -0.051452 2.280778 0.078719 -0.009142 -382811.000000 0 0 1
-23.884807 -0.179732 -20.604593 31.544660 0.007525 2.282583 0.074284 0.002684 -308390.000000 0 0 1
-22.842307 -1.122932 -20.547093 30.744349 0.049121 2.302746 0.071288 -0.009918 -42928.400000 0 0 1
-23.141007 -2.483232 -20.754393 31.183609 0.106900 2.299033 0.065197 -0.018281 -462041.000000 0 0 1
-23.790007 -2.903432 -22.097093 32.598710 0.121444 2.315633 0.071085 -0.018365 69822.800000 0 0 1
-22.889107 -2.829032 -23.164793 32.688259 0.122974 2.358391 0.043424 -0.016794 316459.000000 0 0 1
-21.916207 -3.885732 -23.229493 32.171857 0.175476 2.377548 0.044206 -0.025927 -51898.500000 0 0 1
-20.956607 -3.705732 -24.394393 32.372801 0.175020 2.424236 0.054650 -0.021993 -354030.000000 0 0 1
-21.527407 -3.888232 -25.701183 33.750532 0.178691 2.436428 0.050101 -0.026793 626202.000000 0 0 1
-20.574507 -3.797632 -26.762213 33.969816 0.182525 2.478063 0.049625 -0.029237 -58150.100000 0 0 1
-21.314007 -3.913032 -28.068353 35.460276 0.181568 2.484127 0.034703 -0.025596 159491.000000 0 0 1
-22.213407 -5.035332 -28.090443 36.164388 0.222913 2.460274 0.050043 -0.027437 275372.000000 0 0 1
-22.859407 -4.930532 -29.326783 37.508970 0.212435 2.468441 0.024468 -0.032597 -388926.000000 0 0 1
-22.675107 -6.228132 -30.179623 38.259113 0.268058 2.479686 0.052587 -0.027083 214502.000000 0 0 1
-21.352307 -6.184132 -30.683673 37.890002 0.281910 2.514623 0.033266 -0.025270 153828.000000 0 0 1
-20.792707 -7.428832 -31.020093 38.075850 0.343146 2.522994 0.038596 -0.021946 743287.000000 0 0 1
-19.308107 -7.411732 -31.540813 37.716835 0.366521 2.561210 0.050744 -0.024491 472911.000000 0 0 1
-19.124307 -6.985532 -32.906123 38.695603 0.350213 2.587511 0.052327 -0.031837 295333.000000 0 0 1
-19.269307 -8.039532 -33.834243 39.757971 0.395262 2.588693 0.050331 -0.031141 -537343.000000 0 0 1
-19.092507 -7.536132 32.946908 38.817727 0.375944 0.557162 0.043836 -0.023871 701376.000000 0 0 1
-17.777707 -7.208232 32.443060 37.690286 0.385208 0.533995 0.057205 -0.024936 822837.000000 0 0 1
-17.313907 -5.967132 32.850958 37.610684 0.331895 0.508558 0.039987 -0.023579 -812056.000000 0 0 1
-16.089607 -5.570432 32.042353 36.285225 0.333297 0.488434 0.037101 -0.023550 -532082.000000 0 0 1
-16.271507 -5.333932 30.659173 35.116915 0.316770 0.509353 0.032834 -0.021893 939350.000000 0 0 1
-15.069307 -4.824032 30.017843 33.932672 0.309815 0.485097 0.039221 -0.018850 1080590.000000 0 0 1
-15.195707 -5.069832 28.480253 32.676254 0.322023 0.512363 0.032821 -0.011977 153047.000000 0 0 1
-16.180307 -4.188432 27.973203 32.585970 0.253300 0.538570 0.029139 -0.018677 -145834.000000 0 0 1
-16.570507 -4.278832 26.632553 31.657274 0.252700 0.571154 0.042164 -0.011963 -465033.000000 0 0 1
-15.521007 -3.997832 25.577433 30.184258 0.252096 0.559771 0.047255 -0.008887 -573558.000000 0 0 1
-15.128607 -2.634832 25.448753 29.722990 0.172433 0.542932 0.041255 -0.001448 -190447.000000 0 0 1
-14.482907 -2.415532 24.228653 28.330497 0.165264 0.544832 0.031806 -0.002926 -337174.000000 0 0 1
-13.941407 -1.037132 24.146993 27.901895 0.074255 0.524799 0.037606 -0.009572 110164.000000 0 0 1
-14.921707 -0.115832 23.641483 27.956940 0.007762 0.563035 0.041896 -0.011815 461046.000000 0 0 1
-14.721207 1.140068 24.211683 28.358761 -0.077290 0.547624 0.029800 -0.001212 468318.000000 0 0 1
-15.688507 2.209968 23.581323 28.409365 -0.139945 0.591591 0.024039 -0.004194 598144.000000 0 0 1
-15.106907 2.796068 22.427153 27.184809 -0.183014 0.600615 0.021090 -0.003017 1064810.000000 0 0 1
-16.165907 3.517268 21.753653 27.330005 -0.214234 0.650201 0.033904 -0.003128 500891.000000 0 0 1
-15.763607 4.502368 20.629453 26.350275 -0.278211 0.671494 0.025441 -0.002548 202815.000000 0 0 1
-14.857907 5.527868 21.039853 26.343693 -0.356181 0.645719 0.055426 -0.005798 933882.000000 0 0 1
-13.534407 5.349068 20.512453 25.150615 -0.376379 0.617058 0.045366 -0.003253 1142640.000000 0 0 1
-12.503807 6.448168 21.013253 25.287959 -0.476126 0.589967 0.041116 -0.001478 551968.000000 0 0 1
-12.767107 7.748568 20.545553 25.399982 -0.545490 0.628551 0.048404 -0.009177 648226.000000 0 0 1
-11.591307 8.561568 20.641653 25.174128 -0.636178 0.609464 0.045104 -0.008700 559299.000000 0 0 1
-11.934107 10.061668 20.734053 25.953055 -0.700476 0.645322 0.040223 -0.000722 17216.200000 0 0 1
-12.452807 10.651468 19.553853 25.512338 -0.707590 0.697505 0.043834 0.004186 451354.000000 0 0 1
-13.057507 11.931368 19.707553 26.481006 -0.740363 0.731438 0.026981 0.008796 -155749.000000 0 0 1
-13.429207 12.552368 18.353753 25.976255 -0.751662 0.786173 0.027611 0.011412 -32544.000000 0 0 1
-12.452007 13.397168 17.740353 25.480517 -0.821946 0.800661 0.025448 0.012907 297611.000000 0 0 1
-12.287007 14.729568 18.333253 26.533732 -0.875563 0.808006 0.034002 0.013691 -93093.000000 0 0 1
-13.317407 15.850668 17.953853 27.403246 -0.872031 0.856385 0.037527 0.011946 -38484.600000 0 0 1
-13.310207 16.299168 16.561653 26.778963 -0.886004 0.904018 0.029249 0.008568 -69796.100000 0 0 1
-13.776407 15.396968 15.624953 25.903575 -0.840890 0.923293 0.039780 0.012949 -466929.000000 0 0 1
-14.133107 15.955068 14.260953 25.645345 -0.845878 0.981130 0.027351 0.006771 562964.000000 0 0 1
-15.263207 16.840068 14.327753 26.867041 -0.834477 1.008319 0.030210 0.000657 563902.000000 0 0 1
-15.856207 17.034168 13.017453 26.665264 -0.821198 1.060793 0.025871 -0.001285 523854.000000 0 0 1
-17.060807 18.002668 12.936353 27.973495 -0.812253 1.090039 0.036986 -0.010347 315587.000000 0 0 1
-18.316807 17.466068 13.275553 28.579876 -0.761628 1.087718 0.045100 -0.011449 -246379.000000 0 0 1
-19.335407 18.418668 13.408953 29.881522 -0.761121 1.105444 0.046898 -0.010058 1407280.000000 0 0 1
-20.811907 17.842868 13.578053 30.591943 -0.708740 1.110912 0.056821 -0.010637 1490560.000000 0 0 1
-21.264107 17.221868 12.378753 30.033124 -0.680750 1.145962 0.063979 -0.013287 -1293230.000000 0 0 1
-22.602307 16.941868 12.531853 30.902080 -0.643222 1.153233 0.076663 -0.019091 -1318870.000000 0 0 1
-23.158007 16.404768 11.219253 30.516903 -0.616331 1.194326 0.078445 -0.018523 -391509.000000 0 0 1
-22.648607 15.141968 10.830053 29.317719 -0.589313 1.192430 0.076682 -0.014017 -106253.000000 0 0 1
-23.176707 14.674068 9.622653 29.070320 -0.564430 1.233419 0.074973 -0.016340 -131565.000000 0 0 1
-22.535207 13.360068 9.053253 27.718016 -0.535148 1.238071 0.090382 -0.009213 -479689.000000 0 0 1
-22.663007 12.147168 9.796853 27.516248 -0.492024 1.206771 0.085288 -0.016151 773629.000000 0 0 1
-23.956207 11.558768 10.023953 28.425070 -0.449546 1.210400 0.104071 -0.019624 630664.000000 0 0 1
-24.738307 11.016468 8.840753 28.486933 -0.418955 1.255241 0.116660 -0.017104 -414473.000000 0 0 1
-25.210917 12.038068 8.022353 29.066537 -0.445481 1.291167 0.122524 -0.014377 -507854.000000 0 0 1
-26.219487 11.597468 7.184053 29.556275 -0.416451 1.325273 0.147500 -0.022703 -737470.000000 0 0 1
-26.526067 12.822868 6.235653 30.115471 -0.450285 1.362229 0.123135 -0.023675 -199656.000000 0 0 1
-25.629587 13.093268 5.151753 29.237818 -0.472302 1.393670 0.126588 -0.024775 109189.000000 0 0 1
-24.431907 13.753568 5.437353 28.559474 -0.512720 1.379240 0.112440 -0.021637 -606782.000000 0 0 1
-24.540007 15.208068 6.042753 29.495969 -0.554797 1.364468 0.093785 -0.023184 110589.000000 0 0 1
-23.212907 15.761168 6.192653 28.733299 -0.596481 1.353570 0.086971 -0.028338 1418770.000000 0 0 1
-23.338307 17.111468 6.535753 29.668081 -0.632657 1.348679 0.077135 -0.029586 654290.000000 0 0 1
-21.910007 17.714568 6.770953 28.977580 -0.679911 1.334954 0.079986 -0.022650 687541.000000 0 0 1
-21.260507 18.194468 5.627553 28.543251 -0.707844 1.372337 0.083890 -0.027362 12963.700000 0 0 1
-19.857707 18.160668 5.715153 27.510023 -0.740790 1.361524 0.081414 -0.025566 -324260.000000 0 0 1
-19.232707 19.086268 4.631253 27.488746 -0.781577 1.401511 0.073981 -0.013266 155280.000000 0 0 1
-17.832807 19.244768 4.856553 26.682508 -0.823461 1.387763 0.055072 -0.010762 776767.000000 0 0 1
-17.182207 20.282868 4.083553 26.894208 -0.867971 1.418369 0.059930 -0.020570 201541.000000 0 0 1
-17.427307 21.760568 4.482453 28.236957 -0.895527 1.411378 0.061735 -0.019102 -420809.000000 0 0 1
-16.617607 22.175568 5.539053 28.259190 -0.927701 1.373510 0.045029 -0.014646 -149868.000000 0 0 1
-16.938807 23.487668 5.870353 29.547501 -0.945997 1.370790 0.032603 -0.008591 -22514.000000 0 0 1
-16.344307 23.987568 7.216153 29.910077 -0.972686 1.327131 0.025457 0.006429 -27671.400000 0 0 1
-17.046307 23.400468 8.285553 30.113268 -0.941224 1.292054 0.028426 0.001013 289980.000000 0 0 1
-16.234607 23.231468 9.429053 29.869226 -0.960863 1.249625 0.028687 0.003029 293204.000000 0 0 1
-16.960107 22.384768 10.530953 29.993734 -0.922409 1.212045 0.019319 -0.004042 16743.800000 0 0 1
-18.023207 22.974768 11.205453 31.276799 -0.905592 1.204385 0.026270 0.000847 -185843.000000 0 0 1
-19.012207 21.988568 11.557253 31.281484 -0.857864 1.192369 0.032656 -0.012675 972920.000000 0 0 1
-20.316307 22.685868 12.096153 32.767635 -0.840446 1.192703 0.037491 -0.017900 285959.000000 0 0 1
-21.122907 23.435168 11.200653 33.478933 -0.837245 1.229660 0.047354 -0.011028 -165438.000000 0 0 1
-20.609307 24.637568 10.758253 33.874671 -0.874193 1.247610 0.025865 0.000559 -472335.000000 0 0 1
-21.633307 25.574068 10.036153 34.967947 -0.868683 1.279692 0.031122 0.007884 335655.000000 0 0 1
-22.460407 26.235468 10.969653 36.236763 -0.862767 1.263249 0.049560 -0.008602 633441.000000 0 0 1
-23.429307 27.150968 10.382153 37.334925 -0.858845 1.289000 0.043891 0.001322 601448.000000 0 0 1
-24.445307 27.728568 11.370553 38.674747 -0.848245 1.272382 0.039607 -0.006980 -195060.000000 0 0 1
-23.747507 28.338268 12.459453 39.015888 -0.873309 1.245760 0.047793 -0.007884 628829.000000 0 0 1
-24.523507 29.369168 13.063153 40.430143 -0.875070 1.241788 0.046708 -0.010122 164559.000000 0 0 1
9.258293 -32.513829 28.270963 44.069405 -1.293389 0.874331 0.069517 -0.037018 71972.400000 0 0 1
10.627193 -32.506129 27.914403 44.145210 -1.254821 0.886237 0.059214 -0.042746 360554.000000 0 0 1
10.935193 -32.176929 26.572603 43.139732 -1.243196 0.907185 0.074519 -0.041600 640570.000000 0 0 1
12.411793 -32.528329 26.158393 43.547748 -1.206279 0.926441 0.036223 -0.031490 625117.000000 0 0 1
12.703393 -33.877229 26.035873 44.574764 -1.212040 0.947032 0.057487 -0.035921 -261233.000000 0 0 1
14.110693 -33.935329 26.068983 45.058963 -1.176734 0.953843 0.068763 -0.032833 -288942.000000 0 0 1
14.635993 32.891168 25.762773 44.269196 1.152123 0.949663 0.090287 -0.024915 -100759.000000 0 0 1
14.515093 32.625568 24.390623 43.243706 1.152192 0.971542 0.083599 -0.032705 384392.000000 0 0 1
15.562693 31.754868 23.982313 42.728450 1.115109 0.974874 0.085415 -0.030969 98055.900000 0 0 1
15.431093 31.233768 22.504353 41.474243 1.111919 0.997255 0.089539 -0.038232 144115.000000 0 0 1
14.538693 30.147168 22.169353 40.146053 1.121443 0.985775 0.089266 -0.028772 175694.000000 0 0 1
14.744293 28.825268 22.652553 39.514914 1.097986 0.960310 0.093036 -0.029327 -40633.100000 0 0 1
14.406493 28.479268 24.094513 39.989515 1.102473 0.924141 0.099270 -0.041644 -171439.000000 0 0 1
15.476793 28.848568 24.928833 41.148727 1.078389 0.919997 0.090473 -0.036039 210923.000000 0 0 1
15.191793 28.414168 26.244233 41.556170 1.079810 0.887263 0.088444 -0.037923 -65691.700000 0 0 1
16.181293 28.866468 27.334083 42.921549 1.059884 0.880406 0.092532 -0.043912 126271.000000 0 0 1
15.887693 30.201968 27.739413 43.977866 1.086528 0.888266 0.088047 -0.046204 202881.000000 0 0 1
16.682493 30.470768 28.860973 45.163360 1.069881 0.877553 0.102341 -0.045652 87983.700000 0 0 1
16.378293 31.878868 29.296323 46.290229 1.096196 0.885524 0.105474 -0.044400 54792.800000 0 0 1
16.981293 32.785568 28.407143 46.585659 1.092892 0.915010 0.100463 -0.041130 2338.940000 0 0 1
16.766593 34.103468 28.819323 47.694010 1.113860 0.921966 0.105709 -0.030043 -26481.400000 0 0 1
17.462193 -33.079029 27.903273 46.666294 -1.085084 0.929878 0.093373 -0.033224 -471561.000000 0 0 1
17.077093 -32.944729 26.531323 45.616810 -1.092572 0.950086 0.107400 -0.029542 -279975.000000 0 0 1
17.466593 -31.738329 25.840453 44.498679 -1.067699 0.951206 0.095568 -0.030024 -605423.000000 0 0 1
18.953593 -31.389129 25.629453 44.736842 -1.027568 0.960764 0.093110 -0.022736 19339.700000 0 0 1
19.641693 -31.172729 26.852433 45.591538 -1.008544 0.941002 0.085070 -0.024125 47720.300000 0 0 1
20.854093 -30.446429 26.761153 45.585497 -0.970247 0.943381 0.090573 -0.022821 272956.000000 0 0 1
21.224393 -29.824729 28.134833 46.168801 -0.952303 0.915505 0.100339 -0.024152 586267.000000 0 0 1
20.165193 -28.945529 28.576843 45.399500 -0.962315 0.889948 0.093780 -0.022188 909050.000000 0 0 1
20.650993 -28.038129 29.556373 45.674713 -0.935970 0.867014 0.110282 -0.016167 -241012.000000 0 0 1
19.471293 -27.345129 30.233633 45.176984 -0.952024 0.837629 0.078464 -0.021667 71411.600000 0 0 1
18.609893 -26.747129 29.285253 43.810536 -0.962914 0.838670 0.116275 -0.031214 625332.000000 0 0 1
17.398193 -26.237329 29.861883 43.391550 -0.985261 0.811797 0.094803 -0.029554 696127.000000 0 0 1
16.384393 -25.593329 28.900843 41.937162 -1.001354 0.810486 0.095381 -0.027195 -464437.000000 0 0 1
15.705093 -26.510629 28.023333 41.650578 -1.035978 0.832783 0.090327 -0.031142 848566.000000 0 0 1
14.926993 -25.832229 26.985053 40.228252 -1.046828 0.835511 0.085538 -0.049065 368817.000000 0 0 1
13.514493 -25.293629 27.410563 39.670495 -1.080083 0.807986 0.067891 -0.034005 651083.000000 0 0 1
12.432993 -26.204829 27.573513 40.019633 -1.127793 0.810688 0.056021 -0.027514 526497.000000 0 0 1
11.954793 -26.733529 26.397773 39.426401 -1.150287 0.837199 0.053754 -0.024899 -769245.000000 0 0 1
11.065193 -28.004929 26.448413 40.077838 -1.194507 0.850076 0.062411 -0.031657 628896.000000 0 0 1
9.695793 -27.799329 26.801963 39.814022 -1.235211 0.832297 0.060134 -0.042020 790016.000000 0 0 1
8.942793 -29.011929 26.864103 40.538200 -1.271792 0.846396 0.061976 -0.043571 1292160.000000 0 0 1
7.366593 -28.965829 27.025713 40.294852 -1.321756 0.835646 0.047766 -0.035150 907479.000000 0 0 1
6.560193 -28.596529 25.950913 39.169472 -1.345293 0.846606 0.060056 -0.044115 -317903.000000 0 0 1
6.777593 -27.384229 25.264613 37.869941 -1.328172 0.840431 0.080538 -0.042539 -674558.000000 0 0 1
5.624193 -26.856429 24.327223 36.670330 -1.364363 0.845438 0.078187 -0.039931 -421132.000000 0 0 1
5.351293 -27.657829 23.200153 36.494369 -1.379676 0.881857 0.059750 -0.034507 380709.000000 0 0 1
4.522593 -28.803529 23.454373 37.419310 -1.415053 0.893359 0.063278 -0.038349 -503142.000000 0 0 1
3.076493 -28.511729 23.842863 37.294311 -1.463309 0.877187 0.061264 -0.040640 -1498320.000000 0 0 1
2.115593 -28.369729 22.801453 36.458518 -1.496362 0.895142 0.056074 -0.033047 931735.000000 0 0 1
0.805693 -28.036029 23.278993 36.449686 -1.542066 0.878039 0.055468 -0.032306 734384.000000 0 0 1
0.507693 -26.629629 23.862613 35.760582 -1.551734 0.840235 0.055949 -0.034664 -761391.000000 0 0 1
1.225693 -26.388729 25.027553 36.390188 -1.524382 0.812404 0.053207 -0.037927 -92718.800000 0 0 1
0.989493 -25.092229 25.479183 35.774123 -1.531383 0.778135 0.062372 -0.036385 -408908.000000 0 0 1
2.219193 -24.659929 26.278673 36.105479 -1.481046 0.755643 0.056273 -0.031660 72541.100000 0 0 1
3.418593 -24.554829 25.478663 35.549806 -1.432463 0.771733 0.065349 -0.030092 1109930.000000 0 0 1
4.507593 -23.937829 26.178123 35.757967 -1.384672 0.749408 0.063607 -0.023288 454062.000000 0 0 1
4.384593 -22.416629 26.407463 34.915384 -1.377639 0.713115 0.055550 -0.021080 -758798.000000 0 0 1
4.465793 -21.584229 25.287793 33.545413 -1.366774 0.716913 0.056218 -0.016406 400763.000000 0 0 1
3.896993 -20.274829 25.464313 32.782412 -1.380904 0.681279 0.063893 -0.020235 -49527.100000 0 0 1
4.075793 -19.352629 24.222973 31.271213 -1.363223 0.684699 0.071610 -0.019947 -11398.100000 0 0 1
5.353093 -18.788329 24.036983 30.974723 -1.293235 0.682467 0.074272 -0.007484 -238487.000000 0 0 1
5.463393 -17.863729 22.879053 29.536631 -1.273993 0.684715 0.062058 -0.000436 -148415.000000 0 0 1
6.881393 -17.394229 22.548853 29.297842 -1.194077 0.692516 0.061248 0.000136 -357073.000000 0 0 1
7.712093 -18.398029 22.030353 29.720369 -1.173865 0.735859 0.052095 0.005074 -21468.000000 0 0 1
9.059793 -18.048629 21.817153 29.729128 -1.105577 0.746803 0.042728 0.003950 85313.600000 0 0 1
10.093393 -18.310529 22.893753 31.004451 -1.067006 0.740098 0.042227 0.004558 -351681.000000 0 0 1
9.853893 -17.468129 24.023433 31.294729 -1.057187 0.695628 0.048007 0.006349 46032.800000 0 0 1
10.913893 -17.628629 24.932983 32.427385 -1.016451 0.693698 0.051673 0.009466 -58499.500000 0 0 1
10.950793 -16.599429 26.027093 32.754702 -0.987626 0.652437 0.062929 0.004765 -229013.000000 0 0 1
11.124393 -15.304829 25.517043 31.766483 -0.942273 0.638032 0.070976 0.000657 85656.600000 0 0 1
11.182893 -14.384729 26.546033 32.197351 -0.909980 0.601516 0.061587 0.000201 -223653.000000 0 0 1
11.338893 -12.941929 26.148033 31.301496 -0.851323 0.582008 0.077967 -0.001012 -536196.000000 0 0 1
10.217493 -12.242129 25.719023 30.261114 -0.875301 0.554994 0.086730 -0.001694 -246748.000000 0 0 1
10.631493 -10.894029 25.398333 29.610536 -0.797594 0.539926 0.088429 0.007265 358393.000000 0 0 1
9.564393 -9.999129 24.703373 28.314605 -0.807616 0.510582 0.094796 0.004085 1381810.000000 0 0 1
8.356393 -9.716929 25.464593 28.507780 -0.860535 0.466272 0.086946 0.004171 1432860.000000 0 0 1
7.306793 -9.142129 24.676643 27.311252 -0.896516 0.442850 0.086618 0.000611 117442.000000 0 0 1
5.919693 -9.225329 25.295463 27.568278 -1.000293 0.408905 0.077346 -0.003814 -1645610.000000 0 0 1
5.601593 -8.204829 26.160543 27.983407 -0.971763 0.362934 0.086101 -0.002627 -63711.800000 0 0 1
4.264793 -8.144129 26.613513 28.156605 -1.088397 0.332602 0.074797 -0.005319 672696.000000 0 0 1
3.124193 -8.073729 25.550343 26.977133 -1.201584 0.326686 0.061111 -0.006848 -708205.000000 0 0 1
2.791193 -6.806129 25.074303 26.131109 -1.181614 0.285370 0.075436 -0.009669 138170.000000 0 0 1
1.641893 -6.891929 24.239103 25.253290 -1.336922 0.284367 0.058580 -0.015837 456691.000000 0 0 1
1.558093 -5.567529 23.429243 24.132022 -1.297923 0.241928 0.042575 -0.024501 -254063.000000 0 1 0
1.489693 -4.446729 24.269903 24.718835 -1.247539 0.190876 0.063616 -0.022101 119640.000000 0 1 0
1.916593 -3.206629 23.738013 24.030170 -1.032072 0.156094 0.053474 -0.018119 -410426.000000 0 1 0
1.018493 -2.651629 22.572753 22.750773 -1.204071 0.125180 0.043864 -0.029252 475497.000000 0 1 0
-0.139407 -1.944629 22.940553 23.023249 1.499230 0.084782 0.044280 -0.035106 20705.900000 0 1 0
-1.266107 -2.665629 23.399653 23.585003 1.127368 0.125452 0.045582 -0.031855 -201660.000000 0 1 0
-2.262007 -1.646629 24.017263 24.179682 0.629239 0.115971 0.042978 -0.030952 -309757.000000 0 1 0
-1.802407 -0.983629 25.165263 25.248895 0.499560 0.081414 0.059362 -0.033488 -37721.300000 0 0 1
-2.545407 0.168371 25.492463 25.619780 -0.066051 0.099736 0.054107 -0.027768 -596440.000000 0 0 1
-1.980807 1.032371 26.641223 26.734700 -0.480453 0.083648 0.075458 -0.033529 -417561.000000 0 0 1
-2.040107 0.550371 28.012643 28.092226 -0.263503 0.075289 0.086442 -0.034118 -255755.000000 0 0 1
-1.175607 -0.495629 28.297163 28.325910 0.398982 0.045056 0.090352 -0.035267 -759944.000000 0 0 1
0.202993 -0.033629 28.854543 28.855277 -0.164176 0.007131 0.113909 -0.033055 712433.000000 0 0 1
1.144693 0.553371 27.890873 27.919838 0.450298 0.045554 0.107176 -0.035378 850168.000000 0 0 1
1.705493 -0.399629 27.001333 27.058093 -0.230166 0.064783 0.097312 -0.039487 455938.000000 0 0 1
2.894593 -1.353629 27.481533 27.666689 -0.437427 0.115757 0.096039 -0.036974 541171.000000 0 0 1
2.416993 -2.478629 28.201983 28.413682 -0.797988 0.122146 0.106112 -0.034986 -32206.500000 0 0 1
3.391993 -3.463729 28.433693 28.844028 -0.795862 0.168878 0.104233 -0.018229 116008.000000 0 0 1
4.074493 -4.177829 27.237913 27.856053 -0.797920 0.211059 0.093803 -0.020283 -392856.000000 0 0 1
5.089393 -3.542329 26.563783 27.277914 -0.608051 0.229324 0.089207 -0.019429 -831658.000000 0 0 1
5.559193 -4.319929 25.518273 26.471658 -0.660607 0.269197 0.079926 -0.017255 389420.000000 0 0 1
6.882893 -3.765129 24.847523 26.056666 -0.500558 0.305836 0.071314 -0.017269 2176230.000000 0 0 1
8.114093 -3.815429 25.661673 27.183037 -0.439543 0.336147 0.074660 -0.010554 1504290.000000 0 0 1
8.680493 -5.108629 25.826853 27.721389 -0.531934 0.371847 0.063054 -0.003698 -276842.000000 0 0 1
9.516393 -5.754529 24.721513 27.107740 -0.543866 0.422730 0.068141 -0.016968 -119466.000000 0 0 1
8.710093 -6.328029 23.689773 26.021434 -0.628302 0.426559 0.073138 -0.016376 120994.000000 0 0 1
9.281493 -6.262529 22.404153 25.046187 -0.593566 0.463454 0.080820 -0.020810 -152311.000000 0 0 1
9.313493 -4.859529 21.737653 24.142944 -0.480914 0.450170 0.080347 -0.020519 -188006.000000 0 1 0
8.116693 -4.267529 21.349353 23.235477 -0.484052 0.405702 0.052732 -0.017632 -509152.000000 0 1 0
8.483393 -3.022629 20.768953 22.637439 -0.342276 0.409147 0.044933 -0.012884 403016.000000 0 1 0
7.272893 -2.177629 20.271153 21.646171 -0.290922 0.358348 0.042939 -0.011599 529942.000000 0 1 0
6.562893 -1.682629 21.413253 22.459524 -0.250979 0.306434 0.041055 -0.010576 -108184.000000 0 1 0
5.314593 -1.106629 21.155553 21.840947 -0.205291 0.251184 0.028945 -0.012427 -309463.000000 0 1 0
4.748293 -0.368629 22.343253 22.845200 -0.077479 0.210012 0.037021 -0.022692 -690602.000000 0 1 0
3.444193 0.084371 22.153053 22.419352 0.024492 0.154283 0.038558 -0.025753 -496573.000000 0 1 0
2.943893 0.635371 23.364763 23.558064 0.212566 0.128191 0.056442 -0.031963 524553.000000 0 1 0
1.412693 0.965371 23.277413 23.340215 0.599467 0.073374 0.057953 -0.041466 587926.000000 0 1 0
1.125793 2.279371 22.907353 23.047989 1.112037 0.110527 0.056399 -0.029807 1487920.000000 0 1 0
-0.316907 2.449371 22.965753 23.098175 -1.442128 0.107130 0.045061 -0.021096 1252560.000000 0 1 0
-0.771607 3.820371 22.487153 22.822416 -1.371505 0.171617 0.040270 -0.010952 -313111.000000 0 1 0
-0.537007 4.889371 23.354793 23.867147 -1.461403 0.207577 0.049463 -0.013052 112137.000000 0 1 0
-1.411307 5.971371 23.105053 23.905910 -1.338710 0.259573 0.037887 -0.006346 -45740.300000 0 1 0
-1.245707 7.266371 23.946013 25.055209 -1.401012 0.298666 0.046728 -0.003878 747545.000000 0 0 1
-0.127007 8.119371 23.592113 24.950514 -1.555155 0.331497 0.038568 -0.001379 879235.000000 0 1 0
-0.317807 9.364371 24.210673 25.960531 -1.536871 0.369258 0.040610 -0.001408 -1132930.000000 0 0 1
0.419693 10.466371 23.495213 25.724426 1.530719 0.419378 0.036383 -0.006772 942281.000000 0 0 1
1.859493 10.403371 23.617113 25.873846 1.393925 0.420758 0.028095 -0.005806 751820.000000 0 0 1
2.360293 10.766371 24.882453 27.214375 1.354982 0.416988 0.042418 -0.011402 -783780.000000 0 0 1
3.752193 11.454371 24.811793 27.584536 1.254235 0.452214 0.030922 -0.013293 902414.000000 0 0 1
4.882893 10.711371 24.316473 27.016051 1.143079 0.450855 0.031577 -0.016345 683232.000000 0 0 1
4.832093 10.318371 22.943153 25.616522 1.132829 0.460931 0.029408 -0.019042 -588029.000000 0 0 1
6.231793 10.033371 22.339653 25.269822 1.015002 0.486350 0.033044 -0.018120 553740.000000 0 0 1
6.999693 11.190371 21.965053 25.625840 1.011830 0.541096 0.031969 -0.021727 952318.000000 0 0 1
8.266993 10.735371 21.451753 25.372605 0.914573 0.563353 0.039298 -0.023280 550603.000000 0 0 1
9.083193 11.821371 20.769053 25.565656 0.915641 0.622573 0.039903 -0.035748 -532369.000000 0 0 1
8.576893 12.061371 19.485153 24.468571 0.952657 0.649587 0.035610 -0.038272 634586.000000 0 1 0
9.319193 13.132371 18.817753 24.767203 0.953633 0.707814 0.050616 -0.035757 94835.600000 0 1 0
10.752693 12.909371 18.343853 24.875072 0.876292 0.741525 0.043833 -0.035344 3056.570000 0 1 0
11.740293 12.857371 19.389853 26.059794 0.830781 0.731681 0.053808 -0.037233 352933.000000 0 0 1
13.009993 12.539371 18.876753 26.130969 0.766980 0.763544 0.058707 -0.033245 -383316.000000 0 0 1
14.193593 12.430371 19.811653 27.358249 0.719268 0.760986 0.071325 -0.022437 -316332.000000 0 0 1
14.616993 13.622371 20.423053 28.571429 0.750192 0.774448 0.071889 -0.020251 -146773.000000 0 0 1
15.776693 13.376371 21.183553 29.606997 0.703248 0.773469 0.075149 -0.019596 -91418.400000 0 0 1
16.562793 14.591371 21.624153 30.900457 0.722203 0.795678 0.077987 -0.015785 -187449.000000 0 0 1
16.080393 15.174371 22.826853 31.779015 0.756418 0.769441 0.086499 -0.016013 706344.000000 0 0 1
16.922093 16.295371 23.190353 33.010435 0.766533 0.791870 0.080788 -0.008076 403841.000000 0 0 1
-22.024907 12.912568 -24.795493 35.589990 -0.530264 2.341581 0.095621 -0.010143 328394.000000 0 0 1
-21.348207 12.936668 -26.071913 36.094985 -0.544808 2.377939 0.083435 -0.011902 301662.000000 0 0 1
-22.037907 13.762768 -26.980433 37.457001 -0.558243 2.375037 0.076634 -0.016595 9161.970000 0 0 1
-21.489707 13.683368 -28.458913 38.196227 -0.566997 2.411438 0.077954 -0.012318 1054580.000000 0 0 1
-20.154907 14.204668 -28.611683 37.770640 -0.613923 2.430289 0.066718 -0.015187 557734.000000 0 0 1
-20.054807 14.664868 -29.919643 38.890084 -0.631386 2.448601 0.076787 -0.017497 -221329.000000 0 0 1
-18.656607 15.233768 -30.246123 38.664772 -0.684742 2.469091 0.067675 -0.012919 258258.000000 0 0 1
-17.718007 14.136168 -30.355833 37.884503 -0.673424 2.500216 0.067315 -0.015070 -190524.000000 0 0 1
-16.407307 14.650368 -30.309033 37.449572 -0.728888 2.513805 0.057416 -0.014035 459323.000000 0 0 1
-15.633007 14.200268 -28.975273 35.855334 -0.737410 2.511743 0.075217 -0.004095 509389.000000 0 0 1
-16.341307 14.664468 -27.794113 35.420300 -0.731369 2.472999 0.081640 -0.018861 240337.000000 0 0 1
-17.074207 13.593468 -27.225083 34.892923 -0.672383 2.465856 0.093829 -0.014879 57661.200000 0 0 1
-17.800707 13.920568 -25.881813 34.358632 -0.663683 2.423838 0.087633 -0.022176 612906.000000 0 0 1
-16.889307 14.121168 -24.773593 33.141922 -0.696369 2.415087 0.122130 -0.032142 824454.000000 0 0 1
-17.652907 14.631268 -23.691493 32.969470 -0.692075 2.372567 0.112023 -0.032674 -71857.400000 0 0 1
-16.793507 15.181068 -22.560793 31.960539 -0.735012 2.354483 0.107600 -0.031644 118770.000000 0 0 1
-16.081707 16.341668 -23.066993 32.523185 -0.793416 2.359227 0.076280 -0.035645 253583.000000 0 0 1
-15.283307 16.955868 -22.061793 31.745923 -0.837231 2.339145 0.067828 -0.028662 -347838.000000 0 0 1
-15.222907 18.505968 -22.099593 32.597542 -0.882429 2.315770 0.068721 -0.022450 851742.000000 0 0 1
-16.471607 19.243668 -21.952693 33.519447 -0.862858 2.284878 0.044746 -0.022034 1046040.000000 0 0 1
-17.126707 19.208568 -23.216193 34.659556 -0.842631 2.304783 0.031439 -0.016898 -524953.000000 0 0 1
-18.462307 19.946868 -23.340593 35.826214 -0.824030 2.280349 0.021139 -0.017766 -183060.000000 0 0 1
-18.258507 21.348868 -23.317893 36.508511 -0.863265 2.263601 0.015123 -0.013271 172524.000000 0 0 1
-19.439607 22.065668 -23.638793 37.730420 -0.848584 2.247874 0.058475 -0.027932 240335.000000 0 0 1
-19.182107 23.599968 -23.866593 38.659100 -0.888298 2.236179 0.045626 -0.022427 72472.100000 0 0 1
-18.841707 24.351768 -22.676593 38.239331 -0.912280 2.205598 0.051716 -0.020893 176457.000000 0 0 1
-17.995707 25.453668 -22.954993 38.712613 -0.955389 2.205525 0.032250 -0.003989 -193490.000000 0 0 1
-16.721907 25.529768 -22.094393 37.676962 -0.990917 2.197424 0.028911 -0.014974 506234.000000 0 0 1
-15.720107 24.484668 -22.211493 36.605616 -1.000038 2.222797 0.042296 -0.025633 567894.000000 0 0 1
-16.048207 23.233068 -21.640493 35.575713 -0.966306 2.224706 0.053778 -0.013733 73015.100000 0 0 1
-14.855807 22.170968 -21.543793 34.298423 -0.980450 2.249941 0.078997 -0.015806 664256.000000 0 0 1
-14.059107 22.459868 -20.447593 33.469512 -1.011503 2.228034 0.087019 -0.021920 -924501.000000 0 0 1
-13.302107 21.403768 -20.007893 32.177370 -1.014729 2.241835 0.074863 -0.018595 -141906.000000 0 0 1
-12.403107 21.729368 -18.744693 31.262854 -1.052125 2.213777 0.065914 -0.017679 418280.000000 0 0 1
-13.020407 21.774368 -17.460093 30.797872 -1.031871 2.173565 0.081661 -0.016000 14859.300000 0 0 1
-13.818107 22.914068 -17.177593 31.797237 -1.028144 2.141498 0.087289 -0.024359 104345.000000 0 0 1
-14.499407 22.940368 -15.751293 31.378281 -1.007145 2.096684 0.099637 -0.024777 284168.000000 0 0 1
-13.653707 23.273868 -14.659793 30.708406 -1.040248 2.068475 0.098744 -0.038143 3050.090000 0 0 1
-14.417007 23.350968 -13.481093 30.575442 -1.017677 2.027411 0.102019 -0.030787 -9777.610000 0 0 1
-13.541007 23.772168 -12.304493 29.997923 -1.053018 1.993446 0.115832 -0.033887 -211158.000000 0 0 1
-13.026207 25.081468 -12.402493 30.863959 -1.091784 1.984326 0.106225 -0.035711 -572149.000000 0 0 1
-12.121207 25.183068 -11.377793 30.175565 -1.122201 1.957409 0.075007 -0.032337 -715788.000000 0 0 1
-11.505807 26.562468 -11.247093 31.055521 -1.162034 1.941381 0.094742 -0.032584 41553.400000 0 0 1
-10.693007 26.827368 -12.374793 31.419478 -1.191510 1.975621 0.093588 -0.035031 -71605.400000 0 0 1
-10.751507 28.157668 -12.702293 32.707758 -1.206049 1.969644 0.069251 -0.023769 -633362.000000 0 0 1
-10.189607 28.611668 -14.070993 33.473101 -1.228667 2.004646 0.100874 -0.041497 968360.000000 0 0 1
-8.763107 28.607568 -14.203093 33.119675 -1.273550 2.014006 0.077967 -0.040271 565415.000000 0 0 1
-8.153107 27.337268 -14.294793 31.908314 -1.280954 2.035319 0.082185 -0.040811 251162.000000 0 0 1
-6.675207 27.275568 -14.806293 31.744942 -1.330782 2.056029 0.081637 -0.044009 826056.000000 0 0 1
-5.751607 27.912368 -13.951593 31.730557 -1.367581 2.026049 0.071657 -0.043192 -155894.000000 0 0 1
-4.502707 27.953068 -14.644393 31.876427 -1.411087 2.048129 0.086553 -0.044353 -8115.590000 0 0 1
-3.484907 28.911068 -14.098093 32.353526 -1.450836 2.021669 0.075356 -0.032683 -617715.000000 0 0 1
-3.740907 30.278868 -14.452893 33.759300 -1.447871 2.013203 0.060771 -0.022658 -96597.600000 0 0 1
-4.580807 30.941268 -13.546693 34.086049 -1.423816 1.979507 0.046579 -0.018354 -229627.000000 0 0 1
-4.722807 32.409868 -13.675093 35.492430 -1.426094 1.966325 0.051001 -0.027430 -14291.300000 0 0 1
-3.549807 33.156368 -13.434093 35.950253 -1.464140 1.953776 0.029141 -0.025106 -66881.900000 0 0 1
-3.796207 -33.736029 -13.750993 36.628140 1.458741 1.955648 0.043780 -0.026024 104679.000000 0 0 1
-2.883307 -32.811729 -12.971193 35.400210 1.483147 1.945950 0.040126 -0.025771 -260606.000000 0 0 1
-3.013907 -32.883429 -11.560993 34.986570 1.479397 1.907567 0.041352 -0.025843 752037.000000 0 0 1
-2.188107 -31.910929 -10.810293 33.763259 1.502334 1.896715 0.036717 -0.026720 430917.000000 0 0 1
-2.702807 -31.891929 -9.415193 33.362346 1.486249 1.856893 0.039196 -0.024317 218038.000000 0 0 1
-1.862307 -31.035929 -8.587593 32.255912 1.510863 1.840279 0.046354 -0.028595 642032.000000 0 0 1
-2.206107 -31.227929 -7.198793 32.122781 1.500268 1.796818 0.052035 -0.041816 740015.000000 0 0 1
-0.976107 -30.804529 -6.292393 31.455779 1.539120 1.772194 0.065251 -0.036093 673017.000000 0 0 1
-1.086607 -30.837029 -4.882893 31.240130 1.535574 1.727742 0.079161 -0.031695 -673335.000000 0 0 1
0.049893 -30.314429 -4.261593 30.612551 -1.569150 1.710461 0.079540 -0.028703 -457633.000000 0 0 1
0.203793 -30.371729 -2.688793 30.491197 -1.564086 1.659094 0.079421 -0.021135 -302598.000000 0 0 1
0.339593 -31.671429 -2.115693 31.743833 -1.560074 1.637495 0.075294 -0.019695 475081.000000 0 0 1
1.522593 -32.408729 -2.415793 32.534291 -1.523850 1.645118 0.064005 -0.021927 692258.000000 0 0 1
2.926393 -31.988529 -1.902593 32.178403 -1.479568 1.629957 0.059703 -0.021154 -379684.000000 0 0 1
3.196193 -32.496029 -0.560893 32.657651 -1.472755 1.587972 0.055935 -0.008370 137546.000000 0 0 1
4.457993 -32.189029 -0.005493 32.496266 -1.433178 1.570965 0.054111 -0.011002 85334.300000 0 0 1
4.751393 -30.718429 0.375007 31.085982 -1.417337 1.558732 0.051615 -0.017167 -525651.000000 0 0 1
4.925193 -30.055729 -0.828493 30.467865 -1.408371 1.597992 0.059227 -0.026469 -28732.400000 0 0 1
4.713093 -28.689729 -0.586893 29.080204 -1.407973 1.590980 0.069535 -0.017693 -140388.000000 0 0 1
4.194893 -27.820729 -1.817493 28.193853 -1.421141 1.635305 0.066645 -0.018749 891529.000000 0 0 1
2.837093 -28.144629 -2.182193 28.371310 -1.470332 1.647788 0.072298 -0.018664 1039450.000000 0 0 1
2.193593 -27.198229 -3.060893 27.457687 -1.490318 1.682505 0.071955 -0.015967 166755.000000 0 0 1
2.715293 -27.145029 -4.510093 27.650793 -1.471099 1.734637 0.060204 -0.020156 -212850.000000 0 0 1
2.378893 -28.243129 -5.318493 28.837820 -1.486766 1.756286 0.055035 -0.025651 -148069.000000 0 0 1
2.784393 -28.013529 -6.640393 28.924133 -1.471727 1.802442 0.060046 -0.025473 -179600.000000 0 0 1
2.110093 -28.923629 -7.721293 30.010784 -1.497971 1.831007 0.041204 -0.027433 -279543.000000 0 0 1
0.857393 -28.334229 -7.970893 29.446541 -1.540546 1.844906 0.056144 -0.028350 -652199.000000 0 0 1
0.645593 -28.293229 -9.380293 29.814652 -1.547982 1.890853 0.041972 -0.026343 -397207.000000 0 0 1
-0.750907 -27.854429 -9.827993 29.546955 1.543845 1.909880 0.050532 -0.026637 -857612.000000 0 0 1
-0.935807 -26.472729 -9.628793 28.185010 1.535461 1.919445 0.046760 -0.017438 -98475.600000 0 0 1
-2.264207 -25.986829 -9.566593 27.784197 1.483887 1.922308 0.057936 -0.017528 786657.000000 0 0 1
-3.163507 -26.518429 -8.370193 27.987408 1.452063 1.874514 0.065156 -0.018044 -115801.000000 0 0 1
-2.770407 -26.181229 -7.059793 27.257524 1.465372 1.832787 0.073123 -0.029757 -303682.000000 0 0 1
-1.934407 -27.151529 -6.462293 27.976931 1.499672 1.803888 0.076855 -0.032299 173341.000000 0 0 1
-1.524907 -26.878729 -4.965993 27.376130 1.514124 1.753205 0.091281 -0.025815 368461.000000 0 0 1
-2.561907 -27.020129 -3.989293 27.432922 1.476264 1.716734 0.099570 -0.033885 283612.000000 0 0 1
-2.128307 -26.712229 -2.670993 26.929669 1.491289 1.670144 0.093769 -0.027412 -665846.000000 0 0 1
-3.225307 -27.006029 -1.707393 27.251484 1.451930 1.633491 0.089880 -0.020836 -1016170.000000 0 0 1
-4.374207 -26.254529 -1.892593 26.683626 1.405705 1.641783 0.082775 -0.013540 -852355.000000 0 0 1
-5.143307 -26.173229 -0.710693 26.683265 1.376759 1.597434 0.085481 -0.022054 -176815.000000 0 0 1
-6.297507 -25.171229 -0.971393 25.965226 1.325642 1.608216 0.075099 -0.021641 -162779.000000 0 0 1
-6.056307 -23.727429 -0.886293 24.504189 1.320887 1.606973 0.062061 -0.023949 -218388.000000 0 1 0
-6.341107 -23.248129 0.386507 24.100509 1.304516 1.554758 0.068517 -0.013931 -149734.000000 0 1 0
-5.863807 -21.754029 0.651007 22.539872 1.307504 1.541910 0.038737 -0.016333 9332.300000 0 1 0
-4.529707 -21.757029 1.106707 22.251098 1.365533 1.521039 0.030178 -0.024589 -134475.000000 0 1 0
-4.105807 -20.455929 1.477207 20.916138 1.372714 1.500112 0.002373 -0.009795 -137986.000000 0 1 0
-3.149107 -20.334429 2.691407 20.752098 1.417151 1.440737 0.009981 -0.004361 55584.400000 0 1 0
-3.805707 -20.573529 3.915907 21.285860 1.387883 1.385775 0.005542 0.012463 -283898.000000 0 1 0
-2.991807 -20.337229 5.035207 21.163816 1.424734 1.330577 0.022774 0.005592 -38422.900000 0 1 0
-2.105507 -21.531029 5.475607 22.315928 1.473317 1.322897 0.025729 -0.006380 293803.000000 0 1 0
-1.072607 -21.771829 4.526407 22.263230 1.521570 1.366056 0.038833 -0.009805 -620059.000000 0 1 0
-0.296407 -22.834629 4.939807 23.364714 1.557816 1.357767 0.039907 -0.014247 -1522990.000000 0 1 0
0.552493 -23.262729 3.788107 23.575614 -1.547051 1.409418 0.044530 -0.023870 97053.800000 0 1 0
1.712793 -22.497129 3.460407 22.826057 -1.494809 1.418611 0.031982 -0.025249 1165850.000000 0 1 0
2.808693 -22.746129 4.382407 23.334109 -1.447938 1.381863 0.049739 -0.028509 -649780.000000 0 1 0
3.858393 -21.654429 4.451107 22.441343 -1.394467 1.371128 0.060903 -0.032625 -680931.000000 0 1 0
4.608893 -21.528529 3.286607 22.260307 -1.359897 1.422610 0.052305 -0.021985 -1157660.000000 0 1 0
5.803493 -20.927829 3.678607 22.026954 -1.300284 1.403005 0.057651 -0.018154 -553672.000000 0 1 0
6.687393 -20.566229 2.510207 21.771361 -1.256416 1.455241 0.059002 -0.010880 -375093.000000 0 1 0
7.382393 -21.638729 1.889007 22.941287 -1.242013 1.488362 0.064410 -0.010937 -93557.000000 0 1 0
7.167793 -21.581429 0.477807 22.745629 -1.250131 1.549788 0.056031 -0.019295 -81602.700000 0 1 0
8.086493 -22.458329 -0.375193 23.872760 -1.225182 1.586513 0.061647 -0.014267 -204206.000000 0 1 0
9.377593 -21.953129 -0.626293 23.880355 -1.167094 1.597026 0.053383 -0.006885 -795923.000000 0 1 0
9.980593 -22.840329 -1.489293 24.970199 -1.158829 1.630475 0.054904 -0.003278 -948568.000000 0 1 0
11.401293 -22.415129 -1.806593 25.212919 -1.100258 1.642511 0.051129 0.000835 -743926.000000 0 0 1
11.430693 -21.281029 -2.610593 24.297286 -1.077887 1.678448 0.048920 0.003514 -359055.000000 0 1 0
12.741093 -20.952229 -2.995293 24.704314 -1.024441 1.692341 0.049362 -0.007649 -428226.000000 0 1 0
12.827093 -19.887329 -4.099593 24.017636 -0.997952 1.742327 0.040039 -0.009481 -122483.000000 0 1 0
12.572893 -18.560829 -3.662193 22.715494 -0.975408 1.732723 0.052599 -0.009682 326721.000000 0 1 0
12.853893 -17.645629 -4.691893 22.329457 -0.941233 1.782495 0.055210 -0.010591 -1001780.000000 0 1 0
13.004093 -16.256929 -4.104393 21.218865 -0.896110 1.765455 0.048162 -0.005767 1539860.000000 0 1 0
14.286093 -16.011129 -3.432493 21.730870 -0.842274 1.729415 0.047885 -0.007172 1211290.000000 0 1 0
15.433193 -16.027529 -4.211493 22.645127 -0.804287 1.757863 0.051309 -0.007749 -1397470.000000 0 1 0
16.728193 -15.540029 -3.593193 23.113545 -0.748593 1.726888 0.050671 -0.009989 -67472.400000 0 1 0
17.510993 -16.501729 -2.882493 24.233256 -0.755734 1.690026 0.058270 -0.012515 1584060.000000 0 1 0
18.926493 -16.188829 -2.906693 25.074672 -0.707593 1.686979 0.046306 -0.000363 1681970.000000 0 0 1
19.792793 -17.208529 -2.022193 26.305463 -0.715669 1.647746 0.028829 -0.006654 347164.000000 0 0 1
21.155693 -17.165929 -2.368293 27.346687 -0.681659 1.657507 0.016472 -0.002540 336501.000000 0 0 1
21.965993 -17.940229 -1.429993 28.397210 -0.684858 1.621174 0.020327 0.002254 410971.000000 0 0 1
23.474793 -17.777729 -1.697793 29.495695 -0.648164 1.628389 0.037490 -0.004741 -219314.000000 0 0 1
24.027093 -16.531429 -1.333593 29.195339 -0.602649 1.616490 0.042939 -0.012964 57098.800000 0 0 1
25.288993 -16.768229 -0.741193 30.352200 -0.585505 1.595218 0.074729 -0.013014 -142318.000000 0 0 1
25.937593 -15.506929 -0.148793 30.219955 -0.538841 1.575720 0.069185 -0.019441 -157828.000000 0 0 1
25.239893 -14.779329 0.863107 29.261335 -0.529730 1.541296 0.040399 -0.015560 -65488.200000 0 0 1
25.942993 -13.668129 1.305207 29.352346 -0.484898 1.526315 0.031055 -0.015609 -88927.600000 0 0 1
25.141593 -12.949929 2.422107 28.384273 -0.475639 1.485360 0.038879 -0.025724 13931.400000 0 0 1
25.137193 -13.578229 3.724507 28.811781 -0.495261 1.441163 0.076518 -0.018309 538296.000000 0 0 1
26.410893 -13.744329 4.358607 30.090518 -0.479837 1.425435 0.085919 -0.006338 629121.000000 0 0 1
26.236993 -14.345329 5.754807 30.451372 -0.500352 1.380669 0.091940 0.000758 99306.500000 0 0 1
25.752493 -15.636129 5.726907 30.667196 -0.545675 1.382950 0.077462 -0.005267 -201691.000000 0 0 1
24.894393 -15.993029 6.775707 30.354868 -0.571039 1.345683 0.054479 -0.002687 358986.000000 0 0 1
23.921293 -17.208529 6.601207 30.198306 -0.623615 1.350422 0.053257 -0.010469 394756.000000 0 0 1
24.576093 -18.459929 6.665407 31.451248 -0.644226 1.357249 0.072296 -0.005838 211149.000000 0 0 1
23.630893 -19.513829 6.829807 31.398326 -0.690262 1.351522 0.056754 0.005714 334728.000000 0 0 1
1.635793 23.118968 -3.204893 23.397304 1.500159 1.708205 0.034078 -0.014931 -264042.000000 0 1 0
2.451193 24.033768 -2.543393 24.291958 1.469158 1.675690 0.045036 -0.019188 -526361.000000 0 1 0
3.224493 24.578468 -3.586293 25.047154 1.440350 1.714472 0.061495 -0.022634 -559175.000000 0 0 1
4.131693 25.693268 -3.125493 26.210372 1.411353 1.690327 0.043497 -0.015640 -158651.000000 0 0 1
5.196393 25.229168 -2.310793 25.862196 1.367669 1.660266 0.043316 -0.016111 3937.840000 0 0 1
6.027093 26.285068 -1.868093 27.031841 1.345396 1.639959 0.033848 -0.016552 -14449.300000 0 0 1
7.277293 25.839768 -1.093793 26.867248 1.296275 1.611519 0.033818 -0.031540 481436.000000 0 0 1
8.203993 25.090968 -1.911293 26.467248 1.254784 1.643073 0.056785 -0.032685 -241601.000000 0 0 1
9.087893 24.265168 -1.216793 25.939714 1.212443 1.617722 0.048052 -0.025158 -595300.000000 0 0 1
10.288993 24.096268 -2.135293 26.287887 1.167237 1.652113 0.066698 -0.022914 -778664.000000 0 0 1
11.088393 25.290268 -2.364393 27.715347 1.157593 1.656210 0.071812 -0.020423 670567.000000 0 0 1
12.102493 25.187468 -3.357893 28.145236 1.122873 1.690387 0.094870 -0.024136 513253.000000 0 0 1
13.286593 24.211668 -3.219393 27.804728 1.068899 1.686842 0.077414 -0.021671 -677081.000000 0 0 1
13.033793 22.792668 -3.399093 26.475258 1.051339 1.699539 0.087104 -0.024108 -197305.000000 0 0 1
12.802493 22.437768 -4.737393 26.264047 1.052292 1.752165 0.105570 -0.030864 178314.000000 0 0 1
11.955293 21.106968 -4.790393 24.726120 1.055438 1.765767 0.093230 -0.034057 858962.000000 0 1 0
10.572993 21.289668 -4.516093 24.195728 1.109852 1.758546 0.088722 -0.032103 151989.000000 0 1 0
9.787893 20.112668 -4.548593 22.825686 1.117883 1.771415 0.060723 -0.028026 966492.000000 0 1 0
8.242693 20.369368 -4.635993 22.457639 1.186278 1.778724 0.047548 -0.028187 725832.000000 0 1 0
7.810293 21.052668 -3.460493 22.719827 1.215547 1.723703 0.044313 -0.024243 -693791.000000 0 1 0
6.516293 21.517468 -3.668293 22.779813 1.276739 1.732533 0.040942 -0.014023 -355167.000000 0 1 0
5.852093 22.125368 -2.403893 23.012119 1.312221 1.675449 0.039656 -0.018322 296217.000000 0 1 0
5.285393 21.192368 -1.430593 21.888317 1.326382 1.636202 0.029924 -0.023719 -13589.500000 0 1 0
4.643793 21.947668 -0.458393 22.438250 1.362287 1.591227 0.037193 -0.013620 -48958.300000 0 1 0
4.348793 21.139468 0.833807 21.598249 1.367908 1.532181 0.022229 -0.009607 206430.000000 0 1 0
3.626393 21.800768 1.870407 22.179329 1.405963 1.486365 0.021732 -0.006928 329116.000000 0 1 0
3.364993 20.955668 2.987807 21.433390 1.411579 1.430941 0.023255 -0.008156 635696.000000 0 1 0
2.317293 21.503768 4.049607 22.004118 1.463448 1.385703 0.022036 -0.008682 1800760.000000 0 1 0
0.954493 21.645768 3.576207 21.959954 1.526729 1.407216 0.015970 -0.008710 515753.000000 0 1 0
0.126993 22.166268 4.547407 22.628267 1.565067 1.368457 0.021161 -0.014386 -430924.000000 0 1 0
-1.287507 22.366568 3.987907 22.755756 -1.513296 1.394638 0.023528 -0.010064 -332794.000000 0 1 0
-2.272207 22.580668 4.963507 23.231141 -1.470508 1.355479 0.040239 -0.024896 366731.000000 0 1 0
-3.540707 22.783868 4.305007 23.455796 -1.416625 1.386213 0.052516 -0.019750 1183690.000000 0 1 0
-4.738307 22.923768 5.304907 24.001932 -1.366968 1.347936 0.062898 -0.031935 409227.000000 0 1 0
-4.713307 24.125368 6.074607 25.320930 -1.377859 1.328529 0.086665 -0.024933 -258598.000000 0 0 1
-5.976407 24.323668 6.636607 25.911442 -1.329866 1.311783 0.096341 -0.021597 31766.100000 0 0 1
-6.498807 25.768468 6.958107 27.471143 -1.323748 1.314719 0.108773 -0.019896 146729.000000 0 0 1
-5.645907 26.392068 7.915407 28.125988 -1.360048 1.285516 0.096488 -0.025390 324983.000000 0 0 1
-6.193307 27.535968 8.639607 29.516596 -1.349561 1.273744 0.108231 -0.025714 -43058.500000 0 0 1
-6.192107 28.824468 7.762507 30.486861 -1.359191 1.313344 0.120195 -0.027839 1241960.000000 0 0 1
-7.431307 28.945868 7.010507 30.695844 -1.319493 1.340377 0.114816 -0.031797 685257.000000 0 0 1
-7.455807 30.071268 6.181407 31.592405 -1.327759 1.373865 0.130521 -0.034636 -536173.000000 0 0 1
-8.799507 30.280368 5.442707 31.999298 -1.287985 1.399877 0.118854 -0.035102 190424.000000 0 0 1
-9.796707 30.910268 6.204807 33.013933 -1.263871 1.381727 0.121708 -0.027217 -417037.000000 0 0 1
-10.563007 29.983268 6.892807 32.528208 -1.232077 1.357275 0.101616 -0.016531 -533347.000000 0 0 1
-11.633707 30.544868 7.863407 33.617931 -1.206887 1.334704 0.078550 -0.023229 -48541.700000 0 0 1
-10.944407 31.016368 8.978507 34.094116 -1.231577 1.304309 0.088268 -0.021198 46875.300000 0 0 1
-11.774907 31.065468 10.117607 34.728630 -1.208493 1.275176 0.081253 -0.009238 6915.720000 0 0 1
-10.954107 31.367668 11.366807 35.115914 -1.234820 1.241165 0.073181 -0.018191 -15970.800000 0 0 1
-10.453207 32.658468 11.556007 36.185445 -1.261024 1.245747 0.067290 -0.017735 -35487.800000 0 0 1
-9.696807 32.900768 12.701507 36.576180 -1.284182 1.216147 0.060599 -0.018403 -78933.200000 0 0 1
-9.255307 -33.834529 12.745307 37.321293 1.303782 1.222282 0.052775 -0.022253 -416157.000000 0 0 1
-10.250907 -33.012529 13.229507 37.012539 1.269720 1.205278 0.052325 -0.011356 -639943.000000 0 0 1
-9.895307 -31.662329 13.209807 35.706011 1.267888 1.191830 0.048111 -0.014175 208997.000000 0 0 1
-10.910307 -30.782929 13.993507 35.530857 1.230183 1.165990 0.054205 -0.018803 119191.000000 0 0 1
-10.831407 -30.871829 15.400207 36.160138 1.233364 1.130852 0.052048 -0.015187 -720411.000000 0 0 1
-9.684607 -30.476529 16.061107 35.785047 1.263115 1.105350 0.047680 -0.021528 -664401.000000 0 0 1
-9.813907 -30.735929 17.591107 36.748567 1.261731 1.071636 0.041744 -0.030323 86245.100000 0 0 1
-10.658407 -29.825629 18.303607 36.581305 1.227582 1.046789 0.065411 -0.032794 295148.000000 0 0 1
-11.184107 -30.425129 19.426107 37.790824 1.218534 1.030905 0.059305 -0.032380 -150839.000000 0 0 1
-11.583807 -29.435729 20.459207 37.672615 1.195881 0.996697 0.062456 -0.044623 -55111.300000 0 0 1
-10.447207 -29.143629 21.244807 37.547798 1.226593 0.969385 0.047504 -0.038041 253652.000000 0 0 1
-10.582207 -28.186429 22.222307 37.420434 1.211643 0.934955 0.034196 -0.036068 56750.500000 0 0 1
-9.416907 -28.267929 23.240607 37.787297 1.249228 0.908363 0.057087 -0.030146 27803.000000 0 0 1
-9.370807 -29.512229 23.901307 39.115933 1.263342 0.913426 0.037856 -0.009685 -271094.000000 0 0 1
-8.253007 -29.596829 24.737307 39.446404 1.298856 0.892957 0.051891 -0.016402 -295248.000000 0 0 1
-8.389507 -30.709729 25.838207 41.001028 1.304116 0.889006 0.050667 -0.016781 -149639.000000 0 0 1
-8.284507 -32.044529 25.283207 41.650036 1.317805 0.918467 0.066217 -0.013198 298847.000000 0 0 1
-8.579107 -33.126929 26.198107 43.096814 1.317387 0.917396 0.078372 -0.013126 -296158.000000 0 0 1
-8.355807 33.746868 25.554707 43.147580 -1.328075 0.936932 0.077734 -0.014509 -206190.000000 0 0 1
-6.973307 33.523068 25.362207 42.610617 -1.365706 0.933271 0.061215 -0.010920 255596.000000 0 0 1
-6.606307 32.306168 24.693007 41.195587 -1.369087 0.928034 0.052989 -0.007498 -135919.000000 0 0 1
-7.299107 31.893068 23.373907 40.209257 -1.345809 0.950463 0.055043 -0.012147 87677.000000 0 0 1
-8.459107 31.094668 23.508407 39.888345 -1.305181 0.940536 0.055578 -0.013580 476592.000000 0 0 1
-9.276407 30.938768 22.348207 39.277239 -1.279494 0.965524 0.046453 -0.014946 78245.800000 0 0 1
-10.165207 29.705068 22.442907 38.592831 -1.241083 0.950188 0.047908 -0.019649 -343233.000000 0 0 1
-9.470707 28.501968 22.484607 37.518183 -1.249992 0.928171 0.048428 -0.020991 -42346.700000 0 0 1
-10.308707 27.426568 22.854507 37.159314 -1.211267 0.908358 0.031528 -0.018770 -468219.000000 0 0 1
-9.576807 26.131668 22.681307 35.902939 -1.219514 0.887001 0.025141 -0.021323 -856311.000000 0 0 1
-8.456007 26.001768 23.493407 36.049080 -1.256375 0.860965 0.023408 -0.025626 -355625.000000 0 0 1
-7.812407 24.805268 23.143807 34.813372 -1.265681 0.843575 0.024366 -0.022737 891135.000000 0 0 1
-6.476607 24.421268 23.926507 34.796875 -1.311560 0.812611 0.019672 -0.017227 1908480.000000 0 0 1
-5.334107 25.111068 23.370207 34.715775 -1.361487 0.832286 0.007033 -0.015733 273242.000000 0 0 1
-4.108807 24.678868 23.914007 34.609371 -1.405819 0.807967 0.022197 -0.010965 -301945.000000 0 0 1
-2.964707 25.282968 23.112407 34.383155 -1.454068 0.833618 0.014453 -0.004754 -769834.000000 0 0 1
-2.826607 24.579168 21.880107 33.028235 -1.456299 0.846689 0.011292 -0.009071 258257.000000 0 0 1
-2.059607 25.204568 20.842807 32.770945 -1.489262 0.881473 0.008379 -0.002203 20480.400000 0 0 1
-1.540307 24.262468 19.788207 31.346660 -1.507396 0.887607 -0.000197 0.005024 -274355.000000 0 0 1
-0.551607 23.364068 20.249007 30.922585 -1.547191 0.856840 0.009275 -0.005149 36751.400000 0 0 1
-0.279107 22.460468 19.197407 29.548113 -1.558370 0.863607 0.002302 -0.000633 301509.000000 0 0 1
0.940693 21.492168 19.395107 28.964951 1.527055 0.837118 0.005812 -0.001509 491936.000000 0 0 1
2.207193 22.106768 19.403407 29.497002 1.471284 0.852890 0.006771 -0.005198 -365994.000000 0 0 1
3.228393 21.161368 19.285807 28.812643 1.419403 0.837460 0.021220 0.000545 -840506.000000 0 0 1
4.631293 21.729468 19.268207 29.408884 1.360804 0.856371 0.023960 -0.011921 -350911.000000 0 0 1
5.596193 20.688768 19.011207 28.649058 1.306624 0.845190 0.037685 -0.012734 -372896.000000 0 0 1
6.804893 21.309168 18.709907 29.162439 1.261691 0.874246 0.069725 -0.016955 -996293.000000 0 0 1
7.899193 20.336868 18.254307 28.446532 1.200315 0.874076 0.067971 -0.012320 -343720.000000 0 0 1
8.364893 19.638968 19.424307 28.861120 1.168135 0.832503 0.061727 -0.015834 183231.000000 0 0 1
9.330093 18.638268 19.137407 28.296219 1.106678 0.828036 0.058566 -0.021977 101451.000000 0 0 1
9.932593 17.869068 20.301807 28.811862 1.063470 0.788890 0.076794 -0.023330 -350245.000000 0 0 1
9.072393 16.888768 20.836707 28.314434 1.077845 0.743795 0.062537 -0.019141 164930.000000 0 0 1
9.735293 16.235568 21.917607 28.961200 1.030651 0.712405 0.065966 -0.025875 390251.000000 0 0 1
8.786993 15.250568 22.640407 28.677153 1.048080 0.660814 0.052085 -0.022723 608681.000000 0 0 1
7.669993 15.837168 23.346907 29.235642 1.119785 0.645869 0.040907 -0.010040 1200760.000000 0 0 1
6.548893 14.947368 23.547907 28.649882 1.157857 0.606023 0.039034 -0.009357 758726.000000 0 0 1
6.748093 13.768268 24.464307 28.872206 1.115085 0.559858 0.042873 -0.011811 -785013.000000 0 0 1
6.934893 14.087968 25.779307 30.185034 1.113363 0.547089 0.058132 -0.017503 -150666.000000 0 0 1
7.359593 12.913368 26.507907 30.390588 1.052788 0.511031 0.065284 -0.028342 -295687.000000 0 0 1
8.312793 13.423268 27.637307 31.829348 1.016319 0.519039 0.044835 -0.013927 464409.000000 0 0 1
9.616093 13.863368 27.271207 32.068380 0.964356 0.554036 0.076523 -0.012064 270908.000000 0 0 1
9.720493 15.007568 26.463507 31.937945 0.996035 0.594209 0.067906 -0.006131 -1282720.000000 0 0 1
11.122793 15.115168 25.867607 31.958065 0.936400 0.627627 0.091169 -0.014014 -439829.000000 0 0 1
11.289393 14.224568 24.759507 30.705406 0.899937 0.632831 0.079179 -0.021665 168929.000000 0 0 1
12.635093 13.949268 24.401907 30.816890 0.834792 0.656988 0.098620 -0.024129 68301.800000 0 0 1
12.740393 12.717768 23.432407 29.548891 0.784509 0.655071 0.072933 -0.026161 62125.000000 0 0 1
12.319993 11.472268 23.992407 29.309227 0.749783 0.611834 0.069208 -0.021472 415989.000000 0 0 1
10.907493 11.293868 24.066607 28.735456 0.802800 0.578062 0.077247 -0.017546 169400.000000 0 0 1
10.415093 9.971568 24.669107 28.573960 0.763646 0.528940 0.074274 -0.018207 -68309.500000 0 0 1
10.586893 8.878068 23.761407 27.486485 0.697833 0.526689 0.070279 -0.017328 35114.800000 0 0 1
10.216793 7.653168 24.290107 27.440174 0.642910 0.483867 0.060781 -0.021423 -166608.000000 0 0 1
10.607693 6.378868 23.495007 26.556138 0.541407 0.484882 0.060461 -0.021211 1850900.000000 0 0 1
12.051793 6.073068 23.501507 27.100714 0.466774 0.521262 0.066811 -0.011821 2116880.000000 0 0 1
12.482593 5.144268 22.567107 26.297394 0.390907 0.539141 0.077390 -0.020078 -40428.600000 0 0 1
12.117793 3.655968 22.971907 26.228144 0.293018 0.503603 0.063997 -0.023305 -528091.000000 0 0 1
12.874293 3.194768 24.023707 27.442530 0.243238 0.504495 0.073422 -0.019692 -173261.000000 0 0 1
12.498993 1.868368 24.261107 27.355383 0.148383 0.480236 0.065081 -0.024957 -636172.000000 0 0 1
13.453793 1.132768 25.218807 28.605523 0.083999 0.491542 0.055648 -0.019204 353686.000000 0 0 1
14.618393 0.626368 24.573807 28.600031 0.042822 0.537047 0.084587 -0.019915 -654675.000000 0 0 1
15.794193 1.290668 24.804507 29.434435 0.081537 0.568511 0.070896 -0.023487 -974662.000000 0 0 1
16.951293 0.727268 23.943007 29.345236 0.042877 0.616499 0.072589 -0.032080 -302889.000000 0 0 1
17.298193 -0.561332 24.376907 29.896090 -0.032439 0.617398 0.067233 -0.030872 -121079.000000 0 0 1
18.339093 -1.091432 23.597507 29.905784 -0.059444 0.661516 0.064023 -0.020010 80.814000 0 0 1
18.733693 -2.523832 23.945207 30.507277 -0.133915 0.668259 0.046505 -0.013719 117282.000000 0 0 1
17.748793 -3.380332 23.404407 29.567086 -0.188200 0.657423 0.041177 -0.008943 590888.000000 0 0 1
18.265893 -4.687832 23.583007 30.195643 -0.251222 0.674520 0.028119 -0.002632 394926.000000 0 0 1
17.453693 -5.820732 22.886207 29.364788 -0.321897 0.677127 0.043225 -0.004180 184864.000000 0 0 1
17.528893 -5.735532 21.473307 28.306560 -0.316224 0.709637 0.062698 -0.008039 116323.000000 0 0 1
16.596093 -6.595132 20.860607 27.460717 -0.378255 0.708017 0.073541 -0.006526 -135140.000000 0 0 1
16.922993 -8.177632 20.791507 28.027631 -0.450139 0.735013 0.072897 -0.009402 -44326.200000 0 0 1
16.981693 -8.796132 22.056207 29.192912 -0.477926 0.714329 0.059349 -0.009725 -6792.800000 0 0 1
17.457293 -10.130132 21.966007 29.830892 -0.525794 0.743135 0.046486 -0.010889 -341493.000000 0 0 1
17.315193 -11.047232 23.132607 30.935009 -0.567899 0.726083 0.049038 0.009911 54282.700000 0 0 1
16.099493 -11.781732 23.176207 30.580050 -0.631756 0.710729 0.068297 -0.005231 397572.000000 0 0 1
16.072393 -12.543832 24.360807 31.766625 -0.662711 0.696850 0.061679 0.005932 204390.000000 0 0 1
14.758293 -13.361232 24.310907 31.422125 -0.735756 0.686155 0.074891 0.003639 54864.700000 0 0 1
14.762793 -14.383432 23.345107 31.141888 -0.772383 0.723283 0.075650 -0.011658 387135.000000 0 0 1
13.528993 -15.084532 23.375607 30.935348 -0.839708 0.714184 0.075637 -0.017663 60118.200000 0 0 1
13.441493 -15.931632 22.121007 30.394565 -0.869972 0.755695 0.071961 -0.023882 330410.000000 0 0 1
14.540093 -16.850032 22.022707 31.310342 -0.858854 0.790671 0.070405 -0.020919 540445.000000 0 0 1
14.443993 -17.793732 20.941807 31.045211 -0.888934 0.830430 0.061303 -0.003614 -69907.000000 0 0 1
-24.335907 -32.034929 26.736963 48.304640 0.921136 0.984227 0.041287 -0.017211 -857851.000000 0 0 1
-24.193607 -33.460029 26.703173 49.172794 0.944761 0.996734 0.054047 -0.014336 -538576.000000 0 0 1
-25.352027 34.039568 26.566253 50.071782 -0.930644 1.011531 0.062370 -0.024511 -996773.000000 0 0 1
-25.884707 33.580668 27.922803 50.767729 -0.914102 0.988419 0.057278 -0.022647 -378125.000000 0 0 1
-26.661817 -33.717229 28.603323 51.631910 0.901723 0.983653 0.094438 -0.031717 5985.100000 0 0 1
-26.607067 -33.940529 30.016653 52.544220 0.905930 0.962751 0.058700 -0.028887 334099.000000 0 0 1
-27.749427 -33.106729 30.704503 52.998611 0.873204 0.952871 0.051280 -0.032780 169428.000000 0 0 1
-27.781157 -31.708629 30.431793 51.993499 0.851322 0.945546 0.046222 -0.027559 133938.000000 0 0 1
-28.675097 -31.066629 31.328343 52.619975 0.825408 0.933071 0.037242 -0.012702 33766.200000 0 0 1
-28.883457 -29.554929 30.942273 51.625306 0.796888 0.928092 0.032557 -0.018960 -629858.000000 0 0 1
-29.578027 -29.383229 29.794803 51.244162 0.782094 0.950313 0.031458 -0.010948 -255437.000000 0 0 1
-30.039597 -28.035129 29.743273 50.724828 0.750897 0.944232 0.046742 -0.005494 305851.000000 0 0 1
-30.790937 -27.482029 28.487623 50.148663 0.728676 0.966645 0.039385 -0.012213 267567.000000 0 0 1
-29.917177 -27.351829 27.388833 48.921450 0.740633 0.976588 0.048625 -0.005094 153020.000000 0 0 1
-29.184527 -26.107529 27.396503 47.790251 0.729806 0.960311 0.038224 -0.003468 324331.000000 0 0 1
-28.306627 -26.018029 26.108273 46.474132 0.743295 0.974260 0.023831 0.006245 132497.000000 0 0 1
-29.055487 -26.115729 24.918503 46.337722 0.732164 1.003020 0.024495 -0.000251 -36247.100000 0 0 1
-28.154327 -26.043729 23.819823 45.147823 0.746476 1.015028 0.038199 0.008666 40922.500000 0 0 1
-28.753607 -26.235029 22.414353 44.916032 0.739628 1.048320 0.029758 0.010364 -387555.000000 0 0 1
-29.513147 -25.119729 22.003053 44.566366 0.705154 1.054441 0.027051 0.006705 -88668.500000 0 0 1
-29.877387 -25.416129 20.665453 44.336203 0.704889 1.085910 0.025496 0.008189 47832.000000 0 0 1
-30.813847 -24.384229 19.959153 44.073253 0.669438 1.100822 0.020111 0.003178 254864.000000 0 0 1
-32.151757 -24.221929 20.372353 45.116185 0.645650 1.102291 0.018029 0.004666 3570.460000 0 0 1
-32.710917 -23.110829 19.718753 44.642399 0.615087 1.113299 0.018330 0.004715 971678.000000 0 0 1
-34.237416 -22.853629 20.075153 45.798481 0.588582 1.117049 0.039053 0.003041 1064860.000000 0 0 1
-35.035218 -23.939529 19.616753 46.748097 0.599429 1.137762 0.030971 0.001965 -215797.000000 0 0 1
-36.337097 -23.468029 19.339953 47.383191 0.573447 1.150358 0.049026 -0.003708 -92152.600000 0 0 1
36.097791 -24.586829 18.787453 47.545043 -0.597940 1.164565 0.057534 -0.015173 83130.100000 0 0 1
35.568851 -25.456329 19.819653 48.020689 -0.621180 1.145345 0.047251 -0.015682 -139944.000000 0 0 1
35.359951 -26.703129 19.243153 48.308200 -0.646808 1.161089 0.036945 -0.009141 -309402.000000 0 0 1
34.905191 -27.817329 20.197153 48.990828 -0.672872 1.145859 0.033733 -0.012160 -684448.000000 0 0 1
33.682111 -27.712729 20.854753 48.346672 -0.688473 1.124798 0.044562 -0.010337 -524169.000000 0 0 1
33.674491 -26.667329 21.822053 48.180077 -0.669791 1.100751 0.059405 -0.023037 -648915.000000 0 0 1
32.359751 -26.586029 22.600753 47.589542 -0.687760 1.075934 0.058307 -0.024042 16201.000000 0 0 1
31.214491 -26.419229 21.782053 46.333336 -0.702387 1.081374 0.061970 -0.015971 -390719.000000 0 0 1
30.108521 -25.935229 22.483153 45.657982 -0.711070 1.055922 0.070455 -0.021549 -323392.000000 0 0 1
29.283531 -24.907529 21.701953 44.146178 -0.704822 1.056878 0.064938 -0.006688 13329.700000 0 0 1
30.076591 -23.829029 21.139553 43.809870 -0.670015 1.067256 0.067327 -0.006366 460427.000000 0 0 1
30.812991 -23.000129 22.034453 44.316628 -0.641220 1.050422 0.080655 -0.013769 95208.000000 0 0 1
31.685371 -21.991329 21.251653 44.036509 -0.606724 1.067185 0.069181 -0.009985 292973.000000 0 0 1
30.897911 -20.899829 20.823753 42.721335 -0.594722 1.061650 0.061777 -0.013830 -3386.010000 0 0 1
31.704601 -19.882929 20.298753 42.574077 -0.560130 1.073801 0.060338 -0.012243 -168131.000000 0 0 1
31.111881 -18.444829 20.512953 41.580550 -0.535149 1.054882 0.048297 -0.003675 89416.400000 0 0 1
30.951591 -17.887129 21.772353 41.856729 -0.524016 1.023754 0.066588 -0.003788 273389.000000 0 0 1
29.944981 -18.442729 22.625153 41.817864 -0.552019 0.999123 0.079591 -0.010877 50059.100000 0 0 1
29.958081 -17.993329 24.077773 42.438022 -0.540873 0.967496 0.075411 -0.005732 -1357.570000 0 0 1
29.581441 -16.635229 24.298003 41.739496 -0.512278 0.949445 0.063450 -0.006988 19595.100000 0 0 1
29.926301 -16.228129 25.590953 42.589113 -0.496889 0.926195 0.064069 -0.010870 -241533.000000 0 0 1
29.436671 -14.833829 25.982023 41.971724 -0.466781 0.903281 0.057930 -0.018563 989568.000000 0 0 1
27.992721 -14.720629 26.103983 41.008625 -0.484131 0.880782 0.059330 -0.012527 1514170.000000 0 0 1
27.502121 -13.557429 26.805603 40.727275 -0.457999 0.852407 0.051173 -0.016404 50807.600000 0 0 1
27.896621 -12.146129 26.260553 40.191623 -0.410645 0.858751 0.063474 -0.022555 -741779.000000 0 0 1
27.338221 -11.929229 24.993693 38.914902 -0.411451 0.873346 0.062900 -0.022724 50375.700000 0 0 1
28.100121 -11.122429 24.140923 38.679574 -0.376893 0.896784 0.070773 -0.020416 -516187.000000 0 0 1
29.214031 -11.860629 23.387633 39.257044 -0.385660 0.932589 0.070850 -0.022613 -270081.000000 0 0 1
28.745161 -12.767429 22.406453 38.617881 -0.417986 0.951811 0.070195 -0.019863 526221.000000 0 0 1
29.613871 -13.924029 22.302653 39.601367 -0.439513 0.972569 0.058259 -0.018605 -115808.000000 0 0 1
29.087521 -14.987529 21.319053 39.053962 -0.475778 0.993349 0.054761 -0.010718 -490370.000000 0 0 1
29.261341 -14.721329 19.960053 38.358146 -0.466123 1.023524 0.046254 -0.006166 -191438.000000 0 0 1
28.866531 -15.807529 19.164253 38.084422 -0.501005 1.043493 0.042966 -0.013170 -75027.000000 0 0 1
29.205801 -15.644229 17.611153 37.521640 -0.491763 1.082231 0.052616 -0.016438 -134745.000000 0 0 1
28.861891 -16.716029 16.793053 37.342215 -0.524965 1.104359 0.052664 -0.019414 -218834.000000 0 0 1
27.495021 -16.814129 16.466853 36.191828 -0.548857 1.098437 0.058692 -0.019200 -483286.000000 0 0 1
26.944421 -15.943529 15.301253 34.847185 -0.534308 1.116204 0.060439 -0.013471 -617279.000000 0 0 1
27.161921 -16.376029 13.984653 34.662874 -0.542552 1.155515 0.067179 -0.014627 344834.000000 0 0 1
26.292621 -17.440329 13.628953 34.368814 -0.585680 1.163041 0.060789 -0.023401 -49591.500000 0 0 1
26.629821 -17.908329 12.201553 34.332689 -0.592024 1.207463 0.061707 -0.017294 -257616.000000 0 0 1
26.262721 -16.876929 11.281953 33.194032 -0.571169 1.224008 0.061882 -0.020210 20883.700000 0 0 1
26.141721 -17.310029 9.934153 32.889422 -0.584877 1.263957 0.060145 -0.021488 145359.000000 0 0 1
27.467321 -17.717329 9.248453 33.968977 -0.572876 1.295054 0.068458 -0.011315 106869.000000 0 0 1
28.149621 -18.805729 9.785053 35.239238 -0.588969 1.289423 0.060235 -0.006001 -288090.000000 0 0 1
29.511331 -18.850129 9.368453 36.249330 -0.568420 1.309384 0.057993 0.004225 387676.000000 0 0 1
30.270141 -19.717929 10.386053 37.589204 -0.577358 1.290850 0.059253 -0.011833 -219940.000000 0 0 1
30.441481 -19.101329 11.675053 37.786921 -0.560379 1.256686 0.062504 -0.020236 78037.300000 0 0 1
29.946451 -19.991429 12.631853 38.157711 -0.588629 1.233387 0.067335 -0.018212 -389745.000000 0 0 1
29.862071 -19.422929 14.054353 38.295148 -0.576671 1.195013 0.071078 -0.016294 -53655.600000 0 0 1
29.680961 -20.473629 14.992253 39.049925 -0.603841 1.176753 0.061593 -0.024624 -75156.600000 0 0 1
29.656951 -20.007729 16.321553 39.322221 -0.593501 1.142774 0.073282 -0.025708 18600.100000 0 0 1
29.589771 -21.138029 17.411553 40.317900 -0.620305 1.124246 0.067391 -0.021371 -183082.000000 0 0 1
28.373301 -21.831429 17.357053 39.785963 -0.655824 1.119357 0.033781 -0.014358 -263363.000000 0 0 1
28.279321 -22.789229 18.404853 40.716184 -0.678305 1.101759 0.053440 -0.009971 69548.000000 0 0 1
26.870521 -23.406129 18.353253 40.083833 -0.716600 1.095197 0.045875 -0.005070 40694.500000 0 0 1
25.790021 -22.580429 18.775153 39.083339 -0.719141 1.069700 0.045288 -0.006664 -511606.000000 0 0 1
24.657821 -23.332129 18.503053 38.662118 -0.757781 1.071756 0.037497 -0.001785 -1342230.000000 0 0 1
23.381821 -22.876229 19.177353 37.918364 -0.774469 1.040541 0.036310 0.002227 -966927.000000 0 0 1
22.921721 -21.643229 18.707153 36.657772 -0.756718 1.035241 0.038345 -0.005617 380893.000000 0 0 1
21.657921 -21.221229 19.230153 35.905500 -0.775214 1.005606 0.046483 -0.006380 652301.000000 0 0 1
21.673821 -20.616929 20.698153 36.376171 -0.760412 0.965503 0.051482 -0.005905 -191192.000000 0 0 1
21.981021 -21.608829 21.621153 37.650778 -0.776860 0.959102 0.050942 -0.005480 -231938.000000 0 0 1
22.218121 -20.975929 22.825953 38.139988 -0.756648 0.929196 0.055002 -0.006963 19916.300000 0 0 1
22.571121 -21.935629 23.999633 39.580421 -0.771121 0.919332 0.052224 -0.004495 170304.000000 0 0 1
21.520021 -22.705229 24.537423 39.758319 -0.812191 0.905662 0.048728 -0.001944 34080.400000 0 0 1
22.073821 -23.525429 25.533503 41.141940 -0.817221 0.901263 0.050271 -0.003854 -133936.000000 0 0 1
20.994821 -24.196229 26.381853 41.499906 -0.856122 0.881870 0.066085 -0.016137 -377112.000000 0 0 1
20.321021 -25.210729 25.712583 41.348056 -0.892379 0.899684 0.077278 -0.009433 -62937.400000 0 0 1
19.247721 -25.708329 26.465593 41.615149 -0.928130 0.881544 0.093830 -0.026965 -191019.000000 0 0 1
18.506721 -26.922429 25.832123 41.648704 -0.968571 0.901750 0.099996 -0.018860 101074.000000 0 0 1
17.825421 -26.589129 24.633403 40.392227 -0.980212 0.914919 0.094618 -0.026949 28743.700000 0 0 1
17.034821 -27.622429 24.138603 40.445715 -1.018186 0.931271 0.092032 -0.027834 -177803.000000 0 0 1
16.094821 -27.158929 22.986453 39.051604 -1.035824 0.941449 0.080943 -0.031562 15502.400000 0 0 1
14.906321 -26.525729 23.374383 38.368926 -1.058819 0.915744 0.069219 -0.030450 -33925.000000 0 0 1
14.245721 -25.864929 22.287953 36.995784 -1.067359 0.924234 0.050364 -0.021773 312255.000000 0 0 1
12.879021 -25.210229 22.564853 36.202175 -1.098495 0.897839 0.048104 -0.020902 847595.000000 0 0 1
11.800321 -26.130429 22.849053 36.662326 -1.146618 0.897930 0.056331 -0.027111 -262388.000000 0 0 1
10.578521 -25.567929 22.551353 35.695765 -1.178500 0.886968 0.056140 -0.019105 -699805.000000 0 0 1
9.426121 -26.576529 22.460353 36.050397 -1.229960 0.898190 0.061852 -0.024717 -123499.000000 0 0 1
9.340321 -27.334329 21.253853 35.862703 -1.241529 0.936458 0.063876 -0.022665 -432222.000000 0 0 1
8.020421 -27.740629 21.088153 35.757235 -1.289349 0.940036 0.060906 -0.021788 -517446.000000 0 0 1
7.810921 -28.724129 19.896953 35.804676 -1.305288 0.981582 0.069965 -0.021676 -87501.900000 0 0 1
8.362321 -30.006229 20.030753 37.034218 -1.299006 0.999323 0.069861 -0.027292 103478.000000 0 0 1
8.059721 -30.837229 18.878253 37.044328 -1.315152 1.036062 0.056622 -0.025454 154948.000000 0 0 1
8.660521 -32.290229 18.898753 38.403469 -1.308755 1.056284 0.057516 -0.030285 356709.000000 0 0 1
7.883521 -33.235029 19.641853 39.402024 -1.337896 1.048930 0.075979 -0.030232 165339.000000 0 0 1
8.732221 34.046468 20.137953 40.508652 1.319729 1.050512 0.080835 -0.033389 -266675.000000 0 0 1
7.977021 33.028068 21.009253 39.948403 1.333812 1.017012 0.097926 -0.037200 -322906.000000 0 0 1
7.179521 32.164468 20.249153 38.679798 1.351184 1.019834 0.087785 -0.039890 -219602.000000 0 0 1
6.791721 31.044968 21.012553 38.097834 1.355419 0.986585 0.099155 -0.046340 415272.000000 0 0 1
5.607921 30.188968 20.411353 36.870665 1.387129 0.984123 0.063227 -0.035041 406740.000000 0 0 1
4.500721 30.153768 21.268353 37.173231 1.422631 0.961682 0.073512 -0.032253 -109712.000000 0 0 1
3.556421 29.134668 20.864653 36.011259 1.449329 0.952813 0.070860 -0.026930 1359210.000000 0 0 1
2.107921 29.260568 21.452153 36.343075 1.498881 0.939406 0.043574 -0.013686 589118.000000 0 0 1
2.136721 29.070168 22.853853 37.039693 1.497426 0.905859 0.047794 -0.020602 677854.000000 0 0 1
0.842321 29.038568 23.479743 37.352996 1.541797 0.891057 0.026091 -0.011428 421961.000000 0 0 1
0.869221 28.286068 24.784203 37.618000 1.540076 0.851522 0.039628 -0.017641 -256291.000000 0 0 1
1.193821 29.148868 25.876213 38.995643 1.529863 0.845220 0.047473 -0.022757 188138.000000 0 0 1
1.118421 28.503668 27.151253 39.381474 1.531579 0.810078 0.039636 -0.021991 -583001.000000 0 0 1
2.318321 27.703268 27.625683 39.192143 1.487307 0.788545 0.033578 -0.023600 -703141.000000 0 0 1
2.489021 26.484168 26.842493 37.790552 1.477090 0.780877 0.035777 -0.021105 307789.000000 0 0 1
3.510721 25.753668 27.500503 37.839850 1.435312 0.757203 0.020964 -0.014371 -65201.000000 0 0 1
3.808121 24.445168 26.745563 36.433408 1.416256 0.746464 0.021316 -0.008955 -114872.000000 0 0 1
2.826221 23.424968 26.899153 35.781016 1.450727 0.720052 0.031864 -0.004533 210470.000000 0 0 1
3.264121 22.237468 26.289093 34.587222 1.425052 0.707358 0.020713 0.001281 367682.000000 0 0 1
2.270621 21.080668 26.648993 34.054649 1.463499 0.672067 0.027872 0.003529 -75308.600000 0 0 1
2.823021 19.808268 26.626143 33.305982 1.429232 0.644433 0.027377 0.005684 257890.000000 0 0 1
3.425521 19.313368 25.389973 32.084126 1.395257 0.657772 0.033044 0.007810 -440767.000000 0 0 1
4.070321 17.922168 25.622123 31.531965 1.347474 0.622238 0.035027 0.002646 -116169.000000 0 0 1
5.197521 17.942368 26.450653 32.381783 1.288835 0.614889 0.023486 0.003288 62200.600000 0 0 1
6.402521 18.257568 25.769533 32.224213 1.233518 0.644010 0.037182 -0.001019 -112293.000000 0 0 1
7.751121 18.025268 26.541313 33.006537 1.164686 0.636598 0.038226 -0.007222 805579.000000 0 0 1
8.223121 19.105768 27.389583 34.392432 1.164361 0.649504 0.030843 -0.001568 262402.000000 0 0 1
8.420721 20.386768 26.747813 34.669502 1.179092 0.689588 0.027717 -0.001323 -515080.000000 0 0 1
8.943821 21.470368 27.695943 36.166752 1.176091 0.698536 0.020183 -0.003275 -448664.000000 0 0 1
10.248221 21.287968 28.164213 36.761754 1.122132 0.698002 0.044120 -0.015289 -252855.000000 0 0 1
10.522721 22.406968 29.034003 38.154597 1.131748 0.706010 0.058239 -0.026632 -902919.000000 0 0 1
11.656121 22.232968 29.981663 39.103327 1.087920 0.697066 0.069674 -0.025328 -505651.000000 0 0 1
12.908621 22.084668 29.310773 38.903554 1.041847 0.717546 0.077147 -0.031226 -7457.310000 0 0 1
13.918821 21.960968 30.300143 39.926387 1.005895 0.709174 0.075314 -0.028783 913757.000000 0 0 1
15.324221 21.777068 29.583883 39.802998 0.957601 0.732870 0.060917 -0.028060 907686.000000 0 0 1
15.740521 23.045068 29.040403 40.276348 0.971549 0.765511 0.049444 -0.028041 387850.000000 0 0 1
17.034121 22.840368 28.465473 40.275636 0.929995 0.785879 0.081770 -0.025835 527106.000000 0 0 1
-8.519707 16.655068 4.195707 19.172393 -1.097961 1.350170 0.030972 -0.022527 -451223.000000 0 1 0
-8.556007 18.005168 4.598607 20.458214 -1.127187 1.344079 0.036659 -0.024754 459639.000000 0 1 0
-7.275607 18.467468 5.029407 20.476249 -1.195500 1.322636 0.035455 -0.016092 192524.000000 0 1 0
-7.263007 19.858168 5.655107 21.887859 -1.220165 1.309465 0.046389 -0.014601 51980.500000 0 1 0
-7.415807 20.994768 4.768307 22.770842 -1.231254 1.359831 0.056793 -0.020113 1828870.000000 0 1 0
-8.820207 21.136968 4.346007 23.312127 -1.175476 1.383272 0.054643 -0.026294 1569120.000000 0 1 0
-9.032307 22.306368 3.295407 24.290252 -1.186055 1.434709 0.072489 -0.033308 -127837.000000 0 1 0
-8.304807 22.310868 2.117707 23.900405 -1.214455 1.482074 0.055103 -0.030586 -368820.000000 0 1 0
-8.678707 21.255868 1.236607 22.992631 -1.183158 1.516988 0.063907 -0.030811 -919824.000000 0 1 0
-7.704807 21.068768 0.101407 22.433621 -1.220206 1.566276 0.038931 -0.018558 257941.000000 0 1 0
-6.475207 20.407568 0.357407 21.413194 -1.263550 1.554105 0.034591 -0.013188 604181.000000 0 1 0
-5.397807 21.259468 0.752807 21.946937 -1.322149 1.536488 0.037958 -0.025757 -264474.000000 0 1 0
-4.080707 21.011868 0.048207 21.404511 -1.378975 1.568544 0.030201 -0.016378 -1008710.000000 0 1 0
-4.076407 21.499968 -1.320193 21.922788 -1.383420 1.631053 0.027704 -0.011685 918912.000000 0 1 0
-2.778207 21.561968 -1.949293 21.827429 -1.442655 1.660220 0.024010 -0.007071 913367.000000 0 1 0
-3.002807 21.723568 -3.477293 22.204095 -1.433439 1.728050 0.031699 -0.002926 1174490.000000 0 1 0
-1.755007 22.078168 -4.127293 22.529095 -1.491473 1.755035 0.046056 -0.006143 1282400.000000 0 1 0
-1.965507 22.257968 -5.514393 23.014971 -1.482719 1.812750 0.056249 -0.019292 754748.000000 0 1 0
-0.657307 22.891468 -6.103493 23.700295 -1.542090 1.831259 0.060783 -0.024569 682213.000000 0 1 0
0.491393 22.077968 -6.028393 22.891476 1.548543 1.837286 0.056162 -0.017625 296583.000000 0 1 0
1.601393 22.707068 -6.693793 23.727247 1.500389 1.856793 0.070897 -0.019410 78312.300000 0 1 0
2.873793 21.876468 -6.655893 23.046463 1.440180 1.863773 0.056655 -0.012528 -437325.000000 0 1 0
2.841293 20.854768 -7.597693 22.376757 1.435388 1.917219 0.060980 -0.022732 159169.000000 0 1 0
4.021093 20.073268 -7.488793 21.798791 1.373092 1.921482 0.056583 -0.017857 301621.000000 0 1 0
4.119093 18.879168 -8.453693 21.091582 1.355981 1.983196 0.047662 -0.021630 47984.000000 0 1 0
4.436893 19.177868 -9.828693 22.001815 1.343442 2.033894 0.059128 -0.028507 626240.000000 0 1 0
3.230393 19.426768 -10.597393 22.363799 1.406018 2.064470 0.057794 -0.024954 643613.000000 0 1 0
3.464193 19.500068 -12.071793 23.194427 1.394980 2.118187 0.062838 -0.029115 197067.000000 0 1 0
3.974493 20.797568 -12.468993 24.572570 1.381969 2.103002 0.104530 -0.035408 121601.000000 0 1 0
3.925093 20.983068 -13.850493 25.446643 1.385873 2.146345 0.101922 -0.030705 21196.400000 0 0 1
4.203193 22.456668 -14.363793 26.986799 1.385768 2.132055 0.098062 -0.034226 216070.000000 0 0 1
3.170393 23.422968 -14.334493 27.643526 1.436260 2.115948 0.115773 -0.036172 -304061.000000 0 0 1
3.662393 24.582368 -14.858093 28.956327 1.422900 2.109613 0.104782 -0.040316 457062.000000 0 0 1
2.578793 25.675568 -15.249993 29.974110 1.470694 2.104554 0.111180 -0.028330 793386.000000 0 0 1
1.739593 26.054668 -14.168293 29.708794 1.504128 2.067927 0.126551 -0.033620 -102025.000000 0 0 1
1.411893 27.447668 -14.137693 30.906994 1.519402 2.045896 0.097722 -0.028629 102369.000000 0 0 1
0.438093 27.711168 -12.937293 30.585524 1.554988 2.007536 0.103823 -0.031702 445577.000000 0 0 1
-0.905107 27.326968 -13.146693 30.338390 -1.537687 2.018987 0.091837 -0.039270 -99151.700000 0 0 1
-1.371207 25.972068 -13.201493 29.166898 -1.518050 2.040497 0.087765 -0.041446 -187592.000000 0 0 1
-1.318807 25.050868 -11.956493 27.789260 -1.518200 2.015573 0.108705 -0.041443 -492678.000000 0 0 1
-2.353207 25.337268 -11.037793 27.737116 -1.478187 1.980070 0.094308 -0.035237 -109161.000000 0 0 1
-2.529307 24.215268 -10.193093 26.394616 -1.466723 1.967284 0.116406 -0.028851 -3252.730000 0 0 1
-3.706507 24.425668 -9.210393 26.366319 -1.420199 1.927646 0.080044 -0.022270 102776.000000 0 0 1
-3.401007 24.936068 -7.905493 26.379370 -1.435244 1.875158 0.091273 -0.018152 -177994.000000 0 0 1
-2.912507 26.237768 -7.842593 27.539234 -1.460245 1.859572 0.091619 -0.021888 -83520.800000 0 0 1
-2.583907 26.677768 -6.428093 27.562661 -1.474241 1.806181 0.073577 -0.017781 238492.000000 0 0 1
-1.691707 25.741368 -5.824093 26.446171 -1.505171 1.792841 0.079159 -0.022318 190305.000000 0 0 1
-1.238307 26.170268 -4.530293 26.588341 -1.523514 1.742018 0.071901 -0.023162 121855.000000 0 0 1
-2.160607 25.702168 -3.383993 26.013863 -1.486930 1.701250 0.064247 -0.019824 -158204.000000 0 0 1
-3.456907 26.244968 -3.339493 26.681469 -1.439833 1.696287 0.050978 -0.016271 -345634.000000 0 0 1
-4.216607 25.596568 -2.377493 26.050270 -1.407529 1.662189 0.051695 -0.012427 -580993.000000 0 0 1
-5.406407 24.772368 -2.846993 25.514796 -1.355922 1.682611 0.048611 -0.016514 -305113.000000 0 0 1
-6.517507 25.560068 -3.289893 26.582294 -1.321129 1.694877 0.037852 -0.015363 -198551.000000 0 0 1
-7.511307 24.700068 -3.760293 26.089326 -1.275582 1.715432 0.026060 -0.006422 680991.000000 0 0 1
-8.912307 25.399768 -3.985593 27.211439 -1.233336 1.717793 0.027350 -0.006869 971105.000000 0 0 1
-9.558007 25.617968 -2.727593 27.478638 -1.213694 1.670222 0.035279 -0.020257 13510.200000 0 0 1
-10.891907 26.064368 -2.906993 28.397809 -1.174968 1.673343 0.037140 -0.021491 335879.000000 0 0 1
-11.713907 26.211968 -1.609593 28.755411 -1.150530 1.626801 0.049236 -0.024183 10902.300000 0 0 1
-12.193407 25.010868 -1.026393 27.843782 -1.117179 1.607667 0.058189 -0.021914 264724.000000 0 0 1
-11.191307 24.257368 -0.364493 26.717001 -1.138538 1.584439 0.064178 -0.025566 121396.000000 0 0 1
-11.727007 22.867868 0.048207 25.699502 -1.096949 1.568921 0.063120 -0.024256 -179480.000000 0 0 1
-12.670907 22.974468 1.087307 26.259481 -1.066786 1.529378 0.071560 -0.023158 -220974.000000 0 0 1
-13.250907 21.708768 1.332107 25.468248 -1.022769 1.518468 0.067776 -0.024353 624971.000000 0 0 1
-14.307507 21.770168 2.537307 26.174089 -0.989371 1.473704 0.068756 -0.025015 420403.000000 0 0 1
-13.686707 21.837268 3.801007 26.050718 -1.010933 1.424366 0.055677 -0.026086 174082.000000 0 0 1
-13.377707 23.199168 4.224607 27.111100 -1.047726 1.414333 0.061468 -0.021068 -77295.700000 0 0 1
-12.981607 23.254668 5.699207 27.235688 -1.061651 1.359983 0.059702 -0.015752 405733.000000 0 0 1
-11.772107 22.580568 6.090407 26.183156 -1.090224 1.336038 0.061590 -0.014707 630536.000000 0 0 1
-11.788007 22.372868 7.514507 26.381247 -1.085870 1.281954 0.055522 -0.011954 -3141.000000 0 0 1
-10.452507 21.951268 8.166807 25.647804 -1.126395 1.246733 0.054282 -0.015239 -197175.000000 0 0 1
-9.567007 22.996268 8.471907 26.308348 -1.176553 1.242930 0.068871 -0.015725 391646.000000 0 0 1
-8.374307 22.567868 9.123707 25.742567 -1.215474 1.208501 0.074412 -0.013490 334743.000000 0 0 1
-8.474507 22.578568 10.691007 26.380043 -1.211733 1.153524 0.060233 -0.015525 35294.700000 0 0 1
-9.380107 21.524568 11.006907 25.931553 -1.159825 1.132431 0.060128 -0.014871 242641.000000 0 0 1
-9.147407 21.155868 12.364307 26.155724 -1.162690 1.078423 0.048675 -0.012860 134936.000000 0 0 1
-10.058607 19.963968 12.883507 25.801558 -1.104083 1.047970 0.049410 -0.009305 177318.000000 0 0 1
-10.140907 18.830668 11.996907 24.522599 -1.076801 1.059603 0.057280 -0.013435 64118.200000 0 1 0
-10.785207 17.737168 12.660907 24.315148 -1.024474 1.023125 0.042327 -0.007874 17598.500000 0 1 0
-10.933807 16.522668 11.744907 23.032359 -0.986208 1.035692 0.036609 -0.011605 -584.092000 0 1 0
-11.184607 15.305968 12.451907 22.680787 -0.939739 0.989621 0.036526 -0.008500 252629.000000 0 1 0
-11.659807 14.348468 11.475707 21.760549 -0.888409 1.015302 0.030114 -0.002408 149976.000000 0 1 0
-11.884207 12.948468 12.057607 21.313918 -0.828229 0.969496 0.024009 -0.005592 510789.000000 0 1 0
-12.991207 12.933268 12.963907 22.452256 -0.783163 0.955257 0.031610 -0.000591 429851.000000 0 1 0
-13.132507 11.586768 13.469107 22.093728 -0.722948 0.915196 0.025442 0.000065 -41903.600000 0 1 0
-13.933307 11.474668 14.772107 23.324241 -0.688932 0.884938 0.032208 -0.007617 447930.000000 0 1 0
-15.338707 11.497668 14.561607 24.073071 -0.643236 0.921166 0.047768 -0.016115 401119.000000 0 1 0
-16.087007 11.860668 15.701507 25.416620 -0.635312 0.904899 0.046739 -0.011088 267111.000000 0 0 1
-17.073807 13.040568 15.605607 26.553838 -0.652260 0.942587 0.059090 -0.007091 590325.000000 0 0 1
-18.187807 12.894968 14.708007 26.709587 -0.616734 0.987637 0.046734 -0.009714 383369.000000 0 0 1
-19.050307 13.996168 14.785807 27.882379 -0.633634 1.011851 0.067275 -0.009853 641844.000000 0 0 1
-20.354307 13.766268 13.935007 28.248759 -0.594664 1.054921 0.075076 -0.016990 866735.000000 0 0 1
-21.408607 12.992968 14.500507 28.938044 -0.545480 1.045941 0.074220 -0.013705 682890.000000 0 0 1
-22.591107 13.148168 13.712907 29.517390 -0.527084 1.087647 0.062208 -0.013022 497812.000000 0 0 1
-23.736607 12.159768 14.045907 30.142561 -0.473423 1.086052 0.060635 -0.015343 11524.200000 0 0 1
-24.295507 12.441068 15.321707 31.301862 -0.473259 1.059300 0.062779 -0.015140 315704.000000 0 0 1
-25.312937 11.470568 15.579607 31.859738 -0.425471 1.059846 0.051346 -0.015313 46192.600000 0 0 1
-26.208437 11.862668 16.796807 33.312728 -0.425037 1.042323 0.048990 -0.007269 106102.000000 0 0 1
-27.129447 12.916468 16.574907 34.315734 -0.444350 1.066705 0.061305 -0.008450 379178.000000 0 0 1
-27.676907 13.404368 17.811907 35.538041 -0.451022 1.045804 0.062807 0.005259 430380.000000 0 0 1
-28.785827 14.473568 17.583907 36.705610 -0.465887 1.071222 0.069596 -0.005574 422649.000000 0 0 1
-28.247027 15.795668 17.419107 36.753544 -0.509877 1.077032 0.073500 -0.001539 -280176.000000 0 0 1
-29.280287 16.710668 17.205607 37.849895 -0.518607 1.098902 0.091318 -0.002683 -108870.000000 0 0 1
-28.782677 18.133968 16.913307 37.991358 -0.562209 1.109412 0.091221 -0.010841 -351640.000000 0 0 1
-28.240597 18.972368 17.919207 38.452309 -0.591556 1.086019 0.088599 -0.020852 -420266.000000 0 0 1
-29.001127 19.283168 19.041407 39.692331 -0.586786 1.070455 0.102178 -0.022830 -472012.000000 0 0 1
-28.096067 19.366768 20.347107 39.729907 -0.603512 1.033127 0.099327 -0.038003 816523.000000 0 0 1
-27.670867 18.141068 21.006207 39.192295 -0.580303 1.005131 0.107737 -0.029988 79048.600000 0 0 1
-26.951127 17.231668 20.215807 37.841413 -0.568864 1.007206 0.098822 -0.013694 -531778.000000 0 0 1
-26.593867 15.940468 20.948607 37.418932 -0.539981 0.976604 0.098587 -0.008258 76560.600000 0 0 1
-27.704047 15.167768 21.351807 38.124469 -0.500916 0.976344 0.090462 -0.002966 -42082.600000 0 0 1
-27.305707 13.941068 21.778507 37.606627 -0.472056 0.953155 0.075572 0.009239 32296.700000 0 0 1
-28.507567 12.962168 21.918207 38.224430 -0.426749 0.960136 0.075799 -0.009086 -103041.000000 0 0 1
-29.069997 12.622868 20.719107 37.864006 -0.409657 0.991783 0.069232 -0.008872 115040.000000 0 0 1
-29.972367 11.536168 21.005307 38.375108 -0.367416 0.991580 0.089012 -0.009936 282589.000000 0 0 1
-30.953587 11.094668 19.849707 38.408685 -0.344164 1.027684 0.099083 -0.016925 -141281.000000 0 0 1
-30.520937 10.441968 18.659007 37.265545 -0.329642 1.046384 0.118140 -0.024857 17420.800000 0 0 1
-29.811497 9.224568 18.835207 36.449733 -0.300085 1.027752 0.122300 -0.030088 -35025.700000 0 0 1
-28.997377 8.928768 17.529107 35.040554 -0.298704 1.046907 0.126095 -0.034547 -275805.000000 0 0 1
-29.757327 8.513568 16.420907 35.037488 -0.278656 1.083015 0.134948 -0.030306 205325.000000 0 0 1
-30.543757 9.519468 15.798007 35.680785 -0.302125 1.112122 0.131936 -0.032278 -221128.000000 0 0 1
-29.758997 10.655468 15.121207 35.039804 -0.343836 1.124593 0.117646 -0.015555 -25999.600000 0 0 1
-29.187847 10.267968 13.857107 33.902522 -0.338268 1.149730 0.106822 -0.024721 703659.000000 0 0 1
-28.081117 11.103268 13.506007 33.079358 -0.376534 1.150215 0.084311 -0.007456 -47864.900000 0 0 1
-27.695827 11.162868 12.022507 32.190203 -0.383135 1.188035 0.094871 -0.010941 -57725.200000 0 0 1
-27.027937 10.042368 11.425807 31.014636 -0.355747 1.193508 0.114932 -0.009802 754991.000000 0 0 1
-27.834057 8.885168 11.229507 31.301482 -0.308995 1.203864 0.125368 -0.009382 328022.000000 0 0 1
-27.007557 7.831768 10.413807 29.986532 -0.282243 1.216124 0.139526 -0.012946 300881.000000 0 0 1
-26.767667 8.079768 9.053807 29.389830 -0.293151 1.257644 0.143425 -0.007754 506411.000000 0 0 1
-26.090437 6.961568 8.429807 28.288443 -0.260750 1.268205 0.154832 -0.019205 -134885.000000 0 0 1
-25.588117 7.350768 7.006907 27.529662 -0.279740 1.313443 0.157001 -0.014424 -261499.000000 0 0 1
-26.493777 7.599668 5.960407 28.199320 -0.279347 1.357823 0.172824 -0.022947 -344936.000000 0 0 1
-25.822507 8.240768 4.910707 27.546818 -0.308915 1.391571 0.169878 -0.026906 -419338.000000 0 0 1
-26.711407 8.821468 3.815207 28.387909 -0.318974 1.435993 0.170589 -0.025819 -216733.000000 0 0 1
-27.471837 7.883068 3.015507 28.739135 -0.279443 1.465676 0.185620 -0.034506 444299.000000 0 0 1
-26.831127 6.736668 2.409907 27.768683 -0.245992 1.483902 0.187305 -0.032756 -82225.700000 0 0 1
-25.859807 6.952568 1.191707 26.804627 -0.262645 1.526323 0.189796 -0.030250 759234.000000 0 0 1
-24.727907 7.726568 1.561907 25.953975 -0.302852 1.510580 0.162148 -0.024420 167393.000000 0 0 1
-23.638407 7.671668 0.684807 24.861572 -0.313818 1.543248 0.148918 -0.017109 369553.000000 0 1 0
-22.345207 8.362768 1.246907 23.891399 -0.358116 1.518582 0.100865 -0.016323 481286.000000 0 1 0
-22.545607 9.780168 1.293107 24.609515 -0.409296 1.518227 0.090277 -0.021424 934679.000000 0 1 0
-21.423907 10.374068 1.937807 23.882215 -0.450951 1.489567 0.085439 -0.021737 103310.000000 0 1 0
-21.717107 11.846668 2.200607 24.835840 -0.499381 1.482074 0.076874 -0.023541 -301164.000000 0 1 0
-20.671607 12.605168 2.755107 24.367934 -0.547581 1.457491 0.081270 -0.026793 388875.000000 0 1 0
-21.191907 13.737868 3.391907 25.481974 -0.575151 1.437290 0.084780 -0.034994 132821.000000 0 0 1
-20.087707 14.395668 4.258807 25.077653 -0.621807 1.400144 0.061804 -0.023488 363180.000000 0 0 1
-19.597407 13.581568 5.327207 24.431465 -0.606032 1.350983 0.057837 -0.027476 33794.000000 0 1 0
-18.560307 14.270568 5.972007 24.161933 -0.655472 1.321042 0.054980 -0.026716 -142292.000000 0 1 0
-17.894707 13.413468 7.098007 23.463235 -0.643231 1.263465 0.027516 -0.022303 -39162.100000 0 1 0
-17.260107 12.202868 6.695707 22.173268 -0.615407 1.264036 0.050188 -0.021874 160659.000000 0 1 0
-16.810207 11.579368 7.843507 21.867452 -0.603190 1.203939 0.037891 -0.009872 -457639.000000 0 1 0
10.746993 -32.491829 -14.523193 37.177143 -1.251364 1.972132 0.042244 -0.010141 122205.000000 0 0 1
11.821593 -32.624129 -13.604493 37.271518 -1.223155 1.944440 0.024392 -0.010917 418071.000000 0 0 1
12.740293 -31.541829 -13.705693 36.674897 -1.186917 1.953800 0.019451 -0.022598 192976.000000 0 0 1
13.948493 -31.662629 -12.749893 36.873328 -1.155841 1.923861 0.039673 -0.016091 387625.000000 0 0 1
14.951593 -32.580329 -13.171993 38.190697 -1.140554 1.922929 0.038871 -0.016764 19486.600000 0 0 1
16.253193 -32.042229 -13.216093 38.282317 -1.101371 1.923277 0.041836 -0.018412 -219636.000000 0 0 1
17.234293 -32.994129 -13.870193 39.724245 -1.089434 1.927473 0.046530 -0.024336 -231265.000000 0 0 1
17.393293 34.045368 -13.104693 40.414684 1.098478 1.901021 0.043088 -0.020768 23291.900000 0 0 1
18.104393 32.987368 -13.797293 40.078682 1.068853 1.922242 0.034583 -0.007460 221319.000000 0 0 1
18.060193 31.647768 -12.957393 38.673580 1.052228 1.912449 0.027917 -0.008159 287731.000000 0 0 1
18.876193 31.724868 -11.781893 38.750367 1.034064 1.879733 0.021755 -0.011523 51341.200000 0 0 1
18.749993 30.506768 -11.032493 37.469201 1.019698 1.869668 0.013269 -0.010509 97189.500000 0 0 1
19.612993 30.336168 -9.741893 37.414664 0.996870 1.834208 0.010355 -0.005040 1252050.000000 0 0 1
20.997793 30.089668 -10.080893 38.051542 0.961521 1.838925 0.019978 -0.011465 769059.000000 0 0 1
21.763793 29.979968 -8.924293 38.106485 0.942869 1.807185 0.013632 -0.014717 1446240.000000 0 0 1
23.167893 29.195668 -9.011493 38.345082 0.900008 1.808026 0.027790 -0.004061 1755470.000000 0 0 1
24.143493 29.792168 -9.856893 39.593432 0.889748 1.822395 0.043496 -0.013626 -23386.100000 0 0 1
25.310193 28.997068 -9.840393 39.727436 0.853183 1.821099 0.051099 -0.005495 -352617.000000 0 0 1
26.366193 29.469168 -10.827293 40.998027 0.840915 1.838060 0.058083 -0.007291 -500996.000000 0 0 1
26.823593 30.708268 -10.462293 42.094684 0.852818 1.821971 0.078297 -0.029387 -329445.000000 0 0 1
28.079093 30.994268 -11.029793 43.252011 0.834707 1.828657 0.090145 -0.022283 -21616.700000 0 0 1
28.578293 32.415568 -10.922393 44.573384 0.848228 1.818360 0.089599 -0.029986 -350472.000000 0 0 1
27.918893 33.381568 -11.697493 45.062457 0.874277 1.833388 0.092849 -0.030680 -312742.000000 0 0 1
28.366093 -33.568629 -11.405493 45.404552 -0.869202 1.824713 0.094753 -0.031450 -552698.000000 0 0 1
27.408593 -32.493129 -11.872193 44.135964 -0.870076 1.843142 0.084791 -0.029681 -956480.000000 0 0 1
26.191693 -32.675929 -11.200593 43.349445 -0.895105 1.832140 0.083990 -0.032359 -730100.000000 0 0 1
25.220693 -31.683629 -11.486293 42.093594 -0.898489 1.847177 0.089406 -0.036085 -5377.990000 0 0 1
25.422893 -30.211529 -11.096093 41.014427 -0.871260 1.844751 0.077285 -0.029077 -190674.000000 0 0 1
26.358593 -29.502529 -11.924693 41.320369 -0.841620 1.863551 0.074102 -0.027448 215578.000000 0 0 1
26.934193 -28.411229 -11.267293 40.738195 -0.812079 1.851028 0.068344 -0.014719 196803.000000 0 0 1
27.861293 -27.484629 -12.121593 40.970593 -0.778593 1.871153 0.086203 -0.010285 105588.000000 0 0 1
29.115593 -27.938029 -12.526493 42.251204 -0.764762 1.871798 0.065953 -0.008873 -556583.000000 0 0 1
29.106693 -28.966229 -13.526693 43.234401 -0.782979 1.889008 0.083176 -0.017802 -320953.000000 0 0 1
30.486893 -29.592329 -13.833493 44.682458 -0.770510 1.885564 0.088692 -0.011463 187286.000000 0 0 1
30.982693 -30.349829 -12.738793 45.203055 -0.775080 1.856479 0.090924 -0.023165 -128731.000000 0 0 1
32.107893 -31.103129 -13.112193 46.585953 -0.769504 1.856114 0.083127 -0.030018 -163653.000000 0 0 1
32.657593 -32.144629 -12.097293 47.393460 -0.777482 1.828905 0.064623 -0.026423 235475.000000 0 0 1
33.577893 -33.021229 -12.741593 48.787546 -0.777040 1.835025 0.053202 -0.030038 -251133.000000 0 0 1
34.255393 -33.879129 -11.872093 49.620297 -0.779876 1.812399 0.048576 -0.020005 -282677.000000 0 0 1
33.526793 33.245868 -11.100093 48.503048 0.781191 1.801696 0.055802 -0.022004 -297913.000000 0 0 1
32.515593 33.620868 -10.215593 47.874679 0.802109 1.785832 0.061822 -0.026978 -405097.000000 0 0 1
32.279793 32.628868 -9.239993 46.818859 0.790776 1.769457 0.083155 -0.023899 -82920.500000 0 0 1
31.324393 33.031268 -8.114993 46.239976 0.811914 1.747207 0.071132 -0.029626 104217.000000 0 0 1
29.951293 33.201868 -8.420693 45.501121 0.836824 1.756935 0.059940 -0.033203 -393392.000000 0 0 1
29.270393 33.655668 -7.288893 45.194998 0.854975 1.732780 0.052987 -0.031097 63059.000000 0 0 1
28.498893 -33.269529 -7.567193 44.455718 -0.862479 1.741848 0.049677 -0.029295 229401.000000 0 0 1
29.298893 -32.066929 -7.633793 44.102016 -0.830475 1.744767 0.032456 -0.027021 542363.000000 0 0 1
28.530093 -30.938329 -8.038493 42.845814 -0.825872 1.759529 0.042197 -0.017314 416407.000000 0 0 1
27.431793 -30.351229 -7.124493 41.526603 -0.835879 1.743214 0.039501 -0.013656 458363.000000 0 0 1
26.640493 -29.385829 -7.797893 40.423384 -0.834360 1.764919 0.028966 -0.015377 200391.000000 0 0 1
25.588293 -28.860929 -6.980893 39.197536 -0.845430 1.749847 0.029716 -0.017732 436857.000000 0 0 1
24.703693 -27.859229 -7.763693 38.035299 -0.845360 1.776359 0.074367 -0.027085 218165.000000 0 0 1
23.648293 -28.502529 -8.488193 37.995859 -0.878211 1.796095 0.101312 -0.033442 683600.000000 0 0 1
22.775493 -27.590829 -9.136393 36.924932 -0.880715 1.820825 0.122640 -0.035876 365603.000000 0 0 1
21.530193 -28.288929 -9.772693 36.868933 -0.920240 1.839068 0.104351 -0.028303 139007.000000 0 0 1
21.722593 -29.074629 -10.951093 37.909518 -0.929133 1.863847 0.112579 -0.031009 -40053.500000 0 0 1
20.549393 -29.811929 -11.253193 37.916527 -0.967287 1.872124 0.099760 -0.028541 267396.000000 0 0 1
20.259393 -31.056229 -10.441793 38.522245 -0.992774 1.845289 0.093637 -0.039692 43372.500000 0 0 1
21.126993 -32.145229 -10.718893 39.931945 -0.989351 1.842558 0.083184 -0.034393 -277540.000000 0 0 1
20.641793 -33.320029 -10.178993 40.495924 -1.016161 1.824880 0.073458 -0.036425 -773794.000000 0 0 1
21.513393 33.703668 -10.240293 41.275016 1.002683 1.821514 0.061340 -0.026251 -364553.000000 0 0 1
22.609193 33.925268 -9.368593 41.831447 0.982950 1.796673 0.045719 -0.020298 -943942.000000 0 0 1
23.753493 33.328368 -9.878293 42.102128 0.951590 1.807631 0.053679 -0.026501 -1401880.000000 0 0 1
24.973193 33.750168 -9.088393 42.957340 0.933763 1.783975 0.060219 -0.027434 -856394.000000 0 0 1
25.168093 33.358868 -7.743993 42.499605 0.924444 1.754033 0.059393 -0.040037 40036.900000 0 0 1
25.513193 31.988668 -7.624593 41.621296 0.897539 1.755026 0.060111 -0.021076 -419616.000000 0 0 1
25.721993 31.423568 -6.226893 41.083278 0.884842 1.722950 0.053067 -0.026921 -470990.000000 0 0 1
26.754093 32.014668 -5.474593 42.079587 0.874673 1.701267 0.068864 -0.038875 255683.000000 0 0 1
27.817193 31.139468 -5.086993 42.063526 0.841690 1.692029 0.085729 -0.034019 347808.000000 0 0 1
27.448693 29.972168 -4.131493 40.851326 0.829317 1.672104 0.075566 -0.019804 -470932.000000 0 0 1
27.000593 30.438068 -2.827293 40.786046 0.845173 1.640172 0.075534 -0.021351 -5315.610000 0 0 1
26.863593 29.359568 -1.909493 39.840721 0.829763 1.618743 0.062302 -0.014832 455917.000000 0 0 1
25.531793 28.535368 -1.991493 38.341958 0.840894 1.622760 0.037368 -0.005339 784648.000000 0 0 1
24.419993 29.294968 -1.488193 38.167341 0.875907 1.609797 0.026238 -0.003672 198672.000000 0 0 1
23.263693 28.477568 -1.418093 36.799216 0.885827 1.609342 0.025560 -0.003249 845569.000000 0 0 1
22.038993 29.217768 -0.754493 36.605525 0.924548 1.591409 0.030281 -0.005785 725409.000000 0 0 1
22.233293 29.515568 0.629107 36.957866 0.925204 1.553773 0.046048 -0.018297 1535640.000000 0 0 1
20.959793 29.997968 1.180707 36.614001 0.960939 1.538543 0.030168 -0.015342 1305910.000000 0 0 1
20.444793 29.154068 2.312307 35.683273 0.959220 1.505950 0.034035 -0.030720 -628251.000000 0 0 1
19.822093 27.992068 1.922407 34.353557 0.954633 1.514808 0.054799 -0.025870 16509.000000 0 0 1
19.271393 27.357568 3.075907 33.604826 0.957106 1.479136 0.078214 -0.023176 -330842.000000 0 0 1
18.646493 26.034468 2.590107 32.127774 0.949265 1.490090 0.095630 -0.016006 132861.000000 0 0 1
19.511193 25.073168 1.964907 31.830980 0.909509 1.509028 0.091876 -0.021845 169396.000000 0 0 1
20.545493 24.537068 2.719307 32.118213 0.873707 1.486029 0.072646 -0.012023 -567174.000000 0 0 1
21.574293 23.664668 1.990807 32.084731 0.831573 1.508708 0.061481 -0.013655 -146393.000000 0 0 1
20.979693 22.515868 1.442107 30.808952 0.820701 1.523971 0.076860 -0.011257 -135503.000000 0 0 1
21.979193 21.816368 0.795607 30.978570 0.781680 1.545111 0.055755 -0.014665 -635796.000000 0 0 1
21.525393 20.622368 -0.079693 29.809914 0.763976 1.573470 0.086815 -0.021382 -287933.000000 0 0 1
21.041593 21.148368 -1.316793 29.861950 0.787929 1.614907 0.063974 -0.007481 502312.000000 0 0 1
21.320393 20.147968 -2.301493 29.424422 0.757133 1.649093 0.108363 -0.022649 -94347.000000 0 0 1
21.403493 20.768068 -3.712093 30.053316 0.770332 1.694629 0.076256 -0.013752 -626705.000000 0 0 1
22.420093 21.695868 -3.891693 31.440683 0.768983 1.694893 0.062876 -0.008559 -265692.000000 0 0 1
22.323293 22.410168 -5.078793 32.036529 0.787340 1.729999 0.045733 -0.009169 -99704.300000 0 0 1
23.462693 23.451568 -5.300193 33.594137 0.785161 1.729230 0.040218 0.003466 38550.400000 0 0 1
23.439993 24.640668 -4.476393 34.302097 0.810365 1.701669 0.016392 0.002712 56916.200000 0 0 1
23.749493 24.487168 -3.104393 34.253424 0.800690 1.661551 0.028542 -0.000744 -113464.000000 0 0 1
22.524693 24.229068 -2.177993 33.153479 0.821836 1.636538 0.028266 -0.008471 -1131230.000000 0 0 1
21.701093 25.370768 -2.049093 33.448648 0.863200 1.632096 0.043467 -0.013986 723239.000000 0 0 1
20.471093 25.144268 -1.375693 32.452926 0.887489 1.613199 0.060161 -0.015853 489113.000000 0 0 1
19.505093 24.014268 -1.814993 30.990771 0.888643 1.629395 0.085482 -0.027447 -1191540.000000 0 0 1
18.866993 24.199268 -3.077793 30.838949 0.908587 1.670765 0.076230 -0.022685 264420.000000 0 0 1
18.056193 23.145868 -3.548293 29.569371 0.908305 1.691085 0.085619 -0.025112 -85118.200000 0 0 1
17.437993 23.588668 -4.867993 29.735605 0.934209 1.735246 0.078252 -0.021467 -507737.000000 0 0 1
16.656393 22.560568 -5.382593 28.554981 0.934828 1.760430 0.090609 -0.030748 -17924.700000 0 0 1
16.341593 22.910868 -6.740793 28.937758 0.951221 1.805897 0.086779 -0.027263 -46900.900000 0 0 1
15.596393 21.780768 -7.475393 27.812422 0.949371 1.842921 0.104976 -0.028572 -859983.000000 0 0 1
16.372493 20.709968 -7.724693 27.506948 0.901837 1.855452 0.094673 -0.026641 -476458.000000 0 0 1
15.687993 19.766568 -8.491793 26.625944 0.899931 1.895396 0.113427 -0.033363 -161275.000000 0 0 1
16.527493 18.517068 -8.812893 26.338316 0.842110 1.911981 0.096551 -0.027373 107619.000000 0 0 1
17.583193 18.714868 -9.738193 27.463564 0.816565 1.933267 0.095288 -0.025712 377579.000000 0 0 1
18.422293 17.578868 -9.822893 27.292612 0.761975 1.938968 0.096554 -0.026004 -190343.000000 0 0 1
19.862193 17.884068 -10.258693 28.628436 0.733040 1.937285 0.083870 -0.027330 -477754.000000 0 0 1
19.971093 18.253768 -11.617893 29.445204 0.740501 1.976385 0.081571 -0.025269 482689.000000 0 0 1
21.343493 18.492768 -11.921993 30.653891 0.713959 1.970258 0.075723 -0.014451 433170.000000 0 0 1
21.583593 18.878268 -13.419793 31.659616 0.718636 2.008518 0.064333 -0.020038 -20873.300000 0 0 1
21.421793 17.716768 -14.255093 31.240754 0.691015 2.044627 0.060143 -0.015486 249684.000000 0 0 1
21.707793 18.062268 -15.608793 32.266208 0.693989 2.075731 0.051507 -0.014048 146418.000000 0 0 1
21.558693 16.957668 -16.701293 32.113438 0.666505 2.117731 0.056276 -0.009241 446262.000000 0 0 1
22.634293 15.989068 -16.614793 32.311188 0.615014 2.110885 0.068631 -0.008942 731261.000000 0 0 1
22.789193 15.197468 -17.732093 32.630315 0.588145 2.145307 0.085554 -0.024860 -729853.000000 0 0 1
23.527293 15.824268 -18.923093 34.088479 0.592094 2.159300 0.092791 -0.021094 -345950.000000 0 0 1
24.873293 16.165768 -18.680093 35.056506 0.576322 2.132769 0.108389 -0.018983 -153682.000000 0 0 1
25.600693 16.563868 -19.751393 36.330080 0.574269 2.145594 0.132875 -0.021435 -818950.000000 0 0 1
27.084393 16.792968 -19.501493 37.361428 0.555013 2.119954 0.113359 -0.014971 -423762.000000 0 0 1
27.274693 18.037668 -18.861593 37.749517 0.584301 2.093992 0.092306 -0.008393 469129.000000 0 0 1
28.639493 18.160668 -18.449193 38.605739 0.565125 2.069044 0.075640 -0.009454 343515.000000 0 0 1
28.854693 19.106568 -17.215693 38.652740 0.584880 2.032410 0.063992 -0.003966 119461.000000 0 0 1
28.268093 18.664968 -15.997493 37.461792 0.583571 2.012007 0.064076 -0.009840 292567.000000 0 0 1
26.879993 18.950168 -15.938693 36.547022 0.614068 2.022073 0.061206 0.004548 133972.000000 0 0 1
26.106993 18.308068 -14.763293 35.138515 0.611578 2.004402 0.063308 0.002878 138513.000000 0 0 1
26.456093 18.958268 -13.578093 35.266207 0.621776 1.966023 0.057541 -0.006964 536306.000000 0 0 1
25.552693 18.537668 -12.556893 33.974414 0.627615 1.949373 0.066365 -0.016139 281173.000000 0 0 1
25.971793 19.186668 -11.219893 34.184035 0.636262 1.905215 0.063063 -0.015426 -18772.000000 0 0 1
25.783093 20.597768 -11.171693 34.840245 0.674062 1.897217 0.052197 -0.003788 -104226.000000 0 0 1
26.398093 21.248168 -10.065293 35.350446 0.677730 1.859520 0.051721 -0.003517 87118.400000 0 0 1
25.776493 21.089968 -8.649593 34.409734 0.685732 1.824892 0.056689 -0.007845 -367862.000000 0 0 1
25.906293 19.802468 -8.060493 33.589363 0.652646 1.813133 0.070793 -0.019047 301723.000000 0 0 1
25.106893 19.614868 -6.896593 32.598498 0.663206 1.783969 0.077793 -0.020731 1251790.000000 0 0 1
23.570693 19.250068 -7.109593 31.252024 0.684838 1.800298 0.101005 -0.027595 1191390.000000 0 0 1
22.849993 20.445368 -7.422293 31.547198 0.729915 1.808299 0.072534 -0.019083 -469108.000000 0 0 1
21.645593 20.104968 -8.040693 30.616893 0.748514 1.836536 0.053302 -0.022199 -684732.000000 0 0 1
20.689493 21.286468 -8.254493 30.810801 0.799619 1.842018 0.070470 -0.022838 -478447.000000 0 0 1
21.054793 22.322868 -9.209293 32.037881 0.814623 1.862360 0.072408 -0.020979 185450.000000 0 0 1
20.498793 22.104268 -10.528293 31.931867 0.823065 1.906794 0.082198 -0.015985 659349.000000 0 0 1
18.948393 22.136368 -10.720893 31.048316 0.862838 1.923352 0.077327 -0.026521 319398.000000 0 0 1
18.463993 23.401668 -10.304793 31.539592 0.902797 1.903633 0.081317 -0.028514 -460307.000000 0 0 1
17.091593 23.643068 -10.380993 30.965823 0.944865 1.912657 0.090329 -0.022031 -321868.000000 0 0 1
16.760593 25.102768 -9.984993 31.792554 0.982093 1.890270 0.079094 -0.023778 -9521.680000 0 0 1
17.249293 25.976768 -10.955993 33.050936 0.984623 1.908677 0.090745 -0.025293 84056.200000 0 0 1
17.418993 27.327068 -10.589893 34.093046 1.003311 1.886639 0.094924 -0.025368 -100146.000000 0 0 1
20.547293 28.729168 33.649433 48.783611 0.949937 0.809626 0.049710 -0.019035 627866.000000 0 0 1
19.185793 29.126568 33.553704 48.397342 0.988326 0.804743 0.070249 -0.033913 277073.000000 0 0 1
18.260093 28.053468 33.466348 47.333123 0.993786 0.785494 0.063967 -0.029179 -729402.000000 0 0 1
16.815293 28.445968 33.547502 47.088874 1.036924 0.777842 0.091966 -0.040244 -1129100.000000 0 0 1
16.319093 29.275668 32.538295 46.713148 1.062268 0.800211 0.087488 -0.043690 343914.000000 0 0 1
14.961793 29.609868 32.849345 46.687033 1.102920 0.790335 0.117143 -0.048027 1235960.000000 0 0 1
13.971593 29.696868 31.608973 45.565739 1.131048 0.804182 0.113491 -0.050533 603570.000000 0 0 1
13.576293 28.437468 31.051763 44.240449 1.125385 0.792754 0.115119 -0.053450 -270509.000000 0 0 1
12.175793 28.461368 30.941723 43.768592 1.166556 0.785635 0.106112 -0.032654 -497500.000000 0 0 1
11.615293 27.021068 30.781063 42.573783 1.164816 0.762654 0.083926 -0.031894 -100510.000000 0 0 1
11.863693 26.438668 29.532613 41.375423 1.149003 0.775927 0.082405 -0.030156 1247540.000000 0 0 1
13.197493 25.870468 29.487093 41.387723 1.099072 0.777799 0.079797 -0.031852 943452.000000 0 0 1
13.281793 25.112668 28.118733 39.971431 1.084306 0.790527 0.085969 -0.026665 -282755.000000 0 0 1
13.026093 25.892968 26.944773 39.574559 1.104692 0.821859 0.082580 -0.030096 167229.000000 0 0 1
13.079493 25.129768 25.751953 38.285003 1.090901 0.833028 0.092143 -0.029349 47615.300000 0 0 1
11.875493 24.195768 25.430573 37.056397 1.114529 0.814452 0.084286 -0.030669 -106027.000000 0 0 1
11.963693 23.514668 24.173053 35.782762 1.100153 0.829086 0.093487 -0.034610 692160.000000 0 0 1
10.889893 22.550868 24.003953 34.688920 1.120919 0.806572 0.091388 -0.033931 601209.000000 0 0 1
10.653893 22.153168 22.589053 33.384632 1.122529 0.827620 0.100014 -0.034399 -107030.000000 0 0 1
10.247593 23.261468 21.825753 33.503322 1.155838 0.861302 0.104593 -0.037277 148143.000000 0 0 1
10.103593 22.822468 20.466753 32.277479 1.154026 0.883968 0.107424 -0.023449 -429896.000000 0 0 1
9.912193 23.897968 19.325353 32.292936 1.177621 0.929245 0.097761 -0.033575 713595.000000 0 0 1
8.581693 24.372968 19.075353 32.117848 1.232253 0.934877 0.104317 -0.033377 637038.000000 0 0 1
7.995093 25.197768 20.054053 33.181532 1.263550 0.921817 0.115404 -0.044495 -753937.000000 0 0 1
6.619093 25.701168 19.639853 33.016455 1.318733 0.933717 0.096278 -0.039151 -480021.000000 0 0 1
6.687893 26.815668 18.750153 33.397249 1.326380 0.974686 0.090427 -0.036238 -628351.000000 0 0 1
5.403893 27.182068 18.383253 33.256742 1.374551 0.985114 0.069363 -0.032257 -1104360.000000 0 0 1
5.253093 28.204968 17.184853 33.443002 1.386659 1.031124 0.065603 -0.030227 9484.040000 0 0 1
5.884693 27.730168 16.020353 32.561381 1.361686 1.056405 0.065119 -0.025736 -20810.900000 0 0 1
7.087093 28.398268 15.714053 33.220777 1.326231 1.078082 0.063316 -0.022523 308421.000000 0 0 1
7.998593 27.819168 14.564753 32.403945 1.290827 1.104619 0.064342 -0.021439 -167989.000000 0 0 1
7.468193 27.962368 13.250353 31.831428 1.309808 1.141461 0.063240 -0.027356 -82516.500000 0 0 1
7.175293 26.788668 12.600153 30.461146 1.309091 1.144340 0.041850 -0.024496 -143869.000000 0 0 1
6.234593 27.056468 11.427253 30.025068 1.344321 1.180362 0.036352 -0.027013 -1791.380000 0 0 1
6.925293 27.729868 10.319553 30.387472 1.326061 1.224306 0.023224 -0.020174 603720.000000 0 0 1
6.923493 29.166768 10.503253 31.764028 1.337734 1.233788 0.023044 -0.018932 75758.500000 0 0 1
7.240193 29.958568 9.199453 32.164672 1.333670 1.280735 0.015232 -0.012153 46892.500000 0 0 1
6.191793 29.710568 8.276653 31.457259 1.365333 1.304554 0.026211 -0.015726 162002.000000 0 0 1
6.430293 28.628868 7.414953 30.264539 1.349854 1.323272 0.031284 -0.013904 383786.000000 0 0 1
5.080593 28.007968 6.919253 29.293937 1.391349 1.332342 0.027373 -0.015422 591355.000000 0 0 1
4.416193 28.925668 6.049153 29.879580 1.419292 1.366936 0.011756 -0.012670 276452.000000 0 0 1
3.022693 28.612368 6.050553 29.400910 1.465544 1.363521 0.053369 -0.015170 692927.000000 0 0 1
2.156893 29.683768 5.351253 30.239282 1.498261 1.392896 0.066973 -0.014821 -252035.000000 0 0 1
2.536693 29.763068 3.962053 30.132589 1.485772 1.438927 0.045197 -0.023653 335373.000000 0 0 1
1.625593 30.527068 3.183153 30.735597 1.517596 1.467045 0.040318 -0.021900 225337.000000 0 0 1
0.364393 29.747568 2.758753 29.877438 1.558547 1.478329 0.078098 -0.019739 -384665.000000 0 0 1
0.433993 29.054968 1.523353 29.098112 1.555860 1.518420 0.077552 -0.023901 149844.000000 0 0 1
-0.642307 28.119868 1.294853 28.156992 -1.547959 1.524793 0.071321 -0.022437 518524.000000 0 0 1
-0.960407 28.041768 -0.206547 28.058970 -1.536561 1.578158 0.060009 -0.024625 -395390.000000 0 0 1
-1.799307 29.100868 -0.589547 29.162400 -1.509045 1.591014 0.070299 -0.027423 6094.080000 0 0 1
-1.300307 29.851668 -1.677847 29.927046 -1.527265 1.626890 0.059833 -0.024217 94653.900000 0 0 1
-2.460907 30.777968 -2.181547 30.953167 -1.491009 1.641334 0.084891 -0.025454 1046330.000000 0 0 1
-3.708607 30.354568 -2.716847 30.700730 -1.449223 1.659407 0.070295 -0.025085 509260.000000 0 0 1
-3.641607 29.408168 -3.814747 29.877315 -1.447594 1.698826 0.054950 -0.017807 -34620.000000 0 0 1
-5.038007 28.978568 -4.369247 29.735992 -1.398664 1.718265 0.056648 -0.010888 724710.000000 0 0 1
-5.803107 30.063768 -4.960647 31.017966 -1.380115 1.731414 0.055744 -0.013433 245929.000000 0 0 1
-6.692007 29.622568 -5.942147 30.944929 -1.348617 1.764020 0.040039 -0.017051 -285712.000000 0 0 1
-7.291507 30.753268 -6.792847 32.327579 -1.337998 1.782500 0.040233 -0.011931 183069.000000 0 0 1
-8.216707 31.583768 -6.080947 33.196786 -1.316282 1.755015 0.035187 -0.007785 193608.000000 0 0 1
-8.555207 32.651368 -6.910547 34.453724 -1.314540 1.772741 0.035412 -0.013714 -722523.000000 0 0 1
-9.529907 33.598568 -6.276047 35.483400 -1.294415 1.748605 0.041906 -0.013396 7400.420000 0 0 1
-10.832707 33.022368 -6.195347 35.301652 -1.253816 1.747207 0.046932 -0.012833 -57469.000000 0 0 1
-11.742607 33.944168 -5.621947 36.355215 -1.237744 1.726059 0.047466 -0.015410 37318.100000 0 0 1
-13.211007 33.577268 -5.899247 36.561794 -1.195948 1.732855 0.072041 -0.018171 -55728.900000 0 0 1
-13.661407 33.977368 -7.199447 37.321946 -1.188504 1.764914 0.072300 -0.013802 -209959.000000 0 0 1
-14.940407 33.456768 -7.453147 37.391450 -1.150808 1.771468 0.073189 -0.019644 -343065.000000 0 0 1
-15.530107 33.824668 -8.825347 38.251525 -1.140371 1.803613 0.099831 -0.017396 414391.000000 0 0 1
-16.868507 33.365068 -8.928747 38.438221 -1.102700 1.805226 0.107789 -0.022335 233304.000000 0 0 1
-17.850407 -33.882329 -9.031447 39.347380 1.085912 1.802392 0.097374 -0.026667 -283400.000000 0 0 1
-19.282607 33.785268 -9.239647 39.982926 -1.052169 1.803994 0.084052 -0.023674 502460.000000 0 0 1
-19.863307 32.917668 -8.258147 39.323286 -1.027863 1.782378 0.075151 -0.027314 135230.000000 0 0 1
-20.024407 33.562368 -6.999247 39.703890 -1.032856 1.748009 0.069195 -0.028158 -495688.000000 0 0 1
-20.424607 32.564168 -5.871347 38.885246 -1.010609 1.722368 0.066334 -0.036920 -268307.000000 0 0 1
-20.262407 33.185168 -4.604847 39.153865 -1.022629 1.688678 0.062450 -0.037018 140233.000000 0 0 1
-21.427907 33.155368 -3.794147 39.658911 -0.997035 1.666612 0.056630 -0.036935 661588.000000 0 0 1
-22.377407 -33.832029 -4.093747 40.769024 0.986430 1.671379 0.079374 -0.041481 60300.900000 0 0 1
-22.951607 -33.848929 -5.348047 41.244732 0.974947 1.700829 0.084299 -0.042712 -711775.000000 0 0 1
-23.725107 -32.719729 -5.454847 40.782554 0.943422 1.704953 0.086404 -0.045414 -444615.000000 0 0 1
-24.286107 -32.622229 -6.888447 41.248946 0.930847 1.738579 0.089253 -0.040330 -655485.000000 0 0 1
-23.441207 -32.031029 -7.794647 40.450384 0.939027 1.764706 0.104342 -0.028697 -624561.000000 0 0 1
-23.735607 -32.327629 -9.152447 41.136625 0.937471 1.795163 0.087976 -0.013178 80892.300000 0 0 1
-25.001107 -31.803029 -9.870247 41.640243 0.904574 1.810110 0.071774 -0.008363 -1527500.000000 0 0 1
-26.168327 -32.276729 -9.336947 42.588111 0.889535 1.791830 0.072689 -0.004002 -684295.000000 0 0 1
-27.338757 -31.850729 -10.047147 43.160419 0.861480 1.805738 0.044296 0.001552 977878.000000 0 0 1
-27.848617 -30.380529 -9.812047 42.365060 0.828853 1.804526 0.035266 0.009872 70744.400000 0 0 1
-26.858957 -29.469229 -10.327647 41.188583 0.831705 1.824241 0.042990 0.012117 399245.000000 0 0 1
-27.067677 -29.145229 -11.722647 41.467143 0.822340 1.857401 0.027115 0.013004 -41988.500000 0 0 1
-25.883827 -28.318729 -12.276147 40.281841 0.830290 1.880479 0.031186 0.012715 266825.000000 0 0 1
-24.740907 -29.171629 -12.426247 40.218255 0.867397 1.884907 0.043356 0.003990 -90082.700000 0 0 1
-23.764807 -28.499229 -13.171247 39.375803 0.875738 1.911872 0.044186 -0.001688 -143925.000000 0 0 1
-22.509007 -29.337629 -13.476747 39.357015 0.916353 1.920291 0.058826 -0.016229 -60711.300000 0 0 1
-22.775107 -30.350329 -14.437447 40.599112 0.927035 1.934363 0.060011 -0.023131 -23886.700000 0 0 1
-23.321607 -31.533829 -13.884047 41.605847 0.934001 1.911027 0.046735 -0.019563 59750.400000 0 0 1
-23.440907 -32.741629 -14.820447 42.908461 0.949455 1.923458 0.042880 -0.017422 -235113.000000 0 0 1
-24.115007 -33.781729 -14.222747 43.875111 0.950837 1.900925 0.037050 -0.021253 -393643.000000 0 0 1
-23.887807 33.183768 -14.809547 43.486923 -0.946863 1.918300 0.037978 -0.019711 164112.000000 0 0 1
-24.434907 31.976668 -13.896147 42.575520 -0.918302 1.903276 0.032962 -0.028375 195319.000000 0 0 1
-23.771907 31.709368 -12.657647 41.602928 -0.927499 1.879946 0.033443 -0.025480 50139.800000 0 0 1
-23.801107 32.725668 -11.685447 42.119019 -0.941988 1.851923 0.061707 -0.023848 232546.000000 0 0 1
-23.019007 32.393668 -10.367947 41.069682 -0.952990 1.826005 0.062541 -0.024440 162312.000000 0 0 1
-23.735407 31.459568 -9.591947 40.559579 -0.924438 1.809548 0.059787 -0.018010 -623619.000000 0 0 1
-23.034107 30.891168 -8.534947 39.467451 -0.930083 1.788771 0.049023 -0.021031 -617950.000000 0 0 1
-23.729007 29.783968 -7.679147 38.847392 -0.898068 1.769782 0.042676 -0.015459 -561115.000000 0 0 1
-23.958007 28.660868 -8.543747 38.320061 -0.874537 1.795644 0.042237 -0.005909 151969.000000 0 0 1
-24.324407 27.425868 -7.956447 37.512132 -0.845258 1.784523 0.042013 -0.001136 -243498.000000 0 0 1
-23.281107 26.939468 -6.935947 36.274678 -0.858116 1.763187 0.044234 -0.001916 -370182.000000 0 0 1
-23.373307 27.498968 -5.634147 36.527364 -0.866319 1.725659 0.048955 -0.002668 -172921.000000 0 0 1
-22.493007 26.827168 -4.756447 35.330668 -0.873051 1.705833 0.045261 -0.010584 -642392.000000 0 0 1
-21.169307 27.569268 -4.634947 35.066891 -0.915963 1.703359 0.041682 -0.016224 -936340.000000 0 0 1
-20.289307 27.270968 -5.707247 34.466424 -0.931153 1.737151 0.037622 -0.018803 -145251.000000 0 0 1
-19.133107 28.063868 -5.478747 34.404551 -0.972410 1.730722 0.061814 -0.019779 152882.000000 0 0 1
-18.066007 27.983368 -6.625047 33.960871 -0.997522 1.767134 0.072843 -0.020207 2056.940000 0 0 1
-18.286807 28.437368 -7.983047 34.739319 -0.999318 1.802667 0.079895 -0.023826 -73991.500000 0 0 1
-18.308507 29.871268 -8.177847 35.977372 -1.020936 1.800106 0.086678 -0.027350 8262.080000 0 0 1
-18.541207 30.302768 -9.668247 36.817239 -1.021698 1.836513 0.093929 -0.023221 577764.000000 0 0 1
-17.324307 30.292968 -10.430447 36.422380 -1.051301 1.861237 0.092904 -0.026449 782733.000000 0 0 1
-17.532807 30.983968 -11.625447 37.450723 -1.055853 1.886431 0.099846 -0.026078 66428.900000 0 0 1
-16.116707 31.275068 -12.183347 37.233212 -1.094967 1.904153 0.101436 -0.022364 357047.000000 0 0 1
-15.912107 31.924268 -13.466047 38.127267 -1.108403 1.931772 0.102710 -0.022642 -225251.000000 0 0 1
-15.998307 30.964368 -14.536147 37.762912 -1.093903 1.965930 0.096460 -0.028293 -89014.700000 0 0 1
-15.427607 31.560568 -15.834947 38.533441 -1.116128 1.994282 0.119915 -0.030061 485337.000000 0 0 1
-14.001907 31.654468 -15.778847 38.039858 -1.154334 1.998517 0.114453 -0.034776 364839.000000 0 0 1
-13.474407 32.012568 -17.065647 38.698843 -1.172395 2.027493 0.098848 -0.042259 608620.000000 0 0 1
-11.915007 31.907568 -17.015547 38.073470 -1.213409 2.034108 0.114585 -0.043862 213689.000000 0 0 1
-11.492107 30.571768 -17.062447 36.848726 -1.211232 2.052219 0.115847 -0.048473 594000.000000 0 0 1
-10.173407 30.344768 -17.585247 36.517723 -1.247312 2.073223 0.104794 -0.043902 814737.000000 0 0 1
-10.066807 30.564268 -19.121147 37.431716 -1.252621 2.106943 0.098396 -0.046274 -47955.600000 0 0 1
-10.958107 29.704968 -19.847647 37.368360 -1.217386 2.130736 0.083874 -0.046034 825745.000000 0 0 1
-10.435607 29.507268 -21.183247 37.792998 -1.230863 2.165794 0.075031 -0.051991 -107510.000000 0 0 1
-11.573907 29.143168 -22.180147 38.408833 -1.192758 2.186429 0.075220 -0.042296 483483.000000 0 0 1
-12.466907 30.229668 -22.395047 39.633253 -1.179641 2.171299 0.082193 -0.045258 407592.000000 0 0 1
-13.655707 30.212668 -21.588047 39.564219 -1.146292 2.147956 0.084911 -0.043759 333180.000000 0 0 1
-14.504607 31.477168 -21.771247 40.928999 -1.138999 2.131671 0.109973 -0.048465 170434.000000 0 0 1
-14.958307 31.781068 -23.112447 42.047264 -1.130889 2.152775 0.079221 -0.034118 -97656.700000 0 0 1
-15.577907 33.048868 -23.095347 43.223766 -1.130322 2.134500 0.075843 -0.038320 382699.000000 0 0 1
-16.151707 33.414768 -24.468047 44.453455 -1.120541 2.153663 0.066583 -0.029556 777331.000000 0 0 1
-15.007107 33.581268 -25.308447 44.647870 -1.150532 2.173468 0.078456 -0.026617 739831.000000 0 0 1
-15.406407 33.615668 -26.677547 45.596733 -1.141053 2.195770 0.079479 -0.024015 324139.000000 0 0 1
-15.992707 -33.293929 -27.253047 45.901862 1.122993 2.206476 0.067714 -0.014264 738739.000000 0 0 1
-17.260707 -32.914929 -26.707347 45.766876 1.087817 2.193892 0.061422 -0.019054 221463.000000 0 0 1
-17.941207 -32.140729 -27.681747 46.056405 1.061673 2.215598 0.036556 -0.004126 -532210.000000 0 0 1
-19.340207 -31.776329 -27.197847 46.081467 1.024051 2.202118 0.042024 -0.012296 -477559.000000 0 0 1
-20.167007 -32.908729 -27.156947 47.193139 1.021006 2.183942 0.043095 -0.016028 -550553.000000 0 0 1
-21.530307 -32.541029 -27.237647 47.585314 0.986285 2.180221 0.046837 -0.013974 481784.000000 0 0 1
-22.548607 -33.688329 -27.409047 48.934641 0.980952 2.165321 0.038568 -0.008227 118189.000000 0 0 1
-22.543407 33.662168 -26.273947 48.287338 -0.980700 2.146132 0.056459 -0.016987 -232575.000000 0 0 1
-23.644207 32.758368 -26.269547 48.189712 -0.945605 2.147338 0.041228 -0.011618 274221.000000 0 0 1
-23.648907 31.507068 -27.225947 47.887559 -0.926917 2.175525 0.052327 -0.011129 -78612.800000 0 0 1
-22.743707 30.477168 -26.929347 46.597465 -0.929697 2.186967 0.054225 -0.037319 -370885.000000 0 0 1
-23.287007 29.553568 -25.992847 45.731020 -0.903441 2.175339 0.049926 -0.026294 47611.600000 0 0 1
31.931311 10.005668 -25.787923 42.246171 0.303659 2.227388 0.034449 -0.005018 -234272.000000 0 0 1
31.414131 8.717168 -25.981803 41.688017 0.270681 2.243680 0.028440 -0.001152 312325.000000 0 0 1
30.011311 8.720268 -26.223113 40.796734 0.282779 2.268911 0.039781 -0.002448 556828.000000 0 0 1
29.372881 7.331868 -25.973193 39.888961 0.244615 2.279878 0.029728 0.012655 23112.100000 0 0 1
29.488561 7.037568 -24.609993 39.048103 0.234272 2.252669 0.023882 0.011317 -42567.100000 0 0 1
29.458451 5.594168 -24.481793 38.709860 0.187666 2.255500 0.036425 0.013655 62423.300000 0 0 1
29.341021 5.091668 -23.018493 37.638698 0.171823 2.228833 0.039743 -0.000195 482417.000000 0 0 1
30.584101 5.008668 -22.313193 38.188383 0.162326 2.194805 0.048190 -0.002224 624213.000000 0 0 1
30.373221 5.019268 -20.949993 37.237452 0.163773 2.168330 0.056001 -0.005247 -679274.000000 0 0 1
31.622941 4.813768 -20.106793 37.781819 0.151064 2.131972 0.058915 -0.010778 -556474.000000 0 0 1
32.096141 3.457668 -20.100093 38.028035 0.107315 2.127699 0.085811 -0.006395 70830.000000 0 0 1
33.011621 3.328368 -19.049393 38.258653 0.100485 2.091984 0.090023 -0.016919 -404405.000000 0 0 1
33.705861 1.936768 -19.070493 38.775248 0.057398 2.084977 0.094707 -0.021972 -21382.400000 0 0 1
32.819961 0.880168 -18.724093 37.795717 0.026812 2.089094 0.098966 -0.016219 -129523.000000 0 0 1
33.383621 -0.342332 -18.687193 38.259568 -0.010254 2.081088 0.114022 -0.018521 -18676.600000 0 0 1
32.405901 -1.458532 -18.137793 37.165162 -0.044978 2.080630 0.089961 -0.016231 546546.000000 0 0 1
32.054761 -1.251632 -16.758993 36.193067 -0.039027 2.052223 0.099076 -0.022505 836666.000000 0 0 1
30.635101 -1.286032 -16.569993 34.852948 -0.041954 2.066244 0.082841 -0.022717 476777.000000 0 0 1
30.328781 -1.701332 -15.099693 33.922415 -0.056038 2.032109 0.089482 -0.029637 -294842.000000 0 0 1
30.222891 -3.101132 -14.791993 33.791171 -0.102251 2.023888 0.071774 -0.023527 283695.000000 0 0 1
29.476141 -3.330932 -13.639593 32.649295 -0.112527 2.001776 0.073262 -0.026048 -327189.000000 0 0 1
29.555591 -4.784932 -13.244893 32.739208 -0.160503 1.987291 0.070103 -0.022944 -117261.000000 0 0 1
28.867311 -5.594132 -14.174793 32.642621 -0.191415 2.019993 0.051933 -0.020792 458872.000000 0 0 1
28.747591 -6.892332 -13.592093 32.537259 -0.235312 2.001752 0.045427 -0.017076 -295387.000000 0 0 1
27.921021 -7.834532 -14.457093 32.403254 -0.273561 2.033268 0.039553 -0.011156 -175216.000000 0 0 1
26.575521 -7.494832 -14.719793 31.290624 -0.274881 2.060565 0.047252 -0.010071 119795.000000 0 0 1
25.893221 -8.496732 -15.378593 31.291444 -0.317074 2.084565 0.042435 -0.009244 -1143200.000000 0 0 1
24.560821 -8.084032 -15.919793 30.364870 -0.317975 2.122670 0.044667 -0.016364 -1126460.000000 0 0 1
24.617121 -7.237632 -17.067393 30.816909 -0.285951 2.157756 0.036175 -0.017737 230211.000000 0 0 1
23.328021 -6.976432 -17.606093 30.047324 -0.290592 2.196843 0.072840 -0.022385 244030.000000 0 0 1
23.100421 -7.398732 -19.076793 30.859273 -0.309962 2.237230 0.056160 -0.012617 49417.000000 0 0 1
23.768421 -6.585032 -20.042593 31.780592 -0.270271 2.253193 0.050479 -0.021399 430633.000000 0 0 1
23.551721 -7.173332 -21.349993 32.587765 -0.295651 2.285182 0.057870 -0.024349 -94331.100000 0 0 1
23.906621 -6.117832 -22.444793 33.357505 -0.250529 2.308859 0.058171 -0.024036 -124204.000000 0 0 1
23.535821 -6.518932 -23.710493 34.038490 -0.270205 2.341414 0.066915 -0.025649 103357.000000 0 0 1
23.849521 -5.490332 -24.576593 34.683603 -0.226265 2.358300 0.059442 -0.021917 -271390.000000 0 0 1
23.665821 -5.828232 -26.074693 35.692142 -0.241467 2.389915 0.069093 -0.028323 602713.000000 0 0 1
22.327721 -6.237032 -26.388783 35.125426 -0.272397 2.420785 0.082138 -0.033100 531134.000000 0 0 1
22.125621 -6.286932 -27.791843 36.075686 -0.276850 2.450227 0.068865 -0.031983 359466.000000 0 0 1
20.772021 -6.962132 -28.145363 35.666645 -0.323401 2.480176 0.068774 -0.035607 326734.000000 0 0 1
20.813821 -8.377032 -27.954193 35.844479 -0.382638 2.465261 0.073546 -0.030701 55541.700000 0 0 1
19.657121 -8.974532 -28.476903 35.747428 -0.428291 2.492469 0.057352 -0.031253 -206449.000000 0 0 1
19.695721 -10.568432 -28.390113 36.133249 -0.492486 2.474633 0.074829 -0.022843 -110877.000000 0 0 1
18.887221 -11.082732 -27.349113 35.036096 -0.530646 2.466419 0.076314 -0.021369 278878.000000 0 0 1
19.095721 -12.476732 -26.967003 35.320456 -0.578747 2.439505 0.080974 -0.020035 -279231.000000 0 0 1
19.091021 -13.626332 -28.054803 36.567964 -0.619899 2.445255 0.074083 -0.018006 46077.700000 0 0 1
17.823821 -13.812132 -28.654653 36.463032 -0.659263 2.474874 0.070343 -0.021670 451015.000000 0 0 1
17.933221 -14.836632 -29.644283 37.689648 -0.691183 2.475977 0.057372 -0.019578 -81610.400000 0 0 1
16.630721 -15.044732 -30.437053 37.806600 -0.735370 2.506594 0.053249 -0.021905 -417032.000000 0 0 1
15.661021 -15.880832 -29.893703 37.297478 -0.792367 2.500586 0.061907 -0.028692 -14390.300000 0 0 1
14.576421 -15.983132 -30.813483 37.648417 -0.831397 2.529511 0.054509 -0.032341 -279547.000000 0 0 1
13.392521 -16.697432 -30.155383 36.979872 -0.894794 2.524309 0.072524 -0.038531 -366070.000000 0 0 1
13.693021 -17.989332 -29.711633 37.334917 -0.920182 2.491146 0.065803 -0.038212 346565.000000 0 0 1
12.600521 -18.447332 -28.917473 36.541721 -0.971534 2.483818 0.070374 -0.034973 297196.000000 0 0 1
12.948421 -19.667832 -28.049993 36.623589 -0.988570 2.443236 0.060621 -0.034441 -763636.000000 0 0 1
13.780021 -19.307232 -27.031753 35.963507 -0.950919 2.421347 0.076811 -0.030458 -663600.000000 0 0 1
13.924421 -20.395032 -26.216903 36.016285 -0.971751 2.386077 0.069361 -0.024696 236213.000000 0 0 1
15.066521 -20.301132 -25.149303 35.659829 -0.932337 2.353580 0.057334 -0.019068 189781.000000 0 0 1
16.364221 -20.620832 -25.619753 36.733883 -0.899984 2.342618 0.052782 -0.020064 424622.000000 0 0 1
17.257621 -20.516332 -24.510993 36.325392 -0.871454 2.311438 0.047037 -0.016242 942724.000000 0 0 1
18.772521 -20.871632 -24.808793 37.463432 -0.838298 2.294565 0.025008 -0.013607 1093710.000000 0 0 1
19.207321 -22.214232 -24.875593 38.486210 -0.857864 2.273589 0.028331 -0.013376 309231.000000 0 0 1
18.935421 -23.007632 -23.714093 38.082273 -0.882184 2.242994 0.027628 -0.013429 -731864.000000 0 0 1
19.371221 -24.467732 -23.891693 39.303016 -0.901134 2.224190 0.027569 -0.016221 527362.000000 0 0 1
20.705321 -24.699632 -23.410393 39.835018 -0.873143 2.198989 0.027481 -0.015577 746767.000000 0 0 1
20.893821 -26.078752 -23.329593 40.754422 -0.895335 2.180279 0.024232 -0.024418 -184706.000000 0 0 1
21.089521 -26.558692 -21.863593 40.350325 -0.899680 2.143426 0.047346 -0.023040 -238248.000000 0 0 1
19.886921 -26.620822 -21.136393 39.381530 -0.929190 2.137327 0.037849 -0.013841 -78274.000000 0 0 1
20.117421 -26.706252 -19.752393 38.834154 -0.925196 2.104394 0.043711 -0.013575 -860456.000000 0 0 1
18.972221 -27.175462 -18.915793 38.160950 -0.961321 2.089419 0.036723 -0.007957 -1299370.000000 0 0 1
18.763021 -28.547362 -19.190493 39.182622 -0.989335 2.082623 0.039056 -0.011058 593051.000000 0 0 1
17.535121 -29.172042 -18.795893 38.881539 -1.029573 2.075347 0.019267 0.002075 983207.000000 0 0 1
16.211421 -28.668142 -19.433693 38.240567 -1.056142 2.103885 0.044568 -0.007868 272467.000000 0 0 1
15.398021 -27.760892 -18.671693 36.829313 -1.064378 2.102473 0.041297 -0.007676 704682.000000 0 0 1
14.219221 -27.342712 -19.352193 36.391173 -1.091248 2.131500 0.045994 0.004047 575354.000000 0 0 1
13.204521 -26.459122 -18.603293 34.936042 -1.107906 2.132343 0.044223 -0.002618 -511631.000000 0 0 1
12.564721 -27.072962 -17.495793 34.596535 -1.136274 2.101000 0.049336 -0.000788 258934.000000 0 0 1
11.588621 -26.287742 -16.792993 33.276810 -1.155588 2.099768 0.062884 -0.012420 -425075.000000 0 0 1
10.213921 -26.302472 -17.456593 33.179464 -1.200394 2.124835 0.078689 -0.009116 -1323370.000000 0 0 1
9.508421 -27.413982 -16.975293 33.616916 -1.236934 2.100135 0.077786 0.009416 160297.000000 0 0 1
8.090521 -27.277442 -17.056993 33.173127 -1.282461 2.110849 0.075409 0.011343 872881.000000 0 0 1
7.427321 -27.909152 -18.300693 34.190660 -1.310700 2.135605 0.081543 0.004660 -103704.000000 0 0 1
7.504221 -27.144702 -19.491593 34.250115 -1.301080 2.176202 0.097301 -0.002218 -160621.000000 0 0 1
6.846021 -27.854122 -20.504293 35.258277 -1.329792 2.191424 0.097970 0.001761 -68978.600000 0 0 1
6.782521 -27.007222 -21.793093 35.360027 -1.324748 2.234857 0.094802 -0.008614 60518.400000 0 0 1
5.647621 -26.180852 -21.638493 34.431918 -1.358336 2.250346 0.115989 -0.023655 35629.200000 0 0 1
5.513621 -25.336242 -22.765293 34.504836 -1.356519 2.291310 0.105704 -0.029658 -252883.000000 0 0 1
4.126021 -24.699032 -22.993893 33.996843 -1.405273 2.313597 0.070431 -0.018134 388894.000000 0 0 1
3.145621 -25.740562 -23.165293 34.772147 -1.449194 2.299901 0.053373 -0.013875 126198.000000 0 0 1
1.960321 -25.231242 -23.724493 34.688759 -1.493258 2.323925 0.060932 -0.017903 612044.000000 0 0 1
0.912321 -26.288882 -24.177693 35.728119 -1.536107 2.314086 0.050076 -0.022110 182530.000000 0 0 1
1.549621 -26.858682 -25.264823 36.906658 -1.513165 2.324796 0.034604 -0.017501 375747.000000 0 0 1
0.765721 -27.817002 -26.000333 38.083976 -1.543276 2.322262 0.049446 -0.020375 433425.000000 0 0 1
1.631621 -28.645262 -27.027063 39.416688 -1.513898 2.326328 0.035483 -0.009942 -169486.000000 0 0 1
2.053121 -27.859982 -28.149153 39.658148 -1.497235 2.360003 0.031523 -0.013143 24114.900000 0 0 1
2.500921 -28.640902 -29.275123 41.031557 -1.483697 2.365246 0.046465 -0.015218 692468.000000 0 0 1
3.979221 -29.147582 -29.144903 41.410640 -1.435115 2.351532 0.047022 -0.017711 182500.000000 0 0 1
4.271521 -30.093542 -28.151093 41.428869 -1.429797 2.317883 0.044007 -0.026659 -204609.000000 0 0 1
5.527721 -30.680982 -28.435313 42.195324 -1.392541 2.310267 0.069308 -0.037196 207936.000000 0 0 1
5.873521 -31.714572 -27.370723 42.302113 -1.387672 2.274479 0.090456 -0.045078 -35655.000000 0 0 1
4.999521 -32.819292 -27.533123 43.129734 -1.419624 2.263187 0.078558 -0.051343 330053.000000 0 0 1
5.465721 -33.981482 -26.911473 43.690303 -1.411318 2.234400 0.095750 -0.059557 40448.000000 0 0 1
4.280321 33.323540 -26.539233 42.814837 1.443048 2.239361 0.100071 -0.054506 427100.000000 0 0 1
3.630221 32.612324 -27.639433 42.903151 1.459938 2.270810 0.088409 -0.054799 -66175.000000 0 0 1
2.416821 32.135036 -27.147483 42.136532 1.495729 2.270870 0.082038 -0.056904 -892215.000000 0 0 1
1.321021 32.200415 -28.207723 42.828582 1.529794 2.289778 0.069751 -0.038695 -653479.000000 0 0 1
1.403021 31.271976 -29.292803 42.871590 1.525961 2.323026 0.071669 -0.043428 -98583.900000 0 0 1
0.392621 31.625086 -30.209563 43.736916 1.558382 2.333268 0.061791 -0.037187 111664.000000 0 0 1
0.088521 30.546336 -31.315463 43.746367 1.567898 2.368625 0.051128 -0.038320 32759.900000 0 0 1
1.170921 30.457956 -32.227533 44.358449 1.532371 2.384048 0.066254 -0.039512 304573.000000 0 0 1
0.757921 29.520936 -33.206323 44.437821 1.545128 2.414716 0.073009 -0.038442 -247627.000000 0 0 1
1.864421 29.103536 34.067452 44.845102 1.506822 0.707992 0.062333 -0.030628 -178398.000000 0 0 1
2.225321 30.263236 33.291612 45.046053 1.497396 0.739127 0.063137 -0.030774 -28273.000000 0 0 1
3.185121 29.986826 32.283958 44.177015 1.464976 0.751323 0.047740 -0.028777 -210976.000000 0 0 1
2.687121 29.187506 31.074353 42.717052 1.478991 0.756204 0.051251 -0.027421 -179784.000000 0 0 1
2.428221 27.835106 31.417603 42.044681 1.483781 0.726892 0.056725 -0.029790 394352.000000 0 0 1
3.608621 27.024836 31.379263 41.569485 1.438052 0.715351 0.050791 -0.027416 187335.000000 0 0 1
3.381321 25.530136 31.775173 40.900890 1.439118 0.681097 0.055606 -0.023193 -283178.000000 0 0 1
2.761721 24.847456 30.699053 39.591098 1.460104 0.683443 0.048084 -0.004604 212439.000000 0 0 1
2.884121 23.472476 30.806233 38.836829 1.448537 0.654714 0.052103 -0.008686 -351056.000000 0 0 1
1.979421 22.669966 29.857943 37.541207 1.483703 0.651232 0.040158 0.000411 -842647.000000 0 0 1
0.670421 22.530466 30.276683 37.745846 1.541049 0.639960 0.044804 -0.004759 -855688.000000 0 0 1
-0.108379 21.890566 29.282303 36.560387 -1.565845 0.641950 0.055765 -0.005688 -535247.000000 0 0 1
-1.418679 21.307766 29.778993 36.644535 -1.504314 0.622120 0.050178 -0.003887 -916898.000000 0 0 1
-2.321879 22.299366 30.189553 37.604015 -1.467047 0.638773 0.050034 -0.008610 612895.000000 0 0 1
-3.598279 21.636966 30.323873 37.425168 -1.406002 0.626212 0.028343 -0.009407 895657.000000 0 0 1
-4.802479 22.546666 30.711173 38.400418 -1.360931 0.643899 0.011665 -0.012685 -50128.100000 0 0 1
-4.722979 23.114066 32.006043 39.761204 -1.369237 0.635194 0.020916 -0.010314 158753.000000 0 0 1
-5.736179 24.060306 32.304246 40.686194 -1.336757 0.653459 0.002794 -0.015603 -29508.500000 0 0 1
-5.650079 24.608776 33.736550 42.138700 -1.345112 0.642488 0.032182 -0.012893 64206.000000 0 0 1
-6.754279 25.435716 34.050888 43.035554 -1.311243 0.657984 0.030339 -0.004107 7015.860000 0 0 1
-6.718779 25.942386 -32.884343 42.420860 -1.317376 2.457816 0.041482 -0.004313 -562153.000000 0 0 1
-7.975579 26.634536 -32.386563 42.683694 -1.279849 2.432199 0.059379 -0.000027 -840577.000000 0 0 1
-8.257379 27.852026 -33.029543 43.987161 -1.282578 2.420206 0.051394 -0.002295 822946.000000 0 0 1
-9.562579 28.373426 -32.686743 44.327388 -1.245726 2.400000 0.056088 -0.006194 999850.000000 0 0 1
-9.811679 28.783806 -31.191403 43.562370 -1.242274 2.368876 0.064312 -0.012002 -402494.000000 0 0 1
-9.156179 29.982116 -30.807703 43.953127 -1.274404 2.347485 0.074026 -0.017317 107452.000000 0 0 1
-9.315379 30.279496 -29.447223 43.252318 -1.272339 2.319684 0.088021 -0.026933 -84367.500000 0 0 1
-8.555679 31.549306 -28.999813 43.698369 -1.305981 2.296465 0.065766 -0.029419 369807.000000 0 0 1
-7.151979 31.495036 -29.216413 43.550968 -1.347500 2.306158 0.045116 -0.029471 -130278.000000 0 0 1
-6.587579 32.679566 -28.824603 44.070488 -1.371881 2.283731 0.046457 -0.021160 15625.800000 0 0 1
-5.084879 32.515587 -28.417263 43.481722 -1.415670 2.283055 0.054635 -0.025078 270851.000000 0 0 1
-4.368779 33.670746 -28.056773 44.045293 -1.441767 2.261394 0.056689 -0.027761 -6521.470000 0 0 1
-4.083079 -33.574112 -29.053463 44.586951 1.449777 2.280506 0.054708 -0.029384 -340658.000000 0 0 1
-3.064579 -33.936632 -30.193483 45.527278 1.480738 2.295876 0.050804 -0.030217 -45452.600000 0 0 1
-3.496879 33.342408 -31.168343 45.775647 -1.466301 2.319778 0.048100 -0.028879 38176.000000 0 0 1
-4.465879 33.798486 -32.086743 46.817099 -1.439425 2.325899 0.063669 -0.022324 -234493.000000 0 0 1
-3.967879 -33.453212 -33.119833 47.241769 1.452738 2.347695 0.039925 -0.030022 -553263.000000 0 0 1
-3.842679 -32.155322 -32.712793 46.031051 1.451857 2.361243 0.039255 -0.033451 257937.000000 0 0 1
-3.169579 -31.231062 -33.595723 45.979322 1.469655 2.390099 0.026021 -0.034095 251385.000000 0 0 1
32.334341 17.347468 12.164353 38.657674 0.492422 1.250689 0.141595 -0.032700 -697441.000000 0 0 1
33.532261 17.753568 12.731053 40.021013 0.486927 1.247062 0.135919 -0.047079 -676235.000000 0 0 1
33.776201 16.992468 13.900153 40.283868 0.466117 1.218499 0.134495 -0.023902 -36589.300000 0 0 1
35.287181 17.184268 14.161753 41.725765 0.453180 1.224517 0.147297 -0.042357 842060.000000 0 0 1
36.333571 16.454768 13.469953 42.099019 0.425247 1.245110 0.137414 -0.015143 698543.000000 0 0 1
36.248891 15.026368 13.514753 41.502077 0.392972 1.239107 0.162276 -0.020834 -1045380.000000 0 0 1
-35.966877 14.321368 12.751853 40.759387 -0.378938 1.252597 0.147779 -0.022200 140882.000000 0 0 1
-35.031755 13.669668 13.595653 39.986566 -0.372037 1.223874 0.139657 -0.023485 50666.700000 0 0 1
-35.460055 12.337268 13.967253 40.058805 -0.334821 1.214646 0.131129 -0.025957 197864.000000 0 0 1
-34.506835 11.667368 15.001353 39.394032 -0.326050 1.180132 0.135816 -0.035187 210495.000000 0 0 1
-34.568694 12.346368 16.237053 40.138128 -0.343034 1.154332 0.143244 -0.031042 -6679.260000 0 0 1
-34.014057 11.633068 17.308553 39.898250 -0.329537 1.122071 0.141685 -0.030511 -43599.800000 0 0 1
-34.253325 12.452568 18.597353 40.917213 -0.348689 1.098972 0.134223 -0.032247 -57821.400000 0 0 1
-35.567414 12.461968 19.104853 42.253249 -0.337010 1.101621 0.148500 -0.046550 -104220.000000 0 0 1
-35.616391 13.125968 20.360153 43.073823 -0.353093 1.078466 0.152295 -0.040454 408242.000000 0 0 1
36.359271 13.044268 21.115653 44.022953 0.344458 1.070539 0.154426 -0.051182 490564.000000 0 0 1
36.006841 11.682068 21.485453 43.526866 0.313726 1.054556 0.133928 -0.038142 -366281.000000 0 0 1
35.053901 11.671968 22.486153 43.250872 0.321425 1.024062 0.136499 -0.047197 -637542.000000 0 0 1
34.658161 10.312968 23.039253 42.876015 0.289219 1.003509 0.135016 -0.043389 -589602.000000 0 0 1
35.713181 9.584968 23.598733 43.865740 0.262208 1.002762 0.116287 -0.030489 -283152.000000 0 0 1
36.091691 9.881568 24.930703 44.964381 0.267242 0.983089 0.111227 -0.019691 -422421.000000 0 0 1
-35.747145 10.141168 25.032023 44.802945 -0.276429 0.977962 0.097793 -0.018284 -316256.000000 0 0 1
-35.341241 11.340168 24.415973 44.426822 -0.310498 0.988938 0.079785 -0.016905 -727280.000000 0 0 1
-34.261396 11.258668 23.570543 43.083308 -0.317494 0.991910 0.092179 -0.026344 -427328.000000 0 0 1
-33.550357 12.641368 23.310193 42.764422 -0.360337 0.994307 0.101338 -0.022838 -220222.000000 0 0 1
-32.916857 13.217568 24.412793 43.060517 -0.381837 0.968008 0.098081 -0.027192 10143.800000 0 0 1
-33.727567 13.791468 25.473833 44.459752 -0.388162 0.960679 0.088952 -0.028522 -164991.000000 0 0 1
-32.937227 14.318568 26.685013 44.743405 -0.410077 0.931786 0.095742 -0.027866 -384363.000000 0 0 1
-32.153247 15.439968 26.293163 44.312012 -0.447682 0.935564 0.116563 -0.027259 188010.000000 0 0 1
-31.859547 16.333368 27.370623 45.066181 -0.473731 0.918085 0.121470 -0.017701 -401298.000000 0 0 1
-31.085377 17.583268 27.001863 44.772454 -0.514775 0.923426 0.108069 -0.015232 -446018.000000 0 0 1
-31.755597 18.464068 26.117823 45.071948 -0.526663 0.952719 0.087488 -0.029010 568186.000000 0 0 1
-30.988777 19.659968 25.995883 44.973377 -0.565346 0.954486 0.100047 -0.035630 209824.000000 0 0 1
-31.720997 20.731768 25.120003 45.464739 -0.578878 0.985416 0.101962 -0.021779 156805.000000 0 0 1
-32.934377 21.117368 25.735103 46.828538 -0.570161 0.988959 0.082196 -0.025001 623111.000000 0 0 1
-33.833717 21.967068 25.032613 47.475301 -0.575859 1.015404 0.074725 -0.016237 159210.000000 0 0 1
-33.537937 23.459168 25.169453 48.048176 -0.610378 1.019446 0.078241 -0.017877 -580022.000000 0 0 1
-34.391525 24.277068 24.426883 48.670583 -0.614676 1.045023 0.075732 -0.023317 -96273.400000 0 0 1
-34.159205 25.687468 24.523653 49.275825 -0.644775 1.049873 0.074878 -0.014099 177683.000000 0 0 1
-35.205279 26.349868 23.590603 49.902343 -0.642517 1.078404 0.080878 -0.012905 303237.000000 0 0 1
-34.997529 26.195068 22.230353 49.042810 -0.642530 1.100349 0.088378 -0.025959 -32889.400000 0 0 1
-36.128217 26.708968 21.551853 49.830708 -0.636607 1.123531 0.086178 -0.026271 73812.200000 0 0 1
-36.026502 26.558268 20.062153 49.048348 -0.635250 1.149408 0.128728 -0.044796 88337.100000 0 0 1
-36.106257 25.184968 19.616753 48.195036 -0.609062 1.151598 0.113265 -0.048908 81408.900000 0 0 1
-35.635807 25.208568 18.293953 47.329181 -0.615671 1.173935 0.109842 -0.053347 -132797.000000 0 0 1
-35.557694 23.876868 17.546553 46.285376 -0.591339 1.181978 0.120671 -0.048915 713869.000000 0 0 1
36.474021 23.482668 17.141353 46.643498 0.572018 1.194480 0.113148 -0.042533 331450.000000 0 0 1
36.516211 22.677568 15.939753 45.845191 0.555738 1.215694 0.113699 -0.041009 -192041.000000 0 0 1
35.215101 22.513668 15.136153 44.453029 0.568830 1.223350 0.095150 -0.026291 -17753.000000 0 0 1
34.279301 21.638068 15.737753 43.485094 0.563066 1.200479 0.105767 -0.036037 156050.000000 0 0 1
33.104071 21.633068 14.925153 42.268539 0.578822 1.209911 0.097777 -0.028603 -273852.000000 0 0 1
31.877971 20.829468 15.412953 41.080785 0.578770 1.186198 0.085179 -0.029124 68444.100000 0 0 1
31.201181 21.403268 16.497053 41.276705 0.601252 1.159640 0.074272 -0.021672 -125992.000000 0 0 1
30.284401 22.421468 16.068053 40.964003 0.637305 1.167722 0.057264 -0.003486 -366561.000000 0 0 1
29.524931 22.882568 17.342953 41.183875 0.659326 1.136127 0.040357 -0.007881 -120016.000000 0 0 1
30.348291 23.560968 18.236953 42.529101 0.660154 1.127620 0.008402 -0.002314 -111715.000000 0 0 1
29.507381 24.235168 19.198553 42.738898 0.687610 1.104920 0.014556 0.004914 552568.000000 0 0 1
30.215121 25.003868 20.319053 44.170249 0.691303 1.092782 0.013313 -0.010079 453172.000000 0 0 1
31.122181 26.057268 19.924053 45.216582 0.697049 1.114489 0.032890 -0.021518 556916.000000 0 0 1
31.908301 26.419768 21.046153 46.465949 0.691577 1.100739 0.045800 -0.021361 944373.000000 0 0 1
33.218571 27.245168 20.647653 47.666532 0.686925 1.122791 0.054401 -0.028257 1081960.000000 0 0 1
34.176821 27.593568 21.642253 48.967818 0.679223 1.113004 0.054204 -0.019030 139907.000000 0 0 1
33.789791 28.494968 22.732853 49.704083 0.700592 1.095768 0.031364 -0.010013 -773368.000000 0 0 1
34.742941 28.622968 23.915573 50.973532 0.689115 1.082439 0.030003 -0.010098 717826.000000 0 0 1
35.934511 29.426268 23.697523 52.141797 0.686151 1.099005 0.049233 -0.013318 572338.000000 0 0 1
36.505511 29.721668 24.912413 53.260288 0.683321 1.084055 0.057862 -0.004470 54291.800000 0 0 1
-35.582858 30.629568 24.903933 53.146177 -0.710728 1.083099 0.079956 -0.019406 -309963.000000 0 0 1
-34.456382 30.087068 24.326003 51.809540 -0.717806 1.082041 0.086069 -0.017893 -787142.000000 0 0 1
-33.397597 31.002168 24.443573 51.710949 -0.748219 1.078448 0.093212 -0.016796 281338.000000 0 0 1
-31.969657 30.623868 23.967463 50.342026 -0.763901 1.074590 0.116047 -0.020444 364331.000000 0 0 1
-31.681907 30.487968 22.575553 49.425854 -0.766196 1.096451 0.092804 -0.008490 142912.000000 0 0 1
-32.171757 29.252068 21.977253 48.720685 -0.737900 1.102814 0.097963 -0.012133 125409.000000 0 0 1
-31.598317 27.857468 22.481753 47.748523 -0.722563 1.080557 0.085626 -0.008800 439245.000000 0 0 1
-30.202107 27.636868 22.214353 46.577261 -0.741076 1.073631 0.068612 -0.016544 960140.000000 0 0 1
-29.650897 26.582868 22.989553 45.981998 -0.730894 1.047234 0.071612 -0.023433 -112951.000000 0 0 1
-29.484437 26.775768 24.545583 46.784180 -0.737290 1.018486 0.088334 -0.015486 -445489.000000 0 0 1
-30.698417 26.816968 25.258343 47.953379 -0.718015 1.016051 0.084540 -0.012234 -305816.000000 0 0 1
-30.501427 26.954068 26.626553 48.639821 -0.723735 0.991515 0.090310 -0.025176 612273.000000 0 0 1
-31.772437 27.332668 27.515503 50.136468 -0.710422 0.989854 0.094850 -0.032224 1114330.000000 0 0 1
-32.454847 26.115068 27.878783 50.125248 -0.677575 0.981011 0.076500 -0.022376 -269017.000000 0 0 1
-33.325007 26.302068 28.934713 51.376770 -0.668157 0.972559 0.071462 -0.008494 -204319.000000 0 0 1
-34.012347 25.012868 29.499913 51.504643 -0.634095 0.960925 0.054907 -0.003912 90102.400000 0 0 1
-33.132837 24.212068 30.231193 50.969934 -0.631072 0.935870 0.051821 -0.004780 -197797.000000 0 0 1
-33.766497 23.028468 30.624753 51.072127 -0.598537 0.927748 0.025799 -0.015094 -452934.000000 0 0 1
-33.000607 22.284968 31.647753 50.864921 -0.593949 0.899257 0.046257 -0.026616 -595610.000000 0 0 1
-31.752887 21.786068 31.193393 49.557103 -0.601345 0.889960 0.059885 -0.017180 90285.700000 0 0 1
-31.121277 20.889068 32.073103 49.331238 -0.591145 0.863004 0.059096 -0.018082 138293.000000 0 0 1
-30.353787 21.511968 33.293453 49.925656 -0.616546 0.840808 0.064260 -0.018850 -223485.000000 0 0 1
-31.218937 22.171068 -34.018571 51.219542 -0.617526 2.297182 0.084838 -0.019042 155785.000000 0 0 1
-31.162177 21.758268 -32.664453 50.114569 -0.609535 2.280746 0.064396 -0.000412 -90161.900000 0 0 1
-29.964557 22.253668 -31.798373 49.033019 -0.638791 2.276421 0.086862 -0.003758 151557.000000 0 0 1
-29.899877 23.657268 -31.750503 49.616161 -0.669362 2.265194 0.061485 -0.003624 135549.000000 0 0 1
-28.961957 23.992468 -30.733023 48.569045 -0.691828 2.255921 0.100786 -0.003221 -131194.000000 0 0 1
-29.209387 25.264768 -29.881473 48.830310 -0.713112 2.229314 0.063931 0.003046 -354005.000000 0 0 1
-29.116507 26.547468 -30.431863 49.785915 -0.739278 2.228441 0.085443 -0.005572 670431.000000 0 0 1
-30.012967 26.823568 -31.539053 51.137011 -0.729342 2.235411 0.043566 0.003648 177375.000000 0 0 1
-29.676827 28.149968 -32.205343 52.060723 -0.759000 2.237770 0.075952 0.000199 -176095.000000 0 0 1
-29.982877 29.198368 -31.388993 52.314305 -0.772143 2.214307 0.057531 -0.012169 -212184.000000 0 0 1
-29.069147 30.224768 -31.609043 52.513651 -0.804885 2.216700 0.074303 -0.029528 -365589.000000 0 0 1
-29.398897 31.496268 -30.795593 52.959216 -0.819827 2.191363 0.061682 -0.023758 59633.300000 0 0 1
-28.904817 31.515668 -29.473403 51.936570 -0.828583 2.174249 0.057237 -0.022647 -1191.030000 0 0 1
-29.034237 32.852268 -29.002463 52.568063 -0.847014 2.155213 0.043223 -0.025423 -241778.000000 0 0 1
-28.475087 33.118768 -27.568953 51.650078 -0.860648 2.133842 0.024118 -0.021496 541019.000000 0 0 1
-27.073837 33.356468 -27.386003 50.947422 -0.888991 2.138307 0.040221 -0.010861 476796.000000 0 0 1
-26.679147 -33.543729 -27.567763 50.960182 0.898895 2.142382 0.033062 0.009132 -204423.000000 0 0 1
-27.036067 -32.459729 -26.472903 49.853761 0.876307 2.130590 0.030610 0.013442 -574006.000000 0 0 1
-28.393687 -32.151329 -26.415133 50.375278 0.847382 2.122768 0.031536 -0.002725 -866687.000000 0 0 1
-28.652177 -31.224629 -25.402783 49.408765 0.828334 2.110795 0.023091 0.003930 25145.600000 0 0 1
-30.137417 -30.884929 -25.170483 49.956941 0.797647 2.098839 0.012155 0.002117 -45210.000000 0 0 1
-30.630917 -30.081229 -26.198273 50.293965 0.776344 2.118705 0.016397 0.002490 -573093.000000 0 0 1
-31.936147 -29.649329 -25.975903 50.732117 0.748283 2.108332 0.010115 -0.004683 -373289.000000 0 0 1
-32.576117 -28.949329 -27.212833 51.379036 0.726519 2.128983 0.028049 -0.006618 357159.000000 0 0 1
-33.988827 -29.033029 -27.231133 52.342065 0.706923 2.117944 0.039343 -0.012408 -15971.800000 0 0 1
-34.581911 -28.369329 -28.313373 52.937458 0.687028 2.135121 0.046992 -0.017940 288185.000000 0 0 1
-36.087427 -28.695229 -28.492663 54.199173 0.671782 2.124338 0.048155 -0.015060 407101.000000 0 0 1
36.495601 -28.130929 -27.471593 53.646682 -0.656683 2.108405 0.046163 -0.012328 -196321.000000 0 0 1
35.092711 -28.203329 -27.675483 52.847502 -0.676981 2.121968 0.052798 -0.017106 728405.000000 0 0 1
34.265141 -27.442929 -26.563703 51.311252 -0.675289 2.114954 0.041494 -0.011319 256467.000000 0 0 1
33.969061 -28.298929 -25.445953 51.011989 -0.694588 2.093037 0.041740 -0.011674 870999.000000 0 0 1
33.009921 -27.646529 -24.558793 49.569343 -0.697205 2.089141 0.043305 -0.003159 839626.000000 0 0 1
32.770091 -28.313529 -23.168493 49.115312 -0.712569 2.062033 0.031995 -0.001804 208034.000000 0 0 1
32.073751 -29.559429 -23.253893 49.429029 -0.744626 2.060597 0.045642 -0.005512 97132.500000 0 0 1
31.680791 -30.169329 -22.007393 48.971280 -0.760966 2.036883 0.048173 -0.014201 783155.000000 0 0 1
32.845141 -30.410529 -20.970393 49.430365 -0.746929 2.008920 0.033848 -0.005930 -977342.000000 0 0 1
33.937591 -31.210129 -21.321593 50.798057 -0.743557 2.003947 0.026000 -0.005236 205424.000000 0 0 1
34.986401 -31.155329 -20.340393 51.072834 -0.727541 1.980418 0.012023 0.002360 540579.000000 0 0 1
35.778561 -29.820729 -20.368293 50.835506 -0.694825 1.983045 0.004369 -0.004960 -1438010.000000 0 0 1
35.060731 -28.621229 -20.123293 49.531571 -0.684621 1.989167 0.003690 0.002161 -292812.000000 0 0 1
35.698211 -27.447929 -20.674993 49.550040 -0.655480 2.001219 -0.015084 0.007772 137036.000000 0 0 1
34.898981 -26.161729 -20.392793 48.148115 -0.643272 2.008149 -0.005754 0.009622 179702.000000 0 0 1
33.652861 -26.112929 -21.041293 47.509327 -0.659903 2.029613 0.020777 0.002043 -504719.000000 0 0 1
32.733671 -25.234329 -20.459693 46.117932 -0.656742 2.030451 0.045873 -0.003984 -839775.000000 0 0 1
31.493291 -25.085129 -21.301793 45.550603 -0.672617 2.057428 0.055715 -0.010764 -1274380.000000 0 0 1
30.744931 -26.207629 -21.322693 45.680935 -0.705898 2.056436 0.071446 -0.014700 -670425.000000 0 0 1
29.467121 -25.993029 -21.883193 44.975804 -0.722839 2.078938 0.080253 -0.019040 172520.000000 0 0 1
28.736881 -27.283029 -22.244093 45.441959 -0.759452 2.082319 0.079437 -0.021263 -189807.000000 0 0 1
28.319041 -28.140629 -21.261793 45.231924 -0.782238 2.060157 0.076617 -0.018348 -32938.100000 0 0 1
27.574921 -29.288529 -21.684893 45.699330 -0.815525 2.065206 0.066042 -0.017039 503911.000000 0 0 1
26.878921 -30.027229 -20.428593 45.182279 -0.840666 2.039956 0.068716 -0.007730 769219.000000 0 0 1
27.818821 -30.516129 -19.428393 45.635331 -0.831604 2.010566 0.089052 -0.013389 523537.000000 0 0 1
28.473441 -31.703229 -19.792893 46.985000 -0.839018 2.005630 0.084414 -0.006899 -205267.000000 0 0 1
29.372271 -32.262429 -18.700493 47.468970 -0.832256 1.975724 0.072207 -0.008228 -62013.900000 0 0 1
28.711661 -32.909029 -17.582393 47.079764 -0.853409 1.953532 0.083564 -0.015140 205682.000000 0 0 1
28.080421 -32.053029 -16.645993 45.749271 -0.851366 1.943197 0.069505 -0.023185 91468.200000 0 0 1
27.409821 -32.787029 -15.446493 45.440970 -0.874489 1.917633 0.082082 -0.023598 -136684.000000 0 0 1
26.176321 -33.409829 -15.720793 45.261019 -0.906203 1.925525 0.095711 -0.023105 -109610.000000 0 0 1
25.769721 34.065668 -14.592293 45.138490 0.923166 1.899988 0.095966 -0.020493 -239713.000000 0 0 1
24.229221 34.043268 -14.542793 44.243554 0.952249 1.905722 0.090951 -0.015881 -132626.000000 0 0 1
23.753421 -32.952629 -14.120993 43.005851 -0.946223 1.905353 0.090484 -0.018096 487069.000000 0 0 1
22.326321 -32.977129 -14.022293 42.220615 -0.975657 1.909346 0.070952 -0.019885 638982.000000 0 0 1
-0.303207 -7.016032 -28.956083 29.795492 1.527607 2.903661 0.069590 -0.016820 164620.000000 0 0 1
0.061393 -8.392532 -29.022663 30.211807 -1.563481 2.860092 0.067837 -0.009802 90881.900000 0 0 1
-0.271407 -8.953132 -30.297413 31.593756 1.540491 2.854137 0.056523 -0.011710 -301598.000000 0 0 1
-0.112707 -10.490732 -30.300003 32.064908 1.560053 2.808264 0.060775 -0.009631 -180866.000000 0 0 1
1.203293 -10.929032 -30.080843 32.027312 -1.461137 2.791161 0.024767 -0.008584 -103624.000000 0 0 1
1.229693 -12.306332 -29.786443 32.251978 -1.471203 2.748044 0.036112 -0.012761 147281.000000 0 0 1
2.610393 -12.714732 -29.211743 31.965676 -1.368305 2.723456 0.044163 -0.009691 179442.000000 0 0 1
3.601293 -12.880132 -30.237343 33.063031 -1.298158 2.725156 0.063186 -0.015728 869268.000000 0 0 1
4.960493 -13.077832 -29.854573 32.968647 -1.208256 2.703457 0.059981 -0.012122 738850.000000 0 0 1
5.242593 -14.456532 -29.129513 32.939408 -1.222901 2.655867 0.064459 -0.017907 -784660.000000 0 0 1
4.693193 -14.620232 -27.848833 31.801489 -1.260180 2.637697 0.063943 -0.022333 -40774.600000 0 0 1
5.351493 -15.649232 -27.111093 31.757649 -1.241297 2.593821 0.084898 -0.023313 -113492.000000 0 0 1
5.120693 -17.161232 -27.414193 32.745493 -1.280820 2.562921 0.072814 -0.026503 -74435.300000 0 0 1
5.719293 -17.630432 -28.642973 34.116892 -1.257108 2.567258 0.077576 -0.042152 313701.000000 0 0 1
5.573293 -19.060232 -28.664893 34.871623 -1.286323 2.535731 0.080305 -0.038991 -338816.000000 0 0 1
5.802593 -19.637532 -30.040603 36.355750 -1.283487 2.543295 0.069640 -0.039906 848534.000000 0 0 1
7.186693 -19.560532 -30.465993 36.911240 -1.218698 2.541681 0.064164 -0.037058 1084030.000000 0 0 1
7.330193 -20.079332 -31.773033 38.294084 -1.220767 2.549387 0.063615 -0.040223 -589666.000000 0 0 1
8.777593 -20.046832 -32.231813 38.959098 -1.158088 2.545124 0.060531 -0.033523 -624805.000000 0 0 1
9.047793 -18.765632 -32.749903 38.814528 -1.121533 2.575035 0.059464 -0.035456 -59115.400000 0 0 1
10.311393 -18.868632 -33.372303 39.699631 -1.070657 2.569223 0.046026 -0.026083 -140539.000000 0 0 1
10.732693 -17.485332 -33.946453 39.664709 -1.020283 2.597960 0.053191 -0.017400 -376822.000000 0 0 1
9.954393 -17.173032 33.183611 38.667234 -1.045473 0.539074 0.065316 -0.018108 -94493.900000 0 0 1
10.049593 -15.801432 32.792454 37.762741 -1.004331 0.518868 0.055598 -0.014480 324005.000000 0 0 1
8.862893 -15.432732 31.830973 36.468218 -1.049494 0.509801 0.067294 -0.021864 364130.000000 0 0 1
8.912493 -16.193632 30.596533 35.746526 -1.067669 0.543449 0.064358 -0.016967 162105.000000 0 0 1
7.998093 -15.627232 29.648353 34.455837 -1.097750 0.534597 0.057180 -0.014792 -72262.500000 0 0 1
8.118493 -16.452232 28.277003 33.707192 -1.112396 0.575535 0.049977 -0.000005 -225364.000000 0 0 1
7.589593 -17.782932 28.392773 34.350898 -1.167410 0.597844 0.047269 -0.008571 339523.000000 0 0 1
7.804193 -18.540132 27.212533 33.840270 -1.172374 0.636558 0.039411 -0.008002 -121285.000000 0 0 1
7.142593 -19.887232 27.363993 34.573209 -1.225989 0.657570 0.049862 -0.010477 -157427.000000 0 0 1
7.798093 -20.539132 28.454683 35.949064 -1.207938 0.657491 0.049594 -0.013291 672830.000000 0 0 1
7.017793 -21.580532 29.021953 36.840773 -1.256392 0.663621 0.039455 -0.014922 -51731.800000 0 0 1
7.506593 -21.903632 30.480483 38.277642 -1.240631 0.649643 0.037309 -0.021110 -37707.600000 0 0 1
7.140993 -21.015332 31.574643 38.595285 -1.243238 0.612704 0.038193 -0.020530 248176.000000 0 0 1
7.501393 -19.631832 31.523693 37.886976 -1.205812 0.588011 0.046712 -0.023380 -209991.000000 0 0 1
6.928793 -18.930532 32.786156 38.487729 -1.219929 0.551270 0.052155 -0.027403 651707.000000 0 0 1
5.507693 -18.964732 32.916832 38.386372 -1.288154 0.540380 0.052689 -0.032438 261232.000000 0 0 1
5.002893 -17.985232 33.785294 38.599788 -1.299488 0.504799 0.062318 -0.032802 -363759.000000 0 0 1
3.535693 -18.221632 -34.097210 38.822013 -1.379140 2.643082 0.071368 -0.033839 -387363.000000 0 0 1
3.450493 -19.350332 -33.230413 38.608309 -1.394334 2.607452 0.060006 -0.031336 -350444.000000 0 0 1
2.784793 -18.941932 -32.105103 37.380335 -1.424825 2.603869 0.058967 -0.043631 -651148.000000 0 0 1
2.203893 -20.115732 -31.283583 37.258051 -1.461671 2.567428 0.080236 -0.038130 -252219.000000 0 0 1
1.056893 -20.731632 -31.872823 38.036751 -1.519861 2.564309 0.063528 -0.029453 340639.000000 0 0 1
0.309093 -21.490332 -30.954023 37.683968 -1.556414 2.534677 0.067999 -0.030853 52046.300000 0 0 1
-0.704807 -20.693232 -30.101143 36.534715 1.536750 2.539064 0.070180 -0.029246 -357112.000000 0 0 1
-1.872307 -20.314532 -30.819393 36.959717 1.478890 2.556869 0.077473 -0.033821 -97812.000000 0 0 1
-2.591607 -19.208832 -30.284973 35.956574 1.436689 2.572268 0.086389 -0.011712 -185809.000000 0 0 1
-1.964907 -17.834832 -30.097073 35.039633 1.461066 2.604000 0.056635 -0.005889 -186776.000000 0 0 1
-2.793607 -16.909732 -29.363783 33.999632 1.407068 2.613262 0.064315 -0.009996 177746.000000 0 0 1
-2.279807 -15.569832 -29.515793 33.448456 1.425405 2.651791 0.064560 -0.015119 131871.000000 0 0 1
-3.195107 -14.404432 -29.082253 32.610946 1.352516 2.672092 0.058835 -0.009971 -120036.000000 0 0 1
-3.374907 -14.344832 -27.659983 31.340690 1.339729 2.652072 0.060853 -0.011781 224066.000000 0 0 1
-4.254507 -13.292532 -27.266923 30.631312 1.261032 2.668504 0.059724 -0.013403 53976.400000 0 0 1
-4.352007 -13.122932 -25.707833 29.189792 1.250576 2.648162 0.060635 -0.022375 -811682.000000 0 0 1
-4.951307 -14.152832 -25.019893 29.168701 1.234259 2.601702 0.063410 -0.015133 76533.700000 0 0 1
-5.055907 -13.869232 -23.656493 27.884537 1.221226 2.583701 0.071849 -0.023495 -186063.000000 0 0 1
-6.132707 -12.852732 -23.188293 27.212125 1.125594 2.590840 0.063122 -0.024678 428279.000000 0 0 1
-7.459207 -13.395132 -23.242193 27.843650 1.062702 2.558456 0.054088 -0.027557 1281250.000000 0 0 1
-8.517707 -12.438432 -22.947993 27.456808 0.970352 2.560358 0.061072 -0.026670 1046250.000000 0 0 1
-9.914807 -13.056232 -23.193393 28.402501 0.921311 2.526287 0.062572 -0.033343 -83921.900000 0 0 1
-10.324507 -14.148732 -22.448393 28.473012 0.940406 2.479015 0.066252 -0.043404 -1263400.000000 0 0 1
-11.569807 -14.531032 -22.896693 29.483383 0.898368 2.460042 0.048246 -0.034795 -874523.000000 0 0 1
-12.325007 -15.346532 -21.794793 29.367241 0.894160 2.407064 0.054867 -0.035453 -138482.000000 0 0 1
-11.564807 -16.431232 -21.295293 29.278313 0.957504 2.385234 0.079390 -0.036445 -562181.000000 0 0 1
-12.226307 -17.652532 -21.232093 30.197620 0.965048 2.350551 0.052166 -0.030608 -97121.200000 0 0 1
-12.573707 -18.361632 -22.566393 31.693686 0.970357 2.363161 0.033750 -0.022464 -204178.000000 0 0 1
-13.652007 -17.724432 -23.168393 32.207254 0.914469 2.373667 0.036089 -0.023567 -696856.000000 0 0 1
-14.209107 -18.481032 -24.224493 33.619538 0.915341 2.375389 0.009316 -0.009773 -94019.000000 0 0 1
-15.400107 -17.771532 -24.886793 34.239496 0.856766 2.384513 0.020384 -0.014636 -211966.000000 0 0 1
-16.557707 -17.765032 -24.076793 34.197163 0.820559 2.351892 0.034574 -0.016808 550137.000000 0 0 1
-17.712907 -17.329732 -24.829793 35.079699 0.774464 2.357191 0.042062 -0.016579 863438.000000 0 0 1
-18.333207 -15.991932 -24.245293 34.346508 0.717295 2.354493 0.048926 -0.019711 47330.500000 0 0 1
-19.020707 -16.098132 -22.984393 33.900139 0.702370 2.315839 0.053115 -0.014885 280972.000000 0 0 1
-19.731007 -14.896932 -22.844193 33.661378 0.646694 2.316715 0.060442 -0.021231 -213120.000000 0 0 1
-20.374807 -14.646832 -21.496193 33.041621 0.623278 2.279143 0.056688 -0.017101 57672.900000 0 0 1
-19.401607 -14.358432 -20.493493 31.663388 0.637112 2.274741 0.059928 -0.013039 508944.000000 0 0 1
-19.916407 -14.180432 -19.155193 31.059126 0.618733 2.235382 0.059385 -0.011672 339700.000000 0 0 1
-20.763007 -12.888832 -18.792393 30.828209 0.555544 2.226332 0.054115 -0.022216 263605.000000 0 0 1
-21.983607 -12.729732 -19.487293 32.016865 0.524877 2.225163 0.055189 -0.022576 94015.500000 0 0 1
-22.799807 -11.882932 -18.699893 31.791843 0.480452 2.199625 0.059446 -0.023365 479012.000000 0 0 1
-24.272107 -11.619132 -19.130193 33.016718 0.446465 2.188800 0.079059 -0.020759 471333.000000 0 0 1
-24.439907 -10.967432 -20.404593 33.674041 0.421815 2.221749 0.070159 -0.026881 610136.000000 0 0 1
-25.834807 -10.648532 -20.484393 34.647350 0.390960 2.203374 0.069045 -0.027863 665442.000000 0 0 1
-26.247767 -9.636932 -21.584093 35.322639 0.351873 2.228190 0.076948 -0.025904 -120972.000000 0 0 1
-26.064677 -10.208932 -22.859593 36.140706 0.373311 2.255594 0.059123 -0.022818 5659.300000 0 0 1
-26.860037 -9.583632 -23.806593 37.149178 0.342719 2.266385 0.052846 -0.019553 -474883.000000 0 0 1
-26.757037 -10.204632 -25.202953 38.147901 0.364353 2.292500 0.038110 -0.011073 431150.000000 0 0 1
-25.533657 -9.884532 -25.829923 37.641155 0.369352 2.327069 0.029147 -0.016767 71744.300000 0 0 1
-24.569607 -10.895432 -25.971703 37.375197 0.417395 2.339065 0.027541 -0.007619 92263.700000 0 0 1
-23.565707 -10.678132 -27.122293 37.483114 0.425447 2.379781 0.040243 -0.015431 -162862.000000 0 0 1
-24.031007 -11.018132 -28.392353 38.794513 0.429897 2.391851 0.042239 -0.003805 -403188.000000 0 0 1
-23.145307 -10.788232 -29.449473 38.979002 0.436169 2.427246 0.047194 -0.001679 -181587.000000 0 0 1
-23.646507 -11.318332 -30.863283 40.494495 0.446420 2.437439 0.046263 -0.004557 321709.000000 0 0 1
-24.619507 -10.448532 -31.449243 41.283735 0.401363 2.436857 0.037130 -0.012852 350675.000000 0 0 1
-24.069907 -9.410532 -32.258823 41.334612 0.372695 2.466152 0.041710 -0.013541 -637275.000000 0 0 1
-25.142857 -8.427832 -32.761763 42.148840 0.323428 2.461139 0.029275 -0.018015 131464.000000 0 0 1
-26.231577 -8.822432 -33.640723 43.561786 0.324444 2.453176 0.045018 -0.024672 1126030.000000 0 0 1
-27.214187 -9.540032 -32.940623 43.780233 0.337168 2.422507 0.047294 -0.021154 -1060090.000000 0 0 1
-28.275697 -8.679232 -32.225473 43.741573 0.297821 2.399009 0.044203 -0.013192 -1211110.000000 0 0 1
-29.574137 -9.165032 -32.373613 44.795962 0.300515 2.378483 0.044958 -0.012858 -842633.000000 0 0 1
-30.474567 -8.442232 -31.621173 44.719896 0.270248 2.356176 0.052157 -0.009248 -374370.000000 0 0 1
-31.943967 -8.870332 -31.759423 45.910356 0.270860 2.334734 0.052515 -0.009674 -66959.100000 0 0 1
-32.169047 -10.195732 -31.202583 45.960872 0.306927 2.317052 0.044753 -0.011861 209454.000000 0 0 1
-33.507947 -10.649032 -31.279713 47.059588 0.307712 2.297866 0.036273 -0.006724 46067.000000 0 0 1
-33.594917 -12.199932 -31.207523 47.448564 0.348340 2.288575 0.024903 -0.005517 -452962.000000 0 0 1
-34.914357 -12.657932 -31.236283 48.527734 0.347804 2.270092 0.020633 -0.000502 -334872.000000 0 0 1
-34.817557 -14.055232 -31.147023 48.784719 0.383677 2.263290 0.020096 -0.005230 1054520.000000 0 0 1
-36.181657 -14.757532 -30.777883 49.741081 0.387275 2.237962 0.015650 -0.012225 865190.000000 0 0 1
-36.374277 -14.806832 -29.418843 49.069325 0.386585 2.213718 0.024060 -0.007465 -88684.700000 0 0 1
36.369971 -15.988232 -28.901033 49.129096 -0.414172 2.199711 0.021188 -0.013472 123863.000000 0 0 1
36.424871 -16.061032 -27.342923 48.294548 -0.415291 2.172648 0.046270 -0.015245 -192635.000000 0 0 1
-35.586661 -16.155232 -26.932933 47.463511 0.426149 2.174196 0.037176 -0.020758 -193007.000000 0 0 1
-35.524798 -16.135632 -25.532293 46.629045 0.426347 2.150244 0.059764 -0.027636 -70477.400000 0 0 1
-34.236856 -15.625532 -24.852493 45.099512 0.428159 2.154429 0.071529 -0.024174 222203.000000 0 0 1
-33.091257 -16.458932 -25.031663 44.637561 0.461549 2.166119 0.061485 -0.020942 5028.770000 0 0 1
-32.033537 -15.960332 -24.250493 43.231540 0.462237 2.166323 0.072186 -0.007247 1087250.000000 0 0 1
-30.662417 -16.764732 -24.439993 42.644499 0.500346 2.181092 0.056117 -0.013147 1169720.000000 0 0 1
-30.478537 -18.072032 -23.844793 42.709644 0.535214 2.163132 0.056420 -0.020118 -198496.000000 0 0 1
-31.374827 -19.067032 -24.328593 44.043296 0.546075 2.156012 0.048267 -0.021217 -36067.100000 0 0 1
-31.300407 -20.450232 -23.622193 44.225959 0.578729 2.134269 0.042172 -0.024135 949016.000000 0 0 1
-29.988277 -21.036932 -23.802293 43.685220 0.611735 2.147017 0.041588 -0.016866 784629.000000 0 0 1
-29.917797 -22.257032 -23.186393 43.909667 0.639611 2.127096 0.039733 -0.011865 154238.000000 0 0 1
-28.505227 -22.942332 -23.314693 43.387480 0.677689 2.138100 0.046413 -0.015427 1182200.000000 0 0 1
-27.367827 -22.302932 -22.728693 41.988239 0.683780 2.142792 0.055043 -0.019301 179068.000000 0 0 1
-27.381677 -21.938732 -21.370193 41.082227 0.675484 2.117859 0.059094 -0.027217 -694247.000000 0 0 1
-27.274627 -23.114832 -20.349693 41.137705 0.703032 2.088254 0.056100 -0.023737 -24726.600000 0 0 1
-27.243167 -22.699132 -19.002793 40.231168 0.694662 2.062740 0.053451 -0.020160 45155.900000 0 0 1
-27.253097 -23.789432 -18.071393 40.438145 0.717644 2.034082 0.051425 0.007969 -17965.000000 0 0 1
-27.334727 -23.286432 -16.623893 39.570179 0.705596 2.004365 0.041998 0.009511 -316394.000000 0 0 1
-28.475367 -22.552732 -16.303293 39.815444 0.669849 1.992671 0.027588 0.003726 -441630.000000 0 0 1
-28.185607 -21.591332 -15.296293 38.659936 0.653689 1.977586 0.035811 -0.001328 -409845.000000 0 0 1
-29.445947 -20.956132 -14.759093 39.039135 0.618523 1.958495 0.036711 0.001683 -563773.000000 0 0 1
-30.108937 -20.132132 -15.650493 39.456162 0.589370 1.978667 0.035904 0.001880 -251752.000000 0 0 1
-31.355517 -19.671832 -15.161193 40.000140 0.560309 1.959543 0.037219 0.005571 212830.000000 0 0 1
-32.292377 -19.124832 -16.254093 40.899295 0.534694 1.979497 0.043746 -0.009099 -296939.000000 0 0 1
-32.972527 -20.109332 -16.994793 42.194736 0.547654 1.985338 0.026440 -0.001183 -136227.000000 0 0 1
-33.857037 -19.478432 -17.912693 42.971768 0.522070 2.000771 0.023732 -0.001557 -185030.000000 0 0 1
-34.576369 -20.444332 -18.839293 44.366823 0.533983 2.009345 0.013995 0.001761 277630.000000 0 0 1
-35.605399 -21.339632 -18.409793 45.409744 0.539932 1.988229 0.005345 0.006296 295541.000000 0 0 1
-35.301801 -22.195432 -17.274093 45.135891 0.561280 1.963527 0.005736 0.005502 -324364.000000 0 0 1
-36.205767 -23.439332 -17.252893 46.453441 0.574540 1.951315 0.006579 0.012945 -306414.000000 0 0 1
35.792431 -23.187632 -16.965993 45.897814 -0.574853 1.949425 0.016376 -0.000399 -444716.000000 0 0 1
35.130961 -24.406432 -16.927193 46.004219 -0.607178 1.947598 0.022823 -0.005156 -1128670.000000 0 0 1
33.718391 -24.439932 -16.414893 44.762583 -0.627193 1.946267 0.034243 -0.006785 -896540.000000 0 0 1
32.734201 -24.009732 -17.337293 44.142688 -0.632841 1.974423 0.038944 -0.007960 -628303.000000 0 0 1
31.499701 -24.224032 -16.728193 43.114584 -0.655566 1.969250 0.063171 -0.015240 -843583.000000 0 0 1
30.327581 -24.188432 -17.695393 42.637652 -0.673259 1.998759 0.075140 -0.016573 -495826.000000 0 0 1
29.847721 -22.904232 -17.983793 41.700205 -0.654525 2.016689 0.045212 -0.015012 1394540.000000 0 0 1
28.468791 -22.982732 -18.455493 40.979059 -0.679174 2.037969 0.061207 -0.018444 1265700.000000 0 0 1
34.725291 29.568468 -18.122493 49.077132 0.705362 1.949015 0.041893 -0.009642 74578.900000 0 0 1
33.971531 29.268168 -19.300693 48.818105 0.711161 1.977255 0.039597 -0.021778 106559.000000 0 0 1
34.782681 29.099068 -20.424893 49.736977 0.696661 1.993972 0.040353 -0.012233 -180381.000000 0 0 1
33.992691 29.379368 -21.722293 49.904993 0.712729 2.021138 0.046906 -0.011580 -473256.000000 0 0 1
33.132851 28.318768 -22.135893 48.884928 0.707218 2.040718 0.039272 -0.008789 292884.000000 0 0 1
32.395301 28.656068 -23.285293 49.120572 0.724227 2.064674 0.055856 -0.005732 71061.200000 0 0 1
31.182251 29.610068 -23.129193 48.826719 0.759542 2.064283 0.063094 -0.000950 -742198.000000 0 0 1
31.472001 30.957568 -23.083493 49.816719 0.777158 2.052589 0.065239 -0.016273 459418.000000 0 0 1
30.303101 31.798968 -23.029293 49.596377 0.809481 2.053679 0.068066 0.000644 252355.000000 0 0 1
30.671191 33.299468 -22.859893 50.716380 0.826461 2.038390 0.062237 -0.000040 -101384.000000 0 0 1
30.969511 33.743268 -21.550393 50.617568 0.828235 2.010586 0.063744 0.003807 -38788.300000 0 0 1
32.287081 33.441168 -21.138993 51.064903 0.802955 1.997600 0.055927 -0.005801 -268250.000000 0 0 1
32.564581 33.380268 -19.620793 50.593179 0.797767 1.969056 0.049204 -0.013400 -196549.000000 0 0 1
32.576701 -33.607629 -18.982893 50.508063 -0.800974 1.956098 0.052295 -0.011122 155952.000000 0 0 1
32.656121 -33.835129 -17.573393 50.200223 -0.803128 1.928438 0.050875 -0.026658 -227997.000000 0 0 1
32.890911 -32.568729 -16.731393 49.218631 -0.780476 1.917650 0.052742 -0.016464 104133.000000 0 0 1
34.068171 -31.827029 -16.996593 49.623424 -0.751401 1.920385 0.048848 -0.016457 64.212400 0 0 1
34.981511 -31.919429 -15.907793 49.956120 -0.739660 1.894875 0.051223 -0.015381 206052.000000 0 0 1
36.314401 -31.223529 -16.277293 50.582554 -0.710162 1.898423 0.032982 -0.007192 112446.000000 0 0 1
-36.238637 -31.862529 -17.280893 51.255135 0.721227 1.914689 0.022888 -0.006094 153265.000000 0 0 1
-35.007241 -31.163229 -17.442393 50.008908 0.727371 1.927071 0.005668 0.001361 736467.000000 0 0 1
-34.049867 -31.792129 -18.519493 50.130874 0.751121 1.949184 0.021274 -0.008466 -797815.000000 0 0 1
-33.520787 -32.963629 -18.042893 50.356628 0.777018 1.937245 0.034866 -0.015222 -283688.000000 0 0 1
-32.513567 -33.461429 -18.871193 50.328135 0.799764 1.955153 0.055315 -0.014849 719553.000000 0 0 1
-31.157837 -32.763729 -19.234493 49.134901 0.810516 1.973017 0.043776 -0.010486 -504804.000000 0 0 1
-31.292477 -31.823929 -20.279193 49.022722 0.793818 1.997277 0.035048 -0.009252 577795.000000 0 0 1
-30.044127 -31.296229 -20.743893 48.087552 0.805808 2.016816 0.050516 -0.011572 692899.000000 0 0 1
-29.134147 -32.289629 -21.522593 48.524640 0.836725 2.030340 0.049874 -0.006000 -262578.000000 0 0 1
-29.743407 -32.869629 -22.669693 49.789535 0.835286 2.043517 0.041415 -0.000569 -412604.000000 0 0 1
-28.976197 -33.933229 -23.130393 50.260313 0.864032 2.049030 0.034992 -0.009832 -3961.810000 0 0 1
-29.652927 33.390068 -24.188993 50.786810 -0.844608 2.067221 0.032225 -0.016407 43860.700000 0 0 1
-30.790377 32.637068 -23.748593 50.766339 -0.814505 2.057599 0.028042 -0.024547 338267.000000 0 0 1
-31.421367 31.919868 -24.805193 51.200370 -0.793268 2.076557 0.027495 -0.017043 394446.000000 0 0 1
-32.243687 32.697768 -25.866793 52.705696 -0.792390 2.083779 0.038414 -0.026745 -274251.000000 0 0 1
-31.435347 33.542968 -26.676063 53.150015 -0.817823 2.096592 0.041164 -0.028603 -551257.000000 0 0 1
-32.205237 -33.613129 -27.057383 53.843493 0.806785 2.097306 0.039379 -0.024714 142418.000000 0 0 1
-31.624257 -32.813229 -28.278073 53.632556 0.803848 2.126164 0.026003 -0.019289 -89127.700000 0 0 1
-31.591377 -33.545729 -29.533373 54.731629 0.815393 2.140762 0.035105 -0.024583 509745.000000 0 0 1
-32.843007 -33.734629 -30.219363 55.945493 0.798790 2.141420 0.043449 -0.019423 521591.000000 0 0 1
-32.723047 33.651568 -31.516243 56.537593 -0.799386 2.162094 0.053774 -0.021494 -219269.000000 0 0 1
-32.021277 -34.049229 -32.577053 56.973472 0.816082 2.179486 0.065729 -0.032183 -295654.000000 0 0 1
-32.085017 33.290168 -33.676383 57.199496 -0.803830 2.200312 0.059239 -0.038844 5184.700000 0 0 1
-31.231197 33.581868 33.251933 56.646452 -0.821651 0.943438 0.074486 -0.044483 991031.000000 0 0 1
-29.885577 33.120368 33.392630 55.724091 -0.836694 0.928233 0.071396 -0.041534 273985.000000 0 0 1
-29.682797 31.791668 32.947087 54.564542 -0.819690 0.922513 0.080114 -0.045784 -60573.900000 0 0 1
-28.201697 31.347468 32.888715 53.475855 -0.838176 0.908385 0.075943 -0.039349 59225.900000 0 0 1
-27.686897 31.036768 -34.103690 53.785750 -0.842381 2.257596 0.074813 -0.040315 94731.300000 0 0 1
-26.265117 30.912068 -34.038135 52.952875 -0.866493 2.268945 0.080828 -0.043354 333242.000000 0 0 1
-25.783927 29.451768 -34.015419 51.858136 -0.851704 2.286213 0.102001 -0.043208 -430924.000000 0 0 1
-26.110157 28.755568 -32.861503 50.877317 -0.833577 2.272994 0.102511 -0.034275 -1644.820000 0 0 1
-26.029557 27.360368 -33.032903 50.172704 -0.810319 2.289466 0.101251 -0.022355 -376962.000000 0 0 1
-25.831007 26.571568 -31.749413 48.798713 -0.799529 2.279197 0.113130 -0.021920 365942.000000 0 0 1
-24.541407 26.696368 -31.155893 47.808643 -0.827431 2.280592 0.093188 -0.022586 358544.000000 0 0 1
-24.392007 27.868668 -30.357613 47.887549 -0.851826 2.257428 0.067211 -0.023808 899514.000000 0 0 1
-22.992707 27.949068 -29.598333 46.753356 -0.882388 2.256314 0.098468 -0.020433 800751.000000 0 0 1
-21.928407 28.261368 -30.478433 46.994626 -0.910915 2.276476 0.102486 -0.018931 136013.000000 0 0 1
-20.666507 28.302668 -29.819503 46.014653 -0.940090 2.275809 0.055586 -0.010259 313357.000000 0 0 1
-20.347607 29.587468 -28.906333 46.097933 -0.968366 2.248574 0.034486 -0.011071 -1115200.000000 0 0 1
-20.020807 30.751168 -29.674613 47.191627 -0.993677 2.250819 0.033960 -0.007113 -143904.000000 0 0 1
-19.787707 31.832068 -28.891033 47.323627 -1.014625 2.227487 0.043752 -0.010169 -14560.000000 0 0 1
-19.190007 33.072968 -29.597313 48.353682 -1.045039 2.229510 0.041551 -0.008687 858587.000000 0 0 1
-17.869607 32.898668 -30.132173 48.058226 -1.073211 2.248484 0.037851 -0.002588 334758.000000 0 0 1
-17.485407 33.896768 -31.031613 49.170025 -1.094555 2.253778 0.044592 0.002151 206438.000000 0 0 1
-15.964307 33.926468 -31.301633 48.843183 -1.130980 2.266414 0.026146 0.014200 -581741.000000 0 0 1
-15.175907 -33.743729 -30.262393 47.799161 1.148159 2.256368 0.036965 -0.000821 -428432.000000 0 0 1
-13.803507 -33.762029 -30.498263 47.545299 1.182686 2.267192 0.065902 0.002272 -364533.000000 0 0 1
-13.139507 33.123068 -30.394543 46.836017 -1.193149 2.277009 0.074109 -0.008354 -1297060.000000 0 0 1
-13.255407 32.638468 -29.060193 45.666949 -1.185018 2.260554 0.081485 -0.022453 19928.300000 0 0 1
-13.288907 31.230968 -29.061423 44.682600 -1.168499 2.278903 0.071812 -0.021366 -100583.000000 0 0 1
-13.125607 30.678368 -27.609253 43.309522 -1.166518 2.262028 0.060634 -0.031161 698748.000000 0 0 1
-11.822407 31.058668 -27.145353 42.910143 -1.207084 2.255714 0.072170 -0.030761 517771.000000 0 0 1
-11.628307 30.534068 -25.832193 41.651519 -1.206924 2.239792 0.045106 -0.030275 872411.000000 0 0 1
-10.270207 30.991768 -25.160403 41.219082 -1.250800 2.227370 0.060463 -0.030698 1369720.000000 0 0 1
-9.150207 30.304168 -25.678023 40.760640 -1.277556 2.252312 0.080317 -0.025671 573131.000000 0 0 1
-7.850507 30.860368 -25.382753 40.721946 -1.321692 2.243776 0.088875 -0.035597 1595100.000000 0 0 1
-6.729207 30.021068 -26.091633 40.340055 -1.350292 2.274167 0.078118 -0.034711 75376.300000 0 0 1
-6.624507 28.754468 -25.548873 39.031377 -1.344365 2.284414 0.078367 -0.038541 -839063.000000 0 0 1
-5.453507 28.167968 -25.981123 38.706510 -1.379556 2.306669 0.075252 -0.043979 -754316.000000 0 0 1
-5.039707 26.932268 -25.141373 37.186481 -1.385810 2.313238 0.087135 -0.031778 -317120.000000 0 0 1
-5.847407 25.801368 -25.276333 36.589558 -1.347929 2.333401 0.099471 -0.027353 86507.700000 0 0 1
-5.366507 24.772268 -24.438193 35.209231 -1.357459 2.337944 0.098258 -0.039919 -44248.000000 0 0 1
-6.409007 23.635868 -24.399493 34.569710 -1.306007 2.354356 0.088865 -0.036920 64326.200000 0 0 1
-6.279507 22.784368 -25.547373 34.802699 -1.301867 2.395082 0.088102 -0.032043 869071.000000 0 0 1
-7.365107 21.856268 -25.661413 34.502889 -1.245768 2.409454 0.091117 -0.035664 84121.300000 0 0 1
-6.969907 21.006368 -26.915193 34.846445 -1.250427 2.453398 0.069068 -0.031715 -539276.000000 0 0 1
-5.783507 20.320668 -26.802203 34.128237 -1.293516 2.474038 0.076532 -0.041422 -908435.000000 0 0 1
-5.802907 19.309568 -25.825963 32.764516 -1.278863 2.478723 0.078858 -0.037901 -480363.000000 0 0 1
-4.632307 18.294668 -25.944293 32.082074 -1.322803 2.512710 0.077413 -0.048640 221113.000000 0 0 1
-4.566007 17.711868 -27.226963 32.800399 -1.318496 2.550048 0.067260 -0.052944 452781.000000 0 0 1
-3.475407 16.792168 -27.420873 32.341299 -1.366712 2.582731 0.072551 -0.053683 393341.000000 0 0 1
-3.395307 16.373668 -28.949183 33.431726 -1.366330 2.617782 0.072626 -0.042576 -301399.000000 0 0 1
-2.799707 17.364768 -29.725963 34.539925 -1.410943 2.607294 0.079381 -0.048140 27625.600000 0 0 1
-2.409407 16.886568 -30.983953 35.369008 -1.429071 2.638343 0.076848 -0.055937 242615.000000 0 0 1
-1.426107 17.890668 -31.687153 36.416829 -1.491252 2.626250 0.077429 -0.030430 644157.000000 0 0 1
-0.051907 17.829268 -31.282983 36.007090 -1.567885 2.623571 0.089224 -0.036129 616072.000000 0 0 1
0.712493 18.865168 -31.885973 37.055600 1.533047 2.607027 0.095688 -0.011823 121383.000000 0 0 1
0.599593 20.311568 -31.357973 37.366318 1.541285 2.566615 0.086056 -0.022188 -468299.000000 0 0 1
1.198093 20.612868 -30.135443 36.530407 1.512738 2.540895 0.094479 -0.037674 -414589.000000 0 0 1
0.757993 21.818968 -29.608883 36.787605 1.536070 2.506236 0.087466 -0.039322 -49614.200000 0 0 1
1.632393 22.295168 -28.420273 36.158694 1.497709 2.475088 0.093501 -0.046521 51577.500000 0 0 1
2.794193 23.011368 -28.733603 36.918159 1.449961 2.462759 0.071162 -0.041006 -538715.000000 0 0 1
3.737693 22.830368 -27.703993 36.093036 1.408520 2.445840 0.088453 -0.039621 211857.000000 0 0 1
4.553793 24.107268 -27.345663 36.738028 1.384099 2.410346 0.087248 -0.037835 -27680.700000 0 0 1
5.415993 24.550668 -28.353803 37.894675 1.353669 2.416181 0.081942 -0.040624 -55925.900000 0 0 1
5.867093 25.857268 -28.082473 38.621838 1.347671 2.384905 0.089033 -0.041726 -167742.000000 0 0 1
6.636993 26.567368 -29.215933 40.043045 1.325989 2.388552 0.106383 -0.042116 1192520.000000 0 0 1
8.032893 26.189268 -29.297913 40.109510 1.273182 2.389774 0.104755 -0.040404 1146960.000000 0 0 1
8.791393 27.059268 -30.114153 41.428912 1.256660 2.384575 0.106318 -0.036927 221381.000000 0 0 1
10.298593 26.928568 -29.771003 41.442990 1.205518 2.372239 0.090981 -0.038102 -10759.400000 0 0 1
11.136393 27.814768 -30.447163 42.716628 1.189965 2.364237 0.089594 -0.031587 -545041.000000 0 0 1
12.326993 28.012968 -29.725973 42.665145 1.156251 2.341621 0.081898 -0.032675 -315303.000000 0 0 1
13.233293 28.994968 -30.493073 44.109587 1.142633 2.334087 0.082657 -0.034152 -332427.000000 0 0 1
12.994693 30.368568 -30.338923 44.850443 1.166472 2.313723 0.095946 -0.030154 243546.000000 0 0 1
13.830493 31.101768 -31.230413 46.194601 1.152371 2.313201 0.134529 -0.042899 252497.000000 0 0 1
13.478093 32.585468 -31.224523 47.100345 1.178602 2.295530 0.142993 -0.052047 169439.000000 0 0 1
12.332593 32.868068 -32.004933 47.504931 1.211837 2.310025 0.120633 -0.048716 -123933.000000 0 0 1
11.743793 34.054868 -31.603203 47.920905 1.238718 2.290932 0.112106 -0.043003 -106831.000000 0 0 1
10.370393 -33.930829 -32.264463 47.956665 -1.274179 2.308761 0.080079 -0.033426 -168311.000000 0 0 1
10.410493 -33.456029 -33.621433 48.560117 -1.269124 2.335561 0.080799 -0.015729 -682050.000000 0 0 1
9.142593 -33.447929 34.048396 48.596752 -1.303976 0.794515 0.086955 -0.024288 -571291.000000 0 0 1
9.002393 -32.735629 32.705646 47.141529 -1.302427 0.804078 0.085067 -0.022786 52466.200000 0 0 1
8.940393 -31.331429 32.635623 46.115865 -1.292834 0.784576 0.070309 -0.030127 -125367.000000 0 0 1
9.307893 -30.798329 31.375343 44.939806 -1.277303 0.797967 0.095515 -0.026276 -361169.000000 0 0 1
8.838493 -29.348329 31.123513 43.681992 -1.278277 0.777739 0.078936 -0.036859 -319646.000000 0 0 1
7.488693 -29.030329 31.008773 43.132175 -1.318339 0.768543 0.064004 -0.024637 -433285.000000 0 0 1
6.712393 -29.029129 32.230483 43.892489 -1.343560 0.746154 0.057613 -0.016677 1371570.000000 0 0 1
5.175593 -28.902429 31.840093 43.311993 -1.393603 0.744933 0.063330 -0.022540 1050210.000000 0 0 1
4.515593 -29.970029 31.166273 43.473323 -1.421251 0.771443 0.078134 -0.030967 -99711.600000 0 0 1
4.710493 -30.226829 29.764713 42.682410 -1.416202 0.799098 0.083768 -0.037319 -383486.000000 0 0 1
4.100593 -29.228929 28.783673 41.226751 -1.431414 0.797945 0.059023 -0.040617 -557283.000000 0 0 1
2.715193 -29.379729 28.646783 41.123946 -1.478641 0.800154 0.071972 -0.042451 -212404.000000 0 0 1
2.203293 -28.570129 27.580483 39.771722 -1.493830 0.804503 0.075899 -0.055367 -137579.000000 0 0 1
0.739593 -28.875129 27.201183 39.676498 -1.545188 0.815404 0.063453 -0.047892 -4077.070000 0 0 1
0.524393 -30.059229 26.500123 40.076038 -1.553353 0.848318 0.074684 -0.049731 -63511.300000 0 0 1
0.223993 -31.097129 27.369383 41.426619 -1.563593 0.849083 0.101359 -0.056035 -928691.000000 0 0 1
0.671093 -32.540729 26.916113 42.235371 -1.550176 0.879822 0.097032 -0.057796 -110885.000000 0 0 1
2.045193 -32.837629 26.893013 42.493845 -1.508595 0.885544 0.094687 -0.052512 43913.400000 0 0 1
2.710893 -32.191129 25.778813 41.329952 -1.486782 0.897288 0.084812 -0.051549 -673389.000000 0 0 1
4.236293 -32.257229 25.925923 41.600823 -1.440215 0.897960 0.101206 -0.040106 -63300.500000 0 0 1
4.937993 -31.684529 24.825983 40.553947 -1.416191 0.911992 0.106210 -0.053748 -178949.000000 0 0 1
6.314393 -31.882729 25.008823 41.010014 -1.375276 0.914960 0.086008 -0.053076 -146019.000000 0 0 1
7.266593 -31.505529 23.838143 40.170372 -1.344115 0.935488 0.086327 -0.049089 -489841.000000 0 0 1
8.616893 -31.800829 24.076343 40.807032 -1.306186 0.939732 0.080385 -0.035625 -205179.000000 0 0 1
9.338193 -31.766929 22.847453 40.228668 -1.284890 0.966796 0.068949 -0.030671 -522898.000000 0 0 1
10.180393 -30.521829 22.720253 39.388226 -1.248856 0.955955 0.059001 -0.028331 -698695.000000 0 0 1
11.311293 -30.720229 23.575133 40.341848 -1.217998 0.946676 0.060001 -0.031612 207509.000000 0 0 1
12.257893 -29.694729 23.380213 39.732446 -1.179307 0.941667 0.049649 -0.024769 -524307.000000 0 0 1
13.574693 -29.869929 24.104383 40.712483 -1.144240 0.937179 0.095005 -0.029063 -707339.000000 0 0 1
13.530693 -29.616129 25.504913 41.360553 -1.142245 0.906318 0.077335 -0.030945 -150834.000000 0 0 1
14.823493 -29.617429 26.062203 42.144590 -1.106750 0.904092 0.085627 -0.034953 -693071.000000 0 0 1
-10.596207 -13.929232 26.091823 31.417931 0.920471 0.590835 0.072205 -0.027485 768369.000000 0 0 1
-9.169707 -13.982132 25.923923 30.848555 0.990343 0.572847 0.065600 -0.023047 344078.000000 0 0 1
-8.584807 -14.708932 26.955533 31.884987 1.042489 0.563485 0.071051 -0.027931 157340.000000 0 0 1
-7.040807 -14.846932 26.763993 31.405663 1.127979 0.550615 0.075959 -0.019717 305692.000000 0 0 1
-6.631107 -15.746932 25.725533 30.882690 1.172230 0.586273 0.077446 -0.017975 43100.600000 0 0 1
-6.939507 -15.297932 24.403053 29.625875 1.144933 0.602878 0.076986 -0.018370 -720811.000000 0 0 1
-6.403307 -16.191232 23.267143 29.060597 1.194193 0.642430 0.083824 -0.019203 -209322.000000 0 0 1
-7.051207 -17.407532 23.008853 29.700994 1.185930 0.684583 0.086951 -0.021065 -451902.000000 0 0 1
-6.864407 -18.422332 24.023013 31.042029 1.214120 0.685841 0.080389 -0.025488 -665347.000000 0 0 1
-7.551307 -19.738932 23.656913 31.722188 1.205415 0.729132 0.075326 -0.028443 1741780.000000 0 0 1
-9.013507 -19.569532 23.732483 32.053715 1.139172 0.737135 0.066653 -0.026599 1895260.000000 0 0 1
-9.766607 -20.673532 23.289673 32.637255 1.129454 0.776185 0.052958 -0.025189 -642498.000000 0 0 1
-11.263407 -20.554532 23.485193 33.179925 1.069508 0.784398 0.065403 -0.031960 -827533.000000 0 0 1
-11.613807 -20.596032 24.796613 34.262940 1.057355 0.761625 0.059571 -0.031541 128949.000000 0 0 1
-12.998007 -20.297332 24.925113 34.672628 1.001214 0.768621 0.066480 -0.021662 403565.000000 0 0 1
-13.488307 -20.278932 26.383643 35.906352 0.983852 0.745439 0.063747 -0.015510 -183691.000000 0 0 1
-13.313007 -21.541632 27.020923 37.032531 1.017237 0.752981 0.060230 -0.014289 57592.800000 0 0 1
-12.367907 -21.515332 28.062863 37.461967 1.049081 0.724090 0.059121 -0.018231 -173174.000000 0 0 1
-12.184207 -22.895632 28.737803 38.710802 1.081751 0.734193 0.057635 -0.023157 -667048.000000 0 0 1
-13.213107 -23.419232 29.491173 39.909597 1.057117 0.739287 0.047845 -0.022521 -780641.000000 0 0 1
-12.907107 -24.741232 29.904443 40.902295 1.089952 0.750836 0.047835 -0.025901 175065.000000 0 0 1
-13.930107 -25.326502 30.938833 42.340182 1.067937 0.751420 0.044872 -0.023605 251152.000000 0 0 1
-13.862307 -24.773532 32.237757 42.955377 1.060642 0.721987 0.059823 -0.027152 -321681.000000 0 0 1
-14.849407 -25.324612 33.053524 44.208329 1.040465 0.726240 0.059992 -0.025952 -664916.000000 0 0 1
-14.647907 -24.896832 -33.674493 44.366484 1.038991 2.432584 0.053258 -0.026814 101975.000000 0 0 1
-14.641607 -23.487132 -33.500753 43.454832 1.013357 2.451101 0.055334 -0.031191 341565.000000 0 0 1
-15.954607 -22.918532 -33.591983 43.683291 0.962663 2.448055 0.054454 -0.030325 9953.880000 0 0 1
-16.053507 -21.357432 -33.464393 42.821964 0.926234 2.467826 0.049028 -0.026867 -8911.920000 0 0 1
-16.194307 -20.935532 -32.113283 41.615081 0.912404 2.452266 0.053579 -0.028138 113342.000000 0 0 1
-16.449007 -19.535332 -32.073513 40.998893 0.870957 2.469149 0.050951 -0.030275 -114273.000000 0 0 1
-16.541107 -18.907332 -30.664943 39.641318 0.852050 2.455236 0.055682 -0.021858 681861.000000 0 0 1
-17.749607 -19.277132 -29.971733 39.811570 0.826629 2.423162 0.053691 -0.023163 627366.000000 0 0 1
-17.648107 -19.240932 -28.526253 38.670612 0.828550 2.400413 0.046735 -0.019156 127511.000000 0 0 1
-16.790907 -20.357532 -27.858713 38.372797 0.881115 2.383286 0.040194 -0.012988 -228605.000000 0 0 1
-15.412207 -20.148532 -27.876083 37.690522 0.917809 2.403279 0.031976 -0.008350 -537543.000000 0 0 1
-14.693807 -21.169832 -27.199083 37.468118 0.964047 2.383176 0.016444 -0.007385 235832.000000 0 0 1
-13.162107 -21.051632 -27.313343 36.911122 1.012032 2.403831 0.036643 -0.011280 -659566.000000 0 0 1
-12.637307 -20.019132 -26.521353 35.550658 1.007707 2.412855 0.036302 -0.013065 1238040.000000 0 0 1
-11.192507 -20.060732 -26.378973 34.979356 1.061884 2.425124 0.032501 -0.013026 1428840.000000 0 0 1
-10.603807 -21.195332 -25.499033 34.812117 1.106917 2.392748 0.049179 -0.025614 -827276.000000 0 0 1
-10.609607 -22.453332 -26.125443 36.045175 1.129375 2.381536 0.056444 -0.030250 178903.000000 0 0 1
-10.391107 -23.503532 -25.171583 35.972207 1.154524 2.345845 0.080656 -0.030879 -254143.000000 0 0 1
-10.325907 -24.930332 -25.784993 37.323071 1.178117 2.333473 0.079493 -0.027019 473100.000000 0 0 1
-9.099107 -25.098212 -26.543843 37.646906 1.222994 2.353323 0.078339 -0.018952 1059840.000000 0 0 1
-8.997807 -26.370712 -27.233143 38.961764 1.241978 2.344754 0.071528 -0.022340 -7412.040000 0 0 1
-8.860907 -27.624052 -26.338273 39.183013 1.260397 2.307954 0.077947 -0.025522 -531244.000000 0 0 1
-10.067207 -28.014792 -25.737723 39.352352 1.225813 2.283699 0.077870 -0.026929 37621.300000 0 0 1
-9.869707 -29.122152 -24.902893 39.568484 1.244038 2.251528 0.103016 -0.031683 483722.000000 0 0 1
-11.153307 -29.231452 -24.008593 39.437122 1.206294 2.225320 0.099727 -0.039673 591437.000000 0 0 1
-11.008407 -28.350862 -22.937993 38.093410 1.200424 2.216989 0.096436 -0.037634 -127094.000000 0 0 1
-11.798907 -27.216712 -23.126093 37.613558 1.161734 2.232972 0.072098 -0.038239 -379976.000000 0 0 1
-11.590307 -26.157812 -22.000393 36.091323 1.153702 2.226322 0.079095 -0.045641 -334380.000000 0 0 1
-12.187707 -26.571022 -20.862793 35.914002 1.140744 2.190642 0.056046 -0.038193 -192642.000000 0 0 1
-12.069907 -25.485612 -19.966493 34.552278 1.128493 2.186904 0.048544 -0.030855 -225279.000000 0 0 1
-12.610607 -25.773142 -18.533993 34.158325 1.115751 2.144315 0.069242 -0.030276 96706.100000 0 0 1
-13.997707 -26.037402 -18.562993 34.906544 1.077523 2.131511 0.092230 -0.033431 -207628.000000 0 0 1
-14.459907 -26.583592 -17.352293 34.883783 1.072617 2.091432 0.094554 -0.024487 -893310.000000 0 0 1
-15.969107 -26.609712 -17.234293 35.498028 1.030286 2.077731 0.095332 -0.033322 -1443770.000000 0 0 1
-16.575707 -25.364162 -16.918493 34.703460 0.991958 2.080039 0.080142 -0.026264 461483.000000 0 0 1
-17.959907 -25.417392 -16.593693 35.269714 0.955655 2.060631 0.095633 -0.025631 860918.000000 0 0 1
-19.016907 -25.845212 -17.681793 36.636915 0.936445 2.074443 0.096289 -0.022066 -353605.000000 0 0 1
-19.108107 -27.256702 -17.981893 37.833795 0.959371 2.066086 0.086585 -0.030755 35488.800000 0 0 1
-19.400807 -28.219862 -16.953993 38.212430 0.968517 2.030494 0.076320 -0.035722 -700005.000000 0 0 1
-20.903207 -28.519222 -16.995693 39.231921 0.938296 2.018849 0.066603 -0.025200 -297333.000000 0 0 1
-21.204407 -29.509122 -17.929393 40.520097 0.947715 2.029160 0.058215 -0.026693 268726.000000 0 0 1
-22.375207 -30.189682 -17.462493 41.436764 0.932981 2.005813 0.046434 -0.015365 333488.000000 0 0 1
-22.981107 -31.189852 -18.423693 42.899541 0.935788 2.014693 0.033573 -0.017739 -341821.000000 0 0 1
-22.294907 -32.393282 -18.579093 43.492186 0.967995 2.012170 0.026217 -0.027131 -76374.300000 0 0 1
-22.855607 -33.108322 -19.673493 44.783770 0.966591 2.025615 0.031084 -0.014513 169586.000000 0 0 1
-22.254907 33.690581 -19.761693 44.953983 -0.987028 2.025948 0.021898 -0.016464 49819.600000 0 0 1
-22.880507 32.848735 -18.854193 44.249718 -0.962395 2.010958 0.033082 -0.014610 -59515.300000 0 0 1
-22.061007 31.732676 -18.567993 42.876813 -0.963290 2.018675 0.029786 -0.020767 -107308.000000 0 0 1
-22.885107 30.515386 -18.195993 42.261224 -0.927325 2.015909 0.044249 -0.026328 -162879.000000 0 0 1
-23.570407 30.532606 -16.966593 42.138692 -0.913379 1.985192 0.034347 -0.030444 -164396.000000 0 0 1
-24.532207 29.508356 -16.866293 41.917109 -0.877221 1.984903 0.042571 -0.023234 43690.000000 0 0 1
-23.988507 28.052546 -16.493093 40.427910 -0.863333 1.991018 0.042349 -0.023902 9794.380000 0 0 1
-23.147407 27.481846 -17.470693 39.953465 -0.870801 2.023364 0.051085 -0.023794 -283233.000000 0 0 1
-22.580707 26.306966 -16.992993 38.609669 -0.861472 2.026532 0.047681 -0.025315 47773.000000 0 0 1
-21.913307 25.595276 -18.221593 38.305843 -0.862745 2.066541 0.065799 -0.020168 -421911.000000 0 0 1
-21.510607 24.235656 -18.123293 37.128519 -0.844897 2.080734 0.075325 -0.026171 578029.000000 0 0 1
-20.699507 23.721366 -19.218493 36.885271 -0.853321 2.118859 0.073747 -0.024734 772377.000000 0 0 1
-19.263507 24.276576 -19.361293 36.541681 -0.900030 2.129210 0.063395 -0.018615 -498188.000000 0 0 1
-18.411907 23.923606 -18.271793 35.287330 -0.914861 2.115074 0.077694 -0.023201 98301.100000 0 0 1
-17.120207 24.463776 -18.433693 35.091008 -0.960192 2.123877 0.088393 -0.031637 -165360.000000 0 0 1
-16.885807 25.713906 -17.536793 35.410091 -0.989739 2.088917 0.079858 -0.030859 -215887.000000 0 0 1
-17.720707 26.791226 -17.953193 36.798238 -0.986423 2.080458 0.068752 -0.027443 77801.600000 0 0 1
-17.400907 28.010516 -17.331493 37.252667 -1.014914 2.054704 0.068682 -0.037282 -119282.000000 0 0 1
-18.428807 29.177116 -17.664893 38.768201 -1.007452 2.043903 0.065199 -0.032981 641034.000000 0 0 1
-18.419007 29.624316 -19.020093 39.731899 -1.014535 2.069982 0.030492 -0.031717 -149963.000000 0 0 1
-19.476907 29.021966 -19.699193 40.120850 -0.979724 2.084029 0.041459 -0.026893 -555476.000000 0 0 1
-19.433507 29.303806 -21.142493 41.029005 -0.985216 2.112161 0.041404 -0.024232 -43853.600000 0 0 1
-20.133207 30.472786 -21.440293 42.351185 -0.986940 2.101627 0.040874 -0.024338 -188085.000000 0 0 1
-20.481007 30.588696 -22.767993 43.284194 -0.980792 2.124701 0.034767 -0.019564 275610.000000 0 0 1
-21.159407 31.938806 -23.201893 44.789905 -0.985685 2.115326 0.030741 -0.023479 158640.000000 0 0 1
-20.338907 33.023174 -22.826893 45.002979 -1.018769 2.102765 0.015377 -0.022999 69880.700000 0 0 1
-20.654007 34.076355 -23.723793 46.374608 -1.025897 2.107806 0.019096 -0.017916 -82905.400000 0 0 1
-19.681707 -32.970792 -23.649193 45.096863 1.032627 2.122817 0.035182 -0.015731 -16922.500000 0 0 1
-19.811107 -32.136952 -22.481993 43.939773 1.018363 2.107906 0.035412 -0.019186 79891.200000 0 0 1
-19.274807 -32.729952 -21.309293 43.552886 1.038575 2.082053 0.029580 -0.029244 -471728.000000 0 0 1
-19.026507 -31.712622 -20.181293 42.130546 1.030402 2.070332 0.059769 -0.041199 -29431.500000 0 0 1
-18.015807 -30.800112 -20.578393 41.190854 1.041534 2.093918 0.065081 -0.040122 173411.000000 0 0 1
-17.796607 -29.882402 -19.540593 39.893758 1.033652 2.082675 0.069328 -0.042595 112970.000000 0 0 1
-16.550707 -28.989322 -19.802993 38.813209 1.052030 2.106228 0.076688 -0.046298 -304862.000000 0 0 1
-15.347907 -29.635542 -19.705393 38.757271 1.092941 2.104158 0.082102 -0.047438 -722338.000000 0 0 1
-14.208507 -28.970112 -20.215093 38.076227 1.114815 2.130472 0.076842 -0.051814 866108.000000 0 0 1
-12.894107 -29.869502 -20.318293 38.357244 1.163280 2.129057 0.110654 -0.052429 1248440.000000 0 0 1
-12.244007 -30.350252 -19.125493 37.905646 1.187342 2.099663 0.105182 -0.045090 129800.000000 0 0 1
-11.676707 -29.341952 -18.388893 36.543768 1.192056 2.098096 0.074045 -0.038420 -1044010.000000 0 0 1
-10.937107 -29.938002 -17.180693 36.208845 1.220535 2.065180 0.074917 -0.020817 -618701.000000 0 0 1
-11.664807 -30.602012 -16.196493 36.535972 1.206621 2.030076 0.098257 -0.032222 -274535.000000 0 0 1
-11.999907 -31.962352 -16.557993 37.944128 1.211641 2.022366 0.112566 -0.033760 117156.000000 0 0 1
-12.968707 -32.705182 -15.601693 38.486739 1.193282 1.988189 0.114249 -0.036126 7426.810000 0 0 1
-12.436607 -33.027062 -14.342293 38.094060 1.210660 1.956808 0.109179 -0.028207 427464.000000 0 0 1
-13.505807 -33.432222 -13.509293 38.504821 1.186867 1.929272 0.110594 -0.023889 530231.000000 0 0 1
-12.854707 -33.824072 -12.104993 38.155500 1.207609 1.893629 0.094802 -0.018250 835984.000000 0 0 1
-12.108407 -32.789012 -11.438393 36.777298 1.217048 1.887060 0.083206 -0.003604 411999.000000 0 0 1
-11.849807 -33.147492 -10.056093 36.610096 1.227467 1.849054 0.081664 -0.007421 244463.000000 0 0 1
-10.598507 -32.365952 -9.487093 35.353757 1.254342 1.842474 0.077479 -0.012803 553320.000000 0 0 1
-9.452207 -32.927712 -10.077193 35.708938 1.291254 1.856887 0.054695 -0.008273 -533429.000000 0 0 1
-8.257907 -32.363602 -9.596893 34.751922 1.320967 1.850587 0.044607 -0.014681 -248197.000000 0 0 1
-6.945707 -32.944752 -10.097293 35.150460 1.363010 1.862161 0.055878 -0.021517 -187494.000000 0 0 1
-6.581607 34.010804 -9.524593 35.927290 -1.379644 1.839112 0.041638 -0.008159 72717.200000 0 0 1
-5.441407 33.451002 -10.161193 35.381185 -1.409541 1.862090 0.043845 -0.006565 583474.000000 0 0 1
-4.669607 32.455465 -9.195293 34.054600 -1.427900 1.844206 0.043927 -0.016465 383667.000000 0 0 1
-4.020107 33.116639 -8.115093 34.332605 -1.449995 1.809421 0.061174 -0.020110 63512.700000 0 0 1
-3.360107 32.192539 -7.244193 33.168180 -1.466798 1.790979 0.057798 -0.026786 66761.300000 0 0 1
-2.796807 32.722202 -5.966393 33.379072 -1.485532 1.750509 0.064892 -0.021743 -965374.000000 0 0 1
-1.726907 33.601239 -6.084393 34.191304 -1.519447 1.749701 0.058523 -0.024268 -496415.000000 0 0 1
-1.361207 -34.056072 -4.857293 34.427637 1.530848 1.712356 0.062982 -0.026365 4508.980000 0 0 1
-0.394107 33.309876 -4.003793 33.551952 -1.558965 1.690413 0.064294 -0.024859 -224410.000000 0 0 1
0.908593 33.383054 -4.569793 33.706629 1.543586 1.706791 0.063756 -0.024895 -682579.000000 0 0 1
1.791693 32.602898 -3.870193 32.880655 1.515897 1.688774 0.053517 -0.023537 -1177630.000000 0 0 1
3.181493 32.681481 -4.473293 33.139273 1.473754 1.706194 0.056512 -0.016955 -515690.000000 0 0 1
3.882593 33.824966 -3.933293 34.273512 1.456512 1.685812 0.054623 -0.020693 -285383.000000 0 0 1
5.256893 33.652284 -4.189393 34.317082 1.415837 1.693181 0.061918 -0.018515 10629.200000 0 0 1
6.066193 -33.324792 -3.795893 34.084443 -1.390735 1.682395 0.068051 -0.022126 64010.100000 0 0 1
5.744293 -32.237472 -4.626393 33.070455 -1.394460 1.711152 0.065219 -0.023819 -12375.000000 0 0 1
6.119593 -31.042812 -3.983993 31.890089 -1.376158 1.696052 0.063836 -0.024257 -33719.000000 0 0 1
6.045993 -29.785652 -4.885493 30.783228 -1.370534 1.730177 0.058852 -0.024643 -12139.600000 0 0 1
7.056893 -29.754422 -5.900993 31.143973 -1.337928 1.761423 0.065644 -0.023135 183831.000000 0 0 1
7.039393 -28.563242 -6.718893 30.175410 -1.329162 1.795340 0.054525 -0.016981 -2891.140000 0 0 1
7.518893 -27.315872 -6.013793 28.963016 -1.302191 1.779955 0.061695 -0.016381 -522448.000000 0 0 1
6.827193 -26.948972 -4.872193 28.224031 -1.322679 1.744291 0.061886 -0.023850 -785444.000000 0 0 1
7.194693 -25.656552 -4.371093 27.002383 -1.297395 1.733390 0.058863 -0.018250 -94196.600000 0 0 1
6.289193 -24.938332 -3.337893 25.934839 -1.323758 1.699857 0.055475 -0.016879 -344726.000000 0 0 1
5.049593 -24.574232 -3.870493 25.384483 -1.368134 1.723868 0.059003 -0.020380 -689942.000000 0 0 1
4.294093 -24.085632 -2.796093 24.624683 -1.394366 1.684590 0.059011 -0.021717 135517.000000 0 1 0
2.998193 -23.260132 -3.033993 23.648002 -1.442605 1.699449 0.062435 -0.024904 145834.000000 0 1 0
1.936893 -24.067132 -3.449893 24.390165 -1.490491 1.712718 0.067032 -0.017970 -570315.000000 0 1 0
0.868693 -23.241432 -3.903193 23.582911 -1.533437 1.737071 0.064509 -0.021390 403758.000000 0 1 0
-15.171607 23.003568 18.048453 32.940681 -0.987749 0.990935 0.020667 -0.024012 -154036.000000 0 0 1
-15.410307 22.550768 19.371253 33.485223 -0.971325 0.953906 0.015744 -0.018332 211500.000000 0 0 1
-15.223507 23.550368 20.341753 34.643354 -0.996940 0.943230 0.024368 -0.022331 -758862.000000 0 0 1
-15.193007 22.957768 21.814953 35.125187 -0.986184 0.900698 0.028236 -0.024406 14678.400000 0 0 1
-14.138907 22.104368 22.226453 34.387891 -1.001736 0.868011 0.025873 -0.019928 1267680.000000 0 0 1
-12.765407 22.561968 22.199553 34.129433 -1.055909 0.862617 0.021001 -0.026323 1095670.000000 0 0 1
-12.224307 23.474868 23.341913 35.289489 -1.090695 0.848058 0.025312 -0.015063 -294818.000000 0 0 1
-12.014807 22.760568 24.527583 35.552797 -1.085096 0.809457 0.019038 -0.014158 66724.600000 0 0 1
-11.953907 23.728068 25.568583 36.873698 -1.104123 0.804586 0.036377 -0.014743 -220655.000000 0 0 1
-11.610107 23.190268 26.949293 37.401170 -1.106632 0.766206 0.041368 -0.011889 -416213.000000 0 0 1
-10.231107 22.953168 26.948553 36.847632 -1.151492 0.750496 0.018252 -0.015713 -664271.000000 0 0 1
-9.910007 22.286368 28.151973 37.248142 -1.152386 0.713928 0.010757 -0.014273 -1362320.000000 0 0 1
-8.450207 21.892568 28.315483 36.775768 -1.202430 0.692034 0.007295 -0.013481 58035.900000 0 0 1
-7.505607 22.932868 28.627173 37.440161 -1.254498 0.700358 0.003684 -0.011366 555940.000000 0 0 1
-7.341507 23.940268 27.577673 37.249997 -1.273241 0.737220 0.005294 -0.013331 -1307600.000000 0 0 1
-6.530907 25.215168 27.922743 38.185561 -1.317359 0.750661 0.008115 -0.018192 1470250.000000 0 0 1
-5.143407 24.795068 28.035733 37.778994 -1.366260 0.734601 0.015625 -0.020817 757687.000000 0 0 1
-4.196507 25.713668 28.466613 38.589526 -1.409021 0.741173 0.024226 -0.017001 809957.000000 0 0 1
-2.728407 25.142668 28.421673 38.044572 -1.462702 0.727164 0.020112 -0.020314 355941.000000 0 0 1
-2.176207 25.262768 27.154333 37.152404 -1.484866 0.751171 0.016574 -0.021979 963208.000000 0 0 1
-0.799307 24.798268 27.194733 36.812315 -1.538575 0.739597 0.037101 -0.010570 1054870.000000 0 0 1
-0.152807 24.657768 25.864703 35.735301 -1.564599 0.761523 0.032458 -0.018179 -502615.000000 0 0 1
-0.588307 23.543168 25.109663 34.425602 -1.545813 0.753368 0.027570 -0.008042 475069.000000 0 0 1
0.123793 23.391468 23.831823 33.393591 1.565504 0.776080 0.021338 -0.000756 182544.000000 0 0 1
-0.265707 22.111968 23.026353 31.925267 -1.558780 0.765180 0.004091 -0.001620 -164579.000000 0 0 1
0.440193 20.967468 23.349893 31.385443 1.549805 0.731801 0.025294 -0.005444 -361889.000000 0 0 1
-0.062607 19.877368 22.673553 30.153005 -1.567647 0.719781 0.016693 -0.003641 -192689.000000 0 0 1
0.825293 18.615568 22.768853 29.421781 1.526492 0.685856 0.028751 0.000642 196601.000000 0 0 1
2.010693 18.698468 21.996153 28.939702 1.463675 0.707378 0.025128 -0.002491 136683.000000 0 0 1
2.842993 17.565068 22.222453 28.468433 1.410333 0.675171 0.017887 -0.002321 -1187290.000000 0 0 1
4.194693 17.595368 21.606653 28.178714 1.336767 0.696999 0.029927 -0.000157 -1288590.000000 0 0 1
5.112193 18.252168 22.453653 29.384396 1.297707 0.701097 0.026514 0.003978 -227240.000000 0 0 1
6.245993 18.746868 21.746853 29.383382 1.249188 0.737567 0.043787 -0.012176 -9315.540000 0 0 1
7.345193 19.280868 22.660953 30.646738 1.206813 0.738581 0.052835 -0.020442 -483405.000000 0 0 1
6.977593 20.466168 23.407233 31.866117 1.242222 0.745794 0.035529 -0.007474 93344.300000 0 0 1
6.759293 21.631968 22.641553 32.035450 1.267941 0.785881 0.052142 -0.019188 -22736.900000 0 0 1
5.540793 22.415168 23.192653 32.726737 1.328465 0.783176 0.039145 -0.010556 -40157.000000 0 0 1
5.412093 23.702668 22.605353 33.198030 1.346312 0.821772 0.036699 -0.015470 -124293.000000 0 0 1
4.157393 24.205468 22.978653 33.633423 1.400702 0.818648 0.019044 -0.012660 -397668.000000 0 0 1
3.843393 25.664868 22.492553 34.341987 1.422148 0.856670 0.024414 -0.009983 -41881.700000 0 0 1
3.669793 25.862068 21.102653 33.580291 1.429839 0.891271 0.024472 -0.012558 17748.600000 0 0 1
2.591693 25.179968 20.485853 32.564058 1.468231 0.890409 0.020819 -0.009195 -289795.000000 0 0 1
2.238393 25.642568 19.082853 32.042269 1.483725 0.932843 0.024343 -0.014329 -660738.000000 0 0 1
1.471193 26.809868 19.138653 32.973042 1.515976 0.951536 0.023416 -0.014881 68308.500000 0 0 1
1.244993 27.198168 17.861253 32.562474 1.525053 0.990200 0.031245 -0.016055 -903780.000000 0 0 1
0.122593 28.167468 17.706153 33.270545 1.566444 1.009615 0.013231 0.003672 -1014880.000000 0 0 1
0.440493 29.431968 18.320653 34.671042 1.555831 1.014065 0.022678 0.003390 177690.000000 0 0 1
-0.662707 30.254468 18.642753 35.543273 -1.548895 1.018658 0.002273 0.009593 -381221.000000 0 0 1
-0.314907 31.625468 19.245553 37.022435 -1.560839 1.024139 0.006967 0.010607 -146493.000000 0 0 1
0.061593 31.608068 20.598553 37.727631 1.568848 0.993237 0.007903 0.005697 9026.270000 0 0 1
0.522793 32.915168 21.049353 39.073737 1.554915 1.001893 0.018597 -0.002570 89748.200000 0 0 1
1.168593 32.863268 22.442253 39.812244 1.535252 0.971935 0.030710 -0.022346 -172554.000000 0 0 1
0.289093 32.316368 23.400693 39.900171 1.561851 0.944089 0.030138 -0.013137 -89864.700000 0 0 1
0.793793 32.465468 24.715643 40.810535 1.546351 0.920253 0.045488 -0.019915 -309123.000000 0 0 1
-0.213107 32.134968 25.833103 41.231673 -1.564165 0.893696 0.054760 -0.023354 -548235.000000 0 0 1
-1.247207 33.079068 25.906343 42.034735 -1.533110 0.906750 0.049523 -0.022211 230625.000000 0 0 1
-2.337407 32.760368 26.780553 42.378099 -1.499568 0.886738 0.043078 -0.024864 557833.000000 0 0 1
-2.132507 33.043068 28.296153 43.555301 -1.506348 0.863659 0.065380 -0.033711 188919.000000 0 0 1
-1.009307 32.376068 28.897613 43.408531 -1.539632 0.842348 0.069911 -0.030961 546326.000000 0 0 1
-0.473407 33.067568 29.989043 44.643375 -1.556481 0.834232 0.061419 -0.034384 264143.000000 0 0 1
0.824393 32.403568 30.607063 44.580973 1.545360 0.814063 0.060743 -0.023817 2811610.000000 0 0 1
2.166493 32.550368 30.008063 44.324982 1.504336 0.827116 0.065075 -0.030602 2058470.000000 0 0 1
2.189893 32.125668 28.612083 43.075579 1.502735 0.844333 0.061471 -0.029436 -321326.000000 0 0 1
3.642893 31.976468 28.049373 42.691129 1.457361 0.853923 0.056224 -0.019370 832551.000000 0 0 1
4.297593 30.824468 28.598023 42.266584 1.432268 0.827646 0.057058 -0.025127 473920.000000 0 0 1
5.708993 30.820568 28.378373 42.282764 1.387639 0.835028 0.065435 -0.032582 450188.000000 0 0 1
6.274293 29.507068 28.959533 41.817322 1.361280 0.805813 0.064919 -0.016872 -36437.400000 0 0 1
6.442093 29.691768 30.387743 42.971114 1.357142 0.785313 0.073979 -0.030465 200944.000000 0 0 1
7.147893 28.583868 30.955273 42.735920 1.325754 0.760722 0.058657 -0.030296 115003.000000 0 0 1
7.271493 28.494868 32.496921 43.827868 1.320943 0.735542 0.083062 -0.036621 -84315.900000 0 0 1
6.011493 28.457568 33.136345 44.090686 1.362613 0.720388 0.073870 -0.038020 -82887.800000 0 0 1
6.168393 28.398868 -33.658453 44.468373 1.356913 2.429365 0.086387 -0.035083 92032.500000 0 0 1
6.251593 26.971968 -33.131943 43.177484 1.343037 2.445484 0.081796 -0.031730 582380.000000 0 0 1
7.562393 26.425468 -33.313263 43.188756 1.292068 2.451742 0.075919 -0.033552 570998.000000 0 0 1
7.506593 25.041068 -32.990083 42.092156 1.279549 2.471491 0.083060 -0.032355 -266137.000000 0 0 1
8.874393 24.422168 -33.251083 42.199901 1.222257 2.478256 0.082421 -0.029881 -602760.000000 0 0 1
9.313393 24.296368 33.612344 42.506970 1.204748 0.658765 0.048561 -0.016055 894799.000000 0 0 1
10.632493 23.766468 33.469079 42.403705 1.150129 0.661135 0.062648 -0.030834 517372.000000 0 0 1
10.657193 22.192168 33.766926 41.788436 1.123095 0.629971 0.053886 -0.026536 -802131.000000 0 0 1
9.923393 21.455268 32.773515 40.409226 1.137583 0.624868 0.033575 -0.015257 522650.000000 0 0 1
9.775293 20.080468 33.175266 39.992247 1.117760 0.592508 0.028192 -0.013523 204953.000000 0 0 1
8.404893 19.993068 33.906922 40.249775 1.172837 0.569051 0.053316 -0.023432 -114416.000000 0 0 1
8.483293 20.487568 -33.036893 39.788729 1.178220 2.550456 0.072272 -0.026309 1066020.000000 0 0 1
7.190793 21.011968 -32.634653 39.474433 1.241066 2.544065 0.075750 -0.022284 851384.000000 0 0 1
7.084893 21.235368 -31.088493 38.309672 1.248773 2.517519 0.095099 -0.036301 159515.000000 0 0 1
7.966593 22.275068 -30.647853 38.716096 1.227326 2.484227 0.105428 -0.028953 319829.000000 0 0 1
7.777593 22.629368 -29.311773 37.838595 1.239750 2.456962 0.088660 -0.024722 -1450580.000000 0 0 1
9.026193 23.064668 -28.638603 37.863183 1.197775 2.428543 0.091844 -0.035403 -883958.000000 0 0 1
9.912193 21.988868 -28.414083 37.270927 1.147292 2.437757 0.091376 -0.028624 -71643.100000 0 0 1
11.254093 22.187368 -28.801133 38.058365 1.101382 2.429142 0.101850 -0.036167 483150.000000 0 0 1
12.114893 20.880268 -28.895683 37.652579 1.045057 2.445618 0.093219 -0.048041 172533.000000 0 0 1
12.040793 20.122968 -30.072203 38.134655 1.031583 2.479292 0.073375 -0.041842 -457497.000000 0 0 1
10.768193 19.604168 -30.328403 37.684073 1.068505 2.506146 0.082035 -0.035333 -470178.000000 0 0 1
10.710993 18.509968 -31.374673 37.969914 1.046215 2.543309 0.073417 -0.029979 -291275.000000 0 0 1
11.346493 17.250168 -31.113923 37.341497 0.988984 2.555714 0.078174 -0.029835 79948.600000 0 0 1
11.240293 16.337668 -32.201353 37.817862 0.968170 2.589608 0.062601 -0.020376 -343053.000000 0 0 1
12.242293 16.475068 -33.372783 39.179640 0.931739 2.590187 0.060748 -0.005197 -232230.000000 0 0 1
12.269393 17.818668 -33.856633 40.178533 0.967783 2.572991 0.066050 -0.006767 -14112.300000 0 0 1
12.942493 18.030568 33.135108 39.881636 0.948218 0.590188 0.069288 -0.013052 35711.600000 0 0 1
12.411693 17.321768 31.809373 38.287465 0.949058 0.590246 0.078945 -0.024302 -1146700.000000 0 0 1
12.830293 17.988368 30.659213 37.791337 0.951230 0.624465 0.068108 -0.016699 -74164.700000 0 0 1
12.021093 17.875368 29.504553 36.531550 0.978770 0.630648 0.061295 -0.016485 1362390.000000 0 0 1
10.454893 18.116268 29.626063 36.265791 1.047386 0.614755 0.033225 -0.012127 693776.000000 0 0 1
9.800293 17.135968 30.346683 36.202325 1.051285 0.576726 0.046101 -0.013878 -387544.000000 0 0 1
8.415893 17.423868 30.488503 36.110487 1.120833 0.565517 0.038795 -0.011139 544511.000000 0 0 1
7.728093 16.326268 31.359463 36.189590 1.128692 0.522583 0.032464 -0.004775 -21086.600000 0 0 1
8.092793 16.516568 32.733747 37.547151 1.115197 0.511924 0.042599 -0.006663 379636.000000 0 0 1
7.717793 15.409268 33.558780 37.725344 1.106466 0.474426 0.069746 -0.019480 -275361.000000 0 0 1
7.671693 15.702368 -33.129813 37.456691 1.116335 2.656181 0.076739 -0.030068 -370410.000000 0 0 1
6.646593 16.559868 -32.708003 37.258823 1.189112 2.642170 0.070780 -0.028633 -16303.900000 0 0 1
6.552493 16.658868 -31.326053 36.080114 1.196050 2.622432 0.083107 -0.040617 238967.000000 0 0 1
5.682093 17.836568 -30.741773 35.992859 1.262396 2.594629 0.081949 -0.039971 -88345.100000 0 0 1
5.671693 17.851668 -29.329233 34.800202 1.263170 2.573241 0.086434 -0.050325 371015.000000 0 0 1
4.732693 18.790568 -28.820003 34.728610 1.324063 2.549659 0.086613 -0.047256 939153.000000 0 0 1
3.190793 18.615568 -28.938443 34.556533 1.401041 2.563348 0.092181 -0.053622 -668883.000000 0 0 1
2.718193 17.597468 -28.013943 33.193982 1.417543 2.575394 0.102290 -0.048553 799262.000000 0 0 1
1.306093 17.357668 -28.014033 32.981518 1.495692 2.585617 0.099298 -0.049733 1252470.000000 0 0 1
0.346793 18.559568 -27.639013 33.294036 1.552113 2.550171 0.099337 -0.054008 -356174.000000 0 0 1
0.441693 18.927768 -26.236583 32.354501 1.547465 2.516502 0.117945 -0.054091 72154.800000 0 0 1
-0.225407 20.175468 -26.108393 32.996189 -1.559624 2.483655 0.130880 -0.051026 91967.800000 0 0 1
-0.861007 20.518668 -24.696393 32.119603 -1.528859 2.447897 0.102302 -0.042723 183492.000000 0 0 1
-1.857607 19.581968 -24.308993 31.270294 -1.476216 2.461291 0.100471 -0.046707 12595.900000 0 0 1
-2.312307 19.986868 -23.040693 30.589135 -1.455617 2.423757 0.115363 -0.041981 148633.000000 0 0 1
-3.401207 19.053268 -22.473593 29.659022 -1.394147 2.430627 0.103352 -0.041499 1100470.000000 0 0 1
-4.809907 19.296468 -22.627293 30.124463 -1.326511 2.420564 0.093200 -0.029722 781663.000000 0 0 1
-5.554907 18.352368 -21.875193 29.089353 -1.276882 2.421887 0.081352 -0.034661 1025930.000000 0 0 1
-7.107707 18.647268 -21.938193 29.656777 -1.206631 2.403475 0.091791 -0.025190 1154480.000000 0 0 1
-7.663407 19.747868 -21.203893 29.971840 -1.200623 2.356695 0.058357 -0.016750 -40132.300000 0 0 1
-7.339207 21.058668 -21.565293 31.022465 -1.235447 2.339426 0.064640 -0.019569 -305926.000000 0 0 1
-7.890307 22.219068 -20.718493 31.387894 -1.229573 2.291720 0.065171 -0.024777 77794.100000 0 0 1
-7.416007 22.059968 -19.368493 30.278340 -1.246491 2.264880 0.075221 -0.027247 277137.000000 0 0 1
-7.804407 23.180068 -18.593993 30.723947 -1.246031 2.220808 0.081952 -0.029993 -224313.000000 0 0 1
-7.071907 23.254468 -17.251893 29.806207 -1.275574 2.188055 0.094401 -0.030851 432764.000000 0 0 1
-5.713107 23.643968 -17.413693 29.915105 -1.333710 2.192110 0.091904 -0.033181 272648.000000 0 0 1
-4.911707 23.353768 -16.253093 28.873628 -1.363500 2.168692 0.096999 -0.039369 -45761.000000 0 0 1
-3.422407 23.640768 -16.373493 28.960146 -1.427028 2.171690 0.104499 -0.038641 -409676.000000 0 0 1
-3.093207 25.048968 -16.395093 30.096807 -1.447932 2.146882 0.082317 -0.040109 -550839.000000 0 0 1
-1.858007 25.209968 -17.024093 30.476457 -1.497228 2.163491 0.091646 -0.043836 -317088.000000 0 0 1
-1.477507 26.671268 -17.101593 31.717567 -1.515456 2.140264 0.089732 -0.059256 -19917.800000 0 0 1
-2.215707 27.313368 -18.113493 32.848562 -1.489852 2.154867 0.086272 -0.058883 -61942.500000 0 0 1
-1.598407 28.510068 -18.503593 34.025899 -1.514790 2.145766 0.087640 -0.051449 -380593.000000 0 0 1
-2.507907 29.563368 -19.235193 35.359228 -1.486167 2.145986 0.101150 -0.041757 595099.000000 0 0 1
-3.451807 30.306968 -18.443193 35.645177 -1.457390 2.114619 0.071853 -0.032514 -209443.000000 0 0 1
-4.658507 29.610068 -18.345693 35.142884 -1.414747 2.120027 0.045910 -0.038685 -1000520.000000 0 0 1
-5.750407 30.379868 -17.598593 35.576875 -1.383726 2.088244 0.076060 -0.029940 -61146.700000 0 0 1
-6.114007 31.584768 -18.266193 36.995033 -1.379587 2.087190 0.111556 -0.031867 23120.700000 0 0 1
-5.943107 32.711468 -17.430593 37.539129 -1.391074 2.053676 0.101479 -0.049989 101946.000000 0 0 1
-6.758107 33.899268 -18.022493 38.982594 -1.374018 2.051408 0.093001 -0.028045 -331052.000000 0 0 1
-8.132507 33.659868 -18.075293 39.062010 -1.333731 2.051872 0.108349 -0.045156 -708037.000000 0 0 1
-8.739207 -33.365329 -18.402393 39.093055 1.314626 2.060918 0.143460 -0.044878 -82920.000000 0 0 1
29.813493 -20.568332 -26.292653 44.757169 -0.603915 2.198702 0.066922 -0.004539 221365.000000 0 0 1
29.209093 -21.695732 -25.672463 44.530340 -0.638860 2.185255 0.074770 -0.013281 -626805.000000 0 0 1
27.906293 -21.875132 -26.120393 44.040407 -0.664833 2.205701 0.057883 -0.014190 -243102.000000 0 0 1
27.089593 -23.118332 -25.630293 43.877274 -0.706466 2.194611 0.060447 -0.010936 283445.000000 0 0 1
27.468493 -24.379732 -26.097563 45.055213 -0.725895 2.188586 0.073191 -0.000606 572688.000000 0 0 1
28.781593 -24.885332 -25.760773 45.948637 -0.712925 2.165958 0.070588 0.004160 1041850.000000 0 0 1
29.175293 -26.257362 -26.331523 47.265165 -0.732807 2.161688 0.066564 -0.006020 -54676.900000 0 0 1
28.540093 -27.271432 -25.572433 47.034213 -0.762671 2.145634 0.068713 -0.009591 -354165.000000 0 0 1
28.577793 -28.589242 -26.031083 48.079645 -0.785598 2.142917 0.050630 -0.003480 311043.000000 0 0 1
27.572793 -28.919342 -27.183903 48.327547 -0.809230 2.168194 0.071886 -0.001961 -295906.000000 0 0 1
27.728893 -28.201372 -28.373203 48.674916 -0.793846 2.193105 0.039640 -0.000794 -301831.000000 0 0 1
28.806293 -28.483602 -29.243273 49.962857 -0.779766 2.196047 0.028424 -0.005591 -329516.000000 0 0 1
29.017593 -29.868252 -29.907373 51.269719 -0.799843 2.193624 0.038383 -0.006017 -716228.000000 0 0 1
29.563693 -30.826302 -29.076823 51.669473 -0.806303 2.168501 0.039544 -0.003943 517586.000000 0 0 1
30.924793 -30.763052 -28.612203 52.166716 -0.782776 2.151337 0.040122 -0.004053 1347480.000000 0 0 1
32.088893 -30.770692 -29.664423 53.446333 -0.764431 2.159198 0.041657 -0.002957 -72274.000000 0 0 1
32.276593 -29.547372 -30.332333 53.243554 -0.741282 2.176925 0.054639 -0.012053 -134521.000000 0 0 1
33.526493 -29.326532 -30.951203 54.240650 -0.718675 2.178066 0.057739 -0.011077 -7328.890000 0 0 1
33.748793 -27.964342 -31.584253 54.023610 -0.691940 2.195230 0.053939 0.000765 -114934.000000 0 0 1
33.638593 -26.806302 -30.718483 52.856011 -0.672843 2.190966 0.050765 0.002994 -285654.000000 0 0 1
32.351693 -26.469402 -30.265443 51.606766 -0.685726 2.197481 0.061846 0.003949 -230261.000000 0 0 1
32.301693 -25.079612 -29.482183 50.414139 -0.660195 2.195430 0.064743 0.000642 -98208.900000 0 0 1
32.807493 -25.016632 -28.176533 49.960789 -0.651471 2.169985 0.062833 -0.003743 -12521.800000 0 0 1
32.839893 -23.653632 -27.815923 49.108842 -0.624202 2.172944 0.056157 0.001395 17278.700000 0 0 1
33.747993 -23.272832 -26.597363 48.866874 -0.603716 2.146329 0.052198 0.000591 -155955.000000 0 0 1
33.601593 -23.918532 -25.322153 48.398085 -0.618620 2.121405 0.054148 -0.003884 662069.000000 0 0 1
32.486993 -23.400032 -24.556893 46.968150 -0.624214 2.120977 0.063554 -0.004404 565402.000000 0 0 1
32.805593 -22.114732 -23.740393 46.139728 -0.593141 2.111259 0.056791 -0.002932 -189247.000000 0 0 1
32.966793 -20.866232 -24.466993 46.052609 -0.564294 2.130911 0.056360 -0.011342 17824.000000 0 0 1
33.068793 -19.803532 -23.595493 45.193719 -0.539580 2.120104 0.026469 -0.016000 4786.310000 0 0 1
33.372493 -18.484932 -24.346193 45.256525 -0.505830 2.138811 0.024531 -0.018280 230714.000000 0 0 1
32.324593 -18.260732 -25.272623 44.911458 -0.514224 2.168470 0.029080 -0.017856 314163.000000 0 0 1
32.393993 -17.031032 -25.901173 44.836342 -0.484032 2.186683 0.028190 -0.018672 31381.100000 0 0 1
31.323793 -17.018532 -27.041083 44.744056 -0.497692 2.219746 0.025155 -0.009827 -44613.900000 0 0 1
30.026193 -16.865532 -26.536423 43.476432 -0.511777 2.227316 0.033640 -0.005987 -42711.600000 0 0 1
29.112593 -16.606532 -27.621703 43.431307 -0.518389 2.260082 0.026360 -0.009125 32597.000000 0 0 1
27.708393 -16.125232 -27.249283 42.074951 -0.527051 2.275275 0.019268 -0.001141 360933.000000 0 0 1
26.816193 -17.140232 -26.735303 41.565276 -0.568727 2.269483 0.036614 0.008462 520462.000000 0 0 1
26.872393 -17.111332 -25.324093 40.696841 -0.567013 2.242425 0.024726 0.006762 -281481.000000 0 0 1
26.101793 -18.197432 -24.552693 40.190606 -0.608825 2.228001 0.028366 -0.000394 -192885.000000 0 0 1
26.192193 -17.948332 -23.175493 39.310012 -0.600761 2.201307 0.024761 0.011175 31699.300000 0 0 1
25.551993 -18.936232 -22.401893 38.901542 -0.637772 2.184454 0.037089 0.004389 -209172.000000 0 0 1
25.517393 -18.505532 -20.913893 37.828335 -0.627447 2.156593 0.032050 -0.002850 60739.600000 0 0 1
24.595693 -17.489632 -20.505493 36.487129 -0.618127 2.167589 0.023628 -0.003320 95867.600000 0 0 1
24.648293 -16.188332 -21.094093 36.256877 -0.581122 2.191731 0.024461 -0.000077 -485152.000000 0 0 1
25.873093 -15.331432 -20.778293 36.554168 -0.534933 2.175386 0.014660 0.002232 -276128.000000 0 0 1
25.790393 -14.699632 -19.507693 35.521453 -0.518042 2.152180 0.015905 -0.007764 338840.000000 0 0 1
26.892793 -13.833432 -19.254293 35.851275 -0.475095 2.137744 0.006150 -0.002928 -35650.900000 0 0 1
26.799793 -12.807032 -18.097693 34.781826 -0.445794 2.118022 0.017264 -0.001459 -385160.000000 0 0 1
26.850493 -13.365032 -16.763893 34.359877 -0.461852 2.080469 0.017751 -0.000488 273538.000000 0 0 1
26.644993 -12.333932 -15.814893 33.349548 -0.433529 2.064870 0.012791 0.001775 103610.000000 0 0 1
27.488193 -12.611432 -14.557193 33.564279 -0.430143 2.019403 0.024430 -0.010014 -81223.000000 0 0 1
27.015393 -13.734132 -13.865893 33.327478 -0.470330 1.999893 0.046126 -0.020270 238550.000000 0 0 1
27.705793 -13.934132 -12.650093 33.493221 -0.465991 1.958098 0.064467 -0.024894 -89968.300000 0 0 1
27.307793 -15.262532 -11.967993 33.494675 -0.509656 1.936183 0.068456 -0.035746 196799.000000 0 0 1
25.929993 -15.299532 -11.633593 32.276627 -0.533058 1.939529 0.064515 -0.042214 190615.000000 0 0 1
25.613493 -16.325332 -10.715193 32.208428 -0.567447 1.909943 0.054482 -0.031608 -455400.000000 0 0 1
24.110493 -16.495232 -10.501193 31.043253 -0.600010 1.915881 0.052045 -0.030337 -563583.000000 0 0 1
23.706893 -15.914432 -9.315393 30.034354 -0.591203 1.886155 0.051028 -0.025338 926260.000000 0 0 1
22.273093 -15.950032 -9.206993 28.900915 -0.621458 1.895018 0.053882 -0.020946 761234.000000 0 0 1
21.731193 -15.537832 -7.789593 27.827086 -0.620723 1.854516 0.047079 -0.017699 -255886.000000 0 0 1
22.062893 -14.205332 -7.496393 27.290265 -0.572044 1.849065 0.058974 -0.010691 373070.000000 0 0 1
21.786893 -13.742232 -6.153693 26.483685 -0.562728 1.805298 0.052340 0.001016 -90714.000000 0 0 1
22.552993 -14.479932 -4.998193 27.263306 -0.570759 1.755170 0.040551 -0.004642 66710.700000 0 0 1
23.949393 -14.261732 -5.044893 28.327043 -0.537100 1.749846 0.058442 -0.009852 97148.200000 0 0 1
24.552893 -15.003332 -4.019693 29.053441 -0.548513 1.709597 0.051890 -0.022736 1102560.000000 0 0 1
26.139993 -14.936732 -4.100693 30.384550 -0.519134 1.706169 0.077061 -0.028689 1203560.000000 0 0 1
26.701193 -13.719232 -3.681893 30.244460 -0.474631 1.692837 0.073048 -0.023547 1059060.000000 0 0 1
28.060993 -13.571032 -4.157993 31.446480 -0.450463 1.703409 0.087621 -0.037213 1458050.000000 0 0 1
28.797293 -12.239732 -3.594093 31.496232 -0.401897 1.685157 0.102282 -0.031289 -188776.000000 0 0 1
29.404393 -12.547932 -2.336593 32.055086 -0.403341 1.643754 0.105287 -0.035731 438745.000000 0 0 1
30.033493 -11.420132 -1.735893 32.178307 -0.363362 1.624769 0.108964 -0.039391 291677.000000 0 0 1
31.493093 -11.131132 -2.173493 33.472990 -0.339742 1.635775 0.102710 -0.023918 -217919.000000 0 0 1
31.539093 -10.713332 -3.533993 33.495954 -0.327455 1.676498 0.096792 -0.018831 693926.000000 0 0 1
32.870893 -10.859232 -4.047693 34.854014 -0.319072 1.687192 0.107422 -0.022093 718416.000000 0 0 1
32.850993 -10.627732 -5.579993 34.975316 -0.312887 1.731022 0.107449 -0.025662 401014.000000 0 0 1
31.815193 -11.536032 -5.994493 34.368888 -0.347851 1.746109 0.082486 -0.034081 563064.000000 0 0 1
31.564293 -11.418432 -7.381393 34.368156 -0.347105 1.787257 0.078022 -0.025884 -340921.000000 0 0 1
30.273593 -12.032732 -7.917093 33.525474 -0.378320 1.809200 0.083856 -0.025630 -325194.000000 0 0 1
30.171793 -13.497432 -7.784193 33.957494 -0.420650 1.802086 0.079493 -0.029991 277480.000000 0 0 1
28.855393 -14.000932 -7.970393 33.048252 -0.451746 1.814372 0.075241 -0.031613 349252.000000 0 0 1
28.965793 -15.542732 -7.918593 33.812686 -0.492489 1.807182 0.081606 -0.044729 68201.900000 0 0 1
29.496493 -16.031032 -9.130393 34.790820 -0.497831 1.836343 0.085396 -0.045019 345178.000000 0 0 1
29.676093 -17.431732 -9.202793 35.626214 -0.531103 1.832074 0.083332 -0.046987 -77512.600000 0 0 1
29.932193 -17.863432 -10.693993 36.460936 -0.538061 1.868473 0.074722 -0.046450 890062.000000 0 0 1
31.227093 -17.449832 -11.203993 37.485429 -0.509578 1.874325 0.075890 -0.036705 1200590.000000 0 0 1
31.631793 -17.805332 -12.547993 38.406409 -0.512688 1.903623 0.075728 -0.021460 -238150.000000 0 0 1
30.838393 -17.256032 -13.701393 37.901257 -0.510156 1.940675 0.061099 -0.017389 -663293.000000 0 0 1
31.207993 -15.986132 -13.933793 37.731231 -0.473395 1.949042 0.062220 -0.014790 31951.200000 0 0 1
30.538493 -15.337332 -15.002593 37.321724 -0.465430 1.984475 0.058792 -0.014343 -716556.000000 0 0 1
31.346293 -14.151732 -15.615293 37.771669 -0.424071 1.996995 0.042309 -0.001691 167196.000000 0 0 1
32.388993 -14.505132 -16.483393 39.129885 -0.421057 2.005617 0.030452 -0.001827 517812.000000 0 0 1
33.638793 -14.784432 -15.839993 40.013162 -0.414092 1.977811 0.042377 -0.002286 502635.000000 0 0 1
34.790293 -15.112132 -16.844693 41.502827 -0.409787 1.988725 0.041456 -0.004637 686553.000000 0 0 1
36.088693 -15.359932 -16.309193 42.477182 -0.402392 1.964869 0.045106 -0.001633 737456.000000 0 0 1
-36.429736 -16.031632 -17.284593 43.392350 0.414565 1.980495 0.055227 -0.011304 -688091.000000 0 0 1
-34.975736 -16.027832 -16.862193 42.006274 0.429698 1.983864 0.067342 -0.010647 -988245.000000 0 0 1
-34.615836 -16.929832 -15.850593 41.666732 0.454872 1.961040 0.047238 -0.007723 -13387.000000 0 0 1
-35.075536 -16.590132 -14.580693 41.450239 0.441801 1.930251 0.045730 -0.009147 -570788.000000 0 0 1
-34.587436 -17.550132 -13.439693 41.047816 0.469561 1.904363 0.034872 -0.010437 -272155.000000 0 0 1
-33.196536 -17.477332 -13.222593 39.778186 0.484607 1.909652 0.060586 -0.012006 -17003.200000 0 0 1
-32.806736 -17.987332 -11.925793 39.268951 0.501523 1.879365 0.073815 -0.004191 591760.000000 0 0 1
-31.322636 -17.588232 -11.634793 37.760056 0.511643 1.884017 0.082342 -0.013901 330781.000000 0 0 1
-31.108136 -16.237632 -11.476493 36.920004 0.481072 1.886881 0.073664 -0.029249 1269770.000000 0 0 1
-29.740636 -16.074832 -11.009593 35.554420 0.495521 1.885626 0.100525 -0.024669 1319950.000000 0 0 1
-29.665936 -15.894532 -9.451293 34.957557 0.491863 1.844568 0.091801 -0.024237 -132327.000000 0 0 1
-29.644936 -17.131832 -8.826693 35.358625 0.524012 1.823098 0.077485 -0.019962 -93961.600000 0 0 1
-29.714936 -17.072532 -7.458593 35.072487 0.521491 1.785095 0.095995 -0.019744 -154602.000000 0 0 1
-29.857436 -18.489932 -6.818393 35.774775 0.554471 1.762562 0.077435 -0.025354 453483.000000 0 0 1
-31.109036 -19.109432 -7.084093 37.190414 0.550848 1.762449 0.069056 -0.025320 119395.000000 0 0 1
-31.068736 -19.807032 -8.345193 37.778659 0.567554 1.793530 0.061607 -0.018224 -310505.000000 0 0 1
-32.331236 -20.551132 -8.805093 39.308873 0.566216 1.796711 0.066384 -0.028792 -129783.000000 0 0 1
-33.346336 -19.727732 -9.352693 39.857676 0.534221 1.807657 0.060448 -0.030816 199777.000000 0 0 1
-34.529936 -20.479732 -9.479193 41.250345 0.535331 1.802665 0.048057 -0.032024 33883.700000 0 0 1
-35.876736 -19.807632 -9.796993 42.136249 0.504456 1.805451 0.053358 -0.037157 73188.300000 0 0 1
-36.078736 -19.504932 -11.173993 42.508536 0.495614 1.836786 0.048695 -0.034444 916135.000000 0 0 1
35.865593 -19.188732 -11.260593 42.206032 -0.491268 1.840868 0.080337 -0.042627 870256.000000 0 0 1
35.472293 -18.934832 -12.724793 42.175013 -0.490314 1.877286 0.060033 -0.028847 -400088.000000 0 0 1
35.781493 -19.990832 -13.635193 43.195683 -0.509492 1.891950 0.055297 -0.019641 189234.000000 0 0 1
35.126793 -20.015832 -14.920293 43.094550 -0.517930 1.924338 0.042598 -0.018368 780616.000000 0 0 1
33.819093 -20.878332 -15.026993 42.490543 -0.553082 1.932272 0.062625 -0.025131 737827.000000 0 0 1
32.772093 -20.378032 -14.199793 41.120656 -0.556302 1.923376 0.076783 -0.020185 727553.000000 0 0 1
31.486493 -20.997932 -14.274493 40.448405 -0.588155 1.931472 0.080679 -0.018621 1302670.000000 0 0 1
30.589593 -20.685832 -15.537293 40.062879 -0.594599 1.969065 0.069677 -0.019294 -118644.000000 0 0 1
30.256093 -19.321332 -15.662993 39.167261 -0.568314 1.982204 0.062033 -0.016108 629189.000000 0 0 1
29.294693 -19.237532 -16.739493 38.839056 -0.581064 2.016393 0.041752 -0.018756 947374.000000 0 0 1
28.408993 -17.928932 -16.845593 37.580466 -0.562974 2.035607 0.034508 -0.017441 550839.000000 0 0 1
27.410293 -17.761532 -15.850593 36.304785 -0.574959 2.022610 0.043376 -0.019346 573612.000000 0 0 1
26.710093 -16.500632 -15.973393 35.225689 -0.553382 2.041438 0.027281 -0.008719 -297615.000000 0 0 1
25.309893 -16.363232 -15.301193 33.800481 -0.573922 2.040578 0.032675 -0.020262 149675.000000 0 0 1
24.279793 -16.942332 -16.041793 33.673284 -0.609245 2.067347 0.035984 -0.019811 -75458.500000 0 0 1
23.859893 -16.228432 -17.192793 33.589412 -0.597283 2.108135 0.029283 -0.010803 -1321950.000000 0 0 1
22.784093 -16.893332 -18.012693 33.599950 -0.638008 2.136598 0.021477 -0.009710 -109494.000000 0 0 1
21.451893 -16.798632 -17.510793 32.388356 -0.664341 2.142007 0.032291 -0.007566 -300124.000000 0 0 1
20.592993 -17.150832 -18.530993 32.582512 -0.694452 2.175770 0.029581 -0.017439 -740551.000000 0 0 1
19.205993 -17.492432 -18.001693 31.605637 -0.738739 2.176782 0.038357 -0.017578 -396230.000000 0 0 1
18.322393 -16.413732 -17.717493 30.315511 -0.730506 2.194982 0.053791 -0.020477 776850.000000 0 0 1
17.048393 -17.017632 -17.395693 29.712920 -0.784495 2.196242 0.060849 -0.019951 1010380.000000 0 0 1
15.962193 -15.899232 -17.194393 28.341212 -0.783422 2.222689 0.069900 -0.011107 103259.000000 0 0 1
15.479293 -15.247832 -18.356493 28.444080 -0.777866 2.272283 0.080709 -0.009788 161660.000000 0 0 1
14.144993 -14.821732 -18.220493 27.418076 -0.808757 2.297678 0.078388 -0.010077 -228963.000000 0 0 1
13.448793 -14.483032 -19.496093 27.761950 -0.822409 2.349363 0.063055 0.000102 -283261.000000 0 0 1
13.744593 -13.217732 -20.037093 27.660574 -0.765860 2.380948 0.072518 -0.010993 62046.000000 0 0 1
12.943793 -12.977332 -21.199293 28.024327 -0.786692 2.428680 0.076515 -0.003191 168221.000000 0 0 1
13.037493 -11.540832 -21.761593 27.869947 -0.724580 2.466784 0.071853 -0.006386 152854.000000 0 0 1
14.273793 -11.167032 -22.396493 28.810530 -0.663883 2.461273 0.074144 -0.004836 310970.000000 0 0 1
14.270793 -9.822532 -22.867593 28.689100 -0.602828 2.493245 0.059676 -0.010578 -175738.000000 0 0 1
15.570693 -9.273832 -23.471793 29.654266 -0.537174 2.484080 0.046205 -0.002849 -180354.000000 0 0 1
15.991993 -9.829832 -24.666493 30.996859 -0.551138 2.491081 0.066634 0.000892 274469.000000 0 0 1
17.374993 -9.512132 -24.772393 31.718172 -0.500892 2.467087 0.057240 -0.010047 -112030.000000 0 0 1
22.632093 5.059968 -7.196993 24.281919 0.219958 1.871710 0.145360 0.020633 -128507.000000 0 1 0
22.633193 6.439068 -7.171693 24.599922 0.277174 1.866626 0.126547 0.011032 767875.000000 0 1 0
21.750393 6.853168 -6.112193 23.609413 0.305236 1.832667 0.102995 0.006923 229494.000000 0 1 0
21.730093 8.361068 -5.932593 24.027069 0.367308 1.820290 0.102806 0.001554 -431617.000000 0 1 0
20.925093 8.958568 -6.915393 23.789454 0.404515 1.865746 0.115428 -0.002254 214675.000000 0 1 0
20.849293 10.347268 -6.813893 24.252589 0.460674 1.855586 0.125462 0.001842 -274155.000000 0 1 0
20.092193 11.041568 -5.686393 23.620912 0.502494 1.813920 0.115488 -0.003733 -477316.000000 0 1 0
20.713193 10.958268 -4.431793 23.848706 0.486615 1.757712 0.107976 -0.006114 22997.500000 0 1 0
20.222593 11.934968 -3.563193 23.750643 0.533168 1.721390 0.120488 -0.025832 -170763.000000 0 1 0
21.254693 12.301368 -2.477693 24.682475 0.524656 1.671348 0.113865 -0.033955 -496309.000000 0 1 0
22.406493 12.921068 -3.077593 26.047581 0.523086 1.689226 0.109556 -0.038325 567354.000000 0 0 1
23.354193 13.313868 -2.125893 26.966587 0.518132 1.649713 0.111146 -0.037248 -83124.900000 0 0 1
24.175493 12.176268 -1.443393 27.107182 0.466573 1.624069 0.099115 -0.036128 -827061.000000 0 0 1
25.230593 11.632268 -2.238793 27.873010 0.431995 1.651204 0.086996 -0.027873 771800.000000 0 0 1
26.071993 10.793468 -1.452493 28.255221 0.392506 1.622225 0.096635 -0.029702 624175.000000 0 0 1
27.497293 10.463868 -2.005193 29.489226 0.363620 1.638846 0.097087 -0.029916 1038470.000000 0 0 1
28.444093 11.537368 -1.826593 30.749207 0.385338 1.630234 0.092064 -0.037290 401445.000000 0 0 1
29.759893 11.119568 -2.094593 31.838394 0.357580 1.636632 0.086547 -0.031877 -390362.000000 0 0 1
30.820793 12.137868 -1.692993 33.167987 0.375168 1.621861 0.076981 -0.029794 -948848.000000 0 0 1
30.860293 12.411168 -0.286893 33.263750 0.382378 1.579421 0.101990 -0.035408 524240.000000 0 0 1
31.740593 13.490668 0.091707 34.488719 0.401895 1.568137 0.103612 -0.036127 762742.000000 0 0 1
33.261793 13.078368 0.067707 35.740665 0.374626 1.568902 0.111064 -0.038177 221432.000000 0 0 1
34.085993 14.147268 0.555107 36.909460 0.393410 1.555756 0.106272 -0.039164 -95125.500000 0 0 1
34.897993 14.543868 -0.519693 37.810899 0.394865 1.584541 0.103582 -0.026586 -796888.000000 0 0 1
34.398393 15.611368 -1.523993 37.805909 0.426043 1.611118 0.051628 -0.005604 -552987.000000 0 0 1
33.395893 15.108768 -2.349593 36.729840 0.424860 1.634810 0.069212 -0.010890 -567410.000000 0 0 1
32.797993 16.084568 -3.144793 36.664852 0.455949 1.656673 0.038830 0.003424 207228.000000 0 0 1
31.409793 15.645468 -3.687393 35.283886 0.462133 1.675494 0.063170 -0.012941 -503034.000000 0 0 1
31.517593 14.593968 -4.633993 35.040212 0.433647 1.703433 0.041522 -0.012683 323491.000000 0 0 1
30.397693 14.355568 -5.472793 34.059558 0.441209 1.732179 0.049951 -0.018727 559227.000000 0 0 1
29.051193 13.899268 -4.805593 32.561560 0.446252 1.718922 0.063792 -0.025991 254541.000000 0 0 1
28.036493 13.709168 -5.778293 31.739169 0.454789 1.753873 0.073701 -0.034318 144334.000000 0 0 1
26.805693 13.335068 -5.216993 30.390561 0.461623 1.743316 0.074691 -0.015924 518004.000000 0 0 1
25.647593 13.091468 -6.260393 29.468255 0.471962 1.784873 0.076763 -0.016659 -240839.000000 0 0 1
25.918993 11.989468 -7.104093 29.428042 0.433262 1.814610 0.073207 -0.004380 430520.000000 0 0 1
24.833193 11.488368 -7.878793 28.473592 0.433300 1.851160 0.094950 -0.007165 82904.500000 0 0 1
24.264093 12.552368 -8.868293 28.722026 0.477410 1.884688 0.107746 -0.004314 -630455.000000 0 0 1
23.559893 13.610268 -8.322793 28.453063 0.523852 1.867646 0.101086 -0.019555 -585056.000000 0 0 1
23.474493 14.652768 -9.279993 29.186875 0.558024 1.894364 0.105402 -0.025076 -986624.000000 0 0 1
22.407093 15.663368 -8.882793 28.745833 0.610079 1.884950 0.099339 -0.021550 484042.000000 0 0 1
21.029493 15.280968 -8.837193 27.456211 0.628385 1.898495 0.103770 -0.027770 759340.000000 0 0 1
20.750993 14.366568 -7.789593 26.413628 0.605561 1.870156 0.104990 -0.029610 -1134640.000000 0 0 1
19.243793 14.005068 -7.797493 25.045287 0.629122 1.887395 0.097364 -0.032884 29711.700000 0 0 1
18.402393 15.118468 -7.458193 24.956778 0.687743 1.874278 0.124006 -0.046155 -313080.000000 0 1 0
17.098493 14.656868 -7.669393 23.790793 0.708661 1.899026 0.132868 -0.047351 -302708.000000 0 1 0
16.107293 14.964468 -6.519193 22.932075 0.748635 1.859055 0.104467 -0.031535 36345.600000 0 1 0
16.367193 13.993168 -5.541293 22.235100 0.707362 1.822665 0.082634 -0.038129 514710.000000 0 1 0
16.546593 14.745768 -4.359593 22.588348 0.727913 1.765017 0.108543 -0.023741 -186633.000000 0 1 0
15.925393 14.037468 -3.188393 21.467056 0.722473 1.719873 0.062199 -0.002103 -171218.000000 0 1 0
16.780393 12.973568 -2.762893 21.389919 0.658146 1.700326 0.049542 -0.016318 938865.000000 0 1 0
16.207993 12.206668 -1.687793 20.360511 0.645499 1.653787 0.027378 -0.013783 106315.000000 0 1 0
16.209193 12.856568 -0.271093 20.690644 0.670559 1.583899 0.022817 -0.014687 -142278.000000 0 1 0
15.328693 13.964468 -0.140893 20.736322 0.738860 1.577591 0.033679 -0.018102 405390.000000 0 1 0
15.747993 14.780168 0.912107 21.616766 0.753706 1.528589 0.041790 -0.011323 -302529.000000 0 1 0
14.604093 15.709068 1.370207 21.492599 0.821834 1.507001 0.043105 -0.004088 -29282.700000 0 1 0
14.480293 16.887268 0.510507 22.251277 0.861983 1.547851 0.048319 -0.004506 111178.000000 0 1 0
13.442593 17.706268 0.989607 22.252967 0.921433 1.526311 0.033806 -0.013086 -347861.000000 0 1 0
13.515193 19.149068 0.650707 23.447189 0.956196 1.543041 0.039597 -0.008935 -440486.000000 0 1 0
13.338793 19.368268 -0.747793 23.528969 0.967699 1.602583 0.055149 -0.008713 348791.000000 0 1 0
12.707593 20.590468 -1.110993 24.221573 1.017855 1.616680 0.061771 -0.020956 -111689.000000 0 1 0
11.189293 20.700168 -0.978393 23.551104 1.075244 1.612352 0.050405 -0.021112 -251500.000000 0 1 0
10.548293 20.548668 0.299407 23.099868 1.096540 1.557835 0.034606 -0.023135 -852025.000000 0 1 0
9.175293 20.505868 0.175607 22.465695 1.150067 1.562980 0.031892 -0.017429 -655639.000000 0 1 0
8.489893 20.266868 1.549207 22.027807 1.174099 1.500409 0.026864 -0.019592 123398.000000 0 1 0
8.534193 21.407468 2.363307 23.166730 1.191450 1.468606 0.038700 -0.012959 -222090.000000 0 1 0
7.462293 21.353268 3.252407 22.852265 1.234595 1.427988 0.027436 -0.017052 -243065.000000 0 1 0
7.135093 22.814768 3.668807 24.184362 1.267693 1.418507 0.021079 -0.008925 173967.000000 0 1 0
7.696093 23.193068 4.936507 24.930250 1.250402 1.371466 0.022612 -0.005177 292769.000000 0 1 0
7.243693 24.498268 5.251407 26.080903 1.283306 1.368060 0.016400 -0.004456 -5385.960000 0 0 1
7.711393 24.968568 6.620707 26.957907 1.271246 1.322664 0.021576 -0.003753 -162295.000000 0 0 1
7.193493 24.206768 7.657607 26.388500 1.281939 1.276374 0.021175 -0.014681 468622.000000 0 0 1
7.947693 24.435268 8.877007 27.185463 1.256334 1.238161 0.022766 -0.018420 283190.000000 0 0 1
7.439993 23.474068 9.992907 26.575244 1.263867 1.185296 0.027600 -0.018976 -30266.800000 0 0 1
6.188093 23.785968 10.542107 26.743238 1.316281 1.165602 0.032436 -0.020289 -128216.000000 0 0 1
5.683293 22.791368 11.435107 26.124853 1.326419 1.117746 0.030523 -0.020169 411039.000000 0 0 1
4.336393 23.242168 12.077107 26.549185 1.386343 1.098541 0.036167 -0.024461 551885.000000 0 0 1
3.251493 23.360068 11.175507 26.098984 1.432495 1.128300 0.029883 -0.021213 -124801.000000 0 0 1
2.038193 23.568968 11.859407 26.463107 1.484533 1.106103 0.030134 -0.028761 -581581.000000 0 0 1
0.899093 23.839668 10.904607 26.230681 1.533100 1.142062 0.046671 -0.025065 -989986.000000 0 0 1
1.029593 24.979668 10.068907 26.952306 1.529602 1.187928 0.046893 -0.029831 689069.000000 0 0 1
0.081893 25.094268 8.968707 26.648953 1.567533 1.227545 0.046319 -0.023707 341182.000000 0 0 1
-1.347307 25.573668 9.167207 27.200468 -1.518162 1.227042 0.058103 -0.031801 -450643.000000 0 0 1
-2.090807 24.852068 10.105807 26.909554 -1.486864 1.185809 0.052426 -0.034546 820524.000000 0 0 1
-3.443207 25.368468 10.091607 27.518274 -1.435893 1.195311 0.066597 -0.032280 454837.000000 0 0 1
-4.483207 24.531068 10.836007 27.189916 -1.390035 1.160882 0.075613 -0.031372 -247358.000000 0 0 1
-4.625007 24.647668 12.235207 27.903379 -1.385308 1.116884 0.053621 -0.027987 256005.000000 0 0 1
-5.546007 25.667168 12.609007 29.129861 -1.357994 1.123139 0.062287 -0.020188 63738.800000 0 0 1
-6.026907 25.642168 14.146807 29.899441 -1.339947 1.077938 0.031095 -0.020497 313645.000000 0 0 1
-7.105207 24.718568 14.333707 29.443960 -1.290898 1.062359 0.048494 -0.024798 295761.000000 0 0 1
-7.287107 24.512868 15.697807 30.006729 -1.281840 1.020262 0.027068 -0.012298 192187.000000 0 0 1
-8.551007 23.659168 16.010707 29.819771 -1.223980 1.004019 0.031975 -0.017826 928002.000000 0 0 1
-9.770807 24.266468 15.581807 30.448693 -1.188011 1.033588 0.024822 -0.010125 121877.000000 0 0 1
-10.856807 23.388568 15.475507 30.073023 -1.136202 1.030258 0.027058 -0.010112 704913.000000 0 0 1
-12.232507 24.067968 15.179107 30.972676 -1.100572 1.058614 0.031558 -0.008181 614676.000000 0 0 1
-12.828807 24.872968 16.190607 32.332315 -1.094610 1.046324 0.039682 -0.019338 274898.000000 0 0 1
-13.984707 25.533768 15.693607 33.073171 -1.069725 1.076387 0.044146 -0.015471 87577.500000 0 0 1
-14.600807 26.488468 16.731907 34.565579 -1.067022 1.065505 0.055483 -0.019195 -301084.000000 0 0 1
-15.869607 26.145368 17.210807 35.094681 -1.025263 1.058235 0.041344 -0.027546 -283462.000000 0 0 1
-16.246807 27.055968 18.266707 36.464459 -1.030017 1.046105 0.056995 -0.023467 -441477.000000 0 0 1
-17.553407 26.723768 18.966007 37.175144 -0.989623 1.035402 0.045158 -0.033430 33529.800000 0 0 1
-18.699907 27.038068 18.171207 37.562434 -0.965721 1.065850 0.049468 -0.030109 557355.000000 0 0 1
-19.870407 26.413268 18.714907 37.983438 -0.925832 1.055592 0.053882 -0.028569 1274930.000000 0 0 1
-21.153407 26.625268 17.812707 38.388333 -0.899427 1.088276 0.049555 -0.032206 529939.000000 0 0 1
-21.728707 27.919168 17.892807 39.645545 -0.909445 1.102553 0.044244 -0.030779 190617.000000 0 0 1
-22.476007 28.213768 16.720007 39.758600 -0.898112 1.136758 0.038308 -0.027159 -342901.000000 0 0 1
-23.352907 29.477368 16.894507 41.227393 -0.900810 1.148574 0.034512 -0.026020 174874.000000 0 0 1
-24.584907 29.084468 17.501407 41.912089 -0.869041 1.140022 0.029519 -0.025161 -91906.200000 0 0 1
-25.472307 30.144368 17.448607 43.150612 -0.869206 1.154512 0.024307 -0.015621 563594.000000 0 0 1
-26.897637 29.870868 18.073707 44.072787 -0.837725 1.148246 0.034109 -0.008250 646762.000000 0 0 1
-27.777787 29.110768 17.288607 43.794272 -0.808825 1.164980 0.059655 -0.005158 -668445.000000 0 0 1
-29.029907 28.964668 17.892207 44.741688 -0.784273 1.159388 0.095940 -0.014892 -476421.000000 0 0 1
-29.165607 27.776568 18.947007 44.510218 -0.761009 1.131086 0.085798 -0.020746 -716639.000000 0 0 1
-29.245277 26.513868 18.356107 43.534103 -0.736451 1.135533 0.092306 -0.027041 4394.470000 0 0 1
-29.232957 25.404768 19.216707 43.234823 -0.715448 1.110211 0.101348 -0.029852 -116485.000000 0 0 1
-29.267347 24.077968 18.502307 42.174181 -0.688424 1.116632 0.100110 -0.045043 6172.980000 0 0 1
-30.522287 23.830768 17.891607 42.657064 -0.662902 1.137980 0.113553 -0.036296 107758.000000 0 0 1
-30.535927 22.892968 16.812807 41.703733 -0.643313 1.155841 0.110158 -0.036831 -315077.000000 0 0 1
-30.890727 21.392268 17.115907 41.289472 -0.605684 1.143365 0.105542 -0.039155 -1170680.000000 0 0 1
-32.262907 21.291168 17.209307 42.312756 -0.583322 1.151939 0.120926 -0.034204 -1250190.000000 0 0 1
-32.639967 19.955468 17.050407 41.884419 -0.548746 1.151539 0.112000 -0.027562 -294819.000000 0 0 1
-34.067064 19.798668 16.523607 42.726827 -0.526457 1.173717 0.127734 -0.034843 -291732.000000 0 0 1
-34.143046 20.256968 15.187207 42.505807 -0.535476 1.205424 0.112747 -0.036875 301878.000000 0 0 1
-35.277387 19.771168 14.469107 42.950532 -0.510830 1.227197 0.132619 -0.036568 125666.000000 0 0 1
-35.348226 20.181168 13.009107 42.731880 -0.518766 1.261450 0.129752 -0.029720 -42026.400000 0 0 1
-35.565508 21.551368 12.851007 43.526029 -0.544792 1.271080 0.116895 -0.033211 -38956.300000 0 0 1
-35.761083 21.994968 11.492107 43.528178 -0.551415 1.303613 0.086844 -0.029792 -195725.000000 0 0 1
-34.666157 21.674868 10.459507 42.201228 -0.558776 1.320338 0.092961 -0.028093 -300702.000000 0 0 1
-34.635605 20.369168 9.992907 41.405149 -0.531623 1.327045 0.114967 -0.025793 767234.000000 0 0 1
-33.447057 20.082568 9.204307 40.084092 -0.540735 1.339104 0.128222 -0.018321 640443.000000 0 0 1
-32.655847 18.977368 9.854807 39.034115 -0.526431 1.315568 0.102077 -0.022501 -499415.000000 0 0 1
-32.224347 19.232768 11.124707 39.141628 -0.538092 1.282607 0.100587 -0.025033 323008.000000 0 0 1
-31.524367 18.141668 11.785607 38.233577 -0.522196 1.257440 0.088602 -0.023698 326870.000000 0 0 1
-30.923667 18.501668 13.142007 38.357493 -0.539169 1.221093 0.086004 -0.016018 333281.000000 0 0 1
-29.775617 19.344568 13.072007 37.837509 -0.576149 1.218049 0.076355 -0.016670 177709.000000 0 0 1
-30.079327 20.684768 13.190907 38.815275 -0.602405 1.224052 0.079736 -0.015168 556691.000000 0 0 1
-28.794137 21.458168 13.631707 38.410660 -0.640439 1.207996 0.081313 -0.021684 620398.000000 0 0 1
-28.304317 21.265268 14.955007 38.431735 -0.644338 1.171107 0.091331 -0.028262 -263742.000000 0 0 1
-27.263377 22.195768 15.141307 38.277971 -0.683294 1.164117 0.081676 -0.027975 -428770.000000 0 0 1
-26.631557 22.069768 16.536107 38.337415 -0.692002 1.124829 0.078135 -0.033309 -7886.400000 0 0 1
-25.779457 20.902768 16.612507 37.114438 -0.681310 1.106714 0.080010 -0.032243 285568.000000 0 0 1
-25.149737 20.789268 17.881107 37.208023 -0.690763 1.069490 0.086083 -0.028866 -429271.000000 0 0 1
-24.044007 19.762068 17.954107 35.930539 -0.687960 1.047556 0.098583 -0.024270 -500371.000000 0 0 1
-23.671307 19.673668 19.290407 36.324975 -0.693430 1.010956 0.098039 -0.029857 186345.000000 0 0 1
-22.539307 18.816068 19.443107 35.215043 -0.695610 0.985885 0.091197 -0.019372 466594.000000 0 0 1
-22.065407 18.583968 20.922507 35.637023 -0.699961 0.943324 0.089420 -0.032032 297940.000000 0 0 1
-22.972307 17.816768 21.710807 36.283926 -0.659670 0.929345 0.109589 -0.018512 419948.000000 0 0 1
-23.597207 18.632068 22.755607 37.706761 -0.668360 0.922927 0.096884 -0.028038 426475.000000 0 0 1
-24.484707 17.717768 23.633507 38.366168 -0.626407 0.907143 0.106320 -0.033789 20147.600000 0 0 1
-23.728207 16.908768 24.546307 38.097972 -0.619134 0.870696 0.099655 -0.014342 127305.000000 0 0 1
-24.361707 15.727168 24.958007 38.258839 -0.573254 0.860120 0.110403 -0.015682 -139483.000000 0 0 1
20.408893 24.724368 33.770943 46.564943 0.880725 0.759408 0.088348 -0.029559 -126289.000000 0 0 1
21.480793 24.152868 33.038908 46.220720 0.843886 0.774448 0.087822 -0.038186 116166.000000 0 0 1
21.766293 22.762968 33.317921 45.847662 0.807777 0.757277 0.092126 -0.038149 65667.700000 0 0 1
20.681493 21.716668 32.920873 44.532255 0.809809 0.738827 0.070402 -0.032770 -164547.000000 0 0 1
20.733993 21.316568 31.574093 43.373009 0.799251 0.755445 0.092348 -0.035390 470792.000000 0 0 1
19.774093 20.282268 31.321393 42.230496 0.798084 0.735229 0.087998 -0.028844 -72743.400000 0 0 1
19.900893 19.663368 29.873553 40.928264 0.779395 0.752620 0.085591 -0.015427 -36105.200000 0 0 1
21.096693 18.913568 29.747853 41.081970 0.730888 0.761054 0.070924 -0.014974 -78910.400000 0 0 1
21.301993 18.364768 28.436093 39.995637 0.711486 0.779906 0.066132 -0.012407 252024.000000 0 0 1
22.464193 17.322668 28.464413 40.186286 0.656884 0.783693 0.056845 -0.008667 77708.600000 0 0 1
23.721093 17.894268 28.718413 41.323629 0.646286 0.802427 0.074087 -0.014838 -230011.000000 0 0 1
24.682093 16.918868 29.087813 41.731938 0.600909 0.799569 0.057805 -0.006930 887176.000000 0 0 1
26.149293 17.452568 29.230113 42.927581 0.588524 0.821782 0.058283 -0.016169 285805.000000 0 0 1
26.929893 17.312268 28.081093 42.584992 0.571343 0.850759 0.046730 -0.010050 620618.000000 0 0 1
28.285493 17.650668 28.422393 43.811501 0.557893 0.864865 0.054305 -0.009000 1021310.000000 0 0 1
29.413493 17.336868 27.411643 43.784915 0.532603 0.894316 0.039395 0.007484 153054.000000 0 0 1
29.394493 18.240768 26.309293 43.461946 0.555393 0.920602 0.045255 -0.001055 -95110.800000 0 0 1
30.366993 17.954368 25.346193 43.438958 0.533958 0.947777 0.038721 0.001991 -496250.000000 0 0 1
30.852293 19.252368 24.656363 43.936931 0.557892 0.974990 0.048163 -0.009858 -98947.500000 0 0 1
29.817593 19.870068 23.914083 43.078902 0.587809 0.982286 0.045846 -0.017555 441757.000000 0 0 1
30.300093 20.950768 23.105153 43.484232 0.604959 1.010608 0.030405 -0.021280 -324240.000000 0 0 1
31.021993 20.703068 21.755453 43.177318 0.588488 1.042731 0.038503 -0.015580 395116.000000 0 0 1
30.162293 20.171968 20.711353 41.780765 0.589465 1.052138 0.053513 -0.016576 546829.000000 0 0 1
30.797193 19.863768 19.453453 41.490640 0.572843 1.082793 0.065480 -0.019301 376511.000000 0 0 1
31.653493 18.512068 19.475453 41.520279 0.529194 1.082572 0.092977 -0.036800 10656.800000 0 0 1
30.946193 17.338368 19.663853 40.558020 0.510697 1.064624 0.081744 -0.032469 66723.700000 0 0 1
31.856993 16.255768 19.583453 40.775356 0.471832 1.069826 0.092780 -0.024457 -390311.000000 0 0 1
31.179793 14.836368 19.822853 39.815108 0.444128 1.049652 0.093288 -0.026439 193785.000000 0 0 1
30.784093 14.496468 21.120353 40.048437 0.440104 1.015294 0.074494 -0.032413 754415.000000 0 0 1
29.545293 15.098268 21.511353 39.542640 0.472426 0.995595 0.069552 -0.014255 243247.000000 0 0 1
28.805193 14.545768 22.741053 39.477513 0.467616 0.956907 0.046230 -0.010271 69526.300000 0 0 1
28.607793 13.102268 22.613653 38.748581 0.429484 0.947642 0.050648 -0.012640 45299.200000 0 0 1
28.023493 12.544268 23.762303 38.824243 0.420885 0.912149 0.040456 0.000267 31151.700000 0 0 1
27.535993 11.068868 23.535853 37.877264 0.382211 0.900304 0.049300 -0.004724 744764.000000 0 0 1
26.424093 10.898768 22.609553 36.444584 0.391198 0.901567 0.052786 -0.003797 844230.000000 0 0 1
26.037493 9.521068 22.605453 35.771613 0.350564 0.886745 0.038081 0.003246 3033.260000 0 0 1
24.738493 9.197468 21.835553 34.254603 0.355951 0.879614 0.032775 -0.008426 -943275.000000 0 0 1
23.554993 9.356968 22.514353 33.901130 0.378124 0.844483 0.036667 -0.010831 -1060160.000000 0 0 1
22.521593 8.813868 21.745653 32.523528 0.373029 0.838454 0.035531 -0.001571 197353.000000 0 0 1
21.091293 9.241968 22.229553 32.006400 0.412988 0.803023 0.037696 -0.007179 505164.000000 0 0 1
20.735793 8.528568 23.397243 32.405873 0.390207 0.764099 0.049013 -0.010753 817988.000000 0 0 1
19.315593 8.379268 23.528543 31.573670 0.409308 0.729969 0.054253 -0.007689 736384.000000 0 0 1
18.843193 7.615268 24.791933 32.057732 0.384069 0.686684 0.059155 -0.010062 -426713.000000 0 0 1
18.897093 6.252568 24.693323 31.716793 0.319536 0.678434 0.068733 -0.017927 222001.000000 0 0 1
18.632493 5.583268 25.895613 32.387119 0.291138 0.644225 0.074522 -0.030726 -431882.000000 0 0 1
19.100393 4.151168 25.814163 32.379441 0.214006 0.648088 0.072563 -0.034862 56671.100000 0 0 1
20.494293 3.922368 25.859313 33.228077 0.189102 0.678943 0.084914 -0.032716 -171656.000000 0 0 1
20.869693 2.601968 25.539223 33.084230 0.124037 0.688900 0.070094 -0.035153 207816.000000 0 0 1
22.364793 2.335668 25.226603 33.793799 0.104058 0.728031 0.061217 -0.029350 -148239.000000 0 0 1
23.197893 2.539068 26.323553 35.178382 0.109019 0.725319 0.061473 -0.035650 -874932.000000 0 0 1
24.513093 2.564368 25.847543 35.715028 0.104233 0.761624 0.058118 -0.031223 -811584.000000 0 0 1
25.491293 3.020968 26.897553 37.180783 0.117960 0.762044 0.042690 -0.029888 -1160880.000000 0 0 1
25.614493 2.069368 27.892753 37.926115 0.080614 0.744466 0.040070 -0.028235 -26491.500000 0 0 1
26.373293 2.488468 28.994793 39.273924 0.094077 0.740293 0.040806 -0.021383 8689.380000 0 0 1
27.899493 2.665668 28.944133 40.289581 0.095256 0.769293 0.057161 -0.019927 -811988.000000 0 0 1
28.107493 3.857068 28.199043 40.001177 0.136374 0.788436 0.060383 -0.017105 -455807.000000 0 0 1
29.448193 4.106368 27.878463 40.758644 0.138550 0.817579 0.058305 -0.012064 -411906.000000 0 0 1
30.103193 3.272268 26.791183 40.431145 0.108277 0.846462 0.066907 -0.010805 -445750.000000 0 0 1
29.415493 3.349868 25.547643 39.104666 0.113393 0.858842 0.044312 -0.002228 222944.000000 0 0 1
29.827893 2.259268 24.672383 38.775430 0.075599 0.881118 0.051962 0.011753 277968.000000 0 0 1
29.266893 2.384368 23.204253 37.425574 0.081290 0.902040 0.045206 0.001822 183831.000000 0 0 1
29.792693 3.410068 22.391753 37.424908 0.113964 0.929404 0.045025 0.000290 -462422.000000 0 0 1
31.111193 3.216868 21.939153 38.204463 0.103033 0.959101 0.035689 0.003060 -24241.400000 0 0 1
31.893393 4.455268 21.519653 38.731556 0.138794 0.981699 0.068647 -0.010981 -513620.000000 0 0 1
31.356593 5.012868 20.342753 37.711966 0.158525 1.001043 0.055176 -0.004631 147861.000000 0 0 1
32.009293 6.227068 20.007853 38.258142 0.192139 1.020465 0.089610 -0.018505 -205068.000000 0 0 1
33.487593 6.201068 19.540053 39.264307 0.183101 1.049904 0.082719 -0.024244 -220174.000000 0 0 1
34.435993 5.903368 20.534053 40.525729 0.169780 1.039453 0.089164 -0.030097 80807.000000 0 0 1
34.801193 6.990068 21.309653 41.401514 0.198220 1.030130 0.108718 -0.031669 -776295.000000 0 0 1
35.728293 6.776368 22.527953 42.777783 0.187438 1.016168 0.112246 -0.033518 83284.700000 0 0 1
35.130293 6.050268 23.641203 42.774405 0.170551 0.985202 0.101811 -0.019497 873671.000000 0 0 1
36.039693 5.889568 24.750283 44.114884 0.161987 0.975153 0.113006 -0.017124 320762.000000 0 0 1
35.378693 5.050168 25.840403 44.100822 0.141788 0.944758 0.096046 -0.005421 -17052.400000 0 0 1
35.185293 3.704368 25.415653 43.562399 0.104895 0.947850 0.084705 -0.000094 -113687.000000 0 0 1
34.300893 3.015268 26.245043 43.294866 0.087681 0.919531 0.087134 0.003171 -235289.000000 0 0 1
34.182793 1.517868 25.944373 42.940398 0.044375 0.922041 0.073352 0.006855 -173435.000000 0 0 1
33.565693 1.131168 24.757233 41.723565 0.033687 0.935566 0.064737 0.003388 -98431.600000 0 0 1
33.754093 -0.242732 24.652673 41.798947 -0.007191 0.939995 0.071529 0.001618 139208.000000 0 0 1
32.786693 -0.986332 23.685033 40.458879 -0.030074 0.945411 0.085084 0.009626 123317.000000 0 0 1
31.450293 -1.058632 24.126153 39.652401 -0.033648 0.916701 0.076063 0.008116 64133.400000 0 0 1
30.649493 -1.811932 23.195253 38.479791 -0.059049 0.923802 0.069636 0.002756 45448.100000 0 0 1
29.205893 -2.132932 23.576943 37.595290 -0.072901 0.892940 0.067502 0.006019 -490630.000000 0 0 1
28.433493 -0.984032 23.542063 36.927775 -0.034594 0.879526 0.039686 0.008969 835946.000000 0 0 1
27.040993 -1.383032 23.317343 35.732710 -0.051101 0.859853 0.039034 0.009851 1729910.000000 0 0 1
26.038093 -0.199732 23.351803 34.976119 -0.007671 0.839749 0.052721 -0.002047 -140520.000000 0 0 1
26.162893 0.631568 22.165853 34.296077 0.024135 0.868059 0.038301 -0.004419 -193555.000000 0 0 1
25.237493 1.665968 22.294353 33.715644 0.065916 0.848317 0.050193 -0.009466 -179743.000000 0 0 1
25.256293 2.788668 21.239753 33.117731 0.109969 0.874552 0.034447 -0.008926 -304964.000000 0 0 1
24.798993 2.438668 19.987153 31.944067 0.098022 0.894778 0.037821 -0.005718 179798.000000 0 0 1
24.506893 3.673968 19.279553 31.397245 0.148808 0.909612 0.045474 -0.010811 139894.000000 0 0 1
24.007893 3.512768 17.788153 30.085492 0.145286 0.938184 0.046225 -0.013262 42557.700000 0 0 1
25.037993 3.173468 16.894453 30.370949 0.126074 0.980906 0.045551 -0.017818 72007.500000 0 0 1
24.824493 3.775068 15.665953 29.596092 0.150914 1.012991 0.044900 -0.012426 -360396.000000 0 0 1
24.241593 2.855568 14.543153 28.413243 0.117256 1.033466 0.052935 -0.011895 1178230.000000 0 0 1
22.879493 2.409868 14.762053 27.334902 0.104942 1.000307 0.071051 -0.009923 1264250.000000 0 0 1
22.624993 1.313368 13.931353 26.602591 0.057984 1.019627 0.083094 -0.015839 -735453.000000 0 0 1
21.192493 0.782868 14.025353 25.425286 0.036924 0.986479 0.117956 -0.022103 -51744.700000 0 0 1
20.131293 1.441668 13.321853 24.183034 0.071491 0.987383 0.129303 -0.023919 1010950.000000 0 1 0
20.134393 1.274168 11.912653 23.429225 0.063199 1.037409 0.134457 -0.015193 -959625.000000 0 1 0
19.700693 -0.119732 11.315453 22.719400 -0.006077 1.049445 0.121293 -0.010708 102419.000000 0 1 0
20.562293 -1.271432 11.412553 23.551450 -0.061755 1.064914 0.115853 -0.021271 713710.000000 0 1 0
21.782093 -1.155032 10.706553 24.298641 -0.052977 1.114503 0.112273 -0.016386 -23124.800000 0 1 0
22.879093 -2.218332 10.932153 25.453602 -0.096657 1.126865 0.115960 -0.027428 42840.000000 0 0 1
23.316993 -2.123232 12.268753 26.433172 -0.090809 1.088130 0.099669 -0.028883 -477258.000000 0 0 1
24.438093 -2.921232 12.435253 27.575161 -0.118971 1.102957 0.058304 -0.018862 -662425.000000 0 0 1
24.902493 -2.826332 13.867853 28.643318 -0.113012 1.065397 0.060470 -0.008910 -198071.000000 0 0 1
25.555293 -1.567732 14.115353 29.236518 -0.061270 1.066949 0.046871 -0.008545 229961.000000 0 0 1
25.699093 -1.311732 15.524153 30.052676 -0.050998 1.027962 0.035070 -0.010359 -90956.800000 0 0 1
26.764693 -0.257032 15.888853 31.126685 -0.009603 1.035079 0.059332 -0.009933 2198480.000000 0 0 1
28.147393 -0.797932 15.823053 32.299867 -0.028341 1.058844 0.056739 -0.007172 1445980.000000 0 0 1
29.052493 0.216268 15.602253 32.977635 0.007444 1.077972 0.047323 -0.005073 -1067550.000000 0 0 1
30.495593 -0.229832 15.787653 34.340705 -0.007536 1.093099 0.056496 -0.005778 -637297.000000 0 0 1
30.975293 -0.887832 14.650953 34.276923 -0.028655 1.129149 0.081731 -0.007201 501096.000000 0 0 1
32.316893 -1.330232 14.874553 35.600610 -0.041139 1.139755 0.078002 -0.006663 727118.000000 0 0 1
32.984793 -2.151432 13.720453 35.789329 -0.065133 1.177357 0.077916 -0.012973 141099.000000 0 0 1
33.308193 -1.327432 12.607853 35.639244 -0.039832 1.209205 0.088936 -0.016259 96562.800000 0 0 1
33.918493 -2.114132 11.618453 35.915486 -0.062249 1.241376 0.089592 -0.019898 -96328.000000 0 0 1
33.797093 -1.556632 10.193253 35.335096 -0.046026 1.278164 0.129443 -0.020812 -110073.000000 0 0 1
34.465193 -0.337032 9.968053 35.879314 -0.009779 1.289270 0.104500 -0.020679 1004730.000000 0 0 1
33.458493 0.626668 9.604053 34.815245 0.018728 1.291314 0.117897 -0.026198 518806.000000 0 0 1
34.074593 2.004668 9.201953 35.352122 0.058764 1.307469 0.120658 -0.026649 -77933.300000 0 0 1
34.505693 2.052068 7.894253 35.456636 0.059400 1.346269 0.108938 -0.024240 320619.000000 0 0 1
34.960193 3.374768 7.574953 35.930267 0.096234 1.358379 0.105998 -0.021209 28049.400000 0 0 1
35.500293 3.568968 6.122553 36.200746 0.100197 1.400852 0.102493 -0.016856 -74635.900000 0 0 1
35.776493 4.871368 5.721153 36.557068 0.135329 1.413651 0.091958 -0.003023 126507.000000 0 0 1
36.360793 4.830368 4.443453 36.948396 0.132072 1.450243 0.092730 -0.018703 -118645.000000 0 0 1
-36.512736 6.206768 3.885253 37.239751 -0.168380 1.466275 0.081861 -0.023320 742802.000000 0 0 1
35.698193 7.088968 3.774053 36.590407 0.196030 1.467469 0.105577 -0.025761 475232.000000 0 0 1
36.079793 8.408868 3.548853 37.216325 0.228976 1.475294 0.087890 -0.027885 -484898.000000 0 0 1
34.823093 9.335468 3.582553 36.230283 0.261924 1.471752 0.119050 -0.039213 832076.000000 0 0 1
33.868693 9.134068 2.535253 35.170258 0.263423 1.498649 0.143690 -0.042795 379520.000000 0 0 1
33.179193 7.889368 2.518353 34.197121 0.233445 1.497087 0.159052 -0.036048 -875821.000000 0 0 1
31.841793 8.009068 1.724553 32.878854 0.246415 1.518320 0.175329 -0.048178 223338.000000 0 0 1
31.968693 8.112268 0.332953 32.983588 0.248511 1.560702 0.166688 -0.048211 759215.000000 0 0 1
30.775793 7.715368 -0.374747 31.730376 0.245634 1.582607 0.171252 -0.041767 572088.000000 0 0 1
31.038393 7.560468 -1.935247 32.004495 0.238931 1.631301 0.139229 -0.035097 86426.300000 0 0 1
29.977993 6.835768 -2.552647 30.853262 0.224193 1.653626 0.146687 -0.031735 847656.000000 0 0 1
30.311493 6.689968 -3.921247 31.287672 0.217225 1.696456 0.123517 -0.032727 -741981.000000 0 0 1
29.238993 6.090568 -4.802847 30.250307 0.205366 1.730241 0.126455 -0.021522 -747843.000000 0 0 1
29.203493 4.673168 -4.692247 29.944944 0.158676 1.728141 0.134405 -0.021425 -79748.500000 0 0 1
28.017093 4.238168 -5.248847 28.817875 0.150133 1.753957 0.120452 -0.022805 -891592.000000 0 0 1
27.951393 2.689068 -5.375447 28.590328 0.095910 1.759938 0.140909 -0.018664 -599331.000000 0 0 1
27.537293 2.162468 -4.166647 27.934561 0.078368 1.720512 0.144653 -0.019554 328467.000000 0 0 1
27.575893 0.775068 -4.033847 27.880145 0.028099 1.715991 0.133049 -0.021413 -254463.000000 0 0 1
27.457893 0.300668 -2.552247 27.577894 0.010950 1.663476 0.140073 -0.021361 -436594.000000 0 0 1
28.531993 0.712268 -1.766947 28.595525 0.024959 1.632627 0.143817 -0.021516 -117513.000000 0 0 1
28.470293 0.237368 -0.464747 28.475075 0.008337 1.587118 0.154018 -0.018058 -335491.000000 0 0 1
29.813693 0.488968 0.239453 29.818664 0.016399 1.562766 0.166821 -0.016666 -272690.000000 0 0 1
30.829893 -0.363532 -0.221147 30.832829 -0.011791 1.577969 0.127946 -0.021242 -1142030.000000 0 0 1
32.028493 0.057768 0.282653 32.029792 0.001804 1.561972 0.105330 -0.023386 -1321340.000000 0 0 1
-2.935807 -21.384032 -8.495793 23.196428 1.434360 1.945777 0.029020 0.009677 346141.000000 0 1 0
-3.478407 -21.879732 -7.284493 23.321360 1.413137 1.888465 0.037197 -0.000675 -50294.800000 0 1 0
-2.672607 -22.945232 -6.826993 24.088053 1.454841 1.858153 0.047311 -0.007133 76158.700000 0 1 0
-3.174607 -23.590632 -5.512893 24.433338 1.437029 1.798386 0.047575 -0.005658 -505775.000000 0 1 0
-2.950207 -22.816132 -4.361193 23.415798 1.442206 1.758140 0.049191 -0.010072 -79478.800000 0 1 0
-3.447707 -23.357832 -3.122493 23.816485 1.424251 1.702281 0.049908 -0.022789 -160187.000000 0 1 0
-2.900907 -22.713132 -1.830593 22.970692 1.443765 1.650573 0.044034 -0.030876 -15254.200000 0 1 0
-1.501607 -22.876132 -1.740093 22.991306 1.505250 1.646554 0.060001 -0.022773 -561308.000000 0 1 0
-1.161107 -22.421432 -0.418993 22.455385 1.519057 1.589456 0.047806 -0.030508 -463931.000000 0 1 0
0.318493 -22.328532 -0.107893 22.331064 -1.556533 1.575628 0.050668 -0.033281 -464628.000000 0 1 0
1.150693 -21.507932 -0.931393 21.558820 -1.517346 1.614012 0.035526 -0.025394 136030.000000 0 1 0
2.279593 -21.171732 -0.136093 21.294537 -1.463538 1.577187 0.030014 -0.025372 34529.200000 0 1 0
3.144093 -20.011232 -0.669493 20.267781 -1.414954 1.603835 0.037155 -0.025210 310713.000000 0 1 0
3.950093 -20.537532 -1.727693 20.985194 -1.380781 1.653219 0.037711 -0.018473 -348988.000000 0 1 0
4.779693 -19.502832 -2.195793 20.199689 -1.330457 1.679716 0.042762 -0.016982 -580492.000000 0 1 0
5.707493 -19.975632 -3.291893 21.034208 -1.292489 1.727944 0.041456 -0.010999 -589461.000000 0 1 0
6.723593 -20.909532 -2.936993 22.159448 -1.259682 1.703727 0.051131 -0.016549 30095.100000 0 1 0
7.445493 -21.485332 -3.974893 23.083644 -1.237209 1.743854 0.040151 -0.016151 127691.000000 0 1 0
8.734193 -20.776032 -4.416093 22.965877 -1.172830 1.764291 0.044260 -0.013241 -203859.000000 0 1 0
8.392693 -19.706832 -5.300193 22.065551 -1.168183 1.813370 0.033619 -0.006996 -967362.000000 0 1 0
9.465193 -19.424332 -6.076893 22.446006 -1.117372 1.844952 0.043241 -0.003829 -1373990.000000 0 1 0
9.300793 -18.176132 -7.016393 21.589495 -1.097830 1.901799 0.038101 -0.000397 -28354.100000 0 1 0
10.349093 -18.080132 -7.970093 22.305095 -1.050917 1.936195 0.048538 0.010590 479052.000000 0 1 0
10.285593 -16.885632 -8.712693 21.606226 -1.023689 1.985861 0.052971 0.012138 -55704.700000 0 1 0
10.708293 -17.119432 -10.198193 22.621795 -1.011834 2.038472 0.052225 0.023909 -443521.000000 0 1 0
9.697293 -17.669832 -10.947193 22.936902 -1.068871 2.068347 0.045902 0.007173 -551720.000000 0 1 0
8.789693 -16.742032 -11.490893 22.126792 -1.087343 2.116852 0.028829 -0.008337 290690.000000 0 1 0
8.046793 -17.246532 -12.811393 22.941785 -1.134245 2.163289 0.046310 -0.016341 380377.000000 0 1 0
7.068993 -18.246132 -12.596993 23.271790 -1.201178 2.142777 0.035496 -0.004962 128416.000000 0 1 0
6.524693 -18.793732 -13.742293 24.179052 -1.236641 2.175302 0.042156 -0.006390 427144.000000 0 1 0
5.456293 -19.911132 -13.491293 24.662507 -1.303330 2.149616 0.040746 0.003068 820443.000000 0 1 0
6.100593 -21.025532 -12.978693 25.450672 -1.288399 2.105929 0.052143 -0.011867 -39204.600000 0 0 1
5.002493 -21.749732 -12.534793 25.596812 -1.344726 2.082543 0.067117 -0.007070 111605.000000 0 0 1
5.231793 -23.248432 -12.396593 26.861436 -1.349445 2.050483 0.045713 -0.012220 -123509.000000 0 0 1
5.470393 -23.833832 -13.689593 28.024662 -1.345182 2.081148 0.072575 -0.019777 -33380.200000 0 0 1
5.269393 -25.229762 -13.687193 29.182985 -1.364900 2.058969 0.056804 -0.011002 103696.000000 0 0 1
3.838193 -25.576742 -14.159893 29.485658 -1.421842 2.071713 0.060631 -0.019265 483703.000000 0 0 1
2.818193 -25.126882 -13.220693 28.532247 -1.459105 2.052579 0.057084 -0.013668 -257510.000000 0 0 1
1.540493 -25.230132 -13.758193 28.778821 -1.509814 2.069248 0.049192 -0.022440 -540715.000000 0 0 1
0.790893 -26.475752 -13.254793 29.618921 -1.540933 2.034776 0.044578 -0.022041 -989902.000000 0 0 1
1.251793 -27.672432 -13.834293 30.963174 -1.525591 2.033980 0.044924 -0.021312 427.381000 0 0 1
0.820993 -28.856472 -13.163093 31.727543 -1.542353 1.998606 0.038208 -0.022037 1876160.000000 0 0 1
-0.733007 -29.260622 -13.204093 32.110269 1.545751 1.994578 0.032465 -0.027893 2651200.000000 0 0 1
-1.771807 -28.424492 -12.633893 31.156160 1.508543 1.988325 0.027955 -0.025075 530782.000000 0 0 1
-3.048307 -28.861292 -13.023593 31.810066 1.465567 1.992612 0.036307 -0.031021 -43346.600000 0 0 1
-4.261807 -27.986712 -12.579793 30.978545 1.419678 1.988958 0.045299 -0.017651 426611.000000 0 0 1
-4.636907 -27.998062 -11.251393 30.528449 1.406671 1.948250 0.052853 -0.026806 25849.800000 0 0 1
-5.238307 -29.232962 -10.848693 31.618034 1.393486 1.921030 0.051177 -0.024703 -897458.000000 0 0 1
-5.643807 -29.292432 -9.371093 31.268459 1.380458 1.875172 0.051399 -0.018252 522982.000000 0 0 1
-6.982707 -28.928762 -9.024693 31.097854 1.333951 1.865235 0.052423 -0.010236 371211.000000 0 0 1
-7.308007 -27.571302 -9.216693 29.975508 1.311696 1.883334 0.056731 -0.013912 -649419.000000 0 0 1
-8.806707 -27.242622 -8.894793 29.980592 1.258130 1.872016 0.057659 -0.011613 318734.000000 0 0 1
-9.706907 -27.463442 -9.938193 30.777140 1.231053 1.899597 0.060837 -0.014235 -371761.000000 0 0 1
-9.816607 -28.793302 -10.445093 32.163954 1.242221 1.901539 0.065898 -0.017027 -400408.000000 0 0 1
-11.130307 -29.066932 -11.281893 33.106666 1.205100 1.918536 0.069552 -0.018599 559012.000000 0 0 1
-11.294707 -28.281352 -12.429693 32.892287 1.190834 1.958313 0.076409 -0.020280 686627.000000 0 0 1
-12.244207 -28.902322 -13.344693 34.107853 1.170077 1.972786 0.083857 -0.020978 531890.000000 0 0 1
-12.392707 -28.007682 -14.608793 33.932672 1.154218 2.015868 0.080803 -0.022129 -328592.000000 0 0 1
-13.283107 -26.916392 -14.561393 33.361164 1.112366 2.022476 0.078538 -0.029308 -44964.400000 0 0 1
-12.998107 -25.870172 -13.650393 32.008589 1.105202 2.011372 0.079243 -0.024862 -321216.000000 0 0 1
-13.913307 -24.716232 -13.975593 31.619447 1.058086 2.028616 0.110306 -0.019381 -272559.000000 0 0 1
-13.479307 -24.047732 -15.131293 31.447435 1.059910 2.072775 0.103689 -0.021503 -439944.000000 0 0 1
-14.389707 -23.114432 -15.523193 31.341827 1.013966 2.088961 0.123811 -0.021555 -727229.000000 0 0 1
-13.911907 -22.468232 -16.881893 31.358586 1.016392 2.139274 0.117260 -0.020702 285851.000000 0 0 1
-13.165007 -21.266732 -16.733593 30.093262 1.016493 2.160431 0.107839 -0.015925 287159.000000 0 0 1
-13.054407 -20.478632 -17.887193 30.161956 1.003284 2.205623 0.073385 -0.018261 -207582.000000 0 0 1
-13.243007 -18.960832 -17.612293 29.070315 0.961118 2.221632 0.084438 -0.018211 858830.000000 0 0 1
-12.049107 -18.220432 -17.258293 27.839069 0.986521 2.239451 0.086700 -0.015318 789447.000000 0 0 1
-12.269207 -16.801432 -17.272693 27.040108 0.940057 2.263708 0.090320 -0.019797 546832.000000 0 0 1
-10.978507 -15.940732 -17.527593 26.112278 0.967689 2.306676 0.098269 -0.029408 685130.000000 0 0 1
-10.092607 -15.952032 -16.397793 25.004312 1.006690 2.286036 0.111288 -0.030583 -856323.000000 0 0 1
-8.920707 -15.366132 -16.796993 24.450685 1.044806 2.328113 0.084811 -0.026845 -1622360.000000 0 1 0
-8.162907 -14.750332 -15.585993 22.959279 1.065343 2.316997 0.072770 -0.024183 23341.900000 0 1 0
-7.697507 -15.694132 -14.561893 22.750958 1.114801 2.265368 0.057241 -0.015603 -43385.200000 0 1 0
-6.689307 -16.558232 -15.004593 23.325087 1.186858 2.269573 0.053760 -0.007711 -732780.000000 0 1 0
-6.131007 -17.363632 -13.814593 23.020164 1.231367 2.214433 0.035173 -0.004142 -561035.000000 0 1 0
-5.475807 -16.623332 -12.839593 21.706560 1.252586 2.203724 0.022158 -0.004664 -41556.300000 0 1 0
-5.226907 -17.264432 -11.617293 21.455597 1.276813 2.142966 0.012665 -0.011459 -377692.000000 0 1 0
-4.329907 -18.537232 -11.595193 22.289584 1.341331 2.117889 0.023143 -0.004968 -118544.000000 0 1 0
-2.985607 -18.075532 -11.694793 21.734923 1.407100 2.138936 0.015241 0.004612 -447316.000000 0 1 0
-2.129607 -19.228532 -11.634393 22.575003 1.460493 2.112231 0.017027 0.014537 447939.000000 0 1 0
-0.738107 -18.735132 -12.113093 22.322119 1.531420 2.144385 0.008074 0.019245 -659203.000000 0 1 0
-0.656607 -18.383032 -13.462693 22.794979 1.535093 2.202597 0.011101 0.010606 -279546.000000 0 1 0
0.668393 -17.948932 -13.709193 22.595417 -1.533575 2.222730 0.012098 0.012788 735856.000000 0 1 0
1.723993 -19.075732 -13.976593 23.710775 -1.480665 2.201189 0.014484 0.011832 -360340.000000 0 1 0
1.385893 -19.960032 -15.018193 25.017387 -1.501474 2.214685 0.016208 0.011763 166761.000000 0 0 1
0.883193 -21.253132 -14.661793 25.834934 -1.529264 2.174285 0.023435 0.007206 -328547.000000 0 0 1
0.926793 -22.240732 -15.874593 27.340662 -1.529149 2.190289 0.032051 -0.002400 1436.120000 0 0 1
2.149493 -22.809332 -16.270393 28.100029 -1.476836 2.188319 0.069386 -0.013600 179276.000000 0 0 1
3.105393 -21.958432 -16.930093 27.900613 -1.430307 2.222825 0.075213 -0.014786 -168107.000000 0 0 1
4.480893 -22.591432 -17.048893 28.655120 -1.374993 2.208023 0.081812 -0.022798 -730531.000000 0 0 1
4.572393 -23.605332 -18.026293 30.051051 -1.379464 2.214117 0.103532 -0.029110 -490207.000000 0 0 1
5.887293 -24.052532 -18.118493 30.683290 -1.330748 2.202475 0.122728 -0.029034 -454291.000000 0 0 1
6.449993 -23.701832 -19.534193 31.384135 -1.305100 2.242630 0.133120 -0.022648 -106986.000000 0 0 1
6.762893 -22.329332 -19.754893 30.571090 -1.276708 2.273385 0.141032 -0.038841 67387.900000 0 0 1
7.189693 -22.066932 -21.092793 31.361554 -1.255829 2.308470 0.142090 -0.037151 188820.000000 0 0 1
7.332193 -20.542132 -21.383493 30.544950 -1.227957 2.346287 0.132735 -0.033783 537055.000000 0 0 1
6.039193 -19.950432 -21.443493 29.905099 -1.276855 2.370359 0.115681 -0.033205 286322.000000 0 0 1
6.087293 -18.723232 -22.113193 29.607564 -1.256456 2.414149 0.110421 -0.027676 510364.000000 0 0 1
4.688493 -18.030132 -22.254393 29.022846 -1.316394 2.444620 0.099199 -0.022915 -209273.000000 0 0 1
3.923093 -18.670232 -23.289293 30.105803 -1.363684 2.455270 0.105185 -0.024992 10278.300000 0 0 1
3.092593 -17.722932 -23.943493 29.949245 -1.398039 2.497207 0.082476 -0.012412 134193.000000 0 0 1
1.817493 -17.190832 -23.281993 28.997916 -1.465463 2.502915 0.073064 0.000125 -572038.000000 0 0 1
2.142193 -16.432732 -22.158193 27.669643 -1.441166 2.499447 0.074521 -0.006827 -924530.000000 0 0 1
1.045193 -15.696332 -21.736793 26.831985 -1.504306 2.515132 0.051974 -0.011408 -354127.000000 0 0 1
1.344493 -14.857232 -20.501993 25.355013 -1.480548 2.512560 0.044375 -0.016134 423937.000000 0 0 1
2.258293 -13.762032 -20.734893 24.988581 -1.408150 2.549500 0.042024 -0.009913 311434.000000 0 1 0
2.420093 -13.145232 -19.431093 23.584345 -1.388731 2.539051 0.038282 -0.017013 52251.300000 0 1 0
3.701793 -12.295832 -19.390293 23.256702 -1.278367 2.556663 0.046372 -0.018525 62468.600000 0 1 0
4.955293 -12.984832 -19.214393 23.713997 -1.206233 2.515384 0.040922 -0.017147 726011.000000 0 1 0
6.106593 -12.170732 -19.163593 23.508732 -1.105754 2.523817 0.044392 -0.010858 228056.000000 0 1 0
6.235493 -11.103132 -18.087693 22.120704 -1.059093 2.528168 0.031277 -0.011767 -743641.000000 0 1 0
5.311193 -10.003932 -18.228693 21.460956 -1.082727 2.585622 0.011848 0.002670 195050.000000 0 1 0
5.627993 -8.919732 -19.118593 21.834754 -1.007923 2.637481 0.023456 -0.001447 -380061.000000 0 1 0
4.985693 -9.048732 -20.540193 22.992090 -1.067199 2.675562 0.045951 -0.013971 1063300.000000 0 1 0
3.547893 -9.098932 -20.647793 22.840960 -1.199006 2.699787 0.041145 -0.017001 943485.000000 0 1 0
3.149393 -9.198232 -22.026193 24.076530 -1.240916 2.725910 0.044256 -0.023005 419032.000000 0 1 0
1.602193 -9.147232 -22.184293 24.049568 -1.397399 2.745150 0.055013 -0.022626 441097.000000 0 1 0
1.088893 -7.928032 -21.633693 23.066340 -1.434303 2.787294 0.050544 -0.023678 -561551.000000 0 1 0
-0.286907 -7.802232 -21.847793 23.200931 1.534040 2.798377 0.045218 -0.022264 -213009.000000 0 1 0
-0.731607 -6.768232 -22.918093 23.907806 1.463120 2.852851 0.057874 -0.019252 -108958.000000 0 1 0
-0.644207 -7.202632 -24.253093 25.308208 1.481593 2.851822 0.070800 -0.018251 -214997.000000 0 0 1
-1.332307 -6.413732 -25.212453 26.049544 1.365982 2.887395 0.075155 -0.028883 48965.600000 0 0 1
-0.666507 -5.103532 -25.731053 26.240757 1.440934 2.944172 0.075954 -0.028407 44768.200000 0 0 1
-1.466107 -4.419732 -26.708213 27.111107 1.250500 2.968979 0.074019 -0.030719 331266.000000 0 0 1
-0.929007 -3.190632 -27.301993 27.503490 1.287463 3.020471 0.052242 -0.025747 -571858.000000 0 0 1
-1.209607 -1.976532 -26.357563 26.459232 1.021611 3.053901 0.055886 -0.023538 1284820.000000 0 0 1
-2.626107 -1.820232 -26.102873 26.297712 0.606100 3.019788 0.046152 -0.027600 1020060.000000 0 0 1
-3.362507 -1.207432 -27.114743 27.349106 0.344747 3.010584 0.065249 -0.025581 -1636470.000000 0 0 1
-4.847407 -1.272032 -26.941663 27.403806 0.256629 2.957681 0.054592 -0.026208 -1313540.000000 0 0 1
-5.446107 -0.435632 -25.998903 26.566761 0.079820 2.934463 0.057315 -0.024904 12440.500000 0 0 1
-6.845107 -0.544732 -26.199773 27.084688 0.079412 2.885266 0.080884 -0.035879 -452984.000000 0 0 1
-7.616007 0.567068 -25.473613 26.593798 -0.074320 2.850316 0.083260 -0.027849 -1052260.000000 0 0 1
-7.689907 1.841468 -26.065453 27.238456 -0.235040 2.847053 0.085435 -0.030838 386727.000000 0 0 1
-8.664107 1.894868 -27.100723 28.515021 -0.215313 2.825321 0.102457 -0.040647 122627.000000 0 0 1
-10.164007 1.744568 -26.760383 28.678714 -0.169985 2.773762 0.105948 -0.038934 -775823.000000 0 0 1
-11.031507 1.899868 -27.886013 30.048849 -0.170549 2.759866 0.107274 -0.039582 -203116.000000 0 0 1
-12.299607 1.545868 -27.427363 30.098675 -0.125029 2.717101 0.060932 -0.025477 -561325.000000 0 0 1
-13.497607 2.136668 -28.200923 31.337562 -0.156997 2.690355 0.036048 -0.014913 -364395.000000 0 0 1
-14.711507 1.478468 -27.939493 31.610593 -0.100161 2.654858 0.020358 -0.009149 833350.000000 0 0 1
-15.886307 1.919068 -28.654023 32.819363 -0.120218 2.632286 0.011146 -0.005865 1293530.000000 0 0 1
-16.627707 3.201668 -28.032513 32.749856 -0.190222 2.598198 0.015178 -0.000505 -267877.000000 0 0 1
-15.826207 4.349668 -27.985323 32.443285 -0.268217 2.611168 0.032817 -0.010943 -182670.000000 0 0 1
-15.561707 4.985968 -29.230123 33.487709 -0.310066 2.631832 0.016120 -0.008437 85447.300000 0 0 1
-16.737707 5.708468 -29.990673 34.816345 -0.328683 2.608809 0.011390 0.001898 311703.000000 0 0 1
-17.435007 6.599268 -29.146523 34.598405 -0.361842 2.572562 0.024395 0.006279 286878.000000 0 0 1
-18.263407 7.446068 -29.942593 35.854635 -0.387130 2.559131 0.022343 0.006292 -246902.000000 0 0 1
-19.023507 8.493368 -29.159503 35.837239 -0.419912 2.521225 0.024702 0.000615 -21068.000000 0 0 1
-18.160707 9.549268 -28.714033 35.291578 -0.484090 2.521153 0.036299 0.001345 558673.000000 0 0 1
-18.889907 10.573368 -28.084823 35.459582 -0.510288 2.484913 0.057812 0.000490 -40165.700000 0 0 1
-8.931307 25.093768 30.762913 40.691796 -1.228860 0.713619 0.017840 0.000221 -922847.000000 0 0 1
-9.404007 26.391268 30.753853 41.602090 -1.228493 0.738858 0.018609 0.005977 38165.400000 0 0 1
-8.784507 27.280668 31.699953 42.735108 -1.259276 0.735079 0.026226 -0.004009 784307.000000 0 0 1
-7.338607 27.705868 31.264623 42.413995 -1.311867 0.741983 0.022520 -0.002950 395131.000000 0 0 1
-7.374507 28.689468 30.192053 42.296915 -1.319197 0.775870 0.036952 -0.002464 -244661.000000 0 0 1
-6.086007 29.080168 29.831043 42.102100 -1.364490 0.783369 0.036025 0.001088 -734632.000000 0 0 1
-6.076407 30.318168 28.834243 42.279163 -1.372996 0.820307 0.049687 -0.001878 -245960.000000 0 0 1
-6.494007 31.441668 29.567363 43.646072 -1.367119 0.826527 0.054326 -0.010174 384438.000000 0 0 1
-6.369807 32.621468 28.810383 43.986053 -1.377958 0.856628 0.054767 -0.016290 -269039.000000 0 0 1
-6.775507 33.825568 29.645643 45.485610 -1.373105 0.860895 0.053815 -0.017675 -257621.000000 0 0 1
-5.863407 34.097068 30.723673 46.270225 -1.400500 0.844634 0.069574 -0.024683 498332.000000 0 0 1
-6.476307 -33.464929 31.847423 46.648713 1.379634 0.819335 0.067346 -0.030683 594063.000000 0 0 1
-7.247107 33.789468 32.807364 47.650518 -1.359519 0.811378 0.052546 -0.030267 259141.000000 0 0 1
-6.387707 32.936468 33.538966 47.439182 -1.379234 0.785565 0.074766 -0.020557 250618.000000 0 0 1
-6.827307 31.586168 33.389691 46.466866 -1.357923 0.769053 0.057466 -0.010651 -128431.000000 0 0 1
-6.626907 30.786768 -33.532493 46.001837 -1.358780 2.387566 0.054285 -0.010635 -485533.000000 0 0 1
-5.286907 30.555868 -33.210353 45.437209 -1.399468 2.390446 0.039582 -0.011459 -599232.000000 0 0 1
-5.095107 30.246268 -31.841533 44.211764 -1.403909 2.374894 0.066938 -0.012729 266467.000000 0 0 1
-3.619807 29.998468 -31.376163 43.560012 -1.450711 2.375027 0.043384 -0.021609 573233.000000 0 0 1
-2.975707 28.787268 -31.734813 42.949505 -1.467793 2.402213 0.040048 -0.016077 264470.000000 0 0 1
-2.890707 28.445968 -33.109003 43.746261 -1.469523 2.429264 0.045680 -0.014017 -815785.000000 0 0 1
-2.442807 26.969968 -33.148243 42.803650 -1.480468 2.456603 0.043454 -0.018305 -80166.900000 0 0 1
-1.116707 26.752068 -32.675653 42.244745 -1.529078 2.455117 0.060282 -0.024618 513717.000000 0 0 1
-0.505607 25.501368 -32.929683 41.652604 -1.550972 2.482551 0.067474 -0.017692 22400.200000 0 0 1
-0.123307 25.211568 33.871816 42.224854 -1.565905 0.639864 0.058477 -0.015689 -730071.000000 0 0 1
-1.255107 25.022168 33.058585 41.479564 -1.520679 0.648510 0.059169 -0.009336 -64190.400000 0 0 1
-1.030807 24.982668 31.666203 40.347797 -1.529559 0.668373 0.080073 -0.012334 -71371.700000 0 0 1
-0.685807 26.386668 31.015693 40.727139 -1.544812 0.705097 0.047748 -0.011435 -554177.000000 0 0 1
-1.774207 27.174668 30.695023 41.034070 -1.505600 0.725696 0.029670 -0.011312 -527410.000000 0 0 1
-1.350407 28.439068 30.260453 41.548757 -1.523348 0.754941 0.027798 -0.009295 511538.000000 0 0 1
-2.509507 29.507668 30.290673 42.361834 -1.485955 0.774106 0.040100 -0.012628 194579.000000 0 0 1
-2.771507 29.846568 31.590223 43.548147 -1.478203 0.759168 0.037467 -0.020368 -306379.000000 0 0 1
-3.427907 31.058568 31.788603 44.574662 -1.460872 0.776809 0.052905 -0.017469 -302003.000000 0 0 1
-2.953407 31.878168 33.015621 45.988819 -1.478413 0.770008 0.056287 -0.014919 -574180.000000 0 0 1
-1.669507 32.397768 32.924707 46.221629 -1.519310 0.777995 0.057704 -0.021985 -962519.000000 0 0 1
-1.181307 32.877168 -34.094230 47.378478 -1.534881 2.374043 0.057346 -0.021986 392815.000000 0 0 1
0.287893 33.412768 34.006424 47.675286 1.562180 0.776611 0.060930 -0.030066 695557.000000 0 0 1
0.438193 -33.650829 33.243747 47.304514 -1.557775 0.791526 0.072423 -0.029890 561645.000000 0 0 1
1.822593 -33.298529 33.255001 47.095742 -1.516116 0.786800 0.075951 -0.030767 612343.000000 0 0 1
2.048893 -31.895629 32.696861 45.723231 -1.506647 0.774024 0.076541 -0.035990 -160800.000000 0 0 1
1.449393 -30.948129 33.538418 45.658657 -1.523998 0.745798 0.071658 -0.028043 111460.000000 0 0 1
1.785593 -29.658629 33.179251 44.538582 -1.510664 0.730329 0.056584 -0.027405 -363238.000000 0 0 1
1.269593 -28.711329 -33.999203 44.518514 -1.526606 2.439836 0.056157 -0.021873 298704.000000 0 0 1
-0.149607 -28.622429 -34.040546 44.474988 1.565569 2.442438 0.046929 -0.017049 218746.000000 0 0 1
-0.528807 -27.980129 -32.866223 43.166606 1.551899 2.436237 0.054981 -0.015898 -105031.000000 0 0 1
-1.924107 -27.334029 -32.842323 42.772298 1.500520 2.446261 0.065761 -0.016404 -32605.200000 0 0 1
-2.319907 -26.853329 -31.556383 41.500464 1.484619 2.434704 0.068111 -0.011067 -318561.000000 0 0 1
-3.637307 -26.419929 -31.421393 41.213427 1.433984 2.437821 0.081518 -0.030320 -451277.000000 0 0 1
-3.955407 -25.912529 -29.954793 39.804447 1.419321 2.422720 0.085130 -0.031729 -152466.000000 0 0 1
-4.172907 -26.951529 -28.978173 39.793625 1.417186 2.386505 0.082620 -0.020780 -9055.680000 0 0 1
-4.343407 -26.567929 -27.648353 38.589525 1.408747 2.369530 0.080526 -0.021549 11757.700000 0 0 1
-3.119207 -26.030629 -26.862443 37.535502 1.451537 2.368357 0.078508 -0.024315 -18106.300000 0 0 1
-2.649407 -24.790529 -27.319363 36.985636 1.464329 2.401859 0.093794 -0.023588 688627.000000 0 0 1
-1.580307 -24.238029 -26.515923 35.959332 1.505689 2.399989 0.092761 -0.027521 110086.000000 0 0 1
-0.730807 -23.203129 -27.285863 35.825097 1.539311 2.436638 0.082030 -0.021196 427536.000000 0 0 1
0.113993 -23.649829 -28.353273 36.922019 -1.565976 2.446389 0.067092 -0.032771 1522040.000000 0 0 1
1.185293 -24.634629 -28.070743 37.366248 -1.522719 2.420724 0.073891 -0.030571 799532.000000 0 0 1
1.957193 -25.016129 -29.350903 38.614930 -1.492718 2.434251 0.050679 -0.030853 543200.000000 0 0 1
3.034293 -24.071729 -29.531563 38.219998 -1.445406 2.453838 0.050046 -0.033177 1105230.000000 0 0 1
3.858293 -24.385029 -30.701273 39.396500 -1.413873 2.464327 0.056600 -0.030377 965386.000000 0 0 1
4.982193 -23.339329 -31.062493 39.171737 -1.360485 2.486485 0.062182 -0.034404 807722.000000 0 0 1
6.198393 -23.246629 -30.270413 38.666830 -1.310222 2.470033 0.052702 -0.034676 1393990.000000 0 0 1
7.210693 -24.213829 -30.516523 39.617695 -1.281366 2.450069 0.050134 -0.023988 114412.000000 0 0 1
7.773293 -24.317729 -31.949363 40.896672 -1.261406 2.467417 0.049851 -0.019490 -1009010.000000 0 0 1
6.890793 -25.103629 -32.756453 41.840894 -1.302901 2.470080 0.034715 -0.021942 143234.000000 0 0 1
6.999693 -24.925129 34.093407 42.809090 -1.297019 0.649468 0.046145 -0.018703 -145646.000000 0 0 1
6.441693 -23.614229 33.524114 41.508957 -1.304487 0.630665 0.035152 -0.012185 919128.000000 0 0 1
5.004993 -23.563529 33.704591 41.428123 -1.361503 0.620534 0.044803 -0.014901 971311.000000 0 0 1
4.517893 -22.432629 33.046599 40.195919 -1.372057 0.605640 0.052434 -0.022531 769849.000000 0 0 1
3.029493 -22.038329 33.382115 40.115227 -1.434188 0.587813 0.034973 -0.028567 1290930.000000 0 0 1
1.929493 -22.865029 33.038066 40.224947 -1.486610 0.607053 0.038530 -0.028125 179606.000000 0 0 1
1.649993 -23.899029 33.972294 41.569254 -1.501866 0.614181 0.044199 -0.020496 758782.000000 0 0 1
0.222893 -24.467229 33.598687 41.564008 -1.561687 0.629435 0.046764 -0.023568 930129.000000 0 0 1
0.163193 -25.284529 32.436666 41.127501 -1.564342 0.662128 0.049806 -0.024056 -236182.000000 0 0 1
-1.189807 -25.564329 32.174333 41.111292 1.524288 0.671940 0.049065 -0.029140 -314232.000000 0 0 1
-1.341207 -26.788629 31.256523 41.187374 1.520772 0.709195 0.038192 -0.032751 270034.000000 0 0 1
-2.604707 -26.825329 30.607583 40.782434 1.474001 0.721964 0.041946 -0.036083 210456.000000 0 0 1
-2.640607 -27.864629 29.673983 40.791613 1.476313 0.756194 0.055196 -0.044003 514951.000000 0 0 1
-4.042607 -28.068029 29.005873 40.564734 1.427751 0.774099 0.056131 -0.032394 234601.000000 0 0 1
-4.986407 -28.657929 29.862283 41.688093 1.398524 0.772273 0.055355 -0.028367 -754666.000000 0 0 1
-6.150607 -28.757329 29.095683 41.368741 1.360091 0.790732 0.039613 -0.022760 -158857.000000 0 0 1
-7.301107 -29.571029 29.795073 42.608665 1.328737 0.796417 0.036460 -0.020416 353825.000000 0 0 1
-8.351907 -29.960429 28.905453 42.460651 1.298934 0.821999 0.058346 -0.017748 433832.000000 0 0 1
-9.673107 -29.929629 29.386393 43.045462 1.258198 0.819369 0.050223 -0.014230 200814.000000 0 0 1
-10.056307 -30.891229 30.584153 44.618245 1.256077 0.815557 0.044405 -0.006242 -905649.000000 0 0 1
-9.806707 -32.276729 30.374213 45.393299 1.275828 0.837753 0.050325 -0.007863 -296787.000000 0 0 1
-10.715207 -32.904229 29.550813 45.505544 1.255978 0.864015 0.041676 -0.005884 -739975.000000 0 0 1
-10.404807 33.894468 29.093253 45.864064 -1.272951 0.883646 0.051177 -0.002593 -600687.000000 0 0 1
-10.458307 32.963468 30.157913 45.885359 -1.263572 0.853639 0.048162 0.001837 126306.000000 0 0 1
-10.160507 31.668768 29.694063 44.585695 -1.260334 0.841963 0.046295 -0.004064 -240778.000000 0 0 1
-10.678007 30.569968 30.597833 44.550760 -1.234748 0.813708 0.032553 0.008018 424076.000000 0 0 1
-12.096407 30.705968 30.750463 45.108431 -1.195522 0.820711 0.039525 0.013175 423719.000000 0 0 1
-12.601407 29.531668 31.389433 44.902243 -1.167480 0.796712 0.035137 0.001890 14511.500000 0 0 1
-12.522207 29.479268 32.908243 45.921514 -1.169112 0.771853 0.050660 -0.009658 -768471.000000 0 0 1
-13.456307 30.322868 33.489805 47.139321 -1.153137 0.780669 0.050113 0.001900 -89472.200000 0 0 1
-13.471207 30.277868 -33.324543 46.997318 -1.152176 2.358979 0.053225 -0.006887 -521400.000000 0 0 1
-14.897607 30.549368 -32.854633 47.271868 -1.117072 2.339236 0.033751 -0.001788 -322009.000000 0 0 1
-15.189707 30.078168 -31.560013 46.167714 -1.103151 2.323473 0.018609 -0.007420 -374477.000000 0 0 1
-16.563407 30.106368 -31.279093 46.466348 -1.067828 2.309264 0.034334 -0.006038 -61835.300000 0 0 1
-16.996507 29.496568 -29.883173 45.298265 -1.048046 2.291213 0.041110 -0.009846 -698087.000000 0 0 1
-16.688207 28.138868 -29.713883 44.195101 -1.035491 2.308154 0.036442 -0.012690 129711.000000 0 0 1
-16.899507 27.619768 -28.384963 43.059854 -1.021700 2.290548 0.030995 -0.009731 -272336.000000 0 0 1
-17.450007 26.141368 -28.323713 42.309651 -0.982200 2.304249 0.010120 -0.012737 644180.000000 0 0 1
-18.871407 26.053368 -28.387793 42.904251 -0.943923 2.293820 0.016519 -0.011867 340181.000000 0 0 1
-19.310107 24.704768 -28.245303 42.201930 -0.907354 2.304048 0.015138 -0.012306 558108.000000 0 0 1
-20.855707 24.506068 -28.198053 42.785956 -0.865697 2.290350 0.048257 -0.007471 503654.000000 0 0 1
-21.521107 24.783868 -26.959213 42.475844 -0.855744 2.258410 0.044502 -0.011873 568363.000000 0 0 1
-22.890807 24.423568 -27.123333 43.083348 -0.817782 2.251777 0.073953 -0.015214 872970.000000 0 0 1
-23.743407 24.447868 -25.768903 42.725683 -0.800015 2.218209 0.098716 -0.023137 56305.000000 0 0 1
-24.209007 25.735768 -25.394683 43.512018 -0.815958 2.193982 0.063185 -0.007015 234695.000000 0 0 1
-25.600047 25.814368 -25.106943 44.182605 -0.789567 2.175179 0.066212 0.000259 785343.000000 0 0 1
-26.058547 25.171368 -23.721593 43.305422 -0.768082 2.150498 0.063407 -0.003198 -618161.000000 0 0 1
-25.978677 23.762268 -23.651693 42.413908 -0.740869 2.162336 0.037562 -0.009818 -136444.000000 0 0 1
-27.167787 23.082868 -23.271393 42.573057 -0.704286 2.149122 0.028814 -0.003706 247652.000000 0 0 1
-27.861527 23.411768 -21.874893 42.460411 -0.698830 2.112018 0.031311 -0.007670 25061.600000 0 0 1
-27.187597 22.993268 -20.656693 41.164970 -0.702008 2.096478 0.021674 -0.017692 295745.000000 0 0 1
-26.133707 23.881768 -20.326393 40.822442 -0.740404 2.091997 0.039609 -0.009012 -289421.000000 0 0 1
-25.234317 23.509368 -19.145393 39.446257 -0.750025 2.077564 0.047868 -0.012914 -176201.000000 0 0 1
-25.733337 23.552568 -17.798093 39.162485 -0.741180 2.042571 0.031408 -0.014656 924357.000000 0 0 1
-24.637507 23.412268 -16.847393 37.933833 -0.759904 2.030995 0.059133 -0.020855 908792.000000 0 0 1
-25.205327 23.652268 -15.435893 37.855054 -0.753621 1.990799 0.042999 -0.017668 160257.000000 0 0 1
-25.399817 25.043468 -15.219993 38.781106 -0.778334 1.974100 0.048600 -0.025568 -206154.000000 0 0 1
-26.157837 25.277968 -14.063293 38.999799 -0.768294 1.939706 0.020490 -0.021347 22703.400000 0 0 1
-26.040937 26.716668 -13.429193 39.651658 -0.798206 1.916309 0.018646 -0.014376 377171.000000 0 0 1
-24.707307 27.097368 -13.074893 38.931622 -0.831501 1.913296 0.036529 -0.024213 420166.000000 0 0 1
-24.718507 28.071468 -12.041693 39.293947 -0.848828 1.882259 0.028468 -0.016220 768028.000000 0 0 1
-23.240607 28.462368 -11.667593 38.553404 -0.886052 1.878252 0.038354 -0.019363 818061.000000 0 0 1
-22.457607 27.357968 -11.260893 37.143105 -0.883453 1.878820 0.041512 -0.019267 -801978.000000 0 0 1
-21.326507 27.797468 -10.606993 36.606385 -0.916371 1.864770 0.040462 -0.017938 -1136080.000000 0 0 1
-20.520307 26.740968 -9.947493 35.144203 -0.916269 1.857767 0.071031 -0.018075 -297930.000000 0 0 1
-19.929307 25.834568 -10.862593 34.388924 -0.913727 1.892175 0.070165 -0.017878 -237370.000000 0 0 1
-19.201007 24.827068 -10.279693 33.026263 -0.912493 1.887313 0.070718 -0.012345 -564837.000000 0 0 1
-18.678007 23.748368 -11.223393 32.230692 -0.904344 1.926469 0.069641 -0.016002 -401795.000000 0 0 1
-18.242107 22.620868 -10.589093 30.929065 -0.892148 1.920231 0.051006 -0.013913 -64982.900000 0 0 1
-17.908407 21.743268 -11.646493 30.481495 -0.881812 1.962847 0.079700 -0.013593 -17022.000000 0 0 1
-17.544507 20.381568 -11.090893 29.089963 -0.860064 1.961957 0.057272 -0.006478 -508815.000000 0 0 1
-18.599007 19.553268 -10.745793 29.046952 -0.810405 1.949747 0.037942 0.000355 -588629.000000 0 0 1
-18.144807 18.247368 -10.492693 27.790233 -0.788216 1.957964 0.065609 -0.010625 -872084.000000 0 0 1
-19.327307 17.287568 -10.399793 27.938513 -0.729748 1.952216 0.061964 -0.000143 101451.000000 0 0 1
-19.901007 16.874168 -11.660793 28.579043 -0.703277 1.991079 0.046097 0.003698 472556.000000 0 0 1
-20.506507 17.912168 -12.488093 29.955218 -0.717972 2.000820 0.040708 0.006339 -413038.000000 0 0 1
-21.167207 17.228668 -13.761693 30.565697 -0.683179 2.037823 0.047161 0.002058 772155.000000 0 0 1
-20.234207 16.779068 -14.790693 30.161646 -0.692319 2.083323 0.062581 0.000522 710109.000000 0 0 1
-20.934707 16.299468 -15.912993 30.937970 -0.661547 2.111048 0.074947 -0.002478 -418786.000000 0 0 1
-20.002807 15.968368 -17.039393 30.748040 -0.673707 2.158152 0.096207 -0.020384 -686616.000000 0 0 1
-19.380607 17.158068 -17.500193 31.245223 -0.724646 2.165293 0.074317 -0.018267 -310186.000000 0 0 1
-18.620207 16.758868 -18.587693 31.194136 -0.732835 2.209147 0.080078 -0.017572 -796445.000000 0 0 1
-17.804207 17.994968 -19.070293 31.693607 -0.790727 2.216434 0.057512 -0.013813 -169466.000000 0 0 1
-16.768607 18.314768 -18.175893 30.773040 -0.829441 2.202652 0.069994 -0.014247 324454.000000 0 0 1
-16.004307 19.503568 -18.451893 31.256989 -0.883630 2.202262 0.073770 -0.008479 315719.000000 0 0 1
34.210371 30.110168 2.887807 45.665207 0.721738 1.507515 0.068001 -0.009515 177741.000000 0 0 1
35.170601 30.005768 1.840707 46.267759 0.706319 1.531002 0.092200 -0.016525 217086.000000 0 0 1
35.003871 30.973068 0.767607 46.746028 0.724380 1.554375 0.084233 -0.007853 -348929.000000 0 0 1
36.172741 31.027068 -0.228693 47.657093 0.708975 1.575595 0.066543 -0.007646 609737.000000 0 0 1
-35.956387 31.518168 0.362707 47.816193 -0.719717 1.563211 0.039644 0.001551 741395.000000 0 0 1
-34.903283 31.590768 -0.587793 47.080371 -0.735623 1.583282 0.046091 -0.001063 -112347.000000 0 0 1
-33.962967 32.721868 -0.161793 47.161743 -0.766789 1.574227 0.023834 0.000872 -261488.000000 0 0 1
-33.261297 32.383868 1.033107 46.433782 -0.772033 1.548545 0.030298 0.006450 144376.000000 0 0 1
-32.727397 33.561868 1.616307 46.905159 -0.797986 1.536330 0.012216 0.004578 -435873.000000 0 0 1
-32.116947 33.357368 2.983407 46.401649 -0.804341 1.506457 0.029332 -0.000501 -312504.000000 0 0 1
-31.704477 -33.658729 3.547307 46.375288 0.815288 1.494230 0.035471 0.001116 123629.000000 0 0 1
-31.240767 -33.832529 4.874807 46.307551 0.825205 1.465331 0.050149 -0.012518 -452315.000000 0 0 1
-31.052907 -32.468429 5.599107 45.275070 0.807679 1.446810 0.061155 -0.008113 606211.000000 0 0 1
-32.246327 -31.799029 6.064807 45.692294 0.778414 1.437672 0.061339 -0.007257 597116.000000 0 0 1
-32.838497 -32.344729 7.206107 46.652721 0.777823 1.415713 0.047727 -0.014529 -479583.000000 0 0 1
-34.046367 -31.518829 7.792807 47.045930 0.746867 1.404387 0.052810 -0.014561 740669.000000 0 0 1
-35.274939 -31.561429 7.097607 47.862524 0.729894 1.421956 0.030594 -0.009965 248430.000000 0 0 1
-35.948976 -32.833429 7.086707 49.199435 0.740133 1.426253 0.024965 -0.010097 -1495200.000000 0 0 1
35.896301 -32.761429 6.913907 49.088265 -0.739770 1.429480 0.022943 -0.003987 -718663.000000 0 0 1
35.223871 -32.401829 8.090707 48.539254 -0.743692 1.403331 0.013218 0.000274 -1368300.000000 0 0 1
33.867411 -32.405729 7.932207 47.540012 -0.763346 1.403159 0.000693 0.008455 -1507610.000000 0 0 1
33.071371 -32.569829 9.203407 47.320314 -0.777758 1.375057 -0.008001 -0.002463 -180705.000000 0 0 1
31.672521 -32.363429 9.048407 46.178067 -0.796187 1.373574 0.001966 -0.000168 814098.000000 0 0 1
30.957271 -32.374029 10.311307 45.964698 -0.807765 1.344540 0.007454 -0.004814 186050.000000 0 0 1
31.127941 -31.075929 11.256507 45.402324 -0.784562 1.320255 -0.002184 -0.001142 16851.500000 0 0 1
30.406451 -29.882629 10.800807 43.979327 -0.776710 1.322670 0.008021 -0.012230 691442.000000 0 0 1
30.915061 -29.330729 9.599407 43.682735 -0.759106 1.349235 0.013935 -0.008553 -352108.000000 0 0 1
30.371561 -27.977229 9.235407 42.313707 -0.744386 1.350765 0.019174 -0.014616 -417275.000000 0 0 1
30.704561 -27.561329 7.949707 42.018981 -0.731504 1.380456 0.024989 -0.017332 -28164.500000 0 0 1
30.214971 -26.256429 7.698207 40.762813 -0.715414 1.380802 0.024868 -0.014320 -69886.900000 0 0 1
30.277471 -25.783329 6.219707 40.251585 -0.705404 1.415654 0.010494 -0.002829 -264302.000000 0 0 1
31.571091 -25.637329 5.715507 41.069130 -0.682046 1.431175 0.022883 -0.006036 -592035.000000 0 0 1
31.554731 -24.960129 4.497107 40.483739 -0.669236 1.459482 0.027778 -0.002412 -246275.000000 0 0 1
32.963301 -24.430529 4.208207 41.244866 -0.637809 1.468589 0.041178 -0.008441 -233836.000000 0 0 1
33.803601 -25.486329 3.875207 42.511806 -0.646026 1.479514 0.042177 -0.003422 108003.000000 0 0 1
35.178051 -25.147729 3.714507 43.401626 -0.620636 1.485107 0.066406 -0.016893 808390.000000 0 0 1
36.239441 -26.256529 3.652507 44.900370 -0.626999 1.489359 0.070946 -0.019036 -142387.000000 0 0 1
36.212491 -27.049629 4.836707 45.457900 -0.641559 1.464195 0.048864 -0.014673 76062.600000 0 0 1
-36.621127 -28.368929 4.576407 46.549400 0.659098 1.472324 0.045811 -0.012266 -405426.000000 0 0 1
35.889141 -29.359829 5.388907 46.680514 -0.685663 1.455096 0.036757 -0.009508 536230.000000 0 0 1
34.551441 -29.498629 4.955107 45.700375 -0.706673 1.462157 0.027358 -0.005430 444550.000000 0 0 1
33.533841 -28.603829 5.428607 44.409091 -0.706224 1.448249 0.015409 -0.006069 -32410.100000 0 0 1
32.355871 -29.390329 6.057207 44.129170 -0.737407 1.433101 0.017153 0.000429 166192.000000 0 0 1
31.417611 -30.118429 5.295207 43.843190 -0.764289 1.449725 -0.003417 -0.002276 343645.000000 0 0 1
30.551821 -29.345529 4.433607 42.593788 -0.765262 1.466517 0.016853 -0.000252 -211482.000000 0 0 1
29.252211 -30.150329 4.215007 42.219670 -0.800516 1.470795 0.025881 0.000306 -23128.200000 0 0 1
29.428691 -31.344929 3.454407 43.133344 -0.816918 1.490624 0.033728 0.002089 478609.000000 0 0 1
28.231121 -32.149629 3.522407 42.930202 -0.850204 1.488654 0.048824 0.000282 467246.000000 0 0 1
28.356591 -33.547329 2.793007 44.015003 -0.869054 1.507298 0.052098 -0.008077 -171042.000000 0 0 1
28.306751 -33.569729 1.396407 43.933459 -0.870250 1.539006 0.057144 -0.012748 250325.000000 0 0 1
28.365361 33.304568 0.988007 43.758018 0.865319 1.548216 0.065959 -0.010974 -157735.000000 0 0 1
28.230421 33.072168 -0.543193 43.485860 0.864216 1.583288 0.068402 -0.021032 -78314.900000 0 0 1
29.267131 33.672668 -1.286293 44.632590 0.855280 1.599620 0.052819 -0.017963 272127.000000 0 0 1
28.911791 33.615168 -2.680293 44.419086 0.860478 1.631174 0.075782 -0.023186 183036.000000 0 0 1
29.949271 -33.879329 -3.540493 45.357501 -0.846893 1.648933 0.052730 -0.014255 -77430.000000 0 0 1
29.969891 -32.483629 -3.426193 44.329667 -0.825626 1.648162 0.036617 -0.022150 -246501.000000 0 0 1
30.924331 -31.790729 -4.182593 44.547265 -0.799212 1.664826 0.045512 -0.025012 -278502.000000 0 0 1
30.842061 -30.209029 -4.009293 43.357728 -0.775030 1.663399 0.034768 -0.013959 -138524.000000 0 0 1
29.684531 -29.589029 -4.576493 42.161906 -0.783787 1.679556 0.021150 -0.020016 172877.000000 0 0 1
29.590041 -28.163029 -4.564793 41.104307 -0.760694 1.682080 0.019508 -0.012026 178230.000000 0 0 1
30.591201 -27.424429 -5.525093 41.454162 -0.730867 1.704476 0.053104 -0.011203 252323.000000 0 0 1
31.941551 -27.661829 -5.202293 42.573505 -0.713718 1.693298 0.064282 -0.018154 -274370.000000 0 0 1
32.915121 -27.175329 -6.097793 43.117129 -0.690168 1.712696 0.068316 -0.025160 186042.000000 0 0 1
33.235621 -28.117529 -7.325093 44.145883 -0.702171 1.737497 0.080053 -0.001003 53935.900000 0 0 1
32.167261 -28.224329 -8.285793 43.588987 -0.720201 1.762049 0.079771 -0.007793 312117.000000 0 0 1
32.360951 -29.179029 -9.317393 44.558509 -0.733739 1.781456 0.062800 -0.003301 44309.700000 0 0 1
32.470571 -30.710329 -8.947793 45.579878 -0.757545 1.768390 0.050657 0.001204 -35828.800000 0 0 1
33.744711 -31.134929 -8.545893 46.702480 -0.745195 1.754819 0.062508 -0.006868 -760483.000000 0 0 1
33.635861 -32.380029 -7.967093 47.363615 -0.766377 1.739811 0.062858 -0.018286 -143523.000000 0 0 1
34.938341 -33.023929 -7.489893 48.655586 -0.757237 1.725348 0.058835 -0.015329 -271550.000000 0 0 1
34.825911 33.913968 -6.889893 49.096557 0.772132 1.711595 0.054271 -0.016355 -132139.000000 0 0 1
34.435611 33.933768 -5.509193 48.658639 0.778058 1.684261 0.052427 -0.018629 -105536.000000 0 0 1
34.266561 32.495868 -4.920793 47.480447 0.758882 1.674621 0.044567 -0.015827 -303104.000000 0 0 1
33.106941 31.869568 -5.404793 46.270409 0.766357 1.687872 0.083276 -0.031090 -136133.000000 0 0 1
32.863481 30.608968 -4.793993 45.165249 0.749894 1.677140 0.087847 -0.020701 106206.000000 0 0 1
31.617901 29.900468 -5.364193 43.846371 0.757488 1.693444 0.108541 -0.033407 -166836.000000 0 0 1
31.718721 29.463568 -6.651993 43.799865 0.748555 1.723259 0.092128 -0.022876 -281879.000000 0 0 1
30.588861 28.831368 -7.211893 42.649005 0.755829 1.740711 0.087442 -0.022077 -176779.000000 0 0 1
30.670761 28.565568 -8.681193 42.802458 0.749874 1.775033 0.080561 -0.011635 148284.000000 0 0 1
31.645921 27.548268 -8.922093 42.894931 0.716285 1.780325 0.058146 -0.007775 317218.000000 0 0 1
31.982521 27.334768 -10.307993 43.316578 0.707204 1.811070 0.056997 -0.002455 -120414.000000 0 0 1
33.104011 28.185868 -10.898593 44.822963 0.705326 1.816406 0.048892 -0.006261 -704744.000000 0 0 1
34.383531 27.889268 -10.404393 45.478455 0.681486 1.801617 0.050371 -0.010263 461.815000 0 0 1
35.474681 28.613068 -10.943993 46.871438 0.678739 1.806461 0.042337 -0.005997 227350.000000 0 0 1
35.688181 30.051968 -10.388693 47.798452 0.699873 1.789889 0.034613 -0.017759 -811206.000000 0 0 1
36.311911 29.988468 -9.143493 47.973603 0.690310 1.762564 0.051204 -0.015492 -186406.000000 0 0 1
35.952171 31.120668 -8.359793 48.279817 0.713489 1.744826 0.041077 -0.018728 -502298.000000 0 0 1
-36.433417 31.272568 -7.122993 48.539720 -0.709321 1.718074 0.024830 -0.008846 348934.000000 0 0 1
-35.100112 31.615868 -7.399893 47.815682 -0.733221 1.726180 0.034894 -0.009276 -15478.200000 0 0 1
-34.307395 30.573068 -7.996093 46.643835 -0.727905 1.743076 0.045420 -0.007543 -272790.000000 0 0 1
-32.895877 31.028168 -8.458493 46.004696 -0.756189 1.755710 0.061528 -0.007343 -177503.000000 0 0 1
-31.983617 31.440668 -7.499393 45.472060 -0.776838 1.736476 0.062792 -0.008675 -957487.000000 0 0 1
-30.732377 31.782868 -7.975693 44.924842 -0.802200 1.749277 0.056517 -0.013797 -556567.000000 0 0 1
-30.579727 33.153268 -8.628793 45.920747 -0.825756 1.759826 0.040089 -0.004953 -422123.000000 0 0 1
-30.808307 -33.908129 -7.834393 46.478928 0.833260 1.740163 0.037335 -0.004446 -2727.430000 0 0 1
-29.736607 -33.685329 -6.960693 45.468873 0.847579 1.724488 0.056091 -0.025028 -71119.100000 0 0 1
-29.992267 -32.344829 -6.250693 44.551041 0.823120 1.711565 0.047488 -0.015819 509728.000000 0 0 1
-31.152707 -32.346829 -5.429293 45.235890 0.804201 1.691108 0.044872 -0.023104 155575.000000 0 0 1
-30.917817 -32.982929 -4.161093 45.399336 0.817704 1.662581 0.054791 -0.029991 -110792.000000 0 0 1
-32.083597 -32.963229 -3.149493 46.106952 0.798920 1.639158 0.040065 -0.026002 -305547.000000 0 0 1
-32.451627 -31.678629 -2.696193 45.430311 0.773345 1.630179 0.022275 -0.014180 -87140.900000 0 0 1
-33.510647 -31.788929 -1.772693 46.223824 0.759038 1.609156 0.033144 -0.010359 -62181.300000 0 0 1
-34.402506 -30.531629 -1.687893 46.027837 0.725856 1.607476 0.062627 -0.005972 147439.000000 0 0 1
-35.279858 -30.501229 -0.586293 46.640509 0.712881 1.583367 0.057501 -0.003167 -276364.000000 0 0 1
-35.886013 -29.231429 -0.342393 46.286063 0.683558 1.578194 0.084078 -0.010915 -34868.600000 0 0 1
36.364451 -29.328629 0.752107 46.723736 -0.678703 1.554699 0.083092 -0.004524 -819749.000000 0 0 1
35.215941 -29.934029 0.206207 46.219597 -0.704502 1.566335 0.041891 0.000275 -493414.000000 0 0 1
34.172741 -30.052829 1.130407 45.521716 -0.721338 1.545962 0.043727 -0.004440 -355087.000000 0 0 1
33.309441 -28.798229 1.317307 44.052153 -0.712890 1.540889 0.028604 0.007500 -659049.000000 0 0 1
32.422371 -28.689029 0.175907 43.293204 -0.724383 1.566733 0.027243 0.001895 213419.000000 0 0 1
31.698761 -27.489929 0.215207 41.958956 -0.714409 1.565667 0.027773 -0.001867 564570.000000 0 0 1
30.333951 -27.516229 -0.595493 40.959078 -0.736729 1.585336 0.017749 0.004675 1148210.000000 0 0 1
29.263031 -28.232329 0.027707 40.661901 -0.767473 1.570115 0.013321 0.013562 281988.000000 0 0 1
29.291531 -29.643029 0.137407 41.673995 -0.791362 1.567499 0.018463 0.005374 -602118.000000 0 0 1
28.781091 -30.345329 -1.157393 41.839333 -0.811848 1.598463 0.018878 0.003145 -558101.000000 0 0 1
27.445321 -30.138629 -1.519293 40.790819 -0.832136 1.608051 0.025532 0.000858 -425093.000000 0 0 1
27.217921 -30.708229 -2.760693 41.127023 -0.845580 1.637973 0.024638 -0.005302 -790193.000000 0 0 1
25.751221 -30.766129 -3.142993 40.243739 -0.873899 1.648975 0.025402 -0.006150 -301143.000000 0 0 1
25.030221 -29.533529 -3.206993 38.846185 -0.867744 1.653447 0.033071 0.003903 1211920.000000 0 0 1
23.617621 -29.812829 -3.371693 38.183310 -0.900832 1.659214 0.036242 -0.003753 919706.000000 0 0 1
22.696521 -28.626629 -3.496293 36.699319 -0.900433 1.666210 0.028735 -0.002356 -275081.000000 0 0 1
22.675821 -28.033729 -4.788493 36.373239 -0.890666 1.702828 0.029438 -0.001779 257347.000000 0 0 1
22.136321 -26.678029 -4.620293 34.972576 -0.878172 1.703296 0.031849 -0.007237 130725.000000 0 0 1
21.541621 -26.070229 -5.912693 34.331592 -0.880228 1.743882 0.040544 -0.026095 500143.000000 0 0 1
20.182121 -26.476929 -6.115993 33.848946 -0.919499 1.752479 0.038518 -0.022060 220838.000000 0 0 1
19.799221 -25.864029 -7.392993 33.400801 -0.917441 1.793986 0.061119 -0.028961 299641.000000 0 0 1
18.268421 -25.932129 -7.627393 32.624954 -0.957076 1.806770 0.055398 -0.028343 276623.000000 0 0 1
17.565321 -25.120829 -6.723893 31.381640 -0.960585 1.786733 0.040785 -0.021903 42944.500000 0 0 1
16.158121 -25.302729 -6.842593 30.791786 -1.002483 1.794889 0.045406 -0.022531 597804.000000 0 0 1
15.419321 -24.406629 -5.788893 29.444020 -1.007345 1.768692 0.032799 -0.007622 -275787.000000 0 0 1
15.729521 -24.849829 -4.540693 29.758188 -1.006477 1.723981 0.030623 -0.001555 267740.000000 0 0 1
15.005621 -24.201329 -3.486893 28.688524 -1.015777 1.692641 0.036625 -0.000278 17069.000000 0 0 1
15.271521 -24.893429 -2.134193 29.282366 -1.020527 1.643744 0.035568 -0.001611 -273195.000000 0 0 1
14.639221 -26.144529 -2.051393 30.034171 -1.060358 1.639151 0.046038 -0.005868 102979.000000 0 0 1
15.087921 -26.916729 -1.010293 30.873554 -1.059897 1.603526 0.042463 -0.006620 -483632.000000 0 0 1
14.633121 -28.351329 -1.140293 31.925325 -1.094324 1.606521 0.041320 -0.005111 583326.000000 0 0 1
13.279521 -28.527529 -0.694593 31.474562 -1.135129 1.592866 0.057015 -0.012341 451136.000000 0 0 1
12.746021 -29.802229 -1.083693 32.431594 -1.166652 1.604217 0.062224 -0.013908 -235040.000000 0 0 1
13.298621 -31.166229 -0.603293 33.890281 -1.167487 1.588599 0.053822 -0.007476 -899414.000000 0 0 1
14.548921 -31.358129 -1.200093 34.589646 -1.136394 1.605498 0.037703 -0.000373 -634274.000000 0 0 1
14.954521 -32.676329 -0.945193 35.948207 -1.141594 1.597093 0.037827 -0.005485 -284883.000000 0 0 1
16.327121 -32.962929 -1.606993 36.819995 -1.110902 1.614455 0.024902 -0.000604 -578004.000000 0 0 1
17.358521 -32.331029 -0.943093 36.708352 -1.078066 1.596491 0.023719 0.013148 -700515.000000 0 0 1
18.192021 -31.799429 -1.958593 36.687728 -1.051154 1.624207 0.020233 0.008955 -533086.000000 0 0 1
19.177821 -30.749529 -1.452993 36.268906 -1.013148 1.610869 0.019207 0.010884 -87994.000000 0 0 1
18.626321 -29.446129 -1.311693 34.867390 -1.006782 1.608425 0.025075 0.001792 100269.000000 0 0 1
19.553321 -28.635029 -0.653293 34.680312 -0.971676 1.589635 0.017866 0.003790 -369240.000000 0 0 1
19.174621 -27.127929 -0.612293 33.225977 -0.955506 1.589225 0.022558 0.008183 -601808.000000 0 0 1
19.375521 -26.395629 -1.793493 32.792631 -0.937586 1.625516 0.018561 -0.001557 -421436.000000 0 0 1
18.386721 -26.469529 -2.752093 32.346275 -0.963679 1.655982 0.026744 -0.001538 -1130230.000000 0 0 1
32.570991 -29.225529 14.124107 45.983600 -0.731314 1.258594 -0.019812 0.000139 706058.000000 0 0 1
33.469151 -29.387929 15.256307 47.080669 -0.720561 1.240793 -0.008211 0.007072 686014.000000 0 0 1
32.744101 -30.091829 16.249207 47.346923 -0.743214 1.220480 -0.011834 0.016775 -367945.000000 0 0 1
33.559211 -30.597329 17.416407 48.638960 -0.739264 1.204591 -0.003785 0.012098 -483998.000000 0 0 1
32.803831 -31.070829 18.546207 48.841064 -0.758274 1.181297 0.006281 -0.002466 81170.700000 0 0 1
33.607961 -31.234229 19.656407 49.914392 -0.748807 1.166032 -0.003050 -0.001286 -368488.000000 0 0 1
34.409931 -32.547329 19.668107 51.285538 -0.757588 1.177211 -0.010351 0.000149 -253104.000000 0 0 1
35.435161 -32.721929 18.725407 51.739890 -0.745611 1.200476 -0.008136 0.013146 -240328.000000 0 0 1
35.994201 -34.001629 18.802707 52.964470 -0.756939 1.207876 0.007063 0.005285 159926.000000 0 0 1
-36.264337 -34.117829 17.662307 52.830725 0.754910 1.229914 0.010781 0.007435 772393.000000 0 0 1
-35.147507 -33.251629 17.897107 51.588027 0.757687 1.216507 0.036562 0.002600 613162.000000 0 0 1
-34.290243 -33.161629 16.752907 50.558623 0.768668 1.233056 0.045311 0.007717 408696.000000 0 0 1
-33.054457 -32.250129 17.014407 49.215425 0.773082 1.217798 0.041549 0.002817 512787.000000 0 0 1
-32.011797 -32.238729 16.034507 48.178795 0.788930 1.231512 0.063455 -0.006259 275870.000000 0 0 1
-32.102837 -31.195029 15.097307 47.240350 0.771057 1.245505 0.065691 -0.005917 -37732.200000 0 0 1
-30.788517 -31.060729 14.296107 46.011742 0.789799 1.254861 0.060083 -0.013197 320006.000000 0 0 1
-29.624677 -30.929229 15.111607 45.415850 0.806938 1.231590 0.053225 -0.016518 -1156270.000000 0 0 1
-28.578387 -30.973929 14.223807 44.479492 0.825602 1.245295 0.050897 -0.011185 -1237740.000000 0 0 1
-27.283687 -30.565429 14.925507 43.605227 0.842067 1.221446 0.061393 -0.021373 -1033620.000000 0 0 1
-26.260797 -30.417729 14.019407 42.560680 0.858609 1.235130 0.065423 -0.018625 -1063160.000000 0 0 1
-25.091117 -30.062829 14.730207 41.836789 0.875298 1.210996 0.066003 -0.017829 253148.000000 0 0 1
-23.804507 -29.951829 13.861407 40.692816 0.899259 1.223204 0.086999 -0.010133 484263.000000 0 0 1
-23.307507 -31.182029 13.306107 41.141358 0.928919 1.241450 0.098107 -0.022345 -612104.000000 0 0 1
-22.165907 -30.943429 12.562807 40.083006 0.949190 1.252004 0.102919 -0.022707 -399026.000000 0 0 1
-21.537707 -32.218629 11.993807 40.568021 0.981535 1.270664 0.098361 -0.023952 -160524.000000 0 0 1
-22.440907 -32.778029 11.100207 41.245704 0.970459 1.298313 0.069276 -0.019993 -122584.000000 0 0 1
-22.180207 34.123168 10.926407 42.139513 -0.994418 1.308508 0.084787 -0.022451 334380.000000 0 0 1
-23.124307 33.373168 9.932807 41.799074 -0.964851 1.330869 0.066398 -0.010660 362107.000000 0 0 1
-22.751607 33.667868 8.611907 41.537043 -0.976520 1.361951 0.061786 -0.015217 291551.000000 0 0 1
-23.838907 33.369468 7.753507 41.736456 -0.950476 1.383938 0.055849 -0.008669 -182562.000000 0 0 1
-23.556007 33.670268 6.247907 41.564514 -0.960333 1.419906 0.053864 -0.012437 -185781.000000 0 0 1
-22.761307 32.747668 5.474807 40.254943 -0.963399 1.434370 0.046625 -0.015037 1657400.000000 0 0 1
-21.328507 32.731468 5.703107 39.481384 -0.993283 1.425839 0.040935 -0.017992 1363730.000000 0 0 1
-20.429407 33.981468 5.488907 40.027852 -1.029500 1.433236 0.059439 -0.023970 -731444.000000 0 0 1
-20.539907 -33.187229 6.392407 39.549246 1.016588 1.408453 0.066939 -0.023556 142443.000000 0 0 1
-19.843607 -33.387229 7.633907 39.582223 1.034544 1.376718 0.071324 -0.027274 -113222.000000 0 0 1
-19.764007 -32.119429 8.473907 38.653342 1.019182 1.349773 0.080017 -0.033187 -469101.000000 0 0 1
-18.895107 -31.195129 7.857007 37.308092 1.026191 1.358610 0.080910 -0.040154 -163471.000000 0 0 1
-18.816607 -29.944029 8.542207 36.382398 1.009761 1.333794 0.080855 -0.036914 137350.000000 0 0 1
-18.225307 -29.868429 9.954207 36.378168 1.022921 1.293630 0.088936 -0.030886 848782.000000 0 0 1
-16.906807 -30.434029 10.090507 36.247601 1.063723 1.288692 0.084338 -0.040478 633857.000000 0 0 1
-16.318207 -30.222529 11.359107 36.176159 1.075713 1.251399 0.102518 -0.033801 -250945.000000 0 0 1
-14.959607 -30.880429 11.536807 36.200672 1.119677 1.246449 0.099386 -0.031560 -382948.000000 0 0 1
-13.885407 -30.249629 10.865507 35.012910 1.140461 1.255258 0.087487 -0.024881 -405471.000000 0 0 1
-12.935207 -31.231129 10.517207 35.402185 1.178129 1.269165 0.086588 -0.023142 64895.400000 0 0 1
-11.729207 -30.559129 9.782407 34.163287 1.204315 1.280389 0.079917 -0.014953 353352.000000 0 0 1
-10.957307 -29.763429 10.682107 33.466875 1.218048 1.245927 0.078375 -0.015438 69285.300000 0 0 1
-9.968807 -29.015229 9.961407 32.256632 1.239860 1.256847 0.087086 -0.017739 484334.000000 0 0 1
-9.008007 -28.209029 10.838507 31.533582 1.261701 1.219928 0.085969 -0.005477 57547.500000 0 0 1
-9.641307 -27.177029 11.568407 31.070465 1.229888 1.189280 0.080450 -0.014136 -464449.000000 0 0 1
-9.266207 -27.065529 12.889407 31.377417 1.240942 1.147480 0.081490 -0.012877 87834.100000 0 0 1
-9.698307 -25.735229 13.560407 30.663396 1.210405 1.112708 0.081346 -0.024340 276113.000000 0 0 1
-9.067907 -24.585229 13.008107 29.255278 1.217441 1.110022 0.077752 -0.024059 -133645.000000 0 0 1
-9.665707 -24.133729 11.793407 28.547281 1.189854 1.144921 0.076007 -0.019636 -97386.100000 0 0 1
-9.107807 -22.915729 11.108907 27.046083 1.192492 1.147531 0.073119 -0.024770 239419.000000 0 0 1
-7.913107 -23.145329 10.367907 26.567217 1.241367 1.169891 0.059390 -0.026268 173963.000000 0 0 1
-7.281407 -21.987429 9.915307 25.194826 1.251001 1.166311 0.058065 -0.017323 885484.000000 0 0 1
-5.952207 -22.115629 9.046907 24.624710 1.307886 1.194594 0.052195 -0.011707 1074000.000000 0 1 0
-4.835307 -22.388329 9.865107 24.938681 1.358089 1.164103 0.042155 -0.020511 -253723.000000 0 1 0
-3.702707 -22.597629 9.032307 24.615960 1.408386 1.195091 0.041168 -0.009455 -104918.000000 0 1 0
-2.622007 -23.485229 9.594607 25.504655 1.459612 1.185115 0.050267 -0.018520 -405854.000000 0 0 1
-1.821707 -22.885029 10.597707 25.285462 1.491361 1.138318 0.045108 -0.014500 -213036.000000 0 0 1
-0.912907 -23.806229 11.171207 26.312845 1.532468 1.132328 0.048017 -0.022383 139531.000000 0 0 1
0.115093 -23.264129 12.142707 26.242681 -1.565849 1.089748 0.050096 -0.012373 -197687.000000 0 0 1
-0.486207 -22.893929 13.414307 26.538878 1.549562 1.040883 0.055827 -0.019310 -165233.000000 0 0 1
0.438993 -22.683629 14.456307 26.902129 -1.551446 1.003485 0.066394 -0.023741 -197582.000000 0 0 1
1.131793 -21.284929 14.465907 25.760273 -1.517673 0.974528 0.048581 -0.015481 -115693.000000 0 0 1
2.168693 -21.171329 13.544007 25.226346 -1.468717 1.004039 0.054914 -0.015831 -546014.000000 0 0 1
2.469493 -19.799929 13.178907 23.912741 -1.446715 0.987085 0.040960 -0.012797 -275904.000000 0 1 0
3.886393 -19.560529 12.672907 23.628816 -1.374665 1.004710 0.042484 -0.012992 -329094.000000 0 1 0
4.194593 -20.176329 11.485107 23.592087 -1.365819 1.062350 0.048584 -0.005397 275499.000000 0 1 0
5.592593 -20.150729 11.174607 23.710775 -1.300072 1.080046 0.076993 -0.013152 765578.000000 0 1 0
6.111293 -20.772929 9.871207 23.797126 -1.284674 1.143066 0.085902 -0.022525 -232939.000000 0 1 0
5.813193 -20.119929 8.607107 22.642594 -1.289529 1.180861 0.080915 -0.024253 -290067.000000 0 1 0
6.109593 -21.002129 7.507207 23.125197 -1.287706 1.240172 0.083454 -0.030877 89063.100000 0 1 0
7.542893 -21.568429 7.217307 23.962093 -1.234372 1.264849 0.083340 -0.017556 226969.000000 0 1 0
8.466293 -20.684729 6.633407 23.313906 -1.182297 1.282285 0.082996 -0.030760 31768.100000 0 1 0
8.962293 -19.610229 7.479907 22.821761 -1.142119 1.236872 0.088011 -0.023945 50655.400000 0 1 0
10.029193 -19.908929 8.562807 23.880365 -1.104150 1.204060 0.073138 -0.016137 46725.700000 0 1 0
9.381093 -20.100429 9.786107 24.244588 -1.134133 1.155303 0.089605 -0.013360 -470526.000000 0 1 0
10.185493 -19.841429 10.903007 24.825433 -1.096530 1.116103 0.074203 -0.001117 -226962.000000 0 1 0
9.394593 -19.855729 12.200707 25.126990 -1.128864 1.063791 0.077470 -0.011334 -54164.700000 0 0 1
8.940193 -21.154929 12.549907 26.171707 -1.170955 1.070686 0.060297 -0.014193 -408313.000000 0 0 1
8.259293 -21.151929 13.736907 26.539078 -1.198528 1.026740 0.069062 -0.020883 -259818.000000 0 0 1
8.586293 -22.347829 14.634307 28.059096 -1.203974 1.022126 0.058597 -0.008784 130558.000000 0 0 1
8.280893 -23.565129 13.973307 28.620654 -1.232871 1.060742 0.063267 -0.013374 -109755.000000 0 0 1
8.464393 -24.710129 14.811107 30.026744 -1.240776 1.054958 0.068713 -0.017220 80356.500000 0 0 1
8.395693 -26.007729 13.963507 30.689887 -1.258542 1.098438 0.076431 -0.026641 297022.000000 0 0 1
9.487593 -26.396729 13.128907 30.970469 -1.225752 1.133031 0.053733 -0.016800 -64139.700000 0 0 1
9.283893 -27.673629 12.462107 31.738376 -1.247117 1.167284 0.056521 -0.022172 -528700.000000 0 0 1
10.517493 -28.227229 11.757407 32.336214 -1.214131 1.198668 0.034350 -0.017117 -456345.000000 0 0 1
11.453993 -28.795529 12.624607 33.462773 -1.192214 1.183946 0.021632 -0.018562 -251905.000000 0 0 1
12.621593 -29.196329 11.944907 33.976625 -1.162758 1.211557 0.037915 -0.018888 -266151.000000 0 0 1
13.597893 -29.986029 12.785607 35.320481 -1.145057 1.200396 0.035706 -0.027572 -1080770.000000 0 0 1
13.999293 -29.301529 13.981507 35.355938 -1.125093 1.164239 0.032700 -0.023041 688584.000000 0 0 1
14.975793 -30.035629 14.751707 36.660964 -1.108269 1.156679 0.054751 -0.029800 612168.000000 0 0 1
16.376093 -30.311429 14.181107 37.256717 -1.075461 1.180316 0.061468 -0.025924 -661912.000000 0 0 1
16.933493 -29.011729 13.796507 36.314835 -1.042465 1.181093 0.046077 -0.026697 926395.000000 0 0 1
18.290093 -29.224929 13.371507 36.978659 -1.011594 1.200812 0.061311 -0.026794 1050280.000000 0 0 1
19.205793 -27.961729 13.340107 36.451053 -0.968944 1.196118 0.043537 -0.026608 134942.000000 0 0 1
20.568493 -28.119829 13.049907 37.203330 -0.939268 1.212400 0.044159 -0.024149 5983.190000 0 0 1
21.210493 -26.855229 13.033307 36.619058 -0.902301 1.206902 0.039645 -0.031324 218931.000000 0 0 1
22.517193 -26.805329 12.196507 37.071612 -0.872121 1.235553 0.047556 -0.018833 -271573.000000 0 0 1
23.533593 -27.569929 12.718107 38.414597 -0.864218 1.233354 0.059172 -0.024997 307936.000000 0 0 1
24.655293 -27.783429 11.806907 38.976986 -0.844981 1.263041 0.043546 -0.030700 1243210.000000 0 0 1
25.753293 -28.737429 12.433607 40.542157 -0.840108 1.259090 0.039028 -0.026409 429485.000000 0 0 1
26.720193 -28.040129 13.200707 40.920364 -0.809497 1.242326 0.021757 -0.018672 885855.000000 0 0 1
28.000493 -28.042529 12.526507 41.561093 -0.786148 1.264636 0.002600 -0.011257 1315280.000000 0 0 1
29.232193 -27.620429 13.417207 42.396116 -0.757056 1.248788 0.030176 -0.011303 405852.000000 0 0 1
29.339493 -26.261329 13.534607 41.637109 -0.730093 1.239720 0.051044 -0.014555 59082.600000 0 0 1
28.562993 -25.665429 14.549207 41.063831 -0.732016 1.208623 0.048163 -0.022654 -100409.000000 0 0 1
29.270593 -25.553829 15.937207 41.997147 -0.717708 1.181559 0.041504 -0.014374 -139663.000000 0 0 1
29.766893 -26.748029 16.532507 43.299524 -0.732032 1.179035 0.051773 -0.013645 140194.000000 0 0 1
30.315393 -26.397329 17.770107 43.950185 -0.716422 1.154557 0.065452 -0.006178 -206096.000000 0 0 1
30.563093 -27.547329 18.694207 45.193267 -0.733548 1.144337 0.043566 -0.000226 -874712.000000 0 0 1
29.433793 -28.156429 19.191407 45.027134 -0.763222 1.130488 0.030208 -0.003883 -866312.000000 0 0 1
29.713293 -29.259529 20.007007 46.252353 -0.777704 1.123464 0.051190 -0.011340 -453286.000000 0 0 1
28.476693 -30.076429 20.309907 46.130315 -0.812712 1.114894 0.038957 -0.002086 -2447460.000000 0 0 1
27.540593 -29.517129 21.146007 45.573005 -0.820025 1.088288 0.026166 0.005996 99930.400000 0 0 1
26.464293 -30.420129 21.512607 45.700496 -0.854828 1.080678 0.028181 0.006285 1269220.000000 0 0 1
25.630693 -31.142229 20.369207 45.184903 -0.882175 1.103139 0.048500 0.000102 -1410560.000000 0 0 1
26.346693 -32.069429 19.638807 45.916002 -0.883052 1.128837 0.050121 -0.007117 -575084.000000 0 0 1
25.744393 -32.524429 18.445607 45.396615 -0.901235 1.152372 0.065581 -0.001753 -296058.000000 0 0 1
26.019893 -31.527329 17.286607 44.382813 -0.880810 1.170720 0.057615 -0.005429 -454930.000000 0 0 1
27.304393 -31.675429 16.767007 45.055468 -0.859374 1.189481 0.048665 -0.014189 -455360.000000 0 0 1
27.608093 -30.641329 15.826507 44.176647 -0.837424 1.204398 0.041746 -0.029049 187407.000000 0 0 1
29.148693 -30.514329 15.657807 45.010416 -0.808283 1.215497 0.039132 -0.010575 131062.000000 0 0 1
29.825193 -31.462429 14.823607 45.816655 -0.812106 1.241326 0.083627 -0.016806 387144.000000 0 0 1
29.952393 -32.852329 15.107007 46.953626 -0.831539 1.243226 0.097431 -0.022925 -743021.000000 0 0 1
28.812593 -33.707329 14.554307 46.670948 -0.863530 1.253657 0.079613 -0.025749 -442518.000000 0 0 1
28.826293 -33.845729 13.138407 46.358454 -0.865318 1.283449 0.073082 -0.024978 111903.000000 0 0 1
28.216593 33.201168 12.798107 45.412391 0.866379 1.285106 0.062133 -0.033336 -346628.000000 0 0 1
28.449393 32.956268 11.285907 44.976163 0.858662 1.317155 0.068375 -0.034824 122023.000000 0 0 1
29.817393 32.739268 10.960507 45.618739 0.832072 1.328159 0.049659 -0.022670 594408.000000 0 0 1
30.023493 31.975468 9.812307 44.945768 0.816872 1.350709 0.050262 -0.025330 -503165.000000 0 0 1
31.423193 31.381168 9.699107 45.456215 0.784729 1.355771 0.032941 -0.016546 -369648.000000 0 0 1
31.722093 30.428968 10.701607 45.240885 0.764595 1.331986 0.025159 -0.009583 25916.100000 0 0 1
33.087093 30.099368 10.833707 46.022787 0.738149 1.333167 0.039244 -0.011494 -9431.370000 0 0 1
33.348593 29.101868 11.968707 45.850816 0.717501 1.306701 0.031539 -0.006591 -55204.000000 0 0 1
33.038693 27.756068 11.666207 44.699608 0.698723 1.306747 0.041518 -0.015485 172709.000000 0 0 1
33.218293 26.905068 12.815707 44.627122 0.680777 1.279522 0.051665 -0.021676 -115838.000000 0 0 1
33.155193 25.402068 12.552407 43.613012 0.653761 1.278854 0.051982 -0.029331 -602407.000000 0 0 1
34.181293 24.940568 11.759507 43.916725 0.630353 1.299720 0.059399 -0.022971 -813244.000000 0 0 1
34.173893 23.504868 11.632507 43.077245 0.602492 1.297363 0.075829 -0.030135 -424092.000000 0 0 1
32.981793 22.821868 10.930007 41.570439 0.605305 1.304741 0.073025 -0.026363 -398375.000000 0 0 1
31.979493 22.526468 11.859207 40.875060 0.613675 1.276430 0.080103 -0.035483 -450180.000000 0 0 1
30.850193 22.072068 11.132107 39.532700 0.621026 1.285343 0.074934 -0.021137 655029.000000 0 0 1
29.548893 21.857868 11.994107 38.662153 0.636889 1.255363 0.062358 -0.015087 714157.000000 0 0 1
28.906093 23.062768 12.407407 39.005092 0.673429 1.247075 0.052072 -0.007812 270269.000000 0 0 1
27.790493 22.702568 13.236207 38.248075 0.684972 1.217426 0.079407 -0.011541 355674.000000 0 0 1
24.083993 9.073168 25.560353 36.272479 0.360287 0.788830 0.025637 -0.016451 -365546.000000 0 0 1
23.786793 7.796368 26.052643 36.129421 0.316727 0.765419 0.028868 -0.024120 -19655.500000 0 0 1
22.407493 7.874368 26.349863 35.474170 0.337936 0.733568 0.033767 -0.024721 -327951.000000 0 0 1
21.930593 6.582968 27.101263 35.479076 0.291615 0.701514 0.040028 -0.029611 -402244.000000 0 0 1
22.366193 6.334768 28.435943 36.728446 0.276001 0.685313 0.055296 -0.029413 -1089850.000000 0 0 1
23.710593 6.226768 28.687573 37.735152 0.256816 0.707122 0.043438 -0.029835 -1297160.000000 0 0 1
24.054493 6.001868 30.170263 39.049787 0.244519 0.687854 0.044192 -0.032664 -208783.000000 0 0 1
24.118793 7.237068 30.904173 39.864260 0.291511 0.683709 0.051193 -0.022397 242762.000000 0 0 1
24.199893 6.969368 32.290587 40.949834 0.280404 0.662365 0.049302 -0.010536 -109186.000000 0 0 1
24.186193 8.182068 33.148944 41.842211 0.326209 0.656330 0.066817 -0.004078 301655.000000 0 0 1
25.224993 9.138768 32.906728 42.457863 0.347582 0.684011 0.045925 -0.001727 270507.000000 0 0 1
25.638693 9.738068 34.110142 43.768417 0.362989 0.677197 0.057735 -0.000956 -336790.000000 0 0 1
26.662093 10.851068 33.846595 44.432025 0.386513 0.704769 0.045182 0.002077 -343831.000000 0 0 1
26.150593 12.109068 33.408977 44.120775 0.433654 0.711755 0.037367 -0.000016 211559.000000 0 0 1
26.209393 13.091468 -33.818503 44.743826 0.463244 2.427710 0.047715 -0.007507 -133010.000000 0 0 1
25.674393 14.510468 33.964166 44.981026 0.514418 0.715024 0.049530 -0.012375 -426498.000000 0 0 1
26.609793 15.125168 33.117824 45.095921 0.516865 0.746034 0.052936 -0.016427 199260.000000 0 0 1
26.297493 16.510868 32.937382 45.266301 0.560646 0.755927 0.055478 -0.020934 -126868.000000 0 0 1
26.909693 17.540268 33.910428 46.708776 0.577653 0.758313 0.046646 -0.030905 -281694.000000 0 0 1
26.484293 17.412068 -32.977053 45.739303 0.581594 2.376010 0.046420 -0.041050 -11011.200000 0 0 1
27.330193 16.629868 -32.161163 45.363337 0.546631 2.358830 0.044097 -0.036687 -446241.000000 0 0 1
26.665193 16.268368 -30.793883 43.862917 0.547811 2.349066 0.049744 -0.028237 -63692.700000 0 0 1
25.700093 15.281668 -30.986333 43.060155 0.536451 2.374031 0.050859 -0.026028 -343292.000000 0 0 1
25.003293 14.969568 -29.805373 41.684684 0.539466 2.367449 0.063454 -0.021967 140704.000000 0 0 1
24.327693 13.553968 -29.974853 40.915015 0.508310 2.392949 0.056369 -0.013355 -413429.000000 0 0 1
23.344293 13.632468 -31.014443 41.142385 0.528553 2.424671 0.058182 -0.019574 527310.000000 0 0 1
22.698793 12.425468 -31.440983 40.720546 0.500850 2.452960 0.046555 -0.001956 133886.000000 0 0 1
21.869093 11.757168 -30.351223 39.213326 0.493285 2.455935 0.054858 0.001466 -781411.000000 0 0 1
20.609693 12.319568 -30.034403 38.452523 0.538768 2.467186 0.060131 0.004673 -144683.000000 0 0 1
19.898893 11.458968 -29.214953 37.158947 0.522480 2.475458 0.055207 0.007813 -631058.000000 0 0 1
18.574993 12.092768 -28.800013 36.341521 0.577095 2.485665 0.060799 -0.006149 64792.000000 0 0 1
17.614693 12.298268 -29.850573 36.777459 0.609505 2.517774 0.050212 0.005212 -702501.000000 0 0 1
16.415793 12.708668 -29.343073 35.944463 0.658793 2.525850 0.045747 -0.012214 -1386980.000000 0 0 1
15.439393 13.134568 -30.465823 36.593142 0.704911 2.554501 0.043410 -0.009536 134474.000000 0 0 1
14.807193 12.154768 -31.260733 36.663671 0.687337 2.591804 0.035836 -0.006891 -100367.000000 0 0 1
13.689193 11.508768 -30.683333 35.514964 0.699081 2.613868 0.042362 -0.010973 117454.000000 0 0 1
12.635493 11.062868 -31.742723 35.911602 0.719135 2.654960 0.049661 -0.007896 348583.000000 0 0 1
12.010293 12.179468 -32.362193 36.604618 0.792392 2.655364 0.063106 -0.010617 -732676.000000 0 0 1
10.940693 11.790568 -33.128113 36.826459 0.822769 2.689589 0.072789 -0.008669 -637652.000000 0 0 1
10.454793 12.888368 34.117745 37.939864 0.889275 0.452725 0.078016 -0.004888 -9669.690000 0 0 1
11.339793 13.198268 33.048299 37.349368 0.860992 0.484641 0.067076 0.003870 214444.000000 0 0 1
10.654093 13.680568 31.909753 36.316663 0.909132 0.497762 0.074441 -0.004304 262298.000000 0 0 1
11.584293 13.809968 30.605003 35.518689 0.872820 0.532266 0.067344 -0.001620 627141.000000 0 0 1
11.898993 12.479968 30.122193 34.708532 0.809225 0.519915 0.055651 -0.001050 20248.700000 0 0 1
11.985593 12.430968 28.678573 33.476021 0.803637 0.541978 0.069473 -0.002903 -290004.000000 0 0 1
12.472093 11.029868 28.154153 32.708828 0.724109 0.534053 0.076756 0.002198 67670.800000 0 0 1
11.765393 9.893968 28.613533 32.481523 0.699210 0.493000 0.068918 -0.012260 181139.000000 0 0 1
12.340893 8.732968 28.032633 31.849504 0.615838 0.494599 0.061153 -0.018647 -2519.800000 0 0 1
11.586593 7.389768 28.363243 31.517160 0.567741 0.451187 0.053347 -0.010382 227769.000000 0 0 1
10.350293 7.311268 27.661543 30.426045 0.614997 0.429581 0.047242 -0.020708 517014.000000 0 0 1
9.473593 6.297768 28.237993 30.443310 0.586689 0.382967 0.033713 -0.031464 178299.000000 0 0 1
9.643993 4.879468 27.706483 29.739957 0.468404 0.371938 0.044557 -0.021618 130808.000000 0 0 1
10.936193 4.431768 28.105663 30.482277 0.385014 0.397497 0.036319 -0.016860 497336.000000 0 0 1
11.329093 3.188768 27.550933 29.959481 0.274369 0.403719 0.020188 -0.019513 -207572.000000 0 0 1
11.808093 2.076568 28.496953 30.916331 0.174080 0.398242 0.023814 -0.011003 182850.000000 0 0 1
10.751593 1.654968 29.344823 31.296235 0.152729 0.354998 0.021598 0.001584 366153.000000 0 0 1
11.099993 0.480168 29.971873 31.964881 0.043231 0.354990 0.036184 0.004411 628019.000000 0 0 1
10.060793 0.169768 31.117923 32.704335 0.016873 0.312746 0.056236 0.008825 537393.000000 0 0 1
10.206993 1.099068 32.171463 33.769716 0.107265 0.308889 0.042670 -0.001452 142630.000000 0 0 1
9.055793 1.108168 32.981869 34.220449 0.121766 0.269869 0.053456 -0.000488 -102883.000000 0 0 1
9.217593 2.224968 34.037559 35.333694 0.236852 0.271695 0.050132 -0.008457 -55814.300000 0 0 1
9.193593 3.583868 33.621383 35.039459 0.371702 0.285471 0.031807 -0.008434 204503.000000 0 0 1
10.188293 3.947868 32.673875 34.452418 0.369676 0.322718 0.036756 -0.008021 -303890.000000 0 0 1
9.977393 5.309168 31.920033 33.861839 0.489012 0.340299 0.037530 -0.009713 -13498.500000 0 0 1
10.194493 6.462168 32.699128 34.855707 0.564965 0.353611 0.041332 -0.014532 63590.600000 0 0 1
10.289093 7.652968 31.932143 34.410683 0.639518 0.381864 0.046679 -0.017101 -89138.700000 0 0 1
10.450193 8.971168 32.809387 35.582921 0.709390 0.397441 0.070865 -0.026158 1200560.000000 0 0 1
9.175993 9.442268 33.345314 35.850596 0.799699 0.376060 0.070935 -0.024755 1085020.000000 0 0 1
8.723593 8.783868 -33.742973 35.942254 0.788841 2.789957 0.065637 -0.018844 -93278.400000 0 0 1
7.225593 8.925168 -33.405823 35.324450 0.890244 2.810493 0.066200 -0.020002 62281.400000 0 0 1
6.731793 8.319768 -32.234313 33.964489 0.890512 2.821033 0.067504 -0.024629 -1815.310000 0 0 1
5.344393 8.526268 -32.045063 33.587882 1.010893 2.837324 0.078965 -0.022699 258029.000000 0 0 1
4.774893 7.834768 -30.821473 32.158146 1.023458 2.852260 0.072686 -0.018828 -438658.000000 0 0 1
5.450293 8.318668 -29.702353 31.323085 0.990783 2.818499 0.073503 -0.023249 -40626.400000 0 0 1
5.213093 7.581368 -28.494733 29.943334 0.968428 2.829268 0.068729 -0.022492 -402989.000000 0 0 1
3.792393 7.637768 -27.921043 29.194218 1.109927 2.845177 0.064715 -0.016407 -444809.000000 0 0 1
2.927493 6.840168 -28.680463 29.629834 1.166400 2.887767 0.063410 -0.012786 -425555.000000 0 0 1
1.578693 6.968468 -28.264793 29.153907 1.348009 2.893990 0.070012 -0.001461 514874.000000 0 0 1
0.599893 6.274368 -29.286423 29.957004 1.475476 2.929608 0.072717 -0.010829 11017.700000 0 0 1
0.490093 7.172668 -30.405393 31.243803 1.502575 2.909406 0.060748 -0.012902 90941.800000 0 0 1
-0.072707 6.474568 -31.482413 32.141369 -1.559567 2.938752 0.087336 -0.013453 -230359.000000 0 0 1
-0.273707 7.328068 -32.759103 33.569842 -1.533463 2.921372 0.093723 -0.026673 20996.700000 0 0 1
0.930693 7.731168 -33.376973 34.273305 1.450991 2.912388 0.059729 -0.018668 116452.000000 0 0 1
1.683793 6.844868 34.028544 34.750960 1.329592 0.204259 0.074255 -0.019186 157933.000000 0 0 1
1.260393 6.580768 32.550813 33.233275 1.381561 0.203008 0.089729 -0.027783 373236.000000 0 0 1
-0.001507 5.946968 32.309566 32.852314 -1.570543 0.182025 0.098054 -0.031214 263793.000000 0 0 1
-0.114207 5.709068 30.916903 31.439806 -1.550794 0.182637 0.118156 -0.036386 164168.000000 0 0 1
0.597893 4.466168 30.311313 30.644410 1.437716 0.147577 0.115524 -0.030898 63272.300000 0 0 1
0.502593 4.376468 28.870443 29.204599 1.456457 0.151418 0.108244 -0.029756 167805.000000 0 0 1
1.526393 3.563668 28.330463 28.594488 1.166116 0.135998 0.106850 -0.028672 -282045.000000 0 0 1
1.844693 3.918768 26.874063 27.220854 1.130835 0.159794 0.104555 -0.023278 34081.000000 0 0 1
2.318293 5.228868 26.560853 27.169735 1.153474 0.212106 0.091121 -0.025294 115653.000000 0 0 1
2.326693 5.457168 25.152323 25.842476 1.167778 0.231628 0.071179 -0.019265 -676980.000000 0 0 1
2.766093 6.885568 24.851593 25.935767 1.188805 0.290161 0.057055 -0.015540 1537590.000000 0 0 1
4.208393 7.096468 24.867823 26.200746 1.035520 0.320346 0.043642 -0.010439 1533450.000000 0 0 1
4.894293 6.607868 23.714113 25.099347 0.933289 0.333782 0.044395 -0.019641 -1202200.000000 0 0 1
6.403893 6.701768 23.696763 25.445238 0.808123 0.372872 0.045226 -0.017703 -251334.000000 0 0 1
7.277593 5.927868 24.550843 26.283966 0.683542 0.365174 0.045702 -0.015242 360547.000000 0 0 1
7.094093 4.504268 24.668743 26.060727 0.565710 0.328315 0.055220 -0.013243 -877196.000000 0 0 1
7.421193 3.639168 23.431853 24.846919 0.455918 0.339117 0.050149 -0.012360 -38178.300000 0 1 0
6.551193 3.810868 22.344053 23.594439 0.526859 0.327016 0.053576 -0.008563 623230.000000 0 1 0
5.272393 3.146668 22.506953 23.329436 0.538078 0.266324 0.042601 -0.010531 1017130.000000 0 1 0
4.159693 3.520168 21.491353 22.171443 0.702317 0.248323 0.042700 -0.005090 303555.000000 0 1 0
3.669693 4.855468 21.527153 22.370976 0.923603 0.275532 0.033209 -0.009076 -250538.000000 0 1 0
2.576293 4.994568 20.663253 21.413852 1.094574 0.265551 0.030595 -0.008330 -84095.900000 0 1 0
1.887593 6.388268 20.780953 21.822488 1.283493 0.310200 0.020880 -0.007782 201382.000000 0 1 0
2.570393 7.408268 20.057553 21.535896 1.236830 0.372681 0.016401 -0.008126 -389394.000000 0 1 0
1.879693 8.606768 20.085953 21.932971 1.355775 0.413331 0.019508 -0.012434 -105059.000000 0 1 0
2.671093 9.851068 19.651253 22.143849 1.306015 0.479043 0.013704 -0.015211 -659411.000000 0 1 0
2.586193 10.116368 18.273753 21.046600 1.320512 0.519128 0.004188 -0.015334 -1690.480000 0 1 0
3.438793 11.159368 17.786953 21.277512 1.271877 0.580933 0.005677 -0.018607 1291140.000000 0 1 0
5.000493 10.923968 17.917453 21.572509 1.141513 0.590668 0.010407 -0.019431 705310.000000 0 1 0
5.427693 9.817968 17.124653 20.472081 1.065781 0.579953 0.016725 -0.017255 -420836.000000 0 1 0
6.750593 9.495768 17.440253 20.973854 0.952789 0.588952 0.009691 -0.011154 -334036.000000 0 1 0
6.898693 7.998168 17.844153 20.735874 0.859070 0.534458 0.022542 -0.014570 -303179.000000 0 1 0
6.540993 7.880768 19.191953 21.753670 0.878032 0.490198 0.033205 -0.015649 -21192.700000 0 1 0
6.745493 6.572868 19.669353 21.807974 0.772437 0.446569 0.025578 -0.024121 -380071.000000 0 1 0
8.158893 6.183368 20.106953 22.563048 0.648518 0.470933 0.047775 -0.017479 -594697.000000 0 1 0
9.019093 6.067968 18.980553 21.872944 0.592231 0.520111 0.048324 -0.019297 -188261.000000 0 1 0
10.327193 5.700168 19.389453 22.695676 0.504345 0.546548 0.054840 -0.014085 169920.000000 0 1 0
10.665193 4.186268 19.433053 22.559139 0.374039 0.532723 0.064962 -0.007633 -301198.000000 0 1 0
9.963693 3.398968 20.390953 22.948184 0.328756 0.476589 0.051850 -0.012970 148466.000000 0 1 0
10.174293 2.071668 20.016453 22.549201 0.200872 0.478516 0.054081 -0.031871 434601.000000 0 1 0
9.267093 1.069968 20.843453 22.835792 0.114950 0.420821 0.058705 -0.027375 140507.000000 0 1 0
9.483593 1.060968 22.222153 24.184464 0.111411 0.405613 0.050849 -0.023674 36645.500000 0 1 0
8.782593 0.076168 22.963353 24.585673 0.008672 0.365308 0.059887 -0.028578 -546220.000000 0 1 0
9.078593 0.030068 24.474973 26.104522 0.003312 0.355203 0.059470 -0.017888 -315070.000000 0 0 1
10.377593 -0.328032 24.878903 26.958521 -0.031599 0.395358 0.053028 -0.024710 -131855.000000 0 0 1
10.567793 -1.740432 24.875933 27.083563 -0.163227 0.406556 0.051264 -0.020513 -419599.000000 0 0 1
12.019793 -2.193132 25.090283 27.907124 -0.180475 0.453170 0.051760 -0.016330 -132138.000000 0 0 1
12.244593 -3.577032 25.016323 28.080984 -0.284222 0.471554 0.054826 -0.004384 -396714.000000 0 0 1
13.592693 -3.926332 25.189703 28.891150 -0.281202 0.511762 0.048649 -0.001567 -319318.000000 0 0 1
13.902493 -5.451232 25.250603 29.335784 -0.373682 0.534067 0.046873 -0.002427 333.172000 0 0 1
13.726093 -6.190232 23.997513 28.330288 -0.423671 0.560363 0.067544 -0.012899 42566.500000 0 0 1
13.232393 -7.466932 24.204253 28.577914 -0.513750 0.560562 0.070845 -0.011096 -41252.600000 0 0 1
13.096293 -8.225732 22.882253 27.618347 -0.560823 0.594343 0.095900 -0.009273 126349.000000 0 0 1
12.758893 -9.564432 23.130053 28.093897 -0.643263 0.603574 0.099706 -0.004913 -237665.000000 0 0 1
12.778093 -10.293132 21.947453 27.402900 -0.678104 0.641971 0.087440 -0.014093 40204.800000 0 0 1
12.257293 -11.727432 22.113353 27.870671 -0.763310 0.654377 0.109163 -0.009272 824181.000000 0 0 1
10.835793 -11.696332 22.298353 27.412317 -0.823571 0.620749 0.117144 -0.007777 543646.000000 0 0 1
10.233793 -13.014332 22.226253 27.714792 -0.904435 0.640221 0.095622 -0.005998 26206.700000 0 0 1
8.728693 -13.011032 22.544753 27.454379 -0.979890 0.607336 0.079704 -0.002607 15919.300000 0 0 1
8.012793 -12.359932 21.467753 26.035307 -0.995626 0.601367 0.075344 -0.014037 1531260.000000 0 0 1
6.630393 -12.155832 21.906153 25.915361 -1.071453 0.563677 0.056486 -0.011456 1882880.000000 0 0 1
5.876393 -10.969732 21.191153 24.575028 -1.079005 0.530994 0.044879 -0.012434 319734.000000 0 1 0
6.013593 -9.710532 21.765253 24.580154 -1.016317 0.483269 0.057346 -0.009291 323717.000000 0 1 0
5.134293 -8.688732 21.201053 23.480624 -1.037085 0.444288 0.043309 -0.005265 410807.000000 0 1 0
5.203493 -7.218332 21.717153 23.469457 -0.946199 0.388873 0.046652 -0.010149 -139852.000000 0 1 0
4.207293 -6.318532 21.312553 22.624104 -0.983349 0.342171 0.012205 -0.012565 -161976.000000 0 1 0
4.616693 -4.961232 21.605753 22.643680 -0.821355 0.303947 0.038191 -0.031691 126725.000000 0 1 0
-8.387407 -15.653232 -20.507893 27.128323 1.078900 2.427914 0.076846 -0.025367 -160566.000000 0 0 1
-7.368207 -15.304232 -19.632093 25.960143 1.122099 2.428343 0.066591 -0.023911 -358208.000000 0 0 1
-6.670507 -14.108132 -19.872993 25.267981 1.129134 2.475900 0.062516 -0.032078 440167.000000 0 0 1
-5.925907 -13.587232 -18.582293 23.770377 1.159530 2.468250 0.061767 -0.032475 8746.140000 0 1 0
-4.957007 -14.411732 -18.040593 23.616370 1.239516 2.440135 0.051357 -0.023647 -453.455000 0 1 0
-4.170407 -13.887632 -16.966893 22.318917 1.279068 2.434421 0.034004 -0.019129 99802.600000 0 1 0
-3.212007 -14.885732 -16.343193 22.338351 1.358277 2.391492 0.023405 -0.007627 -955060.000000 0 1 0
-2.063307 -15.055132 -17.082593 22.863272 1.434595 2.414580 0.018978 -0.007383 -1692820.000000 0 1 0
-1.076407 -15.534132 -16.266793 22.518358 1.501614 2.378033 0.019325 -0.005955 715315.000000 0 1 0
0.374493 -15.674132 -16.945493 23.086108 -1.546908 2.395008 0.017469 -0.001242 1652390.000000 0 1 0
0.419293 -16.590432 -18.025793 24.501988 -1.545529 2.397477 0.036567 -0.004325 -166766.000000 0 1 0
0.276493 -18.003932 -17.720793 25.263501 -1.555440 2.348210 0.029596 0.003293 -223199.000000 0 0 1
0.079593 -18.669732 -19.114493 26.719451 -1.566533 2.367960 0.053636 -0.010225 -879783.000000 0 0 1
-1.192407 -18.429632 -19.571893 26.909704 1.506186 2.385201 0.055606 -0.009369 -1079470.000000 0 0 1
-1.483207 -18.931932 -20.881493 28.225072 1.492612 2.403600 0.082512 -0.015250 970648.000000 0 0 1
-2.753507 -18.178532 -21.484893 28.277932 1.420469 2.433765 0.070738 -0.013518 1089460.000000 0 0 1
-2.499607 -16.800432 -21.703893 27.560143 1.423097 2.477555 0.064725 -0.011900 -68995.900000 0 0 1
-3.146307 -16.060732 -20.694693 26.384023 1.377346 2.472467 0.060422 -0.010815 -197894.000000 0 0 1
-2.508307 -14.709432 -20.431793 25.300536 1.401897 2.510806 0.056746 -0.018614 -305582.000000 0 0 1
-2.668107 -13.769832 -21.497593 25.668532 1.379403 2.563502 0.057600 -0.027728 -131958.000000 0 0 1
-1.923107 -12.645532 -21.178593 24.741475 1.419875 2.598270 0.049510 -0.017282 -133756.000000 0 1 0
-2.001807 -11.610332 -22.349893 25.265089 1.400059 2.656465 0.067819 -0.015710 376460.000000 0 0 1
-3.286107 -11.021332 -22.488993 25.259118 1.281030 2.668869 0.071729 -0.021406 367121.000000 0 0 1
-3.285507 -10.276132 -23.724193 26.062056 1.261345 2.714796 0.070692 -0.022166 -20132.000000 0 0 1
-4.281107 -9.089532 -23.770593 25.806754 1.130622 2.741692 0.069032 -0.019211 -39137.200000 0 0 1
-5.628907 -9.504232 -23.758493 26.200782 1.036093 2.706392 0.060147 -0.024453 163908.000000 0 0 1
-6.443107 -8.399232 -23.527793 25.799569 0.916437 2.718796 0.073126 -0.028409 -983074.000000 0 0 1
-7.950207 -8.607332 -23.268193 26.051886 0.825065 2.675093 0.049378 -0.033828 529457.000000 0 0 1
-8.864707 -8.920832 -24.322993 27.381969 0.788554 2.664394 0.042662 -0.025656 490076.000000 0 0 1
-8.815107 -7.980532 -25.379433 28.026962 0.735749 2.703438 0.039264 -0.028332 -913886.000000 0 0 1
-9.907107 -8.263932 -26.429153 29.409921 0.695215 2.687473 0.039204 -0.026290 57709.500000 0 0 1
-10.256807 -7.072432 -27.101133 29.827718 0.603668 2.710689 0.057740 -0.036849 107978.000000 0 0 1
-11.097507 -7.329232 -28.215613 31.192837 0.583679 2.701129 0.072273 -0.029029 -153450.000000 0 0 1
-11.631907 -6.110432 -28.940353 31.783371 0.483695 2.715409 0.076510 -0.028789 -375260.000000 0 0 1
-10.760407 -5.355032 -29.705693 32.045138 0.461774 2.757117 0.044569 -0.021829 -253560.000000 0 0 1
-11.519107 -4.790932 -30.758543 33.192330 0.394148 2.756267 0.074705 -0.023826 238484.000000 0 0 1
-10.709007 -3.795432 -31.613063 33.592765 0.340602 2.796569 0.049310 -0.016576 -206393.000000 0 0 1
-9.787407 -4.419932 -32.459193 34.189594 0.424178 2.822078 0.047947 -0.009876 -103535.000000 0 0 1
-9.120207 -3.496032 -33.273163 34.677136 0.366052 2.856064 0.045982 -0.011394 48019.900000 0 0 1
-7.990607 -3.983132 34.005801 35.158351 0.462428 0.256758 0.040502 -0.011019 503178.000000 0 0 1
-6.723907 -4.125632 -33.631443 34.544257 0.550342 2.911194 0.030241 -0.012790 -428129.000000 0 0 1
-5.741607 -4.397232 33.682639 34.450282 0.653571 0.211499 0.025715 -0.010822 723184.000000 0 0 1
-4.244707 -3.964232 33.943617 34.436925 0.751244 0.169466 0.042145 -0.015222 1051320.000000 0 0 1
-4.079707 -2.611632 34.046476 34.389347 0.569421 0.141328 0.071491 -0.023951 -401346.000000 0 0 1
-2.760607 -2.166232 -34.080640 34.260816 0.665338 3.038991 0.081074 -0.026461 -394052.000000 0 0 1
-2.742707 -0.739932 -33.479233 33.599538 0.263508 3.056944 0.089112 -0.026161 -174795.000000 0 0 1
-3.124807 -0.705932 -32.163983 32.323127 0.222182 3.042319 0.084797 -0.028432 87929.000000 0 0 1
-3.366207 0.615368 -31.673783 31.858100 -0.180811 3.033971 0.107099 -0.031707 -734211.000000 0 0 1
-3.924507 0.596168 -30.220573 30.480160 -0.150756 3.010988 0.132411 -0.042077 457328.000000 0 0 1
-5.044407 -0.221132 -29.924493 30.347491 0.043809 2.974434 0.103668 -0.039182 701779.000000 0 0 1
-6.274707 0.258268 -30.486363 31.126467 -0.041137 2.938440 0.094814 -0.038905 229786.000000 0 0 1
-7.406207 -0.811632 -30.462163 31.360070 0.109152 2.901718 0.076525 -0.037324 74486.700000 0 0 1
-7.880407 -1.095732 -29.163953 30.229747 0.138159 2.875264 0.063056 -0.031300 -761621.000000 0 0 1
-9.064807 -1.785632 -29.275773 30.699024 0.194495 2.835899 0.051596 -0.027491 -910742.000000 0 0 1
-9.527007 -2.526332 -28.022683 29.705504 0.259210 2.803382 0.044915 -0.029321 -131855.000000 0 0 1
-10.105607 -1.740232 -26.974233 28.857597 0.170532 2.778311 0.051915 -0.028125 327570.000000 0 0 1
-10.214407 -2.430632 -25.693753 27.756279 0.233616 2.753656 0.042529 -0.030898 -264196.000000 0 0 1
-11.178107 -1.719932 -24.749093 27.210767 0.152669 2.712956 0.050219 -0.030156 -330552.000000 0 0 1
-10.651507 -0.509432 -24.381593 26.611580 0.047791 2.729295 0.065979 -0.029929 -39771.200000 0 0 1
-11.475207 0.224868 -23.481993 26.136850 -0.019593 2.686965 0.076120 -0.035407 441232.000000 0 0 1
-10.818107 1.607668 -22.970393 25.441206 -0.147529 2.697222 0.085249 -0.035203 491441.000000 0 0 1
-10.722307 2.598468 -23.963393 26.381131 -0.237758 2.710126 0.073034 -0.032707 62390.300000 0 0 1
-9.941707 3.741868 -23.635793 25.913120 -0.359981 2.719215 0.075012 -0.022530 -343824.000000 0 0 1
-10.090407 4.901668 -24.645693 27.078642 -0.452203 2.714448 0.088812 -0.024358 758646.000000 0 0 1
-11.375507 5.558268 -24.708493 27.763395 -0.454500 2.668068 0.081893 -0.025919 874073.000000 0 0 1
-12.254707 4.846268 -25.586673 28.780931 -0.376588 2.665985 0.068489 -0.028507 -190021.000000 0 0 1
-13.673107 5.448368 -25.615923 29.543427 -0.379190 2.620067 0.051313 -0.019135 -73481.100000 0 0 1
-13.668007 6.642668 -26.305963 30.379979 -0.452386 2.617739 0.056999 -0.016373 -9346.130000 0 0 1
-14.891607 7.322268 -26.168053 30.986167 -0.456989 2.576441 0.056545 -0.017293 -597510.000000 0 0 1
-14.814107 8.827168 -26.406253 31.538339 -0.537372 2.563076 0.070774 -0.010401 -302027.000000 0 0 1
-14.322107 9.640168 -25.374983 30.691128 -0.592441 2.544165 0.101997 -0.024447 157474.000000 0 0 1
-14.996707 10.912668 -25.365433 31.422806 -0.629057 2.510240 0.083061 -0.019494 89838.600000 0 0 1
-14.400507 11.883868 -24.350993 30.685041 -0.689943 2.487464 0.092257 -0.025003 -123275.000000 0 0 1
-14.659707 11.399268 -23.025193 29.580565 -0.660927 2.462892 0.113758 -0.030877 66517.500000 0 0 1
-14.316407 12.299868 -21.974493 28.967647 -0.709779 2.431939 0.111160 -0.028933 -389069.000000 0 0 1
-15.243607 12.092968 -20.779193 28.467214 -0.670651 2.389022 0.117166 -0.036614 624298.000000 0 0 1
-16.612907 12.445568 -21.032793 29.550960 -0.642957 2.362778 0.097950 -0.034452 680968.000000 0 0 1
-17.376907 12.345268 -19.848393 29.125955 -0.617699 2.320562 0.101699 -0.031160 18046.300000 0 0 1
-18.884307 12.598968 -20.051093 30.288568 -0.588348 2.294283 0.108472 -0.028646 -72905.700000 0 0 1
-19.261207 13.961068 -20.289993 31.266425 -0.627196 2.276985 0.100785 -0.027223 582365.000000 0 0 1
-20.657707 14.060768 -20.555593 32.357046 -0.597624 2.259160 0.077370 -0.023695 543106.000000 0 0 1
-21.188907 15.444168 -21.055593 33.627817 -0.629847 2.247384 0.077352 -0.027196 -20747.700000 0 0 1
-20.949107 15.544668 -22.427093 34.401690 -0.638375 2.280908 0.085420 -0.028730 259423.000000 0 0 1
-21.174107 16.870068 -22.827493 35.412377 -0.672744 2.271321 0.064847 -0.016209 34264.700000 0 0 1
-21.237607 17.008868 -24.377793 36.532374 -0.675280 2.301364 0.060296 -0.015217 -650983.000000 0 0 1
-19.967907 17.071968 -24.920693 36.210638 -0.707373 2.329822 0.076596 -0.022931 -657135.000000 0 0 1
-19.924307 16.668168 -26.259953 36.937663 -0.696648 2.361611 0.066331 -0.022723 -46985.900000 0 0 1
-18.946707 17.460668 -27.152163 37.431171 -0.744604 2.382396 0.042834 -0.014600 253001.000000 0 0 1
-19.625607 18.671468 -27.540473 38.629857 -0.760489 2.364467 0.031904 -0.023366 -20052.900000 0 0 1
-18.912307 19.807468 -27.339993 38.697369 -0.808513 2.355348 0.021224 -0.025162 -1929670.000000 0 0 1
-19.869307 20.974668 -27.420723 39.832425 -0.812455 2.330080 0.053436 -0.013387 -114467.000000 0 0 1
-20.775407 21.119668 -26.358833 39.654079 -0.793615 2.297914 0.067309 -0.004432 -413342.000000 0 0 1
-21.852307 20.245268 -26.414873 39.813813 -0.747243 2.296230 0.105656 -0.024154 -1464020.000000 0 0 1
-23.076007 20.652568 -25.554913 40.150769 -0.730035 2.260714 0.098238 -0.011984 228530.000000 0 0 1
-22.882707 20.411668 -24.162693 39.039598 -0.728385 2.238173 0.056429 -0.008021 177850.000000 0 0 1
-23.892907 21.050568 -23.377393 39.503163 -0.722240 2.204068 0.062226 -0.020843 104813.000000 0 0 1
-23.883707 20.717268 -21.868793 38.443215 -0.714522 2.175915 0.067712 -0.014586 -270949.000000 0 0 1
-22.797307 21.371568 -21.267093 37.798814 -0.753130 2.168371 0.069461 -0.016729 1134750.000000 0 0 1
-21.627107 20.526868 -20.978393 36.457880 -0.759304 2.183907 0.057778 -0.012409 1144430.000000 0 0 1
-21.730107 19.701968 -19.671893 35.317821 -0.736486 2.161561 0.071485 -0.019627 -1150450.000000 0 0 1
-22.661107 18.660668 -19.920593 35.476419 -0.688887 2.167014 0.090852 -0.026479 118088.000000 0 0 1
-23.171507 18.140668 -18.722193 34.878691 -0.664219 2.137413 0.064128 -0.014474 -29796.600000 0 0 1
-24.249007 19.045168 -18.092493 35.750120 -0.665775 2.101432 0.043612 -0.011285 -1615060.000000 0 0 1
-25.448587 19.186768 -18.760693 36.982783 -0.646019 2.102824 0.038359 -0.011390 -642280.000000 0 0 1
-26.314247 20.061868 -18.081693 37.707635 -0.651387 2.070908 0.028192 -0.019453 475844.000000 0 0 1
-27.773937 20.152568 -18.685493 39.072564 -0.627697 2.069429 0.002707 -0.001944 1316690.000000 0 0 1
-28.665537 19.068368 -18.445493 39.058314 -0.586988 2.062644 0.007657 -0.007650 360298.000000 0 0 1
-29.147317 18.903068 -17.144093 38.740315 -0.575345 2.029224 0.003681 -0.003313 -450750.000000 0 0 1
-29.892797 17.550168 -16.823793 38.530867 -0.530883 2.022647 0.005592 -0.003392 303978.000000 0 0 1
-29.050907 16.427168 -16.645193 37.294363 -0.514636 2.033444 0.015904 -0.008453 -253094.000000 0 0 1
-29.794447 15.373868 -16.157293 37.217241 -0.476364 2.019874 0.019383 -0.004957 -112605.000000 0 0 1
-28.998447 14.414368 -15.244293 35.792072 -0.461304 2.010767 0.041476 -0.005905 -105877.000000 0 0 1
-28.532987 14.957968 -14.014993 35.132495 -0.482846 1.981133 0.050218 -0.005009 315456.000000 0 0 1
-29.508997 15.075968 -12.969593 35.584773 -0.472325 1.943860 0.024763 0.000726 305446.000000 0 0 1
-28.932627 15.785268 -11.737593 34.986322 -0.499449 1.912923 0.040504 -0.006188 46123.200000 0 0 1
-28.548647 17.113968 -11.925093 35.357050 -0.540027 1.914818 0.037097 -0.000698 -61493.700000 0 0 1
-29.588487 18.037768 -11.697193 36.574089 -0.547464 1.896338 0.011715 -0.001484 -236052.000000 0 0 1
-29.135307 19.397368 -12.131493 37.044529 -0.587380 1.904436 0.050433 -0.010565 156941.000000 0 0 1
-28.130357 19.970868 -11.309993 36.305213 -0.617366 1.887594 0.022912 -0.019464 -54207.600000 0 0 1
-27.709887 21.165668 -11.948093 36.858924 -0.652294 1.900917 0.005693 -0.023747 121028.000000 0 0 1
-26.572737 21.913568 -11.208193 36.220690 -0.689600 1.885402 0.027630 -0.016382 245827.000000 0 0 1
-27.080317 22.882368 -10.321793 36.925408 -0.701573 1.854102 0.041423 -0.017572 -780767.000000 0 0 1
-26.156347 23.798668 -9.925493 36.729369 -0.738237 1.844431 0.044001 -0.015817 -787028.000000 0 0 1
-26.808357 24.842168 -8.976093 37.634978 -0.747349 1.811621 0.066366 0.002506 185014.000000 0 0 1
-26.597597 24.538768 -7.603093 36.978241 -0.745158 1.777883 0.050345 -0.000736 -121644.000000 0 0 1
-27.426147 25.245268 -6.708593 37.875089 -0.744016 1.748860 0.060054 -0.006349 90017.100000 0 0 1
-27.449137 24.532968 -5.363393 37.203328 -0.729357 1.715465 0.067647 -0.007088 -140979.000000 0 0 1
-28.051237 23.275668 -5.358893 36.842182 -0.692623 1.716770 0.074510 -0.010780 -136377.000000 0 0 1
-27.607447 22.437068 -4.270593 35.830589 -0.682448 1.690269 0.065064 -0.006765 173166.000000 0 0 1
-27.460077 20.922068 -4.660693 34.835482 -0.651079 1.704990 0.077682 -0.010213 22216.900000 0 0 1
-26.568157 20.534468 -5.688893 34.057229 -0.657995 1.738622 0.064198 -0.020812 -197699.000000 0 0 1
-26.949597 20.702568 -7.048093 34.706667 -0.655045 1.775295 0.052017 -0.014679 -256963.000000 0 0 1
-28.011187 19.716468 -7.596593 35.086663 -0.613324 1.789034 0.044110 -0.017647 145227.000000 0 0 1
-27.569087 18.367668 -7.415993 33.947353 -0.587708 1.791028 0.042299 -0.011820 291776.000000 0 0 1
-27.812327 17.604668 -8.600993 34.020978 -0.564318 1.826384 0.026166 -0.006289 -145591.000000 0 0 1
-27.247417 16.183968 -8.553593 32.825394 -0.535969 1.834418 0.055206 -0.003239 566974.000000 0 0 1
-28.071087 15.283868 -7.755493 32.889668 -0.498588 1.808841 0.047044 0.001768 566922.000000 0 0 1
-27.860547 13.999868 -8.318193 32.270710 -0.465644 1.831502 0.060332 -0.009367 -212763.000000 0 0 1
-28.598467 12.903068 -7.605393 32.283177 -0.423835 1.808616 0.065599 -0.014694 -824310.000000 0 0 1
-29.952157 12.869468 -7.973993 33.560982 -0.405817 1.810688 0.072459 -0.009998 -628845.000000 0 0 1
-30.642657 12.144768 -6.965293 33.689511 -0.377343 1.779048 0.086281 -0.011427 -75099.200000 0 0 1
-31.283567 10.839168 -7.456693 33.937463 -0.333537 1.792322 0.075184 -0.008239 -322704.000000 0 0 1
-30.375517 9.854768 -7.885193 32.893233 -0.313717 1.812875 0.097384 -0.002023 -237522.000000 0 0 1
-31.015547 8.658468 -8.236993 33.238250 -0.272235 1.821222 0.089523 -0.001363 -718350.000000 0 0 1
-30.048647 7.513968 -8.440693 32.103368 -0.245035 1.836846 0.137782 -0.010876 -557738.000000 0 0 1
-29.419757 7.595068 -9.689693 31.891963 -0.252646 1.879505 0.125890 -0.017150 78930.300000 0 0 1
-28.462007 6.565868 -9.853093 30.826611 -0.226723 1.896135 0.152675 -0.032863 -290108.000000 0 0 1
-27.738027 6.680668 -11.180393 30.643607 -0.236347 1.944271 0.121982 -0.030655 -105694.000000 0 0 1
-26.714767 7.673368 -11.201193 29.967083 -0.279703 1.953881 0.137556 -0.032216 614493.000000 0 0 1
-25.829887 7.455068 -12.288593 29.559611 -0.280986 1.999533 0.120945 -0.017764 -36021.100000 0 0 1
-31.159227 25.442768 33.511675 52.357084 -0.684745 0.876220 0.014562 0.012643 -79473.800000 0 0 1
-31.086957 26.781368 33.151589 52.751004 -0.711132 0.891232 -0.001299 0.001064 261852.000000 0 0 1
-32.177127 27.088268 32.322162 53.045867 -0.699743 0.915588 0.029625 -0.013274 -284108.000000 0 0 1
-32.161967 28.570368 31.898773 53.555484 -0.726329 0.932758 0.047962 -0.025283 434901.000000 0 0 1
-33.363167 29.010068 31.246763 54.139128 -0.715720 0.955554 0.084489 -0.024493 522683.000000 0 0 1
-33.607227 30.390068 31.071613 54.940396 -0.735170 0.969695 0.114654 -0.030953 -353320.000000 0 0 1
-32.925077 31.008168 29.833843 54.181412 -0.755424 0.987679 0.122313 -0.039553 1055720.000000 0 0 1
-31.486287 30.852568 29.905343 53.269098 -0.775233 0.974718 0.100524 -0.038041 905610.000000 0 0 1
-30.960197 31.556068 28.827443 52.776328 -0.794929 0.992952 0.099202 -0.027907 973990.000000 0 0 1
-29.442057 31.310668 28.443523 51.538594 -0.816146 0.986170 0.109502 -0.027348 749894.000000 0 0 1
-29.198357 30.086468 27.803583 50.306847 -0.800377 0.985220 0.132420 -0.024558 -536155.000000 0 0 1
-28.012497 29.947568 27.100843 49.152951 -0.818772 0.986806 0.099379 -0.011029 -827289.000000 0 0 1
-27.873317 30.722068 25.739283 48.818828 -0.833977 1.015446 0.095184 -0.004564 -212821.000000 0 0 1
-27.896017 32.123168 25.936123 49.827384 -0.855712 1.023337 0.079361 -0.014868 204281.000000 0 0 1
-28.761657 32.737168 24.975463 50.226775 -0.849952 1.050365 0.083679 -0.017379 180228.000000 0 0 1
-29.093327 -34.035329 25.337433 51.447166 0.863523 1.055843 0.095360 -0.008379 14656.300000 0 0 1
-29.806687 -33.922429 26.550013 52.383900 0.849890 1.039287 0.106826 -0.030429 54641.100000 0 0 1
-29.901517 -32.608229 26.961193 51.810262 0.828672 1.023497 0.095400 -0.029949 80362.800000 0 0 1
-30.402457 -32.592129 28.437103 52.869889 0.820144 1.002888 0.099189 -0.036131 1056550.000000 0 0 1
-31.824827 -32.848129 28.553983 53.917986 0.801220 1.012689 0.093873 -0.040466 1042630.000000 0 0 1
-32.154437 -33.173329 29.881953 55.020985 0.800994 0.996670 0.083377 -0.040671 -242842.000000 0 0 1
-33.651817 -33.290229 30.175133 56.135754 0.779997 1.003281 0.096852 -0.046743 -213372.000000 0 0 1
-33.982127 -33.437329 31.530993 57.158057 0.777318 0.986460 0.089443 -0.049265 171339.000000 0 0 1
-35.364246 -33.670229 31.765463 58.252544 0.760864 0.994042 0.080351 -0.045666 167136.000000 0 0 1
-35.669380 34.090068 33.178408 59.457920 -0.762763 0.978805 0.073817 -0.032954 -192384.000000 0 0 1
-35.302731 32.719468 33.337062 58.550885 -0.747440 0.965058 0.045514 -0.025208 -23945.500000 0 0 1
-36.160507 32.127768 -33.968963 59.107243 -0.726412 2.183034 0.055421 -0.025404 47986.600000 0 0 1
-35.646958 30.753568 -33.506973 57.785853 -0.711836 2.189338 0.032836 -0.019638 -138158.000000 0 0 1
-34.525421 30.910568 -32.696363 56.714373 -0.730212 2.185246 0.034348 -0.018131 -666374.000000 0 0 1
-34.000677 29.638368 -32.326943 55.493334 -0.716958 2.192643 0.014475 -0.010922 163065.000000 0 0 1
-33.271257 29.717868 -30.982103 54.314077 -0.729045 2.177819 0.008240 -0.006558 89364.100000 0 0 1
-34.110346 29.949368 -29.853883 54.329869 -0.720535 2.152554 0.021417 -0.007978 -120276.000000 0 0 1
-34.530511 31.269668 -29.499043 55.139295 -0.735882 2.135294 0.022502 -0.003088 666849.000000 0 0 1
-35.522913 31.455168 -28.300473 55.246916 -0.724740 2.108604 0.026676 0.000799 854374.000000 0 0 1
-34.870074 31.148768 -27.078243 54.031464 -0.729090 2.095732 0.005294 -0.013446 -102137.000000 0 0 1
-35.906429 30.923768 -26.176913 54.136696 -0.710979 2.075483 0.037062 -0.018713 -251249.000000 0 0 1
-35.482830 30.641268 -24.753893 53.015788 -0.712309 2.056596 0.041358 -0.015566 -208301.000000 0 0 1
-34.970562 31.762568 -24.069893 53.020380 -0.737363 2.042017 0.052901 -0.026684 -253877.000000 0 0 1
-34.786649 31.627768 -22.682493 52.200787 -0.737871 2.020306 0.041489 -0.026528 330824.000000 0 0 1
-36.043370 31.458868 -21.753293 52.554645 -0.717586 1.997550 0.038575 -0.024829 733279.000000 0 0 1
36.213581 32.361268 -21.728193 53.205164 0.729280 1.991480 0.045863 -0.034438 483931.000000 0 0 1
36.565591 33.582268 -21.031893 53.918009 0.742895 1.971506 0.049667 -0.034670 31607.200000 0 0 1
36.608371 33.482368 -19.488993 53.301620 0.740828 1.945112 0.052982 -0.028801 557086.000000 0 0 1
-35.612043 32.708768 -19.052793 51.972012 -0.742929 1.946145 0.046412 -0.032804 403532.000000 0 0 1
-35.507582 32.544468 -17.670893 51.304885 -0.741884 1.922427 0.050738 -0.018363 603590.000000 0 0 1
-34.323897 31.517168 -17.470293 49.766183 -0.742795 1.929486 0.059648 -0.015484 635095.000000 0 0 1
-34.066104 31.238368 -16.148293 48.960213 -0.742124 1.906914 0.044075 -0.006080 -354568.000000 0 0 1
-32.905287 30.445968 -16.111593 47.637153 -0.746597 1.915816 0.047386 -0.008095 -194056.000000 0 0 1
-32.414827 30.091768 -14.696893 46.607233 -0.748250 1.891606 0.046312 -0.001895 104553.000000 0 0 1
-33.384537 29.324168 -13.963293 46.576901 -0.720739 1.875269 0.036284 0.005846 336025.000000 0 0 1
-32.954777 29.064568 -12.655493 45.726666 -0.722754 1.851221 0.047048 0.005202 135980.000000 0 0 1
-33.959927 28.252168 -11.767293 45.715761 -0.693908 1.831128 0.043943 0.000182 54856.300000 0 0 1
-33.454237 27.948268 -10.529393 44.845956 -0.695967 1.807799 0.054356 0.005570 417488.000000 0 0 1
-34.383592 27.108868 -9.818693 44.872362 -0.667643 1.791395 0.058343 -0.003842 426715.000000 0 0 1
-33.704527 26.359168 -8.675293 43.658465 -0.663710 1.770836 0.060815 -0.001558 165907.000000 0 0 1
-33.103617 27.293568 -7.794093 43.606608 -0.689496 1.750498 0.062859 -0.005215 -187659.000000 0 0 1
-32.090337 26.782268 -6.993693 42.379138 -0.695479 1.736581 0.058988 -0.014351 -288207.000000 0 0 1
-31.628267 27.709668 -5.804893 42.448437 -0.719455 1.707978 0.072373 -0.018787 -108066.000000 0 0 1
-30.542877 27.083568 -5.175593 41.148193 -0.725440 1.696910 0.080776 -0.013452 54027.000000 0 0 1
-30.551347 27.408668 -3.789993 41.218733 -0.731230 1.662875 0.080526 -0.015599 23243.700000 0 0 1
-29.756987 26.458668 -2.849293 39.920645 -0.726793 1.642231 0.080550 -0.013255 -374767.000000 0 0 1
-30.372937 25.243368 -2.681493 39.584509 -0.693427 1.638589 0.074364 -0.008046 -441080.000000 0 0 1
-29.624097 24.388268 -1.909193 38.419003 -0.688762 1.620511 0.070122 -0.014479 -346083.000000 0 0 1
-30.525767 23.290868 -1.296193 38.418318 -0.651763 1.604542 0.074912 -0.025579 -203666.000000 0 0 1
-30.925637 22.513068 -2.331293 38.323207 -0.629255 1.631666 0.062369 -0.016646 -524588.000000 0 0 1
-31.801617 21.560368 -1.825693 38.464601 -0.595783 1.618278 0.065871 -0.019086 -141690.000000 0 0 1
-32.376637 20.605368 -2.930293 38.489147 -0.566774 1.647003 0.070525 -0.010429 250922.000000 0 0 1
-31.394187 19.713768 -3.418193 37.227835 -0.560713 1.662744 0.062379 -0.011913 370402.000000 0 0 1
-31.891967 19.062468 -4.562493 37.433830 -0.538741 1.692982 0.062123 -0.006169 827993.000000 0 0 1
-30.799287 18.039368 -5.119293 36.058592 -0.529844 1.713249 0.050108 -0.006088 882074.000000 0 0 1
-30.590247 16.827068 -4.328493 35.180240 -0.502904 1.694146 0.087526 -0.012026 35721.600000 0 0 1
-29.745217 15.975168 -5.080093 34.143686 -0.492859 1.720137 0.085541 -0.015378 -695701.000000 0 0 1
-29.458997 14.778368 -4.184993 33.222686 -0.464974 1.697100 0.110321 -0.012043 84132.300000 0 0 1
-30.561597 13.957468 -3.750893 33.806676 -0.428411 1.681976 0.122664 -0.015530 563979.000000 0 0 1
-30.155057 12.868668 -2.932693 32.917029 -0.403352 1.660008 0.119100 -0.020999 -304080.000000 0 0 1
-31.295967 12.073768 -2.277793 33.621448 -0.368199 1.638596 0.121278 -0.026413 -315984.000000 0 0 1
-32.032667 11.314268 -3.212393 34.123656 -0.339532 1.665076 0.112966 -0.010101 -15075.200000 0 0 1
-32.849787 10.374668 -2.569693 34.544834 -0.305908 1.645252 0.115481 -0.011969 -399140.000000 0 0 1
-33.958777 9.768568 -3.441893 35.503100 -0.280097 1.667895 0.083916 -0.009278 -212540.000000 0 0 1
-33.511607 9.020168 -4.523893 34.997955 -0.262934 1.700421 0.084919 -0.018918 -487979.000000 0 0 1
-34.579789 8.415868 -5.142393 35.958766 -0.238734 1.714296 0.087810 -0.011843 -630204.000000 0 0 1
-34.168970 7.573368 -6.394793 35.577631 -0.218118 1.751520 0.084347 -0.011510 65631.200000 0 0 1
-33.431977 6.385968 -6.043293 34.568759 -0.188740 1.746519 0.088707 -0.014729 609847.000000 0 0 1
-33.099207 5.652868 -7.206293 34.343021 -0.169154 1.782200 0.097819 -0.012114 395827.000000 0 0 1
-32.024297 4.462068 -7.123993 33.109167 -0.138443 1.787659 0.122146 -0.024790 1141540.000000 0 0 1
-30.714757 4.968868 -6.881793 31.866048 -0.160385 1.788471 0.133611 -0.023637 297552.000000 0 0 1
-29.936777 4.092368 -6.101893 30.825172 -0.135858 1.770064 0.130870 -0.029075 132836.000000 0 0 1
-28.465947 4.551968 -5.934193 29.432044 -0.158567 1.773812 0.166850 -0.028971 330223.000000 0 0 1
-27.656247 4.337168 -7.070393 28.873335 -0.155557 1.818188 0.163776 -0.026779 401793.000000 0 0 1
-26.257847 4.413268 -6.822493 27.486322 -0.166518 1.821633 0.191986 -0.037884 626446.000000 0 0 1
-25.423907 4.940368 -8.024493 27.114107 -0.191928 1.871249 0.173447 -0.033801 -16229.000000 0 0 1
-25.189427 3.985668 -9.041693 27.058178 -0.156927 1.911508 0.177282 -0.050373 520965.000000 0 0 1
-24.363607 4.454768 -10.109993 26.751491 -0.180847 1.958348 0.170727 -0.050759 83598.400000 0 0 1
-24.643207 3.742868 -11.449793 27.429810 -0.150730 2.001402 0.158813 -0.052923 406809.000000 0 0 1
-25.936567 4.082668 -11.941793 28.844065 -0.156129 1.997654 0.141847 -0.032956 485018.000000 0 0 1
-26.294047 3.385468 -13.053693 29.550587 -0.128050 2.028334 0.134310 -0.035862 530792.000000 0 0 1
-27.231737 4.139368 -14.069293 30.929709 -0.150851 2.043033 0.110567 -0.026263 570618.000000 0 0 1
-26.469497 5.194968 -14.670093 30.705596 -0.193799 2.068906 0.086329 -0.026204 1351790.000000 0 0 1
-27.307137 6.117568 -15.447393 31.964454 -0.220389 2.075180 0.104601 -0.030678 423938.000000 0 0 1
-27.916217 5.634968 -16.758293 33.044038 -0.199177 2.102671 0.051240 -0.000357 -776575.000000 0 0 1
-28.963177 4.771868 -16.520693 33.683373 -0.163289 2.083426 0.068564 -0.012039 -760762.000000 0 0 1
-29.616687 4.489468 -17.764793 34.826590 -0.150440 2.106089 0.067708 0.000314 831863.000000 0 0 1
-31.116607 4.061468 -17.540993 35.950316 -0.129790 2.080505 0.068401 -0.003581 665763.000000 0 0 1
-31.377407 2.873268 -16.851393 35.731874 -0.091317 2.061908 0.070921 -0.008669 5277.440000 0 0 1
-31.035347 1.658968 -17.450793 35.643725 -0.053403 2.082415 0.093096 -0.010609 -136558.000000 0 0 1
-31.214657 0.435368 -16.491893 35.306188 -0.013947 2.056816 0.087796 -0.008140 -24824.000000 0 0 1
-30.583137 -0.752632 -16.981493 34.989510 0.024604 2.077538 0.091241 -0.008211 475298.000000 0 0 1
-30.810767 -1.847732 -16.123593 34.823666 0.059899 2.052181 0.097765 -0.021309 -121635.000000 0 0 1
-30.724197 -3.268832 -16.695393 35.119762 0.105994 2.066197 0.096450 -0.015142 -181189.000000 0 0 1
-31.762527 -3.555732 -17.592993 36.483075 0.111483 2.073987 0.092572 -0.014382 -11200.900000 0 0 1
-31.593637 -4.791232 -18.239793 36.794074 0.150505 2.089467 0.085353 -0.010352 59163.800000 0 0 1
-32.597297 -4.948232 -19.401693 38.255646 0.150649 2.102681 0.093844 -0.010310 22242.200000 0 0 1
-32.471057 -6.237832 -19.965793 38.625289 0.189792 2.114034 0.096729 -0.007936 -162063.000000 0 0 1
-33.408317 -6.523732 -20.967593 39.978928 0.192846 2.122884 0.105834 -0.012527 -431470.000000 0 0 1
-33.054477 -7.705232 -21.894093 40.389607 0.229017 2.143698 0.099492 -0.016565 -621035.000000 0 0 1
-31.931107 -7.369532 -22.635293 39.827906 0.226823 2.175268 0.088858 -0.016693 -493401.000000 0 0 1
-31.692747 -8.277832 -23.670893 40.413660 0.255482 2.196558 0.093302 -0.011343 887740.000000 0 0 1
-30.346307 -7.972632 -24.460893 39.784375 0.256916 2.232975 0.083649 -0.009789 623403.000000 0 0 1
-30.360977 -6.863232 -25.361463 40.150924 0.222318 2.254480 0.085856 -0.015026 40938.100000 0 0 1
-30.451467 -7.115432 -26.750323 41.152169 0.229546 2.278426 0.076528 -0.014411 -832176.000000 0 0 1
-31.864507 -7.150132 -27.295243 42.561737 0.220735 2.267000 0.084500 -0.008422 -684107.000000 0 0 1
-32.659007 -8.183532 -26.744503 42.998248 0.245520 2.242079 0.068794 -0.006233 -204215.000000 0 0 1
-33.876427 -8.407132 -27.417383 44.384739 0.243256 2.236638 0.067541 -0.006816 262910.000000 0 0 1
-34.687946 -9.573532 -26.779563 44.855893 0.269287 2.210569 0.065976 -0.005655 -65043.600000 0 0 1
-34.194065 -10.885432 -27.159443 45.004023 0.308199 2.218666 0.061312 0.003324 515605.000000 0 0 1
-35.067318 -11.998532 -26.825803 45.752653 0.329671 2.197308 0.042765 0.000995 225841.000000 0 0 1
-36.296197 -12.210632 -27.739513 47.286298 0.324523 2.197686 0.031423 0.014077 27376.200000 0 0 1
36.028841 -11.283432 -27.415443 46.658330 -0.303502 2.198860 0.027492 0.000820 -206790.000000 0 0 1
35.139391 -11.116632 -28.490473 46.583939 -0.306396 2.228870 0.023327 -0.004737 -464449.000000 0 0 1
34.278371 -9.877332 -28.295013 45.532144 -0.280551 2.241362 0.027641 -0.001566 -398896.000000 0 0 1
33.121311 -10.207832 -27.567303 44.285181 -0.298958 2.242723 0.013087 -0.004875 57012.300000 0 0 1
32.398431 -9.026232 -27.165073 43.232770 -0.271711 2.250220 -0.006979 0.001501 -223664.000000 0 0 1
31.178951 -9.181532 -26.278793 41.797159 -0.286384 2.250705 -0.001557 0.004809 -414010.000000 0 0 1
31.437241 -9.529732 -24.928293 41.237552 -0.294331 2.219940 -0.015322 0.014091 -567793.000000 0 0 1
30.286731 -10.007032 -24.338993 40.122479 -0.319117 2.222595 -0.016681 0.014756 -762502.000000 0 0 1
30.448231 -10.029932 -22.816193 39.348100 -0.318215 2.189347 -0.021226 0.014760 315734.000000 0 0 1
31.260881 -11.116332 -22.328693 39.992325 -0.341654 2.163161 -0.029460 0.010926 411163.000000 0 0 1
31.428541 -11.016832 -20.945693 39.342672 -0.337152 2.132219 -0.011840 0.008042 -153089.000000 0 0 1
32.352991 -12.115032 -20.452093 40.146957 -0.358301 2.105319 0.020640 0.001361 -246943.000000 0 0 1
33.719481 -12.062632 -20.813993 41.421405 -0.343549 2.097277 0.033463 -0.000713 -502134.000000 0 0 1
34.393991 -12.759832 -19.824793 41.698709 -0.355251 2.066248 0.061396 -0.005164 -641464.000000 0 0 1
35.853271 -12.914332 -20.309193 43.182176 -0.345732 2.060443 0.075704 -0.017964 -625850.000000 0 0 1
36.591371 -11.704732 -20.455993 43.524439 -0.309591 2.060074 0.093695 -0.013341 337193.000000 0 0 1
36.416631 -10.894832 -21.630893 43.735156 -0.290697 2.088157 0.091978 -0.007183 -775949.000000 0 0 1
-36.276677 -11.434332 -22.936793 44.416638 0.305341 2.113439 0.064585 -0.005492 -47198.100000 0 0 1
36.550911 -12.585832 -23.603693 45.293560 -0.331621 2.118967 0.061713 -0.003569 651377.000000 0 0 1
35.230081 -12.459032 -24.138093 44.486331 -0.339921 2.144321 0.072820 -0.004303 318431.000000 0 0 1
34.743281 -13.791132 -24.790793 44.853922 -0.377869 2.156398 0.040383 -0.020500 -243116.000000 0 0 1
34.737271 -14.962832 -23.992293 44.790562 -0.406725 2.136080 0.045027 -0.029566 1481730.000000 0 0 1
33.582871 -14.984732 -23.096593 43.425845 -0.419691 2.131595 0.012539 -0.020928 629712.000000 0 0 1
-30.243727 7.939668 -19.414593 36.805540 -0.256730 2.126441 0.033563 -0.006004 11671.100000 0 0 1
-28.961207 7.384768 -19.491893 35.682211 -0.249668 2.148693 0.026510 -0.004133 -418426.000000 0 0 1
-28.128247 7.980768 -20.445693 35.677967 -0.276462 2.181034 0.043084 -0.018883 273435.000000 0 0 1
-26.850697 7.112268 -20.685993 34.633143 -0.258936 2.210913 0.043430 -0.014998 -14322.400000 0 0 1
-25.939807 7.203268 -19.636593 33.322011 -0.270867 2.200986 0.050087 -0.013276 72903.700000 0 0 1
-24.885607 6.244068 -19.778093 32.395290 -0.245836 2.227518 0.075480 -0.025337 1029320.000000 0 0 1
-23.516207 6.680368 -19.139493 31.047697 -0.276784 2.235028 0.072744 -0.033108 992958.000000 0 0 1
-22.799807 7.618268 -19.977893 31.256766 -0.322474 2.264194 0.089610 -0.022861 -135642.000000 0 0 1
-21.658207 8.119468 -19.351193 30.157459 -0.358675 2.267472 0.090313 -0.020666 -277235.000000 0 0 1
-21.074507 9.323968 -20.115093 30.589021 -0.416540 2.288414 0.088294 -0.018408 -246769.000000 0 0 1
-20.631107 8.963168 -21.400193 31.047532 -0.409847 2.331280 0.103921 -0.024955 -77972.400000 0 0 1
-20.146507 10.028668 -22.102993 31.543592 -0.461876 2.347192 0.077893 -0.022557 352725.000000 0 0 1
-18.888107 9.751368 -23.000193 31.318663 -0.476579 2.395568 0.106809 -0.015350 512766.000000 0 0 1
-19.233307 8.915368 -24.091693 32.090708 -0.434055 2.419974 0.097934 -0.009974 -560015.000000 0 0 1
-18.154807 8.258468 -24.651393 31.709470 -0.426914 2.461341 0.078316 -0.003638 -995402.000000 0 0 1
-18.493907 7.131168 -25.661273 32.424976 -0.368027 2.483900 0.066378 0.005147 -322758.000000 0 0 1
-19.041007 5.951968 -25.055973 32.027920 -0.302964 2.469173 0.081410 0.002828 187357.000000 0 0 1
-19.599407 5.097668 -25.981153 32.941513 -0.254455 2.479497 0.072056 -0.000868 -711907.000000 0 0 1
-20.072607 3.757368 -25.470153 32.645919 -0.185047 2.465772 0.054634 0.012618 484618.000000 0 0 1
-19.095607 2.760268 -25.094933 31.654651 -0.143556 2.486140 0.044623 0.009781 1104210.000000 0 0 1
-18.009407 3.146068 -24.226693 30.350768 -0.172945 2.495136 0.053043 -0.000853 13823.000000 0 0 1
-17.140007 1.971968 -23.774793 29.375317 -0.114547 2.513834 0.052013 -0.003540 -263171.000000 0 0 1
-17.603807 1.089068 -22.759093 28.793339 -0.061787 2.482305 0.055119 -0.004316 129791.000000 0 0 1
-18.859407 0.453468 -22.994593 29.742800 -0.024040 2.454533 0.054758 0.001711 241049.000000 0 0 1
-19.345207 -0.308732 -21.759393 29.117066 0.015958 2.414797 0.070938 -0.002962 -52754.300000 0 0 1
-18.722407 -1.553732 -21.548593 28.588187 0.082798 2.424559 0.079297 -0.009970 170237.000000 0 0 1
-19.379207 -2.250432 -20.523893 28.316926 0.115608 2.381529 0.073623 -0.011773 -266667.000000 0 0 1
-18.811507 -3.661232 -20.378593 27.974354 0.192224 2.386888 0.065219 -0.026714 -52294.200000 0 0 1
-18.966707 -4.494632 -21.504993 29.024169 0.232683 2.405256 0.067190 -0.030942 344912.000000 0 0 1
-19.258407 -5.831032 -21.165593 29.203929 0.294004 2.381470 0.074872 -0.029909 -140494.000000 0 0 1
-19.307907 -6.805932 -22.402893 30.348074 0.338895 2.401192 0.057507 -0.037252 -250280.000000 0 0 1
-17.990307 -7.037832 -22.853693 29.924463 0.372898 2.439841 0.054193 -0.030277 196205.000000 0 0 1
-17.978207 -7.905232 -23.933993 30.960372 0.414265 2.454436 0.068504 -0.039733 -497763.000000 0 0 1
-16.587307 -7.920932 -24.521793 30.646341 0.445510 2.498348 0.057156 -0.042988 -1170660.000000 0 0 1
-16.634507 -8.824832 -25.610913 31.788415 0.487759 2.507599 0.064939 -0.058403 1368680.000000 0 0 1
-15.355407 -8.996732 -26.292943 31.749780 0.529987 2.546559 0.074743 -0.054135 1368590.000000 0 0 1
-14.278307 -9.861532 -25.566813 30.899543 0.604434 2.545289 0.073336 -0.050921 -381838.000000 0 0 1
-13.678907 -9.163732 -24.506093 29.523466 0.590249 2.550002 0.065869 -0.041954 -256780.000000 0 0 1
-12.910107 -10.007632 -23.711293 28.793210 0.659421 2.538355 0.038313 -0.035484 169475.000000 0 0 1
-11.899107 -9.206732 -22.788993 27.307341 0.658518 2.558089 0.057574 -0.030894 198002.000000 0 0 1
-12.327007 -8.783532 -21.515493 26.306310 0.619095 2.528519 0.046595 -0.026998 -310498.000000 0 0 1
-11.439607 -7.865632 -20.984193 25.160865 0.602341 2.557117 0.048748 -0.017229 -1254010.000000 0 0 1
-11.832307 -7.499832 -19.533393 24.037562 0.564933 2.519429 0.045652 -0.015826 793659.000000 0 1 0
-13.011007 -6.691132 -19.442993 24.332848 0.474996 2.496498 0.045922 -0.013823 1900930.000000 0 1 0
-14.307707 -7.256532 -19.778593 25.466850 0.469372 2.460112 0.056619 -0.021917 986822.000000 0 0 1
-15.501907 -6.299232 -19.446593 25.654618 0.385970 2.431061 0.056779 -0.014801 245389.000000 0 0 1
-15.532007 -5.908832 -18.110293 24.579264 0.363522 2.399139 0.047066 -0.014917 583316.000000 0 1 0
-14.959807 -4.609732 -17.848893 23.740860 0.298909 2.421617 0.047331 -0.013951 -381292.000000 0 1 0
-14.857707 -4.257932 -16.331993 22.485894 0.279100 2.383752 0.062610 -0.015009 1568640.000000 0 1 0
-16.161507 -4.074532 -15.676493 22.881183 0.246967 2.325573 0.092202 -0.024941 1814810.000000 0 1 0
-16.773707 -2.788832 -15.889993 23.272875 0.164755 2.322342 0.060937 -0.027724 265670.000000 0 1 0
-18.008607 -2.507132 -15.003093 23.573045 0.138329 2.260685 0.064800 -0.033780 1663.660000 0 1 0
-17.650007 -2.546632 -13.650893 22.457848 0.143296 2.224140 0.080442 -0.033886 739325.000000 0 1 0
-18.630007 -2.022232 -12.760993 22.671778 0.108124 2.168636 0.080523 -0.038314 311056.000000 0 1 0
-17.932207 -0.824632 -12.070493 21.631941 0.045954 2.162763 0.059472 -0.035381 231862.000000 0 1 0
-17.515607 0.157268 -13.014493 21.821967 -0.008979 2.209798 0.075501 -0.036990 763210.000000 0 1 0
-16.733307 1.170368 -12.357493 20.834610 -0.069829 2.205729 0.073042 -0.028487 -120594.000000 0 1 0
-16.124207 2.183968 -13.392693 21.074249 -0.134627 2.259453 0.074538 -0.027095 457384.000000 0 1 0
-15.320007 1.737168 -14.477193 21.149692 -0.112910 2.324729 0.065048 -0.031781 -478285.000000 0 1 0
-14.043207 1.317968 -14.140293 19.972396 -0.093577 2.357447 0.061268 -0.028025 -1689940.000000 0 1 0
-13.549907 0.394968 -15.259893 20.411279 -0.029141 2.415268 0.061035 -0.027299 -167267.000000 0 1 0
-13.051707 1.080768 -16.411693 20.996637 -0.082618 2.468078 0.067060 -0.032459 66658.300000 0 1 0
-12.801507 0.079368 -17.312293 21.531381 -0.006200 2.504871 0.042579 -0.019673 -99323.100000 0 1 0
-12.154507 0.660268 -18.596293 22.225888 -0.054270 2.562017 0.059055 -0.023568 157953.000000 0 1 0
-11.016707 1.480868 -18.376393 21.476792 -0.133619 2.597582 0.039802 -0.014540 -127262.000000 0 1 0
-10.628707 2.125268 -19.548193 22.352137 -0.197353 2.635316 0.044613 -0.013494 374584.000000 0 1 0
-9.218207 2.786568 -19.502293 21.750396 -0.293556 2.682920 0.037255 -0.009203 49063.900000 0 1 0
-8.219807 1.818468 -19.752493 21.471680 -0.217723 2.738704 0.035681 -0.004559 1433410.000000 0 1 0
-6.821007 2.160268 -19.477793 20.750357 -0.306714 2.789557 0.026091 0.001439 1987870.000000 0 1 0
-6.203707 3.234468 -20.362993 21.531355 -0.480602 2.810651 0.028489 0.001759 -1025280.000000 0 1 0
-5.973207 2.800968 -21.665293 22.647506 -0.438478 2.846002 0.020751 0.001898 137894.000000 0 1 0
-5.709007 3.865668 -22.570893 23.600452 -0.595203 2.845128 0.022842 0.001797 -283404.000000 0 1 0
-5.152707 3.301468 -23.893293 24.664540 -0.569827 2.890859 0.041331 -0.007374 -162540.000000 0 1 0
-3.852807 2.798168 -23.716393 24.189691 -0.628138 2.943450 0.053727 -0.012117 -377389.000000 0 1 0
-3.398107 2.154268 -24.886293 25.209434 -0.565017 2.981307 0.078334 -0.019715 180012.000000 0 0 1
-2.043007 1.431768 -24.691293 24.817006 -0.611272 3.040896 0.063864 -0.021367 309928.000000 0 1 0
-0.959207 2.357868 -24.405193 24.537584 -1.184432 3.037666 0.066843 -0.022772 1339420.000000 0 1 0
0.351593 1.779368 -24.380393 24.447767 1.375715 3.067335 0.063940 -0.021082 756330.000000 0 1 0
0.710593 0.733868 -23.290993 23.313383 0.801510 3.097762 0.052112 -0.031637 -867660.000000 0 1 0
0.030593 -0.489032 -23.421593 23.426717 -1.508320 3.120675 0.045034 -0.028399 -365305.000000 0 1 0
0.707593 -1.468432 -22.739193 22.797541 -1.121758 3.070032 0.042643 -0.019294 -989050.000000 0 1 0
0.183393 -2.878332 -22.943393 23.123964 -1.507167 3.016541 0.049364 -0.023256 -256784.000000 0 1 0
-0.952307 -3.174732 -22.148893 22.395519 1.279372 2.993049 0.044524 -0.019649 297331.000000 0 1 0
-2.180307 -3.199032 -22.881793 23.206981 0.972559 2.973990 0.059099 -0.024644 431683.000000 0 1 0
-2.931007 -1.825032 -22.948493 23.206785 0.556918 2.992256 0.057676 -0.020406 -1225590.000000 0 1 0
-3.405107 -1.397632 -21.606093 21.917376 0.389484 2.972854 0.036678 -0.015465 638639.000000 0 1 0
-4.163507 -0.173732 -21.719093 22.115243 0.041703 2.952031 0.028954 -0.008475 650203.000000 0 1 0
-5.561807 -0.294532 -22.369993 23.052918 0.052907 2.897578 0.033690 -0.008714 -220852.000000 0 1 0
-6.360507 -1.378632 -21.851893 22.800480 0.213447 2.852126 0.044601 -0.000807 1328550.000000 0 1 0
-7.758307 -1.240932 -22.193593 23.543296 0.158605 2.801343 0.037765 0.007408 1376600.000000 0 1 0
-8.614607 -2.460632 -21.747293 23.520436 0.278226 2.750814 0.034826 -0.003340 31150.200000 0 1 0
-8.847007 -3.393132 -22.764993 24.658219 0.366232 2.747177 0.071624 -0.008764 132444.000000 0 1 0
-9.412607 -4.632732 -22.360293 24.699030 0.457375 2.702907 0.053469 -0.005966 -72661.100000 0 1 0
-10.409207 -5.367732 -23.297793 26.075875 0.476106 2.675790 0.053310 -0.015786 12708.500000 0 0 1
-11.680807 -4.763632 -23.314593 26.508558 0.387227 2.645632 0.044449 -0.023300 -593089.000000 0 0 1
-12.559407 -5.454532 -24.140093 27.753102 0.409720 2.625626 0.037954 -0.038893 -273965.000000 0 0 1
-14.012407 -5.281432 -23.653893 27.995495 0.360445 2.577208 0.046704 -0.042230 -263565.000000 0 0 1
-14.524607 -4.002132 -23.684193 28.069953 0.268870 2.575040 0.054024 -0.039163 -234104.000000 0 0 1
-15.929107 -3.928432 -23.604393 28.746067 0.241795 2.534193 0.075959 -0.038018 102971.000000 0 0 1
-16.472907 -2.565032 -24.083493 29.290795 0.154472 2.536098 0.063066 -0.031122 -259205.000000 0 0 1
-16.331207 -2.376332 -25.469623 30.348920 0.144495 2.566656 0.051673 -0.028298 119897.000000 0 0 1
-16.653607 -1.091632 -25.988553 30.885906 0.065456 2.570734 0.039407 -0.021958 404496.000000 0 0 1
-18.136907 -1.035032 -26.489643 32.120396 0.057006 2.540465 0.044113 -0.013471 392281.000000 0 0 1
-18.426607 -1.650532 -27.732843 33.337286 0.089335 2.553295 0.058959 -0.023347 43252.000000 0 0 1
-17.961307 -0.987532 -28.931603 34.067894 0.054926 2.585329 0.039347 -0.016355 -129128.000000 0 0 1
-17.869407 -1.786632 -30.212993 35.147300 0.099652 2.605303 0.040540 -0.017741 1255360.000000 0 0 1
-19.193907 -2.239532 -30.597473 36.188768 0.116154 2.578290 0.031516 -0.015521 916842.000000 0 0 1
-19.146107 -3.081232 -31.706803 37.167038 0.159564 2.592674 0.039215 -0.022369 -493065.000000 0 0 1
-20.572107 -3.470732 -32.130013 38.309206 0.167137 2.565692 0.012445 -0.014272 283194.000000 0 0 1
-21.577307 -2.498932 -32.395663 39.003895 0.115299 2.550936 0.015664 -0.017270 567800.000000 0 0 1
-22.094507 -1.840532 -31.224673 38.295365 0.083111 2.524154 0.010041 -0.006343 -653753.000000 0 0 1
-23.203407 -0.849332 -31.636663 39.242807 0.036587 2.508459 0.016059 -0.012077 -170220.000000 0 0 1
-22.699507 0.318068 -32.273273 39.457989 -0.014011 2.528574 0.011412 -0.011494 -342076.000000 0 0 1
-23.700007 1.104068 -32.798803 40.480499 -0.046551 2.515353 0.014188 -0.007560 -635725.000000 0 0 1
-23.169907 2.378568 -33.523333 40.820534 -0.102299 2.534372 0.025097 -0.002519 -599624.000000 0 0 1
-22.718807 3.445668 -32.691363 39.959254 -0.150519 2.528926 0.017360 -0.002374 888522.000000 0 0 1
-23.671407 4.197168 -31.872703 39.922687 -0.175486 2.495364 0.024753 -0.003195 524862.000000 0 0 1
-24.786107 4.970368 -32.673343 41.311052 -0.197906 2.483092 0.023381 -0.010263 247980.000000 0 0 1
-25.808517 4.058968 -33.039833 42.121079 -0.155995 2.472527 0.036541 -0.024972 734214.000000 0 0 1
-26.953077 4.672268 -33.629833 43.350480 -0.171643 2.458725 0.058247 -0.024974 48500.900000 0 0 1
-28.270477 3.958268 -33.850843 44.280552 -0.139110 2.441004 0.075832 -0.023354 -544347.000000 0 0 1
-28.144347 2.823468 33.592928 43.915386 -0.099986 0.699838 0.079900 -0.020054 695076.000000 0 0 1
-29.425357 2.271568 33.295259 44.492538 -0.077045 0.725250 0.085702 -0.019354 350832.000000 0 0 1
-29.421087 0.797768 32.860709 44.114204 -0.027109 0.730410 0.094735 -0.004559 -215720.000000 0 0 1
-29.337597 -0.068132 33.963939 44.880379 0.002322 0.712445 0.100522 -0.005410 92410.100000 0 0 1
-29.471227 -1.407032 33.588423 44.706992 0.047706 0.720765 0.081748 -0.009291 -707881.000000 0 0 1
-29.032227 -2.267132 -33.488113 44.378641 0.077932 2.425840 0.033366 -0.006651 -249944.000000 0 0 1
-27.668037 -2.331032 -33.148093 43.240606 0.084051 2.444320 0.047260 -0.010142 249410.000000 0 0 1
-27.059407 -1.143632 -32.637003 42.411005 0.042239 2.448918 0.049178 -0.003620 -809173.000000 0 0 1
-27.351707 -0.790232 -31.198383 41.497945 0.028883 2.421592 0.077335 -0.006991 -109991.000000 0 0 1
-26.400757 -1.354432 -30.286753 40.201018 0.051258 2.423988 0.059940 -0.016253 725845.000000 0 0 1
-26.600637 -0.876732 -29.003413 39.364457 0.032947 2.399109 0.068999 -0.021155 -394581.000000 0 0 1
-25.694257 -1.556732 -27.988113 38.025685 0.060513 2.397986 0.063431 -0.015967 -179527.000000 0 0 1
-25.973707 -2.915332 -27.659193 38.054744 0.111774 2.384486 0.047658 -0.014788 386476.000000 0 0 1
-25.031107 -3.246032 -26.641953 36.699955 0.128960 2.383196 0.057814 -0.017463 203228.000000 0 0 1
-25.303597 -4.587332 -25.884993 36.487648 0.179344 2.359468 0.052830 -0.025926 310850.000000 0 0 1
-26.416967 -4.415232 -25.016943 36.649664 0.165605 2.322106 0.063476 -0.023272 128253.000000 0 0 1
-26.607837 -5.646232 -24.300393 36.474183 0.209100 2.299946 0.051255 -0.025915 644116.000000 0 0 1
-27.768757 -5.439432 -23.254493 36.625984 0.193434 2.258699 0.068286 -0.025433 574413.000000 0 0 1
-27.906697 -6.432432 -22.240993 36.260470 0.226541 2.231114 0.064982 -0.025927 627840.000000 0 0 1
-29.042837 -6.106032 -21.409693 36.594330 0.207224 2.195744 0.083988 -0.018749 619445.000000 0 0 1
-29.356187 -7.269832 -20.420393 36.491487 0.242758 2.164691 0.095065 -0.025183 -141181.000000 0 0 1
-28.353177 -7.528732 -19.445193 35.195170 0.259545 2.156152 0.085542 -0.025173 350280.000000 0 0 1
-28.758497 -8.500732 -18.447093 35.208079 0.287406 2.122272 0.093125 -0.016148 277244.000000 0 0 1
-29.568747 -7.893632 -17.278593 35.144985 0.260875 2.084766 0.080001 -0.016553 38405.000000 0 0 1
-28.705547 -7.271232 -16.373693 33.837510 0.248086 2.075893 0.073909 -0.023765 314481.000000 0 0 1
-29.432447 -6.523232 -15.435093 33.868327 0.218108 2.043998 0.076116 -0.016690 -4268.670000 0 0 1
-28.499177 -5.689332 -14.527793 32.490435 0.197041 2.034362 0.082657 -0.022919 -86866.700000 0 0 1
-27.834027 -4.632032 -15.159893 32.031409 0.164905 2.063809 0.079794 -0.017565 253660.000000 0 0 1
-26.671637 -4.398732 -14.382993 30.620182 0.163450 2.059773 0.077971 -0.030467 -78934.000000 0 0 1
-14.701907 21.135668 -5.014793 26.229958 -0.963032 1.763166 0.062860 -0.022666 152508.000000 0 0 1
-14.574207 20.419668 -6.205893 25.843442 -0.950912 1.813300 0.099298 -0.027633 -91928.700000 0 0 1
-15.437607 19.303668 -6.220993 25.488273 -0.896224 1.817360 0.092123 -0.040966 -136917.000000 0 0 1
-15.623207 18.590068 -7.567293 25.434999 -0.871898 1.872885 0.125399 -0.049605 -506944.000000 0 0 1
-14.460807 18.009268 -8.102793 24.476600 -0.894250 1.908204 0.114611 -0.042460 -163607.000000 0 1 0
-14.682307 17.038568 -9.149693 24.281677 -0.859543 1.957151 0.101497 -0.041344 -346812.000000 0 1 0
-15.249407 15.662268 -8.700293 23.527562 -0.798754 1.949581 0.097928 -0.041890 849657.000000 0 1 0
-16.655307 15.840768 -8.428793 24.482111 -0.760338 1.922272 0.099542 -0.032965 544595.000000 0 1 0
-17.023807 14.962868 -7.419893 23.848527 -0.721056 1.887174 0.108872 -0.024012 -189339.000000 0 1 0
-18.429207 15.280468 -6.863493 24.904536 -0.692261 1.850002 0.111095 -0.015892 -336630.000000 0 1 0
-19.425507 14.921068 -7.775793 25.699252 -0.654996 1.878183 0.112512 -0.016879 -64486.300000 0 0 1
-20.695607 15.180868 -7.167893 26.648557 -0.632877 1.843129 0.078639 -0.020681 957745.000000 0 0 1
-21.895907 14.541968 -7.966693 27.465757 -0.586252 1.865085 0.092568 -0.009315 419241.000000 0 0 1
-22.060407 13.170568 -7.734493 26.831843 -0.538228 1.863203 0.128572 -0.020748 499965.000000 0 0 1
-22.799507 12.533168 -8.834693 27.476347 -0.502622 1.898150 0.129253 -0.018478 561619.000000 0 0 1
-23.022007 11.026468 -8.540993 26.917362 -0.446669 1.893682 0.127059 -0.018231 738987.000000 0 0 1
-21.800007 10.268268 -8.401793 25.519948 -0.440197 1.906279 0.131329 -0.023127 957193.000000 0 0 1
-22.021107 9.220568 -7.451493 25.009454 -0.396535 1.873338 0.139908 -0.030268 -181214.000000 0 0 1
-20.734807 8.432668 -7.178293 23.506808 -0.386261 1.881124 0.092925 -0.014434 -509928.000000 0 1 0
-20.606607 7.309468 -8.043293 23.297106 -0.340869 1.923300 0.109336 -0.023282 198922.000000 0 1 0
-19.582207 6.493768 -7.541493 21.966019 -0.320204 1.921252 0.076736 -0.007386 -445083.000000 0 1 0
-19.371207 5.330668 -8.556793 21.837546 -0.268538 1.973425 0.058676 -0.022225 -322198.000000 0 1 0
-20.324807 4.293768 -8.496593 22.443848 -0.208196 1.959048 0.086350 -0.024529 329067.000000 0 1 0
-20.102107 3.341368 -9.532393 22.497244 -0.164714 2.008338 0.077951 -0.023713 -103701.000000 0 1 0
-21.052007 2.099268 -9.473793 23.180739 -0.099390 1.991817 0.088336 -0.024672 309930.000000 0 1 0
-20.756507 1.373368 -8.285193 22.391140 -0.066069 1.949828 0.079666 -0.025540 -184874.000000 0 1 0
-21.537607 0.258268 -8.030693 22.987546 -0.011991 1.927673 0.083315 -0.024831 -589776.000000 0 1 0
-21.480607 -0.991432 -8.950893 23.292014 0.046122 1.965235 0.067317 -0.039695 310764.000000 0 1 0
-20.372707 -1.886132 -8.825393 22.282106 0.092318 1.978035 0.041313 -0.023322 624773.000000 0 1 0
-20.626007 -3.137132 -9.397993 22.882221 0.150939 1.994031 0.047683 -0.020346 89763.200000 0 1 0
-21.562307 -4.177932 -8.711993 23.628098 0.191389 1.948421 0.050882 -0.020771 443098.000000 0 1 0
-21.039807 -4.450932 -7.410993 22.746584 0.208474 1.902661 0.035043 -0.018719 1334640.000000 0 1 0
-22.133507 -4.894232 -6.549593 23.595398 0.217621 1.852070 0.061755 -0.022467 722591.000000 0 1 0
-22.347307 -6.434232 -6.552093 24.160534 0.280338 1.845425 0.067967 -0.032975 -577980.000000 0 1 0
-21.356707 -7.264232 -6.003493 23.343520 0.327862 1.830900 0.057705 -0.032525 192278.000000 0 1 0
-21.634207 -8.665732 -6.108393 24.092453 0.380986 1.827134 0.071632 -0.031105 -1146210.000000 0 1 0
-20.560707 -9.551432 -5.583993 23.348523 0.434886 1.812295 0.071895 -0.032904 -91390.700000 0 1 0
-19.388607 -9.655932 -6.423093 22.592283 0.462063 1.859077 0.076967 -0.024412 704482.000000 0 1 0
-18.414407 -10.411332 -5.768693 21.926332 0.514583 1.837024 0.083565 -0.019866 -267966.000000 0 1 0
-17.465307 -11.245232 -6.627793 21.804124 0.572048 1.879653 0.067154 -0.019520 -855.804000 0 1 0
-16.367607 -10.655532 -7.311893 20.854321 0.577087 1.929027 0.070524 -0.038834 460552.000000 0 1 0
-16.697307 -10.079332 -8.548893 21.294989 0.543099 1.983897 0.065144 -0.044114 -58317.600000 0 1 0
-15.838207 -10.686632 -9.670393 21.414234 0.593569 2.039340 0.082914 -0.032829 526114.000000 0 1 0
-16.430707 -11.945232 -10.077893 22.676433 0.628622 2.031325 0.131406 -0.033647 -36216.300000 0 1 0
-15.518307 -12.709632 -10.766593 22.765591 0.686225 2.063413 0.115717 -0.014808 -219472.000000 0 1 0
-16.136707 -13.986832 -11.444093 24.227919 0.714150 2.062753 0.156333 -0.012814 -19107.000000 0 1 0
-16.768607 -13.787132 -12.671793 25.136538 0.688131 2.099157 0.135633 -0.015899 74388.300000 0 0 1
-16.775707 -15.020032 -13.392093 26.198738 0.730237 2.107346 0.120965 -0.013429 -173093.000000 0 0 1
-17.327807 -14.914732 -14.807793 27.239179 0.710696 2.145542 0.141257 -0.008730 -140595.000000 0 0 1
-17.380407 -16.208032 -15.367093 28.300643 0.750508 2.144795 0.119758 0.000634 266152.000000 0 0 1
-17.598907 -16.205232 -16.766293 29.213689 0.744194 2.182080 0.098182 -0.005134 -500585.000000 0 0 1
-17.778407 -17.688332 -17.255593 30.441819 0.782858 2.173459 0.090249 -0.011954 -229375.000000 0 0 1
-19.065007 -18.225332 -17.140993 31.455538 0.762885 2.147099 0.069116 -0.004916 -338784.000000 0 0 1
-19.925307 -17.991332 -18.277493 32.477263 0.734436 2.168539 0.072945 -0.009833 1602600.000000 0 0 1
-21.454707 -17.874632 -17.857193 33.146437 0.694620 2.139733 0.073624 -0.012257 1162590.000000 0 0 1
-21.853107 -16.666532 -17.222693 32.433821 0.651556 2.130589 0.046148 -0.003756 327538.000000 0 0 1
-21.576107 -16.681632 -15.803993 31.520968 0.658155 2.095990 0.037848 -0.005031 -275773.000000 0 0 1
-21.521407 -15.175132 -15.353293 30.482441 0.614153 2.098646 0.043309 -0.009311 169427.000000 0 0 1
-22.756507 -14.491532 -15.239093 30.985368 0.567046 2.084970 0.061454 -0.009274 776326.000000 0 0 1
-22.444507 -13.167432 -14.763893 29.918384 0.530557 2.086874 0.056677 -0.013724 -840881.000000 0 0 1
-23.701107 -12.440432 -14.420893 30.405081 0.483359 2.064956 0.070097 -0.021980 -866223.000000 0 0 1
-24.420907 -12.999932 -13.337093 30.712489 0.489174 2.020009 0.088772 -0.015833 104103.000000 0 0 1
-25.576607 -12.298932 -12.997193 31.214637 0.448224 2.000258 0.106378 -0.017609 -547365.000000 0 0 1
-26.333427 -12.838332 -11.747593 31.563873 0.453622 1.952158 0.108618 -0.023009 -119305.000000 0 0 1
-27.307737 -11.898232 -11.342393 31.873662 0.410906 1.934625 0.095438 -0.028997 312805.000000 0 0 1
-28.030327 -12.415332 -10.194993 32.307547 0.416955 1.891844 0.091728 -0.022790 395378.000000 0 0 1
-28.853477 -11.291632 -9.509593 32.410746 0.373022 1.868587 0.108237 -0.029326 87940.900000 0 0 1
-28.013927 -10.378532 -8.852393 31.158609 0.354800 1.858872 0.106129 -0.035484 96183.700000 0 0 1
-28.775317 -9.660832 -7.886893 31.361659 0.323909 1.825007 0.135052 -0.040150 -186819.000000 0 0 1
-28.259717 -8.364132 -7.338193 30.371358 0.287759 1.814827 0.121785 -0.035480 -360696.000000 0 0 1
-27.260077 -8.655932 -6.375993 29.303417 0.307462 1.790136 0.105142 -0.039797 212121.000000 0 0 1
-26.569197 -7.471532 -5.924793 28.228517 0.274131 1.782255 0.102694 -0.032709 152830.000000 0 0 1
-27.372837 -6.520032 -5.002993 28.579940 0.233836 1.746756 0.126026 -0.037121 -498744.000000 0 0 1
-27.774707 -7.124632 -3.749893 28.918099 0.251101 1.700835 0.124645 -0.040416 508768.000000 0 0 1
-26.754337 -7.214632 -2.750093 27.846157 0.263397 1.669718 0.147458 -0.035200 307955.000000 0 0 1
-26.308567 -5.892832 -2.053393 27.038539 0.220352 1.646813 0.141948 -0.033531 370855.000000 0 0 1
-27.386437 -5.278432 -1.323693 27.921872 0.190404 1.618221 0.145265 -0.041501 371508.000000 0 0 1
-27.148857 -4.000632 -0.826593 27.454485 0.146306 1.600909 0.129082 -0.038428 144333.000000 0 0 1
-28.341567 -3.136532 -0.253693 28.515726 0.110220 1.579693 0.136341 -0.046821 -25022.600000 0 0 1
-28.986757 -3.517732 0.915407 29.213773 0.120766 1.539456 0.146838 -0.045201 -75871.900000 0 0 1
-28.294527 -3.541832 2.143207 28.595772 0.124530 1.495778 0.134011 -0.037365 -40298.700000 0 0 1
-29.376707 -3.748532 3.235007 29.791067 0.126916 1.461992 0.139092 -0.033099 460203.000000 0 0 1
-29.967177 -5.051532 3.116607 30.549352 0.166999 1.468600 0.136031 -0.025763 -161204.000000 0 0 1
-30.939617 -5.234932 4.114507 31.647964 0.167611 1.440419 0.147165 -0.027734 -204486.000000 0 0 1
-31.673627 -6.582232 3.865307 32.580440 0.204898 1.451877 0.131090 -0.025719 -14702.900000 0 0 1
-30.952377 -7.689232 4.320707 32.184507 0.243492 1.436142 0.131139 -0.020584 774418.000000 0 0 1
-31.746637 -8.875832 3.990107 33.204673 0.272622 1.450338 0.142211 -0.026588 842453.000000 0 0 1
-31.053167 -10.221032 4.481907 32.997821 0.317977 1.434551 0.122381 -0.017755 330749.000000 0 0 1
-31.016367 -10.326732 5.894207 33.217437 0.321401 1.392409 0.110394 -0.016393 222944.000000 0 0 1
-30.295047 -11.448932 6.353107 33.003483 0.361323 1.377089 0.114851 -0.016867 -191881.000000 0 0 1
-30.249337 -11.541932 7.838807 33.311942 0.364509 1.333253 0.111368 -0.019866 -84041.700000 0 0 1
-29.735167 -10.434332 8.501107 32.639306 0.337484 1.307302 0.118566 -0.012786 305165.000000 0 0 1
-29.524107 -10.752232 9.857507 32.931047 0.349255 1.266798 0.119737 -0.020345 -241999.000000 0 0 1
-29.501247 -9.511132 10.762507 32.811839 0.311876 1.236603 0.122163 -0.018031 -365634.000000 0 0 1
-28.325017 -8.773732 10.612907 31.494742 0.300379 1.227095 0.109878 -0.014497 -13249.700000 0 0 1
-28.310737 -7.827632 11.648107 31.598229 0.269751 1.193260 0.136433 -0.011034 83986.000000 0 0 1
-27.270817 -6.691832 11.507207 30.346234 0.240630 1.181868 0.146013 -0.011835 -308458.000000 0 0 1
-27.663637 -5.747332 10.580907 30.170586 0.204844 1.212475 0.164259 -0.012627 -110420.000000 0 0 1
-27.013247 -4.527832 10.523207 29.342029 0.166071 1.203986 0.148453 -0.018033 -784509.000000 0 0 1
-27.304517 -3.670632 9.331407 29.087547 0.133632 1.244218 0.154197 -0.027003 9675.330000 0 0 1
-26.681077 -4.145532 8.113107 28.193755 0.154141 1.278907 0.119412 -0.017452 536131.000000 0 0 1
-27.044357 -3.366032 7.022907 28.143359 0.123827 1.318591 0.122620 -0.036021 36935.600000 0 0 1
-26.228677 -3.803932 5.751407 27.119958 0.144025 1.357101 0.112714 -0.019750 -1036720.000000 0 0 1
-24.889707 -3.519832 5.814607 25.801093 0.140486 1.343481 0.124308 -0.039340 -839722.000000 0 0 1
-24.215807 -3.869732 4.646707 24.959408 0.158462 1.383533 0.126579 -0.025547 -261493.000000 0 1 0
-22.690107 -3.688232 4.568107 23.437398 0.161139 1.374634 0.131511 -0.029013 -20605.600000 0 1 0
-22.291107 -2.378132 4.303607 22.826958 0.106283 1.381129 0.094262 -0.025680 -301709.000000 0 1 0
-20.896707 -2.312432 4.334307 21.466391 0.110212 1.367487 0.078028 -0.018212 -692359.000000 0 1 0
-20.219207 -0.955232 4.638907 20.766518 0.047209 1.345512 0.039317 -0.024072 -752742.000000 0 1 0
-20.462507 0.054268 3.692807 20.793123 -0.002652 1.392252 0.045871 -0.016362 -96455.400000 0 1 0
-21.669707 0.709768 3.875607 22.024993 -0.032742 1.393911 0.049262 -0.036756 -765962.000000 0 1 0
-22.078207 1.752468 2.843907 22.329492 -0.079209 1.443088 0.091259 -0.025062 -505786.000000 0 1 0
-21.278607 2.898568 2.958107 21.677897 -0.135387 1.433912 0.058323 -0.025601 130034.000000 0 1 0
-21.549607 3.809168 1.938007 21.969324 -0.174956 1.482467 0.077177 -0.018851 636946.000000 0 1 0
-20.263307 4.436668 1.261607 20.781658 -0.215549 1.510051 0.031328 -0.007795 336065.000000 0 1 0
-20.400007 5.273468 0.092607 21.070794 -0.252966 1.566401 0.035207 -0.007917 118651.000000 0 1 0
-21.219207 4.826168 -0.979893 21.783178 -0.223639 1.615795 0.062014 -0.015095 77373.900000 0 1 0
-20.801007 3.519868 -1.838493 21.176672 -0.167628 1.657723 0.052639 -0.013072 -467495.000000 0 1 0
-20.921407 2.326968 -1.080493 21.078129 -0.110769 1.622080 0.040102 -0.008062 460529.000000 0 1 0
-20.372807 1.232068 -1.784193 20.487865 -0.060403 1.657992 0.027427 -0.003007 -68189.500000 0 1 0
-19.701407 0.158968 -0.851993 19.720462 -0.008069 1.614013 0.035287 -0.005569 -168787.000000 0 1 0
-20.631607 -0.579432 -0.110593 20.640039 0.028077 1.576155 0.057722 -0.009567 659758.000000 0 1 0
-19.999707 -1.438332 0.850007 20.069370 0.071794 1.528430 0.053186 -0.007592 283690.000000 0 1 0
-19.214207 -2.686832 0.259507 19.402891 0.138935 1.557421 0.045501 -0.008163 337086.000000 0 1 0
-18.417007 -3.448032 1.137007 18.771464 0.185077 1.510188 0.042453 -0.007101 577085.000000 0 1 0
-17.776707 -4.585932 0.612607 18.368924 0.252470 1.537440 0.041482 -0.004656 140566.000000 0 1 0
-18.746007 -5.793532 0.489407 19.626954 0.299743 1.545858 0.045860 -0.007125 127478.000000 0 1 0
-19.310407 -6.209832 1.706107 20.355949 0.311135 1.486884 0.066821 -0.013903 873071.000000 0 1 0
-20.483407 -7.011732 1.534907 21.704615 0.329810 1.500019 0.067423 -0.021644 318471.000000 0 1 0
-21.206807 -7.346632 2.866007 22.625554 0.333489 1.443784 0.081749 -0.015790 -359783.000000 0 1 0
-20.505607 -8.205532 3.727507 22.398772 0.380645 1.403603 0.087578 -0.012367 866322.000000 0 1 0
-21.255407 -8.652432 4.901907 23.466692 0.386586 1.360359 0.093314 -0.013095 464765.000000 0 1 0
-20.298907 -9.462532 5.788707 23.132105 0.436211 1.317862 0.078500 -0.009251 -9905.020000 0 1 0
-19.791907 -10.619632 5.220507 23.059702 0.492469 1.342426 0.080622 -0.010028 -194384.000000 0 1 0
-18.751107 -11.113132 6.002407 22.608287 0.535009 1.302078 0.083287 -0.018361 -539880.000000 0 1 0
-18.091707 -12.344932 5.426507 22.564445 0.598784 1.327926 0.076218 -0.016426 -103131.000000 0 1 0
-18.967307 -13.484232 5.320307 23.872346 0.618017 1.346044 0.083340 -0.017257 192505.000000 0 1 0
-18.360907 -14.605632 4.692807 23.926342 0.671975 1.373381 0.082329 -0.014924 -255488.000000 0 1 0
-19.207907 -15.874932 4.522007 25.325989 0.690679 1.391282 0.087171 -0.011344 -702811.000000 0 0 1
-18.449707 -17.019332 4.452707 25.492665 0.745093 1.395230 0.089649 -0.022702 -79473.800000 0 0 1
-19.084207 -18.099032 5.155407 26.802241 0.758909 1.377240 0.086910 -0.022674 -118832.000000 0 0 1
-18.337107 -19.380732 5.029507 27.150658 0.813060 1.384476 0.092394 -0.023393 -832760.000000 0 0 1
-18.579307 -20.093732 3.805607 27.630262 0.824538 1.432624 0.097789 -0.021507 452933.000000 0 0 1
-17.679407 -21.176032 3.627407 27.823441 0.875147 1.440052 0.083187 -0.018957 411522.000000 0 0 1
-16.157107 -20.943432 3.494107 26.681234 0.913699 1.439462 0.099602 -0.012072 -121968.000000 0 0 1
-15.379207 -22.095032 3.784907 27.185216 0.962727 1.431116 0.079175 -0.012454 109109.000000 0 0 1
-14.006207 -21.824832 3.545707 26.173826 1.000239 1.434911 0.073923 -0.012686 522957.000000 0 0 1
-13.074607 -23.009232 3.965207 26.759914 1.054062 1.422072 0.094849 -0.013221 94983.800000 0 0 1
-13.273907 -24.107732 3.028507 27.686661 1.067487 1.461192 0.087786 -0.009459 309206.000000 0 0 1
-12.566307 -25.260122 3.473207 28.426203 1.109170 1.448307 0.072168 -0.011149 -36368.800000 0 0 1
19.315093 18.533768 -24.461193 36.261871 0.764758 2.311179 0.084357 -0.013621 914866.000000 0 0 1
18.291093 18.949868 -25.431413 36.611724 0.803086 2.338695 0.071076 -0.013357 1039640.000000 0 0 1
18.873293 18.991268 -26.708833 37.818397 0.788514 2.354968 0.076450 -0.020263 -968571.000000 0 0 1
17.911193 19.200368 -27.770533 38.218679 0.820122 2.384189 0.067164 -0.019282 -877534.000000 0 0 1
17.574693 20.567668 -28.043563 38.965885 0.863706 2.374160 0.063978 -0.012883 -107798.000000 0 0 1
16.425793 20.633968 -28.839733 39.080654 0.898465 2.400830 0.050572 -0.017906 -277455.000000 0 0 1
16.032193 22.059468 -29.213493 39.963477 0.942328 2.390590 0.058059 -0.009840 -246772.000000 0 0 1
15.397593 22.813168 -28.192083 39.399493 0.977086 2.368199 0.059287 -0.014132 288602.000000 0 0 1
15.148993 24.101268 -28.682763 40.411186 1.009644 2.359972 0.059129 -0.007102 -437359.000000 0 0 1
14.440593 24.995068 -27.691213 40.001093 1.046907 2.335414 0.055786 -0.010529 -1129760.000000 0 0 1
13.214393 24.492168 -27.318883 38.997536 1.076023 2.346934 0.060321 -0.023148 -1050830.000000 0 0 1
12.533893 25.407768 -26.499353 38.792639 1.112515 2.322799 0.065174 -0.015056 125649.000000 0 0 1
11.027893 25.028468 -26.213083 37.883563 1.155775 2.334967 0.085576 -0.015783 909764.000000 0 0 1
10.315693 26.009068 -25.506103 37.860882 1.193208 2.309973 0.076164 -0.016965 -61671.900000 0 0 1
10.095293 27.291568 -26.143153 39.117887 1.216500 2.302740 0.081582 -0.023238 -715278.000000 0 0 1
9.638993 28.360368 -25.160073 39.118409 1.243169 2.269437 0.097332 -0.023670 8979.450000 0 0 1
10.567393 28.675068 -24.140893 38.944987 1.217717 2.239375 0.085037 -0.019483 83767.300000 0 0 1
9.880893 29.403368 -23.136693 38.697502 1.246606 2.211657 0.109788 -0.031459 50219.600000 0 0 1
10.756193 29.890268 -21.932993 38.602849 1.225368 2.175077 0.086076 -0.026158 363153.000000 0 0 1
11.793993 30.799468 -22.271593 39.796097 1.205093 2.164751 0.071031 -0.032555 324295.000000 0 0 1
12.524793 31.211468 -21.136593 39.721301 1.189180 2.131902 0.058437 -0.024549 -307041.000000 0 0 1
13.815993 31.982068 -21.446393 40.910660 1.163018 2.122601 0.059204 -0.017166 -385439.000000 0 0 1
14.831793 31.103868 -21.853693 40.804615 1.125842 2.135978 0.050157 -0.015574 185043.000000 0 0 1
15.927593 31.859968 -22.396893 42.075724 1.107209 2.132111 0.039011 -0.012708 578074.000000 0 0 1
17.161493 31.104568 -22.923593 42.278861 1.066622 2.143849 0.000337 0.002996 619590.000000 0 0 1
18.139793 30.667368 -21.969093 41.859056 1.036649 2.123317 0.006196 0.014089 -244184.000000 0 0 1
19.169593 30.049068 -22.639393 42.225133 1.002944 2.136677 0.008596 0.018139 -575795.000000 0 0 1
20.220993 29.317268 -21.761393 41.736662 0.966996 2.119284 0.019081 0.018124 83785.900000 0 0 1
20.848593 30.184668 -20.838893 42.190490 0.966338 2.087393 0.014047 0.026679 191640.000000 0 0 1
21.779493 29.411368 -20.089493 41.748803 0.933395 2.072819 0.026214 0.027030 411567.000000 0 0 1
22.449793 30.211768 -18.892393 42.114922 0.931738 2.035985 0.035510 0.015934 19311.900000 0 0 1
23.264593 31.294168 -19.238393 43.481973 0.931522 2.029120 0.036520 0.019701 -52688.500000 0 0 1
23.765493 31.867568 -18.029293 43.650841 0.930016 1.996580 0.040544 0.019085 35270.000000 0 0 1
25.075793 32.705768 -18.154193 45.033736 0.916687 1.985725 0.055532 0.012428 724173.000000 0 0 1
26.174293 31.863768 -18.508293 45.199007 0.883116 1.992685 0.075859 0.016371 666187.000000 0 0 1
27.365993 32.664668 -18.642493 46.512586 0.873436 1.983192 0.082584 0.002077 762358.000000 0 0 1
28.617193 32.018968 -19.261893 47.065683 0.841441 1.992434 0.075053 0.000080 253396.000000 0 0 1
29.117693 30.957068 -18.467093 46.338036 0.816007 1.980710 0.066628 0.013521 -722188.000000 0 0 1
30.170593 30.280468 -19.050393 46.798385 0.787216 1.990044 0.035606 0.005569 -317516.000000 0 0 1
30.764793 29.110368 -18.194193 46.096797 0.757774 1.976533 0.043504 0.003376 156106.000000 0 0 1
31.351993 29.654168 -17.001093 46.382694 0.757575 1.946083 0.047341 0.013974 99214.800000 0 0 1
31.782893 28.632468 -16.128593 45.717633 0.733299 1.931344 0.048423 0.008345 -448256.000000 0 0 1
32.300993 29.083368 -14.742793 45.897128 0.733028 1.897807 0.056932 0.000387 465785.000000 0 0 1
33.599193 29.662268 -14.786893 47.195425 0.723246 1.889475 0.016918 0.003214 298871.000000 0 0 1
33.448893 31.100468 -14.800493 48.011687 0.749032 1.884169 0.040289 -0.007348 82411.900000 0 0 1
34.869893 31.677768 -14.937193 49.421758 0.737467 1.877837 0.040903 -0.009935 315748.000000 0 0 1
35.561693 31.581968 -13.686893 49.491269 0.726196 1.851000 0.034454 -0.008893 48191.000000 0 0 1
-36.391536 31.745768 -13.906393 50.254606 -0.717321 1.851174 0.038126 -0.015115 136547.000000 0 0 1
-35.574136 31.925968 -12.655093 49.446314 -0.731404 1.829612 0.036054 -0.009248 -554621.000000 0 0 1
-35.907636 33.068768 -11.927993 50.251157 -0.744264 1.810451 0.047906 -0.015840 224117.000000 0 0 1
-34.977036 33.359668 -10.898593 49.548358 -0.761735 1.792568 0.043998 -0.009496 -244230.000000 0 0 1
-35.370036 -33.606029 -10.160693 49.836175 0.759830 1.776118 0.052208 -0.005078 -56720.100000 0 0 1
-34.557336 -32.888129 -9.218293 48.588223 0.760654 1.761676 0.056747 -0.003636 -319462.000000 0 0 1
-34.337636 -33.618729 -8.049993 48.724681 0.774820 1.736771 0.041800 -0.011598 38068.100000 0 0 1
-34.163436 -32.776729 -6.787193 47.828028 0.764686 1.713185 0.048575 -0.009919 -256730.000000 0 0 1
-35.238336 -31.926529 -6.547793 47.999137 0.736129 1.707638 0.054149 -0.008403 -567093.000000 0 0 1
-34.959336 -31.063629 -5.458993 47.084019 0.726461 1.686999 0.067527 -0.010930 387145.000000 0 0 1
-36.265036 -30.300429 -5.076693 47.529377 0.696032 1.677812 0.066242 -0.009105 394995.000000 0 0 1
36.100293 -31.191629 -4.568793 47.927265 -0.712581 1.666269 0.059766 -0.014206 454617.000000 0 0 1
34.798493 -30.640229 -4.392093 46.573052 -0.721939 1.665242 0.045214 -0.005706 455137.000000 0 0 1
34.540993 -29.779629 -3.128193 45.713150 -0.711507 1.639281 0.047549 -0.000434 -264701.000000 0 0 1
35.242893 -28.508029 -3.195993 45.442090 -0.680145 1.641186 0.067868 -0.011009 509599.000000 0 0 1
34.730593 -27.545429 -2.260193 44.385507 -0.670530 1.621740 0.059728 -0.008444 -115150.000000 0 0 1
35.049093 -26.054929 -2.592593 43.749512 -0.639253 1.630091 0.084855 -0.018251 -64957.200000 0 0 1
34.500693 -25.551429 -3.827893 43.102507 -0.637462 1.659723 0.090100 -0.022175 321587.000000 0 0 1
34.707493 -24.162729 -3.931193 42.472365 -0.608159 1.663488 0.093681 -0.028691 51497.600000 0 0 1
34.183993 -23.582329 -5.290093 41.864743 -0.603891 1.697497 0.097417 -0.036141 -85682.400000 0 0 1
35.110193 -23.886329 -6.311293 42.931513 -0.597399 1.718339 0.108294 -0.040354 387772.000000 0 0 1
34.685393 -23.371029 -7.563493 42.502799 -0.592925 1.749702 0.096036 -0.041236 -422993.000000 0 0 1
35.915493 -23.135729 -8.414993 43.543044 -0.572267 1.765277 0.094252 -0.049920 -359182.000000 0 0 1
36.540293 -24.320129 -8.859793 44.778986 -0.587243 1.769967 0.089747 -0.031548 -284446.000000 0 0 1
-35.697036 -24.007529 -9.666593 44.091755 0.592055 1.791830 0.092064 -0.028980 336591.000000 0 0 1
-35.006036 -25.229529 -10.395293 44.384837 0.624497 1.807200 0.093876 -0.034530 -12366.000000 0 0 1
-34.481636 -26.210029 -9.531193 44.348534 0.649944 1.787402 0.086468 -0.022611 118913.000000 0 0 1
-35.388136 -27.198229 -9.120793 45.554941 0.655280 1.772374 0.072161 -0.019455 -58627.500000 0 0 1
-34.495736 -28.321429 -8.615593 45.456436 0.687423 1.761485 0.064577 -0.009822 24939.900000 0 0 1
-33.850136 -29.001629 -9.650393 45.607634 0.708409 1.784004 0.054935 -0.009704 12838.600000 0 0 1
-33.055736 -30.044829 -9.089993 45.585101 0.737718 1.771549 0.057450 -0.009989 -210264.000000 0 0 1
-32.351536 -30.952829 -10.054193 45.888847 0.763307 1.791687 0.048155 -0.002964 -552558.000000 0 0 1
-31.430536 -30.273529 -10.869393 44.972312 0.766649 1.814904 0.039165 0.007877 -40335.300000 0 0 1
-31.014636 -31.104829 -11.942693 45.519731 0.786850 1.836266 0.031972 0.011337 -72189.200000 0 0 1
-31.031036 -30.449229 -13.326793 45.471795 0.775935 1.868241 0.011133 0.011590 -41742.600000 0 0 1
-30.151336 -29.336729 -13.497293 44.180580 0.771705 1.881263 0.012987 0.019126 -17952.500000 0 0 1
-30.385236 -28.711829 -14.762093 44.334536 0.757089 1.910248 -0.000744 0.020039 233033.000000 0 0 1
-29.312836 -27.640529 -15.140293 43.040326 0.756044 1.930258 0.007939 0.018574 -199516.000000 0 0 1
-28.083236 -28.253429 -15.353893 42.692697 0.788419 1.938676 0.024256 0.011817 -1404040.000000 0 0 1
-27.189136 -27.408629 -15.989793 41.787026 0.789418 1.963459 0.043927 0.012273 -533251.000000 0 0 1
-26.015436 -28.231029 -16.537793 41.800628 0.826219 1.977556 0.061078 0.004093 -480880.000000 0 0 1
-26.212236 -29.030529 -17.708193 42.935219 0.836370 1.995927 0.047487 0.007347 -271731.000000 0 0 1
-26.544636 -28.408829 -18.915793 43.237559 0.819308 2.023596 0.046830 0.007446 116959.000000 0 0 1
-25.378936 -27.618629 -19.568693 42.306179 0.827633 2.051665 0.053508 -0.000826 281859.000000 0 0 1
-25.121336 -26.388829 -18.901293 41.045227 0.810000 2.049354 0.058652 0.003180 355104.000000 0 0 1
-23.713436 -26.154329 -18.999193 40.091711 0.834306 2.064503 0.074170 -0.008948 716301.000000 0 0 1
-23.229936 -25.175129 -17.928293 38.663170 0.825562 2.052968 0.078938 -0.011474 -43226.900000 0 0 1
-23.454536 -25.579529 -16.574893 38.459779 0.828708 2.016360 0.086095 -0.014637 217040.000000 0 0 1
-22.884536 -24.525729 -15.782593 37.071601 0.820001 2.010568 0.090412 -0.016120 192725.000000 0 0 1
-23.180436 -24.493529 -14.234493 36.604458 0.812934 1.970205 0.067084 -0.007935 -562541.000000 0 0 1
-24.532236 -24.357429 -13.926493 37.270124 0.781823 1.953752 0.037938 0.006197 -688129.000000 0 0 1
-24.775536 -24.013229 -12.565893 36.720076 0.769775 1.920062 0.027166 0.014031 -891878.000000 0 0 1
-26.235736 -24.122529 -12.212393 37.674299 0.743459 1.900917 0.018393 0.018181 -1614370.000000 0 0 1
-26.824736 -25.331529 -12.673293 39.011090 0.756777 1.901664 0.026729 0.016924 863735.000000 0 0 1
-28.197536 -25.445629 -12.263293 39.912021 0.734143 1.883107 0.017077 0.017450 530184.000000 0 0 1
-29.322636 -24.548929 -12.756793 40.313802 0.697016 1.892768 0.021912 0.011290 -1333250.000000 0 0 1
-29.467836 -23.221829 -12.234293 39.462446 0.667406 1.886014 0.026443 0.009575 276736.000000 0 0 1
-30.052836 -23.055029 -10.907893 39.416867 0.654387 1.851188 0.038535 0.002311 72433.600000 0 0 1
-31.522536 -23.497029 -10.692193 40.744369 0.640553 1.836327 0.029262 -0.007220 620271.000000 0 0 1
-32.601936 -22.741429 -11.295993 41.323822 0.609079 1.847673 0.055641 -0.019980 783109.000000 0 0 1
-32.642236 -22.560029 -12.719693 41.668466 0.604748 1.881007 0.043436 -0.008698 -929170.000000 0 0 1
-34.043436 -22.156229 -13.209993 42.712503 0.576953 1.885229 0.017801 -0.020880 -57583.800000 0 0 1
-34.945636 -23.230829 -13.099093 43.959699 0.586689 1.873372 0.043446 -0.021710 -1408080.000000 0 0 1
-36.224036 -22.823729 -13.356193 44.849652 0.562238 1.873183 0.072652 -0.029283 -1484600.000000 0 0 1
36.018493 -23.822829 -13.006393 45.100169 -0.584351 1.863340 0.068840 -0.016129 -383826.000000 0 0 1
36.031093 -24.970729 -13.745193 45.942434 -0.606035 1.874633 0.051243 -0.008794 43105.200000 0 0 1
35.384093 -25.984529 -12.995093 45.783209 -0.633414 1.858592 0.049286 -0.018779 183782.000000 0 0 1
35.358693 -27.345129 -13.796093 46.779540 -0.658287 1.870165 0.040556 -0.016786 297406.000000 0 0 1
34.363593 -27.205929 -14.790593 46.257764 -0.669664 1.896254 0.050917 -0.019450 -217324.000000 0 0 1
34.465893 -28.204029 -15.750093 47.238019 -0.685811 1.910725 0.037882 -0.000890 384741.000000 0 0 1
33.409493 -28.117929 -16.906393 46.825615 -0.699606 1.940190 0.031476 -0.007799 -1196680.000000 0 0 1
32.105293 -28.200529 -16.543393 45.822522 -0.720739 1.940171 0.100578 -0.000774 -1523290.000000 0 0 1
31.344493 -28.078529 -17.733193 45.665601 -0.730492 1.969612 0.075511 -0.007904 758110.000000 0 0 1
29.797493 -28.264529 -17.564693 44.668698 -0.759002 1.974929 0.087903 -0.018449 815348.000000 0 0 1
29.209093 -27.236729 -16.800893 43.327595 -0.750470 1.969001 0.086292 -0.018570 290738.000000 0 0 1
27.793393 -27.358129 -16.704593 42.426210 -0.777506 1.975485 0.111674 -0.020956 737217.000000 0 0 1
27.070493 -26.447229 -15.683493 40.966321 -0.773753 1.963663 0.101601 -0.023816 194550.000000 0 0 1
26.902793 -25.091229 -16.014093 40.122079 -0.750570 1.981369 0.100331 -0.030144 1585.490000 0 0 1
26.327793 -24.365429 -14.944393 38.860799 -0.746707 1.965530 0.096298 -0.024264 -149114.000000 0 0 1
26.132193 -22.875629 -15.308893 37.954553 -0.719046 1.985969 0.072598 -0.024711 -336846.000000 0 0 1
24.869493 -22.622629 -15.842193 37.165173 -0.738123 2.011156 0.085104 -0.023344 -473763.000000 0 0 1
24.905293 -21.336629 -16.392893 36.664046 -0.708377 2.034329 0.075392 -0.030708 25249.100000 0 0 1
23.530193 -20.653229 -16.562693 35.419608 -0.720376 2.057385 0.059280 -0.020727 -17203.800000 0 0 1
22.925193 -20.337629 -15.317193 34.260765 -0.725659 2.034291 0.063757 -0.027859 133298.000000 0 0 1
21.698893 -19.666529 -15.541593 33.153513 -0.736306 2.058702 0.050680 -0.033151 154845.000000 0 0 1
21.292493 -18.595729 -14.503693 31.773078 -0.717893 2.044828 0.038243 -0.019345 172.832000 0 0 1
20.767393 -19.038529 -13.277393 31.145455 -0.741993 2.011198 0.034050 -0.017787 26322.900000 0 0 1
20.509293 -17.967329 -12.351493 29.933516 -0.719429 1.996137 0.041892 -0.019608 -32972.500000 0 0 1
19.502593 -18.276029 -11.218693 28.986608 -0.752942 1.968205 0.045259 -0.005854 -85850.800000 0 0 1
20.134093 -18.915929 -10.132293 29.425455 -0.754213 1.922330 0.050905 -0.022294 -296532.000000 0 0 1
19.249793 -18.936029 -9.052793 28.479480 -0.777182 1.894279 0.040203 -0.021644 -322352.000000 0 0 1
19.650693 -19.544329 -7.655193 28.752956 -0.782684 1.840287 0.037183 -0.020810 -481683.000000 0 0 1
20.690593 -18.821829 -7.050993 28.845769 -0.738138 1.817736 0.040946 -0.024106 -199534.000000 0 0 1
21.149793 -19.465429 -5.893793 29.342008 -0.743951 1.773038 0.034649 -0.017215 -865006.000000 0 0 1
22.409493 -18.818629 -5.344893 29.747169 -0.698520 1.751455 0.028389 -0.017213 -874188.000000 0 0 1
23.421093 -18.887129 -6.315093 30.743318 -0.678641 1.777683 0.035276 -0.028076 -338632.000000 0 0 1
24.396193 -17.943129 -5.962193 30.865480 -0.634149 1.765185 0.051120 -0.031969 -445241.000000 0 0 1
25.668093 -17.759329 -6.825293 31.950421 -0.605258 1.786077 0.062691 -0.051182 58209.600000 0 0 1
26.510593 -18.882529 -6.763393 33.243118 -0.618909 1.775679 0.077020 -0.055259 108964.000000 0 0 1
26.283293 -19.776229 -7.867093 33.820140 -0.645052 1.805563 0.079830 -0.055502 -85475.900000 0 0 1
27.320893 -20.927229 -7.778293 35.282884 -0.653649 1.793077 0.089884 -0.059257 404328.000000 0 0 1
28.648393 -20.624429 -8.156293 36.230134 -0.623968 1.797867 0.094262 -0.054119 -141440.000000 0 0 1
29.371193 -21.815129 -8.131493 37.479167 -0.638838 1.789496 0.096194 -0.050283 -252997.000000 0 0 1
-30.050967 29.838868 4.563007 42.593893 -0.781857 1.463462 0.046696 -0.012944 58686.300000 0 0 1
-29.501907 30.611968 3.530407 42.660508 -0.803862 1.487946 0.039172 -0.014588 -392150.000000 0 0 1
-28.598077 31.495168 4.136007 42.742277 -0.833571 1.473878 0.030714 -0.004893 -270832.000000 0 0 1
-28.187147 32.499468 3.041207 43.127481 -0.856338 1.500221 0.033912 -0.005308 -461956.000000 0 0 1
-27.318337 31.914468 2.062507 42.060418 -0.862837 1.521740 0.037642 -0.014859 352062.000000 0 0 1
-26.831297 32.885668 1.110807 42.457268 -0.886437 1.544630 0.043926 -0.026455 -361221.000000 0 0 1
-25.794487 33.908168 1.633107 42.635507 -0.920472 1.532483 0.068662 -0.018668 -892856.000000 0 0 1
-24.499407 33.379768 1.597407 41.436477 -0.937640 1.532236 0.047850 -0.025241 -185488.000000 0 0 1
-23.593407 -34.040029 2.361507 41.484324 0.964711 1.513840 0.059322 -0.023549 245350.000000 0 0 1
-22.116107 33.822868 2.293007 40.476740 -0.991698 1.514116 0.060958 -0.036268 -210635.000000 0 0 1
-21.523607 34.089368 1.030907 40.328817 -1.007617 1.545231 0.080048 -0.038248 308977.000000 0 0 1
-20.151207 33.700168 1.008507 39.278360 -1.031881 1.545118 0.074704 -0.038236 -27053.100000 0 0 1
-19.428107 -34.110129 -0.269593 39.255891 1.053052 1.577664 0.074440 -0.036460 -162435.000000 0 0 1
-19.258407 -32.714629 -0.479993 37.965295 1.038743 1.583440 0.071559 -0.021736 593139.000000 0 0 1
-18.465707 -32.017129 0.510407 36.964029 1.047652 1.556988 0.074716 -0.020463 -49867.300000 0 0 1
-18.286307 -30.506829 0.370607 35.569552 1.030806 1.560377 0.074414 -0.021062 -186346.000000 0 0 1
-17.412107 -30.052629 -0.627493 34.738102 1.045671 1.588861 0.077875 -0.012663 21610.000000 0 0 1
-17.269007 -28.622929 -0.569293 33.433737 1.027934 1.587825 0.056834 -0.006268 264599.000000 0 0 1
-16.199707 -28.171929 -1.605493 32.537144 1.048939 1.620160 0.053426 -0.005663 317226.000000 0 0 1
-16.712107 -28.356329 -2.934993 33.045274 1.038237 1.659731 0.044508 -0.007671 148520.000000 0 0 1
-15.716707 -28.027229 -3.860593 32.364249 1.059725 1.690367 0.043866 -0.010129 38138.900000 0 0 1
-16.315407 -28.061929 -5.328393 32.894622 1.044160 1.733497 0.059833 -0.006304 143984.000000 0 0 1
-17.197307 -27.000129 -5.578093 32.494145 1.003661 1.743315 0.052722 -0.004083 -604166.000000 0 0 1
-17.566207 -26.947129 -6.930893 32.905268 0.993103 1.783017 0.063083 -0.007773 133777.000000 0 0 1
-18.323107 -25.659329 -7.283293 32.360219 0.950675 1.797811 0.046938 -0.004158 181202.000000 0 0 1
-17.568207 -24.506729 -6.974693 30.949443 0.948836 1.798106 0.054907 -0.000425 -209998.000000 0 0 1
-18.229007 -23.367529 -7.424593 30.552622 0.908308 1.816264 0.049963 -0.000274 -154067.000000 0 0 1
-17.469107 -22.077129 -7.043093 29.020243 0.901397 1.815940 0.060811 -0.007445 91521.800000 0 0 1
-16.254407 -22.072829 -7.762993 28.489991 0.936057 1.846767 0.081305 -0.012677 -317056.000000 0 0 1
-15.415207 -21.023929 -7.281193 27.067508 0.938120 1.843152 0.138018 -0.032869 352619.000000 0 0 1
-14.155907 -20.856029 -8.145893 26.489984 0.974479 1.883370 0.122751 -0.030489 108033.000000 0 0 1
-14.490207 -20.094729 -9.285593 26.457258 0.946053 1.929399 0.132546 -0.016219 -905157.000000 0 0 1
-13.457607 -20.001529 -10.196593 26.175157 0.978540 1.970942 0.124963 -0.015352 -545840.000000 0 0 1
-13.760507 -19.381729 -11.596393 26.447671 0.953408 2.024687 0.141613 -0.008544 -579776.000000 0 0 1
-14.720007 -20.030129 -12.340793 27.752114 0.937034 2.031613 0.126051 0.009210 -753225.000000 0 0 1
-15.061107 -19.119729 -13.417893 27.792820 0.903584 2.074626 0.131173 -0.007225 368977.000000 0 0 1
-16.299507 -19.595729 -14.239493 29.196399 0.876970 2.080266 0.128316 -0.005535 655344.000000 0 0 1
-17.518307 -19.376029 -13.532193 29.418393 0.835708 2.048781 0.118704 -0.007799 382365.000000 0 0 1
-18.628507 -19.760729 -14.357593 30.718857 0.814883 2.057129 0.088290 -0.004621 -288141.000000 0 0 1
-19.972607 -19.516029 -13.687093 31.098504 0.773836 2.026529 0.062413 0.001443 -929356.000000 0 0 1
-20.970107 -19.990229 -14.508993 32.401628 0.761480 2.035084 0.077688 -0.008157 -750890.000000 0 0 1
-22.302107 -19.781829 -14.092693 32.974365 0.725583 2.012393 0.054624 -0.002998 -117697.000000 0 0 1
-23.277707 -20.579529 -14.947393 34.478881 0.723954 2.019195 0.056967 -0.012464 -595216.000000 0 0 1
-23.439307 -20.072729 -16.248493 34.875910 0.708181 2.055442 0.060890 -0.018191 -34236.200000 0 0 1
-24.102307 -21.059729 -16.994693 36.238833 0.718130 2.058913 0.071754 -0.026865 -414197.000000 0 0 1
-24.558107 -20.632729 -18.415293 36.985580 0.698753 2.091977 0.074479 -0.024708 -400860.000000 0 0 1
-23.595407 -20.112829 -19.308093 36.524945 0.705888 2.127779 0.070291 -0.023851 -248226.000000 0 0 1
-24.017507 -19.828929 -20.645393 37.366554 0.690159 2.156169 0.069156 -0.023391 -291046.000000 0 0 1
-22.973007 -18.923929 -21.352293 36.630514 0.689054 2.193102 0.061564 -0.020799 -331507.000000 0 0 1
-21.795907 -19.630629 -21.564393 36.406678 0.733178 2.204731 0.055431 -0.016871 -603269.000000 0 0 1
-20.877507 -18.869429 -22.356893 35.941012 0.734919 2.242147 0.052232 -0.020162 458418.000000 0 0 1
-19.454607 -19.468529 -22.411293 35.493259 0.785756 2.254184 0.054130 -0.015461 -2177.750000 0 0 1
-19.405207 -20.539029 -23.324593 36.639465 0.813776 2.260875 0.042808 -0.006784 943288.000000 0 0 1
-18.090407 -21.141529 -23.311193 36.299295 0.863013 2.268153 0.038824 -0.005458 851244.000000 0 0 1
-18.129207 -22.575929 -23.983293 37.597062 0.894209 2.262569 0.043040 -0.009731 -126204.000000 0 0 1
-17.969707 -22.579929 -25.424883 38.460216 0.898605 2.293040 0.039738 -0.010351 277211.000000 0 0 1
-18.347907 -23.773229 -26.120703 39.800794 0.913496 2.286682 0.039756 -0.013359 -175450.000000 0 0 1
-18.187507 -23.735529 -27.672933 40.742508 0.916972 2.317489 0.042275 -0.005094 -536938.000000 0 0 1
-16.847007 -23.925629 -28.026963 40.518737 0.957297 2.334642 0.031902 -0.005533 -358299.000000 0 0 1
-16.635207 -23.755529 -29.405713 41.300741 0.959891 2.363124 0.046080 -0.008737 -172324.000000 0 0 1
-15.165507 -23.705229 -29.845873 41.020807 1.001658 2.385582 0.016218 -0.014188 -143356.000000 0 0 1
-14.482707 -24.924229 -29.735863 41.414823 1.044413 2.371722 0.035390 -0.015547 -110301.000000 0 0 1
-13.130607 -24.808329 -30.117273 41.169359 1.083998 2.391383 0.059453 -0.021730 42150.600000 0 0 1
-12.234307 -25.995429 -29.756183 41.362677 1.130917 2.373730 0.066534 -0.020279 -946450.000000 0 0 1
-12.496207 -27.141729 -30.530063 42.719005 1.139323 2.366951 0.056908 -0.018711 415818.000000 0 0 1
-11.601607 -28.207029 -30.212253 42.930339 1.180585 2.351459 0.063378 -0.018648 403136.000000 0 0 1
-10.193107 -28.102429 -30.850003 42.957754 1.222841 2.371933 0.070604 -0.015570 26105.100000 0 0 1
-9.425307 -27.019429 -30.313193 41.686636 1.235160 2.384984 0.080711 -0.025772 -1045810.000000 0 0 1
-8.429507 -26.631229 -31.136383 41.830052 1.264247 2.410364 0.068171 -0.029184 -1146560.000000 0 0 1
-7.706207 -25.345729 -30.736853 40.577651 1.275634 2.430244 0.090479 -0.030073 102683.000000 0 0 1
-8.565307 -24.214829 -30.878913 40.165031 1.230810 2.447760 0.090762 -0.030305 326929.000000 0 0 1
-9.197807 -23.775629 -29.721253 39.156520 1.201670 2.432629 0.081365 -0.020726 -307694.000000 0 0 1
-9.560307 -22.296729 -29.760233 38.395508 1.165732 2.457664 0.078291 -0.027266 473567.000000 0 0 1
-10.684407 -21.995429 -30.601243 39.171310 1.118609 2.467407 0.072598 -0.029271 463396.000000 0 0 1
-10.794407 -20.630529 -30.743443 38.565493 1.088742 2.493398 0.061309 -0.027018 76602.700000 0 0 1
-11.646607 -20.211629 -31.945473 39.555867 1.048036 2.510874 0.051705 -0.024756 -22736.400000 0 0 1
-11.995407 -18.847629 -31.865733 38.917192 1.004012 2.530129 0.049553 -0.020112 211106.000000 0 0 1
-12.712807 -18.438129 -33.020763 39.899259 0.967163 2.545621 0.054729 -0.022267 -666338.000000 0 0 1
-13.443607 -17.143029 -32.879063 39.441688 0.905762 2.556411 0.070979 -0.020679 -542320.000000 0 0 1
-12.689807 -15.949329 -32.973143 38.763906 0.898724 2.587949 0.074716 -0.019574 108187.000000 0 0 1
-11.942307 -15.520829 -31.845853 37.385467 0.914971 2.590255 0.066852 -0.013985 232686.000000 0 0 1
-11.401707 -14.070629 -31.940393 36.717437 0.889795 2.625790 0.073603 -0.016614 306609.000000 0 0 1
-10.496907 -13.795029 -33.036833 37.308447 0.920343 2.658377 0.069025 -0.019562 142744.000000 0 0 1
-11.010207 -13.607329 33.886614 38.140355 0.890508 0.476793 0.074534 -0.019175 -695499.000000 0 0 1
-11.588407 -12.217729 33.648554 37.626976 0.811827 0.464006 0.074630 -0.010002 435726.000000 0 0 1
-12.915007 -12.077429 -34.067419 38.382948 0.751897 2.662832 0.064801 -0.004141 40815.700000 0 0 1
-13.499707 -11.076229 33.425717 37.712114 0.687104 0.481418 0.053257 -0.015049 392290.000000 0 0 1
-14.796007 -10.535629 34.100511 38.636333 0.618773 0.489427 0.069206 -0.009606 597176.000000 0 0 1
-14.384107 -9.611829 -33.140763 37.384488 0.589081 2.660488 0.078449 -0.011278 -241854.000000 0 0 1
-15.375107 -9.328029 -32.225973 36.904192 0.545329 2.632595 0.083980 -0.019410 -590665.000000 0 0 1
-14.996307 -8.085229 -31.406753 35.730159 0.494473 2.644554 0.091996 -0.027030 -213926.000000 0 0 1
-14.903007 -6.894529 -32.161803 36.111158 0.433305 2.669533 0.078281 -0.031533 -352120.000000 0 0 1
-15.964007 -6.009329 -32.048173 36.304916 0.360024 2.652480 0.084560 -0.028826 -745420.000000 0 0 1
-16.130107 -5.329229 -30.664853 35.055873 0.319099 2.635700 0.079874 -0.036439 -346162.000000 0 0 1
-16.433607 -6.234029 -29.612183 34.435562 0.362576 2.605929 0.074309 -0.041574 -108219.000000 0 0 1
-16.551107 -5.609529 -28.341163 33.296058 0.326772 2.589039 0.073134 -0.044770 35406.200000 0 0 1
-15.353907 -4.872029 -27.678213 32.024406 0.307266 2.614523 0.080125 -0.044306 12415.900000 0 0 1
-15.004907 -3.594329 -28.255253 32.193567 0.235113 2.641770 0.077981 -0.036791 701557.000000 0 0 1
-13.805307 -3.100629 -27.623233 31.036163 0.220931 2.668216 0.065132 -0.030915 721027.000000 0 0 1
-13.533707 -1.784629 -28.410653 31.520014 0.131109 2.693679 0.042222 -0.018395 -106876.000000 0 0 1
-13.543607 -1.940629 -29.829503 32.817595 0.142319 2.711551 0.049097 -0.020034 276484.000000 0 0 1
-13.393507 -0.770629 -30.578453 33.391940 0.057474 2.728151 0.043401 -0.020965 -100823.000000 0 0 1
-13.619807 -0.920629 -32.097563 34.879797 0.067492 2.739473 0.038439 -0.020769 -71826.800000 0 0 1
-14.928507 -1.233629 -32.546963 35.828577 0.082448 2.710256 0.024389 -0.020114 315727.000000 0 0 1
-15.010507 -1.507629 -33.911233 37.115495 0.100103 2.723015 0.012399 -0.012390 -171777.000000 0 0 1
-16.444207 -1.590629 33.758951 37.584689 0.096429 0.455116 0.004211 -0.009638 65327.400000 0 0 1
-16.425307 -1.925629 32.371323 36.351085 0.116703 0.472312 0.017515 -0.019389 -59221.800000 0 0 1
-17.657807 -1.598629 31.792273 36.401956 0.090288 0.508723 0.014664 -0.009284 -433770.000000 0 0 1
-17.600607 -1.666629 30.226933 35.017518 0.094410 0.529233 0.031845 -0.010071 -19837.400000 0 0 1
-16.977807 -0.515629 29.709203 34.222048 0.030361 0.519373 0.023054 -0.002559 3987.720000 0 0 1
-16.827907 -0.588629 28.333403 32.959167 0.034965 0.536209 0.023668 -0.011709 -71450.800000 0 0 1
-16.322807 0.780371 27.706783 32.166891 -0.047772 0.532885 0.028255 -0.010795 555667.000000 0 0 1
-17.097007 1.956371 28.100573 32.951135 -0.113932 0.549482 0.028698 -0.007267 1543760.000000 0 0 1
-18.476507 2.086371 27.681183 33.346397 -0.112444 0.591491 0.046345 -0.010837 1179560.000000 0 0 1
-18.611407 2.726371 26.269643 32.309623 -0.145455 0.621408 0.056251 -0.023024 -474769.000000 0 0 1
-18.125507 4.018371 26.250673 32.152437 -0.218168 0.615570 0.043491 -0.012600 78472.400000 0 0 1
-18.501007 4.615371 25.019833 31.457606 -0.244476 0.651210 0.053060 -0.006684 -678968.000000 0 0 1
-18.644807 6.139371 25.214363 31.954418 -0.318099 0.661498 0.047569 -0.003493 143709.000000 0 0 1
-17.471107 6.911371 25.413443 31.604584 -0.376698 0.636626 0.039904 -0.003046 -323016.000000 0 0 1
-16.687407 6.946371 24.266623 30.258728 -0.394448 0.640209 0.042615 -0.001953 -951305.000000 0 0 1
-15.560707 7.941371 24.313773 29.939281 -0.471891 0.623050 0.051250 -0.011801 -62396.500000 0 0 1
-14.339107 7.644371 24.968283 29.790293 -0.489786 0.576942 0.037824 -0.013658 316593.000000 0 0 1
-13.259807 8.256371 24.290203 28.879130 -0.556916 0.571485 0.049824 -0.006897 315046.000000 0 0 1
-11.847807 8.021371 24.880123 28.700757 -0.595146 0.521886 0.044303 0.002041 709491.000000 0 0 1
-10.799207 8.594371 24.039293 27.719555 -0.672195 0.521180 0.043819 -0.010317 1532630.000000 0 0 1
-9.536707 8.658371 24.726013 27.879955 -0.737162 0.480261 0.045553 -0.014725 600662.000000 0 0 1
-9.337907 10.035371 25.405883 28.868046 -0.821384 0.494788 0.054338 -0.026216 -675761.000000 0 0 1
-10.367007 10.340371 26.323273 30.121634 -0.784112 0.507630 0.044453 -0.029286 291474.000000 0 0 1
-10.149407 11.608371 26.889213 30.996686 -0.852353 0.520669 0.046103 -0.034490 -238558.000000 0 0 1
-10.945107 12.734371 26.175983 31.098902 -0.860817 0.570370 0.050524 -0.034805 1389000.000000 0 0 1
-12.395707 12.723371 26.190713 31.646346 -0.798442 0.595967 0.052376 -0.031876 1415430.000000 0 0 1
-12.994307 11.924371 25.178803 30.741093 -0.742487 0.611025 0.057731 -0.025127 -427681.000000 0 0 1
-14.519207 11.797371 25.227713 31.407370 -0.682338 0.638078 0.029786 -0.013269 -131007.000000 0 0 1
-15.214307 12.966371 24.797033 31.851135 -0.705798 0.678478 0.052263 -0.025871 500893.000000 0 0 1
-16.472207 12.780371 24.142283 31.898610 -0.659856 0.712325 0.054551 -0.009059 566641.000000 0 0 1
-16.379007 12.317371 22.674653 30.563531 -0.644794 0.734918 0.042897 0.004075 -394133.000000 0 0 1
-16.282507 10.915371 22.526453 29.861455 -0.590565 0.716109 0.038379 0.000695 14773.600000 0 0 1
-16.260307 10.540371 21.140253 28.677645 -0.575128 0.741926 0.037769 0.000673 -17836.500000 0 0 1
-16.458007 8.987371 20.881053 28.065232 -0.499828 0.731732 0.037190 -0.006721 241031.000000 0 0 1
-17.843507 8.732371 20.928653 28.855737 -0.455121 0.759347 0.048399 -0.000691 -287970.000000 0 0 1
-18.162107 7.412371 20.597053 28.443699 -0.387489 0.761018 0.046472 0.000860 524411.000000 0 0 1
-19.695407 7.218371 20.808553 29.546740 -0.351298 0.789418 0.058843 0.006239 488018.000000 0 0 1
-20.115907 7.437371 22.140953 30.825088 -0.354139 0.769474 0.051394 0.005302 480012.000000 0 0 1
-21.544907 7.553371 22.131753 31.797027 -0.337198 0.800940 0.047623 -0.000775 644183.000000 0 0 1
-22.012607 8.165371 23.517983 33.231366 -0.355207 0.784553 0.055341 -0.004192 -547329.000000 0 0 1
-21.851907 9.581371 23.713573 33.639888 -0.413223 0.788480 0.051303 -0.001457 919989.000000 0 0 1
-20.520307 10.141371 23.670423 32.927486 -0.459006 0.768628 0.051268 -0.001113 830477.000000 0 0 1
-19.581507 9.714371 24.808863 33.064847 -0.460522 0.722266 0.042253 -0.008653 -643886.000000 0 0 1
-19.891307 10.283371 26.029623 34.335887 -0.477138 0.710420 0.045836 -0.000316 64836.400000 0 0 1
-19.325507 9.457371 27.002183 34.525860 -0.455109 0.672790 0.042522 -0.003167 4372.980000 0 0 1
-31.963997 -13.982732 20.544653 40.488229 0.412371 1.038605 0.071543 -0.007752 -820565.000000 0 0 1
-30.916587 -14.849732 20.749653 40.086133 0.447777 1.026722 0.058258 -0.011429 -566534.000000 0 0 1
-30.782727 -15.932232 19.798053 39.917104 0.477605 1.051834 0.048676 0.001201 -54206.200000 0 0 1
-30.245207 -15.616632 18.391653 38.689852 0.476629 1.075422 0.046554 0.005619 -563478.000000 0 0 1
-31.077277 -14.774932 17.655053 38.675531 0.443795 1.096748 0.062058 -0.012686 -517311.000000 0 0 1
-30.604487 -14.515132 16.350953 37.612197 0.442862 1.121064 0.058636 -0.015803 -1255880.000000 0 0 1
-31.468597 -13.511732 15.532653 37.604559 0.405568 1.144993 0.065192 -0.014849 -330761.000000 0 0 1
-32.759387 -13.940932 15.200853 38.711665 0.402341 1.167265 0.081854 -0.015296 378883.000000 0 0 1
-33.778387 -14.038132 16.209053 40.009774 0.393878 1.153678 0.077318 -0.015017 11674.300000 0 0 1
-34.312250 -12.696032 16.830353 40.271336 0.354393 1.139637 0.070975 -0.014189 54852.600000 0 0 1
-35.380601 -13.007332 17.741153 41.662047 0.352303 1.130912 0.058645 -0.014074 480509.000000 0 0 1
-35.956498 -11.837732 18.321353 42.055602 0.318047 1.120041 0.060741 -0.004397 669618.000000 0 0 1
36.145041 -12.020532 19.247853 42.678297 -0.321058 1.102912 0.055575 0.005975 425176.000000 0 0 1
36.528931 -12.480432 20.509953 43.712495 -0.329225 1.082410 0.047984 0.004406 173387.000000 0 0 1
35.685851 -12.017932 21.569653 43.395399 -0.324841 1.050601 0.041220 -0.000048 -1098820.000000 0 0 1
36.180101 -12.437832 22.961353 44.619762 -0.331119 1.030255 0.042417 -0.012195 -21375.800000 0 0 1
-35.962878 -11.842932 23.395593 44.507723 0.318125 1.017314 0.038268 -0.008484 76867.500000 0 0 1
-34.818645 -12.463532 22.848953 43.471282 0.343745 1.017364 0.035021 -0.008678 -442963.000000 0 0 1
-33.550217 -11.558432 22.917553 42.242499 0.331777 0.997358 0.058510 -0.010133 192879.000000 0 0 1
-33.435417 -10.576932 21.918453 41.354773 0.306379 1.012184 0.077274 -0.013854 -667903.000000 0 0 1
-32.141847 -10.090532 21.794653 40.123859 0.304194 0.996571 0.101614 -0.030077 -945618.000000 0 0 1
-32.032877 -8.872332 20.824253 39.223374 0.270202 1.011117 0.121835 -0.015690 -19967.600000 0 0 1
-32.317277 -9.157432 19.468153 38.823626 0.276122 1.045521 0.121399 -0.009399 122124.000000 0 0 1
-33.699567 -8.933832 19.262453 39.831097 0.259141 1.066029 0.109719 -0.016628 -225106.000000 0 0 1
-33.996067 -8.724132 17.760153 39.335304 0.251201 1.102343 0.105814 -0.014543 -767511.000000 0 0 1
-35.353109 -8.456532 17.626753 40.398734 0.234790 1.119292 0.050924 -0.003514 -539524.000000 0 0 1
-35.746030 -8.291932 16.248153 40.131500 0.227937 1.153957 0.052833 0.002344 -167551.000000 0 0 1
36.083561 -8.352032 16.053653 40.367061 -0.227458 1.161796 0.057495 -0.004696 -204518.000000 0 0 1
35.499011 -9.619332 16.255453 40.211331 -0.264620 1.154637 0.054481 0.006797 333861.000000 0 0 1
34.105061 -9.590232 15.973653 38.862390 -0.274118 1.147211 0.055960 0.007669 618377.000000 0 0 1
33.301191 -10.908632 16.046753 38.541742 -0.316559 1.141372 0.052953 0.006755 218783.000000 0 0 1
33.247911 -11.365532 17.338553 39.181939 -0.329389 1.112396 0.037284 0.002796 428752.000000 0 0 1
32.089191 -12.187832 17.520353 38.538581 -0.362982 1.098852 0.054321 -0.002343 479365.000000 0 0 1
31.861581 -12.776132 18.938353 39.205244 -0.381358 1.066654 0.043584 -0.001281 259390.000000 0 0 1
32.678681 -13.873732 19.388553 40.451114 -0.401489 1.070930 0.048546 0.000306 15708.800000 0 0 1
32.702641 -13.940132 20.796253 41.185849 -0.402945 1.041488 0.044845 0.000831 -588078.000000 0 0 1
33.341171 -15.213532 21.426353 42.452018 -0.428080 1.041740 0.040724 0.002717 164713.000000 0 0 1
33.417291 -15.101732 22.827453 43.195721 -0.424444 1.014004 0.036103 -0.004315 -97956.600000 0 0 1
34.046511 -16.258532 23.332023 44.360885 -0.445518 1.016954 0.042641 -0.004639 41861.400000 0 0 1
34.481091 -16.148732 24.773813 45.425423 -0.437997 0.993962 0.061681 -0.005667 161342.000000 0 0 1
35.524371 -15.181732 24.890533 45.956551 -0.403869 0.998445 0.054275 -0.003555 131359.000000 0 0 1
35.928331 -15.220332 26.260693 47.033260 -0.400710 0.978409 0.050943 -0.006293 -724403.000000 0 0 1
-36.247307 -14.290532 26.490003 47.114826 0.375540 0.973700 0.041535 -0.011714 -891112.000000 0 0 1
-35.023083 -14.803732 26.006153 46.066114 0.399908 0.970921 0.021905 -0.004292 -593510.000000 0 0 1
-34.049987 -13.836332 26.266373 45.174861 0.385972 0.950301 0.036280 -0.012327 -1488350.000000 0 0 1
-32.696917 -14.384232 25.959003 44.157269 0.414445 0.942365 0.028003 -0.007238 -1892940.000000 0 0 1
-32.406867 -14.422132 24.561013 43.144482 0.418716 0.965174 0.023623 -0.004453 201797.000000 0 0 1
-31.032667 -14.571632 24.215983 41.973477 0.438999 0.955825 0.040468 -0.009447 610026.000000 0 0 1
-30.466967 -16.031332 24.514713 42.263588 0.484377 0.952014 0.043364 -0.012503 -589689.000000 0 0 1
-30.367047 -16.275632 25.903533 43.105067 0.492003 0.926120 0.043588 -0.013464 -118415.000000 0 0 1
-30.258627 -17.646432 26.183353 43.732700 0.527965 0.928903 0.044665 -0.017655 -207084.000000 0 0 1
-29.994887 -17.936432 27.681633 44.583424 0.538935 0.900912 0.050846 -0.013608 -440986.000000 0 0 1
-28.764737 -17.476132 28.171623 43.891522 0.545955 0.873892 0.048507 -0.015315 -215594.000000 0 0 1
-28.596867 -18.019032 29.465233 44.840454 0.562262 0.853814 0.055975 -0.022969 484636.000000 0 0 1
-27.298047 -17.471632 30.134693 44.255407 0.569336 0.821769 0.063352 -0.029042 358276.000000 0 0 1
-27.408397 -16.098832 30.531443 44.074501 0.531080 0.805538 0.069584 -0.032701 701899.000000 0 0 1
-26.206877 -15.323432 30.311563 42.899870 0.529101 0.786164 0.070002 -0.024662 576926.000000 0 0 1
-26.131737 -13.882032 30.895543 42.779821 0.488320 0.763820 0.074051 -0.020702 -126999.000000 0 0 1
-25.646967 -13.884932 32.214143 43.454681 0.496206 0.735750 0.075130 -0.024594 100450.000000 0 0 1
-25.277457 -12.603632 32.626567 43.154308 0.462536 0.713548 0.076499 -0.016089 -4963.710000 0 0 1
-24.504007 -12.607032 33.990036 43.757356 0.475171 0.681253 0.078711 -0.013677 183463.000000 0 0 1
-23.110207 -12.846432 34.003429 43.073724 0.507344 0.660926 0.050961 -0.008629 173734.000000 0 0 1
-22.750007 -14.212732 -34.066689 43.360164 0.558409 2.474571 0.053517 -0.017585 -288902.000000 0 0 1
-22.847907 -14.804832 -32.605523 42.477406 0.574949 2.445880 0.057573 -0.020765 -1049480.000000 0 0 1
-21.793407 -14.498832 -31.775193 41.168332 0.587046 2.452520 0.043990 -0.016220 -730290.000000 0 0 1
-21.899707 -15.306332 -30.627753 40.644067 0.610007 2.424258 0.052680 -0.018587 414502.000000 0 0 1
-20.600007 -15.515632 -29.777023 39.392464 0.645537 2.427834 0.050036 -0.016515 534508.000000 0 0 1
-20.163207 -14.523932 -28.842873 38.071128 0.624233 2.430432 0.054209 -0.012418 439028.000000 0 0 1
-20.960407 -14.380932 -27.634183 37.547276 0.601336 2.397915 0.058863 -0.009284 294427.000000 0 0 1
-20.537607 -13.175532 -26.762193 36.216059 0.570399 2.402321 0.061087 -0.009846 155909.000000 0 0 1
-19.244207 -13.103132 -26.189333 35.041586 0.597783 2.414904 0.058879 -0.019902 38406.400000 0 0 1
-18.981707 -11.881532 -25.601793 34.013641 0.559280 2.422938 0.051182 -0.028675 117506.000000 0 0 1
-17.570807 -11.898432 -24.980793 32.777217 0.595239 2.437407 0.056175 -0.030665 -685666.000000 0 0 1
-17.525507 -12.738132 -23.783293 32.172168 0.628509 2.402753 0.062620 -0.031088 485088.000000 0 0 1
-16.278707 -12.914632 -23.093393 31.065878 0.670670 2.408889 0.066019 -0.034019 519541.000000 0 0 1
-15.211107 -13.738832 -23.867293 31.460784 0.734586 2.432014 0.037735 -0.028184 -678827.000000 0 0 1
-14.538507 -12.928932 -24.792393 31.514889 0.726866 2.476222 0.049353 -0.030536 -197515.000000 0 0 1
-13.743507 -13.768932 -25.599453 32.152752 0.786322 2.491755 0.055165 -0.025637 -281470.000000 0 0 1
-12.680607 -13.115432 -26.503763 32.175484 0.802253 2.538747 0.073024 -0.019359 -87701.300000 0 0 1
-13.226607 -12.227532 -27.459263 32.840018 0.746168 2.561027 0.100634 -0.027154 347337.000000 0 0 1
-12.256807 -11.773432 -28.398573 33.095648 0.765286 2.602307 0.103533 -0.030719 350551.000000 0 0 1
-12.990007 -10.752132 -29.294033 33.800724 0.691418 2.619282 0.084146 -0.026751 597872.000000 0 0 1
-12.120607 -9.894132 -30.043883 33.873852 0.684605 2.661461 0.081636 -0.020434 118557.000000 0 0 1
-11.396107 -10.425232 -31.105243 34.728847 0.740935 2.680710 0.090473 -0.017053 -152482.000000 0 0 1
-10.678407 -9.306932 -31.883443 34.888412 0.716882 2.723510 0.063504 -0.008090 -639889.000000 0 0 1
-9.394907 -9.084332 -31.410493 34.020706 0.768593 2.747319 0.054675 -0.008489 -861920.000000 0 0 1
-8.867907 -7.942932 -32.096153 34.232922 0.730431 2.786406 0.041713 -0.002806 1004870.000000 0 0 1
-7.344807 -7.657132 -31.773613 33.498363 0.806214 2.819302 0.058539 -0.006014 658003.000000 0 0 1
-7.083907 -7.451532 -30.404393 32.095703 0.810684 2.815509 0.042504 -0.001535 -80590.800000 0 0 1
-7.516207 -6.216732 -29.812913 31.367991 0.691054 2.825395 0.048086 -0.005257 -541628.000000 0 0 1
-6.915907 -4.850232 -30.227263 31.385378 0.611608 2.869089 0.045225 -0.011712 -168467.000000 0 0 1
-5.530907 -4.760032 -29.980453 30.855735 0.710630 2.902837 0.054799 -0.015950 51614.500000 0 0 1
-5.019207 -3.508532 -30.466333 31.075708 0.610069 2.943230 0.054481 -0.021989 -40856.000000 0 0 1
-3.528207 -3.341732 -30.102653 30.492378 0.758261 2.981540 0.048480 -0.018099 -524636.000000 0 0 1
-2.623507 -3.978032 -30.973703 31.338120 0.987773 2.988942 0.041815 -0.017053 -1148270.000000 0 0 1
-1.314107 -3.872832 -30.581723 30.853970 1.243673 3.008651 0.064142 -0.017358 -1088440.000000 0 0 1
-0.603407 -2.650232 -31.208603 31.326741 1.346932 3.054719 0.066603 -0.018243 -724626.000000 0 0 1
0.579193 -2.342232 -30.474173 30.569539 -1.328377 3.062583 0.072697 -0.024783 504192.000000 0 0 1
1.096693 -1.045932 -30.904133 30.941269 -0.761712 3.092593 0.058382 -0.012339 329564.000000 0 0 1
1.393693 -0.048432 -29.769903 29.802547 -0.034737 3.094783 0.066581 -0.021074 -438546.000000 0 0 1
0.201893 0.525368 -29.362723 29.368116 1.203908 3.122427 0.072460 -0.021368 -768508.000000 0 0 1
0.411893 1.608968 -28.438453 28.486910 1.320180 3.083257 0.088280 -0.028327 575217.000000 0 0 1
-0.843707 2.437868 -27.967263 28.085990 -1.237614 3.049612 0.077404 -0.022164 266608.000000 0 0 1
-1.442607 3.151468 -29.010883 29.217190 -1.141510 3.022685 0.065672 -0.024191 -695350.000000 0 0 1
-2.428207 4.000368 -28.540773 28.921875 -1.025249 2.979075 0.106557 -0.030937 671830.000000 0 0 1
-3.695807 4.009968 -29.528833 30.028167 -0.826145 2.958972 0.122765 -0.031620 1032820.000000 0 0 1
-3.347007 4.650468 -30.748923 31.278196 -0.946962 2.957368 0.117119 -0.025998 -39213.300000 0 0 1
-4.517007 5.070168 -31.385793 32.111959 -0.843032 2.928523 0.121159 -0.022712 -532668.000000 0 0 1
-4.228507 5.487068 -32.873673 33.595633 -0.914221 2.933905 0.132445 -0.024552 75231.100000 0 0 1
-3.851207 4.526968 -33.839493 34.357481 -0.865881 2.967728 0.149071 -0.026646 -110767.000000 0 0 1
-2.623307 3.906268 -33.587333 33.915330 -0.979411 3.002404 0.134816 -0.029304 -866452.000000 0 0 1
-2.217207 3.063368 33.442570 33.655694 -0.944288 0.112598 0.120769 -0.024412 -553017.000000 0 0 1
-3.156407 2.102768 33.013566 33.230710 -0.587673 0.114381 0.108584 -0.032584 21539.400000 0 0 1
-3.016407 1.466168 31.724493 31.901283 -0.452437 0.105327 0.101477 -0.023227 -294915.000000 0 0 1
-2.919207 2.434968 30.533833 30.769560 -0.695202 0.123861 0.103491 -0.024244 99476.200000 0 0 1
-4.037307 3.315868 30.407373 30.852928 -0.687599 0.170154 0.092021 -0.026025 409201.000000 0 0 1
-3.803207 4.341568 29.497383 30.056767 -0.851401 0.193230 0.082555 -0.031987 -132120.000000 0 0 1
-5.002207 5.284068 29.363933 30.252009 -0.812793 0.242902 0.074670 -0.022822 -8963.720000 0 0 1
-4.930707 6.037368 28.160913 29.219835 -0.885956 0.270040 0.069782 -0.010430 -195593.000000 0 0 1
-6.132707 6.751168 27.987103 29.435800 -0.833364 0.315038 0.049665 -0.007977 -53292.600000 0 0 1
-6.124607 7.562968 26.623533 28.346461 -0.890099 0.350448 0.053608 -0.016090 123876.000000 0 0 1
-5.280007 8.711768 26.567923 28.453962 -1.025920 0.366140 0.064236 -0.007916 61864.200000 0 0 1
-5.251207 9.310268 25.285093 27.451634 -1.057251 0.399957 0.058908 -0.010456 -298740.000000 0 0 1
-4.408107 10.558768 25.314423 27.780191 -1.175310 0.424511 0.049633 -0.016072 -881971.000000 0 0 1
-4.524107 11.278768 24.070373 26.964069 -1.189327 0.467532 0.048847 -0.011570 194558.000000 0 0 1
-4.049407 12.591868 24.082933 27.476181 -1.259653 0.502249 0.034718 -0.006751 -447039.000000 0 0 1
-2.525807 12.800468 24.209743 27.501697 -1.375978 0.494302 0.025665 -0.004076 -653240.000000 0 0 1
-1.794907 12.494468 25.391603 28.356074 -1.428116 0.461343 0.039810 -0.001821 -23242.600000 0 0 1
-2.107207 13.122168 26.628973 29.761281 -1.411572 0.462920 0.057445 -0.011052 -772562.000000 0 0 1
-1.230907 12.522068 27.730303 30.451388 -1.472812 0.425962 0.057989 -0.012188 -310434.000000 0 0 1
0.128093 12.773968 27.544873 30.362983 1.560769 0.434250 0.050085 -0.010164 -809033.000000 0 0 1
0.941293 12.291168 28.590563 31.134854 1.494363 0.407078 0.059823 -0.024713 -520130.000000 0 0 1
2.411393 12.568968 28.354373 31.108910 1.381247 0.423989 0.049276 -0.018359 -606265.000000 0 0 1
2.729293 13.934068 28.518833 31.857984 1.377373 0.461947 0.043475 -0.016775 -587495.000000 0 0 1
4.096693 14.061568 28.248553 31.819669 1.287304 0.478318 0.049244 -0.015922 -263476.000000 0 0 1
4.717493 15.476168 28.296303 32.595204 1.274921 0.519409 0.045186 -0.011445 -169204.000000 0 0 1
4.862793 15.914268 29.591863 33.949802 1.274245 0.512266 0.054130 -0.002933 213715.000000 0 0 1
3.834293 16.757168 30.108493 34.670245 1.345854 0.518780 0.032239 -0.002057 114130.000000 0 0 1
3.826093 18.261668 29.654543 35.035974 1.364269 0.561603 0.043771 -0.003512 179495.000000 0 0 1
4.871993 19.043768 30.224093 36.054088 1.320337 0.576641 0.070670 -0.000782 283784.000000 0 0 1
5.041193 20.255668 29.455063 36.101336 1.326874 0.616513 0.049989 0.004386 239073.000000 0 0 1
6.150493 21.175468 30.058233 37.279034 1.288120 0.632920 0.051424 0.008382 -77892.300000 0 0 1
5.820693 21.800068 31.270253 38.561019 1.309880 0.625058 0.052584 -0.016624 6319.750000 0 0 1
6.758793 22.774268 31.708913 39.620749 1.282303 0.642983 0.038712 -0.006774 -25628.800000 0 0 1
6.671893 24.139968 30.920773 39.791286 1.301144 0.680793 0.045984 -0.006134 -370275.000000 0 0 1
7.221293 24.012168 29.649973 38.831073 1.278666 0.701983 0.026378 -0.005586 171258.000000 0 0 1
7.215993 25.265668 28.985643 39.122782 1.292598 0.736403 0.028035 -0.008491 71592.200000 0 0 1
7.812993 25.236068 27.543663 38.164845 1.270559 0.764538 0.054432 -0.014408 401367.000000 0 0 1
6.903693 24.702968 26.568063 36.929116 1.298281 0.767809 0.039716 -0.015007 581816.000000 0 0 1
7.585793 24.561468 25.340863 36.096666 1.271241 0.792555 0.052821 -0.018633 -78055.500000 0 0 1
28.928861 2.378268 6.781607 29.808143 0.082026 1.341278 0.144847 -0.018334 20334.900000 0 0 1
29.013481 3.260268 7.886107 30.242390 0.111901 1.306983 0.137881 -0.025062 454873.000000 0 0 1
27.940321 3.014568 8.796707 29.447092 0.107477 1.267436 0.108499 -0.013396 6366.300000 0 0 1
28.022221 3.883068 10.046407 30.020883 0.137694 1.229565 0.090158 -0.018228 39707.600000 0 0 1
27.763421 5.299968 9.943807 29.962919 0.188628 1.232511 0.101099 -0.020889 1312680.000000 0 0 1
29.012851 5.947868 9.556607 31.119952 0.202206 1.258663 0.126084 -0.029056 1179250.000000 0 0 1
28.972431 7.467768 9.321507 31.337834 0.252263 1.268773 0.139427 -0.038114 2409.240000 0 0 1
28.176421 7.848768 8.235807 30.386550 0.271671 1.296329 0.123154 -0.033393 -123672.000000 0 0 1
28.524141 9.150968 7.867007 30.971869 0.310442 1.313978 0.131979 -0.045974 -118037.000000 0 0 1
27.863521 9.734868 6.614807 30.247300 0.336120 1.350324 0.135588 -0.039271 347004.000000 0 0 1
26.498421 10.124768 6.785307 29.167065 0.364972 1.336009 0.109490 -0.022757 369736.000000 0 0 1
25.935021 10.434668 5.556907 28.502401 0.382521 1.374577 0.132449 -0.029591 -1335120.000000 0 0 1
24.520321 10.891168 5.668407 27.422519 0.417994 1.362589 0.090331 -0.020137 -1228840.000000 0 0 1
24.290621 12.185468 6.189907 27.871758 0.464969 1.346844 0.073936 -0.029134 187815.000000 0 0 1
22.906721 12.481068 6.101207 26.790291 0.498892 1.341041 0.073838 -0.013740 282603.000000 0 0 1
22.527721 13.943468 6.360107 27.246458 0.554235 1.335194 0.068756 -0.006054 -58655.000000 0 0 1
22.617321 14.750168 5.191507 27.496589 0.577894 1.380851 0.077817 -0.018074 371424.000000 0 0 1
22.214621 16.045368 5.574207 27.964532 0.625529 1.370121 0.104315 -0.015706 -138840.000000 0 0 1
21.910421 16.995668 4.396107 28.075702 0.659740 1.413569 0.106337 -0.030093 28951.900000 0 0 1
20.633121 16.696268 3.849807 26.819994 0.680324 1.426756 0.115737 -0.015532 299335.000000 0 0 1
20.068921 17.826068 3.238007 27.037289 0.726281 1.450747 0.108303 -0.023282 -79752.600000 0 0 1
18.554821 17.583768 3.046207 25.743925 0.758534 1.452191 0.075032 -0.014930 -99129.800000 0 0 1
17.765721 17.951868 4.151507 25.595418 0.790610 1.407879 0.076213 -0.024774 -413902.000000 0 0 1
16.408721 17.833468 3.870207 24.540930 0.826982 1.412431 0.052575 -0.034029 -737609.000000 0 1 0
15.498621 18.916568 4.431607 24.853228 0.884389 1.391527 0.075880 -0.040866 -649124.000000 0 1 0
14.134121 18.633368 4.320807 23.783296 0.921853 1.388108 0.075980 -0.042773 -770350.000000 0 1 0
13.455521 19.791268 4.629707 24.375798 0.973707 1.379705 0.065541 -0.040384 -769566.000000 0 1 0
11.958821 19.710368 4.314107 23.454713 1.025445 1.385810 0.047108 -0.028466 -551755.000000 0 1 0
11.303521 18.922668 5.256607 22.659852 1.032325 1.336685 0.036443 -0.039215 -196528.000000 0 1 0
9.922021 19.260368 5.212807 22.284112 1.095101 1.334684 0.034135 -0.021666 179298.000000 0 1 0
9.096621 18.699668 6.361107 21.746029 1.118040 1.273937 0.016756 -0.023932 -1283050.000000 0 1 0
9.416721 19.316568 7.567707 22.783210 1.117203 1.232202 0.035962 -0.029129 285160.000000 0 1 0
8.646421 18.830068 8.685407 22.467051 1.140333 1.173871 0.032129 -0.019291 -389080.000000 0 1 0
7.551621 19.785468 9.123307 23.059195 1.206186 1.164024 0.030489 -0.020391 -204874.000000 0 1 0
6.450521 19.887468 8.253007 22.477383 1.257151 1.194832 0.031802 -0.028335 -283532.000000 0 1 0
6.336421 21.185368 7.660007 23.401833 1.280171 1.237325 0.029023 -0.016587 1361.840000 0 1 0
5.038221 21.478768 6.824707 23.093241 1.340394 1.270788 0.016871 0.001693 287.461000 0 1 0
3.855721 21.604168 7.558407 23.210691 1.394185 1.239104 0.015329 -0.001281 -418807.000000 0 1 0
3.647021 22.860768 8.216407 24.564707 1.412598 1.229743 0.027124 -0.013374 -502301.000000 0 1 0
3.673121 24.065168 7.268707 25.405870 1.419333 1.280638 0.039876 -0.013273 -675371.000000 0 0 1
2.559221 24.160968 6.428507 25.132205 1.465266 1.312134 0.027820 -0.016367 -148106.000000 0 0 1
2.727921 25.171168 5.473307 25.903404 1.462843 1.357895 0.039210 -0.011242 324408.000000 0 0 1
1.412721 25.385868 4.649907 25.846851 1.515204 1.389909 0.043566 -0.015453 -587197.000000 0 0 1
0.433721 25.915168 5.420307 26.479498 1.554062 1.364641 0.058022 -0.019769 -1454320.000000 0 0 1
-0.717379 26.043968 4.641207 26.464008 -1.543258 1.394507 0.062407 -0.021428 -387565.000000 0 0 1
-1.929879 26.737368 5.298107 27.325469 -1.498742 1.375672 0.081994 -0.022222 388301.000000 0 0 1
-2.974379 26.872068 4.327907 27.380390 -1.460558 1.412065 0.096369 -0.026279 702514.000000 0 0 1
-4.085779 27.619968 4.814707 28.332625 -1.423933 1.400033 0.090139 -0.023721 721600.000000 0 0 1
-5.153979 28.052968 3.748207 28.767718 -1.389099 1.440133 0.103950 -0.029254 538282.000000 0 0 1
-4.517279 28.836968 2.750707 29.317963 -1.415410 1.476835 0.093246 -0.025284 20141.300000 0 0 1
-5.415579 29.285468 1.782307 29.835277 -1.387938 1.511022 0.097930 -0.033035 -492095.000000 0 0 1
-4.723979 30.110268 0.706307 30.486769 -1.415176 1.547627 0.094217 -0.031496 -111371.000000 0 0 1
-4.288879 31.445868 1.116907 31.756646 -1.435243 1.535618 0.095200 -0.026636 1151940.000000 0 0 1
-3.034379 31.547668 1.839107 31.746577 -1.474907 1.512833 0.095850 -0.021057 781895.000000 0 0 1
-2.484479 33.039168 1.905707 33.187211 -1.495740 1.513342 0.094789 -0.022076 -195389.000000 0 0 1
-1.900879 33.443968 0.692407 33.505101 -1.514020 1.550129 0.081080 -0.014381 761737.000000 0 0 1
-0.959679 -33.697929 0.703007 33.718921 1.542325 1.549946 0.076153 -0.015153 1573150.000000 0 0 1
0.462221 -33.838929 1.355907 33.869238 -1.557138 1.530752 0.061733 -0.009244 471353.000000 0 0 1
0.427221 -33.821429 2.774807 33.937754 -1.558165 1.488943 0.051925 -0.008563 270734.000000 0 0 1
1.653721 33.940168 3.304407 34.140722 1.522110 1.473857 0.040646 -0.005455 271714.000000 0 0 1
1.686821 33.975568 4.823207 34.357647 1.521189 1.429949 0.040145 -0.006516 87255.600000 0 0 1
0.792821 33.097868 5.467107 33.555725 1.546847 1.407141 0.068825 -0.020920 -178620.000000 0 0 1
0.193021 33.542868 6.652907 34.196819 1.565042 1.375000 0.075455 -0.017018 17178.400000 0 0 1
1.052721 33.570368 7.960307 34.517305 1.539448 1.338084 0.068435 -0.016406 -24806.700000 0 0 1
1.309621 32.232268 8.220207 33.289729 1.530188 1.321286 0.071959 -0.023087 -47387.600000 0 0 1
2.319121 32.109968 9.208007 33.484560 1.498697 1.292214 0.078423 -0.018902 -98600.400000 0 0 1
2.957521 30.701168 9.251407 32.200888 1.474760 1.279387 0.065152 -0.021013 -167039.000000 0 0 1
2.267321 29.775268 10.042107 31.504782 1.494795 1.246387 0.082704 -0.032637 29675.400000 0 0 1
2.824821 28.468268 9.991907 30.302807 1.471893 1.234773 0.061638 -0.030640 -7947.270000 0 0 1
2.491621 27.638568 11.220707 29.933308 1.480889 1.186554 0.054156 -0.039532 -250819.000000 0 0 1
2.768021 28.334468 12.431007 31.064996 1.473414 1.159104 0.051140 -0.028234 -65328.400000 0 0 1
2.891321 27.487468 13.510807 30.764632 1.465995 1.116125 0.040914 -0.024401 -471191.000000 0 0 1
1.565021 27.152468 14.226207 30.693498 1.513222 1.088864 0.045046 -0.028246 -19338.100000 0 0 1
0.773721 28.177268 14.725107 31.802294 1.543344 1.089397 0.044325 -0.023551 87234.400000 0 0 1
0.068221 28.985368 13.811407 32.107806 1.568443 1.126129 0.052776 -0.027737 -673123.000000 0 0 1
-0.745979 30.133968 14.460407 33.432258 -1.546046 1.123501 0.029662 -0.016953 205411.000000 0 0 1
-1.873279 29.694968 15.190807 33.407498 -1.507796 1.098747 0.010093 -0.011003 193820.000000 0 0 1
-2.660079 30.755768 15.712307 34.639138 -1.484521 1.099996 0.017047 -0.008030 108923.000000 0 0 1
-3.938479 30.296768 16.452807 34.700153 -1.441525 1.076807 0.012933 -0.003178 128098.000000 0 0 1
-5.028979 29.901868 15.648807 34.121804 -1.404173 1.094359 0.019571 -0.010166 151376.000000 0 0 1
-6.069379 29.383768 16.458207 34.221569 -1.367105 1.069080 0.024831 -0.011895 -971420.000000 0 0 1
-7.275979 28.955668 15.614307 33.692391 -1.324613 1.088926 0.033722 -0.018239 -305709.000000 0 0 1
-8.369579 28.583368 16.429007 34.014277 -1.285946 1.066715 0.041079 -0.019467 -160925.000000 0 0 1
-9.329079 27.876768 15.676307 33.315050 -1.247857 1.080885 0.041306 -0.012534 409365.000000 0 0 1
-10.643679 27.470368 16.433507 33.733799 -1.201147 1.061970 0.049768 -0.010541 443575.000000 0 0 1
-11.502379 28.538268 16.751607 35.033610 -1.187663 1.072240 0.049398 -0.014593 50491.100000 0 0 1
-11.060979 29.295768 17.878207 36.058530 -1.209781 1.052028 0.046475 -0.020142 -434626.000000 0 0 1
-12.045779 30.382068 18.388507 37.500774 -1.193331 1.058305 0.054829 -0.013214 -87534.000000 0 0 1
-13.319479 29.892468 18.737107 37.710043 -1.151624 1.050804 0.062000 -0.009986 186631.000000 0 0 1
-14.212679 31.010268 18.863507 38.980365 -1.141044 1.065664 0.077816 -0.010959 364443.000000 0 0 1
-15.260179 30.846268 19.962807 39.785412 -1.111384 1.045162 0.078125 -0.015320 -25715.700000 0 0 1
-14.665579 31.107368 21.208407 40.404753 -1.130248 1.018200 0.056979 -0.012167 6111.360000 0 0 1
-15.395879 30.505068 22.275607 40.789643 -1.103397 0.993083 0.050323 -0.005395 -294031.000000 0 0 1
-14.697079 30.428868 23.596607 41.215531 -1.120843 0.961223 0.021478 -0.000985 -733559.000000 0 0 1
-13.830179 29.302668 23.813607 40.212039 -1.129818 0.937009 0.016972 -0.001389 576898.000000 0 0 1
-13.488079 28.981468 25.157007 40.678358 -1.135207 0.904044 0.026262 -0.004331 444808.000000 0 0 1
-12.705679 30.126268 25.927707 41.728555 -1.171684 0.900342 0.018145 -0.000982 -367919.000000 0 0 1
-13.628179 31.120268 26.272407 42.946918 -1.158034 0.912536 0.014438 0.007904 198251.000000 0 0 1
-13.046779 32.271168 26.876507 43.977192 -1.186601 0.913288 0.012213 0.006768 -322254.000000 0 0 1
-14.086479 33.366468 27.196007 45.292084 -1.171321 0.926722 0.016199 0.002354 152499.000000 0 0 1
-15.000479 33.080968 28.249007 46.014902 -1.145079 0.909792 0.000497 0.000955 447816.000000 0 0 1
-14.427279 33.075268 29.550207 46.640481 -1.159481 0.884632 0.027608 0.015320 150258.000000 0 0 1
-15.280779 32.140868 30.497807 46.868474 -1.126996 0.862277 0.015795 0.016366 192759.000000 0 0 1
-16.574479 32.563468 30.835107 47.811052 -1.099983 0.869856 0.017573 0.015939 -351946.000000 0 0 1
-17.018279 32.099368 32.105007 48.484253 -1.083301 0.847080 0.015845 0.008292 -616070.000000 0 0 1
-18.404479 32.456668 32.558407 49.519794 -1.054959 0.853323 0.028650 0.001823 -797498.000000 0 0 1
-18.603879 33.808468 32.834707 50.667888 -1.067744 0.865791 0.044324 0.008957 1409700.000000 0 0 1
-20.045679 34.043268 32.849407 51.379538 -1.038631 0.877146 0.046327 0.002215 1255300.000000 0 0 1
-20.373579 -32.806429 33.367707 51.036736 1.015061 0.858204 0.046149 0.003855 -142805.000000 0 0 1
-19.990379 -32.373129 -33.553839 50.729625 1.017609 2.293513 0.048501 0.003486 385577.000000 0 0 1
-21.056779 -32.520529 -32.610039 50.639780 0.996186 2.270461 0.049644 -0.002051 544655.000000 0 0 1
-20.685579 -31.859329 -31.202539 49.157995 0.994928 2.258468 0.056503 -0.008355 86124.300000 0 0 1
-20.741379 -30.460129 -31.236439 48.308792 0.972980 2.273914 0.065072 -0.005150 -48328.500000 0 0 1
-20.100179 -29.814529 -30.152239 46.926334 0.977614 2.268610 0.049021 0.000490 101535.000000 0 0 1
-20.331779 -28.284129 -30.170439 46.082844 0.947537 2.284582 0.059421 -0.010985 -461957.000000 0 0 1
-21.616079 -27.893829 -29.803439 46.190535 0.911523 2.272118 0.050698 0.002701 -708817.000000 0 0 1
-21.737979 -26.500729 -29.886539 45.475637 0.883812 2.287893 0.049111 -0.003783 -69135.500000 0 0 1
-22.999579 -25.965429 -29.206739 45.345537 0.845895 2.270633 0.059535 -0.003983 -138512.000000 0 0 1
-23.057679 -26.207429 -27.780239 44.611966 0.849246 2.242995 0.053965 -0.006521 7629.390000 0 0 1
-22.374379 -25.221329 -27.049939 43.225310 0.845142 2.246939 0.056111 -0.015499 -73958.400000 0 0 1
-22.501379 -25.470529 -25.494839 42.485841 0.847213 2.214396 0.067943 -0.012698 158024.000000 0 0 1
-23.808579 -25.245929 -24.998939 42.768590 0.814691 2.195080 0.055686 -0.013102 -31291.400000 0 0 1
-23.891379 -25.325229 -23.600039 42.060992 0.814523 2.166499 0.067701 -0.010385 -1083170.000000 0 0 1
-25.283279 -25.177729 -23.020539 42.463012 0.783306 2.143768 0.064626 -0.010758 -155321.000000 0 0 1
-26.267579 -26.187229 -23.340739 43.824043 0.783866 2.132467 0.046502 -0.003648 175309.000000 0 0 1
-25.944379 -27.540629 -23.060539 44.310106 0.815234 2.118157 0.051598 0.005595 -904342.000000 0 0 1
-27.219179 -28.423029 -22.974239 45.569375 0.807030 2.099205 0.039562 0.008654 962784.000000 0 0 1
-28.047179 -28.112529 -21.826139 45.313782 0.786562 2.073352 0.040442 0.015264 -448848.000000 0 0 1
-29.059679 -27.218629 -22.078839 45.527945 0.752697 2.077104 0.033617 0.017885 -935229.000000 0 0 1
-29.711179 -26.693229 -20.758639 45.013372 0.731944 2.050105 0.030267 0.020615 27323.700000 0 0 1
-30.539679 -27.663429 -20.157939 45.872429 0.736021 2.025766 0.017486 0.019895 -119231.000000 0 0 1
-31.049779 -27.208529 -18.971539 45.434701 0.719559 2.001550 0.013871 0.018791 -1003030.000000 0 0 1
-31.899979 -28.255129 -18.158839 46.321749 0.724881 1.973618 0.003012 0.016924 -469019.000000 0 0 1
-33.194879 -28.559029 -18.657939 47.598706 0.710469 1.973584 0.000256 0.011861 565863.000000 0 0 1
-34.121079 -27.470129 -18.579139 47.581934 0.677830 1.971934 -0.008347 0.018513 -510961.000000 0 0 1
-34.506079 -27.072029 -17.094139 47.072007 0.665254 1.942441 -0.002854 0.012873 -1000570.000000 0 0 1
-33.476179 -26.258829 -16.551439 45.652281 0.665158 1.941804 -0.007134 0.018636 392339.000000 0 0 1
-33.920079 -25.489929 -15.435639 45.150495 0.644441 1.919703 -0.003095 0.007861 -71370.900000 0 0 1
-33.608179 -26.151429 -14.092939 44.855522 0.661261 1.890395 0.008052 0.009213 39450.800000 0 0 1
-34.309879 -27.383929 -13.899539 46.046113 0.673603 1.877441 0.023553 0.010609 348574.000000 0 0 1
-33.896179 -28.149329 -12.766739 45.872925 0.693039 1.852827 0.029179 0.000707 47414.200000 0 0 1
-34.716979 -29.470529 -12.608039 47.251914 0.703843 1.840894 0.039009 -0.001112 88554.000000 0 0 1
-34.307879 -30.330229 -13.652139 47.784247 0.723938 1.860537 0.033243 -0.002682 312963.000000 0 0 1
-34.930379 -31.564929 -13.370839 48.941347 0.734829 1.847516 0.028852 -0.008287 -52257.900000 0 0 1
-34.378179 -32.759329 -14.240639 49.576492 0.761290 1.862147 0.020266 0.005578 -97742.400000 0 0 1
-33.005179 -33.060829 -14.128839 48.805577 0.786241 1.864493 0.017797 0.005394 -80250.800000 0 0 1
-32.679979 -34.068629 -15.043239 49.547467 0.806199 1.879278 0.045806 -0.011120 -342924.000000 0 0 1
-31.195879 33.852368 -15.190239 48.475860 -0.826214 1.889522 0.039640 -0.005708 -276748.000000 0 0 1
-30.895379 33.006568 -16.258039 48.044581 -0.818424 1.916007 0.051895 -0.007466 283223.000000 0 0 1
-29.488879 32.712868 -16.187839 46.923042 -0.837183 1.923021 0.046179 -0.009843 874005.000000 0 0 1
9.483993 20.008468 -8.689693 23.786460 1.128165 1.944774 0.062403 -0.019671 -192524.000000 0 1 0
8.071593 19.969068 -8.771393 23.256217 1.186670 1.957528 0.063194 -0.025282 251339.000000 0 1 0
7.498593 19.986068 -10.078893 23.606268 1.211858 2.011923 0.071849 -0.029551 -85851.700000 0 1 0
7.654093 18.740368 -10.954393 23.017064 1.183046 2.066812 0.065173 -0.019896 -480444.000000 0 1 0
8.942093 18.328968 -11.351493 23.340276 1.116902 2.078701 0.075015 -0.018053 -369504.000000 0 1 0
8.850693 17.418468 -12.400093 23.140875 1.100673 2.136313 0.062183 -0.015972 11034.300000 0 1 0
10.187793 16.915168 -12.996293 23.639324 1.028697 2.152890 0.069743 -0.010176 248782.000000 0 1 0
9.988093 15.920768 -14.037293 23.458014 1.010500 2.212300 0.076033 -0.016507 -677008.000000 0 1 0
11.194693 15.590268 -14.629993 24.133261 0.948054 2.222092 0.092470 -0.021749 -663492.000000 0 1 0
11.131993 14.445468 -15.667493 24.042944 0.914227 2.280549 0.082515 -0.021574 -418839.000000 0 1 0
10.853093 13.169468 -15.120093 22.800038 0.881526 2.295830 0.076369 -0.012023 383031.000000 0 1 0
11.983093 12.548368 -14.529093 22.630744 0.808437 2.267909 0.085660 -0.013598 -105213.000000 0 1 0
12.912793 11.797268 -15.502093 23.371577 0.740284 2.296000 0.092544 -0.021100 -518198.000000 0 1 0
13.600693 12.727868 -16.292193 24.746980 0.752259 2.289422 0.082846 -0.019890 50051.200000 0 1 0
14.377893 12.104068 -17.304893 25.547829 0.699745 2.314955 0.077763 -0.022202 559098.000000 0 0 1
15.279893 12.983268 -18.283293 27.135202 0.704318 2.310116 0.061192 -0.020138 466843.000000 0 0 1
16.364593 13.638268 -17.690193 27.690164 0.694778 2.263814 0.061273 -0.023060 -225625.000000 0 0 1
17.169893 14.215168 -18.700093 29.095871 0.691531 2.268822 0.053283 -0.020056 148123.000000 0 0 1
18.425893 14.956468 -18.138193 29.869776 0.681840 2.223381 0.047087 -0.012557 -58471.000000 0 0 1
18.314193 16.232168 -17.507793 30.090127 0.725203 2.191792 0.048576 -0.015649 200951.000000 0 0 1
17.765093 17.163168 -18.469493 30.843071 0.768167 2.212825 0.050316 -0.008648 -58582.500000 0 0 1
17.558093 18.564968 -17.882593 31.188648 0.813264 2.181408 0.053999 -0.003465 618258.000000 0 0 1
18.763093 19.295968 -17.597893 32.157019 0.799399 2.149870 0.051816 -0.003769 499228.000000 0 0 1
18.475693 20.588868 -17.135893 32.540614 0.839440 2.125393 0.050854 -0.001255 171733.000000 0 0 1
19.541393 21.698368 -17.353893 33.968262 0.837654 2.107011 0.060121 -0.005908 965544.000000 0 0 1
20.732393 21.804268 -16.563893 34.345608 0.810592 2.074042 0.052479 -0.005728 377300.000000 0 0 1
20.535593 22.523268 -15.375193 34.138025 0.831527 2.037991 0.056458 -0.009925 -459075.000000 0 0 1
21.820893 23.003568 -14.714893 34.954879 0.811777 2.005309 0.044027 -0.010362 -324400.000000 0 0 1
22.432893 22.005968 -13.856393 34.343805 0.775791 1.986093 0.052517 -0.012808 332192.000000 0 0 1
23.487393 22.458168 -13.015993 35.006328 0.763001 1.951763 0.047032 -0.003923 210965.000000 0 0 1
24.911393 22.380168 -13.593593 36.141876 0.731925 1.956399 0.046064 -0.002156 -392744.000000 0 0 1
25.075693 23.132768 -14.757893 37.171370 0.745117 1.979067 0.046117 0.008780 -926669.000000 0 0 1
26.132993 22.653168 -15.478293 37.890327 0.714191 1.991609 0.040157 0.022765 -880520.000000 0 0 1
26.360193 23.354468 -16.830193 39.032632 0.725012 2.016599 0.035162 0.018738 -92923.500000 0 0 1
27.219293 22.666068 -17.733493 39.612085 0.694377 2.034964 0.045033 0.011710 245762.000000 0 0 1
27.365993 23.352768 -18.941293 40.657372 0.706436 2.055421 0.049146 0.013505 -362041.000000 0 0 1
27.876193 22.358168 -20.035793 40.968314 0.675991 2.081803 0.047152 0.000372 466543.000000 0 0 1
29.293793 22.256268 -19.998093 41.873518 0.649719 2.068698 0.040447 0.005642 -48738.800000 0 0 1
29.752593 21.455468 -21.062293 42.298629 0.624766 2.092021 0.048038 0.003746 -650671.000000 0 0 1
31.202593 21.794268 -21.326793 43.628248 0.609703 2.081544 0.065873 -0.004097 -981756.000000 0 0 1
31.484793 23.071468 -21.768893 44.693059 0.632390 2.079534 0.047495 -0.003153 197660.000000 0 0 1
32.875693 23.329968 -21.599793 45.734556 0.617168 2.062679 0.050091 0.000173 525815.000000 0 0 1
33.321693 24.695968 -22.173293 47.030638 0.637805 2.061747 0.041231 -0.002555 -190270.000000 0 0 1
33.539393 25.070068 -23.504993 48.019619 0.641887 2.082298 0.038810 -0.001174 682949.000000 0 0 1
32.417893 24.741268 -24.358093 47.501229 0.651894 2.109226 0.036638 -0.007078 459668.000000 0 0 1
32.578393 25.214868 -25.787603 48.601869 0.658670 2.130091 0.047966 -0.013811 -183820.000000 0 0 1
32.423793 26.625568 -25.958113 49.336060 0.687519 2.124862 0.057646 -0.018328 667509.000000 0 0 1
31.095193 27.033768 -26.357293 48.912601 0.715642 2.139886 0.067316 -0.014419 981995.000000 0 0 1
30.683593 26.865068 -27.861553 49.391101 0.719142 2.170140 0.059552 -0.010784 -17788.900000 0 0 1
30.186293 25.557968 -28.091073 48.513198 0.702560 2.188347 0.051209 -0.020901 -65866.800000 0 0 1
29.985693 25.229168 -29.467753 49.030614 0.699465 2.215557 0.060140 -0.023888 -199725.000000 0 0 1
29.253393 23.903568 -29.539813 47.955626 0.685094 2.234429 0.060691 -0.027004 134490.000000 0 0 1
27.924293 23.831668 -29.046853 46.812757 0.706487 2.240164 0.071659 -0.025701 -132539.000000 0 0 1
27.160893 22.837068 -29.646783 46.240431 0.699133 2.266785 0.076261 -0.038024 -610421.000000 0 0 1
25.767993 22.843168 -29.017073 45.030992 0.725303 2.271009 0.063734 -0.026023 -596336.000000 0 0 1
25.688493 22.542068 -27.631553 43.949359 0.720253 2.250694 0.075741 -0.013590 699235.000000 0 0 1
24.394793 22.808768 -27.067663 42.988419 0.751811 2.251899 0.068359 -0.013956 515033.000000 0 0 1
24.434693 22.743068 -25.506823 42.010705 0.749557 2.223266 0.063108 -0.007969 -131825.000000 0 0 1
24.819593 21.482068 -24.981193 41.249866 0.713440 2.221324 0.064655 -0.011575 309931.000000 0 0 1
25.192793 21.738968 -23.628093 40.811105 0.711938 2.188252 0.063378 -0.007778 9024.350000 0 0 1
25.639893 20.420368 -22.884493 39.976187 0.672560 2.180291 0.070351 0.001089 706540.000000 0 0 1
26.895193 19.942168 -23.392393 40.844161 0.638024 2.180620 0.058470 0.000644 560393.000000 0 0 1
27.042993 18.579368 -23.133793 40.145843 0.601969 2.184922 0.098720 -0.001999 -400319.000000 0 0 1
28.453893 18.077968 -23.406293 41.040120 0.566002 2.177700 0.110378 -0.008651 -210803.000000 0 0 1
29.504293 18.456468 -22.503693 41.443464 0.558996 2.144799 0.108412 -0.017066 -632639.000000 0 0 1
30.637193 17.985568 -23.153693 42.405327 0.530843 2.148389 0.079118 -0.009815 -1133220.000000 0 0 1
31.784493 17.746268 -22.181493 42.628660 0.509217 2.118048 0.066223 -0.001532 -633855.000000 0 0 1
32.405793 18.924068 -21.836193 43.417451 0.528551 2.097788 0.040449 0.004694 563112.000000 0 0 1
33.680393 18.655468 -21.192393 43.948980 0.505830 2.073966 0.043315 0.005273 1201250.000000 0 0 1
34.081993 19.773268 -20.188993 44.273692 0.525709 2.044297 0.030217 -0.002878 -9936.000000 0 0 1
33.560593 19.503368 -18.918393 43.181018 0.526436 2.024301 0.050599 -0.006565 12934.600000 0 0 1
33.959793 20.515168 -18.058593 43.591885 0.543430 1.997931 0.031838 -0.004888 -128176.000000 0 0 1
33.234993 20.529968 -16.714993 42.490414 0.553348 1.975104 0.050986 -0.012277 -137473.000000 0 0 1
33.690193 19.447768 -15.921293 42.032515 0.523526 1.959280 0.053627 -0.016682 233083.000000 0 0 1
33.366493 19.546868 -14.566193 41.322837 0.529930 1.931035 0.069147 -0.018684 -422652.000000 0 0 1
33.978293 18.418268 -13.723393 41.013272 0.496727 1.911986 0.050976 -0.015682 1539670.000000 0 0 1
35.436193 18.518868 -13.538993 42.213464 0.481562 1.897293 0.028578 -0.020877 1634980.000000 0 0 1
35.943493 17.461368 -12.828993 41.969240 0.452224 1.881445 0.010491 -0.010296 -144907.000000 0 0 1
35.798893 17.610868 -11.310793 41.468511 0.457178 1.847053 0.028314 -0.016636 -667578.000000 0 0 1
-36.629736 18.570368 -10.839493 42.474589 -0.469212 1.828850 0.024921 -0.016822 150616.000000 0 0 1
36.350293 19.084568 -9.564493 42.155000 0.483461 1.799678 0.022942 -0.012585 701019.000000 0 0 1
35.101093 20.071868 -9.436693 41.521293 0.519449 1.800073 0.025556 -0.017459 749143.000000 0 0 1
33.883293 19.533268 -9.894093 40.342523 0.522951 1.818576 0.057063 -0.029272 -761222.000000 0 0 1
32.846593 20.463468 -9.787793 39.918079 0.557161 1.818519 0.044587 -0.015482 764074.000000 0 0 1
31.448593 19.753068 -10.060093 38.476007 0.560830 1.835335 0.035675 -0.013297 755936.000000 0 0 1
31.232793 19.363168 -11.395093 38.474248 0.554969 1.871481 0.058676 -0.021517 -188561.000000 0 0 1
29.969293 18.766968 -11.562393 37.202776 0.559466 1.886824 0.064512 -0.020852 -91787.400000 0 0 1
29.838593 18.269368 -13.013293 37.329040 0.549395 1.926884 0.092873 -0.018263 -1739.150000 0 0 1
30.832693 17.300168 -13.231793 37.749584 0.511324 1.928917 0.099466 -0.017112 37172.700000 0 0 1
30.413993 16.487768 -14.315393 37.440458 0.496766 1.963135 0.081758 -0.020782 682383.000000 0 0 1
31.590893 15.789368 -15.100193 38.409692 0.463494 1.974835 0.082860 -0.027061 554600.000000 0 0 1
32.325193 14.821068 -14.401193 38.366346 0.429899 1.955581 0.066254 -0.023782 196021.000000 0 0 1
33.589193 14.582968 -14.978493 39.563267 0.409601 1.959075 0.065198 -0.022752 239011.000000 0 0 1
34.534493 13.629668 -14.178893 39.742169 0.375902 1.935607 0.038218 -0.024437 -12475.500000 0 0 1
35.229093 14.273168 -13.117193 40.210360 0.384941 1.903092 0.036421 -0.008625 116627.000000 0 0 1
35.830693 13.259568 -12.317593 40.141970 0.354434 1.882679 0.020041 0.000409 44766.800000 0 0 1
-36.601536 13.736568 -11.149493 40.653129 -0.359034 1.848616 0.044683 0.004253 -79210.200000 0 0 1
-35.384936 14.154568 -11.685393 39.862186 -0.380521 1.868311 0.029669 -0.003888 -671360.000000 0 0 1
-34.434636 14.522868 -10.706893 38.875383 -0.399116 1.849818 0.017550 -0.001099 447122.000000 0 0 1
-32.991936 14.730168 -11.330093 37.865772 -0.419921 1.874669 0.047929 -0.015079 952637.000000 0 0 1
-32.325336 13.575368 -11.840493 37.005611 -0.397595 1.896489 0.045188 -0.015345 181630.000000 0 0 1
-32.039636 12.563568 -10.899193 36.099500 -0.373700 1.877503 0.066136 -0.003197 -958450.000000 0 0 1
-30.945736 11.601868 -11.358193 34.946394 -0.358692 1.901827 0.089597 -0.008517 -276996.000000 0 0 1
-31.323336 10.816568 -12.463393 35.404600 -0.332499 1.930533 0.073033 0.000087 465088.000000 0 0 1
-30.589336 9.565968 -12.479793 34.394192 -0.303087 1.942116 0.101667 -0.015858 18307.200000 0 0 1
-30.458036 8.877568 -13.862493 34.621841 -0.283612 1.982747 0.097420 -0.023073 -535403.000000 0 0 1
-31.641336 8.369768 -14.402093 35.758180 -0.258597 1.985330 0.065790 -0.009098 -225320.000000 0 0 1
-31.467536 7.577068 -15.526293 35.898239 -0.236292 2.018069 0.075171 -0.021293 200362.000000 0 0 1
-32.830736 7.385068 -16.261493 37.374224 -0.221261 2.020945 0.067615 -0.022352 564258.000000 0 0 1
-33.755136 6.690868 -15.422593 37.709856 -0.195681 1.992133 0.080125 -0.019642 671056.000000 0 0 1
-34.719736 5.849668 -16.091993 38.712154 -0.166915 1.999490 0.066214 -0.023530 273118.000000 0 0 1
-35.659036 5.312468 -14.994093 39.046280 -0.147892 1.964930 0.060094 -0.017314 -822664.000000 0 0 1
-36.644236 4.499168 -15.511593 40.045624 -0.122168 1.968550 0.079265 -0.018964 -710316.000000 0 0 1
35.910493 4.024168 -14.441693 38.914263 0.111595 1.951007 0.080780 -0.016417 -350073.000000 0 0 1
34.948793 2.956568 -14.919293 38.114888 0.084396 1.972981 0.077607 -0.014927 -462324.000000 0 0 1
35.525993 1.648868 -15.109193 38.640686 0.046380 1.972533 0.100617 -0.020271 414879.000000 0 0 1
34.549793 0.603768 -15.149493 37.730092 0.017474 1.983975 0.107433 -0.022675 391982.000000 0 0 1
33.902493 0.315468 -13.766593 36.592316 0.009305 1.956505 0.105542 -0.028674 -321037.000000 0 0 1
34.856793 -0.154732 -12.852393 37.151096 -0.004439 1.924047 0.114021 -0.028615 -27547.400000 0 0 1
34.561893 0.072568 -11.484793 36.420189 0.002100 1.891613 0.106820 -0.024717 -211088.000000 0 0 1
34.809493 1.520468 -10.946293 36.521691 0.043652 1.875196 0.097890 -0.029082 169648.000000 0 0 1
33.902693 2.420468 -11.602993 35.914909 0.071274 1.899767 0.089657 -0.026478 584354.000000 0 0 1
33.906693 3.641968 -10.991993 35.829480 0.107001 1.882611 0.094172 -0.023295 -646189.000000 0 0 1
32.807593 4.547468 -11.480493 35.054519 0.137733 1.904457 0.089834 -0.016773 -462019.000000 0 0 1
33.040893 4.987068 -12.791693 35.779866 0.149805 1.936398 0.075407 -0.019928 601434.000000 0 0 1
31.928093 5.808168 -13.106593 34.998867 0.179946 1.954639 0.083067 -0.020544 176789.000000 0 0 1
32.092193 6.566968 -14.436093 35.797132 0.201842 1.985889 0.058013 -0.018515 -265627.000000 0 0 1
32.009093 5.704068 -15.576793 36.052113 0.176350 2.017576 0.066769 -0.012288 182798.000000 0 0 1
32.433993 6.296968 -16.796593 37.064015 0.191762 2.041123 0.059708 -0.014868 -677896.000000 0 0 1
31.408193 7.265468 -17.426693 36.646299 0.227325 2.066371 0.060694 -0.016457 247632.000000 0 0 1
30.225893 6.722268 -17.977893 35.805001 0.218839 2.096828 0.050116 -0.015023 771886.000000 0 0 1
29.221393 6.254968 -17.072593 34.416389 0.210872 2.089851 0.053982 -0.010165 -514578.000000 0 0 1
27.830593 6.099268 -17.712593 33.548158 0.215746 2.127011 0.054663 -0.012989 -227211.000000 0 0 1
27.747493 4.995468 -18.628393 33.791938 0.178125 2.154679 0.050746 -0.012229 166700.000000 0 0 1
26.666193 5.255468 -19.493393 33.446945 0.194590 2.192985 0.037915 -0.008830 -152829.000000 0 0 1
26.159093 4.085268 -20.326893 33.379187 0.154919 2.225557 0.036301 0.010623 44379.400000 0 0 1
25.373893 3.173568 -19.553693 32.190882 0.124426 2.223617 0.043304 -0.003104 416185.000000 0 0 1
24.944693 2.066968 -20.354993 32.261987 0.082673 2.253545 0.034802 0.000028 -256896.000000 0 0 1
24.015593 1.054968 -19.598693 31.015648 0.043900 2.254795 0.029480 -0.011152 -591059.000000 0 0 1
22.760293 1.631668 -19.525493 30.032285 0.071567 2.278578 0.038894 -0.017306 -594627.000000 0 0 1
21.858393 0.901668 -18.691693 28.774671 0.041227 2.277839 0.045492 -0.024992 311004.000000 0 0 1
20.522893 1.650168 -18.449993 27.646237 0.080234 2.301455 0.051555 -0.028862 -379807.000000 0 0 1
19.654693 1.563568 -19.559793 27.772958 0.079385 2.352197 0.046881 -0.028351 1030260.000000 0 0 1
18.504593 2.445468 -19.486793 26.983983 0.131393 2.377718 0.042125 -0.032407 1822050.000000 0 0 1
17.231493 1.970068 -18.687893 25.495938 0.113835 2.393482 0.069904 -0.039536 226767.000000 0 0 1
17.552293 1.911868 -17.302293 24.720590 0.108496 2.346074 0.075635 -0.043363 1543840.000000 0 1 0
16.305893 1.912868 -16.539293 23.304279 0.116778 2.359884 0.057814 -0.029326 1317930.000000 0 1 0
15.536993 3.230368 -16.299693 22.748921 0.204994 2.369574 0.064676 -0.027680 -84712.400000 0 1 0
14.739793 3.523368 -17.420893 23.090325 0.234635 2.425638 0.058022 -0.026674 -206825.000000 0 1 0
13.854693 4.560868 -17.121893 22.492515 0.318020 2.435998 0.067160 -0.031424 -217684.000000 0 1 0
-20.220107 -21.787732 -17.124993 34.304859 0.822698 2.093472 0.100832 -0.022653 -18146.300000 0 0 1
-19.938407 -22.448932 -18.352593 35.189662 0.844557 2.119444 0.102467 -0.024111 128983.000000 0 0 1
-21.032407 -22.231032 -19.192293 36.123746 0.813096 2.130922 0.108609 -0.022136 -272703.000000 0 0 1
-20.793407 -22.906732 -20.552493 37.141474 0.833720 2.157185 0.084419 -0.018787 57026.200000 0 0 1
-20.782607 -24.310932 -20.443293 37.958746 0.863484 2.139531 0.069572 -0.014790 223653.000000 0 0 1
-20.289107 -24.951032 -21.619893 38.750763 0.888084 2.162676 0.062085 -0.016041 57640.000000 0 0 1
-20.095307 -26.445782 -21.409093 39.516452 0.921009 2.143346 0.059126 -0.005726 -448398.000000 0 0 1
-21.304507 -27.140902 -21.472393 40.639565 0.905294 2.127466 0.067549 0.003748 -537510.000000 0 0 1
-21.122307 -28.526232 -21.362493 41.427694 0.933434 2.112571 0.075828 -0.017883 -595047.000000 0 0 1
-22.360407 -29.419642 -21.421493 42.712802 0.920894 2.096156 0.060975 -0.014907 -300120.000000 0 0 1
-22.976407 -29.390272 -22.690893 43.664402 0.907271 2.117256 0.044649 -0.004925 941.243000 0 0 1
-22.334807 -30.225662 -23.639493 44.398872 0.934414 2.132270 0.036122 -0.009771 -613477.000000 0 0 1
-22.643807 -29.923862 -25.082163 45.136398 0.923012 2.159997 0.036284 -0.002069 464933.000000 0 0 1
-23.961307 -30.328022 -25.489273 46.299419 0.902139 2.153797 0.042243 0.000494 754047.000000 0 0 1
-24.531807 -29.409102 -26.393423 46.511478 0.875572 2.174215 0.038538 0.008589 86248.100000 0 0 1
-24.037807 -29.609332 -27.894773 47.250895 0.888882 2.202294 0.045838 0.001127 -76016.700000 0 0 1
-24.459907 -30.862402 -28.468253 48.592348 0.900616 2.196736 0.040452 0.002402 193139.000000 0 0 1
-24.174307 -30.937892 -29.860433 49.327434 0.907511 2.221004 0.072552 -0.004977 -123926.000000 0 0 1
-24.699707 -32.176822 -30.587243 50.803571 0.916111 2.216886 0.054426 -0.007944 119051.000000 0 0 1
-24.086107 -33.405682 -30.176883 51.056091 0.946103 2.203161 0.060525 -0.026046 -89672.500000 0 0 1
-24.734207 33.791439 -30.854763 52.015947 -0.938937 2.205798 0.060743 -0.024922 25993.700000 0 0 1
-24.062507 32.401769 -30.937883 50.853038 -0.932029 2.224812 0.075938 -0.026666 920463.000000 0 0 1
-23.011907 32.208469 -31.932383 50.858730 -0.950426 2.249603 0.084600 -0.036110 526544.000000 0 0 1
-22.400707 30.941326 -31.856163 49.739043 -0.944161 2.265901 0.082439 -0.021696 -459495.000000 0 0 1
-21.040907 31.019266 -32.568903 49.655292 -0.974771 2.286171 0.075060 -0.016421 -347756.000000 0 0 1
-21.004507 30.868016 -33.967653 50.475986 -0.973304 2.308982 0.078249 -0.016981 43863.200000 0 0 1
-20.851407 29.525526 33.912676 49.564175 -0.955911 0.817266 0.054519 -0.006806 -212427.000000 0 0 1
-21.184607 29.348876 32.409084 48.584903 -0.945576 0.840540 0.046954 -0.005941 165088.000000 0 0 1
-20.418907 30.168576 31.491313 48.153687 -0.975793 0.857969 0.038601 -0.002986 432785.000000 0 0 1
-20.554807 29.871606 30.140833 47.151699 -0.968098 0.877298 0.052282 -0.001512 -110424.000000 0 0 1
-20.011007 31.044116 29.265113 47.123501 -0.998227 0.900740 0.040290 -0.018528 245021.000000 0 0 1
-20.938507 32.124916 29.395083 48.316687 -0.993168 0.916774 0.032203 -0.018205 401758.000000 0 0 1
-20.427207 33.329931 28.873753 48.598855 -1.020961 0.934620 0.027088 -0.020252 152500.000000 0 0 1
-21.412207 -33.712752 28.890773 49.292079 1.004941 0.944542 0.039371 -0.028954 127899.000000 0 0 1
-21.634307 -33.260852 30.269523 49.905627 0.994109 0.919101 0.028946 -0.013544 -325275.000000 0 0 1
-22.751307 -32.461362 30.500293 50.016296 0.959484 0.914979 0.044886 -0.018670 -368042.000000 0 0 1
-22.419507 -31.003472 30.207823 48.747945 0.944716 0.902469 0.046805 -0.012694 -320857.000000 0 0 1
-22.322407 -30.873522 28.795093 47.755854 0.944782 0.923584 0.030663 -0.012548 -300418.000000 0 0 1
-22.155307 -29.494022 28.393843 46.550675 0.926541 0.914792 0.033137 -0.014656 -685605.000000 0 0 1
-23.361007 -28.618792 28.021463 46.367816 0.886206 0.921872 0.038059 -0.006157 -491502.000000 0 0 1
-24.366207 -28.383342 28.989423 47.325604 0.861406 0.911510 0.041381 -0.005303 748975.000000 0 0 1
-25.369437 -29.423822 29.063843 48.518828 0.859258 0.928517 0.038864 -0.007089 551177.000000 0 0 1
-26.535557 -29.473072 27.989403 48.540751 0.837798 0.956215 0.024736 0.001646 -12095.500000 0 0 1
-26.089487 -29.641172 26.680293 47.656043 0.849042 0.976590 0.044293 0.004551 -218762.000000 0 0 1
-27.142237 -29.599332 25.732523 47.696795 0.828674 1.000951 0.039650 0.005969 -50743.400000 0 0 1
-26.676587 -29.739312 24.282113 46.751342 0.839633 1.024661 0.041734 0.000642 -421827.000000 0 0 1
-25.812367 -28.679852 23.891203 45.382836 0.837972 1.016392 0.021217 0.001547 480105.000000 0 0 1
-25.322837 -28.619292 22.552753 44.372702 0.846433 1.037636 0.050712 -0.003077 -352381.000000 0 0 1
-24.258007 -29.693922 22.257253 44.334696 0.885814 1.044854 0.058769 -0.018681 -902129.000000 0 0 1
-24.696007 -31.036942 22.124253 45.416595 0.898685 1.061984 0.052912 -0.028808 755812.000000 0 0 1
-23.617707 -31.978352 21.915753 45.395058 0.934662 1.066972 0.074824 -0.017989 665617.000000 0 0 1
-22.775107 -32.442952 23.124753 45.891229 0.958726 1.042684 0.051771 -0.011368 764841.000000 0 0 1
-21.811407 -31.484722 23.658633 45.019508 0.964945 1.017471 0.073614 -0.025486 900149.000000 0 0 1
-21.196407 -32.075742 24.807713 45.755476 0.986850 0.997767 0.063228 -0.032866 -25167.200000 0 0 1
-20.016307 -31.311512 25.441803 45.037192 1.002006 0.970476 0.055040 -0.021879 -1108610.000000 0 0 1
-18.909707 -31.134592 24.600943 43.956186 1.024987 0.976809 0.055602 -0.023797 156693.000000 0 0 1
-17.837007 -30.407432 25.202033 43.334896 1.040288 0.950146 0.075501 -0.031775 660259.000000 0 0 1
-16.951507 -31.322662 26.115563 44.164300 1.074742 0.938092 0.058256 -0.028511 -673010.000000 0 0 1
-17.600207 -31.409002 27.388873 45.237629 1.060037 0.920472 0.052585 -0.023204 428923.000000 0 0 1
-16.944107 -32.235902 28.333293 46.141431 1.086857 0.909611 0.035514 -0.011893 226502.000000 0 0 1
-17.568807 -31.883842 29.743753 47.009927 1.067166 0.885746 0.050683 -0.010838 326729.000000 0 0 1
-17.171407 -30.616542 30.139943 46.267116 1.059658 0.861324 0.043488 -0.004140 297142.000000 0 0 1
-17.818307 -30.131772 31.333953 46.981192 1.036764 0.840693 0.053907 0.000406 193279.000000 0 0 1
-17.522707 -28.616932 31.510303 46.031221 1.021368 0.816821 0.060132 -0.006092 -164241.000000 0 0 1
-18.300307 -27.761982 30.713313 45.265180 0.987991 0.825051 0.063229 -0.009105 -69514.200000 0 0 1
-18.236807 -27.876192 29.285373 44.354214 0.991469 0.849630 0.062901 -0.008807 -203012.000000 0 0 1
-16.956407 -27.425412 28.547763 43.065622 1.017049 0.846124 0.061259 -0.012460 -167296.000000 0 0 1
-16.674107 -26.008202 28.476223 42.016041 1.000696 0.826103 0.057916 -0.008988 -458444.000000 0 0 1
-15.713707 -25.719742 27.538933 40.826689 1.022358 0.830465 0.051455 -0.005812 -780030.000000 0 0 1
-15.708807 -24.195032 27.069863 39.559369 0.994943 0.817174 0.051454 -0.004865 240996.000000 0 0 1
-16.811807 -23.770832 26.275943 39.218803 0.955224 0.836610 0.057632 -0.008931 265619.000000 0 0 1
-16.375707 -22.648932 25.546133 37.864797 0.944785 0.830283 0.065713 -0.014422 -15639.000000 0 0 1
-17.288807 -21.428132 25.663063 37.638551 0.891906 0.820536 0.062406 -0.009326 -293591.000000 0 0 1
-16.919407 -20.474932 24.693923 36.266776 0.880195 0.821810 0.076878 -0.014918 226085.000000 0 0 1
-17.492207 -19.190432 24.965833 36.021422 0.831660 0.805039 0.070284 -0.007138 54480.400000 0 0 1
-16.935407 -18.046932 24.020203 34.488693 0.817161 0.800335 0.074688 -0.016119 -658376.000000 0 0 1
-15.568007 -17.957332 24.227593 33.938251 0.856547 0.775783 0.076178 -0.023408 -1212550.000000 0 0 1
-15.153707 -16.857632 23.403263 32.581089 0.838577 0.769429 0.077204 -0.021547 -162279.000000 0 0 1
-13.727807 -16.349232 23.679833 31.882355 0.872335 0.733665 0.078749 -0.021272 -673398.000000 0 0 1
-12.760707 -17.277732 23.282473 31.676951 0.934655 0.745134 0.077768 -0.023395 370331.000000 0 0 1
-11.442807 -16.705732 23.353353 30.909520 0.970234 0.714320 0.075128 -0.019086 635476.000000 0 0 1
-10.880207 -15.907232 22.125253 29.341877 0.970904 0.716589 0.079394 -0.020905 -204076.000000 0 0 1
-10.477207 -16.626532 20.950953 28.725527 1.008502 0.753425 0.102475 -0.018948 604726.000000 0 0 1
-9.222707 -17.299932 21.099553 28.801686 1.081016 0.748691 0.088385 -0.016978 -307481.000000 0 0 1
-8.889907 -18.468932 20.133653 28.731444 1.122185 0.794344 0.093963 -0.018800 79110.500000 0 0 1
-8.764607 -18.112832 18.783653 27.526690 1.120120 0.819783 0.099998 -0.025477 -82880.200000 0 0 1
-8.439607 -19.187932 17.991153 27.623999 1.156424 0.861517 0.102551 -0.027536 -12105.700000 0 0 1
-8.138007 -18.793532 16.575553 26.347163 1.162151 0.890374 0.094079 -0.029692 72409.600000 0 0 1
-6.872107 -18.174532 16.578453 25.541820 1.209295 0.864434 0.089464 -0.026450 -250432.000000 0 0 1
-6.423607 -17.924532 15.248853 24.394243 1.226685 0.895536 0.084292 -0.029186 516813.000000 0 1 0
-5.369107 -16.782532 15.201453 23.271546 1.261164 0.858966 0.068402 -0.022444 242450.000000 0 1 0
-5.979107 -15.619932 15.723253 22.955450 1.205216 0.816266 0.075110 -0.026367 -152095.000000 0 1 0
-5.140007 -14.510632 15.721553 22.003303 1.230364 0.774875 0.054651 -0.020521 -832359.000000 0 1 0
-5.637107 -13.312132 16.592753 22.007028 1.170234 0.716704 0.048639 -0.014321 -91718.300000 0 1 0
-5.464007 -13.393332 18.002953 23.094221 1.183443 0.676859 0.056432 -0.014649 -85531.700000 0 1 0
-6.015007 -14.519232 18.653553 24.391463 1.178042 0.700131 0.080810 -0.014801 -568757.000000 0 1 0
-7.298207 -14.163832 19.390153 25.096932 1.095007 0.687854 0.097413 -0.013749 -590335.000000 0 0 1
-7.125207 -13.230032 20.441353 25.370283 1.076776 0.633906 0.079497 -0.014621 689148.000000 0 0 1
-8.338207 -12.772832 21.078853 26.019012 0.992450 0.626418 0.086913 -0.012877 915194.000000 0 0 1
-7.994807 -11.870432 22.343953 26.534437 0.978074 0.569680 0.074448 -0.004829 -346192.000000 0 0 1
-7.377907 -10.653332 21.945253 25.485705 0.965092 0.533405 0.050630 -0.002426 283351.000000 0 0 1
-6.913507 -9.880432 23.046953 26.011182 0.960260 0.482063 0.040901 -0.001999 -683151.000000 0 0 1
-5.614407 -10.279432 23.696913 26.433539 1.070892 0.459055 0.043560 0.005363 -1081380.000000 0 0 1
-5.579807 -11.519232 24.362963 27.520555 1.119714 0.483734 0.050604 0.009572 -688915.000000 0 0 1
-4.276707 -11.689532 24.808463 27.755995 1.220065 0.465036 0.048966 0.007486 -785453.000000 0 0 1
-4.182507 -13.022032 25.596653 29.021636 1.260017 0.490738 0.057296 -0.001125 -255130.000000 0 0 1
-2.831607 -13.334532 25.875593 29.246779 1.361553 0.484875 0.038916 0.000229 211613.000000 0 0 1
-2.708307 -14.516632 26.675193 30.489891 1.386351 0.505595 0.046361 -0.005817 31635.500000 0 0 1
-2.777307 -15.920932 26.004193 30.617113 1.398090 0.556072 0.052798 -0.023711 302901.000000 0 0 1
-1.559407 -16.237732 25.333603 30.131166 1.475054 0.572079 0.055356 -0.025037 377761.000000 0 0 1
-1.553507 -17.595732 24.828253 30.470729 1.482736 0.618372 0.056290 -0.024191 189854.000000 0 0 1
-0.130707 -18.251832 24.803043 30.795087 1.563635 0.634409 0.055860 -0.032761 803575.000000 0 0 1
0.466993 -18.645032 26.021283 32.015035 -1.545755 0.621882 0.059910 -0.037759 210428.000000 0 0 1
0.903493 -17.592932 26.915843 32.168155 -1.519486 0.579524 0.064821 -0.036968 -413300.000000 0 0 1
1.441193 -18.146332 28.251553 33.608283 -1.491542 0.572383 0.052098 -0.032143 -416493.000000 0 0 1
2.605693 -18.945232 28.042643 33.942618 -1.434116 0.598507 0.051836 -0.031920 604479.000000 0 0 1
3.416893 -19.081932 29.226753 35.071333 -1.393610 0.585652 0.045477 -0.032423 624418.000000 0 0 1
4.326693 -17.869332 29.666253 34.901574 -1.333239 0.554816 0.056364 -0.028644 -814057.000000 0 0 1
3.752493 -16.658632 29.969433 34.492871 -1.349236 0.517904 0.054791 -0.034830 -651361.000000 0 0 1
4.573793 -15.746232 30.650123 34.760516 -1.288106 0.491235 0.067746 -0.037319 -786961.000000 0 0 1
3.768993 -14.662832 31.331933 34.797902 -1.319199 0.450115 0.082947 -0.033315 -166204.000000 0 0 1
2.912093 -15.209832 32.299878 35.820405 -1.381624 0.447071 0.070223 -0.042640 -70863.800000 0 0 1
1.930893 -14.287332 32.725236 35.760275 -1.436463 0.414971 0.072136 -0.031151 197988.000000 0 0 1
0.983593 -14.759932 33.840629 36.932523 -1.504255 0.412098 0.059105 -0.023324 196282.000000 0 0 1
1.724793 -14.951232 -33.227613 36.477232 -1.455943 2.716290 0.087295 -0.022764 -104067.000000 0 0 1
1.023393 -15.725832 -32.258543 35.902127 -1.505811 2.687167 0.059886 -0.025388 239250.000000 0 0 1
1.851593 -15.856032 -30.953873 34.827925 -1.454548 2.665442 0.076051 -0.019049 165468.000000 0 0 1
1.297693 -16.762732 -30.011823 34.400330 -1.493535 2.630945 0.090939 -0.021460 -68885.600000 0 0 1
1.697193 -16.406532 -28.721763 33.120906 -1.467717 2.620306 0.065381 -0.016668 -151854.000000 0 0 1
1.306393 -17.442632 -27.626953 32.698633 -1.496039 2.577168 0.089287 -0.022005 -173948.000000 0 0 1
1.880493 -18.710032 -27.796523 33.559622 -1.470626 2.546814 0.100236 -0.025213 31048.300000 0 0 1
1.573893 -19.672932 -26.780353 33.266931 -1.490963 2.506496 0.108906 -0.033944 -1129910.000000 0 0 1
2.295393 -20.991032 -27.035453 34.304634 -1.461878 2.478511 0.105963 -0.037538 968078.000000 0 0 1
3.696093 -21.013332 -26.662093 34.148036 -1.396685 2.466709 0.088614 -0.037457 997404.000000 0 0 1
3.923793 -21.053032 -25.284733 33.135238 -1.386534 2.438857 0.085868 -0.027014 -746248.000000 0 0 1
5.437593 -21.080832 -24.931293 33.098916 -1.318359 2.423764 0.095433 -0.033307 467824.000000 0 0 1
6.306193 -22.143232 -25.263133 34.180647 -1.293350 2.402539 0.094083 -0.032687 47301.100000 0 0 1
6.388893 -22.471032 -26.652343 35.441679 -1.293789 2.421896 0.082995 -0.031346 -1073330.000000 0 0 1
5.521493 -23.684832 -27.079363 36.397116 -1.341763 2.409830 0.054029 -0.035850 -39090.600000 0 0 1
5.801593 -24.888032 -26.414053 36.752888 -1.341778 2.372717 0.081096 -0.024048 30390.700000 0 0 1
5.050793 -25.922432 -27.024563 37.786373 -1.378365 2.367697 0.070845 -0.025257 143267.000000 0 0 1
5.018793 -27.183872 -26.099823 38.017784 -1.388228 2.327483 0.078859 -0.027912 86294.000000 0 0 1
6.320393 -27.732642 -26.014863 38.546334 -1.346719 2.311623 0.107144 -0.030664 -12421.300000 0 0 1
6.455993 -28.835982 -25.161273 38.810866 -1.350542 2.276152 0.100928 -0.035293 -75186.900000 0 0 1
7.927593 -29.272392 -25.006783 39.307236 -1.306319 2.260343 0.092451 -0.046841 -5133.640000 0 0 1
8.573993 -29.591402 -26.249193 40.474492 -1.288773 2.276457 0.101707 -0.047260 -292142.000000 0 0 1
9.768893 -30.295532 -26.006073 41.104335 -1.258870 2.255811 0.164208 -0.034613 -486897.000000 0 0 1
10.633293 -30.279172 -27.241673 42.095176 -1.233075 2.274630 0.146304 -0.067604 -429396.000000 0 0 1
10.112293 -30.919982 -28.390453 43.177790 -1.254714 2.288325 0.147334 -0.059174 120237.000000 0 0 1
11.050093 -30.825592 -29.454203 44.043975 -1.226595 2.303316 0.140741 -0.034856 260748.000000 0 0 1
-35.444158 -4.494132 -5.631093 36.168975 0.126122 1.727121 0.137014 -0.031372 -41017.800000 0 0 1
-35.122163 -3.813332 -4.413193 35.603147 0.108150 1.695071 0.146439 -0.033445 123918.000000 0 0 1
-34.362572 -2.644732 -4.523593 34.759803 0.076814 1.701305 0.159172 -0.038770 -181902.000000 0 0 1
-35.114393 -1.353632 -4.956893 35.488360 0.038530 1.710931 0.125944 -0.027435 -26836.900000 0 0 1
-36.080667 -0.903732 -4.036093 36.316956 0.025042 1.682162 0.113591 -0.030444 144490.000000 0 0 1
36.452261 0.116868 -4.554093 36.735824 0.003206 1.695085 0.120075 -0.026730 162370.000000 0 0 1
35.777131 0.980268 -3.448393 35.956299 0.027392 1.666849 0.116164 -0.027135 -518203.000000 0 0 1
36.660611 1.778768 -2.771793 36.808250 0.048482 1.646171 0.128452 -0.031099 -663142.000000 0 0 1
36.011181 2.705468 -1.952693 36.165422 0.074988 1.624816 0.116870 -0.037121 -731284.000000 0 0 1
-36.490857 3.897368 -1.454193 36.727195 -0.106401 1.610401 0.115772 -0.042033 -199869.000000 0 0 1
-36.039276 4.764168 -2.431793 36.434055 -0.131432 1.637591 0.132680 -0.042663 676399.000000 0 0 1
-34.833306 4.377468 -3.100593 35.243937 -0.125014 1.658885 0.105904 -0.030002 -101924.000000 0 0 1
-33.647577 5.337068 -2.971993 34.197609 -0.157306 1.657813 0.093891 -0.031462 -300898.000000 0 0 1
-33.025607 5.319468 -1.701093 33.494495 -0.159699 1.621605 0.104530 -0.042437 213065.000000 0 0 1
-33.252887 6.495968 -0.958793 33.895006 -0.192921 1.599087 0.114953 -0.056830 -457591.000000 0 0 1
-32.494277 6.682768 0.351007 33.176206 -0.202832 1.560216 0.129362 -0.045859 -37327.500000 0 0 1
-31.100087 6.902168 0.132507 31.857070 -0.218394 1.566637 0.152772 -0.038337 720996.000000 0 0 1
-30.483127 7.472068 1.317307 31.413184 -0.240382 1.528849 0.160791 -0.044123 102051.000000 0 0 1
-30.669037 9.027768 1.462307 32.003575 -0.286275 1.525088 0.162243 -0.038925 -461132.000000 0 0 1
-31.963737 9.458068 1.786707 33.381550 -0.287691 1.517247 0.130938 -0.038423 -302476.000000 0 0 1
-32.012367 10.853268 1.885807 33.854710 -0.326872 1.515065 0.125416 -0.027995 354021.000000 0 0 1
-33.424177 11.514868 1.831507 35.399467 -0.331773 1.519035 0.137455 -0.033307 -172866.000000 0 0 1
-33.972757 11.660168 0.518707 35.921815 -0.330623 1.556356 0.121413 -0.023882 -342788.000000 0 0 1
-35.120457 12.434568 0.543707 37.260711 -0.340283 1.556204 0.116071 -0.014360 -44975.000000 0 0 1
-36.431927 11.575268 0.667207 38.232412 -0.307636 1.553344 0.112506 -0.039985 -63631.100000 0 0 1
-36.616467 10.757468 -0.483793 38.167039 -0.285748 1.583472 0.114597 -0.039978 -154314.000000 0 0 1
35.670281 9.864868 -0.261093 37.010171 0.269813 1.577851 0.128701 -0.039327 -400.883000 0 0 1
35.456681 8.917568 -1.458593 36.589982 0.246396 1.610670 0.122721 -0.056724 -16929.200000 0 0 1
34.902251 9.422168 -2.629693 36.247202 0.263673 1.643409 0.109558 -0.055959 31356.400000 0 0 1
34.601001 8.361068 -3.505293 35.769034 0.237097 1.668952 0.097351 -0.057425 -146879.000000 0 0 1
33.811161 8.758868 -4.761493 35.250308 0.253480 1.706287 0.080039 -0.045792 79464.700000 0 0 1
32.455731 9.085068 -4.503393 34.002845 0.272936 1.703628 0.109528 -0.044361 566665.000000 0 0 1
31.844151 9.477768 -5.777193 33.723197 0.289281 1.742958 0.094516 -0.032051 77959.200000 0 0 1
30.425931 10.078068 -5.763993 32.565754 0.319859 1.748729 0.103827 -0.025904 -274204.000000 0 0 1
29.415691 9.125868 -5.599893 31.303724 0.300823 1.750653 0.100252 -0.023128 35874.400000 0 0 1
28.160421 9.701968 -5.901493 30.363879 0.331789 1.766400 0.090534 -0.005060 262506.000000 0 0 1
26.958021 8.714368 -5.864793 28.932178 0.312655 1.774919 0.104888 0.002121 145434.000000 0 0 1
27.046921 7.968168 -7.078893 29.071264 0.286500 1.816771 0.107629 -0.005939 823676.000000 0 0 1
25.930921 7.071568 -7.181893 27.820844 0.266234 1.831901 0.114664 -0.011746 383723.000000 0 0 1
26.115321 6.103168 -8.424393 28.111013 0.229580 1.875157 0.125180 -0.025167 -319402.000000 0 0 1
27.243621 5.289268 -8.319393 28.972462 0.191761 1.862045 0.127045 -0.026566 149126.000000 0 0 1
27.438821 4.472668 -9.459493 29.366234 0.161584 1.898766 0.119474 -0.026439 -426144.000000 0 0 1
28.316581 3.228768 -9.207193 29.950394 0.113534 1.883271 0.112679 -0.024314 -1207590.000000 0 0 1
29.662781 3.486968 -9.445993 31.325171 0.117017 1.877110 0.129943 -0.020762 -357249.000000 0 0 1
30.521011 3.126368 -8.388593 31.806836 0.102077 1.837689 0.097678 -0.027312 -197439.000000 0 0 1
30.762101 1.671868 -8.063193 31.845205 0.054295 1.826783 0.096046 -0.021307 -788928.000000 0 0 1
29.753531 1.032368 -7.293293 30.651762 0.034683 1.811041 0.116811 -0.025907 303134.000000 0 0 1
30.111141 -0.289132 -6.881193 30.888756 -0.009602 1.795455 0.107872 -0.022892 -116932.000000 0 0 1
30.041441 -1.366132 -7.954993 31.106855 -0.045444 1.829400 0.096185 -0.018499 -819240.000000 0 0 1
30.944491 -1.312432 -8.980793 32.248080 -0.042387 1.853019 0.092175 -0.025036 -390656.000000 0 0 1
30.863131 -2.504132 -9.675893 32.441123 -0.080959 1.873666 0.082586 -0.029208 -51445.100000 0 0 1
31.894671 -2.697132 -10.830393 33.791152 -0.084363 1.897064 0.097546 -0.031549 235711.000000 0 0 1
33.212111 -2.980432 -10.364293 34.919133 -0.089500 1.872145 0.102285 -0.035213 360825.000000 0 0 1
33.932651 -3.459132 -11.497393 35.994172 -0.101590 1.895918 0.107635 -0.042329 -296399.000000 0 0 1
35.368841 -3.915332 -11.211793 37.309369 -0.110251 1.876022 0.110100 -0.035894 -542971.000000 0 0 1
35.543801 -5.148132 -10.579693 37.440552 -0.143839 1.857272 0.101908 -0.028199 1649720.000000 0 0 1
-36.492077 -5.358832 -9.957293 38.203880 0.145807 1.834477 0.120606 -0.031701 1365400.000000 0 0 1
-36.370227 -6.684232 -9.185593 38.103117 0.181755 1.814267 0.117965 -0.029752 -90917.500000 0 0 1
36.275841 -6.646432 -7.961493 37.729260 -0.181209 1.783411 0.114950 -0.026295 445785.000000 0 0 1
36.068201 -7.981132 -7.413493 37.677228 -0.217770 1.768852 0.099907 -0.021133 -135611.000000 0 0 1
35.569701 -8.094532 -5.972993 36.964872 -0.223758 1.733094 0.096241 -0.012186 -41702.600000 0 0 1
36.605851 -7.900432 -4.996493 37.780552 -0.212564 1.703435 0.097481 -0.012667 786231.000000 0 0 1
36.478761 -8.656132 -3.811793 37.684989 -0.232983 1.672118 0.108341 -0.018500 -335053.000000 0 0 1
-36.336847 -10.120332 -3.999793 37.931332 0.271630 1.676441 0.110755 -0.025040 33399.300000 0 0 1
36.223951 -10.871132 -4.918293 38.138507 -0.291557 1.700115 0.087161 -0.022949 758239.000000 0 0 1
-36.302957 -11.808432 -5.641793 38.589812 0.314480 1.717521 0.081325 -0.024328 292169.000000 0 0 1
36.303031 -12.281532 -6.883193 38.937443 -0.326219 1.748506 0.087805 -0.033762 628.484000 0 0 1
35.987681 -11.220932 -7.772493 38.489403 -0.302246 1.774133 0.114842 -0.029411 298207.000000 0 0 1
35.436501 -11.838832 -8.946193 38.417937 -0.322428 1.805819 0.102407 -0.021953 33570.600000 0 0 1
35.797511 -11.028332 -10.216193 38.825977 -0.298849 1.837059 0.083946 -0.021444 -145398.000000 0 0 1
35.134771 -9.814232 -10.365293 37.923747 -0.272388 1.847638 0.090049 -0.022356 209226.000000 0 0 1
35.377531 -9.324632 -11.660393 38.399000 -0.257714 1.879332 0.098734 -0.022248 -32778.200000 0 0 1
34.424171 -8.151332 -12.015793 37.361036 -0.232508 1.898229 0.100160 -0.020995 -201788.000000 0 0 1
34.794141 -7.461932 -13.187093 37.950127 -0.211259 1.925684 0.100560 -0.018314 825991.000000 0 0 1
33.747711 -6.647032 -13.742693 37.039879 -0.194473 1.950908 0.096120 -0.024463 294533.000000 0 0 1
34.117111 -5.875632 -15.056193 37.751679 -0.170547 1.981028 0.096455 -0.025940 -264794.000000 0 0 1
34.948721 -4.765132 -14.826993 38.261721 -0.135511 1.968731 0.096022 -0.018810 257904.000000 0 0 1
34.739181 -3.771032 -15.844393 38.367645 -0.108129 1.996501 0.106400 -0.028516 431202.000000 0 0 1
35.881901 -2.686832 -15.889393 39.334498 -0.074740 1.986633 0.108240 -0.031291 917558.000000 0 0 1
-36.288677 -3.025032 -16.659993 40.044653 0.083168 1.999877 0.114511 -0.024070 1572380.000000 0 0 1
-35.088408 -2.294432 -16.350193 38.778726 0.065297 2.006036 0.106546 -0.016865 739803.000000 0 0 1
-35.037922 -0.756132 -16.287293 38.645875 0.021577 2.005840 0.102318 -0.012254 -847537.000000 0 0 1
-35.341714 0.018668 -17.439493 39.410316 -0.000528 2.029193 0.099026 -0.009806 271749.000000 0 0 1
-35.236251 1.398768 -17.199093 39.234663 -0.039676 2.024575 0.096788 -0.018755 -63196.700000 0 0 1
-35.360882 2.436268 -18.346293 39.911325 -0.068789 2.048427 0.092836 -0.018293 436743.000000 0 0 1
-34.239993 2.436168 -19.235593 39.348699 -0.071030 2.081567 0.080365 -0.013101 538230.000000 0 0 1
-34.244667 3.581268 -20.125493 39.881802 -0.104200 2.099748 0.070681 -0.008588 -251748.000000 0 0 1
-33.193377 3.578268 -21.238793 39.568809 -0.107386 2.137384 0.062864 -0.007597 -83011.300000 0 0 1
-31.842127 3.800268 -20.889293 38.271734 -0.118785 2.148158 0.067479 -0.010829 -255619.000000 0 0 1
-31.129547 4.165168 -22.018793 38.356545 -0.133011 2.182247 0.069477 -0.006488 -1294680.000000 0 0 1
-29.689267 4.476668 -21.701593 37.046623 -0.149657 2.196653 0.060047 -0.006844 -1436860.000000 0 0 1
-29.031747 3.348268 -21.279093 36.150422 -0.114824 2.200155 0.073098 0.001412 -1128560.000000 0 0 1
-27.664147 3.596068 -21.307993 35.103665 -0.129265 2.223079 0.051173 0.004913 -780899.000000 0 0 1
-26.967107 2.450968 -20.529293 33.980641 -0.090638 2.219491 0.056778 -0.000155 -320948.000000 0 0 1
-26.669727 2.955968 -19.206893 32.998740 -0.110386 2.192043 0.044897 0.004532 136786.000000 0 0 1
-26.134927 1.938368 -18.364493 32.000723 -0.074032 2.182029 0.049974 0.003162 -811376.000000 0 0 1
-25.283307 2.443268 -17.195393 30.674040 -0.096336 2.165888 0.065029 -0.006524 -1283120.000000 0 0 1
-24.046607 2.858368 -17.614493 29.944615 -0.118313 2.199672 0.055663 -0.012207 -1062500.000000 0 0 1
-23.486907 3.490368 -16.426293 28.872834 -0.147529 2.175987 0.081331 -0.026495 440098.000000 0 0 1
-22.278907 4.427768 -16.697493 28.191508 -0.196186 2.204692 0.080558 -0.033126 419097.000000 0 0 1
-21.092407 3.836768 -17.185093 27.476132 -0.179935 2.246511 0.104173 -0.040722 -270792.000000 0 0 1
-20.013107 4.707968 -17.196993 26.803470 -0.231043 2.267373 0.101827 -0.040301 -684642.000000 0 0 1
-18.724807 4.008568 -17.658993 26.048552 -0.210895 2.315734 0.127730 -0.049206 -310519.000000 0 0 1
-18.298907 3.072268 -16.702993 24.965552 -0.166342 2.303715 0.139957 -0.047566 -477444.000000 0 1 0
-17.334707 2.201068 -17.222193 24.534480 -0.126299 2.348940 0.124306 -0.047110 -1043070.000000 0 1 0
-17.462407 0.721868 -16.825793 24.260339 -0.041315 2.337203 0.127332 -0.042540 1040940.000000 0 1 0
-18.576407 -0.043732 -17.347493 25.416930 0.002354 2.321998 0.095466 -0.034593 134584.000000 0 0 1
-19.874307 0.415968 -17.205193 26.290298 -0.020927 2.284227 0.102037 -0.040072 -775450.000000 0 0 1
-20.935007 -0.678532 -17.610593 27.365451 0.032400 2.269903 0.088470 -0.030895 201345.000000 0 0 1
-20.955207 -1.755132 -16.712893 26.861161 0.083561 2.242340 0.088422 -0.032265 214198.000000 0 0 1
-21.868007 -2.710632 -17.184693 27.944068 0.123325 2.233141 0.085663 -0.023058 -131351.000000 0 0 1
-21.862607 -3.943132 -16.292193 27.549182 0.178441 2.203573 0.096593 -0.032533 -32545.800000 0 0 1
-22.361707 -3.562432 -15.012693 27.168324 0.157982 2.156254 0.084362 -0.030929 326199.000000 0 0 1
-22.654707 -4.693732 -14.255493 27.175098 0.204295 2.123017 0.088912 -0.038994 -129967.000000 0 0 1
-22.982007 -4.327432 -12.800893 26.660123 0.186117 2.071624 0.092780 -0.043831 321996.000000 0 0 1
-24.061407 -3.392132 -12.641293 27.390877 0.140055 2.050498 0.075600 -0.036321 742365.000000 0 0 1
-24.083207 -2.827832 -11.375593 26.784354 0.116884 2.009438 0.090132 -0.044875 444973.000000 0 0 1
-25.226467 -1.726032 -11.205993 27.657334 0.068315 1.987964 0.130184 -0.046373 571457.000000 0 0 1
-25.401947 -1.228332 -9.926493 27.300238 0.048318 1.942931 0.146402 -0.049652 381564.000000 0 0 1
-25.853377 0.107768 -9.908493 27.687307 -0.004168 1.936784 0.158213 -0.048325 -297389.000000 0 0 1
-26.048057 0.589368 -8.456593 27.392747 -0.022622 1.884640 0.177858 -0.045536 2792.630000 0 0 1
-24.883207 0.559768 -7.658593 26.041148 -0.022492 1.869306 0.155086 -0.039230 441611.000000 0 0 1
-25.282157 0.744468 -6.327993 26.072691 -0.029438 1.815950 0.160900 -0.047202 751580.000000 0 0 1
-24.060507 1.115068 -5.385793 24.681129 -0.046311 1.790781 0.105781 -0.031428 641458.000000 0 1 0
-23.751107 2.479468 -5.560693 24.519057 -0.104017 1.799578 0.134319 -0.035985 158728.000000 0 1 0
-22.396807 2.731268 -5.263093 23.168447 -0.121350 1.799963 0.104319 -0.018227 -193641.000000 0 1 0
-22.106507 4.261568 -5.393993 23.150676 -0.190438 1.805953 0.108301 -0.018204 -181419.000000 0 1 0
-22.605707 5.096968 -4.353993 23.578684 -0.221764 1.756520 0.108439 -0.024172 734652.000000 0 1 0
-22.255207 6.421568 -4.737393 23.642624 -0.280912 1.772537 0.105378 -0.024484 -207333.000000 0 1 0
-22.832407 7.530168 -3.780293 24.337479 -0.318569 1.726756 0.107475 -0.020807 -9188.010000 0 1 0
-22.295207 7.500468 -2.440993 23.649350 -0.324523 1.674197 0.096077 -0.018999 1330690.000000 0 1 0
-20.944507 7.969568 -2.261593 22.523348 -0.363591 1.671377 0.098213 -0.018296 766432.000000 0 1 0
-20.438707 9.424868 -2.499793 22.645482 -0.432070 1.681410 0.082158 -0.020510 -452438.000000 0 1 0
-20.337707 9.740468 -3.911793 22.886703 -0.446655 1.742560 0.072156 -0.018996 491453.000000 0 1 0
-19.836407 11.042668 -4.080593 23.066747 -0.507963 1.748636 0.075448 -0.011421 -293974.000000 0 1 0
-19.759607 11.558868 -5.559893 23.557630 -0.529298 1.809057 0.084949 -0.017213 88947.500000 0 1 0
-18.667307 10.893368 -6.185293 22.480918 -0.528239 1.849527 0.068490 -0.017157 392117.000000 0 1 0
-18.445107 11.449668 -7.482093 22.962983 -0.555532 1.902689 0.071633 -0.013231 -257123.000000 0 1 0
-17.152107 11.012068 -8.180393 21.963134 -0.570748 1.952455 0.052534 -0.009969 -462813.000000 0 1 0
-16.986607 9.673568 -8.667793 21.383484 -0.517678 1.988158 0.049113 -0.011601 505657.000000 0 1 0
-17.988307 9.208968 -9.589493 22.368341 -0.473155 2.013859 0.068967 -0.010838 155075.000000 0 1 0
-18.084407 9.857168 -10.960293 23.331043 -0.499046 2.059830 0.079723 -0.016487 -88477.700000 0 1 0
-16.974507 9.494068 -11.754093 22.725095 -0.509965 2.114407 0.078626 -0.018338 10963.700000 0 1 0
-16.905407 10.309368 -12.928093 23.647652 -0.547614 2.149210 0.079783 -0.026435 -75248.200000 0 1 0
-15.723107 10.003268 -13.857393 23.223023 -0.566623 2.210190 0.058279 -0.018109 -445715.000000 0 1 0
-15.889607 8.822168 -14.638593 23.336638 -0.506839 2.248851 0.072445 -0.027661 18321.200000 0 1 0
-15.642807 7.625668 -13.904993 22.275481 -0.453587 2.244940 0.060726 -0.022025 -394196.000000 0 1 0
-15.709107 6.290668 -14.622693 22.364519 -0.380892 2.283437 0.076880 -0.027124 32321.400000 0 1 0
-14.647907 6.037568 -15.530993 22.186148 -0.390962 2.346237 0.082768 -0.031670 363415.000000 0 1 0
-14.486807 4.665868 -15.797993 21.936601 -0.311586 2.374838 0.077958 -0.046572 59121.000000 0 1 0
32.244581 -15.939332 28.315193 45.776910 -0.459098 0.903904 0.051184 -0.011948 748283.000000 0 0 1
31.138641 -15.002832 28.491663 44.793692 -0.448988 0.881409 0.068166 -0.011165 883126.000000 0 0 1
30.358401 -15.133832 29.719393 45.098866 -0.462451 0.851330 0.069376 -0.014299 326137.000000 0 0 1
30.962731 -15.080832 31.157333 46.442455 -0.453245 0.835401 0.055700 -0.018546 -450925.000000 0 0 1
31.606781 -13.882832 31.419133 46.678513 -0.413866 0.832409 0.044443 -0.025777 -203336.000000 0 0 1
31.775871 -13.733632 32.821883 47.703193 -0.407956 0.812007 0.038109 -0.027498 -251647.000000 0 0 1
32.411231 -12.389132 33.246040 48.054944 -0.365110 0.806771 0.037750 -0.024308 -56805.900000 0 0 1
32.328911 -12.166332 -33.582123 48.176105 -0.359936 2.342099 0.015945 -0.030764 69798.100000 0 0 1
32.510581 -10.782032 -33.257833 47.741738 -0.320232 2.341471 0.042527 -0.025422 -24112.300000 0 0 1
32.137181 -10.481732 -31.774973 46.393038 -0.315277 2.325274 0.041628 -0.022436 723381.000000 0 0 1
30.743291 -10.547032 -31.468923 45.240280 -0.330486 2.340044 0.082327 -0.029837 544995.000000 0 0 1
30.382551 -10.034232 -30.210623 44.005306 -0.318985 2.327492 0.066370 -0.022376 198709.000000 0 0 1
29.035161 -10.642532 -29.732983 42.899351 -0.351333 2.336559 0.084179 -0.020511 241484.000000 0 0 1
28.540281 -10.148732 -28.477483 41.575370 -0.341649 2.325346 0.071566 -0.018816 168945.000000 0 0 1
27.555821 -11.052132 -28.015143 40.820597 -0.381438 2.327185 0.089728 -0.021614 -397155.000000 0 0 1
26.985321 -10.646432 -26.611823 39.366778 -0.375779 2.313113 0.073791 -0.012006 -694566.000000 0 0 1
26.314321 -9.409532 -26.559783 38.553921 -0.343413 2.330766 0.061471 -0.017027 1089010.000000 0 0 1
25.055121 -9.213532 -27.244263 38.143127 -0.352382 2.366368 0.063820 -0.019408 1093060.000000 0 0 1
23.877221 -10.212732 -27.025093 37.480358 -0.404171 2.376108 0.077452 -0.001327 -529760.000000 0 0 1
24.096221 -11.400932 -27.810913 38.523447 -0.441931 2.377372 0.077114 -0.015936 203404.000000 0 0 1
23.413021 -12.611332 -27.449003 38.218621 -0.494084 2.372023 0.069570 -0.023837 -312267.000000 0 0 1
24.170621 -13.834632 -27.884473 39.410148 -0.519858 2.356815 0.077982 -0.006165 -205116.000000 0 0 1
24.153121 -13.915232 -29.291683 40.435252 -0.522680 2.380974 0.078045 -0.014376 350922.000000 0 0 1
25.138921 -14.781832 -29.834703 41.720228 -0.531554 2.367583 0.070268 -0.008328 -23360.700000 0 0 1
25.355821 -14.742032 -31.334153 42.919393 -0.526635 2.389220 0.079459 -0.019971 -330380.000000 0 0 1
24.307321 -15.394532 -32.009923 43.040360 -0.564566 2.409412 0.087074 -0.016427 121432.000000 0 0 1
24.665321 -15.721532 -33.358993 44.366282 -0.567462 2.421735 0.090418 -0.012518 92963.600000 0 0 1
24.774921 -14.557532 33.820838 44.379810 -0.531246 0.704281 0.059625 -0.025105 -530917.000000 0 0 1
23.587421 -13.845932 33.794863 43.476075 -0.530809 0.680400 0.088365 -0.022364 -513543.000000 0 0 1
23.559321 -12.953132 32.697858 42.331728 -0.502697 0.688154 0.062280 -0.021811 -89418.500000 0 0 1
22.580021 -11.703132 32.793867 41.500101 -0.478177 0.659642 0.073807 -0.022869 1932340.000000 0 0 1
21.150721 -11.940332 32.714298 40.744937 -0.513934 0.638644 0.070818 -0.018802 1219660.000000 0 0 1
20.651621 -12.312332 31.474313 39.607012 -0.537615 0.652340 0.060936 -0.008823 -1058540.000000 0 0 1
19.153621 -12.506432 31.675053 39.071486 -0.578449 0.625458 0.069834 -0.002362 -338655.000000 0 0 1
18.343121 -11.394732 31.956213 38.568246 -0.555861 0.594260 0.077663 -0.008744 680265.000000 0 0 1
17.043221 -11.584832 32.528495 38.506918 -0.596994 0.564709 0.073825 -0.004845 472883.000000 0 0 1
16.275021 -10.288532 32.679996 37.930362 -0.563737 0.532425 0.061152 -0.003221 -815070.000000 0 0 1
15.468321 -9.958532 31.527713 36.502576 -0.572006 0.528207 0.055289 -0.004750 669201.000000 0 0 1
14.608421 -8.820832 31.778673 36.070724 -0.543222 0.492803 0.061583 0.000341 181316.000000 0 0 1
13.465721 -8.995032 32.761650 36.545341 -0.588922 0.459068 0.070258 -0.006778 -2571270.000000 0 0 1
12.569221 -9.973032 32.309301 36.074058 -0.670733 0.460933 0.070150 -0.005744 -183574.000000 0 0 1
11.418421 -10.057432 33.119148 36.447363 -0.722110 0.430675 0.060572 -0.002440 -262819.000000 0 0 1
10.331721 -9.045032 32.772893 35.533359 -0.719092 0.396772 0.051562 0.004197 -1433570.000000 0 0 1
10.732621 -7.669732 33.039088 35.575206 -0.620470 0.379875 0.071655 -0.000125 237748.000000 0 0 1
9.854021 -6.727232 32.440714 34.565262 -0.599013 0.352434 0.075564 0.007495 51751.500000 0 0 1
10.428121 -5.285632 32.430260 34.473256 -0.469123 0.346000 0.095900 0.003789 10607.400000 0 0 1
10.548921 -4.654632 33.716397 35.633422 -0.415547 0.329509 0.101686 -0.007679 248739.000000 0 0 1
10.977421 -3.329232 33.514524 35.423310 -0.294463 0.329776 0.069270 -0.005005 -130768.000000 0 0 1
10.858821 -2.517632 -33.445123 35.253776 -0.227826 2.819883 0.067737 -0.013340 -808619.000000 0 0 1
9.569521 -2.055932 -33.272313 34.682119 -0.211625 2.855488 0.086815 -0.000647 -762409.000000 0 0 1
9.419121 -1.531832 -31.978503 33.372009 -0.161219 2.851590 0.090594 -0.003858 421669.000000 0 0 1
7.921021 -1.257832 -31.667483 32.667326 -0.157482 2.893543 0.080779 0.002008 362263.000000 0 0 1
7.379321 -0.155632 -32.388933 33.219295 -0.021087 2.917534 0.077595 0.003870 198087.000000 0 0 1
5.964221 -0.110732 -32.322693 32.868536 -0.018564 2.959093 0.091988 0.005636 261371.000000 0 0 1
5.333021 0.891268 -33.296353 33.732515 0.165592 2.980608 0.096387 0.001651 -96145.400000 0 0 1
5.579121 2.281268 -32.975203 33.521557 0.388150 2.960800 0.085127 0.000714 97696.800000 0 0 1
5.003621 3.093768 -33.998313 34.503520 0.553771 2.970256 0.081264 -0.003691 -405234.000000 0 0 1
5.866121 4.290468 34.059526 34.826295 0.631489 0.210229 0.063730 -0.007821 -282408.000000 0 0 1
5.245921 5.202268 33.198870 34.011002 0.781220 0.218971 0.081168 -0.023353 144756.000000 0 0 1
6.177121 6.161468 32.749683 33.891921 0.784130 0.260359 0.071651 -0.026111 64065.500000 0 0 1
5.534221 7.246368 31.838083 33.117986 0.918570 0.278920 0.086087 -0.028633 -780814.000000 0 0 1
4.441521 7.900968 32.397422 33.641424 1.058674 0.272795 0.087241 -0.033651 -334084.000000 0 0 1
4.238821 9.189068 31.794213 33.365830 1.138594 0.308146 0.085465 -0.038106 -234148.000000 0 0 1
3.812921 9.221668 30.357863 31.955866 1.178729 0.317581 0.085482 -0.040482 -478253.000000 0 0 1
2.573921 8.638568 30.013793 31.338119 1.281215 0.291754 0.096665 -0.035918 -200303.000000 0 0 1
2.348021 8.710168 28.613063 30.001460 1.307483 0.305415 0.078690 -0.028399 513860.000000 0 0 1
0.965021 8.161368 28.152383 29.327391 1.453100 0.284027 0.078105 -0.022620 1036790.000000 0 0 1
-0.234079 8.676768 28.751363 30.033015 -1.543825 0.293195 0.081774 -0.024265 -304445.000000 0 0 1
-1.250079 8.480568 27.832803 29.122975 -1.424445 0.298770 0.080310 -0.015508 -695947.000000 0 0 1
-2.656679 8.717868 28.383623 29.810891 -1.274997 0.310691 0.073381 -0.011859 -398877.000000 0 0 1
-2.871979 10.046068 28.742443 30.582672 -1.292343 0.348671 0.074985 -0.012394 -55074.000000 0 0 1
-4.170079 10.190268 29.304473 31.304685 -1.182366 0.359408 0.059549 -0.014105 -11080.700000 0 0 1
-4.523979 11.622568 29.788723 32.294249 -1.199599 0.396507 0.055971 -0.015894 -175910.000000 0 0 1
-4.747779 12.618568 28.854533 31.848921 -1.210927 0.437104 0.048913 -0.016774 -156436.000000 0 0 1
-5.907179 12.605768 28.065523 31.328482 -1.132575 0.460463 0.042006 -0.018111 -276220.000000 0 0 1
-6.255079 13.996268 27.497163 31.481987 -1.150515 0.508604 0.034502 -0.016823 -99687.800000 0 0 1
-5.307579 14.349968 26.534033 30.629184 -1.216533 0.523051 0.032583 -0.012415 -273410.000000 0 0 1
-5.458579 15.713268 26.190863 31.026830 -1.236452 0.565845 0.024824 -0.012329 3567.990000 0 0 1
-4.209379 16.356768 25.539083 30.618745 -1.318914 0.584298 0.034455 -0.009219 -20851.900000 0 0 1
-3.851279 15.871268 24.276083 29.258464 -1.332740 0.592206 0.012263 -0.005034 -266674.000000 0 0 1
-3.037779 16.802668 23.620153 29.145658 -1.391937 0.625932 0.022883 0.001279 -177597.000000 0 0 1
-3.055579 16.525168 22.090953 27.756584 -1.387957 0.650334 0.023257 0.001031 20021.000000 0 0 1
-2.173179 15.491768 21.682353 26.736530 -1.431426 0.624999 0.011195 0.004540 102770.000000 0 0 1
-2.215479 15.356968 20.247153 25.508666 -1.427519 0.653869 0.000280 0.007980 -508357.000000 0 0 1
-1.315879 14.291668 19.706253 24.378674 -1.478982 0.629470 0.003760 -0.002821 -839777.000000 0 1 0
-1.751679 12.970068 19.890453 23.810107 -1.436553 0.581975 0.012483 0.001030 67645.300000 0 1 0
-0.988979 12.061068 19.107853 22.617637 -1.488982 0.564566 0.017401 -0.003098 259204.000000 0 1 0
-1.713579 10.607968 19.007353 21.834487 -1.410643 0.514539 0.006258 -0.008420 -65184.800000 0 1 0
-1.794479 9.857268 20.212553 22.559548 -1.390722 0.460198 0.012120 -0.008271 -24608.800000 0 1 0
-2.727779 10.230868 21.184953 23.683617 -1.310235 0.463489 0.029182 -0.004360 155526.000000 0 1 0
-4.256579 10.172968 20.873853 23.607742 -1.174512 0.486028 0.029031 -0.002754 525907.000000 0 1 0
-4.924179 8.886668 20.906453 23.244358 -1.064804 0.452354 0.041914 -0.005717 -408591.000000 0 1 0
-6.229779 9.006668 21.343353 23.988934 -0.965673 0.474072 0.041108 0.005380 -1016790.000000 0 1 0
-6.983079 7.707068 21.377653 23.773228 -0.834642 0.452785 0.034122 0.000160 -497667.000000 0 1 0
-6.774479 6.937468 22.532453 24.530256 -0.797284 0.406380 0.047057 -0.006961 224996.000000 0 1 0
-7.601479 5.793668 22.467053 24.415519 -0.651249 0.402216 0.045653 -0.006044 60664.200000 0 1 0
-7.679979 5.012868 23.788783 25.495434 -0.578284 0.367967 0.030944 -0.006852 -503068.000000 0 0 1
-8.583779 5.500968 24.746413 26.764284 -0.569920 0.390797 0.028882 -0.007188 90726.200000 0 0 1
-8.562179 4.763868 25.945063 27.733584 -0.507732 0.361095 0.033815 0.003260 -78347.100000 0 0 1
-9.706479 5.162668 26.908853 29.068114 -0.488824 0.387869 0.024976 0.000393 -110638.000000 0 0 1
-9.463979 6.413268 27.473833 29.757494 -0.595568 0.394321 0.032975 -0.006887 578443.000000 0 0 1
-10.554179 6.772168 28.322733 30.974670 -0.570488 0.416813 0.035885 -0.007959 374016.000000 0 0 1
-10.248079 8.089468 28.929793 31.739495 -0.668222 0.423938 0.047208 -0.009773 -105064.000000 0 0 1
-9.111979 7.899168 29.720063 32.073465 -0.714224 0.385462 0.045182 -0.006530 -174264.000000 0 0 1
-8.634379 9.012068 30.456603 32.914656 -0.806798 0.388917 0.048040 -0.009083 347220.000000 0 0 1
-7.592579 8.623868 31.531903 33.560085 -0.848908 0.349437 0.067972 -0.012886 671091.000000 0 0 1
-6.230679 8.392368 31.177023 32.882518 -0.932163 0.323484 0.064640 -0.016939 447524.000000 0 0 1
-5.562479 7.661168 32.246765 33.607864 -0.942793 0.285572 0.101656 -0.022041 790067.000000 0 0 1
-4.026779 7.601368 32.009593 33.145283 -1.083638 0.262532 0.079742 -0.020873 456349.000000 0 0 1
-3.389579 8.862968 31.989703 33.367388 -1.205516 0.288360 0.063052 -0.018070 442147.000000 0 0 1
-1.954279 8.747568 31.996213 33.227952 -1.350997 0.273132 0.066255 -0.023825 619322.000000 0 0 1
-1.321979 10.075268 31.764373 33.350174 -1.440331 0.309618 0.070247 -0.026143 -498909.000000 0 0 1
-1.390479 11.069768 32.803505 34.648855 -1.445840 0.327836 0.075126 -0.036075 -103703.000000 0 0 1
-1.678979 12.303768 32.251168 34.559218 -1.435173 0.367538 0.075453 -0.035550 -231358.000000 0 0 1
-1.504179 13.430768 33.270427 35.910575 -1.459266 0.385847 0.071707 -0.034947 233925.000000 0 0 1
-0.165679 13.681568 33.652163 36.327412 -1.558687 0.386173 0.083855 -0.040151 -200930.000000 0 0 1
-0.233779 14.474468 -33.449923 36.448075 -1.554647 2.733153 0.082648 -0.036851 -689770.000000 0 0 1
1.090621 15.003268 -32.964923 36.234978 1.498232 2.713488 0.082344 -0.036470 -830487.000000 0 0 1
1.619221 16.025668 -33.811673 37.452278 1.470099 2.697018 0.080872 -0.033563 -134888.000000 0 0 1
3.009621 16.113468 -33.633513 37.415436 1.386147 2.688096 0.075073 -0.031283 -105584.000000 0 0 1
3.695521 17.099468 33.655459 37.930708 1.357951 0.479365 0.079211 -0.016199 26889.100000 0 0 1
3.335821 18.429468 34.004445 38.821068 1.391730 0.503441 0.073499 -0.011495 178076.000000 0 0 1
4.279821 19.353568 33.460163 38.890359 1.353160 0.534798 0.055234 0.003423 245410.000000 0 0 1
3.927021 20.863268 33.523224 39.680021 1.384747 0.564532 0.060071 -0.006382 -297654.000000 0 0 1
4.007121 21.441968 -33.401523 39.893317 1.386045 2.563070 0.062676 -0.019034 130700.000000 0 0 1
3.675521 22.795368 -33.438343 40.635711 1.410932 2.537259 0.049928 -0.018011 -33520.800000 0 0 1
3.550721 23.490468 -32.035383 39.883273 1.420776 2.503492 0.065066 -0.020103 -5185.820000 0 0 1
3.429721 24.913868 -32.183993 40.844500 1.433993 2.478291 0.064949 -0.023910 237545.000000 0 0 1
2.972221 25.468968 -30.971833 40.208915 1.454622 2.450065 0.069877 -0.029803 -26777.900000 0 0 1
2.562421 26.950068 -30.949253 41.118468 1.476001 2.422927 0.059882 -0.031885 343733.000000 0 0 1
3.668521 27.842468 -31.012023 41.837861 1.439791 2.405717 0.078399 -0.045363 517100.000000 0 0 1
3.265921 28.995268 -30.313683 42.075066 1.458633 2.375271 0.078787 -0.039958 -160977.000000 0 0 1
4.441621 29.948268 -30.009033 42.628263 1.423560 2.351769 0.110214 -0.053608 833580.000000 0 0 1
5.525721 29.566968 -29.142293 41.880931 1.386039 2.340381 0.097318 -0.064047 543432.000000 0 0 1
6.136021 30.656368 -28.499203 42.304470 1.373252 2.309958 0.118091 -0.068081 -158296.000000 0 0 1
7.418921 30.223068 -27.726753 41.680296 1.330084 2.298591 0.115588 -0.069137 648660.000000 0 0 1
8.481521 29.734868 -28.570163 42.099320 1.292937 2.316702 0.117652 -0.060294 1945830.000000 0 0 1
9.653121 30.608568 -28.801073 43.122720 1.265296 2.302161 0.126326 -0.052110 1370460.000000 0 0 1
9.432521 32.023168 -29.334153 44.440390 1.284344 2.291720 0.137088 -0.057470 -1209240.000000 0 0 1
8.738821 32.951068 -28.523013 44.448871 1.311558 2.267514 0.138151 -0.060431 145834.000000 0 0 1
8.553421 -34.035129 -29.070033 45.569922 -1.324584 2.262593 0.123066 -0.055359 253981.000000 0 0 1
7.281821 -33.939829 -29.984373 45.869375 -1.359449 2.283247 0.088682 -0.033459 187337.000000 0 0 1
7.476221 33.615268 -31.212443 46.476841 1.351953 2.307122 0.074490 -0.033352 291236.000000 0 0 1
6.205921 33.139368 -31.648963 46.242708 1.385673 2.324590 0.070660 -0.029267 305131.000000 0 0 1
6.192121 32.218468 -32.896003 46.459865 1.380920 2.357532 0.079423 -0.050259 -126533.000000 0 0 1
6.614721 32.885968 -34.019966 47.776558 1.372304 2.363230 0.092111 -0.040542 -80705.100000 0 0 1
6.491721 32.026568 33.077854 46.497182 1.370808 0.779315 0.090837 -0.037544 79383.300000 0 0 1
5.660821 32.681068 31.930153 46.039459 1.399284 0.804407 0.081916 -0.024318 99019.900000 0 0 1
6.370021 33.703868 31.325453 46.452254 1.384000 0.830701 0.089981 -0.028137 91553.000000 0 0 1
5.545521 -33.874529 30.380963 45.839279 -1.408528 0.846283 0.059641 -0.038885 372555.000000 0 0 1
18.014793 -22.256832 28.908453 40.689040 -0.890347 0.780627 0.097907 -0.012607 -1307680.000000 0 0 1
16.940293 -21.419432 28.731313 39.639046 -0.901638 0.760018 0.094655 -0.009856 -786176.000000 0 0 1
15.695193 -22.028032 28.942743 39.613832 -0.951724 0.751564 0.105702 -0.009345 -50833.800000 0 0 1
15.221693 -22.098332 30.433243 40.573618 -0.967616 0.722621 0.107712 -0.010374 -790847.000000 0 0 1
15.979093 -22.958532 31.230123 41.925484 -0.962761 0.730417 0.115715 -0.021763 -9667.440000 0 0 1
15.431093 -23.061632 32.491769 42.727890 -0.981094 0.706814 0.109210 -0.011014 129803.000000 0 0 1
16.262593 -24.061032 33.348576 44.221406 -0.976436 0.716472 0.116479 -0.016346 319006.000000 0 0 1
15.972693 -25.378012 33.060003 44.633331 -1.009046 0.736681 0.126206 -0.024427 594622.000000 0 0 1
16.813893 -26.216412 33.940641 46.064893 -1.000526 0.742470 0.113224 -0.027651 903378.000000 0 0 1
16.605293 -27.822832 33.854822 46.861442 -1.032716 0.763464 0.108854 -0.019261 67839.600000 0 0 1
17.121693 -28.426272 32.692486 46.583301 -1.028673 0.792865 0.097467 -0.025337 -155617.000000 0 0 1
16.688493 -29.735252 32.455132 47.074692 -1.059368 0.810082 0.102586 -0.025551 129944.000000 0 0 1
17.435893 -30.467992 31.269163 47.011376 -1.051017 0.843115 0.110210 -0.031436 575638.000000 0 0 1
18.715493 -30.974412 31.602893 48.046090 -1.027277 0.852953 0.094731 -0.037354 158063.000000 0 0 1
19.317193 -31.720242 30.553533 48.092058 -1.023795 0.882382 0.070383 -0.029125 -375328.000000 0 0 1
20.621193 -32.462172 30.868593 49.314260 -1.004869 0.894439 0.048500 -0.025494 -758828.000000 0 0 1
21.707693 -31.617832 30.918523 49.263235 -0.969144 0.892306 0.044131 -0.026022 411496.000000 0 0 1
22.982393 -32.333982 30.962943 50.322764 -0.952871 0.908046 0.041715 -0.023772 1405870.000000 0 0 1
24.124993 -31.274502 31.073643 50.256154 -0.913742 0.904212 0.037935 -0.028551 127223.000000 0 0 1
24.467293 -30.655822 29.834583 49.280120 -0.897197 0.920518 0.027569 -0.022726 45317.500000 0 0 1
25.272693 -29.494642 29.951793 49.048474 -0.862335 0.913906 0.019851 -0.019956 1167100.000000 0 0 1
26.685093 -29.578152 29.246243 49.419672 -0.836773 0.937514 0.035208 -0.015310 1404440.000000 0 0 1
27.538193 -30.650472 29.743663 50.818195 -0.838833 0.945552 0.045651 -0.011961 1411410.000000 0 0 1
28.821793 -30.615962 29.075533 51.121615 -0.815575 0.965808 0.036068 -0.024623 1819410.000000 0 0 1
29.994193 -31.515832 29.636643 52.642472 -0.810131 0.972810 0.039059 -0.024844 821857.000000 0 0 1
29.759093 -32.882852 29.315983 53.163074 -0.835224 0.986713 0.026788 -0.022738 384420.000000 0 0 1
30.779093 -33.759922 29.821523 54.556467 -0.831552 0.992477 0.041521 -0.014908 -282102.000000 0 0 1
30.166293 33.185560 30.285513 54.115607 0.833021 0.976839 0.031094 -0.010447 531423.000000 0 0 1
29.295993 33.249362 31.479203 54.357295 0.848522 0.953152 0.030382 -0.010699 837066.000000 0 0 1
28.098693 33.978522 31.497893 54.186657 0.879834 0.950489 0.009853 -0.007550 -202577.000000 0 0 1
26.968493 33.614581 30.491643 52.791855 0.894663 0.955032 0.023653 -0.017692 -141132.000000 0 0 1
26.578293 32.247507 30.616783 51.804389 0.881474 0.938489 0.015219 -0.016332 467317.000000 0 0 1
25.266593 32.033646 31.158113 51.335983 0.902952 0.918586 0.015307 -0.017389 594370.000000 0 0 1
24.839193 30.609906 31.029833 50.167742 0.889097 0.903936 0.038299 -0.012480 -96004.000000 0 0 1
24.707393 30.256556 29.671043 49.053901 0.886017 0.921199 0.035303 -0.026276 241793.000000 0 0 1
23.970093 29.054266 29.493463 47.839106 0.880990 0.906489 0.070562 -0.047665 -148021.000000 0 0 1
23.593493 28.788926 28.039173 46.600970 0.884258 0.925185 0.064706 -0.041086 -524193.000000 0 0 1
22.392293 29.464116 27.793963 46.282321 0.920935 0.926631 0.093576 -0.045164 -318806.000000 0 0 1
21.832393 29.047406 26.572203 45.016521 0.926264 0.939395 0.097731 -0.036350 -225127.000000 0 0 1
20.498693 29.734256 26.241773 44.642502 0.967222 0.942434 0.109998 -0.035133 -243026.000000 0 0 1
20.584593 31.058666 25.796113 45.318932 0.985500 0.965248 0.106021 -0.042848 205468.000000 0 0 1
19.304193 31.654116 25.614233 45.063553 1.023167 0.966234 0.099051 -0.039816 -38950.600000 0 0 1
19.254693 33.030793 25.043053 45.704824 1.043022 0.990908 0.115563 -0.032307 -49821.100000 0 0 1
19.850693 33.210858 23.769243 45.409118 1.032057 1.019905 0.117386 -0.036126 -176295.000000 0 0 1
21.135593 33.768597 23.811433 46.411375 1.011554 1.032060 0.114850 -0.031838 -631909.000000 0 0 1
21.793993 33.641075 22.457153 45.945878 0.995942 1.060112 0.115739 -0.038844 -368012.000000 0 0 1
21.251793 -33.717192 21.509453 45.289561 -1.008398 1.075910 0.114987 -0.024397 461296.000000 0 0 1
21.994093 -33.788662 20.305953 45.141395 -0.993767 1.104221 0.121522 -0.031204 155537.000000 0 0 1
21.783793 -32.493322 19.413353 43.671820 -0.980208 1.110149 0.090862 -0.025309 89892.300000 0 0 1
22.231693 -31.298892 20.086653 43.328310 -0.953189 1.088752 0.084220 -0.009578 459985.000000 0 0 1
21.682093 -30.146582 19.421453 41.906114 -0.947286 1.088910 0.084676 -0.021148 108475.000000 0 0 1
22.409193 -29.571062 18.145453 41.302265 -0.922317 1.115940 0.066559 -0.020386 -19141.500000 0 0 1
22.297193 -30.315452 16.986353 41.288347 -0.936636 1.146798 0.058577 -0.023093 352888.000000 0 0 1
22.974293 -29.629422 15.932753 40.737862 -0.911244 1.168965 0.051578 -0.020185 -100264.000000 0 0 1
22.710793 -30.123142 14.499853 40.415709 -0.924784 1.203849 0.046788 -0.032911 -255859.000000 0 0 1
23.285093 -31.372482 14.135053 41.547899 -0.932297 1.223655 0.095813 -0.036279 -8305.930000 0 0 1
23.287393 -31.629942 12.794953 41.309402 -0.936157 1.255882 0.093695 -0.035905 -358074.000000 0 0 1
21.948593 -31.739242 12.030653 40.420995 -0.965779 1.268583 0.092070 -0.033452 -359477.000000 0 0 1
21.191193 -32.846912 12.457053 41.026387 -0.997838 1.262291 0.097403 -0.045580 -739215.000000 0 0 1
19.958893 -32.822862 11.801853 40.186831 -1.024458 1.272728 0.096222 -0.041885 -812755.000000 0 0 1
18.913093 -33.564212 12.610353 40.537420 -1.057655 1.254468 0.099797 -0.036312 -537097.000000 0 0 1
18.597293 -32.919042 13.852053 40.266636 -1.056555 1.219614 0.086431 -0.028032 249981.000000 0 0 1
19.078793 -33.636432 14.974853 41.468737 -1.054839 1.201336 0.082193 -0.034359 -826826.000000 0 0 1
18.928393 -32.643192 16.160253 41.048944 -1.045319 1.166162 0.079737 -0.035456 537561.000000 0 0 1
17.616793 -32.155452 16.475753 40.196703 -1.069595 1.148476 0.081771 -0.043239 1185630.000000 0 0 1
16.600593 -33.118322 16.860753 40.702431 -1.106148 1.143684 0.082609 -0.033066 67142.000000 0 0 1
16.786493 -33.835992 18.213353 41.933124 -1.110263 1.121488 0.087627 -0.032707 -108180.000000 0 0 1
17.797893 33.399552 18.185953 41.988378 1.081193 1.122846 0.079109 -0.026627 274392.000000 0 0 1
17.980993 32.870237 19.505853 42.240346 1.070237 1.090793 0.077445 -0.021709 182908.000000 0 0 1
18.887893 31.628196 19.548853 41.704351 1.032449 1.082923 0.080817 -0.018301 91015.000000 0 0 1
18.255793 30.447016 19.100753 40.312945 1.030677 1.077182 0.064238 -0.017518 -171571.000000 0 0 1
19.116193 29.337786 19.255253 39.961222 0.993305 1.068033 0.060606 -0.022775 255211.000000 0 0 1
18.469593 27.911386 18.923453 38.448256 0.986224 1.056204 0.067091 -0.013057 338877.000000 0 0 1
17.807093 27.334006 20.027253 38.279646 0.993393 1.020215 0.074412 -0.026786 -145182.000000 0 0 1
17.346593 26.063906 19.635253 36.956388 0.983574 1.010652 0.079165 -0.028409 -682648.000000 0 0 1
17.269793 25.014416 20.788253 36.825510 0.966547 0.970961 0.089333 -0.028406 86272.100000 0 0 1
16.190593 25.269656 21.671353 37.018081 1.000978 0.945391 0.094910 -0.032993 375794.000000 0 0 1
15.044693 24.532866 21.264053 35.782178 1.020694 0.934446 0.102620 -0.029564 530954.000000 0 0 1
13.676093 24.837096 21.952953 35.858737 1.067468 0.911948 0.110081 -0.046142 749584.000000 0 0 1
12.983193 26.031366 21.583953 36.222401 1.108148 0.932444 0.119925 -0.047580 141332.000000 0 0 1
11.679193 26.077166 22.130553 36.141161 1.149715 0.911784 0.104909 -0.047510 110146.000000 0 0 1
10.773693 27.118726 21.428453 36.203264 1.192638 0.937391 0.097552 -0.046457 -285520.000000 0 0 1
11.075593 28.459516 21.737253 37.484943 1.199661 0.952199 0.094469 -0.046646 -262646.000000 0 0 1
10.609493 29.302356 20.717253 37.421838 1.223410 0.984099 0.088420 -0.045786 -1631.820000 0 0 1
11.338193 30.666386 20.569153 38.627346 1.216656 1.009242 0.082788 -0.042935 -192381.000000 0 0 1
10.906893 31.721756 21.410053 39.794729 1.239629 1.002719 0.079751 -0.043261 -301303.000000 0 0 1
11.341293 31.538136 22.756153 40.510757 1.225590 0.974320 0.076259 -0.041979 55804.800000 0 0 1
10.676493 32.407185 23.877743 41.645645 1.252546 0.960201 0.064832 -0.039912 -449853.000000 0 0 1
9.312093 32.269564 24.092673 41.333966 1.289857 0.948530 0.069043 -0.045362 -927683.000000 0 0 1
9.131493 32.963636 25.281513 42.533990 1.300556 0.934297 0.059605 -0.031188 -526921.000000 0 0 1
7.765793 32.676574 25.922123 42.426672 1.337469 0.913490 0.112827 -0.046550 577488.000000 0 0 1
6.627593 33.302187 25.249803 42.314456 1.374349 0.931391 0.104891 -0.047311 1003540.000000 0 0 1
6.085993 32.679662 24.072303 41.042361 1.386674 0.944037 0.100086 -0.043206 179997.000000 0 0 1
5.186093 31.412426 24.351603 40.082872 1.407175 0.917847 0.083972 -0.044254 10813.500000 0 0 1
5.926193 30.379586 24.899803 39.724541 1.378144 0.893342 0.069538 -0.032080 -422893.000000 0 0 1
5.167393 29.191686 24.807343 38.655669 1.395595 0.874016 0.046775 -0.026355 157763.000000 0 0 1
6.080293 27.919236 25.005403 37.970039 1.356363 0.851898 0.052012 -0.031775 997798.000000 0 0 1
7.111393 27.677436 24.029373 37.336619 1.319298 0.871620 0.063630 -0.033476 846575.000000 0 0 1
8.219193 28.563276 23.941813 38.165773 1.290612 0.892701 0.082594 -0.039944 432675.000000 0 0 1
9.471193 28.067176 24.759443 38.606993 1.245348 0.874579 0.088375 -0.046985 -66601.100000 0 0 1
9.270593 28.196696 26.232063 39.612103 1.253147 0.847014 0.080561 -0.039049 533956.000000 0 0 1
10.460493 28.075616 27.011643 40.339695 1.214146 0.837120 0.086193 -0.029290 480302.000000 0 0 1
11.450493 29.254336 26.991343 41.418143 1.197715 0.861000 0.081687 -0.031148 -156265.000000 0 0 1
11.019593 30.326156 27.787723 42.582446 1.222261 0.859835 0.081191 -0.034620 769831.000000 0 0 1
12.089293 31.290136 27.894543 43.627160 1.202103 0.877098 0.075974 -0.024991 375575.000000 0 0 1
11.605593 32.533343 28.642243 44.871887 1.228139 0.878493 0.059968 -0.027028 -108520.000000 0 0 1
11.427093 32.418733 30.045263 45.653812 1.231910 0.852490 0.072323 -0.037452 -96326.500000 0 0 1
10.152993 31.923056 30.360353 45.209687 1.262867 0.834504 0.094918 -0.042666 -437101.000000 0 0 1
10.048293 31.847166 31.869713 46.161551 1.265166 0.808761 0.123578 -0.045671 -119020.000000 0 0 1
10.503293 30.643856 32.492022 45.881331 1.240592 0.783886 0.102822 -0.046220 273588.000000 0 0 1
10.482393 30.568776 33.912258 46.844123 1.240450 0.761302 0.129326 -0.047350 -41535.000000 0 0 1
10.593593 29.120956 -33.729823 45.803441 1.221899 2.398535 0.104731 -0.038672 402019.000000 0 0 1
11.916993 28.624236 -33.920863 45.956354 1.176296 2.401062 0.111693 -0.036499 343377.000000 0 0 1
12.008693 27.268096 -33.588433 44.899226 1.155960 2.415968 0.111545 -0.034465 639898.000000 0 0 1
13.438793 26.619856 -33.680943 44.984706 1.103283 2.416925 0.122075 -0.029649 721592.000000 0 0 1
13.465793 25.205416 -33.518933 44.047240 1.080132 2.435614 0.087968 -0.030685 -204663.000000 0 0 1
13.667893 24.802566 -32.196173 42.878574 1.067134 2.420173 0.082168 -0.027083 -413390.000000 0 0 1
13.524493 23.245186 -32.036493 41.828070 1.043852 2.443250 0.071635 -0.040565 501384.000000 0 0 1
14.668993 22.552566 -32.572253 42.246292 0.994115 2.451220 0.053475 -0.026002 552217.000000 0 0 1
14.476793 21.151266 -32.708433 41.554724 0.970589 2.476917 0.052562 -0.025113 375089.000000 0 0 1
15.681893 20.442966 -33.412003 42.192399 0.916438 2.484704 0.054330 -0.027960 780772.000000 0 0 1
16.869293 20.416066 -32.631263 42.026040 0.880238 2.459815 0.066323 -0.035424 -317275.000000 0 0 1
17.972193 20.005966 -33.381223 42.866588 0.838898 2.463425 0.079075 -0.029055 -353382.000000 0 0 1
19.233793 20.076666 -32.477263 42.752589 0.806836 2.433580 0.072290 -0.027689 85017.500000 0 0 1
19.957893 21.317966 -32.496803 43.689991 0.818337 2.409540 0.063767 -0.025032 137937.000000 0 0 1
20.923493 21.487966 -31.478843 43.479222 0.798707 2.380376 0.052052 -0.015325 891.495000 0 0 1
20.433193 21.820966 -30.027763 42.371410 0.818230 2.358422 0.056949 -0.020701 68984.200000 0 0 1
19.790693 23.102766 -30.000473 42.725141 0.862462 2.349242 0.043700 -0.012260 159343.000000 0 0 1
19.415893 23.498896 -28.670023 41.846687 0.880255 2.325565 0.053491 -0.002420 178085.000000 0 0 1
20.587493 23.951076 -27.715683 42.019733 0.860776 2.291066 0.043677 0.002528 334661.000000 0 0 1
21.311293 25.081386 -28.129173 43.295467 0.866485 2.277989 0.051410 0.002312 -440760.000000 0 0 1
20.607393 26.290696 -28.238963 43.741334 0.905994 2.272592 0.045041 0.003669 -614986.000000 0 0 1
21.406893 27.437276 -28.965073 45.277307 0.908238 2.264938 0.041348 -0.000079 -145883.000000 0 0 1
21.553893 27.427216 -30.401133 46.271496 0.904738 2.287651 0.047912 -0.003302 -71048.400000 0 0 1
22.106593 26.283426 -31.005143 46.269199 0.871501 2.305144 0.056060 -0.010001 543822.000000 0 0 1
23.574493 25.893846 -30.591873 46.498501 0.832249 2.288838 0.084030 -0.024920 1043670.000000 0 0 1
24.574893 26.878976 -30.995923 47.824177 0.830148 2.275913 0.079161 -0.021763 -82006.400000 0 0 1
25.853493 26.432546 -30.700343 48.058231 0.796472 2.263754 0.097392 -0.027385 -977469.000000 0 0 1
26.951893 27.418246 -31.022723 49.402166 0.793975 2.249729 0.068691 -0.016270 -606156.000000 0 0 1
26.952493 28.565336 -30.244193 49.569410 0.814441 2.227031 0.045119 -0.014440 84692.500000 0 0 1
28.029493 29.386686 -30.676923 50.895023 0.809032 2.217738 0.043279 -0.013688 373889.000000 0 0 1
28.330193 30.657266 -29.760873 51.265752 0.824828 2.190165 0.037577 -0.005885 -248945.000000 0 0 1
28.849093 30.314706 -28.541813 50.654581 0.810165 2.169364 0.057521 -0.013946 -34517.300000 0 0 1
28.218093 30.996556 -27.473963 50.118518 0.832286 2.150983 0.045553 -0.003446 -96306.800000 0 0 1
28.884293 30.697546 -26.105753 49.579754 0.815822 2.125323 0.066682 -0.004517 -435054.000000 0 0 1
28.863393 29.362726 -25.734183 48.554230 0.793974 2.129408 0.062255 0.005487 1433910.000000 0 0 1
27.580893 28.805536 -25.290383 47.223595 0.807114 2.135950 0.063580 0.005123 1156390.000000 0 0 1
26.931793 29.276986 -23.984493 46.451256 0.827097 2.113364 0.063737 0.016346 -292726.000000 0 0 1
26.473793 30.589816 -24.070893 47.074477 0.857404 2.107535 0.065658 0.019425 -60920.000000 0 0 1
25.899893 31.083796 -22.899793 46.490938 0.876120 2.085831 0.060963 0.036509 2342.400000 0 0 1
3.331193 -26.414912 -19.445593 32.969311 -1.445348 2.201618 0.086618 -0.014270 -309999.000000 0 0 1
3.233993 -27.625062 -18.752293 33.544765 -1.454259 2.164003 0.079833 -0.013454 387466.000000 0 0 1
2.689393 -27.354012 -17.455693 32.560344 -1.472793 2.136610 0.078171 -0.018742 -153818.000000 0 0 1
2.678793 -28.545352 -16.457193 33.058316 -1.477227 2.091883 0.053348 -0.010119 425408.000000 0 0 1
4.013093 -28.886732 -16.070793 33.298927 -1.432755 2.074442 0.060637 -0.007613 478220.000000 0 0 1
4.099293 -29.746192 -14.958793 33.547065 -1.433850 2.032981 0.056630 -0.010980 289212.000000 0 0 1
5.515393 -30.307272 -14.622093 34.099206 -1.390784 2.013972 0.081982 -0.009432 476381.000000 0 0 1
6.296193 -29.412442 -13.838193 33.109354 -1.359913 2.001989 0.062754 0.001749 723626.000000 0 0 1
7.659993 -29.871002 -13.689093 33.739346 -1.319770 1.988575 0.068806 0.000262 1112290.000000 0 0 1
7.844993 -30.646422 -12.364393 33.965060 -1.320194 1.943390 0.058771 -0.008101 -662264.000000 0 0 1
8.088993 -29.807612 -11.230293 32.864038 -1.305805 1.919543 0.053248 -0.017505 -127122.000000 0 0 1
8.249393 -30.548352 -10.047493 33.199494 -1.307044 1.878258 0.052726 -0.012304 555694.000000 0 0 1
9.493393 -31.481002 -9.884493 34.334839 -1.277909 1.862814 0.064090 -0.017945 319777.000000 0 0 1
10.738893 -30.875672 -9.593093 34.068436 -1.236073 1.856240 0.056676 -0.017460 -105858.000000 0 0 1
11.689593 -31.917362 -9.510093 35.295983 -1.219723 1.843606 0.055838 -0.021306 252433.000000 0 0 1
12.985993 -31.558482 -8.739693 35.227206 -1.180424 1.821510 0.052020 -0.020304 -144722.000000 0 0 1
13.962193 -30.768912 -9.312993 35.048546 -1.144807 1.839744 0.059205 -0.029056 -277275.000000 0 0 1
15.023893 -30.551642 -8.399993 35.066794 -1.113767 1.812691 0.048887 -0.022004 823075.000000 0 0 1
16.342893 -29.940872 -9.042093 35.288885 -1.071153 1.829917 0.056994 -0.033454 707594.000000 0 0 1
16.365493 -28.602682 -9.525893 34.302848 -1.051094 1.852195 0.052636 -0.026922 -25014.800000 0 0 1
15.442493 -28.316582 -10.569093 33.941201 -1.071529 1.887456 0.040217 -0.024583 -241401.000000 0 0 1
15.181293 -26.813402 -10.837693 32.663217 -1.055613 1.909009 0.036938 -0.019843 -908149.000000 0 0 1
14.591793 -26.104542 -9.781593 31.465013 -1.061088 1.886907 0.035294 -0.026316 33772.600000 0 0 1
14.402593 -24.686532 -9.988493 30.275890 -1.042658 1.907011 0.003426 -0.012100 189354.000000 0 0 1
13.644493 -24.240332 -11.276493 30.015415 -1.058115 1.955938 0.007722 -0.008479 -5443.410000 0 0 1
14.557493 -24.048232 -12.323693 30.693834 -1.026455 1.983955 0.005647 -0.005899 -180757.000000 0 0 1
13.862993 -23.619632 -13.476793 30.523655 -1.040045 2.028088 0.024175 -0.011671 117283.000000 0 0 1
14.715793 -22.914832 -14.552093 30.877297 -0.999927 2.061547 0.022554 -0.018907 -17487.600000 0 0 1
15.651193 -23.760132 -15.222093 32.267876 -0.988318 2.062061 0.024360 -0.015576 -78794.100000 0 0 1
15.906593 -23.323332 -16.529993 32.714495 -0.972251 2.100503 0.027839 -0.020786 -836650.000000 0 0 1
16.815393 -24.349932 -17.252393 34.253783 -0.966426 2.098631 0.025855 -0.017923 1691200.000000 0 0 1
18.197293 -24.472432 -16.820693 34.827820 -0.931415 2.074836 0.043867 -0.016563 831385.000000 0 0 1
19.024193 -23.401532 -17.062193 34.650686 -0.888211 2.085648 0.055031 -0.019083 -980967.000000 0 0 1
20.471393 -23.576432 -16.565293 35.345933 -0.855774 2.058572 0.046637 -0.010745 -128946.000000 0 0 1
21.191693 -24.485432 -17.325093 36.725782 -0.857383 2.062062 0.078200 -0.013272 -37946.700000 0 0 1
22.474893 -24.725932 -16.735593 37.370745 -0.833053 2.035129 0.108795 -0.004291 886435.000000 0 0 1
23.250493 -25.821622 -17.587193 38.944202 -0.837745 2.039354 0.113825 -0.009327 3402.610000 0 0 1
24.042693 -25.392832 -18.659893 39.636329 -0.812702 2.060968 0.109176 -0.009615 -143713.000000 0 0 1
24.336293 -26.439502 -19.550893 40.908921 -0.826796 2.069073 0.096595 -0.021473 -413248.000000 0 0 1
25.542493 -26.240232 -20.476493 41.955398 -0.798872 2.080655 0.070446 -0.025022 -370518.000000 0 0 1
25.537093 -25.203182 -21.446593 41.800715 -0.778817 2.109551 0.066810 -0.028925 -190557.000000 0 0 1
25.898393 -23.912632 -21.004893 41.033477 -0.745553 2.108187 0.080642 -0.026443 -316565.000000 0 0 1
24.751393 -22.864632 -21.085193 39.749317 -0.745794 2.129933 0.090909 -0.017912 -69457.000000 0 0 1
24.447393 -22.312732 -22.352593 39.939597 -0.739779 2.164772 0.076029 -0.017914 -73262.900000 0 0 1
23.772393 -23.146332 -23.258993 40.519872 -0.772055 2.182196 0.045976 -0.025741 -527196.000000 0 0 1
23.027993 -22.338032 -24.321893 40.259540 -0.770191 2.219467 0.024900 -0.017799 -534497.000000 0 0 1
23.893793 -21.670832 -25.188943 40.927022 -0.736650 2.233766 0.029444 -0.011199 -535651.000000 0 0 1
23.311293 -20.615132 -25.900933 40.487755 -0.724096 2.264934 0.031342 -0.002437 -406802.000000 0 0 1
24.019093 -20.019832 -27.132293 41.398935 -0.694835 2.285490 0.034849 -0.001291 -328626.000000 0 0 1
23.121293 -19.302932 -27.924443 41.072763 -0.695636 2.318392 0.035328 -0.002484 567839.000000 0 0 1
23.799993 -18.812932 -29.118753 42.050777 -0.668896 2.335699 0.056909 -0.005241 202386.000000 0 0 1
22.985893 -17.732632 -29.822803 41.619671 -0.657093 2.369648 0.082004 -0.011441 -379728.000000 0 0 1
21.823793 -18.235832 -30.428583 41.649996 -0.696071 2.389965 0.069324 -0.013419 97212.100000 0 0 1
21.019693 -17.248832 -31.034303 41.261091 -0.687178 2.422107 0.079589 -0.016038 -325126.000000 0 0 1
19.682493 -17.733132 -31.569563 41.212883 -0.733345 2.443410 0.068464 -0.013624 -601223.000000 0 0 1
19.870693 -18.484732 -32.697653 42.493131 -0.749279 2.448824 0.070469 -0.006717 251318.000000 0 0 1
18.700793 -19.105232 -33.198493 42.624751 -0.796095 2.463634 0.079000 -0.015371 -39230.300000 0 0 1
18.951593 -19.903832 33.730388 43.509361 -0.809900 0.683694 0.095462 -0.007318 -13805.400000 0 0 1
19.839993 -20.976932 33.944544 44.563315 -0.813246 0.704840 0.082994 -0.006799 74052.100000 0 0 1
19.845393 -21.861432 32.840926 44.162068 -0.833699 0.732290 0.078864 -0.014335 62025.500000 0 0 1
20.505693 -23.177032 33.347854 45.494369 -0.846475 0.748059 0.065161 -0.009857 121123.000000 0 0 1
19.821193 -23.986232 -33.921233 46.031174 -0.880189 2.399297 0.077318 -0.014288 48797.200000 0 0 1
19.868693 -23.548032 -32.579413 44.840750 -0.869941 2.384096 0.084135 -0.008193 38045.500000 0 0 1
18.996493 -24.426732 -31.618793 44.241157 -0.909806 2.366980 0.088988 -0.012795 140523.000000 0 0 1
19.394193 -25.828162 -31.488173 45.108022 -0.926724 2.343483 0.086893 -0.023411 -61852.300000 0 0 1
20.617793 -26.035222 -30.828083 45.313318 -0.901002 2.319011 0.075724 -0.030256 -185340.000000 0 0 1
21.047793 -27.535482 -30.789483 46.359514 -0.918150 2.297147 0.060348 -0.027835 453503.000000 0 0 1
20.144793 -28.382622 -30.030743 45.969897 -0.953551 2.282691 0.061889 -0.036203 381393.000000 0 0 1
20.294393 -29.690452 -30.459673 47.129364 -0.971208 2.273521 0.062288 -0.028547 -1106630.000000 0 0 1
19.310893 -30.677712 -29.930053 47.008942 -1.008985 2.260993 0.080172 -0.032168 855083.000000 0 0 1
17.914993 -30.569912 -30.316683 46.632260 -1.040710 2.278542 0.095318 -0.030984 1165810.000000 0 0 1
17.700893 -30.999922 -31.671213 47.721929 -1.051975 2.296500 0.109569 -0.037987 -741912.000000 0 0 1
16.304693 -31.562122 -31.990963 47.806194 -1.093965 2.303901 0.134977 -0.045170 -208537.000000 0 0 1
15.453693 -30.656542 -32.666593 47.389307 -1.103881 2.331352 0.137315 -0.038918 -147337.000000 0 0 1
14.356693 -31.447102 -33.121793 47.875756 -1.142521 2.334814 0.103121 -0.027000 893731.000000 0 0 1
13.207493 -30.706712 -33.931893 47.631012 -1.164599 2.363695 0.099799 -0.013668 1008790.000000 0 0 1
12.396493 -29.832672 -33.149573 46.287747 -1.176971 2.369085 0.115270 -0.021425 215932.000000 0 0 1
11.425093 -29.192342 -33.970993 46.225035 -1.197749 2.396322 0.097685 -0.016337 416376.000000 0 0 1
10.511293 -28.157752 -33.224753 44.802125 -1.213517 2.406232 0.092172 -0.025311 139217.000000 0 0 1
9.524393 -28.843812 -32.511673 44.493689 -1.251863 2.390147 0.087061 -0.021792 -205668.000000 0 0 1
8.643693 -27.933622 -31.827253 43.220072 -1.270704 2.398530 0.061334 -0.027208 233972.000000 0 0 1
7.492793 -28.551442 -31.032473 42.829209 -1.314152 2.381197 0.048601 -0.026186 -103913.000000 0 0 1
6.489493 -29.180872 -31.790503 43.637975 -1.351969 2.386934 0.042727 -0.023225 -204736.000000 0 0 1
6.719993 -30.544282 -31.946673 44.706838 -1.354238 2.366822 0.057141 -0.023129 -485889.000000 0 0 1
5.563793 -31.386772 -32.531633 45.545498 -1.395353 2.366372 0.078330 -0.027109 202673.000000 0 0 1
4.739993 -31.651512 -31.381573 44.822861 -1.422145 2.346368 0.078539 -0.037518 803617.000000 0 0 1
3.510593 -32.318882 -31.737073 45.432105 -1.462597 2.344180 0.091119 -0.053285 374979.000000 0 0 1
2.497293 -32.688772 -30.614103 44.855496 -1.494548 2.321981 0.082125 -0.055120 400390.000000 0 0 1
1.602193 -31.653872 -30.284433 43.836988 -1.520223 2.333449 0.073594 -0.043081 215792.000000 0 0 1
0.454893 -31.522722 -31.117953 44.296906 -1.556367 2.349681 0.064746 -0.009072 61725.100000 0 0 1
-0.626907 -30.544022 -30.576683 43.223417 1.550274 2.356624 0.033134 -0.001110 -50125.300000 0 0 1
-1.235007 -30.985222 -29.410193 42.738374 1.530959 2.329725 0.027817 -0.008466 -144065.000000 0 0 1
-2.229507 -30.081472 -28.983313 41.831783 1.496816 2.336236 0.046694 -0.003508 14766.500000 0 0 1
-2.862707 -30.313302 -27.604303 41.098526 1.476638 2.307246 0.047101 -0.006793 548751.000000 0 0 1
-1.898107 -30.314372 -26.523723 40.324581 1.508264 2.288632 0.039900 -0.006222 244328.000000 0 0 1
-2.549807 -30.566372 -25.327233 39.777799 1.487570 2.261031 0.060216 -0.020422 -210033.000000 0 0 1
-1.606607 -30.775662 -24.117893 39.133046 1.518640 2.234838 0.046830 -0.009738 -239457.000000 0 0 1
-2.088307 -31.122992 -22.857493 38.671263 1.503798 2.203183 0.065776 -0.034460 -275046.000000 0 0 1
-0.988007 -31.262282 -21.947893 38.210161 1.539203 2.182667 0.063141 -0.026067 557128.000000 0 0 1
-1.352107 -31.014222 -20.453493 37.176007 1.527228 2.153376 0.030582 -0.013811 93613.400000 0 0 1
-1.595007 -29.589092 -20.156393 35.837670 1.516943 2.168125 0.025215 -0.015234 -242576.000000 0 0 1
-0.443207 -28.801272 -19.994293 35.063962 1.555409 2.177574 0.055857 -0.028687 -215304.000000 0 0 1
-0.643407 -27.538722 -19.240693 33.600587 1.547437 2.180506 0.055873 -0.033805 -213838.000000 0 0 1
-1.035107 -27.744512 -17.902093 33.035047 1.533505 2.143507 0.054599 -0.032661 -25950.600000 0 0 1
-1.029007 -26.504602 -17.213393 31.620463 1.531992 2.146440 0.048928 -0.028354 -10785.800000 0 0 1
-1.855107 -26.468792 -15.898093 30.931985 1.500824 2.110602 0.043054 -0.022704 -252880.000000 0 0 1
-1.928207 -25.161342 -15.426793 29.576968 1.494312 2.119500 0.034054 -0.013617 189638.000000 0 0 1
-2.784807 -25.151632 -14.296593 29.064623 1.460525 2.085055 0.033658 -0.010930 -85485.100000 0 0 1
-2.573307 -23.923832 -13.359493 27.521767 1.463646 2.077635 0.037755 -0.003485 668565.000000 0 0 1
-1.286007 -23.969932 -12.722393 27.167457 1.517197 2.058157 0.030798 -0.003642 447260.000000 0 0 1
-1.213807 -22.958832 -11.750693 25.819761 1.517977 2.043286 0.035473 -0.003467 458871.000000 0 0 1
0.282293 -22.662632 -11.440293 25.388085 -1.558341 2.038252 0.045404 -0.001075 437128.000000 0 0 1
0.477293 -21.513932 -10.671893 24.020124 -1.548615 2.031178 0.029776 0.003609 218847.000000 0 1 0
1.648293 -21.604432 -9.853693 23.802597 -1.494650 1.997613 0.025836 0.001002 594200.000000 0 1 0
2.117993 -20.221632 -9.354193 22.380822 -1.466438 2.001990 0.026293 0.009132 -589254.000000 0 1 0
2.493293 -19.412332 -10.446093 22.185040 -1.443057 2.061064 0.021473 0.007545 -106521.000000 0 1 0
3.284593 -18.285932 -10.154093 21.172375 -1.393068 2.070986 0.017940 0.002435 -29644.700000 0 1 0
4.738893 -18.497232 -9.727093 21.429443 -1.319996 2.041948 0.038922 -0.014589 -721204.000000 0 1 0
4.875293 -19.062132 -8.473693 21.422811 -1.320406 1.977458 0.040280 -0.007211 -412129.000000 0 1 0
6.080593 -19.721932 -8.215393 22.213079 -1.271727 1.949638 0.044253 -0.009230 -455627.000000 0 1 0
5.746793 -20.762432 -7.173593 22.706048 -1.300769 1.892236 0.044336 -0.018239 -105264.000000 0 1 0
5.099793 -21.857832 -7.792293 23.759051 -1.341580 1.904952 0.058242 -0.018829 -5323.350000 0 1 0
4.798393 -22.870532 -6.885993 24.361911 -1.363989 1.857356 0.067204 -0.021083 -770386.000000 0 1 0
3.815993 -23.932832 -7.261193 25.299549 -1.412681 1.861899 0.068043 -0.016969 -621556.000000 0 0 1
4.116593 -24.712332 -8.414593 26.428224 -1.405731 1.894831 0.059634 -0.015596 -463663.000000 0 0 1
2.978293 -25.235792 -9.032993 26.968692 -1.453321 1.912342 0.044227 -0.014176 -46212.500000 0 0 1
3.352493 -26.104712 -10.296193 28.261401 -1.443071 1.943699 0.038536 -0.012745 -45163.900000 0 0 1
3.833093 -27.390792 -9.969993 29.399810 -1.431758 1.916775 0.034579 -0.017468 -263150.000000 0 0 1
4.529893 -27.965362 -11.036793 30.403819 -1.410209 1.942289 0.047887 -0.015592 -44473.300000 0 0 1
4.509393 -29.538642 -11.001793 31.841882 -1.419305 1.923582 0.052008 -0.016105 285938.000000 0 0 1
3.202893 -30.079802 -11.170993 32.246613 -1.464716 1.924552 0.066595 -0.015120 191740.000000 0 0 1
3.215893 -31.500532 -10.970893 33.510983 -1.469059 1.904328 0.057249 -0.018505 -280649.000000 0 0 1
2.065193 -32.313092 -11.557993 34.380054 -1.506971 1.913657 0.043324 -0.028556 -437657.000000 0 0 1
2.112993 -32.172252 -12.971293 34.753028 -1.505213 1.953298 0.054572 -0.026704 482183.000000 0 0 1
1.258493 -33.117502 -13.612393 35.828061 -1.532814 1.960524 0.059420 -0.022279 250552.000000 0 0 1
0.737693 -32.717412 -15.077493 36.031986 -1.548253 2.002532 0.065388 -0.026035 159390.000000 0 0 1
-0.323407 -31.787622 -15.032893 35.164547 1.560623 2.012523 0.060409 -0.024530 -120038.000000 0 0 1
-0.770407 -31.552962 -16.352593 35.547014 1.546385 2.048822 0.039333 -0.021026 651068.000000 0 0 1
-2.011807 -30.584812 -16.434593 34.778929 1.505113 2.062972 0.044439 -0.013546 1182630.000000 0 0 1
-3.260607 -31.105732 -15.997093 35.129832 1.466354 2.043585 0.054772 -0.022015 33549.800000 0 0 1
-4.259407 -31.041662 -16.995993 35.645351 1.434432 2.067816 0.059023 -0.018077 398057.000000 0 0 1
-5.697407 -31.019892 -16.427193 35.560467 1.389151 2.050990 0.065462 -0.017899 -169636.000000 0 0 1
-6.063307 -29.842992 -15.735093 34.277704 1.370351 2.047719 0.056906 -0.007682 171925.000000 0 0 1
-7.459507 -29.724392 -15.509093 34.346989 1.324918 2.039289 0.075115 -0.016472 309037.000000 0 0 1
-8.007907 -30.422762 -14.246393 34.534486 1.313414 1.996022 0.063575 -0.021232 -249374.000000 0 0 1
-8.137807 -31.798502 -14.525393 35.893672 1.320256 1.987423 0.064321 -0.018275 -337016.000000 0 0 1
-8.665607 -32.464712 -13.416393 36.180794 1.309954 1.950683 0.077481 -0.011808 253287.000000 0 0 1
-9.125307 -33.845732 -13.959093 37.731433 1.307444 1.949761 0.102612 -0.023296 157072.000000 0 0 1
-7.988007 33.644825 -14.284993 37.414482 -1.337691 1.962544 0.089686 -0.021818 108219.000000 0 0 1
-8.413007 32.324147 -14.596993 36.451356 -1.316175 1.982806 0.105425 -0.026992 88614.200000 0 0 1
-7.539007 -22.123632 -3.386093 23.616887 1.242370 1.714668 0.070820 -0.020973 206629.000000 0 1 0
-7.416307 -21.102632 -4.343093 22.785634 1.232839 1.762576 0.049717 -0.020693 377401.000000 0 1 0
-6.223607 -21.267232 -5.117093 22.742319 1.286107 1.797743 0.038434 -0.011690 531018.000000 0 1 0
-6.152107 -20.142132 -6.160493 21.943235 1.274361 1.855368 0.037399 -0.014048 -82604.400000 0 1 0
-7.012507 -20.329032 -7.246393 22.692620 1.238627 1.895817 0.045980 -0.020406 -471485.000000 0 1 0
-7.054407 -19.199432 -8.005293 21.965144 1.218681 1.943843 0.026362 -0.019122 -109722.000000 0 1 0
-7.902907 -19.311932 -9.287793 22.840091 1.182364 1.989574 0.040649 -0.022974 273715.000000 0 1 0
-7.288407 -20.176132 -10.235493 23.768939 1.224144 2.015981 0.049006 -0.009149 -275405.000000 0 1 0
-8.136307 -20.485032 -11.326993 24.781783 1.192721 2.045494 0.064327 -0.008335 -92329.400000 0 1 0
-7.511507 -21.319432 -12.420893 25.791849 1.232046 2.073255 0.054650 -0.001526 252695.000000 0 0 1
-6.590807 -20.612832 -13.264993 25.382821 1.261327 2.120691 0.046554 0.000588 71508.400000 0 0 1
-6.343807 -21.447132 -14.387793 26.593833 1.283208 2.142446 0.032607 0.003547 65789.900000 0 0 1
-5.134407 -20.999332 -15.262293 26.462646 1.330998 2.185539 0.036430 0.003046 -551826.000000 0 0 1
-3.916307 -21.012432 -14.560893 25.862702 1.386530 2.168817 0.031047 0.001083 -53472.600000 0 0 1
-2.897307 -20.453232 -15.411693 25.773035 1.430077 2.211772 0.033495 0.009535 83197.200000 0 0 1
-2.808307 -18.909332 -15.577593 24.659903 1.423360 2.254537 0.033039 0.016054 -1299050.000000 0 1 0
-3.795607 -18.157832 -16.211493 24.635868 1.364729 2.289015 0.034920 0.002132 -563513.000000 0 1 0
-3.800607 -18.353932 -17.617093 25.723013 1.366609 2.325231 0.067687 -0.009101 -605015.000000 0 0 1
-5.093407 -17.907832 -18.303993 26.108799 1.293690 2.347688 0.065726 -0.014806 -667995.000000 0 0 1
-6.116307 -18.784332 -17.964893 26.702017 1.256016 2.308772 0.048876 -0.008398 -786259.000000 0 0 1
-7.304507 -18.493532 -18.665393 27.272026 1.194628 2.324598 0.057304 -0.028198 619796.000000 0 0 1
-8.510607 -19.420632 -18.234893 27.966099 1.157777 2.281063 0.078856 -0.023118 555578.000000 0 0 1
-8.348307 -20.768132 -18.543993 29.066978 1.188587 2.262661 0.066143 -0.010738 -108308.000000 0 0 1
-9.241607 -21.541932 -17.809993 29.439055 1.165538 2.220535 0.072828 -0.022777 -240453.000000 0 0 1
-8.957707 -23.056332 -18.070793 30.633128 1.200231 2.201744 0.068817 -0.027454 -800717.000000 0 0 1
-9.227807 -23.452632 -19.401193 31.805418 1.195936 2.226852 0.040941 -0.029594 27972.800000 0 0 1
-8.506307 -24.537732 -19.939893 32.742279 1.237098 2.225590 0.061984 -0.040647 -167360.000000 0 0 1
-6.956707 -24.453332 -19.894993 32.282688 1.293630 2.234799 0.092154 -0.037734 -378722.000000 0 0 1
-6.434207 -23.498032 -20.858193 32.072117 1.303528 2.278845 0.089091 -0.037944 181860.000000 0 0 1
-6.127407 -22.176532 -20.411993 30.757001 1.301221 2.296489 0.066824 -0.033045 -115953.000000 0 0 1
-5.128107 -21.954832 -19.205393 29.616874 1.341335 2.276358 0.074317 -0.015233 -88956.900000 0 0 1
-3.854807 -22.465232 -19.483093 29.985614 1.400861 2.278049 0.067587 -0.027065 -538052.000000 0 0 1
-3.019307 -22.362832 -18.361693 29.092339 1.436593 2.253834 0.022135 -0.018387 -174783.000000 0 0 1
-1.654307 -23.024132 -18.579893 29.632074 1.499069 2.248518 0.047993 -0.018776 197208.000000 0 0 1
-0.826407 -22.502232 -19.629593 29.872300 1.534087 2.287784 0.068610 -0.014262 328009.000000 0 0 1
0.433693 -23.158132 -19.744993 30.436029 -1.552071 2.276721 0.057805 -0.025604 881314.000000 0 0 1
1.348593 -22.414632 -20.797093 30.606429 -1.510703 2.317878 0.077013 -0.033257 218168.000000 0 0 1
0.958293 -22.638432 -22.103393 31.654018 -1.528491 2.343789 0.074205 -0.040745 -349556.000000 0 0 1
0.438693 -21.511632 -22.689893 31.269378 -1.550406 2.382741 0.092714 -0.028781 -599159.000000 0 0 1
-0.031907 -21.817332 -24.129193 32.530215 1.569334 2.406468 0.107574 -0.029430 -105511.000000 0 0 1
-0.489207 -20.778832 -24.937993 32.463867 1.547257 2.446785 0.119964 -0.036346 150200.000000 0 0 1
-1.766307 -20.261032 -24.559493 31.887269 1.483839 2.449947 0.098203 -0.024767 112833.000000 0 0 1
-2.177607 -18.974932 -25.289083 31.691130 1.456534 2.494743 0.085024 -0.014585 332899.000000 0 0 1
-1.374607 -17.850832 -24.936493 30.698052 1.493943 2.518907 0.084013 -0.011058 769155.000000 0 0 1
-2.062307 -16.674432 -25.464783 30.508113 1.447740 2.558364 0.071730 -0.004780 748589.000000 0 0 1
-1.372407 -15.345832 -24.990293 29.358010 1.481602 2.589113 0.072033 -0.002558 578847.000000 0 0 1
-0.019907 -15.191632 -25.413253 29.607760 1.569486 2.602804 0.071128 -0.009716 452870.000000 0 0 1
0.628093 -13.928232 -25.012903 28.636261 -1.525732 2.633080 0.058370 -0.010782 583815.000000 0 0 1
0.139993 -12.611532 -25.640993 28.575004 -1.559696 2.684462 0.059830 -0.010205 -589758.000000 0 0 1
0.928693 -11.548032 -25.286573 27.814210 -1.490549 2.711973 0.043899 -0.008010 -326594.000000 0 0 1
0.652393 -10.378432 -26.057023 28.055407 -1.508018 2.761877 0.043475 -0.010516 -567603.000000 0 0 1
1.610093 -9.193632 -25.802103 27.438363 -1.397423 2.794501 0.049351 -0.017003 722029.000000 0 0 1
2.969393 -9.235432 -26.244733 27.980287 -1.259714 2.787531 0.059217 -0.017294 487506.000000 0 0 1
3.179893 -9.450532 -27.649733 29.392720 -1.246219 2.795484 0.063718 -0.016536 -550654.000000 0 0 1
4.608093 -9.307132 -28.223613 30.073735 -1.111065 2.789000 0.075701 -0.006920 -245145.000000 0 0 1
4.908393 -7.896632 -28.324803 29.811802 -1.014660 2.824418 0.085241 -0.014336 91345.900000 0 0 1
6.164693 -7.619432 -28.922963 30.538450 -0.890546 2.814872 0.106565 -0.012566 -59180.200000 0 0 1
7.337993 -7.460532 -27.880523 29.779678 -0.793678 2.782530 0.113950 -0.016820 180521.000000 0 0 1
7.734093 -8.734832 -27.323233 29.709805 -0.846089 2.738037 0.083589 -0.015756 48492.600000 0 0 1
8.388993 -9.607532 -28.171393 30.924217 -0.853005 2.716454 0.088041 -0.019831 -990267.000000 0 0 1
8.764893 -10.984232 -27.616973 30.986672 -0.897305 2.670898 0.094390 -0.024715 -248459.000000 0 0 1
7.679493 -11.875732 -27.574263 30.989475 -0.996777 2.667691 0.091755 -0.022336 -105645.000000 0 0 1
7.893293 -13.042532 -26.767823 30.804675 -1.026565 2.623880 0.094472 -0.015882 64923.700000 0 0 1
8.998593 -14.057032 -27.190933 31.904884 -1.001378 2.591067 0.095816 -0.029450 235153.000000 0 0 1
8.550993 -14.792432 -28.310643 33.067023 -1.046661 2.598587 0.105339 -0.035569 355046.000000 0 0 1
9.483493 -15.762332 -28.756973 34.137241 -1.029160 2.572505 0.095065 -0.036610 256603.000000 0 0 1
8.913893 -16.388732 -30.040153 35.361827 -1.072646 2.585848 0.081009 -0.036182 157289.000000 0 0 1
8.614493 -15.428532 -31.017353 35.697692 -1.061566 2.623751 0.077619 -0.033886 304929.000000 0 0 1
7.907193 -15.998232 -32.092233 36.720274 -1.111756 2.634098 0.076681 -0.034551 938054.000000 0 0 1
6.725493 -15.120232 -32.778643 36.719110 -1.152274 2.674067 0.078576 -0.025305 1247970.000000 0 0 1
7.172493 -14.044832 -33.557553 37.078448 -1.098637 2.702275 0.074988 -0.020802 513451.000000 0 0 1
6.058693 -13.346632 34.106666 37.122837 -1.144663 0.405889 0.056700 -0.020930 388877.000000 0 0 1
6.454093 -12.170532 33.170583 35.917471 -1.083200 0.393632 0.083840 -0.013514 -658335.000000 0 0 1
7.119593 -12.484232 32.012243 35.090289 -1.052511 0.421974 0.069934 -0.013992 -147548.000000 0 0 1
7.367293 -11.318132 31.275093 34.066238 -0.993769 0.407619 0.066647 -0.010658 -24058.400000 0 0 1
7.923093 -11.663432 29.852723 33.015090 -0.974091 0.441259 0.053062 -0.004256 113310.000000 0 0 1
6.915093 -12.083532 28.947913 32.121830 -1.051013 0.448286 0.067075 -0.000338 157958.000000 0 0 1
7.371593 -12.365632 27.612503 31.140000 -1.033223 0.480592 0.063669 -0.002609 -196195.000000 0 0 1
6.310393 -12.927032 26.654203 30.288212 -1.116670 0.494894 0.078093 -0.016893 -212027.000000 0 0 1
6.125493 -14.326232 26.878583 31.068003 -1.166749 0.525340 0.071542 -0.011173 307167.000000 0 0 1
5.246893 -14.973232 25.940303 30.407678 -1.233749 0.548929 0.049967 -0.008866 561175.000000 0 0 1
3.746293 -14.997832 26.339693 30.540942 -1.326016 0.530728 0.064230 -0.026051 331780.000000 0 0 1
2.949393 -13.965532 25.732393 29.426027 -1.362664 0.506439 0.066454 -0.023429 -193792.000000 0 0 1
1.898993 -14.495432 25.011063 28.970278 -1.440532 0.528954 0.061406 -0.017912 -361456.000000 0 0 1
0.763493 -13.549332 24.575093 28.073164 -1.514507 0.504545 0.053718 -0.012206 -449888.000000 0 0 1
1.220493 -12.628532 23.575233 26.772393 -1.474450 0.493712 0.031107 -0.004782 396380.000000 0 0 1
0.287593 -11.574132 23.292073 26.010842 -1.545954 0.461298 0.035831 0.011379 476605.000000 0 0 1
-1.136707 -11.940832 22.832153 25.791138 1.475887 0.483719 0.028736 0.006097 -509979.000000 0 0 1
-1.091407 -12.468632 21.546853 24.918364 1.483487 0.526248 0.028842 0.000857 -135536.000000 0 1 0
-2.323607 -13.082932 21.299153 25.104107 1.395023 0.557779 0.047830 -0.006643 -68572.300000 0 0 1
-2.269607 -13.785132 19.919553 24.330425 1.407619 0.611636 0.052829 -0.011901 104396.000000 0 1 0
-1.213807 -14.706432 19.723453 24.632643 1.488447 0.642327 0.066763 -0.019153 -143680.000000 0 1 0
-1.255907 -15.429032 18.489253 24.113996 1.489576 0.697043 0.076870 -0.018777 467519.000000 0 1 0
-2.382507 -16.539832 18.351853 24.820010 1.427734 0.738621 0.069580 -0.026047 589524.000000 0 1 0
-2.192907 -17.562632 17.436853 24.845497 1.446577 0.792859 0.053156 -0.025332 -345205.000000 0 1 0
-3.148307 -18.591232 17.662053 25.835903 1.403044 0.818079 0.064572 -0.023598 42631.400000 0 0 1
-2.851507 -19.956432 16.879353 26.292638 1.428870 0.873718 0.059681 -0.020822 674689.000000 0 0 1
-1.624207 -20.506332 17.380953 26.930378 1.491756 0.869245 0.059176 -0.022976 260972.000000 0 0 1
-1.766607 -21.891632 17.652053 28.177286 1.490273 0.893788 0.050936 -0.033115 -292401.000000 0 0 1
-0.607707 -22.571732 18.421753 29.141266 1.543879 0.886467 0.056479 -0.018626 517064.000000 0 0 1
0.538393 -22.629932 17.571153 28.655699 -1.547010 0.910714 0.072831 -0.034887 -668622.000000 0 0 1
1.542593 -23.352832 18.184353 29.637899 -1.504836 0.910247 0.077489 -0.032821 -421784.000000 0 0 1
2.900593 -23.395432 17.451953 29.331388 -1.447445 0.933540 0.078179 -0.032616 -163228.000000 0 0 1
3.592293 -22.205632 17.502353 28.501351 -1.410412 0.909566 0.062977 -0.020380 -611469.000000 0 0 1
4.835293 -22.308232 16.842753 28.367510 -1.357349 0.935105 0.050180 -0.006788 -26221.100000 0 0 1
5.505693 -20.935032 16.908753 27.468057 -1.313630 0.907676 0.048813 -0.004591 -493934.000000 0 0 1
6.226393 -20.711832 18.139653 28.227557 -1.278771 0.872881 0.050572 -0.001146 66556.700000 0 0 1
6.572493 -19.370032 18.363553 27.488468 -1.243674 0.839217 0.051056 0.002735 236988.000000 0 0 1
7.599693 -18.699532 17.397353 26.647621 -1.184776 0.859433 0.044534 -0.006374 -526814.000000 0 0 1
7.074993 -18.228532 16.184653 25.382630 -1.200567 0.879382 0.034591 -0.005659 384059.000000 0 0 1
8.066693 -17.498032 15.457053 24.701683 -1.138828 0.894705 0.057069 -0.008114 277904.000000 0 1 0
7.400293 -16.583132 14.434253 23.197247 -1.151062 0.899196 0.043396 -0.015156 183418.000000 0 1 0
6.553993 -17.330932 13.562053 22.961823 -1.209252 0.938951 0.040706 -0.014260 64350.800000 0 1 0
5.874993 -16.487132 12.678053 21.611897 -1.228486 0.943913 0.032863 -0.012775 -207947.000000 0 1 0
6.339593 -16.584732 11.223953 21.005259 -1.205681 1.007069 0.038709 -0.015218 29628.200000 0 1 0
7.712993 -16.260432 11.103953 21.146860 -1.127886 1.017978 0.051944 -0.014389 -155684.000000 0 1 0
8.097693 -16.463232 9.771853 20.787009 -1.113678 1.081399 0.054019 -0.016195 1106750.000000 0 1 0
9.645993 -16.137032 9.849353 21.224013 -1.032029 1.088216 0.050838 -0.010163 1340410.000000 0 1 0
10.473593 -16.553032 8.786053 21.468436 -1.006658 1.149160 0.062244 -0.006367 -1082510.000000 0 1 0
11.768793 -16.103732 8.922253 21.850429 -0.939689 1.150169 0.061812 -0.000692 -792464.000000 0 1 0
12.867493 -16.834432 8.150153 22.702323 -0.918171 1.203599 0.073275 -0.008419 -107396.000000 0 1 0
13.265293 -18.045732 8.747853 24.044570 -0.936904 1.198433 0.078817 -0.018473 207167.000000 0 1 0
14.148693 -18.752932 7.874153 24.776203 -0.924435 1.247376 0.082883 -0.018753 146818.000000 0 1 0
14.659093 -20.078532 8.355853 26.227023 -0.940161 1.246547 0.069157 -0.020804 -120030.000000 0 0 1
13.631393 -21.038332 8.610853 26.506095 -0.995877 1.239929 0.066835 -0.020934 19517.900000 0 0 1
14.107993 -22.248532 9.107953 27.874494 -1.005674 1.237935 0.063298 -0.012694 -197789.000000 0 0 1
13.087593 -23.139332 9.854453 28.351790 -1.056056 1.215810 0.072060 -0.012222 71580.400000 0 0 1
12.842793 -22.597332 11.157853 28.285587 -1.053987 1.165304 0.076453 -0.011140 522029.000000 0 0 1
11.845093 -23.344632 11.941253 28.772758 -1.101245 1.142832 0.076271 -0.008619 874542.000000 0 0 1
12.191893 -24.807832 12.420153 30.303976 -1.114009 1.148504 0.043511 -0.007977 819295.000000 0 0 1
13.261193 -24.857332 13.422853 31.207678 -1.080715 1.126177 0.019829 -0.003762 787053.000000 0 0 1
13.271993 -26.142412 14.024553 32.500147 -1.101023 1.124616 0.021529 -0.019567 -342152.000000 0 0 1
14.363093 -26.468492 15.029653 33.656648 -1.073615 1.107881 0.028056 -0.016155 -371816.000000 0 0 1
14.259293 -25.769892 16.268953 33.646599 -1.065399 1.066120 0.035748 -0.011005 139688.000000 0 0 1
15.201693 -26.282282 17.165853 34.878594 -1.046410 1.056227 0.041155 -0.015879 -671897.000000 0 0 1
14.911993 -25.672172 18.530053 34.997011 -1.044568 1.012814 0.046944 -0.017808 -75381.100000 0 0 1
15.367593 -24.356632 18.831553 34.409822 -1.007936 0.991694 0.024029 -0.006259 -122248.000000 0 0 1
16.732893 -24.372032 19.179953 35.239981 -0.969147 0.995281 0.033890 -0.009961 -223942.000000 0 0 1
17.293293 -22.952432 19.495453 34.726716 -0.925097 0.974724 0.028836 -0.007480 -108458.000000 0 0 1
17.297593 -22.045332 18.401553 33.523433 -0.905493 0.989729 0.031124 -0.006847 -331770.000000 0 0 1
16.113793 -21.313232 18.306253 32.388688 -0.923437 0.970114 0.028901 0.000685 -1010030.000000 0 0 1
16.056193 -20.151132 17.298653 31.034059 -0.898017 0.979535 0.031198 -0.001651 409221.000000 0 0 1
16.946093 -19.080632 17.668653 31.039038 -0.844578 0.965215 0.031007 -0.007656 -510288.000000 0 0 1
18.278393 -19.273232 17.363953 31.734271 -0.811885 0.991820 0.040562 -0.009865 -1248250.000000 0 0 1
19.068593 -17.944932 17.555353 31.524946 -0.755049 0.980182 0.058269 -0.009197 -297631.000000 0 0 1
19.329193 -17.683432 18.900653 32.304120 -0.740963 0.945812 0.053786 -0.007987 106293.000000 0 0 1
19.779093 -16.350332 19.123453 32.003942 -0.690779 0.930374 0.063352 -0.008496 -267208.000000 0 0 1
20.451293 -16.196332 20.509153 33.184362 -0.669811 0.904553 0.057753 -0.011813 19156.700000 0 0 1
21.660193 -16.932132 20.521453 34.307304 -0.663493 0.929586 0.062608 -0.011530 18417.500000 0 0 1
22.298793 -16.977432 21.800853 35.506993 -0.650733 0.909694 0.064583 -0.003924 329552.000000 0 0 1
34.356791 -0.942932 -8.057093 35.301487 -0.027438 1.801062 0.109559 -0.023787 427359.000000 0 0 1
35.752621 -0.768832 -8.271993 36.705134 -0.021501 1.798112 0.114948 -0.030403 285833.000000 0 0 1
36.446931 -1.995132 -8.257793 37.423929 -0.054686 1.793283 0.126106 -0.037064 -202506.000000 0 0 1
-35.404497 -1.887032 -8.546893 36.470381 0.053249 1.807348 0.122214 -0.037750 -297225.000000 0 0 1
-34.672895 -3.090732 -8.653793 35.869910 0.088905 1.814455 0.132934 -0.038606 -179286.000000 0 0 1
-33.316167 -2.779232 -8.860193 34.586040 0.083227 1.829863 0.170058 -0.040586 75908.700000 0 0 1
-32.295817 -3.911732 -8.516093 33.628043 0.120535 1.826828 0.177455 -0.035079 146353.000000 0 0 1
-32.199257 -4.063132 -7.093693 33.220802 0.125524 1.785985 0.186717 -0.040204 172146.000000 0 0 1
-31.042337 -4.807932 -6.786993 32.137302 0.153662 1.783586 0.179756 -0.039673 64000.800000 0 0 1
-30.585117 -4.617932 -5.291893 31.381186 0.149854 1.740239 0.178851 -0.048588 -53583.400000 0 0 1
-30.033577 -3.333032 -5.044393 30.636102 0.110525 1.736205 0.177514 -0.046082 446424.000000 0 0 1
-30.107417 -3.012932 -3.683893 30.481230 0.099741 1.691950 0.177575 -0.047075 -207742.000000 0 0 1
-29.736487 -1.568932 -3.329193 29.963373 0.052712 1.682135 0.192061 -0.046553 -623589.000000 0 0 1
-28.382917 -1.356932 -3.036093 28.577073 0.047772 1.677239 0.186425 -0.043459 47098.500000 0 0 1
-28.107037 0.055768 -2.842493 28.250459 -0.001984 1.671584 0.189154 -0.049439 598911.000000 0 0 1
-26.579897 0.260568 -2.546693 26.702893 -0.009803 1.666313 0.182688 -0.033830 540788.000000 0 0 1
-26.196297 -0.103032 -1.217293 26.224767 0.003933 1.617231 0.160017 -0.036051 498247.000000 0 0 1
-24.785007 -0.008932 -1.097493 24.809296 0.000360 1.615048 0.125839 -0.029343 208838.000000 0 1 0
-24.254007 -0.835732 0.102607 24.268619 0.034444 1.566568 0.110493 -0.029716 -167026.000000 0 1 0
-24.146907 -2.223232 -0.146793 24.249483 0.091812 1.576850 0.109829 -0.032194 261931.000000 0 1 0
-23.396007 -2.806432 0.878907 23.580112 0.119383 1.533514 0.095612 -0.028133 -390278.000000 0 1 0
-23.417107 -4.338832 0.861307 23.831245 0.183207 1.534647 0.085984 -0.019693 -654997.000000 0 1 0
-24.600807 -4.801832 1.418207 25.105151 0.192766 1.514276 0.092270 -0.028242 -288042.000000 0 0 1
-24.814707 -6.247732 1.340007 25.624197 0.246649 1.518478 0.070658 -0.017804 101445.000000 0 0 1
-26.167997 -6.784832 1.902807 27.100161 0.253693 1.500525 0.092363 -0.016675 473766.000000 0 0 1
-26.113337 -6.791232 3.295107 27.182438 0.254431 1.449276 0.086470 -0.013401 1310640.000000 0 0 1
-27.435577 -7.058432 3.829207 28.586626 0.251812 1.436441 0.103449 -0.003620 1065270.000000 0 0 1
-27.392517 -7.398332 5.378007 28.879202 0.263792 1.383479 0.100171 -0.007614 -70891.900000 0 0 1
-26.680937 -8.571932 5.739507 28.605810 0.310860 1.368784 0.094047 0.006424 75265.200000 0 0 1
-26.585017 -8.855332 7.152407 28.919491 0.321536 1.320882 0.094953 -0.007289 -347878.000000 0 0 1
-26.024737 -7.843032 8.095807 28.360927 0.292712 1.281314 0.095729 -0.005928 -563689.000000 0 0 1
-24.672507 -7.663532 7.747507 26.971952 0.301162 1.279449 0.108465 -0.012883 -204836.000000 0 0 1
-24.225907 -6.366332 8.107107 26.327741 0.256980 1.257780 0.111530 -0.020184 -331904.000000 0 0 1
-22.826107 -6.066732 7.549807 24.795887 0.259775 1.261406 0.105337 -0.022411 303966.000000 0 1 0
-21.767307 -6.506532 8.412107 24.226312 0.290459 1.216180 0.096128 -0.029653 13809.000000 0 1 0
-20.525907 -6.322432 7.802907 22.851070 0.298800 1.222318 0.088743 -0.024345 -120839.000000 0 1 0
-19.313807 -6.738332 8.685307 22.223025 0.335683 1.169269 0.093748 -0.021038 144687.000000 0 1 0
-19.023107 -5.837832 9.725907 22.148412 0.297758 1.116173 0.074474 -0.014372 850674.000000 0 1 0
-17.821307 -6.309732 10.371107 21.563200 0.340283 1.069043 0.053524 -0.024387 594386.000000 0 1 0
-17.501707 -5.358832 11.515207 21.624681 0.297125 1.009241 0.030145 -0.005300 -72560.600000 0 1 0
-18.562907 -5.354732 12.438407 22.977569 0.280840 0.998780 0.046355 -0.008654 -36502.700000 0 1 0
-18.738707 -4.009632 12.888707 23.094049 0.210797 0.978706 0.053010 -0.005746 743003.000000 0 1 0
-19.992107 -3.692932 13.793807 24.568094 0.182661 0.974657 0.059827 -0.019825 442667.000000 0 1 0
-19.907407 -4.263232 15.097107 25.345664 0.210966 0.932724 0.057663 -0.016259 648817.000000 0 0 1
-21.095007 -4.075432 15.882207 26.718027 0.190843 0.934230 0.055713 -0.006685 308899.000000 0 0 1
-21.019007 -4.782832 17.258207 27.613762 0.223738 0.895683 0.059344 -0.004364 -50705.800000 0 0 1
-22.074807 -4.705732 18.199007 28.993877 0.210028 0.892221 0.049997 -0.006041 452245.000000 0 0 1
-21.680907 -5.459132 19.340007 29.561795 0.246667 0.857641 0.056442 0.000456 225576.000000 0 0 1
-22.653107 -5.105332 20.488807 30.968031 0.221667 0.847830 0.062176 -0.003859 -145267.000000 0 0 1
-22.392207 -3.751632 20.847107 30.823491 0.166000 0.828016 0.072158 -0.006001 557306.000000 0 0 1
-23.018407 -3.412932 22.106207 32.096411 0.147197 0.811041 0.075490 -0.008126 -5524.160000 0 0 1
-23.204707 -1.858832 22.283707 32.225414 0.079935 0.807240 0.065587 -0.000442 928925.000000 0 0 1
-24.326007 -1.214232 21.590907 32.548368 0.049874 0.845512 0.080454 -0.017450 573142.000000 0 0 1
-24.428907 0.201968 21.730007 32.695650 -0.008267 0.843818 0.066561 -0.017676 175109.000000 0 0 1
-25.804277 0.835968 21.354107 33.504589 -0.032385 0.879744 0.087064 -0.022208 -11365.900000 0 0 1
-26.768367 0.426568 22.268707 34.822734 -0.015934 0.876965 0.097386 -0.019852 3087.420000 0 0 1
-28.059287 0.928568 21.876407 35.591615 -0.033081 0.908853 0.099064 -0.024308 735572.000000 0 0 1
-29.096747 0.959268 23.008707 37.107163 -0.032956 0.901976 0.084046 -0.014373 -167089.000000 0 0 1
-28.693207 1.832568 24.029707 37.471126 -0.063781 0.874623 0.069861 -0.009206 39898.700000 0 0 1
-29.327807 1.562968 25.266807 38.742415 -0.053243 0.860347 0.069943 -0.002095 -168589.000000 0 0 1
-28.994327 2.676268 26.275507 39.220348 -0.092042 0.836661 0.093018 -0.008965 1097720.000000 0 0 1
-27.718137 2.596168 26.960207 38.754200 -0.093391 0.801442 0.082400 -0.016012 1111250.000000 0 0 1
-27.647357 3.543668 28.034607 39.533191 -0.127479 0.782517 0.069976 -0.017857 -360815.000000 0 0 1
-26.510527 3.211368 29.011207 39.430586 -0.120548 0.744017 0.092985 -0.019530 -346400.000000 0 0 1
-26.686327 2.165868 29.966707 40.185254 -0.080983 0.729190 0.088676 -0.015002 785358.000000 0 0 1
-25.514927 1.864668 30.763407 40.010945 -0.072952 0.693717 0.070583 -0.012154 750086.000000 0 0 1
-25.647217 0.588568 31.713907 40.790907 -0.022945 0.680156 0.044964 -0.012850 -41218.200000 0 0 1
-25.666437 -0.591832 30.832707 40.121966 0.023055 0.694343 0.044118 -0.020629 45225.400000 0 0 1
-25.995377 -1.796032 31.489807 40.872893 0.068981 0.691277 0.058053 -0.020496 -499642.000000 0 0 1
-26.780087 -2.783632 30.642207 40.790520 0.103572 0.720904 0.056025 -0.012777 432983.000000 0 0 1
-28.162507 -2.486232 30.428107 41.535261 0.088053 0.748684 0.070580 -0.016431 499501.000000 0 0 1
-28.401057 -1.567932 29.321207 40.851091 0.055151 0.770219 0.072102 -0.005135 -1001770.000000 0 0 1
-29.880407 -1.446932 29.019007 41.677754 0.048386 0.800607 0.075200 -0.019695 -424510.000000 0 0 1
-30.642397 -1.207432 30.190907 43.033769 0.039384 0.793208 0.084191 -0.007561 185387.000000 0 0 1
-32.013277 -0.950732 29.864007 43.790556 0.029689 0.820338 0.066103 -0.010449 977124.000000 0 0 1
-32.955397 -0.733632 31.087907 45.310644 0.022258 0.814673 0.076711 -0.014889 120429.000000 0 0 1
-33.095737 -1.837732 31.944807 46.034507 0.055471 0.803861 0.095244 -0.020868 -35201.600000 0 0 1
-33.728157 -1.452032 33.156307 47.318471 0.043024 0.794411 0.124289 -0.027335 145035.000000 0 0 1
-34.051387 -2.716632 34.013507 48.205765 0.079612 0.787541 0.123452 -0.025237 361769.000000 0 0 1
-35.190393 -3.470932 33.615807 48.789688 0.098315 0.810696 0.099237 -0.032786 47441.700000 0 0 1
-35.252265 -4.707532 -34.038639 49.229178 0.132753 2.334266 0.084316 -0.027289 -74083.000000 0 0 1
-36.431327 -5.490932 33.583107 49.851951 0.149594 0.831651 0.089098 -0.026994 -240802.000000 0 0 1
35.719111 -4.982532 34.079007 49.619142 -0.138598 0.813703 0.097043 -0.033415 -508517.000000 0 0 1
34.558971 -5.539132 33.476107 48.431955 -0.158929 0.807650 0.090313 -0.033836 248895.000000 0 0 1
33.191951 -4.928332 33.970007 47.748879 -0.147403 0.779265 0.102119 -0.040535 393290.000000 0 0 1
32.816861 -5.357532 -32.959239 46.818382 -0.161828 2.351783 0.080772 -0.034039 -12371.800000 0 0 1
32.551481 -6.747832 -32.856539 46.740606 -0.204402 2.350340 0.072651 -0.024535 -705422.000000 0 0 1
31.136141 -7.151732 -33.361739 46.191040 -0.225776 2.377854 0.060153 -0.020175 411081.000000 0 0 1
30.119911 -6.929332 -32.350039 44.740917 -0.226124 2.379008 0.059070 -0.022438 -281954.000000 0 0 1
28.917511 -7.368532 -32.887539 44.408422 -0.249503 2.404714 0.065289 -0.025782 -1204040.000000 0 0 1
27.766021 -7.114532 -31.915639 42.897278 -0.250835 2.409836 0.068949 -0.029384 -568061.000000 0 0 1
26.527721 -7.609432 -32.386139 42.549799 -0.279348 2.435857 0.066145 -0.034713 -542782.000000 0 0 1
25.462621 -7.084232 -31.667239 41.247369 -0.271358 2.446102 0.066826 -0.036247 -553761.000000 0 0 1
24.129521 -7.605332 -32.260739 40.997928 -0.305332 2.476544 0.070729 -0.044503 -59623.600000 0 0 1
23.858621 -9.010432 -32.156139 41.041917 -0.361100 2.471067 0.087354 -0.049250 -107346.000000 0 0 1
23.270921 -9.421032 -30.995939 39.887841 -0.384673 2.460805 0.096829 -0.044789 -483917.000000 0 0 1
23.227821 -10.931632 -30.927439 40.193765 -0.439874 2.448789 0.093865 -0.038139 529689.000000 0 0 1
22.083421 -11.453632 -31.625239 40.237034 -0.478458 2.475065 0.101644 -0.042962 550063.000000 0 0 1
22.038321 -12.861432 -31.590939 40.609007 -0.528269 2.462160 0.090631 -0.028977 -847632.000000 0 0 1
20.844021 -13.369132 -32.369439 40.755214 -0.570298 2.488553 0.075943 -0.022154 856051.000000 0 0 1
19.497121 -13.011132 -31.992539 39.660431 -0.588466 2.509278 0.058160 -0.017694 1083920.000000 0 0 1
19.061621 -11.719832 -32.385439 39.363898 -0.551259 2.536975 0.057054 -0.026585 -279134.000000 0 0 1
17.632721 -11.402532 -31.881139 38.175091 -0.574030 2.559164 0.047294 -0.022714 241125.000000 0 0 1
16.589221 -12.165032 -32.465439 38.434294 -0.632733 2.576800 0.035407 -0.008409 251276.000000 0 0 1
15.344821 -11.722232 -31.877439 37.269899 -0.652351 2.596951 0.062505 -0.014392 311266.000000 0 0 1
14.228221 -12.192632 -32.805539 37.779702 -0.708505 2.622637 0.056583 -0.015628 -1458240.000000 0 0 1
13.957321 -13.561832 -32.723639 38.073175 -0.771028 2.605074 0.071048 -0.011186 389342.000000 0 0 1
12.771021 -13.861832 -33.464939 38.407701 -0.826333 2.628658 0.060985 -0.012406 220742.000000 0 0 1
11.488521 -13.766232 -32.636039 37.237162 -0.875344 2.639209 0.055318 -0.013232 -880346.000000 0 0 1
11.226221 -12.427732 -32.179239 36.276438 -0.836150 2.661725 0.090510 -0.011193 -475793.000000 0 0 1
10.167021 -12.425532 -31.263939 35.145356 -0.885034 2.667180 0.093586 -0.020586 -717420.000000 0 0 1
8.972421 -11.603832 -31.681139 34.912001 -0.912594 2.707988 0.093471 -0.012316 -871339.000000 0 0 1
9.105121 -10.162332 -31.697539 34.509566 -0.840213 2.735103 0.084716 -0.003977 274645.000000 0 0 1
7.995521 -9.510832 -32.284939 34.593374 -0.871741 2.774207 0.095601 -0.005640 138218.000000 0 0 1
8.332721 -8.027332 -32.437039 34.438841 -0.766734 2.798961 0.106895 -0.006111 83756.900000 0 0 1
8.625721 -7.308732 -31.250639 33.232861 -0.702935 2.794464 0.095551 -0.006572 445514.000000 0 0 1
9.310721 -6.085932 -31.561739 33.464480 -0.578935 2.802754 0.109053 0.000791 278780.000000 0 0 1
9.610721 -5.305932 -30.237339 32.168549 -0.504442 2.793327 0.109918 -0.001573 64249.600000 0 0 1
8.363721 -4.864232 -29.735539 31.270031 -0.526771 2.827017 0.135180 -0.011606 255768.000000 0 0 1
8.492121 -4.000932 -28.623439 30.123493 -0.440290 2.824684 0.126907 -0.007512 -152333.000000 0 0 1
7.074721 -3.524032 -28.304639 29.387464 -0.462139 2.869288 0.116172 -0.016488 -1019590.000000 0 0 1
6.552821 -2.579232 -29.228539 30.064919 -0.374982 2.905165 0.097445 -0.004330 372772.000000 0 0 1
5.352421 -1.955032 -28.768639 29.327549 -0.350205 2.946051 0.106500 -0.014400 1086210.000000 0 0 1
4.046321 -2.807132 -28.944939 29.360895 -0.606518 2.973066 0.082749 -0.019444 -146685.000000 0 0 1
4.056321 -3.846032 -27.978439 28.531364 -0.758793 2.944400 0.088488 -0.025613 -1199490.000000 0 0 1
2.895821 -4.568632 -27.950439 28.469022 -1.005859 2.950432 0.083410 -0.029256 -883358.000000 0 0 1
2.965121 -5.716432 -26.953739 27.712336 -1.092300 2.907073 0.064800 -0.030729 -85912.700000 0 0 1
2.802621 -5.157632 -25.668539 26.331155 -1.073040 2.916777 0.066598 -0.030450 155660.000000 0 0 1
3.236521 -6.079832 -24.686339 25.629177 -1.081615 2.869506 0.064167 -0.034659 -140026.000000 0 0 1
3.105221 -5.570232 -23.194839 24.055569 -1.062238 2.873278 0.067726 -0.035669 22074.000000 0 1 0
3.865121 -4.382232 -22.943739 23.676111 -0.848016 2.892218 0.052343 -0.032901 116839.000000 0 1 0
3.802121 -3.908332 -21.617039 22.294114 -0.799172 2.894509 0.038717 -0.028533 -350870.000000 0 1 0
4.507821 -2.558632 -21.396839 22.015716 -0.516254 2.903923 0.032869 -0.025748 95931.400000 0 1 0
5.888021 -2.794732 -21.154639 22.135900 -0.443160 2.842727 0.033340 -0.021175 -103640.000000 0 1 0
6.586821 -1.588032 -20.983339 22.050137 -0.236578 2.829260 0.036405 -0.008965 -511881.000000 0 1 0
7.995821 -1.916632 -20.490739 22.078881 -0.235265 2.759992 0.057647 -0.021186 -736475.000000 0 1 0
8.842421 -2.410932 -21.545339 23.413727 -0.266185 2.739390 0.073310 -0.034902 885409.000000 0 1 0
10.028221 -3.102932 -21.137039 23.600165 -0.300076 2.680644 0.064372 -0.033518 658729.000000 0 1 0
11.206821 -2.306132 -20.575139 23.542460 -0.202946 2.634085 0.069954 -0.035158 -690231.000000 0 1 0
10.978221 -1.839232 -19.235339 22.223914 -0.165993 2.616993 0.054345 -0.030458 663738.000000 0 1 0
12.210221 -1.545132 -18.576139 22.283399 -0.125875 2.556446 0.067041 -0.031780 432844.000000 0 1 0
12.719521 -0.072932 -18.545239 22.488162 -0.005734 2.540409 0.068665 -0.032144 -8562.880000 0 1 0
13.044721 0.485568 -19.809639 23.723876 0.037206 2.558945 0.068232 -0.039766 267024.000000 0 1 0
13.242021 1.862068 -19.549339 23.685334 0.139702 2.541667 0.085009 -0.046753 -37754.100000 0 1 0
13.825321 2.715968 -20.734539 25.068647 0.193979 2.544743 0.067207 -0.042867 -882023.000000 0 0 1
15.136521 2.506468 -21.156439 26.134107 0.164102 2.514154 0.065095 -0.036117 -439625.000000 0 0 1
15.440421 3.645468 -21.911039 27.051611 0.231853 2.514900 0.058199 -0.036548 -104525.000000 0 0 1
16.875521 3.680368 -22.497139 28.362820 0.214727 2.486828 0.035218 -0.020851 200529.000000 0 0 1
17.144821 2.712268 -23.506739 29.221021 0.156897 2.505539 0.024940 -0.016001 -87656.000000 0 0 1
17.887721 1.671068 -22.943739 29.140662 0.093149 2.477286 0.029448 -0.019502 -493049.000000 0 0 1
9.393493 27.089868 3.355007 28.867884 1.237017 1.454314 0.024778 -0.010403 32268.000000 0 0 1
9.501893 27.438468 4.724107 29.418917 1.237423 1.409517 0.022217 -0.004502 149126.000000 0 0 1
10.811693 27.711968 5.175407 30.193223 1.198814 1.398536 0.040328 -0.003902 -173881.000000 0 0 1
10.778293 28.114368 6.674007 30.840423 1.204705 1.352666 0.023431 -0.009452 20388.000000 0 0 1
10.434493 27.085168 7.579007 29.998772 1.203072 1.315384 0.013831 -0.004479 135605.000000 0 0 1
10.312793 27.763168 8.826307 30.903898 1.215136 1.281159 0.016725 -0.001838 -440512.000000 0 0 1
10.292293 26.808368 10.065807 30.429268 1.204228 1.233652 0.032938 -0.005781 1077510.000000 0 0 1
11.562393 26.305668 10.573307 30.618163 1.156675 1.218208 0.048445 -0.001783 1160930.000000 0 0 1
12.261693 25.401868 9.713407 29.832102 1.121078 1.239147 0.049956 -0.002781 938509.000000 0 0 1
13.572693 24.857168 10.432707 30.181752 1.071008 1.217851 0.057934 -0.007278 726352.000000 0 0 1
14.669993 25.727668 10.483007 31.416796 1.052575 1.230597 0.064504 -0.008246 -645402.000000 0 0 1
15.818093 25.078768 10.923207 31.598625 1.008083 1.217826 0.069816 -0.005540 -442465.000000 0 0 1
17.005693 26.028568 11.102707 33.014392 0.992072 1.227812 0.058420 -0.007860 -875209.000000 0 0 1
17.555093 26.613168 9.962207 33.401910 0.987675 1.267935 0.059459 -0.014520 673132.000000 0 0 1
18.984893 26.670068 9.978007 34.223958 0.952166 1.274949 0.050808 -0.021820 827329.000000 0 0 1
19.754093 27.552068 11.019207 35.647771 0.948770 1.256536 0.053571 -0.021212 -647953.000000 0 0 1
19.679793 28.955968 10.799307 36.638332 0.973862 1.271598 0.060687 -0.042244 236315.000000 0 0 1
18.442293 29.555868 11.156207 36.580438 1.012930 1.260882 0.058782 -0.023812 266911.000000 0 0 1
18.629593 31.124668 11.502907 38.054219 1.031446 1.263716 0.073392 -0.029472 -201779.000000 0 0 1
19.060593 31.956968 10.380907 38.630522 1.032994 1.298729 0.087094 -0.054379 650917.000000 0 0 1
18.141193 31.990268 9.270907 37.926638 1.054931 1.323851 0.091200 -0.049815 488885.000000 0 0 1
16.707693 32.527268 9.410507 37.758811 1.096287 1.318915 0.083378 -0.041835 -199755.000000 0 0 1
16.651693 33.855768 9.898607 39.006081 1.113696 1.314220 0.083647 -0.044732 -909540.000000 0 0 1
15.335193 -33.981729 9.929907 38.581461 -1.146880 1.310492 0.078079 -0.030115 -662103.000000 0 0 1
15.261293 -32.515529 10.335007 37.376183 -1.131965 1.290632 0.062044 -0.027583 -176360.000000 0 0 1
15.792093 -31.823729 9.261707 36.714018 -1.110164 1.315775 0.083583 -0.026274 -115781.000000 0 0 1
15.854193 -30.459229 9.500407 35.628329 -1.090879 1.300878 0.105759 -0.020942 -229217.000000 0 0 1
16.591793 -29.710829 8.391607 35.049109 -1.061494 1.329023 0.079260 -0.012816 128262.000000 0 0 1
16.012493 -29.836629 7.066807 34.591388 -1.078243 1.365054 0.073366 -0.015733 98212.200000 0 0 1
16.877793 -29.225529 6.139707 34.302878 -1.047084 1.390841 0.069622 -0.007131 144151.000000 0 0 1
16.491693 -29.396329 4.622307 34.021843 -1.059538 1.434512 0.065594 -0.011288 -11031.800000 0 0 1
16.827993 -30.730829 4.146607 35.281150 -1.069803 1.452994 0.057490 -0.012868 -6639.370000 0 0 1
16.942393 -30.756629 2.694707 35.217557 -1.067298 1.494205 0.035713 -0.001378 -131721.000000 0 0 1
17.113393 -32.159729 2.109807 36.490652 -1.081771 1.512946 0.040655 -0.007971 701969.000000 0 0 1
18.448493 -32.690529 2.222507 37.602621 -1.057012 1.511657 0.037995 -0.004769 732571.000000 0 0 1
18.524193 -34.009329 1.749507 38.766493 -1.072047 1.525652 0.051171 -0.009804 -1583640.000000 0 0 1
19.891293 33.681168 1.843407 39.159708 1.037335 1.523705 0.053528 -0.008752 -1412050.000000 0 0 1
20.234993 33.465968 3.209907 39.239387 1.026969 1.488902 0.056267 -0.034177 -1041270.000000 0 0 1
21.569893 33.126568 3.273607 39.665429 0.993623 1.488172 0.040355 -0.020550 -1109860.000000 0 0 1
22.018993 33.065968 4.740807 40.008368 0.983317 1.452022 0.046683 -0.022741 -232303.000000 0 0 1
21.442793 32.027068 5.565707 38.942311 0.980820 1.427383 0.052967 -0.035107 139872.000000 0 0 1
22.236193 30.862768 5.579307 38.445902 0.946453 1.425161 0.039881 -0.042132 302719.000000 0 0 1
21.545193 29.834368 6.572307 37.382885 0.945352 1.394067 0.049554 -0.045342 -84280.700000 0 0 1
20.613793 28.982168 5.978507 36.064346 0.952555 1.404254 0.058075 -0.037106 -639115.000000 0 0 1
19.718793 28.465668 6.927807 35.314580 0.964972 1.373342 0.059201 -0.040211 192870.000000 0 0 1
18.261393 28.859468 6.537407 34.771900 1.006629 1.381662 0.083386 -0.037770 -37040.700000 0 0 1
17.963193 30.274468 6.627707 35.821030 1.035285 1.384701 0.079882 -0.041053 140860.000000 0 0 1
18.297193 31.002568 5.485107 36.414735 1.037626 1.419592 0.077140 -0.038291 -608792.000000 0 0 1
18.144493 32.592068 5.672907 37.731252 1.062812 1.419874 0.077224 -0.035105 591895.000000 0 0 1
16.768693 32.974268 5.698007 37.429383 1.100341 1.417969 0.087543 -0.034137 292740.000000 0 0 1
16.650493 -33.880729 5.744707 38.185657 -1.114017 1.419781 0.076048 -0.029146 119819.000000 0 0 1
15.187693 -33.392029 5.864107 37.149447 -1.143933 1.412282 0.068802 -0.027828 476588.000000 0 0 1
14.420593 -33.644229 4.672107 36.901440 -1.165863 1.443845 0.059507 -0.015240 54780.800000 0 0 1
13.166693 -32.987529 4.722607 35.830740 -1.191030 1.438608 0.050205 -0.014810 299050.000000 0 0 1
12.553793 -32.769229 3.286907 35.245196 -1.204946 1.477402 0.047192 -0.006189 -154684.000000 0 0 1
11.394093 -31.990529 3.392707 34.128137 -1.228635 1.471221 0.047092 -0.015985 -337937.000000 0 0 1
10.910093 -31.705129 2.088107 33.594725 -1.239377 1.508600 0.051889 -0.009417 -187270.000000 0 0 1
9.833793 -30.568329 2.133807 32.181973 -1.259553 1.504443 0.062894 -0.013743 383957.000000 0 0 1
9.357193 -30.067529 0.876407 31.502087 -1.269091 1.542972 0.071194 -0.010324 61451.600000 0 0 1
8.375293 -30.871529 0.276807 31.988646 -1.305878 1.562143 0.065841 -0.010181 -765496.000000 0 0 1
8.939093 -31.416229 -1.011093 32.678879 -1.293585 1.601742 0.072461 -0.015844 -4819.160000 0 0 1
9.987593 -32.343229 -0.821993 33.860185 -1.271286 1.595075 0.071074 -0.017318 -167596.000000 0 0 1
10.170393 -33.080729 -2.002293 34.666709 -1.272526 1.628587 0.071897 -0.012929 -254992.000000 0 0 1
11.487593 -33.865029 -1.922093 35.812001 -1.243760 1.624494 0.061835 -0.008696 -441524.000000 0 0 1
11.499893 33.472068 -0.874793 35.403279 1.239864 1.595508 0.059586 -0.008710 103215.000000 0 0 1
12.603293 32.595068 -0.966193 34.960191 1.201840 1.598437 0.068702 -0.016447 -147778.000000 0 0 1
12.735093 31.742668 0.369407 34.204035 1.189258 1.559996 0.066020 -0.020436 -336452.000000 0 0 1
13.121493 32.412068 1.556507 35.001978 1.186130 1.526313 0.059776 -0.019450 1269420.000000 0 0 1
14.519093 32.779168 1.683707 35.890288 1.153832 1.523866 0.068669 -0.016465 1232980.000000 0 0 1
15.590793 31.715068 1.976607 35.395273 1.113900 1.514923 0.060590 -0.021105 -409599.000000 0 0 1
15.854493 30.998868 0.776407 34.826679 1.098028 1.548501 0.061331 -0.017672 -469490.000000 0 0 1
16.723893 29.933668 0.833607 34.298804 1.061299 1.546490 0.071685 -0.019368 -859373.000000 0 0 1
17.261093 29.379068 -0.519893 34.078516 1.039596 1.586053 0.058855 -0.011245 324100.000000 0 0 1
18.332893 30.114468 -1.093793 35.272830 1.023951 1.601811 0.032454 -0.001454 219009.000000 0 0 1
17.856493 31.262868 -1.813793 36.048732 1.051843 1.621133 0.036173 -0.008887 308836.000000 0 0 1
18.958893 32.216468 -2.363593 37.455667 1.038887 1.633942 0.024079 -0.007331 301689.000000 0 0 1
19.842693 32.856268 -1.469093 38.411262 1.027496 1.609052 0.028062 -0.002575 -142664.000000 0 0 1
20.691393 33.730268 -2.188093 39.631458 1.020555 1.626035 0.039195 -0.004712 -174663.000000 0 0 1
21.777193 -33.865029 -1.243193 40.281905 -0.999316 1.601664 0.042186 -0.004394 346381.000000 0 0 1
22.798893 33.549768 -0.697393 40.569235 0.973924 1.587987 0.032497 -0.004246 810444.000000 0 0 1
23.684993 32.798468 -1.512693 40.484647 0.945367 1.608170 0.047624 -0.008993 -179376.000000 0 0 1
24.589093 33.524868 -2.500593 41.650849 0.937966 1.630869 0.055443 -0.018014 -1186970.000000 0 0 1
23.861993 34.045668 -3.551393 41.726665 0.959479 1.656010 0.043312 -0.022176 -147476.000000 0 0 1
24.636193 -33.717429 -4.638093 42.015699 -0.939784 1.681411 0.051635 -0.018893 -16743.500000 0 0 1
23.757193 -33.114729 -5.772993 41.162081 -0.948474 1.711510 0.046052 -0.023889 103650.000000 0 0 1
22.993193 -31.944029 -5.508893 39.742368 -0.946907 1.709859 0.050851 -0.013973 314207.000000 0 0 1
22.261593 -31.602729 -6.662093 39.226196 -0.957110 1.741461 0.052476 -0.020433 665178.000000 0 0 1
21.207693 -30.403529 -6.591893 37.650948 -0.961723 1.746782 0.062867 -0.018085 540030.000000 0 0 1
20.029393 -30.625429 -5.892593 37.065026 -0.991606 1.730454 0.051571 -0.007238 -300136.000000 0 0 1
19.233393 -29.410929 -5.861593 35.627018 -0.991647 1.736074 0.055778 -0.015772 220012.000000 0 0 1
18.017793 -29.401829 -4.963693 34.838867 -1.021009 1.713759 0.040182 -0.005230 173550.000000 0 0 1
16.912293 -30.203129 -5.353693 35.027370 -1.060345 1.724241 0.041749 -0.012860 721758.000000 0 0 1
15.828193 -30.213229 -4.400893 34.390969 -1.088225 1.699115 0.026800 -0.006777 1252370.000000 0 0 1
14.632493 -31.150329 -4.780893 34.746364 -1.131650 1.708828 0.027500 -0.008888 407263.000000 0 0 1
14.887693 -32.496829 -4.579593 36.036925 -1.141204 1.698221 0.026509 -0.001289 228721.000000 0 0 1
13.723093 -33.212529 -5.001993 36.282438 -1.178971 1.709099 0.045170 -0.000841 300071.000000 0 0 1
13.864893 33.522068 -5.177793 36.643879 1.178617 1.712571 0.046365 -0.003648 -134821.000000 0 0 1
13.995793 32.803968 -3.971793 35.885341 1.167529 1.681704 0.053982 -0.010195 -6828.080000 0 0 1
14.403493 31.438268 -4.158493 34.829849 1.141184 1.690476 0.059380 -0.013755 -137311.000000 0 0 1
13.291193 30.434268 -4.494493 33.512698 1.159042 1.705315 0.078288 -0.014452 -612009.000000 0 0 1
12.391993 30.087268 -3.503093 32.727310 1.180101 1.678041 0.083299 -0.023632 -431901.000000 0 0 1
12.766093 29.069868 -2.608893 31.856501 1.157000 1.652783 0.081927 -0.030520 -278968.000000 0 0 1
11.573293 28.447368 -1.866693 30.768139 1.184414 1.631503 0.082773 -0.027387 134015.000000 0 0 1
10.935093 29.257168 -0.882293 31.246385 1.213115 1.599037 0.065708 -0.026040 -95238.000000 0 0 1
10.002293 28.510568 -0.142793 30.214545 1.233384 1.575522 0.054113 -0.012425 180575.000000 0 0 1
8.754293 29.332368 0.286707 30.612214 1.280761 1.561430 0.036923 -0.000603 597425.000000 0 0 1
7.785693 28.625768 1.047207 29.684142 1.305238 1.535511 0.025565 -0.005473 124767.000000 0 0 1
6.499193 29.191668 0.920507 29.920567 1.351731 1.540026 0.032230 -0.001895 -574340.000000 0 0 1
5.420293 28.553968 1.749507 29.116481 1.383202 1.510674 0.029518 -0.008236 -433893.000000 0 0 1
4.869493 27.411568 1.104407 27.862623 1.394987 1.531148 0.031387 -0.011335 361674.000000 0 0 1
3.585093 27.092068 1.629207 27.376767 1.439231 1.511251 0.039679 -0.012159 497956.000000 0 0 1
2.906793 25.995668 0.743207 26.168236 1.459441 1.542391 0.047018 -0.013618 279012.000000 0 0 1
1.615193 25.569568 1.142907 25.646011 1.507712 1.526217 0.039717 -0.013847 242549.000000 0 0 1
1.130293 24.515368 0.315207 24.543435 1.524723 1.557953 0.033233 -0.013230 152804.000000 0 1 0
-0.269707 23.997268 0.677707 24.008351 -1.559558 1.542565 0.031136 -0.010541 1218320.000000 0 1 0
-1.420007 24.835568 0.318207 24.878166 -1.513682 1.558005 0.045318 -0.022181 859148.000000 0 1 0
-2.586407 24.189768 0.751207 24.339242 -1.464279 1.539927 0.049055 -0.013188 -557755.000000 0 1 0
-3.710307 25.073368 1.292007 25.379312 -1.423884 1.519866 0.073878 -0.030541 -824481.000000 0 0 1
-4.757607 24.283368 1.809207 24.811087 -1.377327 1.497812 0.070959 -0.027897 120246.000000 0 1 0
-5.855407 25.043968 2.296307 25.821680 -1.341117 1.481749 0.076827 -0.027462 297762.000000 0 0 1
-6.936507 25.368268 1.259307 26.329641 -1.303888 1.522950 0.082173 -0.027471 -575941.000000 0 0 1
-6.573307 26.483868 0.470007 27.291474 -1.327512 1.553574 0.076079 -0.030904 -465889.000000 0 0 1
-7.603507 26.715968 -0.422993 27.780122 -1.293522 1.586023 0.070826 -0.024824 -685791.000000 0 0 1
-7.494107 27.872768 -1.410993 28.897124 -1.308139 1.619644 0.068063 -0.019600 -199505.000000 0 0 1
-7.714007 29.106968 -0.796493 30.122349 -1.311729 1.597241 0.079012 -0.038001 28760.800000 0 0 1
-7.483807 30.089668 -1.804093 31.058819 -1.327026 1.628915 0.078440 -0.029886 -170094.000000 0 0 1
-7.654807 31.584468 -1.353593 32.527018 -1.333021 1.612423 0.069178 -0.032024 -523011.000000 0 0 1
-7.692307 32.620068 -2.361193 33.597852 -1.339212 1.641132 0.064391 -0.019987 705320.000000 0 0 1
-6.493307 32.772168 -3.157393 33.558116 -1.375195 1.665023 0.061671 -0.014402 109429.000000 0 0 1
-5.268307 33.306468 -2.477693 33.811460 -1.413919 1.644142 0.071187 -0.022368 -1347680.000000 0 0 1
-5.209007 -33.526929 -2.342793 34.009960 1.416661 1.639736 0.074110 -0.014947 -201871.000000 0 0 1
-4.120007 -33.064229 -1.593293 33.358002 1.446829 1.618578 0.087980 -0.011880 -220918.000000 0 0 1
-4.083907 -31.502629 -1.441993 31.798951 1.441878 1.616159 0.102912 -0.020367 70339.300000 0 0 1
-5.333607 -31.031229 -0.986693 31.501716 1.400581 1.602123 0.090066 -0.014712 -97183.700000 0 0 1
-5.762907 -30.009329 -1.843193 30.613205 1.381069 1.631042 0.105518 -0.010976 108341.000000 0 0 1
-7.212707 -29.543829 -1.555593 30.451287 1.331344 1.621903 0.127833 -0.013359 167326.000000 0 0 1
-7.386407 -28.903029 -0.296193 29.833401 1.320593 1.580725 0.100924 -0.010143 391871.000000 0 0 1
-8.646407 -28.251929 -0.070593 29.545505 1.273801 1.573186 0.066475 -0.015414 605658.000000 0 0 1
-8.752607 -27.890029 1.393507 29.264376 1.266704 1.523160 0.076962 -0.009976 515241.000000 0 0 1
-7.851307 -26.777529 1.562007 27.948506 1.285585 1.514878 0.085138 -0.016999 378475.000000 0 0 1
-7.558507 -26.366529 2.904407 27.581887 1.291613 1.465299 0.086917 -0.010138 -116723.000000 0 0 1
-8.560507 -25.315829 3.328007 26.930450 1.244718 1.446902 0.080967 -0.007919 -194472.000000 0 0 1
-8.134307 -24.042529 3.025007 25.560924 1.244556 1.452173 0.080863 -0.015932 -281368.000000 0 0 1
-8.972707 -23.105229 3.649207 25.053499 1.200381 1.424620 0.084442 -0.013794 -346012.000000 0 0 1
-8.311307 -21.754629 3.829907 23.601057 1.205861 1.407799 0.049275 0.000538 481168.000000 0 1 0
-7.332407 -21.769729 4.889407 23.485988 1.245914 1.361078 0.044658 -0.002398 185957.000000 0 1 0
-6.799407 -20.520329 5.342507 22.267874 1.250832 1.328513 0.019622 -0.000798 -270680.000000 0 1 0
-7.711107 -19.530629 6.073407 21.858475 1.194762 1.289240 0.033544 0.001163 -398107.000000 0 1 0
-8.131507 -20.074929 7.252607 22.841290 1.185937 1.247681 0.047338 -0.002594 168649.000000 0 1 0
-9.090207 -19.226129 7.883407 22.680918 1.129141 1.215809 0.041993 0.000540 -25338.400000 0 1 0
-27.266247 29.336568 -5.844993 40.475257 -0.821958 1.715712 0.079036 0.004302 112374.000000 0 0 1
-26.441537 30.186468 -5.070793 40.448618 -0.851434 1.696491 0.066354 -0.010009 349267.000000 0 0 1
-25.609537 29.338268 -4.222293 39.171548 -0.853154 1.678796 0.046493 -0.009817 578243.000000 0 0 1
-24.610907 30.169768 -3.372693 39.080516 -0.886527 1.657205 0.033365 -0.019313 -256506.000000 0 0 1
-25.205537 30.720168 -2.236893 39.800145 -0.883687 1.627029 0.014518 -0.021493 151561.000000 0 0 1
-24.455507 31.754768 -1.646993 40.114208 -0.914532 1.611865 0.013642 -0.023091 32050.000000 0 0 1
-23.179807 31.440168 -0.829993 39.070149 -0.935494 1.592042 0.015030 -0.020866 1048870.000000 0 0 1
-22.067907 30.936168 -1.600393 38.034199 -0.951175 1.612886 0.029377 -0.026010 1053070.000000 0 0 1
-20.872107 30.652268 -0.863793 37.093834 -0.972983 1.594085 0.038909 -0.024996 701714.000000 0 0 1
-19.801207 29.992168 -1.806193 35.984445 -0.987275 1.621011 0.064490 -0.028127 -68774.100000 0 0 1
-18.670707 29.702568 -1.017693 35.098056 -1.009620 1.599796 0.068862 -0.028980 -744924.000000 0 0 1
-17.686007 29.099868 -1.789393 34.099840 -1.024684 1.623296 0.067085 -0.024099 -1128110.000000 0 0 1
-16.298307 29.413868 -1.282093 33.651957 -1.064809 1.608904 0.071628 -0.030040 -931905.000000 0 0 1
-15.874207 28.802968 -0.070293 32.887785 -1.067085 1.572934 0.055762 -0.033413 36046.000000 0 0 1
-14.779707 29.535368 0.450007 33.029990 -1.106823 1.557172 0.061274 -0.035999 300429.000000 0 0 1
-14.307307 28.892868 1.822807 32.292716 -1.111008 1.514320 0.058621 -0.037004 25695.500000 0 0 1
-15.268907 29.182868 2.817207 33.056255 -1.088750 1.485468 0.047823 -0.031169 -68248.800000 0 0 1
-14.992507 28.644868 4.097207 32.589735 -1.088610 1.444742 0.048869 -0.039146 624116.000000 0 0 1
-13.750907 29.094168 4.962107 32.560414 -1.129280 1.417803 0.076443 -0.029552 632493.000000 0 0 1
-13.933707 30.264568 5.732007 33.807517 -1.139330 1.400425 0.073624 -0.037161 -309725.000000 0 0 1
-13.901207 31.496568 4.995107 34.788338 -1.155154 1.426713 0.080649 -0.050005 -317927.000000 0 0 1
-13.739307 32.731768 5.939507 35.991874 -1.173377 1.405014 0.083139 -0.039778 -322721.000000 0 0 1
-14.914907 33.133568 6.592707 36.929007 -1.147822 1.391310 0.081251 -0.037593 -238432.000000 0 0 1
-14.724207 -33.943429 7.373607 37.727029 1.161507 1.374084 0.105549 -0.044322 436861.000000 0 0 1
-15.909907 -33.591929 8.335807 38.092369 1.128472 1.350180 0.093442 -0.038849 331585.000000 0 0 1
-15.827807 33.906968 9.488907 38.603644 -1.134059 1.322448 0.069717 -0.042300 391326.000000 0 0 1
-16.847907 -33.834029 10.353907 39.189245 1.108784 1.303419 0.082898 -0.040427 -188175.000000 0 0 1
-16.725807 33.779868 11.775907 39.490557 -1.111043 1.267995 0.082293 -0.031276 862838.000000 0 0 1
-15.674807 -33.909729 12.611207 39.428567 1.137801 1.245226 0.089359 -0.032358 1843160.000000 0 0 1
-14.376607 33.729668 12.319207 38.679972 -1.167884 1.246660 0.091982 -0.017698 1648180.000000 0 0 1
-13.298507 33.779568 13.488207 38.727784 -1.195746 1.215058 0.113870 -0.017089 371944.000000 0 0 1
-13.605107 32.984468 14.629407 38.562853 -1.179586 1.181686 0.094600 -0.017307 92080.700000 0 0 1
-13.276707 31.580868 14.597207 37.238430 -1.172825 1.167999 0.062048 -0.013853 406477.000000 0 0 1
-14.430807 30.658368 14.038207 36.677718 -1.130865 1.178031 0.066608 -0.018226 562646.000000 0 0 1
-14.543607 30.757268 12.673107 36.306111 -1.129103 1.214226 0.067899 -0.012546 285812.000000 0 0 1
-15.765607 30.218868 12.206307 36.203982 -1.089929 1.226904 0.059276 -0.008084 199393.000000 0 0 1
-15.699807 30.008968 10.666407 35.507666 -1.088785 1.265687 0.048952 -0.000371 81884.300000 0 0 1
-14.864507 28.916068 10.323007 34.112418 -1.095966 1.263359 0.038794 0.008631 196328.000000 0 0 1
-14.994707 28.607068 8.946207 33.514776 -1.088007 1.300587 0.034920 0.001890 -246745.000000 0 0 1
-14.142307 27.406268 8.496407 31.989019 -1.094411 1.301966 0.038234 0.004267 -1139130.000000 0 0 1
-12.921607 27.638868 7.940307 31.526552 -1.133472 1.316194 0.062654 0.001119 -1138660.000000 0 0 1
-12.174607 26.465368 7.812907 30.160874 -1.139641 1.308767 0.062860 -0.005688 -419577.000000 0 0 1
-10.935207 26.465068 6.933207 29.462654 -1.178968 1.333247 0.081247 -0.010423 -323452.000000 0 0 1
-11.224807 26.750768 5.566407 29.539546 -1.173503 1.381224 0.080999 -0.024743 393842.000000 0 0 1
-10.193607 26.173268 4.789507 28.493666 -1.199404 1.401904 0.109978 -0.022292 152381.000000 0 0 1
-10.503207 26.379468 3.272207 28.581481 -1.191879 1.456058 0.087525 -0.033119 190991.000000 0 0 1
-10.178607 27.726168 3.016207 29.689088 -1.218959 1.469028 0.098544 -0.031158 156707.000000 0 0 1
-10.522807 27.977168 1.688607 29.938317 -1.211043 1.514363 0.083632 -0.038475 -91217.900000 0 0 1
-10.149907 29.436068 1.452107 31.170681 -1.238751 1.524194 0.105226 -0.038703 322354.000000 0 0 1
-10.897407 30.383168 2.199907 32.353207 -1.226422 1.502747 0.090933 -0.050252 333556.000000 0 0 1
-10.221407 31.627368 2.070407 33.302465 -1.258209 1.508586 0.085828 -0.041081 115312.000000 0 0 1
-10.958507 32.702768 2.878407 34.609900 -1.247462 1.487533 0.081512 -0.032450 683774.000000 0 0 1
-12.251207 33.166368 2.480607 35.443666 -1.216956 1.500752 0.102978 -0.038305 408253.000000 0 0 1
-12.262207 33.933968 1.302107 36.105005 -1.224042 1.534724 0.086210 -0.027373 979191.000000 0 0 1
-13.758907 -33.886429 0.951607 36.585560 1.185102 1.544783 0.084195 -0.029822 1600020.000000 0 0 1
-14.597207 33.336968 0.451107 36.395541 -1.158077 1.558401 0.075383 -0.030491 -88220.500000 0 0 1
-14.863607 33.375768 -0.962093 36.548520 -1.151823 1.597123 0.068496 -0.026597 262869.000000 0 0 1
-13.651507 33.114968 -1.911093 35.869444 -1.179778 1.624101 0.074043 -0.025621 121999.000000 0 0 1
-13.339007 31.759968 -2.105693 34.511717 -1.173173 1.631848 0.068579 -0.027969 47739.100000 0 0 1
-11.939507 31.713768 -2.321093 33.966195 -1.210731 1.639185 0.062366 -0.018690 7185.450000 0 0 1
-11.473507 30.268768 -2.529993 32.469071 -1.208476 1.648795 0.032369 -0.025719 -128173.000000 0 0 1
-11.700607 29.678468 -3.829293 32.130658 -1.195260 1.690259 0.026061 -0.021142 -479825.000000 0 0 1
-10.509007 29.586968 -4.571393 31.728939 -1.229505 1.715376 0.026792 -0.011197 -60883.300000 0 0 1
-10.750407 28.858068 -5.964693 31.367769 -1.214196 1.762115 0.034152 -0.014618 30844.900000 0 0 1
-11.162507 27.489268 -5.850193 30.240473 -1.185070 1.765480 0.031512 -0.012363 97895.200000 0 0 1
-11.385907 26.967768 -7.114193 30.124926 -1.171296 1.809205 0.023997 -0.010623 -307749.000000 0 0 1
-11.722807 25.457668 -7.169993 28.929671 -1.139260 1.821249 0.050166 -0.015433 -201882.000000 0 0 1
-10.750607 24.558168 -6.708093 27.634719 -1.158167 1.815987 0.024805 -0.006504 -308136.000000 0 0 1
-11.162607 23.228868 -6.796593 26.652913 -1.122830 1.828648 0.070346 -0.022770 -470844.000000 0 0 1
-10.573107 22.365768 -5.707693 25.388894 -1.129197 1.797545 0.054922 -0.018626 -284280.000000 0 0 1
-9.252607 22.023168 -6.146593 24.665994 -1.173057 1.822643 0.060256 -0.018368 388121.000000 0 1 0
-8.765407 20.865668 -5.503293 23.291516 -1.173094 1.809331 0.064537 -0.009573 -460737.000000 0 1 0
-8.535307 20.931468 -3.961493 22.949319 -1.183606 1.744284 0.051655 -0.016471 -485753.000000 0 1 0
-9.601707 20.845568 -3.018493 23.148257 -1.139153 1.701567 0.058105 -0.020422 31222.000000 0 1 0
-10.340307 19.652268 -3.074893 22.418487 -1.086438 1.708389 0.061117 -0.019016 -266181.000000 0 1 0
-11.647407 19.604168 -2.267393 22.915640 -1.034705 1.669904 0.062407 -0.019362 -83677.400000 0 1 0
-11.427407 19.503868 -0.858393 22.621303 -1.040806 1.608752 0.051633 -0.024100 223257.000000 0 1 0
-11.331507 18.187268 -0.288893 21.430428 -1.013603 1.584277 0.055227 -0.024057 -149649.000000 0 1 0
-10.945407 18.316768 1.197107 21.371453 -1.032171 1.514753 0.046801 -0.023757 138321.000000 0 1 0
-12.014207 18.720168 2.045207 22.337608 -1.000222 1.479109 0.054178 -0.017361 242133.000000 0 1 0
-11.599607 18.798568 3.442207 22.355891 -1.017936 1.416208 0.046183 -0.009784 -393127.000000 0 1 0
-12.722507 18.684968 4.466307 23.042095 -0.973008 1.375729 0.054948 -0.011943 -255194.000000 0 1 0
-13.293607 17.392868 4.556107 22.360456 -0.918197 1.365602 0.024059 -0.015686 745765.000000 0 1 0
-14.661907 17.539668 4.968807 23.394455 -0.874528 1.356774 0.045504 -0.015818 755496.000000 0 1 0
-15.268507 16.132268 5.303307 22.836428 -0.812899 1.336426 0.035308 -0.014119 -14913.700000 0 1 0
-14.596307 15.418768 6.363707 22.165003 -0.812793 1.279592 0.035929 -0.015455 643116.000000 0 1 0
-15.145607 15.844368 7.641607 23.212660 -0.807942 1.235340 0.041645 -0.011963 -122806.000000 0 1 0
-14.128007 15.604268 8.807707 22.818183 -0.835009 1.174510 0.027224 -0.006081 1775440.000000 0 1 0
-12.862907 16.315568 8.803907 22.564595 -0.903180 1.169986 0.024754 -0.014603 1447210.000000 0 1 0
-11.939107 15.928168 7.778807 21.371913 -0.927577 1.198266 0.025693 -0.016522 -531238.000000 0 1 0
-10.873007 16.990968 7.470807 21.511119 -1.001534 1.216106 0.042895 -0.028308 -136942.000000 0 1 0
-9.826807 17.082168 8.387607 21.417716 -1.048761 1.168405 0.041463 -0.024636 -437587.000000 0 1 0
-9.321307 18.368668 8.539707 22.298461 -1.101201 1.177784 0.047005 -0.023627 485555.000000 0 1 0
-7.948107 18.401368 9.285707 22.090883 -1.163070 1.136975 0.044624 -0.025658 862300.000000 0 1 0
-6.847607 17.736068 8.662107 20.892342 -1.202344 1.143286 0.034565 -0.020410 302386.000000 0 1 0
-5.671307 17.709968 9.436807 20.853298 -1.260882 1.101192 0.037303 -0.023373 253070.000000 0 1 0
-4.602207 18.753368 9.061507 21.330261 -1.330145 1.132034 0.032284 -0.022688 -780134.000000 0 1 0
-4.817007 20.026168 9.593607 22.721978 -1.334745 1.134907 0.036605 -0.026953 -73191.600000 0 1 0
-4.532407 21.045568 8.684907 23.213924 -1.358675 1.187343 0.049000 -0.027376 524838.000000 0 1 0
-3.097307 21.665268 8.812707 23.593240 -1.428797 1.187988 0.049232 -0.025480 518986.000000 0 1 0
-2.038807 20.778868 8.555107 22.563421 -1.472990 1.181910 0.033374 -0.009944 -125457.000000 0 1 0
-0.830507 21.487968 8.310407 23.053967 -1.532166 1.202018 0.025619 -0.013009 -372288.000000 0 1 0
0.302593 20.571268 7.996007 22.072716 1.556088 1.200108 0.020224 -0.009749 -315257.000000 0 1 0
0.880193 19.981668 9.188107 22.010523 1.526775 1.140168 0.015663 -0.014348 132569.000000 0 1 0
2.240693 19.579068 9.122907 21.716078 1.456849 1.137242 0.012275 -0.014628 234708.000000 0 1 0
2.799393 19.192468 10.485407 22.048383 1.425959 1.075192 0.005573 -0.024388 133580.000000 0 1 0
4.162493 18.785168 10.542507 21.939766 1.352736 1.069548 0.027925 -0.010444 331307.000000 0 1 0
4.564993 18.395268 11.813907 22.333684 1.327549 1.013407 0.023380 -0.015286 294695.000000 0 1 0
6.075893 18.065468 11.967707 22.505636 1.246354 1.010113 0.031649 -0.022198 184011.000000 0 1 0
6.658493 17.050468 11.248407 21.484428 1.198492 1.019771 0.021467 -0.025022 -88977.500000 0 1 0
7.710393 16.412468 11.965507 21.725391 1.131608 0.987520 0.026564 -0.023749 373443.000000 0 1 0
8.963993 15.947168 11.185307 21.442398 1.058707 1.022019 0.023048 -0.028396 156133.000000 0 1 0
9.847193 17.009268 10.869207 22.459343 1.046013 1.065633 0.032975 -0.029715 530741.000000 0 1 0
11.050493 16.441968 10.321607 22.338023 0.979048 1.090475 0.034052 -0.030042 260316.000000 0 1 0
12.051293 17.478968 9.806407 23.386184 0.967170 1.138095 0.046015 -0.023937 -794913.000000 0 1 0
13.088893 16.894668 9.114807 23.234213 0.911652 1.167664 0.049105 -0.026506 -911153.000000 0 1 0
13.907993 17.909768 8.609207 24.255113 0.910513 1.207942 0.059817 -0.019809 -302538.000000 0 1 0
15.012993 17.501568 7.614607 24.283268 0.861786 1.251842 0.061526 -0.025073 -179411.000000 0 1 0
15.878293 16.591968 8.289007 24.415594 0.807374 1.224415 0.081917 -0.027949 773904.000000 0 1 0
16.986993 16.361368 7.366107 24.708538 0.766640 1.268074 0.104861 -0.022367 890258.000000 0 1 0
18.371593 16.327368 8.064807 25.867731 0.726553 1.253740 0.096514 -0.021885 83307.100000 0 0 1
18.757593 15.026168 8.583507 25.520768 0.675394 1.227775 0.105102 -0.023098 1026510.000000 0 0 1
20.042193 15.146468 9.216707 26.759161 0.647158 1.219163 0.112239 -0.021306 406349.000000 0 0 1
20.395993 14.120768 10.249207 26.840992 0.605560 1.179000 0.105174 -0.018375 -138174.000000 0 0 1
21.001393 12.956468 9.734707 26.527214 0.552778 1.195046 0.112554 -0.028807 279649.000000 0 0 1
21.207893 12.114268 10.829007 26.716991 0.518985 1.153464 0.116491 -0.026791 -985990.000000 0 0 1
21.955893 10.883468 10.463407 26.645713 0.460199 1.167246 0.113836 -0.018201 -1019420.000000 0 0 1
23.331693 11.287068 10.375907 27.918188 0.450576 1.190006 0.093455 -0.033378 854728.000000 0 0 1
24.062293 10.523068 9.435807 27.906332 0.412264 1.225873 0.093695 -0.024958 -48851.000000 0 0 1
24.390593 9.065468 9.839607 27.819087 0.355856 1.209273 0.103099 -0.033908 438.748000 0 0 1
23.191493 8.243968 9.843307 26.508471 0.341543 1.190359 0.097538 -0.027254 971951.000000 0 0 1
23.251093 6.859468 10.263307 26.324914 0.286879 1.170305 0.092172 -0.031536 -217634.000000 0 0 1
24.113693 5.867668 9.447707 26.554828 0.238694 1.207047 0.101352 -0.035525 179249.000000 0 0 1
23.691793 5.884168 8.099507 25.720157 0.243438 1.250436 0.092857 -0.024272 394126.000000 0 0 1
24.683993 5.365968 7.226107 26.273746 0.214056 1.292174 0.099064 -0.026925 -158310.000000 0 0 1
24.230893 5.223368 5.800907 25.457224 0.212318 1.340908 0.101223 -0.026831 -88558.700000 0 0 1
23.247093 4.196568 5.630707 24.284632 0.178597 1.336804 0.087423 -0.021326 779698.000000 0 1 0
22.962093 3.805068 4.313507 23.671557 0.164219 1.387549 0.097211 -0.022137 -529767.000000 0 1 0
22.172993 2.503368 4.165707 22.699374 0.112426 1.386234 0.090245 -0.023431 -131161.000000 0 1 0
22.756893 1.233768 4.586807 23.247304 0.054162 1.372188 0.105439 -0.024771 -39142.900000 0 1 0
21.848293 0.260668 4.319407 22.272699 0.011930 1.375627 0.087803 -0.022749 -1012220.000000 0 1 0
22.331493 -1.171032 4.456807 22.801974 -0.052391 1.374073 0.102187 -0.020280 -695461.000000 0 1 0
22.557193 -1.578132 5.792907 23.342562 -0.069848 1.320006 0.102975 -0.020998 590532.000000 0 1 0
22.685193 -3.022432 5.715907 23.588655 -0.132454 1.326044 0.101166 -0.020460 -317651.000000 0 1 0
22.622893 -3.607732 7.166007 24.003389 -0.158141 1.267632 0.128086 -0.021712 -45285.700000 0 1 0
22.898093 -5.031332 7.231207 24.534207 -0.216290 1.271613 0.127636 -0.020162 475126.000000 0 1 0
22.909993 -5.485232 8.583307 25.072469 -0.235002 1.221390 0.155748 -0.027999 -198960.000000 0 0 1
22.395893 -6.900032 8.840507 25.046777 -0.298866 1.210064 0.144409 -0.028617 -698565.000000 0 0 1
21.036193 -7.120332 8.718607 23.858639 -0.326375 1.196704 0.132891 -0.031949 -556609.000000 0 1 0
20.704793 -8.408932 9.185007 24.161187 -0.385784 1.180832 0.123663 -0.029216 -105586.000000 0 1 0
-27.018297 -32.859529 5.268107 42.865954 0.882643 1.447588 0.047896 -0.016070 156572.000000 0 0 1
-27.924477 -33.842829 5.729307 44.248599 0.880923 1.440952 0.047257 -0.020347 99367.000000 0 0 1
-27.779387 -34.039429 7.082907 44.503311 0.886318 1.410962 0.051583 -0.008759 -69486.500000 0 0 1
-28.582427 32.995468 7.624807 44.314713 -0.856942 1.397875 0.058455 -0.013571 156942.000000 0 0 1
-29.980507 33.135968 7.720607 45.347888 -0.835351 1.399710 0.057087 -0.008177 -188276.000000 0 0 1
-30.627377 31.907568 7.988207 44.943749 -0.805867 1.392109 0.063219 -0.017227 148996.000000 0 0 1
-32.162547 32.078268 8.031107 46.129637 -0.784086 1.395806 0.065801 -0.014445 -14929.400000 0 0 1
-32.705877 32.207668 6.724807 46.392147 -0.777723 1.425328 0.058795 -0.007339 -1009870.000000 0 0 1
-34.061496 32.462468 6.820507 47.544891 -0.761366 1.426846 0.051843 -0.008182 -1323200.000000 0 0 1
-34.673136 32.256368 5.451407 47.669881 -0.749305 1.456188 0.035004 -0.000318 -556970.000000 0 0 1
-34.752442 30.896468 5.105207 46.780200 -0.726729 1.461447 0.045886 -0.009935 233185.000000 0 0 1
-35.179018 30.777668 3.765107 46.893541 -0.718766 1.490419 0.057402 0.002718 -186605.000000 0 0 1
-34.827061 29.453568 3.128507 45.718972 -0.701998 1.502314 0.069361 -0.008089 58421.100000 0 0 1
-35.362004 28.306168 3.783107 45.453519 -0.675027 1.487470 0.091107 -0.020096 458551.000000 0 0 1
-34.669412 27.097868 3.363307 44.131332 -0.663425 1.494511 0.085412 -0.024304 -127713.000000 0 0 1
-35.129358 25.819268 4.023507 43.782360 -0.633817 1.478769 0.095020 -0.024951 548292.000000 0 0 1
-36.469197 25.461968 3.616207 44.625006 -0.609502 1.489672 0.102176 -0.016975 619765.000000 0 0 1
36.348031 24.527968 4.481007 44.078113 0.593618 1.468960 0.112263 -0.018694 -776715.000000 0 0 1
34.893481 24.180268 4.215507 42.661586 0.605995 1.471822 0.114841 -0.017531 -1181910.000000 0 0 1
34.600521 23.351768 3.110607 41.859014 0.593679 1.496416 0.097114 -0.010580 197713.000000 0 0 1
34.977841 21.990468 3.216507 41.441235 0.561254 1.493102 0.087399 -0.010249 -1167490.000000 0 0 1
34.441491 21.096268 2.158507 40.446607 0.549578 1.517404 0.096490 -0.009197 -13297.600000 0 0 1
33.071711 20.735868 2.268107 39.100622 0.560034 1.512757 0.091256 -0.011514 605527.000000 0 0 1
32.617721 19.948068 3.333307 38.379058 0.548885 1.483835 0.071247 -0.011846 -783298.000000 0 0 1
33.064171 18.466168 3.209607 38.007109 0.509342 1.486248 0.088392 -0.012595 -205160.000000 0 0 1
32.290321 17.729368 2.242407 36.905606 0.502122 1.509998 0.086836 -0.026324 578367.000000 0 0 1
32.454571 16.339168 2.305907 36.408582 0.466402 1.507420 0.080188 -0.025681 -115873.000000 0 0 1
31.591751 15.625868 3.405107 35.409056 0.459333 1.474483 0.099113 -0.032331 -350222.000000 0 0 1
30.218891 15.722368 3.144507 34.209095 0.479742 1.478746 0.090110 -0.033196 -247620.000000 0 0 1
29.490471 14.843768 4.000707 33.257044 0.466317 1.450208 0.086588 -0.044687 701899.000000 0 0 1
27.935121 14.933768 3.907707 31.916432 0.490933 1.448053 0.087830 -0.042972 560058.000000 0 0 1
27.292321 14.514768 2.719807 31.031382 0.488783 1.483037 0.093929 -0.047106 448859.000000 0 0 1
25.910221 14.855668 2.794007 29.997282 0.520595 1.477519 0.076489 -0.036040 904287.000000 0 0 1
25.041621 14.445968 1.517107 28.949446 0.523245 1.518367 0.083924 -0.039782 395911.000000 0 0 1
25.510921 14.983868 0.269007 29.587088 0.531067 1.561704 0.090948 -0.037780 1104510.000000 0 0 1
26.795821 14.471368 -0.145293 30.454189 0.495180 1.575567 0.090308 -0.036028 21796.100000 0 0 1
27.478921 15.184568 -1.346193 31.424106 0.504829 1.613649 0.106445 -0.031750 34917.000000 0 0 1
28.004221 16.467168 -1.103993 32.505735 0.531567 1.604766 0.091142 -0.035295 964787.000000 0 0 1
29.125631 16.501568 -0.184793 33.475936 0.515472 1.576317 0.102843 -0.038346 30520.700000 0 0 1
29.628831 17.934868 -0.109793 34.634364 0.544321 1.573966 0.096729 -0.027707 108591.000000 0 0 1
30.294411 18.385668 -1.295993 35.460735 0.545477 1.607352 0.085671 -0.023025 353029.000000 0 0 1
31.030271 19.573368 -1.125593 36.705060 0.562747 1.601467 0.075796 -0.012317 238255.000000 0 0 1
30.765391 20.581968 -2.274893 37.085062 0.589614 1.632177 0.079412 -0.010460 339822.000000 0 0 1
31.788201 21.569268 -2.146893 38.475086 0.596171 1.626625 0.055797 0.000866 583341.000000 0 0 1
31.700291 22.503368 -3.213493 39.008160 0.617325 1.653270 0.058841 -0.004635 -410754.000000 0 0 1
32.760131 23.605968 -3.171493 40.503411 0.624398 1.649178 0.060118 -0.008253 -471389.000000 0 0 1
32.636421 24.570168 -2.144593 40.907560 0.645319 1.623246 0.072386 -0.007110 280836.000000 0 0 1
33.253381 24.099868 -0.954593 41.079219 0.627134 1.594036 0.072152 0.009124 -487946.000000 0 0 1
33.228361 25.141068 0.232707 41.668351 0.647721 1.565212 0.077905 -0.016085 105777.000000 0 0 1
34.067291 26.300968 0.124507 43.038782 0.657452 1.567903 0.096034 -0.010248 270452.000000 0 0 1
35.373811 26.132668 0.659007 43.984738 0.636267 1.555813 0.096055 -0.012301 249577.000000 0 0 1
36.243421 27.318968 0.146807 45.386487 0.645905 1.567562 0.089966 -0.011643 -250270.000000 0 0 1
36.633141 27.185568 -1.200093 45.634224 0.638428 1.597097 0.083855 -0.020528 135403.000000 0 0 1
35.682481 27.660568 -2.130593 45.198296 0.659426 1.617953 0.074352 -0.017889 31668.100000 0 0 1
36.104331 27.243368 -3.566693 45.370091 0.646422 1.649491 0.068707 -0.015805 521429.000000 0 0 1
-36.296217 28.134168 -4.170493 46.112252 -0.659389 1.661362 0.058163 -0.009968 496050.000000 0 0 1
-35.632723 27.670268 -5.367993 45.432918 -0.660272 1.689225 0.062321 -0.012483 109099.000000 0 0 1
-36.480257 27.596968 -6.682293 46.228291 -0.647642 1.715854 0.046306 -0.003126 -260654.000000 0 0 1
35.946671 26.540468 -6.613593 45.169672 0.635990 1.717741 0.047628 -0.001153 -541449.000000 0 0 1
34.780031 26.782668 -7.372893 44.512037 0.656216 1.737201 0.038762 -0.005457 -393119.000000 0 0 1
33.670751 25.946468 -6.766293 43.043251 0.656551 1.728649 0.043681 -0.009211 -816393.000000 0 0 1
33.620151 24.525268 -7.015193 42.202089 0.630239 1.737800 0.035143 -0.002303 -462054.000000 0 0 1
34.588441 23.796368 -6.325393 42.457485 0.602617 1.720335 0.039101 -0.003789 -407350.000000 0 0 1
34.553601 22.283068 -6.478193 41.622752 0.572770 1.727072 0.034902 -0.002934 -70487.700000 0 0 1
33.436561 21.673068 -5.863593 40.275392 0.575098 1.716903 0.041848 -0.001606 19065.800000 0 0 1
33.512791 20.287768 -6.042893 39.638583 0.544362 1.723843 0.043095 -0.007114 -475320.000000 0 0 1
32.383661 19.511868 -5.402493 38.191641 0.542272 1.712730 0.058608 -0.009506 -669847.000000 0 0 1
31.236411 19.360968 -6.181893 37.266289 0.554866 1.737451 0.050435 -0.015090 -353006.000000 0 0 1
30.234141 18.629268 -5.502193 35.936431 0.552222 1.724510 0.092321 -0.024866 -379367.000000 0 0 1
29.021561 18.314168 -6.354693 34.900457 0.562941 1.753898 0.076038 -0.023992 -505122.000000 0 0 1
29.274691 17.397568 -7.443093 34.858034 0.536208 1.785979 0.056682 -0.026313 -414696.000000 0 0 1
28.229621 17.431968 -8.354993 34.213900 0.553192 1.817490 0.068454 -0.031480 -421361.000000 0 0 1
28.312521 16.242968 -9.340693 33.951162 0.520859 1.849512 0.073278 -0.033042 -192406.000000 0 0 1
27.331221 16.283868 -10.369093 33.461591 0.537324 1.885864 0.090996 -0.032621 259924.000000 0 0 1
27.294621 15.046068 -11.108693 33.087514 0.503800 1.913184 0.091596 -0.021113 365728.000000 0 0 1
26.318421 15.061268 -12.339793 32.737923 0.519781 1.957272 0.095983 -0.024774 729682.000000 0 0 1
24.910721 14.941068 -12.102693 31.468313 0.540261 1.965570 0.088875 -0.020281 987661.000000 0 0 1
24.164021 14.966268 -13.344893 31.400243 0.554534 2.009751 0.084321 -0.020214 145603.000000 0 0 1
24.180121 13.781368 -14.327393 31.303012 0.518028 2.046203 0.088683 -0.024513 -719654.000000 0 0 1
25.447321 13.532068 -14.885893 32.438755 0.488738 2.047544 0.100430 -0.034140 -709.180000 0 0 1
25.549321 13.968868 -16.245193 33.343716 0.500338 2.079682 0.115778 -0.039416 -563799.000000 0 0 1
26.997721 13.796068 -16.767093 34.645979 0.472416 2.075965 0.128122 -0.035439 192267.000000 0 0 1
27.325221 12.441568 -17.007393 34.506691 0.427265 2.086184 0.130518 -0.039113 1367100.000000 0 0 1
28.712961 12.325068 -17.430493 35.779373 0.405466 2.079638 0.110798 -0.020892 1431570.000000 0 0 1
28.805671 10.983168 -18.102893 35.750684 0.364269 2.101760 0.074376 -0.024009 -530089.000000 0 0 1
28.098821 10.921668 -19.283593 35.786639 0.370717 2.139866 0.091485 -0.027929 -380710.000000 0 0 1
28.082821 9.644068 -19.861993 35.723265 0.330797 2.160357 0.071389 -0.014375 -218292.000000 0 0 1
29.361701 8.966168 -20.425693 36.874254 0.296376 2.157872 0.065075 -0.015886 -783985.000000 0 0 1
29.781241 9.739468 -21.501493 38.001234 0.316070 2.172212 0.072075 -0.020944 324327.000000 0 0 1
30.420651 9.039068 -22.605493 38.963176 0.288827 2.189741 0.051347 -0.012860 -926387.000000 0 0 1
31.817781 8.521568 -22.361793 39.812537 0.261683 2.167208 0.040349 -0.010753 -1686070.000000 0 0 1
32.732321 9.543868 -22.593193 40.901621 0.283708 2.156012 0.036494 -0.010700 69595.900000 0 0 1
34.071411 9.040868 -22.592293 41.868963 0.259373 2.140753 0.013071 -0.006122 102549.000000 0 0 1
35.118561 10.105768 -22.341593 42.832075 0.280191 2.119532 0.025845 -0.009679 -541986.000000 0 0 1
35.073401 10.847568 -21.165193 42.376628 0.299950 2.093765 0.016623 -0.008326 545366.000000 0 0 1
36.209881 11.701368 -21.023493 43.474875 0.312561 2.075534 -0.008279 -0.000392 355905.000000 0 0 1
36.113071 12.459068 -19.703793 42.983971 0.332215 2.046989 -0.015970 -0.000907 -61564.700000 0 0 1
36.496261 11.652668 -18.583193 42.580474 0.309053 2.022418 -0.002929 -0.006628 296757.000000 0 0 1
36.377361 12.399168 -17.371693 42.176148 0.328499 1.995317 0.004776 -0.000846 -351807.000000 0 0 1
-36.437697 11.582168 -16.213593 41.529905 -0.307763 1.971871 -0.002674 0.000804 -893722.000000 0 0 1
36.226311 10.426768 -15.916693 40.919485 0.280248 1.970316 -0.004633 -0.001268 1377.520000 0 0 1
-36.585717 9.611568 -14.843793 40.635393 -0.256908 1.944743 0.002063 -0.007485 439996.000000 0 0 1
35.746511 8.449068 -14.649193 39.544894 0.232101 1.950284 0.041327 -0.003829 1009960.000000 0 0 1
34.584601 8.612368 -13.809393 38.222596 0.244059 1.940446 0.065153 -0.010857 817803.000000 0 0 1
34.858831 8.500068 -12.399493 37.962306 0.239175 1.903528 0.060384 -0.009138 -517575.000000 0 0 1
33.741561 8.889168 -11.419993 36.714118 0.257596 1.887096 0.076900 -0.009412 -449035.000000 0 0 1
33.800791 10.303168 -11.274593 37.091309 0.295873 1.879652 0.072447 -0.014877 279452.000000 0 0 1
32.789051 10.807168 -10.417793 36.061713 0.318384 1.863861 0.056518 -0.005893 -298677.000000 0 0 1
32.933051 10.413868 -8.908493 35.670657 0.306264 1.823211 0.073455 -0.012925 -123788.000000 0 0 1
34.044701 10.972368 -8.218193 36.701134 0.311782 1.796633 0.072630 -0.011573 379737.000000 0 0 1
33.877881 12.373868 -7.929193 36.928249 0.350195 1.787200 0.064460 -0.015563 -553646.000000 0 0 1
33.725711 12.758568 -6.464693 36.633276 0.361664 1.748196 0.065221 -0.021714 -236453.000000 0 0 1
34.936511 12.591268 -5.770393 37.581874 0.345913 1.724948 0.079425 -0.018773 202142.000000 0 0 1
34.666981 12.735868 -4.387293 37.192073 0.352071 1.689035 0.070253 -0.020877 13865.400000 0 0 1
35.902421 12.485168 -3.488793 38.171127 0.334671 1.662323 0.086481 -0.010903 -390975.000000 0 0 1
-36.563037 13.510668 -3.678493 39.152588 -0.353955 1.664888 0.088684 -0.005349 397632.000000 0 0 1
-35.256761 13.293568 -3.091293 37.806273 -0.360567 1.652654 0.087445 -0.016162 1310330.000000 0 0 1
-34.239524 14.441768 -3.138693 37.292909 -0.399146 1.655059 0.081732 -0.016811 205801.000000 0 0 1
-34.659722 15.456068 -2.233293 38.015444 -0.419470 1.629577 0.098126 -0.016699 742038.000000 0 0 1
-33.666507 16.478668 -2.110293 37.542423 -0.455186 1.627037 0.102845 -0.014479 679743.000000 0 0 1
-34.201200 17.569268 -1.090293 38.465439 -0.474550 1.599145 0.103421 -0.011686 652162.000000 0 0 1
-35.334315 18.317868 -1.533193 39.829748 -0.478271 1.609299 0.080169 -0.004063 652778.000000 0 0 1
-35.892198 19.077668 -0.456193 40.649913 -0.488550 1.582019 0.068651 -0.002115 180985.000000 0 0 1
36.514421 20.157468 -0.996593 41.720734 0.504409 1.594686 0.058906 -0.002796 221094.000000 0 0 1
-36.054227 21.252668 -1.384493 41.874814 -0.532636 1.603865 0.057232 -0.001761 485696.000000 0 0 1
36.590841 21.842768 -2.475693 42.686359 0.538171 1.628826 0.045822 -0.000271 361552.000000 0 0 1
-36.134557 23.158168 -3.072993 43.028482 -0.569942 1.642275 0.068165 -0.016014 -211219.000000 0 0 1
-34.843386 23.031868 -3.595093 41.921990 -0.584077 1.656659 0.067186 -0.006114 -571722.000000 0 0 1
-34.433441 24.232768 -4.192293 42.313878 -0.613243 1.670035 0.073187 -0.009104 -66176.000000 0 0 1
-32.953137 24.167468 -4.596993 41.123085 -0.632785 1.682817 0.068102 -0.018033 -189384.000000 0 0 1
-32.738037 23.302868 -5.652593 40.580224 -0.618600 1.710545 0.046952 -0.007759 -99153.100000 0 0 1
-31.348017 23.325468 -5.941993 39.523195 -0.639702 1.721710 0.061090 -0.002052 353225.000000 0 0 1
-31.012877 22.531968 -7.227293 39.009254 -0.628314 1.757144 0.058565 -0.018906 -68384.000000 0 0 1
-31.783387 22.927368 -8.300093 40.059199 -0.624920 1.779504 0.062303 -0.027664 -232225.000000 0 0 1
-31.182427 22.344168 -9.444293 39.506965 -0.621756 1.812188 0.036824 -0.020319 339591.000000 0 0 1
-32.122767 22.129068 -10.662193 40.438227 -0.603231 1.837617 0.030673 -0.009499 -158569.000000 0 0 1
-32.544977 23.334368 -11.264093 41.599857 -0.622037 1.844992 0.035568 -0.010054 -62512.000000 0 0 1
-33.222717 23.056768 -12.484393 42.322849 -0.606692 1.870231 0.020677 -0.007087 -133172.000000 0 0 1
-33.762577 24.377868 -13.125393 43.663120 -0.625364 1.876124 0.039097 -0.001609 807213.000000 0 0 1
-32.774097 25.442468 -13.279993 43.563963 -0.660121 1.880566 0.037786 -0.008758 80343.800000 0 0 1
-31.946927 25.288668 -14.381093 43.208086 -0.669588 1.910103 0.032133 -0.014935 -999955.000000 0 0 1
-30.648707 26.080768 -14.308093 42.711488 -0.705050 1.912395 0.031314 -0.012926 223190.000000 0 0 1
-29.562467 25.581268 -13.485993 41.354719 -0.713326 1.902977 0.042555 -0.018991 727289.000000 0 0 1
-29.806187 25.353568 -12.114393 40.963041 -0.704851 1.871026 0.055753 -0.011807 -642681.000000 0 0 1
-29.951107 26.579968 -11.147593 41.567203 -0.725835 1.842302 0.063496 -0.003088 263313.000000 0 0 1
-28.719847 27.244368 -10.951593 41.073381 -0.759040 1.840696 0.055832 -0.000004 -406802.000000 0 0 1
-28.883427 28.451668 -10.218593 41.811116 -0.777868 1.817696 0.050519 -0.005136 -208949.000000 0 0 1
-27.642327 29.229268 -9.772393 41.399855 -0.813295 1.809094 0.053410 -0.005645 -343841.000000 0 0 1
-27.871317 30.440968 -8.975093 42.237604 -0.829437 1.784919 0.054024 -0.010147 310437.000000 0 0 1
-26.661707 31.205268 -8.788193 41.974370 -0.863755 1.781727 0.063353 -0.014472 -344984.000000 0 0 1
35.260511 -24.872132 33.908885 54.879314 -0.614329 0.904751 0.041498 -0.011300 -590638.000000 0 0 1
34.982351 -23.589932 -33.889053 54.117628 -0.593295 2.247480 0.039814 -0.012426 -622705.000000 0 0 1
33.919781 -23.601132 -33.015843 52.892446 -0.607897 2.244913 0.043914 -0.004549 -734349.000000 0 0 1
33.424761 -22.267632 -32.556063 51.700670 -0.587681 2.251967 0.028694 0.003422 -235963.000000 0 0 1
32.797771 -21.689132 -33.662953 51.762019 -0.584277 2.278829 0.028879 -0.003147 -87630.700000 0 0 1
32.340001 -20.363432 -33.393343 50.750964 -0.561948 2.288935 0.024170 0.004510 123558.000000 0 0 1
31.974361 -19.668932 33.499530 50.313469 -0.551483 0.842209 0.023343 -0.001764 -334900.000000 0 0 1
33.093861 -19.153332 32.836468 50.401264 -0.524654 0.861235 0.041309 -0.010492 -346399.000000 0 0 1
32.807741 -18.683032 31.521153 49.183195 -0.517669 0.875136 0.048175 -0.004547 -594300.000000 0 0 1
33.910261 -18.576832 30.460793 49.222601 -0.501171 0.903534 0.035990 -0.010641 -372346.000000 0 0 1
34.820051 -17.534732 30.717053 49.633055 -0.466509 0.903476 0.020449 -0.014619 632084.000000 0 0 1
35.854091 -17.377432 29.738353 49.717810 -0.451309 0.929615 0.039422 -0.012054 631407.000000 0 0 1
-36.371917 -16.374432 30.154183 50.003132 0.423016 0.923482 0.033062 -0.020180 -627943.000000 0 0 1
-35.333756 -16.253732 29.231753 48.653402 0.431144 0.926275 0.045769 -0.014220 -276594.000000 0 0 1
-34.336627 -15.388332 29.674193 47.920377 0.421323 0.903022 0.046165 -0.017960 250794.000000 0 0 1
-33.165927 -16.015532 30.516863 47.830481 0.449867 0.878871 0.060597 -0.021220 -485274.000000 0 0 1
-32.273347 -15.066632 30.969403 47.198266 0.436773 0.855083 0.054548 -0.018677 145978.000000 0 0 1
-31.214737 -15.687932 31.717343 47.185389 0.465710 0.833639 0.060759 -0.021649 582769.000000 0 0 1
-30.050217 -14.802632 32.185583 46.454766 0.457707 0.805380 0.067102 -0.025913 116855.000000 0 0 1
-30.425887 -14.039432 33.302572 47.243006 0.432319 0.788485 0.064713 -0.027565 516687.000000 0 0 1
-29.327427 -13.202832 33.620226 46.526685 0.423010 0.763239 0.062149 -0.025918 177267.000000 0 0 1
-29.459847 -12.495132 -33.289843 46.176017 0.401143 2.375945 0.049985 -0.011638 -148721.000000 0 0 1
-29.484667 -13.536032 -32.321723 45.795890 0.430385 2.354317 0.057926 -0.011506 112487.000000 0 0 1
-29.950937 -12.999232 -31.140183 45.119282 0.409484 2.332527 0.064810 -0.002112 -502805.000000 0 0 1
-30.042487 -13.977332 -29.934883 44.654384 0.435465 2.305501 0.063924 -0.006086 -317023.000000 0 0 1
-31.226007 -14.715332 -29.766843 45.581459 0.440386 2.282397 0.056187 -0.003469 -203312.000000 0 0 1
-31.207667 -15.409732 -28.532913 45.005616 0.458659 2.257492 0.061440 0.000358 238416.000000 0 0 1
-32.258727 -16.528832 -28.433413 46.068283 0.473505 2.235977 0.046332 -0.002577 157154.000000 0 0 1
-31.999267 -17.621632 -29.292473 46.824395 0.503372 2.246673 0.042192 0.003792 635182.000000 0 0 1
-33.050917 -18.597832 -29.131013 47.821108 0.512543 2.225805 0.027491 0.010506 500513.000000 0 0 1
-33.109667 -19.764532 -30.196383 48.976610 0.538168 2.235146 0.034504 0.002303 197598.000000 0 0 1
-34.268574 -20.597032 -30.118123 50.056710 0.541189 2.216399 0.031075 -0.001101 380272.000000 0 0 1
-34.027487 -21.807732 -30.767803 50.794731 0.569941 2.221477 0.026822 -0.006846 -614288.000000 0 0 1
-35.297705 -22.593432 -31.028233 52.145397 0.569371 2.208103 0.026989 -0.007015 -427312.000000 0 0 1
-35.869307 -23.070232 -29.807273 52.031878 0.571562 2.180794 0.027647 -0.005297 40973.200000 0 0 1
36.575161 -24.163132 -29.878123 53.049991 -0.583821 2.169058 0.045702 -0.008397 104171.000000 0 0 1
-36.182937 -25.540652 -30.326993 53.677335 0.614658 2.171214 0.040195 -0.006821 77665.000000 0 0 1
-35.918083 -25.725092 -31.717113 54.386251 0.621526 2.193437 0.045497 -0.005751 -444899.000000 0 0 1
-35.413229 -26.987812 -31.993903 54.827444 0.651189 2.193875 0.042087 -0.004772 -189598.000000 0 0 1
-35.727654 -27.710272 -33.331313 56.172065 0.659683 2.206046 0.050588 -0.015189 95518.300000 0 0 1
36.300651 -28.209972 -33.392623 56.820833 -0.660633 2.198988 0.051858 -0.010871 -374007.000000 0 0 1
36.194551 -29.443082 34.118904 57.801732 -0.682899 0.939397 0.052777 -0.007864 -46594.700000 0 0 1
-36.565827 -30.672042 -33.379203 58.240922 0.697966 2.181108 0.055566 -0.016831 389271.000000 0 0 1
36.155221 -31.143502 -32.180183 57.555902 -0.711066 2.164110 0.063052 -0.021479 852493.000000 0 0 1
-36.157187 -31.848272 -31.433273 57.530038 0.722121 2.148832 0.060540 -0.029248 1147320.000000 0 0 1
36.672501 -32.439072 -30.083873 57.464816 -0.724220 2.121771 0.050784 -0.035229 236543.000000 0 0 1
35.631491 -33.387992 -30.164543 57.395651 -0.752904 2.124163 0.070006 -0.027912 74021.300000 0 0 1
35.060621 -33.687532 -28.917533 56.571377 -0.765428 2.107341 0.069608 -0.030736 -272639.000000 0 0 1
33.750891 33.792291 -28.972603 55.861017 0.786011 2.116074 0.071581 -0.037345 -471896.000000 0 0 1
32.656061 -33.906262 -29.664823 55.642202 -0.804178 2.133098 0.072651 -0.035299 -431675.000000 0 0 1
31.564981 33.499740 -29.469473 54.653732 0.815125 2.140287 0.058617 -0.032048 -856704.000000 0 0 1
30.247371 33.820182 -30.122433 54.461630 0.841107 2.156870 0.024265 -0.019701 -484569.000000 0 0 1
30.293161 33.429149 -31.464363 55.001725 0.834572 2.179813 0.034780 -0.020929 -158611.000000 0 0 1
28.991771 33.503590 -32.018933 54.664663 0.857468 2.196581 0.028580 -0.009698 72054.500000 0 0 1
28.763941 32.820184 -33.401073 54.955986 0.851168 2.224057 0.030796 -0.021950 -136907.000000 0 0 1
28.584621 31.456316 -33.271443 53.977488 0.833191 2.234952 0.026687 -0.023174 -29890.200000 0 0 1
28.359771 30.795566 33.759797 53.780734 0.826551 0.892162 0.033339 -0.019388 -85094.000000 0 0 1
28.427031 29.245086 33.895627 53.030979 0.799582 0.877382 0.029325 -0.037406 152059.000000 0 0 1
29.732531 28.817336 -34.011962 53.584287 0.769768 2.258465 0.040796 -0.031144 -359583.000000 0 0 1
29.754651 27.445336 -33.728733 52.689782 0.745047 2.265474 0.036963 -0.034850 -267095.000000 0 0 1
31.116361 26.754886 -33.629603 53.056592 0.710175 2.257309 0.067575 -0.031871 232421.000000 0 0 1
31.925331 27.318756 -32.571663 53.164409 0.707798 2.230217 0.073927 -0.024179 -583872.000000 0 0 1
33.107601 26.619436 -32.386783 53.419203 0.677192 2.222166 0.081132 -0.020337 -611533.000000 0 0 1
33.804231 27.036886 -31.105773 53.303736 0.674624 2.193898 0.085661 -0.019198 -267065.000000 0 0 1
34.651801 28.180176 -31.129083 54.441615 0.682761 2.179480 0.080763 -0.014028 619605.000000 0 0 1
33.900341 29.398506 -31.369233 54.749740 0.714397 2.180905 0.075314 -0.008460 1045120.000000 0 0 1
32.900231 29.872946 -30.174523 53.715174 0.737210 2.167296 0.063295 -0.011739 1129420.000000 0 0 1
33.421421 30.162856 -28.830723 53.460264 0.734195 2.140393 0.056669 -0.011879 -201062.000000 0 0 1
32.344991 30.241476 -27.943923 52.360368 0.751801 2.133748 0.060980 -0.018356 -113769.000000 0 0 1
32.807291 30.591186 -26.513513 52.106673 0.750457 2.104623 0.062322 -0.021130 -28631.400000 0 0 1
33.168281 32.000386 -26.415103 53.121721 0.767479 2.091230 0.069325 -0.024772 169095.000000 0 0 1
33.675281 32.185113 -25.120323 52.923876 0.762776 2.065363 0.050053 -0.028474 -338271.000000 0 0 1
34.001641 33.663535 -24.833893 53.907953 0.780401 2.049549 0.051868 -0.027564 -137947.000000 0 0 1
32.877821 -33.732172 -24.713093 53.193491 -0.798224 2.053966 0.059574 -0.017770 -61998.300000 0 0 1
33.187931 -32.413942 -24.427193 52.428906 -0.773600 2.055460 0.053229 -0.022679 -971349.000000 0 0 1
33.461661 -31.560712 -25.672193 52.676587 -0.756171 2.079854 0.059497 -0.024846 1389130.000000 0 0 1
34.780451 -31.686602 -26.270733 53.887586 -0.738885 2.080032 0.070433 -0.034405 1190780.000000 0 0 1
35.873771 -31.200582 -25.522253 53.960997 -0.715839 2.063462 0.078089 -0.035719 419063.000000 0 0 1
-36.033359 -31.506532 -26.109733 54.523230 0.718474 2.070167 0.053761 -0.028690 873968.000000 0 0 1
-35.618753 -32.862242 -26.061323 55.025585 0.745168 2.064195 0.048209 -0.029413 -129195.000000 0 0 1
-35.463584 -33.464182 -24.789393 54.699463 0.756399 2.041140 0.051760 -0.023427 -335341.000000 0 0 1
-34.336009 -32.922792 -23.869493 53.222405 0.764390 2.035867 0.032188 -0.018751 -78150.000000 0 0 1
-34.530976 -31.578162 -23.484693 52.355510 0.740762 2.035952 -0.014411 -0.015124 -502302.000000 0 0 1
-34.076784 -31.341112 -22.195293 51.343194 0.743604 2.017830 0.013884 -0.011441 -98069.500000 0 0 1
-33.754287 -29.877292 -21.882393 50.108318 0.724545 2.022725 0.010658 0.001882 587860.000000 0 0 1
-34.802036 -28.931942 -22.210393 50.413694 0.693554 2.027022 0.002094 0.001476 56720.400000 0 0 1
-34.708232 -28.408172 -23.526593 50.647667 0.685911 2.053883 0.013801 0.002565 295391.000000 0 0 1
-35.886992 -27.525342 -24.048893 51.223724 0.654293 2.059506 0.014725 0.004046 265966.000000 0 0 1
-35.891590 -26.325112 -23.310693 50.245459 0.632832 2.053230 0.004089 0.004369 -336295.000000 0 0 1
36.582231 -25.284142 -23.684293 50.383461 -0.604768 2.060179 0.022073 0.003160 -74714.100000 0 0 1
-36.437607 -24.550232 -25.059923 50.580755 0.592898 2.089142 0.026991 0.015888 203988.000000 0 0 1
-35.216612 -23.822832 -25.055723 49.351052 0.594756 2.103314 0.014218 0.005526 -149781.000000 0 0 1
-34.876177 -23.482432 -26.392623 49.642148 0.592587 2.131353 0.023832 0.008527 600343.000000 0 0 1
-33.690717 -22.441232 -26.326113 48.288068 0.587607 2.147411 0.028484 -0.001645 625483.000000 0 0 1
-34.071306 -21.239132 -25.655643 47.646266 0.557428 2.139406 0.027589 -0.004779 -138541.000000 0 0 1
-34.976195 -20.393332 -26.326753 48.294100 0.527873 2.147345 0.038023 -0.002946 -148036.000000 0 0 1
-36.259537 -20.080632 -25.532163 48.681384 0.505758 2.122895 0.047247 -0.013425 -196908.000000 0 0 1
-36.189507 -19.450432 -24.268393 47.717446 0.493165 2.104337 0.040366 -0.020392 -59091.600000 0 0 1
-35.367460 -20.066032 -23.272193 46.851871 0.516073 2.090610 0.021623 -0.014733 112831.000000 0 0 1
-36.081057 -21.259832 -22.609093 47.591955 0.532458 2.065830 0.014051 -0.001923 -94985.200000 0 0 1
36.219721 -20.964932 -21.745393 47.162047 -0.524705 2.050006 0.017481 -0.004044 -505942.000000 0 0 1
35.790091 -22.170032 -21.140693 47.110188 -0.554596 2.036162 0.016184 0.011085 -373844.000000 0 0 1
34.698381 -21.887832 -20.143893 45.703733 -0.562761 2.027230 0.019470 0.002713 477913.000000 0 0 1
33.406961 -21.423132 -20.589493 44.709091 -0.570219 2.049379 0.038093 0.006871 235502.000000 0 0 1
32.420031 -21.634232 -19.640893 43.644737 -0.588448 2.037581 0.033540 0.007233 129070.000000 0 0 1
31.035201 -21.180932 -20.219393 42.668952 -0.598871 2.064473 0.044185 0.001739 -206301.000000 0 0 1
30.618341 -22.018132 -21.343193 43.333738 -0.623440 2.085791 0.042438 0.004036 456542.000000 0 0 1
29.371871 -21.540632 -21.845893 42.472917 -0.632777 2.111044 0.054968 -0.003557 273085.000000 0 0 1
29.367071 -20.183432 -22.622893 42.208898 -0.602139 2.136458 0.047022 -0.007498 -523737.000000 0 0 1
29.728331 -19.014232 -21.872393 41.517662 -0.569029 2.125653 0.038816 -0.003907 91572.000000 0 0 1
29.657541 -17.895132 -22.726093 41.428019 -0.542910 2.151447 0.031968 -0.002504 -158068.000000 0 0 1
30.217671 -16.627732 -22.059193 40.941386 -0.503047 2.139808 0.017272 -0.005531 -401216.000000 0 0 1
29.439951 -16.135532 -21.011793 39.605070 -0.501370 2.130025 0.004333 -0.009846 556624.000000 0 0 1
30.310361 -15.568632 -20.011293 39.516479 -0.474500 2.101805 0.000871 -0.006930 757708.000000 0 0 1
31.389461 -16.356732 -19.215593 40.275054 -0.480377 2.068159 0.015254 -0.010922 -533193.000000 0 0 1
32.483741 -16.656032 -19.991793 41.620771 -0.473795 2.071830 0.014776 -0.008424 -1163080.000000 0 0 1
33.347281 -17.497032 -19.300793 42.316757 -0.483205 2.044407 0.011774 0.003534 195779.000000 0 0 1
34.639581 -17.912632 -20.088193 43.866826 -0.477245 2.046468 0.016797 -0.014073 431087.000000 0 0 1
35.490961 -16.830032 -20.360893 44.242788 -0.442800 2.049026 0.028132 -0.015890 -143028.000000 0 0 1
36.304121 -17.164632 -21.463393 45.533406 -0.441653 2.061648 0.046781 -0.019865 206322.000000 0 0 1
-36.092767 -15.963932 -21.865693 45.118106 0.416435 2.076739 0.071650 -0.030256 658157.000000 0 0 1
-35.052169 -15.665832 -20.920193 43.723303 0.420297 2.069705 0.077578 -0.028289 629202.000000 0 0 1
-34.388594 -14.411432 -21.209093 42.896275 0.396842 2.087972 0.083382 -0.030301 -401882.000000 0 0 1
-33.110547 -14.085932 -20.393893 41.359795 0.402227 2.086429 0.084411 -0.032589 -109003.000000 0 0 1
-32.039177 -14.916332 -20.712693 40.963660 0.435722 2.100915 0.089811 -0.034557 -542213.000000 0 0 1
-32.075147 -16.211732 -20.151293 41.203276 0.467982 2.081820 0.078073 -0.038154 -600385.000000 0 0 1
-30.932067 -17.244532 -20.355793 40.847582 0.508581 2.092474 0.062451 -0.045635 192569.000000 0 0 1
-31.215647 -18.406932 -19.547793 41.174603 0.532789 2.065480 0.055422 -0.046354 207905.000000 0 0 1
-30.191077 -19.386032 -19.646193 40.905895 0.570810 2.071768 0.059988 -0.047480 -2982.770000 0 0 1
-30.538817 -20.761832 -19.014093 41.535632 0.597074 2.046290 0.044780 -0.014869 -327790.000000 0 0 1
-31.386327 -21.519532 -19.852393 42.922130 0.601019 2.051633 0.032147 -0.012006 1194.950000 0 0 1
-31.458157 -22.817232 -19.314693 43.396994 0.627518 2.032049 0.021096 0.007433 -127694.000000 0 0 1
-32.445277 -23.675432 -20.099393 44.913335 0.630384 2.034781 0.009186 0.008473 -133749.000000 0 0 1
-31.955397 -23.960832 -21.375293 45.300905 0.643387 2.062186 0.007238 0.005190 249551.000000 0 0 1
-32.848117 -24.875432 -21.991993 46.705820 0.648148 2.061064 0.006367 0.010945 64134.400000 0 0 1
-32.636627 -25.102822 -23.501493 47.409084 0.655652 2.089457 0.008275 0.011595 1135740.000000 0 0 1
-31.288407 -25.574032 -23.799893 46.898085 0.685240 2.103055 0.023980 0.013435 1027550.000000 0 0 1
-31.081727 -25.908082 -25.143573 47.639288 0.694864 2.126794 0.024787 0.014917 211367.000000 0 0 1
-29.651177 -26.293212 -25.605513 47.182280 0.725447 2.144437 0.036058 0.005646 -122869.000000 0 0 1
-28.837317 -25.231162 -25.913653 46.257105 0.718801 2.165435 0.040938 0.000769 -1018950.000000 0 0 1
-27.534277 -25.682132 -26.163123 45.849943 0.750608 2.178063 0.039024 0.003412 -51573.700000 0 0 1
-26.546737 -24.491932 -26.337923 44.702015 0.745160 2.200851 0.045795 -0.000086 -210372.000000 0 0 1
-26.625907 -23.774232 -27.546343 45.088291 0.728878 2.228047 0.040354 -0.002855 503185.000000 0 0 1
-25.602327 -22.766632 -27.756143 44.093108 0.726839 2.251692 0.059318 -0.014322 655728.000000 0 0 1
-25.611877 -22.312732 -29.218183 44.805451 0.716666 2.281164 0.033914 -0.012519 95761.300000 0 0 1
-24.846407 -23.249432 -29.975783 45.347851 0.752206 2.292972 0.040023 -0.008571 366639.000000 0 0 1
-24.685407 -22.770332 -31.321693 45.922824 0.745065 2.321359 0.036846 -0.007921 177136.000000 0 0 1
-24.005507 -23.722432 -32.409613 46.791037 0.779467 2.335947 0.035562 -0.012264 155543.000000 0 0 1
-24.915007 -24.717132 -32.784523 48.026234 0.781411 2.322163 0.023475 -0.010965 -190890.000000 0 0 1
-24.430407 -25.610172 -33.770593 48.920125 0.808970 2.332729 0.028665 -0.002372 24239.500000 0 0 1
-20.098207 -13.920632 -11.626893 27.072247 0.605763 2.014709 0.048058 0.011778 -295423.000000 0 0 1
-20.632407 -13.954732 -10.364993 26.978952 0.594677 1.965125 0.053137 0.006291 -213922.000000 0 0 1
-19.693807 -14.248332 -9.363293 26.048652 0.626320 1.938479 0.053089 -0.004659 -375395.000000 0 0 1
-20.090507 -13.771232 -7.952193 25.622503 0.600901 1.886368 0.077903 -0.025621 -333494.000000 0 0 1
-21.189207 -14.456132 -7.401993 26.697411 0.598707 1.851732 0.093213 -0.020730 215608.000000 0 0 1
-21.375907 -13.979432 -6.143493 26.269686 0.579169 1.806845 0.093291 -0.030849 284641.000000 0 0 1
-22.573207 -14.747932 -5.474693 27.514059 0.578718 1.771111 0.098427 -0.023057 121878.000000 0 0 1
-22.303707 -16.039332 -5.013693 27.925842 0.623452 1.751311 0.077937 -0.030571 332999.000000 0 0 1
-21.994807 -16.078132 -3.657893 27.489235 0.631228 1.704259 0.096464 -0.031578 -201186.000000 0 0 1
-21.844507 -17.538132 -3.097793 28.184480 0.676484 1.680930 0.073251 -0.017510 -265038.000000 0 0 1
-23.047907 -18.205632 -2.859993 29.509839 0.668554 1.667865 0.059400 -0.017829 -176945.000000 0 0 1
-22.787307 -19.357932 -2.068193 29.971125 0.704207 1.639857 0.043028 -0.008971 21404.800000 0 0 1
-24.004007 -20.292932 -1.900493 31.489797 0.701816 1.631186 0.026265 -0.024043 40056.300000 0 0 1
-24.113307 -21.140532 -3.079793 32.215816 0.719801 1.666541 0.021014 -0.028450 567424.000000 0 0 1
-25.256297 -22.016232 -3.062493 33.644819 0.716965 1.661947 0.027806 -0.023809 586458.000000 0 0 1
-25.176437 -23.168432 -4.139193 34.463925 0.743887 1.691189 0.028223 -0.017320 -57425.200000 0 0 1
-24.135307 -24.106832 -3.790793 34.322332 0.784808 1.681469 0.032427 -0.010851 268562.000000 0 0 1
-23.800407 -24.863332 -4.949493 34.772721 0.807237 1.713620 0.041836 -0.013934 206339.000000 0 0 1
-22.431807 -24.522532 -5.578593 33.699573 0.829896 1.737101 0.036106 -0.006584 5126.260000 0 0 1
-22.349507 -23.232832 -6.206893 32.829719 0.804774 1.761004 0.024307 -0.001389 331465.000000 0 0 1
-21.654107 -22.262632 -5.368493 31.517390 0.799254 1.741965 0.015841 -0.006300 14855.900000 0 0 1
-21.700007 -20.802032 -5.794493 30.613575 0.764273 1.761224 0.026741 0.005577 93933.600000 0 0 1
-20.657307 -20.324732 -6.648793 29.732567 0.777283 1.796323 0.023035 0.006957 183767.000000 0 0 1
-20.787307 -19.022432 -7.132393 29.066064 0.741094 1.818714 0.022918 0.014610 -178203.000000 0 0 1
-19.535207 -18.703032 -7.942793 28.187154 0.763639 1.856453 0.042573 0.008894 -285429.000000 0 0 1
-19.499507 -19.391932 -9.204493 29.000008 0.782632 1.893779 0.022865 0.006190 -54725.100000 0 0 1
-18.258207 -19.441132 -9.884293 28.443259 0.816766 1.925710 0.080213 0.003923 -282127.000000 0 0 1
-17.826007 -18.155232 -10.736593 27.616180 0.794548 1.970102 0.088483 0.004803 385070.000000 0 0 1
-17.233307 -17.131032 -9.896893 26.237523 0.782422 1.957571 0.098813 -0.006349 269759.000000 0 0 1
-16.082807 -17.425032 -9.135193 25.411418 0.825434 1.938519 0.118221 -0.013431 -515054.000000 0 0 1
-15.585307 -16.246032 -8.221693 23.967302 0.806152 1.920945 0.104580 -0.014498 69963.500000 0 1 0
-16.522207 -16.069932 -7.198993 24.146460 0.771522 1.873538 0.094645 -0.013281 -69521.000000 0 1 0
-16.565707 -14.774132 -6.633293 23.166748 0.728294 1.861189 0.100389 -0.017004 254663.000000 0 1 0
-17.430507 -14.938532 -5.329393 23.566602 0.708563 1.798911 0.112318 -0.029338 257972.000000 0 1 0
-17.773507 -13.753032 -4.555593 22.930261 0.658556 1.770799 0.108038 -0.030516 356117.000000 0 1 0
-18.104607 -14.196232 -3.256393 23.236047 0.664984 1.711403 0.093435 -0.022683 -237422.000000 0 1 0
-19.013407 -13.294932 -2.416293 23.326023 0.610216 1.674570 0.104032 -0.024696 -816160.000000 0 1 0
-20.301007 -13.194532 -2.915693 24.387042 0.576336 1.690642 0.117155 -0.034826 -390387.000000 0 1 0
-21.119807 -12.436632 -2.050893 24.595167 0.532189 1.654279 0.119948 -0.024351 -777279.000000 0 1 0
-22.550407 -12.323132 -2.542493 25.823337 0.500129 1.669413 0.095751 -0.020046 -767285.000000 0 0 1
-22.838807 -11.476632 -3.604193 25.813066 0.465650 1.710881 0.102300 -0.033563 751258.000000 0 0 1
-24.243607 -11.488032 -3.870093 27.105442 0.442516 1.714065 0.084664 -0.028771 580237.000000 0 0 1
-24.682107 -10.777332 -5.164593 27.423171 0.411693 1.760257 0.095302 -0.033192 30369.700000 0 0 1
-24.274907 -11.500232 -6.338593 27.598989 0.442428 1.802532 0.098211 -0.035981 547194.000000 0 0 1
-25.076937 -11.056032 -7.434693 28.396536 0.415248 1.835701 0.107845 -0.035665 -64883.400000 0 0 1
-24.533007 -11.407232 -8.827093 28.458934 0.435237 1.886168 0.125226 -0.039636 -696356.000000 0 0 1
-23.411407 -10.636832 -9.061893 27.264521 0.426460 1.909611 0.111824 -0.039231 -990140.000000 0 0 1
-22.494307 -11.180732 -9.930193 27.011319 0.461283 1.947256 0.076745 -0.029526 -229689.000000 0 0 1
-21.097307 -10.495532 -9.846693 25.538401 0.461631 1.966616 0.076377 -0.038803 52500.400000 0 0 1
-21.075307 -9.115932 -10.145193 25.103660 0.408240 1.986826 0.070150 -0.046725 890873.000000 0 0 1
-19.854507 -8.437132 -9.787893 23.689438 0.401827 1.996735 0.076365 -0.041081 501742.000000 0 1 0
-19.748207 -7.076032 -10.513793 23.464905 0.344061 2.035396 0.077553 -0.046207 -231260.000000 0 1 0
-19.291607 -7.288832 -11.833193 23.776409 0.361244 2.091726 0.084375 -0.037165 367790.000000 0 1 0
-19.163607 -6.008732 -12.362993 23.583729 0.303840 2.122592 0.088711 -0.052275 125372.000000 0 1 0
-18.423807 -5.941432 -13.776793 23.759994 0.311957 2.189318 0.099833 -0.041115 255722.000000 0 1 0
-19.193507 -6.543532 -14.801593 25.105690 0.328567 2.201324 0.103081 -0.045040 340355.000000 0 0 1
-18.743507 -6.214732 -16.080493 25.466138 0.320160 2.254213 0.112125 -0.044939 -208744.000000 0 0 1
-19.311807 -7.158532 -17.160393 26.808013 0.354979 2.265453 0.106126 -0.039228 -349115.000000 0 0 1
-20.632007 -7.022532 -17.601493 28.014429 0.328071 2.250164 0.099226 -0.044731 -100875.000000 0 0 1
-20.916707 -7.880532 -18.646693 29.108600 0.360311 2.266063 0.109884 -0.044793 199000.000000 0 0 1
-22.377007 -7.692732 -19.162693 30.448602 0.331121 2.251507 0.091655 -0.038745 -241469.000000 0 0 1
-22.642607 -6.619232 -20.007093 30.931952 0.284410 2.274190 0.094991 -0.037502 604745.000000 0 0 1
-23.893207 -6.628532 -20.687693 32.292467 0.270618 2.266122 0.072111 -0.035740 675195.000000 0 0 1
-25.186807 -6.304832 -19.902793 32.714635 0.245282 2.224809 0.077996 -0.032738 -309610.000000 0 0 1
-25.318487 -4.932832 -19.581793 32.385263 0.192421 2.220124 0.075577 -0.029779 79818.800000 0 0 1
-26.384867 -4.682632 -18.698993 32.676300 0.175645 2.180042 0.092054 -0.022276 -430136.000000 0 0 1
-26.345097 -3.178632 -18.086593 32.113746 0.120073 2.169055 0.069818 -0.018167 38418.200000 0 0 1
-26.758897 -2.051532 -18.898093 32.823547 0.076518 2.184315 0.079088 -0.014296 1351020.000000 0 0 1
-28.101487 -2.136132 -19.443093 34.238728 0.075869 2.174710 0.083710 -0.010894 956468.000000 0 0 1
-28.521037 -0.872432 -20.257893 34.994184 0.030580 2.188167 0.076511 -0.005814 -113490.000000 0 0 1
-27.922227 -0.725232 -21.536093 35.270101 0.025967 2.227620 0.079359 -0.007825 27818.000000 0 0 1
-28.326597 -1.717832 -22.490793 36.210258 0.060570 2.240963 0.087180 -0.003987 -339076.000000 0 0 1
-27.708267 -1.756732 -23.894193 36.630133 0.063316 2.281424 0.085376 -0.008296 -1053530.000000 0 0 1
-27.890387 -0.625832 -24.739093 37.286567 0.022435 2.296264 0.083993 -0.005204 62332.600000 0 0 1
-27.323737 0.617868 -24.353693 36.606976 -0.022609 2.298658 0.077545 0.006147 -386629.000000 0 0 1
-25.838797 0.570068 -23.981293 35.257209 -0.022059 2.318806 0.078582 0.004574 -749406.000000 0 0 1
-24.986107 0.406768 -25.112073 35.427210 -0.016278 2.358643 0.070914 0.001341 1057620.000000 0 0 1
-23.594907 0.304468 -24.727193 34.179620 -0.012903 2.379581 0.058434 -0.001226 1117210.000000 0 0 1
-22.611607 -0.142332 -25.815713 34.318451 0.006295 2.422252 0.052057 -0.002709 -177455.000000 0 0 1
-22.414107 0.822168 -26.768593 34.923140 -0.036664 2.444170 0.027347 0.007906 130599.000000 0 0 1
-21.792207 0.207468 -27.894263 35.398209 -0.009520 2.478372 0.021351 0.003339 -27410.200000 0 0 1
-21.539607 1.198668 -29.065513 36.196623 -0.055592 2.503091 0.013215 0.017126 -326189.000000 0 0 1
-20.514207 2.132568 -28.775843 35.403809 -0.103584 2.519721 0.019158 0.015157 324913.000000 0 0 1
-20.298807 3.103068 -29.770233 36.165417 -0.151695 2.537765 0.008867 0.009869 -73788.100000 0 0 1
-19.759607 2.665368 -31.148713 36.983626 -0.134080 2.572202 0.000545 0.008948 -723814.000000 0 0 1
-18.394307 2.372268 -31.080073 36.193219 -0.128260 2.603575 -0.016076 0.015873 -491470.000000 0 0 1
-17.895107 2.014268 -32.349643 37.024202 -0.112088 2.633642 -0.021319 0.012428 256432.000000 0 0 1
-16.351307 1.880368 -32.386073 36.328484 -0.114495 2.671395 -0.007403 0.000205 -238324.000000 0 0 1
-15.678907 3.052668 -32.233293 35.974047 -0.192293 2.681509 -0.001088 0.000600 235646.000000 0 0 1
-14.370907 2.927968 -32.825843 35.953191 -0.200992 2.721414 0.007291 -0.003791 511652.000000 0 0 1
-13.720207 4.295768 -33.009083 36.004128 -0.303429 2.730823 0.016517 0.001704 -583864.000000 0 0 1
-13.441807 5.040368 -31.818723 34.907286 -0.358750 2.717764 0.041223 -0.015506 -22745.400000 0 0 1
-13.056707 6.304768 -32.240513 35.350790 -0.449855 2.718971 0.049917 -0.002872 -571068.000000 0 0 1
-12.704007 7.240768 -31.088033 34.355295 -0.518038 2.701936 0.052854 -0.012405 110883.000000 0 0 1
-11.452207 6.897568 -30.498093 33.299597 -0.542103 2.728465 0.086149 -0.029130 721672.000000 0 0 1
-11.637007 5.777368 -29.626753 32.350307 -0.460816 2.728318 0.082993 -0.030500 287024.000000 0 0 1
-10.275807 4.980568 -29.533833 31.664579 -0.451324 2.772649 0.114174 -0.045643 575562.000000 0 0 1
-9.888307 4.275868 -30.711983 32.546698 -0.408136 2.804222 0.100783 -0.036465 74972.800000 0 0 1
-10.495307 3.035068 -30.899753 32.774347 -0.281504 2.801738 0.102482 -0.033091 -362338.000000 0 0 1
-10.245107 2.418568 -32.296523 33.968766 -0.231826 2.826511 0.091105 -0.034598 -341854.000000 0 0 1
-10.771207 1.143668 -32.461753 34.221225 -0.105782 2.819532 0.088903 -0.030654 63631.600000 0 0 1
-10.531807 0.517668 -33.729623 35.339417 -0.049113 2.838599 0.081732 -0.018022 -461601.000000 0 0 1
-11.017707 1.240968 33.210969 35.012831 -0.112161 0.322213 0.076966 -0.014701 -107424.000000 0 0 1
-12.419407 1.206668 33.087989 35.362590 -0.096856 0.360621 0.024651 -0.013950 -288541.000000 0 0 1
-12.792007 1.187968 31.758113 34.258203 -0.092602 0.384404 0.014155 -0.010345 -674942.000000 0 0 1
-14.281807 1.124968 31.452423 34.561402 -0.078607 0.427404 0.013282 -0.002467 -768896.000000 0 0 1
-14.992207 2.253968 31.805573 35.234091 -0.149225 0.444808 0.005177 0.008099 -213988.000000 0 0 1
-16.348907 2.039168 31.461653 35.514513 -0.124087 0.482405 0.006826 0.009808 77445.700000 0 0 1
-17.153907 3.343868 31.260953 35.814595 -0.192519 0.509773 0.009568 0.007610 -463233.000000 0 0 1
-17.572907 4.015368 32.441291 37.112904 -0.224641 0.507166 -0.002803 0.007492 420314.000000 0 0 1
-16.632907 4.883768 33.086180 37.352378 -0.285594 0.482613 -0.000135 0.011734 -400284.000000 0 0 1
-17.197107 5.545568 -33.868083 38.386727 -0.311943 2.651494 0.002953 0.011238 -377480.000000 0 0 1
-18.399907 6.236568 -34.096924 39.243491 -0.326793 2.623682 0.004785 0.008330 -140670.000000 0 0 1
-19.421407 5.596268 -33.341573 38.989354 -0.280550 2.596628 -0.000786 0.010965 384835.000000 0 0 1
-20.814607 6.320368 -33.365623 39.830387 -0.294803 2.563841 0.009534 0.007427 346624.000000 0 0 1
-20.900807 7.613268 -32.872353 39.691273 -0.349319 2.546686 0.018606 0.004990 -58975.700000 0 0 1
-20.563007 8.557468 -33.887933 40.551936 -0.394358 2.560143 0.010125 0.003463 -251402.000000 0 0 1
-20.443207 9.971468 -33.247633 40.283495 -0.453811 2.541603 0.035293 0.002942 153565.000000 0 0 1
-19.248907 10.217168 -32.471533 39.106411 -0.487977 2.550510 0.040563 -0.002544 887806.000000 0 0 1
-19.013007 11.596468 -32.225283 39.171946 -0.547684 2.536874 0.065773 -0.004582 -14439.000000 0 0 1
-18.366807 12.329868 -33.419093 40.077438 -0.591212 2.556866 0.043986 -0.007088 -2674.800000 0 0 1
-19.221607 12.313368 33.652938 40.664597 -0.569739 0.596025 0.051284 -0.012956 475242.000000 0 0 1
-18.480607 12.493168 32.467212 39.392029 -0.594447 0.601995 0.052691 -0.014460 237596.000000 0 0 1
-19.194507 11.804568 31.262093 38.536936 -0.551374 0.624554 0.054413 -0.012614 148094.000000 0 0 1
-19.306007 10.381368 31.385573 38.282489 -0.493372 0.609662 0.030885 -0.005968 1104900.000000 0 0 1
-18.066607 9.676468 31.117283 37.260189 -0.491720 0.582418 0.033752 -0.004433 1063200.000000 0 0 1
-18.335107 8.131168 31.086313 36.995283 -0.417415 0.573001 0.032592 -0.005447 775752.000000 0 0 1
-19.154407 7.646868 29.965403 36.377071 -0.379836 0.602813 0.032944 -0.001012 815850.000000 0 0 1
-19.054007 6.214968 29.946933 36.034703 -0.315296 0.589789 0.027504 -0.000411 81578.200000 0 0 1
-19.806607 5.661068 28.700863 35.328302 -0.278395 0.622533 0.038958 -0.009135 1079050.000000 0 0 1
-21.241407 5.753368 28.683233 36.152822 -0.264510 0.654441 0.066690 -0.018680 441670.000000 0 0 1
-21.733807 4.888568 27.757903 35.591539 -0.221247 0.676288 0.069684 -0.019687 -641799.000000 0 0 1
-23.262907 4.981368 27.731633 36.537931 -0.210948 0.709048 0.069398 -0.012637 -546946.000000 0 0 1
-23.676007 5.632168 26.552623 36.018279 -0.233544 0.741882 0.075332 -0.021994 340546.000000 0 0 1
-25.004607 6.140668 26.630153 37.041912 -0.240816 0.768550 0.077557 -0.016645 -21408.000000 0 0 1
-25.421277 6.933368 25.392203 36.593400 -0.266263 0.803904 0.072948 -0.013010 -156703.000000 0 0 1
-25.528957 6.202668 24.177133 35.703425 -0.238348 0.826892 0.060937 -0.010189 241583.000000 0 0 1
-26.688257 5.410168 24.086603 36.355157 -0.200007 0.846597 0.048105 0.000654 -371998.000000 0 0 1
-26.675497 4.477968 22.849153 35.407883 -0.166318 0.869364 0.054953 -0.010708 -33412.600000 0 0 1
-27.141147 5.075968 21.675253 35.103047 -0.184885 0.905268 0.058759 -0.015595 14155.700000 0 0 1
-26.914507 4.255768 20.585353 34.150535 -0.156823 0.923812 0.064188 -0.014381 -249276.000000 0 0 1
-27.516797 4.815068 19.285053 33.945137 -0.173233 0.966572 0.108002 -0.026798 -880445.000000 0 0 1
-28.900937 4.735968 19.325053 35.087765 -0.162425 0.987518 0.115909 -0.027291 -772526.000000 0 0 1
-29.467137 5.221468 18.108753 34.978606 -0.175376 1.026625 0.114227 -0.031700 440530.000000 0 0 1
-31.016927 5.310068 18.118253 36.311399 -0.169555 1.048388 0.124697 -0.036150 105511.000000 0 0 1
-31.615087 6.363168 18.813453 37.335636 -0.198616 1.042688 0.127072 -0.023700 305936.000000 0 0 1
-33.032157 6.229368 18.848553 38.538246 -0.186396 1.059754 0.143443 -0.032601 492279.000000 0 0 1
-33.720917 7.292468 19.725153 39.741188 -0.212980 1.051418 0.151664 -0.028388 -137459.000000 0 0 1
-33.394727 7.120368 21.092953 40.135024 -0.210073 1.017435 0.107968 -0.031912 -63638.900000 0 0 1
-34.094810 8.055568 21.874153 41.301657 -0.232015 1.012645 0.125489 -0.039192 146502.000000 0 0 1
-0.318807 32.794768 11.572207 34.778074 -1.561075 1.231584 0.066089 -0.012108 -755279.000000 0 0 1
-0.318307 32.763768 12.965607 35.237378 -1.561081 1.193993 0.048746 -0.006465 125791.000000 0 0 1
0.033793 33.991568 13.587207 36.606558 1.569802 1.190529 0.047965 -0.012431 -318863.000000 0 0 1
0.067893 34.015368 15.118307 37.223824 1.568800 1.152564 0.042775 -0.002404 506545.000000 0 0 1
-1.210107 33.926668 15.769207 37.431953 -1.535143 1.135944 0.027692 0.011243 377237.000000 0 0 1
-1.164707 -33.859029 17.099707 37.949840 1.536411 1.103373 0.018827 -0.003861 7130.300000 0 0 1
-2.504107 -33.547629 17.797407 38.058661 1.496291 1.084188 0.020805 0.003549 -6056.920000 0 0 1
-3.279207 33.557868 18.179907 38.306563 -1.473388 1.076298 0.006575 0.005353 226710.000000 0 0 1
-4.053607 33.847268 19.343307 39.194806 -1.451602 1.054667 0.007541 0.000811 -228087.000000 0 0 1
-5.042607 32.737768 19.644807 38.511139 -1.417967 1.035487 0.008721 -0.008208 -610029.000000 0 0 1
-6.073107 32.677368 18.719507 38.145943 -1.387042 1.057864 0.013415 -0.009852 532801.000000 0 0 1
-7.205007 31.853768 19.136807 37.852240 -1.348349 1.040758 0.017252 -0.022329 907473.000000 0 0 1
-8.267307 31.737668 18.026707 37.424459 -1.315970 1.068223 0.010195 -0.020574 -415841.000000 0 0 1
-8.998707 32.919768 17.798507 38.489930 -1.303962 1.090074 0.025478 -0.016860 -327541.000000 0 0 1
-9.706507 32.852368 16.585007 38.059911 -1.283511 1.119913 0.038942 -0.008689 -41664.100000 0 0 1
-10.655507 34.069268 16.481007 39.317661 -1.267675 1.138259 0.084726 -0.020566 123546.000000 0 0 1
-11.726107 34.046568 17.436507 40.008776 -1.239107 1.119850 0.085733 -0.020017 -34239.200000 0 0 1
-12.498907 -33.100029 17.042007 39.271677 1.209739 1.121922 0.069938 -0.025127 177662.000000 0 0 1
-13.914907 -33.014629 17.731307 39.974863 1.171913 1.111228 0.101787 -0.024280 772992.000000 0 0 1
-13.883407 -32.812329 19.132007 40.440470 1.170523 1.078001 0.082983 -0.013367 -260369.000000 0 0 1
-15.116407 -33.107829 19.737307 41.402843 1.142483 1.073884 0.071374 -0.021431 36430.200000 0 0 1
-15.158307 -32.616129 21.239307 41.769538 1.135745 1.037368 0.068716 -0.025578 -57173.000000 0 0 1
-15.327007 -31.222829 21.320807 40.796557 1.114462 1.020883 0.097565 -0.027180 -9544.780000 0 0 1
-15.295207 -30.738029 22.622807 41.116435 1.109071 0.988177 0.064344 -0.027061 -62169.600000 0 0 1
-15.309307 -29.205529 22.673007 40.017535 1.087983 0.968451 0.077756 -0.033938 -176594.000000 0 0 1
-15.282707 -28.677229 24.033107 40.417012 1.081160 0.933993 0.065026 -0.023092 -168820.000000 0 0 1
-15.418207 -27.269129 24.223707 39.599426 1.056200 0.912565 0.055714 -0.030995 -193282.000000 0 0 1
-16.816207 -26.679529 23.947607 39.598864 1.008392 0.921338 0.076089 -0.022762 -428585.000000 0 0 1
-17.723007 -27.039329 24.969307 40.849683 0.990597 0.913159 0.079737 -0.016157 3768.650000 0 0 1
-18.829907 -26.147629 24.808807 40.666213 0.946682 0.914661 0.077001 -0.015416 -325474.000000 0 0 1
-19.867807 -26.231029 25.994007 41.934295 0.922566 0.902213 0.064367 -0.007913 737730.000000 0 0 1
-20.709507 -27.411629 26.076707 43.130914 0.923784 0.921540 0.066532 -0.008143 783456.000000 0 0 1
-21.401007 -27.883229 24.897607 43.073988 0.916175 0.954497 0.073444 -0.010603 -253567.000000 0 0 1
-22.718107 -27.128429 24.580907 43.084627 0.873646 0.963650 0.060412 -0.004428 -450671.000000 0 0 1
-22.583807 -25.813429 24.148207 41.946363 0.852031 0.957345 0.065061 -0.008744 -70727.300000 0 0 1
-23.779407 -25.459929 23.498107 42.021771 0.819515 0.977389 0.052843 -0.002403 -213198.000000 0 0 1
-23.960307 -23.930229 23.310307 41.111101 0.784770 0.967928 0.045885 0.006381 -93076.800000 0 0 1
-24.354907 -23.186429 24.457207 41.580368 0.760825 0.941976 0.042743 0.006521 57156.600000 0 0 1
-24.883607 -21.962429 24.032507 40.976867 0.723122 0.944078 0.039228 0.004969 -92999.500000 0 0 1
-25.549217 -21.226129 25.212107 41.700856 0.693238 0.921540 0.033405 0.011156 -678960.000000 0 0 1
-26.743977 -21.762029 25.646707 42.971849 0.683049 0.931257 0.020157 0.016716 -604561.000000 0 0 1
-27.246447 -20.985229 26.727107 43.555562 0.656305 0.910143 0.015134 0.013566 117448.000000 0 0 1
-28.346297 -21.682429 27.668207 45.157170 0.652977 0.911312 0.023560 0.005836 1021690.000000 0 0 1
-29.724917 -21.577529 27.398007 45.823698 0.627903 0.929917 0.031300 0.003653 302471.000000 0 0 1
-30.046157 -22.220529 26.170507 45.622571 0.636777 0.959865 0.018337 0.005573 -1424950.000000 0 0 1
-31.541087 -22.465129 25.974107 46.628065 0.618900 0.979968 0.042042 0.001842 -462898.000000 0 0 1
-31.911257 -23.110629 24.781207 46.546082 0.626794 1.009361 0.029097 -0.009768 91660.500000 0 0 1
-31.740247 -24.547429 24.810807 47.176220 0.658300 1.017003 0.028826 -0.003777 -527006.000000 0 0 1
-32.292757 -25.174029 23.501807 47.211110 0.662151 1.049733 0.029021 -0.002214 -219277.000000 0 0 1
-33.672387 -25.462329 23.502807 48.317097 0.647444 1.062799 0.047484 -0.010585 -240869.000000 0 0 1
-34.005607 -25.893029 22.207407 48.166370 0.650779 1.091611 0.048246 -0.004169 -275448.000000 0 0 1
-35.419596 -26.468829 22.051507 49.410684 0.641767 1.108181 0.046374 -0.006459 -439198.000000 0 0 1
-35.676678 -27.710529 22.708007 50.560384 0.660379 1.105009 0.045582 -0.008018 559044.000000 0 0 1
-34.889809 -28.852529 22.245207 50.444192 0.690966 1.114099 0.040924 -0.009331 408785.000000 0 0 1
-35.648195 -29.794229 21.222807 51.077368 0.696183 1.142300 0.046532 -0.002642 -250476.000000 0 0 1
-35.560819 -29.319829 19.855407 50.184275 0.689501 1.164021 0.024118 0.005024 315173.000000 0 0 1
-35.811556 -30.393829 19.018307 50.674929 0.703748 1.186076 0.019104 0.012240 -735329.000000 0 0 1
-36.170097 -30.006329 17.601307 50.184278 0.692525 1.212442 0.016857 0.021892 -519901.000000 0 0 1
-35.122099 -29.809329 16.661207 48.987282 0.703759 1.223759 0.042645 0.014026 -51934.400000 0 0 1
-35.528152 -29.159229 15.465607 48.494281 0.687258 1.246211 0.031462 0.013917 217252.000000 0 0 1
-36.216067 -30.054629 14.374307 49.208790 0.692691 1.274366 0.032227 0.011315 577932.000000 0 0 1
-35.295028 -30.954329 13.778607 48.926062 0.719971 1.285313 0.032966 0.000992 28514.100000 0 0 1
-35.936217 -31.780929 12.847907 49.663950 0.724113 1.309123 0.025371 0.005442 79232.500000 0 0 1
-36.103167 -31.148129 11.429807 49.033510 0.711852 1.335530 0.035300 0.000053 -147690.000000 0 0 1
36.321011 -30.107429 11.356507 48.524668 -0.692132 1.334570 0.026807 -0.002288 -361156.000000 0 0 1
36.386821 -29.382129 10.189107 47.865731 -0.679294 1.356286 0.018322 -0.006022 332268.000000 0 0 1
35.082001 -28.608429 9.814407 46.319668 -0.684105 1.357294 0.044732 -0.002466 298417.000000 0 0 1
35.356641 -27.459429 9.083107 45.679483 -0.660335 1.370618 0.038389 -0.036038 119527.000000 0 0 1
34.189801 -26.749229 8.703907 44.274392 -0.663901 1.372917 0.029651 -0.030768 -69109.100000 0 0 1
34.395431 -25.651629 7.690807 43.591287 -0.640799 1.393438 0.027573 -0.024233 68679.900000 0 0 1
35.084901 -24.505729 8.193507 43.573095 -0.609698 1.381630 0.036290 -0.026781 253462.000000 0 0 1
35.468471 -23.622029 7.093807 43.201097 -0.587541 1.405845 0.039892 -0.032990 -63306.400000 0 0 1
36.061431 -22.246129 7.488307 43.027803 -0.552750 1.395871 0.054076 -0.040707 -214723.000000 0 0 1
35.236341 -21.559629 8.391907 42.152597 -0.549093 1.370373 0.044874 -0.024621 -267069.000000 0 0 1
35.377301 -20.149429 8.154307 41.521629 -0.517735 1.373125 0.061310 -0.027146 269379.000000 0 0 1
34.576831 -19.289129 9.172907 40.641973 -0.508860 1.343134 0.064573 -0.011309 270431.000000 0 0 1
35.125231 -19.414129 10.460407 41.474214 -0.504923 1.315828 0.054111 -0.021979 -41533.900000 0 0 1
34.397861 -18.576929 11.336007 40.704057 -0.495180 1.288566 0.069699 -0.008216 113080.000000 0 0 1
34.820801 -18.816929 12.827407 41.606579 -0.495438 1.257388 0.065068 -0.027325 460969.000000 0 0 1
35.960501 -17.983929 13.079307 42.280582 -0.463729 1.256292 0.041694 -0.013888 378400.000000 0 0 1
36.395531 -18.239029 14.397307 43.180775 -0.464554 1.230868 0.039392 -0.005948 -589472.000000 0 0 1
-35.709637 -17.433529 14.783307 42.398730 0.454165 1.214641 0.068676 -0.011437 243997.000000 0 0 1
-34.520723 -17.876129 14.119707 41.359430 0.477816 1.222401 0.052909 -0.009419 844918.000000 0 0 1
-33.345397 -17.377229 14.777507 40.401217 0.480407 1.196338 0.034672 -0.012991 415176.000000 0 0 1
-32.060597 -17.422429 13.945307 39.062700 0.497779 1.205744 0.055563 -0.015440 -453773.000000 0 0 1
-31.583847 -18.709129 13.721307 39.189861 0.534786 1.213093 0.045125 -0.015092 -429475.000000 0 0 1
-30.395267 -18.572829 12.998607 37.918149 0.548500 1.220893 0.022916 -0.015250 -344803.000000 0 0 1
-29.731907 -19.862029 12.394807 37.843332 0.588951 1.237109 0.013920 -0.017179 12632.700000 0 0 1
-30.580147 -20.619529 11.563307 38.652561 0.593254 1.266984 0.022794 -0.013817 -403339.000000 0 0 1
-29.830207 -21.512829 10.755907 38.318829 0.624797 1.286278 0.032840 -0.014667 387419.000000 0 0 1
-30.702587 -22.428029 9.823507 39.270430 0.630899 1.317961 0.038993 -0.018354 547585.000000 0 0 1
-31.354127 -23.578429 10.410907 40.588306 0.644782 1.311397 0.043119 -0.012885 -78986.300000 0 0 1
-32.723737 -23.361829 10.630207 41.588693 0.620001 1.312325 0.046927 -0.023490 -527470.000000 0 0 1
-33.547797 -24.646929 10.507607 42.934085 0.633625 1.323547 0.062352 -0.023097 -330110.000000 0 0 1
-33.481767 -25.316129 9.279907 42.988973 0.647404 1.353216 0.068037 -0.021059 -332245.000000 0 0 1
-34.345536 -26.419529 9.226907 44.302858 0.655694 1.360992 0.075734 -0.014918 83872.900000 0 0 1
-34.351952 -27.098729 7.827607 44.448500 0.667909 1.393768 0.066862 -0.017995 253134.000000 0 0 1
-33.095137 -27.640929 7.483707 43.764311 0.695837 1.398952 0.066305 -0.017516 -214069.000000 0 0 1
-33.201187 -28.337029 6.242507 44.093933 0.706519 1.428746 0.063502 -0.021004 48487.100000 0 0 1
-31.863357 -28.680329 5.544007 43.226969 0.732872 1.442189 0.080668 -0.014745 -71960.600000 0 0 1
-31.201207 -27.616929 4.949907 41.960835 0.724535 1.452556 0.091339 -0.012486 -627142.000000 0 0 1
-29.981817 -28.122129 4.464907 41.348506 0.753403 1.462603 0.078178 -0.014680 129768.000000 0 0 1
-29.060187 -27.013229 3.836007 39.861309 0.748909 1.474413 0.077907 -0.013961 160885.000000 0 0 1
-29.412767 -26.554829 2.558007 39.709108 0.734378 1.506333 0.090529 -0.009738 -200509.000000 0 0 1
-28.600237 -25.489829 2.060407 38.366004 0.727957 1.517066 0.066983 -0.015898 44718.200000 0 0 1
-29.063547 -24.837429 0.709207 38.237294 0.707153 1.552248 0.071380 -0.015947 -232812.000000 0 0 1
-28.883247 -25.659629 -0.392093 38.636929 0.726364 1.580945 0.068513 -0.017634 -187758.000000 0 0 1
-29.127197 -24.976529 -1.614893 38.403496 0.708831 1.612859 0.069792 -0.021951 282232.000000 0 0 1
-30.619337 -24.769229 -2.000793 39.434271 0.680169 1.621556 0.093772 -0.020451 203680.000000 0 0 1
-31.098637 -23.507429 -1.531593 39.013719 0.647266 1.610064 0.085569 -0.013257 -1252480.000000 0 0 1
-32.358317 -23.294329 -2.041393 39.923098 0.623949 1.621952 0.101262 -0.019662 -822605.000000 0 0 1
-32.939287 -21.927029 -1.600093 39.602419 0.587319 1.611211 0.092403 -0.022589 -20419.300000 0 0 1
-33.090167 -21.877329 -0.226093 39.668978 0.584169 1.576496 0.101249 -0.025374 42882.600000 0 0 1
-33.696197 -20.664729 0.148707 39.528305 0.550117 1.567034 0.105692 -0.025624 -445640.000000 0 0 1
-33.956027 -20.583229 1.687707 39.743295 0.544946 1.528318 0.074872 -0.026045 -361498.000000 0 0 1
-35.007782 -21.379929 2.166507 41.077243 0.548264 1.518030 0.100375 -0.028283 -30938.400000 0 0 1
-35.338424 -21.056729 3.517407 41.286344 0.537369 1.485498 0.096225 -0.029771 -15674.400000 0 0 1
-36.629467 -21.888229 3.898807 42.848724 0.538622 1.479680 0.118174 -0.024426 2010700.000000 0 0 1
35.473631 -21.522029 3.246607 41.618706 -0.545335 1.492709 0.089250 -0.018662 926464.000000 0 0 1
34.956841 -20.220029 3.526607 40.537233 -0.524407 1.483689 0.083672 -0.029160 -580403.000000 0 0 1
33.673131 -20.014529 2.698307 39.265023 -0.536275 1.502022 0.070735 -0.014635 -313562.000000 0 0 1
32.601651 -20.857029 2.961407 38.815632 -0.569138 1.494428 0.066076 -0.003126 -1154900.000000 0 0 1
31.473311 -20.411829 2.272907 37.581620 -0.575351 1.510280 0.078109 -0.012001 -236542.000000 0 0 1
30.225591 -21.222829 2.695607 37.030543 -0.612166 1.497938 0.046569 0.007730 -189807.000000 0 0 1
30.029351 -22.523329 2.194407 37.601565 -0.643529 1.512404 0.045916 0.001307 97421.500000 0 0 1
28.783401 -23.038129 2.647407 36.962797 -0.674983 1.499111 0.031052 0.015216 218442.000000 0 0 1
28.396031 -24.316429 1.849907 37.430542 -0.708159 1.521354 0.029739 0.010295 227559.000000 0 0 1
27.712121 -24.000929 0.611207 36.665786 -0.713756 1.554126 0.024325 0.001447 296369.000000 0 0 1
27.272421 -25.182529 -0.057093 37.120722 -0.745578 1.572334 0.014653 0.002961 476522.000000 0 0 1
26.262921 -24.831229 -1.238793 36.164424 -0.757385 1.605057 0.004456 -0.007980 346399.000000 0 0 1
26.859321 -24.144629 -2.321993 36.190854 -0.732223 1.635000 0.021222 -0.018863 571691.000000 0 0 1
27.489021 -25.031329 -3.335993 37.327504 -0.738637 1.660287 0.018956 -0.016906 -224660.000000 0 0 1
26.479521 -25.702029 -4.276393 37.148982 -0.770500 1.686167 0.017722 -0.021994 147335.000000 0 0 1
25.831421 -24.878529 -5.249093 36.245779 -0.766609 1.716127 0.018073 -0.029732 893321.000000 0 0 1
24.755521 -24.039629 -4.810293 34.840759 -0.770728 1.709304 0.029484 -0.031234 -194339.000000 0 0 1
24.352621 -22.997429 -5.854393 34.003027 -0.756785 1.743831 0.039568 -0.038215 -239064.000000 0 0 1
23.715721 -23.597629 -6.979193 34.175908 -0.782902 1.776457 0.051739 -0.029531 388940.000000 0 0 1
22.610621 -22.884929 -7.522393 33.038562 -0.791427 1.800496 0.039612 -0.029411 98675.400000 0 0 1
22.775721 -21.482429 -8.223993 32.370701 -0.756185 1.827669 0.040301 -0.027427 -598078.000000 0 0 1
23.406221 -21.409529 -9.503593 33.114006 -0.740874 1.861886 0.051303 -0.027019 338603.000000 0 0 1
23.161321 -20.140129 -10.090393 32.309250 -0.715740 1.888416 0.044495 -0.024905 -163065.000000 0 0 1
23.817321 -20.065229 -11.483593 33.192636 -0.700103 1.924067 0.056537 -0.030187 34544.300000 0 0 1
25.216321 -19.905329 -11.509793 34.125655 -0.668233 1.914819 0.068573 -0.028708 -174367.000000 0 0 1
25.662121 -19.542029 -12.799793 34.702594 -0.650829 1.948560 0.060340 -0.027578 -16197.400000 0 0 1
27.191921 -19.528229 -13.044793 35.929360 -0.622812 1.942355 0.060401 -0.029959 764438.000000 0 0 1
27.859321 -20.842929 -13.131393 37.188748 -0.642316 1.931680 0.055481 -0.031382 535955.000000 0 0 1
28.019821 -21.498429 -11.884793 37.263134 -0.654455 1.895410 0.070294 -0.040407 -396813.000000 0 0 1
28.478921 -23.001729 -12.087493 38.551731 -0.679404 1.889715 0.079543 -0.025564 394616.000000 0 0 1
29.710501 -23.132729 -12.799793 39.770237 -0.661558 1.898472 0.078185 -0.039607 512445.000000 0 0 1
29.908531 -24.451129 -13.116693 40.797372 -0.685339 1.898118 0.076412 -0.028001 -436634.000000 0 0 1
-3.311007 -9.060732 -27.682913 29.315581 1.220448 2.806279 0.037911 -0.012902 -37817.100000 0 0 1
-3.589007 -7.886432 -26.940553 28.299649 1.143721 2.830419 0.054881 -0.013029 344415.000000 0 0 1
-4.669207 -7.216732 -27.610593 28.917599 0.996535 2.839791 0.041786 -0.014838 303338.000000 0 0 1
-4.875507 -5.852032 -27.042663 28.094883 0.876178 2.867044 0.040014 -0.021613 -190991.000000 0 0 1
-5.636707 -5.766032 -25.862323 27.090207 0.796739 2.839360 0.044433 -0.024395 208429.000000 0 0 1
-5.413207 -4.564032 -25.152893 26.130465 0.700492 2.867196 0.052688 -0.020124 59067.300000 0 0 1
-5.848507 -4.562232 -23.678193 24.812815 0.662468 2.838014 0.041410 -0.020481 -344072.000000 0 1 0
-5.048207 -5.415032 -22.891193 24.058547 0.820442 2.828802 0.044439 -0.028622 435473.000000 0 1 0
-5.360307 -5.352432 -21.501993 22.797305 0.784663 2.802874 0.033461 -0.021954 72920.800000 0 1 0
-4.540907 -6.402632 -20.674793 22.114714 0.953906 2.778741 0.033470 -0.020812 -296120.000000 0 1 0
-5.176307 -7.666332 -20.560793 22.545798 0.976909 2.718825 0.034212 -0.022573 562275.000000 0 1 0
-4.283007 -8.561132 -19.934793 22.114092 1.106921 2.693908 0.037333 -0.024420 -624338.000000 0 1 0
-4.955807 -9.972932 -19.913993 22.816365 1.109611 2.631695 0.046001 -0.022150 -199392.000000 0 1 0
-6.101307 -10.152232 -19.148493 22.515740 1.029655 2.587635 0.039227 -0.022386 453362.000000 0 1 0
-7.296307 -9.518532 -19.675493 23.042646 0.916795 2.594178 0.036219 -0.018123 -1085010.000000 0 1 0
-8.410107 -9.605432 -18.704193 22.645994 0.851651 2.542661 0.025304 -0.007685 -1304530.000000 0 1 0
-8.859607 -10.944432 -18.589593 23.320510 0.890285 2.493331 0.032271 -0.016986 -86329.800000 0 1 0
-9.634507 -11.038632 -17.421993 22.764028 0.853214 2.442350 0.050006 -0.021090 -72127.600000 0 1 0
-10.654007 -12.247732 -17.377593 23.780150 0.854876 2.390232 0.083440 -0.021014 676263.000000 0 1 0
-11.841507 -12.013032 -18.145993 24.775215 0.792588 2.392674 0.090144 -0.028209 404670.000000 0 1 0
-11.716407 -11.968432 -19.584593 25.769630 0.796039 2.434090 0.081334 -0.033478 -1014420.000000 0 0 1
-13.068407 -11.642432 -20.301893 26.804782 0.727756 2.430115 0.066463 -0.025673 671604.000000 0 0 1
-13.996707 -12.703232 -20.443893 27.843000 0.736991 2.395367 0.068280 -0.026082 3182.840000 0 0 1
-14.598007 -13.101132 -19.249293 27.482299 0.731410 2.346789 0.074234 -0.022627 -936391.000000 0 0 1
-15.813307 -14.060832 -19.381793 28.695323 0.726803 2.312349 0.068496 -0.016828 179870.000000 0 0 1
-15.522407 -15.394232 -19.663193 29.403548 0.781252 2.303303 0.080852 -0.018722 142955.000000 0 0 1
-16.544607 -15.919332 -20.511793 30.787705 0.766140 2.299943 0.064924 -0.017477 341257.000000 0 0 1
-16.188807 -17.349032 -20.997993 31.685676 0.819979 2.295210 0.044439 -0.015123 -17410.400000 0 0 1
-16.252407 -18.426732 -20.062393 31.720416 0.848015 2.255542 0.059924 -0.008509 172968.000000 0 0 1
-15.808507 -19.632732 -20.705993 32.620411 0.892886 2.258489 0.046781 -0.008661 5177.810000 0 0 1
-16.330707 -20.951832 -19.985093 33.242671 0.908718 2.215783 0.058035 -0.014187 23660.600000 0 0 1
-15.911507 -22.138232 -20.545693 34.137997 0.947607 2.216602 0.049792 -0.017887 91357.500000 0 0 1
-16.552107 -23.220232 -19.893993 34.769561 0.951511 2.179942 0.071227 -0.014388 243590.000000 0 0 1
-16.085007 -24.619532 -20.442793 35.815591 0.992074 2.178251 0.067754 -0.018702 -71934.800000 0 0 1
-16.540407 -24.887132 -21.722893 36.943720 0.984214 2.199380 0.045486 -0.017814 158228.000000 0 0 1
-15.961507 -26.121362 -22.152093 37.786379 1.022290 2.197213 0.044654 -0.016168 -10185.100000 0 0 1
-16.467807 -26.671652 -23.536293 39.198505 1.017661 2.214846 0.047742 -0.015577 362527.000000 0 0 1
-17.806407 -27.194132 -23.462293 40.088254 0.991062 2.196004 0.058790 -0.016976 486231.000000 0 0 1
-17.815007 -28.605402 -23.492393 41.079630 1.013792 2.179585 0.065741 -0.014824 -484732.000000 0 0 1
-18.691007 -29.231442 -24.591893 42.527545 1.001899 2.187388 0.059941 -0.015756 -347752.000000 0 0 1
-18.220707 -29.003912 -25.942463 42.967807 1.009888 2.219012 0.058635 -0.014089 114061.000000 0 0 1
-18.352307 -27.722172 -26.517803 42.526696 0.986026 2.244080 0.074562 -0.015494 -1175450.000000 0 0 1
-17.317307 -27.470012 -27.521553 42.566730 1.008318 2.273851 0.075877 -0.020904 -1337900.000000 0 0 1
-17.427507 -28.110872 -28.741933 43.818236 1.015832 2.286218 0.073044 -0.015287 -606705.000000 0 0 1
-16.209107 -27.971442 -29.398773 43.696963 1.045596 2.308766 0.056884 -0.010951 -447070.000000 0 0 1
-16.278207 -28.110942 -30.916783 44.844760 1.045909 2.331482 0.065799 -0.010810 -31508.100000 0 0 1
-16.307107 -29.444402 -31.405533 46.034791 1.065020 2.321581 0.050315 -0.007397 394584.000000 0 0 1
-16.906607 -29.625602 -32.717453 47.264589 1.052218 2.335356 0.055584 -0.003472 264950.000000 0 0 1
-16.843207 -31.073892 -33.122093 48.439172 1.074087 2.323737 0.043350 -0.001912 -166593.000000 0 0 1
-15.562507 -31.490802 -33.495303 48.536559 1.111806 2.332430 0.045566 -0.004166 -496008.000000 0 0 1
-15.647107 -32.533662 33.793466 49.449666 1.122503 0.818399 0.036293 -0.001502 -204456.000000 0 0 1
-14.377007 -32.869162 33.006252 48.749285 1.158469 0.827034 0.030477 -0.001372 267407.000000 0 0 1
-13.474807 -33.731492 33.715074 49.558957 1.190745 0.822621 0.038617 -0.003161 459951.000000 0 0 1
-12.435607 33.997512 32.891667 48.911521 -1.220133 0.833252 0.040444 -0.002397 820163.000000 0 0 1
-11.345907 33.110058 33.607433 48.522831 -1.240664 0.805694 0.049023 -0.003874 390490.000000 0 0 1
-10.567007 33.797165 -33.678103 48.868441 -1.267766 2.331123 0.057494 -0.012239 -80885.300000 0 0 1
-10.072307 32.883777 -32.707593 47.461361 -1.273570 2.331100 0.062335 -0.022411 -114194.000000 0 0 1
-9.251807 33.726520 -31.710083 47.208086 -1.303064 2.307309 0.050416 -0.033642 -512055.000000 0 0 1
-10.029107 -33.560722 -31.095973 46.838708 1.280409 2.296811 0.063742 -0.024022 -387061.000000 0 0 1
-9.355107 -32.942672 -30.011843 45.535133 1.294099 2.290407 0.060354 -0.026216 -263318.000000 0 0 1
-10.208807 -31.999652 -29.099733 44.440881 1.261975 2.284710 0.070371 -0.021922 -81509.300000 0 0 1
-10.216407 -32.402672 -27.753243 43.869700 1.265367 2.255739 0.085946 -0.020159 329762.000000 0 0 1
-11.119107 -33.501822 -27.475823 44.731727 1.250340 2.232213 0.081663 -0.023291 69216.200000 0 0 1
-11.309207 -33.576982 -25.928333 43.904331 1.245916 2.202554 0.089540 -0.034626 615458.000000 0 0 1
-10.100007 -33.712182 -25.179873 43.272940 1.279711 2.191841 0.083414 -0.037293 307434.000000 0 0 1
-10.415507 -33.380222 -23.829493 42.315089 1.268343 2.168982 0.090247 -0.043006 282203.000000 0 0 1
-9.257307 -33.627502 -22.849493 41.696594 1.302161 2.150761 0.088087 -0.048960 -23801.400000 0 0 1
-8.912507 33.287915 -22.638293 41.231182 -1.309192 2.152033 0.078673 -0.043606 6420.670000 0 0 1
-7.992707 33.212743 -21.537693 40.383683 -1.334635 2.133325 0.091169 -0.043410 269168.000000 0 0 1
-7.346007 31.809926 -21.417693 39.045521 -1.343841 2.151403 0.090177 -0.048888 -443845.000000 0 0 1
-6.442007 31.469786 -22.423593 39.174792 -1.368881 2.180224 0.069651 -0.060622 -321189.000000 0 0 1
-5.929907 30.166516 -22.165793 37.901251 -1.376699 2.195467 0.052824 -0.042906 -1312880.000000 0 0 1
-4.489107 30.133046 -22.542293 37.898647 -1.422908 2.207819 0.062510 -0.050641 -1370600.000000 0 0 1
-4.181107 30.332266 -23.932493 38.862478 -1.433816 2.234229 0.081676 -0.051623 624754.000000 0 0 1
-2.790707 30.653986 -24.132993 39.113376 -1.480008 2.235722 0.069895 -0.060930 848062.000000 0 0 1
-2.650907 31.062026 -25.693063 40.398146 -1.485660 2.260095 0.065242 -0.034928 -113519.000000 0 0 1
-1.661507 31.996126 -26.084913 41.315074 -1.518915 2.254109 0.076418 -0.050768 241462.000000 0 0 1
-2.015807 33.340091 -25.789783 42.198791 -1.510408 2.228309 0.076816 -0.039824 52806.600000 0 0 1
-1.123807 -33.943512 -26.629783 43.157505 1.537700 2.235768 0.045116 -0.017424 -448840.000000 0 0 1
0.065993 -33.574302 -26.011983 42.471889 -1.568831 2.229955 0.049934 -0.020716 -625987.000000 0 0 1
0.654293 -32.498182 -26.687133 42.056664 -1.550666 2.258225 0.017170 -0.000082 427924.000000 0 0 1
2.013593 -32.012472 -26.086483 41.344377 -1.507979 2.253581 0.024256 0.004684 353429.000000 0 0 1
1.808393 -31.437692 -24.768593 40.063474 -1.513337 2.237290 0.028287 0.003451 415995.000000 0 0 1
2.937093 -30.714032 -24.290193 39.268202 -1.475459 2.237720 0.019270 0.002924 -14629.300000 0 0 1
2.751493 -30.150542 -22.874393 37.945536 -1.479790 2.217829 0.044565 -0.006421 -177471.000000 0 0 1
3.082193 -31.038612 -21.807193 38.058494 -1.471819 2.180948 0.044603 -0.007627 561899.000000 0 0 1
3.324993 -30.238792 -20.614893 36.747978 -1.461278 2.166366 0.047234 -0.003289 -307465.000000 0 0 1
3.367693 -31.049512 -19.281593 36.704133 -1.462757 2.123893 0.047462 -0.001900 -227685.000000 0 0 1
2.089493 -31.515802 -18.894693 36.805178 -1.504593 2.109904 0.058505 -0.014511 252736.000000 0 0 1
1.840493 -32.880662 -19.230693 38.135874 -1.514880 2.099330 0.064722 -0.009945 -251712.000000 0 0 1
2.575593 -33.963552 -18.357593 38.693123 -1.495107 2.065125 0.046040 -0.024855 1195130.000000 0 0 1
3.922093 34.013096 -18.813393 39.066830 1.455992 2.073241 0.048941 -0.010135 945739.000000 0 0 1
4.410293 32.825909 -18.164293 37.774760 1.437242 2.072429 0.059963 -0.032508 -8074.340000 0 0 1
5.648193 32.248700 -18.844393 37.775545 1.397410 2.093070 0.071611 -0.027808 -356540.000000 0 0 1
6.817693 33.023380 -18.794393 38.603804 1.367206 2.079280 0.099280 -0.028619 -427239.000000 0 0 1
7.861893 32.260953 -19.377293 38.445518 1.331759 2.099043 0.085385 -0.040705 77542.200000 0 0 1
9.152893 33.092266 -19.551993 39.511440 1.300955 2.088451 0.076704 -0.038728 45183.500000 0 0 1
9.976793 33.151730 -18.405293 39.208779 1.278474 2.059427 0.067143 -0.023347 -376457.000000 0 0 1
11.238293 33.696963 -18.679493 40.133626 1.248886 2.054919 0.074078 -0.009209 -32657.400000 0 0 1
12.042993 33.766502 -17.342193 39.824138 1.228205 2.021356 0.049280 -0.011032 -93718.700000 0 0 1
12.681893 32.592291 -16.884493 38.835215 1.199715 2.020582 0.042330 -0.015704 -173422.000000 0 0 1
13.390093 32.817561 -15.700893 38.766027 1.183399 1.987794 0.029809 -0.021871 3501.610000 0 0 1
14.607593 31.877316 -15.546093 38.356564 1.141108 1.988108 0.028572 -0.023155 138584.000000 0 0 1
14.290393 30.542136 -15.247093 37.006907 1.133164 1.995452 0.044099 -0.026770 -153563.000000 0 0 1
15.486693 29.780226 -15.193493 36.844833 1.091251 1.995844 0.034456 -0.019193 92893.800000 0 0 1
15.449793 28.521586 -14.237393 35.424289 1.074357 1.984399 0.059720 -0.022173 -332181.000000 0 0 1
15.524493 28.960386 -12.861393 35.286389 1.078719 1.943877 0.060627 -0.026928 906358.000000 0 0 1
14.231593 29.059286 -12.213493 34.585397 1.115388 1.931722 0.057718 -0.029689 1344140.000000 0 0 1
13.512793 27.716236 -11.758293 33.000647 1.117166 1.935107 0.065335 -0.028194 -516079.000000 0 0 1
12.759193 27.115536 -12.751793 32.567737 1.130986 1.973108 0.057305 -0.027631 -480585.000000 0 0 1
12.313293 25.820546 -12.484593 31.211902 1.125815 1.982307 0.083967 -0.030105 128936.000000 0 0 1
11.278393 25.610036 -11.351093 30.198069 1.155963 1.956151 0.076600 -0.023179 -382901.000000 0 0 1
10.035493 26.245786 -11.569693 30.387665 1.205584 1.961389 0.068197 -0.025186 -253989.000000 0 0 1
9.278593 26.218526 -10.398593 29.692324 1.230656 1.928593 0.059570 -0.013915 -265393.000000 0 0 1
8.176093 27.288986 -10.452393 30.344517 1.279696 1.922457 0.066452 -0.018064 -227039.000000 0 0 1
8.699793 28.540896 -10.463393 31.618850 1.274925 1.908077 0.063790 -0.018848 -459799.000000 0 0 1
7.656593 29.466206 -10.416593 32.177416 1.316575 1.900459 0.051897 -0.016028 -390236.000000 0 0 1
8.002393 30.885906 -10.875993 33.708525 1.317276 1.899322 0.070021 -0.017722 -202622.000000 0 0 1
8.879493 31.531546 -9.978693 34.244095 1.296298 1.866485 0.068843 -0.016763 -267399.000000 0 0 1
9.259193 32.818838 -10.400093 35.650676 1.295813 1.866823 0.068700 -0.021845 9929.850000 0 0 1
10.328893 33.001897 -11.522193 36.449583 1.267475 1.892426 0.056197 -0.020445 877249.000000 0 0 1
11.643993 32.713986 -11.010193 36.428173 1.228846 1.877842 0.056925 -0.011893 84014.700000 0 0 1
12.677693 33.162381 -11.804093 37.413955 1.205649 1.891780 0.049773 -0.017471 1323150.000000 0 0 1
14.150693 32.692600 -11.380493 37.397377 1.162303 1.880013 0.051481 -0.017935 1693300.000000 0 0 1
14.672693 33.285845 -10.229793 37.787353 1.155612 1.844937 0.049984 -0.015844 75555.900000 0 0 1
16.073293 33.459762 -10.409393 38.552067 1.122970 1.844198 0.040811 -0.018838 407033.000000 0 0 1
16.745993 -33.794302 -9.444593 38.880373 -1.110733 1.816165 0.052967 -0.023424 -28905.700000 0 0 1
16.851393 33.960699 -8.062493 38.759544 1.110191 1.780340 0.047989 -0.023440 158834.000000 0 0 1
17.375493 -33.298902 -7.160493 38.236073 -1.089858 1.759179 0.043633 -0.020553 -1374320.000000 0 0 1
17.618393 -33.882612 -5.754393 38.620619 -1.091290 1.720351 0.033109 -0.010818 -139929.000000 0 0 1
18.640893 33.407978 -5.696993 38.678567 1.061849 1.718625 0.029746 -0.016487 329275.000000 0 0 1
19.943693 33.929324 -6.013793 39.813510 1.039395 1.722426 0.043179 -0.018599 -1007580.000000 0 0 1
20.740693 32.897469 -6.790693 39.478263 1.008277 1.743667 0.027702 -0.013752 -342367.000000 0 0 1
21.031093 31.618046 -6.334193 38.498437 0.983837 1.736079 0.024201 -0.005637 -498060.000000 0 0 1
21.976593 31.624106 -5.324093 38.876736 0.963480 1.708176 0.029818 -0.009080 -899777.000000 0 0 1
22.245293 30.264096 -4.668693 37.849243 0.936939 1.694461 0.020069 -0.012103 -97405.700000 0 0 1
22.912893 29.446206 -5.613993 37.730579 0.909535 1.720142 0.028244 -0.014442 110450.000000 0 0 1
23.359593 28.207946 -5.090493 36.976640 0.879142 1.708903 0.032245 -0.006322 -710316.000000 0 0 1
24.375293 27.447286 -5.977193 37.191870 0.844608 1.732209 0.031318 0.002395 -1333380.000000 0 0 1
25.562793 28.156916 -6.019393 38.503264 0.833651 1.727775 0.064810 -0.004103 -693857.000000 0 0 1
26.503293 27.619756 -6.946693 38.904138 0.806023 1.750318 0.050008 -0.001474 364742.000000 0 0 1
27.381593 26.487746 -6.328393 38.618659 0.768807 1.735408 0.049288 0.005455 -299604.000000 0 0 1
28.440993 26.903896 -5.464693 39.529388 0.757632 1.709484 0.068878 -0.010488 185607.000000 0 0 1
28.979193 25.868046 -4.684893 39.126687 0.728735 1.690821 0.071144 -0.000987 578114.000000 0 0 1
30.252393 26.401276 -3.923293 40.343857 0.717526 1.668197 0.078889 -0.010432 440027.000000 0 0 1
29.988293 27.323766 -2.906093 40.673471 0.738940 1.642307 0.080953 -0.023784 423699.000000 0 0 1
31.055193 27.393906 -1.938293 41.456098 0.722839 1.617569 0.075148 -0.030333 483701.000000 0 0 1
31.076293 28.724126 -1.101693 42.332317 0.746085 1.596824 0.093676 -0.019524 270304.000000 0 0 1
31.590293 29.838796 -1.864493 43.494559 0.756893 1.613677 0.094909 -0.023611 133329.000000 0 0 1
31.579593 31.015466 -1.095193 44.276735 0.776386 1.595534 0.107987 -0.030919 14846.000000 0 0 1
33.467981 22.802768 18.813453 44.654429 0.598086 1.135905 0.083990 -0.016684 200568.000000 0 0 1
33.783291 22.468468 20.163353 45.306773 0.586901 1.109577 0.065516 -0.027135 304652.000000 0 0 1
34.629161 23.473968 20.782253 46.713039 0.595717 1.109743 0.072973 -0.031435 436225.000000 0 0 1
34.451191 23.623168 22.308553 47.356206 0.601064 1.080282 0.041045 -0.010724 -368134.000000 0 0 1
33.243791 24.148168 22.762453 46.972470 0.628223 1.064900 0.034071 -0.005243 -263440.000000 0 0 1
33.317821 24.116568 24.180763 47.711586 0.626543 1.039315 0.027303 -0.009121 873428.000000 0 0 1
31.965301 24.647768 24.799903 47.374341 0.656856 1.019857 0.040206 -0.010943 865711.000000 0 0 1
32.009141 26.047968 24.674493 48.082350 0.683079 1.031920 0.034435 -0.009737 107274.000000 0 0 1
30.880231 26.666168 25.238303 47.975464 0.712300 1.016827 0.029943 -0.014204 -216082.000000 0 0 1
30.771581 28.240368 25.242053 48.801331 0.742531 1.027172 0.021564 -0.008860 -207101.000000 0 0 1
30.589061 28.919568 24.006023 48.459481 0.757351 1.052520 0.030489 -0.024561 296307.000000 0 0 1
30.130791 30.237268 24.298033 49.117730 0.787162 1.053319 0.037290 -0.014856 -128684.000000 0 0 1
30.653741 31.189868 23.265393 49.535222 0.794067 1.081875 0.031100 -0.016514 56737.000000 0 0 1
32.061071 31.255268 23.138653 50.400410 0.772672 1.093818 0.004022 -0.013898 -138562.000000 0 0 1
32.370511 32.058068 22.041653 50.610317 0.780549 1.120184 0.010705 -0.010525 1136100.000000 0 0 1
33.898491 32.461768 21.964553 51.820032 0.763751 1.133091 -0.021210 -0.022611 990320.000000 0 0 1
34.222031 33.390768 22.956453 53.038567 0.773104 1.123171 0.002869 -0.010463 544833.000000 0 0 1
35.579311 33.832668 22.845753 54.152242 0.760240 1.135278 0.008056 -0.014018 614614.000000 0 0 1
35.669641 -33.136529 23.681253 54.140139 -0.748600 1.118084 0.022742 -0.005175 -119226.000000 0 0 1
35.075791 -32.010629 23.051253 52.785905 -0.739740 1.118877 0.008756 -0.004964 322231.000000 0 0 1
35.347111 -30.865429 23.792263 52.613352 -0.717815 1.101555 0.034932 -0.006150 -629055.000000 0 0 1
34.276121 -29.782729 23.519273 51.137263 -0.715368 1.092886 0.032181 -0.014648 -188215.000000 0 0 1
33.038591 -30.144329 24.111703 50.809481 -0.739622 1.076342 0.028296 -0.011832 -77110.700000 0 0 1
32.109391 -30.194329 23.040953 49.735260 -0.754670 1.089113 0.023603 -0.002628 -652796.000000 0 0 1
31.389691 -31.547029 22.979453 50.085757 -0.787898 1.094150 0.018177 -0.000764 -635624.000000 0 0 1
30.442721 -31.737329 23.968723 50.085098 -0.806215 1.071782 0.023520 -0.012061 -289019.000000 0 0 1
29.970661 -33.075629 24.010113 50.682574 -0.834607 1.077269 0.030451 -0.016181 202718.000000 0 0 1
29.345151 -33.346629 25.419723 51.179077 -0.849139 1.051025 0.023564 -0.011710 115163.000000 0 0 1
28.704451 33.649368 25.526333 51.066811 0.864537 1.047357 0.028630 -0.026333 171524.000000 0 0 1
28.096021 33.443168 26.787333 51.238590 0.872071 1.020669 0.026857 -0.017097 -662739.000000 0 0 1
27.968521 31.952568 27.121683 50.386412 0.851789 1.002409 0.032311 -0.017542 708118.000000 0 0 1
27.101221 31.203568 26.260523 48.966866 0.855643 1.004759 0.024463 -0.011890 230394.000000 0 0 1
25.728421 31.517768 26.274263 48.431997 0.886186 0.997388 0.024202 -0.018665 -69359.200000 0 0 1
24.966021 31.398968 24.854493 47.190500 0.899037 1.016101 0.065747 -0.029080 445146.000000 0 0 1
25.174721 32.308468 23.761173 47.351843 0.908868 1.045117 0.073181 -0.039676 662095.000000 0 0 1
26.532221 32.188068 23.309223 47.784416 0.881420 1.061229 0.051877 -0.033651 506919.000000 0 0 1
26.901421 33.235768 22.235053 48.194402 0.890343 1.091267 0.071635 -0.033438 440158.000000 0 0 1
28.201321 33.174568 21.630553 48.618385 0.866251 1.109728 0.062624 -0.030239 544036.000000 0 0 1
28.331711 33.799468 20.347853 48.570825 0.873175 1.138528 0.053039 -0.034055 273642.000000 0 0 1
29.760041 34.120868 19.795753 49.414224 0.853557 1.158616 0.051010 -0.034648 258253.000000 0 0 1
30.500661 33.060468 19.343653 48.963883 0.825650 1.164664 0.053737 -0.040824 -777815.000000 0 0 1
31.518591 33.494968 18.505953 49.576252 0.815788 1.188251 0.039604 -0.027579 -129816.000000 0 0 1
32.528481 32.419468 17.987653 49.322203 0.783720 1.197489 0.021614 -0.023506 60160.900000 0 0 1
33.294871 31.760068 18.955453 49.765044 0.761810 1.180028 0.003290 -0.024070 -490367.000000 0 0 1
34.213871 30.946568 18.323153 49.638866 0.735298 1.192724 0.011410 -0.024542 -443396.000000 0 0 1
35.214881 30.240868 19.268153 50.257932 0.709553 1.177337 0.036892 -0.037496 -461557.000000 0 0 1
36.038911 31.213868 19.810253 51.629012 0.713776 1.176992 0.043372 -0.031817 -318231.000000 0 0 1
-36.205857 30.570268 20.450453 51.610333 -0.701202 1.163370 0.070067 -0.023958 178218.000000 0 0 1
-35.209119 31.582468 21.034653 51.764766 -0.731153 1.152340 0.074532 -0.016919 -249057.000000 0 0 1
-34.585219 32.315968 19.975553 51.375889 -0.751492 1.171455 0.083484 -0.014489 89986.500000 0 0 1
-33.624197 33.259468 20.462253 51.531376 -0.779945 1.162460 0.071583 0.004082 378338.000000 0 0 1
-34.188789 -33.807229 21.326153 52.598544 0.779787 1.153324 0.052979 0.004323 -241963.000000 0 0 1
-34.079571 34.045768 22.691153 53.248662 -0.784902 1.130579 0.066904 0.007825 118580.000000 0 0 1
-33.708567 -33.093229 23.481093 52.752167 0.776187 1.109487 0.063623 0.004284 -221221.000000 0 0 1
-33.644687 -33.486229 25.020393 53.659227 0.783038 1.085712 0.083443 -0.010045 -1102270.000000 0 0 1
-34.900101 -33.779629 25.469763 54.843316 0.769085 1.087828 0.068371 -0.000486 -1322010.000000 0 0 1
-34.922794 34.123068 26.803013 55.699074 -0.773816 1.068761 0.081488 -0.009702 -167593.000000 0 0 1
-36.317617 33.719668 27.256893 56.559027 -0.748321 1.067952 0.060397 -0.018170 -297646.000000 0 0 1
-36.168457 32.883768 28.373253 56.520271 -0.737866 1.044885 0.085961 -0.027430 632543.000000 0 0 1
35.928561 32.591668 29.030723 56.531949 0.736737 1.031505 0.087260 -0.031414 556909.000000 0 0 1
36.054051 31.535668 30.143753 56.595396 0.718647 1.009105 0.081171 -0.026606 -211878.000000 0 0 1
35.908301 30.197668 29.732253 55.545586 0.699226 1.005961 0.064471 -0.021286 423137.000000 0 0 1
-36.400937 29.628868 28.926453 55.132910 -0.683195 1.018472 0.072337 -0.019690 -290041.000000 0 0 1
-36.560787 28.162268 28.561123 54.272850 -0.656358 1.016611 0.070315 -0.012201 -525376.000000 0 0 1
35.602991 27.948068 27.842083 53.139901 0.665523 1.019327 0.047965 0.000329 -67488.000000 0 0 1
35.524951 26.686768 27.190123 52.091348 0.644276 1.021637 0.049665 -0.008232 233557.000000 0 0 1
34.948141 25.414968 27.852073 51.410419 0.628761 0.998268 0.042825 -0.008032 -532338.000000 0 0 1
35.946061 24.899468 28.661483 52.283683 0.605803 0.990596 0.044606 -0.007841 -356341.000000 0 0 1
35.764071 23.573668 29.087123 51.776900 0.582776 0.974263 0.044301 -0.002459 -172956.000000 0 0 1
36.116271 22.521968 27.984903 50.938972 0.557589 0.989173 0.025054 0.006905 -179712.000000 0 0 1
35.232931 22.509868 26.860633 49.694539 0.568523 0.999747 0.037425 -0.000654 7722.250000 0 0 1
35.516751 21.702268 25.735893 48.936329 0.548500 1.017017 0.032650 -0.013899 -242013.000000 0 0 1
35.573041 20.142368 26.017853 48.457042 0.515215 1.004007 0.023891 -0.009095 -486988.000000 0 0 1
34.255431 19.669568 25.864663 47.215541 0.521235 0.991064 0.046645 -0.004680 163932.000000 0 0 1
33.938881 18.469068 26.485753 46.844949 0.498369 0.969888 0.052764 -0.005355 -613404.000000 0 0 1
33.845021 18.586668 28.073213 47.739449 0.502206 0.942150 0.037766 -0.002807 -380416.000000 0 0 1
32.747661 19.279268 28.641053 47.585811 0.532086 0.924940 0.046292 -0.010685 232336.000000 0 0 1
32.687421 20.698668 28.541903 48.078505 0.564496 0.935207 0.031432 -0.018086 -750598.000000 0 0 1
31.577191 21.384868 29.337493 48.115695 0.595277 0.915079 0.044707 -0.024315 -167998.000000 0 0 1
30.226211 21.222468 28.959343 46.932511 0.612148 0.905818 0.062141 -0.032742 408969.000000 0 0 1
29.725871 21.943268 27.824233 46.252810 0.635898 0.925333 0.057616 -0.025004 -273326.000000 0 0 1
29.554451 23.465268 27.999563 46.989998 0.671052 0.932458 0.055584 -0.019654 -273189.000000 0 0 1
30.753341 24.240968 28.024643 48.153641 0.667528 0.949630 0.053197 -0.019931 65182.500000 0 0 1
30.759781 25.466168 28.798283 49.234449 0.691526 0.946013 0.038558 -0.013835 -121391.000000 0 0 1
31.338701 25.342568 30.220363 50.374898 0.680003 0.927409 0.036715 -0.019324 -261601.000000 0 0 1
32.685631 24.960468 30.275433 51.068359 0.652182 0.936214 0.022117 -0.005646 -121528.000000 0 0 1
33.326251 24.823868 31.576933 52.191629 0.640213 0.921006 0.036311 -0.017772 270218.000000 0 0 1
32.980581 23.539468 32.378865 51.867294 0.619886 0.896608 0.040229 -0.011570 -248700.000000 0 0 1
33.145711 23.604368 33.775732 52.882932 0.618827 0.878003 0.038560 -0.014530 4332.000000 0 0 1
32.571201 22.473568 -33.867413 52.085949 0.603971 2.278672 0.035208 -0.016394 -259287.000000 0 0 1
32.887121 22.175568 -32.380213 51.203484 0.593264 2.255422 0.012314 -0.010833 -204806.000000 0 0 1
32.261511 23.106168 -31.546113 50.693760 0.621526 2.242458 0.002330 -0.012415 548601.000000 0 0 1
32.759921 22.822268 -30.192463 50.056500 0.608476 2.218263 0.015097 -0.017086 928157.000000 0 0 1
34.023181 23.633268 -29.669003 50.954469 0.607108 2.192308 0.025113 0.006620 978533.000000 0 0 1
34.528461 23.205568 -28.437853 50.392703 0.591735 2.170411 0.011220 0.000246 -708578.000000 0 0 1
35.681071 23.926968 -28.150203 51.362170 0.590706 2.150855 0.014982 0.014019 -33002.500000 0 0 1
36.489961 23.472368 -26.873863 51.036005 0.571619 2.125353 0.006281 0.016032 261217.000000 0 0 1
-36.102317 22.268968 -26.976633 50.269503 -0.552702 2.137247 0.002905 0.013839 130550.000000 0 0 1
-36.392647 21.254268 -26.094073 49.568834 -0.528591 2.125182 -0.001958 0.008896 -1289330.000000 0 0 1
-35.428042 20.119368 -26.304733 48.496125 -0.516477 2.144098 0.006961 0.011204 -970821.000000 0 0 1
-34.133033 20.291668 -25.816243 47.363426 -0.536356 2.147265 0.005870 0.007068 -736174.000000 0 0 1
-33.488537 19.053368 -25.874103 46.411013 -0.517277 2.162167 -0.011098 0.003897 229352.000000 0 0 1
-32.017487 19.056668 -25.375843 45.080034 -0.536879 2.168694 -0.004813 -0.001478 344786.000000 0 0 1
-31.920487 19.568468 -24.079693 44.515998 -0.549951 2.142330 0.005412 -0.005743 458618.000000 0 0 1
-30.607667 19.386868 -23.533393 43.203015 -0.564616 2.146847 0.022522 -0.011598 452026.000000 0 0 1
-30.528127 19.601068 -22.007193 42.432122 -0.570777 2.116061 0.005526 -0.013739 -269617.000000 0 0 1
-31.281607 18.661368 -21.319293 42.205424 -0.537887 2.100331 0.003603 -0.009598 -223270.000000 0 0 1
-31.547057 19.162268 -20.050093 42.004947 -0.545856 2.068407 0.008072 -0.008181 203667.000000 0 0 1
-32.670877 18.368568 -19.240793 42.130732 -0.512185 2.045070 0.012366 -0.002655 922262.000000 0 0 1
-33.303107 19.004168 -18.114893 42.407602 -0.518553 2.012147 0.005779 -0.003213 457811.000000 0 0 1
-34.192960 20.060368 -18.503393 43.748742 -0.530569 2.007491 -0.008771 -0.002460 -126504.000000 0 0 1
-35.488157 20.098968 -17.667493 44.446801 -0.515315 1.979584 0.011072 -0.005540 -277257.000000 0 0 1
-35.209272 20.430468 -16.340493 43.864662 -0.525777 1.952520 0.017890 -0.009222 306744.000000 0 0 1
-36.329437 20.324968 -15.453793 44.404415 -0.510079 1.926259 0.017287 -0.001646 -441745.000000 0 0 1
-36.226277 21.063268 -14.083993 44.208181 -0.526658 1.895031 0.022783 -0.006360 -390908.000000 0 0 1
-36.547787 22.453468 -14.174893 45.175509 -0.550911 1.889961 0.027383 -0.009657 1429650.000000 0 0 1
35.380991 22.717468 -14.284593 44.406615 0.570788 1.898297 0.036013 -0.003059 931102.000000 0 0 1
34.867961 24.196068 -14.459893 44.836513 0.606643 1.899169 0.044208 -0.012186 107320.000000 0 0 1
35.231761 25.184568 -13.516393 45.367746 0.620607 1.873319 0.030016 -0.010216 -65099.300000 0 0 1
34.991791 26.458768 -13.999293 46.048584 0.647421 1.879697 0.009949 0.005990 -186052.000000 0 0 1
36.293021 27.163268 -14.412693 47.568395 0.642504 1.878624 0.040209 0.001889 156289.000000 0 0 1
-36.502757 26.546768 -15.604593 47.756523 -0.628784 1.903662 0.036719 -0.004078 -254626.000000 0 0 1
-35.336798 27.253268 -15.938593 47.386376 -0.656959 1.913839 0.048363 -0.011096 -470961.000000 0 0 1
-35.053666 27.460368 -17.510993 47.848367 -0.664525 1.945470 0.041086 -0.009889 107898.000000 0 0 1
-34.614168 26.342968 -18.282293 47.184053 -0.650533 1.968679 0.037982 -0.012185 553542.000000 0 0 1
-33.286557 25.908268 -17.988993 45.856702 -0.661394 1.973913 0.036956 -0.009334 390231.000000 0 0 1
-32.990567 24.441868 -18.532893 45.047204 -0.637635 1.994797 0.027949 -0.010692 -299296.000000 0 0 1
-32.621057 24.413968 -19.938393 45.362041 -0.642484 2.025882 0.007859 -0.006874 280876.000000 0 0 1
-32.093867 23.184468 -20.381493 44.530227 -0.625599 2.046203 0.008058 -0.006948 -187358.000000 0 0 1
-31.751077 23.143268 -21.867793 44.966011 -0.629858 2.078668 0.002206 0.008138 -1008840.000000 0 0 1
-32.856887 23.257068 -22.657693 46.193477 -0.615961 2.083455 0.011557 0.010573 -719181.000000 0 0 1
-32.558227 23.000668 -24.026693 46.544074 -0.615040 2.113221 0.005817 0.008396 -20566.100000 0 0 1
-33.459647 23.802268 -24.992193 48.069800 -0.618318 2.117547 -0.010029 0.022669 24878.200000 0 0 1
-33.046467 25.160168 -25.094093 48.526452 -0.650730 2.114281 -0.015371 0.027083 403721.000000 0 0 1
-33.879087 25.850668 -26.075883 49.959997 -0.651787 2.119914 -0.001781 0.022062 493387.000000 0 0 1
-33.349717 27.261168 -26.348173 50.493575 -0.685281 2.119770 0.006859 0.021452 521058.000000 0 0 1
-32.053287 27.261368 -26.926673 49.956392 -0.704785 2.140050 -0.023359 0.020846 -107006.000000 0 0 1
-31.530877 28.557768 -27.305563 50.550332 -0.735960 2.141430 -0.010036 0.011911 1096150.000000 0 0 1
-30.133397 28.485068 -28.037823 50.055372 -0.757286 2.165346 0.018934 0.001687 998961.000000 0 0 1
-29.119537 28.196968 -27.035263 48.722909 -0.769304 2.159012 0.015017 0.005502 528568.000000 0 0 1
-27.814677 28.059568 -27.597613 48.193608 -0.789781 2.180519 0.036626 0.005776 455030.000000 0 0 1
-27.023507 29.349668 -27.642003 48.536103 -0.826638 2.176711 0.041949 -0.017488 -536867.000000 0 0 1
-26.436987 29.811768 -26.379263 47.786204 -0.845324 2.155589 0.032723 -0.015442 390913.000000 0 0 1
-27.394067 30.116268 -25.361463 47.964865 -0.832697 2.127924 0.014202 -0.003326 406606.000000 0 0 1
-26.610007 30.460368 -24.047893 47.055580 -0.852763 2.107206 -0.008500 -0.010315 434337.000000 0 0 1
-25.939277 31.705668 -24.155993 47.556361 -0.885099 2.103593 0.002600 -0.014161 -25620.600000 0 0 1
-25.263877 31.988368 -22.933593 46.770384 -0.902316 2.083281 0.023357 -0.007936 112668.000000 0 0 1
-24.649507 33.400568 -22.895793 47.406893 -0.935022 2.074832 0.023017 0.001501 -276177.000000 0 0 1
-25.620477 -33.833729 -23.002493 48.272609 0.922673 2.067480 0.003604 -0.010587 -140348.000000 0 0 1
-25.096337 -32.517729 -22.990393 47.072147 0.913505 2.081060 0.019269 -0.003020 -190055.000000 0 0 1
16.757693 8.662068 -25.062133 31.368171 0.477077 2.496372 0.031353 -0.015324 -1256050.000000 0 0 1
15.542693 8.133268 -24.733393 30.322699 0.482102 2.524687 0.035234 -0.018567 -1002890.000000 0 0 1
15.515993 6.721568 -24.955893 30.145018 0.408798 2.546080 0.030737 -0.021866 687825.000000 0 0 1
14.051793 6.143368 -25.049083 29.370911 0.412154 2.592222 0.024729 -0.022880 776665.000000 0 0 1
13.389493 6.270968 -23.799993 28.018622 0.438009 2.585710 0.045857 -0.043607 140881.000000 0 0 1
12.115593 5.669868 -23.854793 27.349335 0.437706 2.630531 0.049397 -0.043298 -354509.000000 0 0 1
11.354493 5.713468 -22.507393 25.848616 0.466196 2.627499 0.072292 -0.053604 -341036.000000 0 0 1
11.925693 4.888968 -21.495393 25.063441 0.389057 2.601458 0.064048 -0.046097 253779.000000 0 0 1
11.379193 5.191768 -20.205493 23.763468 0.428040 2.587305 0.079340 -0.043556 -449672.000000 0 1 0
11.745793 6.525668 -19.505793 23.685944 0.507113 2.538380 0.072836 -0.049668 -223091.000000 0 1 0
11.206893 6.787268 -18.216993 22.439257 0.544551 2.518086 0.054131 -0.036028 -170094.000000 0 1 0
11.549193 8.107368 -17.713093 22.646565 0.612057 2.468911 0.061142 -0.033789 606750.000000 0 1 0
13.033293 8.420668 -17.345493 23.273171 0.573621 2.411781 0.067338 -0.033029 330315.000000 0 1 0
13.382193 7.839168 -16.115893 22.366440 0.529906 2.375376 0.068694 -0.033580 291253.000000 0 1 0
14.777993 7.956068 -15.904693 23.122442 0.493873 2.329314 0.061508 -0.036226 -180954.000000 0 1 0
15.311993 7.299468 -14.648093 22.412184 0.444847 2.283098 0.062061 -0.033637 -311739.000000 0 1 0
16.730993 7.286168 -14.571293 23.352450 0.410722 2.244613 0.065966 -0.040209 645878.000000 0 1 0
17.139393 7.581468 -13.251093 22.952754 0.416467 2.186239 0.058944 -0.039238 -161305.000000 0 1 0
17.540193 9.102368 -13.125093 23.722975 0.478687 2.157075 0.076650 -0.032177 -936177.000000 0 1 0
16.444793 9.926968 -12.900793 23.138849 0.543102 2.162214 0.070963 -0.027985 -118412.000000 0 1 0
16.751493 11.277168 -12.990093 24.011029 0.592515 2.142428 0.091012 -0.032016 -278803.000000 0 1 0
15.448593 12.068568 -12.890393 23.462131 0.663177 2.152458 0.092174 -0.025493 14818.200000 0 1 0
14.847693 12.317668 -11.590993 22.506222 0.692532 2.111819 0.087662 -0.018473 253891.000000 0 1 0
15.513293 13.326168 -10.856093 23.153914 0.709705 2.058803 0.096369 -0.012356 -284132.000000 0 1 0
15.089593 14.823368 -10.895693 23.793784 0.776498 2.046452 0.096131 -0.016289 176874.000000 0 1 0
13.868793 15.052468 -10.199793 22.868231 0.826303 2.033115 0.098912 -0.021063 442323.000000 0 1 0
13.462093 16.424268 -10.312693 23.607968 0.884190 2.022869 0.098965 -0.025619 780459.000000 0 1 0
12.302993 16.840668 -9.327893 22.846910 0.939858 1.991363 0.093855 -0.027554 683547.000000 0 1 0
12.749093 16.880968 -7.976293 22.608133 0.923953 1.931365 0.094661 -0.027285 76713.000000 0 1 0
11.794093 17.401868 -7.077693 22.181510 0.975161 1.895556 0.085426 -0.018977 -104702.000000 0 1 0
12.118793 17.261168 -5.605793 21.822877 0.958673 1.830586 0.066033 -0.015824 -167735.000000 0 1 0
13.278693 18.005468 -5.362693 23.006065 0.935356 1.806060 0.080542 -0.020844 -50451.700000 0 1 0
13.838993 17.747168 -4.086393 22.873091 0.908503 1.750416 0.078954 -0.016802 -490992.000000 0 1 0
15.076793 18.559868 -3.744993 24.203375 0.888580 1.726151 0.080864 -0.025478 -527902.000000 0 1 0
16.237393 18.230968 -4.482393 24.821623 0.843172 1.752377 0.094363 -0.038556 324598.000000 0 1 0
17.098393 19.365368 -4.488093 26.220517 0.847489 1.742811 0.071616 -0.031764 566928.000000 0 0 1
18.369193 19.255868 -5.415993 27.157847 0.808960 1.771569 0.080981 -0.022323 909203.000000 0 0 1
19.458393 18.498968 -4.891593 27.290448 0.760127 1.751012 0.076661 -0.028754 367432.000000 0 0 1
19.556693 17.153968 -5.404293 26.569329 0.720041 1.775629 0.092863 -0.047034 -198632.000000 0 0 1
20.716293 16.325068 -4.800193 26.808851 0.667400 1.750820 0.098254 -0.050645 -431576.000000 0 0 1
21.966093 16.865668 -5.100793 28.159866 0.654799 1.752939 0.090245 -0.045681 -394383.000000 0 0 1
22.946693 16.137268 -4.385693 28.393598 0.612904 1.725878 0.102509 -0.051119 -309726.000000 0 0 1
24.408293 16.406668 -4.772193 29.794586 0.591807 1.731659 0.099195 -0.044133 -219303.000000 0 0 1
24.849593 17.648468 -4.299193 30.780737 0.617547 1.710926 0.105392 -0.047641 217810.000000 0 0 1
26.168093 17.598768 -3.776093 31.760740 0.592049 1.689970 0.098790 -0.034840 198396.000000 0 0 1
26.623393 18.914568 -3.072993 32.802579 0.617704 1.664615 0.094399 -0.032322 -53551.600000 0 0 1
26.772793 20.035668 -3.934693 33.670347 0.642450 1.687923 0.086901 -0.028156 195962.000000 0 0 1
26.988593 21.204068 -3.183793 34.469308 0.665940 1.663294 0.088228 -0.013231 -201450.000000 0 0 1
27.071593 22.446468 -4.118893 35.407349 0.692266 1.687389 0.072123 -0.016397 446881.000000 0 0 1
28.302693 22.672068 -4.817893 36.582471 0.675385 1.702880 0.074539 -0.002603 624384.000000 0 0 1
28.366493 22.001468 -6.014593 36.399146 0.659694 1.736798 0.066464 -0.003231 166302.000000 0 0 1
29.399693 22.617968 -7.022093 37.752142 0.655756 1.757891 0.063376 -0.000950 39265.800000 0 0 1
28.928993 23.579968 -7.978293 38.164836 0.683880 1.781398 0.055164 0.006432 198047.000000 0 0 1
29.873493 24.513568 -8.528693 39.573718 0.687164 1.788015 0.043935 0.004638 514263.000000 0 0 1
30.860793 23.924468 -9.594693 40.209785 0.659459 1.811737 0.043725 -0.001181 441730.000000 0 0 1
30.270893 23.769968 -10.865493 39.992465 0.665677 1.845943 0.040268 0.011129 223031.000000 0 0 1
31.257193 23.212368 -11.731193 40.662600 0.638764 1.863457 0.029032 0.005055 317877.000000 0 0 1
30.853293 22.710168 -13.179593 40.513937 0.634526 1.902136 0.026245 0.012203 -69502.200000 0 0 1
30.667393 23.770368 -14.095093 41.281848 0.659374 1.919240 0.036467 0.010605 240662.000000 0 0 1
30.280193 23.375368 -15.459793 41.258976 0.657414 1.954871 0.037699 0.000798 137011.000000 0 0 1
30.175293 24.585868 -16.397093 42.235978 0.683681 1.969502 0.040477 0.006509 -216149.000000 0 0 1
31.424493 25.142468 -16.697993 43.571383 0.674797 1.964090 0.029181 0.007872 -412404.000000 0 0 1
31.589393 25.441268 -18.072693 44.404618 0.678009 1.989964 0.040845 0.000423 -95580.800000 0 0 1
33.042293 25.851668 -18.376893 45.801878 0.663905 1.983651 0.029090 -0.002183 17991.000000 0 0 1
33.920993 24.787968 -18.045293 45.724279 0.631071 1.976488 0.034122 0.005376 -130924.000000 0 0 1
35.277393 25.133468 -18.317993 47.029082 0.619035 1.970889 0.036178 -0.000821 532816.000000 0 0 1
36.215093 23.891068 -18.196793 47.047203 0.583163 1.967931 0.029144 -0.010857 4913.150000 0 0 1
36.185693 22.968168 -19.248793 46.983584 0.565566 1.992913 0.025663 -0.006075 192600.000000 0 0 1
-36.185736 23.220668 -20.258993 47.529293 -0.570524 2.011131 0.013685 -0.000688 -17955.200000 0 0 1
-36.164736 22.449368 -21.594493 47.730330 -0.555539 2.040281 0.014347 -0.004626 14472.400000 0 0 1
-35.937636 21.067068 -21.352293 46.810847 -0.530219 2.044449 -0.008680 -0.001019 116315.000000 0 0 1
-35.438336 20.463668 -22.501293 46.700595 -0.523669 2.073527 0.004263 -0.002053 -22748.100000 0 0 1
-35.144036 18.935468 -22.336293 45.744564 -0.494201 2.080917 -0.005043 -0.001393 24879.800000 0 0 1
-36.284136 18.110168 -22.203193 46.233088 -0.462944 2.071730 -0.011657 -0.001059 152839.000000 0 0 1
-35.974236 16.700868 -22.119593 45.413005 -0.434637 2.079535 -0.012175 -0.001299 -200942.000000 0 0 1
36.090893 15.869068 -21.991193 45.144129 0.414253 2.079600 -0.011293 0.002179 -332893.000000 0 0 1
35.399793 15.737868 -23.215193 45.163824 0.418333 2.110663 0.026164 0.002579 621493.000000 0 0 1
34.310293 14.806768 -23.053893 43.908069 0.407409 2.123569 0.051129 0.005708 187545.000000 0 0 1
34.514393 13.464068 -23.780293 44.023025 0.371943 2.141446 0.019906 -0.000326 -419130.000000 0 0 1
34.532593 13.496068 -25.195413 44.826919 0.372569 2.167671 0.016676 0.004832 247370.000000 0 0 1
34.921493 12.277568 -25.758193 45.096938 0.338078 2.178732 0.015426 0.009959 -434146.000000 0 0 1
34.807493 12.133668 -27.277943 45.857100 0.335421 2.207871 0.043927 0.003789 472821.000000 0 0 1
33.481693 11.998068 -27.813183 45.150310 0.344092 2.234468 0.042901 0.000984 894396.000000 0 0 1
32.905593 13.157968 -28.394563 45.411027 0.380395 2.246285 0.052879 -0.002153 -68451.200000 0 0 1
33.190193 13.209868 -29.919643 46.596937 0.378786 2.268024 0.056096 -0.006665 161681.000000 0 0 1
34.590393 13.346568 -30.134613 47.777830 0.368246 2.253282 0.050857 0.002956 185441.000000 0 0 1
34.865593 13.200768 -31.501723 48.808077 0.361940 2.272370 0.051747 -0.007644 -617138.000000 0 0 1
36.308093 13.694068 -31.805323 50.173535 0.360666 2.257390 0.058532 -0.002913 1006300.000000 0 0 1
-36.054536 12.671968 -31.428213 49.479702 -0.337981 2.259030 0.058409 0.000548 754747.000000 0 0 1
-35.764536 12.688568 -29.999033 48.373999 -0.340927 2.239728 0.037144 0.003767 -590492.000000 0 0 1
-34.644336 11.628868 -29.718833 47.102756 -0.323847 2.253556 0.051227 -0.002839 240915.000000 0 0 1
-35.003136 10.309668 -30.079633 47.289460 -0.286436 2.260197 0.061077 -0.006315 265501.000000 0 0 1
-33.914536 9.401068 -29.913613 46.188744 -0.270409 2.275277 0.064203 -0.007645 319299.000000 0 0 1
-34.251036 7.880968 -30.235123 46.361684 -0.226158 2.281223 0.074645 -0.012076 -312416.000000 0 0 1
-34.248436 7.791868 -31.680223 47.300159 -0.223702 2.304695 0.078782 -0.019458 -3914.450000 0 0 1
-34.560536 6.532468 -32.293053 47.748770 -0.186811 2.313540 0.079686 -0.023158 -116273.000000 0 0 1
-35.914836 5.832868 -32.098393 48.520146 -0.161003 2.293677 0.092117 -0.015634 -335432.000000 0 0 1
-36.056336 5.433668 -30.756353 47.702592 -0.149574 2.271495 0.091015 -0.014893 1092140.000000 0 0 1
35.965893 4.879368 -30.573323 47.456103 0.134843 2.270831 0.081834 -0.001466 844171.000000 0 0 1
35.736093 4.378268 -29.139653 46.317998 0.121909 2.251219 0.091771 -0.015386 -63948.700000 0 0 1
36.548893 3.239468 -28.899453 46.706467 0.088403 2.237942 0.100750 -0.015758 393967.000000 0 0 1
36.255193 2.549768 -27.686573 45.689021 0.070213 2.221792 0.108928 -0.011256 -212460.000000 0 0 1
-36.274736 1.274368 -27.415613 45.487320 -0.035117 2.217688 0.148202 -0.014910 -66353.200000 0 0 1
-34.919336 1.444868 -27.058063 44.199394 -0.041354 2.229613 0.140103 -0.010631 164915.000000 0 0 1
-34.301036 0.156468 -26.919303 43.603147 -0.004562 2.236192 0.151960 -0.012695 579941.000000 0 0 1
-32.983736 0.103668 -26.085373 42.052161 -0.003143 2.239934 0.135021 -0.014898 428425.000000 0 0 1
-33.190936 0.193468 -24.683193 41.363458 -0.005829 2.210228 0.127256 -0.014946 231113.000000 0 0 1
-31.940536 0.411468 -24.055593 39.987982 -0.012882 2.216262 0.126471 -0.003840 337433.000000 0 0 1
-32.089236 0.196668 -22.495693 39.189462 -0.006129 2.182208 0.110324 -0.003283 -213816.000000 0 0 1
-32.114636 -1.204632 -22.088493 38.996185 0.037493 2.172960 0.109263 -0.018160 227563.000000 0 0 1
-32.471736 -1.368932 -20.721393 38.544308 0.042133 2.138384 0.109348 -0.009537 599778.000000 0 0 1
-33.973836 -1.205832 -20.293893 39.591888 0.035478 2.108980 0.105791 -0.004514 473458.000000 0 0 1
-34.847536 -2.310632 -20.502493 40.497432 0.066210 2.101646 0.103186 -0.012174 -195508.000000 0 0 1
-36.083736 -1.888432 -19.984693 41.291526 0.052287 2.076005 0.100657 -0.008067 -13769.100000 0 0 1
36.270493 -3.094332 -19.766893 41.422863 -0.085107 2.068259 0.104499 -0.014291 122089.000000 0 0 1
35.709793 -3.737632 -20.880493 41.534975 -0.104287 2.097540 0.087414 -0.011531 407645.000000 0 0 1
36.633993 -4.488532 -21.695193 42.812121 -0.121916 2.102211 0.064985 -0.009276 98155.500000 0 0 1
35.992593 -5.390432 -22.795493 42.943660 -0.148660 2.130368 0.067284 -0.007321 -507049.000000 0 0 1
35.579193 -6.648732 -22.332493 42.530281 -0.184741 2.123625 0.074701 -0.001559 442249.000000 0 0 1
34.996993 -7.442932 -23.400693 42.752534 -0.209551 2.149993 0.071950 0.002201 1938460.000000 0 0 1
33.484093 -7.148532 -23.852993 41.728302 -0.210333 2.179283 0.047549 0.008998 1261230.000000 0 0 1
33.376593 -6.031732 -24.691593 41.952991 -0.178788 2.200065 0.050439 0.005538 422703.000000 0 0 1
32.010093 -5.916232 -25.079423 41.092886 -0.182762 2.227249 0.024246 0.010275 417479.000000 0 0 1
31.676093 -4.829632 -26.063043 41.303540 -0.151304 2.253654 0.046767 -0.019457 -96866.900000 0 0 1
31.950393 -5.183032 -27.421173 42.421835 -0.160820 2.273644 0.049484 -0.022636 380532.000000 0 0 1
31.595193 -4.054432 -28.233833 42.565760 -0.127627 2.296015 0.056980 -0.022547 56338.200000 0 0 1
31.103693 -4.412032 -29.670613 43.211700 -0.140909 2.327645 0.064974 -0.021050 36234.700000 0 0 1
30.703393 -3.270432 -30.414193 43.340710 -0.106117 2.348642 0.056955 -0.036991 10395.700000 0 0 1
30.151793 -3.625332 -31.664213 43.873637 -0.119662 2.377071 0.066312 -0.040410 -708890.000000 0 0 1
29.664193 -2.422432 -32.443503 44.027416 -0.081481 2.399259 0.074665 -0.042453 -1284390.000000 0 0 1
28.690993 -1.599332 -31.846493 42.894405 -0.055686 2.407501 0.050016 -0.036626 1172630.000000 0 0 1
27.356393 -2.107932 -31.594293 41.845130 -0.076902 2.426495 0.054587 -0.039070 634120.000000 0 0 1
26.595593 -2.611032 -32.808693 42.314931 -0.097862 2.458058 0.053419 -0.028676 -1773760.000000 0 0 1
27.207593 -3.686632 -33.522683 43.331450 -0.134680 2.455353 0.059839 -0.032164 42623.000000 0 0 1
26.460593 -4.044332 33.548986 42.919157 -0.151670 0.673444 0.048658 -0.026216 -218305.000000 0 0 1
26.824193 -5.433632 32.949116 42.833468 -0.199860 0.693149 0.049143 -0.029783 1051860.000000 0 0 1
28.133893 -5.620832 32.324713 43.220328 -0.197192 0.725895 0.052582 -0.021744 1297980.000000 0 0 1
28.398893 -5.016632 31.033683 42.364528 -0.174845 0.748751 0.055704 -0.021789 -326701.000000 0 0 1
28.915493 -3.564232 31.043873 42.573836 -0.122645 0.753677 0.053562 -0.016904 -334951.000000 0 0 1
30.120193 -3.348232 31.742493 43.886473 -0.110708 0.762247 0.068759 -0.027800 30021.100000 0 0 1
30.410193 -1.960732 31.797183 44.041857 -0.064387 0.764142 0.067075 -0.025024 -315804.000000 0 0 1
31.711793 -1.502732 32.478142 45.417240 -0.047352 0.774021 0.079654 -0.034356 149686.000000 0 0 1
32.826193 -1.961332 31.694883 45.672436 -0.059678 0.803821 0.085381 -0.031255 -546806.000000 0 0 1
33.980393 -1.397532 32.203273 46.836642 -0.041104 0.812665 0.097363 -0.027725 -1123920.000000 0 0 1
35.279493 -2.108932 31.825383 47.559912 -0.059707 0.837713 0.114512 -0.021477 -473660.000000 0 0 1
35.735193 -1.802832 30.560423 47.055219 -0.050407 0.863924 0.103826 -0.023548 -420768.000000 0 0 1
-36.516636 -2.628132 30.280903 47.511103 0.071847 0.879750 0.101912 -0.024976 -103723.000000 0 0 1
-35.787736 -2.245232 28.933523 46.075502 0.062655 0.891869 0.095361 -0.030170 -165247.000000 0 0 1
-36.548836 -2.390032 27.793433 45.978306 0.065300 0.921671 0.103127 -0.033084 -384567.000000 0 0 1
-35.953136 -1.637832 26.711123 44.819578 0.045523 0.932323 0.083734 -0.023214 265335.000000 0 0 1
-26.134167 14.781468 12.776207 32.630017 -0.514741 1.168483 0.064997 -0.009506 8952.300000 0 0 1
-27.409717 14.347068 13.197607 33.634919 -0.482215 1.167581 0.074387 -0.012213 279616.000000 0 0 1
-28.383757 15.321968 13.490107 34.962600 -0.494990 1.174674 0.067907 -0.010722 1144220.000000 0 0 1
-29.763997 14.634368 13.851907 35.943506 -0.456970 1.175177 0.069102 -0.007647 1576270.000000 0 0 1
-30.817987 15.497168 14.327907 37.352369 -0.465934 1.177118 0.092584 -0.008596 644420.000000 0 0 1
-31.931077 14.751668 14.819407 38.168315 -0.432776 1.172049 0.114197 -0.015270 1212930.000000 0 0 1
-33.102237 15.549568 15.528007 39.732433 -0.439151 1.169280 0.110752 -0.015493 642174.000000 0 0 1
-32.740867 16.207368 16.693607 40.166151 -0.459655 1.142179 0.109047 -0.016373 -292337.000000 0 0 1
-33.690807 16.112068 17.718907 41.335565 -0.446083 1.127787 0.122688 -0.033894 -103715.000000 0 0 1
-33.077407 16.637368 19.026007 41.628186 -0.466031 1.096125 0.125733 -0.019437 195240.000000 0 0 1
-32.139587 15.711168 19.533707 40.759779 -0.454681 1.071008 0.128704 -0.018780 -196765.000000 0 0 1
-31.270017 16.229468 20.525807 40.773992 -0.478740 1.043262 0.112846 -0.019492 316472.000000 0 0 1
-31.905487 16.467568 21.935207 42.074865 -0.476473 1.022379 0.106470 -0.027161 352055.000000 0 0 1
-32.837887 17.607268 21.895907 43.217745 -0.492177 1.039511 0.113431 -0.028740 905411.000000 0 0 1
-33.376357 17.963068 23.186107 44.432518 -0.493737 1.021805 0.113735 -0.037717 -986568.000000 0 0 1
-34.379648 17.030268 23.841607 45.170925 -0.459928 1.014778 0.103166 -0.026382 408315.000000 0 0 1
-35.612761 16.822468 23.101107 45.660983 -0.441302 1.040340 0.093669 -0.025049 779553.000000 0 0 1
-36.554007 17.875768 23.233707 46.856629 -0.454828 1.051987 0.072457 -0.026195 -946243.000000 0 0 1
35.415561 17.223468 23.055607 45.634098 0.452648 1.041151 0.066476 -0.029402 -380136.000000 0 0 1
34.989711 16.440668 24.193607 45.605988 0.439256 1.011616 0.060496 -0.020776 145041.000000 0 0 1
33.974801 15.496568 23.871107 44.319979 0.427931 1.002012 0.063206 -0.020719 394774.000000 0 0 1
33.526801 14.781768 25.222707 44.482941 0.415256 0.967913 0.049695 -0.013032 -428858.000000 0 0 1
32.763611 15.438668 26.203207 44.703633 0.440355 0.944493 0.061560 -0.013016 277761.000000 0 0 1
32.783291 14.686668 27.433807 45.200179 0.421183 0.918591 0.062971 -0.000628 7494.870000 0 0 1
31.756811 13.506768 27.439807 44.089351 0.402141 0.899032 0.064936 0.005719 -96717.600000 0 0 1
32.185031 12.421068 26.657707 43.598080 0.368316 0.912914 0.066593 -0.002635 268795.000000 0 0 1
31.340031 11.287768 26.862707 42.792713 0.345707 0.892150 0.069694 -0.006910 322080.000000 0 0 1
32.031241 9.889168 26.569807 42.775586 0.299451 0.900594 0.085972 -0.017240 639692.000000 0 0 1
33.069571 9.477468 27.462907 44.018521 0.279111 0.897080 0.083883 -0.010329 594071.000000 0 0 1
33.649581 8.216068 27.170407 44.023052 0.239480 0.905635 0.085400 -0.011119 -354143.000000 0 0 1
34.712211 7.710668 28.121407 45.334375 0.218582 0.901657 0.088776 -0.015489 -100042.000000 0 0 1
36.001501 8.285368 28.013207 46.362649 0.226201 0.922011 0.089970 -0.011236 -35066.400000 0 0 1
-36.351907 7.556368 28.658507 46.902771 -0.204949 0.913449 0.082075 -0.012986 290109.000000 0 0 1
-35.036429 8.361068 28.890807 46.175075 -0.234258 0.894794 0.071213 -0.015283 892869.000000 0 0 1
-34.205260 8.510968 27.717207 44.840607 -0.243868 0.904438 0.062398 -0.014802 182385.000000 0 0 1
-32.962267 9.080968 28.018707 44.204333 -0.268827 0.884282 0.073112 -0.011155 -337227.000000 0 0 1
-32.311067 9.880468 26.884907 43.179011 -0.296762 0.898686 0.074307 -0.017168 -170984.000000 0 0 1
-31.709447 8.999368 25.941007 41.945364 -0.276536 0.904031 0.066061 -0.017198 72760.900000 0 0 1
-30.860987 9.743668 25.094907 40.952338 -0.305823 0.911219 0.069688 -0.006537 -232984.000000 0 0 1
-30.162837 8.772068 24.147607 39.621369 -0.283017 0.915418 0.063467 -0.013061 99164.400000 0 0 1
-29.259477 9.400468 23.227307 38.522638 -0.310863 0.923600 0.057777 -0.014267 126940.000000 0 0 1
-28.470217 8.393268 22.658707 37.341897 -0.286687 0.918780 0.044963 -0.001239 -484807.000000 0 0 1
-27.343707 8.908068 21.778307 36.073906 -0.314938 0.922645 0.038056 0.001293 -696021.000000 0 0 1
-26.215787 9.527768 22.467407 35.816620 -0.348594 0.892728 0.042421 0.000996 1014240.000000 0 0 1
-25.231777 10.172168 21.729807 34.818100 -0.383218 0.896823 0.040462 0.011552 -157024.000000 0 0 1
-24.635407 9.416868 20.547807 33.433413 -0.365111 0.908931 0.027121 0.009178 -1858480.000000 0 0 1
-25.464617 9.261968 19.415307 33.334441 -0.348844 0.949069 0.020209 0.007936 -94714.400000 0 0 1
-25.008107 8.538668 18.246207 32.112900 -0.329025 0.966493 0.022234 -0.006004 -340079.000000 0 0 1
-24.694407 7.049368 18.468307 31.632036 -0.278068 0.947336 0.022311 0.000222 -1087920.000000 0 0 1
-23.463107 6.752068 19.029807 30.955474 -0.280203 0.908730 0.035035 0.003132 -271007.000000 0 0 1
-23.320807 5.387068 19.447007 30.839369 -0.227016 0.888483 0.058879 -0.001200 -301209.000000 0 0 1
-23.311307 4.282568 18.324807 29.959239 -0.181686 0.912642 0.039718 -0.007704 -1296770.000000 0 0 1
-24.484007 4.009568 17.642907 30.443644 -0.162322 0.952648 0.069020 -0.008190 -398788.000000 0 0 1
-24.383707 2.995168 16.655507 29.680669 -0.122223 0.975014 0.063000 -0.010972 -208447.000000 0 0 1
-24.277307 1.515468 17.138307 29.755770 -0.062342 0.957011 0.080822 -0.017738 -365433.000000 0 0 1
-23.025207 1.066268 17.650307 29.031542 -0.046276 0.917295 0.052342 -0.005650 708441.000000 0 0 1
-23.206707 -0.171732 18.310907 29.561294 0.007400 0.902790 0.090360 -0.015454 36085.600000 0 0 1
-21.856607 -0.887732 18.536707 28.672441 0.040594 0.867810 0.066778 -0.004404 -215617.000000 0 0 1
-20.977807 -0.363832 19.478107 28.628612 0.017342 0.822526 0.049867 -0.006487 19072.200000 0 0 1
-19.938607 -1.323832 19.681607 28.047571 0.066298 0.792984 0.046527 -0.002574 641101.000000 0 0 1
-18.804007 -0.857432 20.648007 27.940402 0.045567 0.739209 0.055608 -0.005611 454576.000000 0 0 1
-19.254607 -0.825832 21.962507 29.219405 0.042864 0.720250 0.064491 -0.010493 -131772.000000 0 0 1
-18.195607 -0.642032 22.879707 29.239927 0.035270 0.672155 0.061454 -0.014918 -471197.000000 0 0 1
-18.627107 -0.965132 24.351707 30.674195 0.051767 0.653629 0.071931 -0.018701 177036.000000 0 0 1
-19.450707 0.001368 24.938807 31.627111 -0.000070 0.662387 0.069056 -0.023513 627882.000000 0 0 1
-20.830507 -0.125332 24.545707 32.193439 0.006017 0.703714 0.114818 -0.024880 89951.300000 0 0 1
-21.821907 0.828068 25.183407 33.332947 -0.037928 0.714363 0.092949 -0.031428 -507124.000000 0 0 1
-21.558807 2.192768 24.806607 32.938703 -0.101362 0.718013 0.084799 -0.026349 433461.000000 0 0 1
-22.743707 2.936168 24.521307 33.573678 -0.128388 0.751928 0.080672 -0.022479 -40964.500000 0 0 1
-22.432407 4.195268 23.659707 32.872404 -0.184882 0.767363 0.079845 -0.014275 192133.000000 0 0 1
-21.886807 4.098968 22.339407 31.541766 -0.185136 0.783782 0.077415 -0.015426 1163490.000000 0 0 1
-20.548007 3.568468 22.303507 30.535242 -0.171950 0.751862 0.069014 -0.009649 209976.000000 0 0 1
-20.210107 2.876968 20.967007 29.263301 -0.141403 0.772032 0.065010 -0.009743 -375398.000000 0 0 1
-19.722307 3.665668 19.978607 28.311681 -0.183767 0.787433 0.055181 -0.010223 108107.000000 0 0 1
-19.452807 2.858668 18.875707 27.255752 -0.145910 0.805792 0.067150 -0.011166 -137850.000000 0 0 1
-18.974407 3.640668 17.633707 26.157795 -0.189569 0.831013 0.042932 -0.005665 902515.000000 0 0 1
-17.554907 3.911168 17.701507 25.235201 -0.219216 0.793351 0.043394 -0.019305 1031340.000000 0 0 1
-17.222107 4.555168 16.449907 24.247680 -0.258574 0.825198 0.049255 -0.019146 1191080.000000 0 1 0
-15.643307 4.722068 16.290907 23.073896 -0.293161 0.786917 0.053711 -0.022281 1367410.000000 0 1 0
-15.002107 5.590468 17.255407 23.538599 -0.356705 0.747974 0.045371 -0.024000 -212929.000000 0 1 0
-15.424607 6.900568 17.453407 24.293163 -0.420668 0.769226 0.035723 -0.030825 -1311690.000000 0 1 0
-15.025307 7.920268 16.287807 23.532598 -0.485114 0.806349 0.025786 -0.022690 -486004.000000 0 1 0
-15.552807 7.692368 15.020907 22.949728 -0.459316 0.857257 0.027113 -0.021799 234056.000000 0 1 0
-16.946207 7.931268 14.905507 23.921812 -0.437743 0.898106 0.024283 -0.014809 87651.800000 0 1 0
-17.506407 7.367068 13.642207 23.384991 -0.398326 0.947919 0.031553 -0.015775 -49212.900000 0 1 0
-17.162707 5.948768 13.567307 22.671969 -0.333652 0.929272 0.020750 -0.018052 308847.000000 0 1 0
-17.834407 5.354468 12.482507 22.417614 -0.291670 0.980248 0.027090 -0.018813 -44299.500000 0 1 0
-17.486507 3.868868 12.326907 21.741636 -0.217741 0.967971 0.030936 -0.015076 21018.000000 0 1 0
-18.045207 3.088068 13.368007 22.668685 -0.169488 0.940094 0.036010 -0.017947 588797.000000 0 1 0
-17.569707 1.685468 13.370807 22.143033 -0.095638 0.922489 0.023934 -0.015368 -271015.000000 0 1 0
-18.346807 0.908968 14.450107 23.371717 -0.049503 0.904253 0.032105 -0.015071 -505314.000000 0 1 0
-19.676907 0.824068 14.052407 24.193593 -0.041856 0.951046 0.042441 -0.009105 -268031.000000 0 1 0
-20.529807 0.271968 15.077307 25.472969 -0.013247 0.937389 0.054570 -0.012262 439308.000000 0 0 1
-21.955107 -0.024532 14.561607 26.345166 0.001117 0.985167 0.062762 -0.015767 -74184.500000 0 0 1
-21.941007 -1.089432 13.618607 25.846879 0.049612 1.015852 0.073612 -0.022552 -114467.000000 0 0 1
-23.246707 -1.320932 13.177707 26.754555 0.056761 1.055790 0.131543 -0.030490 -425975.000000 0 0 1
-23.460607 -2.366032 12.106007 26.505728 0.100511 1.096478 0.125902 -0.034465 -138546.000000 0 0 1
-23.056907 -3.678632 12.553007 26.509080 0.158212 1.077495 0.095068 -0.029305 394697.000000 0 0 1
-23.327307 -4.630232 11.537707 26.433331 0.195943 1.119110 0.101039 -0.027302 -197457.000000 0 0 1
-23.193307 -6.019132 12.125107 26.854752 0.253919 1.102343 0.093210 -0.025498 -54106.300000 0 0 1
-24.042607 -6.305832 13.206007 28.146210 0.256500 1.082419 0.091908 -0.024490 -24047.100000 0 0 1
-23.945007 -7.690432 13.535507 28.560744 0.310764 1.077059 0.082958 -0.030685 436467.000000 0 0 1
-24.975607 -8.108232 14.633307 30.060906 0.313912 1.062387 0.099020 -0.020023 628851.000000 0 0 1
-26.349347 -7.798832 14.529007 31.083789 0.287763 1.084433 0.134884 -0.019917 613131.000000 0 0 1
-27.134017 -8.348832 15.629607 32.407445 0.298496 1.067536 0.129893 -0.020157 -38753.500000 0 0 1
-28.474987 -7.570732 15.759907 33.414302 0.259861 1.079634 0.148423 -0.023723 277440.000000 0 0 1
-29.504207 -7.894732 14.817007 33.946557 0.261455 1.119113 0.116659 -0.022010 1045930.000000 0 0 1
-30.092047 -9.241532 14.779407 34.775970 0.297966 1.131847 0.116356 -0.032303 -121467.000000 0 0 1
-30.596377 -9.919132 16.103007 35.969909 0.313502 1.106627 0.114629 -0.031447 -418027.000000 0 0 1
-29.527227 -10.357632 16.924707 35.575039 0.337372 1.074984 0.112855 -0.016174 229231.000000 0 0 1
-29.927517 -10.940932 18.152107 36.672323 0.350487 1.052983 0.099895 -0.011053 -89345.600000 0 0 1
-28.695097 -11.253232 19.018907 36.218264 0.373734 1.017941 0.100690 -0.012548 3292.800000 0 0 1
-27.797307 -12.172232 18.441507 35.509755 0.412740 1.024722 0.082933 -0.022395 -9745.890000 0 0 1
-26.629027 -12.122632 19.263407 35.030589 0.427204 0.988549 0.078383 -0.023008 905137.000000 0 0 1
-25.389067 -12.937032 18.733307 34.101442 0.471259 0.989221 0.052025 -0.008793 900469.000000 0 0 1
-24.721407 -12.366132 17.555807 32.745619 0.463823 1.004954 0.046865 -0.010123 342889.000000 0 0 1
-23.644907 -13.165832 17.138707 32.033671 0.508060 1.006263 0.035924 -0.016022 -189598.000000 0 0 1
-23.439407 -12.971532 15.702607 31.052187 0.505455 1.040621 0.042321 -0.015084 -146214.000000 0 0 1
-22.778107 -11.790232 15.352707 29.892430 0.477638 1.031423 0.037201 -0.014836 -188762.000000 0 0 1
-22.466107 -11.620132 13.980707 28.900063 0.477336 1.065850 0.043508 -0.011204 437720.000000 0 0 1
-21.042607 -11.035432 13.762507 27.458672 0.483002 1.045802 0.047016 -0.021521 -230606.000000 0 0 1
-21.011307 -9.591432 13.708807 26.858928 0.428237 1.035146 0.047497 -0.026916 574301.000000 0 0 1
-19.750007 -8.984932 13.387407 25.495381 0.426949 1.017974 0.056403 -0.025447 -244793.000000 0 0 1
-19.366007 -9.064132 11.891707 24.466578 0.437757 1.063245 0.061081 -0.025652 -442814.000000 0 1 0
-18.777607 -10.276532 11.477507 24.288656 0.500749 1.078619 0.056700 -0.027976 72584.400000 0 1 0
-18.590207 -10.421432 10.100107 23.584194 0.510935 1.128233 0.073785 -0.022663 -792156.000000 0 1 0
-17.964607 -11.709632 9.610207 23.498908 0.577651 1.149478 0.063180 -0.018278 1033220.000000 0 1 0
-16.539007 -11.874032 9.713807 22.558578 0.622666 1.125635 0.073062 -0.025847 1021610.000000 0 1 0
-15.966707 -11.933432 10.958407 22.747071 0.641832 1.068145 0.077113 -0.022706 -14013.900000 0 1 0
-14.442007 -12.314332 10.956607 21.914871 0.706045 1.047241 0.073592 -0.020984 758722.000000 0 1 0
-14.197207 -13.615232 10.446507 22.272511 0.764476 1.082603 0.072774 -0.026482 -260465.000000 0 1 0
-12.897707 -14.011232 10.772907 21.879694 0.826756 1.055986 0.078700 -0.022146 -401741.000000 0 1 0
-12.585907 -15.477832 10.599407 22.590170 0.888084 1.082407 0.088797 -0.026205 -86183.500000 0 1 0
-12.625107 -16.007532 9.277907 22.398973 0.902985 1.143720 0.066548 -0.027689 173371.000000 0 1 0
-12.593407 -17.446732 9.312907 23.445951 0.945575 1.162324 0.069555 -0.019677 -16266.900000 0 1 0
-12.894607 -18.104932 7.993207 23.620983 0.951919 1.225586 0.060720 -0.021998 -200689.000000 0 1 0
-11.952407 -17.851332 6.978507 22.588264 0.980798 1.256714 0.058496 -0.021480 -109247.000000 0 1 0
-12.355407 -18.517932 5.796107 23.003581 0.982415 1.316086 0.040071 -0.011573 -375167.000000 0 1 0
-11.346207 -18.377332 4.694107 22.101977 1.017679 1.356782 0.048288 -0.006993 -540978.000000 0 1 0
-11.789607 -18.991732 3.524707 22.629721 1.015240 1.414404 0.067315 -0.010291 137486.000000 0 1 0
-10.948707 -18.721432 2.427207 21.823326 1.041612 1.459345 0.075599 -0.024151 -144121.000000 0 1 0
-11.071807 -19.756632 1.340407 22.687135 1.059996 1.511680 0.080024 -0.018848 55253.600000 0 1 0
-10.751407 -21.089032 1.770407 23.737615 1.099331 1.496145 0.068603 -0.021159 -183734.000000 0 1 0
-11.001207 -22.194032 0.911207 24.787737 1.110608 1.534028 0.064377 -0.023248 100407.000000 0 1 0
-10.167107 -22.325932 -0.434393 24.535811 1.143465 1.588502 0.076136 -0.021869 317010.000000 0 1 0
-10.614607 -21.555232 -1.533993 24.075943 1.113217 1.634554 0.089396 -0.032698 983596.000000 0 1 0
-11.740807 -22.047832 -2.338793 25.088312 1.081476 1.664154 0.107971 -0.021162 1956910.000000 0 0 1
-13.025107 -21.143132 -2.319293 24.941222 1.018663 1.663921 0.125214 -0.012305 514539.000000 0 1 0
-13.786607 -21.116332 -1.144293 25.244394 0.992393 1.616140 0.126830 -0.010933 1340520.000000 0 0 1
-14.915607 -20.170532 -1.135393 25.112045 0.934065 1.616025 0.140131 0.006287 1318380.000000 0 0 1
26.306693 -20.085032 -3.685693 33.302176 -0.652082 1.681698 0.072048 -0.041738 -155157.000000 0 0 1
25.018393 -20.200032 -3.127493 32.307003 -0.679241 1.667754 0.040170 -0.032666 68145.400000 0 0 1
25.086093 -21.324932 -2.262893 33.002810 -0.704535 1.639417 0.033154 -0.031973 81087.100000 0 0 1
23.701393 -21.599032 -1.609393 32.107076 -0.739022 1.620943 0.021652 -0.023249 391687.000000 0 0 1
22.820493 -22.178132 -2.554193 31.924416 -0.771124 1.650889 0.032551 -0.023990 -310086.000000 0 0 1
21.885893 -23.039032 -1.947993 31.836833 -0.811061 1.632021 0.011587 -0.014580 -376642.000000 0 0 1
20.875993 -23.657532 -2.899793 31.684297 -0.847777 1.662446 0.021894 -0.017099 -444920.000000 0 0 1
20.112493 -22.687432 -3.553093 30.526323 -0.845488 1.687455 0.030683 -0.026412 -825806.000000 0 0 1
19.302193 -23.335432 -4.480793 30.613633 -0.879711 1.717690 0.036530 -0.016172 61469.700000 0 0 1
18.438993 -22.352332 -5.396693 29.474523 -0.881041 1.754932 0.031856 0.004048 711795.000000 0 0 1
17.377893 -21.645032 -4.731493 28.158224 -0.894315 1.739630 0.035557 -0.000916 706476.000000 0 0 1
17.827593 -20.728032 -3.725393 27.592624 -0.860484 1.706224 0.031607 -0.013160 -598432.000000 0 0 1
16.659793 -20.184732 -2.901993 26.332369 -0.880779 1.681227 0.055771 0.002779 -108762.000000 0 0 1
16.058793 -21.038232 -1.949493 26.538511 -0.918828 1.644322 0.044222 -0.002667 87824.800000 0 0 1
15.514593 -20.343032 -0.866893 25.598692 -0.919249 1.604668 0.069302 -0.001964 -108681.000000 0 0 1
14.946493 -21.182232 0.332707 25.926729 -0.956312 1.557963 0.061300 -0.007310 511040.000000 0 0 1
13.862393 -22.085732 0.122607 26.076053 -1.010284 1.566094 0.057917 -0.015749 186425.000000 0 0 1
13.327093 -22.434932 1.398307 26.132218 -1.034776 1.517262 0.066166 -0.011131 207083.000000 0 0 1
12.345393 -23.635332 1.361607 26.700030 -1.089446 1.519778 0.067872 -0.018025 26988.900000 0 0 1
12.986493 -24.843632 1.688807 28.083930 -1.089131 1.510626 0.062395 -0.015533 -61517.800000 0 0 1
12.173193 -25.967672 1.514207 28.719321 -1.132433 1.518048 0.056813 -0.012597 -292540.000000 0 0 1
12.641693 -27.275342 2.176507 30.141232 -1.136786 1.498523 0.059130 -0.014976 -28498.400000 0 0 1
12.347393 -27.246552 3.593807 30.128859 -1.145307 1.451230 0.074566 -0.020902 230580.000000 0 0 1
12.745093 -28.434692 4.208907 31.443346 -1.149421 1.436536 0.068680 -0.016008 -10263.700000 0 0 1
12.169893 -28.574982 5.651307 31.568547 -1.168169 1.390809 0.068109 -0.019134 -45887.300000 0 0 1
12.501893 -29.848972 6.186607 32.947421 -1.174156 1.381903 0.054864 -0.015171 -6760.260000 0 0 1
12.037693 -29.941422 7.541907 33.140235 -1.188531 1.341209 0.036308 -0.012701 5714.260000 0 0 1
12.274493 -31.293022 8.213007 34.603033 -1.196994 1.331160 0.038294 -0.011891 -13494.500000 0 0 1
11.916893 -31.341342 9.601507 34.878087 -1.207449 1.291907 0.019992 -0.014472 -141343.000000 0 0 1
11.382893 -32.606392 9.866507 35.917893 -1.234923 1.292523 0.016175 -0.013698 66187.100000 0 0 1
10.979193 -32.744632 11.355007 36.355052 -1.247279 1.253145 0.018814 -0.017128 421899.000000 0 0 1
12.176993 -33.141222 12.050307 37.307233 -1.218681 1.241897 0.023057 -0.022677 947371.000000 0 0 1
11.906393 -33.614382 13.399307 38.095017 -1.230380 1.211374 0.023268 -0.020616 135745.000000 0 0 1
10.945393 33.425963 13.637907 37.723853 1.254348 1.200899 0.025373 -0.016183 209709.000000 0 0 1
11.357493 32.252185 13.005507 36.583320 1.232211 1.207343 0.040268 -0.019209 -189871.000000 0 0 1
10.341693 31.294876 13.092407 35.464503 1.251634 1.192681 0.043066 -0.011202 -488740.000000 0 0 1
10.572793 30.146746 12.009207 34.129625 1.233488 1.211228 0.040289 -0.006145 -144411.000000 0 0 1
10.319293 30.474956 10.660707 33.894858 1.244299 1.250842 0.030665 -0.007407 895833.000000 0 0 1
11.250093 31.451556 10.048107 34.881648 1.227282 1.278593 0.012787 -0.010730 628770.000000 0 0 1
10.782793 31.799386 8.660107 34.676606 1.243875 1.318385 0.010734 -0.008621 721849.000000 0 0 1
9.572293 32.589458 8.721107 35.067923 1.285108 1.319467 0.013348 -0.008667 523929.000000 0 0 1
8.917293 32.613986 7.485107 34.629713 1.303900 1.352930 0.012218 -0.009418 -281976.000000 0 0 1
9.270393 33.859921 6.635507 35.727641 1.303559 1.383987 0.017220 -0.001622 -222867.000000 0 0 1
8.596593 -33.236352 7.073607 35.051283 -1.317693 1.367593 0.023966 -0.002566 -69652.100000 0 0 1
9.093893 -32.084522 6.416807 33.960136 -1.294605 1.380702 0.032042 -0.008760 -173385.000000 0 0 1
8.295293 -30.796582 6.674107 32.585043 -1.307683 1.364515 0.037228 -0.006839 -268032.000000 0 0 1
8.502993 -30.213812 7.949707 32.378591 -1.296465 1.322737 0.039031 -0.005525 -286766.000000 0 0 1
7.943793 -28.976662 8.202507 31.145335 -1.303226 1.304290 0.060563 -0.007497 -307659.000000 0 0 1
8.795193 -27.769812 7.791407 30.153340 -1.264074 1.309438 0.066043 -0.014341 -132563.000000 0 0 1
9.558393 -27.041492 8.759107 29.988783 -1.231032 1.274396 0.052014 -0.014180 366946.000000 0 0 1
10.538993 -26.173032 8.228607 29.390610 -1.187994 1.287029 0.064762 -0.020808 238961.000000 0 0 1
10.020093 -25.067572 7.244507 27.951177 -1.190529 1.308619 0.072285 -0.020030 -236012.000000 0 0 1
9.805293 -25.505242 5.947407 27.964849 -1.203773 1.356485 0.078847 -0.018748 -333188.000000 0 0 1
9.080593 -24.559232 5.217807 26.699036 -1.216643 1.374100 0.076034 -0.014875 -89354.800000 0 0 1
8.750093 -25.018332 3.797007 26.774957 -1.234347 1.428505 0.064915 -0.016724 842760.000000 0 0 1
7.774593 -26.097372 3.602107 27.468023 -1.281261 1.439279 0.057690 -0.017484 380847.000000 0 0 1
8.138293 -27.379292 4.087007 28.854134 -1.281871 1.428675 0.063388 -0.017393 -291760.000000 0 0 1
7.106093 -28.456522 3.777107 29.572567 -1.326084 1.442723 0.059116 -0.013464 -154586.000000 0 0 1
5.929293 -28.456572 4.580007 29.426340 -1.365373 1.414518 0.046938 -0.006843 -36795.300000 0 0 1
5.010993 -29.416672 4.055707 30.114770 -1.402071 1.435711 0.045676 -0.004917 72038.100000 0 0 1
5.158393 -30.906272 4.303907 31.627998 -1.405416 1.434294 0.046281 -0.003790 -213783.000000 0 0 1
6.146993 -31.480392 3.454307 32.260391 -1.377959 1.463515 0.052841 -0.005770 -3891.430000 0 0 1
6.202493 -32.867722 3.638407 33.645149 -1.384279 1.462444 0.046128 -0.007636 -102408.000000 0 0 1
7.234893 -33.694312 2.851007 34.580031 -1.359286 1.488256 0.040873 -0.005930 -117431.000000 0 0 1
7.072393 -33.798772 1.431607 34.560457 -1.364523 1.529361 0.060659 -0.011959 -181729.000000 0 0 1
8.026593 33.527777 0.924407 34.487570 1.335818 1.543989 0.045597 -0.011889 -390182.000000 0 0 1
7.621293 32.809976 -0.415093 33.686064 1.342558 1.583119 0.061534 -0.013405 300536.000000 0 0 1
6.505193 31.940216 -0.354593 32.597862 1.369877 1.581674 0.045947 -0.012577 -451125.000000 0 0 1
5.287893 32.625339 -0.447393 33.054117 1.410114 1.584332 0.052126 -0.017780 -1339170.000000 0 0 1
4.110293 31.829366 0.034707 32.093679 1.442372 1.569715 0.055151 -0.019576 -738687.000000 0 0 1
3.857693 30.683536 -0.753893 30.934277 1.445727 1.595170 0.058601 -0.016647 -595552.000000 0 0 1
2.601893 30.125996 -0.551793 30.243180 1.484643 1.589043 0.046950 -0.022857 -532046.000000 0 0 1
2.191993 29.046466 -1.607493 29.173379 1.495474 1.625926 0.044577 -0.023672 -545797.000000 0 0 1
2.008193 29.635756 -2.899593 29.844907 1.503137 1.668105 0.054963 -0.028842 -37657.800000 0 0 1
2.079593 28.690526 -3.889593 29.027571 1.498439 1.705197 0.063059 -0.030685 -122139.000000 0 0 1
1.659393 29.324216 -5.265793 29.839433 1.514269 1.748196 0.072664 -0.032906 -160920.000000 0 0 1
0.301093 29.612866 -5.485793 30.118207 1.560629 1.753961 0.077443 -0.026063 -106686.000000 0 0 1
0.114793 30.462196 -6.612693 31.171882 1.567028 1.784557 0.075223 -0.019431 -206816.000000 0 0 1
0.060893 29.820366 -8.016993 30.879282 1.568754 1.833429 0.080521 -0.022932 -277892.000000 0 0 1
-1.206107 29.295836 -8.389393 30.497255 -1.529650 1.849476 0.083113 -0.021484 287464.000000 0 0 1
-1.405807 29.069966 -9.780993 30.703534 -1.522475 1.895009 0.092736 -0.024450 135895.000000 0 0 1
-1.519907 30.308346 -10.688993 32.173910 -1.520690 1.909458 0.080901 -0.023269 -531086.000000 0 0 1
-0.220807 30.811346 -10.825993 32.658688 -1.563630 1.908678 0.073617 -0.027007 -328779.000000 0 0 1
-0.127407 32.074526 -11.491393 34.071154 -1.566824 1.914818 0.062803 -0.028250 225752.000000 0 0 1
-0.429007 33.354336 -10.591693 34.998281 -1.557935 1.878252 0.055464 -0.031325 -475070.000000 0 0 1
0.549393 33.549287 -9.614093 34.903972 1.554422 1.849848 0.055169 -0.033921 -461960.000000 0 0 1
0.223893 -33.768122 -8.619993 34.851692 -1.564166 1.820724 0.053884 -0.032008 -729387.000000 0 0 1
1.368893 -33.480952 -7.659493 34.373185 -1.529933 1.795516 0.046262 -0.023458 1029940.000000 0 0 1
2.549493 -32.788722 -8.183693 33.890604 -1.493197 1.814681 0.039722 -0.025877 1063890.000000 0 0 1
3.513993 -32.514842 -7.192693 33.485787 -1.463141 1.787282 0.044519 -0.025230 -1394640.000000 0 0 1
4.782593 -31.858492 -7.709793 33.125181 -1.421789 1.805698 0.038186 -0.022137 -789683.000000 0 0 1
5.665593 -32.711442 -8.323793 34.226056 -1.399299 1.816460 0.051633 -0.016148 -321093.000000 0 0 1
6.337393 -33.672542 -7.544493 35.084498 -1.384766 1.787527 0.063540 -0.012829 -1568650.000000 0 0 1
6.341993 33.223353 -8.307793 34.828601 1.382176 1.811652 0.055171 -0.009319 -147237.000000 0 0 1
5.289493 32.328289 -8.031393 33.728330 1.408615 1.811226 0.050100 -0.012567 -341109.000000 0 0 1
4.109893 32.587436 -8.758393 33.993258 1.445340 1.831387 0.041200 -0.028497 -175228.000000 0 0 1
3.380193 31.326156 -9.221393 32.829679 1.463309 1.855513 0.047940 -0.031094 -193889.000000 0 0 1
4.125893 30.688576 -10.215893 32.606382 1.437154 1.889472 0.050359 -0.021576 -518547.000000 0 0 1
3.501593 29.580996 -10.710693 31.654627 1.452972 1.915971 0.051027 -0.029068 -318960.000000 0 0 1
4.344093 28.716966 -11.657893 31.296033 1.420662 1.952502 0.058577 -0.027063 -355826.000000 0 0 1
4.466593 29.174346 -12.997793 32.249581 1.418876 1.985630 0.065718 -0.023851 -101837.000000 0 0 1
5.584693 28.664146 -13.681493 32.249113 1.378375 2.008923 0.063338 -0.034303 2756.300000 0 0 1
5.572593 29.156406 -15.139993 33.322202 1.381946 2.042440 0.068022 -0.031478 -127136.000000 0 0 1
4.617793 28.436726 -15.880093 32.896029 1.409813 2.074572 0.079915 -0.029865 -62531.000000 0 0 1
4.279293 29.044286 -17.149193 33.999672 1.424512 2.099475 0.102598 -0.028851 -54465.300000 0 0 1
3.066993 28.319486 -17.734793 33.554770 1.462917 2.127667 0.092558 -0.030768 -46521.300000 0 0 1
3.514393 27.213156 -18.454593 33.067791 1.442364 2.162871 0.103698 -0.018268 -231770.000000 0 0 1
2.473893 26.615256 -19.165493 32.890851 1.478112 2.192843 0.102441 -0.024605 26804.800000 0 0 1
3.073493 25.404686 -19.862293 32.393750 1.450400 2.230841 0.108982 -0.020057 297384.000000 0 0 1
3.286693 24.331836 -19.011593 31.052878 1.436531 2.229678 0.112652 -0.028495 81358.700000 0 0 1
4.233593 23.396546 -19.516393 30.760547 1.391784 2.258108 0.105430 -0.021857 290097.000000 0 0 1
4.583393 22.318866 -18.483293 29.338905 1.368253 2.252340 0.103567 -0.018947 314372.000000 0 0 1
3.526393 21.406066 -18.226093 28.334529 1.407525 2.269527 0.116559 -0.017930 134700.000000 0 0 1
4.118793 20.390466 -17.483693 27.173793 1.371482 2.269731 0.094734 -0.016179 8126.950000 0 0 1
3.177793 19.217566 -17.255393 26.022332 1.406920 2.295748 0.088708 -0.020634 -309827.000000 0 0 1
2.285393 19.389366 -16.187493 25.361495 1.453469 2.263046 0.094759 -0.032261 -255197.000000 0 0 1
1.426693 18.283866 -16.031193 24.358455 1.492924 2.289138 0.077016 -0.019036 331109.000000 0 1 0
2.100393 17.259466 -15.044193 22.991923 1.449697 2.284086 0.059772 -0.010260 328449.000000 0 1 0
3.226493 16.543366 -15.527293 22.917024 1.378182 2.315215 0.064448 -0.022270 -66344.000000 0 1 0
3.022993 15.328766 -16.311993 22.587400 1.376084 2.377734 0.061767 -0.030610 -177880.000000 0 1 0
2.880793 15.519566 -17.877593 23.848778 1.387262 2.418289 0.063780 -0.029163 911820.000000 0 1 0
4.194493 15.833466 -18.415993 24.646322 1.311832 2.414651 0.066725 -0.029452 1020670.000000 0 1 0
4.137993 16.291166 -19.739893 25.926597 1.322054 2.436229 0.061622 -0.018888 -719296.000000 0 0 1
4.535893 15.256966 -20.798393 26.190121 1.281819 2.488373 0.055691 -0.021240 -526265.000000 0 0 1
3.633393 14.296666 -21.240793 25.860539 1.321922 2.534586 0.051600 -0.017709 -198530.000000 0 0 1
2.533293 14.868366 -21.954193 26.635924 1.402036 2.539642 0.067925 -0.021376 -151016.000000 0 0 1
1.571993 13.872466 -22.546893 26.519405 1.457960 2.587168 0.079529 -0.017409 -504365.000000 0 0 1
0.893193 13.069766 -21.620793 25.279937 1.502562 2.596839 0.074740 -0.010660 233077.000000 0 0 1
0.058593 12.136866 -22.312493 25.399887 1.565969 2.643402 0.061760 -0.009967 388947.000000 0 0 1
-0.646807 11.097066 -21.365793 24.084441 -1.512576 2.661864 0.049947 -0.008734 710719.000000 0 1 0
-1.809007 11.553566 -20.622193 23.707219 -1.415482 2.625735 0.047304 -0.006413 960260.000000 0 1 0
-2.261707 10.707866 -19.550193 22.404993 -1.362637 2.631260 0.039305 -0.003604 -5929.780000 0 1 0
-3.147407 9.504766 -19.893093 22.270650 -1.251021 2.675303 0.034904 -0.011471 -105146.000000 0 1 0
-2.521007 8.465966 -20.627693 22.439469 -1.281376 2.736991 0.030419 -0.009063 -223744.000000 0 1 0
-3.520707 7.501766 -20.860393 22.446110 -1.131995 2.763457 0.030152 -0.003136 117598.000000 0 1 0
-3.040407 6.272166 -21.628393 22.723809 -1.119426 2.829830 0.025389 -0.009244 63241.400000 0 1 0
-2.056607 5.481266 -20.966293 21.768310 -1.211844 2.869299 0.032006 -0.006716 179041.000000 0 1 0
-1.687107 4.373866 -21.733493 22.233347 -1.202657 2.929145 0.038730 -0.005196 -255161.000000 0 1 0
-1.027007 3.199366 -21.003093 21.270181 -1.260183 2.982953 0.031472 -0.006892 384875.000000 0 1 0
0.312993 3.379066 -20.551793 20.830080 1.478433 2.977948 0.033828 -0.016881 82177.100000 0 1 0
0.761793 2.211366 -20.014493 20.150692 1.239039 3.025260 0.025989 -0.010176 106274.000000 0 1 0
2.309293 2.130966 -19.980093 20.225675 0.745258 2.985600 0.026105 -0.018877 -6388.950000 0 1 0
2.979493 2.079866 -21.195593 21.504799 0.609423 2.971810 0.040228 -0.017416 279521.000000 0 1 0
4.392093 2.012666 -20.978793 21.527913 0.429691 2.915245 0.054654 -0.024184 401992.000000 0 1 0
5.046893 1.611866 -22.290393 22.911369 0.309138 2.908240 0.052445 -0.010882 -7310.340000 0 1 0
6.457093 1.467366 -22.151293 23.119839 0.223454 2.851116 0.066779 -0.025434 281453.000000 0 1 0
6.932393 0.977666 -23.345893 24.373030 0.140105 2.850245 0.071719 -0.021166 169100.000000 0 1 0
8.482993 0.969966 -23.492193 24.995702 0.113848 2.792985 0.064193 -0.027812 502281.000000 0 1 0
9.070993 2.264366 -23.413793 25.211425 0.244628 2.761682 0.062504 -0.031631 -1017940.000000 0 0 1
10.431993 2.195666 -23.206793 25.538258 0.207446 2.710972 0.057241 -0.036068 -1004220.000000 0 0 1
14.372793 -21.356032 21.959453 33.835999 -0.978416 0.864531 0.065023 0.004075 493711.000000 0 0 1
13.203793 -22.106432 22.370253 34.109569 -1.032377 0.855508 0.052756 0.009299 1424920.000000 0 0 1
11.910993 -21.489232 22.331253 33.201562 -1.064675 0.833084 0.036975 0.004435 1169290.000000 0 0 1
11.346393 -21.331532 20.868153 31.925769 -1.081950 0.858404 0.035696 -0.004825 -257410.000000 0 0 1
11.889393 -20.203832 20.200753 30.945483 -1.038896 0.859541 0.031850 -0.002127 105182.000000 0 0 1
11.233593 -20.077432 18.957953 29.811086 -1.060678 0.881575 0.060779 -0.004676 276617.000000 0 0 1
11.447493 -18.712332 18.284753 28.557462 -1.021773 0.875934 0.071709 -0.011946 437779.000000 0 0 1
10.647193 -17.749732 19.005553 28.100298 -1.030486 0.828004 0.086112 -0.015432 171760.000000 0 0 1
10.936893 -16.463532 18.564153 27.116255 -0.984427 0.816723 0.088977 -0.014931 -240882.000000 0 0 1
10.033193 -15.334632 19.104753 26.472769 -0.991416 0.764576 0.095501 -0.016243 -388369.000000 0 0 1
8.805593 -15.398332 18.459153 25.600536 -1.051330 0.765486 0.075124 -0.008694 -330398.000000 0 0 1
7.791393 -14.562932 19.037653 25.203512 -1.079530 0.714597 0.055475 -0.007022 1112700.000000 0 0 1
6.329393 -14.917232 18.616653 24.681264 -1.169518 0.716235 0.030473 0.004161 242128.000000 0 1 0
5.997893 -14.746032 17.234553 23.461671 -1.184488 0.745744 0.016288 -0.001584 443160.000000 0 1 0
4.604493 -14.963432 17.009553 23.117754 -1.272275 0.743980 0.000450 0.003988 379187.000000 0 1 0
4.164993 -16.396532 16.920653 23.927013 -1.322041 0.785298 -0.008344 0.012163 -446394.000000 0 1 0
2.848293 -16.519632 16.414653 23.461710 -1.400056 0.795909 0.008983 0.010090 -131800.000000 0 1 0
2.312393 -17.812232 16.553453 24.426207 -1.441698 0.826176 0.012344 0.006448 336482.000000 0 1 0
0.790193 -17.852432 16.282453 24.175442 -1.526563 0.831846 0.011605 0.015713 68652.400000 0 1 0
0.567993 -17.400032 14.959153 22.953431 -1.538165 0.860950 0.019512 0.003338 -670666.000000 0 1 0
-0.792807 -17.602032 14.709953 22.953056 1.525786 0.875164 0.026889 0.005502 -707139.000000 0 1 0
-1.263007 -17.549632 13.249053 22.025489 1.498952 0.925378 0.027746 -0.020223 204646.000000 0 1 0
-2.491207 -18.240732 13.050053 22.566220 1.435062 0.954153 0.026326 -0.012766 234652.000000 0 1 0
-2.325407 -19.671232 12.830453 23.600538 1.453129 0.996015 0.029125 -0.016702 336706.000000 0 1 0
-3.667707 -20.419332 12.567953 24.256023 1.393072 1.026124 0.024461 -0.010416 641213.000000 0 1 0
-4.426507 -20.643832 13.721153 25.179988 1.359572 0.994499 0.045273 -0.030377 -693524.000000 0 0 1
-5.716707 -21.102532 13.449253 25.668658 1.306244 1.019307 0.045292 -0.033652 -164322.000000 0 0 1
-6.349707 -21.787732 14.709753 27.044424 1.287216 0.995706 0.058267 -0.035799 624170.000000 0 0 1
-7.772507 -21.662632 14.688653 27.302711 1.226305 1.002743 0.080014 -0.034826 506907.000000 0 0 1
-8.365807 -22.450532 15.731853 28.661897 1.214103 0.989776 0.075245 -0.035747 31260.000000 0 0 1
-9.903407 -22.421232 15.728753 29.123578 1.154868 1.000277 0.093757 -0.034282 15693.400000 0 0 1
-10.476907 -21.172632 16.063853 28.567347 1.111291 0.973613 0.095879 -0.033785 -286793.000000 0 0 1
-11.871707 -21.215332 15.838653 29.015352 1.060627 0.993367 0.097063 -0.019742 -92460.900000 0 0 1
-12.544407 -19.916132 16.264653 28.610372 1.008709 0.966130 0.108725 -0.018676 -281166.000000 0 0 1
-12.680507 -19.846032 17.689153 29.454480 1.002232 0.926596 0.104786 -0.034741 -14835.900000 0 0 1
-13.016207 -18.559732 18.194753 29.067754 0.959189 0.894456 0.106382 -0.037807 -249196.000000 0 0 1
-13.442107 -18.575632 19.685453 30.220215 0.944379 0.861368 0.095066 -0.023019 -43180.500000 0 0 1
-14.643307 -19.300332 19.814653 31.297759 0.921746 0.885243 0.090770 -0.019472 -20819.700000 0 0 1
-14.788007 -19.896532 21.099253 32.553581 0.931632 0.865658 0.097388 -0.024015 -577157.000000 0 0 1
-16.145207 -20.578632 21.153353 33.639444 0.905540 0.890754 0.094512 -0.022204 -1392350.000000 0 0 1
-16.170907 -21.666732 20.250353 33.779022 0.929637 0.927926 0.097182 -0.030270 753602.000000 0 0 1
-17.464007 -21.885532 19.681953 34.224952 0.897294 0.958099 0.090978 -0.024181 1149160.000000 0 0 1
-18.598207 -22.431632 20.639253 35.707845 0.878558 0.954517 0.082643 -0.027806 -126897.000000 0 0 1
-19.042507 -21.556932 21.664353 36.009202 0.847252 0.925251 0.074970 -0.019699 -143055.000000 0 0 1
-19.915707 -22.206132 22.553053 37.395025 0.839721 0.923411 0.074030 -0.015314 65094.700000 0 0 1
-20.549607 -21.318532 23.690433 37.921007 0.803761 0.896009 0.066360 -0.007626 -205161.000000 0 0 1
-21.584007 -20.516832 23.204053 37.752322 0.760056 0.908868 0.060359 0.001828 -265715.000000 0 0 1
-21.833907 -19.535332 24.187363 37.991805 0.729893 0.880654 0.060524 0.000158 -192451.000000 0 0 1
-22.760607 -18.413632 23.706173 37.670808 0.680213 0.890146 0.056910 0.000205 -239637.000000 0 0 1
-22.431007 -17.784532 22.484553 36.400478 0.670369 0.904982 0.061196 0.002082 -602295.000000 0 0 1
-23.397407 -16.883832 22.055653 36.317410 0.625083 0.918136 0.054941 -0.004584 -558507.000000 0 0 1
-23.032407 -16.222332 20.691953 34.954439 0.613624 0.937296 0.056897 0.000564 554528.000000 0 0 1
-21.975507 -15.248532 20.747253 33.850985 0.606612 0.911071 0.055429 0.003527 -89741.200000 0 0 1
-21.338207 -15.134132 19.539553 32.652032 0.616907 0.929272 0.045166 0.003643 387276.000000 0 0 1
-20.461307 -13.814932 19.348053 31.366616 0.593869 0.906080 0.038744 -0.006266 456413.000000 0 0 1
-20.129807 -13.710232 17.990353 30.279241 0.597922 0.934590 0.031853 -0.011942 144588.000000 0 0 1
-19.369207 -12.548132 17.594153 29.020269 0.574855 0.919433 0.035804 -0.018681 -46850.600000 0 0 1
-18.904307 -12.808632 16.143253 27.964952 0.595500 0.955418 0.035163 -0.023916 -148183.000000 0 0 1
-18.555607 -11.676532 15.407053 26.796068 0.561666 0.958223 0.031232 -0.018807 543452.000000 0 0 1
-17.159607 -11.365132 15.564553 25.804528 0.584987 0.923325 0.054736 -0.028908 540181.000000 0 0 1
-16.690407 -10.083032 14.855953 24.514008 0.543444 0.919750 0.045065 -0.027953 -203180.000000 0 1 0
-17.221007 -8.930032 15.474153 24.814471 0.478381 0.897465 0.050093 -0.020393 77521.600000 0 1 0
-16.732207 -7.794932 14.780953 23.647501 0.435968 0.895596 0.047418 -0.012506 -726391.000000 0 1 0
-16.904407 -6.427232 15.508353 23.823881 0.363331 0.861950 0.043793 -0.006936 693813.000000 0 1 0
-16.039507 -6.301032 16.647253 23.960381 0.374323 0.802679 0.036396 -0.002057 983017.000000 0 1 0
-14.620407 -6.285932 16.442853 22.883109 0.406049 0.769069 0.032957 -0.002130 21660.000000 0 1 0
-13.940007 -6.296732 17.801453 23.470500 0.424269 0.709848 0.035949 0.003842 -329848.000000 0 1 0
-13.988307 -7.433732 18.623153 24.449028 0.488470 0.704843 0.040290 -0.008242 333577.000000 0 1 0
-13.322907 -8.605432 18.045453 24.024814 0.573496 0.721043 0.036492 -0.002917 -108772.000000 0 1 0
-13.378207 -9.793232 19.036853 25.244516 0.631900 0.716516 0.051428 -0.010592 737646.000000 0 0 1
-14.650907 -10.383632 19.369653 26.413110 0.616565 0.747582 0.050108 -0.011976 224790.000000 0 0 1
-15.327607 -9.637532 20.315653 27.212926 0.561305 0.727943 0.038528 -0.011776 -629065.000000 0 0 1
-16.784807 -10.154232 20.589753 28.438990 0.544063 0.761217 0.038529 -0.010232 653537.000000 0 0 1
-17.697307 -10.024332 19.518253 28.189433 0.515372 0.805992 0.038615 -0.008252 273678.000000 0 0 1
-18.092707 -8.700932 19.094553 27.706574 0.448258 0.810453 0.029991 -0.011313 -76274.100000 0 0 1
-19.174207 -8.697432 17.960353 27.674353 0.425844 0.864541 0.044024 -0.016842 -206490.000000 0 0 1
-20.493907 -8.819832 18.375353 28.904036 0.406405 0.881834 0.047069 -0.019775 -817214.000000 0 0 1
-21.327507 -8.962932 17.239453 28.851265 0.397842 0.930381 0.072086 -0.019117 -365408.000000 0 0 1
-22.752707 -9.365232 17.593453 30.247692 0.390474 0.950045 0.068063 -0.009704 -457762.000000 0 0 1
-23.481207 -8.361832 18.292953 30.917947 0.342105 0.937678 0.080383 -0.008346 141463.000000 0 0 1
-24.820607 -8.768132 18.423453 32.130458 0.339576 0.960152 0.092838 -0.006710 -562510.000000 0 0 1
-25.722307 -7.864232 19.246653 33.074415 0.296711 0.949709 0.112192 -0.009362 -217730.000000 0 0 1
-25.444897 -7.831832 20.628753 33.679754 0.298593 0.911581 0.104576 -0.010149 389842.000000 0 0 1
-26.347047 -6.889332 21.183953 34.502024 0.255758 0.909689 0.100776 -0.021048 -359049.000000 0 0 1
-26.346417 -6.857332 22.762253 35.486291 0.254626 0.874425 0.099754 -0.016064 839077.000000 0 0 1
-25.243217 -6.250932 23.466733 35.028299 0.242745 0.836673 0.090674 -0.012998 1054960.000000 0 0 1
-23.942107 -6.806232 23.319263 34.107731 0.276972 0.817983 0.081245 -0.005552 233486.000000 0 0 1
-23.005807 -6.585932 24.547613 34.281584 0.278816 0.772657 0.073922 -0.006371 155152.000000 0 0 1
-22.543407 -5.269332 24.653413 33.819549 0.229619 0.753981 0.060064 -0.003415 615060.000000 0 0 1
-21.632707 -5.059332 25.765803 34.021280 0.229745 0.711561 0.061692 -0.007711 722374.000000 0 0 1
-21.102807 -3.621532 25.874513 33.584735 0.169958 0.691289 0.068120 -0.011248 496568.000000 0 0 1
-20.147207 -3.278132 26.909593 33.775469 0.161296 0.648948 0.054184 -0.010203 574831.000000 0 0 1
-20.657207 -3.141732 28.276373 35.158839 0.150932 0.636390 0.057705 -0.017734 -62562.800000 0 0 1
-21.447307 -1.879832 28.586853 35.787274 0.087425 0.645499 0.072091 -0.019029 552632.000000 0 0 1
-22.621207 -1.782832 27.765193 35.858102 0.078650 0.685176 0.081794 -0.024721 -35682.800000 0 0 1
-23.426007 -0.713532 28.219433 36.682739 0.030450 0.693077 0.078303 -0.031917 201855.000000 0 0 1
-24.777807 -0.517032 27.502993 37.021908 0.020864 0.733428 0.064257 -0.020079 -332991.000000 0 0 1
-24.645507 -0.154232 26.136963 35.924444 0.006258 0.756047 0.068827 -0.023396 -782061.000000 0 0 1
-25.839117 -0.051032 25.445323 36.264681 0.001975 0.793078 0.082029 -0.025325 -589707.000000 0 0 1
-26.618217 -1.366732 25.086593 36.602385 0.051301 0.815669 0.077849 -0.022208 54178.300000 0 0 1
-27.432037 -1.883332 26.138933 37.938206 0.068547 0.810706 0.065596 -0.014733 162561.000000 0 0 1
-27.833707 -3.229332 25.909063 38.163116 0.115506 0.824528 0.057964 -0.017776 690720.000000 0 0 1
-26.693237 -4.329032 26.057883 37.553731 0.160777 0.803929 0.059279 -0.023494 707157.000000 0 0 1
-26.230097 -4.436332 27.409763 38.196782 0.167546 0.770455 0.058012 -0.022303 -29613.800000 0 0 1
-25.415127 -5.595832 27.579243 37.919081 0.216719 0.756390 0.063895 -0.025631 129001.000000 0 0 1
-25.063477 -5.919632 29.030903 38.807387 0.231935 0.725637 0.049334 -0.015362 542605.000000 0 0 1
-26.260677 -6.146932 29.779863 40.177708 0.229934 0.735935 0.056087 -0.022213 497007.000000 0 0 1
-25.933857 -6.982532 30.926303 40.960431 0.263007 0.715098 0.054041 -0.013651 493922.000000 0 0 1
-27.213057 -7.493332 31.675053 42.426519 0.268699 0.727880 0.043372 -0.021243 132945.000000 0 0 1
-27.927117 -8.385832 30.900023 42.485968 0.291710 0.756417 0.036687 -0.025800 -617874.000000 0 0 1
-29.110967 -8.776832 31.540623 43.809726 0.292828 0.767072 0.049815 -0.024323 -267557.000000 0 0 1
-30.074987 -9.536932 30.627323 43.971478 0.307075 0.800250 0.041320 -0.027214 -249869.000000 0 0 1
-29.740827 -10.896832 30.452983 43.939071 0.351204 0.805053 0.044936 -0.022298 1224840.000000 0 0 1
-30.785297 -11.607132 29.695033 44.319917 0.360554 0.836567 0.027989 -0.021426 820469.000000 0 0 1
-30.207007 -12.818532 28.923873 43.742068 0.401325 0.848330 0.040384 -0.020504 323228.000000 0 0 1
-29.261747 -12.401332 27.934083 42.312597 0.400860 0.849733 0.058313 -0.016748 273226.000000 0 0 1
-28.379257 -13.474832 27.547453 41.782957 0.443296 0.850911 0.060060 -0.013180 446198.000000 0 0 1
-27.085047 -12.875532 26.927093 40.304435 0.443754 0.839154 0.076431 -0.013809 47903.300000 0 0 1
-26.174017 -12.195632 27.777043 40.067153 0.436034 0.804791 0.067277 -0.016794 116517.000000 0 0 1
-26.581287 -10.943132 28.357843 40.379255 0.390539 0.792191 0.067110 -0.017727 -781453.000000 0 0 1
-26.559177 -9.657732 27.521363 39.447270 0.348766 0.798650 0.065315 -0.011736 699974.000000 0 0 1
-25.246007 -9.232432 27.123083 38.187175 0.350591 0.780919 0.056648 -0.007412 595278.000000 0 0 1
-24.654807 -9.922832 26.004443 37.182700 0.382634 0.796281 0.055021 -0.009328 -16429.200000 0 0 1
-25.335797 -9.909032 24.581363 36.665174 0.372817 0.836011 0.073267 -0.002819 -99126.700000 0 0 1
-26.533917 -10.658932 24.529563 37.674409 0.381979 0.861772 0.077026 -0.010227 179158.000000 0 0 1
-27.202617 -10.432832 23.275423 37.290370 0.366222 0.896731 0.086017 -0.010003 1122420.000000 0 0 1
-28.619177 -11.112932 23.050053 38.390878 0.370383 0.926790 0.088557 -0.020995 1384610.000000 0 0 1
-29.757187 -10.642332 23.753683 39.534629 0.343464 0.926254 0.087161 -0.013920 132997.000000 0 0 1
-29.797327 -10.721432 25.162693 40.447385 0.345389 0.899362 0.083432 -0.016696 -1325500.000000 0 0 1
-31.232217 -10.527632 25.617643 41.743815 0.325115 0.910074 0.047473 -0.013731 -1139570.000000 0 0 1
-31.681227 -9.209732 25.540833 41.723536 0.282903 0.912027 0.059539 -0.030466 177831.000000 0 0 1
-33.097737 -9.041332 25.595873 42.806012 0.266665 0.929855 0.055387 -0.021236 805484.000000 0 0 1
-33.709187 -9.198832 27.037693 44.181044 0.266402 0.912241 0.041891 -0.025752 -287820.000000 0 0 1
-33.732147 -10.529432 27.599363 44.838059 0.302564 0.907733 0.031394 -0.035485 75120.200000 0 0 1
-34.273728 -10.466132 28.941623 46.063499 0.296375 0.891432 0.055794 -0.036605 -690197.000000 0 0 1
-34.610179 -11.773132 29.561623 47.014474 0.327885 0.890817 0.066974 -0.026137 1337110.000000 0 0 1
-35.881469 -12.375932 29.137813 47.850347 0.332134 0.916077 0.045078 -0.026127 2157690.000000 0 0 1
36.293111 -11.784932 29.738083 48.377972 -0.313974 0.908787 0.059531 -0.025374 -127116.000000 0 0 1
35.001901 -12.336532 29.151153 47.192297 -0.338859 0.904969 0.059480 -0.030778 -366620.000000 0 0 1
34.858641 -12.068532 27.765073 46.170051 -0.333298 0.925587 0.060780 -0.022628 24005.400000 0 0 1
33.595001 -12.381632 27.191403 44.958885 -0.353109 0.921274 0.076016 -0.016303 157697.000000 0 0 1
33.379181 -12.050832 25.724173 43.830644 -0.346466 0.943572 0.066460 -0.017691 110448.000000 0 0 1
32.835561 -10.746032 25.566983 42.980483 -0.316282 0.933716 0.079910 -0.033420 41163.200000 0 0 1
33.009721 -10.530132 24.142823 42.230336 -0.308796 0.962227 0.066343 -0.023876 -74352.200000 0 0 1
32.573371 -9.076732 23.715303 41.301661 -0.271761 0.959173 0.079213 -0.000267 -220026.000000 0 0 1
31.202701 -8.790732 23.628023 40.114449 -0.274612 0.940957 0.088877 -0.011102 -540009.000000 0 0 1
30.911841 -7.457132 23.240983 39.386470 -0.236716 0.939644 0.082588 -0.000827 -764128.000000 0 0 1
29.419821 -7.231132 23.226353 38.174319 -0.241013 0.916717 0.078852 0.008875 -956524.000000 0 0 1
28.789401 -7.950532 22.192153 37.209303 -0.269446 0.931770 0.067581 0.012133 417132.000000 0 0 1
27.411421 -7.564232 22.128653 36.031666 -0.269251 0.909495 0.071402 -0.006153 381804.000000 0 0 1
14.801693 -18.369932 25.317323 34.605077 -0.892555 0.750120 0.054361 0.014341 224884.000000 0 0 1
13.828693 -19.342332 25.627983 34.959292 -0.950111 0.747956 0.036185 0.004879 -26489.600000 0 0 1
14.524893 -20.508032 25.772563 35.996901 -0.954552 0.772789 0.053311 -0.009839 -932617.000000 0 0 1
13.580493 -21.745132 25.805703 36.376021 -1.012535 0.782128 0.019527 -0.014763 358452.000000 0 0 1
12.868793 -21.927332 27.025123 37.104865 -1.040077 0.754894 0.038437 -0.023665 -62711.300000 0 0 1
11.831593 -21.037032 27.264213 36.412644 -1.058470 0.724612 0.039356 -0.007836 -669839.000000 0 0 1
11.087493 -21.238632 28.665043 37.359024 -1.089670 0.696198 0.046153 -0.009564 837777.000000 0 0 1
11.994693 -20.848632 29.711153 38.226833 -1.048720 0.680540 0.049471 -0.007129 456275.000000 0 0 1
11.436793 -19.925332 30.637153 38.294311 -1.049727 0.643427 0.046922 -0.002187 86745.500000 0 0 1
11.115593 -18.493332 30.231283 37.141489 -1.029598 0.619878 0.043969 0.004643 785477.000000 0 0 1
12.262893 -17.604632 30.169543 37.020305 -0.962375 0.618161 0.043411 0.012128 314671.000000 0 0 1
11.978493 -16.294032 29.763733 35.984157 -0.936870 0.596807 0.047516 0.010029 -159045.000000 0 0 1
13.187393 -15.322432 29.685373 35.915256 -0.860146 0.597865 0.045631 0.013511 218625.000000 0 0 1
12.736193 -14.019732 29.496023 35.053942 -0.833334 0.570841 0.064112 0.012653 16383.800000 0 0 1
13.745793 -13.043732 29.740413 35.264401 -0.759198 0.567300 0.061839 0.012398 131081.000000 0 0 1
13.251893 -11.589232 29.671833 34.501314 -0.718566 0.535487 0.058856 0.009328 27269.700000 0 0 1
13.163893 -10.899632 28.361773 33.113143 -0.691579 0.542325 0.071567 0.010867 439303.000000 0 0 1
14.459093 -10.787332 27.776253 33.120268 -0.640974 0.576000 0.067755 0.012273 201633.000000 0 0 1
14.640893 -9.524232 26.877193 32.053865 -0.576743 0.576270 0.069172 0.014017 -24393.600000 0 0 1
14.812493 -8.317432 27.650843 32.452408 -0.511641 0.550921 0.064739 0.002634 595778.000000 0 0 1
16.200093 -8.174632 27.975503 33.345111 -0.467324 0.575411 0.059837 -0.000150 167122.000000 0 0 1
16.641793 -6.670632 28.154823 33.378746 -0.381227 0.567038 0.048850 -0.006569 -285055.000000 0 0 1
18.034493 -6.529132 28.111413 34.031222 -0.347357 0.598738 0.047814 -0.015372 -390517.000000 0 0 1
18.404693 -5.205332 27.786993 33.733443 -0.275628 0.602851 0.050603 -0.016963 193529.000000 0 0 1
19.897793 -4.983732 27.451723 34.268890 -0.245418 0.641718 0.043988 -0.017383 -450013.000000 0 0 1
20.355393 -5.772232 26.326813 33.775165 -0.276319 0.676973 0.039967 -0.007985 509027.000000 0 0 1
21.692993 -5.573732 25.890593 34.234124 -0.251497 0.713188 0.052543 -0.011382 961603.000000 0 0 1
22.853693 -5.973932 26.884783 35.787857 -0.255678 0.720878 0.052798 -0.022535 -178698.000000 0 0 1
23.068893 -5.014632 27.910073 36.555335 -0.214046 0.702078 0.056243 -0.021589 50034.300000 0 0 1
24.194193 -5.442332 28.669633 37.906804 -0.221261 0.713128 0.067027 -0.031208 -5352.300000 0 0 1
24.941993 -4.281632 29.282353 38.702604 -0.170007 0.712700 0.065462 -0.027706 -222922.000000 0 0 1
25.767893 -3.535732 28.377823 38.493981 -0.136363 0.741877 0.064443 -0.017775 412084.000000 0 0 1
25.935793 -2.182432 28.805933 38.822805 -0.083950 0.734770 0.057529 -0.025475 -459714.000000 0 0 1
26.890693 -1.324432 27.953963 38.810920 -0.049213 0.766619 0.064181 -0.020969 130708.000000 0 0 1
28.275793 -1.527532 28.126363 39.911729 -0.053970 0.788776 0.069718 -0.015134 -162064.000000 0 0 1
29.000193 -0.851332 27.113043 39.709609 -0.029348 0.819231 0.063533 0.000556 469784.000000 0 0 1
30.529293 -0.803732 27.405273 41.033312 -0.026320 0.839441 0.055872 -0.002306 443419.000000 0 0 1
30.902393 0.047968 28.478403 42.023560 0.001552 0.826197 0.058543 0.001064 -527570.000000 0 0 1
32.263793 -0.086532 28.757953 43.220131 -0.002682 0.842789 0.074719 -0.011887 -449275.000000 0 0 1
32.733993 0.988168 29.718553 44.223107 0.030179 0.833871 0.085858 -0.020116 -185341.000000 0 0 1
32.765693 2.217768 29.087703 43.870304 0.067583 0.845926 0.075891 -0.014885 145915.000000 0 0 1
33.107293 3.228368 30.014983 44.804179 0.097205 0.836702 0.067860 -0.020214 -76528.000000 0 0 1
33.243593 4.604068 29.337303 44.575905 0.137619 0.852447 0.075129 -0.015831 -106610.000000 0 0 1
33.280893 5.679468 30.215353 45.308297 0.169024 0.840778 0.080037 -0.018951 1050610.000000 0 0 1
31.948593 6.075268 30.602843 44.655968 0.187914 0.815777 0.062207 -0.013145 584347.000000 0 0 1
31.865893 7.046268 31.800383 45.566977 0.217621 0.798360 0.045536 -0.009320 -594323.000000 0 0 1
32.394093 6.460368 33.004161 46.694628 0.196848 0.785820 0.056123 -0.012747 292969.000000 0 0 1
32.314993 7.294368 34.106757 47.547213 0.222006 0.770842 0.066360 -0.015369 -312395.000000 0 0 1
33.065893 6.775568 -32.887573 47.125938 0.202113 2.343209 0.067031 -0.012196 -337060.000000 0 0 1
32.501293 5.680768 -32.169823 46.081478 0.173038 2.343547 0.039892 -0.002941 250261.000000 0 0 1
32.749193 4.389868 -32.786843 46.548444 0.133251 2.352317 0.065192 -0.017649 -64792.200000 0 0 1
32.463193 3.210368 -31.854643 45.594776 0.098572 2.344301 0.067986 -0.025876 -141237.000000 0 0 1
32.736893 1.962668 -32.411953 46.109553 0.059881 2.350310 0.077893 -0.035428 247946.000000 0 0 1
32.917993 0.951968 -31.430613 45.523443 0.028911 2.332875 0.064838 -0.034186 -163131.000000 0 0 1
33.030193 -0.445032 -32.064353 46.036012 -0.013473 2.341313 0.076333 -0.053071 -514206.000000 0 0 1
34.189193 -0.653032 -32.850853 47.418413 -0.019098 2.336143 0.085680 -0.044549 310451.000000 0 0 1
35.055293 -1.727032 -32.522703 47.849581 -0.049226 2.318131 0.092763 -0.041405 362871.000000 0 0 1
35.792193 -1.748632 -31.179163 47.500305 -0.048816 2.286832 0.101339 -0.041392 -850120.000000 0 0 1
34.916693 -1.779632 -30.073043 46.116487 -0.050924 2.281161 0.080783 -0.036415 353314.000000 0 0 1
35.613593 -1.853332 -28.795773 45.836223 -0.051993 2.250075 0.085690 -0.030226 216644.000000 0 0 1
34.584693 -1.612432 -27.677583 44.325495 -0.046589 2.245181 0.086551 -0.026080 27820.100000 0 0 1
34.083693 -0.294832 -27.630443 43.877402 -0.008650 2.251988 0.069768 -0.019814 341997.000000 0 0 1
33.143593 -0.156032 -26.569413 42.478886 -0.004708 2.246534 0.060866 -0.010103 10462.000000 0 0 1
32.675993 1.298668 -26.534043 42.112498 0.039723 2.252446 0.045940 -0.007907 144552.000000 0 0 1
31.882493 1.687568 -27.663543 42.244678 0.052882 2.284768 0.067101 -0.024440 642266.000000 0 0 1
31.260793 2.968468 -27.562413 41.782000 0.094674 2.291178 0.049437 -0.006121 134165.000000 0 0 1
30.341793 3.344268 -28.734843 41.922544 0.109777 2.325986 0.054692 -0.012201 178083.000000 0 0 1
29.435993 4.401368 -28.400183 41.139034 0.148424 2.332764 0.040211 0.000215 119482.000000 0 0 1
28.633893 4.761768 -29.469413 41.364484 0.164790 2.363755 0.042623 -0.003867 -654355.000000 0 0 1
27.461093 5.657668 -29.091103 40.403132 0.203182 2.374629 0.037169 -0.000186 -434182.000000 0 0 1
26.453693 4.964268 -28.387053 39.118622 0.185501 2.382798 0.049426 -0.000853 346381.000000 0 0 1
25.421393 5.830168 -27.918803 38.205989 0.225442 2.390208 0.049254 -0.004087 607216.000000 0 0 1
24.095893 5.054268 -27.654033 37.025710 0.206759 2.414165 0.052341 0.002231 195385.000000 0 0 1
23.288193 4.656968 -28.746193 37.287677 0.197368 2.451096 0.053277 -0.001817 110934.000000 0 0 1
22.002793 4.321168 -28.256493 36.072493 0.193924 2.470794 0.051930 0.002170 7787.820000 0 0 1
21.058493 4.049768 -29.448983 36.429429 0.189991 2.512199 0.035135 0.004475 -451167.000000 0 0 1
21.342593 2.772268 -29.972483 36.899071 0.129170 2.518852 0.034087 -0.002986 189846.000000 0 0 1
20.537493 2.307468 -31.044453 37.294384 0.111885 2.554250 0.018314 -0.005085 -94138.400000 0 0 1
20.826593 3.084768 -32.331933 38.582595 0.147048 2.564391 0.030039 -0.009700 43182.300000 0 0 1
22.080993 2.812968 -32.926153 39.744365 0.126711 2.547128 0.037337 -0.014695 -128489.000000 0 0 1
21.999893 3.402868 33.985337 40.627305 0.153460 0.579905 0.046836 -0.025644 -27355.400000 0 0 1
23.335893 3.143968 33.274242 40.763018 0.133920 0.615846 0.043532 -0.020789 -140020.000000 0 0 1
23.562593 1.753668 33.070428 40.643872 0.074289 0.620370 0.043538 -0.023541 -813810.000000 0 0 1
24.855893 1.627768 32.593328 41.021825 0.065395 0.652553 0.049687 -0.025912 -808068.000000 0 0 1
25.372293 0.169168 32.390754 41.145386 0.006667 0.664497 0.044887 -0.031700 -283707.000000 0 0 1
24.829093 -0.446132 31.258223 39.921916 -0.017966 0.671348 0.040092 -0.024129 385205.000000 0 0 1
23.462893 -0.839632 31.239683 39.078512 -0.035770 0.644487 0.039880 -0.025695 -14619.100000 0 0 1
22.976593 -1.977332 32.180453 39.590595 -0.085847 0.621801 0.037572 -0.028417 -501125.000000 0 0 1
23.232193 -3.298132 31.795713 39.516830 -0.141022 0.635775 0.041107 -0.034147 355883.000000 0 0 1
22.613293 -4.139432 32.774629 40.033389 -0.181049 0.611684 0.045246 -0.036402 -160840.000000 0 0 1
22.499993 -5.645332 32.407642 39.854419 -0.245829 0.621252 0.054564 -0.034923 1260170.000000 0 0 1
23.795793 -6.326932 32.343178 40.649121 -0.259872 0.650688 0.054872 -0.034810 1174680.000000 0 0 1
23.669993 -7.718632 32.122473 40.641101 -0.315221 0.659345 0.076956 -0.040990 -458074.000000 0 0 1
25.007993 -8.389132 31.806533 41.321094 -0.323662 0.692361 0.056942 -0.034507 -276359.000000 0 0 1
25.461693 -8.129832 30.533313 40.579246 -0.309065 0.719043 0.070172 -0.033893 -339327.000000 0 0 1
26.753493 -8.634332 30.257993 41.301903 -0.312183 0.748655 0.066149 -0.028713 190596.000000 0 0 1
27.145393 -8.248532 28.854703 40.466091 -0.294999 0.776945 0.071404 -0.030823 -272225.000000 0 0 1
26.205293 -8.780032 27.974373 39.323935 -0.323293 0.779332 0.055215 -0.025434 -401195.000000 0 0 1
26.506493 -8.448632 26.657343 38.530345 -0.308558 0.806744 0.076487 -0.018538 427641.000000 0 0 1
25.613193 -9.141132 25.561613 37.322808 -0.342801 0.816358 0.047906 -0.017863 166622.000000 0 0 1
24.304493 -8.685632 25.302113 36.143402 -0.343223 0.795332 0.049742 -0.011961 -87009.900000 0 0 1
23.685993 -9.481232 24.316913 35.245316 -0.380755 0.809400 0.046592 -0.012454 -726028.000000 0 0 1
22.261193 -9.077232 24.034373 33.994234 -0.387178 0.785530 0.003516 -0.003409 -1284060.000000 0 0 1
21.344693 -9.317432 25.035183 34.193140 -0.411589 0.749294 0.015376 0.006296 -498138.000000 0 0 1
20.068793 -8.894632 24.570683 32.948284 -0.417191 0.729159 0.024853 0.008972 913213.000000 0 0 1
18.968593 -8.969732 25.735413 33.205046 -0.441711 0.684010 0.029646 0.003687 347600.000000 0 0 1
18.612393 -10.234332 26.305853 33.810659 -0.502741 0.679266 0.040388 0.010263 125277.000000 0 0 1
19.627793 -11.055132 26.861883 35.057481 -0.512950 0.697852 0.034305 0.007663 -380413.000000 0 0 1
19.093693 -12.214032 27.695933 35.788495 -0.569093 0.685855 0.046894 0.007422 202586.000000 0 0 1
18.398593 -13.191732 26.867663 35.134048 -0.622042 0.700192 0.070068 0.007525 958156.000000 0 0 1
17.432893 -13.943332 27.610723 35.505976 -0.674637 0.679899 0.059955 0.012257 163602.000000 0 0 1
18.076593 -15.090032 28.350343 36.853958 -0.695593 0.693111 0.082823 0.016120 -155685.000000 0 0 1
17.107193 -15.841932 29.086023 37.277602 -0.747017 0.675723 0.070250 0.014741 517572.000000 0 0 1
17.611893 -17.035032 29.713833 38.513413 -0.768750 0.689571 0.079808 0.011590 -263600.000000 0 0 1
17.877393 -18.231032 28.849343 38.526047 -0.795192 0.724506 0.080959 0.010356 92249.700000 0 0 1
19.017593 -17.979732 28.051743 38.364566 -0.757353 0.750733 0.079313 0.006958 267297.000000 0 0 1
19.238993 -19.008532 27.076633 38.270187 -0.779373 0.784824 0.074742 0.005065 62802.300000 0 0 1
20.194793 -18.577032 25.942143 37.761496 -0.743697 0.813444 0.074934 -0.010095 613521.000000 0 0 1
21.550593 -18.415032 26.360113 38.709134 -0.707102 0.821697 0.082920 -0.009853 520661.000000 0 0 1
22.397093 -17.969132 25.333883 38.292625 -0.676140 0.847864 0.067581 -0.006087 -490550.000000 0 0 1
23.824993 -17.626132 25.702483 39.229179 -0.636952 0.856365 0.059217 -0.005329 -553036.000000 0 0 1
24.615593 -18.743432 26.034253 40.435455 -0.650786 0.871281 0.065805 -0.012550 195192.000000 0 0 1
25.931993 -18.434032 26.456113 41.378832 -0.617978 0.877126 0.047034 -0.008890 -6106.610000 0 0 1
26.763793 -19.695732 26.634733 42.586752 -0.634422 0.895123 0.042254 -0.008046 -468353.000000 0 0 1
26.530493 -20.426632 27.811123 43.526692 -0.656135 0.877671 0.056027 -0.003835 -577156.000000 0 0 1
27.430193 -21.427832 28.072313 44.717136 -0.663158 0.892104 0.061885 -0.009907 -618822.000000 0 0 1
26.808893 -22.591532 28.884643 45.424846 -0.700234 0.881651 0.068774 -0.010331 -70137.900000 0 0 1
26.709793 -22.270232 30.272143 46.106170 -0.695005 0.854528 0.068147 -0.008926 65872.200000 0 0 1
26.098593 -23.335132 31.011253 46.769250 -0.729554 0.845885 0.062710 -0.010178 -161940.000000 0 0 1
25.741893 -23.074532 32.464151 47.423625 -0.730812 0.816801 0.063215 -0.009082 -85902.500000 0 0 1
25.254593 -24.277632 33.036575 48.151980 -0.765677 0.814696 0.054091 -0.005987 149918.000000 0 0 1
25.119493 -24.231832 -33.792333 48.580781 -0.767414 2.340038 0.063354 -0.003406 -279760.000000 0 0 1
24.957293 -25.676802 -33.263753 48.873734 -0.799607 2.319386 0.057591 -0.005750 421575.000000 0 0 1
23.740693 -26.397542 -33.441233 48.772602 -0.838339 2.326301 0.071798 -0.015385 122208.000000 0 0 1
23.366193 -26.760532 33.484082 48.818939 -0.853010 0.814980 0.063844 -0.016579 -413753.000000 0 0 1
22.042893 -27.503022 33.344008 48.519359 -0.895159 0.813126 0.079546 -0.018118 -350435.000000 0 0 1
22.060993 -28.887052 33.771567 49.615199 -0.918586 0.822120 0.070216 -0.022618 -159096.000000 0 0 1
20.800793 -29.506432 33.921629 49.537657 -0.956751 0.816516 0.095295 -0.029035 -219464.000000 0 0 1
20.814193 -31.074442 34.045009 50.575826 -0.980616 0.832339 0.069929 -0.031456 -248712.000000 0 0 1
21.184293 -31.567712 -32.952363 50.310564 -0.979748 2.284951 0.032188 -0.029694 1342640.000000 0 0 1
22.606193 -31.866262 -32.931363 51.097683 -0.953784 2.271137 0.023044 -0.017564 689269.000000 0 0 1
23.142193 -32.639582 -31.758453 51.083292 -0.954041 2.241707 0.008299 -0.014337 -494845.000000 0 0 1
24.420893 -33.133952 -32.127603 52.215147 -0.935644 2.233554 -0.000036 -0.012940 36520.000000 0 0 1
24.928193 -33.898672 -31.075853 52.309114 -0.936722 2.206919 -0.003100 0.001511 288732.000000 0 0 1
26.099493 -33.208722 -30.292503 51.977288 -0.904698 2.192970 -0.008090 -0.002334 440.382000 0 0 1
26.439493 -33.847992 -29.097743 51.878820 -0.907671 2.166244 -0.000059 0.007500 -92988.700000 0 0 1
27.157393 -32.896042 -28.315863 51.200211 -0.880668 2.156807 0.007036 0.001466 -472999.000000 0 0 1
27.323893 -33.179632 -26.857433 50.683378 -0.881881 2.129286 0.008970 0.000840 350463.000000 0 0 1
28.298893 34.078835 -26.580493 51.659625 0.877795 2.111257 0.017159 0.017090 207097.000000 0 0 1
29.624793 -33.689552 -26.386413 52.046681 -0.849510 2.102469 0.026029 0.005912 346158.000000 0 0 1
-27.641137 -30.934929 8.997207 42.449406 0.841570 1.357225 0.052590 -0.005053 25333.600000 0 0 1
-27.559097 -32.117929 9.746907 43.428878 0.861642 1.344434 0.057625 -0.013576 463073.000000 0 0 1
-26.216007 -32.151429 10.236107 42.729046 0.886740 1.328885 0.055867 -0.010765 473111.000000 0 0 1
-26.062987 -32.882329 11.565007 43.523284 0.900575 1.301846 0.055615 -0.010964 -17923.900000 0 0 1
-26.088177 33.952868 11.591207 44.359287 -0.915645 1.306425 0.057123 0.004034 -102525.000000 0 0 1
-27.371407 33.362768 11.482707 44.655580 -0.883729 1.310735 0.038312 -0.011366 15785.000000 0 0 1
-27.370247 31.834268 11.089907 43.422772 -0.860656 1.312541 0.039870 -0.002471 73438.000000 0 0 1
-26.639557 31.624868 9.916807 42.522246 -0.870754 1.335414 0.056252 -0.011298 -64140.400000 0 0 1
-26.586507 30.266568 9.506207 41.391732 -0.850037 1.339063 0.064718 -0.010792 -89141.800000 0 0 1
-26.061717 29.934668 8.109007 40.509918 -0.854452 1.369261 0.052988 -0.000607 337945.000000 0 0 1
-24.643807 29.872668 8.064307 39.556625 -0.881019 1.365490 0.045924 0.000687 393631.000000 0 0 1
-24.109207 29.790268 6.750407 38.913776 -0.890411 1.396443 0.033902 0.005437 632797.000000 0 0 1
-22.776107 28.970668 6.649807 37.446904 -0.904540 1.392270 0.066498 0.004384 535325.000000 0 0 1
-22.962307 27.616768 6.897507 36.572244 -0.877163 1.381060 0.051279 0.005460 75948.000000 0 0 1
-23.652607 26.839068 5.935807 36.263139 -0.848423 1.406369 0.043599 -0.001949 -261900.000000 0 0 1
-23.723007 25.295368 6.272707 35.241787 -0.817464 1.391852 0.046752 0.003854 -326516.000000 0 0 1
-24.747307 24.996268 7.211307 35.906066 -0.790403 1.368583 0.049525 0.000904 354370.000000 0 0 1
-24.912807 23.621668 7.446307 35.129456 -0.758802 1.357208 0.053414 -0.011248 -346909.000000 0 0 1
-25.457007 22.789168 6.338807 34.750336 -0.730158 1.387359 0.054991 -0.028469 -765667.000000 0 0 1
-26.781497 23.017568 5.895207 35.802381 -0.709959 1.405383 0.055647 -0.031221 216950.000000 0 0 1
-26.914087 22.374368 4.643107 35.306358 -0.693552 1.438905 0.051659 -0.032793 31954.600000 0 0 1
-26.433747 23.229468 3.410907 35.355134 -0.720967 1.474170 0.043171 -0.031710 60228.100000 0 0 1
-25.111917 23.737768 3.405207 34.722982 -0.757275 1.472571 0.047840 -0.026998 247143.000000 0 0 1
-24.968807 24.489668 2.231807 35.045202 -0.775711 1.507070 0.044919 -0.021674 -141234.000000 0 0 1
-23.621107 25.232368 2.170307 34.631479 -0.818368 1.508087 0.051488 -0.015899 -55563.800000 0 0 1
-23.384207 25.829968 0.904207 34.854354 -0.835054 1.544851 0.035929 -0.020251 -1047860.000000 0 0 1
-22.205207 26.534668 0.831907 34.609997 -0.873994 1.546757 0.045815 -0.018468 -1147550.000000 0 0 1
-21.879107 27.026968 -0.592793 34.777920 -0.890272 1.587842 0.056651 -0.020144 39329.700000 0 0 1
-21.547107 26.010568 -1.518293 33.810246 -0.878978 1.615718 0.048171 -0.020122 296728.000000 0 0 1
-20.322207 25.311268 -1.322893 32.486958 -0.894295 1.611528 0.046985 -0.019748 196766.000000 0 0 1
-19.894307 24.295068 -2.390193 31.492012 -0.884660 1.646768 0.048278 -0.028650 -592755.000000 0 0 1
-20.923207 23.389368 -2.490993 31.480918 -0.840995 1.650006 0.043506 -0.031958 -494625.000000 0 0 1
-20.601607 22.279668 -3.289893 30.522667 -0.824511 1.678791 0.044237 -0.028480 -391768.000000 0 0 1
-21.789307 21.618568 -3.996693 30.953351 -0.781465 1.700278 0.036132 -0.016570 -182833.000000 0 0 1
-22.171307 22.482768 -5.072993 31.980885 -0.792373 1.730095 0.024390 -0.011398 -1126450.000000 0 0 1
-23.449907 22.187168 -5.478993 32.744281 -0.757736 1.738914 0.030475 -0.006625 -814586.000000 0 0 1
-23.721407 22.935968 -6.799493 33.689715 -0.768566 1.774019 0.028410 -0.002195 259270.000000 0 0 1
-23.011307 22.301668 -7.876993 32.998965 -0.769739 1.811828 0.015634 -0.004107 366377.000000 0 0 1
-22.720207 23.200668 -8.974493 33.690063 -0.795861 1.840436 0.021262 -0.009287 -202984.000000 0 0 1
-22.090007 22.627868 -10.268893 33.248143 -0.797425 1.884786 0.020974 -0.010038 -300104.000000 0 0 1
-22.987407 21.905668 -11.073093 33.628746 -0.761307 1.906332 0.009860 -0.005193 -2332.320000 0 0 1
-22.295807 21.341468 -12.194793 33.185452 -0.763532 1.947088 0.009505 0.001083 -92325.200000 0 0 1
-23.124307 20.888768 -13.384293 33.914798 -0.734649 1.976477 0.008302 -0.006822 -425005.000000 0 0 1
-23.790907 19.662668 -13.275193 33.598490 -0.690679 1.976987 0.012766 0.001341 188555.000000 0 0 1
-25.021007 19.786168 -13.976093 34.826347 -0.669095 1.983741 0.015779 -0.006793 400764.000000 0 0 1
-25.844077 18.523068 -14.319293 34.872088 -0.621862 1.993934 0.052857 -0.010825 609903.000000 0 0 1
-25.140937 17.756968 -15.321493 34.382042 -0.614940 2.032668 0.047122 -0.011487 482558.000000 0 0 1
-25.919937 16.594468 -15.605793 34.507395 -0.569469 2.040077 0.071512 -0.018679 3241.000000 0 0 1
-25.581877 15.735068 -16.841193 34.433277 -0.551439 2.081850 0.080202 -0.015051 355288.000000 0 0 1
-24.448507 14.889868 -16.633793 33.107714 -0.547033 2.097185 0.093419 -0.017984 318041.000000 0 0 1
-23.987907 14.239468 -17.735893 33.056679 -0.535708 2.137116 0.100611 -0.022096 309272.000000 0 0 1
-23.137107 12.925868 -17.454393 31.734203 -0.509471 2.153182 0.101192 -0.019052 693749.000000 0 0 1
-21.867507 13.196968 -16.883293 30.616881 -0.542987 2.154883 0.103137 -0.035023 40486.900000 0 0 1
-21.186407 11.990468 -16.689493 29.515663 -0.515007 2.171769 0.106995 -0.032301 344223.000000 0 0 1
-19.879007 12.053868 -15.838893 28.130787 -0.545084 2.168862 0.109122 -0.035833 320430.000000 0 0 1
-18.828107 12.796168 -16.381493 28.046263 -0.596924 2.194553 0.099864 -0.032001 -66871.100000 0 0 1
-17.826207 13.180568 -15.477693 27.038121 -0.636678 2.180274 0.092560 -0.021287 -422234.000000 0 0 1
-16.894407 14.205068 -16.043393 27.287276 -0.699137 2.199311 0.067667 -0.017815 -826006.000000 0 0 1
-16.103607 13.865068 -17.148293 27.306230 -0.710841 2.249776 0.087978 -0.030997 -92826.500000 0 0 1
-15.448407 15.074768 -17.482693 27.776725 -0.773158 2.251578 0.068112 -0.015402 -64272.800000 0 0 1
-14.375207 14.973268 -18.611093 27.878632 -0.805773 2.301744 0.062082 -0.017729 1019430.000000 0 0 1
-13.243807 14.163668 -18.229593 26.614394 -0.818948 2.325335 0.053970 -0.020797 603504.000000 0 0 1
-12.175807 14.340868 -19.188593 26.872158 -0.866866 2.366091 0.059073 -0.023710 396924.000000 0 0 1
-11.303207 13.092968 -19.183893 25.830409 -0.858629 2.407869 0.050061 -0.030709 -278975.000000 0 0 1
-11.820307 12.076668 -20.085893 26.248974 -0.796126 2.442159 0.077018 -0.027119 166935.000000 0 0 1
-11.183707 10.809468 -19.904893 25.261129 -0.768384 2.478294 0.048395 -0.015699 -86230.500000 0 0 1
-11.743707 9.715868 -20.816693 25.800144 -0.691182 2.509587 0.071666 -0.022441 71033.800000 0 0 1
-11.317607 9.948168 -22.192293 26.824469 -0.721091 2.545108 0.074849 -0.025731 26910.300000 0 0 1
-11.797407 8.935268 -23.069193 27.408128 -0.648216 2.571205 0.084054 -0.001439 -6576.720000 0 0 1
-11.375307 9.275068 -24.484293 28.546542 -0.684042 2.601571 0.075336 -0.020071 -178088.000000 0 0 1
-9.987007 9.177268 -24.745193 28.218560 -0.743171 2.640196 0.060645 -0.019303 -96793.200000 0 0 1
-9.682107 8.369268 -25.876633 28.868460 -0.712798 2.682294 0.041255 -0.025461 -199091.000000 0 0 1
-9.425707 9.196668 -27.155073 30.179805 -0.773100 2.690053 0.075190 -0.029107 256090.000000 0 0 1
-8.129207 9.775268 -27.279423 30.096624 -0.877076 2.705466 0.073679 -0.032055 415765.000000 0 0 1
-7.845307 10.933368 -26.494323 29.715930 -0.948385 2.671633 0.044768 -0.022516 793074.000000 0 0 1
-6.373707 11.488468 -26.670043 29.730459 -1.064282 2.683870 0.042856 -0.019781 762122.000000 0 0 1
-6.116407 11.884468 -27.978413 31.007138 -1.095493 2.695922 0.040697 -0.022986 647308.000000 0 0 1
-4.761407 12.336668 -28.018623 30.982375 -1.202455 2.700629 0.061182 -0.024025 444603.000000 0 0 1
-4.129307 12.606968 -29.418283 32.271073 -1.254267 2.717954 0.067561 -0.027898 253830.000000 0 0 1
-2.760607 12.949968 -29.267113 32.122990 -1.360765 2.716730 0.084287 -0.040487 248817.000000 0 0 1
-2.034607 12.680568 -30.478543 33.073826 -1.411702 2.742800 0.083573 -0.037444 -681380.000000 0 0 1
-0.547207 12.645468 -30.270933 32.810618 -1.527550 2.745552 0.090341 -0.048580 -1403190.000000 0 0 1
-0.062507 11.599668 -29.452623 31.654592 -1.565408 2.766402 0.067366 -0.028843 1097970.000000 0 0 1
1.345893 11.305168 -29.614653 31.727684 1.452303 2.774573 0.086195 -0.034381 1225730.000000 0 0 1
1.789993 10.519368 -30.870153 32.662325 1.402249 2.808789 0.085760 -0.032439 -542872.000000 0 0 1
1.588993 11.293868 -32.029493 33.999482 1.431019 2.799511 0.094027 -0.046604 149259.000000 0 0 1
1.944793 10.523668 -33.164643 34.848577 1.388056 2.829453 0.092299 -0.035870 -96134.000000 0 0 1
2.003093 11.345768 33.771617 35.682783 1.396047 0.328770 0.096077 -0.044447 -330636.000000 0 0 1
3.104793 12.208968 33.733947 36.009413 1.321771 0.357401 0.091514 -0.047709 -456545.000000 0 0 1
3.111693 12.911468 32.546498 35.152001 1.334304 0.387441 0.090222 -0.044670 726483.000000 0 0 1
4.557893 13.379468 32.144383 35.114754 1.242463 0.414272 0.086258 -0.029743 821780.000000 0 0 1
5.328193 12.267268 31.699863 34.405768 1.161039 0.399249 0.077442 -0.037137 -725652.000000 0 0 1
6.676293 12.604568 31.608093 34.677364 1.083693 0.423903 0.064323 -0.022015 -298548.000000 0 0 1
7.533093 11.396268 31.104973 33.972662 0.986717 0.413828 0.047119 -0.017098 117848.000000 0 0 1
7.260793 11.110168 29.776013 32.600091 0.991946 0.419305 0.050740 -0.023518 -275923.000000 0 0 1
8.116693 10.075168 29.393123 32.114567 0.892642 0.414648 0.051519 -0.019762 -24430.900000 0 0 1
7.635493 9.182268 28.238113 30.659515 0.877113 0.400098 0.048417 -0.017523 274101.000000 0 0 1
6.535293 8.338368 28.589983 30.489762 0.906036 0.354871 0.060111 -0.030716 225849.000000 0 0 1
6.175093 7.528568 27.499883 29.172842 0.883846 0.340303 0.066307 -0.033355 -62008.200000 0 0 1
5.225093 6.345368 27.856653 29.044077 0.881919 0.286933 0.080791 -0.032025 155232.000000 0 0 1
5.841093 5.323868 28.576553 29.649306 0.739106 0.269821 0.063223 -0.024348 261338.000000 0 0 1
4.791193 4.559768 29.149973 29.890934 0.760654 0.223123 0.080426 -0.018782 -210265.000000 0 0 1
5.292793 3.282368 29.963253 30.603662 0.555110 0.204936 0.074911 -0.014270 232249.000000 0 0 1
5.689193 2.166868 29.144443 29.773492 0.363911 0.205925 0.082110 -0.016713 548732.000000 0 0 1
7.037393 2.165468 28.667873 29.598330 0.298514 0.251405 0.065719 -0.012669 368296.000000 0 0 1
7.352293 0.813968 28.057823 29.016551 0.110260 0.257776 0.066513 -0.019008 -19738.000000 0 0 1
7.691693 -0.251032 28.955453 29.960698 -0.032625 0.259775 0.053677 -0.001921 -56011.700000 0 0 1
7.788993 -1.437432 28.174883 29.267024 -0.182493 0.274047 0.074227 -0.003283 -104296.000000 0 0 1
8.571093 -2.649032 28.728653 30.096786 -0.299753 0.302676 0.070267 0.010489 1216010.000000 0 0 1
10.001093 -2.419232 28.756443 30.541899 -0.237338 0.343621 0.050897 0.007519 791738.000000 0 0 1
10.688493 -3.626032 28.910423 31.035537 -0.327063 0.372209 0.044771 0.005089 -453511.000000 0 0 1
12.224793 -3.456532 28.974933 31.637635 -0.275555 0.413208 0.039311 0.004970 524478.000000 0 0 1
13.044193 -4.572632 28.615473 31.779006 -0.337164 0.449988 0.046169 -0.000278 353921.000000 0 0 1
12.988693 -5.578332 29.599983 32.802179 -0.405656 0.445539 0.053087 0.003554 -937058.000000 0 0 1
12.295993 -6.889132 29.181963 32.407384 -0.510697 0.449941 0.057862 0.006652 793665.000000 0 0 1
10.861893 -6.736432 29.116543 31.798323 -0.555133 0.413642 0.051931 0.002251 689108.000000 0 0 1
10.367293 -8.052232 28.904843 31.746010 -0.660369 0.426297 0.055975 0.005769 -394086.000000 0 0 1
8.881793 -8.189632 28.583843 31.032119 -0.744875 0.399887 0.067726 0.002498 -532601.000000 0 0 1
8.071893 -7.700832 29.598933 31.631553 -0.761877 0.360443 0.074570 0.001665 -1465690.000000 0 0 1
6.755093 -7.635732 29.199693 30.928268 -0.846516 0.335912 0.083949 0.001358 -1429340.000000 0 0 1
5.980793 -6.828732 30.237683 31.570856 -0.851498 0.291646 0.082743 -0.005683 -271463.000000 0 0 1
5.639393 -7.534832 31.431493 32.810291 -0.928292 0.290933 0.074922 -0.008403 -186773.000000 0 0 1
5.040293 -6.777032 32.436250 33.517802 -0.931319 0.254727 0.086673 -0.009922 -386157.000000 0 0 1
5.881693 -5.819632 33.293371 34.306136 -0.780094 0.243589 0.091852 0.000345 -341170.000000 0 0 1
6.195893 -4.699032 32.489780 33.407422 -0.648862 0.234925 0.094553 0.001301 40951.200000 0 0 1
6.728893 -3.603432 33.246288 34.111265 -0.491655 0.225679 0.096576 0.006858 155138.000000 0 0 1
6.808093 -2.367432 32.350373 33.143650 -0.334658 0.219229 0.088114 0.007093 514218.000000 0 0 1
5.484693 -1.952332 32.025583 32.550445 -0.341975 0.179823 0.097838 0.003239 476535.000000 0 0 1
5.531693 -0.774732 31.250633 31.745896 -0.139148 0.176870 0.095807 -0.005917 -701459.000000 0 0 1
4.132393 -0.238232 31.049283 31.323975 -0.057586 0.132531 0.106273 -0.016748 -555146.000000 0 0 1
3.478593 0.170968 32.232993 32.420606 0.049109 0.107633 0.094217 -0.014089 -402771.000000 0 0 1
2.339793 0.928468 31.961163 32.060141 0.377759 0.078598 0.092173 -0.017835 -539767.000000 0 0 1
1.430993 1.203068 33.157242 33.209905 0.699083 0.056324 0.081292 -0.015182 -398011.000000 0 0 1
1.943793 2.098168 -34.109856 34.229562 0.823573 3.057936 0.080618 -0.011610 -371127.000000 0 0 1
1.178193 2.284068 -32.957873 33.057926 1.094564 3.063771 0.062190 -0.007827 -351678.000000 0 0 1
1.870293 3.212168 -31.938923 32.154483 1.043529 3.025736 0.056680 0.005035 171353.000000 0 0 1
2.889793 2.608568 -31.152253 31.394560 0.734296 3.017270 0.052734 0.006131 215209.000000 0 0 1
3.671393 3.625868 -30.493693 30.927194 0.779160 2.973964 0.050657 0.009029 -254012.000000 0 0 1
4.558493 3.034068 -29.454853 29.959535 0.587254 2.957783 0.069470 0.011844 -471847.000000 0 0 1
3.855393 2.404968 -28.399673 28.760899 0.557731 2.982936 0.069381 -0.011539 561047.000000 0 0 1
4.790293 2.174268 -27.355723 27.856954 0.426085 2.951607 0.079769 -0.014779 353330.000000 0 0 1
4.187093 1.337168 -26.190083 26.556359 0.309118 2.975314 0.074696 -0.020714 -25021.500000 0 0 1
3.989493 -0.023232 -26.364703 26.664848 -0.005823 2.991410 0.088111 -0.019317 172252.000000 0 0 1
3.449593 -0.680532 -25.258373 25.501925 -0.194778 3.003277 0.079135 -0.016434 -314914.000000 0 0 1
4.132493 -2.049032 -25.062913 25.483830 -0.460310 2.959589 0.084821 -0.025244 1505870.000000 0 0 1
5.544393 -1.976832 -24.683893 25.376026 -0.342495 2.907499 0.087820 -0.031569 1384820.000000 0 0 1
6.037393 -3.309832 -24.739493 25.679712 -0.501477 2.870156 0.091485 -0.036571 504709.000000 0 0 1
7.553293 -3.345232 -24.322993 25.687561 -0.416920 2.814182 0.099124 -0.034700 228218.000000 0 0 1
8.430793 -3.007132 -25.307363 26.843690 -0.342617 2.801632 0.098765 -0.029250 -874595.000000 0 0 1
9.737393 -2.961032 -24.763393 26.773310 -0.295204 2.751643 0.078630 -0.020535 229302.000000 0 0 1
-30.856187 -3.196832 18.046653 35.888797 0.103236 1.043904 0.210459 -0.028062 -1096900.000000 0 0 1
-32.161787 -3.539432 18.237153 37.141646 0.109610 1.057540 0.181523 -0.004968 -1694840.000000 0 0 1
-32.263067 -4.904632 18.582253 37.553443 0.150865 1.053167 0.147927 -0.017651 772255.000000 0 0 1
-33.736907 -5.119532 19.066453 39.088594 0.150600 1.061257 0.142269 -0.013123 934316.000000 0 0 1
-34.702754 -4.971132 18.037953 39.425386 0.142281 1.095591 0.129342 -0.007636 -853520.000000 0 0 1
-35.997642 -5.008332 18.474153 40.770185 0.138242 1.100524 0.080188 0.002608 -815503.000000 0 0 1
36.248421 -4.745532 17.415653 40.494112 -0.130177 1.126216 0.054150 0.007148 1496390.000000 0 0 1
34.899551 -4.865832 17.927753 39.535545 -0.138531 1.100154 0.021642 0.017250 923012.000000 0 0 1
33.903011 -4.618232 16.981353 38.198280 -0.135386 1.110115 0.027414 0.012341 480584.000000 0 0 1
32.433251 -5.018132 17.296753 37.098182 -0.153505 1.085758 0.048343 0.017689 547522.000000 0 0 1
31.853551 -4.241232 18.355253 37.007460 -0.132369 1.051824 0.060725 0.008992 -614845.000000 0 0 1
30.707571 -4.890032 18.766453 36.318688 -0.157919 1.027785 0.055926 0.005272 -455027.000000 0 0 1
30.029571 -4.354432 20.079853 36.385942 -0.144001 0.986206 0.065169 0.002803 400642.000000 0 0 1
29.259921 -3.133332 20.023553 35.593587 -0.106680 0.973316 0.059598 0.000189 505241.000000 0 0 1
29.968241 -1.934532 19.668453 35.898272 -0.064463 0.990951 0.051947 0.010399 462225.000000 0 0 1
28.971741 -0.714532 19.788953 35.092378 -0.024658 0.971683 0.032631 0.007877 343118.000000 0 0 1
29.449101 0.519068 19.251953 35.187451 0.017624 0.991870 0.039766 0.005176 -810517.000000 0 0 1
28.521121 1.538568 19.236053 34.436134 0.053893 0.978098 0.029662 0.000603 -675992.000000 0 0 1
28.947311 2.890168 18.724553 34.596370 0.099513 0.998899 0.036850 -0.001195 -204296.000000 0 0 1
29.386621 2.872368 17.400353 34.272384 0.097435 1.038274 0.027445 -0.003314 92013.300000 0 0 1
29.031501 4.072868 16.740953 33.759085 0.139382 1.051931 0.039237 -0.009321 157046.000000 0 0 1
28.457291 3.947268 15.276153 32.538580 0.137829 1.082097 0.050596 -0.008950 -92311.900000 0 0 1
28.057321 5.214868 14.727753 32.114091 0.183768 1.094369 0.068770 -0.023518 219381.000000 0 0 1
27.582121 5.044168 13.404453 31.078874 0.180879 1.124858 0.065236 -0.016492 -176345.000000 0 0 1
26.983921 6.380768 12.884753 30.575531 0.232200 1.135800 0.079990 -0.019953 -578906.000000 0 0 1
25.872621 6.734868 13.636553 30.011774 0.254657 1.099128 0.054955 -0.026942 -502270.000000 0 0 1
25.340021 7.981168 13.215153 29.672479 0.305127 1.109212 0.076534 -0.038669 -206518.000000 0 0 1
24.099621 8.391168 14.058153 29.134775 0.335059 1.067265 0.071640 -0.042284 845962.000000 0 0 1
22.833721 7.779468 13.775453 27.778806 0.328367 1.051928 0.074380 -0.031774 975010.000000 0 0 1
22.731021 6.478068 14.230053 27.589112 0.277628 1.028873 0.080790 -0.030209 -35442.700000 0 0 1
21.268221 5.886668 14.146953 26.213096 0.270022 1.000727 0.091939 -0.027438 620734.000000 0 0 1
20.920421 5.755068 12.764853 25.173921 0.268453 1.039018 0.089053 -0.025932 547768.000000 0 0 1
19.851821 4.853968 12.536053 23.975163 0.239805 1.020574 0.095572 -0.024902 -128976.000000 0 1 0
19.643221 4.766768 11.005753 23.015317 0.238066 1.072201 0.105002 -0.025964 239658.000000 0 1 0
20.724121 4.084868 10.366753 23.529661 0.194612 1.114549 0.103906 -0.030391 846943.000000 0 1 0
20.380521 3.701468 9.016553 22.591254 0.179660 1.160243 0.108436 -0.027394 50644.300000 0 1 0
21.524421 3.034368 8.218653 23.239070 0.140050 1.209319 0.105036 -0.022060 -959278.000000 0 1 0
21.840921 1.718468 8.644853 23.552335 0.078519 1.194962 0.108846 -0.017307 507223.000000 0 1 0
22.754021 0.971768 7.871753 24.096770 0.042682 1.238015 0.102931 -0.011710 -863878.000000 0 1 0
24.205121 1.432268 7.882053 25.496393 0.059103 1.256504 0.101148 -0.017963 -1087230.000000 0 0 1
24.986921 1.290468 9.089453 26.620100 0.051600 1.222336 0.096370 -0.015230 656611.000000 0 0 1
24.553921 1.843668 10.272953 26.680100 0.074946 1.175543 0.083939 -0.013856 -964205.000000 0 0 1
25.411421 1.141068 11.352753 27.855473 0.044874 1.151017 0.065547 -0.007397 347812.000000 0 0 1
26.797621 1.408268 11.224553 29.087563 0.052504 1.174626 0.077619 -0.014059 318569.000000 0 0 1
27.626721 0.413668 11.855653 30.065984 0.014972 1.165467 0.064938 -0.009856 -1035.120000 0 0 1
29.114611 0.645568 11.601853 31.347733 0.022170 1.191678 0.091313 -0.009412 -325153.000000 0 0 1
29.647321 1.783468 12.269553 32.135438 0.060084 1.179045 0.087857 -0.011070 398690.000000 0 0 1
31.059321 1.711668 12.375753 33.477911 0.055054 1.192143 0.095112 -0.013347 390089.000000 0 0 1
31.785811 2.929168 13.014153 34.471525 0.091894 1.183665 0.079219 -0.014167 -38406.300000 0 0 1
31.952671 4.076768 12.191953 34.441791 0.126902 1.208965 0.090775 -0.022844 699174.000000 0 0 1
32.865691 5.037868 12.739553 35.606600 0.152103 1.204900 0.082531 -0.025155 -176812.000000 0 0 1
34.288981 5.064468 12.223953 36.753341 0.146639 1.231743 0.083951 -0.019091 -1007740.000000 0 0 1
35.070831 3.957168 12.527253 37.450694 0.112358 1.229722 0.081732 -0.021945 -47502.300000 0 0 1
36.394411 4.177768 12.079553 38.573599 0.114291 1.252282 0.102975 -0.015580 36908.500000 0 0 1
-35.959531 3.153068 12.713553 38.270931 -0.087460 1.232163 0.118041 -0.012247 -582244.000000 0 0 1
-36.143617 1.753868 12.416353 38.257064 -0.048487 1.240260 0.099755 -0.008394 1013360.000000 0 0 1
35.981961 1.080068 12.830453 38.216340 0.030008 1.228414 0.085895 -0.005889 678576.000000 0 0 1
35.636591 1.010268 14.320553 38.419598 0.028342 1.188835 0.075199 -0.001155 -419517.000000 0 0 1
36.483421 0.195068 15.099053 39.484927 0.005347 1.178404 0.087094 -0.001645 443230.000000 0 0 1
36.015111 0.240368 16.444153 39.592375 0.006674 1.142484 0.079943 -0.015374 -337185.000000 0 0 1
-36.556697 -0.762132 17.318253 40.458557 0.020845 1.128463 0.112939 -0.013112 -577162.000000 0 0 1
-35.195264 -0.423232 17.241953 39.194014 0.012025 1.115295 0.161697 -0.032787 276523.000000 0 0 1
-34.319047 -1.314232 18.018953 38.784106 0.038276 1.087618 0.143737 -0.021937 559618.000000 0 0 1
-34.346803 -1.160432 19.583853 39.554732 0.033773 1.052838 0.151982 -0.025477 -728336.000000 0 0 1
-35.435826 -1.773832 20.212053 40.833459 0.050016 1.052976 0.108663 -0.019335 -219743.000000 0 0 1
-35.284102 -1.684232 21.666453 41.439591 0.047697 1.020612 0.089981 -0.014436 215695.000000 0 0 1
-35.706383 -2.926632 22.466253 42.287628 0.081781 1.010694 0.068651 -0.007962 396455.000000 0 0 1
-34.730055 -3.964532 22.284453 41.454688 0.113661 1.003253 0.089302 -0.014540 279065.000000 0 0 1
-34.854456 -5.222532 22.920153 42.040949 0.148732 0.994185 0.081780 -0.017897 -98917.800000 0 0 1
-35.056070 -5.259432 24.462913 43.069987 0.148918 0.966746 0.080632 -0.022908 705385.000000 0 0 1
-33.803607 -5.118932 25.134543 42.433861 0.150290 0.936858 0.093804 -0.028534 79540.600000 0 0 1
-34.073887 -5.033532 26.513283 43.466314 0.146663 0.914770 0.109758 -0.041363 136261.000000 0 0 1
-32.868687 -4.512932 27.372803 43.011481 0.136449 0.880965 0.096902 -0.036633 544932.000000 0 0 1
-32.560277 -3.143932 27.161883 42.518512 0.096259 0.877826 0.081422 -0.019093 -263886.000000 0 0 1
-32.078687 -2.820932 25.890703 41.319830 0.087712 0.893623 0.077794 -0.013505 -805517.000000 0 0 1
-32.061947 -1.318332 25.669063 41.092667 0.041095 0.896097 0.071265 -0.014650 770593.000000 0 0 1
-33.307727 -0.714732 25.280533 41.821297 0.021455 0.921672 0.084035 -0.027661 557072.000000 0 0 1
-33.036847 0.608368 24.838693 41.337200 -0.018413 0.926195 0.060835 -0.007956 -932593.000000 0 0 1
-34.288571 1.402068 24.635783 42.244452 -0.040867 0.948168 0.094679 -0.007205 -1246990.000000 0 0 1
-35.072409 0.833968 23.654973 42.312257 -0.023774 0.977548 0.107100 0.000632 -590551.000000 0 0 1
-36.305137 1.512368 23.479193 43.262256 -0.041633 0.997127 0.099799 -0.002360 198409.000000 0 0 1
-36.298677 2.702668 22.495153 42.789372 -0.074319 1.017237 0.106116 -0.008864 -173432.000000 0 0 1
-36.107197 2.341068 21.167553 41.919871 -0.064746 1.041469 0.121998 -0.035243 -24475.600000 0 0 1
-36.625387 3.290068 20.273653 41.991244 -0.089590 1.066939 0.104218 -0.026068 69167.400000 0 0 1
-36.271567 2.927268 18.834353 40.974728 -0.080530 1.093186 0.132853 -0.028740 170594.000000 0 0 1
-35.049682 3.457868 18.352153 39.714463 -0.098338 1.090432 0.161758 -0.045879 74036.500000 0 0 1
-34.726555 2.756768 17.165353 38.835329 -0.079219 1.112965 0.185028 -0.040039 -34200.900000 0 0 1
-33.697547 3.560968 16.303253 37.603208 -0.105284 1.122356 0.169065 -0.040109 -147414.000000 0 0 1
-34.114265 4.775968 15.741153 37.873168 -0.139095 1.142163 0.165823 -0.048024 -707742.000000 0 0 1
-33.157227 5.399668 14.973053 36.779756 -0.161433 1.151519 0.176038 -0.036869 -727208.000000 0 0 1
-33.732487 6.575468 14.179953 37.177797 -0.192516 1.179476 0.180407 -0.052541 -234940.000000 0 0 1
-32.750037 7.285668 13.494153 36.162661 -0.218898 1.188393 0.187174 -0.039882 -212330.000000 0 0 1
-33.211207 8.572668 13.138053 36.729870 -0.252612 1.204999 0.158935 -0.040684 241486.000000 0 0 1
-32.259997 9.340368 12.142953 35.712760 -0.281828 1.223861 0.165444 -0.034834 376813.000000 0 0 1
-32.592837 10.700168 11.975953 36.334696 -0.317212 1.234915 0.149278 -0.027205 332274.000000 0 0 1
-31.760287 11.289468 10.963453 35.445243 -0.341529 1.256332 0.129682 -0.027260 195069.000000 0 0 1
-31.764607 12.865568 11.112153 36.027671 -0.384834 1.257250 0.112656 -0.017954 13250.200000 0 0 1
-31.052407 13.454568 10.061353 35.305924 -0.408868 1.281815 0.088137 -0.010946 -53805.600000 0 0 1
-30.977697 14.849568 10.073053 35.799355 -0.447002 1.285569 0.079118 -0.015130 258817.000000 0 0 1
-30.365077 15.498768 8.748553 35.196405 -0.471944 1.319599 0.075717 -0.017920 225753.000000 0 0 1
-28.973207 15.323568 8.586853 33.882039 -0.486490 1.314568 0.084567 -0.014427 101883.000000 0 0 1
-28.253637 16.378068 7.973253 33.616691 -0.525344 1.331333 0.067456 -0.028762 1117030.000000 0 0 1
-26.752737 16.372768 8.488453 32.493543 -0.549199 1.306495 0.072010 -0.019747 724770.000000 0 0 1
-26.603807 16.883768 9.832853 33.007714 -0.565500 1.268309 0.059439 -0.018988 209996.000000 0 0 1
-26.797967 18.272168 9.996953 33.940275 -0.598440 1.271816 0.054732 -0.023599 -345828.000000 0 0 1
-26.806727 18.660068 11.466053 34.616025 -0.608101 1.233184 0.065339 -0.012244 -24620.700000 0 0 1
-25.535417 18.423868 12.028553 33.707307 -0.625012 1.205899 0.060473 -0.010274 58506.100000 0 0 1
-25.452047 19.054168 13.311753 34.468403 -0.642624 1.174286 0.063914 -0.014972 20210.100000 0 0 1
-25.925637 18.185768 14.539653 34.846267 -0.611704 1.140378 0.063139 -0.012430 -721181.000000 0 0 1
-25.007707 17.228968 14.848053 33.803660 -0.603269 1.116039 0.072001 -0.007934 -588843.000000 0 0 1
-25.296357 16.607968 16.089253 34.272356 -0.580956 1.082125 0.075826 -0.004548 -205154.000000 0 0 1
-24.226307 15.614268 16.566253 33.243948 -0.572511 1.049132 0.073689 -0.002394 583113.000000 0 0 1
-23.033307 16.081768 17.223953 32.951799 -0.609514 1.020780 0.076876 -0.003323 601143.000000 0 0 1
-22.039907 15.106168 17.402553 31.887344 -0.600860 0.993511 0.076918 -0.010322 -290094.000000 0 0 1
-22.311307 13.890068 18.282853 32.015483 -0.556841 0.962996 0.079389 -0.003228 -825153.000000 0 0 1
-22.595907 14.316668 19.589653 33.155641 -0.564757 0.938698 0.075858 0.002337 184135.000000 0 0 1
-22.795707 13.188268 20.450953 33.343908 -0.524492 0.910521 0.072632 -0.002949 -601648.000000 0 0 1
-22.639707 13.530868 21.971653 34.327748 -0.538698 0.876226 0.061636 0.003699 1728390.000000 0 0 1
-21.302107 13.888968 22.469753 33.934835 -0.577780 0.847120 0.065421 -0.001412 1586310.000000 0 0 1
-20.700207 15.042268 21.950253 33.713232 -0.628403 0.861780 0.069085 -0.001796 -873493.000000 0 0 1
-19.260507 15.292568 22.406053 33.269521 -0.671063 0.831902 0.072221 -0.013230 120171.000000 0 0 1
-18.255307 14.603768 21.679553 31.883057 -0.674725 0.823073 0.056833 -0.008459 -56803.300000 0 0 1
-17.719807 15.320368 20.614853 31.203805 -0.712904 0.849109 0.046171 -0.002541 -1029170.000000 0 0 1
-16.505307 14.683568 19.869753 29.712614 -0.727055 0.838295 0.045237 0.007231 1026150.000000 0 0 1
-15.291807 14.418568 20.563853 29.404193 -0.756015 0.796307 0.055274 0.006871 486294.000000 0 0 1
-14.710407 15.516268 21.227753 30.129191 -0.812052 0.788997 0.046181 -0.002479 -485891.000000 0 0 1
-13.593907 15.183168 22.310753 30.217423 -0.840569 0.740190 0.037593 -0.013037 449705.000000 0 0 1
-12.352107 14.849068 21.756653 29.093321 -0.876938 0.726020 0.026931 0.008937 -216749.000000 0 0 1
-11.512707 14.250368 22.770253 29.224987 -0.891264 0.677509 0.044573 -0.003733 -79502.200000 0 0 1
-10.388407 13.468568 22.135353 27.915859 -0.913797 0.655192 0.052477 -0.007865 -1553710.000000 0 0 1
-9.881307 12.435568 22.907853 27.875676 -0.899357 0.606257 0.053830 -0.008396 -28953.300000 0 0 1
-8.734207 11.768068 22.466553 26.823867 -0.932309 0.577998 0.053168 0.002965 779747.000000 0 0 1
-7.366907 12.555968 22.523753 26.818709 -1.040195 0.573785 0.045895 0.004367 -40897.800000 0 0 1
-7.299107 13.531268 21.490753 26.423941 -1.076108 0.620984 0.036320 0.002200 184147.000000 0 0 1
-6.393207 14.610668 21.775053 26.990696 -1.158326 0.632146 0.020587 0.013722 570396.000000 0 0 1
-7.132407 15.817268 22.454953 28.377494 -1.147173 0.657873 0.031816 -0.006632 492632.000000 0 0 1
-8.016807 16.590468 21.657853 28.435461 -1.120664 0.704942 0.018611 -0.003863 -121073.000000 0 0 1
-7.397107 17.770368 21.079653 28.545665 -1.176351 0.740022 0.016359 0.014700 -751844.000000 0 0 1
-8.338107 18.519868 20.126053 28.593139 -1.147755 0.789955 0.014575 0.029246 533202.000000 0 0 1
-9.564607 18.993168 20.657553 29.647203 -1.104288 0.799899 0.018972 0.022885 -144214.000000 0 0 1
-10.536907 17.981368 20.752253 29.411087 -1.040742 0.787537 0.022948 0.004450 -1214090.000000 0 0 1
-11.943407 18.531568 21.028353 30.467288 -0.998304 0.809039 0.016147 -0.001331 -223710.000000 0 0 1
-12.721507 18.815168 19.889453 30.190026 -0.976270 0.851562 0.013005 0.000614 -286577.000000 0 0 1
-13.910007 19.473968 20.272153 31.363736 -0.950546 0.867997 0.016617 -0.008288 -488944.000000 0 0 1
-14.901707 19.534868 19.145453 31.148360 -0.919137 0.908850 0.017892 -0.004100 -779958.000000 0 0 1
-15.509107 18.319468 18.764553 30.467094 -0.868284 0.907274 0.026037 0.007749 -28901.600000 0 0 1
-16.114607 18.466368 17.485853 30.107182 -0.853301 0.951101 0.048504 -0.000447 -910113.000000 0 0 1
-16.863607 17.202768 17.060753 29.519244 -0.795354 0.954578 0.051286 -0.004166 -87339.400000 0 0 1
-18.027807 16.960868 17.803753 30.490105 -0.754914 0.947248 0.050152 -0.000275 -285384.000000 0 0 1
-19.215607 17.611768 17.391053 31.334688 -0.741875 0.982422 0.061697 -0.009106 -87301.300000 0 0 1
34.774891 -9.436832 12.219707 38.048234 -0.264987 1.243838 0.060570 -0.017388 -496870.000000 0 0 1
33.559141 -9.931432 11.744407 36.915856 -0.287726 1.247030 0.053612 -0.005865 -248469.000000 0 0 1
33.268341 -11.227032 12.171507 37.161463 -0.325468 1.237108 0.056875 -0.007392 -272620.000000 0 0 1
31.765391 -11.570432 12.156807 35.926354 -0.349310 1.225600 0.063655 0.004897 -192932.000000 0 0 1
31.083451 -10.913632 13.190907 35.486453 -0.337661 1.189939 0.057738 0.012729 -457031.000000 0 0 1
29.695351 -10.857432 13.063207 34.210307 -0.350528 1.178999 0.066114 0.002792 173394.000000 0 0 1
28.917721 -11.807932 14.103407 34.271970 -0.387665 1.146681 0.053726 0.003707 -467802.000000 0 0 1
28.903771 -11.327732 15.460507 34.681015 -0.373514 1.108738 0.059570 0.007686 473823.000000 0 0 1
27.775521 -11.913232 16.123407 34.254473 -0.405179 1.080718 0.058360 -0.000863 1187540.000000 0 0 1
26.382821 -11.286232 15.802607 32.759040 -0.404229 1.067416 0.067211 -0.018616 -291202.000000 0 0 1
26.322021 -9.910832 16.134007 32.424984 -0.360105 1.049990 0.059342 0.000781 -566984.000000 0 0 1
25.308421 -9.262832 15.445007 31.062268 -0.350855 1.050396 0.078243 -0.009791 -304173.000000 0 0 1
25.011921 -7.817732 15.914307 30.659066 -0.302940 1.025030 0.079164 -0.022276 -154136.000000 0 0 1
26.148821 -7.050632 15.624907 31.266755 -0.263371 1.047510 0.065169 -0.015959 -87076.800000 0 0 1
26.036221 -5.766732 16.086707 31.143573 -0.217970 1.027998 0.056545 -0.007419 561997.000000 0 0 1
27.357321 -4.945332 15.891907 32.022368 -0.178837 1.051493 0.061894 -0.004799 531623.000000 0 0 1
27.536021 -4.597632 14.523007 31.468849 -0.165442 1.091106 0.074171 -0.004058 52127.300000 0 0 1
28.738021 -3.874432 14.401307 32.377195 -0.134011 1.109848 0.071469 0.005427 -210980.000000 0 0 1
28.902201 -3.212032 12.991107 31.850012 -0.110680 1.150661 0.073577 -0.001531 50101.400000 0 0 1
29.546031 -4.115932 12.094607 32.189880 -0.138415 1.185615 0.069001 -0.003126 466110.000000 0 0 1
29.878501 -3.484032 10.851907 31.978543 -0.116082 1.224571 0.076460 -0.012623 31606.800000 0 0 1
30.441441 -4.389532 9.709507 32.252502 -0.143209 1.265006 0.095101 -0.010207 -336274.000000 0 0 1
31.685141 -4.911532 10.090207 33.613741 -0.153787 1.265914 0.098817 -0.016080 17299.100000 0 0 1
32.181681 -5.863232 9.127507 33.961000 -0.180215 1.298686 0.100861 -0.024945 1600720.000000 0 0 1
33.692261 -6.357632 9.323807 35.531976 -0.186504 1.305281 0.082200 -0.021343 1534750.000000 0 0 1
34.687831 -5.429932 8.961807 36.235946 -0.155277 1.320885 0.095158 -0.024555 54592.600000 0 0 1
35.966511 -6.038732 9.000607 37.564174 -0.166347 1.328836 0.105854 -0.034726 285804.000000 0 0 1
-36.229597 -5.107332 8.553207 37.574272 0.140048 1.341148 0.104797 -0.035520 -21470.500000 0 0 1
-36.185007 -4.798232 7.183207 37.201831 0.131834 1.376488 0.110836 -0.033893 183507.000000 0 0 1
-35.188585 -3.804532 6.966907 36.072826 0.107700 1.376441 0.101903 -0.022791 9903.510000 0 0 1
-35.284217 -3.150432 5.543507 35.855706 0.089051 1.415568 0.109660 -0.031960 -247684.000000 0 0 1
-34.606601 -3.821332 4.537007 35.111307 0.109977 1.441216 0.113765 -0.033218 -54019.000000 0 0 1
-34.701787 -3.121632 3.356107 35.003172 0.089714 1.474769 0.115184 -0.033357 -80438.700000 0 0 1
-34.075438 -3.881132 2.155407 34.363417 0.113409 1.508031 0.138628 -0.037063 194127.000000 0 0 1
-34.723342 -5.049032 1.638407 35.126736 0.144395 1.524137 0.131365 -0.021926 -240600.000000 0 0 1
-35.864060 -4.864432 0.840407 36.202207 0.134813 1.547580 0.109679 -0.027315 -528460.000000 0 0 1
-35.590794 -4.923332 -0.668793 35.935931 0.137459 1.589408 0.151197 -0.026167 -790903.000000 0 0 1
-35.379923 -6.241132 -1.096893 35.942925 0.174607 1.601319 0.148874 -0.030512 27569.600000 0 0 1
-34.584564 -6.438232 -2.231693 35.249445 0.184052 1.634150 0.132991 -0.027540 383599.000000 0 0 1
-33.056577 -6.163532 -2.066693 33.689726 0.184337 1.632180 0.135606 -0.036460 -123595.000000 0 0 1
-32.328247 -7.004132 -1.248693 33.101853 0.213359 1.608528 0.123215 -0.037557 -288463.000000 0 0 1
-31.031427 -6.488132 -0.993593 31.718016 0.206113 1.602127 0.142646 -0.049331 478366.000000 0 0 1
-30.436037 -7.347232 0.192007 31.310877 0.236867 1.564664 0.121504 -0.039104 -92762.800000 0 0 1
-30.033907 -8.596632 -0.258993 31.241075 0.278777 1.579087 0.130716 -0.033489 524503.000000 0 0 1
-29.294137 -9.257932 0.815707 30.733063 0.306101 1.544252 0.114972 -0.021860 495206.000000 0 0 1
-28.628987 -10.605732 0.313607 30.531931 0.354779 1.560525 0.093869 -0.020983 257518.000000 0 0 1
-27.535027 -10.566232 -0.593293 29.498728 0.366409 1.590910 0.091961 -0.028296 399165.000000 0 0 1
-27.110197 -11.844132 -0.991593 29.601174 0.411897 1.604301 0.082072 -0.013940 4653.910000 0 0 1
-28.049767 -12.692032 -1.906893 30.846610 0.424917 1.632654 0.079154 -0.017865 320732.000000 0 0 1
-29.032617 -13.515032 -1.272693 32.049473 0.435679 1.610517 0.089795 -0.026401 700058.000000 0 0 1
-29.634697 -14.403132 -2.199993 33.022802 0.452403 1.637466 0.085567 -0.017549 -418376.000000 0 0 1
-30.513047 -15.525732 -1.660993 34.276133 0.470681 1.619274 0.087093 -0.020436 -289312.000000 0 0 1
-29.877847 -16.592832 -1.035293 34.191807 0.506946 1.601080 0.052840 -0.011871 -109622.000000 0 0 1
-30.707477 -17.055232 -0.007293 35.125918 0.506987 1.571004 0.054096 -0.004418 -220614.000000 0 0 1
-30.745227 -18.565032 0.134107 35.915838 0.543234 1.567062 0.059677 -0.013354 -446900.000000 0 0 1
-29.550847 -19.201632 0.539307 35.245512 0.576223 1.555494 0.065254 -0.016687 -8589.650000 0 0 1
-29.493897 -20.657332 0.505107 36.012088 0.610990 1.556770 0.081187 -0.020773 -417177.000000 0 0 1
-30.378987 -21.481132 1.428207 37.233878 0.615478 1.532429 0.086472 -0.016819 -907000.000000 0 0 1
-29.904887 -21.514632 2.734907 36.941324 0.623651 1.496695 0.090602 -0.021268 -289438.000000 0 0 1
-30.719797 -22.253932 3.597907 38.103653 0.626926 1.476231 0.095453 -0.022576 -264658.000000 0 0 1
-30.079967 -22.473032 4.945107 37.872096 0.641649 1.439849 0.078610 -0.019306 -199504.000000 0 0 1
-29.991337 -21.245032 5.651307 37.185602 0.616323 1.418229 0.057965 -0.019733 -300143.000000 0 0 1
-29.148027 -21.275332 6.752607 36.713008 0.630517 1.385814 0.059900 -0.017240 -284702.000000 0 0 1
-28.709297 -19.862032 7.163207 35.637559 0.605224 1.368416 0.059212 -0.015027 176189.000000 0 0 1
-27.654247 -20.008332 8.095407 35.080284 0.626336 1.337929 0.068334 -0.026509 -108187.000000 0 0 1
-27.099167 -18.778032 8.476107 34.041500 0.605970 1.319156 0.067108 -0.025891 405200.000000 0 0 1
-26.103447 -18.930932 9.681207 33.667431 0.627457 1.279124 0.078143 -0.028349 -25222.000000 0 0 1
-26.674007 -19.353232 10.875007 34.703257 0.627666 1.252055 0.070837 -0.028734 -333405.000000 0 0 1
-25.772757 -19.553532 11.944907 34.485598 0.649040 1.217093 0.070393 -0.020798 -112036.000000 0 0 1
-25.378367 -18.322732 12.772507 33.807114 0.625327 1.183372 0.058362 -0.020899 -414502.000000 0 0 1
-24.566707 -17.389532 12.027307 32.412575 0.615975 1.190636 0.053378 -0.022003 270526.000000 0 0 1
-24.170107 -16.294032 12.866007 31.862575 0.593158 1.155133 0.043374 -0.012912 473281.000000 0 0 1
-23.285907 -16.545932 14.138707 31.873255 0.617775 1.111194 0.042598 -0.013940 -221554.000000 0 0 1
-24.052607 -17.241532 15.129407 33.236987 0.621929 1.098202 0.035723 -0.016090 163142.000000 0 0 1
-23.289607 -17.594832 16.279607 33.421693 0.646999 1.062034 0.047249 -0.013000 -60827.100000 0 0 1
-24.197307 -18.201032 17.368807 34.906485 0.644903 1.049988 0.038977 0.001821 69478.000000 0 0 1
-24.937907 -17.311432 18.146907 35.367996 0.606810 1.032017 0.037363 0.002528 -57906.200000 0 0 1
-25.952177 -18.023832 18.844207 36.789648 0.607026 1.033035 0.037844 0.007398 190071.000000 0 0 1
-26.965517 -17.098232 19.550907 37.439640 0.565100 1.021370 0.042879 0.008668 -537363.000000 0 0 1
-26.393087 -16.476832 20.656007 37.346374 0.558086 0.984724 0.042113 0.005083 -388635.000000 0 0 1
-27.214377 -15.574332 21.304607 37.908686 0.519790 0.973997 0.056407 -0.005188 -260275.000000 0 0 1
-26.455117 -14.810332 22.482307 37.744845 0.510358 0.932735 0.056639 -0.006339 -190064.000000 0 0 1
-25.517507 -13.956232 21.912607 36.415408 0.500481 0.925118 0.054339 -0.007021 -454241.000000 0 0 1
-24.692307 -13.439332 22.937307 36.282858 0.498435 0.886432 0.056390 -0.012081 559014.000000 0 0 1
-23.482807 -12.594832 22.347407 34.777560 0.492297 0.872934 0.046855 -0.004821 377253.000000 0 0 1
-23.815307 -11.383532 21.755407 34.206014 0.445887 0.881478 0.067738 -0.004812 25736.300000 0 0 1
-22.719707 -10.848232 21.066707 32.827967 0.445471 0.874044 0.060839 -0.004893 -757911.000000 0 0 1
-22.259607 -9.490432 21.638907 32.462297 0.403015 0.841177 0.065665 -0.003751 199345.000000 0 0 1
-21.693507 -9.595832 22.992807 33.035699 0.416463 0.800986 0.067005 -0.006742 196113.000000 0 0 1
-20.339407 -9.970032 22.953707 32.248499 0.455763 0.778773 0.040876 -0.005787 -535263.000000 0 0 1
-19.678707 -9.951932 24.367307 32.864238 0.468214 0.735562 0.040136 -0.000231 89654.400000 0 0 1
-20.027807 -11.021032 25.205307 34.027691 0.503063 0.736641 0.058053 -0.000047 -434363.000000 0 0 1
-19.240707 -11.058432 26.337607 34.440721 0.521640 0.700185 0.058410 0.000401 -1045370.000000 0 0 1
-19.392907 -12.292032 27.228507 35.616998 0.564932 0.700561 0.066500 -0.013342 657647.000000 0 0 1
-20.632807 -12.433232 27.919307 36.875272 0.542326 0.711891 0.067266 -0.008198 429266.000000 0 0 1
-21.735407 -12.885432 27.143507 37.084124 0.535132 0.749625 0.059691 -0.006876 658757.000000 0 0 1
-22.996207 -13.372132 27.941707 38.579508 0.526700 0.760832 0.060071 -0.009402 498209.000000 0 0 1
-22.884707 -14.547632 28.694307 39.480460 0.566251 0.757148 0.055646 -0.011929 587431.000000 0 0 1
-21.938607 -14.567732 29.821107 39.784667 0.586170 0.723395 0.055073 -0.012266 867158.000000 0 0 1
-22.446907 -15.505432 30.920407 41.235345 0.604498 0.722958 0.051668 -0.016669 -245789.000000 0 0 1
-22.152207 -16.909632 30.717807 41.475772 0.651983 0.736803 0.051424 -0.018298 -29289.600000 0 0 1
-22.339607 -17.748932 31.863107 42.770787 0.671381 0.730301 0.052091 -0.016851 233130.000000 0 0 1
-23.782507 -17.895232 32.428807 44.016753 0.645070 0.742563 0.066024 -0.020358 186341.000000 0 0 1
-24.189807 -16.842932 33.264207 44.444782 0.608226 0.725091 0.074594 -0.025539 -560964.000000 0 0 1
-25.565987 -17.059332 33.449907 45.426169 0.588418 0.743125 0.069986 -0.022690 -104775.000000 0 0 1
-26.401577 -16.125232 -33.876739 45.877007 0.548299 2.401528 0.062878 -0.018109 161119.000000 0 0 1
-25.956137 -16.121732 -32.532139 44.631506 0.555800 2.387518 0.069563 -0.024013 -37224.600000 0 0 1
-26.710617 -15.073932 -31.974539 44.306338 0.513788 2.377008 0.064680 -0.021627 -75986.600000 0 0 1
-26.298887 -14.677232 -30.545739 42.896326 0.509036 2.363257 0.056159 -0.014173 -175956.000000 0 0 1
-26.856227 -15.504932 -29.575239 42.852708 0.523584 2.332507 0.049008 -0.004246 -30005.700000 0 0 1
-26.339397 -15.150632 -28.295639 41.520461 0.521991 2.320588 0.044448 0.002003 489131.000000 0 0 1
-27.117517 -15.848432 -27.068039 41.463372 0.528896 2.282095 0.045393 0.002327 753343.000000 0 0 1
-28.224067 -15.157032 -26.485139 41.566767 0.492827 2.261618 0.063842 0.001466 416804.000000 0 0 1
-27.924487 -13.938032 -25.827639 40.510648 0.462954 2.262113 0.054018 -0.001886 -577626.000000 0 0 1
-26.832587 -13.935332 -24.713839 39.050673 0.479002 2.256045 0.058486 -0.008189 -60944.500000 0 0 1
-25.545017 -14.000732 -25.292439 38.578178 0.501368 2.285793 0.048439 -0.007981 -241316.000000 0 0 1
-24.610807 -14.254132 -24.263539 37.384374 0.524971 2.277104 0.052257 -0.013270 133154.000000 0 0 1
-23.927707 -15.699032 -24.270139 37.523784 0.580653 2.274169 0.041633 -0.006336 524148.000000 0 0 1
-22.975807 -15.922632 -25.330739 37.723524 0.606024 2.307006 0.052846 -0.006231 513690.000000 0 0 1
-22.647607 -17.281332 -25.356139 38.137807 0.651803 2.298097 0.057869 -0.009380 240689.000000 0 0 1
-21.865107 -17.785832 -26.648439 38.788632 0.682879 2.328172 0.056957 -0.010297 226308.000000 0 0 1
-22.583007 -17.713032 -27.861839 40.000322 0.665127 2.341361 0.063845 -0.012356 -136023.000000 0 0 1
-23.591407 -18.700332 -27.927139 41.063146 0.670259 2.318698 0.070076 -0.015453 -301077.000000 0 0 1
-24.304707 -18.587132 -29.274739 42.346317 0.652877 2.334107 0.055226 -0.012837 -278018.000000 0 0 1
-23.556507 -19.230032 -30.257939 42.898089 0.684623 2.353706 0.063710 -0.023960 165234.000000 0 0 1
-24.113907 -18.978332 -31.545939 44.009134 0.666781 2.370005 0.051822 -0.017612 -132032.000000 0 0 1
-23.123807 -19.257032 -32.723939 44.456719 0.694411 2.398065 0.057514 -0.027250 -608396.000000 0 0 1
-22.085007 -18.282732 -32.696339 43.486278 0.691484 2.421701 0.056924 -0.022141 1000590.000000 0 0 1
-20.760007 -18.804032 -32.446639 42.864366 0.736000 2.429446 0.057895 -0.023429 1130390.000000 0 0 1
-20.180107 -19.896832 -33.389139 43.794466 0.778330 2.437819 0.052619 -0.023951 -1228850.000000 0 0 1
-19.662807 -19.518532 33.596407 43.546730 0.781716 0.689597 0.048338 -0.025771 -37578.100000 0 0 1
-19.373207 -20.660832 32.787907 43.327105 0.817550 0.712465 0.045047 -0.022990 -230008.000000 0 0 1
-20.533907 -21.285332 31.985507 43.563510 0.803365 0.746269 0.044096 -0.019818 -66255.400000 0 0 1
-21.413307 -21.980632 32.852807 44.955365 0.798471 0.751322 0.042962 -0.018262 337763.000000 0 0 1
-22.672307 -22.349232 32.274007 45.333577 0.778222 0.778564 0.037527 -0.002421 498757.000000 0 0 1
-22.636107 -23.644632 31.415007 45.369204 0.807186 0.805944 0.032327 0.005719 -586011.000000 0 0 1
-22.379607 -24.841332 32.100707 46.350771 0.837483 0.805764 0.031555 0.011258 106813.000000 0 0 1
-22.354607 -25.915432 31.178107 46.297003 0.859034 0.831948 0.037232 0.019100 -27198.200000 0 0 1
-21.658207 -27.146762 31.804807 47.091086 0.897387 0.829304 0.052377 0.003746 35070.200000 0 0 1
-22.546607 -27.789172 32.655707 48.445669 0.889176 0.831093 0.036864 -0.000280 -208134.000000 0 0 1
-21.861507 -28.819402 33.330507 49.187459 0.921834 0.826272 0.045341 -0.000564 -1033830.000000 0 0 1
-22.609107 -29.564992 -33.755839 50.246563 0.917937 2.307438 0.045557 -0.005202 -362911.000000 0 0 1
-23.617607 -30.430682 34.004407 51.382074 0.910792 0.847586 0.038844 -0.005127 170497.000000 0 0 1
-24.801007 -29.827012 33.533107 51.275822 0.877144 0.857969 0.036276 -0.003821 -560130.000000 0 0 1
-25.945907 -29.514242 -33.703239 51.770540 0.849650 2.279713 0.036174 -0.004669 -110059.000000 0 0 1
-27.029927 -28.833242 33.967207 52.112801 0.817668 0.860839 0.032514 0.000032 -170422.000000 0 0 1
-27.993487 -28.414252 -33.341839 51.987337 0.792857 2.267047 0.031143 0.009379 -419425.000000 0 0 1
-29.065187 -27.513802 -33.897839 52.448621 0.757985 2.273529 0.030708 -0.006691 -377862.000000 0 0 1
-30.013677 -28.154372 33.484107 53.053510 0.753445 0.887776 0.045920 -0.018870 390320.000000 0 0 1
-30.932367 -27.119222 33.049507 52.768679 0.719807 0.893987 0.039495 -0.018462 254861.000000 0 0 1
