# x y z rho theta phi s1 s2 stress_xx np intf bulk
-0.861094 -10.868550 -14.367666 18.035983 1.491733 2.492465 0.017079 0.002936 647004.000000 1 0 0
2.175406 -13.476650 -13.145666 18.951544 -1.410756 2.337335 0.008359 0.014962 1245700.000000 1 0 0
2.010006 -11.062550 -14.681766 18.492549 -1.391062 2.488040 0.006339 0.006540 -579846.000000 1 0 0
-5.606394 -6.264550 -16.372466 18.404724 0.840784 2.667220 0.015240 -0.007588 -530937.000000 1 0 0
4.553906 -13.919250 -11.491666 18.615637 -1.254607 2.236118 0.005576 -0.000638 546741.000000 1 0 0
14.164306 -10.630050 -7.840166 19.367336 -0.643809 1.987572 0.066247 -0.020187 -1145270.000000 1 0 0
7.145006 10.804550 -10.784466 16.855092 0.986521 2.265079 0.034437 -0.017410 -166328.000000 1 0 0
5.720506 -4.137050 -12.642966 14.480468 -0.626125 2.632331 0.009800 -0.004526 1322550.000000 1 0 0
13.659706 0.557450 -10.124966 17.012150 0.040787 2.208262 0.018715 0.005144 2001170.000000 1 0 0
14.044706 5.111950 -10.419966 18.219810 0.349072 2.179620 0.017774 0.004103 -32860.100000 1 0 0
4.101506 4.284450 -13.406066 14.659518 0.807210 2.725056 0.018066 -0.000997 3957350.000000 1 0 0
10.324006 -5.015450 -13.630266 17.819202 -0.452227 2.441714 0.030357 -0.001830 -386692.000000 1 0 0
2.600306 -7.487250 -11.989466 14.372466 -1.236531 2.557471 0.003460 -0.001407 751155.000000 1 0 0
-5.618894 -2.024950 -15.044466 16.186672 0.345894 2.763676 0.010320 -0.005698 841580.000000 1 0 0
10.678106 0.157450 -9.619766 14.373122 0.014744 2.304047 0.010444 0.000121 1272400.000000 1 0 0
-1.586294 -9.466450 -16.902666 19.437852 1.404769 2.625137 0.020156 -0.004884 1308860.000000 1 0 0
8.631206 1.530450 -18.005366 20.025813 0.175492 2.688523 0.043700 -0.002761 514450.000000 1 0 0
16.526706 -6.124650 -8.819066 19.708355 -0.354900 2.034740 0.066246 -0.004696 -148440.000000 1 0 0
10.172006 7.627550 -9.927666 16.130957 0.643410 2.233743 0.026102 -0.006368 555627.000000 1 0 0
13.891906 -2.301250 -10.666066 17.664817 -0.164163 2.219059 0.036507 0.000850 -675853.000000 1 0 0
7.285206 -1.689950 -13.728466 15.633327 -0.227939 2.642785 0.020070 -0.006815 1236720.000000 1 0 0
-2.882594 6.650550 -13.787766 15.576959 -1.161801 2.657588 -0.001303 -0.005150 1303040.000000 1 0 0
11.248706 1.786950 -13.954266 18.012443 0.157542 2.457039 0.022723 0.000111 -283496.000000 1 0 0
-2.388894 10.727550 -12.951766 16.986329 -1.351684 2.437937 -0.006437 -0.004582 -2125360.000000 1 0 0
2.774606 -0.989850 -15.311166 15.591986 -0.342678 2.951514 0.016011 -0.005612 -117587.000000 1 0 0
-9.151194 0.478150 -15.078366 17.644548 -0.052203 2.595504 0.010690 -0.002230 -662149.000000 1 0 0
2.215606 -1.817950 -18.034666 18.260970 -0.687129 2.983995 0.032853 -0.014636 1875440.000000 1 0 0
0.914206 7.833250 -13.103666 15.293843 1.454614 2.599815 0.007225 -0.006764 -35525.400000 1 0 0
9.416906 -9.104850 -9.847666 16.387585 -0.768552 2.215451 0.024178 -0.001375 841257.000000 1 0 0
3.859406 7.289750 -13.402766 15.737522 1.083884 2.589910 0.012536 -0.005383 1656980.000000 1 0 0
-2.731894 9.067950 -15.496266 18.161091 -1.278176 2.593015 -0.006131 -0.005995 -211126.000000 1 0 0
5.596206 -7.635850 -15.323466 18.012005 -0.938339 2.588181 0.026068 -0.007810 1370890.000000 1 0 0
4.107506 7.331450 -16.289966 18.329887 1.060111 2.665321 0.020373 -0.002233 1124260.000000 1 0 0
-0.308894 4.982350 -13.462766 14.358457 -1.508878 2.786514 0.009205 -0.004952 2337070.000000 1 0 0
8.822206 4.152550 -16.659966 19.303612 0.439928 2.612072 0.032959 -0.005736 -513354.000000 1 0 0
5.262106 0.393550 -14.421866 15.356915 0.074651 2.790834 0.014553 -0.000499 1534440.000000 1 0 0
6.303506 7.953450 -11.585566 15.401847 0.900615 2.422220 0.016892 -0.007256 -833729.000000 1 0 0
2.748706 -8.358550 -14.953366 17.350040 -1.253087 2.609729 0.018110 -0.008028 605771.000000 1 0 0
3.968106 11.429750 -13.839466 18.382488 1.236642 2.423195 0.029657 -0.017821 -631630.000000 1 0 0
0.606206 -4.532050 -13.711466 14.453762 -1.437826 2.819716 0.011422 -0.008963 269416.000000 1 0 0
8.525206 0.012850 -11.608566 14.402712 0.001507 2.508157 0.005890 -0.001954 530031.000000 1 0 0
-0.984094 -5.030750 -16.210866 17.002031 1.377620 2.835328 0.016715 -0.014263 782134.000000 1 0 0
4.403706 0.798550 -11.662966 12.492201 0.179387 2.775183 0.013301 -0.003714 -307352.000000 1 0 0
-2.939494 -7.150450 -15.540566 17.357383 1.180764 2.679965 0.009237 -0.007878 2286420.000000 1 0 0
11.440206 -3.724550 -11.419066 16.587515 -0.314744 2.330095 0.027584 -0.000852 241201.000000 1 0 0
6.483606 -6.940550 -12.564166 15.750131 -0.819424 2.494298 0.018128 -0.002125 -1352700.000000 1 0 0
3.371106 -3.921850 -14.657066 15.542678 -0.860772 2.802391 0.020640 -0.008585 3667560.000000 1 0 0
-0.751694 -1.502850 -18.238766 18.316009 1.107006 3.049721 0.035557 -0.018231 1733890.000000 1 0 0
14.927606 2.963450 -8.576366 17.469102 0.195973 2.083970 0.016881 0.004913 614400.000000 1 0 0
6.939706 4.300950 -14.318866 16.482949 0.554822 2.623384 0.019386 0.002292 2107740.000000 1 0 0
10.127806 -9.600550 -13.869366 19.674916 -0.758679 2.353116 0.049668 -0.013932 -350154.000000 1 0 0
9.096906 -3.162550 -15.537266 18.280100 -0.334581 2.586697 0.034268 -0.010987 -756039.000000 1 0 0
-5.509094 -2.027550 -17.925166 18.861936 0.352652 2.825108 0.008985 0.000680 623814.000000 1 0 0
5.057506 -9.008850 -11.071466 15.143153 -1.059248 2.390759 -0.000753 0.001292 1284650.000000 1 0 0
-2.437894 3.959450 -17.064266 17.686428 -1.018902 2.875564 0.010513 -0.003139 1125370.000000 1 0 0
9.435706 9.448750 -14.525266 19.730554 0.786089 2.398207 0.062169 -0.012604 -202007.000000 1 0 0
9.869606 9.965750 -11.685066 18.255576 0.790245 2.265401 0.039305 -0.013252 -32069.900000 1 0 0
12.107606 -5.920250 -9.708866 16.610405 -0.454784 2.195066 0.038169 -0.003503 368680.000000 1 0 0
8.132606 7.002250 -13.726666 17.423896 0.710851 2.478037 0.026613 0.000331 1693620.000000 1 0 0
3.838806 -4.151850 -17.592766 18.479169 -0.824554 2.830607 0.038512 -0.018035 -238888.000000 1 0 0
9.298106 -7.457450 -12.217266 17.068389 -0.675983 2.368541 0.032393 -0.005856 1090320.000000 1 0 0
12.122106 -8.623450 -8.742366 17.255095 -0.618324 2.102096 0.048851 -0.014746 768045.000000 1 0 0
-3.031794 -2.643250 -13.789566 14.364215 0.717039 2.857779 0.009835 -0.011741 -989899.000000 1 0 0
-0.464294 6.099550 -17.616266 18.648134 -1.494823 2.807372 0.013155 -0.004120 636729.000000 1 0 0
1.163706 -8.362550 -17.352166 19.297256 -1.432527 2.688743 0.021917 -0.010625 1508660.000000 1 0 0
-0.002294 8.432550 -15.924766 18.019602 -1.570524 2.654606 0.000918 -0.003771 -1300280.000000 1 0 0
1.740606 3.398750 -14.939966 15.420239 1.097491 2.891358 0.020648 -0.002166 1383860.000000 1 0 0
-2.028494 -0.514750 -15.640666 15.780056 0.248514 3.008579 0.016273 -0.010459 1432390.000000 1 0 0
14.245306 -4.363350 -8.498766 17.152160 -0.297227 2.089198 0.040603 -0.002797 1378480.000000 1 0 0
0.500006 0.657150 -14.572466 14.595842 0.920374 3.084989 0.014321 -0.005465 1097580.000000 1 0 0
8.892706 2.858350 -12.558666 15.651532 0.310996 2.502089 0.011341 0.001015 578874.000000 1 0 0
5.912106 0.938750 -17.220766 18.231539 0.157470 2.807045 0.034141 0.001466 -997932.000000 1 0 0
15.216706 1.485750 -12.487166 19.740438 0.097331 2.255660 0.035723 -0.000874 -748016.000000 1 0 0
8.790306 -11.270250 -11.865266 18.576128 -0.908397 2.263652 0.033272 -0.003196 1016690.000000 1 0 0
-4.699894 0.728350 -14.922466 15.662039 -0.153749 2.833057 0.012801 -0.007526 456455.000000 1 0 0
2.291406 5.139050 -17.244866 18.139619 1.151373 2.826198 0.022886 -0.002345 1291570.000000 1 0 0
5.851206 -11.544750 -12.350266 17.889855 -1.101701 2.332769 0.006431 -0.002128 2076960.000000 1 0 0
12.840206 7.194950 -8.676566 17.085696 0.510751 2.103456 0.015947 -0.000604 -644754.000000 1 0 0
-5.117894 3.527050 -15.700466 16.886016 -0.603414 2.764641 0.001901 -0.003138 2223440.000000 1 0 0
-0.696094 -4.386050 -19.030566 19.541863 1.413403 2.912337 0.029328 -0.015245 -2739430.000000 1 0 0
9.838606 4.480450 -10.270166 14.911368 0.427331 2.330556 0.004791 0.000076 643014.000000 1 0 0
13.266306 3.698950 -12.927566 18.889126 0.271917 2.324566 0.032854 -0.000655 798265.000000 1 0 0
-6.159794 5.762550 -17.164066 19.124727 -0.752091 2.684819 0.002971 0.001444 -1747140.000000 1 0 0
-10.321294 3.193850 -15.341166 18.763826 -0.300097 2.528014 0.027387 -0.005790 496101.000000 1 0 0
10.561406 13.355550 -8.248666 18.919686 0.901698 2.021927 0.062259 -0.019993 -1509190.000000 1 0 0
7.381506 13.425550 -12.381866 19.698798 1.068099 2.250496 0.053961 -0.021528 581056.000000 1 0 0
5.283506 15.147550 -11.287166 19.615398 1.235189 2.183918 0.021677 -0.013182 -1113600.000000 1 0 0
14.328706 9.583950 -9.521666 19.693299 0.589522 2.075442 0.074592 -0.015456 -321399.000000 1 0 0
8.153506 -17.155550 -2.111166 19.111504 -1.127128 1.681488 0.033444 -0.006091 395330.000000 1 0 0
0.695906 -16.000050 -0.079866 16.015376 -1.527330 1.575783 0.004756 -0.006668 3036630.000000 1 0 0
-9.139094 -11.727250 7.522034 16.662306 0.908803 1.102418 0.019371 -0.006638 -1379290.000000 1 0 0
2.038906 -15.816050 -2.642366 16.164364 -1.442590 1.735002 0.004060 -0.005766 1892850.000000 1 0 0
-1.315594 -11.041450 -9.405366 14.563835 1.452205 2.272871 0.005016 -0.000644 307211.000000 1 0 0
-4.897094 -12.667350 -13.030766 18.821374 1.201902 2.335521 0.039051 -0.004220 225309.000000 1 0 0
-8.286694 -17.983250 -1.724366 19.875613 1.138997 1.657663 0.026486 -0.009020 -1598490.000000 1 0 0
-11.316594 -7.054050 -8.784866 15.968681 0.557402 2.153317 0.020626 -0.018184 2548560.000000 1 0 0
-13.589194 -11.549050 -4.795666 18.467408 0.704419 1.833490 0.009570 -0.003287 -67950.700000 1 0 0
-5.675194 -13.561750 9.755334 17.643566 1.174469 0.984942 0.014349 -0.009338 -483057.000000 1 0 0
0.084406 -13.981250 -3.636866 14.446773 -1.564759 1.825277 -0.000264 0.001863 -1332990.000000 1 0 0
-14.786594 -11.720350 1.861334 18.959813 0.670233 1.472465 0.009799 -0.000241 879588.000000 1 0 0
-3.917994 -16.563650 -7.442066 18.576585 1.338524 1.982985 0.015040 -0.006093 -252626.000000 1 0 0
0.562706 -15.230750 -9.148866 17.776223 -1.533868 2.111418 0.003323 0.002457 331537.000000 1 0 0
4.462806 -14.098350 -2.635166 15.020792 -1.264228 1.747143 0.004732 0.000960 323179.000000 1 0 0
-3.571994 -18.161750 -2.489266 18.676315 1.376598 1.704479 0.010082 -0.011005 2083450.000000 1 0 0
-1.000994 -13.544650 0.667434 13.597978 1.497027 1.521693 0.006936 -0.002353 2275700.000000 1 0 0
-8.631894 -11.450250 -10.596766 17.830010 0.924829 2.207219 0.032829 -0.011041 3148230.000000 1 0 0
-3.784394 -14.197350 -0.368966 14.697704 1.310297 1.595903 0.000519 0.003240 3710800.000000 1 0 0
-1.548294 -14.918850 -7.216266 16.644632 1.467385 2.019224 0.000159 0.001062 -154519.000000 1 0 0
-14.266994 -7.941450 -1.821166 16.429558 0.507920 1.681871 0.005637 -0.004967 1325760.000000 1 0 0
-10.689194 -7.372750 -11.602066 17.413335 0.603806 2.299998 0.025015 -0.019750 -743573.000000 1 0 0
-9.436894 -14.796750 6.940534 18.872461 1.003068 1.194197 0.014487 -0.001334 -1190240.000000 1 0 0
-2.458794 -14.272150 -12.220566 18.949463 1.400192 2.271693 0.029594 -0.001022 1877720.000000 1 0 0
2.384406 -17.781550 -4.751866 18.559341 -1.437497 1.829716 0.004293 -0.006155 -376395.000000 1 0 0
-6.703994 -9.751450 -9.284366 15.041069 0.968518 2.236061 0.022655 -0.010659 1042980.000000 1 0 0
-10.978594 -15.440450 0.438734 18.950712 0.952707 1.547643 0.016918 0.000685 322168.000000 1 0 0
-12.661094 -11.067550 4.012134 17.288470 0.718342 1.336591 0.022995 -0.002991 1284180.000000 1 0 0
-17.023594 -9.038550 -1.594666 19.340142 0.488094 1.653344 0.006841 -0.005914 -2149890.000000 1 0 0
-1.366494 -19.360850 -4.026466 19.822266 1.500333 1.775348 0.011631 -0.007259 70803.900000 1 0 0
3.279306 -14.106050 -8.771766 16.931579 -1.342378 2.115391 0.000073 0.001611 642550.000000 1 0 0
-4.305994 -8.004450 -12.983466 15.848759 1.077252 2.530829 0.010676 -0.005960 349477.000000 1 0 0
5.600706 -16.541750 1.342934 17.515732 -1.244331 1.494051 0.026131 -0.005842 2453080.000000 1 0 0
-2.841194 -13.748050 -3.128766 14.382991 1.367004 1.790082 0.001129 0.002494 -422234.000000 1 0 0
-0.406594 -14.059250 3.629734 14.525935 1.541884 1.318240 0.008387 -0.002325 -3673550.000000 1 0 0
1.204906 -16.152250 7.027834 17.656088 -1.496337 1.161417 0.027434 -0.010896 1253380.000000 1 0 0
-5.586394 -10.296550 -14.578866 18.702140 1.073691 2.464710 0.031628 -0.011480 486490.000000 1 0 0
-0.277894 -17.275650 -5.890066 18.254264 1.554712 1.899343 0.005470 -0.005119 1450370.000000 1 0 0
-6.630594 -13.447950 -1.296866 15.049717 1.112719 1.657075 0.004877 0.001972 3077800.000000 1 0 0
-1.677094 -17.798350 -0.252166 17.878968 1.476846 1.584901 0.005223 -0.007381 1776500.000000 1 0 0
-9.467294 -9.773250 -4.876866 14.454407 0.801298 1.914946 0.013388 -0.005165 1265990.000000 1 0 0
-0.787994 -16.662650 4.905834 17.387698 1.523541 1.284768 0.020477 -0.013578 1898630.000000 1 0 0
-6.842394 -9.893250 -6.410766 13.630578 0.965715 2.060452 0.015758 -0.006987 3110230.000000 1 0 0
-6.077894 -14.628750 -8.552766 18.002525 1.177020 2.065859 0.026572 -0.004056 521967.000000 1 0 0
-5.830494 -12.298250 -10.322166 17.081824 1.128090 2.219655 0.034418 -0.007664 1454980.000000 1 0 0
-10.843094 -12.020950 -8.864666 18.456929 0.836868 2.071781 0.040708 -0.023233 26947.500000 1 0 0
4.006806 -17.167450 6.555134 18.808126 -1.341505 1.214798 0.039691 -0.008597 1658620.000000 1 0 0
-6.646494 -14.320150 -4.186966 16.333195 1.136249 1.830037 0.015631 -0.005173 -710822.000000 1 0 0
-2.806294 -12.247950 -7.101966 14.433484 1.345560 2.085237 0.009787 -0.003336 3498110.000000 1 0 0
-7.135994 -12.875150 4.451834 15.378905 1.064699 1.277116 -0.000987 0.001774 2666140.000000 1 0 0
2.587106 -16.378050 2.374034 16.750214 -1.414129 1.428586 0.014317 -0.009399 2596220.000000 1 0 0
-6.190294 -11.994050 7.254434 15.323309 1.094341 1.077621 0.004290 -0.003548 2047870.000000 1 0 0
-11.113694 -12.907850 -1.064866 17.066362 0.859949 1.633232 0.010316 0.002722 396093.000000 1 0 0
-14.357094 -8.855950 4.653134 17.498733 0.552706 1.301646 0.022778 -0.002455 108667.000000 1 0 0
-7.986494 -15.636850 4.447834 18.112934 1.098587 1.322698 0.008865 0.003881 -607469.000000 1 0 0
-16.552794 -9.408250 1.119434 19.072579 0.516844 1.512069 0.005473 -0.000315 -1206850.000000 1 0 0
-6.564794 -17.096650 2.323234 18.460481 1.204175 1.444613 0.003244 -0.000134 1608770.000000 1 0 0
-11.556594 -15.008850 -4.647266 19.504295 0.914627 1.811379 0.035552 -0.002165 -136100.000000 1 0 0
-10.095994 -10.064450 -12.580366 19.012834 0.783834 2.293850 0.026638 -0.012314 -1463640.000000 1 0 0
-4.276994 -15.975050 -4.508266 17.141159 1.309202 1.836935 0.003288 -0.005322 -509725.000000 1 0 0
-11.853994 -8.306650 0.023234 14.474741 0.611227 1.569191 -0.005773 0.000673 1741060.000000 1 0 0
-9.715394 -11.207750 3.452534 15.229003 0.856603 1.342100 0.005260 0.004102 1623610.000000 1 0 0
-14.058294 -12.943950 -0.706866 19.122791 0.744153 1.607769 0.000863 0.000720 1840940.000000 1 0 0
5.537906 -14.897650 -7.136866 17.422492 -1.214895 1.992850 0.003252 -0.004144 -362967.000000 1 0 0
-7.415494 -10.482950 -1.307066 12.906983 0.955130 1.672238 0.004664 0.003864 1879500.000000 1 0 0
-11.627094 -8.198650 -5.996066 15.438911 0.614163 1.969662 0.013394 -0.012696 -687542.000000 1 0 0
-14.364694 -6.627250 -9.260266 18.330777 0.432258 2.100382 0.026480 -0.021520 2023310.000000 1 0 0
-3.796094 -16.505350 1.380434 16.992425 1.344736 1.489468 0.004004 -0.005615 2138990.000000 1 0 0
-8.017694 -15.678050 0.144134 17.609811 1.098073 1.562611 0.013161 -0.000140 2544490.000000 1 0 0
1.030306 -18.540250 3.707234 18.935310 -1.515282 1.373739 0.018968 -0.013778 -697911.000000 1 0 0
-14.140794 -8.695950 -4.609166 17.228639 0.551343 1.841624 0.008647 -0.013734 -294411.000000 1 0 0
-3.198994 -14.530250 11.101534 18.563561 1.354092 0.929758 0.003618 -0.012742 -40798.900000 1 0 0
-10.787794 -12.192350 -3.884366 16.736732 0.846443 1.805018 0.012804 -0.002987 2340860.000000 1 0 0
-9.978794 -10.732650 0.480534 14.662776 0.821780 1.538018 0.004296 0.004445 1842770.000000 1 0 0
0.071406 -13.126750 -11.105466 17.194418 -1.565357 2.272967 0.012198 0.000100 2341390.000000 1 0 0
-5.852694 -12.640050 -6.372966 15.317949 1.137161 1.999889 0.012211 -0.005201 2050440.000000 1 0 0
1.724806 -15.786550 9.866634 18.696004 -1.461970 1.014858 0.026476 -0.011256 222122.000000 1 0 0
-8.955694 -15.605150 -5.555366 18.830487 1.049794 1.870273 0.037551 -0.011691 -432914.000000 1 0 0
-3.402794 -15.511850 5.883734 16.935608 1.354850 1.215980 0.002368 -0.007005 -1439680.000000 1 0 0
-17.421494 -5.518050 -6.557666 19.415465 0.306741 1.915327 0.027557 -0.018365 -1244180.000000 1 0 0
18.866706 5.607050 -2.843066 19.886544 0.288879 1.714252 0.019268 0.009297 -239529.000000 1 0 0
12.990106 -12.482150 -5.772966 18.917559 -0.765459 1.880907 0.065875 -0.008829 -878662.000000 1 0 0
11.060106 -13.467350 -1.643466 17.504183 -0.883230 1.664825 0.040985 -0.008651 596515.000000 1 0 0
18.725506 -2.927150 4.615134 19.506723 -0.155064 1.331940 0.058291 -0.017431 -116112.000000 1 0 0
8.953106 -16.747950 4.931934 19.620803 -1.079870 1.316709 0.050219 -0.018572 1370910.000000 1 0 0
18.364106 -1.051450 6.794734 19.609038 -0.057193 1.216948 0.081227 -0.023642 -1063810.000000 1 0 0
18.158906 -4.130150 -4.862866 19.247116 -0.223640 1.826219 0.073431 -0.014573 -233375.000000 1 0 0
5.438206 -11.732850 14.609834 19.511051 -1.136771 0.724550 0.019345 -0.005424 636627.000000 1 0 0
15.981106 -8.914650 -0.699066 18.312712 -0.508831 1.608979 0.036520 -0.005894 396767.000000 1 0 0
13.939606 -12.607850 -1.550366 18.859325 -0.735275 1.653096 0.038724 -0.005834 1556910.000000 1 0 0
11.297206 -1.976850 13.845534 17.978699 -0.173232 0.691786 0.034444 -0.008764 -903537.000000 1 0 0
16.941906 -6.142750 -1.400666 18.075492 -0.347835 1.648364 0.041103 -0.006913 -1531200.000000 1 0 0
17.798306 3.661650 -0.940166 18.195365 0.202899 1.622490 0.019062 0.000579 1223770.000000 1 0 0
9.795906 -11.036450 9.718834 17.669713 -0.844877 0.988399 0.025448 -0.000971 964689.000000 1 0 0
9.124706 -11.031050 4.297534 14.947010 -0.879698 1.279162 0.010015 -0.006172 -325065.000000 1 0 0
14.089106 -10.081650 6.826634 18.621104 -0.621095 1.195436 0.022017 -0.005960 -231145.000000 1 0 0
16.364206 -0.576550 -4.713066 17.039150 -0.035218 1.851053 0.023591 0.001954 -1602200.000000 1 0 0
15.741506 -0.430150 -1.722866 15.841348 -0.027319 1.679769 0.014764 -0.000235 1470500.000000 1 0 0
12.916006 -5.123150 -0.240166 13.897034 -0.377616 1.588079 0.010359 -0.004642 741078.000000 1 0 0
14.321606 -7.473650 1.139334 16.194503 -0.480970 1.500385 0.017499 -0.003024 1015700.000000 1 0 0
15.634706 2.388450 3.594834 16.219481 0.151594 1.347304 0.032085 -0.009545 2192180.000000 1 0 0
15.871306 -7.096250 4.990934 18.087690 -0.420450 1.291239 0.042294 -0.013982 -1717680.000000 1 0 0
13.651906 -12.127950 3.292534 18.555390 -0.726353 1.392408 0.007857 -0.002536 181261.000000 1 0 0
14.070406 -0.905150 9.200534 16.835838 -0.064242 0.992635 0.034153 -0.013745 1221380.000000 1 0 0
14.223506 -2.799850 -1.577266 14.582011 -0.194362 1.679174 0.008399 -0.001030 1156200.000000 1 0 0
15.088906 1.867350 9.107334 17.723025 0.123130 1.031106 0.040311 -0.013665 -988738.000000 1 0 0
14.400906 -10.085650 -2.971166 17.830711 -0.610960 1.738209 0.041927 -0.011150 -120770.000000 1 0 0
7.402906 -12.590550 6.139434 15.843535 -1.039267 1.172874 0.012222 -0.001297 -8250.820000 1 0 0
12.444106 -4.567450 7.035534 15.007202 -0.351771 1.082853 0.012660 -0.007945 1544370.000000 1 0 0
15.034306 -8.896250 -5.639066 18.356816 -0.534316 1.883037 0.067447 -0.012416 -984545.000000 1 0 0
14.315006 -4.550650 4.672734 15.730933 -0.307791 1.269204 0.017940 -0.007900 565581.000000 1 0 0
17.145606 -4.268550 0.966734 17.695392 -0.243998 1.516137 0.024047 -0.007964 -1651620.000000 1 0 0
10.229306 -14.430150 1.125534 17.723847 -0.954133 1.507250 0.035396 -0.008128 415478.000000 1 0 0
16.559206 -2.554750 8.608734 18.837313 -0.153073 1.096172 0.061800 -0.017472 1261020.000000 1 0 0
16.083306 -2.640250 3.229234 16.615403 -0.162710 1.375200 0.022897 -0.007510 1237850.000000 1 0 0
7.801406 -15.205550 2.641734 17.293046 -1.096753 1.417433 0.022342 -0.007169 1705820.000000 1 0 0
16.557806 -7.067850 7.862034 19.645026 -0.403444 1.159056 0.049359 -0.011360 -1897020.000000 1 0 0
10.353806 -8.553750 5.193234 14.399223 -0.690481 1.201820 0.006551 -0.006113 -170501.000000 1 0 0
10.971706 -11.822050 2.170934 16.274279 -0.822687 1.437001 0.018359 -0.003798 -336519.000000 1 0 0
12.470006 -7.243650 11.979634 18.747884 -0.526246 0.877617 0.046277 -0.016551 956152.000000 1 0 0
15.196306 -9.816450 4.257234 18.585329 -0.573541 1.339680 0.015649 -0.006281 -1504220.000000 1 0 0
7.483506 -10.198850 7.907034 14.917794 -0.937770 1.012148 0.012295 -0.001521 -115446.000000 1 0 0
15.340106 -3.358550 -4.321966 16.287360 -0.215538 1.839371 0.040157 -0.001455 950270.000000 1 0 0
11.901906 -8.949450 9.812634 17.833559 -0.644738 0.988152 0.029692 -0.008577 -527009.000000 1 0 0
16.993406 -6.681450 2.374234 18.413436 -0.374612 1.441496 0.046779 -0.008711 303436.000000 1 0 0
17.658606 3.848350 2.043434 18.188232 0.214576 1.458209 0.027913 0.001885 -377076.000000 1 0 0
14.825306 -4.891550 8.741734 17.892313 -0.318699 1.060341 0.052768 -0.014725 -725261.000000 1 0 0
12.836706 -12.650550 6.135234 19.038344 -0.778094 1.242684 0.011939 -0.000475 -1373940.000000 1 0 0
18.215806 0.727950 -0.875666 18.251364 0.039941 1.618793 0.024820 -0.002561 -654690.000000 1 0 0
11.825606 -2.098250 11.005934 16.290433 -0.175605 0.829008 0.023859 -0.008288 2062890.000000 1 0 0
5.667106 -12.497850 10.459134 17.254154 -1.145080 0.919547 0.010692 0.003395 -1289010.000000 1 0 0
10.885306 -4.994350 11.040834 16.289059 -0.430161 0.826021 0.027066 -0.009578 399114.000000 1 0 0
17.999306 1.240250 5.081634 18.743966 0.068797 1.296253 0.054908 -0.012200 -791808.000000 1 0 0
12.327606 -7.648150 7.178234 16.186140 -0.555291 1.111318 0.014469 -0.010221 -698574.000000 1 0 0
10.838206 -7.846150 14.301534 19.584756 -0.626609 0.752126 0.059502 -0.016796 8941.100000 1 0 0
14.205706 -0.318350 3.714734 14.686820 -0.022406 1.315089 0.012316 -0.004715 2202360.000000 1 0 0
11.725406 -7.699050 2.589034 14.264067 -0.581010 1.388277 0.004556 -0.002375 1763040.000000 1 0 0
9.303706 6.079350 3.492834 11.649779 0.578785 1.266293 0.004198 -0.001351 2102350.000000 1 0 0
-3.796194 14.738150 -9.988566 18.204274 -1.318700 2.151597 -0.000367 -0.006556 466280.000000 1 0 0
8.938206 -6.344450 9.280434 14.362104 -0.617281 0.868234 0.014352 -0.007446 -434473.000000 1 0 0
5.828506 -10.483250 -8.454766 14.674913 -1.063371 2.184791 0.003502 -0.001328 165326.000000 1 0 0
5.417506 1.044250 0.572334 5.546837 0.190419 1.467430 0.003729 0.001120 3828080.000000 1 0 0
-0.575094 9.925150 11.012834 14.836504 -1.512918 0.734330 0.009361 -0.001560 443315.000000 1 0 0
-6.416794 -5.145650 1.108734 8.299533 0.675901 1.436806 0.006056 -0.002421 2100660.000000 1 0 0
-1.050394 3.969450 -10.773966 11.529883 -1.312106 2.777475 0.011699 -0.006376 2776710.000000 1 0 0
10.968906 5.763950 1.229534 12.451979 0.483824 1.471893 0.008537 -0.001302 914488.000000 1 0 0
-10.209294 -1.827450 -13.554666 17.067461 0.177123 2.488456 0.011194 -0.004371 1093600.000000 1 0 0
7.357906 10.952050 -6.067466 14.522408 0.979228 2.001819 0.007407 -0.004184 -274523.000000 1 0 0
-12.551294 -2.946550 -9.627366 16.090472 0.230585 2.212208 0.013684 -0.006174 1026430.000000 1 0 0
-4.002394 -8.644850 2.588234 9.871755 1.137201 1.305510 0.008720 -0.000980 -1158380.000000 1 0 0
8.049206 -6.655850 -5.977466 12.034124 -0.690927 2.090600 0.009324 -0.007566 1125020.000000 1 0 0
14.374406 3.181250 -4.222266 15.315725 0.217803 1.850095 0.012064 0.002336 492866.000000 1 0 0
-2.497894 -5.001950 9.782934 11.267865 1.107642 0.519202 0.003772 -0.003002 2399570.000000 1 0 0
3.499806 -1.865750 -4.588366 6.064880 -0.489776 2.428813 0.007023 -0.002471 -1833090.000000 1 0 0
-3.915794 8.380850 -3.472466 9.880795 -1.133706 1.929901 0.003532 -0.003520 805327.000000 1 0 0
5.947306 0.085150 11.743534 13.163901 0.014316 0.468822 0.007131 -0.003182 2130590.000000 1 0 0
7.213106 4.791550 12.364134 15.095021 0.586351 0.610979 0.013061 -0.001293 1310190.000000 1 0 0
1.198106 -14.418450 12.407834 19.059945 -1.487891 0.861908 0.005953 -0.001335 -54651.700000 1 0 0
3.059906 8.674650 -9.142166 12.968877 1.231682 2.353122 0.007693 -0.003329 1841210.000000 1 0 0
-4.501994 -8.842050 -4.572566 10.925115 1.099850 2.002630 0.009977 -0.001968 2113970.000000 1 0 0
5.770406 -6.562350 -4.021066 9.619303 -0.849525 2.002062 0.009787 -0.006972 2643130.000000 1 0 0
-3.203294 3.457450 8.739534 9.929477 -0.823537 0.494596 0.005453 -0.000228 3554770.000000 1 0 0
-3.818294 3.152850 -11.054966 12.113302 -0.690230 2.720469 0.003715 -0.007012 -412259.000000 1 0 0
3.053906 -6.046650 8.496634 10.866513 -1.103111 0.673073 0.007486 -0.002732 1852580.000000 1 0 0
-5.111394 -8.702150 10.516534 14.575708 1.039714 0.764814 0.009670 -0.003512 1997370.000000 1 0 0
-13.257194 -2.502950 6.617634 15.027010 0.186603 1.114772 0.015349 -0.003490 -1176330.000000 1 0 0
4.025306 -5.829150 -8.311066 10.920434 -0.966442 2.435736 0.005987 -0.005659 1958170.000000 1 0 0
3.008506 -0.521750 12.364834 12.736266 -0.171717 0.242100 0.010898 -0.005736 398535.000000 1 0 0
1.492606 -1.447950 -7.572466 7.852813 -0.770213 2.873583 0.006692 -0.005492 766181.000000 1 0 0
3.562406 -3.495650 3.439334 6.061297 -0.775940 0.967420 0.010956 -0.002672 3328830.000000 1 0 0
1.477606 0.422350 -11.805366 11.904972 0.278410 3.012144 0.012250 -0.005921 623045.000000 1 0 0
4.124906 3.523850 -10.566066 11.877462 0.706977 2.667242 0.006978 -0.002366 2286790.000000 1 0 0
2.809006 3.171250 3.457634 5.468325 0.845898 0.886275 -0.000051 0.002052 -953358.000000 1 0 0
-5.330394 0.918450 2.579934 5.992722 -0.170629 1.125737 0.005051 -0.001604 2721350.000000 1 0 0
-9.571594 -9.220450 5.685834 14.455477 0.766715 1.166541 0.007950 -0.002379 -1199540.000000 1 0 0
-3.037594 3.947550 -0.532766 5.009388 -0.914939 1.677351 0.004284 -0.004506 -327317.000000 1 0 0
-15.942794 -6.574850 4.969034 17.946939 0.391152 1.290257 0.034833 -0.007524 1328320.000000 1 0 0
0.924606 6.749350 -8.064066 10.556409 1.434652 2.440135 0.006155 -0.004295 1236720.000000 1 0 0
-1.637694 6.569050 -9.413166 11.594919 -1.326472 2.518085 0.005300 -0.003988 -654746.000000 1 0 0
2.056006 -0.370850 5.222034 5.624441 -0.178455 0.380568 0.006588 -0.001636 3342270.000000 1 0 0
-3.439294 -0.565150 -6.265766 7.169934 0.162866 2.633953 0.009637 -0.008123 466967.000000 1 0 0
1.863606 -1.065750 -2.474766 3.276174 -0.519483 2.427035 0.010933 -0.000302 -297934.000000 1 0 0
2.511506 -8.484950 -7.659666 11.703526 -1.283018 2.284284 0.000560 -0.002414 2557920.000000 1 0 0
-2.387494 14.048050 -5.595866 15.308872 -1.402453 1.944999 -0.001637 0.004170 2770480.000000 1 0 0
6.964306 -5.074950 -8.229066 11.915292 -0.629735 2.333157 0.006382 -0.005453 3718510.000000 1 0 0
-14.312994 -5.087850 -2.171066 15.344756 0.341540 1.712759 0.008231 -0.005245 325663.000000 1 0 0
-2.779594 6.926150 -6.809966 10.103135 -1.189154 2.310467 0.003720 -0.002980 -1458280.000000 1 0 0
-5.705994 -1.046850 -8.085266 9.951170 0.181447 2.519214 0.015490 -0.011701 337940.000000 1 0 0
-5.779694 -10.665350 3.419434 12.603455 1.074183 1.296043 0.001046 0.001240 -2985510.000000 1 0 0
8.161506 -7.503150 6.730334 12.969381 -0.743395 1.025186 0.008716 -0.007174 156444.000000 1 0 0
9.003406 -5.956150 13.182234 17.038437 -0.584448 0.686173 0.036512 -0.008219 215705.000000 1 0 0
-4.630694 9.535750 -0.768266 10.628457 -1.118724 1.643143 0.004821 -0.002566 -1570290.000000 1 0 0
2.776906 6.662850 12.136134 14.120572 1.175913 0.536575 0.010973 -0.004262 1191120.000000 1 0 0
6.106306 -2.839950 10.902534 12.814739 -0.435327 0.553327 0.012043 -0.004200 352426.000000 1 0 0
-9.838894 -6.475150 -1.113366 11.830933 0.582061 1.665042 0.002059 -0.001749 -1056040.000000 1 0 0
0.908006 -13.384650 6.281034 14.812991 -1.503061 1.132915 0.009540 -0.003049 923325.000000 1 0 0
-0.471094 -3.195250 8.705934 9.285733 1.424415 0.355248 0.004999 -0.003618 1172430.000000 1 0 0
4.209206 0.652550 3.397534 5.448530 0.153805 0.897497 0.001692 0.000186 1995250.000000 1 0 0
-10.290494 5.527950 8.245034 14.298010 -0.492955 0.956167 -0.008761 -0.005411 -48066.800000 1 0 0
9.405706 7.951950 -0.003466 12.316689 0.701840 1.571078 0.002963 0.000402 109790.000000 1 0 0
4.291006 2.871950 8.225934 9.712200 0.589820 0.560538 0.001558 -0.000660 2588470.000000 1 0 0
1.311506 2.614850 -9.702466 10.133870 1.105901 2.848758 0.011990 -0.007170 657601.000000 1 0 0
-1.523394 -10.224150 3.005434 10.765064 1.422885 1.287852 0.010273 -0.003767 -2087480.000000 1 0 0
-9.945894 9.504950 8.973334 16.425152 -0.762732 0.992836 0.008159 -0.005863 1069910.000000 1 0 0
9.904506 -1.954250 -7.735166 12.718141 -0.194807 2.224587 0.015937 -0.001505 1539570.000000 1 0 0
-5.217494 -1.931850 6.696334 8.706043 0.354612 0.693272 0.002418 -0.001455 676804.000000 1 0 0
3.110706 -7.794750 -4.846766 9.691530 -1.191086 2.094514 0.002770 -0.003947 2178040.000000 1 0 0
-5.143194 4.812050 -13.054166 14.833055 -0.752147 2.646811 -0.002250 -0.010058 1944310.000000 1 0 0
-5.631494 9.658850 5.440534 12.434087 -1.042941 1.117924 0.003742 -0.003096 2616720.000000 1 0 0
-0.495594 -1.828150 -9.436466 9.624688 1.306068 2.943500 0.009145 -0.010962 -829332.000000 1 0 0
-16.679594 0.185350 6.422634 17.874379 -0.011112 1.203256 0.019624 -0.011846 -788905.000000 1 0 0
-6.047194 -2.871350 4.115634 7.858222 0.443304 1.019566 -0.000004 -0.000866 1410370.000000 1 0 0
1.033406 -5.634850 -5.117966 7.681994 -1.389416 2.299937 0.006958 -0.004205 1959670.000000 1 0 0
-7.040194 1.455650 -8.406666 11.061432 -0.203890 2.434106 0.006531 -0.006875 1197930.000000 1 0 0
8.025106 1.960550 4.732134 9.520461 0.239609 1.050602 0.001265 -0.000565 820160.000000 1 0 0
0.350606 -8.051450 -0.498166 8.074462 -1.527278 1.632532 0.009628 -0.001634 1155870.000000 1 0 0
5.451406 5.489150 -3.428966 8.462057 0.788848 1.988012 0.001948 0.000848 -467778.000000 1 0 0
-0.768894 -0.306950 -1.176466 1.438571 0.379825 2.528377 0.007790 -0.001165 1301760.000000 1 0 0
9.129206 6.380650 -6.317666 12.804999 0.610006 2.086762 0.006429 -0.005785 1632800.000000 1 0 0
-15.103794 -7.292650 2.439134 16.948649 0.449822 1.426382 0.007876 0.000529 680026.000000 1 0 0
-6.432994 6.873450 8.852734 12.922795 -0.818487 0.816127 0.001032 -0.001455 563218.000000 1 0 0
-9.546594 -3.173450 -9.568466 13.883939 0.320926 2.331146 0.007985 -0.008830 953756.000000 1 0 0
14.863806 3.450450 -1.215166 15.307350 0.228098 1.650264 0.007375 -0.000985 1597180.000000 1 0 0
12.082606 1.712050 -5.739666 13.485705 0.140758 2.010433 0.008030 0.003213 -371560.000000 1 0 0
1.648306 -9.296450 12.693934 15.820141 -1.395315 0.639506 -0.001238 -0.004586 -300071.000000 1 0 0
-3.608194 6.396950 7.930634 10.809024 -1.057231 0.747038 0.003856 -0.001599 362798.000000 1 0 0
-4.018994 13.047550 -12.405566 18.446922 -1.271992 2.308379 -0.004926 -0.010518 -608860.000000 1 0 0
-10.335194 7.746350 6.447634 14.435864 -0.643189 1.107790 -0.000680 -0.008094 1077060.000000 1 0 0
8.138406 -9.339650 -7.089866 14.273363 -0.854019 2.090612 0.011381 -0.003902 1176280.000000 1 0 0
5.821906 -3.772150 -0.351166 6.946008 -0.574914 1.621374 0.010213 -0.003755 38461.200000 1 0 0
-1.674894 -4.458750 4.175334 6.333967 1.211463 0.851045 0.005981 -0.002549 654079.000000 1 0 0
9.934106 -2.045050 -2.590566 10.468033 -0.203025 1.820869 0.005858 -0.001361 -2645170.000000 1 0 0
13.592306 7.028350 1.368334 15.362970 0.477220 1.481611 0.013197 -0.005414 79952.300000 1 0 0
5.437206 -3.689250 -3.278566 7.343212 -0.596164 2.033619 0.009648 -0.004482 -2924060.000000 1 0 0
-12.328794 -6.072450 1.977834 13.884727 0.457663 1.427863 0.001010 -0.000141 3689220.000000 1 0 0
3.721306 -5.737150 -0.329566 6.846285 -0.995383 1.618953 0.015061 -0.002832 154134.000000 1 0 0
-5.191994 3.739350 -8.591366 10.712194 -0.624164 2.501461 0.003667 -0.006742 1825910.000000 1 0 0
-1.703994 -9.303550 7.131234 11.845427 1.389649 0.924762 0.005674 -0.004072 1571770.000000 1 0 0
-7.531494 -7.379250 2.645334 10.870810 0.775188 1.324985 0.007441 -0.002121 -4236900.000000 1 0 0
-5.705194 13.136150 -8.559766 16.684642 -1.161064 2.109510 0.002872 -0.007000 2229790.000000 1 0 0
9.208906 -13.905850 -4.137766 17.184229 -0.985870 1.813975 0.033633 -0.001173 2600630.000000 1 0 0
-6.408594 -5.106250 -6.812466 10.656151 0.672775 2.264383 0.016109 -0.007837 2072890.000000 1 0 0
3.428506 0.377350 -6.265866 7.152490 0.109621 2.638384 0.006367 -0.004327 1096870.000000 1 0 0
-3.638694 5.772550 5.021734 8.472322 -1.008363 0.936362 0.006123 -0.000680 663163.000000 1 0 0
-2.694294 -10.741850 -2.861966 11.438418 1.325044 1.823690 0.006633 0.000933 1589320.000000 1 0 0
-12.567194 -0.544150 1.755734 12.700908 0.043272 1.432115 0.001907 -0.001265 159176.000000 1 0 0
8.385406 -12.014850 -6.073966 15.860791 -0.961468 1.963789 0.018833 -0.003056 117165.000000 1 0 0
6.111306 3.929150 1.001734 7.334150 0.571390 1.433783 -0.000688 0.001355 -1583770.000000 1 0 0
3.469306 -4.719550 -10.900066 12.374234 -0.936904 2.648489 0.005022 -0.004086 -390964.000000 1 0 0
-7.711194 4.284550 8.637234 12.345918 -0.507153 0.795955 -0.001889 0.000410 1020480.000000 1 0 0
8.274606 8.754850 4.063734 12.713396 0.813591 1.245445 0.004952 0.001295 2297800.000000 1 0 0
0.205306 10.609350 -6.313066 12.347277 1.551447 2.107484 -0.002423 0.001793 2215680.000000 1 0 0
5.475506 8.051850 3.312734 10.285313 0.973599 1.242866 0.001933 0.001800 2777320.000000 1 0 0
8.076206 6.723250 -3.756866 11.159805 0.694232 1.914145 0.005122 -0.002599 2202410.000000 1 0 0
10.512706 2.600050 -8.197966 13.582485 0.242459 2.218766 0.001356 0.001160 349902.000000 1 0 0
3.220406 -12.457050 -0.315366 12.870453 -1.317814 1.595302 0.008107 -0.002988 -1414780.000000 1 0 0
0.679106 2.104350 5.313034 5.754808 1.258632 0.394382 0.004105 0.001179 -357721.000000 1 0 0
-4.855294 13.327850 1.428834 14.256474 -1.221442 1.470404 0.003680 -0.003082 581782.000000 1 0 0
8.233906 4.132950 -8.063366 12.243217 0.465201 2.289751 0.001746 -0.000660 549818.000000 1 0 0
-13.913794 -0.574050 -3.538266 14.368108 0.041234 1.819614 0.006663 -0.004396 168745.000000 1 0 0
-8.588994 0.000950 -0.487866 8.602838 -0.000111 1.627537 0.003142 -0.004250 266174.000000 1 0 0
1.718006 -3.792050 -1.140066 4.316357 -1.145405 1.838095 0.013699 -0.001775 -908357.000000 1 0 0
8.150806 -5.613250 -0.309366 9.901511 -0.603084 1.602046 0.011843 -0.004438 2582420.000000 1 0 0
-2.305894 -1.219250 7.461734 7.904505 0.486385 0.336291 0.004606 -0.000364 2041040.000000 1 0 0
-5.859994 8.806650 -11.650766 15.736485 -0.983667 2.404412 -0.005295 -0.009159 -1878640.000000 1 0 0
-6.273894 9.228650 -8.866866 14.253106 -0.973737 2.242219 -0.003315 -0.000142 715475.000000 1 0 0
-1.465594 13.954750 -8.389166 16.348123 -1.466155 2.109656 0.007401 -0.002674 -1699010.000000 1 0 0
-1.466594 7.220550 9.829134 12.284101 -1.370408 0.643250 0.005665 -0.003597 1248130.000000 1 0 0
9.954206 2.297150 -3.994366 10.968960 0.226801 1.943518 0.003307 0.000226 -3430340.000000 1 0 0
-2.975894 -7.424850 -6.943166 10.592067 1.189599 2.285649 0.011127 -0.004717 1604910.000000 1 0 0
-5.636794 -5.022050 -1.592466 7.715593 0.727787 1.778686 0.008113 -0.001769 518753.000000 1 0 0
5.743206 7.390250 -8.784866 12.836436 0.910155 2.324535 0.006413 -0.003351 -234089.000000 1 0 0
-9.544194 5.242650 -7.442966 13.189949 -0.502308 2.170370 -0.000218 -0.000554 943714.000000 1 0 0
-0.444694 6.086450 -5.303466 8.085133 -1.497863 2.286241 0.006017 -0.002361 -1713700.000000 1 0 0
-8.284094 2.784150 -6.289566 10.767374 -0.324224 2.194606 0.005113 -0.004897 894537.000000 1 0 0
3.642906 1.458050 -1.939966 4.377230 0.380716 2.029956 0.001114 -0.001013 3328700.000000 1 0 0
-6.708694 12.481950 -3.547366 14.607856 -1.077623 1.816088 0.005368 0.000412 1807210.000000 1 0 0
-6.550694 3.092150 -2.287666 7.596473 -0.441026 1.876693 0.006918 -0.004368 -1551180.000000 1 0 0
12.101006 4.103450 -0.876166 12.807823 0.326931 1.639258 0.007554 -0.004744 183188.000000 1 0 0
2.263506 12.376850 -5.538766 13.747284 1.389913 1.985478 -0.000969 0.000598 335101.000000 1 0 0
-9.176894 -1.463850 -4.269366 10.226716 0.158182 2.001458 0.008224 -0.004923 -471141.000000 1 0 0
-1.108994 5.814550 3.523234 6.888544 -1.382332 1.033910 0.001725 -0.000533 1585700.000000 1 0 0
11.656506 2.652550 12.038334 16.965602 0.223749 0.781904 0.022561 -0.003241 1132450.000000 1 0 0
-7.018094 -2.278050 -5.745766 9.351843 0.313867 2.232421 0.016372 -0.008699 433328.000000 1 0 0
7.679706 -7.460350 10.908634 15.285058 -0.770911 0.776059 0.018387 -0.004977 -235526.000000 1 0 0
-5.592894 -1.963950 -10.829066 12.345291 0.337700 2.640757 0.013348 -0.009607 421391.000000 1 0 0
0.772406 -6.242950 4.431634 7.694830 -1.447697 0.957063 0.007461 -0.003176 2554560.000000 1 0 0
-4.818594 -9.347250 7.402534 12.860305 1.094818 0.957445 0.002360 -0.002196 2353730.000000 1 0 0
-8.794194 9.280250 1.590234 12.883700 -0.812284 1.447051 0.008654 -0.009152 490384.000000 1 0 0
-8.164794 7.250950 -9.136566 14.237871 -0.726188 2.267520 -0.000897 -0.002524 -231484.000000 1 0 0
-1.355994 -10.648050 -0.032566 10.734093 1.444131 1.573830 0.008460 -0.000961 181243.000000 1 0 0
-3.984494 10.238550 7.771134 13.457141 -1.199665 0.955166 0.003812 -0.000643 285371.000000 1 0 0
-7.516394 12.017550 1.921934 14.304248 -1.011872 1.436028 0.005293 -0.008651 2542060.000000 1 0 0
-8.253294 -8.121050 -2.834466 11.920675 0.777322 1.810873 0.011210 -0.003531 -67830.500000 1 0 0
5.458006 4.622650 -8.012966 10.740873 0.702720 2.412870 0.006617 -0.000692 1033280.000000 1 0 0
-8.987294 -0.143350 -10.094466 13.516295 0.015949 2.414089 0.007887 -0.007720 -687181.000000 1 0 0
-15.307694 -2.320850 -1.443766 15.549800 0.150467 1.663778 0.013386 -0.002679 363997.000000 1 0 0
-7.184894 -5.881850 8.805934 12.797005 0.686005 0.811895 0.002869 -0.002521 -1071440.000000 1 0 0
8.130006 3.499450 -0.955666 8.902609 0.406466 1.678350 0.002368 0.001409 914868.000000 1 0 0
11.942106 7.203450 -5.873066 15.132630 0.542767 1.969372 0.009432 -0.006257 56159.800000 1 0 0
3.676606 13.265250 -9.621966 16.794836 1.300422 2.180851 0.004806 -0.007605 1470870.000000 1 0 0
-9.863994 5.343850 -0.399866 11.225640 -0.496490 1.606425 0.006569 -0.003442 1582250.000000 1 0 0
11.396506 -1.335750 -5.174966 12.587488 -0.116675 1.994478 0.016714 -0.000626 -1374790.000000 1 0 0
10.560206 1.785550 -1.159066 10.772631 0.167499 1.678599 0.005603 -0.001529 1040620.000000 1 0 0
14.613106 5.015350 4.758734 16.166081 0.330612 1.272005 0.022648 -0.010024 2544350.000000 1 0 0
0.895506 -0.873550 10.337434 10.412856 -0.772987 0.120432 0.009324 -0.003619 2347120.000000 1 0 0
-7.987994 1.385950 -12.464666 14.869324 -0.171794 2.564918 0.004601 -0.006133 -806798.000000 1 0 0
3.087306 -11.471250 -7.795066 14.208592 -1.307892 2.151505 -0.005497 0.000753 2418210.000000 1 0 0
2.886406 5.011650 -6.808566 8.933339 1.048256 2.437428 0.005382 -0.001548 -954435.000000 1 0 0
6.498306 8.001150 0.568634 10.323262 0.888678 1.515686 0.003767 -0.000463 411937.000000 1 0 0
-9.139394 -5.491450 6.787234 12.639268 0.541048 1.003924 0.001897 -0.000388 -713558.000000 1 0 0
-0.204594 -6.923750 -11.775266 13.661517 1.541255 2.609859 0.010331 -0.004993 1143900.000000 1 0 0
6.406906 -13.367850 -4.669366 15.541906 -1.123864 1.875947 0.011962 -0.001676 2160860.000000 1 0 0
-3.277594 -0.349250 10.120534 10.643769 0.106156 0.314855 0.005905 0.000480 -269263.000000 1 0 0
8.704006 8.487350 6.949134 14.003046 0.772796 1.051512 0.000631 0.001189 -1446690.000000 1 0 0
-8.008994 5.568750 -2.615966 10.099418 -0.607573 1.832805 0.009684 -0.005928 923933.000000 1 0 0
-5.400594 5.829350 -6.419566 10.215604 -0.823559 2.250301 0.003266 -0.004011 -1166390.000000 1 0 0
3.338306 -13.565750 2.532034 14.198065 -1.329507 1.391501 0.017071 -0.007334 -536066.000000 1 0 0
-11.376394 -7.064550 6.543734 14.904719 0.555706 1.116269 0.015356 -0.004429 -331453.000000 1 0 0
-12.924394 -3.758350 -6.779766 15.070845 0.282991 2.037405 0.009633 -0.009400 312748.000000 1 0 0
6.074506 0.376550 -7.311266 9.512940 0.061909 2.447384 0.004215 -0.001139 287251.000000 1 0 0
-1.443394 2.217550 -2.360466 3.545802 -0.993792 2.299237 0.004940 -0.002234 3341940.000000 1 0 0
7.575006 0.930250 -5.043966 9.148097 0.122193 2.154799 0.003475 -0.000485 -559833.000000 1 0 0
3.748106 -4.444850 10.843434 12.303864 -0.870236 0.492183 0.009347 -0.003461 250724.000000 1 0 0
6.067606 -2.625650 2.072934 6.928704 -0.408402 1.266962 0.010195 -0.003235 -50423.600000 1 0 0
-6.314694 7.721850 1.055234 10.030745 -0.885314 1.465401 0.007384 -0.004379 1932460.000000 1 0 0
6.069106 -3.446150 7.928834 10.562974 -0.516420 0.721788 0.011196 -0.007217 167284.000000 1 0 0
6.832006 -2.239950 -7.854166 10.648080 -0.316818 2.400325 0.006573 -0.004714 1350680.000000 1 0 0
12.203206 -8.038850 -5.770466 15.711130 -0.582501 1.946885 0.037852 -0.010446 1249650.000000 1 0 0
5.624506 -9.587650 10.030534 14.972298 -1.040258 0.836669 0.009486 0.001341 2405670.000000 1 0 0
-6.656294 7.470550 -4.414066 10.936149 -0.842973 1.986268 0.006499 -0.002602 1276620.000000 1 0 0
-1.315794 -7.571550 9.563934 12.269006 1.398733 0.676897 0.004106 -0.003677 -1594940.000000 1 0 0
10.133306 -9.288850 0.726934 13.765720 -0.741947 1.517964 0.009153 -0.004721 119809.000000 1 0 0
11.091706 6.058150 9.775234 15.977557 0.499911 0.912449 0.009491 -0.006978 1545210.000000 1 0 0
-15.288594 -4.256350 -4.983366 16.634048 0.271525 1.875057 0.016705 -0.013084 1414840.000000 1 0 0
-4.787094 -4.731550 7.870934 10.356420 0.779563 0.707475 0.002774 -0.003595 -538465.000000 1 0 0
2.911906 10.841550 -11.095866 15.784063 1.308401 2.350374 0.005307 -0.004918 -797945.000000 1 0 0
9.904606 -1.361650 1.581934 10.122145 -0.136620 1.413869 0.004302 -0.001824 584231.000000 1 0 0
-1.653594 -2.628150 0.667734 3.176069 1.009193 1.358977 0.008260 -0.001433 919894.000000 1 0 0
1.593406 3.023150 0.949234 3.546749 1.085729 1.299859 -0.001509 0.000622 -1621880.000000 1 0 0
-9.008194 -2.438850 4.331134 10.288550 0.264398 1.136286 0.001417 -0.002033 4024190.000000 1 0 0
9.918806 4.888250 -2.734966 11.391126 0.457892 1.813261 0.004056 -0.001441 786507.000000 1 0 0
2.640806 8.433950 2.510534 9.187391 1.267350 1.294017 0.000714 -0.001244 344374.000000 1 0 0
-8.219794 -0.057750 2.533434 8.601549 0.007026 1.271830 0.001067 -0.002099 1594570.000000 1 0 0
6.970706 2.159950 13.719934 15.540036 0.300479 0.488843 0.009483 -0.004180 -1156150.000000 1 0 0
6.819106 4.347950 3.712634 8.898794 0.567618 1.140427 -0.000408 0.000007 695313.000000 1 0 0
-0.339894 3.375550 7.801634 8.507371 -1.470442 0.410193 0.004033 -0.000395 1965310.000000 1 0 0
2.723606 -10.163050 9.242734 14.004776 -1.308958 0.850017 0.009746 -0.004519 2831790.000000 1 0 0
1.310706 -4.501850 6.779934 8.243307 -1.287480 0.605043 0.006325 -0.003882 380054.000000 1 0 0
-0.116094 10.802350 -1.990166 10.984763 -1.560050 1.752978 0.001664 -0.000160 2491660.000000 1 0 0
8.827906 5.544750 8.003934 13.143027 0.560821 0.916013 -0.000185 -0.000223 -185019.000000 1 0 0
2.638206 11.422250 -2.919766 12.081099 1.343806 1.814894 0.001001 -0.001769 3041050.000000 1 0 0
1.417506 2.442550 -6.662766 7.236561 1.044959 2.740689 0.006145 -0.004005 555622.000000 1 0 0
-13.642894 -2.281350 3.618534 14.297794 0.165686 1.314930 -0.000896 -0.000998 1754950.000000 1 0 0
-0.981694 -10.561950 -5.346966 11.878912 1.478116 2.037699 0.005024 -0.002547 -452601.000000 1 0 0
-5.647894 2.906350 0.466334 6.368912 -0.475251 1.497510 0.009255 -0.004762 1051270.000000 1 0 0
3.743506 7.300150 -5.067366 9.642833 1.096962 2.124106 0.003493 -0.001720 -1596480.000000 1 0 0
3.004306 9.747350 -6.529766 12.110926 1.271817 2.140240 0.004409 -0.001385 1793320.000000 1 0 0
-12.209594 1.603050 -2.583266 12.582417 -0.130548 1.777574 0.005101 -0.003937 910962.000000 1 0 0
-2.512794 9.661450 -5.801366 11.546151 -1.316349 2.097227 0.000417 -0.000639 1001390.000000 1 0 0
-1.276494 3.415550 1.775034 4.055387 -1.213139 1.117760 0.001659 -0.000761 -383.122000 1 0 0
12.867606 3.748550 9.708534 16.549397 0.283472 0.943893 0.028007 -0.010490 572009.000000 1 0 0
-2.532094 -9.557650 11.606134 15.246722 1.311817 0.705601 -0.002841 -0.007698 840739.000000 1 0 0
-0.418094 -8.841450 -7.574666 11.649961 1.523544 2.278628 0.008606 -0.004119 2365080.000000 1 0 0
2.384606 7.723550 -0.517166 8.099817 1.271336 1.634689 -0.001117 0.000617 2134640.000000 1 0 0
-11.858994 -1.348850 -5.581166 13.175908 0.113254 2.008200 0.007240 -0.002158 -224297.000000 1 0 0
-6.285094 -7.204950 -10.906866 14.504255 0.853481 2.421852 0.013872 -0.009026 1479560.000000 1 0 0
-4.792794 -2.256250 -1.366066 5.470619 0.439982 1.823177 0.006648 -0.003977 -238373.000000 1 0 0
-10.563494 3.725850 4.490834 12.068014 -0.339087 1.189497 -0.003457 -0.002613 2787970.000000 1 0 0
6.792006 9.414250 -3.642966 12.166785 0.945812 1.874880 0.003159 0.000508 -304586.000000 1 0 0
1.241606 -2.691650 -11.484166 11.860549 -1.138601 2.888993 0.010660 -0.007719 -1645540.000000 1 0 0
1.257206 8.825750 7.640534 11.741048 1.429301 0.862219 0.003950 0.001788 125077.000000 1 0 0
10.473406 0.358850 10.499534 14.834461 0.034250 0.784446 0.013791 -0.004326 2402600.000000 1 0 0
-5.309294 -0.825150 -3.872166 6.622925 0.154183 2.195258 0.010744 -0.007544 -283903.000000 1 0 0
11.694906 5.663650 5.378434 14.063261 0.450996 1.178355 0.004001 -0.002607 3497930.000000 1 0 0
9.995106 -3.511150 3.700334 11.221533 -0.337821 1.234754 0.007180 -0.007428 -1717840.000000 1 0 0
7.358006 -1.646750 -3.454266 8.293611 -0.220176 2.000385 0.006005 -0.000238 -2368100.000000 1 0 0
2.380806 9.314450 10.529634 14.258346 1.320551 0.739969 0.009218 0.002460 1849150.000000 1 0 0
2.381606 -10.810150 6.297534 12.735397 -1.353948 1.053548 0.009902 -0.002260 585622.000000 1 0 0
5.932006 -7.484950 -1.193866 9.624889 -0.900630 1.695156 0.010709 -0.006766 561746.000000 1 0 0
-0.380894 -5.608150 -2.367466 6.099288 1.502983 1.969424 0.008942 -0.001066 1253670.000000 1 0 0
7.810706 -5.093550 2.615434 9.684621 -0.577867 1.297340 0.010764 -0.006142 2112310.000000 1 0 0
-2.661294 -12.544750 4.656134 13.643050 1.361752 1.222515 0.005942 -0.001058 -208196.000000 1 0 0
4.818406 -10.240150 -1.115166 11.371952 -1.130993 1.669017 0.011464 -0.006260 1852420.000000 1 0 0
0.890806 0.205450 1.153334 1.471708 0.226671 0.670243 0.002982 0.000472 -2590320.000000 1 0 0
-1.655894 8.587850 2.510334 9.099172 -1.380316 1.291285 0.002132 -0.001498 983564.000000 1 0 0
-7.572494 0.634550 -3.043666 8.185916 -0.083601 1.951762 0.006516 -0.004657 -1587920.000000 1 0 0
4.529306 -6.308450 12.900134 15.057378 -0.948109 0.541897 0.013421 -0.005068 748356.000000 1 0 0
-5.031894 12.969850 8.301134 16.200179 -1.200705 1.032807 0.010620 -0.008352 1906920.000000 1 0 0
0.661106 6.090650 8.266634 10.289331 1.462675 0.637782 0.003610 0.001895 272646.000000 1 0 0
7.958406 -0.562050 -0.734466 8.011964 -0.070506 1.662596 0.005639 -0.001451 4667980.000000 1 0 0
2.351006 -9.152950 -2.319266 9.730504 -1.319374 1.811463 0.008368 -0.004576 716299.000000 1 0 0
-7.151494 12.189650 4.782434 14.919890 -1.040224 1.244496 0.004322 -0.005209 -552041.000000 1 0 0
-14.972794 0.168450 0.181634 14.974843 -0.011250 1.558667 0.005402 -0.003038 855937.000000 1 0 0
6.888906 -0.456750 3.906934 7.932830 -0.066205 1.055834 0.005693 -0.001402 -544051.000000 1 0 0
-4.207194 -5.058750 5.147134 8.353707 0.877042 0.906951 0.005906 -0.001979 112120.000000 1 0 0
2.940106 5.120650 6.848334 9.042398 1.049589 0.711538 0.000844 0.000929 -1026570.000000 1 0 0
2.092106 -7.209750 1.743634 7.706988 -1.288375 1.342580 0.011419 -0.003736 2666740.000000 1 0 0
-2.377694 6.494950 -1.700166 7.122385 -1.219866 1.811831 0.002459 -0.003392 1468690.000000 1 0 0
2.775906 -3.771450 -6.525166 8.031642 -0.936295 2.519108 0.004662 -0.006256 666328.000000 1 0 0
-5.168694 0.939150 -12.061666 13.156032 -0.179739 2.730830 0.006983 -0.005586 1209770.000000 1 0 0
-7.457594 6.334550 -11.916366 15.418885 -0.704151 2.454104 -0.001856 -0.007962 1763920.000000 1 0 0
-1.036494 11.132250 -9.006666 14.356927 -1.477957 2.248928 -0.000201 0.000039 390795.000000 1 0 0
4.629306 5.901550 -0.650266 7.528719 0.905627 1.657275 0.000292 0.000663 -371936.000000 1 0 0
-2.690394 13.324950 3.551234 14.050046 -1.371568 1.315269 0.004737 -0.000965 290335.000000 1 0 0
1.441006 -7.751450 10.174634 12.871855 -1.386993 0.659243 0.003573 -0.004024 -1761160.000000 1 0 0
12.921906 -0.247850 -1.101466 12.971134 -0.019178 1.655815 0.009836 -0.004478 1141620.000000 1 0 0
-1.024794 3.090750 -5.236366 6.166236 -1.250635 2.585264 0.007161 -0.006141 -1563560.000000 1 0 0
6.605506 1.119750 7.311834 9.917130 0.167921 0.741741 0.003556 -0.001264 291641.000000 1 0 0
5.552806 -6.102250 6.855534 10.727043 -0.832505 0.877483 0.008466 -0.004338 1503730.000000 1 0 0
12.210406 -4.867550 2.580634 13.395773 -0.379333 1.376939 0.004787 -0.004930 1017400.000000 1 0 0
4.406706 -9.116750 13.822334 17.134501 -1.120546 0.632256 0.012258 -0.001993 874957.000000 1 0 0
-2.839394 -4.373250 -1.388766 5.395937 0.994939 1.831098 0.009127 -0.002908 2347530.000000 1 0 0
-9.331694 -5.108850 -7.473866 13.001520 0.500901 2.183212 0.013521 -0.009606 1917420.000000 1 0 0
-10.633794 -3.146750 7.907834 13.620332 0.287709 0.951343 0.003881 -0.000149 204704.000000 1 0 0
12.076406 -0.600250 1.634134 12.201241 -0.049663 1.436461 0.009734 -0.003213 1129720.000000 1 0 0
-7.688194 4.751850 4.375234 10.041468 -0.553601 1.119962 0.003446 -0.002997 2434780.000000 1 0 0
-1.075794 10.558050 6.936934 12.678755 -1.469254 0.991864 0.002767 0.003799 3387530.000000 1 0 0
7.422506 -9.965850 1.884234 12.568297 -0.930635 1.420309 0.010747 -0.005922 4379800.000000 1 0 0
-4.373194 -1.716650 1.687434 4.991908 0.374058 1.225969 0.003089 0.000026 1427000.000000 1 0 0
6.639006 -14.862750 -0.893766 16.302655 -1.150700 1.625647 0.026474 -0.005037 -406697.000000 1 0 0
-10.496594 1.629250 2.441634 10.899290 -0.153988 1.344861 -0.003572 -0.000835 -60260.300000 1 0 0
-3.101794 8.324950 -11.388266 14.443632 -1.214140 2.479102 -0.004445 -0.002506 -2372730.000000 1 0 0
-1.224994 -5.178450 -6.907766 8.719758 1.338510 2.485197 0.006515 -0.005646 -482549.000000 1 0 0
12.869106 -0.466150 6.411834 14.385507 -0.036207 1.108824 0.013429 -0.006742 2213310.000000 1 0 0
5.994606 -13.304850 3.682934 15.050526 -1.147478 1.323581 0.018204 -0.004809 219178.000000 1 0 0
-5.611394 3.507850 -4.909466 8.239879 -0.558693 2.209080 0.007022 -0.006399 2072360.000000 1 0 0
-4.433094 8.023050 3.353134 9.760388 -1.066002 1.220107 0.007312 -0.003597 -1177190.000000 1 0 0
14.098006 6.129550 -3.989166 15.882021 0.410126 1.824690 0.018210 -0.000982 516299.000000 1 0 0
-6.807394 -8.529850 5.292934 12.129060 0.897235 1.119220 0.008036 -0.002279 903160.000000 1 0 0
1.678206 11.344750 2.687734 11.778949 1.423933 1.340587 0.003828 -0.001111 1027880.000000 1 0 0
-7.435094 7.306450 6.000334 12.027836 -0.776672 1.048501 0.001439 -0.006679 -50488.600000 1 0 0
-17.418694 -4.063650 5.194034 18.625309 0.229193 1.288179 0.032109 -0.008295 -824556.000000 1 0 0
7.451806 -13.038450 -8.571166 17.291485 -1.051577 2.089422 0.020402 -0.000692 -234333.000000 1 0 0
-2.219494 12.802350 -2.872266 13.306999 -1.399136 1.788355 -0.000918 0.002144 1054940.000000 1 0 0
-5.475394 13.927850 -5.813766 16.055056 -1.196230 1.941331 0.005960 0.001875 3572840.000000 1 0 0
-5.726694 2.436550 7.511034 9.754355 -0.402271 0.691926 0.005623 -0.000546 1289280.000000 1 0 0
-7.482794 5.058750 1.427834 9.144499 -0.594471 1.414013 0.005902 -0.002474 1381670.000000 1 0 0
10.783106 -5.667850 -5.032766 13.180616 -0.483935 1.962573 0.016279 -0.005306 3350050.000000 1 0 0
-9.525894 -0.844750 6.861934 11.770404 0.088448 0.948402 -0.002029 -0.000442 1504680.000000 1 0 0
-11.446394 -4.544450 -2.541266 12.574975 0.377935 1.774287 0.004151 -0.003796 800431.000000 1 0 0
6.669706 -4.268250 13.431634 15.592041 -0.569275 0.532695 0.022097 -0.010983 169503.000000 1 0 0
0.176906 10.167250 -11.666166 15.475907 1.553398 2.424664 0.001028 -0.002232 -1633910.000000 1 0 0
-11.911894 -3.318850 1.451634 12.450511 0.271725 1.453938 0.001860 -0.002158 3453080.000000 1 0 0
5.231106 5.954050 5.438834 9.612289 0.849943 0.969368 -0.000177 0.001577 -4251510.000000 1 0 0
-7.069594 -0.067550 8.154234 10.792370 0.009555 0.714295 -0.000447 0.001986 87508.400000 1 0 0
1.730406 2.039050 9.617734 9.982627 0.867096 0.271211 0.006519 -0.002447 3051630.000000 1 0 0
10.550506 -4.916950 -2.041366 11.817646 -0.436112 1.744406 0.008107 -0.002527 2943030.000000 1 0 0
-9.780494 -2.338650 -1.665866 10.193255 0.234707 1.734961 0.003741 -0.003776 142544.000000 1 0 0
-2.003394 -5.282450 -9.972666 11.461759 1.208301 2.626164 0.015750 -0.008952 257907.000000 1 0 0
7.688406 -1.509950 6.540034 10.206056 -0.193925 0.875257 0.008699 -0.005636 3447410.000000 1 0 0
1.434406 -11.751950 -2.559266 12.112625 -1.449340 1.783690 0.001973 0.001230 -4664770.000000 1 0 0
-0.841394 -1.496050 4.835834 5.131413 1.058475 0.341067 0.008076 -0.000503 2551520.000000 1 0 0
7.709106 1.547050 9.912934 12.652666 0.198048 0.670572 0.005762 -0.001320 1296530.000000 1 0 0
-3.859594 10.745050 -8.031266 13.959004 -1.225951 2.183824 0.000487 0.002349 2907840.000000 1 0 0
-9.513694 12.685850 6.346434 17.079766 -0.927330 1.190090 0.008147 -0.007430 940174.000000 1 0 0
-2.622194 -2.504350 -10.987266 11.570120 0.762415 2.822831 0.014001 -0.009893 -1375610.000000 1 0 0
1.146406 -11.780750 11.123234 16.242742 -1.473790 0.816450 0.000257 0.000814 1671400.000000 1 0 0
1.371806 3.532850 -1.873166 4.227485 1.200417 2.029841 0.001423 -0.000163 2011070.000000 1 0 0
-1.994894 -9.420650 -11.984566 15.373941 1.362121 2.464724 0.012201 -0.003079 314319.000000 1 0 0
1.234706 -2.709450 1.541234 3.352763 -1.143209 1.093149 0.013227 -0.002023 1073820.000000 1 0 0
-1.060594 -2.200650 -6.623166 7.059323 1.121696 2.788233 0.008114 -0.008152 -125763.000000 1 0 0
1.871206 5.831550 4.069134 7.352975 1.260299 0.984356 -0.002040 0.001470 -1012750.000000 1 0 0
-10.995194 8.537750 3.581234 14.374029 -0.660246 1.318998 0.002991 -0.007659 2042800.000000 1 0 0
-16.491294 -1.533150 4.008634 17.040612 0.092701 1.333331 0.020065 -0.006078 144777.000000 1 0 0
-12.180794 0.252050 6.814934 13.959893 -0.020689 1.060794 -0.006038 0.000737 -263892.000000 1 0 0
-5.214294 3.032550 4.747534 7.676217 -0.526768 0.903998 0.003917 0.000390 1061900.000000 1 0 0
5.286706 -5.988550 3.913234 8.895246 -0.847564 1.115282 0.009295 -0.004240 1535690.000000 1 0 0
9.937606 3.447050 6.313334 12.267696 0.333883 1.030219 -0.000630 0.001876 1325250.000000 1 0 0
-12.227794 5.815450 3.092734 13.888967 -0.443932 1.346238 -0.001062 -0.003990 1289670.000000 1 0 0
-4.829394 12.306350 -1.349166 13.288700 -1.196832 1.672499 -0.002338 -0.000352 1674690.000000 1 0 0
-1.737594 -12.171250 10.324534 16.054736 1.428992 0.872278 0.001758 -0.006467 1386360.000000 1 0 0
5.233606 6.412750 13.860934 16.144333 0.886300 0.538335 0.011601 -0.003544 359639.000000 1 0 0
13.056706 -3.759050 -5.926166 14.823207 -0.280321 1.982084 0.018029 -0.000249 1662870.000000 1 0 0
3.539206 -2.563450 6.393834 7.744571 -0.626850 0.599551 0.007218 -0.002276 1809260.000000 1 0 0
7.213106 -11.794850 -0.629266 13.839919 -1.021930 1.616279 0.015158 -0.002981 795720.000000 1 0 0
-6.178894 -6.489150 -4.156966 9.877659 0.809884 2.005173 0.011766 -0.003531 -398602.000000 1 0 0
0.219806 -8.988650 4.964134 10.270675 -1.546347 1.066341 0.008141 -0.004313 1250660.000000 1 0 0
-10.286794 2.434650 -0.368766 10.577412 -0.232401 1.605667 0.002025 -0.001923 -597781.000000 1 0 0
-1.855794 9.104050 -0.289566 9.295781 -1.369709 1.601952 0.004718 -0.001855 450337.000000 1 0 0
-3.542094 2.289750 -6.465366 7.719478 -0.573868 2.563560 0.008833 -0.008228 188878.000000 1 0 0
-12.763194 3.020950 6.394734 14.591706 -0.232415 1.117152 -0.004065 -0.004053 -421307.000000 1 0 0
11.474806 1.608650 7.984134 14.071437 0.139282 0.967451 0.015362 -0.005424 -2030170.000000 1 0 0
6.062206 2.624150 -3.216666 7.347343 0.408518 2.023946 0.001028 0.000871 1517190.000000 1 0 0
10.517706 -2.409050 6.394734 12.542659 -0.225163 1.035799 0.008962 -0.007488 2581030.000000 1 0 0
-0.959294 11.053050 4.082334 11.821828 -1.484223 1.218215 0.004910 -0.000203 1689730.000000 1 0 0
-1.568194 -12.228350 7.415734 14.386969 1.443250 1.029266 0.004707 -0.000647 -571856.000000 1 0 0
8.141606 8.705950 -7.767866 14.227405 0.818883 2.148354 0.010199 -0.006206 2365690.000000 1 0 0
-4.652794 -5.977450 -8.765566 11.585057 0.909371 2.428935 0.013410 -0.007904 -419395.000000 1 0 0
-8.654394 -5.315350 -11.602366 15.419675 0.550780 2.422554 0.013497 -0.009957 1396430.000000 1 0 0
6.080606 -0.631050 -9.953366 11.680817 -0.103411 2.590804 0.008457 -0.003554 83293.000000 1 0 0
-11.215094 -5.443050 -5.318866 13.553430 0.451845 1.974076 0.004160 -0.010378 -1245490.000000 1 0 0
3.953506 8.936750 -2.769966 10.157186 1.154291 1.847005 0.004188 -0.002313 386284.000000 1 0 0
11.728106 -10.396650 -3.984966 16.171541 -0.725291 1.819779 0.030308 -0.009259 586063.000000 1 0 0
3.977306 -11.242850 3.956934 12.564950 -1.230773 1.250426 0.012356 -0.003515 921596.000000 1 0 0
-1.066094 0.943050 3.295934 3.590137 -0.724233 0.407656 0.005872 -0.001368 -1408890.000000 1 0 0
-10.651694 -5.133550 4.540534 12.666032 0.449101 1.204156 0.006636 -0.000985 3070000.000000 1 0 0
4.586506 -8.612450 2.741634 10.135427 -1.081454 1.296884 0.012286 -0.003824 5409920.000000 1 0 0
-3.772194 -5.655550 2.606534 7.280708 0.982570 1.204665 0.006699 -0.002368 1703370.000000 1 0 0
10.067206 5.143550 12.303434 16.708658 0.472346 0.743135 0.019212 -0.002204 1026530.000000 1 0 0
1.561106 -12.243650 -5.261966 13.417611 -1.443977 1.973784 -0.000905 0.000545 1450570.000000 1 0 0
9.853306 -10.740850 -1.791266 14.685439 -0.828468 1.693076 0.018159 -0.007483 -307073.000000 1 0 0
9.678606 -4.437150 -9.290966 14.131021 -0.429858 2.288275 0.021464 -0.004591 2645630.000000 1 0 0
-7.514994 -3.072250 -13.013266 15.338153 0.388083 2.583798 0.007529 -0.007345 2352910.000000 1 0 0
0.454606 6.336050 -2.500466 6.826751 1.499170 1.945799 0.001356 -0.003413 493134.000000 1 0 0
-6.046694 -9.432050 1.012934 11.249538 1.000718 1.480632 0.002111 0.002070 -997352.000000 1 0 0
-9.071594 -4.078550 0.542834 9.961077 0.422518 1.516274 0.002496 -0.001620 3174880.000000 1 0 0
1.893306 3.836050 12.061634 12.797770 1.112317 0.340824 0.010229 -0.005971 191820.000000 1 0 0
6.615806 4.289750 9.588834 12.414370 0.575256 0.688188 -0.002644 -0.000747 1711280.000000 1 0 0
-8.270194 9.878150 -3.633866 13.385774 -0.873768 1.845719 0.006486 -0.000467 3614680.000000 1 0 0
16.348306 2.144050 -6.122066 17.588171 0.130404 1.926317 0.027294 0.005329 -361987.000000 1 0 0
-10.983394 2.616150 -5.184266 12.424001 -0.233834 2.001245 0.003598 -0.001706 1032780.000000 1 0 0
-13.798794 3.920950 1.395034 14.412727 -0.276854 1.473853 0.004176 0.000029 289753.000000 1 0 0
-17.562994 10.301550 3.481934 20.656828 -0.530470 1.401427 0.048662 -0.016606 1239890.000000 1 0 0
-14.405994 2.750350 -1.217466 14.716634 -0.188647 1.653618 0.014029 -0.001335 920403.000000 1 0 0
-14.416794 5.097350 5.052434 16.104472 -0.339852 1.251679 -0.005069 -0.007962 837952.000000 1 0 0
-17.707094 7.446350 3.028434 19.446355 -0.398078 1.414427 0.038056 -0.012915 -1621220.000000 1 0 0
-15.137294 12.612350 -3.424766 19.998452 -0.694658 1.742896 0.055678 -0.014246 -181320.000000 1 0 0
-8.502894 12.518050 -9.552466 17.895541 -0.974132 2.133873 0.017762 -0.015494 819872.000000 1 0 0
-12.411594 8.863350 -9.873666 18.168542 -0.620139 2.145336 0.023480 -0.004312 -920647.000000 1 0 0
-13.907894 -3.552350 -12.305366 18.906896 0.250073 2.279487 0.022833 -0.000843 -1027870.000000 1 0 0
-14.763194 5.781550 -7.665266 17.610636 -0.373261 2.021127 0.037027 0.002152 586213.000000 1 0 0
-10.867594 13.730850 -8.467166 19.450803 -0.901277 2.021181 0.033051 -0.011472 -461027.000000 1 0 0
-10.935394 13.446350 3.850334 17.754218 -0.888021 1.352191 0.010544 -0.010458 -2247620.000000 1 0 0
-15.215494 3.245150 2.992534 15.842901 -0.210131 1.380767 0.003140 -0.000104 570669.000000 1 0 0
-11.043194 9.352150 -12.534666 19.145043 -0.702674 2.284610 0.028105 -0.014138 -1415350.000000 1 0 0
-12.982994 11.640750 -9.013366 19.629212 -0.730942 2.047870 0.037359 -0.018864 -148736.000000 1 0 0
-8.867194 14.624350 -3.548066 17.466755 -1.025735 1.775352 0.012725 -0.007506 245352.000000 1 0 0
-16.790894 8.135150 -4.182266 19.120830 -0.451169 1.791307 0.049830 -0.000246 -799478.000000 1 0 0
-17.014394 6.617250 0.257634 18.257710 -0.370919 1.556685 0.030562 0.001841 380007.000000 1 0 0
-10.493094 2.764250 -12.413066 16.487277 -0.257583 2.423235 0.007957 -0.009625 1172970.000000 1 0 0
-16.945894 0.877350 2.361234 17.132090 -0.051727 1.432531 0.015278 -0.005705 -446652.000000 1 0 0
-12.768694 1.205150 -7.016566 14.619307 -0.094104 2.071396 0.010738 -0.003666 -30170.000000 1 0 0
-12.314894 8.977550 -5.444066 16.183043 -0.629925 1.913894 0.024049 0.000724 -120018.000000 1 0 0
-9.733094 13.930050 1.163934 17.033325 -0.960935 1.502410 0.018685 -0.009474 568975.000000 1 0 0
-12.251094 11.052850 2.752234 16.728108 -0.734025 1.405517 0.008276 -0.008629 331403.000000 1 0 0
-12.618994 6.781450 -3.677566 14.790252 -0.493118 1.822080 0.009360 0.002627 371416.000000 1 0 0
-15.789894 3.666950 -9.532566 18.805241 -0.228189 2.102393 0.036547 -0.004749 -1918620.000000 1 0 0
-15.175294 5.803250 -4.710866 16.916250 -0.365255 1.853009 0.031411 0.005648 1627750.000000 1 0 0
-17.722794 5.258950 7.748334 20.044717 -0.288458 1.173906 0.004726 -0.011848 -1676520.000000 1 0 0
-15.973594 10.093250 -2.108966 19.012552 -0.563525 1.681950 0.049276 -0.000800 -1292230.000000 1 0 0
-8.822094 9.953850 -8.260366 15.657015 -0.845602 2.126548 0.006138 -0.007661 -178842.000000 1 0 0
-17.053194 4.077350 -1.350366 17.585781 -0.234690 1.647659 0.021788 -0.000211 -127474.000000 1 0 0
-10.219594 5.393950 -4.556466 12.421601 -0.485643 1.946382 0.004799 -0.001331 171699.000000 1 0 0
-17.991594 2.809150 6.141834 19.217464 -0.154886 1.245493 0.023029 -0.015226 -1805510.000000 1 0 0
-10.404894 10.075150 -5.702566 15.565659 -0.769299 1.945886 0.010325 -0.002626 682601.000000 1 0 0
-15.345794 0.457550 -5.883266 16.441276 -0.029807 1.936745 0.012190 -0.002118 430960.000000 1 0 0
-16.468494 -4.217150 -8.945166 19.209675 0.250687 2.055176 0.031939 -0.014839 -1317040.000000 1 0 0
-10.007094 9.604150 -1.140766 13.917003 -0.764854 1.652858 0.009028 -0.002768 2922710.000000 1 0 0
-17.433894 -3.098950 -3.219266 17.997439 0.175917 1.750638 0.026027 -0.010574 209704.000000 1 0 0
-11.957694 5.030250 -11.520066 17.349403 -0.398198 2.296957 0.021928 -0.005895 -899728.000000 1 0 0
-16.379894 6.971550 5.822034 18.729643 -0.402393 1.254713 0.012505 -0.010928 -1128850.000000 1 0 0
-12.079694 6.043250 -8.809666 16.126069 -0.463873 2.148736 0.014665 -0.002299 1768150.000000 1 0 0
-14.632894 8.332350 -0.160266 16.839695 -0.517635 1.580314 0.031267 -0.003740 1156960.000000 1 0 0
-14.975094 11.699350 3.877834 19.394995 -0.663205 1.369500 0.017445 -0.015816 1292080.000000 1 0 0
-17.330994 4.000650 -4.143666 18.263037 -0.226864 1.799678 0.030990 0.000165 -1632370.000000 1 0 0
-13.958794 13.351350 -0.768966 19.331265 -0.763159 1.610585 0.036130 -0.012120 -297281.000000 1 0 0
-10.042194 6.772450 -12.985266 17.757502 -0.593337 2.390957 0.001408 -0.015088 1823790.000000 1 0 0
-15.890094 -1.251550 -8.273366 17.958564 0.078601 2.049571 0.018790 -0.010148 -242015.000000 1 0 0
-11.529594 11.850450 -0.088566 16.533982 -0.799121 1.576153 0.023135 -0.010070 74862.900000 1 0 0
-12.032794 7.333450 -0.917766 14.121258 -0.547343 1.635834 0.009192 -0.000281 2638880.000000 1 0 0
-11.541794 0.150450 -11.637566 16.391113 -0.013035 2.360284 0.009788 -0.008832 -298207.000000 1 0 0
-19.138894 -1.362850 -4.736566 19.763342 0.071088 1.812816 0.034295 -0.008424 -2213560.000000 1 0 0
-17.998794 1.279650 -5.129766 18.759227 -0.070977 1.847777 0.029869 -0.002462 224477.000000 1 0 0
-13.448194 -0.117750 -9.536066 16.486489 0.008756 2.187583 0.016297 -0.005450 -630519.000000 1 0 0
-6.058894 11.152150 -13.308266 18.389959 -1.073116 2.379902 -0.003668 -0.011939 -1655650.000000 1 0 0
16.408506 5.794650 6.984934 18.751169 0.339478 1.189088 0.046864 -0.016531 -886097.000000 1 0 0
14.933406 10.034650 -5.297166 18.755287 0.591658 1.857129 0.058102 -0.015985 478257.000000 1 0 0
2.424306 16.815950 4.377534 17.544693 1.427616 1.318625 0.020168 -0.005033 975691.000000 1 0 0
-3.957494 18.304150 -5.960666 19.652817 -1.357866 1.878948 0.008463 -0.004591 224548.000000 1 0 0
5.547106 14.578350 5.586034 16.568116 1.207210 1.226902 0.015154 -0.004306 -52592.800000 1 0 0
9.857906 6.025450 15.042234 18.967161 0.548636 0.654968 0.034690 -0.005094 -2404950.000000 1 0 0
4.681106 12.736550 -1.236066 13.625723 1.218588 1.661637 0.006221 -0.004238 1586510.000000 1 0 0
3.635506 13.578650 13.092134 19.209389 1.309195 0.820919 0.029771 -0.004481 -958165.000000 1 0 0
-0.791494 12.336950 9.213334 15.417923 -1.506728 0.930326 0.014213 0.001882 -196578.000000 1 0 0
-7.715794 13.959450 8.294734 17.977829 -1.065860 1.091239 0.014925 -0.015502 1914230.000000 1 0 0
11.364906 12.804850 -4.142866 17.615011 0.844904 1.808210 0.044797 -0.013569 -209377.000000 1 0 0
-5.796794 16.088350 0.819434 17.120435 -1.224966 1.522915 0.006510 -0.000578 87013.900000 1 0 0
3.229606 10.594350 6.765034 12.978301 1.274903 1.022473 0.006222 0.002991 1074010.000000 1 0 0
-1.277194 15.513550 2.382134 15.747255 -1.488654 1.418940 0.005220 -0.003165 -2777020.000000 1 0 0
9.924606 8.819450 9.472934 16.310027 0.726506 0.951080 0.018517 -0.005822 1591630.000000 1 0 0
7.318606 12.279950 6.171034 15.570512 1.033338 1.163282 0.007097 -0.003177 550872.000000 1 0 0
11.880306 14.115650 -1.584966 18.517704 0.871175 1.656493 0.036481 -0.007584 -670431.000000 1 0 0
9.739806 16.087150 -1.305066 18.851085 1.026386 1.640082 0.022535 -0.002740 1777800.000000 1 0 0
10.116306 13.782650 3.011734 17.360059 0.937622 1.396428 0.018131 -0.004429 2595320.000000 1 0 0
-6.039094 14.533850 6.132334 16.891092 -1.176983 1.199256 -0.000523 -0.004302 -598448.000000 1 0 0
-0.974694 18.276850 -6.256566 19.342645 -1.517517 1.900180 0.016712 0.001788 1961960.000000 1 0 0
-3.552994 15.719750 5.311834 16.969087 -1.348510 1.252415 0.004909 -0.003865 1668580.000000 1 0 0
7.131806 12.351250 10.635934 17.791547 1.047148 0.930032 0.014722 -0.004715 2600730.000000 1 0 0
1.527306 14.637350 6.262534 15.993875 1.466829 1.168472 0.012168 -0.000660 1364540.000000 1 0 0
17.609706 7.604750 -1.252566 19.222458 0.407658 1.636004 0.028214 0.006771 1202350.000000 1 0 0
2.008206 16.307750 -3.434066 16.785959 1.448269 1.776831 0.000491 -0.002125 1821320.000000 1 0 0
6.690906 11.173850 0.556434 13.035827 1.031259 1.528098 0.010847 -0.001674 1889510.000000 1 0 0
12.716306 9.291350 3.141034 16.059257 0.631011 1.373937 0.016247 0.000872 -857970.000000 1 0 0
6.046206 14.377750 -3.405266 15.964716 1.172722 1.785747 0.001816 -0.002115 1513400.000000 1 0 0
3.080106 16.391550 1.577834 16.752896 1.385054 1.476474 0.016915 -0.016188 -1028700.000000 1 0 0
2.617506 19.090450 -2.642966 19.449470 1.434535 1.707107 0.005967 -0.006053 749960.000000 1 0 0
3.991606 11.914950 10.741434 16.531103 1.247539 0.863513 0.017123 -0.004511 3134000.000000 1 0 0
8.068406 11.529850 3.360634 14.468258 0.960215 1.336379 0.006655 0.001333 650842.000000 1 0 0
0.770906 12.479450 0.203134 12.504889 1.509101 1.554551 0.003999 -0.003473 -2328000.000000 1 0 0
12.041806 9.833850 -4.566366 16.203746 0.684807 1.856476 0.033107 -0.009366 396077.000000 1 0 0
-1.401394 16.585950 9.825234 19.328551 -1.486504 1.037555 0.023007 0.000079 -882336.000000 1 0 0
8.006406 14.749350 -7.995466 18.589603 1.073474 2.015404 0.021165 -0.006598 2014720.000000 1 0 0
14.617806 7.664650 -1.300466 16.556519 0.482927 1.649424 0.028083 -0.000027 422829.000000 1 0 0
12.545606 8.338750 5.910434 16.182096 0.586622 1.196900 0.015189 -0.004637 -1503690.000000 1 0 0
-3.023294 14.205150 10.097534 17.688607 -1.361094 0.963256 0.021251 -0.011907 888479.000000 1 0 0
-4.628794 17.173050 -3.172466 18.066652 -1.307515 1.747309 0.005860 0.001489 -1534090.000000 1 0 0
-7.079994 16.393650 -1.794266 17.947074 -1.163118 1.670939 0.011424 -0.002120 727965.000000 1 0 0
8.363306 11.252350 -1.897466 14.147814 0.931629 1.705319 0.011502 -0.005080 -907360.000000 1 0 0
8.507506 12.964450 -4.158566 16.054541 0.990062 1.832811 0.026238 -0.006396 2524750.000000 1 0 0
2.604306 14.904450 -7.378566 16.833546 1.397809 2.024531 -0.006637 -0.001984 73785.100000 1 0 0
11.329606 11.422450 9.729534 18.801494 0.789479 1.026884 0.023957 -0.009864 573271.000000 1 0 0
8.640806 15.773350 1.440234 18.042627 1.069636 1.490887 0.010451 -0.003638 400635.000000 1 0 0
6.050706 9.972950 7.660834 13.955614 1.025456 0.989697 0.002346 0.003744 2407430.000000 1 0 0
14.489106 11.390350 2.514234 18.600958 0.666227 1.435214 0.034412 -0.003559 897998.000000 1 0 0
12.133306 12.714850 1.071834 17.607764 0.808798 1.509886 0.025714 0.000535 2689420.000000 1 0 0
5.390206 15.852250 8.243534 18.662905 1.243033 1.113296 0.025648 -0.008878 702021.000000 1 0 0
11.627806 15.118050 5.092834 19.740777 0.915162 1.309860 0.033265 -0.003676 453740.000000 1 0 0
6.006706 16.797550 1.756234 17.925473 1.227372 1.472665 0.006396 -0.015934 574790.000000 1 0 0
-0.749694 16.269850 -4.201266 16.820247 -1.524750 1.823244 0.002272 0.003376 26092.600000 1 0 0
16.079706 6.415250 2.576234 17.502839 0.379614 1.423070 0.025379 -0.005907 -864634.000000 1 0 0
7.652006 16.815450 -3.250866 18.758483 1.143744 1.744977 0.007993 -0.007254 -1684750.000000 1 0 0
14.841906 8.175550 7.363034 18.475283 0.503490 1.160878 0.037662 -0.010814 -924790.000000 1 0 0
2.098906 12.891250 8.671134 15.677318 1.409396 0.984715 0.015876 -0.000155 2388750.000000 1 0 0
16.122006 7.380650 -5.838566 18.667671 0.429321 1.888897 0.032199 0.002387 -366474.000000 1 0 0
-3.092194 17.052550 0.698734 17.344722 -1.391412 1.530500 0.004712 -0.001231 751882.000000 1 0 0
-2.886394 18.515450 4.503034 19.272532 -1.416150 1.334966 0.005995 -0.008214 1441530.000000 1 0 0
-0.872194 18.975350 0.848434 19.014323 -1.524864 1.526161 0.008812 -0.011607 148706.000000 1 0 0
6.907306 16.881850 -6.155966 19.251069 1.182422 1.896286 0.006045 -0.001365 -194897.000000 1 0 0
11.031706 10.078950 0.738234 14.960908 0.740297 1.521432 0.010985 0.000498 -1313100.000000 1 0 0
9.160706 8.720050 14.214734 19.026731 0.760759 0.727119 0.033910 -0.012062 275423.000000 1 0 0
6.230006 12.355350 -8.409766 16.192338 1.103766 2.116906 0.014769 -0.009556 -254952.000000 1 0 0
6.468306 9.013050 13.207634 17.248642 0.948316 0.698636 0.020450 -0.012744 154807.000000 1 0 0
16.651606 9.438850 2.784634 19.342235 0.515683 1.426328 0.035192 -0.006341 -1313320.000000 1 0 0
2.587006 14.731950 -0.850366 14.981525 1.396964 1.627588 0.007936 -0.006721 2295350.000000 1 0 0
9.124506 12.910650 8.302434 17.856985 0.955559 1.087229 0.020647 -0.011262 680491.000000 1 0 0
7.203006 9.403650 10.421234 15.777011 0.917146 0.849268 0.006017 -0.006893 656998.000000 1 0 0
4.308006 15.953750 -5.358866 17.372349 1.307056 1.884382 0.004038 0.000078 2037420.000000 1 0 0
0.220406 16.343450 -8.235766 18.302589 1.557311 2.037537 -0.002515 0.000268 -20008.500000 1 0 0
-2.473694 15.647750 -1.971366 15.964258 -1.414008 1.694599 -0.001775 0.002961 -878369.000000 1 0 0
13.288006 10.545550 7.593234 18.585934 0.670835 1.149934 0.035794 -0.009123 1744210.000000 1 0 0
-1.029894 15.970350 6.968934 17.455051 -1.506398 1.160097 0.016380 -0.003977 2611490.000000 1 0 0
13.421606 13.390350 6.732634 20.118881 0.784232 1.229570 0.039133 -0.009861 596349.000000 1 0 0
5.350006 17.407250 4.528834 18.765534 1.272616 1.327052 0.012011 -0.016026 142834.000000 1 0 0
10.829606 9.517250 -1.854966 14.536138 0.720988 1.698756 0.013193 -0.000480 424333.000000 1 0 0
3.237406 12.746550 4.660334 13.952565 1.322073 1.230239 0.008149 0.002625 2621320.000000 1 0 0
-0.123194 17.890350 3.477634 18.225634 -1.563910 1.378809 0.008344 -0.010089 1981680.000000 1 0 0
-7.688194 15.884350 -5.848466 18.591005 -1.120022 1.890817 0.023048 -0.012362 734534.000000 1 0 0
-12.441394 -9.143950 8.271134 17.516043 0.633807 1.079008 0.030112 -0.003706 397063.000000 1 0 0
-13.240794 -11.715750 6.837934 18.956127 0.724366 1.201752 0.042578 -0.006508 -206801.000000 1 0 0
-6.570094 -12.511650 12.375234 18.784407 1.087257 0.851569 0.027787 -0.004969 -1059050.000000 1 0 0
-1.793294 -10.658050 14.395734 18.001308 1.404100 0.643993 0.003504 -0.004456 1057930.000000 1 0 0
-8.877794 2.841550 10.980434 14.403457 -0.309770 0.703864 -0.001598 -0.000587 1593010.000000 1 0 0
0.437906 9.973350 15.206034 18.190189 1.526917 0.580940 0.010074 -0.007099 -215013.000000 1 0 0
1.096106 -6.721650 16.568934 17.914006 -1.409148 0.389984 0.006736 -0.014846 1575290.000000 1 0 0
6.186406 2.282950 17.747834 18.933280 0.353524 0.355742 0.024941 -0.013015 976576.000000 1 0 0
-5.192494 -3.013350 17.673234 18.665087 0.525829 0.327466 0.030850 -0.013574 2495710.000000 1 0 0
-4.324994 8.137050 12.997034 15.932359 -1.082253 0.616749 0.004872 -0.000045 -147219.000000 1 0 0
0.214506 -4.831950 18.521634 19.142745 -1.526432 0.255434 0.020568 -0.026840 763428.000000 1 0 0
-11.697894 2.061150 11.152734 16.293328 -0.174408 0.816883 0.016981 -0.004711 401513.000000 1 0 0
-3.367094 -6.095650 14.383934 15.980984 1.066130 0.450876 0.011170 -0.012185 1601750.000000 1 0 0
-7.489994 -2.269250 14.564134 16.533708 0.294180 0.493088 0.020876 -0.003856 784775.000000 1 0 0
-6.107094 -1.147350 10.667834 12.345675 0.185707 0.527447 0.003229 -0.000526 -180338.000000 1 0 0
-4.075794 2.414450 11.254834 12.211182 -0.534803 0.398401 0.005655 0.002811 -1600950.000000 1 0 0
-6.478894 6.182750 13.544034 16.237098 -0.762013 0.584222 -0.005686 -0.000052 1785240.000000 1 0 0
-9.056194 5.453250 12.512334 16.380204 -0.542004 0.701509 -0.004019 0.000357 -769540.000000 1 0 0
-12.312694 -2.215250 15.763034 20.124190 0.178012 0.670859 0.039923 0.003229 1523930.000000 1 0 0
-3.378794 -7.528650 17.040034 18.933029 1.148948 0.450989 0.012590 -0.011819 -272792.000000 1 0 0
-0.462694 -5.363050 14.444834 15.415240 1.484735 0.356715 0.010806 -0.007839 1896590.000000 1 0 0
-14.436494 -2.167250 13.671734 20.000641 0.149010 0.818161 0.070398 -0.007000 -413483.000000 1 0 0
-6.549794 1.497450 12.236034 13.959323 -0.224763 0.502151 0.006530 -0.000193 1426910.000000 1 0 0
2.291806 -2.214750 14.548734 14.893729 -0.768301 0.215656 0.016577 -0.006981 -551862.000000 1 0 0
-12.646594 4.005850 9.140434 16.109957 -0.306755 0.967478 -0.002179 -0.003505 -1020640.000000 1 0 0
-9.012694 -3.071650 12.492434 15.707470 0.328468 0.651264 0.003915 0.003785 476207.000000 1 0 0
-7.049294 -7.347550 15.330134 18.403588 0.806112 0.586294 0.031499 -0.008549 -1176320.000000 1 0 0
-3.168194 6.099950 19.292134 20.480071 -1.091765 0.342269 0.042769 -0.019276 -139803.000000 1 0 0
0.676106 5.389850 16.091934 16.984050 1.446008 0.325555 0.014421 -0.009293 476257.000000 1 0 0
3.481006 1.417850 16.766434 17.182579 0.386793 0.220533 0.022270 -0.009455 2008330.000000 1 0 0
-11.694294 11.508950 7.848334 18.188150 -0.777411 1.124632 0.007347 -0.009394 -937327.000000 1 0 0
0.688606 -9.443150 15.426534 18.100420 -1.498004 0.550477 -0.008747 -0.001139 282798.000000 1 0 0
-2.387994 -3.597050 18.570734 19.066029 0.984728 0.228434 0.031272 -0.030201 993480.000000 1 0 0
-12.845994 2.387550 13.788934 18.996175 -0.183763 0.758484 0.025176 -0.012283 254495.000000 1 0 0
-5.385994 -0.687350 15.818134 16.724077 0.126932 0.330655 0.024737 -0.005146 -21658.700000 1 0 0
-4.455494 -6.071650 11.696034 13.910916 0.937732 0.572072 0.006258 -0.003894 749055.000000 1 0 0
2.516806 1.870950 13.936234 14.284726 0.639253 0.221341 0.011958 -0.008877 -346443.000000 1 0 0
0.120906 3.248550 14.196534 14.563972 1.533595 0.225105 0.015544 -0.007344 -210726.000000 1 0 0
-13.047094 7.063350 12.111334 19.152076 -0.496196 0.886178 0.012832 -0.002377 -913143.000000 1 0 0
0.900506 1.353550 18.124534 18.197301 0.983746 0.089459 0.024540 -0.014721 855995.000000 1 0 0
-2.069294 6.411950 12.551634 14.245652 -1.258624 0.492644 0.004379 -0.003561 -1003090.000000 1 0 0
-13.475194 -2.639150 10.917734 17.542602 0.193404 0.899048 0.046735 -0.009463 543846.000000 1 0 0
-2.564094 3.644750 13.467634 14.185766 -0.957723 0.319551 0.008544 -0.004114 -5974.760000 1 0 0
3.506606 6.090750 16.168334 17.629764 1.048416 0.410041 0.011259 -0.010962 -32074.300000 1 0 0
-3.812994 12.451350 12.293034 17.907924 -1.273633 0.814190 0.023011 -0.003597 478566.000000 1 0 0
3.828706 -1.491650 17.066634 17.554316 -0.371506 0.236266 0.033959 -0.014707 -1865450.000000 1 0 0
-15.765094 0.347650 9.165434 18.239085 -0.022048 1.044290 0.041435 -0.013284 -208107.000000 1 0 0
-4.648394 4.605450 15.250034 16.594616 -0.780758 0.405324 0.015831 -0.001644 880306.000000 1 0 0
-8.018494 -8.253350 10.520134 15.591256 0.799830 0.830176 0.013309 -0.006057 2506820.000000 1 0 0
-2.641094 -0.538050 14.728734 14.973326 0.200972 0.180996 0.022201 -0.004868 2047880.000000 1 0 0
-1.861694 0.945950 17.145034 17.271738 -0.470117 0.121201 0.035207 -0.014721 1191070.000000 1 0 0
-0.651494 -2.453850 14.444234 14.665665 1.311285 0.173993 0.013093 -0.006022 1237080.000000 1 0 0
5.298906 -8.260550 16.465834 19.168693 -1.000440 0.537491 0.026576 -0.008370 -376890.000000 1 0 0
-4.552894 9.996650 10.647834 15.298308 -1.143426 0.800965 0.005206 -0.002133 -1427800.000000 1 0 0
-6.192694 2.074550 15.299434 16.635081 -0.323249 0.403458 0.015964 0.001624 -145591.000000 1 0 0
-4.977594 6.913050 17.206034 19.199331 -0.946754 0.459715 0.028477 -0.005136 -406411.000000 1 0 0
-4.250894 9.240750 15.708534 18.714156 -1.139644 0.574631 0.021258 -0.000788 -1017220.000000 1 0 0
-4.405394 -9.918750 18.442934 21.399321 1.152819 0.531897 0.026920 -0.012109 244770.000000 1 0 0
-6.727194 -4.105850 11.083134 13.599596 0.547985 0.618135 0.007516 0.000811 68961.900000 1 0 0
-2.304394 -0.826050 19.521634 19.674522 0.344198 0.124747 0.036684 -0.016680 -1873980.000000 1 0 0
-5.798094 -4.584450 15.325234 17.014637 0.669033 0.449398 0.020753 -0.009038 1925900.000000 1 0 0
-12.913494 0.020850 9.724834 16.165740 -0.001615 0.925331 0.022547 -0.003978 1043560.000000 1 0 0
-14.412294 8.796250 10.227234 19.740430 -0.547980 1.026185 0.009324 -0.007611 166053.000000 1 0 0
-8.594094 10.435950 12.666634 18.525958 -0.881884 0.817943 0.013091 -0.012517 -936674.000000 1 0 0
-10.461594 7.142350 10.695434 16.578614 -0.599035 0.869597 0.003040 -0.001370 -26177.500000 1 0 0
-9.835694 -6.556050 14.810034 18.948873 0.587927 0.673604 0.037982 -0.007304 1416500.000000 1 0 0
-0.652094 -13.370650 14.437934 19.688917 1.522064 0.747630 -0.003298 -0.007904 -885877.000000 1 0 0
3.949906 -5.688350 16.890634 18.255208 -0.963849 0.389102 0.028819 -0.016664 533733.000000 1 0 0
-7.321594 9.337350 10.287734 15.704437 -0.905814 0.856502 0.001697 -0.002825 280513.000000 1 0 0
-10.253794 -6.730350 11.835934 17.044860 0.580845 0.803212 0.032089 -0.008998 1981150.000000 1 0 0
-10.933794 -3.934250 10.714334 15.805794 0.345400 0.825930 0.022127 -0.000049 -354770.000000 1 0 0
-10.095394 -10.264850 9.791634 17.411497 0.793721 0.973552 0.023218 -0.009587 603062.000000 1 0 0
-9.845894 -3.661650 15.197134 18.474366 0.356047 0.604816 0.036374 -0.011733 1277710.000000 1 0 0
5.695406 -3.280550 16.006634 17.303526 -0.522585 0.389628 0.029118 -0.016154 607234.000000 1 0 0
-11.227794 0.525450 15.389034 19.056805 -0.046765 0.630836 0.027385 -0.000115 -339816.000000 1 0 0
-3.167794 3.168550 18.715434 19.244275 -0.785518 0.234977 0.039899 -0.016140 -971238.000000 1 0 0
0.459706 7.313850 13.964934 15.770958 1.508025 0.483261 0.007912 -0.007753 1491890.000000 1 0 0
-13.029194 -7.420850 12.193634 19.326501 0.517733 0.888047 0.037376 -0.008582 -847422.000000 1 0 0
-1.511694 -1.166050 12.158334 12.307314 0.657028 0.155753 0.010547 -0.004465 38276.200000 1 0 0
2.086006 -4.872250 13.093534 14.125540 -1.166269 0.384622 0.011065 -0.007889 1368770.000000 1 0 0
-14.693894 -4.060850 8.625634 17.515781 0.269633 1.055895 0.036841 -0.012997 -431484.000000 1 0 0
8.209806 0.929250 16.085034 18.082941 0.112708 0.474515 0.027185 -0.011580 622924.000000 1 0 0
-1.407294 11.331950 13.410734 17.613670 -1.447241 0.705354 0.018387 -0.004474 -151550.000000 1 0 0
2.725606 -12.298050 -14.014566 18.843540 -1.352693 2.409434 0.007572 0.015903 -411062.000000 1 0 0
0.682206 -10.680250 -13.922266 17.560257 -1.507008 2.486232 0.006462 0.006874 -1044770.000000 1 0 0
3.401506 -14.311550 -12.519566 19.316579 -1.337450 2.275917 0.010844 0.010167 -543344.000000 1 0 0
-5.170594 -10.224850 -16.125166 19.781394 1.102608 2.523816 0.029113 -0.013590 -104459.000000 1 0 0
-1.142694 -12.313750 -14.992366 19.434639 1.478263 2.451874 0.024047 0.005636 -97481.700000 1 0 0
5.824306 -14.803150 -11.920766 19.878643 -1.195949 2.213894 0.017083 -0.001418 -160876.000000 1 0 0
1.790706 -11.670650 -16.125566 19.986109 -1.418547 2.509578 0.012300 0.005110 -920877.000000 1 0 0
1.269006 -14.459950 -14.053066 20.203692 -1.483261 2.340008 0.021948 0.019684 -345634.000000 1 0 0
-1.114994 -10.625150 -15.900566 19.156331 1.466240 2.549980 0.017506 -0.004622 -357338.000000 1 0 0
-5.942394 -5.631250 -14.985366 17.075837 0.758521 2.641582 0.012728 -0.005712 -52032.100000 1 0 0
-6.538894 -7.567650 -16.464966 19.264515 0.858197 2.595727 0.019522 -0.004794 544950.000000 1 0 0
4.865706 -12.342350 -11.340966 17.453544 -1.195275 2.278091 0.003052 -0.000226 45719.400000 1 0 0
-1.782794 -15.508450 -12.992066 20.309705 1.456342 2.264901 0.030716 0.002725 343980.000000 1 0 0
15.675306 -7.506950 -8.821166 19.490574 -0.446628 2.040460 0.047468 -0.003084 506991.000000 1 0 0
19.410106 -3.615050 -4.004066 20.145802 -0.184136 1.770883 0.085362 -0.021329 437854.000000 1 0 0
14.927106 -11.691150 -8.769166 20.890183 -0.664423 2.003993 0.068572 -0.022142 268282.000000 1 0 0
18.102006 -3.383350 -6.278066 19.456202 -0.184773 1.899353 0.087803 -0.008007 496037.000000 1 0 0
9.591506 -9.016250 -15.244066 20.141283 -0.754493 2.429287 0.064520 -0.021649 -88785.800000 1 0 0
1.203806 1.945950 -15.249166 15.419887 1.016797 2.992650 0.017176 -0.004411 29261.900000 1 0 0
4.794906 -4.272750 -13.910766 15.321779 -0.727877 2.709062 0.015914 -0.006831 1066700.000000 1 0 0
13.225806 -5.593350 -8.689566 16.784399 -0.400101 2.114976 0.040602 -0.004245 -1198970.000000 1 0 0
2.938806 0.920850 -12.188566 12.571622 0.303651 2.894102 0.012772 -0.004855 -3277210.000000 1 0 0
0.490606 6.300150 -12.942566 14.402867 1.493081 2.687388 0.011287 -0.005164 520189.000000 1 0 0
2.987606 -1.124250 -16.862266 17.161752 -0.359914 2.954500 0.030584 -0.008042 -508216.000000 1 0 0
13.077106 4.465050 -11.543666 18.005654 0.329029 2.266744 0.016207 0.002715 845572.000000 1 0 0
-3.892394 9.299450 -16.574966 19.400000 -1.174392 2.595152 -0.004968 -0.007764 -340936.000000 1 0 0
-0.261794 -5.038350 -17.629166 18.336875 1.518883 2.862861 0.020844 -0.014464 157931.000000 1 0 0
-0.418094 -8.577650 -17.493566 19.487835 1.522093 2.685240 0.020165 -0.005617 -1134990.000000 1 0 0
5.612106 -10.000750 -12.177766 16.727484 -1.059419 2.386210 0.008012 -0.002107 332551.000000 1 0 0
1.848906 -9.629850 -18.090366 20.577021 -1.381107 2.644880 0.034606 -0.009835 -470098.000000 1 0 0
10.946406 8.915450 -14.670266 20.359906 0.683498 2.375387 0.072227 -0.018912 -146314.000000 1 0 0
11.119806 -3.830750 -12.967366 17.506493 -0.331765 2.404934 0.029737 -0.001220 174777.000000 1 0 0
4.917806 7.500750 -12.226066 15.163204 0.990465 2.508663 0.009726 -0.005612 -205556.000000 1 0 0
9.658106 -5.935250 -12.523266 16.891962 -0.551039 2.405912 0.029505 -0.006700 -931531.000000 1 0 0
-3.407094 0.275650 -15.721266 16.088582 -0.080729 2.927498 0.015898 -0.007429 -2067290.000000 1 0 0
-0.823994 10.629350 -12.780866 16.643695 -1.493430 2.446369 -0.004222 -0.005067 -2269280.000000 1 0 0
6.623506 -5.373050 -12.348366 15.007419 -0.681539 2.537147 0.015399 -0.003738 -272054.000000 1 0 0
17.916406 -6.355350 -8.047366 20.643357 -0.340876 1.971242 0.062056 -0.011749 328366.000000 1 0 0
13.086506 4.688550 -14.175666 19.854184 0.344026 2.365975 0.036782 -0.003459 395267.000000 1 0 0
14.120306 0.799350 -11.586466 18.283003 0.056550 2.257160 0.018993 0.001915 -459090.000000 1 0 0
15.073706 6.152150 -11.103066 19.706436 0.387502 2.169320 0.041800 -0.004546 489771.000000 1 0 0
8.355406 1.602250 -11.655566 14.430254 0.189462 2.511066 0.003079 -0.000312 969436.000000 1 0 0
9.878006 1.300950 -8.856766 13.330783 0.130948 2.297466 0.001237 0.000930 243210.000000 1 0 0
-0.128894 -5.829950 -12.960666 14.212100 1.548691 2.718798 0.008731 -0.009474 670533.000000 1 0 0
10.632606 -5.703750 -9.072866 15.096422 -0.492372 2.215541 0.024683 -0.005091 312884.000000 1 0 0
10.275106 8.414950 -11.310966 17.444975 0.686198 2.276250 0.036481 -0.014816 935318.000000 1 0 0
8.385806 8.241850 -14.745866 18.859756 0.776741 2.468455 0.046720 -0.008102 1103370.000000 1 0 0
8.700006 10.521550 -10.733666 17.366770 0.879882 2.237066 0.040341 -0.014350 -1046890.000000 1 0 0
7.039606 1.723450 -18.011566 19.415016 0.240099 2.759036 0.039636 0.002117 -1179270.000000 1 0 0
12.118906 2.623350 -12.951866 17.930440 0.213178 2.377976 0.022054 -0.000254 -2274300.000000 1 0 0
2.441506 -1.019450 -19.407966 19.587480 -0.395543 3.006103 0.042918 -0.015268 -490817.000000 1 0 0
10.488906 -2.363450 -15.634766 18.974956 -0.221627 2.539176 0.049296 -0.002929 156990.000000 1 0 0
8.344306 -0.634850 -13.086666 15.533554 -0.075935 2.572661 0.012334 -0.003939 1056330.000000 1 0 0
0.534806 4.379550 -14.625366 15.276380 1.449284 2.848601 0.012702 -0.002626 -709580.000000 1 0 0
4.044206 -7.780750 -15.707266 17.989271 -1.091458 2.632416 0.032246 -0.012394 -322837.000000 1 0 0
11.399306 -5.842950 -14.483866 19.335630 -0.473653 2.417463 0.051232 -0.003485 -441350.000000 1 0 0
-5.929894 4.201250 -16.887166 18.384518 -0.616399 2.735202 0.004761 -0.003961 77449.800000 1 0 0
11.475306 7.877350 -9.051766 16.603306 0.601581 2.147398 0.030134 -0.007472 -1696290.000000 1 0 0
9.594806 6.264350 -13.521866 17.724086 0.578404 2.438597 0.027546 0.003646 1384070.000000 1 0 0
12.052306 0.737250 -10.167566 15.785468 0.061095 2.270655 0.009756 0.003828 -461268.000000 1 0 0
5.540006 -7.130250 -13.810966 16.500754 -0.910255 2.562556 0.020355 -0.004978 -857376.000000 1 0 0
8.717406 -10.347550 -10.561566 17.164254 -0.870695 2.233592 0.022530 -0.000748 5602.260000 1 0 0
10.140306 4.657950 -15.919966 19.441389 0.430602 2.530235 0.046432 -0.004585 -45452.000000 1 0 0
9.932106 -0.357150 -10.919366 14.765054 -0.035944 2.403185 0.007613 -0.001004 -283481.000000 1 0 0
-1.788794 5.462350 -13.934366 15.073274 -1.254326 2.750366 0.004207 -0.004843 1134550.000000 1 0 0
1.277106 -0.674550 -14.975066 15.044554 -0.485941 3.045443 0.017598 -0.007660 -1801390.000000 1 0 0
11.496206 -10.416850 -14.087566 20.955501 -0.736182 2.308055 0.079454 -0.020234 291261.000000 1 0 0
9.235906 -7.778850 -10.692666 16.129029 -0.699972 2.295542 0.027850 -0.003957 207556.000000 1 0 0
14.051306 -0.973650 -9.810266 17.164746 -0.069182 2.179172 0.019728 0.006354 999061.000000 1 0 0
3.935306 11.144150 -12.295166 17.054320 1.231338 2.375956 0.020550 -0.012862 -102068.000000 1 0 0
-1.274294 2.878750 -16.858766 17.150190 -1.154067 2.956981 0.015656 -0.008479 -201108.000000 1 0 0
5.941006 -0.577150 -17.652466 18.634328 -0.096843 2.815524 0.026309 -0.003003 -64044.300000 1 0 0
6.390906 -6.625550 -16.281166 18.703421 -0.803423 2.626996 0.031900 -0.005573 267275.000000 1 0 0
-1.807194 -5.339450 -19.591266 20.386107 1.244438 2.861431 0.031982 -0.019995 -1785850.000000 1 0 0
0.013206 -4.303750 -15.173466 15.772016 -1.567728 2.865214 0.013275 -0.012835 63772.100000 1 0 0
0.487406 0.818850 -12.967066 13.002033 1.033890 3.068236 0.011426 -0.007159 334675.000000 1 0 0
15.379606 0.521450 -13.739666 20.629654 0.033892 2.299650 0.045881 -0.005916 738451.000000 1 0 0
-0.201094 6.947550 -16.317066 17.735713 -1.541860 2.738907 0.007002 -0.000155 -574554.000000 1 0 0
-5.113794 -0.481750 -18.218166 18.928405 0.093929 2.866786 0.014625 -0.001190 -258685.000000 1 0 0
10.438106 -8.361450 -12.919566 18.595243 -0.675381 2.338907 0.032344 -0.015206 909080.000000 1 0 0
3.983306 8.689550 -17.091266 19.582808 1.140977 2.631643 0.032448 -0.014261 -340629.000000 1 0 0
9.134606 0.393050 -16.970866 19.277080 0.043002 2.647427 0.032395 -0.004653 -217984.000000 1 0 0
3.258306 5.013450 -18.492466 19.435085 0.994482 2.828869 0.031601 -0.005037 -692865.000000 1 0 0
1.458906 -8.096350 -15.819066 17.830371 -1.392516 2.662032 0.011753 -0.008276 -484546.000000 1 0 0
4.488406 7.739650 -14.786466 17.282579 1.045270 2.597448 0.018142 -0.008364 932370.000000 1 0 0
-5.734694 -0.456950 -15.003766 16.068867 0.079514 2.775453 0.007872 -0.007133 -863267.000000 1 0 0
2.827106 3.335050 -13.755266 14.433379 0.867642 2.833843 0.017167 -0.003307 844974.000000 1 0 0
-2.366494 -10.236650 -18.135366 20.959026 1.343609 2.616499 0.024772 -0.001281 341829.000000 1 0 0
6.307906 -9.086150 -15.331266 18.904907 -0.963951 2.516600 0.027786 -0.011543 204107.000000 1 0 0
-1.864494 5.402550 -17.312066 18.231059 -1.238481 2.822728 0.007354 -0.003520 -219564.000000 1 0 0
9.926606 -12.345050 -11.572666 19.617960 -0.893563 2.201733 0.052774 -0.005515 -495454.000000 1 0 0
10.878706 3.670050 -9.357866 14.811656 0.325371 2.254657 0.000389 -0.000104 -1926430.000000 1 0 0
4.796106 -0.503250 -10.888866 11.908958 -0.104546 2.724677 0.011964 -0.005973 301765.000000 1 0 0
6.384606 9.548450 -11.431966 16.205738 0.981419 2.353822 0.027162 -0.014929 337308.000000 1 0 0
10.967506 -9.395650 -9.494766 17.283373 -0.708360 2.152392 0.044996 -0.009599 -463318.000000 1 0 0
3.196806 -2.304950 -14.485966 15.012513 -0.624692 2.875958 0.016224 -0.006369 86127.100000 1 0 0
9.176106 -4.441450 -14.583466 17.793394 -0.450785 2.531509 0.032088 -0.010304 421952.000000 1 0 0
-4.059894 -6.577450 -16.512366 18.231944 1.017794 2.703785 0.011842 -0.006931 -1176410.000000 1 0 0
5.912806 -7.631550 -11.217766 14.800003 -0.911621 2.430972 0.004355 -0.001320 336205.000000 1 0 0
5.384306 6.502250 -16.850466 18.846968 0.879173 2.677142 0.031479 -0.005341 -44973.000000 1 0 0
9.075206 1.119050 -19.494766 21.532708 0.122689 2.703014 0.065168 -0.015238 311826.000000 1 0 0
13.075206 5.808050 -9.360966 17.097431 0.418023 2.150179 0.005433 0.000086 649172.000000 1 0 0
-1.811694 -0.897350 -17.151866 17.270610 0.459888 3.024261 0.024011 -0.012758 889926.000000 1 0 0
-0.597394 -0.331950 -19.309766 19.321856 0.507181 3.106215 0.037585 -0.022788 -263247.000000 1 0 0
2.718606 6.508150 -16.492966 17.937802 1.175105 2.737483 0.015567 0.000169 296707.000000 1 0 0
7.657106 3.753550 -15.654366 17.826373 0.455781 2.642793 0.025518 0.001298 128284.000000 1 0 0
3.036406 -9.872350 -14.698466 17.964630 -1.272412 2.529051 0.016758 -0.001538 85920.800000 1 0 0
9.019906 -10.593350 -13.257966 19.218518 -0.865450 2.332083 0.044167 -0.007306 146771.000000 1 0 0
3.724206 0.206650 -14.865766 15.326559 0.055432 2.895760 0.017924 -0.003076 -1020430.000000 1 0 0
-1.259894 -2.891650 -18.864666 19.126541 1.159897 2.975924 0.039872 -0.012986 112431.000000 1 0 0
9.316306 10.191150 -13.154966 19.071083 0.830215 2.331990 0.056255 -0.018204 227797.000000 1 0 0
4.634806 2.029550 -10.724466 11.858105 0.412740 2.700767 0.006943 -0.002021 73563.600000 1 0 0
-0.481094 7.082350 -18.892966 20.182549 -1.502972 2.782181 0.020737 -0.008686 214361.000000 1 0 0
0.663506 -1.802550 -17.571566 17.676237 -1.218095 3.032713 0.033176 -0.016104 -975306.000000 1 0 0
-4.601094 -2.443250 -13.939066 14.880762 0.488151 2.783929 0.012655 -0.008692 -3534170.000000 1 0 0
9.991606 6.093050 -10.345966 15.620386 0.547607 2.294731 0.013675 -0.000816 138114.000000 1 0 0
8.174406 5.264350 -17.565366 20.076762 0.572149 2.636047 0.047070 -0.012837 367875.000000 1 0 0
11.369606 0.215650 -13.642166 17.760156 0.018965 2.446717 0.021612 0.004620 307350.000000 1 0 0
6.869306 12.025750 -11.786366 18.185831 1.051810 2.275892 0.043119 -0.021905 118986.000000 1 0 0
-1.008594 0.551450 -14.999666 15.043647 -0.500346 3.065107 0.013641 -0.006677 -1100760.000000 1 0 0
-4.466594 -2.889050 -18.858966 19.594837 0.574131 2.866668 0.018487 -0.002898 699166.000000 1 0 0
5.642706 -11.950150 -13.925366 19.197969 -1.129646 2.382348 0.012276 0.000064 -121945.000000 1 0 0
2.136906 -4.745550 -14.033766 14.967738 -1.147696 2.786462 0.011343 -0.007782 -1349200.000000 1 0 0
11.720706 1.992050 -15.481166 19.519470 0.168351 2.486701 0.044478 -0.002585 291781.000000 1 0 0
9.748106 2.328750 -13.833266 17.082385 0.234498 2.514602 0.014408 0.001162 37260.300000 1 0 0
-2.229394 -4.030850 -16.420666 17.054507 1.065589 2.868104 0.010406 -0.010665 -1221090.000000 1 0 0
-2.918594 10.192350 -14.354766 17.845489 -1.291908 2.505447 -0.005269 -0.004398 -30202.200000 1 0 0
3.522006 5.758150 -13.449166 15.047953 1.021850 2.676442 0.013410 -0.003014 252529.000000 1 0 0
-5.160794 -2.531050 -16.502866 17.475256 0.455969 2.806428 0.011701 -0.004449 273716.000000 1 0 0
-4.374394 6.116950 -13.550366 15.497252 -0.949990 2.634937 -0.004764 -0.006202 -422885.000000 1 0 0
5.954706 -1.029850 -14.242666 15.471672 -0.171253 2.740319 0.016156 0.000426 -1213690.000000 1 0 0
6.794406 -2.917750 -12.750866 14.739803 -0.405620 2.616073 0.014295 -0.005477 1812600.000000 1 0 0
2.653306 -3.329050 -18.237366 18.727630 -0.897878 2.912273 0.040281 -0.021101 -575159.000000 1 0 0
7.378806 -12.005950 -12.058866 18.547395 -1.019714 2.278598 0.018523 0.000117 145195.000000 1 0 0
-6.179094 -5.330650 -17.494166 19.303960 0.711816 2.705118 0.027062 -0.006833 191788.000000 1 0 0
0.428906 8.629050 -11.834666 14.652774 1.521132 2.510993 0.005877 -0.004639 140257.000000 1 0 0
0.260806 8.507050 -14.368066 16.699678 1.540148 2.606811 -0.000813 -0.005510 -212367.000000 1 0 0
7.948806 -2.204950 -15.072266 17.181924 -0.270590 2.640829 0.029491 -0.011805 -271136.000000 1 0 0
14.366006 1.523550 -9.063066 17.054105 0.105658 2.131084 0.016390 0.005267 542654.000000 1 0 0
2.734806 10.690350 -14.590566 18.293369 1.320348 2.494082 0.015345 -0.007946 476766.000000 1 0 0
5.990506 1.097550 -15.630166 16.774768 0.181205 2.770045 0.020335 0.002235 130055.000000 1 0 0
16.883106 -5.727350 -10.333166 20.606216 -0.327053 2.096080 0.092703 -0.010188 752896.000000 1 0 0
4.863106 -4.066650 -11.328066 12.981237 -0.696442 2.631397 0.005746 -0.001427 -1248510.000000 1 0 0
8.669906 -3.649150 -17.019566 19.446058 -0.398391 2.636685 0.028116 -0.014952 611962.000000 1 0 0
13.429206 -9.551150 -8.728866 18.648355 -0.618218 2.057910 0.068711 -0.017617 -258206.000000 1 0 0
2.490306 -7.684650 -13.553666 15.778381 -1.257413 2.604114 0.008356 -0.004065 111369.000000 1 0 0
-7.036494 -2.435850 -18.225366 19.687802 0.333262 2.753728 0.015417 -0.003683 -191570.000000 1 0 0
-1.499894 -6.462250 -15.709666 17.052975 1.342734 2.742020 0.012013 -0.010703 374625.000000 1 0 0
1.653806 -7.043950 -18.179166 19.566154 -1.340189 2.762803 0.040664 -0.027061 -427207.000000 1 0 0
5.328706 10.886250 -14.515166 18.910198 1.115592 2.445860 0.044244 -0.025471 191229.000000 1 0 0
5.203106 -3.311450 -17.611466 18.660164 -0.566781 2.804742 0.024235 -0.013241 -589383.000000 1 0 0
3.891806 13.023250 -14.204166 19.659845 1.280408 2.378202 0.031875 -0.019195 155267.000000 1 0 0
9.210906 10.419350 -15.793966 21.044073 0.846881 2.419643 0.080020 -0.022223 182996.000000 1 0 0
2.444306 3.890750 -16.275066 16.911249 1.009874 2.866430 0.024601 -0.002366 306161.000000 1 0 0
16.635606 1.535050 -11.731566 20.413951 0.092014 2.183014 0.055307 0.007400 27134.100000 1 0 0
10.083806 -3.632450 -10.604066 15.077269 -0.345756 2.350846 0.024409 -0.002937 -518521.000000 1 0 0
14.806506 -2.254550 -11.956566 19.164422 -0.151107 2.244512 0.058523 -0.002748 42967.100000 1 0 0
-2.680494 -8.630550 -16.082966 18.448122 1.269660 2.629649 0.013206 -0.002452 301969.000000 1 0 0
14.111006 8.062550 -9.000966 18.578014 0.519099 2.076583 0.053024 -0.004753 -161366.000000 1 0 0
-8.299494 0.141150 -16.376066 18.359658 -0.017005 2.672456 -0.000298 -0.004694 -220436.000000 1 0 0
-3.550094 3.889450 -15.902966 16.752173 -0.830982 2.821822 0.005955 -0.004366 425908.000000 1 0 0
15.015806 3.992050 -9.803366 18.371632 0.259846 2.133665 0.018203 0.006838 545574.000000 1 0 0
5.332406 1.038550 -12.958866 14.051524 0.192354 2.744629 0.014244 -0.001015 411490.000000 1 0 0
7.856606 -7.659550 -12.853266 16.899745 -0.772699 2.434971 0.030682 -0.005116 -2769730.000000 1 0 0
3.259306 -6.030150 -11.794566 13.641758 -1.075275 2.615136 0.004976 -0.004049 -730224.000000 1 0 0
-3.168194 3.676150 -18.446266 19.073968 -0.859478 2.884334 0.010602 -0.006884 -279759.000000 1 0 0
0.785606 5.155250 -17.820866 18.568173 1.419570 2.856919 0.024832 -0.009073 -440137.000000 1 0 0
6.441306 7.169850 -10.203266 14.035804 0.838873 2.384660 0.009908 -0.003677 349880.000000 1 0 0
9.813806 3.854750 -11.709566 15.757024 0.374274 2.408537 0.013540 0.003582 18545.900000 1 0 0
4.530606 1.504850 -17.740666 18.371777 0.320687 2.878721 0.032223 0.003574 -1167650.000000 1 0 0
2.506006 8.074150 -13.104666 15.595007 1.269850 2.568654 0.011535 -0.007396 -176812.000000 1 0 0
14.469606 -3.474950 -9.819766 17.828981 -0.235692 2.154089 0.042742 -0.001978 493610.000000 1 0 0
-1.347894 9.194250 -16.254766 18.723474 -1.425231 2.622257 -0.003721 -0.004401 -2205790.000000 1 0 0
-5.348494 1.948650 -15.734266 16.732326 -0.349389 2.794458 0.008872 -0.005010 523413.000000 1 0 0
4.605706 4.228550 -11.899366 13.442026 0.742732 2.657797 0.009564 -0.003065 622345.000000 1 0 0
9.307606 2.894250 -17.540266 20.066617 0.301477 2.634380 0.043494 -0.007375 910768.000000 1 0 0
-4.339494 14.320050 -13.368366 20.065100 -1.276556 2.299965 0.011089 -0.014714 -500160.000000 1 0 0
15.690106 -4.958350 -8.072966 18.328596 -0.306086 2.026904 0.056276 -0.002390 1309500.000000 1 0 0
1.133906 9.163850 -16.769566 19.143673 1.447685 2.638270 0.005428 -0.003467 -866835.000000 1 0 0
0.449006 -3.220350 -12.759766 13.167531 -1.432262 2.892078 0.007120 -0.007095 172236.000000 1 0 0
7.620406 3.672250 -12.986266 15.498358 0.449061 2.564243 0.013345 0.001379 -487428.000000 1 0 0
-2.982494 7.572750 -15.085566 17.141065 -1.195607 2.646834 -0.004000 -0.003284 -34946.400000 1 0 0
12.267906 -5.030250 -11.004266 17.230751 -0.389126 2.263527 0.041406 -0.002962 -1021370.000000 1 0 0
0.483406 -4.485950 -20.087666 20.588145 -1.463451 2.920648 0.044324 -0.015989 -1119960.000000 1 0 0
3.370906 -4.511350 -16.126266 17.081327 -0.929086 2.805612 0.031544 -0.017101 731298.000000 1 0 0
-5.758094 4.060250 -14.319866 15.959318 -0.614166 2.684350 0.000358 -0.004975 566947.000000 1 0 0
12.351606 -7.444150 -9.795466 17.433551 -0.542393 2.167446 0.043922 -0.006193 449872.000000 1 0 0
-2.112794 -1.871250 -14.819966 15.086313 0.724844 2.953406 0.014899 -0.010334 478101.000000 1 0 0
7.069206 5.911350 -14.249066 16.969196 0.696434 2.567530 0.023055 -0.001562 617634.000000 1 0 0
4.101406 -5.487750 -18.447866 19.678940 -0.928977 2.786005 0.054963 -0.020419 -127440.000000 1 0 0
7.563206 7.529050 -12.397366 16.357975 0.783135 2.430852 0.021028 -0.008772 -1209670.000000 1 0 0
12.339506 -2.448950 -11.086966 16.768470 -0.195918 2.293186 0.025407 0.000368 268027.000000 1 0 0
7.492006 -0.680750 -10.670566 13.055824 -0.090615 2.527511 0.008867 -0.001276 -1720920.000000 1 0 0
5.383106 4.011750 -14.400166 15.888258 0.640453 2.705337 0.014536 0.001622 476205.000000 1 0 0
14.699606 2.926850 -13.009666 19.846820 0.196540 2.285646 0.035432 -0.005871 1226100.000000 1 0 0
-6.464594 6.527850 -15.801566 18.278219 -0.790267 2.614956 -0.000126 -0.002770 414678.000000 1 0 0
-11.642494 3.742450 -16.066466 20.191209 -0.311015 2.490985 0.070214 -0.025560 -215091.000000 1 0 0
-4.877594 6.370050 -17.966466 19.676441 -0.917318 2.721608 0.001116 0.005239 453185.000000 1 0 0
-10.179494 1.601050 -15.506266 18.617995 -0.156004 2.555059 0.030272 -0.011092 -539295.000000 1 0 0
-7.450694 5.957150 -18.010166 20.380543 -0.674462 2.654493 0.007661 -0.002080 -1585540.000000 1 0 0
-8.980894 3.995150 -15.791466 18.600754 -0.418563 2.584828 0.012894 0.003015 54345.600000 1 0 0
8.987706 13.474050 -12.188766 20.270543 0.982537 2.215929 0.078205 -0.025103 -33443.000000 1 0 0
14.212306 9.704350 -11.146666 20.503956 0.599098 2.145558 0.075855 -0.009740 431047.000000 1 0 0
8.348506 15.876350 -9.077566 20.103687 1.086687 2.039284 0.040637 -0.010337 53393.000000 1 0 0
7.051706 13.475750 -13.959566 20.644415 1.088692 2.313376 0.065846 -0.025242 -47309.100000 1 0 0
4.672006 15.942750 -12.505966 20.794184 1.285729 2.216069 0.045403 -0.021944 77577.600000 1 0 0
11.151506 10.852650 -11.383766 19.280203 0.771817 2.202398 0.077148 -0.024607 -350023.000000 1 0 0
15.792406 10.038150 -9.009866 20.768780 0.566208 2.019522 0.082781 -0.015358 360759.000000 1 0 0
13.256306 10.587650 -8.860966 19.140133 0.673940 2.052119 0.086212 -0.018839 98423.900000 1 0 0
10.385806 11.811050 -8.007666 17.649039 0.849519 2.041728 0.046902 -0.011643 36367.700000 1 0 0
5.386906 16.090150 -9.980866 19.685766 1.247731 2.102508 0.016249 -0.014425 -351483.000000 1 0 0
6.709106 14.619150 -11.632666 19.850707 1.140544 2.196919 0.033140 -0.005949 -2007810.000000 1 0 0
10.654606 13.624350 -9.853066 19.905438 0.907111 2.088624 0.075679 -0.020728 -125247.000000 1 0 0
8.086306 -18.569750 -1.353466 20.299158 -1.160103 1.637522 0.057421 -0.003354 -81009.800000 1 0 0
7.091006 -17.216450 -3.340266 18.916815 -1.180096 1.748304 0.031957 -0.007130 131985.000000 1 0 0
4.436806 -18.542650 5.830134 19.937542 -1.335936 1.274040 0.036586 0.007837 150469.000000 1 0 0
9.633706 -16.968450 -2.760866 19.706825 -1.054434 1.711356 0.057346 -0.009294 530612.000000 1 0 0
-9.956794 -12.254350 -10.167066 18.779671 0.888473 2.142882 0.043152 -0.012464 -175572.000000 1 0 0
-5.268094 -7.096750 -12.162766 15.034944 0.932225 2.513188 0.011422 -0.005483 163114.000000 1 0 0
-10.848494 -9.475150 -5.593966 15.451884 0.717927 1.941235 0.011617 -0.008559 -1358760.000000 1 0 0
-4.629794 -11.427750 -13.987666 18.646266 1.185870 2.419099 0.031393 -0.008814 274331.000000 1 0 0
-3.096194 -15.444150 7.436434 17.418632 1.372942 1.129708 0.003197 -0.005432 69009.800000 1 0 0
-4.905394 -12.031950 -11.582966 17.406774 1.183672 2.298864 0.032613 -0.005958 384542.000000 1 0 0
-14.432594 -12.837450 -4.338066 19.796936 0.726970 1.791717 0.024563 -0.009524 -74525.100000 1 0 0
-3.273894 -12.213750 -3.227466 13.050310 1.308903 1.820699 0.006127 0.000137 946108.000000 1 0 0
-2.496194 -17.431750 -1.533766 17.676236 1.428565 1.657675 -0.001441 -0.004176 -716491.000000 1 0 0
-5.919794 -12.218350 3.676834 14.065957 1.119625 1.306324 -0.005556 0.002744 274705.000000 1 0 0
-8.814294 -10.709250 -12.008066 18.345938 0.882155 2.284364 0.026796 -0.010221 -1011130.000000 1 0 0
-9.906994 -11.776150 -7.575866 17.152841 0.871389 2.028254 0.031799 -0.016135 121063.000000 1 0 0
-10.792594 -15.251050 6.314934 19.721891 0.954946 1.244857 0.053447 -0.010529 -1857160.000000 1 0 0
-9.511094 -15.961250 0.706634 18.593594 1.033407 1.532783 0.020286 0.007230 -930109.000000 1 0 0
-14.715594 -7.579650 -8.073966 18.417077 0.475636 2.024609 0.008985 -0.024730 -298336.000000 1 0 0
-2.360094 -16.510750 5.148334 17.455092 1.428815 1.271396 0.009818 -0.012037 -74500.600000 1 0 0
4.429306 -15.934050 5.620034 17.467040 -1.299664 1.243218 0.033760 -0.002698 -127364.000000 1 0 0
4.141306 -14.528450 -10.089866 18.166773 -1.293113 2.159643 0.003356 0.001646 175966.000000 1 0 0
-7.702594 -14.121550 -0.330966 16.089054 1.071453 1.591369 0.003546 0.006428 374013.000000 1 0 0
2.880306 -14.710650 9.505834 17.749937 -1.377445 1.005647 0.023851 -0.010124 -233941.000000 1 0 0
2.402806 -17.130650 10.339034 20.152624 -1.431442 1.032078 0.044792 -0.016476 -615082.000000 1 0 0
-8.107594 -16.973850 -5.872466 19.706103 1.125186 1.873396 0.040838 -0.014433 384586.000000 1 0 0
-6.579194 -9.144150 -7.843966 13.726947 0.947104 2.179042 0.018440 -0.010960 432844.000000 1 0 0
-5.969294 -13.052850 -4.853966 15.151579 1.141874 1.896906 0.007059 -0.002005 115824.000000 1 0 0
2.100706 -19.388650 -4.772366 20.077554 -1.462870 1.810790 0.002157 -0.011383 -21021.500000 1 0 0
-5.457594 -12.879750 8.351534 16.291759 1.169998 1.032559 0.007458 -0.005340 897933.000000 1 0 0
2.102006 -17.380750 3.554834 17.864651 -1.450442 1.370472 0.017974 -0.013638 -362275.000000 1 0 0
-17.449094 -10.159150 -2.640366 20.362975 0.527241 1.700827 0.018871 -0.017996 564934.000000 1 0 0
-3.435194 -15.494050 2.562234 16.075795 1.352615 1.410729 0.000742 -0.001691 50701.600000 1 0 0
-10.306194 -10.411550 -14.123366 20.349139 0.790483 2.337899 0.043364 -0.018142 123469.000000 1 0 0
6.057906 -14.566250 -5.689966 16.770497 -1.176670 1.916952 0.005219 -0.003806 336696.000000 1 0 0
-7.383594 -12.451650 -10.719566 18.013054 1.035554 2.208186 0.038628 -0.014214 -267836.000000 1 0 0
-7.158794 -14.349850 3.961834 16.518555 1.108048 1.328594 -0.001302 0.005083 1147220.000000 1 0 0
3.194606 -14.880650 -3.193266 15.551083 -1.359324 1.777608 0.003073 -0.002603 -1066570.000000 1 0 0
-7.611694 -11.433350 7.746634 15.769265 0.983432 1.057273 0.012681 -0.009324 -1835850.000000 1 0 0
-12.608194 -12.337050 -1.143566 17.677022 0.774529 1.635534 -0.000741 0.004121 64846.600000 1 0 0
-1.873194 -13.729850 4.025234 14.429835 1.435201 1.288093 0.003462 -0.000972 -3587630.000000 1 0 0
-3.220194 -14.034050 5.206434 15.311145 1.345245 1.223835 -0.000661 -0.002680 685491.000000 1 0 0
-14.409894 -10.252950 -4.448766 18.236215 0.618417 1.817235 0.007822 -0.012801 432630.000000 1 0 0
-6.419194 -8.778550 -10.510166 15.123907 0.939413 2.339129 0.020597 -0.009229 323343.000000 1 0 0
0.861506 -19.393550 2.311834 19.549848 -1.526403 1.452266 0.021043 -0.015550 178351.000000 1 0 0
6.325806 -14.103250 -8.230866 17.511842 -1.149161 2.060106 0.010313 0.000706 -2683830.000000 1 0 0
-3.870594 -16.772350 -5.847566 18.179308 1.343995 1.898279 0.006814 -0.006105 -203463.000000 1 0 0
-3.624994 -13.627650 -13.085066 19.237265 1.310814 2.318823 0.041542 -0.002318 -596040.000000 1 0 0
-8.144794 -14.560550 -4.649766 17.319573 1.060785 1.842599 0.019509 -0.005648 -1122420.000000 1 0 0
-4.483094 -14.511150 10.165134 18.275709 1.271157 0.980978 0.011240 -0.006277 -1362590.000000 1 0 0
-0.245594 -12.081850 -9.954766 15.656589 1.550472 2.259866 0.006274 -0.000061 424950.000000 1 0 0
2.424806 -17.177350 6.877334 18.661156 -1.430560 1.193361 0.027703 -0.013193 87969.800000 1 0 0
-2.868294 -19.184650 -3.496866 19.710555 1.422386 1.749151 0.008474 -0.014257 -298444.000000 1 0 0
0.609506 -15.366350 -3.188766 15.705554 -1.531152 1.775252 -0.003683 0.000263 -466738.000000 1 0 0
5.992506 -17.813650 0.491634 18.801009 -1.246289 1.544644 0.025198 -0.008090 -578009.000000 1 0 0
-7.073394 -16.813350 3.834834 18.639409 1.172573 1.363579 0.009085 0.001123 698429.000000 1 0 0
-5.299694 -13.607750 -9.545966 17.446578 1.199408 2.149757 0.027187 -0.006964 127830.000000 1 0 0
5.598906 -15.048250 -2.085566 16.190959 -1.214603 1.699966 0.019253 -0.001129 -901663.000000 1 0 0
-8.843194 -10.284950 -0.532766 13.574465 0.860629 1.610054 0.003306 0.002891 398340.000000 1 0 0
-7.265294 -18.400350 -2.893266 19.993208 1.194741 1.716019 0.021610 -0.015884 257452.000000 1 0 0
7.871806 -15.892750 -1.192066 17.775428 -1.110909 1.637909 0.027629 -0.005132 801708.000000 1 0 0
-8.192494 -10.317850 -9.536666 16.264162 0.899717 2.197355 0.028976 -0.013830 -811904.000000 1 0 0
-9.275694 -14.818550 -6.933766 18.807047 1.011513 1.948384 0.047137 -0.014403 -404657.000000 1 0 0
-11.543794 -10.519250 -12.014866 19.704588 0.738994 2.226541 0.037618 -0.009285 364776.000000 1 0 0
6.671306 -16.300850 2.427534 17.779678 -1.182332 1.433834 0.030930 -0.003460 -1572120.000000 1 0 0
-2.255594 -11.102050 -6.137666 12.884648 1.370355 2.067301 0.010541 -0.003752 -249541.000000 1 0 0
-12.368994 -15.396650 -3.336866 20.029566 0.894012 1.738174 0.023824 -0.005020 -218486.000000 1 0 0
-0.390494 -19.810550 -2.817366 20.013693 1.551087 1.712037 0.021513 -0.007166 211244.000000 1 0 0
-5.795794 -15.577150 -4.694266 17.270638 1.214597 1.846066 0.010524 -0.008966 -1872100.000000 1 0 0
1.983706 -15.957650 -1.036166 16.113824 -1.447120 1.635144 0.004033 -0.007592 728023.000000 1 0 0
-13.241094 -11.916750 5.236434 18.567599 0.732805 1.284897 0.036170 -0.007669 220639.000000 1 0 0
2.068606 -15.147550 -8.707066 17.593760 -1.435072 2.088510 0.003263 0.003134 -1910390.000000 1 0 0
-11.952594 -16.718750 0.191734 20.552806 0.950126 1.561467 0.057124 -0.010309 470975.000000 1 0 0
-7.617094 -16.773050 -0.951566 18.446159 1.144516 1.622405 0.019414 0.000297 641298.000000 1 0 0
-3.153994 -14.502950 -1.784866 14.948879 1.356658 1.690480 -0.001093 0.000849 264507.000000 1 0 0
-1.944094 -10.455750 -13.268066 17.004228 1.386960 2.465910 0.013992 0.002474 -212327.000000 1 0 0
1.584806 -19.552450 4.829434 20.202310 -1.489919 1.329405 0.031024 -0.013257 -164025.000000 1 0 0
-17.572494 -9.649750 2.344334 20.184304 0.502182 1.454387 0.042824 -0.004471 408800.000000 1 0 0
-2.686894 -15.710950 -7.935766 17.805328 1.401415 2.032748 0.002651 -0.001273 -1545690.000000 1 0 0
-10.313294 -12.232950 0.125434 16.000776 0.870336 1.562957 0.006216 0.002581 250165.000000 1 0 0
-6.869694 -11.432650 -6.566666 14.866717 1.029727 2.028292 0.018633 -0.005354 124355.000000 1 0 0
-2.270494 -13.633850 -6.635266 15.331789 1.405777 2.018369 0.003368 0.000334 228102.000000 1 0 0
-14.092594 -14.479750 -1.135866 20.237454 0.798947 1.626953 0.025392 -0.004161 -349382.000000 1 0 0
-9.613694 -11.357350 -4.603166 15.575675 0.868353 1.870812 0.014152 -0.003422 958195.000000 1 0 0
9.547706 -15.149050 -5.064266 18.609116 -1.008430 1.846412 0.038911 -0.004213 390276.000000 1 0 0
-5.692694 -10.988650 -9.423266 15.554907 1.092811 2.221576 0.026180 -0.009398 -241192.000000 1 0 0
-10.339194 -15.982850 -4.920666 19.661215 0.996608 1.823758 0.036867 -0.005586 -1833560.000000 1 0 0
2.356306 -17.302750 -3.227266 17.758169 -1.435448 1.753546 0.005231 -0.005358 501175.000000 1 0 0
-0.368394 -14.443150 -8.156466 16.591209 1.545295 2.084738 0.002896 -0.000084 -768242.000000 1 0 0
-0.423094 -18.304650 -7.087966 19.633606 1.547686 1.940149 0.011133 -0.006225 158670.000000 1 0 0
-1.931194 -10.207650 -10.582266 14.829362 1.383815 2.365423 0.009275 -0.002967 225838.000000 1 0 0
-5.012794 -17.331850 2.011534 18.153991 1.289254 1.459764 0.007447 -0.004987 -313550.000000 1 0 0
0.219006 -12.728650 -2.667266 13.006952 -1.553592 1.777326 0.002364 0.000713 -2390200.000000 1 0 0
2.590806 -14.912750 2.983234 15.427316 -1.398782 1.376197 0.019622 -0.007240 -792370.000000 1 0 0
-9.410694 -13.200150 6.909634 17.622377 0.951450 1.167889 0.012977 -0.003497 -532057.000000 1 0 0
-0.912494 -17.928250 -4.594066 18.529982 1.519943 1.821335 0.007124 -0.005109 -207443.000000 1 0 0
-9.706294 -17.596050 -2.277466 20.224242 1.066712 1.683646 0.040625 -0.015123 -1181070.000000 1 0 0
1.351606 -16.346250 1.371934 16.459311 -1.488298 1.487346 0.009177 -0.009736 832741.000000 1 0 0
-0.377094 -17.997450 4.201334 18.485173 1.549847 1.341511 0.016498 -0.014472 -527685.000000 1 0 0
-17.432994 -9.553750 -0.162466 19.879884 0.501327 1.578969 0.012222 -0.004252 524283.000000 1 0 0
-14.776794 -7.304150 -10.636266 19.617196 0.459076 2.143839 0.039032 -0.026710 318671.000000 1 0 0
2.794406 -12.583850 -8.921266 15.676446 -1.352279 2.176192 -0.005247 0.002012 427186.000000 1 0 0
-11.458294 -14.598550 1.748334 18.640462 0.905335 1.476866 0.029597 -0.005795 187709.000000 1 0 0
-2.078594 -15.510450 10.531134 18.862645 1.437578 0.978453 0.009912 -0.010184 -540274.000000 1 0 0
-7.034194 -15.914550 1.382934 17.454664 1.154617 1.491483 0.005129 0.001238 -558449.000000 1 0 0
-12.571394 -15.200150 -5.894166 20.587027 0.879773 1.861164 0.035398 -0.007668 338451.000000 1 0 0
0.823506 -13.674950 -5.051066 14.601222 -1.510649 1.924031 -0.001956 0.001622 875132.000000 1 0 0
5.737106 -16.416250 -7.565866 18.964439 -1.234587 1.981168 0.023842 -0.009793 108644.000000 1 0 0
-6.585194 -12.931150 5.995234 15.701027 1.099776 1.179013 0.006739 -0.002732 227988.000000 1 0 0
-2.619994 -13.595450 0.531134 13.855783 1.380419 1.532454 0.003589 -0.001082 832315.000000 1 0 0
-4.288894 -15.622850 0.122934 16.201332 1.302870 1.563208 0.002523 -0.000599 447210.000000 1 0 0
-17.793594 -7.685850 -1.968566 19.482287 0.407738 1.672013 0.010768 -0.010557 607371.000000 1 0 0
1.365606 -12.734650 -11.996366 17.548475 -1.463969 2.323498 0.007974 0.007427 189636.000000 1 0 0
1.330806 -17.068650 -5.737866 18.056383 -1.492986 1.894178 0.010674 -0.004203 562892.000000 1 0 0
-12.777094 -6.379750 -9.101366 16.934881 0.463097 2.138187 0.018931 -0.016211 1879860.000000 1 0 0
-11.822794 -13.266750 -8.523866 19.708916 0.842887 2.018046 0.054977 -0.023971 486481.000000 1 0 0
-4.380194 -9.903950 3.488834 11.377446 1.154391 1.259130 0.005240 0.000206 -4822330.000000 1 0 0
-6.952694 -14.484950 9.556434 18.694362 1.123281 1.034224 0.016695 -0.008594 -1435780.000000 1 0 0
-5.260294 -15.914350 -8.003766 18.574108 1.251564 2.016297 0.022683 -0.009252 -567246.000000 1 0 0
-0.324994 -13.483250 2.140634 13.655986 1.546697 1.413393 0.008964 -0.005114 896644.000000 1 0 0
-11.010794 -13.498650 -4.714866 18.046636 0.886558 1.835124 0.030689 -0.001248 -835075.000000 1 0 0
-9.741094 -10.595950 6.566534 15.820317 0.827408 1.142777 0.017454 -0.005353 -327986.000000 1 0 0
-15.595994 -8.161450 -4.998666 18.298386 0.482117 1.847489 0.024440 -0.012182 -75054.100000 1 0 0
-14.592294 -7.392350 5.387434 17.222262 0.468908 1.252638 0.026920 -0.005978 99516.800000 1 0 0
-1.598094 -19.411250 -0.078166 19.477080 1.488653 1.574810 0.018522 -0.010910 -173786.000000 1 0 0
-15.214494 -12.186550 -1.549666 19.554904 0.675340 1.650126 0.005226 -0.000124 297317.000000 1 0 0
-4.412094 -12.102850 -6.858466 14.593975 1.221219 2.060033 0.011412 -0.006767 788467.000000 1 0 0
-7.329494 -18.443350 1.892434 19.936397 1.192528 1.475730 0.020014 -0.006337 179320.000000 1 0 0
-2.452394 -11.851250 -8.613766 14.854740 1.366745 2.189361 0.010351 -0.001763 482085.000000 1 0 0
-1.258094 -20.504950 -5.189566 21.188850 1.509518 1.818233 0.022557 -0.007723 -101349.000000 1 0 0
-5.342794 -8.899550 -13.811566 17.277349 1.030124 2.497097 0.021606 -0.008890 754172.000000 1 0 0
-8.480494 -19.269950 -0.788566 21.068260 1.156215 1.608234 0.035058 -0.000748 222174.000000 1 0 0
-17.177794 -7.376650 5.689234 19.541212 0.405616 1.275378 0.052717 -0.010207 700568.000000 1 0 0
-3.534794 -14.586250 -4.306166 15.613984 1.333042 1.850207 0.002965 -0.000890 -2496590.000000 1 0 0
-2.987794 -14.749350 -10.786366 18.515289 1.370930 2.192678 0.022800 -0.005971 -270598.000000 1 0 0
-0.134794 -16.608250 6.389334 17.795385 1.562680 1.203552 0.029520 -0.016239 -1555180.000000 1 0 0
-11.195194 -11.667650 3.757134 16.600677 0.806060 1.342494 0.017318 0.000819 -1257850.000000 1 0 0
-0.252794 -14.682250 -0.174466 14.685462 1.553580 1.582677 0.000716 -0.000445 1205540.000000 1 0 0
-7.410594 -9.458250 -2.526166 12.278310 0.906194 1.778018 0.006556 0.000617 -417104.000000 1 0 0
-11.077594 -14.463450 -0.794566 18.235564 0.917195 1.614382 0.014199 -0.000818 -182258.000000 1 0 0
0.401506 -14.582650 -10.587366 18.025182 -1.543270 2.198596 0.003544 0.001518 96658.900000 1 0 0
-1.437994 -14.062750 -3.800466 14.638043 1.468895 1.833435 -0.002327 0.002022 -4264620.000000 1 0 0
-11.417594 -8.029650 -7.545866 15.867477 0.612917 2.066392 0.017374 -0.016408 566301.000000 1 0 0
-0.180194 -17.266150 -0.474366 17.273605 1.560360 1.598262 0.004297 -0.007633 -120769.000000 1 0 0
-12.874894 -9.505150 4.442734 16.608692 0.635952 1.300004 0.019349 -0.003057 278896.000000 1 0 0
4.047806 -16.754650 1.763934 17.326699 -1.333746 1.468815 0.022496 -0.011219 1882930.000000 1 0 0
-3.616894 -17.943150 -8.213766 20.062514 1.371887 1.992602 0.029930 -0.011096 157739.000000 1 0 0
-13.415894 -11.374750 2.602334 17.780419 0.703248 1.423909 0.011066 -0.000431 249873.000000 1 0 0
-8.623094 -12.207850 4.154834 15.512962 0.955817 1.299656 0.008836 -0.001325 2258160.000000 1 0 0
-8.299294 -9.386850 -5.909066 13.853097 0.846813 2.011473 0.014708 -0.009633 541749.000000 1 0 0
3.803906 -17.579050 -5.449866 18.793449 -1.357693 1.865010 -0.004121 0.009348 -1033070.000000 1 0 0
-2.556894 -13.110650 11.321034 17.509788 1.378190 0.867737 0.001837 -0.007298 224574.000000 1 0 0
0.034106 -16.737450 -9.369466 19.181509 -1.568759 2.081124 0.007997 -0.000755 2191.050000 1 0 0
-7.169594 -10.617050 -14.426566 19.293797 0.976847 2.415434 0.037949 -0.009637 -111757.000000 1 0 0
-4.624094 -19.014850 -1.572466 19.632101 1.332244 1.650979 0.022771 -0.014547 34186.200000 1 0 0
-2.365294 -17.182750 1.029234 17.375294 1.434001 1.511526 0.008854 -0.011133 1013270.000000 1 0 0
4.029706 -14.490350 -7.383966 16.755050 -1.299554 2.027176 -0.000431 -0.001877 -1075040.000000 1 0 0
-0.982994 -15.873450 -6.136266 17.046596 1.508948 1.939032 -0.000811 -0.000228 -816786.000000 1 0 0
-9.427694 -15.418850 8.405634 19.931809 1.022008 1.135455 0.028298 -0.004870 -512596.000000 1 0 0
-7.135994 -11.975250 -1.738866 14.048227 1.033401 1.694893 0.004674 0.003642 877656.000000 1 0 0
-7.330194 -15.313650 -9.327966 19.371385 1.124357 2.073200 0.045829 -0.005354 170990.000000 1 0 0
-5.148494 -13.303750 -0.539066 14.275410 1.201551 1.608567 0.003096 0.002269 3813550.000000 1 0 0
-6.503394 -13.740350 -7.295466 16.861648 1.128731 2.018244 0.022208 -0.005278 88914.700000 1 0 0
5.687806 -15.288750 0.348034 16.316192 -1.214636 1.549464 0.020776 -0.003362 487233.000000 1 0 0
-14.350694 -12.876650 0.872934 19.300584 0.731313 1.525552 0.005572 -0.004041 918693.000000 1 0 0
0.827506 -15.157650 11.035634 18.767641 -1.516257 0.942195 0.017609 -0.012852 41446.400000 1 0 0
-9.347194 -10.887450 1.936834 14.479569 0.861371 1.436631 0.004949 0.004575 224260.000000 1 0 0
-9.487894 -8.883850 -3.495566 13.459639 0.752531 1.833515 0.008522 -0.005183 -708778.000000 1 0 0
-12.217094 -7.336550 -12.117166 18.705829 0.540798 2.275456 0.031836 -0.025377 -453635.000000 1 0 0
-13.343994 -8.374550 -0.576866 15.764772 0.560459 1.607397 -0.001396 -0.002062 -55632.700000 1 0 0
-11.285494 -9.756150 0.388634 14.922998 0.712844 1.544751 -0.005322 0.003979 1212130.000000 1 0 0
-15.871094 -12.309950 2.894134 20.292917 0.659698 1.427690 0.041648 -0.001210 183111.000000 1 0 0
-10.381594 -12.488350 -2.384566 16.414095 0.877258 1.716588 0.016258 -0.003240 350891.000000 1 0 0
-3.391094 -8.721850 -11.911766 15.147948 1.199978 2.475694 0.012065 -0.007124 -1699510.000000 1 0 0
-0.247094 -15.620250 3.801534 16.078088 1.554979 1.332094 0.017047 -0.010068 -1108210.000000 1 0 0
-15.904694 -7.922650 1.204634 17.809515 0.462153 1.503105 0.008209 0.001211 510471.000000 1 0 0
-6.208594 -13.498650 -13.356866 19.979140 1.139706 2.303041 0.045311 -0.006085 -728741.000000 1 0 0
-15.416094 -10.520350 1.030734 18.692141 0.598834 1.515626 0.008129 -0.000075 -333453.000000 1 0 0
-9.953494 -8.464550 -12.533366 18.105411 0.704732 2.335391 0.023408 -0.011692 554681.000000 1 0 0
-13.467894 -11.470250 -6.404466 18.814037 0.705465 1.918148 0.031154 -0.012101 46423.600000 1 0 0
-12.208594 -11.406650 -3.991966 17.178394 0.751452 1.805323 0.006648 -0.001885 -141704.000000 1 0 0
-11.805694 -10.769250 -9.155066 18.416470 0.739519 2.091065 0.030793 -0.027348 345473.000000 1 0 0
-13.169694 -8.385550 -5.811066 16.659135 0.566991 1.927110 0.007954 -0.013782 -2523060.000000 1 0 0
-13.616094 -8.154150 -3.214866 16.193317 0.539582 1.770655 0.007629 -0.009405 -191748.000000 1 0 0
-4.320894 -16.980050 -3.293066 17.827969 1.321616 1.756577 0.005594 -0.010162 222231.000000 1 0 0
-15.484494 -8.974950 -1.763266 17.984115 0.525291 1.669000 0.007460 -0.005186 -3170950.000000 1 0 0
-9.389194 -15.720350 3.756534 18.692188 1.032391 1.368450 0.017139 -0.000523 -1838970.000000 1 0 0
4.846806 -17.076950 7.944634 19.448161 -1.294247 1.149983 0.050419 -0.024684 418276.000000 1 0 0
-8.294794 -15.526750 6.031034 18.607981 1.080144 1.240725 0.014837 0.000504 309681.000000 1 0 0
0.812606 -16.000950 8.567334 18.168377 -1.520055 1.079746 0.024233 -0.010658 606653.000000 1 0 0
-10.767894 -7.788050 -10.066466 16.671382 0.626171 2.219077 0.023411 -0.021076 825433.000000 1 0 0
-4.878394 -16.001550 5.757434 17.691703 1.274878 1.239328 0.006221 -0.009913 -2157980.000000 1 0 0
-1.249094 -13.194150 -12.016066 17.889429 1.476407 2.307278 0.017090 0.001903 899823.000000 1 0 0
-6.510794 -14.313350 -2.610866 15.939857 1.143895 1.735333 0.009900 -0.000303 665118.000000 1 0 0
-17.598594 -6.966950 -7.234566 20.262967 0.376951 1.935887 0.036595 -0.026880 244332.000000 1 0 0
-17.354394 -3.993350 -10.253766 20.549003 0.226169 2.093230 0.052335 -0.019571 785651.000000 1 0 0
-15.356694 -5.371650 -9.100766 18.641529 0.336490 2.080821 0.024804 -0.021462 462580.000000 1 0 0
-16.090094 -5.395350 -5.701566 17.902759 0.323539 1.894916 0.022416 -0.018289 -687952.000000 1 0 0
-15.196494 -4.462650 -12.442866 20.141340 0.285633 2.236709 0.042913 -0.017943 -892455.000000 1 0 0
-18.657894 -5.160750 -5.617966 20.157179 0.269852 1.853245 0.042438 -0.021144 -529319.000000 1 0 0
-17.512694 -4.538250 -7.798466 19.700412 0.253563 1.977793 0.041938 -0.016497 787829.000000 1 0 0
12.206406 -7.800750 8.741434 16.919241 -0.568653 1.027855 0.028142 -0.009305 193190.000000 1 0 0
16.073106 -3.466950 1.845734 16.546033 -0.212444 1.459012 0.021295 -0.008043 101743.000000 1 0 0
12.193406 -2.198950 12.526234 17.618771 -0.178422 0.779934 0.040336 -0.008508 553519.000000 1 0 0
9.767006 -9.996950 5.245734 14.928200 -0.797032 1.211733 0.006384 -0.005641 75208.000000 1 0 0
17.202506 -1.941450 7.303734 18.789358 -0.112383 1.171558 0.063019 -0.022073 -1154930.000000 1 0 0
4.989506 -12.692850 8.998234 16.339273 -1.196256 0.987579 0.019418 0.000502 -199546.000000 1 0 0
15.097206 -8.966450 -2.041266 17.677376 -0.535933 1.686528 0.032375 -0.008620 625609.000000 1 0 0
11.103506 -8.474850 6.553034 15.428972 -0.651933 1.132141 0.006286 -0.008044 -2658530.000000 1 0 0
19.954006 -3.350850 3.688234 20.566809 -0.166376 1.390492 0.089872 -0.022813 255935.000000 1 0 0
13.630106 -8.502150 6.835034 17.458065 -0.557720 1.168523 0.025605 -0.009706 -1542720.000000 1 0 0
8.374406 -10.991450 8.963934 16.471028 -0.919721 0.995332 0.016640 -0.001334 -758116.000000 1 0 0
16.768306 0.148750 -0.617566 16.780334 0.008871 1.607608 0.024979 -0.002198 -791558.000000 1 0 0
12.421306 -12.399450 2.294934 17.700337 -0.784518 1.440775 0.010773 -0.003623 -1717510.000000 1 0 0
10.457206 -11.515650 3.616434 15.970033 -0.833531 1.342364 0.011611 -0.003628 -700738.000000 1 0 0
16.458806 2.825550 2.289034 16.855732 0.170017 1.434574 0.027328 -0.003402 -347669.000000 1 0 0
18.353206 -3.296850 0.549034 18.655048 -0.177738 1.541361 0.046689 -0.009954 286983.000000 1 0 0
13.536006 -11.713850 -0.283366 17.903017 -0.713358 1.586625 0.032584 -0.005457 -213843.000000 1 0 0
16.943606 -7.602850 -0.770466 18.587166 -0.421785 1.612260 0.043900 -0.006292 301588.000000 1 0 0
10.311506 -5.653050 9.752334 15.277178 -0.501481 0.878431 0.016816 -0.009543 238879.000000 1 0 0
11.354606 -13.209150 6.298534 18.522426 -0.860754 1.223827 0.018541 0.000727 -1009720.000000 1 0 0
13.265706 -1.796850 10.255734 16.863799 -0.134631 0.917067 0.031341 -0.010990 1993370.000000 1 0 0
15.590606 -1.970650 -1.348866 15.772441 -0.125733 1.656421 0.014807 -0.003490 119316.000000 1 0 0
10.347406 -12.488350 9.398434 18.744553 -0.878879 1.045585 0.026210 -0.002555 -104166.000000 1 0 0
14.652506 1.170750 3.260334 15.056440 0.079732 1.352526 0.018652 -0.004600 1090870.000000 1 0 0
14.934306 -5.853950 5.293234 16.891434 -0.373574 1.252059 0.034338 -0.012896 -1005230.000000 1 0 0
14.429806 -3.456650 -3.014366 15.141140 -0.235119 1.771220 0.015725 -0.001106 959546.000000 1 0 0
14.196906 0.623350 9.628534 17.165354 0.043879 0.975290 0.034241 -0.010650 553130.000000 1 0 0
15.417606 -3.408750 4.459334 16.407554 -0.217594 1.295548 0.023604 -0.007045 -449612.000000 1 0 0
18.486406 4.866650 -4.207566 19.573837 0.257415 1.787446 0.016874 0.006678 468113.000000 1 0 0
18.300806 -5.706750 -5.097466 19.836095 -0.302275 1.830692 0.079138 -0.012364 774311.000000 1 0 0
17.604206 0.159450 6.139934 18.644900 0.009057 1.235225 0.064072 -0.011325 488513.000000 1 0 0
17.004806 -6.679050 3.981434 18.698261 -0.374262 1.356223 0.053541 -0.015533 -301337.000000 1 0 0
9.948706 -6.518050 14.342434 18.632422 -0.579998 0.692336 0.047905 -0.009688 -328849.000000 1 0 0
8.644706 -12.293850 5.156734 15.889040 -0.957944 1.240264 0.013838 -0.004439 -687134.000000 1 0 0
16.903106 -10.224650 -0.436366 19.759779 -0.544013 1.592882 0.051957 -0.006727 462651.000000 1 0 0
14.968806 -8.781850 0.500434 17.361926 -0.530565 1.541969 0.032905 -0.008325 -142082.000000 1 0 0
9.998606 -12.936350 1.559334 16.424153 -0.912795 1.475712 0.021283 -0.006705 319829.000000 1 0 0
16.635006 -8.265150 8.959534 20.623030 -0.461127 1.121376 0.039442 -0.003984 352444.000000 1 0 0
19.096506 -0.154550 -1.918566 19.193262 -0.008093 1.670924 0.049823 -0.004489 137767.000000 1 0 0
13.501706 -1.180350 7.718534 15.596957 -0.087201 1.053106 0.018096 -0.010865 350480.000000 1 0 0
12.841306 -9.833550 -2.979466 16.446126 -0.653521 1.752967 0.027023 -0.008850 -1878480.000000 1 0 0
8.841206 -15.200450 1.389134 17.639453 -1.043985 1.491963 0.034856 -0.004026 285240.000000 1 0 0
11.493506 -8.224750 11.146434 17.999728 -0.621119 0.903002 0.044218 -0.010877 58031.000000 1 0 0
13.948106 -3.892750 -0.401066 14.486684 -0.272163 1.598485 0.009456 -0.005091 -327844.000000 1 0 0
6.905706 -13.502550 10.665634 18.540857 -1.098041 0.957886 0.022905 0.007143 -538400.000000 1 0 0
15.479106 -6.675550 1.888434 16.962661 -0.407163 1.459236 0.020784 -0.006285 -1470560.000000 1 0 0
15.832406 -6.114050 -2.589066 17.168283 -0.368530 1.722179 0.046324 -0.008939 302297.000000 1 0 0
11.280506 -8.515950 3.902934 14.663019 -0.646646 1.301373 0.006148 -0.005941 136032.000000 1 0 0
10.761606 -14.439050 -0.374366 18.012176 -0.930302 1.591582 0.046374 -0.009400 900248.000000 1 0 0
13.297006 -12.954250 4.642034 19.135607 -0.772342 1.325766 0.001741 0.003574 658590.000000 1 0 0
12.888806 -11.074450 6.531634 18.205137 -0.709828 1.203836 0.012956 -0.006224 -293006.000000 1 0 0
11.008106 -10.433050 1.381034 15.229385 -0.758584 1.479989 0.013292 -0.004625 474825.000000 1 0 0
14.052306 -7.524250 11.695534 19.770361 -0.491601 0.937793 0.058617 -0.023672 715142.000000 1 0 0
15.471606 -1.878550 -4.889866 16.334330 -0.120828 1.874819 0.030384 0.001759 -336970.000000 1 0 0
13.068906 -11.424850 -7.031266 18.728646 -0.718377 1.955655 0.066725 -0.012055 -175851.000000 1 0 0
17.783206 -5.394950 1.912334 18.681673 -0.294549 1.468253 0.069189 -0.009282 556976.000000 1 0 0
10.720106 -9.845550 9.220834 17.230186 -0.742899 1.006104 0.023542 -0.003291 -968598.000000 1 0 0
16.535306 1.809050 9.857034 19.335205 0.108972 1.035847 0.061103 -0.015301 891525.000000 1 0 0
18.263106 3.738550 0.554334 18.650069 0.201916 1.541069 0.018926 0.000761 875022.000000 1 0 0
13.284906 -4.078050 5.775434 15.049082 -0.297838 1.176917 0.017444 -0.010966 -1470530.000000 1 0 0
12.110606 -6.116250 6.741534 15.150036 -0.467666 1.109639 0.009566 -0.008466 -234358.000000 1 0 0
16.513106 -10.228750 3.473534 19.732598 -0.554585 1.393844 0.015287 -0.007018 -779151.000000 1 0 0
16.406706 -8.108850 -5.451766 19.095947 -0.459029 1.860317 0.067645 -0.012003 113312.000000 1 0 0
14.039506 -0.424250 5.323534 15.020910 -0.030209 1.208515 0.016233 -0.007030 548807.000000 1 0 0
18.262206 -4.262550 5.415734 19.519418 -0.229303 1.289654 0.068082 -0.017147 70085.800000 1 0 0
13.692206 -13.490150 7.174934 20.516830 -0.777965 1.213535 0.028960 -0.002544 -264978.000000 1 0 0
15.074106 -13.675650 -1.098766 20.382820 -0.736794 1.624729 0.040952 -0.004044 937276.000000 1 0 0
17.762206 -6.018150 8.083034 20.421791 -0.326678 1.163853 0.064269 -0.014731 -556790.000000 1 0 0
14.346006 3.263550 9.261134 17.384685 0.223682 1.008987 0.032718 -0.015270 404235.000000 1 0 0
18.865806 3.519150 3.003234 19.424790 0.184416 1.415565 0.047081 -0.005313 -822300.000000 1 0 0
14.828106 -10.541250 8.163134 19.940598 -0.618002 1.149030 0.020171 -0.002897 -666934.000000 1 0 0
15.031206 -4.892750 10.310334 18.872709 -0.314690 0.992845 0.060583 -0.018440 91115.200000 1 0 0
17.840406 -7.943050 1.885834 19.619595 -0.418879 1.474528 0.084318 -0.011839 -60683.200000 1 0 0
18.381506 -5.867150 -2.020166 19.400626 -0.308966 1.675114 0.048998 -0.011541 -420981.000000 1 0 0
14.458906 -12.916150 -5.347066 20.111638 -0.729101 1.839902 0.081481 -0.016184 -785722.000000 1 0 0
15.580906 -1.470550 9.243834 18.176238 -0.094103 1.037277 0.062757 -0.019316 229745.000000 1 0 0
13.155706 -9.930450 10.169834 19.367807 -0.646591 1.017976 0.031936 -0.017037 -533717.000000 1 0 0
16.695806 2.078750 4.776634 17.489636 0.123870 1.294169 0.042498 -0.010640 -801672.000000 1 0 0
14.911306 2.375850 0.003634 15.099395 0.158004 1.570556 0.015026 0.001153 -854441.000000 1 0 0
15.156506 -9.826450 -6.910966 19.340120 -0.575202 1.936213 0.071571 -0.015288 413860.000000 1 0 0
16.242906 -0.117350 -3.205566 16.556613 -0.007225 1.765639 0.017847 0.003512 -84666.700000 1 0 0
11.979606 2.690150 13.582234 18.309150 0.220896 0.735005 0.032515 -0.007709 -288354.000000 1 0 0
17.639106 -3.075250 9.694534 20.361219 -0.172608 1.074551 0.057779 -0.018224 64744.300000 1 0 0
8.104206 -18.081150 4.581234 20.337007 -1.149429 1.343580 0.060873 -0.014649 -133482.000000 1 0 0
6.913006 -11.164950 6.734534 14.758039 -1.016400 1.096930 0.015597 -0.003720 450740.000000 1 0 0
18.086506 2.233350 -1.478266 18.283731 0.122860 1.651736 0.021251 0.001411 543301.000000 1 0 0
17.579906 -2.335250 3.640834 18.104203 -0.132063 1.368311 0.032892 -0.011656 -985928.000000 1 0 0
12.576406 -13.360550 -2.054966 18.463292 -0.815622 1.682327 0.047602 -0.004508 -204223.000000 1 0 0
15.045306 -8.251050 4.250934 17.677995 -0.501624 1.327952 0.021323 -0.007118 -854030.000000 1 0 0
11.721106 -2.983550 15.033534 19.294897 -0.249252 0.677495 0.058465 -0.013687 120201.000000 1 0 0
12.144506 -13.714950 -6.355866 19.390356 -0.846054 1.904754 0.052593 -0.016298 105366.000000 1 0 0
10.690606 -11.965250 -1.218766 16.091664 -0.841600 1.646608 0.032472 -0.009624 -700522.000000 1 0 0
13.240106 -8.009650 2.169634 15.625691 -0.544054 1.431496 0.008278 -0.002021 -1174340.000000 1 0 0
8.916306 -7.787350 9.960934 15.471378 -0.717913 0.871303 0.022809 -0.004440 -1879870.000000 1 0 0
15.712806 -3.788650 8.062234 18.062275 -0.236602 1.108105 0.060754 -0.021008 -890413.000000 1 0 0
10.533606 -17.135650 5.147034 20.762450 -1.019624 1.320283 0.063038 -0.018404 1294930.000000 1 0 0
15.211506 -6.361150 8.221534 18.424108 -0.396080 1.108239 0.052619 -0.009959 -1630730.000000 1 0 0
16.574906 -4.978450 -0.364566 17.310268 -0.291788 1.591859 0.025203 -0.006129 -457026.000000 1 0 0
13.970306 -10.574550 3.606734 17.888518 -0.647922 1.367782 0.013462 -0.003649 -391081.000000 1 0 0
14.994706 -9.969450 -4.453866 18.549072 -0.586754 1.813278 0.060119 -0.017413 380296.000000 1 0 0
13.670406 -6.529950 -0.000666 15.149926 -0.445625 1.570840 0.012195 -0.006435 233313.000000 1 0 0
17.913106 -0.849650 -4.946066 18.602818 -0.047396 1.839910 0.056407 -0.000790 -566840.000000 1 0 0
14.310606 0.257850 -1.708166 14.414498 0.018016 1.689579 0.009523 -0.000719 -1102770.000000 1 0 0
4.686606 -12.832250 11.666634 17.965001 -1.220627 0.863989 0.008475 0.004364 -796888.000000 1 0 0
12.184606 -7.451950 13.549034 19.686861 -0.548896 0.811754 0.062174 -0.016949 222446.000000 1 0 0
12.205006 -5.725050 11.592934 17.780171 -0.438602 0.860558 0.042009 -0.011821 781273.000000 1 0 0
13.365006 -4.504350 8.314734 16.372152 -0.325070 1.038099 0.032000 -0.014718 -2144640.000000 1 0 0
15.307806 -1.245950 3.025634 15.653619 -0.081214 1.376286 0.017136 -0.003175 278557.000000 1 0 0
15.262306 -10.296650 5.757634 19.290136 -0.593506 1.267701 0.018758 -0.008041 501026.000000 1 0 0
13.796006 -7.932350 -5.602566 16.871298 -0.521815 1.909301 0.052981 -0.010460 -1072930.000000 1 0 0
9.743406 -2.162950 13.556634 16.834330 -0.218449 0.634620 0.020728 -0.009225 -826903.000000 1 0 0
10.029306 -9.114650 13.652634 19.236898 -0.737657 0.781709 0.058760 -0.008429 -64915.300000 1 0 0
20.349206 6.284650 -3.027066 21.511628 0.299547 1.711983 0.066238 0.008884 1307530.000000 1 0 0
11.381906 -3.580350 10.572234 15.941732 -0.304765 0.845737 0.019955 -0.006980 869052.000000 1 0 0
10.227806 -14.060250 -2.852366 17.619155 -0.941899 1.733402 0.041310 -0.002516 1024920.000000 1 0 0
14.932406 -12.769250 2.621934 19.821832 -0.707469 1.438132 0.017008 -0.001757 -538224.000000 1 0 0
11.617306 -0.491250 14.421034 18.524831 -0.042261 0.678571 0.052752 -0.011377 371246.000000 1 0 0
19.220606 -1.859350 5.731834 20.143059 -0.096437 1.282253 0.088583 -0.021691 490412.000000 1 0 0
19.232006 -0.438850 8.045134 20.851543 -0.022815 1.174690 0.095252 -0.023412 319177.000000 1 0 0
19.020706 0.741550 0.480734 19.041225 0.038967 1.545547 0.037635 -0.006606 -362833.000000 1 0 0
18.595806 0.541650 3.743634 18.976622 0.029119 1.372218 0.043192 -0.015099 97359.000000 1 0 0
16.811506 -3.884850 -4.045266 17.722386 -0.227097 1.801084 0.044852 -0.007085 -792417.000000 1 0 0
11.226606 -8.282450 15.788734 21.069404 -0.635616 0.723689 0.082644 -0.018560 320743.000000 1 0 0
16.514006 -7.552050 6.348134 19.236545 -0.428918 1.234489 0.040846 -0.012586 -95977.700000 1 0 0
18.976306 2.315050 5.760234 19.965970 0.121397 1.278134 0.061841 -0.018463 98385.800000 1 0 0
15.303506 1.739250 7.512634 17.136568 0.113165 1.116981 0.033327 -0.014068 6812.330000 1 0 0
8.779606 -15.569850 3.864834 18.287664 -1.057355 1.357855 0.032742 -0.016207 797787.000000 1 0 0
11.368406 -15.140250 2.047234 19.043608 -0.926737 1.463086 0.034210 -0.003557 528357.000000 1 0 0
8.354806 -16.041250 6.269634 19.142434 -1.090622 1.237113 0.042145 -0.008302 337042.000000 1 0 0
14.647406 -11.607150 -2.539366 18.860562 -0.670112 1.705845 0.044065 -0.010140 570957.000000 1 0 0
13.732306 -4.852250 3.190534 14.909731 -0.339652 1.355138 0.010337 -0.002543 114735.000000 1 0 0
-1.053594 10.193350 -5.512866 11.636414 -1.467801 2.064352 -0.002952 0.003476 -2320350.000000 1 0 0
8.346906 -1.717650 -8.050566 11.723172 -0.202950 2.327767 0.005509 -0.003404 -1138180.000000 1 0 0
2.866406 -10.127950 7.641034 13.006808 -1.294990 0.942875 0.011083 -0.004394 741979.000000 1 0 0
-6.269294 1.275150 8.415434 10.571168 -0.200659 0.650016 0.001237 0.001080 -107041.000000 1 0 0
7.400006 -6.290650 -7.364266 12.188715 -0.704545 2.219542 0.006667 -0.005124 223051.000000 1 0 0
-11.414294 -4.473650 -4.087566 12.923151 0.373534 1.892621 0.005672 -0.007023 265367.000000 1 0 0
2.053506 -3.105150 2.869534 4.700327 -0.986502 0.914109 0.011073 -0.002992 2557830.000000 1 0 0
-3.622794 -4.303250 8.903634 10.531728 0.871039 0.563463 0.002095 -0.001622 -995930.000000 1 0 0
-4.884194 -1.010450 -2.347766 5.512564 0.204004 2.010746 0.006276 -0.004713 -395456.000000 1 0 0
5.056106 -5.188850 -3.533266 8.060542 -0.798354 2.024548 0.012076 -0.006631 200597.000000 1 0 0
2.696406 14.289250 -8.838266 17.016704 1.384288 2.116931 0.003773 -0.006754 252356.000000 1 0 0
5.639106 -5.479850 13.670434 15.770512 -0.771076 0.521977 0.019865 -0.010566 -431235.000000 1 0 0
-4.716794 -0.993050 9.950134 11.056196 0.207504 0.451118 0.006034 0.000757 -3351420.000000 1 0 0
-0.859194 12.026350 -2.719466 12.359887 -1.499475 1.792635 0.000419 0.000332 -273900.000000 1 0 0
3.158806 9.367150 -10.550366 14.457931 1.245550 2.388721 0.008737 -0.004217 -75534.900000 1 0 0
-10.620294 2.581850 1.201034 10.995412 -0.238479 1.461347 -0.000777 -0.001569 204522.000000 1 0 0
5.651906 -8.975750 -0.670966 10.628185 -1.008834 1.633969 0.012336 -0.006841 599201.000000 1 0 0
-6.994094 5.515250 9.374034 12.930888 -0.667725 0.759858 -0.003142 -0.001760 336049.000000 1 0 0
-5.638294 -1.799150 5.186634 7.869465 0.308882 0.851197 0.002271 -0.001377 531144.000000 1 0 0
6.784706 -3.737450 -7.395166 10.709306 -0.503506 2.333027 0.007435 -0.005924 564639.000000 1 0 0
6.306106 4.885550 11.023634 13.607207 0.659143 0.626419 0.005112 -0.002365 908025.000000 1 0 0
3.766806 -9.812150 3.387634 11.042788 -1.204253 1.258995 0.009074 -0.002813 1288830.000000 1 0 0
-6.610894 6.608150 -5.744166 10.971190 -0.785191 2.121830 0.002800 -0.003550 -340874.000000 1 0 0
-11.137794 8.388450 5.205734 14.883421 -0.645515 1.213474 -0.000118 -0.009888 269899.000000 1 0 0
-9.247194 -5.623150 5.168034 11.993289 0.546349 1.125295 0.002514 -0.001932 -1610550.000000 1 0 0
3.296306 9.751950 -8.079166 13.085835 1.244838 2.236227 0.005757 -0.002605 835739.000000 1 0 0
-8.200894 -8.497550 6.083434 13.284246 0.803162 1.095116 0.006491 -0.002499 -987268.000000 1 0 0
-7.769394 -5.538450 -7.556066 12.170950 0.619301 2.240595 0.013978 -0.010668 598418.000000 1 0 0
9.275906 -1.606250 6.982434 11.720788 -0.171463 0.932621 0.008660 -0.007884 2160990.000000 1 0 0
-4.097094 -0.413350 -4.823366 6.342073 0.100548 2.434932 0.010822 -0.007964 -521195.000000 1 0 0
9.051306 1.170950 -4.616266 10.227765 0.128654 2.039070 0.003472 0.000434 -3743110.000000 1 0 0
-2.111994 -10.642650 10.546634 15.131358 1.374895 0.799584 -0.000043 -0.006511 295735.000000 1 0 0
-12.853694 0.133650 -2.653866 13.125483 -0.010397 1.774392 0.006329 -0.004272 -1052660.000000 1 0 0
-9.832694 -5.144050 -5.984466 12.607813 0.482002 2.065378 0.009700 -0.008279 -1060510.000000 1 0 0
-5.529394 8.341350 -0.157366 10.008850 -0.985413 1.586520 0.006531 -0.003121 169821.000000 1 0 0
6.255806 9.586350 0.408434 11.454259 0.992614 1.535131 0.007767 -0.001157 496340.000000 1 0 0
-0.671794 -12.089150 0.057634 12.107938 1.515283 1.566036 0.008000 -0.001757 -98423.100000 1 0 0
6.102506 4.665150 2.371034 8.039031 0.652694 1.271403 -0.000850 0.000360 162965.000000 1 0 0
3.619706 -7.410150 -8.177166 11.613726 -1.116408 2.351944 0.003465 -0.004921 882763.000000 1 0 0
-6.649294 -9.904250 4.530034 12.760426 0.979553 1.207875 0.004629 0.001279 -1688740.000000 1 0 0
-0.104194 6.626850 -9.236766 11.368546 -1.555075 2.519197 0.007258 -0.003216 -3511740.000000 1 0 0
-17.402094 -2.777550 4.266634 18.131515 0.158275 1.333253 0.032926 -0.009153 216335.000000 1 0 0
-8.377994 0.896450 -9.066566 12.377278 -0.106595 2.392808 0.005608 -0.006181 392865.000000 1 0 0
-10.129694 -5.869150 -11.745666 16.583675 0.525135 2.357836 0.015868 -0.008890 -1048450.000000 1 0 0
2.210706 9.406950 6.502834 11.647523 1.339977 0.978459 0.003052 0.003479 -411064.000000 1 0 0
-11.332494 1.590050 -1.252366 11.511824 -0.139399 1.679802 0.002499 -0.003124 -1417860.000000 1 0 0
-6.131394 -5.294550 -3.095866 8.672406 0.712288 1.935828 0.014162 -0.003814 739417.000000 1 0 0
-7.111494 -8.333350 1.459634 11.052086 0.864345 1.438341 0.006991 0.000627 45231.500000 1 0 0
-0.078094 10.782850 -7.870866 13.350149 -1.563554 2.201324 0.002125 0.001621 -326619.000000 1 0 0
-2.952494 9.312150 -4.299466 10.673274 -1.263764 1.985398 0.004326 -0.002789 -237605.000000 1 0 0
3.454706 -4.733650 9.318834 11.008320 -0.940337 0.561370 0.011026 -0.004707 -678402.000000 1 0 0
-8.942094 1.551650 -0.393666 9.084252 -0.171811 1.614145 0.002081 -0.002695 -1152830.000000 1 0 0
2.526406 3.485050 -10.270766 11.136289 0.943536 2.744732 0.007694 -0.004442 681901.000000 1 0 0
-13.694094 0.382450 1.110934 13.744404 -0.027921 1.489880 0.004838 -0.001928 -481332.000000 1 0 0
9.437606 -12.622850 -5.044866 16.548577 -0.928794 1.880579 0.033931 -0.004954 -1190410.000000 1 0 0
-4.772394 9.451450 -8.327766 13.470610 -1.103206 2.237269 -0.002242 -0.000270 96911.400000 1 0 0
-2.302094 7.118750 8.463934 11.296656 -1.258026 0.723879 0.005564 -0.001379 -1604290.000000 1 0 0
-10.717294 -1.251850 -4.489566 11.686904 0.116280 1.965087 0.005363 -0.005657 -2681650.000000 1 0 0
2.715906 -7.034650 9.680834 12.271145 -1.202351 0.661762 0.005269 -0.003393 -1842510.000000 1 0 0
-16.216094 -6.659250 3.397134 17.856311 0.389659 1.379381 0.021212 -0.002905 -20223.600000 1 0 0
-10.756994 -0.088550 6.197834 12.415068 0.008232 1.048099 -0.000447 -0.000033 -1376390.000000 1 0 0
-8.443594 9.906950 9.289434 15.991733 -0.864974 0.950975 0.004961 -0.007724 -593181.000000 1 0 0
0.126306 -5.952950 -3.839266 7.084739 -1.549582 2.143500 0.006483 -0.000987 568451.000000 1 0 0
4.892006 1.536650 -2.976666 5.929043 0.304355 2.096762 0.001290 0.000926 1287850.000000 1 0 0
0.359306 5.373750 3.926334 6.665013 1.504033 0.940856 0.002053 0.001596 -1679350.000000 1 0 0
5.977006 -11.269050 -1.537866 12.848390 -1.083132 1.690777 0.009494 -0.004340 -643443.000000 1 0 0
6.372106 -13.438650 5.268534 15.778419 -1.128031 1.230350 0.020295 -0.006095 -258256.000000 1 0 0
8.252506 -8.252150 -5.919166 13.085807 -0.785377 2.040178 0.011954 -0.007101 781967.000000 1 0 0
-13.131394 -1.372650 -4.683466 14.009016 0.104154 1.911678 0.006363 -0.004126 -2604670.000000 1 0 0
-6.739294 -1.299050 -6.932866 9.755523 0.190422 2.361233 0.014460 -0.009729 -910961.000000 1 0 0
-5.658694 12.797350 -4.698866 14.760499 -1.154467 1.894775 0.004481 0.001973 450400.000000 1 0 0
-4.342394 6.935550 -6.781266 10.627502 -1.011402 2.262807 0.004826 -0.002507 -2941850.000000 1 0 0
-9.467494 -3.618850 -8.052066 12.944701 0.365102 2.242136 0.008440 -0.007386 669914.000000 1 0 0
-2.257694 -6.405650 9.128734 11.378195 1.231937 0.639657 0.001164 -0.001774 -933407.000000 1 0 0
7.572806 -6.090550 10.060634 13.987800 -0.677337 0.768083 0.014377 -0.006402 -307826.000000 1 0 0
9.792706 -5.007550 12.165534 16.400393 -0.472690 0.735071 0.028287 -0.007659 -1147290.000000 1 0 0
-6.520694 2.894750 -8.975066 11.465201 -0.417797 2.469964 0.004091 -0.007360 621800.000000 1 0 0
7.399006 5.430750 8.755434 12.684478 0.633172 0.808965 -0.000983 0.001191 876786.000000 1 0 0
12.834106 3.335350 11.257434 17.394501 0.254257 0.866912 0.031094 -0.005263 -612318.000000 1 0 0
-7.573094 -7.192750 -3.925866 11.157949 0.759645 1.930337 0.013102 -0.006591 -1067470.000000 1 0 0
2.291906 1.416550 -5.820666 6.414016 0.553598 2.708070 0.006250 -0.002007 94618.400000 1 0 0
12.877406 6.898450 -7.102966 16.244024 0.491800 2.023353 0.012263 -0.001022 197255.000000 1 0 0
0.701406 -7.700350 1.026534 7.800072 -1.479959 1.438808 0.012679 -0.003707 2365660.000000 1 0 0
-10.160894 -6.074550 -8.443766 14.541014 0.538827 2.190368 0.013074 -0.010454 -843512.000000 1 0 0
-6.749894 0.298150 3.141634 7.451163 -0.044142 1.135554 0.002138 -0.000726 1796280.000000 1 0 0
10.827306 -7.978650 1.265334 13.508904 -0.635065 1.476992 0.003919 -0.003971 293474.000000 1 0 0
6.340206 1.008150 10.527634 12.330680 0.157689 0.547602 0.006987 -0.002525 -303385.000000 1 0 0
-12.976494 5.250250 1.798734 14.113468 -0.384463 1.443001 0.003112 -0.002323 -294509.000000 1 0 0
2.080506 7.348950 3.568734 8.430388 1.294913 1.133692 -0.001211 0.000983 29213.700000 1 0 0
10.138206 -9.481850 -0.846366 13.907014 -0.751957 1.631693 0.011668 -0.007269 839755.000000 1 0 0
6.799006 -11.622850 -9.043966 16.220679 -1.041502 2.162237 0.002767 -0.000484 -334644.000000 1 0 0
10.319006 3.599050 11.874634 16.138215 0.335586 0.743937 0.011956 -0.003125 438976.000000 1 0 0
-11.186294 -3.112250 -1.838466 11.755817 0.271357 1.727829 0.006573 -0.001801 301942.000000 1 0 0
12.471306 0.998150 6.915734 14.295355 0.079866 1.065833 0.015673 -0.007606 -983350.000000 1 0 0
-9.550894 9.084050 3.014734 13.521397 -0.760351 1.345946 0.004002 -0.006672 1744760.000000 1 0 0
-6.647494 7.685450 -8.854566 13.478080 -0.857689 2.287576 -0.001450 -0.003837 -696913.000000 1 0 0
8.545506 5.624150 12.107834 15.851069 0.582077 0.701539 0.014693 -0.000508 -1378050.000000 1 0 0
1.332306 4.979350 -2.589466 5.768388 1.309354 2.036337 0.000692 -0.001516 512109.000000 1 0 0
1.238406 0.498150 9.524534 9.617617 0.382446 0.139241 0.008716 -0.003091 744250.000000 1 0 0
2.520106 12.679850 -3.972666 13.524482 1.374604 1.868932 0.000472 -0.000900 463295.000000 1 0 0
2.207106 0.684250 12.860834 13.066774 0.300625 0.177776 0.010340 -0.009663 -532951.000000 1 0 0
-12.317394 -1.891750 0.844334 12.490389 0.152393 1.503146 0.001461 -0.002096 -208915.000000 1 0 0
3.324406 8.777350 -1.293766 9.474565 1.208744 1.707776 0.002287 -0.001598 217202.000000 1 0 0
3.761706 -2.759050 -5.819666 7.458639 -0.632829 2.465875 0.007142 -0.004321 -889413.000000 1 0 0
-7.815694 -7.258750 9.323834 14.167159 0.748469 0.852464 0.006029 -0.001810 -137233.000000 1 0 0
-7.008494 10.908150 -3.562366 13.446084 -0.999711 1.838935 0.008886 -0.000598 1207220.000000 1 0 0
0.278306 0.494050 2.594234 2.655483 1.057788 0.215194 0.005179 -0.000074 -2006080.000000 1 0 0
-7.115494 4.531350 -1.838366 8.633827 -0.567060 1.785365 0.008220 -0.004917 -667497.000000 1 0 0
-6.638994 -3.792950 -5.950066 9.688446 0.519060 2.232093 0.015146 -0.007169 563143.000000 1 0 0
3.035006 -6.075750 13.466134 15.081869 -1.107527 0.467120 0.009244 -0.005171 -468803.000000 1 0 0
-5.515194 -0.599850 -11.659066 12.911661 0.108337 2.697468 0.012777 -0.010129 -687437.000000 1 0 0
11.904106 2.533850 -0.746666 12.193672 0.209725 1.632069 0.005885 -0.002718 -1419300.000000 1 0 0
6.054206 -10.949550 10.734234 16.485443 -1.065715 0.861719 0.015575 0.000339 233334.000000 1 0 0
-8.218494 6.411450 -10.488966 14.787452 -0.662504 2.359323 -0.000963 -0.005860 143441.000000 1 0 0
2.862406 7.967150 11.222234 14.057290 1.225882 0.646294 0.011232 -0.002708 869475.000000 1 0 0
-6.191594 -9.972450 -0.457366 11.747118 1.015172 1.609740 0.008036 0.005819 -57415.800000 1 0 0
11.283806 4.312550 6.090534 13.528377 0.365059 1.103802 0.004957 -0.004779 463343.000000 1 0 0
-7.957494 10.617950 1.294634 13.331866 -0.927655 1.473535 0.006447 -0.006759 768947.000000 1 0 0
4.305606 -2.685550 -3.537866 6.186026 -0.557688 2.179632 0.009565 -0.002907 -4105750.000000 1 0 0
6.446906 6.513250 6.269734 11.103810 0.790517 0.970791 0.000622 0.002195 -3937790.000000 1 0 0
-0.393994 10.253250 -10.184466 14.457099 -1.532389 2.352460 0.000323 -0.002022 55521.100000 1 0 0
14.214106 6.582550 -2.441466 15.853439 0.433694 1.725414 0.018493 -0.000905 924701.000000 1 0 0
1.423506 9.517050 -6.177466 11.435108 1.422323 2.141494 0.002702 -0.001426 1783380.000000 1 0 0
0.642606 7.376950 7.299234 10.397652 1.483906 0.792583 0.001201 0.002169 468218.000000 1 0 0
12.274306 6.325450 1.886534 13.936604 0.475845 1.435014 0.009066 -0.002904 -1988180.000000 1 0 0
-6.908694 6.621950 -3.081266 10.053580 -0.764209 1.882294 0.005928 -0.004068 849425.000000 1 0 0
1.026606 9.848350 11.183534 14.937047 1.466930 0.724681 0.011107 -0.001473 119734.000000 1 0 0
-3.478894 13.593550 -11.035266 17.851174 -1.320251 2.237223 -0.000885 -0.004322 -104754.000000 1 0 0
-10.184594 -5.515550 -2.302366 11.808816 0.496339 1.767023 0.000762 -0.003402 176153.000000 1 0 0
-4.085494 3.825150 -12.463866 13.662759 -0.752499 2.719542 0.001005 -0.009415 -1067420.000000 1 0 0
-3.239594 8.388550 2.415434 9.311126 -1.202249 1.308381 0.004852 -0.001916 -2317800.000000 1 0 0
7.176506 8.959150 7.111234 13.503269 0.895431 1.016164 0.001502 0.001667 171356.000000 1 0 0
-1.369394 -2.240450 -8.180366 8.591463 1.022172 2.830993 0.009447 -0.010028 -1181490.000000 1 0 0
0.772806 -1.311250 4.927334 5.157056 -1.038233 0.299599 0.007590 -0.001781 720969.000000 1 0 0
2.822006 -8.725050 -6.114466 11.021656 -1.257979 2.158881 0.002160 -0.003994 578357.000000 1 0 0
5.219406 3.921350 8.923734 11.056773 0.644334 0.631601 0.003250 0.001019 -627380.000000 1 0 0
6.340306 -7.416650 -2.760666 10.140387 -0.863479 1.846521 0.010132 -0.006405 1000420.000000 1 0 0
1.638306 2.243550 -8.204766 8.662317 0.940069 2.815119 0.010028 -0.005301 168283.000000 1 0 0
-5.354594 10.904350 -0.777466 12.172961 -1.114333 1.634708 0.001976 -0.004036 202999.000000 1 0 0
-5.470594 3.432450 -3.342366 7.271899 -0.560349 2.048372 0.004914 -0.003782 -687673.000000 1 0 0
2.125406 13.693750 -6.448966 15.284806 1.416815 2.006358 -0.006719 0.000710 493421.000000 1 0 0
-5.262294 -2.566850 2.720934 6.456310 0.453825 1.135766 0.001621 -0.000615 488635.000000 1 0 0
10.387406 -3.367650 -1.850966 11.075439 -0.313513 1.738708 0.004509 -0.000561 111065.000000 1 0 0
2.245706 -3.246350 6.984734 8.022998 -0.965620 0.514398 0.007967 -0.003892 -2103820.000000 1 0 0
-2.984494 9.894750 -11.724866 15.629644 -1.277850 2.419113 -0.004739 -0.002506 -2954630.000000 1 0 0
0.600606 -2.114550 9.332134 9.587533 -1.294050 0.231334 0.007716 -0.002958 669576.000000 1 0 0
9.447006 2.662350 5.004434 11.017186 0.274695 1.099279 0.002172 -0.001949 92919.000000 1 0 0
13.389006 2.129750 -4.925266 14.424270 0.157746 1.919263 0.007302 0.002102 -1523450.000000 1 0 0
-6.538194 3.787750 7.706834 10.793069 -0.525080 0.775524 0.002921 -0.000354 -523997.000000 1 0 0
10.613306 0.093650 1.798734 10.765058 0.008824 1.402919 0.005234 -0.000807 1765930.000000 1 0 0
15.486606 6.589850 -4.590366 17.445130 0.402310 1.837063 0.025729 -0.002987 -178480.000000 1 0 0
8.116006 -4.881650 -9.342666 13.303588 -0.541510 2.349373 0.011901 -0.003647 1358220.000000 1 0 0
4.462406 5.644750 -2.211066 7.527621 0.901850 1.868920 0.000996 -0.001038 32595.300000 1 0 0
-1.854894 -10.505550 1.449134 10.766020 1.396034 1.435784 0.010633 -0.001814 -839478.000000 1 0 0
-2.837394 12.240250 -12.943666 18.039208 -1.343011 2.371045 -0.007795 -0.007772 -1706090.000000 1 0 0
8.350306 4.217050 -9.680866 13.462180 0.467654 2.373325 0.005113 -0.000530 -235623.000000 1 0 0
4.206606 7.583350 -8.954566 12.465431 1.064340 2.372227 0.009628 -0.004682 -2369380.000000 1 0 0
-1.874694 -5.053050 -2.467666 5.927661 1.215535 2.000165 0.010346 -0.003088 -413563.000000 1 0 0
-3.283194 -9.057250 7.130334 11.985608 1.223035 0.933645 0.006164 -0.001635 -1087370.000000 1 0 0
1.076406 7.374650 -1.447466 7.592053 1.425860 1.762626 0.000288 -0.001085 1107970.000000 1 0 0
0.389906 -0.689150 -2.254766 2.389754 -1.055920 2.803877 0.007374 0.000064 -2392310.000000 1 0 0
4.238706 -6.644950 7.536434 10.905037 -1.002986 0.807791 0.008339 -0.003784 -150807.000000 1 0 0
-14.024494 3.800750 5.871834 15.671968 -0.264651 1.186754 -0.005079 -0.003536 -1001890.000000 1 0 0
4.273206 6.398450 12.596634 14.760612 0.981975 0.548332 0.010656 -0.003626 -1421930.000000 1 0 0
8.242306 10.179350 -7.103066 14.899944 0.890164 2.067713 0.022388 -0.008485 -457744.000000 1 0 0
12.453706 5.257750 9.481034 16.511473 0.399483 0.959159 0.025655 -0.009770 186701.000000 1 0 0
7.493606 4.124950 0.334234 8.560436 0.503198 1.531742 0.003279 0.001224 -2435890.000000 1 0 0
-10.982094 -7.543350 -1.020866 13.362286 0.601864 1.647270 0.001927 -0.003653 -1998020.000000 1 0 0
10.479306 6.828450 0.229534 12.509847 0.577508 1.552447 0.008594 -0.002349 -1270450.000000 1 0 0
14.670006 3.586350 4.044934 15.634337 0.239766 1.309098 0.024157 -0.008340 773828.000000 1 0 0
2.183406 5.599250 8.214034 10.177879 1.198987 0.631661 0.002633 0.001213 -81721.100000 1 0 0
4.345406 0.066150 11.789734 12.565221 0.015222 0.353164 0.013242 -0.004893 -1331440.000000 1 0 0
-1.451094 -1.537350 -0.523666 2.177922 0.814253 1.813618 0.008468 -0.003984 -763809.000000 1 0 0
3.155606 -5.167250 -9.406666 11.186763 -1.022551 2.569694 0.001526 -0.003643 -360067.000000 1 0 0
-4.091394 -5.396050 -1.327666 6.900692 0.922055 1.764400 0.007942 -0.001871 -1363.560000 1 0 0
-1.023194 -8.476150 8.305634 11.911155 1.450663 0.799174 0.002385 0.001119 -96418.600000 1 0 0
3.913706 8.566150 -5.987266 11.159900 1.142235 2.137078 0.005368 -0.002029 -311693.000000 1 0 0
-14.534294 -1.754850 -2.705066 14.887665 0.120157 1.753510 0.010170 -0.004147 -1055260.000000 1 0 0
8.952006 -10.582850 -6.567266 15.338321 -0.868689 2.013253 0.011086 -0.004811 679505.000000 1 0 0
14.860006 6.107650 1.668934 16.152663 0.389964 1.467289 0.016531 -0.005101 -1461610.000000 1 0 0
-5.781594 0.465050 -8.557066 10.337624 -0.080264 2.545899 0.010544 -0.010940 208848.000000 1 0 0
-8.137094 -4.544150 -12.952966 15.957472 0.509307 2.517884 0.011646 -0.007773 459936.000000 1 0 0
0.829406 -10.479550 12.021934 15.969840 -1.491816 0.718506 -0.001025 -0.003233 -394579.000000 1 0 0
0.259306 11.747050 3.296734 12.203642 1.548726 1.297254 0.004251 -0.001194 -567809.000000 1 0 0
5.113106 -13.108550 -3.751066 14.561883 -1.198889 1.831329 0.002989 -0.000274 826060.000000 1 0 0
-7.507394 1.556650 -6.898866 10.313994 -0.204452 2.303503 0.005598 -0.006809 567501.000000 1 0 0
1.447006 2.801250 4.155634 5.216333 1.093991 0.649050 0.001330 0.001901 -2249360.000000 1 0 0
17.281506 5.395850 2.323334 18.252768 0.302641 1.443163 0.028867 -0.003288 162244.000000 1 0 0
2.252306 -8.218150 -3.577866 9.241861 -1.303300 1.968321 0.004932 -0.003572 745796.000000 1 0 0
-0.298794 -9.525750 -0.466666 9.541853 1.539440 1.619723 0.012547 -0.000767 -691809.000000 1 0 0
0.743106 11.942350 -5.617566 13.218509 1.508652 2.009733 -0.001731 0.001780 -842499.000000 1 0 0
6.148306 -5.023850 7.863934 11.175070 -0.685088 0.790200 0.010152 -0.005145 -953301.000000 1 0 0
-6.105994 -1.856250 -9.351666 11.321770 0.295127 2.542752 0.013080 -0.010848 -769060.000000 1 0 0
2.160606 -1.308950 11.224534 11.505292 -0.544692 0.221370 0.008465 -0.003798 72322.400000 1 0 0
17.917206 2.270250 -5.794566 18.967269 0.126036 1.881263 0.028233 0.005835 -478360.000000 1 0 0
-8.921494 4.873350 7.756934 12.787206 -0.499958 0.918998 -0.004341 -0.004620 -759503.000000 1 0 0
11.474406 -7.088750 -4.720866 14.289819 -0.553396 1.907487 0.019551 -0.007660 465574.000000 1 0 0
10.917306 0.500950 8.970234 14.138728 0.045854 0.883507 0.011081 -0.004056 40741.500000 1 0 0
-8.525194 -7.242650 -1.544666 11.292515 0.704238 1.708013 0.007874 -0.004020 -1203920.000000 1 0 0
10.290906 -10.467750 -3.283466 15.041864 -0.793917 1.790857 0.026155 -0.006801 387369.000000 1 0 0
7.630206 -13.881450 -3.782666 16.285676 -1.068207 1.805207 0.023757 -0.004146 -623955.000000 1 0 0
1.688306 -1.163250 -11.677566 11.856183 -0.603308 2.967792 0.012136 -0.008040 16636.100000 1 0 0
-11.852994 -2.639250 -6.422466 13.737073 0.219091 2.057289 0.009190 -0.007993 -90373.800000 1 0 0
2.692706 -12.026150 -6.356966 13.866865 -1.350525 2.047022 -0.000740 0.000663 421696.000000 1 0 0
-5.360794 1.495850 1.109434 5.675079 -0.272114 1.374037 0.002614 -0.001846 827683.000000 1 0 0
0.008306 6.872250 -3.967966 7.935530 1.569588 2.094424 0.004889 -0.003966 743738.000000 1 0 0
5.477306 -11.789650 3.667634 13.507341 -1.135879 1.295815 0.011127 -0.006199 -1215920.000000 1 0 0
-4.509994 -9.135450 1.147734 10.252501 1.112217 1.458614 0.007027 0.000337 -1438720.000000 1 0 0
7.017506 -6.108250 -4.923166 10.525857 -0.716236 2.057507 0.009314 -0.006898 13093.900000 1 0 0
-7.138694 -5.954950 2.210934 9.555658 0.695237 1.337306 0.005271 -0.001683 31844.800000 1 0 0
-6.108594 -0.720750 7.107434 9.399469 0.117446 0.713382 0.001490 0.000829 -709189.000000 1 0 0
4.234006 -4.959550 3.187134 7.258221 -0.864154 1.116192 0.010809 -0.003554 682599.000000 1 0 0
-2.526894 10.548550 -8.891466 14.025522 -1.335678 2.257445 -0.003203 -0.000165 -412641.000000 1 0 0
-2.428094 -4.794450 2.801834 6.060748 1.102011 1.090218 0.007305 -0.001889 -461962.000000 1 0 0
15.173106 5.074150 6.260534 17.180350 0.322726 1.197807 0.036207 -0.015431 97000.100000 1 0 0
6.857506 0.378050 0.055934 6.868147 0.055074 1.562652 0.006002 -0.000441 3837370.000000 1 0 0
-9.818294 9.283550 0.432834 13.519266 -0.757411 1.538775 0.007628 -0.005678 -2673160.000000 1 0 0
7.163406 10.565250 -2.635066 13.033897 0.974978 1.774370 0.005576 -0.000002 -856088.000000 1 0 0
1.658006 -4.221150 -5.427766 7.073028 -1.196525 2.445556 0.006800 -0.004523 113417.000000 1 0 0
0.957706 -8.070650 -7.890866 11.327769 -1.452683 2.341437 0.004007 -0.003941 1192250.000000 1 0 0
-10.492194 0.187050 -10.446866 14.807367 -0.017826 2.353950 0.008530 -0.008630 -2993100.000000 1 0 0
5.913506 -2.492550 0.528934 6.439109 -0.398903 1.488560 0.009069 -0.001720 -169868.000000 1 0 0
-3.332894 5.413450 -1.100266 6.451683 -1.018935 1.742173 0.006751 -0.004337 575849.000000 1 0 0
-0.384494 4.520750 -4.979666 6.736623 -1.485950 2.402668 0.005982 -0.003657 -974244.000000 1 0 0
4.015806 -9.526950 10.058234 14.424200 -1.171876 0.799149 0.008057 -0.001262 421938.000000 1 0 0
7.274206 -13.387050 -0.696466 15.251631 -1.073053 1.616477 0.023256 -0.005887 898949.000000 1 0 0
13.000006 -0.008050 0.450334 13.007806 -0.000619 1.536169 0.005481 -0.002892 606623.000000 1 0 0
9.267206 2.496950 -0.498466 9.610637 0.263189 1.622686 0.003921 -0.000429 -154722.000000 1 0 0
-0.803394 -5.772450 4.460634 7.339201 1.432507 0.917532 0.006563 -0.002259 1240640.000000 1 0 0
11.507406 -3.757450 3.384934 12.569670 -0.315610 1.298137 0.009614 -0.006966 -2754820.000000 1 0 0
1.602406 -8.056050 11.728734 14.318898 -1.374452 0.610941 0.005261 -0.003581 368345.000000 1 0 0
9.436306 -5.910750 -5.877766 12.590829 -0.559594 2.056498 0.008975 -0.006875 -705229.000000 1 0 0
3.210806 6.377850 -0.201666 7.143313 1.104408 1.599031 -0.000290 0.001111 -1344410.000000 1 0 0
6.472606 -1.422250 11.506234 13.278210 -0.216296 0.522548 0.008619 -0.001089 643640.000000 1 0 0
-5.022394 -7.506050 -3.809666 9.801978 0.981102 1.969976 0.011443 -0.002154 -225129.000000 1 0 0
-3.409794 -8.363550 -5.690866 10.675280 1.183672 2.133043 0.013014 -0.000171 405558.000000 1 0 0
9.835006 5.299750 2.241134 11.394621 0.494255 1.372822 0.004673 -0.001871 -203475.000000 1 0 0
8.779006 -1.408450 0.401134 8.900314 -0.159078 1.525711 0.004393 -0.001135 923132.000000 1 0 0
-4.019394 9.572950 9.218934 13.884727 -1.173279 0.844691 0.003689 -0.002538 54666.400000 1 0 0
-14.416594 -3.563550 -6.167866 16.080411 0.242326 1.964449 0.014558 -0.007399 413736.000000 1 0 0
10.679306 6.235350 -5.969466 13.731777 0.528476 2.020523 0.005766 -0.005676 -943629.000000 1 0 0
-1.766494 4.642550 2.685734 5.646853 -1.207212 1.075132 0.002699 0.000109 379593.000000 1 0 0
7.011106 -3.741650 2.602534 8.362340 -0.490223 1.254319 0.009107 -0.005514 -2136060.000000 1 0 0
8.362206 -11.121050 -1.575466 14.003083 -0.926064 1.683544 0.018824 -0.007606 -1983000.000000 1 0 0
4.526706 0.420150 1.787134 4.884818 0.092551 1.196245 0.003955 0.000711 593709.000000 1 0 0
-10.882594 2.297550 3.815534 11.758737 -0.208066 1.240329 -0.003238 -0.001146 -102046.000000 1 0 0
-0.937994 -3.037450 4.308434 5.354301 1.271277 0.635680 0.008730 -0.002894 333132.000000 1 0 0
8.697606 -8.769250 -8.473166 14.978072 -0.789500 2.172084 0.011519 -0.003631 -420951.000000 1 0 0
12.060506 -4.725250 1.021834 12.993381 -0.373413 1.492072 0.002634 -0.003791 -31967.300000 1 0 0
2.960106 4.759450 3.539634 6.628997 1.014398 1.007516 -0.002403 0.000039 -100179.000000 1 0 0
6.131106 7.477950 1.988734 9.872450 0.884044 1.367966 0.001316 0.000309 -198730.000000 1 0 0
-1.690394 -1.347050 -10.337466 10.561021 0.672839 2.935471 0.012525 -0.011194 824908.000000 1 0 0
-1.109094 -8.699950 5.802034 10.515837 1.443997 0.986344 0.001864 -0.003059 -237077.000000 1 0 0
-4.260294 -0.231550 2.249234 4.823150 0.054297 1.085646 0.003074 -0.000057 809050.000000 1 0 0
-8.435794 6.219850 -8.041466 13.210387 -0.635334 2.225246 -0.002053 -0.003635 -446647.000000 1 0 0
6.496506 11.104550 -9.361666 15.910890 1.041456 2.199851 0.017768 -0.011247 100393.000000 1 0 0
-11.190494 -5.837950 3.155534 13.010235 0.480847 1.325811 0.003793 0.000117 730779.000000 1 0 0
1.568806 -6.349650 2.997334 7.194666 -1.328577 1.141089 0.007105 -0.003690 1246140.000000 1 0 0
10.172606 2.204550 7.285334 12.705041 0.213414 0.960121 0.006930 -0.002054 -670454.000000 1 0 0
-4.127994 -2.521450 -10.568466 11.622844 0.548335 2.712357 0.013985 -0.011549 -2386880.000000 1 0 0
-8.263794 11.821150 5.827434 15.555992 -0.960696 1.186820 0.007990 -0.008118 -537681.000000 1 0 0
6.874706 5.992950 -2.979366 9.594460 0.716980 1.886547 0.005688 -0.000354 -2632090.000000 1 0 0
3.807606 -9.797150 -2.283566 10.756239 -1.200118 1.784726 0.007069 -0.006340 -1203660.000000 1 0 0
8.493306 -12.885650 -7.369366 17.102157 -0.988030 2.016289 0.018148 -0.003087 860395.000000 1 0 0
-1.371394 9.568650 3.698734 10.349900 -1.428444 1.205347 -0.002409 -0.000372 221484.000000 1 0 0
0.508006 -13.270250 4.700734 14.087388 -1.532533 1.230588 0.010543 -0.004684 -887773.000000 1 0 0
-11.195594 -6.992350 -5.041366 14.129743 0.558285 1.935627 0.008282 -0.011086 261644.000000 1 0 0
3.698106 10.349250 -3.381666 11.498636 1.227606 1.869302 0.005816 -0.001834 -633320.000000 1 0 0
11.702206 -8.023750 -7.285866 15.950110 -0.601038 2.045181 0.043825 -0.010987 265439.000000 1 0 0
11.839506 -4.788550 -5.845566 14.045453 -0.384341 2.000047 0.018681 -0.004329 82097.200000 1 0 0
1.229106 -10.208750 -2.685366 10.627345 -1.450976 1.826250 0.004552 0.000163 -895699.000000 1 0 0
2.270806 -11.976350 -3.861166 12.786638 -1.383413 1.877554 0.002266 0.001330 -2273320.000000 1 0 0
-7.672694 -5.720950 7.311934 12.044247 0.640695 0.918404 0.003286 -0.000203 -2304090.000000 1 0 0
-7.151894 -0.948950 9.489734 11.920787 0.131915 0.650029 0.002919 0.001471 -176568.000000 1 0 0
16.188906 2.630350 -7.615066 18.082827 0.161071 2.005478 0.034614 0.005074 81883.900000 1 0 0
-1.983094 6.304450 -5.573866 8.645619 -1.266041 2.271432 0.005056 -0.002799 -1070370.000000 1 0 0
7.735806 1.272850 8.391034 11.483567 0.163079 0.751451 0.006127 -0.002445 -663014.000000 1 0 0
7.926306 8.371250 -3.782366 12.133031 0.812693 1.887821 0.007080 -0.000820 -1079730.000000 1 0 0
8.087406 0.574550 3.938334 9.013696 0.070923 1.118616 0.004537 -0.002636 286458.000000 1 0 0
-7.027994 5.855650 5.403534 10.624478 -0.694653 1.037247 0.004459 -0.005914 486120.000000 1 0 0
-6.123394 -2.031450 -4.453866 7.839621 0.320327 2.175019 0.010485 -0.007163 -1420250.000000 1 0 0
-15.205294 -2.143850 3.245334 15.694880 0.140070 1.362517 0.008004 -0.003577 53749.800000 1 0 0
1.006306 1.263750 -10.496366 10.619953 0.898324 2.988884 0.012511 -0.008953 666556.000000 1 0 0
1.541606 -9.096350 9.403734 13.173851 -1.402916 0.775861 0.005017 -0.005191 -840517.000000 1 0 0
-0.368494 -6.907750 -1.408266 7.059462 1.517502 1.771630 0.011403 -0.001644 617561.000000 1 0 0
-0.420594 -10.122250 -8.473366 13.207375 1.529269 2.267331 0.004491 -0.001362 100117.000000 1 0 0
-4.412294 6.532950 3.842534 8.769997 -0.976778 1.117262 0.007002 -0.002883 228073.000000 1 0 0
10.887706 -1.116850 -8.633866 13.940342 -0.102221 2.238703 0.015224 0.000482 145614.000000 1 0 0
3.142606 -1.039650 6.204734 7.032466 -0.319491 0.490073 0.003897 -0.002239 1047860.000000 1 0 0
1.955606 -12.286150 6.742334 14.150369 -1.412949 1.074152 0.012660 -0.004508 154563.000000 1 0 0
2.794506 -4.950950 -1.379566 5.850160 -1.056936 1.808855 0.017800 -0.003333 -509916.000000 1 0 0
-1.126694 9.627750 -1.628966 9.829371 -1.454301 1.737289 0.001916 -0.002826 -57268.800000 1 0 0
4.566606 -2.582150 2.687034 5.894196 -0.514621 1.097438 0.009191 -0.000556 -126192.000000 1 0 0
17.766306 6.674550 -2.522866 19.145655 0.359372 1.702953 0.012540 0.008281 -320159.000000 1 0 0
-7.152994 3.548550 -5.431166 9.656868 -0.460517 2.168100 0.005682 -0.007215 476074.000000 1 0 0
-13.943294 -6.202850 2.287534 15.431254 0.418573 1.422008 0.000139 -0.000467 2125230.000000 1 0 0
6.730806 -6.093050 3.212234 9.630548 -0.735707 1.230733 0.010269 -0.006120 140551.000000 1 0 0
-4.670694 2.026350 3.585434 6.227103 -0.409337 0.957240 0.005408 -0.001415 857886.000000 1 0 0
6.878706 -12.072650 -5.489166 14.939759 -1.052897 1.947030 0.014050 -0.001352 210371.000000 1 0 0
2.922106 -12.244650 3.326934 13.020701 -1.336534 1.312420 0.013616 -0.005732 -381910.000000 1 0 0
3.322206 11.287250 -6.098866 13.252744 1.284547 2.049013 0.002031 -0.001207 56052.600000 1 0 0
-5.672294 -8.383750 6.415834 11.984369 0.975961 1.005874 0.006201 -0.000387 59832.200000 1 0 0
-3.934594 6.597250 6.370234 9.979210 -1.033029 0.878443 0.007910 -0.001854 585554.000000 1 0 0
4.296206 4.293450 -6.993766 9.263037 0.785077 2.426479 0.005113 -0.001382 -1224910.000000 1 0 0
-0.330394 -2.832450 1.593834 3.266839 1.454675 1.061134 0.008587 0.000261 -1360540.000000 1 0 0
-13.176294 -0.928850 6.659434 14.792753 0.070378 1.103827 0.005175 -0.001414 -983084.000000 1 0 0
-0.483894 -9.215950 -6.002866 11.009191 1.518338 2.147495 0.005945 -0.002135 356905.000000 1 0 0
2.061406 -1.581450 -3.972866 4.747003 -0.654400 2.562429 0.009164 -0.001757 -1069820.000000 1 0 0
11.362206 -1.952550 1.101134 11.581221 -0.170184 1.475573 0.009916 -0.003823 1714330.000000 1 0 0
0.424606 -4.333650 -1.883566 4.744326 -1.473129 1.979058 0.012195 -0.002590 -1336670.000000 1 0 0
1.194106 -7.420050 -11.260566 13.538219 -1.411235 2.553069 0.002398 -0.004395 -2286140.000000 1 0 0
-4.386794 4.109150 -9.934166 11.611060 -0.752730 2.597462 0.000813 -0.006240 -48893.500000 1 0 0
-0.903094 5.875850 -1.906866 6.243183 -1.418294 1.881188 0.004025 -0.004338 -2288210.000000 1 0 0
-11.406294 1.702350 -3.966166 12.195573 -0.148153 1.902034 0.004337 -0.002946 -60013.500000 1 0 0
-1.736294 -11.348150 4.133634 12.201727 1.418971 1.225182 0.011277 -0.002313 -646469.000000 1 0 0
-3.523794 -5.619050 -9.776566 11.814063 1.010677 2.545501 0.012966 -0.007711 -2481990.000000 1 0 0
-12.913894 -3.844150 -8.368366 15.861138 0.289323 2.126571 0.017727 -0.004861 117057.000000 1 0 0
11.379406 4.453250 0.485434 12.229390 0.373021 1.531092 0.009810 -0.001794 -48213.700000 1 0 0
-8.939494 -2.381350 -2.982066 9.719984 0.260340 1.882623 0.006880 -0.005623 -204991.000000 1 0 0
-2.455494 -5.999150 -6.336666 9.064909 1.182293 2.344840 0.008012 -0.004512 -100176.000000 1 0 0
-0.025094 2.799750 -1.791466 3.323940 -1.561834 2.139996 0.003448 -0.001214 -317211.000000 1 0 0
8.046606 6.039450 -5.207866 11.328932 0.643859 2.048449 0.006068 -0.002799 -377684.000000 1 0 0
-9.859894 -0.876150 -0.989766 9.948104 0.088627 1.670454 0.001896 -0.003314 284612.000000 1 0 0
6.131506 0.584950 -8.875566 10.803388 0.095113 2.534928 0.005834 -0.001835 432699.000000 1 0 0
-4.180294 2.507450 7.906334 9.288288 -0.540292 0.552499 0.004084 0.001796 -433086.000000 1 0 0
-10.265394 -3.343750 1.388734 10.885199 0.314892 1.442868 0.003328 -0.003395 2572390.000000 1 0 0
-1.780094 -8.062650 -7.873366 11.408985 1.353500 2.332427 0.009301 -0.005960 582858.000000 1 0 0
-9.560094 -9.797150 4.173234 14.310675 0.797644 1.274880 0.004767 0.001047 -254035.000000 1 0 0
-1.118694 -10.714550 7.403634 13.071605 1.466764 0.968677 0.004905 -0.004617 -137039.000000 1 0 0
9.460306 3.780350 -3.852566 10.891772 0.380163 1.932334 0.003295 -0.000291 -640811.000000 1 0 0
12.823306 -0.790050 3.018034 13.197344 -0.061533 1.340070 0.009788 -0.003672 -170465.000000 1 0 0
6.413706 12.008950 -6.829166 15.231153 1.080260 2.035735 0.004382 -0.001356 448314.000000 1 0 0
-11.952494 -0.081350 -6.578366 13.643446 0.006806 2.073918 0.006333 -0.002156 428148.000000 1 0 0
-7.705594 -6.599550 -11.296966 15.183928 0.708234 2.409845 0.016344 -0.012450 -1643380.000000 1 0 0
4.158506 6.043250 6.601334 9.868721 0.968085 0.838048 -0.000708 0.002187 -2797710.000000 1 0 0
-4.254694 -1.358650 -7.439366 8.677126 0.309095 2.600903 0.010331 -0.012192 79073.600000 1 0 0
9.614506 9.329550 0.800434 13.420877 0.770357 1.511120 0.008262 0.000609 -1475050.000000 1 0 0
-9.000894 3.949250 4.813134 10.944356 -0.413469 1.115440 0.000498 -0.002674 135820.000000 1 0 0
-6.966194 7.813750 -12.205966 16.080054 -0.842680 2.432687 -0.005393 -0.009552 -991149.000000 1 0 0
11.217906 -3.543950 7.256734 13.822489 -0.305997 1.018087 0.007831 -0.006635 21146.500000 1 0 0
11.890406 6.897650 6.381134 15.155138 0.525660 1.136189 0.010954 -0.004645 76786.300000 1 0 0
-9.986694 -0.831550 -14.780566 17.857510 0.083074 2.545783 0.007586 0.002566 310414.000000 1 0 0
1.691206 -12.950050 12.048434 17.768757 -1.440937 0.825665 0.006886 0.001778 -227949.000000 1 0 0
3.013506 3.153550 13.035634 13.746049 0.808103 0.322902 0.009574 -0.007332 -224930.000000 1 0 0
-2.530994 -1.423950 10.998734 11.375664 0.512469 0.258145 0.008546 -0.002142 -868209.000000 1 0 0
2.588006 -9.992050 -8.278066 13.231221 -1.317359 2.246756 -0.006748 -0.000212 -1039710.000000 1 0 0
13.820506 3.616550 -7.558566 16.162232 0.255941 2.057447 0.005807 0.002795 -1972180.000000 1 0 0
7.395306 -1.522850 4.992334 9.051686 -0.203082 0.986591 0.007220 -0.003883 649113.000000 1 0 0
-1.102594 8.721450 10.112734 13.399508 -1.445040 0.715585 0.009416 -0.002104 89232.600000 1 0 0
-12.363094 -4.804950 0.958934 13.298616 0.370686 1.498626 0.001134 -0.001695 295139.000000 1 0 0
-4.896794 4.859650 -5.267966 8.680222 -0.781591 2.222942 0.005481 -0.005407 -442957.000000 1 0 0
-11.251594 0.272450 1.942534 11.421297 -0.024210 1.399885 -0.002950 -0.000975 -2872110.000000 1 0 0
-1.300894 2.201850 -3.932066 4.690587 -1.037155 2.564933 0.005235 -0.004695 971849.000000 1 0 0
3.106006 -9.772550 13.124634 16.655511 -1.263063 0.663234 0.008362 -0.002765 -1475060.000000 1 0 0
8.916206 4.740450 -1.512066 10.210629 0.488659 1.719430 0.004250 -0.002106 -1212360.000000 1 0 0
4.016906 2.205950 3.862734 5.993536 0.502203 0.870449 -0.001624 0.002882 277575.000000 1 0 0
-5.536694 -3.301150 7.488634 9.880901 0.537644 0.710724 0.002746 -0.002333 204685.000000 1 0 0
1.734606 -5.703150 7.677834 9.720284 -1.275538 0.660187 0.007170 -0.003436 -302386.000000 1 0 0
-5.851894 -6.341250 -9.676566 12.965031 0.825510 2.413371 0.016913 -0.010125 -1447620.000000 1 0 0
-11.789094 -5.842550 5.514434 14.266293 0.460113 1.173924 0.010184 -0.001815 -746459.000000 1 0 0
10.475406 6.243850 4.539334 13.012508 0.537509 1.214459 0.003492 -0.001268 -1413620.000000 1 0 0
1.456906 -3.789950 0.445634 4.084713 -1.203799 1.461481 0.015765 -0.002163 -902640.000000 1 0 0
8.755906 4.332450 6.954834 11.991903 0.459482 0.952116 0.000425 0.002394 559225.000000 1 0 0
-7.934494 12.114050 3.416634 14.878837 -0.990926 1.339098 0.007531 -0.006843 -161405.000000 1 0 0
-6.176994 13.235450 -7.065566 16.225123 -1.134141 2.021357 0.004475 -0.004602 430312.000000 1 0 0
4.515506 -6.857650 -1.060266 8.278968 -0.988495 1.699216 0.015336 -0.007298 -1760240.000000 1 0 0
-1.796494 -8.290750 10.877734 13.794529 1.357409 0.662342 -0.001888 -0.005463 -8575.950000 1 0 0
11.652106 8.793850 -5.743166 15.687171 0.646503 1.945617 0.020920 -0.009735 259291.000000 1 0 0
-3.405794 -2.944850 -1.869066 4.874934 0.712943 1.964275 0.009458 -0.004070 -1111010.000000 1 0 0
-2.062494 5.983850 4.798934 7.942929 -1.238872 0.922064 0.004187 0.000193 92372.700000 1 0 0
0.286706 -11.394350 -5.635066 12.714848 -1.545640 2.029948 -0.001212 -0.001888 -1570460.000000 1 0 0
-9.051394 6.130150 -1.549166 11.041123 -0.595301 1.711570 0.007450 -0.003678 -582611.000000 1 0 0
2.874406 -0.160350 3.833334 4.793994 -0.055728 0.644148 0.003339 -0.001609 743749.000000 1 0 0
-10.232894 3.903250 -0.920966 10.990708 -0.364406 1.654690 0.006435 -0.004024 -25485.300000 1 0 0
6.417506 5.405850 13.596634 15.977361 0.700042 0.552922 0.020408 -0.002418 -875255.000000 1 0 0
-8.770794 -1.715150 5.719734 10.610557 0.193115 1.001475 0.000411 -0.001808 152641.000000 1 0 0
12.966106 -1.782750 -1.522466 13.176343 -0.136636 1.686600 0.011245 -0.003171 -1388310.000000 1 0 0
5.319306 -5.505050 5.424034 9.381937 -0.802556 0.954354 0.007644 -0.005017 114832.000000 1 0 0
-9.072594 -1.233650 3.268034 9.721826 0.135147 1.227966 -0.000855 -0.000557 553011.000000 1 0 0
2.042306 5.494150 5.608734 8.112620 1.214901 0.807428 0.001555 0.001029 -1694870.000000 1 0 0
9.302606 3.182150 -7.369266 12.287011 0.329594 2.213998 0.002754 -0.001142 -1362990.000000 1 0 0
2.228706 -2.341550 -1.532966 3.577704 -0.810084 2.013603 0.010856 -0.001050 313832.000000 1 0 0
-6.296694 0.404850 -3.947466 7.442764 -0.064207 2.129841 0.005997 -0.004678 -2070370.000000 1 0 0
-4.120194 4.203150 5.005434 7.726373 -0.795365 0.866054 0.005527 -0.000980 874888.000000 1 0 0
-6.516394 1.809850 -12.087866 13.851189 -0.270910 2.631492 0.005503 -0.004506 -2400550.000000 1 0 0
-0.201294 2.951750 6.318234 6.976635 -1.502707 0.437939 0.003881 -0.000378 1668710.000000 1 0 0
-8.700994 9.411150 -2.140566 12.994578 -0.824587 1.736278 0.006950 -0.001967 1652370.000000 1 0 0
-1.337194 -3.726050 -6.243266 7.392557 1.226235 2.576491 0.006931 -0.004922 605300.000000 1 0 0
-3.095494 7.103050 -2.985766 8.303626 -1.159815 1.938607 0.005767 -0.002697 533140.000000 1 0 0
7.045906 -0.457050 -4.457366 8.349958 -0.064777 2.133907 0.004831 0.000247 -261198.000000 1 0 0
-5.139294 -10.829950 6.976534 13.869830 1.127720 1.043729 0.000493 -0.002303 574783.000000 1 0 0
9.782206 8.349650 -1.492966 12.947477 0.706554 1.686363 0.007667 -0.001230 427736.000000 1 0 0
13.730106 4.617150 -4.317566 15.115398 0.324400 1.860471 0.004421 -0.003991 703232.000000 1 0 0
4.714006 1.074150 -6.827366 8.365917 0.224038 2.525414 0.002920 -0.002315 -1140750.000000 1 0 0
9.011706 -4.761950 3.640534 10.823147 -0.486123 1.227741 0.005991 -0.006013 173269.000000 1 0 0
-8.855894 -3.237150 -0.726966 9.456980 0.350448 1.647743 0.002115 -0.002598 657561.000000 1 0 0
-8.635994 -4.240350 -10.405866 14.171909 0.456429 2.395372 0.009714 -0.012003 19471.500000 1 0 0
10.576506 -1.208250 10.680834 15.079873 -0.113746 0.783732 0.018054 -0.004880 74479.500000 1 0 0
2.217206 -11.484450 9.924234 15.339459 -1.380081 0.867187 0.005160 -0.004614 523144.000000 1 0 0
-6.439594 -10.561650 2.009634 12.532176 1.023264 1.409743 0.004562 0.002724 -757856.000000 1 0 0
-3.672194 -1.588850 6.708734 7.811310 0.408350 0.537778 0.004748 -0.000659 -1304920.000000 1 0 0
4.654606 -7.427650 3.834234 9.567481 -1.011005 1.158453 0.010341 -0.003505 221724.000000 1 0 0
11.578906 -9.421850 -5.249366 15.823974 -0.683044 1.908938 0.027421 -0.008254 909749.000000 1 0 0
11.414806 1.184750 11.555634 16.286010 0.103420 0.781946 0.015262 -0.001422 540943.000000 1 0 0
-10.289094 -3.510650 4.430234 11.739552 0.328815 1.183834 0.005824 -0.000895 1639880.000000 1 0 0
2.048906 8.804950 9.044134 12.787554 1.342166 0.785180 0.006612 -0.000481 130147.000000 1 0 0
6.634406 8.812950 4.042234 11.748323 0.925504 1.219549 0.002446 0.003339 627993.000000 1 0 0
-4.309494 3.753550 0.404634 5.729276 -0.716558 1.500112 0.007538 -0.005779 -712590.000000 1 0 0
4.906706 6.948750 4.303234 9.533033 0.955970 1.102460 0.000132 0.001399 -1031370.000000 1 0 0
-8.322694 13.160450 1.122934 15.611716 -1.006892 1.498805 0.006638 -0.005051 646127.000000 1 0 0
8.953606 8.306450 -9.125466 15.245927 0.747921 2.212487 0.012444 -0.010109 -128263.000000 1 0 0
7.077306 1.911050 6.023834 9.488254 0.263735 0.882952 0.001841 -0.000474 -237656.000000 1 0 0
11.532506 -6.216550 3.027134 13.446476 -0.494394 1.343725 0.002502 -0.004386 -35611.300000 1 0 0
11.413206 4.743750 -2.217766 12.557186 0.393913 1.748341 0.008030 -0.002811 -311646.000000 1 0 0
-3.907094 14.310650 -6.004166 16.003440 -1.304272 1.955387 0.001842 0.002654 320803.000000 1 0 0
7.127806 -2.984650 6.842034 10.321201 -0.396551 0.846097 0.009127 -0.006132 -299972.000000 1 0 0
-8.115294 -0.465250 0.970834 8.186389 0.057267 1.451925 0.001148 -0.002150 340410.000000 1 0 0
-3.320294 1.093150 10.781234 11.333770 -0.318056 0.313537 0.005310 0.001764 -60781.800000 1 0 0
7.121806 -1.233050 -1.946466 7.485270 -0.171438 1.833859 0.007273 -0.001603 -1695900.000000 1 0 0
-7.687894 5.414850 2.952834 9.856143 -0.613629 1.266530 0.007092 -0.003646 815400.000000 1 0 0
9.543506 -2.205350 2.900934 10.215552 -0.227097 1.282862 0.005008 -0.003917 -1195510.000000 1 0 0
0.278206 3.565650 1.591334 3.914538 1.492930 1.152155 0.001725 0.000414 -4011290.000000 1 0 0
-7.598594 -3.123150 3.937334 9.110175 0.389967 1.123875 0.001261 -0.001615 -374981.000000 1 0 0
-2.243294 8.398650 -6.754566 11.008808 -1.309788 2.231358 0.001386 -0.001997 -340548.000000 1 0 0
4.529306 9.812150 7.273834 13.026956 1.138336 0.978379 0.004441 0.005221 -811192.000000 1 0 0
-11.867994 -3.139250 6.908234 14.086443 0.258592 1.058228 0.013655 -0.004295 -2375770.000000 1 0 0
-4.772194 2.280550 -5.511966 7.639143 -0.445798 2.376824 0.008509 -0.007410 -1262930.000000 1 0 0
-2.725894 3.008850 -1.795866 4.439461 -0.834699 1.987254 0.006587 -0.003417 935451.000000 1 0 0
2.387906 5.263050 11.421334 12.800339 1.144860 0.468452 0.009277 -0.005539 578943.000000 1 0 0
-0.639994 1.682650 4.595734 4.935755 -1.207345 0.373350 0.003602 -0.000008 -499827.000000 1 0 0
5.156706 1.593250 7.698934 9.402322 0.299663 0.611421 0.003474 -0.000064 -535676.000000 1 0 0
3.337306 -8.210350 1.774434 9.038588 -1.184720 1.373195 0.012866 -0.003689 2165310.000000 1 0 0
5.020006 6.429450 -4.691466 9.410002 0.907883 2.092735 0.005676 -0.001273 -2015160.000000 1 0 0
-4.017694 2.988550 -7.809966 9.277330 -0.639552 2.571467 0.009289 -0.011696 729824.000000 1 0 0
-8.820794 -2.118850 -12.861566 15.738990 0.235744 2.527295 0.008881 -0.007823 -285533.000000 1 0 0
-7.844894 8.171850 1.085834 11.379830 -0.805809 1.475233 0.008355 -0.005263 -1294180.000000 1 0 0
7.371606 0.973150 -6.596666 9.940000 0.131254 2.296482 0.003208 0.000340 200601.000000 1 0 0
9.053106 8.780750 5.454234 13.740778 0.770128 1.162618 0.002424 0.003658 195191.000000 1 0 0
9.455506 -1.084750 -1.359466 9.614126 -0.114222 1.712675 0.006100 -0.000960 1886670.000000 1 0 0
5.456906 0.100150 4.239534 6.910970 0.018351 0.910375 0.003316 -0.000166 -1663370.000000 1 0 0
-4.175494 -7.257450 -7.942366 11.540645 1.048707 2.329813 0.020259 -0.009086 -983499.000000 1 0 0
-2.171794 7.566450 -0.500566 7.887866 -1.291281 1.634299 0.005037 -0.002615 -39433.400000 1 0 0
13.529306 -3.437150 -7.410766 15.804290 -0.248789 2.058851 0.024528 -0.002010 1193240.000000 1 0 0
-4.883594 -5.014250 1.571434 7.173674 0.798598 1.349950 0.006649 -0.000794 1196610.000000 1 0 0
-8.972094 1.313350 2.680834 9.455698 -0.145349 1.283339 0.000570 -0.001605 -1976500.000000 1 0 0
-1.129394 11.173850 10.215734 15.181953 -1.470064 0.832692 0.010105 -0.001510 247572.000000 1 0 0
-8.460694 0.227750 7.436334 11.266511 -0.026912 0.849926 -0.001593 0.000841 -115103.000000 1 0 0
-6.031294 12.964050 -2.162466 14.460960 -1.135348 1.720898 -0.001963 0.000649 359843.000000 1 0 0
-13.001294 -0.849850 3.296934 13.439705 0.065274 1.322954 -0.000097 -0.001834 604417.000000 1 0 0
-6.605794 12.766150 8.612534 16.756696 -1.093289 1.030983 0.009395 -0.006992 1601990.000000 1 0 0
-8.074694 0.962050 -13.997566 16.188208 -0.118585 2.615303 0.003106 -0.002435 59072.700000 1 0 0
7.215206 2.871050 3.744034 8.620900 0.378709 1.121538 0.000624 0.000861 -484555.000000 1 0 0
-1.755494 0.691450 -1.941866 2.707527 -0.375218 2.370587 0.005149 -0.002073 862745.000000 1 0 0
-6.343694 9.682950 -10.384366 15.551110 -0.990816 2.301988 -0.003577 -0.006289 -196204.000000 1 0 0
-10.112494 13.609550 5.221834 17.741193 -0.931762 1.272038 0.005893 -0.007547 318813.000000 1 0 0
-5.674694 8.202950 2.431134 10.266497 -0.965604 1.331723 0.006797 -0.004849 -1535700.000000 1 0 0
-2.528994 -10.673750 -1.209566 11.035751 1.338151 1.680621 0.006827 0.001373 1219080.000000 1 0 0
-2.255794 -12.452550 8.831434 15.432072 1.391589 0.961515 0.002295 -0.003548 493349.000000 1 0 0
-14.935994 -6.488350 -1.674966 16.370342 0.409814 1.673293 0.018750 -0.005116 668220.000000 1 0 0
-2.829794 -9.380850 3.357334 10.357595 1.277821 1.240691 0.007413 -0.003268 -869643.000000 1 0 0
4.657106 -2.780750 7.566834 9.310112 -0.538283 0.621932 0.008885 -0.004493 -395983.000000 1 0 0
-15.143294 -1.381450 -0.176266 15.207196 0.090973 1.582388 0.008541 -0.004912 239236.000000 1 0 0
5.541106 8.823950 -2.822866 10.795116 1.010070 1.835367 0.003480 -0.000298 -976264.000000 1 0 0
-5.639894 -5.866550 8.540934 11.797134 0.805094 0.761236 0.004437 -0.003238 -3359680.000000 1 0 0
3.488806 3.620750 7.027934 8.641381 0.803955 0.621015 0.001055 0.000013 371033.000000 1 0 0
3.324006 2.200550 9.312534 10.129893 0.584777 0.404467 0.007575 -0.004327 847883.000000 1 0 0
9.885106 -3.274650 5.256634 11.664941 -0.319893 1.103319 0.009409 -0.007225 -483274.000000 1 0 0
6.486006 10.087750 -5.062466 13.017663 0.999387 1.970225 0.003311 -0.001627 23595.100000 1 0 0
-4.508494 12.065750 -8.613166 15.495014 -1.213201 2.160202 -0.001299 -0.002985 -195062.000000 1 0 0
-3.472694 -7.180450 2.234034 8.283077 1.120329 1.297704 0.007766 -0.003868 891552.000000 1 0 0
-7.538494 -3.983950 1.102634 8.597473 0.486172 1.442191 0.003100 -0.002181 2861950.000000 1 0 0
-2.056494 -3.982150 -10.923566 11.807242 1.094093 2.752248 0.014475 -0.009275 -812490.000000 1 0 0
-5.206594 8.117950 -4.362366 10.584893 -1.000513 1.995588 0.006949 -0.003241 -862302.000000 1 0 0
-11.036194 -3.216350 -10.111266 15.309480 0.283582 2.292225 0.013973 -0.005868 -493936.000000 1 0 0
4.700006 -11.260050 -7.649666 14.401256 -1.175376 2.130790 -0.000575 -0.001371 -617.079000 1 0 0
-9.460994 -4.020850 7.275434 12.594030 0.401864 0.954902 0.002247 -0.001825 -325967.000000 1 0 0
-5.742294 -9.608550 -5.273066 12.373495 1.032126 2.011038 0.011450 -0.005967 588296.000000 1 0 0
4.978406 4.304250 -9.505766 11.561604 0.712900 2.536034 0.006560 0.000843 171343.000000 1 0 0
-3.434394 -7.174250 -13.993466 16.096024 1.124324 2.624730 0.008396 -0.006455 -173321.000000 1 0 0
0.624306 -0.928350 -8.837966 8.908492 -0.978773 3.015678 0.010449 -0.008852 -438298.000000 1 0 0
-7.718194 2.187650 -2.896066 8.528982 -0.276196 1.917241 0.008445 -0.005909 -337615.000000 1 0 0
-2.448494 7.470650 -12.528166 14.790560 -1.254081 2.581184 -0.003545 -0.005525 -243964.000000 1 0 0
-10.015494 8.956350 7.480034 15.377817 -0.729629 1.062812 0.003591 -0.008593 -304937.000000 1 0 0
-10.721394 -3.201450 -14.249266 18.117371 0.290175 2.475913 0.015392 0.000552 -679586.000000 1 0 0
-3.439394 4.823150 8.000734 9.955097 -0.951332 0.637339 0.005993 -0.000670 425530.000000 1 0 0
8.788306 -2.253150 -3.617466 9.767142 -0.250975 1.950205 0.006002 -0.000378 -5186870.000000 1 0 0
1.801506 -8.307250 -1.125566 8.574539 -1.357243 1.702445 0.012092 -0.002750 -495267.000000 1 0 0
-13.509094 -2.847150 5.101934 14.718411 0.207718 1.216814 0.015507 -0.005617 651188.000000 1 0 0
7.107306 2.731950 -1.958266 7.862071 0.366974 1.822524 0.001931 0.000937 1108310.000000 1 0 0
-11.176094 4.420350 8.849234 14.924930 -0.376637 0.936121 -0.008247 -0.002457 -3416740.000000 1 0 0
-1.758394 -2.455150 8.182534 8.722017 0.949276 0.353557 0.005156 -0.003751 -1408990.000000 1 0 0
2.894606 11.902850 -9.910566 15.756773 1.332241 2.251026 0.001794 -0.007793 790839.000000 1 0 0
3.754206 -4.968650 -7.028266 9.390317 -0.923734 2.416531 0.004136 -0.006866 637435.000000 1 0 0
8.226606 -13.778750 -9.764866 18.785196 -1.032549 2.117433 0.022484 0.001073 79478.200000 1 0 0
-6.459994 -5.767550 -0.412766 8.669863 0.728829 1.618424 0.006579 -0.002013 -462688.000000 1 0 0
-1.088094 -4.188650 9.777534 10.692470 1.316642 0.416695 0.003494 -0.003559 1503990.000000 1 0 0
2.808906 3.232150 1.892034 4.681511 0.855345 1.154747 -0.001831 0.001581 -1015300.000000 1 0 0
-9.085794 13.434950 7.664334 17.938550 -0.976168 1.129342 0.011283 -0.015611 -385949.000000 1 0 0
3.947406 -11.042750 -0.029566 11.727114 -1.227486 1.573317 0.009882 -0.005027 264579.000000 1 0 0
-12.699094 -1.451650 -9.117266 15.700280 0.113817 2.190393 0.012034 -0.006103 -393758.000000 1 0 0
-4.277694 1.016150 -13.431266 14.132591 -0.233224 2.825236 0.008718 -0.007372 1044360.000000 1 0 0
3.897806 -3.114850 4.950734 7.028866 -0.674210 0.789299 0.008298 -0.001820 -150597.000000 1 0 0
1.643906 -1.199350 1.148634 2.336713 -0.630299 1.056916 0.009163 -0.000303 332471.000000 1 0 0
8.236606 -8.960350 7.421634 14.255182 -0.827459 1.023211 0.013206 -0.003036 -1799790.000000 1 0 0
-0.073694 2.313850 -6.192966 6.611517 -1.538958 2.783861 0.006080 -0.005672 -2155100.000000 1 0 0
-3.882894 -9.741750 -3.382566 11.019088 1.191512 1.882807 0.009652 0.000097 1289510.000000 1 0 0
-9.485294 2.197850 -5.509066 11.187097 -0.227693 2.085697 0.003735 -0.004865 -1894700.000000 1 0 0
9.110706 -7.572750 5.416634 13.026566 -0.693473 1.141958 0.008902 -0.004864 734938.000000 1 0 0
-5.566194 -4.300850 4.706934 8.463749 0.657855 0.981076 0.004953 -0.002383 387678.000000 1 0 0
-0.144494 -12.274350 10.347434 16.054592 1.559025 0.870407 0.004883 -0.002836 -1471190.000000 1 0 0
-14.466794 -8.538350 3.136234 17.088812 0.533185 1.386225 0.013011 -0.002742 -1419920.000000 1 0 0
10.950706 -1.342050 -3.619666 11.611246 -0.121946 1.887818 0.012488 -0.000320 -547639.000000 1 0 0
-13.660894 2.916550 2.643134 14.216626 -0.210338 1.383790 -0.001044 -0.000545 -423034.000000 1 0 0
-6.408694 6.121350 0.869934 8.905003 -0.762470 1.472950 0.006461 -0.003646 843179.000000 1 0 0
7.126306 -6.860850 -0.312166 9.897118 -0.766422 1.602343 0.011226 -0.005199 538122.000000 1 0 0
-6.969594 7.809950 9.978334 14.461595 -0.842196 0.809323 -0.004346 -0.002363 229410.000000 1 0 0
-12.737794 -5.204050 -1.941366 13.896130 0.387857 1.710960 -0.001881 -0.005413 -2583410.000000 1 0 0
-9.537694 -5.588750 0.153934 11.055561 0.530035 1.556872 0.004059 -0.001682 -606189.000000 1 0 0
-1.778994 1.977850 2.320334 3.529966 -0.838281 0.853533 0.005694 -0.000098 -123851.000000 1 0 0
-7.086594 7.468950 7.548134 12.766337 -0.811661 0.938185 0.000996 -0.006768 -30234.900000 1 0 0
5.699706 7.052050 -0.434366 9.077816 0.891055 1.618664 0.002088 -0.000710 -1091060.000000 1 0 0
-0.088394 -3.984550 7.373034 8.381294 1.548616 0.495563 0.003718 -0.003908 -299990.000000 1 0 0
6.589206 0.720250 13.092334 14.674659 0.108875 0.468663 0.008810 -0.004048 702827.000000 1 0 0
5.806506 6.146450 -7.833766 11.526589 0.813831 2.318049 0.004277 -0.002626 -516675.000000 1 0 0
9.965706 5.167450 9.036534 14.410996 0.478356 0.893025 0.003236 -0.001549 -1673880.000000 1 0 0
-1.311294 -4.996550 -8.511966 9.956835 1.314144 2.596129 0.011677 -0.007792 816329.000000 1 0 0
10.063606 -3.494350 -8.055766 13.355973 -0.334202 2.218251 0.020173 -0.006282 736304.000000 1 0 0
8.532606 -5.595650 1.263534 10.281692 -0.580439 1.447593 0.010108 -0.005320 1234320.000000 1 0 0
15.719406 3.167950 -5.076566 16.819844 0.198867 1.877397 0.011332 0.005583 -836805.000000 1 0 0
-6.959994 3.567750 1.132734 7.902749 -0.473683 1.426967 0.006653 -0.003904 782378.000000 1 0 0
-1.742294 3.927350 0.345834 4.310368 -1.153252 1.490477 0.005358 -0.003282 -1195790.000000 1 0 0
-2.633594 10.019750 6.927434 12.462767 -1.313770 0.981411 0.002201 0.002411 1635150.000000 1 0 0
5.545806 -5.636150 -8.794266 11.826295 -0.793477 2.409264 0.004598 -0.006008 -105928.000000 1 0 0
-1.240794 -0.944350 6.305434 6.495373 0.650558 0.242428 0.006185 -0.001377 113239.000000 1 0 0
-5.667294 5.054150 -7.805066 10.889523 -0.728272 2.369927 0.001923 -0.005690 -57636.900000 1 0 0
6.737006 -1.280350 2.547534 7.315496 -0.187808 1.215105 0.004480 -0.000716 -1249800.000000 1 0 0
8.782906 7.520750 3.213234 12.001083 0.708137 1.299744 0.004623 -0.000085 -408003.000000 1 0 0
-5.146194 -4.813150 -7.791566 10.505152 0.751970 2.406383 0.016290 -0.009882 1285720.000000 1 0 0
-2.278694 7.887950 -10.037866 12.968074 -1.289570 2.456001 -0.000085 -0.003107 723913.000000 1 0 0
-2.838494 -2.166050 1.667134 3.940578 0.651831 1.133967 0.003973 0.000566 338763.000000 1 0 0
5.995406 -2.054350 -9.221766 11.189558 -0.330116 2.539479 0.006743 -0.002988 1369850.000000 1 0 0
1.011406 -7.645050 5.161634 9.279666 -1.439265 0.980953 0.007311 -0.003776 351039.000000 1 0 0
1.787106 11.802650 1.210234 11.998374 1.420522 1.469758 0.005205 -0.002803 347399.000000 1 0 0
-0.952794 7.163950 2.634734 7.692322 -1.438574 1.221204 0.001879 -0.001183 530322.000000 1 0 0
8.878206 7.926950 -6.663566 13.640462 0.728854 2.081183 0.010159 -0.007875 -532753.000000 1 0 0
3.677606 -11.122750 5.476134 12.931682 -1.251473 1.133528 0.015102 -0.003162 -234009.000000 1 0 0
8.207506 -7.130050 12.381434 16.477278 -0.715264 0.720578 0.030307 -0.007511 418747.000000 1 0 0
-8.673094 0.006850 -3.925166 9.519954 -0.000790 1.995784 0.007724 -0.005466 -1919380.000000 1 0 0
-3.170494 -5.206250 11.231334 12.778887 1.023801 0.497250 0.005196 -0.004673 1040210.000000 1 0 0
-8.235094 0.113750 -11.496666 14.142243 -0.013812 2.519964 0.006118 -0.008121 -1657230.000000 1 0 0
1.407506 -5.089850 5.313934 7.491698 -1.301006 0.782278 0.007471 -0.002183 -455066.000000 1 0 0
6.734406 3.786150 -7.595366 10.834055 0.512169 2.347685 0.001567 -0.001593 -468772.000000 1 0 0
16.286706 4.218150 -1.141666 16.862769 0.253425 1.638551 0.011371 0.003674 835792.000000 1 0 0
7.941206 7.419950 0.237834 10.870832 0.751478 1.548916 0.005920 -0.000694 -2073850.000000 1 0 0
5.403806 -10.379250 13.819234 18.108042 -1.090777 0.702616 0.016249 -0.004281 32238.600000 1 0 0
-5.260594 -9.228550 8.962634 13.898518 1.052702 0.869953 0.004098 -0.005090 516361.000000 1 0 0
-12.734994 -3.302250 2.813134 13.453574 0.253717 1.360142 0.000852 -0.001482 -55256.300000 1 0 0
-2.112894 -1.314350 -5.880766 6.385549 0.556483 2.741305 0.008141 -0.008205 -1254570.000000 1 0 0
-2.349094 12.961750 -4.425566 13.896433 -1.391510 1.894909 -0.000885 0.006371 639693.000000 1 0 0
3.969206 -0.410750 -5.019666 6.412515 -0.103117 2.469936 0.005993 -0.001333 -355610.000000 1 0 0
-8.901694 3.817050 -7.367466 12.169206 -0.405085 2.221088 0.002231 -0.004633 -86855.800000 1 0 0
-4.586794 7.949150 -11.302966 14.559694 -1.047448 2.459601 -0.003929 -0.006016 -4552470.000000 1 0 0
-10.159194 -6.524150 7.462434 14.193720 0.570866 1.017193 0.006009 -0.000986 -753093.000000 1 0 0
8.083806 5.262050 4.135734 10.494827 0.577034 1.165737 0.000116 -0.000263 -539000.000000 1 0 0
-6.830594 -7.501550 4.067334 10.930392 0.832179 1.189513 0.008779 -0.002133 -302571.000000 1 0 0
-4.045894 11.756650 8.042134 14.807566 -1.239355 0.996660 0.004323 -0.002332 -229816.000000 1 0 0
-7.275594 10.028550 -7.903266 14.695839 -0.943168 2.138609 0.001947 -0.002527 -1408110.000000 1 0 0
13.088006 5.484450 4.549534 14.902126 0.396815 1.260549 0.008034 -0.007225 980213.000000 1 0 0
5.413306 3.968950 -3.788966 7.707964 0.632652 2.084682 0.001954 0.000526 719682.000000 1 0 0
-2.896994 -4.198650 5.178034 7.268650 0.966825 0.777914 0.004003 -0.001889 -1369920.000000 1 0 0
12.543406 -2.360550 -5.305066 13.822191 -0.186015 1.964713 0.016612 -0.001503 -2026180.000000 1 0 0
-5.225194 9.758350 6.970434 13.081094 -1.079186 1.008816 0.003107 -0.002708 -1383140.000000 1 0 0
1.768506 3.890550 -0.368666 4.289512 1.144153 1.656848 -0.001625 0.000214 502981.000000 1 0 0
-0.127594 9.562650 7.738734 12.302381 -1.557454 0.890474 0.004051 0.002106 -745813.000000 1 0 0
-5.599294 2.092250 5.976334 8.452584 -0.357598 0.785489 0.003740 0.000735 800883.000000 1 0 0
8.944106 0.867350 10.671834 13.951250 0.096672 0.699852 0.015280 -0.002121 12490.700000 1 0 0
0.419206 -2.929350 -10.174566 10.596160 -1.428656 2.858559 0.009461 -0.009558 -1650860.000000 1 0 0
1.235406 10.522150 -2.801066 10.958460 1.453921 1.829272 0.001304 -0.000439 1337620.000000 1 0 0
2.350206 -4.297050 11.631234 12.620369 -1.070309 0.398552 0.007896 -0.003593 236547.000000 1 0 0
6.592606 -2.946450 9.375834 11.834285 -0.420300 0.656292 0.012352 -0.005989 492917.000000 1 0 0
-10.787794 -8.213450 5.639034 14.684548 0.650735 1.176659 0.009622 -0.002395 -1565970.000000 1 0 0
-2.959494 0.859750 -6.823366 7.487062 -0.282724 2.717359 0.010456 -0.008111 959874.000000 1 0 0
11.064306 2.615650 -4.949066 12.399748 0.232142 1.981360 0.003684 -0.000780 -3819640.000000 1 0 0
-2.117694 -4.037550 0.046634 4.559453 1.087742 1.560568 0.005521 -0.002722 1117250.000000 1 0 0
-1.177694 -6.470450 -10.595066 12.470329 1.390756 2.586064 0.012484 -0.006300 406635.000000 1 0 0
0.342706 6.734150 -6.583366 9.423743 1.519949 2.344226 0.005705 -0.001417 -2816480.000000 1 0 0
1.930706 3.903250 -6.268166 7.632358 1.111445 2.534416 0.004642 -0.002369 -1915550.000000 1 0 0
1.671206 -14.743850 6.466034 16.185909 -1.457929 1.159841 0.021906 -0.006851 -9890.730000 1 0 0
-1.753994 5.397150 -10.439066 11.881911 -1.256578 2.643652 0.005249 -0.005190 73012.600000 1 0 0
13.662606 4.372750 -0.738166 14.364283 0.309751 1.622208 0.009812 -0.004342 -1010120.000000 1 0 0
-2.389694 3.267750 -5.897166 7.152999 -0.939373 2.539995 0.008345 -0.005254 -2346590.000000 1 0 0
5.788606 7.859050 14.104734 17.152731 0.935957 0.605351 0.020240 -0.005743 524941.000000 1 0 0
15.921606 0.600350 -5.746466 16.937527 0.037689 1.916942 0.014005 0.002280 505718.000000 1 0 0
6.383506 -8.410250 10.762034 15.076566 -0.921551 0.775851 0.012179 -0.002372 578248.000000 1 0 0
0.135206 -5.869450 -6.419466 8.699325 -1.547765 2.400790 0.007349 -0.005203 -239365.000000 1 0 0
8.654906 5.577150 -7.631766 12.816234 0.572423 2.208655 0.006460 -0.003543 -466113.000000 1 0 0
-16.071994 -0.819750 5.379734 16.968280 0.050961 1.248183 0.019685 -0.010474 -19764.500000 1 0 0
-0.332994 3.976450 -12.221766 12.856695 -1.487250 2.826007 0.008747 -0.005961 778655.000000 1 0 0
-11.441594 3.679750 5.818734 13.353213 -0.311164 1.119919 -0.004357 -0.003085 -1013010.000000 1 0 0
5.204706 -9.527950 -9.565466 14.469586 -1.070832 2.293045 -0.003144 -0.000114 -155774.000000 1 0 0
1.502506 10.996650 -11.762766 16.172399 1.435004 2.385228 0.000400 -0.004295 -3061310.000000 1 0 0
5.927106 2.391750 1.234734 6.509656 0.383544 1.379963 0.001189 0.002340 -55049.900000 1 0 0
5.741506 4.556050 4.875734 8.803140 0.670783 0.983799 -0.000977 0.000457 -84656.900000 1 0 0
0.400806 -1.564750 -6.406266 6.606764 -1.320041 2.894602 0.005739 -0.005259 -267034.000000 1 0 0
12.786506 6.787650 -4.606966 15.191809 0.488018 1.878901 0.012784 -0.006076 137121.000000 1 0 0
7.469906 3.249350 12.680634 15.071704 0.410304 0.571013 0.011600 -0.003652 -514407.000000 1 0 0
-2.519894 -0.298650 8.710634 9.072718 0.117967 0.283469 0.004728 -0.000282 692969.000000 1 0 0
2.308806 -15.273850 13.155134 20.289865 -1.420771 0.865368 0.013315 -0.002733 -75671.900000 1 0 0
18.843506 4.587750 -1.680766 19.466642 0.238819 1.657245 0.013582 0.003124 675324.000000 1 0 0
-0.382994 -13.225850 7.216134 15.071244 1.541846 1.071507 0.005012 -0.003916 -1691990.000000 1 0 0
4.395806 1.615750 -0.540866 4.714477 0.352238 1.685774 0.001490 -0.000160 811166.000000 1 0 0
2.807906 -0.516850 -7.463766 7.991199 -0.182032 2.776241 0.004569 -0.004390 941749.000000 1 0 0
7.169606 -11.228150 0.873234 13.350548 -1.002521 1.505341 0.009777 -0.004096 564074.000000 1 0 0
-11.884694 -7.461550 1.361134 14.098701 0.560631 1.474102 0.000773 0.002269 356765.000000 1 0 0
0.091206 -6.965450 9.925434 12.126007 -1.557703 0.611958 0.001934 -0.004428 -2291780.000000 1 0 0
-4.638794 -7.203350 10.615434 13.641631 0.998667 0.679058 0.005705 -0.000130 -1140900.000000 1 0 0
11.695106 0.690550 -1.630166 11.828348 0.058978 1.709055 0.005415 -0.001254 1156520.000000 1 0 0
6.564706 -9.617150 -7.336266 13.762475 -0.971841 2.133013 0.002334 -0.004013 180852.000000 1 0 0
-11.011794 4.819950 3.450534 12.505907 -0.412585 1.291258 -0.001299 -0.003226 369779.000000 1 0 0
6.033906 -9.055950 2.085334 11.080021 -0.983053 1.381460 0.011616 -0.006550 4179460.000000 1 0 0
11.615706 -1.344150 5.880434 13.088578 -0.115206 1.104837 0.014766 -0.008802 501811.000000 1 0 0
-6.567794 3.619650 4.207934 8.599099 -0.503704 1.059457 0.002246 -0.002005 -1251780.000000 1 0 0
9.561706 6.342250 -3.250366 11.925403 0.585666 1.846847 0.007411 -0.003170 738769.000000 1 0 0
-2.328294 6.637950 11.007034 13.062854 -1.233449 0.568664 0.005077 -0.004622 -287977.000000 1 0 0
1.952606 9.812450 2.974134 10.437544 1.374369 1.281846 0.000691 -0.000657 395978.000000 1 0 0
2.870406 6.060550 -5.615266 8.746468 1.128473 2.267905 0.002798 -0.000897 -1570170.000000 1 0 0
11.992106 0.063550 -5.633966 13.249763 0.005299 2.009993 0.012077 0.001176 347959.000000 1 0 0
-2.635594 -12.479450 6.232734 14.196126 1.362660 1.116261 0.006077 -0.002399 247667.000000 1 0 0
10.686906 1.808650 -2.706566 11.171691 0.167651 1.815501 0.003187 -0.000324 401183.000000 1 0 0
-8.951794 5.247450 0.884334 10.414048 -0.530203 1.485776 0.005599 -0.003493 -1200600.000000 1 0 0
1.089406 -10.199750 5.557534 11.666529 -1.464393 1.074280 0.008525 -0.002448 93302.200000 1 0 0
9.299306 -5.763650 -1.421466 11.032557 -0.554847 1.699998 0.011146 -0.006134 1235650.000000 1 0 0
-7.751994 8.611850 -4.540266 12.444733 -0.837896 1.944251 0.002818 -0.002165 -68599.700000 1 0 0
-7.464394 -0.060150 -1.610766 7.636449 0.008058 1.783324 0.005923 -0.004457 -1852530.000000 1 0 0
4.167706 8.844050 2.724534 10.149389 1.130417 1.299020 0.002948 -0.001375 289290.000000 1 0 0
-1.423494 -10.479950 -3.802866 11.239104 1.435792 1.915970 0.006607 0.000048 -760784.000000 1 0 0
3.213706 7.914450 -3.727866 9.320054 1.185081 1.982295 0.003633 -0.002282 -243291.000000 1 0 0
-4.339294 1.649850 -10.910666 11.857238 -0.363332 2.739309 0.006780 -0.007253 -406570.000000 1 0 0
1.384506 2.807550 10.959334 11.397640 1.112654 0.278226 0.007754 -0.004104 357613.000000 1 0 0
2.121406 5.627950 -8.124066 10.108147 1.210325 2.504308 0.006292 -0.002500 1712480.000000 1 0 0
15.475006 6.114950 3.991834 17.111492 0.376318 1.335343 0.023771 -0.007974 -168475.000000 1 0 0
-4.417294 9.030050 4.583534 11.048216 -1.115844 1.143000 0.006301 -0.001664 355082.000000 1 0 0
-0.836694 -8.334350 -12.214566 14.810707 1.470741 2.540489 0.009363 -0.006676 208030.000000 1 0 0
14.406406 -4.263350 -5.239566 15.911434 -0.287723 1.906354 0.030058 0.000579 763504.000000 1 0 0
-5.944594 -6.157050 -5.714766 10.291064 0.802952 2.159536 0.015338 -0.007410 432380.000000 1 0 0
-8.931894 2.590150 -12.069866 15.237102 -0.282247 2.485098 0.004529 -0.007315 -487461.000000 1 0 0
10.575406 5.398250 13.777934 18.188232 0.471975 0.711292 0.029646 -0.004093 572663.000000 1 0 0
-0.394894 10.783750 5.529934 12.125403 -1.534193 1.097231 0.004197 0.005072 576187.000000 1 0 0
0.499006 11.213650 -0.589466 11.240215 1.526326 1.623263 0.002796 -0.002133 -190097.000000 1 0 0
-1.571594 -0.531250 3.772034 4.120725 0.325974 0.414343 0.006215 0.000917 353259.000000 1 0 0
-4.822794 6.861650 8.807834 12.162217 -0.958152 0.760928 0.007282 -0.004151 -780758.000000 1 0 0
3.519806 -8.660650 -11.365966 14.716693 -1.184773 2.453278 -0.003600 0.001087 61679.700000 1 0 0
6.905306 -3.775850 11.909934 14.275393 -0.500386 0.583938 0.021191 -0.007933 81648.800000 1 0 0
-2.547894 -1.977950 -12.454666 12.865564 0.660127 2.888179 0.010735 -0.012050 1132140.000000 1 0 0
-16.090094 -4.976550 5.237334 17.637654 0.299960 1.269309 0.025034 -0.008536 685802.000000 1 0 0
-8.982794 7.354450 5.711334 12.938233 -0.686056 1.113604 -0.002434 -0.006811 -3223430.000000 1 0 0
-12.820094 1.501350 6.040334 14.251123 -0.116578 1.133105 -0.006618 -0.004530 456615.000000 1 0 0
-3.686594 3.602650 10.284034 11.503540 -0.773883 0.464627 0.007745 -0.000001 598830.000000 1 0 0
1.911306 -12.144750 -1.134566 12.346468 -1.414699 1.662820 0.004230 0.000321 -2630710.000000 1 0 0
10.376106 -4.934850 -3.646466 12.054585 -0.443936 1.878107 0.013950 -0.003823 843674.000000 1 0 0
3.056806 -13.400250 0.954334 13.777573 -1.346518 1.501474 0.007858 -0.001951 585873.000000 1 0 0
10.179006 -1.560250 -6.199566 12.020032 -0.152097 2.112702 0.013125 -0.001334 321826.000000 1 0 0
12.040706 -5.298850 -1.551566 13.246274 -0.414572 1.688198 0.014384 -0.004064 78821.700000 1 0 0
1.534306 0.941450 5.892834 6.161649 0.550360 0.296473 0.005175 -0.001684 -96357.300000 1 0 0
-10.731494 11.714850 6.605934 17.205843 -0.829179 1.176742 0.008367 -0.006374 -493269.000000 1 0 0
4.806806 -14.049650 3.026234 15.154410 -1.241150 1.369751 0.018867 -0.008025 -2856750.000000 1 0 0
5.307106 -3.348050 -1.768366 6.519350 -0.562803 1.845487 0.010719 -0.003359 -877446.000000 1 0 0
2.078406 -2.904950 -7.727066 8.512699 -0.949763 2.708591 0.003602 -0.005291 218090.000000 1 0 0
-2.777494 14.695650 -8.765866 17.335426 -1.383999 2.100945 0.004772 -0.009776 -2868220.000000 1 0 0
-2.384194 6.120050 -8.103766 10.431223 -1.199313 2.460485 0.007700 -0.004755 -448692.000000 1 0 0
2.553806 -3.532850 -11.363466 12.170920 -0.944883 2.775287 0.006264 -0.004523 -2566330.000000 1 0 0
14.668006 2.790250 -2.673166 15.168445 0.187981 1.747954 0.011057 0.002279 600748.000000 1 0 0
-3.570794 12.993550 2.270134 13.665154 -1.302604 1.403897 0.001482 -0.001254 -1056620.000000 1 0 0
8.027906 -4.958650 13.890634 16.792415 -0.553316 0.596696 0.029503 -0.012626 -1229110.000000 1 0 0
-11.554194 7.266350 2.790834 13.931547 -0.561394 1.369107 0.002321 -0.005286 1269960.000000 1 0 0
-2.276594 11.954350 4.220734 12.880371 -1.382609 1.236942 0.002927 -0.002302 399468.000000 1 0 0
1.716006 1.462250 0.740934 2.373149 0.705726 1.253272 0.001786 0.000630 -1186650.000000 1 0 0
-6.889594 8.631750 5.288934 12.245262 -0.897173 1.124179 0.000604 -0.005150 -44092.500000 1 0 0
-1.112894 9.279750 1.124134 9.413606 -1.451439 1.451095 0.002311 -0.001419 528546.000000 1 0 0
4.771306 12.832750 -8.537566 16.134896 1.214828 2.128379 0.007684 -0.016172 -3296430.000000 1 0 0
9.048406 6.936850 7.210534 13.490195 0.654065 1.006878 -0.000128 0.000086 -1387490.000000 1 0 0
7.268406 -13.710550 2.822934 15.772693 -1.083334 1.390851 0.021465 -0.005965 -584185.000000 1 0 0
4.093906 -13.310950 -1.328566 13.989515 -1.272419 1.665908 0.004045 0.000701 -2717610.000000 1 0 0
12.173106 -11.829150 -4.549566 17.573043 -0.771069 1.832674 0.042588 -0.007555 -508206.000000 1 0 0
2.872106 0.023650 -1.832066 3.406760 0.008234 2.138590 0.006022 -0.001596 1280330.000000 1 0 0
-13.694094 -3.231450 -10.728766 17.693979 0.231735 2.222260 0.021666 -0.008923 773234.000000 1 0 0
-6.642594 13.691050 4.932934 15.996961 -1.119077 1.257320 0.009326 -0.006097 -117364.000000 1 0 0
7.302406 -4.312850 -0.662666 8.506758 -0.533484 1.648774 0.008808 -0.002414 -292499.000000 1 0 0
11.746006 2.082950 -7.281766 13.976103 0.175508 2.118837 0.006159 0.002638 -1000540.000000 1 0 0
-7.408094 -4.567450 9.716434 13.044177 0.552499 0.730431 0.007923 -0.000520 227099.000000 1 0 0
1.016206 2.815150 8.442934 8.957728 1.224376 0.340671 0.005887 -0.000466 -1014920.000000 1 0 0
1.637306 8.025650 -8.718866 11.962878 1.369549 2.387403 0.006049 -0.002766 492379.000000 1 0 0
-8.611294 -2.131750 -5.633866 10.509005 0.242674 2.136605 0.012496 -0.008000 13224.900000 1 0 0
6.643706 -0.422350 7.104134 9.735807 -0.063486 0.752926 0.006834 -0.003428 747295.000000 1 0 0
-10.943594 6.411850 7.117534 14.544187 -0.529987 1.059426 -0.004261 -0.006398 229067.000000 1 0 0
-5.998294 11.087450 4.836434 13.501933 -1.074890 1.204454 0.000216 -0.005167 -105785.000000 1 0 0
6.098606 -1.197250 -6.903766 9.289154 -0.193850 2.408647 0.005646 -0.001166 -747462.000000 1 0 0
4.581506 -5.680450 11.445634 13.574250 -0.892081 0.567612 0.011610 -0.006894 -1331840.000000 1 0 0
-9.090594 -7.285150 2.675934 11.952946 0.675591 1.345010 0.003695 -0.000996 -3946570.000000 1 0 0
-1.125994 12.710250 -9.381966 15.837917 -1.482438 2.204798 0.004154 -0.000641 678721.000000 1 0 0
-4.461194 9.255550 -2.309066 10.530871 -1.121650 1.791859 0.003408 -0.003609 127063.000000 1 0 0
-3.275594 9.820150 -0.103266 10.352562 -1.248843 1.580771 0.005218 -0.001959 -2989620.000000 1 0 0
-3.436394 10.778050 -6.500166 13.047119 -1.262153 2.092326 0.001368 0.001799 555204.000000 1 0 0
4.844706 -4.821850 0.322034 6.842888 -0.783034 1.523718 0.011603 -0.004586 -825071.000000 1 0 0
-2.264794 2.951550 -10.898466 11.515967 -0.916300 2.812632 0.009711 -0.006578 -1579570.000000 1 0 0
-3.545094 12.083050 -2.330966 12.806295 -1.285411 1.753834 0.000865 0.000533 543629.000000 1 0 0
-0.238894 0.364550 0.121134 0.452372 -0.990696 1.299712 0.002873 0.000670 -2422360.000000 1 0 0
-4.949394 -1.817250 0.190434 5.275904 0.351885 1.534693 0.001411 -0.000457 451013.000000 1 0 0
2.599806 2.591850 -2.402966 4.387587 0.783866 2.150377 -0.004458 0.000164 1723220.000000 1 0 0
6.188706 -9.561050 8.538534 14.234477 -0.996333 0.927484 0.011864 -0.001495 -534225.000000 1 0 0
-4.311194 -5.546150 6.617734 9.650937 0.910032 0.815219 0.003934 -0.003953 57375.700000 1 0 0
-6.276794 5.248350 -11.974266 14.502633 -0.696399 2.542170 -0.002737 -0.008516 298564.000000 1 0 0
-13.030294 3.124750 7.959534 15.585468 -0.235362 1.034795 0.001243 -0.003968 568265.000000 1 0 0
4.690406 -7.521350 -4.703566 10.034647 -1.013196 2.058652 0.005514 -0.006329 423765.000000 1 0 0
-5.901494 2.404450 -1.011966 6.452371 -0.386896 1.728283 0.005383 -0.004504 -444982.000000 1 0 0
-6.938894 -2.793450 -14.488366 16.305347 0.382727 2.665005 0.008388 -0.004363 278910.000000 1 0 0
2.727706 -6.092250 0.857534 6.729878 -1.149829 1.443027 0.013450 -0.003961 142339.000000 1 0 0
4.807806 -7.837550 12.935834 15.870665 -1.020559 0.617932 0.013214 -0.004370 -270494.000000 1 0 0
-10.005394 -1.703950 8.114834 12.994687 0.168685 0.896339 0.003248 -0.000151 -193037.000000 1 0 0
-4.459094 13.298250 -0.142666 14.026665 -1.247264 1.580968 0.000811 0.000493 474178.000000 1 0 0
6.835506 2.197150 -4.489266 8.467887 0.311001 2.129576 0.001759 0.001101 -2123620.000000 1 0 0
4.993306 4.514250 0.071434 6.731765 0.735054 1.560185 -0.002367 0.001447 -838244.000000 1 0 0
-5.914194 12.208550 1.821734 13.687407 -1.119682 1.437305 0.002552 -0.005794 -5567.260000 1 0 0
6.614406 -7.286250 6.488934 11.787539 -0.833692 0.987844 0.009838 -0.006169 -687283.000000 1 0 0
-0.247894 4.942450 7.650934 9.111864 -1.520682 0.574126 0.004555 0.000040 -365304.000000 1 0 0
-5.885994 -3.442250 -1.569766 6.997012 0.529183 1.797070 0.007136 -0.002697 -74478.800000 1 0 0
2.380706 -6.488050 -5.137966 8.611692 -1.219113 2.210087 0.005428 -0.003484 -375145.000000 1 0 0
-14.460194 -4.916450 -3.769166 15.731348 0.327738 1.812746 0.008779 -0.012464 -479796.000000 1 0 0
-12.458194 -5.153250 -6.249166 14.859833 0.392212 2.004838 0.013047 -0.014534 -1306840.000000 1 0 0
-14.804794 -3.822950 -1.267166 15.342835 0.252704 1.653481 0.003290 -0.002903 246136.000000 1 0 0
11.888106 2.884550 8.838734 15.092081 0.238041 0.945110 0.016601 -0.004515 -1647730.000000 1 0 0
8.803906 -6.401050 7.711634 13.339847 -0.628663 0.954410 0.011650 -0.008150 145120.000000 1 0 0
-8.939194 -1.655750 -9.578566 13.206045 0.183148 2.382291 0.007867 -0.007136 104860.000000 1 0 0
-8.898994 4.962050 -3.755066 10.858847 -0.508657 1.923895 0.008469 -0.008489 -854920.000000 1 0 0
-4.128594 -6.224350 4.098534 8.519730 0.985130 1.068928 0.008515 -0.002456 -1119470.000000 1 0 0
-0.260394 -9.309850 3.454134 9.933386 1.542834 1.215648 0.009204 -0.003680 1099440.000000 1 0 0
7.977206 -10.425450 3.345634 13.546922 -0.917659 1.321248 0.009377 -0.004784 536750.000000 1 0 0
-0.043194 6.419850 9.674634 11.610982 -1.564068 0.585870 0.004672 -0.002717 1347040.000000 1 0 0
0.031106 3.498350 -9.649566 10.264187 1.561905 2.793778 0.012633 -0.006569 -816266.000000 1 0 0
4.532606 -3.109150 11.009934 12.305689 -0.601235 0.463031 0.011578 -0.005243 -1531390.000000 1 0 0
8.636506 -9.134650 1.211334 12.629267 -0.813422 1.474734 0.008391 -0.004966 -387872.000000 1 0 0
-0.259894 -0.537650 11.438834 11.454412 1.120526 0.052158 0.012082 -0.003484 -1354420.000000 1 0 0
10.910506 6.096650 11.364434 16.892562 0.509565 0.832880 0.021880 -0.005712 71116.600000 1 0 0
-6.430594 -2.993250 -11.774166 13.745656 0.435644 2.599389 0.011347 -0.009923 531073.000000 1 0 0
-1.696894 2.868950 8.516334 9.145396 -1.036674 0.373063 0.005594 -0.002164 1477830.000000 1 0 0
-1.444694 13.534350 -6.837566 15.232140 -1.464456 2.036320 0.008962 0.001763 1066260.000000 1 0 0
7.671106 3.123950 9.819934 12.846636 0.386729 0.700690 0.005941 -0.000886 314285.000000 1 0 0
6.549106 8.390950 -7.787166 13.188585 0.908062 2.202409 0.010353 -0.006136 1151500.000000 1 0 0
6.718106 -3.032750 -3.868266 8.324302 -0.424042 2.054087 0.009077 -0.002327 -2237940.000000 1 0 0
2.061106 8.230750 1.015434 8.545438 1.325427 1.451687 -0.000558 -0.000023 956569.000000 1 0 0
-17.618494 6.215450 6.453634 19.765944 -0.339149 1.238195 0.021998 -0.013349 -148237.000000 1 0 0
-14.563794 3.055050 -10.342266 18.121807 -0.206772 2.178164 0.034377 -0.005498 -997254.000000 1 0 0
-18.225994 -0.118950 -4.508066 18.775613 0.006526 1.813267 0.032687 -0.008699 -285930.000000 1 0 0
-13.090294 8.043950 0.064034 15.364408 -0.551011 1.566629 0.009946 -0.001437 -826815.000000 1 0 0
-12.657294 -4.425850 -12.814866 18.547669 0.336379 2.333551 0.024729 -0.001628 -426007.000000 1 0 0
-17.394094 -0.779750 -8.601266 19.420203 0.044798 2.029630 0.041503 -0.014242 -16010.600000 1 0 0
-16.826394 -2.278150 -1.977466 17.094674 0.134573 1.686733 0.023787 -0.007202 231557.000000 1 0 0
-15.397994 4.028150 1.584734 15.994861 -0.255868 1.471556 0.007486 0.000862 -610447.000000 1 0 0
-13.187194 5.951450 4.347334 15.106990 -0.423939 1.278899 -0.005096 -0.004968 699617.000000 1 0 0
-10.209094 14.172650 2.677534 17.670846 -0.946551 1.418688 0.024633 -0.008213 67158.300000 1 0 0
-11.880194 2.458150 -6.496666 13.761838 -0.204032 2.062443 0.006529 0.000575 441847.000000 1 0 0
-15.950994 10.501450 3.726434 19.457671 -0.582228 1.378091 0.014562 -0.010592 935519.000000 1 0 0
-12.929694 1.093750 -8.608966 15.572012 -0.084391 2.156575 0.012308 -0.004546 572325.000000 1 0 0
-12.355694 14.090850 4.032234 19.169615 -0.850914 1.358868 0.029604 -0.019916 -1079720.000000 1 0 0
-10.583294 11.091750 -1.145966 15.373558 -0.808852 1.645407 0.013886 -0.006194 297348.000000 1 0 0
-16.756394 5.628550 8.995534 19.833733 -0.324063 1.100055 0.004715 -0.010944 242481.000000 1 0 0
-11.776494 12.648950 -9.228566 19.592044 -0.821102 2.061262 0.036374 -0.012031 -950173.000000 1 0 0
-17.261094 -0.525350 3.045534 17.535582 0.030426 1.396234 0.021549 -0.006839 743010.000000 1 0 0
-13.273194 14.780550 -0.493166 19.871728 -0.839078 1.595616 0.042248 -0.017172 92692.500000 1 0 0
-16.518694 4.706650 -10.502166 20.132444 -0.277573 2.119585 0.068215 -0.005891 740713.000000 1 0 0
-11.826394 7.616650 -9.036966 16.719560 -0.572173 2.141831 0.012703 -0.002679 -533808.000000 1 0 0
-14.920894 13.421050 -2.038066 20.172044 -0.732528 1.672003 0.053930 -0.018990 584517.000000 1 0 0
-11.927694 10.548350 -5.427666 16.822519 -0.724106 1.899317 0.030300 -0.006112 784220.000000 1 0 0
-17.812594 2.754050 -0.879466 18.045685 -0.153398 1.619551 0.032957 -0.001092 221970.000000 1 0 0
-9.570094 15.331750 0.480734 18.079833 -1.012772 1.544204 0.023484 -0.009973 243648.000000 1 0 0
-8.112694 13.231650 -3.715166 15.959161 -1.020780 1.805744 0.005680 -0.003093 -191622.000000 1 0 0
-18.132494 11.462650 2.513934 21.598601 -0.563732 1.454139 0.088109 -0.002652 -61045.400000 1 0 0
-8.040494 15.690750 -7.387666 19.116140 -1.097250 1.967589 0.039932 -0.023921 -113003.000000 1 0 0
-6.290394 15.218950 -5.356866 17.317087 -1.178855 1.885295 0.005380 -0.003217 -206473.000000 1 0 0
-17.430594 5.119150 -0.218066 18.168072 -0.285656 1.582799 0.038292 0.000311 794059.000000 1 0 0
-5.308694 12.099650 -12.242666 18.012957 -1.157339 2.318094 -0.005707 -0.016524 -281621.000000 1 0 0
-11.203194 3.658350 -11.274766 16.309979 -0.315629 2.334056 0.012756 -0.009923 76353.100000 1 0 0
-11.945294 11.001750 1.181234 16.282625 -0.744303 1.498187 0.012512 -0.008660 126472.000000 1 0 0
-13.030294 0.099150 -11.077666 17.103013 -0.007609 2.275361 0.015542 -0.008649 115800.000000 1 0 0
-14.085094 -2.184750 -13.165366 19.403346 0.153884 2.316529 0.034838 -0.003477 -35230.200000 1 0 0
-18.854794 -2.439250 -3.606966 19.351057 0.128656 1.758289 0.033614 -0.008279 1390510.000000 1 0 0
-18.253494 4.615650 -5.300166 19.559806 -0.247672 1.845199 0.045851 -0.003853 -195986.000000 1 0 0
-8.196194 15.397350 -2.345766 17.599960 -1.081635 1.704477 0.015857 -0.004622 -214597.000000 1 0 0
-16.287994 9.087550 -5.374466 19.410492 -0.508911 1.851347 0.053703 -0.002828 151603.000000 1 0 0
-18.273394 1.724450 2.127934 18.477520 -0.094091 1.455377 0.039741 -0.011561 -466084.000000 1 0 0
-15.748494 -2.846250 -8.581666 18.159328 0.178801 2.063008 0.016941 -0.011202 -461908.000000 1 0 0
-9.767594 10.505550 -7.093466 16.002804 -0.821783 2.030033 0.014562 -0.006324 166659.000000 1 0 0
-13.800994 12.025150 -7.702266 19.859420 -0.716745 1.969083 0.048095 -0.020779 -66170.800000 1 0 0
-11.078894 6.404450 -3.779066 13.343171 -0.524143 1.857947 0.006294 -0.001160 -1677410.000000 1 0 0
-13.075294 4.919650 -12.658366 18.852069 -0.359871 2.306970 0.051419 -0.012764 97486.100000 1 0 0
-17.841394 8.986750 2.642634 20.150944 -0.466605 1.439276 0.043328 -0.014669 836675.000000 1 0 0
-13.454794 8.734850 -6.533266 17.320873 -0.575813 1.957557 0.024911 -0.002211 -546278.000000 1 0 0
-15.820594 6.922650 -3.817666 17.685838 -0.412471 1.788369 0.030570 0.004342 -1329080.000000 1 0 0
-14.983494 -0.461650 -9.361866 17.673787 0.030801 2.129047 0.030786 -0.010758 -883575.000000 1 0 0
-9.873094 5.846050 -6.022566 12.958610 -0.534605 2.054153 0.003453 0.000839 129761.000000 1 0 0
-12.835394 12.198150 -0.899266 17.729943 -0.759948 1.621538 0.029658 -0.012276 -678126.000000 1 0 0
-10.489394 3.511950 -13.820466 17.702159 -0.323079 2.466617 0.009708 -0.010716 109253.000000 1 0 0
-10.963194 6.206150 -11.817566 17.273181 -0.515112 2.324243 0.008586 -0.010619 -1185270.000000 1 0 0
-5.734694 11.590850 -14.822166 19.670565 -1.111349 2.424196 0.004042 -0.016117 -445284.000000 1 0 0
-15.714694 13.097650 3.486534 20.752252 -0.694816 1.401988 0.032307 -0.019885 510191.000000 1 0 0
-15.170794 11.091450 -3.073966 19.042650 -0.631299 1.732931 0.049170 -0.002609 941278.000000 1 0 0
-18.235894 7.566750 -4.580666 20.267857 -0.393317 1.798772 0.053398 -0.001387 57366.300000 1 0 0
-3.686394 16.190250 -10.684766 19.745327 -1.346921 2.142575 0.013316 -0.013421 -314040.000000 1 0 0
-15.832394 4.365650 -4.450766 17.015667 -0.269056 1.835443 0.030143 0.005663 -1194870.000000 1 0 0
-18.755494 -1.980550 -6.124966 19.829431 0.105208 1.884814 0.043147 -0.009787 381691.000000 1 0 0
-10.781594 8.540650 -5.793166 14.924686 -0.669937 1.969431 0.010092 0.001618 1006370.000000 1 0 0
-11.299194 13.832750 -6.915566 19.153115 -0.885869 1.940209 0.034607 -0.004460 -7580.660000 1 0 0
-9.536994 10.488950 -4.425166 14.851075 -0.832899 1.873361 0.003810 -0.000461 -179172.000000 1 0 0
-11.158494 6.238150 -0.146266 12.784674 -0.509764 1.582237 0.005062 -0.003533 -820971.000000 1 0 0
-14.823694 9.262850 -1.426366 17.537868 -0.558504 1.652217 0.036290 -0.001124 -6520.880000 1 0 0
-18.485694 3.618050 4.798434 19.438008 -0.193278 1.321359 0.030969 -0.015343 608751.000000 1 0 0
-14.764894 13.049850 0.566734 19.713495 -0.723817 1.542044 0.027044 -0.013896 -263801.000000 1 0 0
-16.844194 2.513150 -9.282166 19.395912 -0.148107 2.069814 0.044583 -0.004674 31788.000000 1 0 0
-9.184294 8.457950 -8.799766 15.274949 -0.744251 2.184735 0.004018 -0.001881 -2600800.000000 1 0 0
-17.671194 4.631450 -2.718166 18.469159 -0.256325 1.718506 0.028735 0.002520 757191.000000 1 0 0
-13.587494 5.781750 -4.468866 15.427877 -0.402311 1.864670 0.015205 0.006042 -355746.000000 1 0 0
-12.192094 9.518450 3.220934 15.799445 -0.662866 1.365493 0.003647 -0.007863 741124.000000 1 0 0
-17.708794 2.404150 -4.035066 18.321110 -0.134935 1.792858 0.036806 0.000899 1168230.000000 1 0 0
-11.212194 1.375150 -12.561566 16.893705 -0.122038 2.409182 0.012352 -0.005941 -666679.000000 1 0 0
-11.199894 11.895450 3.581434 16.726208 -0.815506 1.355004 0.011251 -0.009723 55282.300000 1 0 0
-16.479794 13.130050 -4.175466 21.480604 -0.672748 1.766425 0.061922 -0.012061 706592.000000 1 0 0
-11.094594 4.074650 -4.591966 12.679863 -0.351972 1.941366 0.004254 -0.001536 -325982.000000 1 0 0
-11.122994 15.145450 -9.199266 20.922049 -0.937347 2.026052 0.048893 -0.018578 398976.000000 1 0 0
-15.502594 6.985250 -0.145266 17.004271 -0.423341 1.579339 0.028545 0.001029 -10474.600000 1 0 0
-12.790694 8.300550 -4.090566 15.787138 -0.575638 1.832894 0.018078 0.000992 708906.000000 1 0 0
-19.338994 1.704050 -5.910066 20.293579 -0.087888 1.866307 0.068156 -0.015124 555050.000000 1 0 0
-12.486694 10.135550 -8.847866 18.355697 -0.681839 2.073758 0.028517 -0.012377 2621.500000 1 0 0
-16.787194 10.960650 -0.988866 20.072957 -0.578423 1.620080 0.046662 -0.005832 469042.000000 1 0 0
-10.748294 6.483750 -14.434966 19.129377 -0.542795 2.425836 0.027218 -0.019749 26616.400000 1 0 0
-13.824994 12.894650 -4.319166 19.392206 -0.750594 1.795407 0.042968 -0.013314 211245.000000 1 0 0
-18.040994 7.693350 -0.404466 19.617051 -0.403087 1.591416 0.048307 -0.003190 501492.000000 1 0 0
-12.842294 6.610750 -2.093166 14.594789 -0.475389 1.714711 0.007217 0.001553 340003.000000 1 0 0
-13.703194 8.361050 -10.663066 19.271369 -0.547852 2.157131 0.031396 -0.009016 -1178690.000000 1 0 0
-14.977794 1.270450 -0.996866 15.064597 -0.084620 1.637017 0.005887 -0.000471 -809797.000000 1 0 0
-13.371394 2.688450 -2.433166 13.854322 -0.198414 1.747337 0.006742 0.001357 -135979.000000 1 0 0
-11.306494 9.343350 -10.950566 18.304368 -0.690615 2.212110 0.023863 -0.011347 391199.000000 1 0 0
-15.259994 4.288950 -8.142966 17.820505 -0.273990 2.045352 0.025723 -0.002039 1108530.000000 1 0 0
-18.289094 10.298050 4.892034 21.551631 -0.512823 1.341809 0.068754 -0.029390 260338.000000 1 0 0
-15.383994 6.076650 -6.251766 17.682690 -0.376187 1.932163 0.033174 0.006438 492750.000000 1 0 0
-7.642794 11.190850 -13.094766 18.844636 -0.971605 2.339050 0.002847 -0.016762 -1092850.000000 1 0 0
-16.920894 9.121650 -2.915466 19.442765 -0.494418 1.721315 0.047946 -0.000603 254138.000000 1 0 0
-20.678294 -0.963650 -4.640566 21.214507 0.046568 1.791324 0.056610 -0.014482 -108383.000000 1 0 0
-15.447194 4.342250 4.141034 16.571635 -0.274031 1.318233 0.004707 -0.007978 -599590.000000 1 0 0
-6.932894 12.638350 -9.461766 17.242909 -1.069059 2.151645 0.004830 -0.009439 -952699.000000 1 0 0
-16.980594 1.645150 5.799134 18.018797 -0.096583 1.243126 0.014746 -0.017162 -2501.200000 1 0 0
-10.346694 14.253850 -3.079366 17.880403 -0.942907 1.743879 0.032325 -0.016922 -404255.000000 1 0 0
-9.893194 8.354050 -12.902066 18.279189 -0.701248 2.354396 -0.002732 -0.014478 -592015.000000 1 0 0
-13.763794 11.583450 2.823034 18.209554 -0.699590 1.415138 0.018971 -0.011814 287340.000000 1 0 0
-17.074694 6.645850 1.849534 18.415572 -0.371181 1.470194 0.025218 -0.002484 878481.000000 1 0 0
-9.357894 13.269450 -8.436866 18.298338 -0.956575 2.050000 0.031901 -0.018430 -953204.000000 1 0 0
-5.630094 9.649150 -12.978166 17.124160 -1.042612 2.430863 -0.006027 -0.011635 -634759.000000 1 0 0
-15.937294 1.830950 3.111334 16.341056 -0.114383 1.379227 0.005410 -0.002300 -774580.000000 1 0 0
-18.742494 -4.895650 4.813034 19.960305 0.255497 1.327266 0.050417 -0.008534 390507.000000 1 0 0
-5.197394 14.498150 -9.278566 17.980574 -1.226581 2.113009 0.002813 -0.003752 -566484.000000 1 0 0
-15.510794 -0.901850 -6.730866 16.932295 0.058078 1.979605 0.017774 -0.006330 663289.000000 1 0 0
-9.068594 11.000850 -9.453566 17.106373 -0.881381 2.156318 0.012953 -0.013846 699412.000000 1 0 0
-16.723094 1.252950 -6.106166 17.847045 -0.074784 1.919988 0.020280 -0.002036 250610.000000 1 0 0
-11.128894 8.544950 -1.552166 14.116574 -0.654807 1.680973 0.013430 -0.004147 -366240.000000 1 0 0
-10.573194 10.791050 -12.810966 19.808080 -0.795595 2.274118 0.029520 -0.017214 -481351.000000 1 0 0
-13.942494 11.659150 -10.350866 20.915768 -0.696446 2.088497 0.059012 -0.024695 229784.000000 1 0 0
-13.156494 5.810950 -7.658066 16.294368 -0.415913 2.060067 0.019174 0.002819 -81931.100000 1 0 0
-8.900894 15.345450 -4.977966 18.425225 -1.045187 1.844367 0.027945 -0.014741 131316.000000 1 0 0
-8.591094 6.037750 -12.973166 16.690247 -0.612597 2.461143 -0.001125 -0.010711 84036.500000 1 0 0
-16.634794 7.237050 4.221834 18.625658 -0.410356 1.342141 0.029295 -0.012261 621831.000000 1 0 0
-12.718894 5.407150 -10.194566 17.173721 -0.401979 2.206339 0.021041 -0.003439 535067.000000 1 0 0
-12.405394 8.988150 -13.270166 20.267657 -0.627004 2.284643 0.048916 -0.022840 -1274260.000000 1 0 0
-10.779994 5.193350 -8.467866 14.658919 -0.448948 2.186655 0.002007 -0.000138 -1085130.000000 1 0 0
-17.675594 -4.557750 -2.645066 18.444405 0.252358 1.714700 0.014457 -0.010296 228468.000000 1 0 0
-8.951694 13.096450 -10.996666 19.302240 -0.971216 2.176948 0.038472 -0.022133 164322.000000 1 0 0
-15.104894 6.086950 6.027834 17.365010 -0.383072 1.216292 0.001399 -0.012598 -1929700.000000 1 0 0
-16.372894 -3.197150 -4.445366 17.264261 0.192844 1.831220 0.019008 -0.011367 153790.000000 1 0 0
-11.311894 -1.178050 -12.527866 16.920229 0.103769 2.404473 0.011191 -0.003070 943165.000000 1 0 0
-15.428294 6.876750 -8.635366 18.970806 -0.419292 2.043385 0.038205 0.002500 316760.000000 1 0 0
-15.078594 9.198250 1.124434 17.698479 -0.547755 1.507221 0.029733 -0.009046 102449.000000 1 0 0
-19.246494 5.224250 8.173634 21.552926 -0.265053 1.181826 0.054397 -0.031490 -960874.000000 1 0 0
-16.319894 0.462950 0.957234 16.354497 -0.028360 1.512233 0.010028 -0.002742 -160917.000000 1 0 0
-17.372894 3.821550 7.192434 19.187308 -0.216524 1.186557 0.009978 -0.013010 592900.000000 1 0 0
-15.483094 3.878550 -1.576366 16.039148 -0.245451 1.669238 0.015308 -0.000714 -1157240.000000 1 0 0
-10.850694 13.199950 0.316334 17.090240 -0.882769 1.552286 0.024462 -0.014989 -1116570.000000 1 0 0
-13.529294 3.240850 0.007634 13.912044 -0.235113 1.570248 0.009765 -0.000477 -383313.000000 1 0 0
-15.014894 0.260050 -4.340166 15.631753 -0.017318 1.852144 0.009816 -0.003793 -139149.000000 1 0 0
-19.104994 6.792450 3.443234 20.566819 -0.341595 1.402587 0.050488 -0.012534 4954.960000 1 0 0
-14.193994 1.398350 -6.447966 15.652511 -0.098200 1.995383 0.012505 0.000097 -2267250.000000 1 0 0
-14.317994 11.848150 5.317334 19.330227 -0.691286 1.292125 0.012217 -0.015629 11475.500000 1 0 0
17.698606 5.480250 6.118834 19.511892 0.300280 1.251820 0.047885 -0.016698 -1190160.000000 1 0 0
18.645106 7.287650 -0.019866 20.018747 0.372603 1.571789 0.043250 -0.000352 1064010.000000 1 0 0
16.561906 5.162350 8.454334 19.298248 0.302156 1.117326 0.051281 -0.013490 471812.000000 1 0 0
11.669206 12.348050 11.006434 20.243179 0.813655 0.995944 0.032818 -0.011776 606578.000000 1 0 0
-2.567894 16.090650 -0.443266 16.300294 -1.412542 1.597993 0.001414 -0.004039 -297878.000000 1 0 0
15.218606 12.546650 3.277434 19.994149 0.689460 1.406134 0.048692 -0.009751 -17821.700000 1 0 0
13.495906 11.829950 6.670634 19.146398 0.719712 1.214931 0.035232 -0.001021 979165.000000 1 0 0
-0.732494 15.911150 8.535234 18.070735 -1.524792 1.078871 0.018220 -0.003644 28071.300000 1 0 0
0.707206 12.757750 9.472234 15.905457 1.515420 0.932867 0.014497 -0.002219 -1120300.000000 1 0 0
0.657006 15.599850 -4.022966 16.123624 1.528705 1.822968 -0.001138 0.002726 -428073.000000 1 0 0
5.519106 10.276650 13.368234 17.742034 1.077948 0.717460 0.023996 -0.017415 -211977.000000 1 0 0
-1.346394 16.505450 -2.724466 16.782889 -1.489404 1.733854 0.000449 0.005045 -181682.000000 1 0 0
8.632106 10.039150 3.225334 13.627200 0.860615 1.331845 0.008496 -0.000065 274714.000000 1 0 0
12.577406 13.555750 -4.837166 19.114070 0.822818 1.826647 0.065429 -0.022015 22745.600000 1 0 0
2.491806 11.593950 7.818434 14.204108 1.359094 0.987911 0.013753 0.001512 627467.000000 1 0 0
-0.343594 14.957150 -8.799966 17.357240 -1.547828 2.102487 0.002739 0.000596 -1375630.000000 1 0 0
2.313906 15.831750 0.284634 16.002484 1.425668 1.553008 0.012324 -0.011480 -372099.000000 1 0 0
1.965806 13.405450 5.362734 14.571527 1.425192 1.193909 0.011524 0.004129 63275.400000 1 0 0
17.877306 9.120350 -1.696566 20.140933 0.471745 1.655131 0.036768 0.003630 735589.000000 1 0 0
-7.175094 14.948750 7.160234 18.061452 -1.123293 1.163163 0.013343 -0.009201 -932503.000000 1 0 0
8.590806 16.012650 -0.150666 18.172221 1.078376 1.579087 0.010041 -0.006569 796693.000000 1 0 0
15.591106 10.345850 1.982234 18.816176 0.585858 1.465253 0.035082 -0.003252 -343004.000000 1 0 0
14.068606 7.506450 8.615134 18.124376 0.490134 1.075453 0.036039 -0.013827 -655379.000000 1 0 0
3.916506 18.848650 -1.694466 19.325679 1.365925 1.658589 0.010137 -0.009899 644783.000000 1 0 0
-0.586394 17.700350 -4.852466 18.362807 -1.537679 1.838228 0.007724 0.007562 168287.000000 1 0 0
1.352606 13.669650 -0.729766 13.755778 1.472168 1.623873 0.002358 -0.003823 779721.000000 1 0 0
10.311306 14.757750 4.246034 18.497109 0.960940 1.339180 0.018316 -0.008314 707777.000000 1 0 0
-1.749094 15.440550 -5.189066 16.382806 -1.457998 1.893085 0.000800 0.002464 454524.000000 1 0 0
15.318006 8.730450 -6.115966 18.661916 0.518028 1.904690 0.048964 -0.008862 246201.000000 1 0 0
-2.379494 18.456650 0.865434 18.629517 -1.442580 1.524325 0.007739 -0.004352 -781224.000000 1 0 0
-3.711994 19.365150 3.413434 20.010984 -1.381409 1.399380 0.014167 -0.011990 7217.810000 1 0 0
1.688106 17.790350 -2.853266 18.096613 1.476191 1.729125 0.001230 -0.002736 -245147.000000 1 0 0
2.875506 12.247150 3.217634 12.985161 1.340184 1.320395 0.006654 0.001569 230157.000000 1 0 0
-2.634894 16.159750 1.904234 16.483516 -1.409166 1.455014 0.004725 -0.005460 -1541970.000000 1 0 0
11.737906 12.868250 -2.561966 17.604942 0.831303 1.716840 0.026956 -0.003160 632581.000000 1 0 0
7.263806 11.703250 4.713434 14.558345 1.015320 1.241094 0.003257 0.002513 -168650.000000 1 0 0
7.154906 15.741750 1.931234 17.398996 1.144192 1.459570 0.006817 -0.007773 -2150090.000000 1 0 0
5.536306 12.336950 10.392434 17.054434 1.148976 0.915532 0.012646 0.004163 1576590.000000 1 0 0
-1.411394 14.110350 3.117934 14.519488 -1.471102 1.354369 0.004441 -0.003365 -1299440.000000 1 0 0
4.621406 16.045950 1.560634 16.770972 1.290375 1.477606 0.009632 -0.013102 -1885680.000000 1 0 0
7.574606 13.232450 11.896834 19.339262 1.050898 0.908201 0.033346 -0.010985 471030.000000 1 0 0
0.534906 17.290750 -9.452966 19.713313 1.539870 2.070906 -0.000745 -0.004108 380295.000000 1 0 0
9.779906 9.632150 15.404634 20.633169 0.777787 0.727866 0.041892 -0.015425 46337.300000 1 0 0
13.562506 7.472650 -0.144066 15.485568 0.503594 1.580100 0.009756 -0.001479 -152259.000000 1 0 0
12.410806 13.718050 -0.114666 18.499356 0.835387 1.576995 0.032314 -0.004825 631712.000000 1 0 0
9.405206 12.399050 3.371934 15.923702 0.921850 1.357425 0.010098 0.004700 344075.000000 1 0 0
-0.663794 12.816050 0.754034 12.855362 -1.519049 1.512107 0.003119 -0.003029 -1177140.000000 1 0 0
16.097506 7.382950 -0.783966 17.727162 0.430015 1.615035 0.032060 0.004184 -1013780.000000 1 0 0
-4.287894 18.492050 -2.371566 19.130245 -1.342945 1.695086 0.014283 -0.000146 19397.500000 1 0 0
11.624006 9.197950 -3.179266 15.160064 0.669407 1.782078 0.022580 -0.006150 133675.000000 1 0 0
14.747706 9.767450 7.631534 19.264948 0.584976 1.163492 0.041802 -0.013597 1459350.000000 1 0 0
4.516406 13.799150 4.607134 15.232864 1.254489 1.263537 0.010447 0.004232 1778700.000000 1 0 0
2.284906 15.951150 5.730134 17.102469 1.428520 1.229141 0.010625 0.001831 288754.000000 1 0 0
6.098006 18.536950 5.396334 20.246596 1.252982 1.301005 0.024933 -0.021057 142191.000000 1 0 0
10.837106 17.180250 -0.829866 20.329598 1.008045 1.611628 0.041316 -0.013917 -478999.000000 1 0 0
9.982706 13.539150 -4.519866 17.418157 0.935459 1.833292 0.036819 -0.011220 860018.000000 1 0 0
16.582006 7.887050 2.305934 18.506372 0.443970 1.445869 0.028438 -0.005844 -247271.000000 1 0 0
4.060606 14.073950 -0.633566 14.661719 1.289905 1.614022 0.010256 -0.005057 1294710.000000 1 0 0
5.577706 13.174550 -2.472366 14.518684 1.170307 1.741919 0.004132 -0.003083 -608719.000000 1 0 0
-6.147594 16.876250 -3.014166 18.212247 -1.221462 1.737063 0.010600 -0.000596 -2253260.000000 1 0 0
18.141406 9.966350 2.415834 20.839266 0.502360 1.454608 0.057915 -0.008443 1008090.000000 1 0 0
7.945506 12.951650 9.394234 17.864153 1.020528 1.017058 0.021617 -0.009098 556046.000000 1 0 0
-2.578394 15.770650 6.621734 17.297656 -1.408737 1.177959 0.010551 -0.003671 202968.000000 1 0 0
11.091306 16.038750 6.282934 20.487407 0.965776 1.259101 0.032253 -0.012610 158309.000000 1 0 0
13.581606 11.996450 1.330834 18.169919 0.723504 1.497487 0.037250 -0.002321 1238910.000000 1 0 0
17.650706 7.766650 -5.532366 20.061788 0.414523 1.850183 0.026757 0.018760 -216634.000000 1 0 0
9.564606 9.247450 7.964334 15.505730 0.768541 1.031377 0.012270 -0.003583 -896496.000000 1 0 0
-1.990594 14.148650 -2.077766 14.438278 -1.431022 1.715204 -0.002550 0.000760 717484.000000 1 0 0
11.019806 11.676350 0.623434 16.067419 0.814318 1.531985 0.012517 0.005424 -174855.000000 1 0 0
11.759106 9.709550 -0.594366 15.261232 0.690219 1.609752 0.013584 -0.000017 -2010430.000000 1 0 0
-0.350894 16.492050 11.035934 19.846982 -1.549523 0.981169 0.029515 0.002316 -47958.300000 1 0 0
1.699206 20.288550 -2.056266 20.463157 1.487239 1.671452 0.017982 -0.007314 -16334.300000 1 0 0
9.303306 14.381750 1.780834 17.220848 0.996616 1.467200 0.012674 -0.002890 -233537.000000 1 0 0
8.423106 11.734350 -5.204866 15.353642 0.948213 1.916649 0.018267 -0.004910 -639887.000000 1 0 0
10.565606 10.079350 10.181934 17.801605 0.761849 0.961894 0.014270 -0.009750 201088.000000 1 0 0
-5.097894 15.737750 5.733634 17.508280 -1.257535 1.237160 -0.003520 -0.002480 -137622.000000 1 0 0
14.658206 9.214550 -1.743666 17.401474 0.561204 1.671167 0.042168 -0.000688 -99381.800000 1 0 0
12.245006 9.626850 6.866834 17.022627 0.666261 1.155573 0.017130 -0.005577 -2225750.000000 1 0 0
3.131806 12.965950 9.906934 16.615397 1.333795 0.931974 0.014768 -0.004766 -376194.000000 1 0 0
8.449806 12.668150 -2.625066 15.452256 0.982555 1.741507 0.015704 -0.002576 -1219910.000000 1 0 0
9.558606 16.956950 2.106034 19.579083 1.057497 1.463022 0.017829 -0.011509 569779.000000 1 0 0
9.440306 14.175550 -7.507466 18.612567 0.983285 1.985976 0.053148 -0.020961 -49608.800000 1 0 0
6.405606 11.471950 7.235434 14.999631 1.061549 1.067433 0.003022 0.000805 -408710.000000 1 0 0
5.412706 17.040450 -5.613966 18.740089 1.263237 1.875038 0.009711 0.000855 -1658720.000000 1 0 0
-4.098294 17.405450 -4.612566 18.466767 -1.339548 1.823246 0.002681 0.005952 210029.000000 1 0 0
-0.147394 18.424650 -0.464266 18.431088 -1.562797 1.595988 0.006963 -0.013298 -300922.000000 1 0 0
6.710506 15.663350 -2.701866 17.253159 1.166032 1.728045 0.005778 -0.004171 356037.000000 1 0 0
-0.771194 20.586950 0.985934 20.624969 -1.533354 1.522975 0.013882 -0.010488 32362.300000 1 0 0
-1.297194 18.678250 4.217534 19.192377 -1.501458 1.349238 0.006397 -0.010821 351679.000000 1 0 0
7.237306 13.883650 -4.430066 16.271442 1.090268 1.846537 0.009953 0.000562 966282.000000 1 0 0
-1.044094 11.935650 7.701434 14.242962 -1.483542 0.999505 0.006000 0.004217 591478.000000 1 0 0
7.704506 10.844550 10.873234 17.181121 0.953092 0.885556 0.013024 -0.007608 410579.000000 1 0 0
1.534006 16.134050 -7.367266 17.802734 1.476002 1.997451 -0.002288 -0.000369 35326.600000 1 0 0
8.927606 7.256050 14.722234 18.684127 0.682476 0.663317 0.031666 -0.006192 -494953.000000 1 0 0
11.406306 11.304550 -4.692266 16.730632 0.780918 1.855069 0.046239 -0.011926 118879.000000 1 0 0
-3.436894 16.998150 4.374734 17.885403 -1.371294 1.323691 0.005381 -0.004636 157527.000000 1 0 0
4.015906 15.358850 -6.833866 17.283619 1.315050 1.977295 0.005908 -0.004886 -1008090.000000 1 0 0
-4.391394 13.991950 9.311134 17.371132 -1.266681 1.005090 0.021138 -0.013179 -508844.000000 1 0 0
6.212906 17.790850 0.486734 18.850768 1.234817 1.544973 0.006427 -0.015601 -56992.800000 1 0 0
9.813406 10.680550 -2.185766 14.668151 0.827685 1.720368 0.015304 -0.002596 -1202690.000000 1 0 0
7.065206 18.174950 -2.655066 19.679820 1.200040 1.706122 0.008519 -0.006048 454457.000000 1 0 0
3.575106 10.389850 10.479134 15.183630 1.239391 0.809086 0.012150 -0.000314 690581.000000 1 0 0
0.057906 18.481950 2.018434 18.591932 1.567663 1.462017 0.009482 -0.012303 157922.000000 1 0 0
-0.902794 17.107750 -7.407366 18.664384 -1.518074 1.978902 0.012518 -0.001705 -14638.500000 1 0 0
10.209706 8.679650 13.007034 18.675047 0.704574 0.800298 0.033113 -0.010983 -76018.400000 1 0 0
3.658706 11.420950 5.479734 13.185284 1.260776 1.142200 0.006292 0.002701 830120.000000 1 0 0
13.067506 13.929350 8.204934 20.787195 0.817311 1.165043 0.037833 -0.017272 174308.000000 1 0 0
-0.585894 17.476850 6.647034 18.707395 -1.537285 1.207544 0.014034 -0.003566 -801981.000000 1 0 0
12.209406 13.798850 5.757534 19.303551 0.846435 1.267924 0.026862 -0.003808 180278.000000 1 0 0
4.824406 14.793050 -4.342466 16.154449 1.255546 1.842953 0.000595 -0.001677 -447163.000000 1 0 0
3.780006 17.557950 4.699534 18.564905 1.358745 1.314871 0.015842 -0.009587 -1927890.000000 1 0 0
7.082306 11.631650 2.073434 13.775104 1.023871 1.419702 0.010240 0.000432 896686.000000 1 0 0
6.511606 8.620150 11.645234 15.884568 0.923852 0.747904 0.014565 -0.006464 474404.000000 1 0 0
-5.367394 14.826350 1.723834 15.861941 -1.223456 1.461904 0.005960 -0.002258 -115082.000000 1 0 0
6.886106 13.803450 5.951934 16.534183 1.108054 1.202553 0.008487 -0.002339 -391193.000000 1 0 0
5.938506 15.992350 4.972534 17.769277 1.215243 1.287170 0.011894 -0.011101 580081.000000 1 0 0
1.278606 17.921050 4.252234 18.462946 1.499570 1.338398 0.020293 -0.007912 -291450.000000 1 0 0
7.178106 18.071650 -7.197466 20.734350 1.192704 1.925303 0.014907 -0.000240 307997.000000 1 0 0
-2.474794 18.840950 -6.076966 19.950828 -1.440192 1.880312 0.016348 0.001491 -919931.000000 1 0 0
13.615806 9.885750 -4.456566 17.406298 0.627996 1.829711 0.038522 -0.012802 -2626650.000000 1 0 0
-1.788694 18.129150 9.632934 20.607255 -1.472451 1.084388 0.028495 -0.009096 -351203.000000 1 0 0
3.402106 11.799650 -1.565466 12.379691 1.290087 1.697590 0.005316 -0.002624 394832.000000 1 0 0
4.343406 13.889050 -10.935066 18.202927 1.267710 2.215212 0.014427 -0.017979 44862.500000 1 0 0
11.556006 13.502550 2.336334 17.925362 0.862922 1.440088 0.025041 -0.002770 256139.000000 1 0 0
15.943506 6.313950 -7.041866 18.537778 0.377071 1.960447 0.017820 0.005504 159932.000000 1 0 0
2.590606 15.911050 3.030534 16.402954 1.409395 1.384973 0.016659 -0.009114 21186.800000 1 0 0
13.571606 10.610650 3.526734 17.584432 0.663561 1.368867 0.028659 0.002295 -382039.000000 1 0 0
-5.031094 19.497250 -6.065966 21.029755 -1.318264 1.863401 0.008007 -0.002632 309064.000000 1 0 0
5.489306 12.091350 -0.020566 13.279068 1.144632 1.572345 0.007576 -0.002985 328550.000000 1 0 0
4.944306 15.272750 9.686934 18.749394 1.257710 1.027859 0.024413 -0.012532 -50144.000000 1 0 0
7.885206 9.531950 13.700034 18.458751 0.879665 0.734453 0.029967 -0.015046 -1338150.000000 1 0 0
-5.002194 13.515950 6.826934 15.947097 -1.216332 1.128408 0.000436 -0.003225 -824317.000000 1 0 0
-4.656594 17.158150 0.567334 17.787857 -1.305787 1.538896 0.009651 0.000064 -2319040.000000 1 0 0
-0.626994 16.395550 3.471534 16.770770 -1.532573 1.362290 0.008372 -0.006425 -1046950.000000 1 0 0
7.816706 16.936550 -4.859266 19.275894 1.138396 1.825636 0.011093 -0.005813 287089.000000 1 0 0
3.002306 16.576850 -4.631266 17.471532 1.391624 1.839078 -0.002295 0.001169 10385.900000 1 0 0
9.465206 14.408050 8.077834 19.037685 0.989559 1.132599 0.022063 -0.014279 10833.600000 1 0 0
12.711206 10.924350 9.062334 19.053664 0.709941 1.075126 0.027784 -0.014062 686173.000000 1 0 0
3.703906 12.203850 12.276434 17.702082 1.276129 0.804457 0.021807 -0.003396 709679.000000 1 0 0
-3.215494 18.993750 5.972634 20.168647 -1.403094 1.270153 0.017706 -0.013721 -104978.000000 1 0 0
-2.691894 15.781050 10.221334 18.993776 -1.401845 1.002566 0.027890 -0.010779 -749783.000000 1 0 0
2.054006 14.218650 7.755134 16.325779 1.427330 1.075805 0.014260 0.001825 514152.000000 1 0 0
4.591906 17.246750 8.030434 19.570996 1.310585 1.147988 0.029554 -0.008322 224590.000000 1 0 0
-1.818694 13.500450 9.368634 16.533031 -1.436889 0.968348 0.019121 -0.003726 -1488070.000000 1 0 0
5.798906 17.697250 3.051934 18.871520 1.254149 1.408361 0.003141 -0.019847 513701.000000 1 0 0
7.136906 15.416950 -6.798066 18.298401 1.137245 1.951433 0.008595 -0.004380 -65315.300000 1 0 0
11.003806 7.600250 9.398134 16.345412 0.604452 0.958228 0.012150 -0.006633 507594.000000 1 0 0
9.087506 16.627350 -2.653266 19.133514 1.070614 1.709916 0.023402 -0.002096 -1038130.000000 1 0 0
14.749906 11.290950 -6.276666 19.607188 0.653343 1.896653 0.091903 -0.015627 267558.000000 1 0 0
10.969206 6.520050 16.062234 20.514139 0.536289 0.671348 0.048359 -0.019426 -642279.000000 1 0 0
8.491706 8.473250 10.102434 15.683247 0.784310 0.870879 0.007389 -0.005066 110534.000000 1 0 0
16.388606 9.398850 4.378234 19.393136 0.520706 1.343071 0.044749 -0.006961 -44134.200000 1 0 0
-3.446794 14.359350 4.542534 15.450112 -1.335215 1.272374 0.002691 0.000275 -1408060.000000 1 0 0
4.928906 14.502150 12.892934 20.020845 1.243171 0.871113 0.030029 -0.004725 -762324.000000 1 0 0
16.122906 10.336750 -4.238466 19.615328 0.570109 1.788593 0.059526 -0.021007 550969.000000 1 0 0
14.854606 13.907850 6.177634 21.266189 0.752494 1.276057 0.057482 -0.010819 512568.000000 1 0 0
6.205306 9.594550 9.208334 14.674967 0.996707 0.892476 0.003876 -0.001232 192455.000000 1 0 0
10.483506 12.170050 8.644934 18.241407 0.859710 1.077061 0.023277 -0.010084 -635722.000000 1 0 0
7.978206 11.476550 -0.355266 13.981745 0.963316 1.596208 0.009524 -0.002829 46063.400000 1 0 0
7.172106 13.623550 -8.709466 17.688839 1.086214 2.085608 0.020927 -0.008259 -587886.000000 1 0 0
2.650706 15.380850 -2.300666 15.776244 1.400135 1.717149 0.002121 -0.003909 344297.000000 1 0 0
11.958706 13.795950 -7.677466 19.806120 0.856614 1.968857 0.062510 -0.020569 -1006400.000000 1 0 0
-7.946394 14.880750 9.609134 19.414360 -1.080316 1.053019 0.026766 -0.017777 272876.000000 1 0 0
11.483606 9.535250 2.197334 15.087163 0.692967 1.424634 0.017098 0.001019 -1505560.000000 1 0 0
12.121806 8.637550 4.455834 15.537050 0.619108 1.279924 0.013418 -0.000105 263458.000000 1 0 0
14.078306 7.953050 6.008734 17.249771 0.514222 1.215000 0.019432 -0.006919 -2880960.000000 1 0 0
16.213806 7.387450 7.188434 19.212900 0.427524 1.187320 0.053217 -0.012445 -202328.000000 1 0 0
13.676306 8.288250 2.344234 16.162669 0.544841 1.425243 0.016848 -0.000643 -2288070.000000 1 0 0
-4.353894 17.271850 -7.122566 19.183434 -1.323861 1.951191 0.006445 -0.014638 375844.000000 1 0 0
3.210106 19.611050 -4.031466 20.276854 1.408547 1.770951 0.019442 -0.005113 503801.000000 1 0 0
-0.066194 14.866750 6.232534 16.120457 -1.566344 1.173830 0.014755 0.001179 838445.000000 1 0 0
6.989406 16.153650 8.254434 19.440368 1.162436 1.132273 0.035092 -0.009563 201637.000000 1 0 0
12.851806 15.289050 -2.191166 20.092914 0.871791 1.680065 0.061346 -0.015570 377527.000000 1 0 0
12.729806 15.909950 4.240734 20.812456 0.895985 1.365600 0.040619 -0.006411 -37136.000000 1 0 0
3.000806 17.986550 1.368234 18.286413 1.405483 1.495904 0.018490 -0.020346 -510771.000000 1 0 0
10.426206 14.663950 -1.508066 18.055788 0.952720 1.654416 0.028409 -0.001959 -1964710.000000 1 0 0
-6.269894 15.653450 -0.634166 16.874366 -1.189821 1.608387 0.005225 -0.002394 -278023.000000 1 0 0
-3.852994 15.886250 -2.646466 16.559659 -1.332854 1.731299 0.000183 0.002640 -2201760.000000 1 0 0
-6.964394 16.852350 1.624834 18.306954 -1.178912 1.481924 0.021748 -0.008033 -259800.000000 1 0 0
0.087806 19.417050 -6.665166 20.529344 1.566274 1.901454 0.022862 -0.004497 299300.000000 1 0 0
4.933006 14.839450 7.029634 17.145250 1.249863 1.148337 0.023052 -0.003698 -28891.900000 1 0 0
8.758806 12.310050 6.837534 16.583302 0.952383 1.145803 0.018233 -0.005774 -789467.000000 1 0 0
-7.777994 17.465650 -5.550566 19.908664 -1.151832 1.853342 0.038179 -0.015555 292486.000000 1 0 0
-7.823394 17.674550 -1.180166 19.364607 -1.154083 1.631779 0.037279 -0.009769 66655.500000 1 0 0
-13.756094 -9.274850 9.207134 18.974306 0.593224 1.064156 0.054123 -0.007497 482425.000000 1 0 0
-12.463294 -12.906550 7.499534 19.446227 0.802868 1.174879 0.038967 -0.011366 -414623.000000 1 0 0
-3.543594 -15.115750 12.489634 19.925710 1.340524 0.893344 0.007423 -0.013952 -28166.400000 1 0 0
-1.825794 -14.058450 15.228034 20.805446 1.441648 0.749653 0.018635 -0.004108 -1049510.000000 1 0 0
-7.203194 -13.929550 12.702534 20.180999 1.093550 0.889976 0.039363 -0.011145 -90567.300000 1 0 0
-9.892394 -11.567750 8.884434 17.624003 0.863308 1.042445 0.023526 -0.008127 225651.000000 1 0 0
-10.711794 -10.770450 11.150834 18.843732 0.788129 0.937565 0.047251 -0.015388 135125.000000 1 0 0
-5.943194 -12.493650 10.910434 17.619603 1.126779 0.903046 0.019464 -0.003796 529628.000000 1 0 0
-12.458494 -10.358950 7.275534 17.761062 0.693642 1.148744 0.023453 -0.005185 -79496.200000 1 0 0
-7.663594 -11.345150 12.445734 18.502416 0.976707 0.833006 0.029608 -0.011475 -341593.000000 1 0 0
-14.800594 -11.678050 7.295234 20.215214 0.668013 1.201587 0.059489 -0.002675 781149.000000 1 0 0
-11.054994 -9.214550 9.083634 17.018614 0.694848 1.007771 0.020154 -0.006712 90175.900000 1 0 0
-5.372494 -12.066250 13.343134 18.774912 1.151900 0.780318 0.025183 -0.008982 -343387.000000 1 0 0
3.957806 -12.366650 14.556034 19.505804 -1.261058 0.728399 0.010275 -0.004469 -279279.000000 1 0 0
6.520506 -12.713950 13.922434 19.949830 -1.096912 0.798374 0.028526 -0.005426 157832.000000 1 0 0
6.788406 -8.439750 15.963434 19.291010 -0.893416 0.596145 0.030241 -0.010957 -1165440.000000 1 0 0
0.790706 -1.732950 14.473434 14.598241 -1.142734 0.130856 0.014514 -0.008489 -1194010.000000 1 0 0
-0.094994 -6.289850 15.643334 16.860758 1.555695 0.382336 0.008614 -0.010078 -619509.000000 1 0 0
-1.314994 -4.607350 18.050734 18.675810 1.292776 0.259454 0.018280 -0.035173 -1009770.000000 1 0 0
-5.332694 12.660050 12.781734 18.763988 -1.172130 0.821417 0.022158 -0.010778 433368.000000 1 0 0
-4.164194 8.807050 11.574234 15.128369 -1.129124 0.699649 0.002991 0.003234 -124015.000000 1 0 0
-0.589494 -3.911850 15.026334 15.538365 1.421227 0.257431 0.011568 -0.009747 387560.000000 1 0 0
-4.519694 9.274850 14.103134 17.474235 -1.117355 0.631604 0.013124 -0.005936 528293.000000 1 0 0
-13.520394 -2.470350 16.740234 21.659620 0.180719 0.687433 0.057147 0.001894 -980679.000000 1 0 0
-0.260894 0.812950 17.146634 17.167878 -1.260257 0.049752 0.032393 -0.012829 243293.000000 1 0 0
-3.173394 -7.207650 15.467734 17.357173 1.156054 0.470937 0.012532 -0.011501 512810.000000 1 0 0
-7.482194 5.468850 12.537434 15.590985 -0.631175 0.636558 -0.008142 0.002072 -1660840.000000 1 0 0
-10.105794 9.993550 13.066034 19.305941 -0.779814 0.827405 0.022863 -0.015547 578682.000000 1 0 0
-5.608194 2.236250 11.184634 12.710181 -0.379426 0.494988 0.004858 0.002260 -3244310.000000 1 0 0
-7.055294 -7.464950 16.931634 19.803608 0.813603 0.545289 0.037997 -0.014531 -4133.820000 1 0 0
-4.727594 2.877950 18.635234 19.439771 -0.546833 0.288703 0.030347 -0.007797 -923192.000000 1 0 0
0.932906 -8.346350 16.566634 18.573778 -1.459484 0.469186 0.001647 -0.006308 721023.000000 1 0 0
-15.184594 -3.575750 13.918434 20.906475 0.231272 0.842301 0.084232 -0.011828 435618.000000 1 0 0
-14.318294 2.384250 13.091834 19.547233 -0.165004 0.836919 0.036741 -0.009980 421077.000000 1 0 0
-5.478894 0.895750 16.087034 17.018029 -0.162057 0.332303 0.027696 -0.007536 406945.000000 1 0 0
4.672106 5.684550 15.163734 16.854718 0.882846 0.451776 0.015229 -0.004658 123950.000000 1 0 0
-1.175994 -11.998650 13.777034 18.307300 1.473098 0.718881 -0.002843 -0.005863 26739.700000 1 0 0
-6.024294 -4.108050 16.829034 18.340790 0.598484 0.408861 0.032097 -0.012698 329658.000000 1 0 0
-12.920794 -1.557050 9.865334 16.330834 0.119929 0.922170 0.025767 -0.004324 -726843.000000 1 0 0
-14.417094 10.417050 10.118034 20.463190 -0.625699 1.053594 0.008508 -0.003724 624589.000000 1 0 0
-3.574294 -3.228150 17.569934 18.218099 0.734557 0.267548 0.024159 -0.021771 688433.000000 1 0 0
-7.934494 9.336550 11.754234 16.979087 -0.866400 0.806156 -0.003070 -0.003694 -167220.000000 1 0 0
-4.594794 10.772550 16.163134 19.960132 -1.167632 0.627035 0.026822 -0.005857 492271.000000 1 0 0
-12.225694 12.851850 8.397134 19.625226 -0.810362 1.128656 0.011380 -0.012713 -491425.000000 1 0 0
-12.646094 3.186150 10.509034 16.748583 -0.246811 0.892512 0.010118 -0.002550 525206.000000 1 0 0
-10.032194 -3.532950 13.618834 17.280026 0.338599 0.663038 0.024867 -0.001672 -1603430.000000 1 0 0
-4.083494 -6.308750 17.845934 19.363693 0.996339 0.398566 0.021922 -0.013780 -493079.000000 1 0 0
1.039406 -3.561650 17.979634 18.358458 -1.286849 0.203500 0.023428 -0.019530 -870434.000000 1 0 0
-5.995194 1.868450 13.734334 15.101834 -0.302118 0.428841 0.011121 0.001916 -734024.000000 1 0 0
-10.485794 8.668950 10.226534 17.020123 -0.690830 0.926233 0.006286 -0.006715 -529797.000000 1 0 0
4.684706 2.395850 17.265034 18.049044 0.472741 0.295824 0.023570 -0.011897 -306256.000000 1 0 0
0.580706 -5.414450 13.245234 14.320954 -1.463954 0.390063 0.011351 -0.006194 -273685.000000 1 0 0
-4.182794 5.741550 20.471934 21.669362 -0.941189 0.333993 0.063505 -0.024530 -311724.000000 1 0 0
-10.854594 10.847450 8.998734 17.789508 -0.785069 1.040435 0.012531 -0.010020 350024.000000 1 0 0
0.703406 4.169350 13.006434 13.676461 1.403661 0.314314 0.013228 -0.005560 -3118610.000000 1 0 0
-3.123694 7.170250 13.374934 15.493832 -1.159943 0.529138 0.004892 0.000898 -1714030.000000 1 0 0
0.658006 8.872950 14.112134 16.682762 1.496773 0.562525 0.010472 -0.004485 208736.000000 1 0 0
-4.104094 -6.733950 13.083834 15.276662 1.023448 0.542426 0.010963 -0.007452 512577.000000 1 0 0
-5.283894 8.354650 16.515634 19.248010 -1.006858 0.539348 0.030553 0.000128 222185.000000 1 0 0
1.816906 -10.562650 15.700234 19.009684 -1.400451 0.598987 -0.001342 -0.000079 -223470.000000 1 0 0
-15.191094 -0.920150 14.306334 20.887489 0.060498 0.816297 0.064808 -0.005001 66110.300000 1 0 0
-13.584894 -5.225250 8.460034 16.835224 0.367192 1.044285 0.036226 -0.012960 -171065.000000 1 0 0
-14.317094 -1.967250 12.106234 18.852325 0.136551 0.873482 0.062796 -0.009947 808353.000000 1 0 0
9.553506 1.407650 16.846034 19.417514 0.146291 0.520503 0.047064 -0.011959 -6885.680000 1 0 0
5.132506 -6.716250 16.878634 18.876942 -0.918274 0.464289 0.031586 -0.013812 -182099.000000 1 0 0
-5.987194 -2.665950 11.157834 12.940288 0.418918 0.531090 0.006544 0.000646 439512.000000 1 0 0
0.817806 -6.205750 18.027034 19.082822 -1.439769 0.334199 0.016603 -0.018186 -437640.000000 1 0 0
-8.606994 11.870750 11.848234 18.851411 -0.943449 0.891165 0.016470 -0.013511 372532.000000 1 0 0
-6.563694 -5.892950 14.883134 17.300769 0.731604 0.535020 0.028554 -0.007974 -1376500.000000 1 0 0
-4.241694 -8.885550 17.217834 19.834283 1.125416 0.519466 0.021510 -0.013210 193047.000000 1 0 0
2.603606 -6.234750 16.255834 17.604063 -1.175214 0.393914 0.016209 -0.014161 -197629.000000 1 0 0
2.233406 5.190350 15.892434 16.867048 1.164445 0.341606 0.012607 -0.010315 -2258300.000000 1 0 0
0.904706 -8.807450 13.987534 16.554177 -1.468435 0.564315 -0.000878 -0.004522 -412288.000000 1 0 0
-9.920294 -2.842050 11.203034 15.231463 0.279015 0.744364 0.002703 0.000700 -537161.000000 1 0 0
-1.279094 10.085050 12.418934 16.049120 -1.444639 0.685966 0.009510 -0.004473 -407163.000000 1 0 0
-12.335894 -3.646050 11.434534 17.210942 0.287382 0.844138 0.028489 0.000004 -444436.000000 1 0 0
-1.748494 6.631150 19.797934 20.952031 -1.312985 0.333455 0.035938 -0.020235 -342896.000000 1 0 0
0.534906 -13.135050 15.430034 20.270708 -1.530095 0.705637 -0.005763 -0.015414 -1687440.000000 1 0 0
4.218406 -8.692450 15.329434 18.120298 -1.118981 0.562393 0.016988 -0.004721 225013.000000 1 0 0
4.565106 -4.439250 16.149834 17.359847 -0.771422 0.375571 0.028160 -0.012569 74626.000000 1 0 0
8.113506 1.816050 14.757834 16.938734 0.220201 0.513058 0.013131 -0.001695 -329560.000000 1 0 0
-6.297594 -0.073650 11.874734 13.441519 0.011694 0.487649 0.005707 0.003431 185708.000000 1 0 0
-3.118694 -10.912150 18.438134 21.651006 1.292417 0.551754 0.021936 -0.011805 455024.000000 1 0 0
3.304106 -1.435150 13.632034 14.099969 -0.409766 0.258349 0.012844 -0.006099 326431.000000 1 0 0
-2.756494 8.756250 16.019834 18.463620 -1.265815 0.520354 0.015149 0.003934 -1510520.000000 1 0 0
-3.207294 4.101250 14.862534 15.748077 -0.907110 0.336948 0.020493 -0.003358 -670035.000000 1 0 0
-4.408594 -9.133550 19.853434 22.293862 1.121099 0.472279 0.033825 -0.013295 -58181.900000 1 0 0
-5.650394 -3.071450 19.211234 20.259128 0.497902 0.323038 0.035345 -0.016813 -897538.000000 1 0 0
-6.607494 -8.696150 11.131434 15.594577 0.921041 0.775885 0.015545 -0.007071 -264836.000000 1 0 0
-11.696394 2.386050 12.713734 17.439550 -0.201238 0.753911 0.025486 -0.010077 -536217.000000 1 0 0
-11.539994 -7.672650 11.679834 18.123453 0.586761 0.870480 0.035377 -0.006088 -1005250.000000 1 0 0
-10.999294 -7.277650 15.639434 20.458264 0.584519 0.700600 0.056861 -0.020913 -250497.000000 1 0 0
0.322306 5.609850 17.613634 18.488224 1.513406 0.308814 0.013082 -0.011323 -141562.000000 1 0 0
-2.224194 -0.152550 13.232334 13.418829 0.068479 0.166915 0.014021 -0.003513 374423.000000 1 0 0
-5.819894 -10.673450 18.331334 21.996170 1.071593 0.585587 0.048953 -0.012093 267546.000000 1 0 0
0.309406 2.555950 19.015434 19.188938 1.450329 0.134577 0.040464 -0.019705 -414696.000000 1 0 0
-0.798394 10.945750 14.858434 18.472140 -1.497984 0.636182 0.021167 -0.002570 453794.000000 1 0 0
-12.958494 -2.227050 14.295234 19.422565 0.170198 0.743636 0.055391 -0.002865 124870.000000 1 0 0
-13.692794 8.427450 11.604334 19.828643 -0.551714 0.945632 0.015308 -0.006287 826885.000000 1 0 0
-18.016594 -0.546350 6.937334 19.313797 0.030316 1.203396 0.053708 -0.020593 -415778.000000 1 0 0
-1.929694 -7.808050 17.678334 19.421969 1.328510 0.426973 0.009983 -0.014247 -1250040.000000 1 0 0
5.724806 2.723850 14.508934 15.833570 0.444099 0.411954 0.012851 -0.005950 -1891650.000000 1 0 0
-13.821994 -6.650450 11.054134 18.906874 0.448454 0.946333 0.030860 -0.011747 374107.000000 1 0 0
3.238606 7.698850 16.069634 18.110605 1.172607 0.479328 0.018488 -0.017348 -314313.000000 1 0 0
1.104606 2.100150 14.585134 14.776905 1.086593 0.161282 0.017371 -0.009643 -2710230.000000 1 0 0
-14.382694 0.589350 9.865834 17.451186 -0.040953 0.969952 0.029183 -0.005993 -2824560.000000 1 0 0
-9.406594 -5.158750 15.513434 18.861690 0.501628 0.605032 0.034908 -0.003819 -181803.000000 1 0 0
-2.549494 -0.105050 18.135734 18.314361 0.041181 0.139780 0.036795 -0.015318 392853.000000 1 0 0
6.852106 3.725150 17.401034 19.068930 0.497955 0.421361 0.033307 -0.015644 -362011.000000 1 0 0
-4.189794 -0.998350 14.807134 15.420840 0.233919 0.283069 0.021795 -0.002127 76034.500000 1 0 0
5.049806 -9.123850 17.814234 20.641999 -1.065290 0.529600 0.033234 -0.005035 -114033.000000 1 0 0
1.880206 6.802150 13.445534 15.185085 1.301116 0.483349 0.012144 -0.004725 -1028130.000000 1 0 0
-3.710594 -0.925350 20.228234 20.586555 0.244396 0.186849 0.043613 -0.019562 -1919840.000000 1 0 0
-10.598994 1.500050 16.472234 19.644931 -0.140594 0.576276 0.028123 0.001428 -354249.000000 1 0 0
-3.824994 7.174250 18.293234 20.018563 -1.080977 0.418219 0.033108 -0.013777 142215.000000 1 0 0
-12.577794 1.147050 14.752534 19.420450 -0.090945 0.708038 0.037273 -0.006311 856503.000000 1 0 0
-16.136194 -4.739150 8.493234 18.840683 0.285664 1.103144 0.055089 -0.014516 -889283.000000 1 0 0
-2.437794 0.725250 15.694034 15.898791 -0.289164 0.160664 0.030074 -0.008155 -153944.000000 1 0 0
-13.680994 -8.856150 12.342034 20.443258 0.574498 0.922635 0.057153 -0.023505 408145.000000 1 0 0
6.103506 -3.177050 14.442634 15.998004 -0.479935 0.444613 0.019664 -0.011721 1093520.000000 1 0 0
-15.587994 0.271050 7.585334 17.337714 -0.017387 1.117974 0.023722 -0.012949 118001.000000 1 0 0
-14.211594 6.016050 12.271134 19.716567 -0.400447 0.899021 0.034331 -0.006464 -347531.000000 1 0 0
0.191706 9.430450 16.681134 19.163256 1.550471 0.514630 0.010286 -0.011578 -289003.000000 1 0 0
-10.318494 -5.421950 10.876934 15.942916 0.483807 0.819971 0.020313 -0.008397 -29251.500000 1 0 0
-3.187294 -10.982350 15.092634 18.935640 1.288336 0.648403 0.014310 -0.006252 -1392530.000000 1 0 0
-3.646694 2.813050 12.709834 13.518562 -0.657055 0.347648 0.012532 -0.000769 -2256370.000000 1 0 0
-12.541294 -7.807850 7.395834 16.521045 0.556851 1.106648 0.032718 -0.007433 724579.000000 1 0 0
-8.171194 -1.896650 13.151034 15.598570 0.228075 0.567789 0.008046 0.000812 -424188.000000 1 0 0
-9.873294 6.361850 9.488034 15.098936 -0.572393 0.891313 -0.003757 -0.001469 -1102660.000000 1 0 0
-17.733094 -3.427750 6.632434 19.240615 0.190942 1.218866 0.044131 -0.014745 270190.000000 1 0 0
-1.339394 -0.095350 20.530034 20.573900 0.071069 0.065313 0.041817 -0.013953 -922912.000000 1 0 0
-2.671094 2.717350 20.178234 20.534845 -0.793982 0.186637 0.047628 -0.012634 -553707.000000 1 0 0
-3.835594 11.301450 11.158034 16.338185 -1.243605 0.819014 0.011351 -0.005020 -824742.000000 1 0 0
-4.241994 -4.862550 14.922434 16.257858 0.853452 0.408142 0.013440 -0.010036 1050210.000000 1 0 0
-0.178494 -14.324750 13.222834 19.495478 1.558336 0.825416 0.001980 -0.010204 20870.700000 1 0 0
-12.066694 0.437550 8.398834 14.708398 -0.036245 0.963045 0.000339 0.000146 -38221.300000 1 0 0
-7.768694 2.169150 15.588434 17.551556 -0.272282 0.477490 0.010690 0.008872 -448991.000000 1 0 0
3.659506 -2.149150 18.515934 18.996070 -0.531013 0.225312 0.033395 -0.012985 -149385.000000 1 0 0
-2.141594 4.863550 12.530134 13.610467 -1.156008 0.401118 0.005026 -0.001033 -127048.000000 1 0 0
-10.160294 -6.227950 13.328534 17.879283 0.549901 0.729551 0.022747 -0.006710 -237597.000000 1 0 0
2.469706 -3.761250 14.187034 14.883494 -0.989782 0.307128 0.013322 -0.008882 703.603000 1 0 0
6.943306 1.056750 17.039434 18.430099 0.151038 0.390960 0.018704 -0.005770 -550233.000000 1 0 0
-1.911594 -5.680550 13.907634 15.144145 1.246184 0.406904 0.006880 -0.008804 -1683540.000000 1 0 0
-12.749194 3.795150 14.606934 19.756205 -0.289325 0.738678 0.009662 0.000701 346668.000000 1 0 0
-13.178494 -6.562550 13.541034 20.002484 0.462026 0.827162 0.042166 -0.014586 -250432.000000 1 0 0
-9.549594 6.824750 11.978034 16.770369 -0.620500 0.775262 -0.000504 0.001149 -434733.000000 1 0 0
-1.066694 -2.513250 12.892234 13.178163 1.169410 0.208691 0.010352 -0.004159 534360.000000 1 0 0
0.080006 6.668650 15.369234 16.753825 1.558800 0.409408 0.011155 -0.007117 502503.000000 1 0 0
-16.502794 -0.945350 9.777334 19.205004 0.057222 1.036653 0.064409 -0.012604 275015.000000 1 0 0
-1.267194 2.760250 13.676734 14.009919 -1.140412 0.218526 0.013079 -0.005133 -1952960.000000 1 0 0
-11.231094 -3.402450 15.980334 19.826377 0.294160 0.633410 0.037154 -0.007689 653923.000000 1 0 0
-5.431194 -1.516250 17.185834 18.087282 0.272243 0.317044 0.045351 -0.007595 565269.000000 1 0 0
-11.944694 6.658850 11.083134 17.602610 -0.508563 0.889719 0.011695 0.001589 -1293330.000000 1 0 0
-2.875094 4.715350 18.512134 19.318380 -1.023253 0.289925 0.043115 -0.015932 229525.000000 1 0 0
5.242706 -1.840150 16.554534 17.462094 -0.337559 0.323820 0.028008 -0.011476 -1956750.000000 1 0 0
-7.943094 -4.203450 12.066634 15.045444 0.486730 0.640139 0.013520 -0.000719 -1690950.000000 1 0 0
-11.668694 -0.799550 16.147934 19.938743 0.068414 0.626854 0.047454 -0.002505 481729.000000 1 0 0
2.106106 1.968550 17.320034 17.558316 0.751652 0.164934 0.018256 -0.014260 -1846120.000000 1 0 0
-8.898794 -7.568050 11.596234 16.460151 0.704760 0.789073 0.019978 -0.008479 -117813.000000 1 0 0
-7.332194 6.777650 14.818534 17.868592 -0.746116 0.592931 0.001697 -0.004105 53457.400000 1 0 0
-5.565194 3.435950 15.910534 17.202391 -0.553115 0.390017 0.012391 -0.000308 879538.000000 1 0 0
-9.433194 4.228150 11.563834 15.510792 -0.421373 0.729459 -0.005364 -0.002350 -50658.500000 1 0 0
-10.183394 0.225250 14.247434 17.514041 -0.022116 0.620674 0.012060 0.002174 -803607.000000 1 0 0
8.388906 -0.638050 15.704934 17.816448 -0.075913 0.491798 0.027422 -0.012793 282178.000000 1 0 0
-8.533294 -7.562050 14.858034 18.728665 0.725128 0.654535 0.043451 -0.007200 -699679.000000 1 0 0
-0.067494 4.098550 15.554934 16.085977 -1.554330 0.257667 0.016547 -0.012161 -35020.800000 1 0 0
-8.067094 3.118250 9.636634 12.948599 -0.368849 0.731427 -0.004730 0.001660 -840046.000000 1 0 0
-2.015794 -9.645150 13.161934 16.441680 1.364766 0.642630 -0.002959 -0.004725 300509.000000 1 0 0
-6.088394 10.295950 10.415634 15.860661 -1.036770 0.854367 0.013003 -0.003192 -2772370.000000 1 0 0
-8.685794 -2.665750 15.577034 18.033115 0.297783 0.528029 0.033988 -0.011594 -181490.000000 1 0 0
4.091106 5.756950 17.629834 18.991858 0.952967 0.381025 0.017678 -0.009848 556693.000000 1 0 0
-6.766394 -0.974350 15.156334 16.626723 0.143015 0.423722 0.021576 -0.002513 -1190370.000000 1 0 0
-0.786794 -10.043950 15.540434 18.520396 1.492621 0.575173 -0.004433 0.000126 129872.000000 1 0 0
-4.402294 5.932650 16.148634 17.758235 -0.932406 0.429053 0.024890 -0.004672 -525.769000 1 0 0
3.759706 0.038450 17.394634 17.796353 0.010227 0.212878 0.027726 -0.012757 -464385.000000 1 0 0
1.379906 0.202650 19.107234 19.158069 0.145816 0.072864 0.027038 -0.017661 -423630.000000 1 0 0
-6.373194 6.416650 17.842634 20.003765 -0.788796 0.469126 0.016815 -0.006755 191544.000000 1 0 0
-12.229894 0.611950 11.017534 16.472123 -0.049996 0.838123 0.024440 -0.007639 -613035.000000 1 0 0
-5.464994 5.032350 13.967934 15.820679 -0.744207 0.488813 0.002333 0.001464 -754438.000000 1 0 0
-8.662694 -9.687850 10.135134 16.480827 0.841205 0.908455 0.020524 -0.001676 -631881.000000 1 0 0
7.038606 -3.685050 16.810734 18.593611 -0.482308 0.441496 0.036437 -0.020612 76585.200000 1 0 0
-16.704494 1.621850 9.498534 19.284519 -0.096787 1.055782 0.050781 -0.020970 726254.000000 1 0 0
-4.117594 -9.567850 11.413534 15.452090 1.164397 0.739745 0.006993 -0.008507 -465284.000000 1 0 0
-11.206694 -3.853750 9.152234 14.973469 0.331212 0.913182 0.013725 -0.003582 -957014.000000 1 0 0
3.762406 -5.225150 18.413134 19.506445 -0.946736 0.336393 0.025072 -0.022722 -159660.000000 1 0 0
2.652106 -1.944750 16.072734 16.405746 -0.632717 0.201829 0.020881 -0.011064 -71436.900000 1 0 0
-2.954094 -4.399950 19.811134 20.507737 0.979529 0.261388 0.029932 -0.029983 -1304030.000000 1 0 0
-6.379094 -3.406750 14.383234 16.098951 0.490514 0.465880 0.019783 -0.003969 8439.170000 1 0 0
-9.700494 5.154950 13.941834 17.749587 -0.488460 0.667335 0.011294 0.000206 -209207.000000 1 0 0
-5.817794 -5.250550 11.682034 14.067158 0.734194 0.590886 0.006980 -0.000086 -704565.000000 1 0 0
6.238206 2.030850 19.293034 20.377948 0.314730 0.327777 0.048353 -0.025487 223755.000000 1 0 0
-2.887194 11.876950 13.481034 18.197146 -1.332330 0.736488 0.028427 -0.012876 -1044840.000000 1 0 0
3.341006 1.260550 15.185834 15.600028 0.360783 0.230951 0.015497 -0.007675 -265438.000000 1 0 0
-5.673894 7.333450 12.818334 15.820312 -0.912299 0.626226 -0.007122 -0.005340 -698557.000000 1 0 0
-1.784194 -1.723350 15.290834 15.490736 0.768053 0.160826 0.020547 -0.004568 -468171.000000 1 0 0
-7.735794 10.569150 13.997934 19.170071 -0.938966 0.752186 0.037377 -0.015509 177376.000000 1 0 0
-10.211494 2.060050 10.570334 14.840835 -0.199067 0.778103 0.000167 0.001302 -615514.000000 1 0 0
-13.690894 5.235250 9.110434 17.258286 -0.365233 1.014685 0.002309 -0.005486 104727.000000 1 0 0
0.333806 -4.828750 20.109034 20.683363 -1.501777 0.236208 0.028667 -0.029456 -282128.000000 1 0 0
-14.492894 -2.990550 7.477434 16.580090 0.203490 1.102923 0.028902 -0.008150 257584.000000 1 0 0
-2.320094 2.407150 17.612134 17.926642 -0.803812 0.187594 0.032750 -0.012989 -126329.000000 1 0 0
-6.173594 -8.568650 14.758534 18.147985 0.946453 0.621111 0.018809 -0.005000 38311.600000 1 0 0
-8.060394 1.990850 12.039934 14.625097 -0.242145 0.603705 -0.002736 0.002037 -135973.000000 1 0 0
-14.583994 -3.461250 10.073734 18.059714 0.233021 0.979062 0.042993 -0.010774 1074620.000000 1 0 0
-0.613694 6.923750 12.827734 14.589918 -1.482391 0.496576 0.011217 -0.006214 -1434120.000000 1 0 0
-1.725394 -2.321450 19.227034 19.443378 0.931636 0.149316 0.029561 -0.022385 111651.000000 1 0 0
-12.882894 10.514950 7.395534 18.199645 -0.684538 1.152334 0.004637 -0.012310 63660.500000 1 0 0
-19.324294 2.218150 6.783734 20.600184 -0.114285 1.235229 0.051620 -0.024271 -94937.400000 1 0 0
-16.205494 8.358150 6.609434 19.394879 -0.476176 1.223047 0.014198 -0.010011 436570.000000 1 0 0
-12.299794 7.385650 13.479434 19.685729 -0.540765 0.816561 0.014621 0.001620 160298.000000 1 0 0
-15.976094 8.359250 10.124934 20.679143 -0.482062 1.059142 0.017196 -0.005405 688627.000000 1 0 0
1.753706 10.875450 15.131834 18.716926 1.410919 0.629270 0.017132 -0.011192 -569309.000000 1 0 0
2.343306 14.421450 12.651434 19.326875 1.409717 0.857139 0.028816 -0.006082 -533301.000000 1 0 0
-3.172294 13.728450 11.594334 18.247257 -1.343708 0.882268 0.013724 -0.010272 214866.000000 1 0 0
9.129606 4.818050 15.782034 18.858312 0.485592 0.579249 0.036544 -0.001884 -468180.000000 1 0 0
-0.518994 12.553750 12.878534 17.992294 -1.529478 0.773055 0.020827 -0.007071 -260378.000000 1 0 0
3.640906 13.294350 14.646434 20.112533 1.303482 0.755069 0.035212 -0.006682 186593.000000 1 0 0
-2.932694 -4.262550 -13.757766 14.698508 0.968160 2.781878 0.006483 -0.011338 -330050.000000 1 0 0
5.881206 -11.500450 16.169834 20.695711 -1.098079 0.674029 0.026000 -0.007467 202155.000000 1 0 0
7.983106 -13.474350 7.290634 17.275458 -1.035934 1.135121 0.012882 -0.004131 -243083.000000 1 0 0
-0.210494 15.546550 1.241134 15.597434 -1.557258 1.491139 0.005236 -0.006774 -2597090.000000 1 0 0
-13.507394 8.228950 8.990834 18.193417 -0.547170 1.053904 -0.006628 -0.003666 1088040.000000 1 0 0
-15.458994 -9.965650 4.977634 19.054435 0.572605 1.306498 0.036566 -0.001400 -1462810.000000 1 0 0
9.411506 -10.938350 11.275434 18.312820 -0.860288 0.907506 0.028047 -0.002875 365689.000000 1 0 0
-5.699794 -10.640050 -16.796066 20.683475 1.079004 2.518457 0.038246 -0.006541 11851.600000 1 0 0
-2.055394 -12.544450 -14.864566 19.558711 1.408391 2.434105 0.027872 0.003932 -131475.000000 1 0 0
5.510706 -15.691050 -12.045966 20.534902 -1.233052 2.197662 0.031058 -0.002566 378511.000000 1 0 0
2.250806 -12.486950 -16.281466 20.641612 -1.392459 2.479600 0.025255 0.011983 252750.000000 1 0 0
0.713506 -14.019550 -14.685466 20.315506 -1.519947 2.378743 0.038416 0.017572 369052.000000 1 0 0
-6.513194 -6.169350 -14.449566 17.008013 0.758293 2.585973 0.008895 -0.006158 4402.460000 1 0 0
-6.204994 -8.152850 -17.134666 19.964160 0.920240 2.602688 0.016989 -0.008550 109877.000000 1 0 0
-2.280594 -16.310750 -12.887466 20.912399 1.431875 2.234781 0.033126 -0.005423 303507.000000 1 0 0
16.271906 -8.229750 -8.976466 20.324385 -0.468248 2.028244 0.068275 -0.010917 184933.000000 1 0 0
19.303406 -2.726250 -3.686066 19.840388 -0.140304 1.757668 0.084582 -0.018080 235997.000000 1 0 0
14.948506 -12.612950 -8.540566 21.342109 -0.700860 1.982503 0.021382 0.002172 -102579.000000 1 0 0
18.915806 -3.315950 -6.763566 20.360478 -0.173537 1.909422 0.189888 -0.007134 -399369.000000 1 0 0
9.216406 -9.719850 -15.760566 20.683642 -0.811978 2.437165 0.070520 -0.006013 121861.000000 1 0 0
-4.727694 9.500250 -16.169466 19.340565 -1.109039 2.560820 -0.004366 -0.011930 533659.000000 1 0 0
2.789106 -9.516850 -18.167266 20.697804 -1.285709 2.641919 0.045158 -0.009852 378255.000000 1 0 0
11.088306 8.054050 -15.044966 20.351149 0.628196 2.402780 0.082812 -0.039822 415102.000000 1 0 0
18.684306 -5.902250 -8.375266 21.309268 -0.305973 1.974725 0.073190 -0.015800 221865.000000 1 0 0
12.848906 5.574550 -13.928666 19.752917 0.409346 2.353424 0.058398 -0.003137 42712.300000 1 0 0
15.706506 6.420750 -10.447366 19.926561 0.388066 2.122682 0.020395 -0.009913 152159.000000 1 0 0
3.144506 -0.391450 -19.525766 19.781220 -0.123850 2.980708 0.048227 -0.006675 210055.000000 1 0 0
10.571406 -1.768950 -14.898366 18.353340 -0.165797 2.517943 0.040236 0.000667 276178.000000 1 0 0
12.079606 -6.201450 -13.925966 19.450125 -0.474296 2.368828 0.045176 0.002094 358097.000000 1 0 0
10.088906 6.478050 -12.739166 17.493928 0.570799 2.386496 0.037354 -0.007956 382019.000000 1 0 0
10.478706 5.519050 -16.135766 20.015647 0.484772 2.508426 0.050243 -0.021618 384731.000000 1 0 0
11.503606 -10.927050 -14.888966 21.758094 -0.759700 2.324433 0.067188 -0.005688 342386.000000 1 0 0
-1.280794 2.305050 -17.615866 17.812142 -1.063628 2.993002 0.017020 -0.006770 377371.000000 1 0 0
6.388406 -1.141350 -17.032866 18.227258 -0.176794 2.777570 0.032591 0.000551 160018.000000 1 0 0
6.238206 -5.715650 -16.054666 18.147621 -0.741712 2.656583 0.001048 -0.004704 207508.000000 1 0 0
-2.594494 -4.810950 -19.648566 20.394675 1.076213 2.870267 0.047537 -0.034506 151575.000000 1 0 0
15.671706 -0.366050 -13.568066 20.732312 -0.023353 2.284239 0.038796 0.002391 39898.900000 1 0 0
-4.175794 -0.414450 -18.083666 18.564159 0.098927 2.913578 0.014570 -0.015306 105235.000000 1 0 0
4.420506 8.664650 -17.934366 20.402414 1.099040 2.644623 0.047426 -0.016764 108112.000000 1 0 0
10.053806 0.387350 -16.731266 19.523430 0.038509 2.600185 0.052111 -0.025483 -54784.600000 1 0 0
4.168006 4.848650 -18.273666 19.359973 0.860743 2.805011 0.037861 -0.006515 426822.000000 1 0 0
-3.240794 -10.525750 -17.902066 21.018518 1.272115 2.590071 0.037252 -0.017611 246332.000000 1 0 0
6.492206 -9.245250 -16.249466 19.790617 -0.958581 2.534078 0.043082 -0.011477 272946.000000 1 0 0
10.181106 -12.508050 -10.671966 19.339004 -0.887598 2.155361 0.034621 -0.002604 166749.000000 1 0 0
6.163806 7.023950 -17.001466 19.400469 0.850529 2.639013 0.048055 -0.014061 467388.000000 1 0 0
8.419106 1.072550 -20.180266 21.892346 0.126712 2.743483 0.070588 -0.022580 112587.000000 1 0 0
-1.200394 -0.470050 -20.030866 20.072306 0.373226 3.077323 0.042444 -0.019484 300372.000000 1 0 0
-0.947194 6.640150 -19.592766 20.709062 -1.429106 2.811759 0.016244 -0.015618 -1984.690000 1 0 0
8.916206 5.714150 -17.952466 20.843255 0.569932 2.608635 0.071099 -0.025225 297137.000000 1 0 0
12.113306 0.118850 -13.059066 17.812510 0.009811 2.393724 0.017387 0.000407 -96576.000000 1 0 0
-4.257694 -2.478250 -19.689666 20.296616 0.527127 2.896422 0.007242 -0.008260 474560.000000 1 0 0
5.452406 -11.198050 -14.473666 19.094817 -1.117678 2.431021 0.011574 -0.006958 91007.200000 1 0 0
12.043406 2.875150 -15.616966 19.929870 0.234346 2.471229 0.065995 -0.004468 42153.400000 1 0 0
-3.005494 -4.195950 -16.943066 17.711760 0.949225 2.845897 0.016443 -0.013223 568785.000000 1 0 0
-6.888494 -4.803150 -17.146366 19.092392 0.608892 2.686165 0.013636 -0.013287 64847.400000 1 0 0
2.832406 10.681250 -15.535466 19.064688 1.311587 2.523321 0.014920 -0.010161 227593.000000 1 0 0
17.461606 -6.313450 -10.806766 21.483797 -0.346938 2.097885 0.103511 -0.012165 -37446.400000 1 0 0
9.332606 -3.625150 -17.699766 20.335214 -0.370501 2.626810 0.020478 -0.015830 41733.200000 1 0 0
-7.569494 -1.753250 -18.615866 20.172297 0.227607 2.746194 0.016036 -0.000229 689500.000000 1 0 0
1.989006 -7.276950 -19.036966 20.477212 -1.303984 2.764301 0.053129 -0.031742 281991.000000 1 0 0
5.690506 10.027450 -14.330466 18.392767 1.054622 2.464083 0.040460 -0.021232 464975.000000 1 0 0
5.994006 -3.733450 -17.925766 19.266547 -0.557062 2.766323 0.037249 -0.024233 643955.000000 1 0 0
4.651306 13.346050 -14.674766 20.374014 1.235445 2.374986 0.038822 -0.025877 -7109.770000 1 0 0
9.846406 11.121650 -15.867066 21.734916 0.846142 2.389157 0.109001 -0.019483 -63974.900000 1 0 0
17.084606 0.697950 -11.745066 20.744095 0.040830 2.172671 0.069861 0.003963 213906.000000 1 0 0
15.249206 -3.034850 -12.268966 19.805962 -0.196450 2.238849 0.065513 -0.001947 106522.000000 1 0 0
-8.866294 0.453950 -17.071266 19.241760 -0.051155 2.662034 0.021127 -0.015163 609032.000000 1 0 0
-3.396694 4.453850 -18.941666 19.752494 -0.919253 2.854074 0.022754 -0.010447 -4186.680000 1 0 0
4.201706 2.049950 -17.035466 17.665325 0.453909 2.873753 0.031219 -0.003725 400901.000000 1 0 0
-4.740794 14.060950 -14.189566 20.531177 -1.245605 2.333838 0.004351 -0.015576 326708.000000 1 0 0
0.924406 9.133150 -17.695666 19.935033 1.469925 2.663050 0.007379 -0.015938 378791.000000 1 0 0
1.075206 -5.189550 -19.848766 20.544123 -1.366500 2.880672 0.041286 -0.009090 454369.000000 1 0 0
4.214406 -6.235550 -17.873066 19.393034 -0.976451 2.743038 0.055703 -0.030794 57279.100000 1 0 0
-6.464094 7.476550 -15.752566 18.596415 -0.857897 2.581254 -0.002027 -0.007317 63919.100000 1 0 0
-12.259894 3.051650 -16.276366 20.604311 -0.243956 2.481523 0.088979 -0.031885 312627.000000 1 0 0
-4.543394 7.228850 -17.735766 19.683904 -1.009678 2.692932 -0.005937 0.025891 401618.000000 1 0 0
-8.145594 5.482950 -17.568866 20.126562 -0.592456 2.631951 0.010555 -0.009837 221312.000000 1 0 0
-8.682894 4.624750 -15.145466 18.060069 -0.489408 2.565534 0.000010 -0.016752 537775.000000 1 0 0
9.524506 13.212050 -12.927466 20.794082 0.946184 2.241694 0.087590 -0.043033 591303.000000 1 0 0
15.043806 10.015350 -11.484866 21.413208 0.587365 2.136897 0.138552 -0.028463 56256.000000 1 0 0
8.648006 15.460350 -9.877366 20.282327 1.060790 2.079441 0.050505 -0.018277 74586.600000 1 0 0
7.784706 13.126450 -14.452866 21.018817 1.035499 2.328996 0.083096 -0.038098 155566.000000 1 0 0
4.167306 15.411650 -13.110766 20.658596 1.306712 2.258339 0.037579 -0.024060 177638.000000 1 0 0
11.351706 11.060450 -10.478666 18.999927 0.772403 2.154971 0.088952 -0.051251 288568.000000 1 0 0
16.155106 10.825150 -9.399366 21.599060 0.590359 2.021029 0.100455 -0.028992 251374.000000 1 0 0
13.634206 11.427850 -8.629466 19.772582 0.697589 2.022430 0.112195 -0.020608 180564.000000 1 0 0
10.874706 11.509150 -7.251166 17.415487 0.813734 2.000238 0.058449 -0.018670 158285.000000 1 0 0
5.997506 16.792050 -10.173166 20.528914 1.227754 2.089268 0.043466 -0.007818 -58659.800000 1 0 0
11.390106 13.266750 -10.336366 20.312106 0.861362 2.104676 0.108942 -0.049908 -76413.900000 1 0 0
7.535206 -19.181950 -1.826566 20.689680 -1.196488 1.659195 0.041216 -0.010111 -212133.000000 1 0 0
7.367106 -17.525450 -4.195066 19.468287 -1.172857 1.787982 0.036699 0.010840 141483.000000 1 0 0
3.935206 -18.724750 5.044234 19.787531 -1.363650 1.313032 0.047925 -0.018391 -58388.400000 1 0 0
10.195906 -17.733350 -2.796066 20.645730 -1.048995 1.706644 0.059407 -0.011106 656896.000000 1 0 0
-3.469894 -14.692250 7.880734 17.029631 1.338874 1.089683 0.020050 -0.036370 -7080.460000 1 0 0
-15.350994 -12.621650 -4.226566 20.318044 0.688134 1.780347 0.023873 -0.013622 161356.000000 1 0 0
-10.086194 -12.485850 -6.970266 17.498924 0.891311 1.980487 0.047110 -0.014459 270094.000000 1 0 0
-11.169994 -16.004350 6.753734 20.652382 0.961458 1.237648 0.045807 -0.004379 162746.000000 1 0 0
-14.791194 -7.064650 -7.279266 17.935339 0.445588 1.988718 0.038165 -0.039633 -112561.000000 1 0 0
5.362006 -15.904750 5.441734 17.644394 -1.245631 1.257274 0.042835 -0.008925 217547.000000 1 0 0
2.566306 -13.855850 9.235034 16.848037 -1.387657 0.990661 0.016480 -0.006934 298908.000000 1 0 0
3.346906 -17.061950 10.418834 20.269781 -1.377094 1.030945 0.044542 -0.018685 237773.000000 1 0 0
-7.823494 -17.420050 -5.083366 19.761219 1.148684 1.830961 0.008842 -0.017428 156737.000000 1 0 0
2.073006 -19.837450 -3.935566 20.330038 -1.466675 1.765610 0.018049 -0.010222 -145772.000000 1 0 0
-16.867594 -10.299750 -3.378266 20.050268 0.548194 1.740094 -0.073753 -0.028356 -250235.000000 1 0 0
-4.065194 -14.789950 2.661334 15.567630 1.302558 1.398999 -0.000051 -0.000972 140789.000000 1 0 0
-11.107694 -10.041550 -14.474466 20.826035 0.735030 2.339241 0.048313 -0.016429 218600.000000 1 0 0
0.701406 -20.269750 2.642334 20.453280 -1.536207 1.441245 0.024216 -0.013517 206286.000000 1 0 0
5.284206 -18.389850 0.229534 19.135362 -1.290991 1.558801 0.017050 -0.003316 31092.100000 1 0 0
-7.107194 -19.337050 -2.886766 20.803055 1.218579 1.710012 -0.000367 -0.020564 -27954.300000 1 0 0
-9.251294 -15.336750 -7.729566 19.507653 1.028019 1.978206 0.056685 -0.013768 -22342.600000 1 0 0
-12.095194 -11.089150 -12.537966 20.650994 0.742032 2.223248 0.051041 -0.008335 331022.000000 1 0 0
-13.195894 -14.931850 -3.284766 20.196075 0.847037 1.734166 0.023970 -0.015185 125690.000000 1 0 0
-0.320494 -20.752550 -2.716466 20.932038 1.555354 1.700939 0.034331 -0.003938 300278.000000 1 0 0
-12.429194 -16.731350 -0.629966 20.852333 0.931875 1.601012 0.055699 -0.005892 273841.000000 1 0 0
0.940806 -19.873950 5.449434 20.628992 -1.523493 1.303459 0.032356 -0.022027 56347.800000 1 0 0
-18.102494 -8.949350 2.706234 20.374367 0.459134 1.437577 0.041918 -0.002742 -5875.260000 1 0 0
-14.854894 -14.866150 -0.721066 21.028319 0.785777 1.605093 0.041958 -0.011808 77413.800000 1 0 0
10.425106 -15.453050 -4.863766 19.264885 -0.977300 1.826026 0.045587 -0.008775 -54946.700000 1 0 0
-0.265994 -19.207550 -6.838066 20.390190 1.556949 1.912784 0.015995 -0.008813 42996.700000 1 0 0
-10.193394 -18.085250 -2.930066 20.965849 1.057549 1.711010 0.036017 0.029446 601684.000000 1 0 0
-14.937094 -6.724150 -11.371266 19.940829 0.422991 2.177607 0.054063 -0.026761 120975.000000 1 0 0
-12.297294 -14.828750 2.129934 19.381741 0.878451 1.460680 0.054970 -0.019530 237110.000000 1 0 0
-2.276394 -15.934950 9.704534 18.795813 1.428901 1.028255 0.011347 -0.031798 390786.000000 1 0 0
-12.708594 -14.394750 -6.378866 20.233811 0.847530 1.891525 0.044504 -0.011606 234397.000000 1 0 0
4.941306 -16.928450 -7.483566 19.157053 -1.286793 1.972126 0.014405 -0.006780 33943.000000 1 0 0
-17.377294 -7.147050 -2.631066 18.972959 0.390198 1.709919 -0.013342 -0.015925 -241767.000000 1 0 0
-12.369894 -13.534350 -9.252966 20.538020 0.830320 2.038154 0.060986 -0.030336 197423.000000 1 0 0
-7.775194 -14.175250 9.917234 18.966889 1.069102 1.020581 0.033578 -0.007684 591663.000000 1 0 0
-15.793894 -8.503550 -5.862566 18.871331 0.493899 1.886684 0.031496 -0.007897 285891.000000 1 0 0
-0.696194 -19.668850 0.072534 19.681301 1.535415 1.567111 0.013462 -0.008101 244771.000000 1 0 0
-14.922494 -11.498550 -2.136066 18.959437 0.656525 1.683701 0.001222 0.000814 146552.000000 1 0 0
-6.875594 -18.878750 1.180434 20.126460 1.221530 1.512112 0.021195 -0.020616 132084.000000 1 0 0
-2.035994 -21.047450 -5.133766 21.759962 1.474363 1.808969 0.024745 -0.009028 167672.000000 1 0 0
-9.203894 -19.815950 -1.073066 21.875443 1.135975 1.619869 0.049472 -0.007650 213463.000000 1 0 0
-17.915594 -7.697950 5.184334 20.176825 0.405827 1.310937 0.058961 -0.003404 185441.000000 1 0 0
-2.839694 -15.667550 -10.592466 19.124233 1.391496 2.157809 0.026067 -0.004763 93499.200000 1 0 0
-2.720694 -18.200750 -8.395066 20.227372 1.422413 1.998777 0.016167 -0.003432 248009.000000 1 0 0
4.284306 -18.388450 -5.578266 19.687748 -1.341891 1.858068 0.010160 0.035446 496590.000000 1 0 0
0.711106 -17.382450 -9.201766 19.680643 -1.529910 2.057318 0.018916 0.000451 17825.700000 1 0 0
-7.620194 -9.931750 -13.947266 18.741217 0.916343 2.410137 0.024181 -0.034165 -71803.800000 1 0 0
-5.057494 -19.681850 -2.091866 20.428641 1.319276 1.673375 0.024074 -0.013606 125832.000000 1 0 0
-8.928494 -16.226850 8.426234 20.347729 1.067777 1.143830 0.018777 -0.006078 229602.000000 1 0 0
-7.466994 -15.030950 -10.224566 19.652664 1.109732 2.117956 0.053801 -0.015404 242305.000000 1 0 0
-12.649694 -8.182350 -12.120766 19.335940 0.574152 2.248302 0.035912 -0.028328 337451.000000 1 0 0
-15.850594 -13.253050 3.005934 20.878704 0.696383 1.426323 0.052174 -0.000828 96181.200000 1 0 0
-6.236394 -14.424550 -13.145966 20.488452 1.162720 2.267415 0.029539 -0.001445 382272.000000 1 0 0
-14.204494 -11.051050 -6.833566 19.250739 0.661180 1.933686 0.039249 -0.026566 227510.000000 1 0 0
-11.909894 -10.308350 -8.330966 17.818884 0.713440 2.057297 0.032765 -0.021025 328611.000000 1 0 0
-9.852294 -14.894550 3.678634 18.233147 0.986400 1.367647 0.011509 -0.001304 456987.000000 1 0 0
5.414306 -17.825750 8.084934 20.308575 -1.275916 1.161347 0.066784 -0.028291 318344.000000 1 0 0
-4.838794 -16.714150 5.130434 18.141061 1.288998 1.284076 0.001026 -0.001026 412204.000000 1 0 0
-17.908094 -7.612650 -6.610266 20.551104 0.401952 1.898268 0.027839 -0.033985 34628.800000 1 0 0
-17.076694 -3.200350 -10.697066 20.403013 0.185261 2.122676 0.065622 -0.028549 -59671.300000 1 0 0
-15.732194 -4.361750 -13.220966 21.007635 0.270457 2.251501 0.050813 -0.019479 304484.000000 1 0 0
-19.475394 -5.541350 -5.916866 21.095185 0.277205 1.855095 0.070100 -0.017585 -115020.000000 1 0 0
5.268706 -13.498650 8.579534 16.839870 -1.198668 1.036219 0.029943 -0.002846 321283.000000 1 0 0
19.750006 -3.774150 2.862534 20.310122 -0.188820 1.429384 0.066089 -0.017539 -283042.000000 1 0 0
18.644306 -2.707250 1.234834 18.880259 -0.144197 1.505346 0.061056 -0.023362 141514.000000 1 0 0
14.257506 -11.642550 0.330534 18.410179 -0.684776 1.552841 0.031392 0.000402 90931.400000 1 0 0
10.858706 -13.354350 5.501434 18.069752 -0.888106 1.261430 0.007598 -0.002445 289719.000000 1 0 0
10.647106 -12.541550 8.498534 18.516923 -0.866914 1.093972 0.046861 -0.018038 58686.800000 1 0 0
17.642406 4.435650 -4.141966 18.657046 0.246315 1.794667 0.005197 0.003923 -143083.000000 1 0 0
18.968406 -6.200650 -4.636166 20.487619 -0.315944 1.799065 0.078213 -0.016150 -63884.100000 1 0 0
17.750806 -10.000550 -0.070566 20.374177 -0.513062 1.574260 0.067655 -0.010017 197412.000000 1 0 0
17.427806 -8.788150 8.977634 21.483899 -0.467050 1.139689 0.072857 -0.007441 146021.000000 1 0 0
19.331606 0.301650 -2.718066 19.524084 0.015603 1.710466 0.027764 -0.002332 74700.300000 1 0 0
7.684406 -13.141250 11.072634 18.824074 -1.041662 0.941944 0.033327 -0.005031 442233.000000 1 0 0
16.065506 -6.265450 -3.497566 17.595150 -0.371851 1.770909 0.044461 -0.006807 171270.000000 1 0 0
14.587306 -6.786250 11.963034 20.048862 -0.435435 0.931421 0.072410 -0.031319 323749.000000 1 0 0
17.191206 1.464450 9.262334 19.582467 0.084981 1.078114 0.113976 -0.039790 331216.000000 1 0 0
16.527206 -10.316150 2.527734 19.645888 -0.558018 1.441774 0.011972 -0.003860 175246.000000 1 0 0
16.613006 -7.536050 -6.181066 19.261090 -0.425863 1.897486 0.074686 -0.000566 294929.000000 1 0 0
17.587306 -4.097250 6.063634 19.049106 -0.228884 1.246844 0.045436 -0.020690 58672.900000 1 0 0
13.536506 -13.353350 8.102034 20.668621 -0.778587 1.167995 0.035919 -0.005198 80314.400000 1 0 0
15.425206 -14.162550 -1.835066 21.020996 -0.742749 1.658204 0.052615 -0.010901 217414.000000 1 0 0
18.195406 -6.126350 8.921534 21.170705 -0.324775 1.135797 0.079423 -0.018625 255084.000000 1 0 0
19.486006 2.946350 2.567534 19.874045 0.150067 1.441244 0.041205 -0.005774 188420.000000 1 0 0
15.770606 -10.561250 8.045434 20.615068 -0.590085 1.169872 0.041628 -0.022513 155518.000000 1 0 0
14.543806 -4.244550 10.804934 18.608737 -0.283959 0.951285 0.062361 -0.014135 -14366.200000 1 0 0
18.458206 -7.846250 1.170634 20.090779 -0.401940 1.512496 0.079811 -0.018375 -143132.000000 1 0 0
18.846806 -5.072750 -1.785966 19.599096 -0.262926 1.662048 0.057420 -0.011048 378764.000000 1 0 0
14.706906 -13.617850 -5.937466 20.904364 -0.746968 1.858791 0.094451 -0.023463 434547.000000 1 0 0
14.052706 -9.617950 10.183734 19.841672 -0.600193 1.031829 0.040766 -0.015631 612064.000000 1 0 0
14.297306 2.676350 0.663334 14.560763 0.185051 1.525224 0.008124 -0.001765 -116342.000000 1 0 0
12.853906 2.388150 13.798534 19.008570 0.183697 0.758438 0.021041 -0.007937 187950.000000 1 0 0
18.528106 -2.798650 9.505334 21.011295 -0.149916 1.101351 0.089259 -0.021227 252950.000000 1 0 0
7.630206 -18.474750 5.304234 20.680216 -1.179127 1.311409 0.066412 -0.019115 327639.000000 1 0 0
12.555506 -3.371350 14.797134 19.696749 -0.262328 0.720846 0.056110 -0.007434 197913.000000 1 0 0
11.263406 -13.492850 -6.633066 18.786135 -0.875212 1.931661 0.041374 -0.019937 22017.800000 1 0 0
11.218006 -16.556650 4.832934 20.574828 -0.975295 1.333685 0.069870 -0.023305 611691.000000 1 0 0
18.372806 -0.159250 -5.409266 19.153212 -0.008667 1.857113 0.066026 -0.004367 54197.400000 1 0 0
4.789606 -13.756650 11.859934 18.784136 -1.235756 0.887464 0.029272 0.004546 278073.000000 1 0 0
9.168806 -2.401950 14.274434 17.134639 -0.256212 0.586153 0.018755 -0.010819 348581.000000 1 0 0
9.260706 -9.265450 14.190234 19.312483 -0.785654 0.745469 0.051554 -0.005231 321716.000000 1 0 0
21.029606 5.638450 -2.879466 21.961962 0.261958 1.702286 0.079273 0.006751 316278.000000 1 0 0
14.797306 -13.616150 2.213334 20.230142 -0.743852 1.461169 0.025641 -0.000424 205260.000000 1 0 0
11.994506 -0.594850 15.286734 19.439812 -0.049553 0.665898 0.068655 -0.007855 -172214.000000 1 0 0
19.832806 0.221450 7.720234 21.283591 0.011165 1.199599 0.118104 -0.029154 100107.000000 1 0 0
19.905606 0.941950 0.199434 19.928879 0.047286 1.560789 0.052205 -0.009291 117958.000000 1 0 0
18.223906 0.681050 2.880634 18.462736 0.037354 1.414132 0.041956 -0.005356 -103687.000000 1 0 0
10.569506 -8.181450 16.467434 21.209125 -0.658724 0.681813 0.081209 -0.012082 64937.400000 1 0 0
18.787106 3.147150 5.342734 19.783951 0.165975 1.297347 0.035531 -0.009098 -29970.900000 1 0 0
15.397106 2.597450 7.116134 17.159749 0.167124 1.143184 0.038191 -0.013523 23570.700000 1 0 0
11.995106 -15.713150 1.621134 19.834660 -0.918787 1.488973 0.044382 -0.009900 191332.000000 1 0 0
8.941506 -16.032250 7.016834 19.652469 -1.062045 1.205693 0.043505 -0.000754 272406.000000 1 0 0
6.280706 6.667850 7.192134 11.646214 0.815288 0.905171 0.001207 0.001747 -895015.000000 1 0 0
18.542306 2.471450 -6.481066 19.797207 0.132506 1.904318 0.048533 0.007854 350842.000000 1 0 0
14.255706 4.327950 -7.103666 16.505101 0.294751 2.015723 0.015041 -0.002030 418466.000000 1 0 0
-10.307594 -3.989150 -13.916466 17.771545 0.369259 2.470392 0.006215 -0.006081 -284807.000000 1 0 0
7.623106 -14.269250 -10.310466 19.184080 -1.080139 2.138206 0.016968 0.005319 -72324.000000 1 0 0
1.899206 -15.833250 13.804534 21.091798 -1.451416 0.857278 0.005648 -0.009221 452565.000000 1 0 0
-9.649394 -7.994950 2.382034 12.755552 0.691905 1.382949 0.000625 0.003370 407009.000000 1 0 0
-13.796994 3.051350 -9.781366 17.185543 -0.217657 2.176283 0.027089 -0.006755 249662.000000 1 0 0
-12.955394 -5.320450 -12.931066 19.062053 0.389675 2.316334 0.033011 -0.010896 120778.000000 1 0 0
-18.147694 -1.300150 -8.348866 20.018310 0.071520 2.001006 0.082291 -0.030264 595522.000000 1 0 0
-12.295594 15.038850 4.018834 19.836826 -0.885422 1.366790 0.032661 -0.023200 340264.000000 1 0 0
-17.137394 6.338750 9.498434 20.593452 -0.354273 1.091409 0.011895 -0.011702 151234.000000 1 0 0
-13.876894 15.404950 -0.108366 20.733847 -0.837535 1.576023 0.047740 -0.025646 189992.000000 1 0 0
-15.910794 5.378450 -10.788066 19.961549 -0.325979 2.141759 0.050015 -0.005363 77570.700000 1 0 0
-18.144494 2.767350 0.010534 18.354318 -0.151351 1.570222 0.043189 -0.002309 -35759.600000 1 0 0
-9.780594 15.338150 -0.445566 18.196632 -1.003142 1.595285 0.019524 -0.011216 -7721.730000 1 0 0
-18.559194 12.173450 2.977834 22.394287 -0.580530 1.437428 0.104585 -0.021533 26162.600000 1 0 0
-8.582394 16.373650 -7.765166 20.051227 -1.088009 1.968461 0.056514 -0.030005 104743.000000 1 0 0
-15.003994 -1.947650 -13.207766 20.083781 0.129087 2.288469 0.049458 -0.014731 207030.000000 1 0 0
-19.143594 4.798950 -5.023266 20.365174 -0.245620 1.820028 0.076724 -0.005711 -44263.500000 1 0 0
-16.861194 9.842350 -5.439366 20.267176 -0.528369 1.842510 0.060081 0.011958 113244.000000 1 0 0
-18.920894 1.526850 2.794334 19.186970 -0.080522 1.424639 0.045799 -0.025579 40515.800000 1 0 0
-13.349794 12.544950 -7.047466 19.628030 -0.754327 1.938047 0.040707 0.000235 -254574.000000 1 0 0
-13.573494 5.688450 -12.909566 19.576902 -0.396850 2.290855 0.082085 -0.025614 -99849.700000 1 0 0
-14.066894 9.460950 -6.553666 18.175192 -0.592077 1.939689 0.035251 -0.008203 303387.000000 1 0 0
-6.491894 11.396650 -15.362066 20.199539 -1.053006 2.434903 0.013623 -0.033683 -52286.500000 1 0 0
-15.045294 13.769350 3.542434 20.700355 -0.741146 1.398821 0.038529 -0.022387 146847.000000 1 0 0
-18.869494 8.183250 -4.928366 21.149756 -0.409196 1.805981 0.077715 -0.005903 318561.000000 1 0 0
-4.263694 16.311950 -11.429366 20.368829 -1.315132 2.166535 0.012060 -0.006193 99608.000000 1 0 0
-19.235494 -2.748750 -6.411266 20.461285 0.141939 1.889501 0.035676 -0.012640 -159020.000000 1 0 0
-10.617694 13.831550 -6.253666 18.524458 -0.916099 1.915151 0.030167 -0.019499 -23443.400000 1 0 0
-19.344594 3.319850 4.522734 20.141744 -0.169961 1.344320 0.061194 -0.017534 -19345.300000 1 0 0
-15.250094 12.235750 0.631934 19.562165 -0.676166 1.538487 0.031230 -0.015237 151309.000000 1 0 0
-17.446594 2.677650 -8.566266 19.619744 -0.152289 2.022628 0.037770 -0.010380 228377.000000 1 0 0
-16.670794 13.983750 -3.804966 22.089328 -0.697966 1.743913 0.049015 0.029924 275708.000000 1 0 0
-11.250994 15.902350 -8.639666 21.309937 -0.955051 1.988244 0.071265 -0.018373 104916.000000 1 0 0
-19.253894 1.557850 -6.844866 20.493694 -0.080735 1.911339 0.073322 -0.022179 113862.000000 1 0 0
-17.373494 10.395850 -0.499266 20.252438 -0.539223 1.595451 0.057201 -0.004012 -6348.720000 1 0 0
-11.578694 6.916550 -14.594866 19.872466 -0.538470 2.395618 0.042150 -0.022069 328846.000000 1 0 0
-13.200594 12.194050 -4.171766 18.448690 -0.745783 1.798897 0.042123 -0.017539 137202.000000 1 0 0
-18.770794 8.007350 0.116434 20.407693 -0.403213 1.565091 0.046998 -0.008134 98470.100000 1 0 0
-14.491394 8.888450 -10.607166 20.037889 -0.550186 2.128637 0.040805 -0.000793 609199.000000 1 0 0
-18.203594 11.111450 5.375434 21.993873 -0.548031 1.323889 0.050438 -0.033873 37212.300000 1 0 0
-8.102194 11.981550 -13.352066 19.684531 -0.976207 2.316246 0.003454 -0.017900 493924.000000 1 0 0
-21.162694 -1.426350 -5.314166 21.866286 0.067297 1.816285 0.064125 -0.019600 193618.000000 1 0 0
-10.606594 13.342750 -3.009266 17.308509 -0.899153 1.745545 0.023815 -0.007844 453827.000000 1 0 0
-18.851494 -5.010250 3.876234 19.887348 0.259769 1.374631 0.046887 -0.010770 -2888.980000 1 0 0
-11.213694 11.370150 -13.207066 20.723268 -0.792326 2.261794 0.047948 -0.017969 155378.000000 1 0 0
-14.841694 11.881050 -10.139666 21.546416 -0.675057 2.060763 0.063654 -0.001467 276210.000000 1 0 0
-12.982794 9.733550 -13.154466 20.888631 -0.643326 2.252018 0.086309 -0.037730 180103.000000 1 0 0
-18.578294 -4.829250 -2.762866 19.393506 0.254312 1.713746 0.030050 -0.014913 -328102.000000 1 0 0
-9.333294 12.427450 -11.552766 19.365389 -0.926641 2.210014 0.033602 -0.023642 -19269.900000 1 0 0
-15.692094 7.678950 -8.200066 19.298942 -0.455093 2.009645 0.037119 -0.000288 66367.100000 1 0 0
-14.495194 9.060950 1.861534 17.195254 -0.558671 1.462325 0.022161 -0.008432 -47845.000000 1 0 0
-19.675894 6.059850 8.314834 22.203582 -0.298765 1.186959 0.071636 -0.027338 213991.000000 1 0 0
-18.967994 5.890150 3.706834 20.204437 -0.301090 1.386285 0.043314 -0.011694 157078.000000 1 0 0
-14.660894 12.572750 5.827034 20.173502 -0.708873 1.277775 0.032603 -0.021817 116566.000000 1 0 0
18.424806 5.797850 6.642534 20.425763 0.304866 1.239569 0.070901 -0.006174 64742.900000 1 0 0
18.787806 8.005650 0.585534 20.430735 0.402809 1.542133 0.064380 0.008470 28825.000000 1 0 0
15.834406 5.316050 9.045734 18.995108 0.323904 1.074452 0.020818 -0.000119 -95452.000000 1 0 0
11.836706 13.252350 10.768434 20.777189 0.841763 1.025956 0.035684 -0.015616 82416.000000 1 0 0
15.754206 12.282450 4.016134 20.376038 0.662196 1.372396 0.057808 -0.012035 308776.000000 1 0 0
5.073206 10.370850 14.201734 18.302492 1.115843 0.682584 0.029086 -0.014303 161679.000000 1 0 0
12.337706 14.387750 -5.228166 19.661131 0.861956 1.839948 0.044288 0.019740 207316.000000 1 0 0
17.950506 9.143950 -2.643466 20.317982 0.471138 1.701271 0.030823 -0.002215 -70350.200000 1 0 0
14.336806 7.809750 9.474534 18.875990 0.498791 1.044961 0.038485 -0.014099 87689.400000 1 0 0
4.537206 19.563750 -1.617866 20.148053 1.342906 1.651182 0.004677 -0.009394 604765.000000 1 0 0
-4.653994 19.459350 3.493134 20.310784 -1.336041 1.397953 0.022696 -0.002408 383400.000000 1 0 0
7.118506 13.099950 12.719534 19.597663 1.073035 0.864483 0.043096 -0.000881 -143382.000000 1 0 0
0.413106 16.883650 -10.302666 19.783155 1.546333 2.118560 -0.000512 -0.000001 -54811.200000 1 0 0
10.719206 9.759750 15.467634 21.199100 0.738582 0.753006 0.054978 -0.011535 61912.600000 1 0 0
-1.186794 12.048250 0.952634 12.143983 -1.472610 1.492271 0.001735 -0.000789 413352.000000 1 0 0
-4.969794 19.135450 -2.218066 19.894324 -1.316694 1.682521 0.015372 0.002365 9311.630000 1 0 0
5.981506 18.358150 6.322034 20.316698 1.255820 1.254368 0.033686 -0.023141 261814.000000 1 0 0
11.421206 17.480850 -1.516066 20.936154 0.992066 1.643274 0.050403 -0.010631 461476.000000 1 0 0
18.448306 10.585450 3.067734 21.489596 0.520924 1.427553 0.055726 -0.004282 259635.000000 1 0 0
11.722306 16.561550 6.763634 21.387944 0.954853 1.249037 0.044893 -0.002604 10557.900000 1 0 0
18.245206 7.026350 -5.501166 20.310588 0.367602 1.845074 0.029879 0.017652 325449.000000 1 0 0
-0.430194 15.656950 11.481634 19.420430 -1.543327 0.938233 0.025219 0.019983 336111.000000 1 0 0
0.791906 20.173050 -2.313266 20.320686 1.531561 1.684882 0.018283 -0.009738 318883.000000 1 0 0
14.732506 9.878650 -1.068466 17.770090 0.590675 1.630960 0.046159 -0.005678 -40247.300000 1 0 0
10.475006 16.919150 1.858234 19.985906 1.016436 1.477685 0.047498 -0.026133 242961.000000 1 0 0
0.781906 18.233750 -0.414166 18.255206 1.527940 1.593486 0.006885 0.009997 -72485.700000 1 0 0
-0.000094 20.801350 1.497734 20.855200 -1.570792 1.498919 0.017838 -0.014553 289400.000000 1 0 0
5.838406 17.402550 -0.295266 18.358184 1.247105 1.586881 0.004328 -0.021946 -182828.000000 1 0 0
6.997506 18.214150 -1.708266 19.586693 1.204002 1.658123 0.002443 -0.016106 -92190.700000 1 0 0
10.565106 9.532350 12.785734 19.130138 0.734056 0.838800 0.042027 -0.009644 144463.000000 1 0 0
12.962106 14.868550 8.300534 21.400674 0.853793 1.172484 0.046374 -0.016107 189443.000000 1 0 0
0.164006 17.817750 7.120334 19.188494 1.561592 1.190632 0.014930 0.005927 325374.000000 1 0 0
6.684106 17.927550 -7.996066 20.736716 1.213921 1.966654 0.006962 -0.004177 95659.400000 1 0 0
-1.029594 18.692050 9.535634 21.009073 -1.515770 1.099679 0.042225 -0.005516 233568.000000 1 0 0
16.046406 6.693650 -7.906566 19.099892 0.395197 1.997595 0.046560 0.006523 -160295.000000 1 0 0
-5.133694 19.752550 -6.975266 21.567855 -1.316522 1.900128 0.006861 -0.009795 307736.000000 1 0 0
4.050106 15.462450 9.945434 18.825578 1.314620 1.014207 0.025935 -0.013225 275438.000000 1 0 0
8.961706 14.770950 7.358634 18.778782 1.025456 1.168145 0.022192 -0.014162 17224.000000 1 0 0
-2.737594 19.791650 6.165834 20.909839 -1.433348 1.271469 0.025804 -0.008349 199064.000000 1 0 0
4.937806 17.905250 8.621234 20.476953 1.301710 1.136225 0.029668 -0.014595 -10865.800000 1 0 0
14.695106 12.124550 -5.824366 19.921699 0.689844 1.867493 0.057752 -0.008739 189491.000000 1 0 0
11.695406 6.927250 15.604734 20.694856 0.534742 0.716606 0.058097 -0.017561 146291.000000 1 0 0
17.087606 9.010950 4.891434 19.927610 0.485278 1.322802 0.052454 -0.009156 142380.000000 1 0 0
5.201806 14.882850 12.066534 19.853445 1.234552 0.917534 0.022497 -0.022121 439262.000000 1 0 0
15.868706 10.683550 -3.391366 19.428212 0.592544 1.746254 0.058201 -0.021304 148145.000000 1 0 0
15.602406 13.808850 6.755134 21.903225 0.724492 1.257277 0.068209 -0.000710 409552.000000 1 0 0
12.298306 14.614350 -8.020166 20.715951 0.871244 1.968334 0.092674 -0.025036 326850.000000 1 0 0
-8.320994 15.713150 9.345834 20.086977 -1.083784 1.086859 0.036407 -0.021058 223546.000000 1 0 0
-3.952594 17.440450 -7.966966 19.577151 -1.347927 1.989911 -0.002984 0.029063 118891.000000 1 0 0
2.540306 19.616750 -4.705166 20.332453 1.442016 1.804325 0.017318 -0.011544 145801.000000 1 0 0
7.413306 15.841850 9.045434 19.691146 1.133110 1.093516 0.037190 -0.032489 553846.000000 1 0 0
13.337606 15.842050 -1.590666 20.769991 0.871017 1.647456 0.062941 -0.017375 191681.000000 1 0 0
13.009606 16.771550 4.526834 21.703156 0.911052 1.360674 0.055520 -0.022416 360071.000000 1 0 0
3.043706 18.252950 0.457334 18.510632 1.405565 1.546087 0.026177 -0.025025 -17717.700000 1 0 0
-7.417094 16.124250 2.033934 17.864535 -1.139661 1.456696 0.018536 -0.026608 55368.700000 1 0 0
0.259306 19.918650 -5.876866 20.769146 1.557779 1.857677 0.023385 0.001993 252489.000000 1 0 0
-7.224994 17.946950 -6.154766 20.302086 -1.188072 1.878803 0.036440 -0.023102 80192.400000 1 0 0
-7.299194 18.464950 -1.125866 19.887187 -1.194348 1.627439 0.035714 -0.007763 58027.900000 1 0 0
-14.578994 -9.242950 8.733434 19.345595 0.565039 1.102414 0.061829 -0.007094 426298.000000 1 0 0
-13.087894 -13.553050 7.806634 20.394158 0.802857 1.177984 0.046864 -0.008943 253607.000000 1 0 0
-3.803694 -16.028650 12.450434 20.649431 1.337800 0.923611 0.034547 -0.014184 182932.000000 1 0 0
-2.253494 -14.810650 14.835834 21.084012 1.419801 0.790270 0.023501 -0.026253 325816.000000 1 0 0
-7.458794 -14.019950 13.613034 20.916675 1.081868 0.862130 0.023544 -0.007858 115404.000000 1 0 0
-10.051194 -11.208250 11.674634 19.051206 0.839770 0.911194 0.050080 -0.007744 81814.000000 1 0 0
-7.335694 -10.519250 12.781634 18.106275 0.961845 0.787071 0.027833 -0.013554 327684.000000 1 0 0
-15.362694 -12.172550 6.710434 20.717463 0.670056 1.240945 0.067776 -0.020974 261476.000000 1 0 0
-4.542794 -12.483950 13.144234 18.688416 1.221801 0.790717 0.023997 -0.013761 428522.000000 1 0 0
3.511106 -12.161050 13.743234 18.684097 -1.289722 0.744307 0.011914 -0.007167 430255.000000 1 0 0
6.436306 -13.628650 14.164934 20.683605 -1.129584 0.816414 0.022816 -0.010506 285819.000000 1 0 0
7.320006 -8.944050 16.568034 20.200947 -0.884923 0.609104 0.053334 -0.013143 470098.000000 1 0 0
-5.475294 13.428350 13.321834 19.691894 -1.183634 0.827778 0.024836 -0.010400 396721.000000 1 0 0
-13.854994 -1.623350 17.010634 21.999041 0.116635 0.686855 0.065747 -0.015266 241277.000000 1 0 0
-10.597494 10.141250 12.266734 19.121313 -0.763402 0.874316 0.023573 0.002497 333849.000000 1 0 0
-7.464594 -8.258850 17.255234 20.534651 0.835869 0.572963 0.047380 -0.013062 104508.000000 1 0 0
-4.890094 1.942850 18.677234 19.404298 -0.378179 0.274611 0.035503 -0.002498 526564.000000 1 0 0
-15.328394 -4.070050 13.120034 20.583009 0.259535 0.879650 0.080768 -0.018738 -65297.300000 1 0 0
-14.462994 3.154450 12.554734 19.410052 -0.214742 0.867394 0.031311 -0.004652 263811.000000 1 0 0
-14.562394 10.760850 9.244434 20.330243 -0.636390 1.098746 -0.013003 -0.003466 -406433.000000 1 0 0
-4.892094 11.322550 15.447934 19.767939 -1.162956 0.673787 0.038638 -0.009449 159381.000000 1 0 0
-13.147694 12.792550 8.618134 20.267793 -0.771708 1.131599 0.016714 -0.019741 17684.100000 1 0 0
-3.834294 -6.377550 18.760134 20.182111 1.029482 0.377626 0.022702 -0.013172 202357.000000 1 0 0
0.756506 -2.695950 18.249934 18.463492 -1.297224 0.152242 0.019361 -0.018184 17360.100000 1 0 0
-4.494994 6.570650 20.814934 22.285419 -0.970820 0.365302 0.058450 -0.025673 278111.000000 1 0 0
2.096206 -10.517750 16.607134 19.769017 -1.374072 0.573405 0.004270 -0.002912 350086.000000 1 0 0
-15.035994 -0.112150 13.831434 20.430425 0.007459 0.827115 0.041797 -0.007494 35452.600000 1 0 0
-13.990694 -5.807550 7.828634 17.051530 0.393456 1.093796 0.037797 -0.011817 161422.000000 1 0 0
10.267506 1.225050 16.246634 19.258130 0.118752 0.566798 0.045978 -0.007382 239644.000000 1 0 0
-7.814994 12.379650 11.975534 18.914103 -1.007696 0.885175 0.021618 -0.004793 52528.000000 1 0 0
-1.762194 7.569550 19.944934 21.405696 -1.342070 0.371571 0.045414 -0.024828 564780.000000 1 0 0
0.989506 -13.943850 15.634134 20.972273 -1.499951 0.729561 -0.009091 0.007890 620820.000000 1 0 0
-2.950394 -11.395150 17.637634 21.204726 1.317443 0.588492 0.019664 -0.021480 466839.000000 1 0 0
-2.508794 8.901550 16.925434 19.287353 -1.296084 0.500088 0.024990 -0.004085 489378.000000 1 0 0
-5.011794 -9.372550 20.547334 23.133433 1.079751 0.477363 0.070038 -0.022046 148192.000000 1 0 0
-6.591494 -3.194850 19.252934 20.599280 0.451327 0.363548 0.040856 -0.016573 158970.000000 1 0 0
-10.684294 -7.929750 16.254334 21.005677 0.638482 0.685967 0.072725 -0.019915 250071.000000 1 0 0
-0.516994 6.053850 17.644934 18.661728 -1.485604 0.331625 0.021529 -0.020330 -44278.800000 1 0 0
-5.650294 -11.571550 18.590534 22.614919 1.116559 0.605799 0.059206 -0.023771 562340.000000 1 0 0
0.651306 3.354350 18.630434 18.941197 1.379015 0.181393 0.031768 -0.017594 83145.400000 1 0 0
-18.372894 -0.177950 7.737234 19.936391 0.009685 1.172232 0.051660 -0.025577 33129.900000 1 0 0
-1.639294 -8.690350 17.479234 19.589107 1.384353 0.468396 0.005978 -0.011863 270541.000000 1 0 0
5.974006 3.421550 15.103534 16.598569 0.520134 0.427681 0.014940 -0.007398 386302.000000 1 0 0
-14.086294 -7.191450 10.319334 18.884631 0.472035 0.992688 0.061014 -0.002699 59981.900000 1 0 0
3.260206 8.216450 16.865934 19.042026 1.193060 0.482750 0.031113 -0.007481 69590.800000 1 0 0
6.293506 4.462550 17.616934 19.232237 0.616789 0.412776 0.038518 -0.028031 195104.000000 1 0 0
5.814806 -9.223350 18.368634 21.360919 -1.008292 0.535688 0.046019 0.005525 275540.000000 1 0 0
-4.376394 -0.667050 19.601734 20.095417 0.151256 0.222118 0.038869 -0.021815 435514.000000 1 0 0
-11.169194 1.903050 17.116434 20.526686 -0.168763 0.584727 0.044172 -0.004218 56746.600000 1 0 0
-16.893494 -4.244350 8.783434 19.507777 0.246147 1.103748 0.062642 -0.019017 322385.000000 1 0 0
-13.259294 -9.382350 11.672834 20.002310 0.615812 0.947673 0.066959 -0.032153 79558.400000 1 0 0
-14.677794 6.023950 13.098834 20.574379 -0.389450 0.880640 0.036570 -0.005747 197911.000000 1 0 0
0.917306 9.048850 17.161034 19.422262 1.469769 0.487353 0.011743 -0.018242 164456.000000 1 0 0
-3.759194 -10.224050 15.071034 18.595666 1.218457 0.625860 0.020043 -0.011974 623149.000000 1 0 0
-18.587294 -3.017050 6.697634 19.986205 0.160914 1.229071 0.109859 -0.017631 -327506.000000 1 0 0
-0.783494 -0.658250 21.056034 21.080886 0.698746 0.048561 0.044202 -0.020083 358153.000000 1 0 0
-1.806594 2.326450 20.227534 20.440873 -0.910522 0.144603 0.042935 -0.018877 50927.800000 1 0 0
-8.041694 2.020650 16.486134 18.453848 -0.246175 0.466004 0.009156 0.014712 570035.000000 1 0 0
2.819306 -1.977450 18.924734 19.235498 -0.611662 0.179997 0.026182 -0.012141 -101109.000000 1 0 0
-11.893294 3.808250 15.018834 19.532501 -0.309886 0.693654 -0.012166 0.007660 174264.000000 1 0 0
-12.998894 -5.636750 13.426534 19.519632 0.409160 0.812277 0.023315 -0.007567 -103443.000000 1 0 0
-17.358394 -1.117050 9.401734 19.772563 0.064264 1.075271 0.070993 -0.030971 195404.000000 1 0 0
-7.673694 7.664150 14.815134 18.360637 -0.784776 0.631917 0.012057 -0.007455 137469.000000 1 0 0
-9.495194 0.879250 14.281334 17.172312 -0.092336 0.588726 0.013166 0.000818 92382.800000 1 0 0
7.966506 -0.788250 14.867434 16.885709 -0.098624 0.493934 0.026618 -0.011546 71219.500000 1 0 0
3.814006 6.329950 18.335134 19.768461 1.028516 0.383143 0.018589 -0.007789 57542.300000 1 0 0
1.850006 0.593650 19.834334 19.929269 0.310511 0.097646 0.035618 -0.018543 185534.000000 1 0 0
-7.185294 6.734450 17.465634 20.050677 -0.753021 0.513410 0.018715 -0.015126 612294.000000 1 0 0
7.394506 -2.867550 17.138634 18.884765 -0.369940 0.433413 0.017897 0.002753 255532.000000 1 0 0
-16.198794 2.409750 9.337734 18.852085 -0.147678 1.052598 0.032345 -0.014936 265091.000000 1 0 0
3.447606 -5.920350 18.978834 20.177529 -1.043470 0.346425 0.020736 -0.029861 110901.000000 1 0 0
-3.516494 -3.875450 20.369034 21.030511 0.833920 0.251474 0.027080 -0.025173 345129.000000 1 0 0
-10.058794 5.969150 14.275334 18.455223 -0.535572 0.686433 0.014458 -0.001297 63008.300000 1 0 0
7.021806 2.335850 19.735234 21.077036 0.321141 0.358745 0.065530 -0.024591 58554.800000 1 0 0
-7.432894 11.460650 14.123534 19.648629 -0.995436 0.768714 0.032729 -0.020508 124265.000000 1 0 0
-14.484294 5.179550 9.630034 18.148280 -0.343427 1.011452 0.012091 -0.004224 81575.600000 1 0 0
0.703306 -5.650150 20.411034 21.190308 -1.446958 0.272039 0.029009 -0.024266 131346.000000 1 0 0
-6.084894 -8.480750 13.816834 17.316292 0.948425 0.646977 0.015349 -0.001909 310483.000000 1 0 0
-12.855694 10.248650 6.484034 17.673325 -0.673036 1.195141 -0.010125 -0.015716 107446.000000 1 0 0
-19.508294 2.555350 7.652534 21.110770 -0.130246 1.199853 0.045750 -0.030179 -133864.000000 1 0 0
-15.678194 8.950450 6.086234 19.051472 -0.518736 1.245634 0.007298 -0.022428 66000.900000 1 0 0
-11.933994 8.240550 13.673934 19.932470 -0.604329 0.814801 -0.018854 -0.003421 164404.000000 1 0 0
-16.582994 8.974850 10.518734 21.591373 -0.496068 1.061947 0.038384 -0.015855 491036.000000 1 0 0
2.380306 10.543850 14.499434 18.085138 1.348765 0.640609 0.018861 -0.044482 267057.000000 1 0 0
1.556806 14.041250 13.024734 19.215204 1.460374 0.825983 0.034406 -0.031414 284121.000000 1 0 0
8.580606 5.161150 16.477334 19.281256 0.541514 0.546059 0.028147 -0.013035 59247.100000 1 0 0
-0.568594 13.263850 13.507534 18.939549 -1.527955 0.776755 0.027373 0.003999 -31859.000000 1 0 0
4.333306 12.700250 14.911234 20.060379 1.241984 0.732780 0.048627 -0.003186 45204.400000 1 0 0
-3.784694 -4.654450 -13.605866 14.869680 0.888098 2.726322 0.006016 -0.012478 222098.000000 1 0 0
5.253206 -11.876650 16.775234 21.214605 -1.154353 0.658780 -0.012031 0.010584 330822.000000 1 0 0
8.921606 -13.587150 7.385234 17.853498 -0.989781 1.144329 0.018311 -0.004093 172081.000000 1 0 0
-0.422094 15.121750 0.418234 15.133420 -1.542891 1.543156 0.003081 -0.003704 -229666.000000 1 0 0
-14.040894 7.748650 8.368634 18.089288 -0.504272 1.089838 -0.005257 -0.006642 148477.000000 1 0 0
-16.199194 -10.006350 4.383534 19.538585 0.553337 1.344518 0.049106 -0.000782 178444.000000 1 0 0
8.976706 -10.122350 11.493534 17.752311 -0.845311 0.866577 0.017215 -0.001299 138718.000000 1 0 0
-26.414474 5.671150 30.769567 40.946949 -0.211488 0.720540 0.067585 -0.033588 589682.000000 0 0 1
-25.218054 4.897050 30.615697 39.965638 -0.191801 0.698122 0.057555 -0.029186 334008.000000 0 0 1
-24.252594 5.238750 31.554697 40.141397 -0.212739 0.666341 0.048545 -0.017946 -242009.000000 0 0 1
-22.843894 4.641250 31.406367 39.111949 -0.200444 0.638507 0.053570 -0.023875 -392006.000000 0 0 1
-22.868694 3.201050 31.494417 39.052813 -0.139072 0.632661 0.038653 -0.027591 197397.000000 0 0 1
-21.630094 2.581350 31.191687 38.045311 -0.118779 0.609636 0.050208 -0.022210 173064.000000 0 0 1
-21.215894 1.444550 32.139479 38.537605 -0.067983 0.584520 0.036533 -0.026955 -82541.800000 0 0 1
-21.668394 0.178950 31.654487 38.360890 -0.008258 0.600283 0.039440 -0.020268 195723.000000 0 0 1
-21.866194 -0.728350 32.736878 39.374663 0.033297 0.589138 0.032727 -0.022272 -54663.000000 0 0 1
-22.391194 -2.135450 32.379883 39.425658 0.095082 0.607129 0.042335 -0.042770 -340315.000000 0 0 1
-21.391494 -2.966350 31.809197 38.447630 0.137791 0.596444 0.064115 -0.048553 179832.000000 0 0 1
-21.594494 -4.373550 31.949109 38.809737 0.199828 0.603729 0.077305 -0.054229 -576594.000000 0 0 1
-22.959194 -5.028650 31.619797 39.398267 0.215621 0.639208 0.063416 -0.039231 488536.000000 0 0 1
-24.111894 -4.725450 32.405692 40.667459 0.193527 0.648740 0.049526 -0.030744 620648.000000 0 0 1
-24.039794 -5.107850 33.741155 41.742872 0.209361 0.629521 0.050265 -0.027640 -328817.000000 0 0 1
-25.354384 -4.695650 -33.343926 42.151053 0.183126 2.483333 0.041006 -0.018369 563494.000000 0 0 1
-25.426684 -4.869450 -31.964486 41.133394 0.189218 2.460831 0.041560 -0.019777 -275442.000000 0 0 1
-26.602074 -4.258950 -31.514376 41.460401 0.158751 2.434275 0.045024 -0.014893 -360982.000000 0 0 1
-26.860294 -4.489550 -29.998116 40.515656 0.165614 2.404473 0.032783 -0.012162 -539487.000000 0 0 1
-26.908834 -5.905350 -29.836746 40.610219 0.216033 2.396036 0.038324 -0.012392 426434.000000 0 0 1
-27.160114 -6.364550 -28.536636 39.906376 0.230181 2.367549 0.015209 -0.018094 -176458.000000 0 0 1
-27.138934 -7.891450 -28.464376 40.112559 0.282976 2.359745 0.030468 -0.009860 -38947.900000 0 0 1
-28.269784 -8.570050 -28.972466 41.376687 0.294346 2.346491 0.056263 -0.000572 -83210.600000 0 0 1
-28.286074 -9.852350 -28.441906 41.305118 0.335169 2.330326 0.063550 -0.011408 -523238.000000 0 0 1
-29.699684 -10.335750 -28.160066 42.212418 0.334900 2.301111 0.103899 -0.009210 -361634.000000 0 0 1
-29.886254 -11.199850 -27.082726 41.858080 0.358551 2.274457 0.118045 -0.020229 221063.000000 0 0 1
-31.277974 -11.374950 -26.797646 42.729556 0.348803 2.248679 0.114948 -0.017174 772655.000000 0 0 1
-31.480504 -12.128650 -25.473356 42.273137 0.367748 2.217538 0.127180 -0.027102 10123.600000 0 0 1
-31.250284 -11.291050 -24.359666 41.200259 0.346715 2.203405 0.140054 -0.021454 102031.000000 0 0 1
-31.221414 -12.017550 -23.133666 40.673882 0.367434 2.175793 0.147396 -0.028808 -213430.000000 0 0 1
-30.817304 -11.161350 -21.856266 39.395156 0.347482 2.158914 0.164714 -0.027302 234166.000000 0 0 1
-30.488374 -11.856550 -20.653466 38.687005 0.370890 2.133956 0.163828 -0.030039 575471.000000 0 0 1
-29.211214 -12.507750 -20.641766 37.892233 0.404564 2.146886 0.155944 -0.042086 312480.000000 0 0 1
-28.807654 -13.127750 -19.281566 37.067472 0.427587 2.117852 0.165720 -0.042590 -35521.700000 0 0 1
-28.432204 -12.036050 -18.486166 35.986039 0.400451 2.110293 0.167098 -0.041760 -5020.090000 0 0 1
-27.904444 -12.461550 -17.242066 35.088987 0.420006 2.084471 0.175338 -0.027753 75411.800000 0 0 1
-27.426844 -11.384650 -16.235466 33.844237 0.393448 2.071122 0.169736 -0.035075 1143900.000000 0 0 1
-26.189084 -10.698150 -16.598466 32.799811 0.387809 2.101400 0.130677 -0.042331 1369310.000000 0 0 1
-25.936264 -9.503050 -15.812466 31.828161 0.351210 2.090713 0.124648 -0.038650 -1065100.000000 0 0 1
-24.580094 -8.877950 -16.071166 30.680309 0.346604 2.122133 0.097168 -0.040543 -751112.000000 0 0 1
-23.613494 -9.379050 -15.182166 29.598341 0.378082 2.109402 0.084561 -0.041508 562157.000000 0 0 1
-22.467094 -8.488250 -15.143866 28.392910 0.361230 2.133373 0.090382 -0.065974 176543.000000 0 0 1
-21.438594 -8.803350 -14.091666 27.123556 0.389637 2.117104 0.069098 -0.031463 -1176250.000000 0 0 1
-20.671094 -9.892550 -14.460166 27.097104 0.446356 2.133698 0.057983 -0.030172 580065.000000 0 0 1
-19.544394 -9.961350 -13.562166 25.790389 0.471360 2.124524 0.072409 -0.027147 1055330.000000 0 0 1
-18.375694 -10.933450 -13.934466 25.522065 0.536731 2.148351 0.071546 -0.017754 869227.000000 0 0 1
-17.609494 -10.729150 -15.142266 25.583142 0.547217 2.204191 0.083990 -0.040766 744490.000000 0 0 1
-18.361494 -11.179250 -16.269666 26.959638 0.546896 2.218658 0.070467 -0.038672 52316.100000 0 0 1
-17.887194 -10.582450 -17.617866 27.245718 0.534236 2.273953 0.083554 -0.033563 187221.000000 0 0 1
-18.549294 -11.133150 -18.774266 28.644308 0.540561 2.285545 0.062781 -0.025579 572734.000000 0 0 1
-18.044994 -10.441750 -19.903766 28.823807 0.524574 2.333021 0.073082 -0.028401 198646.000000 0 0 1
-19.026994 -10.593550 -21.093966 30.318397 0.508022 2.340257 0.090240 -0.024728 940797.000000 0 0 1
-20.304394 -9.928450 -21.004366 30.854917 0.454793 2.319577 0.074521 -0.045247 983493.000000 0 0 1
-21.183594 -10.602550 -21.895766 32.258073 0.464054 2.316881 0.085763 -0.027741 -64338.300000 0 0 1
-22.300494 -9.744150 -22.488666 33.136092 0.411947 2.316755 0.064931 -0.039819 -322039.000000 0 0 1
-21.836594 -8.737950 -23.339366 33.134794 0.380637 2.352341 0.067240 -0.046275 -38586.100000 0 0 1
-22.824094 -8.346850 -24.249466 34.331410 0.350595 2.355103 0.052251 -0.039974 -478340.000000 0 0 1
-22.222994 -7.527050 -25.393616 34.573887 0.326578 2.395687 0.048897 -0.041391 468396.000000 0 0 1
-21.332094 -8.328850 -26.228056 34.818657 0.372236 2.423825 0.063178 -0.042712 675390.000000 0 0 1
-20.742494 -7.536250 -27.251506 35.066946 0.348495 2.460886 0.063743 -0.053070 128189.000000 0 0 1
-19.584494 -8.348450 -27.944826 35.130646 0.402953 2.490553 0.097102 -0.052748 189778.000000 0 0 1
-19.932594 -9.429050 -28.740326 36.224599 0.441853 2.487159 0.102549 -0.047069 -109079.000000 0 0 1
-18.800594 -10.114950 -29.226926 36.193752 0.493593 2.510720 0.074453 -0.040773 -125441.000000 0 0 1
-19.144094 -11.220250 -30.168866 37.450645 0.530132 2.507422 0.078090 -0.034639 -255345.000000 0 0 1
-19.437494 -10.732150 -31.441436 38.491026 0.504482 2.526727 0.068429 -0.025529 103376.000000 0 0 1
-19.620294 -11.819850 -32.328216 39.620428 0.542204 2.525164 0.061193 -0.023721 -234052.000000 0 0 1
-20.103294 -11.554550 -33.715666 40.919386 0.521653 2.539149 0.050750 -0.026550 25755.100000 0 0 1
-19.313094 -10.758950 33.216984 39.901361 0.508263 0.587232 0.050626 -0.027843 97509.100000 0 0 1
-19.805394 -10.747550 31.877341 39.037525 0.497189 0.615332 0.063714 -0.033214 -175961.000000 0 0 1
-19.397294 -11.941150 31.025297 38.489156 0.551818 0.633300 0.060001 -0.025292 679181.000000 0 0 1
-18.010094 -11.905650 30.630237 37.474250 0.584107 0.613969 0.055700 -0.030817 1042980.000000 0 0 1
-17.516594 -12.887950 29.731797 36.836260 0.634323 0.631515 0.061870 -0.030644 -188651.000000 0 0 1
-17.626694 -14.417850 30.111097 37.752522 0.685594 0.647504 0.069644 -0.022964 152635.000000 0 0 1
-18.964294 -14.930150 29.952347 38.466829 0.666935 0.678279 0.061212 -0.022369 690086.000000 0 0 1
-19.224494 -16.127950 30.665227 39.623832 0.698030 0.685806 0.070407 -0.026276 -238238.000000 0 0 1
-19.290494 -16.133350 32.216745 40.869632 0.696508 0.662786 0.039140 -0.028897 -1414380.000000 0 0 1
-18.168694 -15.752650 32.863313 40.721552 0.714293 0.631700 0.058363 -0.024789 -1294060.000000 0 0 1
-18.535194 -15.535350 -33.659396 41.447019 0.697577 2.518550 0.050322 -0.021778 238327.000000 0 0 1
-17.338594 -15.159750 -32.763476 40.048598 0.718454 2.528883 0.053334 -0.018910 -206098.000000 0 0 1
-16.804494 -13.924950 -33.072366 39.624192 0.691965 2.558295 0.044253 -0.016472 -768551.000000 0 0 1
-15.610394 -13.653550 -32.402266 38.470906 0.718629 2.572247 0.039544 -0.012830 -329519.000000 0 0 1
-15.640894 -13.227050 -30.936406 37.103283 0.701975 2.556737 0.068547 -0.023039 -298833.000000 0 0 1
-15.885694 -14.345050 -30.039266 36.884864 0.734479 2.522502 0.060885 -0.025348 -138772.000000 0 0 1
-16.186894 -13.977650 -28.717726 35.806396 0.712289 2.501479 0.057809 -0.030285 -179574.000000 0 0 1
-16.343194 -15.233550 -27.869946 35.719671 0.750271 2.465847 0.076649 -0.021711 236361.000000 0 0 1
-15.091494 -15.785850 -27.523446 35.135257 0.807882 2.470845 0.070322 -0.032293 394623.000000 0 0 1
-14.325794 -16.478250 -28.543866 35.937631 0.855161 2.488587 0.055404 -0.029870 31599.800000 0 0 1
-12.939394 -16.905050 -28.007556 35.179991 0.917502 2.491655 0.066192 -0.027897 -115608.000000 0 0 1
-11.955194 -15.899650 -27.957626 34.312598 0.926070 2.523166 0.057526 -0.027343 -328755.000000 0 0 1
-10.824394 -16.450350 -27.286056 33.649819 0.988815 2.516455 0.076027 -0.035961 185226.000000 0 0 1
-9.555294 -15.667650 -27.654166 33.189332 1.023148 2.555710 0.068678 -0.036537 -289899.000000 0 0 1
-9.431494 -14.424250 -26.987076 32.020529 0.991710 2.573271 0.069885 -0.029912 -617547.000000 0 0 1
-8.153294 -13.886450 -27.125316 31.545086 1.039886 2.605851 0.079326 -0.027512 -447007.000000 0 0 1
-8.172394 -12.395950 -27.521346 31.270946 0.987925 2.646855 0.047910 -0.030687 -224447.000000 0 0 1
-8.674094 -12.102850 -28.817996 32.437567 0.948951 2.664675 0.063131 -0.027344 107082.000000 0 0 1
-8.504594 -10.740750 -29.218856 32.271246 0.901072 2.703151 0.047305 -0.025876 -64304.900000 0 0 1
-7.294994 -10.552250 -30.156626 32.771771 0.965919 2.739391 0.046767 -0.018350 -1065310.000000 0 0 1
-6.042394 -10.925950 -29.636226 32.158868 1.065629 2.742868 0.044045 -0.018235 677500.000000 0 0 1
-4.922594 -10.637350 -30.502396 32.676923 1.137378 2.774720 0.062900 -0.017591 664412.000000 0 0 1
-4.805994 -9.114350 -30.912216 32.584260 1.085548 2.819849 0.044927 -0.014255 -2011430.000000 0 0 1
-3.616294 -8.808450 -31.564646 32.969580 1.181230 2.848611 0.066448 -0.023573 -606428.000000 0 0 1
-3.668894 -7.496250 -32.140706 33.206618 1.115640 2.887535 0.064385 -0.024200 145296.000000 0 0 1
-2.300194 -6.861650 -32.522976 33.318419 1.247345 2.922642 0.072738 -0.026381 97690.900000 0 0 1
-1.748394 -7.527350 -33.632386 34.508770 1.342571 2.915742 0.082704 -0.028280 -130076.000000 0 0 1
-0.662994 -6.718750 33.761392 34.429824 1.472437 0.197370 0.102035 -0.026153 176797.000000 0 0 1
0.047206 -7.335150 32.529227 33.346023 -1.564361 0.221789 0.104489 -0.024874 83644.500000 0 0 1
-0.682994 -7.215150 31.328717 32.156079 1.476416 0.227335 0.108280 -0.024433 39376.600000 0 0 1
0.097306 -7.777650 30.287757 31.270586 -1.558286 0.251380 0.094728 -0.031333 98241.300000 0 0 1
-0.115194 -7.308550 28.826147 29.738442 1.555036 0.248336 0.092426 -0.025573 -297861.000000 0 0 1
0.533706 -6.130650 28.484877 29.142030 -1.483960 0.212769 0.105199 -0.028221 -126509.000000 0 0 1
0.296106 -5.685450 27.160487 27.750749 -1.518762 0.206620 0.091382 -0.026146 -122145.000000 0 0 1
-0.911094 -4.746750 26.939417 27.369580 1.381162 0.177528 0.073424 -0.015651 1023960.000000 0 0 1
-2.221494 -5.321150 27.078987 27.686120 1.175309 0.209808 0.045175 -0.001882 224543.000000 0 0 1
-3.193194 -4.344050 26.809167 27.345908 0.936917 0.198456 0.029477 -0.002824 -558054.000000 0 0 1
-4.607494 -4.781650 27.157517 27.957538 0.803945 0.239804 0.026620 0.001124 -374324.000000 0 0 1
-5.203794 -5.784950 26.354957 27.479608 0.838235 0.287085 0.027513 -0.000290 104584.000000 0 0 1
-6.536894 -6.028650 26.797217 28.234136 0.744973 0.320408 0.026411 -0.001743 871913.000000 0 0 1
-6.998994 -7.534050 26.718857 28.629445 0.822198 0.367399 0.034210 -0.004319 389453.000000 0 0 1
-6.249194 -8.301750 27.639427 29.528112 0.925534 0.359600 0.032896 -0.007217 -117082.000000 0 0 1
-6.491694 -9.684850 27.476787 29.848153 0.980287 0.401304 0.046836 -0.014067 255510.000000 0 0 1
-5.761994 -10.524150 28.563697 30.981335 1.069873 0.397673 0.037247 -0.014334 158892.000000 0 0 1
-5.765294 -11.951650 28.362477 31.313107 1.121340 0.437603 0.056064 -0.021182 -218900.000000 0 0 1
-5.087494 -12.633550 29.368677 32.372957 1.187967 0.434221 0.071873 -0.025242 -208774.000000 0 0 1
-5.388894 -14.127250 29.374237 33.037330 1.206380 0.475372 0.083009 -0.035904 -477860.000000 0 0 1
-6.687094 -14.643550 29.449287 33.562051 1.142419 0.500260 0.071038 -0.031617 -519166.000000 0 0 1
-6.650094 -16.047850 29.713957 34.419130 1.177945 0.529029 0.066735 -0.031241 86823.400000 0 0 1
-6.704794 -16.431750 31.247477 35.935518 1.183379 0.516520 0.088979 -0.034650 -1498740.000000 0 0 1
-7.964294 -16.459750 31.767317 36.654001 1.120140 0.522287 0.078774 -0.031817 -1419270.000000 0 0 1
-8.042694 -16.796350 33.132234 38.007200 1.124223 0.512063 0.078559 -0.028193 -385794.000000 0 0 1
-9.518194 -16.980250 33.527331 38.768632 1.059893 0.526033 0.079325 -0.021734 -4993.800000 0 0 1
-10.182194 -18.125950 33.010822 39.012069 1.058979 0.562040 0.081956 -0.023286 251761.000000 0 0 1
-10.723094 -17.931950 31.684397 37.953137 1.031857 0.582973 0.079416 -0.027957 -651620.000000 0 0 1
-11.439694 -19.229850 31.364927 38.528073 1.034141 0.619653 0.077959 -0.023494 294724.000000 0 0 1
-12.540894 -19.581450 32.229016 39.741876 1.001166 0.625008 0.073799 -0.023013 677639.000000 0 0 1
-12.992794 -20.917750 32.115027 40.468999 1.014980 0.654141 0.069521 -0.021623 -191815.000000 0 0 1
-12.443694 -21.892550 33.208023 41.676157 1.053937 0.648797 0.084441 -0.021108 270757.000000 0 0 1
-11.022194 -21.957050 33.045726 41.177917 1.105559 0.639305 0.069874 -0.024901 380581.000000 0 0 1
-10.336194 -22.741650 -33.833196 42.055971 1.144202 2.505596 0.068956 -0.034164 143878.000000 0 0 1
-10.641394 -24.239650 -33.590926 42.768565 1.157121 2.474157 0.104351 -0.026378 -417443.000000 0 0 1
-10.012594 -24.947050 33.237133 42.747098 1.189123 0.680069 0.104825 -0.027954 -102204.000000 0 0 1
-10.124394 -26.345580 33.509628 43.811963 1.203904 0.699986 0.132789 -0.033663 -211014.000000 0 0 1
-9.404194 -27.166150 32.362421 43.287006 1.237535 0.726319 0.125384 -0.030972 600729.000000 0 0 1
-8.031694 -26.911450 32.130760 42.674582 1.280763 0.718301 0.106677 -0.046330 724909.000000 0 0 1
-7.171194 -27.633790 33.068673 43.687407 1.316889 0.712181 0.104765 -0.045321 1130390.000000 0 0 1
-5.602594 -27.498930 33.034503 43.345802 1.369809 0.704222 0.099219 -0.047205 1096530.000000 0 0 1
-4.995294 -26.441740 33.672381 43.103919 1.384080 0.674225 0.105767 -0.043171 -53944.300000 0 0 1
-5.168294 -25.186090 32.976961 41.815432 1.368402 0.662216 0.116470 -0.045640 -251206.000000 0 0 1
-4.624494 -24.000750 33.793416 41.706317 1.380448 0.626182 0.111773 -0.041807 729079.000000 0 0 1
-3.208394 -24.010150 -33.834226 41.611728 1.437957 2.520243 0.109233 -0.048558 660252.000000 0 0 1
-2.867394 -22.960150 -32.919976 40.238231 1.446554 2.528942 0.105963 -0.043980 7354.630000 0 0 1
34.788115 -15.731050 2.043534 38.234212 -0.424679 1.517323 0.198714 -0.034203 123405.000000 0 0 1
35.716665 -16.080550 3.029434 39.286661 -0.423041 1.493609 0.203875 -0.035731 393213.000000 0 0 1
34.973995 -16.485150 4.178834 38.889628 -0.440470 1.463135 0.180742 -0.044962 466934.000000 0 0 1
35.892915 -16.484650 5.433134 39.869337 -0.430539 1.434097 0.153676 -0.031437 316556.000000 0 0 1
36.959465 -17.402350 5.345334 41.199714 -0.440057 1.440688 0.161058 -0.036015 249006.000000 0 0 1
-36.543014 -17.162050 6.393234 40.875436 0.439066 1.413744 0.140281 -0.023387 1154670.000000 0 0 1
-35.254416 -18.045750 6.165434 40.081611 0.473100 1.416361 0.117268 -0.023340 645478.000000 0 0 1
-35.550606 -19.416050 6.293234 40.993089 0.499884 1.416667 0.119135 -0.033484 477343.000000 0 0 1
-34.450712 -20.056350 6.938734 40.463005 0.527210 1.398461 0.094274 -0.031413 480736.000000 0 0 1
-34.749418 -21.518550 7.192834 41.500685 0.554453 1.396598 0.103574 -0.028294 -164208.000000 0 0 1
-34.306588 -22.293750 6.130734 41.370752 0.576262 1.422058 0.115764 -0.032438 149895.000000 0 0 1
-34.556955 -23.642750 6.421534 42.360345 0.600021 1.418617 0.121841 -0.032931 34281.400000 0 0 1
-34.050934 -24.609350 5.295334 42.345327 0.625813 1.445417 0.104297 -0.023323 -132648.000000 0 0 1
-34.635855 -24.430250 4.062634 42.579156 0.614305 1.475237 0.104447 -0.020848 -240932.000000 0 0 1
-34.078093 -25.286360 3.113934 42.548948 0.638369 1.497546 0.090532 -0.011521 -179047.000000 0 0 1
-34.550989 -25.109220 1.672434 42.743898 0.628441 1.531659 0.079542 -0.012068 408099.000000 0 0 1
-35.893458 -25.574200 1.477734 44.097208 0.619068 1.537279 0.074478 -0.011364 631154.000000 0 0 1
-36.440964 -25.088440 0.238334 44.242858 0.602944 1.565409 0.071876 -0.005797 -70573.700000 0 0 1
37.173855 -23.794450 0.332934 44.138217 -0.569374 1.563253 0.097589 -0.013569 -408813.000000 0 0 1
35.809505 -24.121250 0.225534 43.176455 -0.592787 1.565573 0.069605 0.005610 -527771.000000 0 0 1
34.988495 -23.083950 0.621434 41.921948 -0.583205 1.555972 0.100170 -0.017393 -551269.000000 0 0 1
33.478065 -23.177250 0.460234 40.720727 -0.605547 1.559494 0.062297 -0.005568 -219465.000000 0 0 1
33.133325 -23.036450 -0.888866 40.364407 -0.607541 1.592819 0.068603 -0.013932 381779.000000 0 0 1
31.723745 -23.062950 -1.122566 39.237174 -0.628613 1.599410 0.069158 -0.007700 779339.000000 0 0 1
31.283285 -22.884850 -2.602466 38.847563 -0.631579 1.637838 0.062552 -0.004928 47492.200000 0 0 1
31.588715 -21.561050 -3.073466 38.368894 -0.598922 1.650985 0.097659 -0.024076 117891.000000 0 0 1
31.299945 -21.473150 -4.482966 38.221456 -0.601298 1.688356 0.098779 -0.047153 119570.000000 0 0 1
31.246045 -20.008750 -4.903066 37.426000 -0.569569 1.702181 0.096071 -0.047576 284068.000000 0 0 1
30.248005 -19.340450 -4.147866 36.141384 -0.568884 1.685818 0.107351 -0.045215 121940.000000 0 0 1
30.139525 -17.944550 -4.376466 35.348993 -0.537017 1.694922 0.106092 -0.047226 -281425.000000 0 0 1
29.386265 -17.420250 -3.156166 34.307129 -0.535110 1.662924 0.133390 -0.038919 -370926.000000 0 0 1
30.001025 -17.408050 -1.879566 34.736645 -0.525770 1.624932 0.132582 -0.033980 -320932.000000 0 0 1
30.430075 -18.599750 -1.289266 35.687566 -0.548635 1.606931 0.116959 -0.022583 -502867.000000 0 0 1
29.459625 -19.751750 -1.021266 35.483012 -0.590630 1.599582 0.104431 -0.011095 -322428.000000 0 0 1
28.510065 -19.395450 -0.016266 34.481989 -0.597383 1.571268 0.091859 0.002253 390157.000000 0 0 1
27.698065 -20.573350 0.229334 34.503596 -0.638859 1.564150 0.073790 0.000300 72661.000000 0 0 1
26.582465 -20.170550 1.251834 33.392299 -0.649104 1.533299 0.052403 -0.003173 -202448.000000 0 0 1
25.626165 -21.206250 1.362334 33.290559 -0.691300 1.529862 0.050311 0.001132 -391478.000000 0 0 1
24.923665 -21.132750 2.553334 32.776542 -0.703273 1.492816 0.038781 0.004904 -313589.000000 0 0 1
23.479865 -20.620750 2.392434 31.340758 -0.720657 1.494386 0.017634 -0.001794 -756910.000000 0 0 1
23.291165 -19.269150 1.992234 30.294348 -0.691176 1.504986 0.053213 -0.018718 214433.000000 0 0 1
23.451365 -18.340350 3.055134 29.927726 -0.663705 1.468534 0.078490 -0.027090 -756112.000000 0 0 1
23.220565 -16.913050 2.628734 28.847117 -0.629510 1.479543 0.075250 -0.010543 921783.000000 0 0 1
21.848865 -16.637550 2.274234 27.556363 -0.650810 1.488172 0.069669 -0.009258 850800.000000 0 0 1
21.829765 -15.349350 1.662734 26.737724 -0.612829 1.508569 0.089095 -0.028798 1203660.000000 0 0 1
20.367965 -14.961850 1.218634 25.302095 -0.633557 1.522614 0.067670 -0.019547 941457.000000 0 0 1
19.291865 -14.898050 2.147134 24.469126 -0.657587 1.482935 0.041121 -0.014104 201211.000000 0 1 0
18.345765 -13.935050 1.817734 23.109671 -0.649603 1.492058 0.048330 -0.017299 -675279.000000 0 1 0
18.586265 -12.543250 2.373034 22.548030 -0.593658 1.465358 0.062741 -0.018489 1901.130000 0 1 0
19.648465 -11.894650 1.639734 23.026802 -0.544361 1.499526 0.084917 -0.019769 848816.000000 0 1 0
19.790565 -10.549850 2.039634 22.519456 -0.489756 1.480100 0.090979 -0.018320 -111871.000000 0 1 0
20.711765 -9.655850 1.130334 22.879911 -0.436245 1.521373 0.097676 -0.023785 -233649.000000 0 1 0
20.234865 -9.315450 -0.140966 22.276608 -0.431441 1.577124 0.113814 -0.020727 28754.600000 0 1 0
21.241365 -8.917750 -1.010866 23.059569 -0.397483 1.614648 0.123075 -0.019395 -1017560.000000 0 1 0
20.747165 -8.475650 -2.380966 22.537757 -0.387830 1.676637 0.129779 -0.017678 120166.000000 0 1 0
21.720365 -7.967250 -3.336566 23.374859 -0.351571 1.714027 0.153015 -0.022803 1561120.000000 0 1 0
22.726765 -8.955250 -3.743166 24.712621 -0.375358 1.722849 0.150529 -0.023510 171558.000000 0 1 0
22.201265 -10.098050 -4.662766 24.831596 -0.426873 1.759693 0.126604 -0.026148 -469082.000000 0 1 0
21.914465 -9.710050 -6.024166 24.714761 -0.417092 1.817025 0.122428 -0.027978 199216.000000 0 1 0
20.675465 -9.052250 -6.196866 23.405539 -0.412684 1.838752 0.123442 -0.023210 -365842.000000 0 1 0
20.283365 -8.844150 -7.632166 23.406919 -0.411176 1.902934 0.125223 -0.018725 -73921.000000 0 1 0
19.902665 -10.083350 -8.280266 23.798169 -0.468940 1.926166 0.111910 -0.020779 643808.000000 0 1 0
21.001165 -10.554950 -9.043766 25.184233 -0.465716 1.938104 0.102511 -0.022112 -91667.800000 0 0 1
20.911065 -12.033950 -9.522166 25.937622 -0.522197 1.946705 0.098995 -0.029488 240978.000000 0 0 1
19.911065 -12.170150 -10.539966 25.605740 -0.548633 1.995033 0.117570 -0.032025 438489.000000 0 0 1
19.662265 -13.552150 -10.831766 26.221987 -0.603472 1.996629 0.124969 -0.036329 -174840.000000 0 0 1
18.520665 -13.739950 -11.853466 25.928863 -0.638278 2.045588 0.124733 -0.038738 39418.100000 0 0 1
18.281965 -15.110450 -12.036466 26.597602 -0.690705 2.040407 0.114893 -0.042704 519082.000000 0 0 1
17.291765 -15.282050 -13.068266 26.520290 -0.723779 2.086061 0.121987 -0.045440 195025.000000 0 0 1
17.378165 -16.762350 -13.498866 27.662183 -0.767362 2.080582 0.099159 -0.042426 -565585.000000 0 0 1
16.758965 -17.623750 -12.602366 27.391223 -0.810545 2.048890 0.086322 -0.033415 77030.800000 0 0 1
16.791165 -18.937750 -13.063766 28.482338 -0.845406 2.047285 0.083754 -0.033844 -227344.000000 0 0 1
15.759365 -19.839650 -12.364266 28.192984 -0.899518 2.024790 0.075978 -0.028885 31362.900000 0 0 1
14.413665 -19.478050 -12.571166 27.298029 -0.933729 2.049372 0.075186 -0.026819 -348965.000000 0 0 1
13.549865 -20.130950 -11.660166 26.922360 -0.978363 2.018729 0.062782 -0.020202 -312421.000000 0 0 1
12.090765 -19.901050 -12.047366 26.217883 -1.024848 2.048239 0.073018 -0.026267 -444906.000000 0 0 1
11.236165 -20.711050 -11.250166 26.110634 -1.073714 2.016248 0.082454 -0.031402 151068.000000 0 0 1
9.868365 -20.459650 -11.553366 25.484547 -1.121382 2.041314 0.068703 -0.022914 436858.000000 0 0 1
8.928165 -21.202950 -10.580566 25.322432 -1.172250 2.001856 0.057399 -0.021166 -211150.000000 0 0 1
8.951965 -22.619050 -10.749566 26.595343 -1.193941 1.986889 0.087438 -0.027277 -230570.000000 0 0 1
8.099565 -23.246850 -9.846766 26.513728 -1.235534 1.951295 0.086107 -0.031522 -244589.000000 0 0 1
8.414865 -24.796250 -9.856966 27.978987 -1.243631 1.930823 0.095065 -0.031666 -1276650.000000 0 0 1
9.660965 -24.852750 -9.332566 28.250490 -1.200045 1.907471 0.071759 -0.026923 -1889770.000000 0 0 1
10.189665 -26.100830 -9.743266 29.665027 -1.198596 1.905451 0.085690 -0.026824 -795062.000000 0 0 1
11.552165 -26.375850 -9.172666 30.220453 -1.157981 1.879186 0.050275 -0.020066 -779283.000000 0 0 1
11.473465 -26.694820 -7.823666 30.090921 -1.164866 1.833819 0.048958 -0.028312 1267450.000000 0 0 1
12.849365 -26.784950 -7.355766 30.604689 -1.123501 1.813520 0.042660 -0.024050 1034370.000000 0 0 1
12.876665 -27.207740 -5.832966 30.660938 -1.128759 1.762204 0.057801 -0.026005 -206629.000000 0 0 1
12.431965 -28.457340 -5.453766 31.529629 -1.158920 1.744643 0.058747 -0.019586 316196.000000 0 0 1
11.020365 -28.619210 -5.529966 31.162287 -1.203228 1.749198 0.072020 -0.027077 139991.000000 0 0 1
10.392565 -29.808370 -4.754466 31.924117 -1.235328 1.720283 0.079188 -0.027968 72576.200000 0 0 1
10.790965 -31.096680 -5.176166 33.320281 -1.236785 1.726774 0.067653 -0.016185 -134475.000000 0 0 1
9.844265 -31.618620 -6.085366 33.670140 -1.268965 1.752530 0.075742 -0.019190 164961.000000 0 0 1
9.979965 -33.174580 -6.358566 35.221922 -1.278577 1.752320 0.072483 -0.012971 154037.000000 0 0 1
9.440465 -33.981650 -5.281366 35.661853 -1.299819 1.719439 0.074712 -0.013989 165076.000000 0 0 1
9.879265 32.695962 -5.439566 34.586337 1.277363 1.728727 0.067357 -0.013400 72883.600000 0 0 1
9.321565 31.729099 -4.345966 33.354381 1.285050 1.701465 0.054621 -0.013733 1234570.000000 0 0 1
7.888765 31.576669 -4.319466 32.832551 1.325979 1.702739 0.051899 -0.016663 604191.000000 0 0 1
7.595065 30.540109 -3.354266 31.648608 1.327050 1.676980 0.030132 -0.010969 97557.500000 0 0 1
6.170565 29.936619 -3.440866 30.759008 1.367522 1.682896 0.040639 -0.018792 118148.000000 0 0 1
5.975865 29.191409 -4.679366 30.161992 1.368873 1.726567 0.044444 -0.021667 91348.100000 0 0 1
5.759965 29.934399 -5.871966 31.043927 1.380700 1.761093 0.045642 -0.025296 -529914.000000 0 0 1
5.975665 29.136329 -7.156566 30.591676 1.368508 1.806923 0.058028 -0.033378 -61099.200000 0 0 1
5.001465 28.176909 -7.481966 29.579261 1.395124 1.826521 0.058018 -0.034596 158251.000000 0 0 1
5.565265 26.916149 -7.119366 28.392545 1.366906 1.824249 0.049892 -0.027338 -44826.500000 0 0 1
4.730365 25.699499 -7.631566 27.222810 1.388769 1.854942 0.049313 -0.025529 -445455.000000 0 0 1
3.421165 25.641229 -7.121466 26.830808 1.438155 1.839437 0.051884 -0.024086 -82768.200000 0 0 1
2.450965 26.265239 -7.997666 27.565062 1.477750 1.865167 0.073982 -0.027246 429888.000000 0 0 1
1.946365 25.500879 -9.217766 27.185481 1.494619 1.916724 0.080722 -0.027994 -486280.000000 0 0 1
2.979565 25.351199 -10.171866 27.477772 1.453802 1.950005 0.060779 -0.029897 23402.500000 0 0 1
2.622965 24.654189 -11.419366 27.296719 1.464805 2.002416 0.072920 -0.026352 -529254.000000 0 0 1
2.334765 23.112789 -11.316066 25.839998 1.470122 2.024089 0.079120 -0.020673 -245721.000000 0 0 1
1.162365 22.756249 -10.629966 25.143471 1.519762 2.007299 0.093367 -0.021364 -309093.000000 0 0 1
1.028265 21.381749 -10.430066 23.812240 1.522743 2.024183 0.045904 -0.021162 -419981.000000 0 1 0
-0.163035 20.959849 -9.568266 23.041127 -1.563018 1.999035 0.056338 -0.013896 -120137.000000 0 1 0
-1.443635 20.960849 -10.164766 23.340174 -1.502032 2.021396 0.064374 -0.023317 -528359.000000 0 1 0
-2.344135 20.273849 -9.372466 22.458117 -1.455684 2.001303 0.050266 -0.015573 -714632.000000 0 1 0
-3.713535 20.152649 -10.025566 22.812969 -1.388570 2.025802 0.046695 -0.026629 -127618.000000 0 1 0
-4.691735 19.388649 -9.318666 22.017484 -1.333377 2.007814 0.044096 -0.029891 182465.000000 0 1 0
-5.681135 18.903849 -10.195166 22.216485 -1.278855 2.047554 0.054861 -0.037137 -392829.000000 0 1 0
-6.680335 17.962749 -9.470066 21.376842 -1.214747 2.029745 0.052654 -0.036468 -15192.700000 0 1 0
-7.677935 18.494049 -8.623566 21.802440 -1.177292 1.977443 0.066634 -0.028668 -405229.000000 0 1 0
-8.881135 18.669549 -9.312966 22.675051 -1.126776 1.994034 0.078484 -0.034164 -907282.000000 0 1 0
-9.984035 19.027949 -8.315966 23.041247 -1.087582 1.940047 0.087281 -0.036797 -387962.000000 0 1 0
-10.523335 17.922249 -7.645966 22.145166 -1.039867 1.923318 0.080998 -0.034257 -549882.000000 0 1 0
-11.319835 18.296149 -6.577866 22.497912 -1.016740 1.867508 0.093807 -0.031069 -461699.000000 0 1 0
-11.781735 17.121349 -5.747766 21.563550 -0.968080 1.840608 0.066173 -0.034150 -121778.000000 0 1 0
-12.603135 17.494849 -4.655366 22.058585 -0.946516 1.783441 0.076998 -0.029736 11898.700000 0 1 0
-12.970835 16.381849 -3.896566 21.255370 -0.901087 1.755160 0.059604 -0.025832 -919314.000000 0 1 0
-14.147435 16.583549 -2.984166 22.001574 -0.864505 1.706850 0.049483 -0.030100 -101677.000000 0 1 0
-15.411635 16.288749 -3.626566 22.715497 -0.813060 1.731134 0.108983 -0.052436 25767.400000 0 1 0
-16.359235 16.806349 -2.779866 23.617908 -0.798879 1.688771 0.103706 -0.043214 -1338490.000000 0 1 0
-17.717335 16.965649 -3.446066 24.771204 -0.763729 1.710365 0.117754 -0.056122 -580895.000000 0 1 0
-17.812135 18.064349 -4.315866 25.733627 -0.792428 1.739306 0.110176 -0.052634 353728.000000 0 0 1
-19.159735 18.188649 -4.762666 26.844094 -0.759403 1.749160 0.094129 -0.054742 493585.000000 0 0 1
-19.460835 19.066749 -5.922266 27.880786 -0.775170 1.784841 0.095490 -0.033423 -106720.000000 0 0 1
-19.344435 20.421349 -5.672966 28.695316 -0.812473 1.769804 0.112596 -0.045144 71592.600000 0 0 1
-19.623535 21.031949 -6.891866 29.579111 -0.820027 1.805955 0.097433 -0.023961 -251585.000000 0 0 1
-19.683035 22.602449 -6.859566 30.746483 -0.854329 1.795791 0.106507 -0.028085 1411560.000000 0 0 1
-18.410635 23.324389 -6.945566 30.515889 -0.902596 1.800414 0.130581 -0.030478 1237550.000000 0 0 1
-17.706035 23.376579 -5.737766 29.881266 -0.922559 1.764015 0.125091 -0.032715 380182.000000 0 0 1
-16.372435 24.199759 -5.836366 29.795102 -0.975980 1.767955 0.117285 -0.034510 203410.000000 0 0 1
-15.845235 24.459479 -4.528566 29.493143 -0.995958 1.724953 0.104828 -0.041860 1374820.000000 0 0 1
-14.560335 25.158649 -4.457066 29.407931 -1.046155 1.722943 0.122830 -0.048338 1410550.000000 0 0 1
-14.436335 26.548429 -5.085266 30.644523 -1.072746 1.737511 0.126231 -0.024758 311988.000000 0 0 1
-15.346935 27.561479 -4.562966 31.874507 -1.062728 1.714444 0.131264 -0.025754 795589.000000 0 0 1
-14.795135 28.851829 -4.854266 32.785484 -1.096964 1.719404 0.106690 -0.021700 -156402.000000 0 0 1
-15.624335 29.938399 -4.198966 34.030264 -1.089796 1.694501 0.097931 -0.015130 98521.300000 0 0 1
-16.842635 30.090179 -4.923766 34.832983 -1.060507 1.712625 0.133914 -0.022637 238423.000000 0 0 1
-17.487335 31.312589 -4.613866 36.160377 -1.061469 1.698740 0.126550 -0.022857 -126.899000 0 0 1
13.012106 -8.668550 18.673717 24.355007 -0.587673 0.697064 0.105203 -0.028636 -219495.000000 0 1 0
13.959706 -9.566050 19.181317 25.579399 -0.600766 0.722925 0.113567 -0.029879 -104442.000000 0 0 1
14.069406 -10.749250 18.359717 25.506348 -0.652411 0.767268 0.113399 -0.029636 -1121.930000 0 0 1
14.610506 -11.940650 19.190917 26.913515 -0.685180 0.776945 0.126967 -0.046908 1048190.000000 0 0 1
16.026906 -11.932450 19.526617 27.938036 -0.639989 0.796902 0.116109 -0.049721 1641690.000000 0 0 1
16.381306 -13.162850 20.171817 29.129195 -0.676889 0.805855 0.105889 -0.048420 62545.000000 0 0 1
16.834406 -14.278250 19.157317 29.227871 -0.703424 0.856022 0.096859 -0.050141 -140317.000000 0 0 1
15.700206 -14.752050 18.430517 28.351427 -0.754272 0.863115 0.109290 -0.052239 985926.000000 0 0 1
16.164606 -15.801050 17.547317 28.616010 -0.774025 0.910692 0.113439 -0.046750 -325202.000000 0 0 1
15.281706 -16.004450 16.316417 27.493607 -0.808495 0.935443 0.107103 -0.039021 -1230370.000000 0 0 1
13.995706 -16.401150 16.627217 27.227594 -0.864368 0.913883 0.143912 -0.035511 -953182.000000 0 0 1
13.198106 -16.414650 15.469517 26.133057 -0.893594 0.937318 0.151461 -0.035213 -213215.000000 0 0 1
12.906606 -17.815350 14.912117 26.577028 -0.943839 0.975094 0.119273 -0.018757 -287354.000000 0 0 1
13.967506 -18.371950 14.164417 27.078598 -0.920759 1.020329 0.113301 -0.022600 -28586.400000 0 0 1
13.547006 -19.465650 13.415117 27.246986 -0.962798 1.056006 0.098061 -0.019364 174918.000000 0 0 1
14.652606 -20.443150 12.858617 28.248279 -0.948918 1.098199 0.095173 -0.012579 -114342.000000 0 0 1
15.367906 -21.159150 13.817017 29.576885 -0.942636 1.084725 0.085880 -0.005637 -192674.000000 0 0 1
15.732706 -22.404150 13.300317 30.436202 -0.958580 1.118547 0.054422 -0.013109 -542386.000000 0 0 1
16.733506 -23.100650 14.188317 31.858415 -0.943899 1.109225 0.061659 -0.011839 -799353.000000 0 0 1
18.066706 -22.695150 14.176217 32.286852 -0.898462 1.116232 0.035495 -0.008239 -636399.000000 0 0 1
18.625306 -23.205250 15.397817 33.503409 -0.894452 1.093263 0.040407 -0.015233 574362.000000 0 0 1
20.024706 -22.585950 15.737917 34.041093 -0.845434 1.090185 0.025079 -0.015499 836823.000000 0 0 1
21.086106 -23.172350 14.991117 34.732049 -0.832501 1.124506 0.026628 -0.016019 -1005540.000000 0 0 1
22.242306 -22.485450 15.267217 35.119846 -0.790834 1.121072 0.029065 -0.011508 -60221.100000 0 0 1
23.567806 -23.060950 14.645117 36.079473 -0.774529 1.152819 0.024061 -0.013515 681005.000000 0 0 1
23.846006 -24.298950 15.336817 37.340178 -0.794806 1.147539 0.026419 -0.008359 17152.200000 0 0 1
24.981706 -25.023130 14.924317 38.379394 -0.786227 1.171399 0.037560 -0.013123 -248725.000000 0 0 1
25.276106 -26.263990 15.798317 39.727390 -0.804563 1.161822 0.034177 -0.010182 -398843.000000 0 0 1
25.817306 -25.812420 17.008317 40.275267 -0.785304 1.134813 0.047124 -0.004471 25457.500000 0 0 1
26.167306 -26.966830 17.729217 41.548321 -0.800444 1.129941 0.073669 -0.007006 109996.000000 0 0 1
26.781006 -26.650640 19.117417 42.343294 -0.782958 1.102366 0.076471 -0.001721 -428921.000000 0 0 1
25.833506 -26.203230 20.027517 41.893684 -0.792503 1.072357 0.085001 -0.006364 -475307.000000 0 0 1
26.263006 -26.044510 21.365217 42.714570 -0.781221 1.046983 0.085272 0.000744 846340.000000 0 0 1
24.982206 -25.796650 22.298417 42.270524 -0.801436 1.015121 0.066011 0.001031 1023740.000000 0 0 1
24.264206 -27.003470 22.279717 42.594893 -0.838778 1.020358 0.072207 -0.002462 -856446.000000 0 0 1
23.175206 -26.959050 23.130757 42.413588 -0.860730 0.993975 0.074747 -0.007478 -414397.000000 0 0 1
22.352106 -28.254740 23.189447 42.845040 -0.901511 0.998885 0.088120 -0.017778 -274005.000000 0 0 1
23.126106 -29.235880 23.827067 44.241186 -0.901556 1.002055 0.095673 -0.028893 531224.000000 0 0 1
22.941506 -30.526490 23.220777 44.692100 -0.926318 1.024446 0.104660 -0.031268 683768.000000 0 0 1
24.161406 -31.426120 23.716127 46.193389 -0.915351 1.031643 0.086239 -0.033662 913821.000000 0 0 1
23.959306 -31.763750 25.070057 47.026502 -0.924551 1.008530 0.089973 -0.036323 170239.000000 0 0 1
25.115506 -32.288960 25.697777 48.308812 -0.909717 1.009897 0.089600 -0.039832 -436493.000000 0 0 1
24.828806 -32.764720 27.144527 49.262783 -0.922328 0.987216 0.078472 -0.040821 144967.000000 0 0 1
24.120606 -33.966710 27.353017 49.837020 -0.953307 0.989809 0.087277 -0.025715 -240594.000000 0 0 1
22.756406 -33.927600 27.026337 48.983252 -0.979983 0.986339 0.090474 -0.022976 -509580.000000 0 0 1
21.942506 32.872938 27.634177 48.226045 0.982221 0.960618 0.104236 -0.033536 -142686.000000 0 0 1
21.659606 33.013048 29.006667 48.993740 0.990150 0.937198 0.069364 -0.029274 126259.000000 0 0 1
21.315706 31.776849 29.590477 48.370691 0.979942 0.912533 0.074144 -0.028515 -64049.200000 0 0 1
20.955006 31.930789 31.064297 49.230866 0.990031 0.887965 0.064985 -0.029690 323603.000000 0 0 1
22.133806 32.160440 31.810487 50.359769 0.968013 0.887098 0.057571 -0.028189 567706.000000 0 0 1
21.703706 32.622122 33.078820 51.278280 0.983736 0.869663 0.044983 -0.024457 90783.900000 0 0 1
22.911406 32.731280 -33.813756 52.341564 0.960080 2.273157 0.033264 -0.026974 -25930.000000 0 0 1
23.581006 31.524389 -33.617086 51.768324 0.928561 2.277559 0.015573 -0.018888 189183.000000 0 0 1
24.811806 31.597719 -32.910846 51.934240 0.905120 2.257126 0.011293 -0.015750 208688.000000 0 0 1
25.483306 30.228389 -32.691246 51.301773 0.870365 2.261700 0.021201 -0.014853 -430163.000000 0 0 1
25.904106 29.618719 -33.874276 51.920687 0.852201 2.281574 0.031769 -0.016781 -526618.000000 0 0 1
25.009606 28.582339 33.652266 50.743527 0.851965 0.845732 0.045571 -0.023517 -528840.000000 0 0 1
25.321106 27.751949 32.443842 49.638009 0.831168 0.858453 0.081416 -0.024568 -714138.000000 0 0 1
26.454306 26.959649 32.501675 49.829829 0.794859 0.860243 0.068587 -0.021417 -425509.000000 0 0 1
26.719306 26.271839 31.357667 48.861377 0.776954 0.873995 0.096757 -0.032851 293315.000000 0 0 1
28.053106 25.450379 31.282347 49.125185 0.736791 0.880471 0.084758 -0.018321 227150.000000 0 0 1
28.140106 24.363589 32.202478 49.218387 0.713593 0.857570 0.101625 -0.015806 -222495.000000 0 0 1
29.083606 24.558619 33.205151 50.513008 0.701242 0.853488 0.090397 -0.024534 -1272690.000000 0 0 1
28.988006 23.579199 -33.467316 50.163177 0.682866 2.301198 0.083221 -0.028374 1130370.000000 0 0 1
27.826206 23.857309 -32.607226 49.058130 0.708756 2.297842 0.091992 -0.022245 1866070.000000 0 0 1
26.523606 23.608769 -33.122136 48.558743 0.727321 2.321433 0.078019 -0.012142 -156765.000000 0 0 1
25.983906 22.153649 -33.167636 47.602937 0.705996 2.341661 0.067324 -0.010472 -475436.000000 0 0 1
25.554006 21.584049 -31.959386 46.263168 0.701377 2.333415 0.038674 -0.018835 409239.000000 0 0 1
24.999806 20.284249 -32.189386 45.525791 0.681639 2.356126 0.050167 -0.019027 59839.900000 0 0 1
25.014506 19.380649 -30.930586 44.249703 0.659170 2.344796 0.057756 -0.020847 -68538.600000 0 0 1
23.970506 19.739149 -30.044976 43.207866 0.688893 2.339716 0.045916 -0.008142 194714.000000 0 0 1
23.980006 18.900349 -28.912226 42.049740 0.667486 2.328936 0.044653 -0.002973 -413174.000000 0 0 1
22.723106 19.106049 -28.077936 40.862588 0.699141 2.328329 0.054168 0.002804 -316021.000000 0 0 1
22.663806 18.350149 -26.882096 39.661356 0.680608 2.315550 0.056516 0.002230 40684.900000 0 0 1
23.183706 18.993549 -25.736396 39.504445 0.686377 2.280331 0.048024 0.010336 118996.000000 0 0 1
23.073206 18.057249 -24.512066 38.200503 0.664045 2.267468 0.066959 0.010182 121435.000000 0 0 1
24.048106 17.043649 -24.623566 38.407257 0.616562 2.266750 0.067995 -0.010973 243018.000000 0 0 1
24.123106 16.181749 -23.472966 37.346397 0.590858 2.250446 0.072279 -0.012603 -809674.000000 0 0 1
25.154406 15.073149 -23.628666 37.659764 0.539849 2.249038 0.093062 -0.012490 -636755.000000 0 0 1
26.442406 15.606749 -23.418066 38.615764 0.533195 2.222369 0.108384 -0.020176 -250562.000000 0 0 1
27.490606 14.702149 -23.201366 38.861163 0.491103 2.210593 0.113376 -0.030412 -45272.200000 0 0 1
27.565806 13.838449 -21.877966 37.815628 0.465258 2.187738 0.106502 -0.029976 -620253.000000 0 0 1
26.437006 13.005249 -21.783166 36.640935 0.457174 2.207444 0.093842 -0.020482 -140607.000000 0 0 1
26.300706 12.472449 -20.491466 35.597602 0.442816 2.184185 0.084118 -0.027539 -1091120.000000 0 0 1
24.952806 11.870849 -20.187266 34.221123 0.444045 2.201739 0.089607 -0.022170 -1155810.000000 0 0 1
24.032206 12.901549 -20.018366 33.833886 0.492687 2.203920 0.095915 -0.022451 -465737.000000 0 0 1
22.723806 12.411149 -20.257466 32.875111 0.499901 2.234698 0.074281 -0.026584 -133456.000000 0 0 1
21.652406 13.466249 -20.370066 32.635964 0.556388 2.244852 0.061909 -0.019993 -777876.000000 0 0 1
21.989906 14.413149 -21.403766 33.903038 0.580193 2.254054 0.063416 -0.009106 328124.000000 0 0 1
21.165806 15.564949 -21.389466 33.878728 0.634080 2.254094 0.051095 -0.000309 14625.800000 0 0 1
19.772506 15.566749 -22.071066 33.472490 0.666944 2.290789 0.060751 0.008001 205294.000000 0 0 1
18.853306 14.713549 -21.427466 32.110309 0.662689 2.301385 0.058349 -0.000337 150699.000000 0 0 1
17.678606 14.591949 -22.211066 31.918482 0.690039 2.340425 0.069808 -0.014889 37291.600000 0 0 1
16.645606 13.555249 -21.732866 30.547314 0.683426 2.362355 0.079553 -0.020781 813345.000000 0 0 1
15.392506 13.759849 -22.402666 30.465425 0.729452 2.396975 0.072571 -0.022244 442466.000000 0 0 1
14.340806 12.998349 -21.844466 29.185552 0.736334 2.416546 0.082673 -0.030595 55622.300000 0 0 1
13.019006 13.102649 -22.636066 29.215841 0.788600 2.457175 0.073654 -0.038273 -13483.800000 0 0 1
12.444706 14.425949 -22.632266 29.583748 0.858998 2.441874 0.091950 -0.032622 404137.000000 0 0 1
11.778706 14.680849 -23.884366 30.409343 0.894644 2.474184 0.081663 -0.018512 -156607.000000 0 0 1
11.400306 16.162749 -24.100966 31.177844 0.956492 2.454378 0.081948 -0.025455 395669.000000 0 0 1
12.461406 17.143549 -24.158066 32.137207 0.942253 2.421457 0.066268 -0.004665 456932.000000 0 0 1
13.492506 17.114349 -25.127796 33.261912 0.903185 2.427141 0.075527 -0.014081 135183.000000 0 0 1
13.114906 17.227349 -26.614426 34.309036 0.920112 2.458662 0.111221 -0.015261 -208937.000000 0 0 1
14.302506 17.317549 -27.382236 35.415336 0.880463 2.454628 0.104887 -0.015167 281359.000000 0 0 1
14.157106 17.015249 -28.806266 36.328271 0.876831 2.486421 0.111352 -0.023342 -154416.000000 0 0 1
15.392506 17.419349 -29.634616 37.663954 0.847091 2.476430 0.095541 -0.023174 -552855.000000 0 0 1
16.472806 16.591249 -29.508876 37.648328 0.788980 2.471563 0.082404 -0.021204 -635421.000000 0 0 1
17.615306 17.040549 -30.235176 38.921012 0.768815 2.460419 0.071953 -0.021154 87405.500000 0 0 1
18.712706 15.995649 -30.315836 39.052222 0.707275 2.459555 0.071699 -0.012728 100894.000000 0 0 1
20.002206 16.557649 -30.523756 40.074227 0.691459 2.436699 0.062339 -0.012107 915270.000000 0 0 1
21.076906 15.620349 -30.645466 40.340747 0.637789 2.433595 0.068130 -0.011225 1739070.000000 0 0 1
22.398306 16.183049 -31.339856 41.782314 0.625676 2.418971 0.070479 -0.013208 1093690.000000 0 0 1
22.213006 16.407149 -32.763456 42.849226 0.636183 2.441251 0.070322 -0.010855 4159.010000 0 0 1
23.412706 16.771849 -33.405316 44.106290 0.621619 2.430091 0.065661 -0.015450 -259624.000000 0 0 1
23.312306 17.510149 33.084327 44.098091 0.644212 0.722365 0.034959 -0.002345 327187.000000 0 0 1
24.460906 18.319949 32.817409 44.843492 0.642828 0.749806 0.045435 -0.002323 383110.000000 0 0 1
24.313206 18.912149 31.556857 44.098034 0.661091 0.773304 0.066546 -0.001225 -492319.000000 0 0 1
25.244306 20.076649 31.255107 44.913567 0.671865 0.801132 0.083782 -0.007031 -24839.000000 0 0 1
26.620806 19.756549 31.325867 45.610289 0.638456 0.813697 0.065602 -0.005262 -159608.000000 0 0 1
27.362306 20.941849 31.495317 46.682029 0.653255 0.830269 0.070699 -0.017459 15751.800000 0 0 1
28.891206 20.724249 31.416997 47.447065 0.622256 0.847114 0.087669 -0.018010 -11039.700000 0 0 1
29.395606 20.135849 32.603397 48.296331 0.600584 0.829737 0.069350 -0.022598 -139649.000000 0 0 1
30.789306 19.994949 32.426617 48.982291 0.575962 0.847303 0.062379 -0.018878 154280.000000 0 0 1
31.524006 19.290949 33.622397 49.963679 0.549156 0.832624 0.054696 -0.023308 28892.500000 0 0 1
31.460006 19.952949 -32.947436 49.733145 0.565211 2.294927 0.053381 -0.028484 -297228.000000 0 0 1
30.371306 19.587249 -32.149026 48.369788 0.572800 2.297823 0.059052 -0.030661 -585490.000000 0 0 1
30.533806 20.020249 -30.712756 47.711603 0.580354 2.270141 0.070226 -0.025821 441853.000000 0 0 1
31.734506 19.379449 -30.281816 47.954460 0.548231 2.254244 0.069076 -0.033602 289645.000000 0 0 1
32.228306 19.931849 -29.047476 47.746185 0.553881 2.224805 0.080032 -0.041272 1289830.000000 0 0 1
33.738106 19.500849 -28.815376 48.465130 0.524091 2.207513 0.081867 -0.030440 1116930.000000 0 0 1
34.675306 20.160349 -29.646906 49.877405 0.526633 2.207310 0.060212 -0.025750 -407239.000000 0 0 1
35.915406 20.085449 -28.999866 50.342168 0.509912 2.184691 0.055933 -0.017768 242180.000000 0 0 1
37.075506 21.013349 -29.578456 51.875225 0.515629 2.177527 0.048734 -0.018378 1011570.000000 0 0 1
-36.732953 20.426949 -30.713536 52.056617 -0.507509 2.201858 0.034664 -0.019541 52969.300000 0 0 1
-35.659553 21.262649 -31.099876 51.873946 -0.537671 2.213707 0.045111 -0.028706 950969.000000 0 0 1
-34.725053 20.602549 -32.267816 51.686616 -0.535482 2.245028 0.043608 -0.031385 1050240.000000 0 0 1
-33.830953 19.575449 -31.843046 50.415386 -0.524555 2.254429 0.052877 -0.022529 219937.000000 0 0 1
-33.095553 19.115949 -32.929776 50.449036 -0.523785 2.281983 0.054020 -0.016686 -401366.000000 0 0 1
-32.262553 17.869749 -32.673476 49.272267 -0.505821 2.295777 0.041617 -0.010013 -348884.000000 0 0 1
-33.071653 16.737449 -32.435396 49.253744 -0.468513 2.289669 0.040835 -0.010348 173507.000000 0 0 1
-32.479853 15.492649 -32.805626 48.694682 -0.445073 2.310001 0.031495 -0.005795 119584.000000 0 0 1
-33.526553 14.341049 -32.811966 49.054261 -0.404199 2.303513 0.035748 -0.002451 281349.000000 0 0 1
-33.002453 13.083149 -33.255606 48.644280 -0.377425 2.323547 0.047123 -0.007293 773812.000000 0 0 1
-34.060653 12.104649 -33.212826 49.089127 -0.341464 2.313907 0.063814 -0.014525 474391.000000 0 0 1
-33.583053 10.648949 -33.090816 48.334498 -0.307064 2.324880 0.071290 -0.014289 -4145.090000 0 0 1
-32.983653 10.149849 33.545613 48.127424 -0.298528 0.799568 0.063043 -0.015377 402640.000000 0 0 1
-33.431853 8.853249 33.175158 47.923480 -0.258873 0.806190 0.087106 -0.026092 -429960.000000 0 0 1
-32.558753 8.539649 31.968301 46.421658 -0.256506 0.811170 0.099776 -0.027624 233578.000000 0 0 1
-31.265753 8.292249 32.528872 45.874135 -0.259250 0.782590 0.089347 -0.026349 -5241.840000 0 0 1
-30.418653 7.799749 31.498707 44.478074 -0.251006 0.783872 0.085321 -0.029983 -90586.000000 0 0 1
21.701606 -4.274050 -31.258026 38.292184 -0.194458 2.525778 0.072177 -0.043660 27974.800000 0 0 1
22.673706 -3.977550 -32.224836 39.602498 -0.173659 2.521298 0.055954 -0.047574 -315298.000000 0 0 1
23.691006 -3.104850 -31.832076 39.801820 -0.130313 2.497699 0.041240 -0.038470 -94932.200000 0 0 1
23.447406 -1.621350 -32.281386 39.931159 -0.069038 2.512269 0.050852 -0.034805 199760.000000 0 0 1
24.411406 -0.801050 -31.603896 39.942016 -0.032803 2.483638 0.053238 -0.029896 521541.000000 0 0 1
24.169206 0.493750 -31.996926 40.102339 0.020426 2.494569 0.056065 -0.039893 -800733.000000 0 0 1
25.190206 1.461550 -31.464046 40.331982 0.057956 2.465664 0.051148 -0.028254 992915.000000 0 0 1
26.566706 1.252450 -31.915976 41.545012 0.047109 2.446862 0.056427 -0.030266 1338090.000000 0 0 1
27.371006 2.227450 -31.253296 41.604110 0.081201 2.420685 0.064660 -0.026426 592281.000000 0 0 1
28.916306 2.109350 -31.460126 42.782492 0.072818 2.396980 0.069403 -0.026202 627588.000000 0 0 1
29.389906 2.513150 -32.714606 44.049153 0.085303 2.407866 0.085454 -0.028924 2791.640000 0 0 1
29.453606 1.495050 -33.716086 44.794246 0.050716 2.422931 0.066891 -0.021759 -290384.000000 0 0 1
30.078006 2.014950 32.801299 44.549654 0.066891 0.743231 0.062719 -0.031914 304254.000000 0 0 1
29.245106 2.936850 32.062104 43.495745 0.100086 0.741980 0.071080 -0.024347 556826.000000 0 0 1
29.396006 4.210050 32.561507 44.069280 0.142251 0.739403 0.083182 -0.024210 -507231.000000 0 0 1
28.552206 5.268350 31.905545 43.138704 0.182464 0.738315 0.097703 -0.024938 -522855.000000 0 0 1
28.786706 6.591150 32.250703 43.729001 0.225085 0.741416 0.108683 -0.032155 -74699.900000 0 0 1
28.381606 7.432450 31.226707 42.846985 0.256124 0.754235 0.105511 -0.034192 -181165.000000 0 0 1
28.782006 8.875850 31.417917 43.523213 0.299129 0.764302 0.089288 -0.030047 -275627.000000 0 0 1
30.163106 9.051150 31.278287 44.385443 0.291524 0.788800 0.084416 -0.025252 -588639.000000 0 0 1
30.432906 10.422650 31.467647 45.000069 0.329960 0.796407 0.080329 -0.022175 -602693.000000 0 0 1
31.709606 10.981550 30.883297 45.605609 0.333389 0.826870 0.078288 -0.012931 -530393.000000 0 0 1
32.887306 10.493950 31.511187 46.740270 0.308876 0.830947 0.072279 -0.019285 1571260.000000 0 0 1
34.146006 10.689050 30.799787 47.210512 0.303376 0.860059 0.079268 -0.018387 1512290.000000 0 0 1
34.779406 12.122250 30.851187 48.045310 0.335380 0.873527 0.079430 -0.015087 -526300.000000 0 0 1
35.041006 12.502150 32.164451 49.180563 0.342708 0.857927 0.082424 -0.019707 47250.300000 0 0 1
35.441606 13.877550 32.315886 49.930055 0.373210 0.866860 0.081487 -0.015198 63453.300000 0 0 1
34.314206 14.919350 32.128049 49.317981 0.410131 0.861306 0.081710 -0.018102 -560196.000000 0 0 1
33.846406 15.157950 30.825847 48.224221 0.421061 0.877314 0.077262 -0.021965 557172.000000 0 0 1
32.885506 16.233250 30.830527 47.911338 0.458538 0.871746 0.070963 -0.024633 1211920.000000 0 0 1
31.398306 15.821350 31.129087 46.959438 0.466756 0.846120 0.073534 -0.018382 325887.000000 0 0 1
30.758506 15.073850 30.076997 45.584344 0.455673 0.850231 0.080690 -0.017981 710053.000000 0 0 1
29.511206 14.611150 30.612237 44.961162 0.459724 0.821861 0.070243 -0.016913 796245.000000 0 0 1
28.524506 13.805550 29.687057 43.423059 0.450757 0.818016 0.066332 -0.007994 446912.000000 0 0 1
28.920906 12.514450 29.309677 43.035886 0.408385 0.821598 0.076590 -0.009483 312280.000000 0 0 1
28.059506 12.130450 28.216417 41.601081 0.408047 0.825402 0.069743 -0.019644 444933.000000 0 0 1
27.890806 10.630950 27.949447 40.891145 0.364163 0.818238 0.072326 -0.010380 -599398.000000 0 0 1
29.008606 10.075450 27.360137 41.128956 0.334291 0.842997 0.086103 -0.015093 -800816.000000 0 0 1
28.774606 8.720450 27.096437 40.475191 0.294262 0.837318 0.098912 -0.020446 175997.000000 0 0 1
29.901406 7.791450 26.555617 40.743117 0.254903 0.860865 0.094556 -0.025869 115931.000000 0 0 1
30.448106 8.070650 25.260537 40.377188 0.259104 0.894878 0.097408 -0.020581 66674.100000 0 0 1
31.473806 7.143750 24.990927 40.818869 0.223193 0.911906 0.104903 -0.010712 38674.400000 0 0 1
32.096306 7.386550 23.585167 40.509185 0.226199 0.949343 0.103507 -0.014143 -148709.000000 0 0 1
32.727106 8.639250 23.394857 41.146318 0.258091 0.966021 0.089309 -0.019816 34070.000000 0 0 1
31.912506 9.747750 23.041367 40.550355 0.296451 0.966460 0.102216 -0.015234 -385096.000000 0 0 1
31.449606 9.815450 21.600517 39.395471 0.302521 0.990467 0.107465 -0.003822 -262283.000000 0 0 1
32.502506 9.981250 20.702917 39.807651 0.297950 1.023859 0.096992 -0.018657 -57078.400000 0 0 1
32.019406 9.720250 19.375517 38.666992 0.294732 1.045942 0.118077 -0.025112 -727268.000000 0 0 1
32.958306 10.281850 18.299917 39.074971 0.302398 1.083398 0.144594 -0.056195 137530.000000 0 0 1
34.158706 9.587650 18.051417 39.806958 0.273639 1.100137 0.135705 -0.045742 459010.000000 0 0 1
35.169206 9.697250 19.074017 41.167072 0.269046 1.089045 0.135781 -0.035695 -574871.000000 0 0 1
36.582306 9.471050 18.519717 42.082607 0.253335 1.115108 0.134917 -0.030641 -527544.000000 0 0 1
36.847306 8.150550 18.173117 41.885769 0.217693 1.122009 0.104928 -0.025505 371142.000000 0 0 1
-36.795953 7.986550 17.016217 41.319230 -0.213734 1.146342 0.121359 -0.019355 -253491.000000 0 0 1
-36.678453 6.536150 16.593717 40.784576 -0.176350 1.151779 0.117151 -0.018012 628849.000000 0 0 1
36.469706 5.989950 16.347417 40.412337 0.162791 1.154347 0.095206 -0.021979 931853.000000 0 0 1
36.556706 4.634150 15.950317 40.153216 0.126094 1.162293 0.111657 -0.024999 -89638.200000 0 0 1
35.202506 3.871450 15.941717 38.837391 0.109536 1.147823 0.088485 -0.023145 45823.700000 0 0 1
34.907106 3.254050 17.200517 39.050643 0.092952 1.114678 0.096436 -0.019578 9186.310000 0 0 1
33.696906 2.542150 17.190517 37.913822 0.075299 1.100208 0.086435 -0.022347 -151241.000000 0 0 1
33.629706 1.571850 18.422917 38.377490 0.046706 1.070090 0.086088 -0.028857 17512.800000 0 0 1
34.557306 0.504850 18.363517 39.136697 0.014608 1.082395 0.094568 -0.028746 63751.300000 0 0 1
34.419106 -0.303150 19.500817 39.560696 -0.008807 1.055337 0.094558 -0.029777 754425.000000 0 0 1
35.196506 -1.720250 19.456117 40.252873 -0.048837 1.066322 0.101979 -0.025105 604551.000000 0 0 1
34.691606 -2.392650 20.572117 40.403519 -0.068860 1.036580 0.101729 -0.024262 396055.000000 0 0 1
35.298906 -3.696650 20.704617 41.089648 -0.104344 1.042701 0.093513 -0.029957 -72273.000000 0 0 1
34.906406 -4.493450 21.994817 41.502051 -0.128024 1.012232 0.078136 -0.030532 -48671.600000 0 0 1
35.272406 -3.860950 23.186707 42.387179 -0.109027 0.991994 0.076653 -0.034595 430354.000000 0 0 1
34.643806 -4.566350 24.257107 42.537655 -0.131053 0.963986 0.073226 -0.033006 236536.000000 0 0 1
34.748006 -3.797150 25.613157 43.334468 -0.108845 0.938427 0.048176 -0.027483 -143768.000000 0 0 1
33.976906 -4.365650 26.677137 43.418414 -0.127789 0.909146 0.062308 -0.026296 172486.000000 0 0 1
34.105806 -3.683250 27.886397 44.208862 -0.107578 0.888229 0.067310 -0.024026 84112.800000 0 0 1
33.181606 -4.249950 29.016227 44.283434 -0.127388 0.856298 0.068163 -0.025250 180216.000000 0 0 1
33.443906 -5.630050 29.272537 44.800377 -0.166779 0.858730 0.064890 -0.028936 333680.000000 0 0 1
32.523306 -6.100450 30.244337 44.829687 -0.185417 0.830306 0.069149 -0.029257 155215.000000 0 0 1
32.845806 -7.585450 30.641237 45.555147 -0.226962 0.833055 0.075940 -0.022476 214757.000000 0 0 1
34.008906 -7.771350 31.412237 46.943884 -0.224652 0.837739 0.086503 -0.019898 300408.000000 0 0 1
34.814606 -8.905950 31.019197 47.471711 -0.250440 0.858696 0.082131 -0.009756 734090.000000 0 0 1
36.034206 -9.213850 31.902596 49.001374 -0.250334 0.861823 0.094442 -0.001901 376133.000000 0 0 1
35.536006 -9.419450 33.239605 49.562134 -0.259109 0.835691 0.077470 -0.008966 530561.000000 0 0 1
36.608106 -9.652550 -33.701366 50.686361 -0.257805 2.298156 0.079701 -0.009204 301962.000000 0 0 1
36.143306 -9.703250 -32.229856 49.388817 -0.262282 2.281773 0.091427 -0.005866 -126102.000000 0 0 1
35.527506 -8.530650 -31.686626 48.363394 -0.235653 2.285214 0.107177 -0.012402 211291.000000 0 0 1
36.273906 -7.324050 -31.737896 48.751738 -0.199231 2.279711 0.095459 -0.012619 -395032.000000 0 0 1
35.865106 -6.208150 -30.792096 47.675991 -0.171399 2.272948 0.114766 -0.014162 -230213.000000 0 0 1
36.395906 -6.321350 -29.497586 47.272920 -0.171968 2.244628 0.107020 -0.006527 19478.900000 0 0 1
35.794706 -5.387950 -28.641956 46.158993 -0.149402 2.240185 0.117554 -0.017958 -80298.700000 0 0 1
36.475706 -5.227750 -27.247946 45.828561 -0.142352 2.207518 0.116223 -0.015510 -307493.000000 0 0 1
-36.680653 -4.733050 -27.307176 45.973404 0.128325 2.206791 0.128545 -0.011859 -701618.000000 0 0 1
-36.222253 -4.434850 -26.033866 44.827243 0.121828 2.190458 0.129129 -0.011521 -68883.800000 0 0 1
-34.681953 -4.423950 -25.961126 43.547552 0.126873 2.209501 0.123617 -0.000089 -498124.000000 0 0 1
-34.267353 -3.821050 -24.773966 42.457052 0.111048 2.193836 0.134434 -0.013213 -106789.000000 0 0 1
-32.940153 -4.072050 -24.380166 41.182858 0.122996 2.204332 0.135017 -0.010887 246193.000000 0 0 1
-31.845753 -3.159750 -25.010166 40.615815 0.098897 2.234164 0.105399 -0.006225 -176756.000000 0 0 1
-31.497653 -3.449450 -26.369596 41.223251 0.109080 2.264875 0.105251 -0.006625 -358556.000000 0 0 1
-30.527453 -2.613550 -26.895086 40.768881 0.085405 2.291211 0.087816 0.001110 -226633.000000 0 0 1
-29.943253 -3.176150 -28.191286 41.248454 0.105677 2.323276 0.072770 -0.003735 358209.000000 0 0 1
-30.984153 -3.222350 -29.174776 42.679841 0.103627 2.323443 0.120117 -0.008596 509322.000000 0 0 1
-30.534253 -4.010650 -30.261736 43.176366 0.130602 2.347436 0.108423 -0.000241 -673666.000000 0 0 1
-31.633453 -4.369150 -31.288526 44.707233 0.137250 2.345989 0.110126 -0.008636 -157815.000000 0 0 1
-32.672353 -5.235450 -30.875636 45.257016 0.158890 2.321603 0.106995 -0.012568 616871.000000 0 0 1
-33.649753 -4.773550 -29.942646 45.295195 0.140920 2.293021 0.126507 -0.017126 -114744.000000 0 0 1
-34.772053 -3.841050 -30.445406 46.376417 0.110018 2.286945 0.156727 -0.022256 -501201.000000 0 0 1
-34.383153 -2.597050 -30.960856 46.341347 0.075389 2.302455 0.164458 -0.018108 -166108.000000 0 0 1
-33.889953 -1.652350 -30.034636 45.313778 0.048718 2.295368 0.150231 -0.012828 60793.900000 0 0 1
-33.658453 -0.221150 -30.608716 45.495427 0.006570 2.308765 0.143701 -0.012930 532320.000000 0 0 1
-34.901653 0.446550 -30.832426 46.572130 -0.012794 2.294328 0.167675 -0.010485 385463.000000 0 0 1
-34.790453 1.771750 -31.311466 46.839328 -0.050882 2.302968 0.169678 -0.002296 -120191.000000 0 0 1
-36.131653 2.371450 -31.770086 48.171137 -0.065540 2.290983 0.144799 -0.002390 -89798.500000 0 0 1
-36.624053 1.831550 -32.982076 49.320312 -0.049968 2.303298 0.126461 0.000891 704107.000000 0 0 1
36.594706 2.461950 -33.352936 49.574712 0.067175 2.308758 0.103782 -0.003037 545877.000000 0 0 1
35.746006 1.789350 33.392685 48.949465 0.050016 0.820047 0.089994 -0.002259 -170977.000000 0 0 1
36.106506 1.940850 32.026642 48.302717 0.053702 0.845924 0.073170 0.003089 41089.800000 0 0 1
-37.125453 1.329450 31.712897 48.844391 -0.035794 0.864180 0.078531 0.002452 -346741.000000 0 0 1
-36.833653 1.620850 30.240897 47.684977 -0.043976 0.883848 0.074112 -0.003070 -314661.000000 0 0 1
-36.603353 2.964250 29.901897 47.357319 -0.080807 0.887426 0.064542 -0.001035 52539.300000 0 0 1
-36.122853 3.003150 28.604277 46.174496 -0.082946 0.902713 0.059833 -0.004083 -226393.000000 0 0 1
-35.596353 4.340450 28.189597 45.613521 -0.121336 0.904588 0.064271 -0.004966 -182521.000000 0 0 1
-35.321653 4.472250 26.815837 44.572518 -0.125945 0.925265 0.060775 -0.004538 314289.000000 0 0 1
-34.584753 5.687750 26.642497 44.025882 -0.162999 0.920835 0.068969 -0.009189 299929.000000 0 0 1
-33.793053 5.761250 25.275517 42.591246 -0.168863 0.935465 0.081580 -0.008586 431289.000000 0 0 1
-32.629953 4.945150 25.234387 41.544466 -0.150408 0.918004 0.074076 -0.011897 206520.000000 0 0 1
-31.699753 5.255250 24.229937 40.244029 -0.164288 0.924699 0.081003 -0.015197 9660.210000 0 0 1
-31.961353 4.783450 22.791517 39.545705 -0.148561 0.956561 0.087319 -0.010957 -60349.000000 0 0 1
-31.725253 3.392450 22.705717 39.160567 -0.106527 0.952300 0.097145 -0.012681 -29551.300000 0 0 1
-32.334453 3.043150 21.481117 38.938619 -0.093838 0.986436 0.114699 -0.015800 -82473.700000 0 0 1
-32.309453 1.533950 21.186217 38.666647 -0.047441 0.990921 0.117794 -0.015662 511284.000000 0 0 1
-31.126053 1.130250 20.492017 37.283125 -0.036296 0.988872 0.139113 -0.014403 495594.000000 0 0 1
-31.132853 1.579350 19.154817 36.587647 -0.050686 1.019805 0.151769 -0.012843 -289810.000000 0 0 1
-29.893353 1.180850 18.331217 35.086187 -0.039482 1.021060 0.138194 -0.011608 -468165.000000 0 0 1
-29.819353 -0.203950 18.104217 34.885500 0.006839 1.025161 0.149189 -0.009789 196585.000000 0 0 1
-28.546853 -0.644450 17.674317 33.581537 0.022571 1.016541 0.144032 -0.005498 107676.000000 0 0 1
-28.218653 -0.413450 16.168817 32.525282 0.014651 1.050525 0.146877 -0.002482 -311649.000000 0 0 1
-27.948053 0.908950 15.777617 32.106901 -0.032511 1.057090 0.155059 -0.005540 272649.000000 0 0 1
-27.846453 0.950950 14.339517 31.336098 -0.034137 1.095498 0.164864 -0.007575 -284923.000000 0 0 1
-27.293953 2.175950 13.643617 30.591550 -0.079555 1.108513 0.166996 -0.012522 994507.000000 0 0 1
-25.847653 2.128550 13.568417 29.270016 -0.082164 1.088787 0.140610 -0.024602 1314550.000000 0 0 1
-25.331453 3.342350 13.055017 28.692983 -0.131187 1.098435 0.135877 -0.029900 837698.000000 0 0 1
-23.759253 3.376250 13.017717 27.301321 -0.141157 1.073767 0.119972 -0.035861 720207.000000 0 0 1
-23.105153 3.581350 14.271017 27.392264 -0.153778 1.022789 0.106936 -0.020794 874511.000000 0 0 1
-21.777653 4.015050 13.934617 26.164104 -0.182318 1.009144 0.083538 -0.022321 526443.000000 0 0 1
-20.990853 4.657350 15.133717 26.293273 -0.218338 0.957491 0.076185 -0.027642 -175887.000000 0 0 1
-21.470353 5.919050 15.510017 27.139857 -0.269003 0.962482 0.069042 -0.021040 543587.000000 0 0 1
-20.693353 6.476950 16.558117 27.282540 -0.303337 0.918626 0.061789 -0.013780 -116308.000000 0 0 1
-21.138953 7.911650 16.901617 28.197770 -0.358129 0.928051 0.057009 -0.018890 -282174.000000 0 0 1
-20.800253 8.833650 15.851917 27.603753 -0.401608 0.959088 0.070372 -0.017987 612930.000000 0 0 1
-21.225153 10.157150 16.050317 28.483109 -0.446335 0.972176 0.065860 -0.011477 -204015.000000 0 0 1
-20.446853 10.975550 17.147917 28.854594 -0.492640 0.934417 0.064803 -0.010814 -78590.500000 0 0 1
-20.738053 10.579750 18.456117 29.709026 -0.471743 0.900486 0.072632 -0.023061 237927.000000 0 0 1
-20.047353 11.338050 19.412617 30.121379 -0.514714 0.870454 0.084696 -0.015232 -373436.000000 0 0 1
-12.806794 -33.538448 -20.087866 41.138350 1.206030 2.080937 0.148397 -0.050963 1178690.000000 0 0 1
-14.059494 -33.837048 -19.422366 41.470996 1.176995 2.058203 0.161805 -0.044540 1030400.000000 0 0 1
-15.120894 -32.910948 -19.665766 41.213035 1.140113 2.068232 0.128451 -0.062077 73655.500000 0 0 1
-16.310794 -33.341048 -18.802366 41.607649 1.115817 2.039687 0.097964 -0.049073 -1419650.000000 0 0 1
-16.940794 33.540550 -19.364566 42.272277 -1.103090 2.046643 0.092990 -0.050113 -349024.000000 0 0 1
-17.526894 32.641650 -18.468466 41.397507 -1.078028 2.033227 0.073411 -0.038370 147749.000000 0 0 1
-18.923594 33.043550 -17.909266 42.079929 -1.050702 2.010422 0.070566 -0.038081 -252226.000000 0 0 1
-18.845294 -33.893348 -16.937966 42.317831 1.063345 1.982593 0.092087 -0.038725 -955.884000 0 0 1
-20.121494 -33.502348 -16.483766 42.414578 1.029936 1.969945 0.070028 -0.031770 118028.000000 0 0 1
-20.528594 -33.978648 -15.016966 42.443857 1.027322 1.932435 0.071569 -0.026357 -132513.000000 0 0 1
-20.635594 32.604650 -14.826166 41.336499 -1.006534 1.937639 0.068704 -0.033257 385736.000000 0 0 1
-21.213094 32.231150 -13.547166 40.894597 -0.988710 1.908446 0.076077 -0.025263 -144034.000000 0 0 1
-21.231294 30.662750 -13.365066 39.618141 -0.965180 1.914894 0.077988 -0.029929 -655940.000000 0 0 1
-20.037494 30.017250 -13.107166 38.397061 -0.982194 1.919158 0.107563 -0.042943 -647929.000000 0 0 1
-20.195594 28.606050 -13.173066 37.412535 -0.956061 1.930613 0.123200 -0.048205 -508095.000000 0 0 1
-19.023794 27.843450 -12.578866 35.991531 -0.971407 1.927829 0.108590 -0.045525 -650868.000000 0 0 1
-17.819794 27.912250 -13.293566 35.684137 -1.002603 1.952535 0.130448 -0.052215 -326062.000000 0 0 1
-16.925594 26.897150 -12.905066 34.299754 -1.009132 1.956535 0.140533 -0.057944 1142190.000000 0 0 1
-15.438994 27.100650 -13.417866 33.953599 -1.052961 1.977063 0.109097 -0.061945 1209500.000000 0 0 1
-15.362894 27.124750 -14.832266 34.521974 -1.055465 2.014898 0.085807 -0.049553 42121.000000 0 0 1
-14.147494 27.744850 -15.225566 34.666210 -1.099249 2.025510 0.125455 -0.055629 83006.800000 0 0 1
-14.218194 28.272350 -16.697966 35.781348 -1.104831 2.056315 0.129402 -0.060771 -173652.000000 0 0 1
-14.128994 27.265550 -17.644566 35.417078 -1.092695 2.092311 0.118075 -0.066023 113736.000000 0 0 1
-14.258494 27.769250 -18.950166 36.517731 -1.096436 2.116396 0.093855 -0.056876 25842.400000 0 0 1
-13.980994 26.729950 -20.021766 36.205380 -1.088882 2.156763 0.072598 -0.024390 1576410.000000 0 0 1
-12.558794 26.539350 -20.297066 35.693575 -1.128806 2.175657 0.074466 -0.026612 1359910.000000 0 0 1
-12.354494 25.353250 -20.986966 35.154993 -1.117365 2.210533 0.052103 -0.023674 120385.000000 0 0 1
-11.014794 25.242550 -21.742866 35.089375 -1.159345 2.239083 0.089248 -0.033684 171246.000000 0 0 1
-11.045194 26.217350 -22.831866 36.477936 -1.172069 2.247093 0.074540 -0.024739 180352.000000 0 0 1
-9.776294 26.497750 -23.404466 36.680727 -1.217342 2.262771 0.077792 -0.037289 207690.000000 0 0 1
-9.940794 27.224450 -24.764666 38.121893 -1.220696 2.277878 0.075075 -0.031020 82979.500000 0 0 1
-10.433494 26.362850 -25.806156 38.338171 -1.193946 2.309215 0.052188 -0.016022 -103757.000000 0 0 1
-10.446194 27.001350 -27.076786 39.640235 -1.201654 2.322745 0.069571 -0.010394 -75045.000000 0 0 1
-11.685194 26.507950 -27.830606 40.171604 -1.155604 2.336151 0.036298 -0.001274 -13192.500000 0 0 1
-11.932894 27.026650 -29.134086 41.492514 -1.155014 2.349213 0.048265 0.003165 -474991.000000 0 0 1
-13.188794 26.690350 -29.640786 42.010656 -1.111847 2.354001 0.057679 0.008691 -293441.000000 0 0 1
-13.562094 27.237250 -31.034816 43.462144 -1.108811 2.366085 0.059838 0.001326 328882.000000 0 0 1
-12.762894 26.676850 -32.123276 43.662921 -1.124557 2.397512 0.065830 0.003146 451371.000000 0 0 1
-12.903994 25.227650 -32.321476 42.984011 -1.097990 2.421799 0.070634 0.000150 -3817.850000 0 0 1
-12.254794 24.552250 -33.542326 43.336827 -1.107844 2.455917 0.063520 -0.010840 400126.000000 0 0 1
-12.989394 24.779550 33.086022 43.329382 -1.087978 0.701937 0.074700 -0.013955 452369.000000 0 0 1
-12.370994 23.924550 32.156569 41.946043 -1.093575 0.697240 0.068643 -0.014338 -17434.100000 0 0 1
-13.155094 23.861450 30.844337 41.155783 -1.066947 0.723560 0.083672 -0.011407 -890615.000000 0 0 1
-14.371294 23.240650 30.868497 41.225308 -1.016980 0.724584 0.073113 -0.011375 -841206.000000 0 0 1
-15.060994 23.103350 29.646537 40.490931 -0.993089 0.749283 0.085208 -0.010427 761698.000000 0 0 1
-16.267494 22.117250 29.597897 40.371272 -0.936632 0.747865 0.059573 -0.009947 584163.000000 0 0 1
-15.739394 20.799550 29.759937 39.572764 -0.923010 0.719659 0.048857 -0.011247 402115.000000 0 0 1
-16.697794 19.794250 30.011387 39.639778 -0.870048 0.711929 0.033101 -0.010646 94106.700000 0 0 1
-15.906694 18.470250 30.151487 38.772222 -0.859832 0.679866 0.013586 -0.019344 182276.000000 0 0 1
-15.578694 17.845750 28.930507 37.391720 -0.853121 0.686113 0.034604 -0.028024 -6452.340000 0 0 1
-14.904494 16.642350 29.071217 36.663980 -0.840431 0.655227 0.022129 -0.041274 -184072.000000 0 0 1
-14.382494 15.943550 27.805437 35.131115 -0.836829 0.657576 0.035708 -0.033763 -158027.000000 0 0 1
-13.376894 16.683550 27.162167 34.569719 -0.894958 0.666935 0.002061 -0.029664 -144749.000000 0 0 1
-12.747494 15.990550 26.103487 33.160041 -0.897772 0.664546 -0.012663 -0.024467 100750.000000 0 0 1
-11.725194 16.830950 25.322037 32.587829 -0.962326 0.680847 0.009566 -0.019765 -10440.400000 0 0 1
-12.280594 17.593450 24.255477 32.383185 -0.961400 0.724223 -0.001826 -0.018127 152834.000000 0 0 1
-12.979094 18.811950 24.642337 33.609391 -0.966855 0.747783 -0.000810 -0.023589 456515.000000 0 0 1
-12.101994 19.981250 25.205987 34.366414 -1.026220 0.747415 0.013394 -0.024343 -39022.100000 0 0 1
-11.649594 19.844150 26.531987 35.120502 -1.039950 0.714447 0.036895 -0.027510 239755.000000 0 0 1
-12.639194 19.969850 27.568577 36.312127 -1.006526 0.708696 0.046566 -0.022087 110693.000000 0 0 1
-12.193694 19.571550 28.977697 37.032941 -1.013614 0.672151 0.052312 -0.023214 295921.000000 0 0 1
-11.167794 20.381050 29.603207 37.635843 -1.069528 0.665563 0.063090 -0.030396 646002.000000 0 0 1
-11.026594 20.031150 30.937367 38.470163 -1.067591 0.636483 0.058842 -0.021751 -192801.000000 0 0 1
-9.965194 20.783350 31.743217 39.228619 -1.123699 0.628032 0.047425 -0.018153 530690.000000 0 0 1
-8.619494 20.335750 31.591447 38.546828 -1.169892 0.610153 0.055682 -0.018936 746975.000000 0 0 1
-7.664494 21.224250 32.172958 39.297742 -1.224250 0.611657 0.070514 -0.021399 1315230.000000 0 0 1
-6.366994 20.489650 32.714994 39.123333 -1.269514 0.580476 0.058461 -0.014391 462004.000000 0 0 1
-6.596494 19.885750 -33.836636 39.797923 -1.250499 2.587182 0.048000 -0.014621 911385.000000 0 0 1
-5.455494 19.313950 -33.130896 38.735608 -1.295504 2.596942 0.036042 -0.008159 840504.000000 0 0 1
-4.600994 18.240650 -33.835956 38.713852 -1.323712 2.634173 0.025230 -0.008533 -296758.000000 0 0 1
-5.206494 16.975450 33.899857 38.268444 -1.273197 0.482487 0.023061 -0.010469 -78327.800000 0 0 1
-4.846494 16.347950 32.677446 36.858642 -1.282591 0.480938 0.026151 -0.011046 -117488.000000 0 0 1
-5.370994 14.870250 32.515452 36.155588 -1.224187 0.452584 0.040683 -0.014065 458277.000000 0 0 1
-4.623294 13.743950 33.144268 36.177528 -1.246299 0.412413 0.052031 -0.015059 87175.200000 0 0 1
-5.314394 12.525050 33.092287 35.780150 -1.169518 0.390081 0.050632 -0.020620 -489027.000000 0 0 1
-4.563794 11.248350 33.582752 35.709310 -1.185360 0.346850 0.066313 -0.035659 -247538.000000 0 0 1
-4.455194 11.163850 -32.861696 34.991018 -1.191089 2.790934 0.082742 -0.041163 66669.200000 0 0 1
-3.672794 10.002950 -32.537926 34.238356 -1.218907 2.825108 0.106493 -0.043902 312235.000000 0 0 1
-3.748994 9.575350 -31.034966 32.694210 -1.197617 2.821638 0.109190 -0.041199 463688.000000 0 0 1
-4.973294 8.943750 -30.672406 32.334514 -1.063310 2.819568 0.111880 -0.039747 260378.000000 0 0 1
-5.308294 9.009650 -29.294916 31.105367 -1.038372 2.798730 0.132537 -0.034436 579665.000000 0 0 1
-6.495994 8.130250 -28.805876 30.628049 -0.896671 2.794914 0.129659 -0.032870 -9368.340000 0 0 1
-5.995694 6.869150 -28.500296 29.923242 -0.853189 2.831964 0.140432 -0.025208 -360545.000000 0 0 1
-6.985094 5.933850 -28.227936 29.678586 -0.704205 2.827643 0.138943 -0.042543 -861716.000000 0 0 1
-6.823594 5.170650 -26.850316 28.182202 -0.648449 2.832928 0.124644 -0.041663 -325179.000000 0 0 1
-6.933594 6.013150 -25.742636 27.329764 -0.714423 2.799119 0.091006 -0.027460 11855.900000 0 0 1
-5.954594 6.990650 -25.480796 27.085002 -0.865262 2.795695 0.103708 -0.033698 -269470.000000 0 0 1
-6.344794 7.807650 -24.212066 26.219076 -0.888397 2.747779 0.063655 -0.020809 123815.000000 0 0 1
-6.409594 7.180350 -22.969366 24.904459 -0.842053 2.744785 0.045957 -0.017169 505339.000000 0 1 0
-7.615294 7.590250 -22.307666 24.763613 -0.783751 2.692461 0.049338 -0.015058 461807.000000 0 1 0
-7.505194 7.658850 -20.781766 23.385203 -0.795531 2.665236 0.035938 -0.013489 -269380.000000 0 1 0
-6.835694 8.860150 -20.496466 23.352389 -0.913670 2.641844 0.017396 -0.010853 -36203.400000 0 1 0
-6.581394 9.155150 -19.091966 22.172836 -0.947516 2.608131 0.016288 -0.008020 -381827.000000 0 1 0
-7.819394 9.277850 -18.181966 21.858758 -0.870496 2.553127 0.013956 -0.011235 -908478.000000 0 1 0
-7.554894 9.352750 -16.817366 20.673029 -0.891334 2.520930 -0.001568 -0.010305 432941.000000 0 1 0
-8.701794 9.583050 -15.989366 20.572211 -0.833557 2.461050 0.012419 -0.020445 485847.000000 0 1 0
-9.521494 10.861850 -16.239866 21.734118 -0.851061 2.414644 0.045197 -0.031712 -80164.500000 0 1 0
-8.722794 11.894250 -15.645266 21.501969 -0.938029 2.385643 0.026217 -0.032356 319716.000000 0 1 0
-8.995794 13.250150 -16.086666 22.699595 -0.974358 2.358417 0.055331 -0.036747 -240334.000000 0 1 0
-7.835694 14.215450 -15.833766 22.675653 -1.067025 2.343776 0.061812 -0.035232 -215550.000000 0 1 0
-7.290694 14.271350 -14.469166 21.591258 -1.098497 2.305194 0.059847 -0.032439 482949.000000 0 1 0
-8.129294 14.951250 -13.534966 21.744438 -1.072787 2.242674 0.059338 -0.046716 -363886.000000 0 1 0
-7.347094 15.758550 -12.445566 21.382324 -1.134529 2.192043 0.046643 -0.041183 338282.000000 0 1 0
-6.722894 17.050050 -12.739566 22.320351 -1.195210 2.178228 0.056884 -0.042739 693319.000000 0 1 0
-5.846794 17.057350 -13.874366 22.751620 -1.240575 2.226628 0.053194 -0.032408 -255336.000000 0 1 0
-5.596694 18.460650 -14.513166 24.140227 -1.276435 2.215801 0.069174 -0.027873 245187.000000 0 1 0
-4.889394 19.346550 -13.658566 24.181638 -1.323253 2.171026 0.066081 -0.033014 -45323.200000 0 1 0
-5.097194 20.679150 -14.045166 25.512258 -1.329124 2.153791 0.073395 -0.029258 -20673.200000 0 0 1
-4.607294 21.729250 -12.986366 25.730005 -1.361859 2.099850 0.080791 -0.030704 -480140.000000 0 0 1
-4.821494 23.136950 -13.215566 27.077970 -1.365347 2.080657 0.084691 -0.031238 395575.000000 0 0 1
-6.203694 23.483850 -13.214566 27.651434 -1.312528 2.069057 0.077445 -0.030289 395072.000000 0 0 1
-6.956794 23.516950 -11.860066 27.241606 -1.283178 2.021241 0.054407 -0.026629 -350284.000000 0 0 1
-7.301094 22.196950 -11.423866 26.009907 -1.253020 2.025518 0.061320 -0.028978 238094.000000 0 0 1
-7.981894 22.029750 -10.138066 25.530392 -1.223185 1.979149 0.066464 -0.027938 350744.000000 0 0 1
-7.377694 22.710550 -8.872966 25.474084 -1.256693 1.926568 0.064317 -0.022868 -6028.050000 0 0 1
-7.485094 24.137550 -8.848566 26.775830 -1.270098 1.907596 0.057510 -0.016441 -94963.200000 0 0 1
-7.013194 24.613950 -7.580366 26.692572 -1.293224 1.858747 0.059078 -0.016417 227933.000000 0 0 1
-7.157894 26.157550 -7.471566 28.129649 -1.303690 1.839635 0.069238 -0.020954 -128085.000000 0 0 1
-6.219194 26.917150 -8.181066 28.812171 -1.343731 1.858702 0.060714 -0.022147 -221587.000000 0 0 1
-6.467194 26.898650 -9.583666 29.278125 -1.334847 1.904275 0.065574 -0.020435 75858.400000 0 0 1
-5.948894 28.170250 -10.267266 30.567451 -1.362678 1.913345 0.064771 -0.017717 529741.000000 0 0 1
-6.791494 29.312850 -10.015266 31.712350 -1.343123 1.892113 0.060763 -0.019537 626666.000000 0 0 1
-7.736994 29.559650 -11.071266 32.499337 -1.314798 1.918416 0.076044 -0.021836 190436.000000 0 0 1
-8.768594 30.643050 -10.750966 33.637301 -1.292091 1.896119 0.075531 -0.023166 -22645.400000 0 0 1
-9.708794 30.252550 -9.746966 33.233730 -1.260255 1.868458 0.067610 -0.023106 365672.000000 0 0 1
-10.815594 31.163350 -9.870366 34.431898 -1.236742 1.861539 0.064218 -0.023219 436401.000000 0 0 1
-12.045594 30.728150 -9.036966 34.219619 -1.197201 1.838054 0.081971 -0.025453 456292.000000 0 0 1
-12.654194 29.486950 -9.531066 33.473125 -1.165420 1.859529 0.094589 -0.037769 695146.000000 0 0 1
-13.858494 29.185550 -8.802466 33.486379 -1.127478 1.836789 0.118660 -0.036779 867394.000000 0 0 1
-14.654094 27.993650 -9.376366 32.959113 -1.088542 1.859265 0.126042 -0.038615 221741.000000 0 0 1
-14.145094 26.722950 -8.991166 31.544267 -1.083966 1.859837 0.113534 -0.042203 9012.930000 0 0 1
-14.946094 25.778850 -9.645166 31.320346 -1.045376 1.883836 0.144909 -0.047652 24972.800000 0 0 1
-15.040894 24.377850 -8.986666 30.021130 -1.017978 1.874802 0.138166 -0.043682 -286641.000000 0 0 1
-13.996994 23.514750 -9.303666 28.903590 -1.033882 1.898517 0.136757 -0.044832 -192192.000000 0 0 1
-14.324494 22.196250 -8.783266 27.839009 -0.997692 1.891782 0.127128 -0.041183 225204.000000 0 0 1
-13.376694 21.079250 -9.289266 26.637590 -1.005330 1.927010 0.127496 -0.047241 -132975.000000 0 0 1
-13.554594 20.761950 -10.644166 26.983029 -0.992415 1.976294 0.127398 -0.034108 133596.000000 0 0 1
-12.874694 19.588250 -11.074866 25.925083 -0.989330 2.012176 0.122165 -0.028861 -70000.100000 0 0 1
-13.199194 19.245450 -12.562166 26.503096 -0.969641 2.064611 0.117023 -0.026186 -246305.000000 0 0 1
-14.570694 19.029950 -12.727566 27.137337 -0.917341 2.058961 0.122152 -0.019548 -751396.000000 0 0 1
-14.825294 18.641750 -14.048266 27.652449 -0.898944 2.103692 0.119781 -0.019201 525087.000000 0 0 1
-16.356794 18.549550 -14.348866 28.592315 -0.848134 2.096525 0.103731 -0.012061 600692.000000 0 0 1
-16.973694 19.796750 -14.538666 29.856162 -0.862023 2.079399 0.077123 -0.019835 315132.000000 0 0 1
-18.273094 19.576950 -15.090066 30.738787 -0.819832 2.083934 0.072233 -0.013529 427527.000000 0 0 1
-19.019794 20.839250 -15.604166 32.241540 -0.831014 2.075990 0.076867 -0.022781 -36938.000000 0 0 1
-19.252594 21.830750 -14.670266 32.595410 -0.848070 2.037642 0.079296 -0.032653 157978.000000 0 0 1
-19.534794 22.986650 -15.403166 33.871105 -0.866400 2.042897 0.073891 -0.027657 -172551.000000 0 0 1
-20.197594 24.096950 -14.533666 34.638609 -0.873204 2.003779 0.072432 -0.019143 631440.000000 0 0 1
-21.564094 23.760550 -14.222466 35.097755 -0.833821 1.988021 0.087125 -0.021048 923021.000000 0 0 1
-22.130394 24.828550 -13.472366 35.884758 -0.842793 1.955662 0.100314 -0.033252 101868.000000 0 0 1
-25.992754 -0.680150 3.507934 26.237215 0.026161 1.436694 0.185645 -0.057488 32835.300000 0 0 1
-26.610284 -0.167350 4.707534 27.023991 0.006289 1.395705 0.215920 -0.053432 824688.000000 0 0 1
-28.024824 -0.296350 4.751034 28.426236 0.010574 1.402873 0.222623 -0.049953 196957.000000 0 0 1
-28.635034 0.480050 5.920034 29.244528 -0.016763 1.366955 0.216737 -0.042003 -369798.000000 0 0 1
-28.848604 1.875750 5.723034 29.470553 -0.064929 1.375360 0.236252 -0.058689 6591.770000 0 0 1
-29.399824 2.370950 6.924834 30.297267 -0.080471 1.340195 0.250065 -0.041547 -8954.300000 0 0 1
-28.408584 2.888350 8.033134 29.663470 -0.101324 1.296563 0.265388 -0.045274 645485.000000 0 0 1
-27.465854 1.887150 8.482434 28.807745 -0.068601 1.271917 0.219573 -0.054241 1416930.000000 0 0 1
-26.493324 2.407350 9.410934 28.218030 -0.090617 1.230774 0.200032 -0.061972 507983.000000 0 0 1
-25.538424 1.301350 9.971934 27.447114 -0.050913 1.198973 0.156853 -0.046688 -69753.100000 0 0 1
-24.623294 0.714050 9.091434 26.257773 -0.028991 1.217238 0.167441 -0.051322 370726.000000 0 0 1
-25.057664 -0.568250 8.723134 26.538698 0.022674 1.235875 0.147471 -0.042758 17136.400000 0 0 1
-24.005294 -1.422550 7.904534 25.313227 0.059191 1.253216 0.140366 -0.053794 124323.000000 0 0 1
-22.936494 -1.723150 8.776334 24.618612 0.074986 1.206286 0.124610 -0.057515 -534410.000000 0 1 0
-21.790994 -2.026250 8.067734 23.324696 0.092719 1.217611 0.139480 -0.048243 -1081470.000000 0 1 0
-20.558594 -2.289350 8.922434 22.527910 0.110900 1.163573 0.115192 -0.036824 -622480.000000 0 1 0
-19.950994 -1.171750 9.530034 22.141290 0.058664 1.125839 0.101371 -0.037377 775021.000000 0 1 0
-20.654094 -0.607650 10.643834 23.243323 0.029412 1.095130 0.114023 -0.041024 -380811.000000 0 1 0
-20.086294 0.793250 11.049834 22.938773 -0.039472 1.068191 0.080846 -0.030227 -144326.000000 0 1 0
-20.290394 1.865450 10.112834 22.747514 -0.091680 1.110104 0.078426 -0.026114 746449.000000 0 1 0
-21.626394 2.239250 9.791534 23.845111 -0.103175 1.147651 0.114057 -0.040615 -12563.200000 0 1 0
-21.889294 3.775650 9.475634 24.149211 -0.170808 1.167580 0.101384 -0.044534 -471366.000000 0 1 0
-21.959094 4.634750 10.543034 24.795933 -0.208010 1.131622 0.090154 -0.042181 581097.000000 0 1 0
-22.250194 5.960250 10.115034 25.157695 -0.261729 1.157025 0.071738 -0.040241 -220216.000000 0 0 1
-22.312794 6.913250 11.265234 25.933748 -0.300454 1.121441 0.077402 -0.042963 829503.000000 0 0 1
-23.496494 6.763050 12.105034 27.282887 -0.280257 1.111089 0.087144 -0.038942 1316610.000000 0 0 1
-23.407094 7.399250 13.377534 27.957099 -0.306172 1.071848 0.094627 -0.030383 -231.198000 0 0 1
-24.582694 6.944050 14.291334 29.270649 -0.275304 1.060715 0.122387 -0.028478 402366.000000 0 0 1
-25.882874 7.070550 13.731534 30.140851 -0.266669 1.097774 0.135158 -0.034617 255772.000000 0 0 1
-26.785934 6.497250 14.660134 31.218905 -0.237966 1.081968 0.137629 -0.029044 -718922.000000 0 0 1
-28.247364 6.579350 14.266434 32.322323 -0.228839 1.113660 0.147565 -0.020778 -660014.000000 0 0 1
-28.487484 5.594850 13.227834 31.903208 -0.193929 1.143267 0.172521 -0.013518 -274962.000000 0 0 1
-29.780684 5.792950 12.739234 32.904946 -0.192121 1.173255 0.201273 -0.020374 -683708.000000 0 0 1
-30.358304 4.683750 11.866334 32.929835 -0.153075 1.202151 0.220015 -0.025225 -147352.000000 0 0 1
-31.158404 3.687850 12.492534 33.771435 -0.117810 1.191880 0.189058 -0.021743 469036.000000 0 0 1
-31.442964 2.665550 11.535434 33.598086 -0.084572 1.220330 0.189127 -0.011647 -58366.000000 0 0 1
-32.611264 1.733650 11.961034 34.778821 -0.053111 1.219711 0.152145 -0.000034 -82758.100000 0 0 1
-32.293684 0.554050 12.693734 34.703312 -0.017155 1.196327 0.157151 -0.000157 452638.000000 0 0 1
-33.466254 -0.085850 13.212434 35.980077 0.002565 1.194783 0.134772 -0.007468 477591.000000 0 0 1
-33.182924 -1.182450 14.315134 36.158370 0.035619 1.163748 0.128757 -0.012656 -241710.000000 0 0 1
-32.766634 -2.428150 13.857334 35.659135 0.073969 1.171679 0.128942 -0.014040 223915.000000 0 0 1
-32.974364 -3.435650 14.896434 36.345785 0.103817 1.148503 0.128944 -0.012029 6479.340000 0 0 1
-32.925094 -4.910450 14.414234 36.275949 0.148049 1.162169 0.118467 -0.015730 -140953.000000 0 0 1
-34.033094 -5.259150 13.622134 37.033400 0.153318 1.194118 0.096501 -0.029682 -170451.000000 0 0 1
-34.005024 -6.582850 13.184434 37.060827 0.191219 1.207079 0.105878 -0.034403 -440077.000000 0 0 1
-35.210980 -6.843450 12.216434 37.893102 0.191962 1.242541 0.102345 -0.031793 80553.700000 0 0 1
-36.460124 -6.895050 12.820534 39.258737 0.186905 1.238129 0.092485 -0.034861 -457963.000000 0 0 1
-37.021024 -5.696450 13.341534 39.761820 0.152673 1.228622 0.096861 -0.034918 -1381180.000000 0 0 1
36.010005 -5.421450 12.874334 38.624618 -0.149432 1.230974 0.120995 -0.033307 -43673.500000 0 0 1
35.043885 -6.226750 13.562534 38.089220 -0.175849 1.206734 0.118640 -0.035272 -281275.000000 0 0 1
33.788935 -6.088750 12.957134 36.696762 -0.178286 1.209928 0.122986 -0.031713 -183265.000000 0 0 1
32.760455 -7.132550 13.429934 36.117639 -0.214373 1.189807 0.113647 -0.029654 -84854.700000 0 0 1
32.374205 -7.066650 14.788134 36.286576 -0.214909 1.151041 0.105229 -0.026975 17470.100000 0 0 1
31.198345 -7.831250 14.962934 35.476114 -0.245934 1.135394 0.096325 -0.030298 88964.600000 0 0 1
30.695695 -7.815650 16.446734 35.690407 -0.249319 1.091881 0.078862 -0.031829 -496526.000000 0 0 1
31.257405 -8.708850 17.320034 36.781151 -0.271726 1.080492 0.080567 -0.032492 -480226.000000 0 0 1
30.825095 -8.537150 18.632034 37.016512 -0.270182 1.043332 0.065962 -0.034745 -748021.000000 0 0 1
31.858045 -9.052050 19.635534 38.502323 -0.276841 1.035631 0.070426 -0.033607 -34875.800000 0 0 1
32.964105 -8.185150 19.806234 39.318136 -0.243383 1.042870 0.075123 -0.029325 -115860.000000 0 0 1
34.111335 -8.759250 19.181334 40.102759 -0.251353 1.072073 0.057663 -0.028783 -37472.500000 0 0 1
35.406195 -8.145650 19.763734 41.358862 -0.226128 1.072580 0.042578 -0.024199 -38393.400000 0 0 1
35.641765 -8.382450 21.138434 42.278059 -0.230988 1.047214 0.048924 -0.022614 1211590.000000 0 0 1
36.991505 -7.934650 21.472534 43.501723 -0.211297 1.054570 0.050730 -0.019646 1381940.000000 0 0 1
-36.985014 -8.409450 22.869134 44.290037 0.223573 1.028214 0.054009 -0.011504 -276974.000000 0 0 1
36.892655 -7.676250 23.903834 44.624950 -0.205143 1.005506 0.054287 -0.018257 35490.500000 0 0 1
36.542415 -8.400150 25.029734 45.082128 -0.225949 0.982189 0.054927 -0.013923 20902.200000 0 0 1
36.195335 -7.475650 26.261534 45.339341 -0.203672 0.953023 0.067948 -0.014440 587629.000000 0 0 1
-37.142594 -7.215650 27.109234 46.546197 0.191879 0.949099 0.045008 -0.027502 560931.000000 0 0 1
36.903685 -6.408850 28.228134 46.901843 -0.171949 0.924974 0.054239 -0.035338 346364.000000 0 0 1
-36.327274 -6.164050 29.117434 46.962659 0.168080 0.902038 0.070685 -0.029218 352257.000000 0 0 1
-35.928885 -7.208150 29.978734 47.345187 0.197994 0.885122 0.071221 -0.023697 -111028.000000 0 0 1
-34.624915 -7.034550 30.490034 46.669174 0.200436 0.858831 0.074627 -0.032076 282222.000000 0 0 1
-34.202308 -7.958450 31.694534 47.304104 0.228619 0.836565 0.066889 -0.019029 129785.000000 0 0 1
-34.122834 -9.369650 31.497634 47.373612 0.267981 0.843467 0.068897 -0.015381 320987.000000 0 0 1
-33.408764 -10.044650 32.523234 47.694877 0.292061 0.820436 0.068555 -0.011109 -26361.400000 0 0 1
-33.859604 -11.543850 32.582434 48.387481 0.328574 0.832045 0.072359 -0.012610 1453140.000000 0 0 1
-35.209171 -11.656750 33.128534 49.729924 0.319713 0.841736 0.065254 -0.008733 1288920.000000 0 0 1
-35.627608 -13.024550 33.075334 50.328353 0.350482 0.853711 0.058180 -0.016164 -654470.000000 0 0 1
-37.054414 -13.314050 33.475834 51.680993 0.344945 0.866182 0.065870 -0.011467 -788634.000000 0 0 1
37.073785 -14.644650 33.359034 51.978423 -0.376200 0.873971 0.068412 -0.019798 -439408.000000 0 0 1
35.832485 -14.916150 -33.898148 51.531961 -0.394457 2.288701 0.054239 -0.023814 -466183.000000 0 0 1
35.519495 -16.408250 -33.733448 51.660534 -0.432747 2.282313 0.041763 -0.010557 -175719.000000 0 0 1
36.131585 -16.985750 -32.611848 51.551332 -0.439449 2.255714 0.053470 -0.024641 77951.700000 0 0 1
36.253595 -18.371650 -32.804948 52.230310 -0.469036 2.249883 0.044461 -0.038962 -212025.000000 0 0 1
36.616085 -19.010250 -31.435848 51.868486 -0.478872 2.221905 0.055376 -0.036563 -224049.000000 0 0 1
35.541915 -19.008750 -30.524348 50.559827 -0.491119 2.218965 0.066752 -0.033903 -247421.000000 0 0 1
35.858065 -19.605550 -29.271448 50.269236 -0.500348 2.192343 0.065462 -0.031413 -513375.000000 0 0 1
34.689425 -19.475550 -28.239648 48.786586 -0.511573 2.188102 0.066322 -0.025008 1170430.000000 0 0 1
33.505415 -20.221350 -28.600648 48.471775 -0.543007 2.201914 0.070834 -0.022502 593257.000000 0 0 1
32.681945 -19.540250 -29.476748 48.154020 -0.538868 2.229554 0.054921 -0.017219 -1283760.000000 0 0 1
31.326445 -20.203750 -29.781848 47.712642 -0.572811 2.244893 0.051706 -0.010858 112270.000000 0 0 1
30.446485 -19.405250 -30.560648 47.302277 -0.567435 2.273222 0.043084 -0.004804 728756.000000 0 0 1
29.157665 -20.048750 -30.602948 46.783141 -0.602354 2.283848 0.047555 -0.007987 621112.000000 0 0 1
28.175165 -19.467050 -31.603348 46.600189 -0.604612 2.316081 0.040322 0.004473 -158203.000000 0 0 1
28.553065 -19.687550 -32.942048 47.833625 -0.603649 2.330463 0.031540 0.002490 2011.940000 0 0 1
27.474665 -19.503850 -33.842948 47.755655 -0.617329 2.358406 0.041664 -0.003919 53646.800000 0 0 1
27.905965 -19.582050 32.541334 47.128951 -0.611876 0.808652 0.043949 -0.002782 -229169.000000 0 0 1
28.554565 -18.383750 32.220634 46.813403 -0.572012 0.811684 0.026528 -0.001171 95303.800000 0 0 1
28.970965 -18.308450 30.833334 46.100007 -0.563588 0.838155 0.025222 -0.005103 454208.000000 0 0 1
27.993365 -17.519550 29.855534 44.518716 -0.559208 0.835740 0.020483 0.000417 305885.000000 0 0 1
27.814665 -16.219150 30.292634 44.208145 -0.527912 0.815880 0.021130 -0.006038 -253923.000000 0 0 1
26.833565 -15.543350 29.604634 42.872722 -0.525023 0.808583 0.019024 -0.003767 -547206.000000 0 0 1
26.609865 -14.113650 30.143834 42.613740 -0.487664 0.785021 0.031700 -0.008218 -672752.000000 0 0 1
27.719365 -13.291550 30.000034 42.953819 -0.447117 0.797601 0.037523 0.003084 -499102.000000 0 0 1
27.635765 -12.037350 30.626234 42.972079 -0.410791 0.777455 0.061273 -0.013596 -288296.000000 0 0 1
29.036565 -11.423250 30.736234 43.798731 -0.374812 0.792930 0.068961 -0.017341 -193995.000000 0 0 1
29.555405 -11.078350 29.459934 43.175682 -0.358625 0.819855 0.069876 -0.019888 788375.000000 0 0 1
30.991515 -11.002050 29.542234 44.207044 -0.341124 0.838916 0.071075 -0.010295 1022430.000000 0 0 1
31.533095 -10.531850 28.135334 43.552876 -0.322345 0.868458 0.090013 -0.011217 -51018.000000 0 0 1
31.140595 -9.173150 27.883034 42.794240 -0.286470 0.861157 0.084103 -0.013314 166804.000000 0 0 1
31.846135 -8.609050 26.795634 42.500566 -0.264022 0.888629 0.088228 -0.018684 30408.900000 0 0 1
31.698225 -7.053450 26.586634 41.968771 -0.218952 0.884746 0.090191 -0.023953 -335667.000000 0 0 1
30.379685 -6.636150 26.400734 40.791697 -0.215062 0.866879 0.098099 -0.023367 -500976.000000 0 0 1
30.365455 -5.225950 26.496634 40.637951 -0.170432 0.860555 0.099617 -0.027240 519387.000000 0 0 1
28.917065 -4.643850 26.493434 39.492583 -0.159232 0.835448 0.093410 -0.021252 569457.000000 0 0 1
28.273565 -4.924450 25.255834 38.229594 -0.172442 0.849131 0.100726 -0.018895 -973020.000000 0 0 1
26.949365 -4.534150 25.271034 37.221660 -0.166686 0.824487 0.095207 -0.017705 -1086880.000000 0 0 1
26.209265 -4.959550 23.997334 35.880284 -0.187018 0.838180 0.093902 -0.010037 -228591.000000 0 0 1
26.583665 -4.195550 22.880434 35.324328 -0.156533 0.866202 0.103145 -0.006965 -12154.600000 0 0 1
25.757265 -4.506550 21.814134 34.052932 -0.173209 0.875524 0.093060 -0.015962 -177086.000000 0 0 1
26.159465 -3.764950 20.507034 33.451920 -0.142941 0.910906 0.092888 -0.011276 -21479.100000 0 0 1
25.604465 -2.514050 20.528034 32.913664 -0.097874 0.897337 0.083512 0.001138 -113027.000000 0 0 1
26.012165 -1.821450 19.407734 32.505547 -0.069909 0.930966 0.091423 0.003817 119410.000000 0 0 1
24.892765 -0.843750 18.909434 31.271847 -0.033882 0.921433 0.076480 0.000289 662889.000000 0 0 1
23.895465 -1.619450 18.252434 30.112576 -0.067669 0.919598 0.075883 -0.001205 -589238.000000 0 0 1
22.769565 -0.935450 17.869934 28.959674 -0.041060 0.905792 0.090342 -0.005683 -86472.200000 0 0 1
21.655165 -1.761850 17.169934 27.692182 -0.081181 0.902018 0.084437 -0.013786 354872.000000 0 0 1
22.080465 -2.070050 15.817734 27.240279 -0.093477 0.951239 0.106351 -0.018287 -152556.000000 0 0 1
21.106165 -2.793050 15.158234 26.135099 -0.131569 0.952073 0.114491 -0.030103 -631835.000000 0 0 1
21.386265 -3.185050 13.715834 25.605488 -0.147843 1.005507 0.128000 -0.045665 -234299.000000 0 0 1
20.401865 -4.149350 13.365034 24.740197 -0.200644 1.000103 0.145777 -0.044142 735380.000000 0 1 0
20.371865 -4.446350 11.995434 24.055631 -0.214889 1.048751 0.129737 -0.044770 -422375.000000 0 1 0
19.194765 -5.386850 11.726234 23.129240 -0.273604 1.039110 0.118071 -0.043656 -431776.000000 0 1 0
19.407865 -6.720550 12.143834 23.860087 -0.333357 1.036820 0.127067 -0.050582 -94191.300000 0 1 0
18.248465 -7.483050 12.231434 23.207984 -0.389153 1.015688 0.113429 -0.027102 -706157.000000 0 1 0
18.419765 -8.961250 12.505234 23.999430 -0.452791 1.022699 0.116138 -0.037767 -428405.000000 0 1 0
18.921465 -9.681350 11.424934 24.130469 -0.472932 1.077576 0.100490 -0.041291 341817.000000 0 1 0
18.884865 -11.091450 11.549534 24.759849 -0.531043 1.085509 0.120869 -0.037095 -167468.000000 0 1 0
19.283565 -11.629150 10.151434 24.701106 -0.542667 1.147278 0.117085 -0.038052 -24923.900000 0 1 0
18.389565 -11.256450 9.130734 23.414826 -0.549277 1.170213 0.088046 -0.027959 290803.000000 0 1 0
18.866465 -11.762250 7.942134 23.608717 -0.557482 1.227698 0.086389 -0.042522 -212132.000000 0 1 0
18.500065 -10.912150 6.694534 22.497649 -0.532918 1.268654 0.079961 -0.032246 -439191.000000 0 1 0
19.114365 -9.666550 6.805034 22.474644 -0.468214 1.263181 0.094940 -0.024995 670629.000000 0 1 0
19.349565 -9.186250 5.485334 22.110671 -0.443246 1.320093 0.068712 -0.029566 -623264.000000 0 1 0
20.147665 -7.889950 5.375334 22.295155 -0.373249 1.327298 0.119061 -0.022322 -352710.000000 0 1 0
20.749065 -7.735150 4.110734 22.522309 -0.356836 1.387249 0.121567 -0.023485 490439.000000 0 1 0
21.277265 -6.434950 4.049134 22.594824 -0.293688 1.390617 0.143824 -0.023762 -358285.000000 0 1 0
21.702765 -6.030150 2.648634 22.680123 -0.271015 1.453747 0.151720 -0.027001 591677.000000 0 1 0
20.635965 -5.917150 1.667934 21.532249 -0.279247 1.493256 0.093140 -0.037338 1208670.000000 0 1 0
21.224865 -5.609450 0.430934 21.957836 -0.258379 1.551170 0.109624 -0.024752 155029.000000 0 1 0
-26.105904 -15.403350 -0.467966 30.315019 0.533059 1.586234 0.118313 -0.026426 549598.000000 0 0 1
-24.997494 -14.653850 -1.039966 28.994681 0.530220 1.606671 0.113721 -0.021648 486952.000000 0 0 1
-23.759294 -15.204150 -0.696466 28.216224 0.569259 1.595482 0.108683 -0.023033 -266222.000000 0 0 1
-22.941194 -14.646450 0.462334 27.221878 0.568202 1.553812 0.123801 -0.036145 -556478.000000 0 0 1
-23.627894 -14.778450 1.677434 27.919415 0.558935 1.510679 0.103979 -0.023349 -174731.000000 0 0 1
-22.914094 -14.436850 2.833434 27.230620 0.562217 1.466554 0.119721 -0.016457 -405055.000000 0 0 1
-23.529094 -15.031350 4.086334 28.218041 0.568491 1.425473 0.127625 -0.006996 -216839.000000 0 0 1
-23.210094 -16.402050 4.228734 28.733567 0.615193 1.423089 0.147431 -0.027473 169460.000000 0 0 1
-23.907794 -16.981050 5.299634 29.799745 0.617587 1.392004 0.145094 -0.034293 -415621.000000 0 0 1
-23.938994 -18.528650 5.229934 30.720327 0.658682 1.399720 0.103429 -0.032056 -155324.000000 0 0 1
-24.460594 -19.125750 6.388434 31.700584 0.663607 1.367883 0.097729 -0.034309 -160640.000000 0 0 1
-25.087744 -20.310950 5.873534 32.808962 0.680565 1.390804 0.093902 -0.036763 -87415.900000 0 0 1
-25.553944 -21.269850 7.024434 33.981660 0.694158 1.362583 0.089922 -0.031796 66213.600000 0 0 1
-24.600194 -21.746550 7.954634 33.783993 0.723904 1.333109 0.084394 -0.019578 -362193.000000 0 0 1
-25.281414 -22.429350 9.006634 34.976350 0.725691 1.310356 0.078899 -0.013208 72446.800000 0 0 1
-24.380694 -23.132650 10.011734 35.068113 0.759137 1.281275 0.060286 -0.019365 -289753.000000 0 0 1
-23.637694 -22.266250 10.791934 34.219765 0.755531 1.249948 0.076614 -0.018931 240267.000000 0 0 1
-22.781794 -22.896550 11.779034 34.380340 0.787910 1.221103 0.083004 -0.018566 289375.000000 0 0 1
-22.861794 -22.282950 13.149834 34.526940 0.772577 1.180073 0.065406 -0.008586 -754498.000000 0 0 1
-24.120994 -22.347950 13.732334 35.634677 0.747261 1.175194 0.062760 -0.016326 -691511.000000 0 0 1
-24.242094 -21.510350 14.847234 35.648487 0.725762 1.141215 0.061372 0.000212 -588364.000000 0 0 1
-25.492144 -21.732650 15.727834 37.007057 0.705957 1.131839 0.065356 -0.003115 840691.000000 0 0 1
-26.812144 -21.422950 15.264434 37.561107 0.674132 1.152297 0.070914 -0.014406 963347.000000 0 0 1
-27.225304 -22.318050 14.248234 37.977950 0.686670 1.186215 0.058200 -0.020120 -560955.000000 0 0 1
-28.367094 -23.331650 14.627234 39.534970 0.688305 1.191806 0.039413 -0.020299 275971.000000 0 0 1
-28.032424 -24.356050 15.552134 40.260438 0.715338 1.174192 0.033268 -0.005968 -178166.000000 0 0 1
-29.197974 -25.030860 15.962034 41.639550 0.708706 1.177388 0.043150 -0.017318 135457.000000 0 0 1
-29.464644 -26.449230 15.318034 42.454319 0.731521 1.201658 0.060800 -0.018108 221068.000000 0 0 1
-30.059004 -26.387400 14.002634 42.378206 0.720444 1.234047 0.075644 -0.032522 942448.000000 0 0 1
-31.254674 -27.198080 13.919434 43.707446 0.716110 1.246683 0.102717 -0.042153 728096.000000 0 0 1
-31.794464 -27.360610 12.488834 43.765990 0.710585 1.281420 0.148515 -0.054777 -55088.900000 0 0 1
-30.949464 -28.167980 11.687934 43.450112 0.738383 1.298445 0.130824 -0.054118 14106.400000 0 0 1
-31.564484 -28.566280 10.464934 43.839067 0.735578 1.329756 0.139200 -0.039786 101541.000000 0 0 1
-30.939224 -29.870120 9.928034 44.136442 0.767819 1.343915 0.103783 -0.045832 100596.000000 0 0 1
-31.179854 -31.003140 10.721634 45.258495 0.782556 1.331625 0.097629 -0.038118 65904.500000 0 0 1
-30.598044 -32.184370 10.163934 45.556333 0.810660 1.345796 0.100022 -0.042147 -196840.000000 0 0 1
-30.712684 -33.496660 10.953234 46.746856 0.828729 1.334288 0.101027 -0.041380 -654536.000000 0 0 1
-31.974294 33.890816 10.944634 47.861549 -0.814488 1.340082 0.104641 -0.035956 -347117.000000 0 0 1
-31.980214 32.623049 11.605134 47.134664 -0.795348 1.322026 0.114884 -0.035034 -588291.000000 0 0 1
-33.306504 32.295917 12.282834 47.991848 -0.769995 1.311981 0.111078 -0.032849 958702.000000 0 0 1
-34.512005 32.048652 11.512134 48.484264 -0.748406 1.331066 0.066767 -0.030545 1313540.000000 0 0 1
-35.145059 33.184539 10.913334 49.552897 -0.756714 1.348740 0.095884 -0.030562 357121.000000 0 0 1
-36.642204 32.830168 10.596834 50.326573 -0.730582 1.358647 0.080012 -0.017882 550965.000000 0 0 1
-36.936664 32.132681 9.410034 49.853536 -0.715957 1.380904 0.049870 -0.019051 232373.000000 0 0 1
36.134795 32.057866 9.141434 49.162954 0.725684 1.383766 0.036713 -0.020004 2065.930000 0 0 1
35.798145 31.589249 7.715734 48.362386 0.723021 1.410572 0.040578 -0.024941 -83019.700000 0 0 1
36.149855 30.247659 7.385534 47.710366 0.696739 1.415372 0.055111 -0.021405 104362.000000 0 0 1
35.628885 29.866179 6.153934 46.896450 0.697637 1.439193 0.075954 -0.016297 5542.940000 0 0 1
35.842485 28.379209 5.836234 46.088229 0.669706 1.443824 0.090384 -0.014108 -39817.600000 0 0 1
35.023285 27.525609 6.577034 45.028292 0.666098 1.424207 0.083701 -0.009278 -55323.600000 0 0 1
35.715025 27.066239 7.709634 45.470681 0.648499 1.400421 0.057918 -0.009193 158235.000000 0 0 1
34.873725 25.983559 8.528634 44.317713 0.640342 1.377145 0.057214 0.005193 286251.000000 0 0 1
34.788095 24.766979 7.794734 43.409362 0.618693 1.390254 0.058353 -0.001779 -750320.000000 0 0 1
33.644755 24.079209 8.129334 42.164724 0.621179 1.376782 0.052335 -0.001560 -1067120.000000 0 0 1
33.571865 22.816449 7.229134 41.230097 0.596924 1.394549 0.069284 -0.005707 183307.000000 0 0 1
34.548225 21.839649 7.409534 41.538552 0.563724 1.391459 0.077405 -0.004673 -182984.000000 0 0 1
35.913225 22.045149 7.119134 42.736757 0.550537 1.403435 0.079904 -0.009504 -5180.060000 0 0 1
36.781525 20.798349 7.161134 42.857132 0.514632 1.402916 0.071677 -0.011064 -107886.000000 0 0 1
36.528125 20.000449 6.012334 42.076954 0.500949 1.427417 0.095064 -0.021890 120045.000000 0 0 1
37.109295 18.735649 6.252734 42.038328 0.467542 1.421503 0.108124 -0.022375 23978.200000 0 0 1
36.651955 17.656349 5.246434 41.019965 0.448925 1.442545 0.112231 -0.024805 -271350.000000 0 0 1
37.222375 17.666549 3.971534 41.393058 0.443140 1.474702 0.140853 -0.028759 -286071.000000 0 0 1
36.612775 16.717249 3.173934 40.373699 0.428326 1.492101 0.127266 -0.031255 -1106590.000000 0 0 1
-37.061874 16.339349 1.871334 40.546994 -0.415233 1.524628 0.169146 -0.031743 288081.000000 0 0 1
-35.822432 15.678049 1.959434 39.152104 -0.412545 1.520729 0.180941 -0.051183 -108287.000000 0 0 1
-34.790278 16.404049 2.587034 38.550603 -0.440599 1.503638 0.176322 -0.048086 -896485.000000 0 0 1
-33.443914 15.645949 2.624834 37.015954 -0.437579 1.499826 0.185468 -0.045122 5607.030000 0 0 1
-33.273184 14.790949 3.721234 36.602247 -0.418296 1.468954 0.185420 -0.043346 -122524.000000 0 0 1
-31.937524 14.398049 3.900434 35.249435 -0.423535 1.459917 0.176660 -0.045360 -286612.000000 0 0 1
-31.568904 13.581649 5.119434 34.745726 -0.406286 1.422918 0.184271 -0.035783 -122394.000000 0 0 1
-32.164064 12.294049 5.141234 34.815269 -0.365094 1.422582 0.206365 -0.038568 284305.000000 0 0 1
-31.915384 11.617749 6.327834 34.548593 -0.349107 1.386599 0.181352 -0.027765 -162248.000000 0 0 1
-32.116144 10.108549 6.290034 34.251920 -0.304933 1.386108 0.204189 -0.039027 -1833840.000000 0 0 1
-33.394784 9.703149 6.272634 35.337072 -0.282773 1.392342 0.188133 -0.017754 -1769940.000000 0 0 1
-33.384024 8.299349 6.193934 34.953356 -0.243663 1.392650 0.212462 -0.029511 -889970.000000 0 0 1
-34.774071 7.715649 6.142934 36.145579 -0.218342 1.400018 0.178587 -0.014209 -788574.000000 0 0 1
-35.403550 7.760449 7.420734 36.995989 -0.215787 1.368844 0.161554 -0.007248 -778416.000000 0 0 1
-36.622234 7.118849 7.372234 38.029145 -0.191992 1.375704 0.110852 -0.009838 -752369.000000 0 0 1
-37.080804 6.527249 8.726134 38.648886 -0.174243 1.343053 0.098952 -0.008354 -180444.000000 0 0 1
36.677865 7.332649 9.623734 38.621883 0.197319 1.318965 0.091543 -0.014224 75403.900000 0 0 1
-36.932584 7.943949 10.586434 39.232572 -0.211865 1.297572 0.124853 -0.023215 -32220.600000 0 0 1
36.811425 8.854849 11.627134 39.606561 0.236061 1.272841 0.102389 -0.027967 -587623.000000 0 0 1
36.153605 8.250349 12.684434 39.192427 0.224361 1.241217 0.091479 -0.030529 461208.000000 0 0 1
35.563935 9.127949 13.615034 39.159700 0.251240 1.215701 0.115250 -0.039900 -362712.000000 0 0 1
34.938595 8.495349 14.884434 38.915585 0.238522 1.178317 0.110507 -0.044600 -292024.000000 0 0 1
33.731345 7.788249 14.629634 37.583064 0.226914 1.170967 0.109041 -0.049410 340195.000000 0 0 1
33.285655 7.163149 15.810734 37.539644 0.211969 1.136057 0.099986 -0.037417 -770841.000000 0 0 1
31.803895 6.809649 15.764834 36.144005 0.210929 1.119461 0.096751 -0.031878 -791662.000000 0 0 1
31.099435 7.961549 16.190134 35.953881 0.250621 1.103692 0.091102 -0.043784 716515.000000 0 0 1
29.672395 7.840749 16.057334 34.637644 0.258339 1.088764 0.097995 -0.037486 952618.000000 0 0 1
28.897765 7.354549 17.300434 34.474270 0.249212 1.045076 0.092396 -0.035305 -320685.000000 0 0 1
29.007565 8.249349 18.409334 35.332622 0.277071 1.022740 0.123429 -0.039866 671072.000000 0 0 1
28.048365 7.973649 19.449934 35.051246 0.276975 0.982554 0.116417 -0.027852 298114.000000 0 0 1
28.304465 6.679349 20.272434 35.450361 0.231743 0.962032 0.101913 -0.023430 -46859.000000 0 0 1
27.678965 6.704049 21.531234 35.702429 0.237631 0.923446 0.102651 -0.013750 -97351.700000 0 0 1
28.112865 5.615849 22.284434 36.310701 0.197166 0.910039 0.097307 -0.015400 -407378.000000 0 0 1
27.400165 5.521949 23.675034 36.630155 0.198866 0.868036 0.108268 -0.007957 1005440.000000 0 0 1
26.045865 5.056349 23.583934 35.498672 0.191747 0.844158 0.080761 -0.010070 442773.000000 0 0 1
25.145865 6.144349 23.478434 34.947167 0.239652 0.834124 0.094503 -0.008516 -442466.000000 0 0 1
23.662065 5.766449 23.331534 33.726929 0.239041 0.806848 0.093745 -0.018462 -210770.000000 0 0 1
23.335165 5.500549 22.007534 32.544086 0.231494 0.828153 0.086861 -0.002268 865632.000000 0 0 1
21.988765 5.307949 21.556134 31.246553 0.236862 0.809484 0.073707 -0.008196 401492.000000 0 0 1
21.194865 3.966049 21.851634 30.699280 0.184984 0.778744 0.073719 -0.008759 -587.480000 0 0 1
19.977265 3.764249 21.210834 29.379588 0.186243 0.764168 0.085703 -0.021079 -14392.500000 0 0 1
18.858265 4.430949 21.737634 29.116872 0.230775 0.727912 0.097546 -0.021424 -1462190.000000 0 0 1
17.545065 4.239749 21.075534 27.748566 0.237104 0.708225 0.128874 -0.029166 -1048680.000000 0 0 1
17.018765 2.897349 21.132834 27.287904 0.168628 0.684967 0.111668 -0.026467 433737.000000 0 0 1
15.923365 2.782249 20.221434 25.888238 0.172981 0.674363 0.126625 -0.036470 -103135.000000 0 0 1
14.940665 1.661949 20.511234 25.430224 0.110781 0.632471 0.126667 -0.037722 -600064.000000 0 0 1
15.355865 0.382849 20.183034 25.363439 0.024927 0.650546 0.096537 -0.036367 172594.000000 0 0 1
14.621365 -0.440251 21.058034 25.640183 -0.030101 0.607127 0.110444 -0.035180 -108723.000000 0 0 1
15.159965 -1.844851 21.053234 26.008974 -0.121097 0.627564 0.086671 -0.020811 -183874.000000 0 0 1
14.674665 -2.470651 19.882434 24.834676 -0.166797 0.642514 0.111211 -0.025086 233200.000000 0 1 0
14.846265 -3.865251 20.029134 25.229308 -0.254698 0.653627 0.098674 -0.020737 -32866.900000 0 0 1
14.136665 -4.713151 18.950434 24.107635 -0.321810 0.666361 0.098807 -0.021018 397000.000000 0 1 0
12.733065 -4.577251 18.816634 23.176452 -0.345093 0.623421 0.100348 -0.022370 -49044.600000 0 1 0
12.304865 -5.099551 17.586034 22.060910 -0.392887 0.648223 0.099649 -0.024074 -86895.200000 0 1 0
10.779965 -5.011151 17.408634 21.080319 -0.435141 0.599134 0.089983 -0.019441 41437.700000 0 1 0
10.128065 -5.990151 18.188734 21.663095 -0.534102 0.574216 0.092002 -0.021836 -1278210.000000 0 1 0
8.766965 -6.023351 17.989134 20.898550 -0.601982 0.533989 0.078336 -0.031221 -815563.000000 0 1 0
7.899965 -6.921451 18.921534 21.641174 -0.719474 0.506742 0.068034 -0.029785 -129110.000000 0 1 0
8.033065 -8.363751 18.787334 22.078188 -0.805563 0.553014 0.073882 -0.027718 28683.800000 0 1 0
9.244365 -8.824651 19.348934 23.188661 -0.762174 0.583728 0.098040 -0.033492 14957.700000 0 1 0
9.505465 -10.292251 19.116434 23.700683 -0.825118 0.632457 0.109274 -0.034688 7427.740000 0 1 0
9.654265 -10.472651 17.723234 22.737509 -0.826037 0.676975 0.101645 -0.016380 -154518.000000 0 1 0
10.255565 -11.666951 17.380134 23.310157 -0.849690 0.729356 0.107925 -0.023289 20396.800000 0 1 0
10.204565 -11.805651 15.881834 22.265202 -0.858013 0.776597 0.095886 -0.018183 193827.000000 0 1 0
10.521565 -13.098451 15.410134 22.797917 -0.894066 0.828550 0.079202 -0.010328 -267902.000000 0 1 0
9.968465 -13.379751 14.162134 21.885020 -0.930476 0.867002 0.053014 0.003200 -132230.000000 0 1 0
10.743865 -14.529751 13.447334 22.524989 -0.934089 0.931045 0.073057 -0.006888 1575870.000000 0 1 0
12.122865 -14.261251 13.077534 22.833507 -0.866270 0.960959 0.054132 -0.005609 908964.000000 0 1 0
12.336765 -13.450751 11.945734 21.813277 -0.828570 0.991260 0.025169 -0.004935 -562868.000000 0 1 0
13.741665 -13.055851 11.480634 22.160631 -0.759811 1.026210 0.038001 -0.009260 124128.000000 0 1 0
14.387065 -13.967951 10.548034 22.657280 -0.770618 1.086543 0.042846 -0.012772 -80102.300000 0 1 0
15.618665 -13.430851 10.142434 22.960824 -0.710227 1.113273 0.036668 -0.025092 266909.000000 0 1 0
16.615365 -14.519251 9.564834 24.049222 -0.718175 1.161767 0.036766 -0.024587 256641.000000 0 1 0
17.109965 -15.517051 10.401634 25.332268 -0.736615 1.147675 0.036348 -0.014876 96242.000000 0 0 1
16.271765 -16.644451 10.665534 25.603940 -0.796720 1.141140 0.076474 -0.015121 37413.200000 0 0 1
16.591565 -17.330451 12.015934 26.832951 -0.807177 1.106487 0.062776 -0.010166 322270.000000 0 0 1
17.842565 -18.005351 12.029634 28.058188 -0.789939 1.127700 0.083032 -0.019416 302221.000000 0 0 1
17.909865 -18.859051 13.125734 29.132662 -0.811207 1.103414 0.053294 -0.019540 -695676.000000 0 0 1
19.235065 -19.614151 13.094234 30.432904 -0.795156 1.126009 0.024685 -0.020479 -135924.000000 0 0 1
20.343565 -18.741051 13.228834 30.660882 -0.744420 1.124690 0.023874 -0.020054 239078.000000 0 0 1
21.572465 -19.389751 12.914134 31.750726 -0.732162 1.151919 0.010566 -0.021710 552711.000000 0 0 1
22.493065 -18.823251 11.828434 31.625380 -0.696808 1.187460 0.030971 -0.023039 -675916.000000 0 0 1
22.194065 -19.073451 10.487734 31.086422 -0.709923 1.226671 0.021666 -0.013794 35444.100000 0 0 1
20.995265 -18.582951 9.889634 29.730996 -0.724523 1.231698 0.030922 -0.013470 311561.000000 0 0 1
20.705665 -17.054051 9.935034 28.605422 -0.688991 1.216092 0.076391 -0.026895 -157328.000000 0 0 1
21.552465 -16.267751 9.102534 28.495695 -0.646565 1.245663 0.077440 -0.026122 71404.400000 0 0 1
21.272565 -14.871951 9.143434 27.519073 -0.610131 1.232100 0.088533 -0.037518 6512.460000 0 0 1
-35.937455 24.883050 8.119834 44.458954 -0.605606 1.387129 0.093353 -0.013144 42256.800000 0 0 1
-35.290344 24.178850 9.204834 43.757904 -0.600683 1.358855 0.090604 -0.019667 389980.000000 0 0 1
-34.174044 24.929950 9.669734 43.392067 -0.630251 1.346064 0.097757 -0.015234 -74781.700000 0 0 1
-33.151594 23.990650 10.355634 42.211594 -0.626433 1.322940 0.113969 -0.035068 -227355.000000 0 0 1
-32.251504 23.381050 9.432934 40.936698 -0.627282 1.338280 0.123818 -0.032413 144233.000000 0 0 1
-31.443074 22.472450 10.144634 39.957371 -0.620526 1.314100 0.116222 -0.034047 210117.000000 0 0 1
-30.545054 21.583650 9.209734 38.518482 -0.615153 1.329358 0.100016 -0.042274 620153.000000 0 0 1
-31.336664 20.696250 8.399334 38.482075 -0.583685 1.350759 0.107421 -0.045490 442669.000000 0 0 1
-30.498174 20.033350 7.497534 37.251668 -0.581190 1.368145 0.106661 -0.048599 -179543.000000 0 0 1
-31.242574 19.274150 6.392534 37.261989 -0.552767 1.398387 0.121257 -0.042821 -572998.000000 0 0 1
-31.928004 18.182250 6.874534 37.379819 -0.517673 1.385833 0.141941 -0.042130 548426.000000 0 0 1
-32.872234 17.728550 5.869434 37.806554 -0.494604 1.414917 0.133917 -0.042739 382027.000000 0 0 1
-33.729064 16.477550 6.258134 38.056848 -0.454427 1.405604 0.135484 -0.030802 -442511.000000 0 0 1
-34.543142 16.727250 7.328934 39.073557 -0.450962 1.382111 0.107285 -0.022906 42265.800000 0 0 1
-35.362493 15.581850 7.659834 39.395089 -0.415036 1.375114 0.109861 -0.022314 545035.000000 0 0 1
-36.359434 15.802150 8.831334 40.616608 -0.409982 1.351614 0.103601 -0.020270 -6390.840000 0 0 1
37.134385 16.799950 8.569734 41.649025 0.424856 1.363555 0.110647 -0.019788 24290.700000 0 0 1
36.259345 16.789150 9.682934 41.114169 0.433636 1.333050 0.125106 -0.018213 292896.000000 0 0 1
35.278635 18.012650 9.815634 40.809121 0.472078 1.327889 0.087122 -0.012556 633560.000000 0 0 1
34.113705 17.907550 8.996734 39.564713 0.483398 1.341397 0.076829 -0.009530 19460.300000 0 0 1
33.327575 19.041450 9.231734 39.478210 0.519081 1.334767 0.065173 0.001842 -514493.000000 0 0 1
31.904985 18.921350 8.688034 38.097605 0.535296 1.340725 0.053070 -0.000191 -627685.000000 0 0 1
31.186425 20.115150 8.838334 38.148769 0.572850 1.336991 0.054251 -0.001005 1232500.000000 0 0 1
29.823525 20.069550 8.304934 36.894464 0.592336 1.343751 0.029370 0.001365 1549730.000000 0 0 1
29.538315 20.017650 6.753034 36.315587 0.595591 1.383753 0.020872 0.013068 -548290.000000 0 0 1
29.838915 18.741950 6.200734 35.778075 0.560828 1.396606 0.031979 0.005845 143497.000000 0 0 1
29.570715 18.643550 4.805634 35.286021 0.562526 1.434181 0.035841 -0.001361 488083.000000 0 0 1
28.135265 18.897850 4.204734 34.152624 0.591464 1.447367 0.063718 0.002816 836219.000000 0 0 1
27.157865 18.004350 4.834834 32.940581 0.585426 1.423490 0.056939 -0.001705 690993.000000 0 0 1
25.788365 18.238850 4.656434 31.927697 0.615576 1.424431 0.090966 -0.008310 -156541.000000 0 0 1
25.217565 19.493550 5.305234 32.312066 0.658069 1.405862 0.103258 -0.003541 -1020200.000000 0 0 1
25.488065 20.720750 4.609834 33.169889 0.682593 1.431369 0.073813 -0.007777 210095.000000 0 0 1
25.124265 21.898650 5.338234 33.753168 0.716909 1.411974 0.078794 -0.004636 -476484.000000 0 0 1
25.851065 23.187750 4.960834 35.079328 0.731141 1.428903 0.049598 -0.004904 929696.000000 0 0 1
27.245765 23.176550 5.340334 36.166329 0.704870 1.422594 0.060005 -0.000786 916543.000000 0 0 1
27.961865 24.341850 4.980134 37.405793 0.716297 1.437262 0.068648 0.003500 443209.000000 0 0 1
29.436685 24.221850 5.535034 38.520814 0.688517 1.426608 0.063301 -0.000051 523377.000000 0 0 1
30.305745 23.161350 5.184034 38.493643 0.652563 1.435713 0.052434 0.000677 225460.000000 0 0 1
30.504755 23.008050 3.775634 38.394868 0.646212 1.472300 0.059112 -0.006712 -381783.000000 0 0 1
31.374475 24.133150 3.111434 39.704504 0.655674 1.492351 0.081845 -0.019512 -572994.000000 0 0 1
30.690535 25.325950 2.955934 39.900505 0.689921 1.496646 0.060519 -0.024672 -510549.000000 0 0 1
31.508265 26.361450 2.483434 41.156583 0.696694 1.510419 0.112432 -0.023108 -816552.000000 0 0 1
31.018375 27.787550 2.773134 41.737008 0.730513 1.504304 0.100433 -0.013002 787040.000000 0 0 1
29.738755 28.209450 2.291734 41.053851 0.759013 1.514945 0.131859 -0.013973 1368440.000000 0 0 1
28.567365 27.603250 2.868734 39.827923 0.768236 1.498706 0.109795 -0.006214 562507.000000 0 0 1
27.206165 28.131450 2.340634 39.205006 0.802117 1.511058 0.065799 0.001649 86549.900000 0 0 1
26.943965 29.490250 2.670634 40.034790 0.830487 1.504039 0.057469 0.000698 567749.000000 0 0 1
25.648565 29.996450 2.333734 39.535835 0.863376 1.511734 0.049093 0.009266 541618.000000 0 0 1
25.431965 31.383650 3.011334 40.506623 0.889772 1.496386 0.070231 -0.000404 -186529.000000 0 0 1
25.415565 31.318350 4.433834 40.576458 0.889068 1.461307 0.059613 -0.016838 64260.400000 0 0 1
26.701165 31.490050 4.980634 41.585842 0.867509 1.450741 0.066826 -0.021376 -51445.800000 0 0 1
26.651165 31.543150 6.540334 41.809460 0.869264 1.413719 0.086323 -0.037792 -65049.600000 0 0 1
26.163065 30.366650 7.189134 40.722513 0.859622 1.393327 0.088626 -0.037033 96754.300000 0 0 1
26.955165 29.179950 7.105434 40.355144 0.825010 1.393801 0.094381 -0.038844 -4089.960000 0 0 1
26.342065 27.840350 7.615534 39.076667 0.813044 1.374654 0.107495 -0.034423 761175.000000 0 0 1
25.230165 27.375150 6.806334 37.845558 0.826151 1.389967 0.071376 -0.038823 1115750.000000 0 0 1
24.609265 26.129550 7.143434 36.597787 0.815352 1.374348 0.083622 -0.029070 -116825.000000 0 0 1
23.287365 25.746850 6.451934 35.310468 0.835515 1.387044 0.096099 -0.013577 -198150.000000 0 0 1
23.269765 25.532850 5.046334 34.912375 0.831737 1.425745 0.060062 -0.016795 83255.400000 0 0 1
23.525965 26.715650 4.324334 35.859404 0.848800 1.449911 0.056666 -0.007394 -283503.000000 0 0 1
23.581265 26.618050 2.743134 35.666812 0.845819 1.493810 0.045512 0.008335 -367677.000000 0 0 1
24.695565 25.914650 2.254334 35.868121 0.809481 1.507904 0.029034 0.023000 49933.700000 0 0 1
24.677765 25.947150 0.840834 35.818343 0.810467 1.547319 0.042592 0.018665 176799.000000 0 0 1
25.838465 25.162050 0.172134 36.066393 0.772136 1.566024 0.074124 0.011800 -645079.000000 0 0 1
27.100265 25.740950 0.202034 37.377289 0.759679 1.565391 0.084028 0.012954 -499637.000000 0 0 1
28.202565 25.130750 -0.409366 37.777068 0.727865 1.581633 0.093407 0.010690 263657.000000 0 0 1
28.774465 23.896850 0.239034 37.404364 0.693057 1.564406 0.083293 0.001407 -563725.000000 0 0 1
27.850065 22.833450 0.059234 36.013832 0.686740 1.569152 0.081252 -0.002921 411664.000000 0 0 1
28.216265 21.825250 0.960234 35.685028 0.658372 1.543884 0.078590 -0.004235 -208300.000000 0 0 1
27.055265 20.926950 1.394534 34.232577 0.658365 1.530048 0.071537 -0.004632 -179413.000000 0 0 1
26.582565 19.987050 0.419734 33.260955 0.644707 1.558177 0.104723 -0.025232 1342740.000000 0 0 1
25.419065 19.258750 0.891934 31.903352 0.648379 1.542835 0.079944 -0.017553 641672.000000 0 0 1
25.085765 18.005550 0.022334 30.878730 0.622546 1.570073 0.104114 -0.026217 346827.000000 0 0 1
23.745565 17.644350 0.354534 29.585481 0.639044 1.558813 0.100623 -0.022711 635718.000000 0 0 1
23.209165 16.564750 -0.460666 28.517863 0.619872 1.586951 0.127151 -0.050912 744705.000000 0 0 1
21.653665 16.518150 -0.345566 27.236922 0.651664 1.583484 0.102751 -0.030225 -756843.000000 0 0 1
21.048765 15.473250 -1.013866 26.143831 0.633906 1.609586 0.103869 -0.036076 -422346.000000 0 0 1
19.711365 15.239350 -0.706666 24.925391 0.658138 1.599151 0.102347 -0.037060 -54673.400000 0 1 0
18.689265 16.287850 -1.344066 24.827187 0.716849 1.624960 0.104494 -0.038571 -401604.000000 0 1 0
18.804965 17.540650 -0.734166 25.726254 0.750626 1.599338 0.091120 -0.028936 346300.000000 0 0 1
17.881265 18.476050 -1.312866 25.745440 0.801756 1.621813 0.070282 -0.031940 432965.000000 0 0 1
17.941465 19.881150 -0.594266 26.786367 0.836637 1.592984 0.069753 -0.020278 -31613.200000 0 0 1
17.629465 19.918250 0.806934 26.611762 0.846280 1.540469 0.075928 -0.022467 123182.000000 0 0 1
17.843365 21.213950 1.378834 27.754613 0.871483 1.521096 0.090880 -0.021205 -155287.000000 0 0 1
16.815765 22.342450 1.092934 27.984809 0.925609 1.531732 0.080275 -0.026984 154195.000000 0 0 1
15.559265 22.063550 1.693534 27.051045 0.956587 1.508150 0.074590 -0.025837 -167870.000000 0 0 1
14.635465 23.010850 1.230234 27.298527 1.004309 1.525715 0.059646 -0.024706 635308.000000 0 0 1
13.184365 22.786450 1.803734 26.387559 1.046257 1.502387 0.050657 -0.026477 878469.000000 0 0 1
12.972665 23.293850 3.098434 26.842016 1.062661 1.455106 0.059193 -0.014491 951813.000000 0 0 1
11.568665 23.203250 3.426434 26.152730 1.108286 1.439402 0.045751 -0.015430 1173980.000000 0 0 1
11.322865 23.473750 4.940034 26.525991 1.121358 1.383469 0.063628 -0.020063 205140.000000 0 0 1
11.985365 22.546550 5.829734 26.191253 1.082203 1.346333 0.070509 -0.039926 341575.000000 0 0 1
11.372465 22.504350 7.116734 26.199745 1.102882 1.295706 0.055301 -0.028476 -492394.000000 0 0 1
11.910665 21.396950 8.092534 25.791133 1.062860 1.251633 0.063532 -0.032372 497892.000000 0 0 1
13.113865 21.608050 8.807734 26.766724 1.025321 1.235493 0.078947 -0.033086 634891.000000 0 0 1
14.317665 21.674950 8.066334 27.200455 0.987031 1.269717 0.096315 -0.027864 75847.800000 0 0 1
15.686665 21.647450 8.784834 28.139952 0.943722 1.253306 0.107482 -0.034998 200030.000000 0 0 1
16.149065 20.399850 9.317634 27.636290 0.901182 1.226906 0.114220 -0.043797 -214284.000000 0 0 1
17.398965 20.457650 9.940534 28.636579 0.866020 1.216290 0.105506 -0.039958 -364945.000000 0 0 1
17.550165 21.239150 11.313934 29.784475 0.880216 1.181151 0.079076 -0.034411 -521366.000000 0 0 1
16.965065 20.576150 12.399434 29.409818 0.881293 1.135578 0.081400 -0.035421 -139384.000000 0 0 1
17.079565 21.236450 13.641234 30.475919 0.893465 1.106709 0.077986 -0.032301 -14405.400000 0 0 1
18.202965 20.717850 14.602734 31.206043 0.849924 1.083831 0.083125 -0.032500 1649380.000000 0 0 1
19.545365 20.932650 14.092834 31.918727 0.819657 1.113502 0.097107 -0.029017 1445800.000000 0 0 1
20.545765 20.710550 15.124234 32.860277 0.789392 1.092510 0.089108 -0.033011 -86152.000000 0 0 1
21.875565 21.343350 14.785134 33.951129 0.773084 1.120222 0.098945 -0.031484 -780400.000000 0 0 1
22.445265 20.833050 13.596134 33.506131 0.748163 1.152964 0.095653 -0.036847 553029.000000 0 0 1
23.735765 21.430150 13.411634 34.677224 0.734395 1.173685 0.102253 -0.038640 655852.000000 0 0 1
24.690865 20.913250 12.323834 34.624843 0.702752 1.206893 0.106318 -0.034074 24354.800000 0 0 1
24.326665 21.332750 11.043234 34.188096 0.719921 1.241884 0.121864 -0.029325 -2848.200000 0 0 1
25.320865 20.895850 10.179034 34.371435 0.689944 1.270139 0.136197 -0.037799 -414488.000000 0 0 1
25.249365 21.756750 8.908434 34.499954 0.711233 1.309621 0.108828 -0.029573 8950.430000 0 0 1
25.691365 23.084150 9.231034 35.751031 0.731996 1.309634 0.107660 -0.032322 1344560.000000 0 0 1
27.054165 23.220750 8.730234 36.706241 0.709296 1.330654 0.080962 -0.024247 829341.000000 0 0 1
27.689165 24.404350 9.456534 38.101027 0.722425 1.319978 0.095945 -0.030188 -878957.000000 0 0 1
28.916965 24.832750 8.977634 39.159345 0.709558 1.339480 0.083358 -0.020076 -657078.000000 0 0 1
29.440565 25.824250 9.804334 40.370333 0.720055 1.325483 0.092692 -0.024628 -431046.000000 0 0 1
30.714445 26.471350 9.297734 41.599969 0.711335 1.345389 0.087873 -0.027207 -333501.000000 0 0 1
30.466995 27.346950 8.199334 41.753115 0.731483 1.373135 0.107934 -0.032013 533327.000000 0 0 1
31.733775 27.692450 7.657334 42.808166 0.717497 1.390953 0.089168 -0.023923 245694.000000 0 0 1
31.603305 28.645550 6.452634 43.138996 0.736345 1.420655 0.107189 -0.018391 134505.000000 0 0 1
31.199255 29.963850 6.762834 43.783122 0.765202 1.415713 0.116744 -0.030948 149921.000000 0 0 1
31.252665 30.718250 5.573034 44.174639 0.776775 1.444300 0.114681 -0.023377 74287.800000 0 0 1
31.245075 32.273750 5.779434 45.290745 0.801592 1.442840 0.095301 -0.028658 -666429.000000 0 0 1
30.027585 32.758450 6.211134 44.870370 0.828866 1.431926 0.099646 -0.036556 -657470.000000 0 0 1
30.017365 -33.807148 6.500734 45.675213 -0.844707 1.427986 0.095864 -0.033298 396771.000000 0 0 1
28.653765 -33.349448 7.108634 44.539383 -0.860987 1.410507 0.111264 -0.039622 995348.000000 0 0 1
27.571565 -33.397948 6.176834 43.746628 -0.880671 1.429127 0.097156 -0.033611 -544723.000000 0 0 1
26.421065 -32.760048 6.602634 42.601505 -0.892103 1.415183 0.086605 -0.037155 428461.000000 0 0 1
25.282765 -32.805448 5.465034 41.776576 -0.914186 1.439605 0.089481 -0.021362 574035.000000 0 0 1
25.540165 -32.081648 4.256334 41.226795 -0.898439 1.467370 0.067883 -0.005639 30446.300000 0 0 1
24.556865 -32.124548 3.229234 40.564198 -0.918126 1.491104 0.063643 -0.007731 57881.700000 0 0 1
25.083665 -31.388448 2.012534 40.230278 -0.896582 1.520750 0.064419 0.002114 54284.900000 0 0 1
25.198665 -30.008148 2.207034 39.247073 -0.872296 1.514532 0.079141 0.006373 396357.000000 0 0 1
26.044965 -29.483648 1.160334 39.356983 -0.847246 1.541310 0.073143 0.007776 -93055.700000 0 0 1
26.294865 -27.970548 1.378434 38.414471 -0.816268 1.534905 0.063010 -0.001896 74188.400000 0 0 1
25.157065 -27.134648 1.240434 37.023044 -0.823198 1.537286 0.079352 -0.012091 2795.730000 0 0 1
24.641365 -27.134248 -0.067766 36.653362 -0.833509 1.572645 0.080749 -0.009821 -585569.000000 0 0 1
23.473265 -26.159248 -0.299266 35.148115 -0.839463 1.579311 0.067372 -0.011646 -345561.000000 0 0 1
23.744065 -24.772048 -0.195366 34.314329 -0.806583 1.576490 0.058742 -0.017303 -188202.000000 0 0 1
23.695065 -24.319148 1.154734 33.973674 -0.798395 1.536801 0.039471 -0.005172 131411.000000 0 0 1
22.282265 -24.012248 1.712334 32.802736 -0.822750 1.518572 0.023512 -0.009262 311823.000000 0 0 1
22.353965 -23.543148 3.043934 32.607440 -0.811302 1.477309 0.010618 -0.007159 -322064.000000 0 0 1
21.041465 -23.383248 3.520434 31.653010 -0.838063 1.459346 0.021348 -0.007418 -63485.900000 0 0 1
20.991465 -22.624248 4.906034 31.250078 -0.822816 1.413151 0.007080 -0.004294 -200417.000000 0 0 1
21.349165 -21.233948 4.939534 30.513381 -0.782692 1.408200 0.028524 0.001092 57284.100000 0 0 1
20.443765 -20.311748 4.359734 29.146560 -0.782159 1.420653 0.017244 -0.001292 -639971.000000 0 0 1
20.532665 -18.838148 4.913434 28.295018 -0.742385 1.396261 0.013262 -0.000844 -492061.000000 0 0 1
20.136665 -18.762248 6.291034 28.232683 -0.750080 1.346082 0.031688 -0.004740 -92820.100000 0 0 1
18.753065 -18.808748 6.539234 27.353392 -0.786881 1.329394 0.036332 -0.002745 -69133.300000 0 0 1
19.863206 -25.934060 -11.769566 34.722400 -0.917189 1.916609 0.088202 -0.035978 -15260.800000 0 0 1
19.981606 -24.580050 -12.102366 33.910333 -0.888227 1.935736 0.095257 -0.037733 46518.600000 0 0 1
18.804306 -24.225650 -12.810366 33.235365 -0.910728 1.966485 0.086932 -0.026570 493602.000000 0 0 1
18.837006 -22.694750 -13.193666 32.310328 -0.878019 1.991433 0.083469 -0.028297 78569.400000 0 0 1
18.768106 -21.647650 -12.253766 31.161151 -0.856526 1.974948 0.092693 -0.037307 358015.000000 0 0 1
19.872506 -21.445150 -11.333866 31.357096 -0.823442 1.940614 0.089827 -0.049961 -186268.000000 0 0 1
19.809706 -22.267550 -9.995666 31.435355 -0.843745 1.894389 0.085330 -0.036682 -341103.000000 0 0 1
18.932506 -21.755650 -9.020966 30.217973 -0.854672 1.873948 0.078955 -0.036259 924135.000000 0 0 1
17.550306 -22.046550 -9.360566 29.693161 -0.898464 1.891509 0.079748 -0.022539 282121.000000 0 0 1
16.587906 -21.497850 -8.316066 28.398470 -0.913609 1.867987 0.075437 -0.034275 -1245290.000000 0 0 1
16.522106 -20.094250 -8.401166 27.337492 -0.882646 1.883164 0.082091 -0.039221 392365.000000 0 0 1
15.467006 -19.496550 -7.667066 26.040884 -0.900142 1.869649 0.088855 -0.041175 929126.000000 0 0 1
13.993606 -19.718950 -8.147466 25.515470 -0.953621 1.895803 0.074880 -0.027331 48113.100000 0 0 1
13.435406 -20.904250 -7.722766 26.021893 -0.999562 1.872115 0.071474 -0.028271 -138883.000000 0 0 1
12.094406 -20.971750 -8.195966 25.559006 -1.047685 1.897231 0.079046 -0.027564 117569.000000 0 0 1
11.471406 -22.313050 -7.854166 26.289794 -1.095923 1.874182 0.081319 -0.025621 -426649.000000 0 0 1
11.463306 -22.545750 -6.482366 26.110138 -1.100414 1.821690 0.078883 -0.027742 304262.000000 0 0 1
10.697206 -23.667850 -6.095366 26.678658 -1.146304 1.801306 0.059975 -0.025597 -196969.000000 0 0 1
11.105906 -24.236450 -4.765866 27.082469 -1.141118 1.747694 0.071648 -0.030417 -977705.000000 0 0 1
10.149406 -24.962050 -4.109066 27.258004 -1.184619 1.722120 0.067348 -0.029764 -1122130.000000 0 0 1
10.703806 -25.700050 -3.097366 28.011742 -1.176156 1.681597 0.064991 -0.028473 -906214.000000 0 0 1
9.863106 -26.704440 -2.306066 28.560916 -1.216994 1.651626 0.074644 -0.022797 -384579.000000 0 0 1
9.131706 -26.040070 -1.317566 27.626242 -1.233517 1.618507 0.069983 -0.012508 -398018.000000 0 0 1
8.445906 -26.965120 -0.501666 28.261328 -1.267259 1.588548 0.070589 -0.015546 24901.900000 0 0 1
7.483406 -26.333870 0.499334 27.381077 -1.293921 1.552559 0.064441 -0.006725 -53078.700000 0 0 1
6.214306 -25.913260 0.045534 26.648015 -1.335429 1.569088 0.060197 -0.009650 -364659.000000 0 0 1
5.529106 -25.288830 1.098334 25.909501 -1.355545 1.528392 0.065181 -0.005924 -497426.000000 0 0 1
4.087006 -24.976750 0.721534 25.319207 -1.408601 1.542295 0.046099 -0.010835 -420502.000000 0 0 1
3.173106 -26.035070 0.801534 26.239968 -1.449516 1.540245 0.052249 -0.009362 579052.000000 0 0 1
1.816106 -25.547020 0.755934 25.622644 -1.499827 1.541289 0.045621 -0.006147 1665530.000000 0 0 1
0.740406 -26.567160 0.204134 26.578259 -1.542934 1.563116 0.070420 -0.009179 507520.000000 0 0 1
0.361106 -27.636700 1.035134 27.658436 -1.557731 1.533362 0.066858 -0.006235 -441889.000000 0 0 1
1.226906 -28.718470 1.066034 28.764426 -1.528100 1.533727 0.061311 -0.009650 -445010.000000 0 0 1
0.595206 -29.831020 1.944334 29.900242 -1.550846 1.505723 0.094924 -0.016030 262166.000000 0 0 1
0.622006 -29.605600 3.341534 29.800072 -1.549790 1.458428 0.076452 -0.015136 -305507.000000 0 0 1
-0.078494 -30.517210 4.101634 30.791714 1.568224 1.437193 0.095755 -0.026215 -415980.000000 0 0 1
0.185106 -30.385320 5.577034 30.893450 -1.564704 1.389276 0.089408 -0.026146 -417604.000000 0 0 1
1.511406 -30.700080 5.936334 31.305260 -1.521605 1.380014 0.068432 -0.008294 -166399.000000 0 0 1
1.744506 -30.599860 7.284034 31.503204 -1.513848 1.337469 0.075289 -0.013832 435414.000000 0 0 1
3.264406 -30.926190 7.417834 31.970452 -1.465631 1.336641 0.073082 -0.014303 508035.000000 0 0 1
3.444406 -32.348610 7.421134 33.367195 -1.464718 1.346513 0.064113 -0.011486 -350332.000000 0 0 1
4.813206 -32.645150 7.540034 33.848558 -1.424411 1.346154 0.060856 -0.015162 -88148.400000 0 0 1
5.033506 33.831898 7.396734 34.994931 1.423100 1.357824 0.028316 0.002827 -750563.000000 0 0 1
4.857706 33.385314 6.075734 34.279601 1.426306 1.392614 0.034214 -0.002336 -43493.000000 0 0 1
4.779606 31.993864 5.893334 32.881353 1.422502 1.390592 0.027357 -0.000505 -633683.000000 0 0 1
5.062006 31.453889 4.400334 32.161063 1.411230 1.433544 0.033616 -0.001340 -199994.000000 0 0 1
6.424006 31.371989 4.091634 32.283293 1.368820 1.443713 0.046749 -0.005586 -528408.000000 0 0 1
7.131206 30.276429 4.698734 31.457819 1.339476 1.420869 0.032499 -0.006792 -77202.400000 0 0 1
8.556806 30.306379 4.095234 31.756361 1.295616 1.441478 0.037191 -0.008431 -219606.000000 0 0 1
9.494206 31.186289 4.674834 32.932942 1.275275 1.428365 0.043751 -0.017719 87036.600000 0 0 1
10.676606 31.237849 3.875734 33.238749 1.241459 1.453928 0.041466 -0.021233 439627.000000 0 0 1
11.905106 31.801219 4.626534 34.270306 1.212587 1.435382 0.060703 -0.034491 42646.800000 0 0 1
12.453006 30.862709 5.528434 33.736445 1.187279 1.406183 0.071814 -0.030415 363400.000000 0 0 1
13.682306 31.318399 6.104334 34.717582 1.158908 1.394049 0.109872 -0.033441 500914.000000 0 0 1
14.388406 30.265959 6.960434 34.227214 1.127023 1.366008 0.099566 -0.032704 -92557.000000 0 0 1
13.669706 29.894639 8.150234 33.867043 1.141919 1.327757 0.085247 -0.028186 66797.300000 0 0 1
14.364706 28.982039 8.953634 33.562940 1.110641 1.300755 0.074663 -0.029191 -52707.900000 0 0 1
14.152706 29.026379 10.493534 33.955029 1.117133 1.256611 0.056883 -0.019846 -98642.700000 0 0 1
15.012406 29.955039 11.082034 35.291475 1.106217 1.251378 0.070837 -0.019820 -7652.450000 0 0 1
14.514506 30.373959 12.355234 35.859449 1.125017 1.219041 0.052393 -0.012211 331352.000000 0 0 1
15.512606 31.232699 13.227534 37.297320 1.109810 1.208255 0.056194 -0.017256 -23013.800000 0 0 1
16.591806 30.491029 13.686034 37.313515 1.072453 1.195246 0.045250 -0.018241 -784813.000000 0 0 1
17.398306 31.310159 14.449034 38.623849 1.063606 1.187374 0.042672 -0.018695 -372457.000000 0 0 1
18.487706 30.593479 15.304934 38.884409 1.027219 1.166251 0.032254 -0.016553 926986.000000 0 0 1
19.647806 30.216409 14.533734 38.862541 0.994255 1.187502 0.035468 -0.021713 482353.000000 0 0 1
20.027106 28.890649 14.770134 38.130191 0.964646 1.173029 0.030804 -0.012075 76490.300000 0 0 1
21.503906 28.649539 14.386734 38.603007 0.926921 1.188896 0.066588 -0.018886 323191.000000 0 0 1
22.511506 29.077489 15.293634 39.826668 0.911992 1.176667 0.083427 -0.022948 35221.600000 0 0 1
23.777606 28.663529 14.851434 40.094109 0.878300 1.191341 0.100707 -0.029205 -637125.000000 0 0 1
24.884506 28.861549 15.865334 41.278766 0.859260 1.176297 0.117482 -0.042570 -624459.000000 0 0 1
24.836606 28.050459 17.025534 41.152814 0.846092 1.144265 0.105754 -0.036236 -922329.000000 0 0 1
25.954406 28.185779 17.810134 42.252458 0.826590 1.135679 0.097756 -0.034130 -563853.000000 0 0 1
26.964006 26.986549 17.770934 42.084885 0.785816 1.134855 0.065346 -0.028633 87938.300000 0 0 1
26.559706 25.742539 18.379334 41.302497 0.769775 1.109630 0.076840 -0.022941 -90798.300000 0 0 1
26.284106 25.830699 19.804034 41.836336 0.776698 1.077685 0.101907 -0.025673 18766.600000 0 0 1
25.870106 24.465579 20.378034 41.025495 0.757502 1.050985 0.104990 -0.023289 598200.000000 0 0 1
26.943606 23.517269 20.372534 41.158960 0.717601 1.052994 0.059316 -0.018013 520219.000000 0 0 1
26.337206 22.229349 20.447634 40.073659 0.701017 1.035319 0.051201 -0.014290 523366.000000 0 0 1
27.327006 21.026449 20.595534 40.162829 0.655826 1.032352 0.022037 -0.007482 262004.000000 0 0 1
26.596806 19.801049 20.477334 38.971693 0.639965 1.017563 0.015193 0.014497 73833.300000 0 0 1
27.379406 18.654049 20.600434 39.012605 0.598077 1.014499 0.025501 -0.000070 -300035.000000 0 0 1
27.877906 18.205049 22.009334 39.912558 0.578501 0.986708 0.049571 0.007009 -416985.000000 0 0 1
26.829106 17.808849 22.822034 39.468991 0.586007 0.954243 0.022412 0.021937 -304192.000000 0 0 1
27.260606 17.522849 24.147234 40.413857 0.571290 0.930418 0.061942 0.026174 23457.400000 0 0 1
26.139906 16.734849 24.826934 39.745774 0.569457 0.896122 0.048551 0.017318 -271657.000000 0 0 1
25.906406 15.502949 24.211534 38.699893 0.539258 0.894867 0.041736 0.014761 568671.000000 0 0 1
24.929906 14.693049 24.894934 38.172551 0.532570 0.860355 0.041673 0.013072 326091.000000 0 0 1
24.458406 13.457249 24.143934 36.908546 0.503004 0.857731 0.041050 0.006776 -187051.000000 0 0 1
23.385406 12.848649 24.826134 36.445877 0.502406 0.821426 0.026959 0.002619 -123038.000000 0 0 1
22.718906 11.923049 24.011134 35.140324 0.483296 0.818533 0.035368 0.000333 -257287.000000 0 0 1
21.389706 11.478649 24.638634 34.588166 0.492531 0.777965 0.043593 -0.010178 704030.000000 0 0 1
20.278806 12.412449 24.547634 34.174336 0.549262 0.769432 0.051601 -0.011352 800218.000000 0 0 1
19.082106 11.750749 24.883634 33.487343 0.551956 0.733141 0.074556 -0.017842 14514.400000 0 0 1
17.770606 12.557949 24.891634 33.061911 0.615188 0.718370 0.071798 -0.020466 56900.700000 0 0 1
17.754106 13.324149 26.074434 34.243501 0.643810 0.705262 0.090877 -0.019589 550881.000000 0 0 1
16.521606 14.039349 26.172034 33.985911 0.704353 0.691822 0.104236 -0.019795 456851.000000 0 0 1
16.210206 14.404049 27.683234 35.165450 0.726469 0.664495 0.099086 -0.020714 -3822.120000 0 0 1
15.664506 13.360549 28.495834 35.155278 0.706186 0.625671 0.104399 -0.017901 -61439.900000 0 0 1
15.873206 13.462449 29.915634 36.443674 0.703404 0.607858 0.098982 -0.014185 -779490.000000 0 0 1
17.233106 12.956849 30.358734 37.235905 0.644689 0.617535 0.096877 -0.017994 -352728.000000 0 0 1
18.221806 13.924349 29.978634 37.744407 0.652501 0.653018 0.110724 -0.026627 -46528.200000 0 0 1
19.500806 13.344749 29.788234 38.022397 0.600123 0.670616 0.091103 -0.014551 -427939.000000 0 0 1
20.478706 14.469749 29.474934 38.697840 0.615125 0.704912 0.078084 -0.012224 -643756.000000 0 0 1
20.384006 15.235849 28.241134 38.015792 0.641862 0.733435 0.083565 -0.020115 102193.000000 0 0 1
20.703506 14.513349 27.069534 37.040952 0.611403 0.751303 0.061110 -0.009477 -221133.000000 0 0 1
20.475306 15.340749 25.808834 36.341060 0.643009 0.781037 0.049124 -0.003410 -173752.000000 0 0 1
21.451906 16.345649 25.643534 37.214989 0.651116 0.810599 0.041234 0.008206 49958.900000 0 0 1
21.429006 16.848449 24.336134 36.542030 0.666297 0.841994 0.029405 0.007351 -184629.000000 0 0 1
22.703706 17.627649 23.979234 37.432552 0.660198 0.875519 0.035977 0.006913 -685724.000000 0 0 1
22.634806 18.137749 22.652934 36.803095 0.675546 0.907754 0.050090 -0.003265 673535.000000 0 0 1
23.755806 18.851349 22.026534 37.481728 0.670794 0.942632 0.040951 -0.000382 782528.000000 0 0 1
24.008406 20.292949 22.628734 38.733280 0.701726 0.946878 0.068132 -0.009371 -379984.000000 0 0 1
23.028306 21.216049 22.253534 38.414104 0.744461 0.952919 0.072113 -0.009385 35866.500000 0 0 1
23.329006 22.394849 22.952034 39.655613 0.764971 0.953560 0.099963 -0.017579 -155917.000000 0 0 1
22.339806 23.510229 22.646334 39.555711 0.810920 0.961223 0.097529 -0.032107 -272244.000000 0 0 1
22.678606 24.332639 21.570334 39.644367 0.820567 0.995485 0.108089 -0.034207 -664007.000000 0 0 1
21.698606 25.233399 21.239934 39.480232 0.860574 1.002747 0.118358 -0.035140 -599315.000000 0 0 1
22.155206 26.191329 20.116834 39.768403 0.868688 1.040430 0.118948 -0.036899 141463.000000 0 0 1
21.826606 25.534949 18.903534 38.545790 0.863537 1.058227 0.099188 -0.036848 177577.000000 0 0 1
22.313906 26.293649 17.815134 38.815530 0.867091 1.093962 0.100448 -0.041262 -209651.000000 0 0 1
22.134406 25.671729 16.384434 37.648629 0.859257 1.120543 0.080054 -0.028512 -352385.000000 0 0 1
20.801806 25.488119 15.984934 36.577007 0.886293 1.118512 0.074957 -0.025285 -453269.000000 0 0 1
20.765706 25.037439 14.622834 35.663920 0.878392 1.148323 0.085661 -0.021098 -617372.000000 0 0 1
19.454306 24.408629 14.150134 34.270651 0.897872 1.145167 0.072654 -0.025659 153506.000000 0 0 1
18.343106 25.227489 13.855434 34.130174 0.942108 1.152769 0.051142 -0.020583 211661.000000 0 0 1
17.688506 25.902999 14.950234 34.747059 0.971656 1.126017 0.060600 -0.022973 -1391600.000000 0 0 1
16.287506 26.444089 14.567934 34.304481 1.018751 1.132204 0.059318 -0.017831 405605.000000 0 0 1
15.336806 25.407599 14.130534 32.869982 1.027711 1.126423 0.068845 -0.019718 584222.000000 0 0 1
15.056406 24.410869 15.148034 32.435302 1.018122 1.084875 0.085464 -0.032754 -1174300.000000 0 0 1
14.237506 24.885729 16.346234 33.003113 1.051133 1.052623 0.087068 -0.035150 -324115.000000 0 0 1
14.920706 25.911289 17.083134 34.436258 1.048332 1.051718 0.070272 -0.028838 71252.600000 0 0 1
13.985706 26.569969 17.889734 34.951478 1.086274 1.033465 0.066675 -0.033726 -298724.000000 0 0 1
14.452106 27.875859 18.514834 36.451694 1.092502 1.038019 0.070152 -0.029880 -621556.000000 0 0 1
14.634306 28.898689 17.490834 36.813400 1.102042 1.075694 0.059930 -0.021334 484755.000000 0 0 1
15.202206 30.146649 18.034134 38.277376 1.103734 1.080210 0.042456 -0.021977 112371.000000 0 0 1
15.013906 31.419109 17.179334 38.829207 1.125018 1.112486 0.041362 -0.015562 -1288150.000000 0 0 1
13.735306 31.891789 17.082134 38.698116 1.164121 1.113615 0.052972 -0.022707 -1116990.000000 0 0 1
13.705906 33.058007 16.252834 39.304431 1.177766 1.144489 0.048165 -0.023916 433450.000000 0 0 1
12.446206 33.943864 16.505834 39.743383 1.219348 1.142512 0.052185 -0.027922 253726.000000 0 0 1
12.419606 -32.699210 15.937734 38.438214 -1.207812 1.143257 0.060829 -0.033390 -202329.000000 0 0 1
13.193206 -31.766610 16.669234 38.223573 -1.177156 1.119538 0.056336 -0.024600 -121266.000000 0 0 1
13.034306 -31.591720 18.223034 38.729948 -1.179487 1.080922 0.056773 -0.025202 -208616.000000 0 0 1
13.557206 -32.707400 18.934234 40.150680 -1.177853 1.079715 0.063060 -0.025217 164817.000000 0 0 1
13.360506 -32.581890 20.337834 40.665835 -1.181648 1.047058 0.057629 -0.022181 -621646.000000 0 0 1
14.496306 -33.263410 21.078834 41.963253 -1.159811 1.044521 0.058503 -0.023659 177304.000000 0 0 1
15.706906 -32.491860 21.021234 41.765059 -1.120508 1.043358 0.056530 -0.021586 338679.000000 0 0 1
16.638606 -32.897620 22.017034 42.940033 -1.102544 1.032424 0.060091 -0.023281 -178705.000000 0 0 1
17.923506 -32.083360 21.880834 42.771076 -1.061333 1.033773 0.079187 -0.028745 -389346.000000 0 0 1
17.897706 -30.698950 22.312934 41.959748 -1.042965 1.010107 0.085340 -0.030577 391344.000000 0 0 1
19.199606 -30.124800 22.305934 42.115118 -1.003376 1.012618 0.086840 -0.028890 124053.000000 0 0 1
-5.076194 13.108550 18.657417 23.360245 -1.201336 0.645694 0.031183 0.001634 -219697.000000 0 1 0
-4.803794 14.261950 17.882317 23.372140 -1.245906 0.699580 0.035814 -0.007157 -265071.000000 0 1 0
-5.985594 14.854450 17.434217 23.673486 -1.187750 0.742996 0.035778 -0.014154 -298396.000000 0 1 0
-5.735094 16.363650 17.115617 24.364004 -1.233696 0.791898 0.055120 -0.022132 -41232.400000 0 1 0
-5.500694 16.984550 18.371617 25.617355 -1.257592 0.771085 0.065611 -0.013292 121900.000000 0 0 1
-5.049294 18.277850 18.252217 26.319548 -1.301266 0.804481 0.073679 -0.004506 -384046.000000 0 0 1
-4.486894 18.856450 19.583817 27.554017 -1.337191 0.780243 0.077635 -0.007087 -252602.000000 0 0 1
-5.405294 19.284050 20.562717 28.703957 -1.297511 0.772207 0.064580 -0.007778 -115567.000000 0 0 1
-4.742594 19.929550 21.673417 29.823081 -1.337174 0.757242 0.071739 -0.011452 127888.000000 0 0 1
-5.660494 20.437750 22.821617 31.153957 -1.300606 0.748746 0.052144 -0.008357 183704.000000 0 0 1
-6.217194 19.440550 23.666827 31.252315 -1.261270 0.711655 0.050220 -0.017563 15998.000000 0 0 1
-6.735494 19.807250 24.972867 32.578185 -1.243011 0.697342 0.038181 -0.027194 186685.000000 0 0 1
-5.762994 20.492450 25.955937 33.568784 -1.296652 0.686899 0.040522 -0.023461 -612335.000000 0 0 1
-5.301494 21.779650 25.612647 34.036256 -1.332025 0.718930 0.053689 -0.022609 -247999.000000 0 0 1
-4.198494 22.212150 26.355827 34.722278 -1.383982 0.708949 0.061979 -0.018533 851621.000000 0 0 1
-2.793594 21.633850 25.931177 33.885891 -1.442376 0.699367 0.078413 -0.015735 -3970.650000 0 0 1
-2.402194 20.409450 26.563227 33.584539 -1.453635 0.658459 0.081843 -0.013662 419820.000000 0 0 1
-1.109294 20.054650 26.084167 32.921168 -1.515539 0.656191 0.081368 -0.006711 272290.000000 0 0 1
-0.454894 18.869450 26.783177 32.765861 -1.546694 0.613894 0.084791 -0.003404 -526361.000000 0 0 1
-0.977194 17.605250 26.432817 31.774102 -1.515347 0.588277 0.082025 -0.007525 -400669.000000 0 0 1
-0.321394 16.461850 26.917007 31.553464 -1.551275 0.548974 0.075780 -0.007515 -158907.000000 0 0 1
1.141506 16.229450 26.454467 31.056995 1.500576 0.551377 0.078064 -0.009202 -22380.400000 0 0 1
1.244706 16.040150 25.042857 29.765423 1.493352 0.571038 0.067544 -0.007621 -137123.000000 0 0 1
0.942006 14.727750 24.663997 28.742073 1.506922 0.539210 0.074898 -0.012969 -273049.000000 0 0 1
0.939506 14.478450 23.138827 27.311417 1.505997 0.560063 0.073971 -0.020956 227244.000000 0 0 1
2.253806 14.489750 22.608517 26.947682 1.416488 0.575394 0.064388 -0.018713 64742.300000 0 0 1
2.192206 14.038250 21.275217 25.583454 1.415888 0.588813 0.049070 -0.020255 455396.000000 0 0 1
3.608106 13.698750 20.739717 25.115932 1.313256 0.599249 0.033931 -0.021648 352625.000000 0 0 1
4.349906 14.789350 20.256217 25.455076 1.284739 0.650529 0.053946 -0.019584 -528279.000000 0 0 1
5.688506 14.410050 20.070717 25.354336 1.194816 0.657359 0.056187 -0.018179 -333953.000000 0 0 1
6.412306 15.435350 19.225217 25.475021 1.177059 0.715646 0.069533 -0.031611 -423603.000000 0 0 1
6.134506 15.188050 17.855117 24.230440 1.186929 0.742341 0.067920 -0.041430 214339.000000 0 1 0
6.649606 16.238250 17.061717 24.474481 1.182125 0.799420 0.065140 -0.029782 -272608.000000 0 1 0
6.647206 15.826250 15.529617 23.147884 1.173159 0.835392 0.062805 -0.029166 26366.100000 0 1 0
7.649006 14.940150 15.071817 22.558259 1.097613 0.839106 0.050422 -0.027519 41124.100000 0 1 0
7.920906 13.733150 15.756817 22.352124 1.047631 0.788463 0.056471 -0.027744 -97199.200000 0 1 0
9.104506 12.968650 15.066317 21.864854 0.958703 0.810598 0.056447 -0.032705 -691438.000000 0 1 0
10.290706 13.663350 15.210617 22.889925 0.925275 0.843956 0.053268 -0.030455 -1035250.000000 0 1 0
11.196906 12.889350 14.450817 22.368106 0.855549 0.868404 0.058320 -0.020856 -896579.000000 0 1 0
12.579206 13.459750 14.184217 23.250663 0.819202 0.914664 0.064649 -0.018391 -1325640.000000 0 1 0
13.385106 13.304550 15.338617 24.319648 0.782380 0.888330 0.070270 -0.023510 768930.000000 0 1 0
14.698806 13.860450 15.245217 25.309754 0.756052 0.924360 0.060470 -0.018384 655712.000000 0 0 1
15.709606 13.276250 14.229217 25.010421 0.701645 0.965590 0.056897 -0.020415 -1633390.000000 0 0 1
17.000106 13.674350 14.552017 26.225039 0.677399 0.982565 0.066133 -0.029827 -491162.000000 0 0 1
17.905106 13.153350 13.615717 26.057460 0.633581 1.020985 0.073119 -0.023533 -277697.000000 0 0 1
19.339906 13.696750 13.699917 27.373722 0.616216 1.046647 0.067382 -0.031706 -191878.000000 0 0 1
20.141406 13.181750 14.737017 28.224359 0.579504 1.021440 0.039628 -0.026474 222460.000000 0 0 1
21.486006 13.619550 14.588117 29.324968 0.564959 1.050123 0.058567 -0.041708 86252.900000 0 0 1
22.348506 13.207050 15.785217 30.381820 0.533745 1.024459 0.070936 -0.029415 -267037.000000 0 0 1
22.732106 11.846650 15.848417 30.137420 0.480418 1.017057 0.075030 -0.027175 656703.000000 0 0 1
23.675706 11.613150 16.897617 31.319862 0.456026 1.000932 0.057646 -0.020359 11253.400000 0 0 1
23.989706 10.066650 17.083517 31.123785 0.397308 0.989761 0.084165 -0.024562 -125775.000000 0 0 1
22.878406 9.312550 17.537417 30.293664 0.386565 0.953401 0.057448 -0.016558 534834.000000 0 0 1
22.991506 7.945250 17.209917 29.797946 0.332726 0.955067 0.057051 -0.017850 -661763.000000 0 0 1
21.780306 7.196250 17.714817 28.982452 0.319110 0.913188 0.091025 -0.011450 -666742.000000 0 0 1
21.666106 5.889450 17.152917 28.254705 0.265415 0.918413 0.107406 -0.023576 184739.000000 0 0 1
20.998506 5.078950 18.062017 28.159713 0.237314 0.874457 0.096000 -0.023096 -749403.000000 0 0 1
20.471906 3.749950 17.511817 27.199721 0.181167 0.871312 0.136620 -0.010382 -1059210.000000 0 0 1
19.313606 3.982750 16.764017 25.882619 0.203364 0.866242 0.125658 -0.024430 83144.500000 0 0 1
18.750606 2.840550 16.164417 24.918715 0.150348 0.864940 0.101796 -0.022297 235333.000000 0 1 0
17.975706 1.795750 17.021017 24.820672 0.099568 0.815149 0.100862 -0.015424 -70203.100000 0 1 0
18.854606 0.898050 17.668617 25.855032 0.047594 0.818424 0.120562 -0.025638 811928.000000 0 0 1
18.066006 -0.034250 18.494817 25.854207 -0.001896 0.773671 0.112197 -0.021317 439702.000000 0 0 1
18.738406 -0.546350 19.769317 27.244307 -0.029148 0.758845 0.104584 -0.013200 319067.000000 0 0 1
19.570706 -1.715050 19.665817 27.797451 -0.087410 0.784887 0.114609 -0.006414 810183.000000 0 0 1
18.709006 -2.851550 19.831017 27.412178 -0.151252 0.762027 0.085269 -0.016451 300520.000000 0 0 1
18.933806 -4.022150 18.877417 27.037448 -0.209321 0.797923 0.089352 -0.014430 -176680.000000 0 0 1
18.204906 -3.927650 17.673717 25.674994 -0.212490 0.811566 0.100795 -0.023955 264482.000000 0 0 1
18.293306 -5.051150 16.864317 25.388272 -0.269407 0.844298 0.112721 -0.025912 -402594.000000 0 0 1
17.738706 -4.772850 15.479717 24.022145 -0.262839 0.870566 0.088290 -0.033579 -1182770.000000 0 1 0
16.375406 -4.529550 15.486817 22.989394 -0.269859 0.831659 0.104113 -0.031454 -625958.000000 0 1 0
15.817606 -4.516550 14.173017 21.713367 -0.278138 0.859611 0.088607 -0.030064 141584.000000 0 1 0
16.083706 -3.242150 13.285017 21.111343 -0.198914 0.890166 0.079210 -0.027938 -421164.000000 0 1 0
15.221606 -2.176450 13.548917 20.494082 -0.142022 0.848494 0.066897 -0.019845 166175.000000 0 1 0
15.726406 -0.988850 12.998117 20.426667 -0.062796 0.881064 0.059804 -0.020377 272385.000000 0 1 0
14.745106 0.217850 13.244117 19.821005 0.014773 0.839028 0.068383 -0.012705 -69787.200000 0 1 0
15.102006 1.478950 12.776917 19.837023 0.097619 0.870957 0.070141 -0.011771 170421.000000 0 1 0
16.259206 2.112450 13.292317 21.107106 0.129200 0.889558 0.096708 -0.025951 118131.000000 0 1 0
16.528206 3.507850 12.669917 21.119030 0.209131 0.927384 0.102220 -0.026047 -90304.200000 0 1 0
15.480906 4.397550 12.976417 20.673275 0.276772 0.892213 0.088057 -0.019455 341601.000000 0 1 0
15.426406 5.525650 12.178417 20.416186 0.343956 0.931653 0.090608 -0.029733 -327393.000000 0 1 0
14.550006 6.643950 12.731817 20.443677 0.428353 0.898511 0.092423 -0.018691 -177429.000000 0 1 0
14.469606 7.709950 11.783217 20.190519 0.489571 0.947640 0.065956 -0.033628 121674.000000 0 1 0
13.574406 8.753350 12.063517 20.159715 0.572741 0.929297 0.055373 -0.023366 -511786.000000 0 1 0
13.760606 9.640550 13.317617 21.439529 0.611122 0.900560 0.066914 -0.024764 -341227.000000 0 1 0
13.456206 9.008050 14.516217 21.747069 0.589916 0.839947 0.081397 -0.026278 429086.000000 0 1 0
13.789106 9.758650 15.634317 23.017441 0.615880 0.824073 0.096681 -0.029891 -256954.000000 0 1 0
13.364006 9.164150 17.046917 23.519687 0.601087 0.760062 0.090631 -0.030747 405387.000000 0 1 0
12.030106 9.576250 17.331217 23.168926 0.672312 0.725697 0.072573 -0.036110 144658.000000 0 1 0
11.397906 9.078550 18.506217 23.554456 0.672609 0.667005 0.081190 -0.019959 -60612.900000 0 1 0
12.001206 9.254250 19.922817 25.031755 0.656875 0.650301 0.092482 -0.028704 -10458.300000 0 0 1
13.297806 8.657350 20.018417 25.544439 0.577103 0.670244 0.126368 -0.035073 557698.000000 0 0 1
13.912006 8.599150 21.316317 26.867726 0.553629 0.654455 0.116518 -0.026470 -688072.000000 0 0 1
15.331706 8.104950 21.188617 27.380813 0.486296 0.685900 0.112188 -0.027978 -706603.000000 0 0 1
16.141106 8.988250 20.427317 27.542680 0.508091 0.735254 0.105410 -0.025223 681891.000000 0 0 1
17.308106 8.360150 19.869317 27.645116 0.449971 0.768825 0.094179 -0.021723 863534.000000 0 0 1
18.167506 9.271150 18.909217 27.813144 0.471865 0.823216 0.101349 -0.023182 324882.000000 0 0 1
18.841606 10.338250 19.628817 29.106288 0.501839 0.830666 0.081713 -0.022947 113713.000000 0 0 1
19.553406 11.054750 18.670017 29.208094 0.514561 0.877330 0.079322 -0.018411 42022.700000 0 0 1
20.684106 11.882250 19.366617 30.725982 0.521430 0.888855 0.056919 -0.004219 -475040.000000 0 0 1
20.185506 12.955050 20.161917 31.333543 0.570589 0.871785 0.057428 -0.000832 -60096.500000 0 0 1
21.058306 13.486750 21.114617 32.728760 0.569631 0.869590 0.041117 0.007677 -311540.000000 0 0 1
22.256306 14.283550 20.540017 33.485150 0.570572 0.910429 0.012099 0.011142 -449506.000000 0 0 1
23.282706 13.532950 19.972717 33.528116 0.526515 0.932659 -0.018055 0.022886 -1644120.000000 0 0 1
24.425406 14.261350 19.927917 34.599255 0.528477 0.957014 -0.012368 0.002703 -693716.000000 0 0 1
25.710706 13.369350 20.019117 35.221371 0.479513 0.966261 0.004363 0.000086 364895.000000 0 0 1
25.967506 12.664950 18.762117 34.448939 0.453778 0.994842 0.029413 -0.012336 343041.000000 0 0 1
27.235706 12.026550 18.814117 35.219208 0.415824 1.007235 0.076070 -0.025609 70898.400000 0 0 1
27.737606 11.316050 17.560417 34.724574 0.387356 1.040596 0.115933 -0.034178 -407814.000000 0 0 1
28.123806 12.191350 16.547817 34.834003 0.409039 1.075778 0.117191 -0.046117 154808.000000 0 0 1
28.300006 11.519950 15.278717 34.161950 0.386582 1.107115 0.142455 -0.050050 -208191.000000 0 0 1
27.051406 11.303950 14.393317 32.660763 0.395815 1.114428 0.118740 -0.060331 -107922.000000 0 0 1
26.578406 12.483450 13.724217 32.412996 0.439102 1.133582 0.141386 -0.068580 -655702.000000 0 0 1
25.374306 12.228650 13.101617 31.065216 0.449088 1.135427 0.136151 -0.058637 -714331.000000 0 0 1
24.879106 13.512250 12.370317 30.896206 0.497543 1.158862 0.116098 -0.054207 -266161.000000 0 0 1
24.272006 14.478450 13.161917 31.176784 0.537848 1.134958 0.084338 -0.048130 15947.600000 0 0 1
24.285206 15.687750 12.444117 31.475908 0.573544 1.164343 0.064148 -0.034747 -59411.700000 0 0 1
23.311706 16.828350 12.859117 31.495808 0.625263 1.150227 0.062047 -0.029321 -130696.000000 0 0 1
21.999406 16.710050 12.376617 30.271774 0.649597 1.149603 0.083501 -0.050747 -245507.000000 0 0 1
21.233906 17.757250 12.895717 30.536834 0.696468 1.134815 0.064813 -0.042858 -572080.000000 0 0 1
20.293806 18.455850 11.859717 29.884944 0.738002 1.162718 0.093526 -0.032811 626408.000000 0 0 1
19.106006 17.889750 11.336417 28.523622 0.752534 1.162071 0.088926 -0.032797 -7004.850000 0 0 1
18.131206 17.611650 12.294117 28.107938 0.770863 1.118103 0.080585 -0.034145 -1305690.000000 0 0 1
16.929006 16.908550 11.667617 26.619985 0.784794 1.117087 0.077974 -0.021757 -619250.000000 0 0 1
17.014606 15.517250 11.504717 25.741802 0.739403 1.107469 0.080113 -0.020052 258519.000000 0 0 1
16.066506 15.063350 10.542317 24.416748 0.753184 1.124347 0.085319 -0.029167 -5802.160000 0 1 0
16.248306 13.731950 9.864517 23.449576 0.701661 1.136613 0.090950 -0.027239 -216633.000000 0 1 0
16.083506 12.616050 10.712917 23.078355 0.665162 1.088068 0.081286 -0.019344 462838.000000 0 1 0
16.605106 11.452950 10.092617 22.555721 0.603796 1.106881 0.082251 -0.014656 1435.700000 0 1 0
16.939106 10.181950 10.916617 22.578263 0.541222 1.066146 0.087883 -0.030878 -545219.000000 0 1 0
17.693406 9.265950 10.115917 22.388529 0.482424 1.101975 0.096283 -0.024480 567292.000000 0 1 0
18.263606 8.145550 10.749417 22.703728 0.419522 1.077576 0.111655 -0.024166 -348330.000000 0 1 0
19.483606 8.434150 11.615617 24.200586 0.408530 1.070173 0.093440 -0.029313 -1317180.000000 0 1 0
19.303606 9.260350 12.725717 24.906368 0.447293 1.034516 0.090358 -0.028679 -870583.000000 0 1 0
20.355706 9.445950 13.575717 26.227483 0.434472 1.026736 0.091297 -0.027197 -1445920.000000 0 0 1
19.781706 9.699350 15.028717 26.669376 0.455873 0.972156 0.064143 -0.018890 511178.000000 0 0 1
19.149106 8.614350 15.733817 26.238298 0.422735 0.927732 0.088853 -0.020916 -458245.000000 0 0 1
17.915906 8.307850 15.217417 24.931303 0.434199 0.914264 0.107098 -0.030802 -1620040.000000 0 1 0
17.406506 6.886950 15.542817 24.330962 0.376754 0.877848 0.113955 -0.028218 -735493.000000 0 1 0
16.507806 6.914150 16.568917 24.389386 0.396643 0.823921 0.132132 -0.027409 -660170.000000 0 1 0
15.955506 5.639450 16.732017 23.797941 0.339744 0.791067 0.121254 -0.021846 -96477.100000 0 1 0
14.560406 5.669750 17.441517 23.417045 0.371331 0.730529 0.108188 -0.027979 691695.000000 0 1 0
13.870706 4.441650 17.680117 22.906577 0.309901 0.689073 0.089785 -0.020503 428552.000000 0 1 0
13.329306 3.897650 16.504117 21.569607 0.284481 0.699513 0.076259 -0.023155 -753693.000000 0 1 0
13.131806 2.359750 16.653317 21.338831 0.177800 0.675454 0.068846 -0.020771 1016730.000000 0 1 0
14.368506 1.573650 16.758517 22.130934 0.109086 0.711713 0.088655 -0.019922 1331600.000000 0 1 0
14.291406 0.117950 16.782717 22.043543 0.008253 0.705413 0.085077 -0.015255 -227035.000000 0 1 0
13.422406 -0.658450 17.854217 22.346535 -0.049017 0.645215 0.078238 -0.021651 1434260.000000 0 1 0
11.991806 -0.455950 17.646417 21.340275 -0.038003 0.597212 0.065611 -0.012218 1021410.000000 0 1 0
11.411106 -1.354550 18.551117 21.821826 -0.118152 0.554588 0.076282 -0.019654 -347911.000000 0 1 0
-26.170014 14.142250 28.289477 41.050790 -0.495442 0.810504 0.114747 -0.019630 405898.000000 0 0 1
-25.141634 14.105750 29.304117 41.107241 -0.511288 0.777214 0.107529 -0.017994 659913.000000 0 0 1
-24.734094 12.806450 29.663497 40.690338 -0.477758 0.753928 0.086192 -0.009633 245746.000000 0 0 1
-23.561094 12.785750 30.690397 40.749246 -0.497193 0.717955 0.085983 -0.016505 152675.000000 0 0 1
-23.983094 13.152750 32.023011 42.114806 -0.501627 0.706907 0.087971 -0.017922 118638.000000 0 0 1
-22.955194 13.170150 32.984450 42.289097 -0.520882 0.676170 0.061927 -0.010369 -166355.000000 0 0 1
-23.525294 13.155050 -33.397226 42.917007 -0.509870 2.462562 0.049940 -0.007192 181316.000000 0 0 1
-23.998194 11.877950 -32.952736 42.460356 -0.459601 2.459226 0.051504 -0.010152 364126.000000 0 0 1
-24.891694 12.106750 -31.863006 42.206883 -0.452690 2.426335 0.040770 -0.008914 299413.000000 0 0 1
-25.767064 10.931250 -31.382886 42.051389 -0.401221 2.413280 0.030834 -0.011360 93402.600000 0 0 1
-25.074384 9.991550 -30.544536 40.761801 -0.379192 2.417864 0.028343 -0.019505 164769.000000 0 0 1
-24.447094 8.999850 -31.309086 40.729799 -0.352739 2.447606 0.025507 -0.018293 32618.100000 0 0 1
-23.450594 8.207550 -30.395786 39.258095 -0.336669 2.456334 0.024528 -0.010129 -154023.000000 0 0 1
-24.036294 7.266750 -29.513626 38.750525 -0.293588 2.436624 0.028296 -0.011477 -48217.300000 0 0 1
-23.100794 6.669350 -28.671066 37.418671 -0.281064 2.443740 0.027572 -0.002941 -409188.000000 0 0 1
-23.791694 5.851650 -27.569526 36.883130 -0.241167 2.415062 0.034744 -0.007935 -171938.000000 0 0 1
-24.450394 4.740150 -28.109796 37.555977 -0.191493 2.416559 0.049172 -0.010795 -259430.000000 0 0 1
-24.909994 3.918850 -27.084866 37.006150 -0.156041 2.391905 0.073277 -0.003765 -960381.000000 0 0 1
-25.990824 2.956950 -27.584636 38.015505 -0.113282 2.382725 0.065776 -0.006203 449410.000000 0 0 1
-27.285424 3.566750 -27.700906 39.045566 -0.129983 2.359515 0.078973 -0.009769 552026.000000 0 0 1
-27.457614 4.262050 -28.879186 40.076090 -0.153994 2.375476 0.072064 -0.009236 -1116880.000000 0 0 1
-28.777324 3.978950 -29.602196 41.475974 -0.137396 2.365590 0.091551 -0.016865 281557.000000 0 0 1
-29.945524 4.375550 -28.839496 41.804262 -0.145090 2.332105 0.090495 -0.009843 1251740.000000 0 0 1
-31.166944 4.163450 -29.560526 43.157124 -0.132799 2.325333 0.101833 -0.022571 641158.000000 0 0 1
-31.713424 5.379950 -30.268886 44.168887 -0.168043 2.325810 0.110051 -0.037537 -1050350.000000 0 0 1
-30.924184 5.652350 -31.373826 44.413637 -0.180785 2.355196 0.101996 -0.031783 -119889.000000 0 0 1
-31.146024 6.805650 -32.096686 45.239241 -0.215127 2.359567 0.108620 -0.033247 -429198.000000 0 0 1
-30.609994 8.123950 -31.445636 44.629567 -0.259421 2.352644 0.076464 -0.034643 929665.000000 0 0 1
-29.189944 8.329950 -31.287176 43.592755 -0.277982 2.371312 0.049539 -0.038002 1185570.000000 0 0 1
-28.590864 7.844750 -30.064666 42.223947 -0.267789 2.363180 0.043399 -0.042006 -217256.000000 0 0 1
-28.705244 8.706450 -28.766666 41.560972 -0.294486 2.335268 0.033779 -0.031738 -34590.900000 0 0 1
-30.020424 8.845650 -28.266926 42.172153 -0.286545 2.305375 0.038448 -0.034858 286945.000000 0 0 1
-30.494814 7.729150 -27.502706 41.786029 -0.248230 2.289194 0.042143 -0.019095 -348612.000000 0 0 1
-31.865894 7.827850 -26.823306 42.381602 -0.240880 2.256089 0.048322 -0.018428 -191684.000000 0 0 1
-31.987244 8.735450 -25.705296 41.955382 -0.266591 2.230246 0.019739 -0.012223 -119357.000000 0 0 1
-31.758364 8.134250 -24.416166 40.876752 -0.250739 2.210941 0.034493 -0.012722 35692.300000 0 0 1
-31.156664 9.069850 -23.316266 39.958080 -0.283276 2.193850 0.038604 -0.013167 29067.100000 0 0 1
-32.021094 10.040550 -22.769166 40.553644 -0.303851 2.166943 0.042143 -0.014495 -543823.000000 0 0 1
-31.397434 10.906350 -21.930266 39.820646 -0.334325 2.154030 0.041665 -0.008699 -615167.000000 0 0 1
-32.340614 11.783650 -21.085166 40.365256 -0.349411 2.120412 0.033913 -0.005751 57759.700000 0 0 1
-32.935834 11.116050 -19.949966 40.079132 -0.325501 2.091816 0.043887 -0.009638 19304.700000 0 0 1
-33.399764 11.959050 -18.970666 40.229955 -0.343835 2.061850 0.035613 -0.002078 -332042.000000 0 0 1
-32.389944 12.515850 -17.955566 39.091653 -0.368738 2.048025 0.033013 -0.000716 -368396.000000 0 0 1
-31.891244 11.635450 -16.932766 37.936179 -0.349841 2.033477 0.071106 0.003314 589474.000000 0 0 1
-32.716824 11.450650 -15.747766 38.072301 -0.336668 1.997232 0.068086 0.002682 265215.000000 0 0 1
-33.211614 12.712250 -14.966866 38.582634 -0.365561 1.969167 0.061346 0.004146 93850.500000 0 0 1
-34.160952 13.475050 -15.703366 39.939245 -0.375719 1.974885 0.033835 0.004486 334836.000000 0 0 1
-34.795202 14.476350 -14.913366 40.529980 -0.394261 1.947609 0.026310 0.009201 108928.000000 0 0 1
-35.421703 15.537550 -15.824966 41.791650 -0.413371 1.959148 0.033420 -0.000152 -82908.900000 0 0 1
-36.591714 15.092550 -16.489866 42.879532 -0.391200 1.965530 0.041910 -0.008588 247258.000000 0 0 1
37.167645 16.251750 -16.887466 43.940184 0.412205 1.965277 0.045065 -0.010401 -707257.000000 0 0 1
36.607825 16.089750 -18.298566 43.975566 0.414102 1.999957 0.050521 -0.011236 59675.900000 0 0 1
35.464755 15.288750 -18.513566 42.828108 0.407024 2.017812 0.077351 -0.016339 316156.000000 0 0 1
34.219885 15.913650 -18.257566 41.923544 0.435291 2.021386 0.115784 -0.027986 -320200.000000 0 0 1
33.070635 14.973150 -18.686466 40.829476 0.425149 2.046170 0.114391 -0.029748 -425544.000000 0 0 1
33.027635 14.758350 -20.066066 41.367627 0.420230 2.077236 0.112739 -0.026662 252397.000000 0 0 1
32.145415 13.702050 -20.422166 40.473927 0.402931 2.099687 0.071647 -0.022231 -186082.000000 0 0 1
32.550565 12.247950 -20.070266 40.154292 0.359888 2.094197 0.066374 -0.001676 -168073.000000 0 0 1
32.641605 11.958050 -18.689166 39.468396 0.351160 2.064082 0.075438 -0.000922 168525.000000 0 0 1
33.241655 10.700250 -18.504566 39.521158 0.311419 2.058071 0.067288 -0.001940 -242939.000000 0 0 1
33.410975 10.448150 -17.013466 38.921911 0.303082 2.023188 0.053108 0.003684 -160868.000000 0 0 1
32.215005 10.060750 -16.378266 37.513636 0.302703 2.022607 0.059736 -0.002118 101720.000000 0 0 1
32.438895 9.779550 -15.005466 37.055169 0.292810 1.987720 0.036872 0.000592 -76429.800000 0 0 1
31.900235 10.845550 -14.027766 36.496975 0.327724 1.965305 0.066110 -0.006941 -529896.000000 0 0 1
30.509685 10.995250 -14.000966 35.323696 0.345897 1.978347 0.061216 -0.002895 -199687.000000 0 0 1
30.132315 11.985350 -13.035866 34.950520 0.378572 1.953016 0.069149 -0.008455 -193758.000000 0 0 1
28.612365 12.093350 -12.883966 33.629052 0.399888 1.963968 0.088314 -0.006962 -459624.000000 0 0 1
27.897165 10.990150 -12.370466 32.435531 0.375282 1.962092 0.074443 -0.009746 1090160.000000 0 0 1
26.496565 11.013950 -12.725166 31.389567 0.393946 1.988207 0.082905 -0.002723 929328.000000 0 0 1
26.112465 10.366450 -14.062466 31.417783 0.377911 2.034871 0.072517 -0.009085 -860722.000000 0 0 1
26.268865 8.970450 -14.129666 31.147548 0.329070 2.041638 0.063615 -0.004491 1125800.000000 0 0 1
27.537265 8.573050 -14.687466 32.365411 0.301814 2.041823 0.066671 -0.003717 400410.000000 0 0 1
28.297565 7.513350 -13.898166 32.409283 0.259524 2.013997 0.064703 -0.004922 -436853.000000 0 0 1
27.828365 6.153750 -13.976066 31.742983 0.217630 2.026716 0.056958 -0.010804 1436600.000000 0 0 1
26.687265 5.842550 -13.113666 30.303692 0.215526 2.018328 0.079322 -0.008763 624143.000000 0 0 1
26.412465 4.313550 -13.071666 29.784115 0.161886 2.025149 0.085936 -0.006997 -159081.000000 0 0 1
25.585465 3.914450 -12.002866 28.530821 0.151818 2.005011 0.103855 -0.002211 393663.000000 0 0 1
25.159265 2.559250 -12.122466 28.044475 0.101373 2.017792 0.102458 -0.010309 -30684.600000 0 0 1
24.459365 1.991050 -10.876866 26.842709 0.081223 1.988002 0.119399 -0.013278 -304898.000000 0 0 1
25.325865 1.940350 -9.764966 27.212478 0.076466 1.937823 0.128596 -0.004621 398640.000000 0 0 1
24.967065 0.986550 -8.744766 26.472600 0.039494 1.907452 0.156955 -0.000614 -391814.000000 0 0 1
26.169865 0.579750 -7.876066 27.335515 0.022150 1.863065 0.204125 0.002699 -150394.000000 0 0 1
25.894665 -0.568850 -7.071666 26.848943 -0.021964 1.837328 0.154353 -0.013318 415391.000000 0 0 1
26.107365 -1.811050 -7.795666 27.306535 -0.069258 1.860311 0.131755 -0.020215 -380866.000000 0 0 1
26.578265 -3.018150 -6.955166 27.638519 -0.113073 1.825179 0.127429 -0.024853 851974.000000 0 0 1
27.930665 -2.819750 -6.467266 28.807960 -0.100614 1.797222 0.124561 -0.029145 1253450.000000 0 0 1
28.189565 -3.884550 -5.582066 28.998289 -0.136939 1.764502 0.110165 -0.040015 18791.700000 0 0 1
29.682335 -3.965350 -5.164666 30.388136 -0.132807 1.741582 0.146870 -0.040674 60199.500000 0 0 1
30.537245 -4.308050 -6.234066 31.463411 -0.140150 1.770253 0.108140 -0.032332 654261.000000 0 0 1
31.802345 -4.757450 -5.729666 32.662694 -0.148493 1.747128 0.104626 -0.022568 315828.000000 0 0 1
32.745515 -5.094450 -6.914966 33.853197 -0.154340 1.776507 0.105718 -0.034896 -125075.000000 0 0 1
32.370415 -6.313850 -7.558966 33.835580 -0.192631 1.796101 0.106505 -0.048943 -26738.800000 0 0 1
32.731775 -6.221350 -8.885066 34.482150 -0.187830 1.831408 0.110749 -0.035793 -1288820.000000 0 0 1
31.757545 -6.920450 -9.877366 33.970526 -0.214561 1.865820 0.093874 -0.034427 1216570.000000 0 0 1
30.543225 -6.131750 -10.084766 32.744304 -0.198123 1.883871 0.100176 -0.048272 1516390.000000 0 0 1
29.629235 -6.311450 -8.989766 31.599713 -0.209877 1.859270 0.115971 -0.050393 -1123480.000000 0 0 1
28.309465 -5.519850 -9.185266 30.269848 -0.192566 1.879103 0.118421 -0.040120 8653.130000 0 0 1
27.481965 -6.129050 -10.236966 29.960293 -0.219430 1.919505 0.098597 -0.043172 1097120.000000 0 0 1
26.272165 -5.367650 -10.298466 28.724497 -0.201536 1.937484 0.090088 -0.039096 133956.000000 0 0 1
25.062665 -6.080750 -9.674866 27.544795 -0.238023 1.929693 0.119697 -0.033892 -881527.000000 0 0 1
25.151865 -6.137150 -8.229666 27.166309 -0.239327 1.878569 0.116701 -0.044468 795570.000000 0 0 1
24.011865 -6.818850 -7.690966 26.119291 -0.276694 1.869682 0.117515 -0.047127 -156569.000000 0 0 1
23.013965 -5.776350 -7.145066 24.780250 -0.245913 1.863286 0.141419 -0.034047 -671981.000000 0 1 0
22.319565 -5.127750 -8.167966 24.314039 -0.225824 1.913395 0.132797 -0.038089 407694.000000 0 1 0
21.833065 -3.848850 -7.828566 23.511334 -0.174493 1.910248 0.117504 -0.032677 -305115.000000 0 1 0
21.836965 -2.954350 -9.091366 23.837663 -0.134475 1.962092 0.124170 -0.023379 326747.000000 0 1 0
23.136065 -2.778950 -9.664166 25.226894 -0.119541 1.963935 0.114469 -0.023380 1112490.000000 0 0 1
23.057865 -2.339750 -11.007766 25.657562 -0.101127 2.014211 0.123010 -0.017180 -99283.400000 0 0 1
24.437865 -2.399050 -11.704866 27.202364 -0.097856 2.015609 0.109456 -0.031386 -393134.000000 0 0 1
25.306165 -1.389850 -11.313766 27.754909 -0.054866 1.990655 0.097460 -0.025418 290545.000000 0 0 1
26.611165 -1.660450 -11.810966 29.161792 -0.062316 1.987792 0.079927 -0.023189 90402.000000 0 0 1
27.603965 -0.544350 -11.437466 29.884625 -0.019717 1.963536 0.073033 -0.016441 -435726.000000 0 0 1
28.967865 -0.785750 -11.682866 31.244903 -0.027118 1.954020 0.069044 -0.023242 800528.000000 0 0 1
29.866215 0.352350 -11.514866 32.011047 0.011797 1.938759 0.076991 -0.017971 487036.000000 0 0 1
29.755175 1.643350 -12.418766 32.284622 0.055173 1.965641 0.071943 -0.013294 -281341.000000 0 0 1
30.208185 1.345950 -13.768966 33.225449 0.044526 1.998091 0.058523 -0.018087 594398.000000 0 0 1
30.127345 2.593650 -14.457566 33.517237 0.085878 2.016782 0.049853 -0.016133 -150130.000000 0 0 1
30.460315 2.446850 -15.980266 34.484588 0.080157 2.052628 0.055958 -0.013457 8558.070000 0 0 1
29.536665 1.754650 -16.832566 34.041573 0.059336 2.088022 0.040602 -0.006672 285615.000000 0 0 1
30.066205 1.442050 -18.103866 35.125577 0.047926 2.112275 0.031880 -0.011015 -1253760.000000 0 0 1
28.994365 0.756450 -18.934366 34.637489 0.026084 2.149147 0.023223 -0.007337 -296521.000000 0 0 1
28.736365 -0.613350 -18.671166 34.274879 -0.021341 2.146885 0.039702 -0.011672 180100.000000 0 0 1
28.230465 -1.223350 -19.855066 34.535191 -0.043307 2.183306 0.026464 -0.012174 -86631.200000 0 0 1
28.238465 -2.763650 -19.788966 34.592656 -0.097558 2.179808 0.040530 -0.018100 1180200.000000 0 0 1
27.017065 -3.281350 -19.158466 33.282666 -0.120863 2.184169 0.035849 -0.017441 1435800.000000 0 0 1
26.832565 -4.698150 -19.197166 33.325521 -0.173334 2.184684 0.046759 -0.020812 -242868.000000 0 0 1
27.608565 -5.543650 -18.158166 33.506476 -0.198159 2.143528 0.055177 -0.021094 230461.000000 0 0 1
29.018065 -5.515650 -18.273066 34.732916 -0.187836 2.124807 0.060610 -0.019893 -350952.000000 0 0 1
29.634385 -5.485250 -17.073566 34.638005 -0.183026 2.086232 0.060438 -0.021730 -313872.000000 0 0 1
31.152615 -5.191250 -17.190866 35.957758 -0.165122 2.069269 0.076598 -0.015821 166494.000000 0 0 1
31.788615 -6.301350 -17.817466 36.982228 -0.195690 2.073486 0.063886 -0.011093 555023.000000 0 0 1
33.133645 -5.987950 -18.197566 38.273299 -0.178791 2.066287 0.073535 -0.004559 905888.000000 0 0 1
33.894045 -7.134650 -18.956966 39.485137 -0.207470 2.071569 0.069085 0.011207 197494.000000 0 0 1
34.051485 -8.209250 -18.101666 39.427982 -0.236569 2.047786 0.063858 -0.004674 119260.000000 0 0 1
34.791695 -9.237250 -18.749866 40.587514 -0.259514 2.051002 0.054969 0.005462 -221352.000000 0 0 1
35.581295 -10.135150 -17.830566 41.069197 -0.277496 2.019901 0.065779 -0.002510 -1232230.000000 0 0 1
34.779585 -10.828850 -16.947566 40.175907 -0.301843 2.006264 0.038255 -0.002719 -285397.000000 0 0 1
35.422265 -11.568450 -15.908966 40.517417 -0.315667 1.974302 0.055301 -0.024819 -802323.000000 0 0 1
36.324135 -10.801150 -14.953466 40.739585 -0.289028 1.946632 0.092264 -0.021976 -413557.000000 0 0 1
36.973675 -11.495350 -13.866066 41.127406 -0.301432 1.914683 0.081371 -0.019908 745387.000000 0 0 1
-36.737684 -12.692250 -14.094066 41.344810 0.332645 1.918661 0.071154 -0.013775 -244935.000000 0 0 1
-35.375177 -12.492550 -14.796966 40.328862 0.339473 1.946479 0.111587 -0.024285 -520068.000000 0 0 1
-35.390385 -12.054850 -16.129566 40.718075 0.328299 1.978092 0.115835 -0.020615 -139790.000000 0 0 1
-34.095167 -12.142750 -16.686466 39.854296 0.342137 2.002795 0.152885 -0.022214 -7488.050000 0 0 1
-33.950434 -11.427550 -18.023766 40.100835 0.324683 2.036958 0.177099 -0.021120 217644.000000 0 0 1
-33.902994 -10.013250 -18.050166 39.692400 0.287185 2.042889 0.159883 -0.017240 -745734.000000 0 0 1
-35.183506 -9.506150 -17.960766 40.630470 0.263887 2.028681 0.127218 -0.013038 -1108390.000000 0 0 1
-35.212973 -7.955350 -17.969366 40.325416 0.222191 2.032651 0.152976 -0.010925 -550142.000000 0 0 1
-36.487014 -7.387650 -17.925066 41.318126 0.199773 2.019536 0.135598 -0.003978 -269510.000000 0 0 1
-36.435254 -6.010850 -17.867066 41.023043 0.163501 2.021431 0.129356 -0.009217 -324349.000000 0 0 1
25.264606 27.964450 -27.283496 46.526336 0.836076 2.197416 0.051250 0.009540 -176108.000000 0 0 1
25.546706 26.930850 -26.423066 45.564057 0.811768 2.189415 0.040142 0.009355 41527.200000 0 0 1
26.863506 26.473450 -26.677566 46.197230 0.778085 2.186424 0.041957 0.007418 -38839.000000 0 0 1
27.299106 25.357650 -25.670236 45.246134 0.748545 2.174076 0.037741 0.005136 -368528.000000 0 0 1
27.568206 25.914450 -24.382466 45.011880 0.754487 2.143242 0.038554 0.002722 302930.000000 0 0 1
27.721006 24.884950 -23.426366 44.005790 0.731539 2.132167 0.047691 -0.002814 -318158.000000 0 0 1
28.428206 25.347150 -22.152166 44.060860 0.728166 2.097588 0.053397 0.000143 -192254.000000 0 0 1
27.697606 26.217950 -21.328966 43.697404 0.757961 2.080715 0.044303 -0.002025 -165381.000000 0 0 1
28.399406 26.576950 -20.181466 43.819540 0.752260 2.049421 0.025635 0.005138 -158199.000000 0 0 1
27.629006 27.623450 -19.339566 43.593988 0.785298 2.030440 0.034344 0.002973 -611823.000000 0 0 1
26.591706 27.073250 -18.602666 42.262736 0.794371 2.026581 0.047982 -0.001258 -483153.000000 0 0 1
25.733706 28.146150 -18.285666 42.294148 0.830143 2.017888 0.044913 -0.013397 63226.400000 0 0 1
24.603506 27.927250 -17.231766 41.014602 0.848586 2.004393 0.052118 -0.015522 -71121.700000 0 0 1
23.697806 27.039650 -17.796266 40.117774 0.851169 2.030408 0.061022 -0.015385 -968027.000000 0 0 1
22.587106 26.883850 -16.965266 38.996654 0.872035 2.020884 0.039937 -0.002949 -592634.000000 0 0 1
21.538606 25.933350 -17.511266 37.988085 0.877711 2.049881 0.042618 -0.013714 -396324.000000 0 0 1
20.920306 26.425150 -18.683866 38.536147 0.901148 2.076977 0.045188 -0.015882 -427741.000000 0 0 1
20.153906 25.378150 -19.231266 37.683843 0.899636 2.106367 0.045465 -0.009568 -3057.150000 0 0 1
19.565306 25.781450 -20.613166 38.371695 0.921629 2.137907 0.043181 -0.003449 305933.000000 0 0 1
18.602106 26.805250 -20.386966 38.473214 0.964127 2.129279 0.033883 -0.001349 -616216.000000 0 0 1
17.535306 26.590850 -21.274466 38.303566 0.987807 2.159661 0.035003 -0.004802 -789861.000000 0 0 1
16.432306 27.596550 -21.031466 38.391572 1.033731 2.150546 0.035060 -0.006574 -563827.000000 0 0 1
15.778806 27.393050 -19.792966 37.297606 1.048200 2.130195 0.043869 -0.005159 86311.400000 0 0 1
14.632806 28.231050 -19.688066 37.399614 1.092598 2.125186 0.023972 -0.009077 652149.000000 0 0 1
13.976106 28.268650 -18.260566 36.440313 1.111636 2.095676 0.019991 -0.007286 -56972.400000 0 0 1
13.390706 27.030750 -17.905466 35.079598 1.110845 2.106474 0.029019 -0.006651 -149519.000000 0 0 1
12.668406 27.111150 -16.686866 34.263019 1.133668 2.079474 0.039383 -0.008908 35622.700000 0 0 1
11.748606 25.918850 -16.393566 32.841522 1.145215 2.093439 0.059968 -0.013587 20710.400000 0 0 1
12.560206 24.812450 -16.056366 32.112666 1.102196 2.094396 0.058943 -0.014371 249131.000000 0 0 1
11.804006 23.614450 -16.099366 30.921940 1.107258 2.118403 0.070634 -0.012146 456014.000000 0 0 1
12.786006 22.420550 -15.937966 30.334498 1.052516 2.123990 0.077127 -0.015640 143207.000000 0 0 1
13.591106 22.349250 -17.057866 31.227839 1.024425 2.148664 0.078515 -0.011231 -955072.000000 0 0 1
14.452606 21.266250 -17.224066 30.948339 0.973891 2.161015 0.081633 -0.007690 -96373.800000 0 0 1
13.751006 19.899550 -17.477366 29.841927 0.966122 2.196496 0.091804 -0.017037 -85526.100000 0 0 1
13.040406 19.331550 -16.423166 28.521595 0.977345 2.184397 0.102614 -0.027157 -382296.000000 0 0 1
12.600906 18.038150 -16.742066 27.648770 0.961031 2.221224 0.087967 -0.026283 -491563.000000 0 0 1
13.649806 16.938950 -16.805366 27.489372 0.892514 2.228550 0.099314 -0.027342 -541431.000000 0 0 1
14.095506 16.591750 -15.549366 26.753546 0.866564 2.191008 0.091971 -0.024431 533760.000000 0 0 1
15.289706 15.793550 -15.650866 26.984457 0.801606 2.189520 0.108780 -0.026795 507693.000000 0 0 1
15.845106 15.258150 -14.259066 26.214490 0.766529 2.145920 0.149184 -0.025581 -410014.000000 0 0 1
16.566106 16.055250 -13.289166 26.623464 0.769739 2.093417 0.130847 -0.028474 658285.000000 0 0 1
17.841206 16.559550 -13.605866 27.886321 0.748159 2.080484 0.105527 -0.025093 42514.900000 0 0 1
18.937506 15.594150 -14.199266 28.344767 0.688879 2.095491 0.097823 -0.028360 -774200.000000 0 0 1
19.400806 14.560250 -13.399866 27.711885 0.643819 2.075493 0.124976 -0.032205 536440.000000 0 0 1
20.457006 15.072450 -12.568866 28.348620 0.634991 2.030149 0.118512 -0.025679 -277547.000000 0 0 1
21.320906 13.955750 -11.994366 28.163963 0.579572 2.010727 0.136902 -0.032246 -341640.000000 0 0 1
20.563006 13.203750 -11.025166 26.809150 0.570810 1.994617 0.197126 -0.031057 580688.000000 0 0 1
21.142006 12.023150 -10.510266 26.495400 0.517076 1.978696 0.200204 -0.014510 -453981.000000 0 0 1
21.155706 10.784850 -11.504566 26.386207 0.471445 2.021953 0.160159 -0.013745 -260631.000000 0 0 1
22.242806 10.882250 -12.438766 27.710804 0.455009 2.036305 0.130498 -0.000493 882149.000000 0 0 1
22.504606 9.783850 -13.319066 27.920934 0.410099 2.068066 0.111163 0.004868 -121601.000000 0 0 1
22.935106 8.426450 -12.670466 27.523896 0.352095 2.049179 0.120916 0.012447 -761701.000000 0 0 1
21.898106 7.938750 -11.896866 26.155042 0.347795 2.043011 0.121733 -0.000352 1374.700000 0 0 1
22.367306 7.081350 -10.918066 25.877520 0.306610 2.006351 0.124914 0.021083 -692949.000000 0 0 1
22.509606 5.560950 -11.362566 25.820814 0.242198 2.026456 0.139206 0.006152 85494.900000 0 0 1
21.327706 4.840250 -11.649766 24.779348 0.223166 2.060246 0.130056 -0.007719 809927.000000 0 1 0
20.437206 5.291350 -12.672266 24.622431 0.253345 2.111411 0.073622 -0.013719 63416.500000 0 1 0
19.496706 4.176250 -13.166366 23.893844 0.211014 2.154401 0.075905 -0.025193 76874.000000 0 1 0
20.251506 3.178550 -13.845366 24.737034 0.155684 2.164822 0.096237 -0.028654 551422.000000 0 1 0
19.638706 1.924350 -13.745066 24.048050 0.097676 2.179210 0.107110 -0.025182 -207112.000000 0 1 0
20.513606 0.866250 -14.429366 25.095119 0.042203 2.183384 0.118083 -0.017713 466014.000000 0 0 1
21.766806 0.623250 -13.774466 25.766610 0.028625 2.134814 0.144205 -0.014433 1140130.000000 0 0 1
22.816906 0.178850 -14.638866 27.109769 0.007838 2.141215 0.093856 -0.024224 93825.200000 0 0 1
22.907706 -1.283550 -15.125366 27.480669 -0.055973 2.153640 0.085266 -0.020359 -1081590.000000 0 0 1
21.930106 -1.631350 -16.031566 27.214003 -0.074252 2.200732 0.086450 -0.018430 -260660.000000 0 0 1
22.378106 -2.670550 -16.803266 28.111585 -0.118776 2.211469 0.071894 -0.020396 -825772.000000 0 0 1
21.240906 -3.153650 -17.658066 27.801598 -0.147394 2.258993 0.080599 -0.022565 -1101230.000000 0 0 1
20.502006 -4.064250 -16.936766 26.901755 -0.195699 2.251807 0.096761 -0.019249 -319009.000000 0 0 1
19.730406 -4.827250 -17.842966 27.036322 -0.239947 2.291566 0.083547 -0.013784 223302.000000 0 0 1
18.995706 -6.043050 -17.144566 26.292422 -0.308003 2.281111 0.084635 -0.015586 160735.000000 0 0 1
19.945206 -6.943050 -16.646166 26.890742 -0.334987 2.238303 0.084779 -0.018071 263388.000000 0 0 1
19.298506 -8.036950 -16.034166 26.346145 -0.394610 2.225087 0.096732 -0.013863 121759.000000 0 0 1
20.286606 -9.069750 -15.423366 27.049713 -0.420424 2.177528 0.125847 -0.011923 113330.000000 0 0 1
20.914406 -9.904650 -16.386166 28.355262 -0.442289 2.186935 0.101888 -0.019831 451439.000000 0 0 1
21.799506 -10.795550 -15.723766 28.965482 -0.459816 2.144617 0.084533 -0.031291 -355359.000000 0 0 1
22.562906 -11.749250 -16.627966 30.391098 -0.480096 2.149731 0.065988 -0.028599 -335580.000000 0 0 1
23.554306 -11.167750 -17.437166 31.362058 -0.442736 2.160357 0.052453 -0.020993 -149319.000000 0 0 1
23.899206 -11.868550 -18.604366 32.529324 -0.460931 2.179648 0.044059 -0.019563 -451069.000000 0 0 1
23.021006 -11.717650 -19.895566 32.605269 -0.470820 2.227103 0.055315 -0.021662 909929.000000 0 0 1
21.695606 -12.259150 -19.792766 31.823571 -0.514326 2.242031 0.063795 -0.035438 497129.000000 0 0 1
21.535006 -13.654050 -19.729866 32.240613 -0.565073 2.229329 0.057157 -0.023591 -696630.000000 0 0 1
20.080506 -14.113750 -19.599366 31.409549 -0.612642 2.244640 0.065793 -0.030033 219633.000000 0 0 1
19.236506 -13.639650 -20.647466 31.343278 -0.616774 2.289956 0.067654 -0.022255 619911.000000 0 0 1
17.831306 -13.881550 -20.485566 30.501005 -0.661489 2.307211 0.084885 -0.023943 719194.000000 0 0 1
17.107906 -13.325050 -21.719866 30.691855 -0.661731 2.356999 0.081306 -0.024417 -337639.000000 0 0 1
17.215706 -14.087450 -22.865166 31.900667 -0.685795 2.369943 0.074350 -0.023103 585681.000000 0 0 1
16.435406 -13.413850 -23.876266 31.939474 -0.684515 2.415158 0.089796 -0.032544 252856.000000 0 0 1
16.327106 -14.080150 -25.271696 33.218724 -0.711637 2.435290 0.084225 -0.036538 177883.000000 0 0 1
15.353006 -15.133150 -25.392716 33.309413 -0.778187 2.437700 0.087963 -0.031568 519483.000000 0 0 1
15.346506 -15.724150 -26.734666 34.605007 -0.797552 2.453670 0.096064 -0.030884 -1026.260000 0 0 1
16.375006 -16.880650 -26.877726 35.714273 -0.800602 2.422762 0.088210 -0.027166 248308.000000 0 0 1
17.729606 -16.465250 -26.769716 36.084083 -0.748440 2.406652 0.084533 -0.024378 -147034.000000 0 0 1
18.497606 -17.591650 -27.113636 37.239452 -0.760300 2.386326 0.090853 -0.024720 233777.000000 0 0 1
20.031606 -17.369350 -27.219586 37.998229 -0.714337 2.369337 0.066307 -0.015174 550193.000000 0 0 1
20.588206 -17.034750 -25.933576 37.237176 -0.691228 2.341225 0.061784 -0.017138 -1104260.000000 0 0 1
21.960406 -16.875850 -25.975046 37.970472 -0.655216 2.324145 0.058616 -0.011263 -962504.000000 0 0 1
22.496306 -16.499550 -24.551066 37.162801 -0.632814 2.292461 0.060132 -0.005682 119324.000000 0 0 1
22.339706 -15.136750 -24.069366 36.159619 -0.595514 2.299150 0.060501 -0.018620 100581.000000 0 0 1
20.977606 -14.755550 -23.897366 35.055246 -0.613001 2.320888 0.079837 -0.022436 466316.000000 0 0 1
20.883006 -13.365750 -23.247466 33.988055 -0.569334 2.324014 0.081132 -0.018489 -64696.100000 0 0 1
21.266306 -12.349250 -24.117666 34.444470 -0.526104 2.346460 0.092667 -0.026151 42355.400000 0 0 1
21.352906 -11.153050 -23.325966 33.532638 -0.481344 2.340079 0.089418 -0.029311 -81939.000000 0 0 1
21.605006 -9.923850 -24.170466 33.903842 -0.430586 2.364439 0.097021 -0.030220 -322304.000000 0 0 1
21.115806 -8.785350 -23.559566 32.834628 -0.394270 2.371034 0.107263 -0.034993 -50382.000000 0 0 1
20.869906 -7.868950 -24.601366 33.206935 -0.360565 2.405132 0.087066 -0.031854 -323662.000000 0 0 1
20.335406 -6.523150 -24.035566 32.152584 -0.310408 2.415157 0.083116 -0.034527 1335180.000000 0 0 1
18.974006 -6.766950 -23.553166 30.992840 -0.342581 2.434040 0.088611 -0.033370 1200420.000000 0 0 1
18.500606 -5.794150 -22.666766 29.826613 -0.303511 2.434034 0.085244 -0.024556 -40223.600000 0 0 1
19.036806 -5.891850 -21.212966 29.105047 -0.300147 2.387425 0.085665 -0.026625 -253640.000000 0 0 1
18.637906 -6.988850 -20.387566 28.493304 -0.358753 2.368166 0.087292 -0.032147 90401.400000 0 0 1
19.022406 -8.296050 -20.789266 29.374648 -0.411251 2.357074 0.087137 -0.033536 -245703.000000 0 0 1
18.898806 -9.396650 -19.719066 28.884311 -0.461412 2.322236 0.086550 -0.033361 -452490.000000 0 0 1
17.558806 -9.654150 -19.423066 27.906446 -0.502704 2.340617 0.092713 -0.027661 -763862.000000 0 0 1
17.382906 -10.777050 -18.566666 27.623021 -0.554981 2.307898 0.101963 -0.030174 -1129920.000000 0 0 1
15.904706 -11.057050 -18.562466 26.828775 -0.607501 2.334895 0.123381 -0.036230 -1081370.000000 0 0 1
15.059506 -10.194150 -17.854266 25.484980 -0.595071 2.347006 0.122214 -0.025410 206861.000000 0 0 1
14.719506 -8.954450 -18.526166 25.299503 -0.546529 2.392451 0.121623 -0.023400 -730325.000000 0 0 1
13.849606 -8.003450 -17.699366 23.856537 -0.523998 2.406708 0.135785 -0.005564 474420.000000 0 1 0
12.495606 -7.952050 -18.156366 23.431365 -0.566746 2.457313 0.114041 -0.020221 329905.000000 0 1 0
11.847506 -6.853050 -17.575866 22.276417 -0.524414 2.479959 0.108738 -0.018565 786017.000000 0 1 0
10.279206 -6.776450 -17.701066 21.561773 -0.582842 2.533863 0.097284 -0.022048 978878.000000 0 1 0
9.844906 -6.600350 -19.011466 22.403630 -0.590606 2.584108 0.088791 -0.030152 -66150.100000 0 1 0
8.435106 -6.469850 -19.025166 21.793735 -0.654302 2.632044 0.078910 -0.044178 169640.000000 0 1 0
7.860206 -5.922150 -20.355366 22.609635 -0.645696 2.691246 0.086834 -0.055509 90643.500000 0 1 0
7.773506 -6.906050 -21.387466 23.781182 -0.726374 2.689063 0.082465 -0.048188 104208.000000 0 1 0
6.935506 -6.500650 -22.458666 24.387525 -0.753045 2.741200 0.091412 -0.049932 164100.000000 0 1 0
6.921506 -7.518250 -23.600366 25.717865 -0.826701 2.732958 0.088057 -0.037103 -103649.000000 0 0 1
6.146206 -8.659150 -23.351966 25.652895 -0.953528 2.714817 0.083827 -0.032881 -145178.000000 0 0 1
6.133106 -9.537750 -24.472266 26.971753 -0.999333 2.707684 0.078498 -0.018178 -61737.200000 0 0 1
5.378306 -10.858050 -24.349266 27.197613 -1.110893 2.679838 0.068240 -0.021224 -80502.500000 0 0 1
5.994406 -11.697950 -23.456766 26.888562 -1.097252 2.630825 0.065713 -0.027236 -10542.200000 0 0 1
5.170506 -12.853250 -23.412566 27.204566 -1.188333 2.607266 0.061352 -0.023562 -538784.000000 0 0 1
5.794806 -14.029050 -22.661266 27.275025 -1.179084 2.551417 0.076796 -0.023350 -94172.300000 0 0 1
6.882506 -14.772550 -23.279766 28.417329 -1.134800 2.530829 0.077109 -0.020850 966475.000000 0 0 1
8.113006 -14.046650 -23.359566 28.439384 -1.047028 2.534624 0.083235 -0.023543 21874.300000 0 0 1
8.793006 -13.616650 -22.050966 27.367411 -0.997412 2.507717 0.081336 -0.017522 -1021230.000000 0 0 1
9.404206 -14.722750 -21.337066 27.576599 -1.002368 2.455517 0.080825 -0.014874 295640.000000 0 0 1
8.515606 -15.496350 -20.526166 27.091989 -1.068319 2.430497 0.087633 -0.011930 -81031.600000 0 0 1
8.956106 -15.764050 -19.084966 26.324001 -1.054137 2.381834 0.093805 -0.015567 203653.000000 0 0 1
9.989806 -16.738250 -19.110466 27.297896 -1.032715 2.346293 0.100900 -0.018555 -427261.000000 0 0 1
10.506406 -17.105250 -17.836366 26.853493 -1.019986 2.297233 0.104582 -0.014537 -293814.000000 0 0 1
9.656406 -17.775050 -16.691566 26.226074 -1.073145 2.260682 0.091770 -0.014923 -265944.000000 0 0 1
9.391406 -19.119750 -16.876666 27.176924 -1.114223 2.240805 0.091243 -0.018351 430021.000000 0 0 1
8.543306 -19.566850 -17.948766 27.892792 -1.159124 2.269847 0.102308 -0.012917 1869340.000000 0 0 1
6.948206 -19.444650 -17.795466 27.258954 -1.227604 2.282111 0.101108 -0.009533 1718610.000000 0 0 1
6.510706 -18.093250 -17.713966 26.144589 -1.225381 2.315207 0.105208 -0.007353 -424881.000000 0 0 1
5.151806 -17.948050 -17.400566 25.523583 -1.291272 2.320941 0.092017 -0.007115 -179638.000000 0 0 1
4.724106 -16.500050 -17.142666 24.257778 -1.291947 2.355602 0.065151 0.006845 -126567.000000 0 1 0
5.406706 -15.863650 -16.116366 23.251346 -1.242320 2.336628 0.053563 0.003695 -11774.400000 0 1 0
5.197906 -14.468950 -16.262466 22.379377 -1.225909 2.384261 0.037071 0.014786 36813.800000 0 1 0
10.622406 29.535550 -18.171566 36.268306 1.225552 2.095587 0.053720 -0.032785 -200175.000000 0 0 1
9.732206 29.151450 -19.239466 36.258515 1.248581 2.130127 0.081079 -0.041813 -89838.200000 0 0 1
8.617006 28.546850 -18.638466 35.164867 1.277639 2.129433 0.068979 -0.038387 -715088.000000 0 0 1
7.543206 28.174550 -19.620566 35.152124 1.309200 2.162965 0.088634 -0.034359 -457758.000000 0 0 1
6.800406 29.249950 -20.162466 36.170846 1.342362 2.162075 0.085977 -0.033404 14506.200000 0 0 1
5.888106 28.792650 -21.139866 36.201939 1.369077 2.194374 0.094289 -0.039663 903990.000000 0 0 1
4.703206 29.769950 -21.576566 37.066404 1.414106 2.192112 0.079934 -0.038941 586795.000000 0 0 1
3.650906 29.752950 -20.646066 36.398176 1.448699 2.173932 0.087973 -0.041704 -210341.000000 0 0 1
2.687506 30.736150 -20.933666 37.284742 1.483580 2.166938 0.091894 -0.050801 -259658.000000 0 0 1
1.286506 30.584950 -20.244366 36.700526 1.528758 2.155089 0.107211 -0.047662 528553.000000 0 0 1
0.568806 29.367150 -20.490666 35.813691 1.551430 2.179917 0.119065 -0.056810 107866.000000 0 0 1
0.147306 29.266950 -21.851666 36.524942 1.565763 2.212133 0.148519 -0.074949 -815042.000000 0 0 1
-0.536194 27.914950 -22.202066 35.671609 -1.551591 2.242604 0.139113 -0.066395 699828.000000 0 0 1
-1.784894 27.721350 -21.528766 35.144656 -1.506498 2.230112 0.154078 -0.067170 433665.000000 0 0 1
-2.196294 26.373050 -21.638066 34.184315 -1.487710 2.256196 0.164065 -0.069916 -228831.000000 0 0 1
-3.417394 26.108950 -20.758366 33.530070 -1.440646 2.238389 0.152000 -0.071510 185138.000000 0 0 1
-4.666294 26.633550 -21.240966 34.384574 -1.397353 2.236671 0.149912 -0.068984 558773.000000 0 0 1
-5.686894 26.066950 -20.448466 33.614973 -1.355997 2.224731 0.128860 -0.070053 -345973.000000 0 0 1
-7.087694 26.622950 -20.744466 34.486950 -1.310606 2.216194 0.125601 -0.074013 12168.700000 0 0 1
-8.138994 26.125350 -19.939566 33.857989 -1.268790 2.200515 0.116222 -0.060552 -2181.760000 0 0 1
-8.536294 26.949050 -18.848766 33.976398 -1.264038 2.158871 0.115756 -0.072995 -621984.000000 0 0 1
-9.705994 26.362350 -18.111266 33.424509 -1.218021 2.143440 0.137837 -0.058293 -525160.000000 0 0 1
-9.351894 25.344550 -17.172766 32.011061 -1.217305 2.137037 0.134852 -0.063545 -348280.000000 0 0 1
-10.519694 24.867950 -16.539466 31.664378 -1.170602 2.120385 0.115425 -0.047356 -92152.000000 0 0 1
-10.374194 24.150950 -15.194066 30.360368 -1.165073 2.094923 0.094574 -0.029366 -334723.000000 0 0 1
-9.659494 22.957350 -15.277166 29.218787 -1.172524 2.120992 0.103316 -0.030796 -293053.000000 0 0 1
-9.716294 22.277150 -14.050566 28.073051 -1.159515 2.094973 0.102441 -0.030038 -274668.000000 0 0 1
-9.247394 20.825650 -14.105966 26.799259 -1.152911 2.125106 0.106289 -0.018046 -21723.900000 0 0 1
-10.172994 19.850750 -14.543666 26.628186 -1.097219 2.148588 0.095298 -0.013657 -47155.200000 0 0 1
-10.715994 19.848050 -15.890666 27.591500 -1.075739 2.184533 0.113251 -0.006426 392600.000000 0 0 1
-9.695894 19.630750 -17.042166 27.745488 -1.112030 2.232209 0.117803 -0.020589 68786.300000 0 0 1
-9.023894 18.380950 -17.022866 26.628330 -1.114425 2.264353 0.101217 -0.017664 -368136.000000 0 0 1
-8.271294 18.306150 -18.200766 27.107145 -1.146420 2.306944 0.108590 -0.026472 -339815.000000 0 0 1
-7.484894 16.994850 -18.343166 26.102113 -1.155937 2.350047 0.093764 -0.026461 -79841.400000 0 0 1
-8.218194 15.782750 -18.612066 25.749619 -1.090720 2.378655 0.085060 -0.032231 -351946.000000 0 0 1
-7.807594 14.889650 -19.671166 25.876920 -1.087848 2.434389 0.088520 -0.035408 -732766.000000 0 0 1
-6.476194 14.179350 -19.617866 25.057049 -1.142356 2.470155 0.062226 -0.033958 -663048.000000 0 0 1
-6.469694 13.184650 -18.572166 23.677358 -1.114617 2.472500 0.038263 -0.031249 -33392.000000 0 1 0
-5.140194 12.827150 -18.279266 22.914819 -1.189663 2.494276 0.038568 -0.020298 111474.000000 0 1 0
-4.403994 13.587450 -17.188866 22.348849 -1.257359 2.448254 0.012638 -0.001976 -182914.000000 0 1 0
-3.727594 14.826450 -17.395966 23.158977 -1.324486 2.420605 0.020378 -0.017810 -278811.000000 0 1 0
-3.177594 15.261750 -16.187766 22.473582 -1.365523 2.375034 0.010054 -0.009153 34647.800000 0 1 0
-2.377994 16.584750 -16.294466 23.371316 -1.428383 2.342280 0.036436 -0.013930 552439.000000 0 1 0
-3.248394 17.615650 -16.763966 24.533523 -1.388441 2.323081 0.047590 -0.022974 303770.000000 0 1 0
-2.462794 18.797250 -16.885466 25.387417 -1.440520 2.298440 0.067492 -0.029001 158613.000000 0 0 1
-3.217594 20.059750 -17.358566 26.722019 -1.411751 2.277852 0.076664 -0.027444 94000.000000 0 0 1
-3.578094 19.932750 -18.711366 27.572314 -1.393180 2.316690 0.089210 -0.030079 -206924.000000 0 0 1
-4.236394 21.029650 -19.326266 28.873825 -1.372008 2.304110 0.125220 -0.032708 -373174.000000 0 0 1
-3.343794 22.180150 -19.773166 29.901808 -1.421167 2.293307 0.116366 -0.043173 -688871.000000 0 0 1
-2.290794 21.754850 -20.619166 30.061125 -1.465883 2.326647 0.141022 -0.043161 -153130.000000 0 0 1
-1.242494 22.702150 -20.681566 30.735298 -1.516121 2.308909 0.136098 -0.049091 -235726.000000 0 0 1
-0.125394 22.341450 -19.719666 29.799687 -1.565184 2.293934 0.128037 -0.052435 -905932.000000 0 0 1
-0.498294 22.487450 -18.359666 29.034652 -1.548641 2.255362 0.121260 -0.044863 -216032.000000 0 0 1
0.565706 22.036150 -17.522166 28.159159 1.545130 2.242416 0.104363 -0.040227 190094.000000 0 0 1
0.417706 22.034950 -15.970166 27.216901 1.551842 2.197865 0.095061 -0.036865 -103820.000000 0 0 1
-0.411794 21.048850 -15.384066 26.074761 -1.551235 2.201853 0.078540 -0.029989 -141927.000000 0 0 1
-0.338694 21.065350 -13.944466 25.264834 -1.554719 2.155475 0.080313 -0.027791 41624.100000 0 0 1
-1.269694 20.018750 -13.314466 24.075662 -1.507456 2.156788 0.049948 -0.021542 -90141.800000 0 1 0
-0.816694 18.667350 -13.433266 23.012813 -1.527074 2.194111 0.037270 -0.019148 -143649.000000 0 1 0
-1.570894 17.820650 -12.612166 21.888582 -1.482873 2.184866 0.018889 -0.018483 -211561.000000 0 1 0
-1.316594 16.329050 -12.814966 20.798910 -1.490341 2.234624 0.005570 -0.010827 -415670.000000 0 1 0
-0.059194 15.926150 -12.289566 20.116640 -1.567080 2.228013 0.005350 -0.007188 394661.000000 0 1 0
-0.016894 14.497250 -12.287166 19.003815 -1.569631 2.273867 0.002356 -0.005084 -110948.000000 0 1 0
0.583806 13.889350 -13.546766 19.410557 1.528788 2.343267 0.004947 -0.007974 -340014.000000 0 1 0
-0.249194 13.802250 -14.699966 20.165644 -1.552744 2.387599 0.004405 -0.010763 223790.000000 0 1 0
0.194006 12.752650 -15.513066 20.082901 1.555584 2.453489 0.010157 -0.015330 -212390.000000 0 1 0
-0.434694 12.790350 -16.883966 21.186088 -1.536823 2.493003 0.006135 -0.007576 -239147.000000 0 1 0
0.140606 13.775350 -17.698866 22.428328 1.560590 2.480188 0.024751 -0.011647 53704.000000 0 1 0
-0.520394 13.874650 -18.939766 23.483855 -1.533307 2.509007 0.036903 -0.015401 -272862.000000 0 1 0
-1.127494 15.251950 -19.210866 24.555052 -1.497006 2.469241 0.042932 -0.023986 -429897.000000 0 1 0
-0.229494 16.302950 -19.422766 25.359075 -1.556720 2.443252 0.058267 -0.030133 -431204.000000 0 0 1
-0.912294 17.436150 -19.921866 26.490231 -1.518522 2.421957 0.091984 -0.037080 -37819.700000 0 0 1
0.066606 18.571750 -20.209066 27.446688 1.567210 2.398386 0.116896 -0.042345 -138366.000000 0 0 1
0.719506 18.344050 -21.444966 28.229566 1.531594 2.433592 0.131510 -0.052516 341817.000000 0 0 1
1.774106 19.299950 -21.673466 29.075327 1.479131 2.411968 0.137393 -0.048175 358573.000000 0 0 1
2.353106 19.118250 -23.024366 30.019427 1.448331 2.444921 0.152496 -0.055723 459932.000000 0 0 1
3.436706 18.172250 -23.125066 29.610983 1.383885 2.467002 0.136307 -0.051376 793001.000000 0 0 1
4.056206 18.195450 -24.460666 30.754697 1.351459 2.490377 0.141132 -0.063076 323741.000000 0 0 1
4.975706 16.991950 -24.650266 30.349953 1.285933 2.518712 0.095383 -0.045752 134075.000000 0 0 1
6.258906 17.069750 -24.017666 30.123057 1.219352 2.493635 0.089095 -0.039993 581308.000000 0 0 1
7.189406 16.065450 -24.328466 30.027662 1.150017 2.515293 0.089738 -0.036347 329147.000000 0 0 1
7.732506 15.947750 -25.814376 31.313007 1.119330 2.539934 0.079760 -0.033106 -615856.000000 0 0 1
8.873406 16.741150 -26.140066 32.284772 1.083410 2.514389 0.065750 -0.027599 389843.000000 0 0 1
9.257606 16.736450 -27.525536 33.518161 1.065545 2.534329 0.078027 -0.029840 71721.100000 0 0 1
9.618506 15.380650 -28.176196 33.510865 1.011935 2.569570 0.086317 -0.040150 -962429.000000 0 0 1
10.787806 14.863450 -27.638566 33.184171 0.942968 2.555095 0.088452 -0.036948 -606095.000000 0 0 1
10.948906 13.454850 -27.811986 32.778317 0.887726 2.583917 0.084647 -0.029339 -247382.000000 0 0 1
10.100906 12.466950 -27.000966 31.408682 0.889858 2.605411 0.086601 -0.025664 458623.000000 0 0 1
8.687506 12.564550 -27.183666 31.181603 0.965845 2.629631 0.097344 -0.032123 -21369.900000 0 0 1
8.077106 11.628750 -26.378006 29.937713 0.963717 2.648971 0.110653 -0.034794 42632.100000 0 0 1
6.542106 11.797750 -26.295686 29.554173 1.064488 2.667583 0.077517 -0.034142 117059.000000 0 0 1
6.139706 12.956650 -25.514956 29.267452 1.128274 2.629633 0.088578 -0.023586 1806700.000000 0 0 1
4.675806 13.077950 -25.462216 29.003799 1.227426 2.642239 0.096714 -0.034258 2001650.000000 0 0 1
3.988206 13.952250 -26.541546 30.249375 1.292374 2.641263 0.104914 -0.024093 -373191.000000 0 0 1
4.018906 13.419250 -27.807226 31.136308 1.279809 2.674942 0.114822 -0.036025 253035.000000 0 0 1
3.630306 14.370750 -28.792916 32.384094 1.323355 2.666186 0.114805 -0.052099 -43836.700000 0 0 1
3.651006 13.852850 -30.226116 33.449206 1.313100 2.698995 0.150509 -0.047515 655333.000000 0 0 1
4.996606 13.500150 -30.575096 33.794328 1.216315 2.701566 0.120621 -0.039258 827450.000000 0 0 1
5.118506 13.092150 -31.929156 34.886595 1.198107 2.726867 0.126539 -0.046020 -220177.000000 0 0 1
6.289806 12.105050 -32.209666 34.979372 1.091591 2.740971 0.116616 -0.039877 725105.000000 0 0 1
7.634406 12.606150 -32.093726 35.315810 1.026262 2.711108 0.124880 -0.031545 971575.000000 0 0 1
8.112406 12.580550 -30.743916 34.194586 0.998059 2.688476 0.112760 -0.032382 -548909.000000 0 0 1
8.228806 11.218650 -30.025766 33.092567 0.937943 2.707677 0.109832 -0.032717 -765097.000000 0 0 1
9.312406 10.399650 -30.361696 33.417154 0.840499 2.710635 0.085127 -0.029084 -208330.000000 0 0 1
9.200506 9.201050 -29.583916 32.318984 0.785428 2.727229 0.088885 -0.032828 4117.900000 0 0 1
10.259506 8.157850 -29.936856 32.680626 0.671777 2.728897 0.072931 -0.029482 1383180.000000 0 0 1
11.643106 8.401650 -29.561116 32.863493 0.625075 2.689448 0.068519 -0.028205 1310660.000000 0 0 1
12.335006 7.205750 -29.377876 32.667029 0.528699 2.688992 0.046130 -0.020770 -306591.000000 0 0 1
13.706306 7.320150 -28.668656 32.608883 0.490532 2.644908 0.042566 -0.014175 370063.000000 0 0 1
14.326006 6.086550 -28.278006 32.278881 0.401752 2.638411 0.040609 -0.012421 615481.000000 0 0 1
15.161206 5.505250 -29.315486 33.459941 0.348310 2.638585 0.036960 -0.008519 20930.300000 0 0 1
16.005006 4.349350 -28.758126 33.197995 0.265342 2.618465 0.056526 -0.019113 507248.000000 0 0 1
17.003506 4.574150 -27.743866 32.859765 0.262791 2.576075 0.016522 -0.011156 1018190.000000 0 0 1
17.686006 3.394350 -27.308286 32.711755 0.189617 2.558594 0.030430 -0.013785 -33782.500000 0 0 1
18.442606 3.593250 -26.006656 32.084066 0.192424 2.515936 0.019651 -0.008075 -127764.000000 0 0 1
19.313506 4.708550 -26.018726 32.743794 0.239131 2.489170 0.046079 -0.014407 135252.000000 0 0 1
19.692606 5.007450 -24.683166 31.970798 0.249004 2.452862 0.058599 -0.017178 -465056.000000 0 0 1
20.649406 6.179550 -24.641666 32.738303 0.290778 2.422929 0.061583 -0.016683 -853169.000000 0 0 1
20.183606 7.456850 -24.991266 32.977961 0.353897 2.430757 0.061885 -0.016373 174803.000000 0 0 1
21.086706 8.303950 -25.734246 34.290759 0.375150 2.419572 0.058287 -0.027943 -221952.000000 0 0 1
21.302706 7.931850 -27.230996 35.471773 0.356437 2.446010 0.103997 -0.031075 -181636.000000 0 0 1
20.264806 8.253250 -28.128136 35.636646 0.386758 2.480470 0.071599 -0.016993 223369.000000 0 0 1
19.191306 7.313650 -28.115126 34.817467 0.364101 2.510699 0.068178 -0.006833 -795844.000000 0 0 1
17.982006 7.856050 -28.833466 34.877483 0.411893 2.544026 0.056216 -0.002167 -1097580.000000 0 0 1
18.013806 7.967850 -30.214486 36.067977 0.416448 2.563872 0.047926 -0.003077 53540.800000 0 0 1
16.915706 8.701850 -30.714326 36.128010 0.475120 2.587072 0.032865 -0.001221 -360835.000000 0 0 1
16.557106 8.524550 -32.236856 37.229297 0.475463 2.617744 0.015932 0.006320 110648.000000 0 0 1
15.777706 7.325950 -32.489956 36.853803 0.434701 2.650017 0.028673 0.007215 512015.000000 0 0 1
14.428906 7.709650 -32.714656 36.577052 0.490725 2.677893 0.026605 0.005715 467270.000000 0 0 1
13.469806 6.544450 -33.188466 36.410709 0.452272 2.717720 0.037427 0.001537 324580.000000 0 0 1
13.169706 5.646950 -32.176616 35.223058 0.405071 2.722626 0.037812 -0.005056 514365.000000 0 0 1
12.313806 4.560150 -32.613746 35.157946 0.354669 2.758827 0.027815 -0.008501 441287.000000 0 0 1
12.088706 3.421850 -31.534706 33.945302 0.275846 2.762460 0.049319 -0.016702 1588260.000000 0 0 1
13.280706 2.573650 -31.314906 34.111935 0.191416 2.733815 0.054265 -0.028805 1752520.000000 0 0 1
12.960806 1.669450 -30.285536 32.984591 0.128102 2.734238 0.067177 -0.027703 530203.000000 0 0 1
12.169406 0.291550 -30.590496 32.923515 0.023953 2.762871 0.073601 -0.027181 480446.000000 0 0 1
12.881506 -0.752050 -31.244326 33.803944 -0.058316 2.749943 0.068387 -0.029257 -97430.400000 0 0 1
13.949606 -1.277650 -30.477416 33.542462 -0.091336 2.710769 0.084131 -0.040711 135408.000000 0 0 1
14.458306 -2.635550 -31.035996 34.339798 -0.180307 2.699342 0.078195 -0.038115 164812.000000 0 0 1
13.472306 -3.648550 -31.117636 34.104577 -0.264475 2.719951 0.083542 -0.035986 235564.000000 0 0 1
13.967206 -4.689750 -31.911956 35.148962 -0.323941 2.709058 0.099205 -0.037784 156789.000000 0 0 1
13.117806 -5.996850 -31.701906 34.828865 -0.428787 2.714610 0.106204 -0.040272 136408.000000 0 0 1
13.374006 -6.622050 -30.506276 33.960984 -0.459755 2.686623 0.120487 -0.034090 239096.000000 0 0 1
12.835006 -7.951250 -30.512986 34.044119 -0.554632 2.682100 0.137269 -0.040867 103388.000000 0 0 1
13.172806 -8.626850 -29.186916 33.163555 -0.579811 2.646848 0.110363 -0.031513 270683.000000 0 0 1
14.574006 -8.819750 -29.034726 33.663109 -0.544212 2.611003 0.114392 -0.030849 290028.000000 0 0 1
14.966506 -9.539550 -27.877386 33.047662 -0.567462 2.574658 0.127104 -0.034215 58874.800000 0 0 1
14.694106 -11.080950 -27.896206 33.420091 -0.646125 2.558409 0.110797 -0.031069 -825134.000000 0 0 1
13.370006 -11.465550 -27.763166 32.878705 -0.708865 2.576262 0.101419 -0.038200 -873576.000000 0 0 1
13.034206 -12.682950 -28.380616 33.707671 -0.771741 2.571708 0.091332 -0.041139 255205.000000 0 0 1
-10.463594 -2.868650 -17.695566 20.756902 0.267581 2.591574 0.023950 -0.000436 24505.300000 0 1 0
-11.052294 -2.583250 -18.957966 22.095946 0.229608 2.602128 0.031066 -0.001617 -622773.000000 0 1 0
-11.867694 -3.654550 -19.260166 22.916192 0.298726 2.568930 0.031050 -0.001935 -747260.000000 0 1 0
-12.818794 -3.200750 -20.391466 24.297698 0.244689 2.566670 0.039823 -0.011486 -638435.000000 0 1 0
-13.723294 -2.242750 -19.958466 24.324865 0.161994 2.533075 0.036650 -0.013862 -180415.000000 0 1 0
-14.729694 -1.998350 -20.952066 25.689421 0.134845 2.524547 0.039252 -0.008884 194023.000000 0 0 1
-15.453894 -0.707850 -20.628866 25.785150 0.045772 2.498140 0.046970 -0.009851 -379090.000000 0 0 1
-14.760894 0.474750 -20.822266 25.527948 -0.032152 2.524675 0.050277 -0.008596 -98297.200000 0 0 1
-15.525194 1.600450 -20.298466 25.605093 -0.102724 2.486106 0.048425 -0.006414 306188.000000 0 0 1
-15.076494 2.972050 -20.799066 25.859909 -0.194636 2.505289 0.079944 -0.015506 832990.000000 0 0 1
-13.801594 3.427450 -20.291566 24.778601 -0.243413 2.530314 0.087208 -0.020035 916150.000000 0 1 0
-13.488894 4.541450 -21.060166 25.418607 -0.324760 2.547280 0.100192 -0.026063 -1275360.000000 0 0 1
-12.232594 5.232250 -20.637866 24.554720 -0.404181 2.568973 0.088506 -0.028413 -1283230.000000 0 1 0
-12.203794 5.962350 -19.434666 23.710513 -0.454458 2.531621 0.098809 -0.036329 -197916.000000 0 1 0
-10.911894 6.413650 -19.161966 22.964870 -0.531376 2.557846 0.072234 -0.023420 -821173.000000 0 1 0
-10.856294 7.231150 -17.799466 22.067388 -0.587596 2.509167 0.062795 -0.023394 -440568.000000 0 1 0
-11.497994 8.478250 -17.797366 22.821718 -0.635367 2.465212 0.074347 -0.033469 -821900.000000 0 1 0
-12.644294 8.369250 -17.040166 22.809861 -0.584695 2.414414 0.107706 -0.026437 -1176610.000000 0 1 0
-13.473194 9.641250 -17.044866 23.769899 -0.621111 2.370397 0.122255 -0.029231 -488392.000000 0 1 0
-12.963394 10.691850 -16.267666 23.388078 -0.689665 2.339987 0.088760 -0.019799 -212768.000000 0 1 0
-13.755094 11.834950 -16.336366 24.416091 -0.710504 2.303769 0.102219 -0.031509 -245580.000000 0 1 0
-13.157594 13.011550 -15.520766 24.151954 -0.779817 2.268722 0.100317 -0.027155 -28622.000000 0 1 0
-13.166594 12.883950 -14.102566 23.199951 -0.774549 2.224172 0.111412 -0.031488 254567.000000 0 1 0
-12.607794 14.038350 -13.463266 23.179544 -0.839034 2.190538 0.096744 -0.032123 -877074.000000 0 1 0
-13.104094 14.357150 -12.059266 22.875116 -0.830997 2.126073 0.086132 -0.032393 1137700.000000 0 1 0
-14.436394 14.869750 -11.842666 23.869807 -0.800184 2.089939 0.086480 -0.029222 1360280.000000 0 1 0
-15.531894 14.049550 -12.252166 24.264071 -0.735329 2.100121 0.081454 -0.024122 -662881.000000 0 1 0
-16.881694 14.470350 -11.698166 25.124285 -0.708637 2.055122 0.047691 -0.016444 -927202.000000 0 0 1
-17.928394 13.602150 -11.978466 25.493714 -0.649042 2.059928 0.049111 -0.015734 47952.500000 0 0 1
-18.999394 13.863150 -11.038666 25.981071 -0.630358 2.009618 0.101173 -0.024715 50963.900000 0 0 1
-20.364094 13.480650 -11.607566 27.039967 -0.584752 2.014486 0.086670 -0.029615 -696122.000000 0 0 1
-20.538794 12.058250 -11.717366 26.543174 -0.530877 2.028005 0.094370 -0.034403 76097.300000 0 0 1
-21.795294 11.747250 -12.260166 27.628688 -0.494344 2.030573 0.128573 -0.026469 -556152.000000 0 0 1
-22.270394 10.361950 -11.807266 27.253476 -0.435487 2.018880 0.116088 -0.027176 -586286.000000 0 0 1
-21.541094 9.307350 -12.272466 26.481294 -0.407847 2.052669 0.103149 -0.026739 -4116.730000 0 0 1
-21.999694 8.198850 -11.496266 26.141381 -0.356735 2.026142 0.098219 -0.024485 -93038.400000 0 0 1
-21.021194 7.003650 -11.482566 24.955781 -0.321604 2.048923 0.120864 -0.028956 -174426.000000 0 1 0
-21.031194 6.273550 -12.691966 25.352604 -0.289894 2.095109 0.135310 -0.028882 826790.000000 0 0 1
-20.051494 5.217950 -12.661366 24.281672 -0.254581 2.119331 0.146379 -0.029880 367047.000000 0 1 0
-20.398494 4.051750 -13.626966 24.863818 -0.196078 2.150844 0.168416 -0.041418 199037.000000 0 1 0
-21.240194 3.026150 -13.076966 25.125892 -0.141520 2.118183 0.151357 -0.040631 426978.000000 0 0 1
-21.412394 1.999150 -14.046166 25.686222 -0.093094 2.149377 0.135374 -0.044004 244351.000000 0 0 1
-22.453994 0.890550 -13.675866 26.305973 -0.039640 2.117503 0.189050 -0.038335 525478.000000 0 0 1
-23.678894 0.907850 -14.397566 27.727317 -0.038321 2.116776 0.130514 -0.033188 243803.000000 0 0 1
-24.056094 -0.416450 -14.414866 28.047414 0.017310 2.110575 0.122949 -0.039313 267054.000000 0 0 1
-25.372574 -0.666150 -15.250466 29.610606 0.026249 2.111844 0.126666 -0.028696 1895560.000000 0 0 1
-26.548084 -0.191850 -14.497766 30.249343 0.007226 2.070625 0.162735 -0.040107 1002930.000000 0 0 1
-27.741304 -0.380150 -15.232466 31.650473 0.013703 2.072901 0.138709 -0.027199 -156074.000000 0 0 1
-28.925984 0.146050 -14.415966 32.319560 -0.005049 2.033137 0.150531 -0.029590 -585034.000000 0 0 1
-29.139934 -0.641050 -13.293766 32.035463 0.021995 1.998706 0.162990 -0.029028 -142769.000000 0 0 1
-30.230144 -0.211850 -12.525366 32.722947 0.007008 1.963589 0.187737 -0.035192 -195738.000000 0 0 1
-30.203464 -0.697850 -11.058166 32.171715 0.023101 1.921675 0.178394 -0.039739 -174518.000000 0 0 1
-30.345904 -2.100150 -10.858766 32.298565 0.069097 1.913675 0.193594 -0.032080 387627.000000 0 0 1
-29.265604 -2.913250 -11.260166 31.492125 0.099218 1.936445 0.208518 -0.036338 -191115.000000 0 0 1
-29.542164 -4.371050 -10.742266 31.737073 0.146894 1.916094 0.213915 -0.039809 355829.000000 0 0 1
-30.604584 -5.066650 -11.404466 33.051072 0.164064 1.923095 0.198022 -0.034813 533045.000000 0 0 1
-30.969764 -6.333550 -10.960766 33.457114 0.201726 1.904565 0.205877 -0.031371 -248250.000000 0 0 1
-30.201804 -7.497750 -11.596866 33.209223 0.243336 1.927520 0.218307 -0.032176 256892.000000 0 0 1
-28.829794 -7.576850 -11.230266 31.854113 0.257001 1.931094 0.172701 -0.025899 287662.000000 0 0 1
-28.236004 -8.595250 -12.045966 31.878763 0.295495 1.958289 0.176998 -0.027924 407392.000000 0 0 1
-26.747094 -8.823350 -11.621266 30.468219 0.318640 1.962131 0.158497 -0.033479 284832.000000 0 0 1
-25.916674 -7.689650 -11.939966 29.552791 0.288433 1.986705 0.129860 -0.031476 672432.000000 0 0 1
-24.561194 -7.827950 -11.555966 28.250122 0.308534 1.992219 0.111527 -0.036956 117395.000000 0 0 1
-24.190394 -7.622950 -10.077166 27.291643 0.305273 1.948987 0.110090 -0.034998 -590986.000000 0 0 1
-24.485294 -6.334950 -9.486166 27.012007 0.253173 1.929631 0.119457 -0.026473 1208570.000000 0 0 1
-25.872584 -6.161150 -9.156866 28.128252 0.233780 1.902379 0.136375 -0.039033 375828.000000 0 0 1
-26.315514 -4.788950 -8.604666 28.097697 0.180012 1.882038 0.151867 -0.033614 -435188.000000 0 0 1
-26.028834 -4.505850 -7.253966 27.393848 0.171411 1.838796 0.147975 -0.034663 450468.000000 0 0 1
-26.438824 -3.246250 -6.775366 27.485544 0.122172 1.819870 0.187430 -0.038721 -207630.000000 0 0 1
-26.235114 -2.992650 -5.300866 26.932069 0.113579 1.768913 0.181252 -0.041031 1120480.000000 0 0 1
-24.855794 -3.089850 -4.861366 25.514516 0.123677 1.762502 0.150112 -0.032151 1441670.000000 0 0 1
-24.770494 -2.929250 -3.468666 25.183120 0.117709 1.708973 0.132149 -0.031173 -161113.000000 0 0 1
-23.384194 -3.346550 -2.956266 23.806710 0.142146 1.695296 0.113619 -0.023874 -172542.000000 0 1 0
-23.251494 -4.766150 -2.925666 23.914591 0.202182 1.693442 0.120907 -0.018469 738783.000000 0 1 0
-21.901394 -5.077950 -2.605266 22.632809 0.227830 1.686162 0.089688 -0.016430 322219.000000 0 1 0
-21.567094 -6.597450 -2.651266 22.708921 0.296864 1.687813 0.094860 -0.022664 -141961.000000 0 1 0
-22.261394 -7.200350 -1.598566 23.451441 0.312825 1.639014 0.108966 -0.019355 507065.000000 0 1 0
-22.670994 -8.509450 -1.922466 24.291574 0.359073 1.650020 0.113148 -0.027243 -59863.000000 0 1 0
-23.072894 -9.419250 -0.734566 24.932314 0.387589 1.600263 0.128345 -0.029980 -646916.000000 0 1 0
-21.984994 -9.764350 0.055134 24.055883 0.417968 1.568504 0.098508 -0.022441 -274705.000000 0 1 0
-22.244194 -10.688150 1.107834 24.703603 0.447919 1.525936 0.072506 -0.014144 -196054.000000 0 1 0
-20.943894 -11.170750 1.782534 23.803566 0.489982 1.495841 0.067487 -0.012250 -27965.700000 0 1 0
-20.340094 -12.174050 0.982034 23.725330 0.539334 1.529393 0.069051 -0.013418 634122.000000 0 1 0
-19.275494 -12.832550 1.682134 23.217420 0.587364 1.498281 0.055376 -0.012275 444748.000000 0 1 0
-18.556294 -13.919150 0.820134 23.211019 0.643568 1.535455 0.050396 -0.011609 -44671.800000 0 1 0
-19.443794 -14.994250 0.510134 24.559090 0.656906 1.550023 0.075745 -0.012681 637119.000000 0 1 0
-18.838494 -16.220650 0.083434 24.859712 0.710867 1.567440 0.071660 -0.024793 290950.000000 0 1 0
-17.691494 -16.879650 0.911634 24.469218 0.761919 1.533531 0.081789 -0.017607 734376.000000 0 1 0
-16.393694 -16.311550 0.754634 23.138482 0.782887 1.538177 0.068886 -0.008514 142317.000000 0 1 0
-15.300694 -16.895950 1.373334 22.835726 0.834905 1.510620 0.075224 -0.013652 27254.700000 0 1 0
-15.136794 -16.635150 2.890234 22.676071 0.832523 1.442991 0.088551 -0.019994 -240242.000000 0 1 0
-14.980594 -15.298850 3.300634 21.664884 0.795908 1.417851 0.068357 -0.019854 178534.000000 0 1 0
-14.237894 -15.148450 4.510934 21.273027 0.816374 1.357125 0.059762 -0.017351 75324.300000 0 1 0
-14.875894 -15.605350 5.861934 22.342369 0.809325 1.305320 0.098828 -0.018288 -167568.000000 0 1 0
-15.758894 -14.617950 6.444534 22.440125 0.747856 1.279506 0.092684 -0.020439 492090.000000 0 1 0
-15.985694 -14.896550 7.802534 23.201921 0.750145 1.227823 0.102786 -0.025751 -64533.800000 0 1 0
-17.001394 -16.000150 8.191334 24.741668 0.755068 1.233354 0.093255 -0.015797 -175816.000000 0 1 0
-16.519994 -17.280150 7.767834 25.136687 0.807884 1.256630 0.091264 -0.008723 75433.600000 0 0 1
-17.194394 -18.363550 8.398134 26.521610 0.818267 1.248598 0.097242 -0.022588 -134411.000000 0 0 1
-16.879194 -18.671150 9.869834 27.035766 0.835762 1.197093 0.094200 -0.022630 1180450.000000 0 0 1
-15.600194 -19.347250 10.058434 26.811457 0.892210 1.186233 0.075320 -0.020300 1097400.000000 0 0 1
-15.256494 -19.515450 11.430234 27.281196 0.907274 1.138476 0.064837 -0.021475 -283948.000000 0 0 1
-13.925894 -20.213950 11.688834 27.187555 0.967542 1.126377 0.067069 -0.016427 -849088.000000 0 0 1
-12.815394 -19.405650 11.683434 26.025299 0.987148 1.105233 0.064150 -0.025028 -1476030.000000 0 0 1
-11.675294 -20.112950 12.038934 26.187386 1.044849 1.093113 0.069965 -0.023860 -173046.000000 0 0 1
-10.446494 -19.283050 12.447834 25.217332 1.074313 1.054546 0.076532 -0.031256 274071.000000 0 0 1
-9.779494 -18.681950 11.313134 23.929913 1.088547 1.078375 0.070464 -0.033762 201561.000000 0 1 0
-8.679594 -17.922650 11.839734 23.167564 1.119803 1.034393 0.062039 -0.026992 621142.000000 0 1 0
-7.746294 -17.325550 10.741234 21.807197 1.150355 1.055774 0.042381 -0.024273 159282.000000 0 1 0
-6.792694 -18.251650 10.283134 22.022858 1.214510 1.084980 0.043942 -0.023867 -411896.000000 0 1 0
-5.962594 -17.654350 9.324234 20.836745 1.245084 1.106840 0.031731 -0.013379 164261.000000 0 1 0
-4.863794 -18.523750 8.657534 21.017581 1.314022 1.146238 0.025736 -0.011108 670467.000000 0 1 0
-3.645594 -18.616550 9.390534 21.167154 1.377418 1.111143 0.023720 -0.008195 -284341.000000 0 1 0
-2.625094 -19.099450 8.567734 21.097065 1.434209 1.152603 0.034828 -0.012262 -674858.000000 0 1 0
-1.260894 -19.076750 9.232234 21.230789 1.504796 1.120923 0.038073 -0.020582 -405767.000000 0 1 0
-0.239794 -19.527350 8.358534 21.242410 1.558517 1.166379 0.042676 -0.014791 47919.300000 0 1 0
1.000606 -19.686850 9.044734 21.688257 -1.520014 1.140617 0.049197 -0.019595 465609.000000 0 1 0
2.073606 -20.298150 8.115934 21.958668 -1.468992 1.192217 0.058996 -0.028330 -71059.400000 0 1 0
1.814206 -21.676750 7.726934 23.084158 -1.487297 1.229479 0.055849 -0.021410 63306.100000 0 1 0
2.294506 -22.579750 8.755134 24.326164 -1.469526 1.202629 0.065812 -0.029785 -39673.800000 0 1 0
1.723106 -23.945950 8.533334 25.479313 -1.498962 1.229284 0.054831 -0.023249 -73557.800000 0 0 1
1.952506 -24.885050 9.540234 26.722538 -1.492496 1.205730 0.076744 -0.028820 -292683.000000 0 0 1
1.457706 -26.112370 9.075234 27.682858 -1.515030 1.236792 0.079503 -0.026649 -600885.000000 0 0 1
1.439706 -27.245740 10.130134 29.103655 -1.518004 1.215284 0.107669 -0.034027 960650.000000 0 0 1
0.401506 -27.158320 11.123234 29.350671 -1.556013 1.182106 0.102491 -0.043740 469017.000000 0 0 1
-0.957394 -27.316690 10.748134 29.370743 1.535763 1.196146 0.087494 -0.037832 193375.000000 0 0 1
-1.814694 -27.495250 12.007234 30.057537 1.504892 1.159852 0.088662 -0.041945 -141208.000000 0 0 1
-1.411994 -28.625560 12.730434 31.360490 1.521510 1.152791 0.092418 -0.044500 -163007.000000 0 0 1
-1.230294 -28.298260 14.055334 31.620524 1.527348 1.110180 0.096440 -0.044085 113468.000000 0 0 1
-0.871294 -29.498830 15.059334 33.131913 1.541268 1.098956 0.083589 -0.026756 308033.000000 0 0 1
-1.068594 -29.085360 16.396134 33.405587 1.534073 1.057766 0.097506 -0.026885 -26953.600000 0 0 1
-0.721594 -30.202460 17.200634 34.764509 1.546909 1.053220 0.095981 -0.023144 -4706.680000 0 0 1
-1.179594 -30.024320 18.645234 35.362353 1.531529 1.015421 0.099246 -0.024057 462214.000000 0 0 1
-2.560394 -30.315860 18.841534 35.785617 1.486539 1.016304 0.093855 -0.018898 220056.000000 0 0 1
-2.960494 -29.879010 20.146234 36.157855 1.472036 0.979817 0.103732 -0.023442 525310.000000 0 0 1
-4.471794 -29.931330 20.525334 36.567346 1.422491 0.974838 0.096414 -0.029525 329993.000000 0 0 1
-5.292894 -28.999350 19.828434 35.526664 1.390266 0.978668 0.086083 -0.027210 74451.600000 0 0 1
-6.578494 -28.824280 20.387334 35.913216 1.346412 0.967107 0.087270 -0.035408 209636.000000 0 0 1
-6.707094 -27.786780 21.521634 35.780875 1.333950 0.925439 0.114196 -0.041088 -452032.000000 0 0 1
-6.166994 -28.242400 22.757734 36.791024 1.355811 0.903878 0.108769 -0.038026 -7723.200000 0 0 1
-6.043894 -27.232280 23.751034 36.636558 1.352398 0.865463 0.129941 -0.038012 -625428.000000 0 0 1
-4.755294 -27.363490 24.570334 37.082000 1.398732 0.846519 0.148601 -0.036923 -138035.000000 0 0 1
-4.800594 -28.506500 25.453334 38.516730 1.403958 0.848861 0.144929 -0.041932 203068.000000 0 0 1
-4.045594 -29.612380 24.951334 38.933648 1.435019 0.875168 0.142847 -0.036901 107471.000000 0 0 1
-4.208594 -30.930460 25.733934 40.455420 1.435561 0.881355 0.130711 -0.032600 111757.000000 0 0 1
-3.684294 -30.821400 27.049034 41.172600 1.451824 0.854008 0.130981 -0.039444 39377.800000 0 0 1
-3.853694 -31.951330 27.842834 42.555397 1.450765 0.857576 0.111825 -0.037136 -321371.000000 0 0 1
-3.412194 -31.792730 29.320834 43.383546 1.463879 0.828677 0.117869 -0.039509 -24502.900000 0 0 1
-2.016994 -31.599770 29.463334 43.251610 1.507053 0.821385 0.108433 -0.032753 106030.000000 0 0 1
-1.621894 -31.520370 30.806934 44.104778 1.519386 0.797505 0.115434 -0.035340 53492.300000 0 0 1
-29.359374 2.648450 -9.185666 30.876586 -0.089964 1.872865 0.166580 -0.033779 148212.000000 0 0 1
-30.042464 2.620250 -10.448466 31.915291 -0.086998 1.904327 0.156905 -0.040271 86375.400000 0 0 1
-30.834804 3.764150 -10.610766 32.825940 -0.121474 1.899951 0.134975 -0.037073 -193666.000000 0 0 1
-31.624884 3.867250 -11.951766 34.028424 -0.121681 1.929680 0.154731 -0.041036 -796802.000000 0 0 1
-32.598474 2.901550 -11.856866 34.808975 -0.088775 1.918380 0.179209 -0.051494 -718555.000000 0 0 1
-33.302934 2.689850 -13.051666 35.870136 -0.080594 1.943204 0.167098 -0.043681 606562.000000 0 0 1
-34.626506 1.856550 -12.869866 36.987500 -0.053565 1.926182 0.141464 -0.041881 618635.000000 0 0 1
-34.351327 0.450650 -12.602766 36.592984 -0.013118 1.922400 0.165665 -0.037663 335555.000000 0 0 1
-35.512174 -0.322650 -12.333066 37.594190 0.009085 1.905043 0.142828 -0.031960 288071.000000 0 0 1
-35.169703 -1.768850 -11.891166 37.167683 0.050252 1.896455 0.152219 -0.031039 -67008.100000 0 0 1
-35.075052 -2.642250 -12.987066 37.495395 0.075189 1.924489 0.151352 -0.025017 179680.000000 0 0 1
-34.898743 -3.945950 -12.558966 37.299067 0.112590 1.914217 0.168002 -0.026853 -75889.900000 0 0 1
-35.104017 -4.984850 -13.696366 38.009620 0.141059 1.939428 0.157337 -0.026482 11284.800000 0 0 1
-35.068366 -6.267350 -13.060966 37.942835 0.176851 1.922212 0.167152 -0.028549 124334.000000 0 0 1
-35.411984 -7.321950 -13.936966 38.753820 0.203892 1.938666 0.167395 -0.022664 -550683.000000 0 0 1
-35.210130 -8.789950 -13.382566 38.679575 0.244642 1.924085 0.183042 -0.024000 371129.000000 0 0 1
-33.882874 -9.218350 -13.077466 37.470618 0.265636 1.927306 0.178807 -0.022478 1101790.000000 0 0 1
-33.031294 -9.414350 -14.228666 37.177295 0.277651 1.963540 0.170672 -0.024119 472710.000000 0 0 1
-31.816644 -10.380550 -14.012766 36.282396 0.315373 1.967320 0.176558 -0.028842 186095.000000 0 0 1
-32.164474 -11.762850 -13.920266 36.968795 0.350601 1.956856 0.173276 -0.025294 499990.000000 0 0 1
-31.096504 -12.694450 -13.660866 36.259631 0.387579 1.957083 0.188872 -0.023584 242194.000000 0 0 1
-31.334334 -14.055650 -14.285666 37.195188 0.421664 1.965000 0.194240 -0.028198 -227389.000000 0 0 1
-31.118224 -13.951250 -15.660866 37.526576 0.421465 2.001299 0.182601 -0.035182 139635.000000 0 0 1
-31.246644 -15.199950 -16.363866 38.407907 0.452749 2.010924 0.172105 -0.035014 -336069.000000 0 0 1
-30.203064 -16.289750 -16.128766 37.917253 0.494623 2.010164 0.163336 -0.025297 -914330.000000 0 0 1
-28.926274 -15.937650 -16.542766 36.937800 0.503591 2.035161 0.164343 -0.032335 -1203310.000000 0 0 1
-27.996914 -16.965350 -16.344166 36.589370 0.544799 2.033860 0.156003 -0.031366 953958.000000 0 0 1
-26.557124 -16.300750 -16.466166 35.243863 0.550504 2.056925 0.142180 -0.042980 969402.000000 0 0 1
-26.330364 -15.953050 -17.801666 35.562440 0.544732 2.095059 0.143164 -0.044909 -682319.000000 0 0 1
-24.957994 -15.884050 -18.070566 34.666264 0.566777 2.119138 0.091561 -0.034109 -419234.000000 0 0 1
-24.719394 -15.521150 -19.592866 35.154444 0.560677 2.161971 0.095245 -0.031434 201128.000000 0 0 1
-25.284514 -16.428350 -20.594666 36.514895 0.576192 2.170027 0.099575 -0.037115 1590030.000000 0 0 1
-26.716884 -16.239950 -20.743566 37.520972 0.546174 2.156580 0.111050 -0.044436 1040590.000000 0 0 1
-27.296394 -17.335250 -21.673166 38.927241 0.565811 2.161278 0.115149 -0.044048 59394.800000 0 0 1
-26.707514 -17.324550 -23.003066 39.275595 0.575445 2.196519 0.110633 -0.025859 30817.700000 0 0 1
-27.093294 -18.341450 -23.839766 40.481969 0.595104 2.200491 0.114580 -0.019260 -225576.000000 0 0 1
-26.141624 -18.571150 -25.085356 40.712985 0.617675 2.234643 0.104348 -0.013548 227727.000000 0 0 1
-24.898794 -19.160950 -24.735366 39.986626 0.655898 2.237744 0.082947 -0.017938 -31517.900000 0 0 1
-24.890994 -20.540850 -24.383866 40.448251 0.689938 2.217853 0.073774 -0.011775 -452963.000000 0 0 1
-23.464094 -21.115150 -24.468866 39.939187 0.732755 2.230209 0.072322 -0.001211 329058.000000 0 0 1
-22.932794 -20.977850 -25.813986 40.402290 0.740907 2.263895 0.075734 -0.010978 361206.000000 0 0 1
-21.541294 -21.255750 -25.889706 39.826010 0.778726 2.278473 0.055520 -0.008895 688735.000000 0 0 1
-20.858594 -21.008150 -27.270806 40.250716 0.788970 2.315187 0.058081 -0.011481 167997.000000 0 0 1
-20.867294 -22.207750 -28.029996 41.404212 0.816507 2.314454 0.081350 -0.014414 36864.600000 0 0 1
-21.980394 -22.168750 -28.913646 42.551029 0.789664 2.317884 0.101920 -0.016706 247838.000000 0 0 1
-21.479294 -22.196650 -30.382226 43.325869 0.801821 2.347944 0.103027 -0.026207 135245.000000 0 0 1
-20.951794 -23.447250 -30.767696 43.993207 0.841544 2.345317 0.096493 -0.034151 207999.000000 0 0 1
-20.066894 -23.213650 -31.876996 44.245865 0.857976 2.375249 0.093455 -0.022234 331239.000000 0 0 1
-19.434594 -24.490950 -32.395116 45.021701 0.900006 2.373942 0.101799 -0.016921 -180342.000000 0 0 1
-18.697294 -24.411550 -33.575246 45.528120 0.917184 2.400101 0.089984 -0.017959 -267175.000000 0 0 1
-19.547694 -24.340850 33.120996 45.514719 0.894179 0.755836 0.121737 -0.019871 179618.000000 0 0 1
-18.792894 -24.209950 31.770167 44.143381 0.910708 0.767420 0.123552 -0.016388 -69092.800000 0 0 1
-18.136194 -22.963150 31.564667 43.041329 0.902309 0.747549 0.083127 -0.019529 -76579.800000 0 0 1
-17.545194 -22.937150 30.275227 41.839408 0.917812 0.761784 0.084801 -0.019012 9486.290000 0 0 1
-16.749494 -21.616650 30.068377 40.643971 0.911585 0.738024 0.064664 -0.014226 50185.400000 0 0 1
-17.561494 -20.435450 30.051167 40.361941 0.860891 0.730948 0.071081 -0.022637 172432.000000 0 0 1
-16.885594 -19.194650 29.813827 39.273683 0.849309 0.708821 0.067862 -0.020747 101139.000000 0 0 1
-15.992694 -18.680150 30.992487 39.563222 0.862752 0.670733 0.066935 -0.018643 239538.000000 0 0 1
-15.576094 -17.375050 30.675867 38.542391 0.839939 0.650305 0.072419 -0.017470 -39532.300000 0 0 1
-14.844794 -16.823750 31.769457 38.893507 0.847807 0.614899 0.059439 -0.017986 54221.800000 0 0 1
-14.312594 -15.447750 31.470557 37.866599 0.823523 0.589731 0.062432 -0.023777 172364.000000 0 0 1
-13.311094 -15.364750 30.451817 36.613849 0.856892 0.588630 0.072573 -0.028417 376114.000000 0 0 1
-12.764594 -14.082350 30.280047 35.750926 0.834443 0.560532 0.063434 -0.029460 -631547.000000 0 0 1
-11.628994 -14.013750 29.255647 34.460290 0.878131 0.556769 0.060759 -0.021215 -144740.000000 0 0 1
-11.080194 -12.716350 29.286207 33.795831 0.854046 0.522523 0.066132 -0.025629 38957.900000 0 0 1
-9.871394 -12.626450 30.026007 34.035757 0.907250 0.490303 0.061970 -0.028685 -112198.000000 0 0 1
-9.370894 -11.197050 30.260447 33.598843 0.873952 0.449557 0.065726 -0.017746 -222358.000000 0 0 1
-10.219994 -10.445750 31.079217 34.343554 0.796322 0.439533 0.060143 -0.011581 54732.100000 0 0 1
-9.713294 -9.095350 31.176507 33.897611 0.752556 0.403415 0.045342 -0.006632 146553.000000 0 0 1
-10.557894 -8.232950 32.139076 34.816243 0.662296 0.394716 0.029034 -0.009493 -119932.000000 0 0 1
-11.864894 -8.013350 31.655197 34.742495 0.594013 0.424760 0.040101 -0.017431 -105148.000000 0 0 1
-12.670194 -7.219650 32.549044 35.666475 0.517928 0.421210 0.036773 -0.020421 106841.000000 0 0 1
-12.350394 -5.758550 32.945763 35.652720 0.436297 0.392190 0.026662 -0.018063 -684140.000000 0 0 1
-12.421494 -4.801150 31.870329 34.540736 0.368832 0.395801 0.032938 -0.019382 220075.000000 0 0 1
-12.600294 -3.482350 32.329389 34.872390 0.269640 0.384258 0.036624 -0.024649 -511673.000000 0 0 1
-12.143494 -2.353550 31.343337 33.695822 0.191438 0.375881 0.038933 -0.026283 238938.000000 0 0 1
-10.724794 -2.282950 31.392647 33.252539 0.209736 0.336041 0.042026 -0.020965 265262.000000 0 0 1
-10.286594 -1.259750 30.519957 32.231487 0.121858 0.327347 0.037498 -0.015279 -1063080.000000 0 0 1
-8.823794 -0.967850 30.710337 31.967497 0.109250 0.281378 0.040772 -0.011452 -1004740.000000 0 0 1
-8.584394 -0.395050 31.992328 33.126378 0.045987 0.262416 0.049721 -0.024652 32659.600000 0 0 1
-7.208194 -0.088150 32.093230 32.892875 0.012228 0.220951 0.073288 -0.023360 -8190.980000 0 0 1
-6.850394 0.394950 33.518914 34.214054 -0.057590 0.201924 0.109856 -0.045928 -49219.200000 0 0 1
-7.424494 1.650950 -33.915356 34.757734 -0.218805 2.920983 0.104874 -0.032424 437124.000000 0 0 1
-6.724094 2.734650 33.278429 34.060910 -0.386264 0.214763 0.113703 -0.030256 320336.000000 0 0 1
-7.500494 4.067050 33.431256 34.502858 -0.496864 0.249882 0.105406 -0.025361 453827.000000 0 0 1
-8.692794 4.060050 32.655187 34.035422 -0.436950 0.285762 0.072621 -0.013840 107340.000000 0 0 1
-9.493094 5.158650 33.021670 34.744225 -0.497770 0.316207 0.058487 -0.001312 -111173.000000 0 0 1
-10.751594 5.341950 32.154003 34.322196 -0.461126 0.357347 0.043295 0.002946 -10994.400000 0 0 1
-11.546894 6.427250 32.577988 35.156303 -0.507913 0.385365 0.060750 0.002245 -86086.700000 0 0 1
-12.656794 6.585550 31.724917 34.785547 -0.479769 0.422628 0.036034 0.009502 283949.000000 0 0 1
-13.607994 7.803250 31.899862 35.548128 -0.520655 0.457021 0.054418 -0.006614 567014.000000 0 0 1
-14.588094 7.721450 32.934868 36.839365 -0.486810 0.464573 0.063821 -0.009796 262263.000000 0 0 1
-15.428494 8.847550 32.850351 37.355898 -0.520673 0.496220 0.057090 -0.005453 129546.000000 0 0 1
-16.283594 8.956750 -33.694616 38.479942 -0.502880 2.637558 0.063601 -0.005022 261944.000000 0 0 1
-15.532894 9.460950 -32.635186 37.360885 -0.547077 2.633167 0.066577 -0.007711 -102049.000000 0 0 1
-16.424794 9.955050 -31.666936 37.036086 -0.544892 2.596403 0.075622 -0.011785 -496903.000000 0 0 1
-15.709794 10.339350 -30.340606 35.696668 -0.582081 2.586699 0.099273 -0.018622 -171831.000000 0 0 1
-14.698094 11.255550 -30.355706 35.555453 -0.653526 2.593955 0.092709 -0.022283 -754667.000000 0 0 1
-13.459294 10.857750 -30.903396 35.412755 -0.678819 2.631425 0.096526 -0.029764 -750325.000000 0 0 1
-12.497294 12.052650 -30.920366 35.461497 -0.767288 2.629951 0.097253 -0.028120 -470066.000000 0 0 1
-12.646694 12.995050 -31.949796 36.736897 -0.798983 2.625375 0.086769 -0.025324 -428558.000000 0 0 1
-11.937294 14.165450 -31.744596 36.754297 -0.870553 2.613357 0.085642 -0.028561 -404174.000000 0 0 1
-12.310594 15.160750 -30.601916 36.302566 -0.888778 2.573574 0.087802 -0.029985 440120.000000 0 0 1
-13.594094 15.766150 -30.789266 37.166514 -0.859243 2.547067 0.084664 -0.028664 693996.000000 0 0 1
-13.777394 16.757250 -29.783476 36.846675 -0.882679 2.512070 0.067987 -0.019717 -661790.000000 0 0 1
-15.158394 17.381850 -29.810736 37.690656 -0.853622 2.483126 0.064208 -0.029238 -905482.000000 0 0 1
-15.238294 18.277050 -30.835546 38.949802 -0.875819 2.484341 0.062659 -0.020465 346369.000000 0 0 1
-16.553994 18.651550 -31.213506 39.952446 -0.844908 2.467488 0.051849 -0.020320 292727.000000 0 0 1
-17.177794 19.809350 -30.419526 40.160111 -0.856426 2.430204 0.035838 -0.008982 -729785.000000 0 0 1
-16.660194 21.072150 -30.690796 40.786303 -0.901797 2.422613 0.034268 -0.005447 259881.000000 0 0 1
-17.393894 22.154850 -30.100286 41.223927 -0.905204 2.389360 0.019419 -0.002699 1078520.000000 0 0 1
-18.799994 22.450150 -30.739796 42.454494 -0.873657 2.380474 0.041198 -0.001145 772269.000000 0 0 1
-19.971994 21.775450 -30.345906 42.354749 -0.828571 2.369525 0.043922 -0.003042 500003.000000 0 0 1
-21.007094 21.803450 -31.319486 43.561435 -0.803998 2.373120 0.070684 -0.014921 -400066.000000 0 0 1
-22.361894 21.393250 -30.764006 43.636561 -0.763264 2.353227 0.081253 -0.017762 -937063.000000 0 0 1
-23.103794 22.345250 -29.935096 43.922721 -0.768710 2.320661 0.095568 -0.024548 711897.000000 0 0 1
-23.987194 23.182350 -30.621626 45.282345 -0.768337 2.313440 0.095168 -0.016133 -255352.000000 0 0 1
-25.251474 22.629650 -31.290906 46.139558 -0.730696 2.316079 0.093780 -0.030316 -732587.000000 0 0 1
-24.831594 21.797850 -32.368626 46.254538 -0.720429 2.345905 0.105868 -0.027849 349546.000000 0 0 1
-25.829464 21.679250 -33.378796 47.447814 -0.698262 2.351085 0.113531 -0.029981 68907.100000 0 0 1
-25.526254 20.555450 33.466028 46.841127 -0.677944 0.774947 0.121197 -0.023691 -26387.900000 0 0 1
-25.551014 19.238050 -33.873816 46.587469 -0.645372 2.384887 0.121173 -0.027764 362943.000000 0 0 1
-25.121034 18.317650 32.960923 45.310320 -0.630040 0.756200 0.116586 -0.037283 -165008.000000 0 0 1
-25.098134 16.836150 33.388386 45.035060 -0.590868 0.735662 0.087085 -0.023010 -406147.000000 0 0 1
-26.363874 16.242950 33.435640 45.572243 -0.552178 0.747068 0.080892 -0.009980 -24344.800000 0 0 1
-26.484514 15.363950 32.349055 44.541462 -0.525667 0.757919 0.096257 -0.016681 -1738.200000 0 0 1
-27.311184 14.052650 32.589634 44.782385 -0.475210 0.755785 0.073742 -0.014832 1592860.000000 0 0 1
-28.747334 14.228250 32.777281 45.860685 -0.459593 0.774581 0.076756 -0.007139 1390350.000000 0 0 1
-29.546304 13.080550 32.954276 46.152673 -0.416778 0.775562 0.055221 -0.003307 -43560.400000 0 0 1
-29.180644 12.071850 -33.769286 46.234232 -0.392255 2.389697 0.046293 -0.010444 37108.600000 0 0 1
-28.086304 11.181050 33.850227 45.383854 -0.378864 0.728964 0.044351 -0.022486 205057.000000 0 0 1
-28.600144 9.895650 33.622762 45.236957 -0.333107 0.732868 0.054442 -0.017241 -1042630.000000 0 0 1
-27.506674 8.821850 33.781030 44.447724 -0.310353 0.707457 0.053206 -0.023125 160973.000000 0 0 1
-26.532114 8.607250 32.772416 43.035672 -0.313697 0.705145 0.047171 -0.024885 -57031.500000 0 0 1
-25.684884 9.717750 32.668429 42.677561 -0.361700 0.699024 0.039710 -0.024982 -710556.000000 0 0 1
-24.286394 9.263750 32.076753 41.286367 -0.364403 0.681016 0.044430 -0.016916 538281.000000 0 0 1
-24.214394 9.057350 30.677137 40.118066 -0.357936 0.700265 0.053075 -0.015653 -193744.000000 0 0 1
-22.912594 8.916050 30.178297 38.925731 -0.371103 0.683640 0.067168 -0.011992 -157841.000000 0 0 1
-22.872494 8.901850 28.641457 37.719053 -0.371157 0.708503 0.094657 -0.022221 -18755.100000 0 0 1
-23.479394 10.012150 28.055797 37.929577 -0.403075 0.738200 0.096583 -0.023630 138915.000000 0 0 1
-23.462794 9.839550 26.644827 36.841095 -0.397091 0.762319 0.091435 -0.026334 -358287.000000 0 0 1
-23.994394 11.137750 25.979777 37.077341 -0.434584 0.794430 0.091071 -0.019817 564419.000000 0 0 1
-25.297914 11.490050 26.425567 38.344704 -0.426333 0.810470 0.105989 -0.018261 -43565.800000 0 0 1
-26.325214 11.111850 25.559277 38.337537 -0.399411 0.841037 0.114781 -0.013523 -1308570.000000 0 0 1
-27.642874 11.751850 25.870327 39.642254 -0.401982 0.859792 0.102887 -0.013845 -953826.000000 0 0 1
-27.782924 13.025950 25.250827 39.738778 -0.438416 0.882244 0.111770 -0.019788 144406.000000 0 0 1
-29.054544 13.595550 25.505557 40.982179 -0.437666 0.899046 0.086352 -0.019194 303048.000000 0 0 1
-29.266574 14.864750 24.673297 41.064154 -0.469955 0.926235 0.097868 -0.020119 121687.000000 0 0 1
-28.623384 16.011950 25.230087 41.379197 -0.510032 0.915078 0.098768 -0.018392 107283.000000 0 0 1
-28.686454 17.086450 24.313217 41.303655 -0.537198 0.941414 0.101067 -0.012643 -169327.000000 0 0 1
-23.453894 -9.209750 31.468217 40.313190 0.374176 0.675181 0.090103 -0.035598 217810.000000 0 0 1
-22.514094 -8.520150 30.650817 38.973709 0.361780 0.665758 0.087271 -0.041610 250769.000000 0 0 1
-22.832794 -8.847250 29.293477 38.180075 0.369667 0.696262 0.089140 -0.037344 831656.000000 0 0 1
-21.602694 -8.694150 28.299317 36.648547 0.382622 0.688530 0.109353 -0.040857 502935.000000 0 0 1
-21.163494 -7.361550 28.036747 35.890738 0.334751 0.674260 0.105351 -0.042273 205089.000000 0 0 1
-20.062694 -6.942650 28.856127 35.824407 0.333150 0.634298 0.099485 -0.040190 178039.000000 0 0 1
-18.713094 -7.206650 28.140147 34.554067 0.367607 0.619136 0.098557 -0.036429 -679888.000000 0 0 1
-18.236394 -8.542450 27.977517 34.471452 0.438073 0.623886 0.094214 -0.038555 309984.000000 0 0 1
-17.702094 -9.196550 29.137737 35.312156 0.479140 0.600333 0.081065 -0.039283 216719.000000 0 0 1
-16.272594 -8.776150 29.609647 34.907726 0.494607 0.558169 0.058598 -0.033623 -303373.000000 0 0 1
-15.218894 -9.293250 28.895607 33.954901 0.548206 0.552911 0.056553 -0.026160 301985.000000 0 0 1
-13.924994 -8.843750 29.395957 33.708154 0.565829 0.511375 0.047663 -0.027656 1345220.000000 0 0 1
-12.781194 -9.717850 28.846907 33.014233 0.650076 0.507892 0.047745 -0.021729 -386837.000000 0 0 1
-12.384694 -9.423250 27.503277 31.600768 0.650427 0.514913 0.066076 -0.027974 -538939.000000 0 0 1
-11.372094 -10.300550 27.151357 31.186889 0.735996 0.514372 0.076577 -0.024713 -500288.000000 0 0 1
-10.869294 -10.109850 25.716007 29.692821 0.749214 0.523513 0.061420 -0.022309 454443.000000 0 0 1
-11.852194 -10.565750 24.784137 29.434045 0.728076 0.569774 0.063727 -0.027831 212037.000000 0 0 1
-11.419894 -10.336250 23.438187 28.046402 0.735631 0.581403 0.071517 -0.030140 259764.000000 0 0 1
-12.390594 -10.884950 22.372417 27.794496 0.720800 0.635251 0.089450 -0.038205 -527285.000000 0 0 1
-12.597094 -12.288250 22.414417 28.497262 0.772988 0.665600 0.085303 -0.035539 608583.000000 0 0 1
-13.807394 -12.829450 21.854117 28.858991 0.748701 0.711670 0.100670 -0.030956 941447.000000 0 0 1
-15.076094 -12.513550 22.686117 29.975614 0.692783 0.712364 0.102328 -0.036204 -58109.500000 0 0 1
-16.286094 -13.201350 22.367617 30.656529 0.681165 0.753030 0.092165 -0.031199 987291.000000 0 0 1
-17.324594 -12.984050 23.330197 31.828057 0.643154 0.748064 0.099754 -0.029133 263218.000000 0 0 1
-18.675794 -13.641750 23.063147 32.661772 0.630872 0.786792 0.102560 -0.026382 -507647.000000 0 0 1
-18.567294 -15.078550 22.982587 33.170866 0.682077 0.805356 0.091090 -0.021402 251063.000000 0 0 1
-19.826094 -15.729450 22.909257 34.136837 0.670686 0.835104 0.080591 -0.012552 130303.000000 0 0 1
-20.593494 -15.868550 24.259797 35.558974 0.656531 0.819973 0.086960 -0.020129 -609401.000000 0 0 1
-20.022794 -16.704950 25.210057 36.270023 0.695307 0.802285 0.090336 -0.026066 -463241.000000 0 0 1
-20.647094 -16.605550 26.459517 37.445331 0.677331 0.786090 0.081080 -0.026577 -171154.000000 0 0 1
-20.243494 -17.727950 27.512077 38.483680 0.719247 0.774312 0.074661 -0.031694 227144.000000 0 0 1
-20.848894 -19.017750 27.290597 39.257202 0.739499 0.802134 0.084695 -0.024357 281265.000000 0 0 1
-20.467194 -19.816950 28.348967 40.190564 0.769258 0.787860 0.074028 -0.021460 -402415.000000 0 0 1
-20.508594 -21.343050 28.024707 40.761654 0.805334 0.812719 0.082654 -0.017416 285691.000000 0 0 1
-21.826094 -21.876450 28.021757 41.715420 0.786550 0.834246 0.087424 -0.019649 166355.000000 0 0 1
-21.848394 -23.207050 27.560587 42.136747 0.815544 0.857837 0.092725 -0.004691 249129.000000 0 0 1
-23.247794 -23.691450 27.113527 42.858932 0.794850 0.885861 0.099933 -0.001045 197922.000000 0 0 1
-24.126394 -24.040050 28.159507 44.192360 0.783606 0.879933 0.098085 0.001656 754955.000000 0 0 1
-25.413224 -24.408350 27.609677 44.764872 0.765231 0.906162 0.075547 0.006220 476074.000000 0 0 1
-26.238174 -25.277630 28.497657 46.254911 0.766755 0.907014 0.044156 0.001169 -695552.000000 0 0 1
-26.775654 -24.627250 29.613377 46.908306 0.743627 0.887564 0.026496 0.008515 352655.000000 0 0 1
-27.530914 -25.546960 30.452697 48.352509 0.748037 0.889493 0.012927 0.013085 745495.000000 0 0 1
-28.706734 -24.792350 31.170567 49.095228 0.712361 0.882917 -0.002829 0.016105 -118173.000000 0 0 1
-29.746894 -24.473950 30.316287 49.019682 0.688454 0.904026 0.007687 0.015499 -549533.000000 0 0 1
-30.621694 -23.556550 30.927937 49.488751 0.655724 0.895730 0.023385 -0.000488 -400571.000000 0 0 1
-31.852444 -23.221150 30.059897 49.572143 0.629940 0.919287 0.037327 -0.004242 -521846.000000 0 0 1
-32.899594 -24.108650 30.299227 50.809974 0.632399 0.931882 0.040647 -0.004398 -867934.000000 0 0 1
-33.821314 -24.209650 29.285577 50.868787 0.621258 0.957326 0.041064 -0.010316 -636093.000000 0 0 1
-34.918184 -25.241420 29.506317 52.220988 0.625913 0.970329 0.046388 -0.012487 -211895.000000 0 0 1
-34.483963 -26.553450 29.543857 52.602936 0.656193 0.974431 0.037723 -0.011233 -875852.000000 0 0 1
-35.482976 -27.327270 30.079087 53.949724 0.656274 0.979378 0.036090 -0.011067 -591595.000000 0 0 1
-35.130866 -28.821600 30.387707 54.665118 0.687061 0.981365 0.035912 -0.006006 -351383.000000 0 0 1
-34.354858 -28.919570 31.522437 54.865853 0.699708 0.958759 0.046669 -0.006729 -473521.000000 0 0 1
-34.283450 -30.288790 31.998912 55.827378 0.723613 0.960420 0.036069 -0.009052 225714.000000 0 0 1
-33.330864 -30.475700 33.217123 56.063286 0.740681 0.936646 0.034027 -0.011363 284532.000000 0 0 1
-33.984804 -30.096550 -33.439716 56.382478 0.724796 2.205684 0.042081 -0.011670 -446780.000000 0 0 1
-33.128984 -30.304310 -32.336056 55.330835 0.740898 2.194953 0.041017 -0.010319 -21038.100000 0 0 1
-33.652944 -29.709220 -30.999526 54.553909 0.723237 2.175158 0.046859 -0.018289 -31080.100000 0 0 1
-33.683904 -28.264850 -30.964266 53.780041 0.698144 2.184327 0.042232 -0.018332 -569614.000000 0 0 1
-32.432504 -27.643360 -30.968486 52.678931 0.705848 2.199222 0.047329 -0.014843 -498389.000000 0 0 1
-32.588574 -26.136540 -30.905256 51.964110 0.675969 2.207741 0.051814 -0.013924 -114938.000000 0 0 1
-33.254354 -25.533570 -29.807546 51.442249 0.654813 2.188834 0.044409 -0.021936 -53586.900000 0 0 1
-33.048824 -24.141050 -29.738456 50.590422 0.630882 2.199167 0.053997 -0.022807 90778.400000 0 0 1
-31.699574 -23.714750 -29.099146 49.132602 0.642290 2.204654 0.073294 -0.023530 -81693.700000 0 0 1
-31.598184 -22.313250 -29.081346 48.394741 0.614846 2.215447 0.073556 -0.021347 503020.000000 0 0 1
-30.476124 -21.867450 -28.308136 46.992872 0.622393 2.217291 0.099773 -0.018842 341712.000000 0 0 1
-30.297984 -20.363550 -28.358436 46.225998 0.591761 2.231248 0.104623 -0.023943 -69313.600000 0 0 1
-29.759984 -19.925050 -29.582466 46.451981 0.589979 2.261189 0.108125 -0.017508 238996.000000 0 0 1
-29.735804 -18.512250 -29.577646 45.844940 0.556841 2.272038 0.103424 -0.020835 -208304.000000 0 0 1
-29.139684 -17.905350 -30.861046 46.066548 0.550989 2.304902 0.117493 -0.020881 -208437.000000 0 0 1
-29.984474 -17.855650 -31.957246 47.319747 0.537102 2.312231 0.105334 -0.033515 245314.000000 0 0 1
-30.944174 -16.772850 -31.817306 47.446932 0.496708 2.305796 0.093604 -0.033145 333258.000000 0 0 1
-31.683544 -16.299050 -33.104466 48.635497 0.475127 2.319466 0.089299 -0.041014 404602.000000 0 0 1
-32.664114 -17.185350 -33.661906 49.954024 0.484327 2.310214 0.096037 -0.046939 418742.000000 0 0 1
-33.990134 -16.741050 -33.459566 50.548338 0.457651 2.294190 0.091592 -0.039338 -167581.000000 0 0 1
-34.918563 -17.460450 33.411188 51.385609 0.463674 0.862942 0.088570 -0.040802 -600942.000000 0 0 1
-35.125110 -18.817750 33.588118 52.115667 0.491825 0.870438 0.064525 -0.038688 -220541.000000 0 0 1
-35.868058 -19.365550 32.544657 52.160299 0.495064 0.897028 0.067276 -0.033110 -669057.000000 0 0 1
-36.214034 -20.808850 32.914068 53.177066 0.521539 0.903388 0.049705 -0.030337 103853.000000 0 0 1
-35.100051 -21.675950 32.761834 52.680149 0.553222 0.899629 0.056352 -0.030366 -139433.000000 0 0 1
-35.288159 -22.955150 33.349046 53.706163 0.576731 0.900837 0.045634 -0.022423 -1612080.000000 0 0 1
-34.059659 -23.867750 33.405860 53.344928 0.611238 0.894096 0.043512 -0.017787 -465550.000000 0 0 1
-33.159854 -23.586850 -33.411686 52.652219 0.618275 2.258252 0.026392 -0.018805 -661222.000000 0 0 1
-32.447274 -22.413650 -33.605666 51.812528 0.604505 2.276541 0.031556 -0.026547 -1697100.000000 0 0 1
-31.094504 -22.520750 -32.855086 50.532257 0.626828 2.278618 0.055432 -0.022841 -162492.000000 0 0 1
-30.122694 -23.351250 -33.506266 50.747684 0.659438 2.291951 0.058430 -0.012757 242435.000000 0 0 1
-28.841904 -23.466350 -32.949596 49.680991 0.682991 2.295914 0.080705 -0.016389 -78310.500000 0 0 1
-28.711994 -23.846850 -31.424766 48.791052 0.693096 2.270601 0.072963 -0.014550 -1282940.000000 0 0 1
-28.906204 -25.182670 -31.040616 49.328038 0.716666 2.251409 0.064000 -0.013849 -80614.000000 0 0 1
-28.478454 -25.401210 -29.734476 48.377503 0.728347 2.232719 0.060780 -0.019939 -132683.000000 0 0 1
-28.104724 -26.866510 -29.475816 48.790456 0.762877 2.219471 0.063216 -0.022361 -94201.900000 0 0 1
-29.288224 -27.621390 -29.411946 49.857836 0.756117 2.201751 0.060951 -0.013395 100202.000000 0 0 1
-29.056464 -28.931240 -28.929296 50.181659 0.783239 2.185225 0.072219 -0.016779 73221.300000 0 0 1
-29.851054 -30.088330 -29.621786 51.709218 0.789357 2.180779 0.059673 -0.002989 40181.400000 0 0 1
-29.365834 -30.446620 -30.925716 52.399893 0.803466 2.202086 0.068391 -0.012386 303040.000000 0 0 1
-29.769354 -31.735300 -31.286786 53.592972 0.817351 2.194179 0.078707 -0.001055 -217729.000000 0 0 1
-29.292964 -32.200800 -32.707686 54.449627 0.832650 2.215168 0.056554 -0.013628 538314.000000 0 0 1
-27.876394 -32.357530 -32.783616 53.841141 0.859657 2.225463 0.057709 -0.013028 335128.000000 0 0 1
-27.460094 -32.820400 33.788122 54.524055 0.874088 0.902446 0.057250 -0.015197 -1027010.000000 0 0 1
-25.991534 -33.173230 33.759595 53.997530 0.906192 0.895401 0.064095 -0.018045 -841070.000000 0 0 1
-25.607634 -33.574020 32.467327 53.264369 0.919203 0.915303 0.062320 -0.012229 169422.000000 0 0 1
-24.698994 33.309674 32.599954 52.747812 -0.932760 0.904557 0.055497 -0.002183 -103545.000000 0 0 1
-24.385494 32.538525 31.331107 51.332701 -0.927657 0.914289 0.059309 -0.014440 -532295.000000 0 0 1
-25.546364 32.036723 30.706897 51.204315 -0.897637 0.927678 0.067994 -0.030766 -158332.000000 0 0 1
-25.331254 31.044439 29.726297 49.890704 -0.886395 0.932500 0.060768 -0.026195 -129024.000000 0 0 1
-26.602394 30.234529 29.340997 49.826782 -0.849216 0.941149 0.060042 -0.020581 191449.000000 0 0 1
-27.128464 29.368089 30.333887 50.185485 -0.825019 0.921739 0.060080 -0.023929 120978.000000 0 0 1
-28.374584 28.833329 29.958147 50.338538 -0.793417 0.933365 0.060845 -0.030806 -87989.000000 0 0 1
-28.792584 27.647789 30.764557 50.397134 -0.765118 0.914177 0.058445 -0.038804 417343.000000 0 0 1
-27.888974 26.512509 30.543217 49.128364 -0.760102 0.899882 0.052894 -0.025308 645625.000000 0 0 1
-28.344594 25.250969 30.983297 48.999920 -0.727740 0.886261 0.062923 -0.023646 262550.000000 0 0 1
-29.411084 24.519379 30.116297 48.715533 -0.694942 0.904336 0.081978 -0.027872 377883.000000 0 0 1
-28.910294 24.182439 28.831247 47.453517 -0.696583 0.917801 0.072693 -0.029614 -623711.000000 0 0 1
-29.795024 23.438389 28.031847 47.147492 -0.666550 0.934082 0.086251 -0.020527 -192780.000000 0 0 1
-29.347324 23.186019 26.570487 45.878619 -0.668648 0.953114 0.084328 -0.021183 640200.000000 0 0 1
-28.069904 22.534449 26.596557 44.755980 -0.676444 0.934455 0.086813 -0.019697 797675.000000 0 0 1
-27.403384 22.188449 25.380077 43.444459 -0.680626 0.946907 0.072011 -0.013455 369683.000000 0 0 1
-26.029964 21.481849 25.545677 42.327420 -0.689963 0.922881 0.066298 -0.019949 53723.700000 0 0 1
-26.107814 20.265449 26.328067 42.254863 -0.660073 0.898125 0.092287 -0.024022 432690.000000 0 0 1
-24.790694 19.768549 26.488527 41.316051 -0.673165 0.874840 0.082119 -0.009606 7281.830000 0 0 1
-24.679894 18.695349 27.572987 41.459412 -0.648292 0.843222 0.113431 -0.018923 -1129460.000000 0 0 1
-23.452694 18.141449 27.827937 40.663683 -0.658393 0.817093 0.107840 -0.014390 -816086.000000 0 0 1
-23.609194 17.061749 28.697037 40.890308 -0.625782 0.792868 0.109088 -0.018221 -466747.000000 0 0 1
-22.380894 16.154549 28.829977 39.912923 -0.625208 0.763642 0.113231 -0.023155 -584091.000000 0 0 1
-21.449394 16.688149 29.735037 40.283287 -0.661197 0.740475 0.126156 -0.022856 -154688.000000 0 0 1
-20.307894 15.840449 29.654937 39.277801 -0.662435 0.715135 0.102863 -0.023617 343022.000000 0 0 1
-19.096694 16.317149 30.514497 39.523001 -0.707071 0.688706 0.080933 -0.022822 -42275.200000 0 0 1
-19.222494 16.169049 31.939318 40.633268 -0.699335 0.666422 0.072920 -0.023146 865733.000000 0 0 1
-18.066594 16.590649 32.690404 40.869475 -0.742837 0.643712 0.061669 -0.023546 -20976.400000 0 0 1
-18.258594 16.174949 -33.661866 41.570740 -0.724960 2.514521 0.059458 -0.028867 365285.000000 0 0 1
-19.224794 16.936549 -32.940686 41.731621 -0.722204 2.480539 0.089881 -0.025409 1144240.000000 0 0 1
-20.582494 16.521549 -33.136516 42.363065 -0.676385 2.468990 0.087159 -0.015002 4923.830000 0 0 1
-21.646294 17.389049 -32.465136 42.719154 -0.676766 2.434058 0.086274 -0.023392 -332646.000000 0 0 1
-21.947894 16.985049 -31.172036 41.736048 -0.658610 2.414162 0.093603 -0.028075 98019.500000 0 0 1
-22.976594 17.788149 -30.648146 42.233292 -0.658801 2.382829 0.097715 -0.027005 -636835.000000 0 0 1
-23.266394 17.573149 -29.143576 41.224855 -0.646886 2.355961 0.091250 -0.022625 129134.000000 0 0 1
-23.979894 16.389549 -28.818546 40.916515 -0.599546 2.352269 0.079599 -0.025019 811092.000000 0 0 1
-25.375074 16.439049 -29.139386 41.990957 -0.574857 2.337749 0.079692 -0.026625 440632.000000 0 0 1
-26.333454 15.542149 -28.309886 41.670839 -0.533187 2.317699 0.073530 -0.023584 93048.200000 0 0 1
-26.177164 14.204349 -28.612846 41.300150 -0.497162 2.336164 0.055591 -0.020045 -61434.700000 0 0 1
-26.900864 13.406849 -27.707136 40.878912 -0.462351 2.315543 0.029747 -0.010205 -77976.500000 0 0 1
-26.471804 11.929249 -27.698906 40.128453 -0.423386 2.332639 0.042924 -0.014011 294288.000000 0 0 1
-25.212834 11.689549 -27.098986 38.816074 -0.434135 2.343590 0.040716 -0.013506 98362.000000 0 0 1
-24.660594 10.455249 -27.499276 38.388374 -0.400994 2.369345 0.029591 -0.006603 215780.000000 0 0 1
-23.492394 9.814949 -26.703966 36.896173 -0.395750 2.380032 0.069122 -0.007520 418718.000000 0 0 1
-23.894994 8.947349 -25.663436 36.188917 -0.358284 2.359091 0.045464 -0.007315 -87709.100000 0 0 1
-22.728194 8.440249 -25.074026 34.878580 -0.355572 2.373007 0.087321 0.006894 -267061.000000 0 0 1
-22.950294 7.515149 -23.846066 33.938596 -0.316449 2.349875 0.085448 0.010012 -26627.100000 0 0 1
-23.608794 6.318649 -24.164266 34.368768 -0.261511 2.350527 0.078187 -0.013148 71868.400000 0 0 1
-23.724994 5.417949 -23.050666 33.519587 -0.224515 2.329082 0.088248 -0.011726 -290604.000000 0 0 1
35.950135 24.752650 -9.939166 44.764863 0.602985 1.794693 0.061624 -0.004549 158138.000000 0 0 1
37.027945 24.347650 -9.111966 45.242731 0.581663 1.773585 0.072689 -0.002733 5443.990000 0 0 1
-36.852814 23.215250 -9.704966 44.623582 -0.562147 1.790034 0.101487 -0.007633 -427933.000000 0 0 1
-35.924552 22.421750 -8.830066 43.258275 -0.557977 1.776365 0.098031 -0.010208 -396620.000000 0 0 1
-36.550664 21.582850 -7.877366 43.172020 -0.533398 1.754289 0.084479 -0.006026 -143005.000000 0 0 1
-35.594989 21.153750 -6.959766 41.987173 -0.536210 1.737324 0.122409 -0.005184 -447359.000000 0 0 1
-36.234414 20.427050 -5.779966 41.995299 -0.513336 1.708868 0.102415 0.006867 -25475.300000 0 0 1
-36.816114 19.187550 -6.197666 41.976176 -0.480442 1.718985 0.086485 0.003501 334719.000000 0 0 1
37.109765 18.476550 -5.101266 41.767697 0.461958 1.693236 0.087514 -0.006159 -247703.000000 0 0 1
36.248745 17.270750 -5.510366 40.529181 0.444632 1.707179 0.084739 -0.002085 -480044.000000 0 0 1
35.134865 17.616550 -6.266766 39.800427 0.464765 1.728909 0.077662 -0.002425 -557402.000000 0 0 1
34.640815 16.486350 -6.948466 38.988037 0.444201 1.749974 0.091124 -0.003753 291433.000000 0 0 1
33.738015 16.865850 -8.177166 38.595034 0.463573 1.784285 0.051164 -0.007009 165718.000000 0 0 1
33.267065 15.685650 -8.776066 37.812122 0.440594 1.805029 0.062160 -0.007594 -213268.000000 0 0 1
32.734245 15.958650 -10.029166 37.772920 0.453615 1.839531 0.055519 -0.007672 -544460.000000 0 0 1
32.117935 14.709250 -10.665766 36.900981 0.429467 1.864018 0.063385 -0.010067 78921.200000 0 0 1
30.833225 14.246050 -10.289466 35.489588 0.432818 1.864949 0.059700 -0.004533 470051.000000 0 0 1
30.675965 13.823650 -8.915366 34.807929 0.423382 1.829813 0.069567 -0.001292 -555973.000000 0 0 1
29.528965 12.819750 -8.720566 33.351972 0.409588 1.835342 0.071428 0.008836 72205.100000 0 0 1
29.972545 11.611950 -9.355466 33.477091 0.369614 1.854027 0.076019 0.000725 484728.000000 0 0 1
28.991965 10.622650 -9.426066 32.283517 0.351210 1.867090 0.100194 -0.006549 -379549.000000 0 0 1
29.634335 9.312950 -10.018066 32.638727 0.304489 1.882770 0.098738 -0.007074 162766.000000 0 0 1
30.705065 8.909950 -9.183466 33.264460 0.282422 1.850504 0.093550 -0.008617 310315.000000 0 0 1
30.759485 7.474750 -9.096766 32.935831 0.238386 1.850631 0.105415 -0.006432 -725235.000000 0 0 1
31.859525 7.036050 -8.180566 33.637137 0.217357 1.816460 0.138029 -0.017291 -298553.000000 0 0 1
33.178775 7.209350 -8.647966 35.037026 0.213962 1.820197 0.129541 -0.015288 334194.000000 0 0 1
34.202185 6.896850 -7.720366 35.734578 0.198981 1.788561 0.135411 -0.010459 -302711.000000 0 0 1
35.615765 7.053550 -8.244766 37.231861 0.195516 1.794091 0.137422 -0.014172 -556023.000000 0 0 1
35.791555 6.291150 -9.437066 37.545602 0.173995 1.824871 0.153805 -0.025427 1082780.000000 0 0 1
37.201165 6.373850 -9.726466 38.976362 0.169687 1.823010 0.162095 -0.025432 184655.000000 0 0 1
-36.801094 5.354250 -10.855766 38.740627 -0.144478 1.854816 0.161105 -0.034473 583706.000000 0 0 1
-35.434996 5.195250 -11.229466 37.533058 -0.145576 1.874639 0.161098 -0.040738 770394.000000 0 0 1
-34.645819 6.267550 -11.676166 37.093770 -0.178968 1.891015 0.141136 -0.034956 200898.000000 0 0 1
-33.770814 7.027350 -10.576066 36.079145 -0.205162 1.868301 0.134064 -0.034606 -72901.600000 0 0 1
-34.483035 8.026850 -9.798166 36.735733 -0.228704 1.840785 0.149850 -0.029834 547142.000000 0 0 1
-34.676809 9.218750 -10.513866 37.389943 -0.259838 1.855835 0.146284 -0.034576 -244528.000000 0 0 1
-35.703447 10.055650 -9.713266 38.343184 -0.274532 1.826912 0.128100 -0.018599 -95025.900000 0 0 1
-35.285449 10.519950 -8.433666 37.773787 -0.289748 1.795962 0.117578 -0.012673 -25689.600000 0 0 1
-36.181174 11.476450 -7.877166 38.766429 -0.307155 1.775417 0.107926 -0.012967 179735.000000 0 0 1
-35.578323 12.476050 -6.807166 38.311962 -0.337267 1.749422 0.119628 -0.016990 -63608.600000 0 0 1
-34.666191 13.349450 -7.400966 37.877789 -0.367583 1.767452 0.116442 -0.015688 -414344.000000 0 0 1
-34.242458 14.321450 -6.465266 37.675583 -0.396128 1.743254 0.133286 -0.020767 -363494.000000 0 0 1
-33.367014 15.295150 -7.199166 37.404909 -0.429810 1.764471 0.109734 -0.020799 -589391.000000 0 0 1
-34.052724 16.109050 -8.116766 38.535327 -0.441866 1.783018 0.083587 -0.015802 45108.800000 0 0 1
-33.218164 17.099750 -8.742766 38.370351 -0.475395 1.800668 0.080941 -0.003703 105466.000000 0 0 1
-33.946684 17.916050 -9.792766 39.613892 -0.485616 1.820591 0.053637 -0.006091 -133642.000000 0 0 1
-33.370404 17.888550 -11.109366 39.458866 -0.492078 1.856198 0.035764 -0.004026 -114232.000000 0 0 1
-34.263825 18.377750 -12.097466 40.719775 -0.492311 1.872441 0.035272 -0.005057 -211613.000000 0 0 1
-33.705204 18.487950 -13.559666 40.764072 -0.501706 1.909895 0.012731 0.001437 -187664.000000 0 0 1
-32.819254 19.581850 -13.615166 40.570001 -0.537958 1.913035 0.011398 -0.002691 64970.500000 0 0 1
-32.586604 19.979850 -14.933166 41.037551 -0.550019 1.943237 0.003766 -0.003871 -196017.000000 0 0 1
-31.803164 21.364750 -14.968566 41.133341 -0.591535 1.943252 0.020033 -0.009473 -535481.000000 0 0 1
-30.462064 21.091950 -14.633666 39.836565 -0.605607 1.946947 0.021451 -0.002379 90436.900000 0 0 1
-29.646034 22.250050 -14.466066 39.789686 -0.643836 1.942886 0.052324 -0.006876 130091.000000 0 0 1
-29.174584 23.000050 -15.766966 40.357848 -0.667602 1.972165 0.034612 -0.007774 -1314020.000000 0 0 1
-30.238214 23.430650 -16.581766 41.692924 -0.659228 1.979818 0.048185 -0.001747 143312.000000 0 0 1
-29.749924 24.057650 -17.754766 42.178907 -0.680001 2.005277 0.057628 -0.002615 78398.100000 0 0 1
-29.046354 25.410050 -17.563866 42.401070 -0.718723 1.997895 0.082302 -0.010655 30280.700000 0 0 1
-29.904614 26.480250 -17.253466 43.510593 -0.724741 1.978535 0.101204 -0.015379 460518.000000 0 0 1
-29.153514 27.708650 -17.359866 43.807095 -0.759994 1.978258 0.101723 -0.020693 531208.000000 0 0 1
-30.045984 28.911450 -17.003966 45.030745 -0.766157 1.958008 0.106204 -0.025648 -126499.000000 0 0 1
-30.224944 29.189050 -15.605066 44.822605 -0.767965 1.926395 0.094730 -0.025260 -44062.400000 0 0 1
-29.095594 29.594150 -14.888866 44.091333 -0.793893 1.915250 0.080970 -0.018288 -520462.000000 0 0 1
-29.424814 29.888650 -13.440666 44.043190 -0.793218 1.880913 0.083851 -0.018567 34220.900000 0 0 1
-30.260734 31.037350 -13.301166 45.342586 -0.798067 1.868524 0.073299 -0.014358 357016.000000 0 0 1
-29.921734 31.949550 -12.213966 45.445185 -0.818161 1.842904 0.072255 -0.015553 111285.000000 0 0 1
-28.768164 32.991250 -12.339566 45.478508 -0.853672 1.845568 0.065556 -0.022058 -17289.200000 0 0 1
-28.908644 -33.917348 -13.259066 46.496226 0.864953 1.859974 0.058180 -0.023201 24620.400000 0 0 1
-27.940544 -32.864448 -13.160966 45.099412 0.866200 1.866927 0.072844 -0.025432 210552.000000 0 0 1
-28.142564 -31.904948 -14.321266 44.889066 0.847973 1.895509 0.062907 -0.026130 -69554.900000 0 0 1
-27.628964 -32.350148 -15.531866 45.289409 0.863950 1.920849 0.056405 -0.032066 -193769.000000 0 0 1
-28.157904 -31.679248 -16.676566 45.547230 0.844179 1.945652 0.064205 -0.020958 48794.500000 0 0 1
-27.321174 -31.939448 -17.967866 45.710164 0.863173 1.974778 0.059241 -0.019934 -24518.700000 0 0 1
-27.490574 -33.218248 -18.645666 46.977064 0.879466 1.978944 0.065894 -0.014501 -43781.000000 0 0 1
-27.023934 33.657250 -17.931366 46.740105 -0.894280 1.964531 0.054428 -0.020969 -590072.000000 0 0 1
-27.268834 32.259150 -18.605166 46.156194 -0.869034 1.985689 0.077273 -0.032262 77496.300000 0 0 1
-28.591734 31.773450 -18.699066 46.655058 -0.838057 1.983180 0.096774 -0.037294 -247991.000000 0 0 1
-29.274834 32.371550 -19.783166 47.919796 -0.835590 1.996365 0.098598 -0.029263 -736534.000000 0 0 1
-30.741454 31.947050 -19.827466 48.567267 -0.804627 1.991330 0.106090 -0.038285 -462921.000000 0 0 1
-30.952644 30.640750 -20.264866 48.037345 -0.780334 2.006288 0.107153 -0.040606 1042860.000000 0 0 1
-32.339184 30.241750 -20.209166 48.670285 -0.751895 1.998987 0.116254 -0.036557 853351.000000 0 0 1
-32.683094 28.892050 -20.838066 48.344184 -0.723908 2.016437 0.116203 -0.033997 1461500.000000 0 0 1
-34.117898 28.669250 -21.008466 49.267763 -0.698835 2.011321 0.114344 -0.031130 1650330.000000 0 0 1
-34.357062 27.607050 -21.874366 49.204114 -0.676892 2.031484 0.112804 -0.019137 780872.000000 0 0 1
-35.757103 26.866150 -21.885066 49.792736 -0.644365 2.025864 0.113777 -0.011363 1564360.000000 0 0 1
-36.789384 27.593350 -22.577866 51.230965 -0.643524 2.027183 0.109149 -0.008655 1129120.000000 0 0 1
36.552825 26.770650 -22.994166 50.808547 0.632130 2.040436 0.112520 -0.004660 1250430.000000 0 0 1
35.631735 27.405350 -24.065566 50.988481 0.655631 2.062332 0.115187 -0.008489 259925.000000 0 0 1
36.344975 27.622650 -25.242986 52.164896 0.649879 2.075911 0.115563 -0.014001 329859.000000 0 0 1
35.443825 27.798150 -26.325136 52.172931 0.665086 2.099686 0.111395 -0.020108 902773.000000 0 0 1
36.379995 27.881850 -27.616886 53.512559 0.653919 2.113067 0.101335 -0.020441 1134230.000000 0 0 1
37.015665 26.687950 -28.042166 53.560893 0.624675 2.121817 0.085047 -0.015192 1203.740000 0 0 1
-36.799184 26.842950 -29.280066 54.148372 -0.630215 2.142110 0.065715 -0.016976 -890855.000000 0 0 1
-36.277494 25.605250 -30.017906 53.598135 -0.614619 2.165249 0.057261 -0.014857 961769.000000 0 0 1
-35.095289 25.023750 -29.426726 52.190033 -0.619413 2.169822 0.063112 -0.012323 1354990.000000 0 0 1
-33.848424 25.670150 -29.724306 51.847920 -0.648846 2.181322 0.054951 -0.003722 585878.000000 0 0 1
-32.572044 24.970050 -29.200536 50.369760 -0.654047 2.189186 0.062230 -0.008471 -44263.000000 0 0 1
-32.551254 23.567450 -29.478116 49.839424 -0.626659 2.203667 0.059265 -0.011985 154676.000000 0 0 1
-32.845014 22.732850 -28.371146 48.994891 -0.605421 2.188376 0.050972 -0.010419 -89802.700000 0 0 1
-32.599494 21.221050 -28.682976 48.329836 -0.577052 2.206177 0.041081 -0.017311 74387.700000 0 0 1
-31.250754 20.828650 -28.863996 47.366365 -0.587888 2.226072 0.066927 -0.018873 318536.000000 0 0 1
-31.241794 19.521650 -29.310116 47.076824 -0.558496 2.242859 0.047311 -0.016537 83447.000000 0 0 1
-29.795374 19.040550 -29.573476 46.096609 -0.568635 2.267319 0.064253 -0.019925 -152941.000000 0 0 1
-29.135654 19.639150 -30.660136 46.632890 -0.593103 2.288264 0.084454 -0.027066 284728.000000 0 0 1
-27.882984 19.092650 -31.049296 45.891708 -0.600412 2.313901 0.087997 -0.021524 350329.000000 0 0 1
-27.874304 17.723650 -31.721706 45.797065 -0.566358 2.335964 0.087317 -0.021181 -559507.000000 0 0 1
-28.380084 16.703150 -30.910336 45.164956 -0.531959 2.324560 0.057326 -0.013635 46932.900000 0 0 1
-28.255594 15.434650 -31.599546 45.112507 -0.499960 2.346839 0.041903 -0.009167 -107094.000000 0 0 1
-28.867274 14.183350 -30.945386 44.632990 -0.456687 2.336896 0.040133 -0.010726 726998.000000 0 0 1
-30.286134 14.193250 -30.694346 45.396488 -0.438245 2.313306 0.022298 -0.012153 872017.000000 0 0 1
-30.757014 12.879550 -30.386586 45.113427 -0.396566 2.309811 0.018969 -0.007296 -192526.000000 0 0 1
-30.360074 12.120750 -29.099346 43.765495 -0.379845 2.298146 0.016456 -0.020205 -516244.000000 0 0 1
-30.787404 12.735150 -27.884046 43.446154 -0.392216 2.267649 0.004876 -0.016431 321569.000000 0 0 1
-30.929844 11.767350 -26.842306 42.610270 -0.363543 2.252284 0.013231 -0.013583 45901.500000 0 0 1
-30.930854 12.405850 -25.425916 41.917777 -0.381440 2.222531 0.010112 -0.013575 897158.000000 0 0 1
-29.570324 12.662950 -25.026966 40.756636 -0.404605 2.231989 0.009020 -0.016105 849482.000000 0 0 1
-29.515894 13.327350 -23.790966 40.184777 -0.424127 2.204383 0.010234 -0.005117 -40880.400000 0 0 1
-28.059364 13.571550 -23.304366 38.917969 -0.450501 2.212807 0.023231 -0.002744 -711477.000000 0 0 1
-27.449484 14.413150 -24.193166 39.325848 -0.483509 2.233433 0.035063 -0.002751 -757997.000000 0 0 1
-26.063924 14.487550 -24.000766 38.278636 -0.507321 2.248495 0.052082 -0.015269 -18949.300000 0 0 1
-25.546184 15.372150 -22.767466 37.513571 -0.541698 2.222967 0.061791 -0.011077 -685178.000000 0 0 1
-25.919854 16.708450 -22.821366 38.364383 -0.572584 2.207885 0.076847 -0.010330 -98662.500000 0 0 1
-26.036804 17.220850 -21.507366 37.908305 -0.584350 2.174083 0.074589 -0.005408 336584.000000 0 0 1
-27.464274 17.242150 -20.886266 38.572194 -0.560612 2.142999 0.052646 0.000271 58852.600000 0 0 1
-28.136734 15.995050 -20.890966 38.522070 -0.516917 2.143982 0.049961 0.001081 -379770.000000 0 0 1
-29.310744 16.225550 -20.166266 39.103279 -0.505580 2.112642 0.039053 0.005838 -1087950.000000 0 0 1
-30.371964 15.131550 -20.345966 39.564862 -0.462213 2.110921 0.015428 0.000048 -121192.000000 0 0 1
-30.944554 14.968550 -21.621666 40.609350 -0.450540 2.132266 0.016694 0.000354 492963.000000 0 0 1
-31.932044 15.947350 -21.985766 41.920726 -0.463180 2.122878 -0.000885 0.002810 -55524.500000 0 0 1
-32.386754 15.857850 -23.460266 43.020429 -0.455325 2.147577 -0.001600 -0.002631 -589473.000000 0 0 1
-33.389704 14.924250 -23.674666 43.567136 -0.420333 2.145286 0.012300 -0.006048 -40103.100000 0 0 1
-33.964964 15.036650 -25.021966 44.786364 -0.416776 2.163609 0.021148 -0.012610 151893.000000 0 0 1
-35.297039 14.302850 -25.256476 45.698381 -0.384993 2.156370 0.028768 -0.013904 -126880.000000 0 0 1
-35.214403 12.881450 -25.515116 45.354240 -0.350681 2.168292 0.026587 -0.017933 87084.600000 0 0 1
-34.747837 12.052150 -24.473966 44.177387 -0.333862 2.157949 0.026664 -0.019632 -241748.000000 0 0 1
-34.770027 10.559950 -24.938966 44.072887 -0.294856 2.172269 0.040933 -0.028924 -335809.000000 0 0 1
-36.027162 10.064150 -25.294386 45.155835 -0.272405 2.165372 0.050807 -0.024942 -305802.000000 0 0 1
-35.853073 8.893750 -26.115906 45.239166 -0.243153 2.186196 0.052291 -0.018288 481333.000000 0 0 1
-37.217224 8.198450 -26.371056 46.344028 -0.216824 2.176120 0.077393 -0.021121 715828.000000 0 0 1
36.464245 7.585450 -25.321186 45.037126 0.205099 2.167875 0.069457 -0.013591 280871.000000 0 0 1
35.362315 6.918950 -25.906036 44.378913 0.193218 2.194132 0.089689 -0.015448 757703.000000 0 0 1
34.306795 6.298850 -24.900666 42.856445 0.181581 2.190784 0.104694 -0.020754 560158.000000 0 0 1
34.909075 5.257450 -24.146666 42.770852 0.149481 2.170695 0.100617 -0.032058 66852.400000 0 0 1
34.025225 4.291850 -23.646666 41.656941 0.125475 2.174448 0.097603 -0.026965 120640.000000 0 0 1
34.824395 3.282750 -22.750566 41.726529 0.093988 2.147460 0.092411 -0.021924 491558.000000 0 0 1
35.803735 2.492350 -23.429766 42.861092 0.069499 2.149148 0.099867 -0.022840 374799.000000 0 0 1
36.616725 1.933650 -22.398966 42.967863 0.052759 2.119165 0.117561 -0.022250 -459257.000000 0 0 1
-36.788004 1.018650 -22.990266 43.392939 -0.027683 2.129180 0.128895 -0.020101 -408179.000000 0 0 1
-37.156844 -0.322450 -23.380766 43.902110 0.008678 2.132426 0.141625 -0.018142 -18832.300000 0 0 1
-36.036058 -1.016850 -23.904066 43.255471 0.028210 2.156307 0.148250 -0.019901 272453.000000 0 0 1
-23.765694 29.126350 27.070847 46.324759 -0.886404 0.946692 0.032913 -0.028685 -701881.000000 0 0 1
-25.016594 29.594750 26.621837 47.014906 -0.869034 0.968856 0.018019 -0.029216 551568.000000 0 0 1
-25.566814 29.112050 25.403147 46.330264 -0.850145 0.990459 0.011433 -0.025166 -106081.000000 0 0 1
-25.836154 27.550350 25.198347 45.403583 -0.817496 0.982450 0.028962 -0.029584 -79932.900000 0 0 1
-27.046314 27.089450 25.795287 46.159920 -0.786195 0.977829 0.035379 -0.024723 405570.000000 0 0 1
-27.085614 26.855350 27.227447 46.863357 -0.781129 0.950844 0.044199 -0.028163 -1081160.000000 0 0 1
-26.353984 25.523150 27.657227 45.944378 -0.769384 0.924828 0.039437 -0.024820 708221.000000 0 0 1
-24.990094 25.696250 28.074267 45.529842 -0.799329 0.906364 0.035637 -0.022750 509797.000000 0 0 1
-24.792694 26.478950 29.218767 46.578416 -0.818275 0.892711 0.030240 -0.020241 -608819.000000 0 0 1
-23.411594 26.314450 29.900067 46.201375 -0.843709 0.866932 0.037511 -0.008301 61755.600000 0 0 1
-22.303694 26.801050 29.137697 45.439591 -0.876730 0.874683 0.052153 -0.018805 207913.000000 0 0 1
-21.100794 26.697350 29.868627 45.278327 -0.901955 0.850420 0.091251 -0.025202 -281542.000000 0 0 1
-20.333494 25.399550 29.745057 44.083518 -0.895723 0.830180 0.081433 -0.004184 -877454.000000 0 0 1
-19.795594 25.308050 28.415977 42.893248 -0.907013 0.846670 0.081685 -0.013405 -177440.000000 0 0 1
-20.521394 24.478250 27.541257 42.176216 -0.873103 0.859252 0.076061 -0.020402 -151964.000000 0 0 1
-20.245394 22.929950 27.475407 41.116379 -0.847496 0.838962 0.060630 -0.000339 15989.800000 0 0 1
-20.720294 22.175650 28.564267 41.677421 -0.819313 0.815691 0.046168 -0.001668 -53081.800000 0 0 1
-20.454694 20.831850 28.398227 40.728612 -0.794533 0.799235 0.069904 -0.007616 200056.000000 0 0 1
-20.911794 20.039350 29.668877 41.462284 -0.764097 0.773367 0.084186 -0.015693 290043.000000 0 0 1
-20.121394 20.429150 30.785547 42.071018 -0.792987 0.749908 0.068335 -0.019405 354436.000000 0 0 1
-20.603794 19.780750 31.955883 42.859922 -0.765021 0.729378 0.064487 -0.013530 -178007.000000 0 0 1
-19.689694 20.050250 33.170048 43.473540 -0.794471 0.702864 0.074670 -0.010551 -371882.000000 0 0 1
-19.669094 21.398250 33.685833 44.491502 -0.827479 0.711888 0.041083 0.000286 31607.900000 0 0 1
-18.966794 22.328650 32.859543 44.023374 -0.866629 0.728143 0.067609 -0.000582 160932.000000 0 0 1
-17.485594 22.448450 33.353241 43.841962 -0.909041 0.706312 0.070779 0.007365 504275.000000 0 0 1
-16.721394 21.262850 33.150901 42.786634 -0.904395 0.684404 0.075645 -0.012526 281928.000000 0 0 1
-15.337394 21.524150 33.379035 42.575635 -0.951686 0.669723 0.060181 -0.012216 -485073.000000 0 0 1
-14.549794 20.195150 33.248881 41.533465 -0.946471 0.642613 0.056475 -0.014556 250727.000000 0 0 1
-13.177894 20.185650 33.634116 41.380806 -0.992431 0.621862 0.048729 -0.016018 581512.000000 0 0 1
-12.928294 20.492050 -32.884466 40.846701 -1.007970 2.506590 0.064681 -0.014357 -326031.000000 0 0 1
-11.421194 20.407550 -32.471986 40.016767 -1.060570 2.517442 0.062840 -0.015785 779976.000000 0 0 1
-10.742594 21.629450 -32.785136 40.719793 -1.109820 2.506708 0.067813 -0.017090 160679.000000 0 0 1
-9.413094 21.576150 -32.303296 39.970483 -1.159416 2.511849 0.047386 -0.009507 415005.000000 0 0 1
-8.550394 22.906450 -32.362566 40.560453 -1.213539 2.494574 0.057669 -0.013107 364098.000000 0 0 1
-8.627494 23.807750 -31.265426 40.233934 -1.223134 2.460827 0.059490 -0.015829 166510.000000 0 0 1
-8.147194 23.316250 -30.009586 38.866432 -1.234637 2.452968 0.050278 -0.019976 -84290.400000 0 0 1
-7.863194 24.549350 -29.050826 38.838781 -1.260820 2.415817 0.060840 -0.021818 247570.000000 0 0 1
-6.656794 25.186850 -29.443226 39.314042 -1.312408 2.417233 0.061616 -0.018969 207332.000000 0 0 1
-6.337294 26.273850 -28.580036 39.335670 -1.334116 2.384110 0.088288 -0.021093 -886824.000000 0 0 1
-5.021394 26.842650 -29.067726 39.883266 -1.385866 2.387393 0.109719 -0.027508 -1133670.000000 0 0 1
-3.972494 26.010850 -28.542856 38.820609 -1.419243 2.396832 0.100853 -0.016685 419628.000000 0 0 1
-2.733794 26.108650 -29.233766 39.290562 -1.466468 2.409894 0.107562 -0.021896 511369.000000 0 0 1
-1.936094 27.407750 -28.973716 39.930057 -1.500273 2.382719 0.115542 -0.032564 -899347.000000 0 0 1
-1.245794 27.504650 -27.746766 39.088883 -1.525533 2.360064 0.132663 -0.041919 185123.000000 0 0 1
-0.402294 28.632550 -27.705606 39.844515 -1.556747 2.339693 0.124754 -0.035318 -515584.000000 0 0 1
0.288806 28.762450 -26.296136 38.972409 1.560756 2.311405 0.131081 -0.047291 444341.000000 0 0 1
1.309206 27.825850 -25.910736 38.044161 1.523781 2.320019 0.156343 -0.050854 412230.000000 0 0 1
2.533206 27.995950 -26.580076 38.687088 1.480557 2.328222 0.134700 -0.046355 -859335.000000 0 0 1
3.736106 28.139750 -25.656136 38.262793 1.438799 2.305712 0.123136 -0.051326 -483077.000000 0 0 1
4.172006 26.947850 -25.035146 37.018249 1.417198 2.313514 0.133316 -0.041589 266012.000000 0 0 1
5.352106 27.219350 -24.278866 36.864636 1.376644 2.289746 0.102961 -0.035747 128153.000000 0 0 1
6.029306 25.975750 -23.744366 35.705560 1.342722 2.298296 0.097468 -0.030795 -765256.000000 0 0 1
7.026306 26.267350 -22.842366 35.512200 1.309424 2.269500 0.094205 -0.039122 -749254.000000 0 0 1
7.798606 25.143250 -22.470266 34.610896 1.270038 2.277362 0.083751 -0.032292 1299210.000000 0 0 1
9.316406 25.451450 -22.152066 35.004082 1.219899 2.256015 0.064463 -0.013968 608445.000000 0 0 1
9.651106 26.202650 -21.011266 34.945615 1.217890 2.215869 0.064217 -0.010145 317271.000000 0 0 1
11.050706 26.296450 -20.759066 35.278325 1.172968 2.199920 0.080856 -0.014854 619939.000000 0 0 1
11.739806 25.065650 -20.094866 34.203998 1.132778 2.198763 0.060321 -0.008498 -309296.000000 0 0 1
12.003506 24.018850 -21.046766 34.116795 1.107346 2.235598 0.054505 -0.013023 131534.000000 0 0 1
12.382106 22.807350 -20.376666 32.995458 1.073421 2.236433 0.051639 -0.004304 -305416.000000 0 0 1
12.520606 21.650950 -21.400266 32.916570 1.046490 2.278560 0.051875 0.000113 -66852.900000 0 0 1
11.312406 21.364150 -22.048266 32.718855 1.083825 2.310231 0.049908 -0.010501 -42455.300000 0 0 1
11.514806 20.179450 -22.844766 32.583497 1.052260 2.347756 0.050509 0.003364 560899.000000 0 0 1
10.636606 20.147350 -24.167966 33.213607 1.085047 2.385690 0.062747 -0.000037 -394875.000000 0 0 1
9.266906 20.026850 -24.006366 32.607604 1.137412 2.398264 0.060735 -0.007857 -961205.000000 0 0 1
8.761006 20.074750 -25.335296 33.490716 1.159293 2.428721 0.055008 -0.008654 -1088220.000000 0 0 1
7.244006 20.040650 -25.500066 33.231862 1.223944 2.445476 0.073262 -0.022849 -789400.000000 0 0 1
6.520206 21.202750 -25.322436 33.664454 1.272458 2.422192 0.091473 -0.031461 -126572.000000 0 0 1
6.591506 21.714350 -23.966166 33.005122 1.276081 2.383480 0.103453 -0.037440 -476608.000000 0 0 1
5.164206 21.990350 -23.410866 32.531725 1.340136 2.374068 0.128634 -0.046926 466944.000000 0 0 1
4.454406 23.037650 -24.031066 33.586711 1.379800 2.368126 0.124616 -0.043902 524714.000000 0 0 1
3.121706 23.206150 -23.529066 33.194689 1.437078 2.358621 0.161804 -0.050196 494580.000000 0 0 1
2.313906 24.093050 -24.456666 34.408687 1.475050 2.361389 0.144687 -0.046188 -813656.000000 0 0 1
0.929906 23.998150 -24.348266 34.199620 1.532067 2.363061 0.176009 -0.061261 -415457.000000 0 0 1
0.260706 24.930850 -25.222516 35.465343 1.560340 2.361983 0.164922 -0.048366 -48690.500000 0 0 1
-1.266394 24.837950 -25.201226 35.406628 -1.519854 2.362805 0.174392 -0.042256 -222117.000000 0 0 1
-1.695794 23.553950 -25.634316 34.853729 -1.498924 2.397175 0.193375 -0.048458 -623377.000000 0 0 1
-2.920594 23.677750 -26.282126 35.495293 -1.448069 2.404521 0.175074 -0.033902 -252158.000000 0 0 1
-3.550994 22.416350 -26.979626 35.256241 -1.413691 2.442217 0.153821 -0.032578 -86292.200000 0 0 1
-2.796094 21.957550 -28.049106 35.731002 -1.444137 2.473505 0.185334 -0.048151 -131353.000000 0 0 1
-3.340994 20.713450 -28.502826 35.392377 -1.410878 2.507042 0.143875 -0.040414 53242.500000 0 0 1
-4.439494 20.850250 -29.593656 36.472270 -1.361006 2.517342 0.099034 -0.029577 -141359.000000 0 0 1
-4.078194 20.979650 -30.990836 37.645840 -1.378803 2.537857 0.097262 -0.028789 -66616.800000 0 0 1
-3.581694 22.333550 -31.232706 38.562908 -1.411778 2.514805 0.124741 -0.037911 151159.000000 0 0 1
-3.107694 22.501350 -32.710536 39.823958 -1.433553 2.534620 0.098206 -0.024312 534299.000000 0 0 1
-1.948594 21.709250 -33.025386 39.569744 -1.481278 2.558224 0.094889 -0.019892 529656.000000 0 0 1
-1.643694 21.836750 33.496758 40.019723 -1.495666 0.579007 0.088070 -0.008800 863361.000000 0 0 1
-0.343994 21.046750 33.053176 39.186688 -1.554454 0.567068 0.091789 -0.006179 939652.000000 0 0 1
-0.671294 19.663050 33.028863 38.444661 -1.536670 0.537234 0.074070 0.006812 112222.000000 0 0 1
0.300806 18.882550 32.367665 37.474084 1.554867 0.528162 0.085396 -0.003619 10692.700000 0 0 1
-0.281894 17.500850 31.924165 36.407575 -1.554690 0.501515 0.079588 0.001486 908050.000000 0 0 1
-1.274894 17.663750 30.858607 35.579307 -1.498746 0.521006 0.065544 0.000218 964664.000000 0 0 1
-1.804094 16.374550 30.521497 34.683461 -1.461062 0.494931 0.060825 -0.000043 -590188.000000 0 0 1
-2.796494 16.296450 29.409257 33.738688 -1.400850 0.512181 0.068779 0.002077 151042.000000 0 0 1
-4.066094 16.950950 29.591027 34.343802 -1.335370 0.532359 0.041389 -0.002049 830086.000000 0 0 1
-4.108194 18.223650 28.925717 34.433643 -1.349071 0.573435 0.050617 -0.006210 -302822.000000 0 0 1
-5.498594 18.847650 29.048517 35.061158 -1.286936 0.594355 0.041552 -0.007615 238809.000000 0 0 1
-6.531094 18.192350 28.330037 34.295886 -1.226124 0.598738 0.026809 -0.003112 525630.000000 0 0 1
-7.836994 18.594850 28.744187 35.120012 -1.171928 0.612078 0.036753 -0.016791 131084.000000 0 0 1
-9.037294 18.105950 27.923207 34.484832 -1.107842 0.627114 0.037890 -0.021233 -194309.000000 0 0 1
-9.538294 16.768750 27.988907 33.993366 -1.053624 0.603483 0.036589 -0.020232 5980.560000 0 0 1
-9.960994 16.413550 29.254937 34.992533 -1.025336 0.580782 0.037084 -0.020253 -896885.000000 0 0 1
-10.574994 15.009750 29.427737 34.685945 -0.957029 0.557831 0.028946 -0.026726 -106025.000000 0 0 1
-9.714394 13.884850 29.377877 33.914867 -0.960312 0.523201 0.038459 -0.011060 1137650.000000 0 0 1
-8.718094 13.634250 30.441447 34.475783 -1.001890 0.488622 0.023633 -0.008676 904942.000000 0 0 1
-9.250394 13.539350 31.898492 35.866385 -0.971419 0.474831 0.057646 -0.022697 -262775.000000 0 0 1
-9.757394 12.204450 32.096261 35.697694 -0.896364 0.453057 0.065675 -0.018571 184867.000000 0 0 1
-10.023494 12.069650 33.443432 36.940629 -0.877750 0.438642 0.063043 -0.009768 119705.000000 0 0 1
-10.913894 10.816350 33.721111 37.056981 -0.780909 0.427561 0.069060 -0.021574 -263704.000000 0 0 1
-10.146294 9.668950 33.506468 36.319682 -0.761313 0.396177 0.080286 -0.030476 -77094.800000 0 0 1
-10.315194 8.650950 -33.339216 35.954770 -0.697874 2.757808 0.115764 -0.033071 160112.000000 0 0 1
-9.494594 8.852150 -32.000966 34.533602 -0.750396 2.756229 0.087092 -0.037029 43133.700000 0 0 1
-9.872294 10.050250 -31.324706 34.346862 -0.794330 2.718956 0.088328 -0.040426 75891.700000 0 0 1
-8.907594 10.550050 -30.412506 33.400139 -0.869610 2.715410 0.091741 -0.035882 -153180.000000 0 0 1
-7.875894 11.478650 -31.067036 34.043352 -0.969437 2.720329 0.063421 -0.024510 -293115.000000 0 0 1
-8.316194 12.757950 -31.320456 34.826647 -0.993126 2.689019 0.067108 -0.024622 -308254.000000 0 0 1
-7.348794 13.471850 -32.034826 35.520777 -1.071420 2.694856 0.034528 -0.017946 -286690.000000 0 0 1
-7.658694 14.981450 -32.224556 36.352736 -1.098220 2.660394 0.041512 -0.010607 279355.000000 0 0 1
-8.601994 15.196850 -33.273566 37.577503 -1.055723 2.658290 0.047943 -0.015652 234840.000000 0 0 1
-8.897894 16.574550 -33.332336 38.274441 -1.078112 2.627780 0.056042 -0.020120 -909340.000000 0 0 1
-9.445994 17.096250 33.108775 38.440858 -1.066022 0.532991 0.065845 -0.026465 -303786.000000 0 0 1
-10.601994 16.526850 32.612687 38.067393 -1.000419 0.541941 0.049794 -0.024901 -893785.000000 0 0 1
-11.724394 16.910950 33.353573 39.190592 -0.964580 0.552794 0.060283 -0.037508 -1561030.000000 0 0 1
-13.049394 16.381850 32.810567 38.925377 -0.898146 0.568129 0.066291 -0.040981 -451933.000000 0 0 1
-13.049794 14.960450 32.863853 38.394597 -0.853505 0.543411 0.060741 -0.043912 358571.000000 0 0 1
-14.355194 14.432650 33.018624 38.789206 -0.788089 0.552467 0.046437 -0.033426 41868.100000 0 0 1
-14.473394 12.854750 32.944279 38.210591 -0.726237 0.531246 0.048598 -0.029244 -73275.000000 0 0 1
-14.542694 12.348550 31.644747 36.950868 -0.703985 0.542539 0.023172 -0.026716 -79008.700000 0 0 1
-13.306194 11.826050 31.218587 35.937591 -0.726572 0.518247 0.035797 -0.021093 -294782.000000 0 0 1
-13.344194 11.422550 29.711387 34.515340 -0.707964 0.533924 0.034770 -0.010043 -475133.000000 0 0 1
-14.229594 10.362550 29.454747 34.313932 -0.629428 0.538673 0.029674 0.001352 62673.500000 0 0 1
-14.100994 9.812050 28.132277 32.962697 -0.607929 0.548211 0.021469 0.006484 -54104.300000 0 0 1
-14.787694 8.460950 27.848127 32.646313 -0.519699 0.549041 0.032060 0.005529 38486.800000 0 0 1
-14.290294 7.460750 28.629747 32.856319 -0.481159 0.512825 0.016425 0.000943 -196108.000000 0 0 1
-15.063394 6.328350 28.379037 32.746353 -0.397725 0.522384 0.037737 0.004696 -25000.500000 0 0 1
-14.255594 5.005650 28.234707 32.023073 -0.337686 0.491345 0.046533 0.006095 186493.000000 0 0 1
-13.389694 4.910450 27.130517 30.650634 -0.351504 0.483972 0.040168 -0.005000 -248819.000000 0 0 1
-14.076294 4.599350 25.953887 29.881438 -0.315809 0.518503 0.047773 0.002874 287865.000000 0 0 1
-13.204694 4.311450 24.633767 28.280294 -0.315596 0.513445 0.033136 0.007595 276331.000000 0 0 1
-12.208594 3.321350 24.695487 27.747941 -0.265622 0.473465 0.027190 0.003550 58084.900000 0 0 1
-11.717194 2.833050 23.473727 26.388154 -0.237233 0.474425 0.043022 -0.004708 131064.000000 0 0 1
-10.626394 1.777450 23.733717 26.064706 -0.165733 0.426137 0.044572 -0.008571 116063.000000 0 0 1
-9.298894 2.175350 23.982217 25.813723 -0.229804 0.378962 0.038295 -0.018604 -387374.000000 0 0 1
-8.428294 1.125050 24.167217 25.619451 -0.132700 0.338315 0.036794 -0.010388 -843522.000000 0 0 1
-6.980194 1.583750 24.087457 25.128410 -0.223115 0.288841 0.058430 -0.022942 -1057130.000000 0 0 1
-6.643894 2.076450 22.789317 23.828679 -0.302917 0.296442 0.069505 -0.021258 1958120.000000 0 1 0
-5.213094 2.251850 22.492217 23.197996 -0.407751 0.247304 0.063130 -0.020524 1962150.000000 0 1 0
-4.505294 3.421150 23.196367 23.876210 -0.649466 0.239206 0.074799 -0.018886 -488463.000000 0 1 0
-4.300894 3.230650 24.603617 25.184773 -0.644242 0.215244 0.078714 -0.018294 -22765.100000 0 0 1
-3.611894 4.331550 25.127417 25.752577 -0.875749 0.220792 0.084803 -0.015662 74282.000000 0 0 1
4.812606 -24.166650 13.209034 27.958303 -1.374225 1.078722 0.098146 -0.016148 210276.000000 0 0 1
3.953806 -25.236600 13.534634 28.908561 -1.415390 1.083558 0.109255 -0.043710 -697696.000000 0 0 1
2.613606 -24.910750 13.301634 28.360357 -1.466260 1.082613 0.097261 -0.045914 -420124.000000 0 0 1
1.606506 -25.876150 13.900234 29.417214 -1.508791 1.078648 0.077996 -0.051904 -362362.000000 0 0 1
1.630706 -25.985640 15.312034 30.205481 -1.508124 1.039178 0.118080 -0.051343 105867.000000 0 0 1
2.463606 -27.092560 15.647434 31.383409 -1.480113 1.048826 0.107706 -0.047715 53492.300000 0 0 1
2.595006 -27.424360 17.158634 32.453787 -1.476453 1.013717 0.117636 -0.044101 680469.000000 0 0 1
3.387206 -26.405830 17.903834 32.082523 -1.443218 0.978755 0.126426 -0.055832 825052.000000 0 0 1
3.593506 -26.834010 19.201634 33.191567 -1.437672 0.953896 0.111642 -0.050624 112092.000000 0 0 1
4.221006 -25.747760 20.153534 32.968606 -1.408305 0.913101 0.100935 -0.045065 56712.800000 0 0 1
3.302006 -24.817550 20.643634 32.449556 -1.438522 0.881264 0.108722 -0.045022 164714.000000 0 0 1
4.030006 -23.852750 21.466334 32.341894 -1.403423 0.845000 0.100414 -0.047467 182958.000000 0 0 1
3.151106 -22.785450 22.192834 31.962917 -1.433373 0.803307 0.126614 -0.050420 372993.000000 0 0 1
2.281706 -21.988050 21.365334 30.743423 -1.467396 0.802437 0.120340 -0.053026 197297.000000 0 0 1
2.930806 -21.239350 20.403734 29.597500 -1.433673 0.810172 0.082656 -0.037546 -855154.000000 0 0 1
2.066806 -20.181050 19.773834 28.329331 -1.468739 0.798197 0.056747 -0.042691 -289367.000000 0 0 1
1.952306 -19.065750 20.653934 28.176219 -1.468753 0.748035 0.060836 -0.041502 23757.200000 0 0 1
0.983806 -18.145350 20.223034 27.188099 -1.516631 0.732030 0.067253 -0.043023 -310979.000000 0 0 1
0.935906 -16.826850 20.985534 26.914893 -1.515234 0.676610 0.056104 -0.031923 -547114.000000 0 0 1
2.127906 -16.135450 20.835934 26.438927 -1.439675 0.663116 0.028314 -0.010378 -500434.000000 0 0 1
1.939606 -14.775950 21.236734 25.943971 -1.440275 0.611894 0.035513 -0.004416 201939.000000 0 0 1
2.985806 -13.772350 20.690934 25.034125 -1.357303 0.597918 0.009598 -0.006484 -566392.000000 0 0 1
3.043206 -13.409950 19.305234 23.701897 -1.347640 0.618927 -0.001458 -0.008459 321460.000000 0 1 0
1.881606 -12.935350 18.587934 22.723887 -1.426347 0.612887 0.001774 0.000340 609672.000000 0 1 0
1.112906 -11.754550 19.205734 22.544805 -1.476399 0.551209 -0.012817 0.004335 121934.000000 0 1 0
1.817006 -10.469150 19.080934 21.840024 -1.398950 0.508105 -0.002306 0.003157 189491.000000 0 1 0
1.564206 -9.663750 20.193134 22.440978 -1.410325 0.451410 0.009121 -0.004601 451312.000000 0 1 0
0.311006 -8.743050 20.034534 21.861386 -1.535240 0.411718 0.009783 -0.017165 650432.000000 0 1 0
-0.055294 -7.984350 21.157634 22.614119 1.563871 0.360859 0.016992 -0.024318 827164.000000 0 1 0
-1.439694 -7.569750 21.210134 22.566427 1.382851 0.348466 0.019517 -0.022292 1105940.000000 0 1 0
-1.800794 -6.935250 22.597734 23.706500 1.316749 0.307050 0.018989 -0.013245 -410126.000000 0 1 0
-2.028794 -7.892350 23.607434 24.974310 1.319186 0.332379 0.015996 -0.003754 51045.200000 0 1 0
-2.216294 -7.357350 24.877434 26.037075 1.278207 0.299575 0.032688 -0.003933 -134961.000000 0 0 1
-2.494994 -8.460650 25.933834 27.392907 1.284031 0.327855 0.038929 -0.006974 35573.600000 0 0 1
-1.400794 -9.322350 26.180434 27.825951 1.421650 0.345625 0.050846 -0.009412 -97569.500000 0 0 1
-1.573094 -10.285850 27.191634 29.114572 1.419035 0.365479 0.068156 -0.018495 145909.000000 0 0 1
-0.404194 -11.315950 27.177334 29.441834 1.535093 0.394768 0.083167 -0.023183 388977.000000 0 0 1
0.848306 -10.816950 27.610234 29.665655 -1.492533 0.374437 0.084145 -0.022071 36619.100000 0 0 1
1.747906 -11.921250 27.819034 30.316168 -1.425213 0.408720 0.099515 -0.032265 583391.000000 0 0 1
2.929006 -11.426950 28.690534 31.020977 -1.319874 0.390089 0.116682 -0.039418 194553.000000 0 0 1
2.436306 -11.164150 29.981334 32.085109 -1.355939 0.364137 0.117678 -0.048374 -319564.000000 0 0 1
3.441706 -10.673050 30.812834 32.790091 -1.258857 0.349046 0.140038 -0.037640 -368161.000000 0 0 1
2.972506 -10.028150 32.173734 33.831180 -1.282631 0.314315 0.129512 -0.043695 -145690.000000 0 0 1
2.229806 -10.913450 32.977234 34.807663 -1.369253 0.325744 0.127168 -0.051454 22683.700000 0 0 1
1.876306 -10.439250 -33.588148 35.223035 -1.392959 2.835721 0.103980 -0.049086 -321381.000000 0 0 1
2.974806 -10.546850 -32.526648 34.323000 -1.295882 2.816632 0.090189 -0.024858 518680.000000 0 0 1
4.089606 -9.633450 -32.617248 34.255118 -1.169331 2.831110 0.079465 -0.034392 821558.000000 0 0 1
4.028006 -8.608250 -31.613848 33.011546 -1.133137 2.849559 0.102164 -0.037538 -88797.200000 0 0 1
2.902606 -7.551250 -31.625448 32.643766 -1.203821 2.891159 0.090889 -0.032021 5348.250000 0 0 1
3.152606 -6.479450 -32.528848 33.317385 -1.117963 2.923595 0.134492 -0.042829 126938.000000 0 0 1
2.806706 -5.213250 -32.022948 32.565700 -1.076919 2.958766 0.095787 -0.019303 -26478.400000 0 0 1
2.974406 -4.093750 -33.080148 33.464938 -0.942458 2.989801 0.099207 -0.016630 56292.400000 0 0 1
2.154606 -4.216150 33.616134 33.947942 -1.098359 0.139928 0.110624 -0.032094 -211957.000000 0 0 1
2.360606 -3.195350 32.682934 32.923501 -0.934526 0.120961 0.132440 -0.024331 171243.000000 0 0 1
1.455206 -3.318350 31.423234 31.631452 -1.157519 0.114803 0.146476 -0.027364 1647020.000000 0 0 1
0.048206 -3.110250 31.740734 31.892792 -1.555298 0.097689 0.129715 -0.025043 1203950.000000 0 0 1
-0.744294 -3.820250 30.801834 31.046760 1.378378 0.125693 0.127465 -0.022781 1252800.000000 0 0 1
-2.313494 -3.702550 30.854934 31.162287 1.012313 0.140565 0.098626 -0.022059 1155200.000000 0 0 1
-2.868694 -2.485250 30.353434 30.589816 0.713901 0.124398 0.090186 -0.022141 662720.000000 0 0 1
-4.296494 -2.604450 30.324234 30.737635 0.544951 0.164193 0.073235 -0.018442 622522.000000 0 0 1
-5.000094 -1.544950 29.488134 29.948921 0.299679 0.175644 0.035966 -0.006827 -289082.000000 0 0 1
-4.774394 -1.699550 28.075734 28.529461 0.341985 0.178584 0.035013 -0.007120 -390665.000000 0 0 1
-5.511694 -0.898750 27.215234 27.782288 0.161640 0.202388 0.025546 -0.005508 -149126.000000 0 0 1
-5.573894 0.660850 27.462034 28.029776 -0.118011 0.201612 0.053568 -0.006450 -142347.000000 0 0 1
-6.631794 0.935550 28.338934 29.119601 -0.140146 0.232076 0.039386 -0.005858 -402168.000000 0 0 1
-6.958394 2.313750 28.474334 29.403408 -0.321011 0.252053 0.046352 -0.003347 -350093.000000 0 0 1
-8.294294 2.481550 29.217734 30.473421 -0.290711 0.288070 0.027804 -0.004989 -270195.000000 0 0 1
-9.347594 1.847650 28.535834 30.084633 -0.195145 0.322271 0.018750 0.002695 -436082.000000 0 0 1
-10.567794 2.471650 28.856234 30.829687 -0.229755 0.359739 0.027485 0.003151 -627525.000000 0 0 1
-11.691494 1.966150 27.963834 30.373225 -0.166610 0.400993 0.037302 0.004931 -458526.000000 0 0 1
-12.123994 0.629950 28.236134 30.735441 -0.051912 0.406063 0.046635 0.002914 90397.800000 0 0 1
-12.159394 -0.036750 26.992534 29.604883 0.003022 0.423248 0.045796 0.006678 -811798.000000 0 0 1
-12.390094 -1.571650 27.206334 29.936084 0.126173 0.430364 0.049612 -0.003629 189101.000000 0 0 1
-11.290294 -2.361750 27.696534 30.002444 0.206211 0.394620 0.048385 -0.006794 1248230.000000 0 0 1
-10.047294 -2.297750 26.974534 28.876518 0.224827 0.364972 0.044203 -0.002000 202622.000000 0 0 1
-9.969394 -2.720650 25.504034 27.518113 0.266413 0.384972 0.039869 -0.005823 -954616.000000 0 0 1
-10.803094 -2.030250 24.608334 26.951788 0.185765 0.420095 0.029599 -0.006998 114814.000000 0 0 1
-10.666194 -2.475550 23.246234 25.695981 0.228055 0.440205 0.042093 -0.008083 111765.000000 0 0 1
-9.429494 -1.962150 22.485034 24.461033 0.205159 0.404705 0.043286 -0.012581 650798.000000 0 1 0
-8.135794 -2.350750 22.919534 24.434038 0.281279 0.353934 0.038985 -0.012567 400418.000000 0 1 0
-7.130094 -2.094150 21.959334 23.182667 0.285672 0.326313 0.035488 -0.014631 804698.000000 0 1 0
-5.653094 -2.287750 22.455434 23.268816 0.384543 0.265185 0.035595 -0.017082 1113310.000000 0 1 0
-4.976194 -3.568550 22.453434 23.273456 0.622127 0.266245 0.026916 -0.018774 464429.000000 0 1 0
-5.573194 -4.447550 23.375734 24.439029 0.673536 0.296065 0.029891 -0.009735 -67372.000000 0 1 0
-5.196794 -5.888750 22.983434 24.288316 0.847737 0.329280 0.032875 -0.011658 -324261.000000 0 1 0
-6.066194 -6.530450 22.073934 23.805547 0.822237 0.383769 0.025986 -0.017497 -17794.600000 0 1 0
-5.869194 -6.110550 20.727034 22.391878 0.805542 0.388047 0.035386 -0.024107 -1182510.000000 0 1 0
-7.107894 -6.212550 19.889634 22.016255 0.718283 0.443147 0.048907 -0.019938 -1752620.000000 0 1 0
-7.895994 -5.158850 20.097634 22.200796 0.578727 0.438790 0.049895 -0.017525 -373631.000000 0 1 0
-8.981594 -5.156850 19.114634 21.740087 0.521201 0.496543 0.055484 -0.013923 958571.000000 0 1 0
-9.726194 -3.805450 19.164034 21.825226 0.372947 0.498986 0.055594 -0.015139 3697.810000 0 1 0
-8.836994 -2.761350 18.864334 21.013820 0.302863 0.456250 0.048675 -0.010239 -1744.020000 0 1 0
-9.530094 -1.510050 18.870834 21.194606 0.157144 0.472661 0.046059 -0.011480 89455.800000 0 1 0
-8.718794 -0.248950 18.535134 20.484886 0.028545 0.439840 0.038566 -0.006462 -286031.000000 0 1 0
-8.027994 0.231850 19.652934 21.230645 -0.028872 0.387948 0.044609 0.010052 228449.000000 0 1 0
-8.784294 1.184550 20.401234 22.243591 -0.134040 0.409868 0.088388 0.003702 37392.600000 0 1 0
-8.580594 2.696350 20.047934 21.973087 -0.304468 0.421721 0.070911 -0.011473 21113.100000 0 1 0
-9.407294 3.110250 18.996934 21.425554 -0.319308 0.480750 0.044295 -0.017993 47090.800000 0 1 0
-9.069094 4.384750 18.583334 21.137995 -0.450347 0.496734 0.040115 -0.019519 -59949.500000 0 1 0
-9.773794 4.811950 17.260534 20.410976 -0.457494 0.563015 0.028939 -0.011857 745048.000000 0 1 0
-11.148294 5.138350 17.532034 21.402321 -0.431889 0.610842 0.035115 -0.005777 607986.000000 0 1 0
-11.679294 6.118350 16.637834 21.228699 -0.482555 0.670127 0.023450 0.010185 -160556.000000 0 1 0
-11.340894 7.587750 16.914134 21.731953 -0.589658 0.678831 0.016922 0.019126 -112525.000000 0 1 0
-9.957694 7.873850 16.820734 21.073450 -0.669063 0.646502 0.005210 0.014294 169463.000000 0 1 0
-9.738394 9.221350 16.643034 21.374289 -0.758134 0.678289 -0.014650 0.003629 387572.000000 0 1 0
-8.474394 9.834750 17.299434 21.628872 -0.859561 0.643783 -0.002649 0.013468 286182.000000 0 1 0
-8.801094 10.195150 18.635434 22.993037 -0.858653 0.625822 0.035768 0.026298 -32.251500 0 1 0
-8.492294 11.564350 18.906634 23.734239 -0.937386 0.649151 0.066497 0.020116 89182.700000 0 1 0
-9.278094 12.757950 18.200134 24.085124 -0.942021 0.714137 0.077062 0.005406 398767.000000 0 1 0
-8.852594 12.883150 16.862134 22.992946 -0.968750 0.747543 0.049258 -0.002936 187292.000000 0 1 0
-9.869094 13.524650 16.101634 23.228814 -0.940407 0.804911 0.066872 -0.020075 27808.800000 0 1 0
-9.438594 14.025450 14.715734 22.413236 -0.978448 0.854541 0.055411 -0.017635 889812.000000 0 1 0
-8.310094 14.942350 14.676334 22.532782 -1.063249 0.861457 0.059884 -0.008923 762605.000000 0 1 0
-8.015894 15.240350 13.356334 21.792533 -1.086593 0.911089 0.046410 -0.021834 144337.000000 0 1 0
-6.970394 16.370450 13.076734 22.081191 -1.168256 0.936996 0.027894 -0.015954 186122.000000 0 1 0
-5.655194 16.038650 13.437234 21.674381 -1.231809 0.902105 0.030086 -0.017733 -459024.000000 0 1 0
-4.885894 17.234150 13.325634 22.326227 -1.294544 0.931214 0.023811 -0.020178 1236960.000000 0 1 0
-3.310894 17.136950 13.328734 21.961153 -1.379946 0.918613 0.026640 -0.021622 778080.000000 0 1 0
-2.578394 16.726350 14.399534 22.220835 -1.417849 0.865815 0.042681 -0.020132 -457725.000000 0 1 0
-2.835194 15.408450 14.933134 21.643871 -1.388829 0.809380 0.034799 -0.009688 -125737.000000 0 1 0
-1.644494 14.956850 15.848834 21.853999 -1.461287 0.759451 0.039600 -0.009745 1096570.000000 0 1 0
-0.399694 14.840350 15.097534 21.173835 -1.543870 0.776989 0.027150 -0.011865 923727.000000 0 1 0
0.569806 14.173050 15.911034 21.315747 1.530614 0.728093 0.033239 -0.016367 292787.000000 0 1 0
1.513306 15.113450 16.694334 22.570053 1.470999 0.738220 0.039344 -0.018721 -425815.000000 0 1 0
0.815106 15.650850 17.786734 23.706148 1.518763 0.722280 0.035472 -0.014960 -359091.000000 0 1 0
1.410606 16.840350 18.303634 24.912050 1.487228 0.745528 0.050871 -0.017032 -587431.000000 0 1 0
0.526106 17.865150 19.071734 26.137548 1.541356 0.752960 0.064759 -0.018196 160563.000000 0 0 1
-0.141294 18.831450 18.293634 26.254534 -1.563293 0.799898 0.052784 -0.017068 447189.000000 0 0 1
-1.175294 18.402250 17.389334 25.345869 -1.507016 0.814707 0.051489 -0.014590 -18691.900000 0 0 1
-1.799694 19.619250 16.647334 25.793170 -1.479321 0.869228 0.056514 -0.013151 134632.000000 0 0 1
-2.455794 20.572050 17.481434 27.107946 -1.451983 0.869927 0.046788 -0.008252 107808.000000 0 0 1
-3.058094 21.636050 16.833634 27.583362 -1.430384 0.914380 0.055032 -0.019013 -432692.000000 0 0 1
-3.933094 22.549450 17.737734 28.958145 -1.398113 0.911539 0.046127 -0.003881 669782.000000 0 0 1
-5.131294 21.889250 18.176034 28.910858 -1.340533 0.890926 0.065113 -0.003149 140828.000000 0 0 1
-5.689494 22.653750 19.180734 30.223556 -1.324735 0.883268 0.067293 0.007783 -286272.000000 0 0 1
-6.993594 22.103250 19.783034 30.476753 -1.264357 0.864371 0.061912 0.003662 -199046.000000 0 0 1
-8.131994 22.244850 18.967034 30.343221 -1.220321 0.895558 0.046191 0.004645 -16454.900000 0 0 1
-9.261794 21.647950 19.603234 30.638234 -1.166525 0.876520 0.009584 0.003082 199289.000000 0 0 1
-10.618694 22.193450 19.153734 31.179664 -1.124528 0.909295 0.020263 -0.007123 -231263.000000 0 0 1
-10.846794 23.507650 19.600434 32.472136 -1.138490 0.922778 0.034132 -0.001221 95809.700000 0 0 1
-11.907294 24.094950 18.845134 32.825133 -1.111814 0.959283 0.011866 -0.001620 105498.000000 0 0 1
-12.239594 25.557850 19.293034 34.281665 -1.124173 0.973051 0.026625 0.002405 -179150.000000 0 0 1
-12.874894 25.652450 20.553934 35.302625 -1.105632 0.949338 0.027025 -0.001300 64634.900000 0 0 1
-13.300794 27.005650 20.658734 36.510267 -1.113151 0.969352 0.042721 -0.013321 -221928.000000 0 0 1
-14.316694 27.397950 21.761334 37.804379 -1.089275 0.957422 0.080408 -0.036330 906042.000000 0 0 1
-15.627994 26.798350 21.687934 37.851714 -1.042844 0.960670 0.067588 -0.027348 886665.000000 0 0 1
-16.374694 27.034850 22.866234 39.011260 -1.026205 0.944504 0.054276 -0.022010 -120816.000000 0 0 1
-17.767694 26.388250 22.781934 39.128599 -0.978203 0.949325 0.071844 -0.021098 -95808.700000 0 0 1
-17.812494 24.999650 22.940334 38.321357 -0.951724 0.929006 0.064937 -0.019340 -895306.000000 0 0 1
-19.069594 24.700750 23.425834 39.019818 -0.913348 0.926848 0.080702 -0.020668 -707257.000000 0 0 1
28.782506 24.201850 23.864967 44.538735 0.699160 1.005312 0.076163 -0.020758 -61283.700000 0 0 1
28.143306 23.349850 24.814757 44.193137 0.692576 0.974590 0.066820 -0.020902 -135794.000000 0 0 1
27.522706 22.322550 24.104867 42.858374 0.681448 0.973474 0.072070 -0.014593 -301891.000000 0 0 1
26.913406 21.339150 25.099327 42.540181 0.670385 0.939719 0.089074 -0.017415 -38400.100000 0 0 1
25.684206 21.756250 25.656507 42.323389 0.702789 0.919520 0.083495 -0.019509 13800.700000 0 0 1
25.485206 21.073950 26.867377 42.608251 0.690935 0.888512 0.086471 -0.020670 -254949.000000 0 0 1
24.204106 21.577250 27.529427 42.535701 0.728083 0.866881 0.097123 -0.017482 -442600.000000 0 0 1
24.261706 22.911550 27.957887 43.534044 0.756785 0.873422 0.106408 -0.032331 564969.000000 0 0 1
23.344206 23.088650 29.074207 43.855983 0.779894 0.846048 0.120278 -0.019993 538695.000000 0 0 1
23.209606 24.547950 29.574187 44.899000 0.813415 0.851730 0.108558 -0.014992 -174405.000000 0 0 1
22.434606 25.303750 28.648757 44.320905 0.845427 0.867948 0.121834 -0.032283 -30702.700000 0 0 1
21.914306 26.498350 29.033417 45.003763 0.879804 0.869599 0.108994 -0.033869 -558250.000000 0 0 1
20.639606 26.428950 29.900847 44.928203 0.907782 0.842599 0.100210 -0.031555 -350468.000000 0 0 1
19.520806 26.185650 29.012697 43.686231 0.930196 0.844486 0.093695 -0.031091 719048.000000 0 0 1
18.268706 26.332150 29.670277 43.674399 0.964257 0.823918 0.080552 -0.022463 446904.000000 0 0 1
17.719306 25.121150 30.492147 43.299157 0.956486 0.789472 0.066885 -0.023325 54224.800000 0 0 1
18.343706 24.949850 31.771657 44.366933 0.936820 0.772582 0.063574 -0.017901 683929.000000 0 0 1
17.382906 24.194850 32.490775 44.081818 0.947792 0.742092 0.070068 -0.023703 605129.000000 0 0 1
17.809006 24.019050 -33.856806 45.170331 0.932788 2.418158 0.095142 -0.023777 87636.500000 0 0 1
17.874606 25.270250 -33.182416 45.377966 0.955163 2.390942 0.093386 -0.025808 175449.000000 0 0 1
17.894006 25.031050 -31.786356 44.239364 0.950158 2.372452 0.083892 -0.018316 108000.000000 0 0 1
18.251406 26.267950 -30.947996 44.507274 0.963558 2.339699 0.073131 -0.007559 182634.000000 0 0 1
17.050206 26.975150 -30.695436 44.278415 1.007129 2.336767 0.096114 -0.021223 374059.000000 0 0 1
17.282106 28.162450 -29.993526 44.625176 1.020395 2.307866 0.080186 -0.015574 -21246.600000 0 0 1
16.719006 28.380250 -28.542346 43.584737 1.038425 2.284807 0.092953 -0.014624 -62747.100000 0 0 1
17.353506 27.576750 -27.559006 42.674584 1.009125 2.272860 0.069947 -0.005656 248013.000000 0 0 1
16.845806 27.879150 -26.289466 41.858861 1.027262 2.249841 0.081294 -0.013317 284711.000000 0 0 1
17.730106 27.125150 -25.226526 41.067116 0.991866 2.232264 0.068999 -0.011774 781891.000000 0 0 1
19.116606 27.370150 -25.351056 41.919515 0.961113 2.220255 0.076493 -0.005096 229545.000000 0 0 1
19.962206 26.701250 -24.411666 41.320405 0.928825 2.202833 0.058387 0.001765 -213764.000000 0 0 1
21.462706 26.800450 -24.568366 42.219859 0.895547 2.191878 0.052217 0.000994 -520213.000000 0 0 1
22.098406 26.490550 -23.346766 41.655255 0.875547 2.165757 0.041740 -0.000114 269682.000000 0 0 1
23.524306 26.537550 -23.464266 42.523009 0.845516 2.155319 0.050384 0.006206 839982.000000 0 0 1
24.173806 26.197950 -22.086566 41.934734 0.825561 2.125497 0.057930 0.002451 23991.800000 0 0 1
24.022106 24.841150 -21.654266 40.780529 0.802159 2.130571 0.068791 -0.004638 -77577.800000 0 0 1
24.337306 24.842750 -20.298866 40.267985 0.795675 2.099129 0.059588 -0.000588 -268304.000000 0 0 1
23.747806 23.712350 -19.452166 38.789439 0.784651 2.096106 0.053842 -0.009337 -570777.000000 0 0 1
24.317606 22.444250 -19.675066 38.499332 0.745358 2.107202 0.055394 -0.001157 108400.000000 0 0 1
24.112406 21.671950 -18.501266 37.327984 0.732145 2.089369 0.063534 -0.004772 -1120310.000000 0 0 1
24.165206 20.140450 -18.752366 36.623027 0.694806 2.108352 0.064270 -0.004390 662106.000000 0 0 1
23.229806 19.640050 -19.733566 36.259745 0.701857 2.146265 0.063631 -0.009028 1304130.000000 0 0 1
21.836506 19.856850 -19.458466 35.351936 0.737952 2.153665 0.064638 -0.013907 593975.000000 0 0 1
20.889406 19.587050 -20.700966 35.334824 0.753234 2.196727 0.053576 0.006294 382928.000000 0 0 1
21.086806 20.334350 -21.870966 36.557876 0.767234 2.212119 0.057677 0.011461 -221691.000000 0 0 1
21.139506 21.787550 -21.667766 37.297026 0.800493 2.190694 0.054548 0.010525 -32479.500000 0 0 1
20.701706 22.562650 -22.912266 38.244029 0.828385 2.213182 0.060044 0.008172 738309.000000 0 0 1
19.280806 22.522550 -23.030166 37.542020 0.862791 2.231219 0.082438 0.008605 157372.000000 0 0 1
18.783806 23.057550 -24.266766 38.384345 0.887187 2.255192 0.080596 0.005218 -257025.000000 0 0 1
17.259406 23.052150 -24.340666 37.706190 0.928120 2.272520 0.082026 0.003691 -434781.000000 0 0 1
16.615206 24.123250 -23.684066 37.668704 0.967652 2.250736 0.066396 -0.009384 -89402.700000 0 0 1
15.238706 24.086550 -24.003166 37.263012 1.006704 2.270715 0.061400 -0.005115 227125.000000 0 0 1
14.440306 25.252050 -23.346666 37.299535 1.051335 2.247112 0.058009 -0.006140 68361.600000 0 0 1
14.569106 26.461550 -24.072966 38.626159 1.067511 2.243662 0.047747 -0.001485 345257.000000 0 0 1
13.660806 27.448150 -23.554466 38.663050 1.108994 2.225878 0.062963 -0.006831 491991.000000 0 0 1
13.748106 28.776450 -24.352666 40.126635 1.125102 2.222945 0.058596 -0.011867 26268.600000 0 0 1
13.433206 28.636150 -25.742256 40.781661 1.132173 2.253923 0.065248 -0.019538 -53981.000000 0 0 1
12.884106 29.837750 -26.313596 41.817423 1.163175 2.251384 0.090221 -0.029286 -543122.000000 0 0 1
13.661806 31.114250 -26.265916 42.949271 1.157056 2.228823 0.104057 -0.022342 -455632.000000 0 0 1
14.846906 30.985550 -27.024046 43.713087 1.123963 2.237265 0.091726 -0.012831 85171.900000 0 0 1
15.674406 32.135050 -26.938056 44.766140 1.116983 2.216488 0.088823 -0.025754 536664.000000 0 0 1
17.129206 32.095550 -27.470466 45.586846 1.080558 2.217547 0.092600 -0.014919 655004.000000 0 0 1
18.038306 31.274650 -26.726216 44.919649 1.047632 2.208035 0.058023 -0.017220 -166289.000000 0 0 1
19.359306 31.410750 -27.165956 45.819288 1.018458 2.205444 0.067818 -0.014589 -1047330.000000 0 0 1
20.260906 30.683550 -26.148846 45.119250 0.987202 2.188972 0.037487 -0.007253 -712942.000000 0 0 1
20.559606 31.462450 -25.032476 45.157591 0.991989 2.158361 0.036731 -0.009379 161216.000000 0 0 1
21.262606 32.691350 -25.177966 46.419314 0.994137 2.144091 0.040081 -0.024694 -683988.000000 0 0 1
22.780006 32.638950 -25.427316 47.231114 0.961455 2.139285 0.012189 -0.011058 -424879.000000 0 0 1
23.106806 32.129550 -26.694116 47.736865 0.947316 2.164208 0.022888 -0.006362 610984.000000 0 0 1
24.461206 32.371250 -27.083776 48.782982 0.923692 2.159387 0.005232 0.000314 287047.000000 0 0 1
24.832506 31.701950 -28.455446 49.309019 0.906314 2.185950 0.012542 -0.002877 54982.000000 0 0 1
23.963206 31.988250 -29.545646 49.703406 0.927855 2.207364 0.034514 -0.019942 478402.000000 0 0 1
22.845406 31.101550 -29.685616 48.687316 0.937262 2.226503 0.020812 -0.022461 -4653.150000 0 0 1
21.849206 31.693550 -30.664606 49.215719 0.967227 2.243452 0.057309 -0.023611 -1439650.000000 0 0 1
21.463606 33.036350 -30.301976 49.702078 0.994634 2.226443 0.083848 -0.029917 406739.000000 0 0 1
20.375406 33.628350 -30.996536 50.068037 1.026050 2.238378 0.080140 -0.035530 70746.600000 0 0 1
18.987706 33.043250 -30.635436 48.897027 1.049239 2.247889 0.083412 -0.038598 -874312.000000 0 0 1
18.563606 31.741150 -30.919616 48.043009 1.041596 2.269965 0.076618 -0.028387 -2993.120000 0 0 1
18.571206 31.328550 -32.258336 48.651495 1.035696 2.295681 0.093750 -0.028984 -840925.000000 0 0 1
17.911206 32.154750 -33.334666 49.658224 1.062571 2.306733 0.101084 -0.038189 -641493.000000 0 0 1
18.509406 33.426750 -33.695246 50.944237 1.065094 2.293499 0.100436 -0.039575 158731.000000 0 0 1
18.125206 33.840250 32.837434 50.517153 1.079068 0.863178 0.091541 -0.032928 -476313.000000 0 0 1
16.684806 -33.777248 32.492702 49.749984 -1.111988 0.859099 0.103325 -0.032933 -1060950.000000 0 0 1
15.729406 33.199550 32.491457 49.044053 1.128341 0.846651 0.106680 -0.025771 227329.000000 0 0 1
14.374006 33.648350 32.375105 48.856637 1.167078 0.846438 0.098911 -0.026919 929551.000000 0 0 1
13.853106 -33.674948 31.055697 47.857779 -1.180521 0.864637 0.083613 -0.024880 -692699.000000 0 0 1
14.154506 -32.307648 30.840367 46.853628 -1.157869 0.852334 0.105117 -0.025027 375905.000000 0 0 1
13.526306 -31.849448 29.653147 45.570357 -1.169184 0.862275 0.098211 -0.030463 388050.000000 0 0 1
14.113006 -30.388248 29.351967 44.543917 -1.136013 0.851382 0.100112 -0.030242 331830.000000 0 0 1
13.878006 -29.508148 30.451647 44.616507 -1.131181 0.819592 0.092841 -0.025628 198040.000000 0 0 1
14.334406 -28.217448 30.208297 43.752038 -1.100771 0.808695 0.112660 -0.031390 -247038.000000 0 0 1
13.627506 -27.292648 31.255657 43.675092 -1.107700 0.773256 0.108263 -0.032533 1899260.000000 0 0 1
12.200106 -27.091248 30.960137 42.910470 -1.147665 0.764822 0.087868 -0.027790 1777420.000000 0 0 1
11.786806 -26.052848 30.074177 41.498625 -1.145932 0.760193 0.076504 -0.024498 -280207.000000 0 0 1
12.157406 -24.613548 30.453137 41.000279 -1.112015 0.733622 0.086371 -0.025927 -213260.000000 0 0 1
11.581306 -24.183848 31.677117 41.502107 -1.124182 0.702444 0.090548 -0.029356 -30158.300000 0 0 1
12.091406 -22.941948 32.097130 41.264523 -1.085749 0.679577 0.093266 -0.029937 1227.660000 0 0 1
11.149806 -22.175448 33.047110 41.330136 -1.104912 0.644186 0.085213 -0.030484 -330661.000000 0 0 1
11.102806 -22.774048 -33.463486 41.973020 -1.117182 2.493542 0.083924 -0.028927 219052.000000 0 0 1
12.289406 -22.804148 -32.683646 41.704668 -1.076507 2.471385 0.098338 -0.029034 122301.000000 0 0 1
12.727806 -21.443048 -32.171776 40.704109 -1.035123 2.482228 0.098638 -0.035851 -355330.000000 0 0 1
13.298506 -20.565748 -33.122276 41.193269 -0.996791 2.504906 0.092396 -0.039523 -17792.300000 0 0 1
14.128806 -19.639548 -32.464706 40.488173 -0.947165 2.501151 0.087695 -0.040088 -121132.000000 0 0 1
14.553306 -18.567648 -33.499716 40.973006 -0.906012 2.528035 0.077456 -0.037990 -426602.000000 0 0 1
15.377006 -18.958848 33.251727 41.250062 -0.889340 0.633262 0.079420 -0.027154 346745.000000 0 0 1
15.255206 -18.001248 32.203548 39.922860 -0.867783 0.632344 0.067019 -0.031844 -317921.000000 0 0 1
16.265806 -16.868048 32.320322 39.921307 -0.803572 0.627325 0.068846 -0.033870 -1182100.000000 0 0 1
15.983606 -16.060248 33.396497 40.357568 -0.787790 0.596129 0.067912 -0.029712 544488.000000 0 0 1
16.795806 -14.874348 33.398444 40.234331 -0.724802 0.591513 0.068030 -0.032588 1256940.000000 0 0 1
18.330106 -14.933348 33.726466 41.188253 -0.683634 0.611414 0.060901 -0.022912 943594.000000 0 0 1
19.187706 -15.668348 32.855716 41.148065 -0.684771 0.646038 0.065586 -0.019377 -459038.000000 0 0 1
20.524606 -15.607248 33.252804 42.078434 -0.650134 0.659567 0.068127 -0.013135 -401880.000000 0 0 1
21.357506 -16.248248 32.104438 41.843083 -0.650361 0.696242 0.070397 -0.015147 -493934.000000 0 0 1
21.407606 -15.572048 30.875117 40.669978 -0.628884 0.708771 0.063582 -0.006699 88521.400000 0 0 1
22.176106 -16.219248 29.894437 40.601984 -0.631480 0.743240 0.058610 -0.007051 -457870.000000 0 0 1
22.357606 -15.415248 28.558457 39.409109 -0.603634 0.760246 0.049066 0.002851 -152766.000000 0 0 1
23.173606 -14.279248 28.749727 39.591158 -0.552236 0.758068 0.023023 0.002778 155992.000000 0 0 1
23.681606 -13.717448 27.597607 38.866628 -0.525019 0.781214 0.024934 -0.003364 135645.000000 0 0 1
24.367006 -12.328148 27.855127 39.008234 -0.468385 0.775483 0.020230 0.000209 265534.000000 0 0 1
23.403306 -11.304248 28.096927 38.274510 -0.449971 0.746471 0.032013 -0.008819 417168.000000 0 0 1
23.994006 -10.111748 28.605677 38.681320 -0.398841 0.738437 0.039061 -0.012709 -246036.000000 0 0 1
23.029806 -8.943748 28.476527 37.699804 -0.370428 0.714609 0.053712 -0.015968 -267265.000000 0 0 1
22.082206 -8.926248 29.515127 37.926830 -0.384146 0.678982 0.053585 -0.016823 -545381.000000 0 0 1
21.267306 -7.789648 29.315717 37.045758 -0.351098 0.657802 0.058412 -0.020374 -66978.800000 0 0 1
20.077506 -7.718648 30.303927 37.161967 -0.367023 0.617281 0.041959 -0.006809 -115350.000000 0 0 1
20.459506 -7.529648 31.642847 38.425991 -0.352643 0.603287 0.053876 -0.014523 73179.700000 0 0 1
20.728906 -8.700348 32.353117 39.396799 -0.397390 0.607265 0.060562 -0.028427 -655296.000000 0 0 1
20.732206 -8.420748 33.863637 40.589152 -0.385812 0.583930 0.072668 -0.031696 142498.000000 0 0 1
19.450306 -8.188048 -33.414696 39.520886 -0.398455 2.578287 0.065007 -0.041337 170227.000000 0 0 1
19.600506 -7.485048 -32.203726 38.435475 -0.364789 2.564156 0.074834 -0.041557 -551116.000000 0 0 1
18.324006 -7.033648 -31.526586 37.137138 -0.366506 2.584741 0.077633 -0.040056 -606459.000000 0 0 1
18.585606 -6.250848 -30.325016 36.112386 -0.324443 2.567601 0.073999 -0.038034 336869.000000 0 0 1
17.408906 -5.715548 -29.739536 34.931039 -0.317224 2.589404 0.085101 -0.033042 187823.000000 0 0 1
17.691006 -4.732248 -28.594066 33.955654 -0.261375 2.571962 0.078729 -0.026769 -491491.000000 0 0 1
18.136506 -5.260148 -27.343176 33.230276 -0.282286 2.537186 0.080140 -0.024009 -168188.000000 0 0 1
17.403706 -6.219248 -26.626526 32.412033 -0.343209 2.534835 0.089615 -0.030533 166236.000000 0 0 1
15.963806 -5.861748 -26.147926 31.191621 -0.351906 2.564953 0.105764 -0.033100 377886.000000 0 0 1
15.985406 -4.828948 -25.144296 30.184227 -0.293368 2.555354 0.078735 -0.026908 52924.000000 0 0 1
14.710806 -4.616648 -24.543366 28.984445 -0.304093 2.580693 0.104008 -0.036928 455019.000000 0 0 1
14.640106 -3.417748 -23.573066 27.958954 -0.229344 2.573876 0.098911 -0.028886 45572.300000 0 0 1
14.700506 -2.186048 -24.267966 28.457299 -0.147624 2.592092 0.090099 -0.038712 42184.300000 0 0 1
14.256906 -1.100048 -23.450866 27.466572 -0.077006 2.594031 0.093957 -0.034222 -37343.900000 0 0 1
14.519606 0.346952 -23.954266 28.013321 0.023891 2.596545 0.076197 -0.037702 -51752.000000 0 0 1
13.827906 0.797952 -25.142976 28.705695 0.057642 2.638070 0.088415 -0.041603 216560.000000 0 0 1
14.305906 2.084952 -25.442876 29.263388 0.144722 2.624872 0.080720 -0.017019 11419.500000 0 0 1
13.426906 2.718952 -26.521556 29.850752 0.199798 2.664801 0.061617 -0.019139 290370.000000 0 0 1
12.157106 3.230952 -26.141896 29.010911 0.259762 2.693109 0.075497 -0.039612 226102.000000 0 0 1
11.345906 3.554952 -27.244656 29.726058 0.303636 2.730099 0.074887 -0.038313 -281038.000000 0 0 1
10.205006 4.443952 -26.776476 28.997767 0.410703 2.747637 0.075878 -0.045185 -456090.000000 0 0 1
10.621806 5.766952 -26.484726 29.112217 0.497403 2.713468 0.062553 -0.050134 -267494.000000 0 0 1
9.507506 6.587952 -26.358036 28.784368 0.605959 2.728059 0.065285 -0.051761 -407532.000000 0 0 1
8.279006 5.242150 -30.919666 32.435286 0.564464 2.834685 0.063999 -0.026061 -189409.000000 0 0 1
7.893006 4.260150 -29.960826 31.274582 0.494930 2.850716 0.060467 -0.017783 421022.000000 0 0 1
7.835306 2.983550 -30.562226 31.691375 0.363831 2.873850 0.040457 -0.013215 -144539.000000 0 0 1
7.395506 1.948250 -29.570926 30.543884 0.257585 2.888512 0.048697 -0.019150 96523.400000 0 0 1
8.391306 1.813050 -28.554176 29.816809 0.212792 2.849536 0.088086 -0.031315 576736.000000 0 0 1
8.181206 0.689950 -27.754896 28.943780 0.084134 2.853982 0.082643 -0.037017 -192124.000000 0 0 1
9.394006 0.406750 -26.853956 28.452552 0.043272 2.804788 0.091565 -0.049542 -461733.000000 0 0 1
10.479406 -0.092150 -27.583036 29.506784 -0.008793 2.778501 0.101512 -0.032144 -74966.300000 0 0 1
11.497906 -0.432250 -26.611886 28.992777 -0.037576 2.733501 0.104450 -0.039992 -395705.000000 0 0 1
12.361806 -1.555150 -27.127426 29.851800 -0.125145 2.711043 0.088746 -0.038955 -676669.000000 0 0 1
11.826606 -2.852850 -27.133436 29.736017 -0.236701 2.720095 0.103433 -0.040842 -460362.000000 0 0 1
12.677506 -3.824450 -27.663186 30.669161 -0.292990 2.695146 0.119448 -0.041603 -270251.000000 0 0 1
12.146306 -5.264950 -27.467426 30.491178 -0.409015 2.692478 0.115356 -0.032586 -39903.700000 0 0 1
11.895406 -5.602250 -26.133946 29.255239 -0.440146 2.675449 0.114996 -0.033584 -16018.100000 0 0 1
11.391406 -6.895250 -25.880326 29.104980 -0.544309 2.666403 0.114707 -0.036118 90703.700000 0 0 1
10.863806 -6.929550 -24.449266 27.637068 -0.567791 2.656549 0.111253 -0.039063 471120.000000 0 0 1
11.960506 -6.845150 -23.520966 27.260697 -0.519812 2.611610 0.108766 -0.031598 621273.000000 0 0 1
11.583406 -6.840850 -22.186066 25.945983 -0.533459 2.596514 0.097995 -0.033045 -251074.000000 0 0 1
12.864706 -6.816750 -21.350166 25.841794 -0.487265 2.543103 0.100339 -0.025822 375656.000000 0 0 1
13.497306 -5.520550 -21.152566 25.692115 -0.388250 2.538014 0.091340 -0.024361 321585.000000 0 0 1
14.649806 -5.647950 -20.323966 25.682284 -0.367971 2.483829 0.081581 -0.020281 331948.000000 0 0 1
15.234306 -4.321550 -19.914666 25.443148 -0.276411 2.469808 0.092192 -0.015556 -529320.000000 0 0 1
16.224206 -3.832750 -20.757966 26.623448 -0.231983 2.464963 0.086114 -0.015122 42020.300000 0 0 1
16.829306 -2.662750 -20.104266 26.353316 -0.156920 2.438543 0.090610 -0.004973 -337384.000000 0 0 1
18.001506 -2.052050 -20.807866 27.590440 -0.113503 2.425185 0.069993 -0.008591 -494937.000000 0 0 1
19.196806 -2.806850 -20.819266 28.457646 -0.145186 2.391444 0.084382 -0.015812 -96129.500000 0 0 1
20.193306 -2.102650 -21.522166 29.587064 -0.103752 2.385348 0.082984 -0.018796 -39455.600000 0 0 1
21.467806 -2.954850 -21.768566 30.715929 -0.136782 2.358459 0.058407 -0.012439 -1102690.000000 0 0 1
22.263806 -2.829350 -20.642666 30.492654 -0.126405 2.314437 0.056466 -0.007849 1421090.000000 0 0 1
23.653906 -3.287150 -20.796066 31.666843 -0.138084 2.287250 0.043530 -0.020917 2154320.000000 0 0 1
24.607006 -2.367650 -21.611866 32.835701 -0.095923 2.289198 0.037038 -0.018057 -953700.000000 0 0 1
24.259006 -2.359850 -22.969966 33.491605 -0.096972 2.326557 0.042152 -0.016310 221610.000000 0 0 1
25.121606 -1.574050 -23.784866 34.630804 -0.062575 2.327891 0.048937 -0.015799 93318.500000 0 0 1
26.426706 -2.248250 -24.247966 35.935905 -0.084871 2.311430 0.059741 -0.018347 -1761640.000000 0 0 1
27.396406 -2.237550 -23.304166 36.036840 -0.081492 2.274015 0.051699 -0.013730 -140755.000000 0 0 1
28.679206 -2.722050 -23.739266 37.329066 -0.094630 2.260030 0.058044 -0.010934 964537.000000 0 0 1
29.539606 -1.886450 -24.708266 38.557041 -0.063775 2.266367 0.070278 -0.021527 -985879.000000 0 0 1
29.085506 -1.819550 -26.059546 39.094467 -0.062477 2.300406 0.076263 -0.020407 179647.000000 0 0 1
29.480106 -0.559550 -26.585316 39.700992 -0.018978 2.304518 0.078437 -0.031346 -526597.000000 0 0 1
28.861906 -0.213950 -27.933656 40.166460 -0.007413 2.339838 0.061185 -0.032536 147341.000000 0 0 1
27.483206 0.125550 -27.848506 39.126483 0.004568 2.362791 0.061111 -0.026473 277371.000000 0 0 1
27.208106 1.474250 -27.593366 38.779483 0.054131 2.362492 0.056491 -0.024932 -1024130.000000 0 0 1
25.723906 1.781550 -27.709336 37.851031 0.069146 2.392142 0.057092 -0.022065 -885330.000000 0 0 1
24.908006 1.088550 -26.815516 36.615101 0.043675 2.392581 0.047372 -0.010945 -426180.000000 0 0 1
23.557606 1.282650 -27.161116 35.976829 0.054394 2.426392 0.054978 -0.011403 -337780.000000 0 0 1
22.707706 0.833950 -25.938896 34.484224 0.036709 2.422185 0.053505 -0.009699 -184965.000000 0 0 1
22.960606 1.565950 -24.685666 33.749425 0.068096 2.391227 0.055918 -0.012422 -91769.300000 0 0 1
22.151406 1.169150 -23.651166 32.425751 0.052731 2.388233 0.042098 -0.009653 -561308.000000 0 0 1
22.310606 1.998750 -22.331366 31.629860 0.089349 2.354661 0.048762 -0.012459 -359780.000000 0 0 1
21.827606 3.321850 -22.306766 31.385839 0.151027 2.361328 0.057238 -0.013287 294133.000000 0 0 1
21.972506 3.936850 -21.053966 30.684838 0.177290 2.326960 0.052734 -0.016169 -380594.000000 0 0 1
21.474706 5.366050 -20.860666 30.415865 0.244864 2.326565 0.070560 -0.021924 -134515.000000 0 0 1
22.184206 6.373150 -21.608666 31.617882 0.279750 2.323250 0.074602 -0.021070 396557.000000 0 0 1
21.934306 7.717750 -21.181066 31.453378 0.338329 2.309610 0.079521 -0.028069 -724349.000000 0 0 1
22.454006 8.169750 -19.801166 31.032457 0.348954 2.262797 0.080763 -0.034115 -1268600.000000 0 0 1
23.839406 8.072650 -19.778766 32.010694 0.326507 2.236840 0.063423 -0.028308 -444615.000000 0 0 1
24.434506 7.988950 -18.492166 31.667469 0.315998 2.194380 0.071910 -0.032818 -35888.200000 0 0 1
24.451106 9.329650 -17.614266 31.546178 0.364513 2.163209 0.073926 -0.043015 -1001460.000000 0 0 1
23.220906 9.801250 -17.170966 30.497820 0.399401 2.168835 0.070928 -0.038472 -433275.000000 0 0 1
23.203406 11.138650 -16.812866 30.743130 0.447556 2.149432 0.076068 -0.032892 582884.000000 0 0 1
21.734606 11.630350 -16.483766 29.654219 0.491338 2.160200 0.063643 -0.038719 1198140.000000 0 0 1
20.842706 11.592350 -17.584966 29.631605 0.507578 2.206139 0.075432 -0.044268 435509.000000 0 0 1
19.993406 10.431850 -17.562066 28.582966 0.480907 2.232452 0.076435 -0.047426 -244968.000000 0 0 1
19.030606 10.339050 -18.738266 28.638829 0.497673 2.284047 0.091185 -0.037299 -474944.000000 0 0 1
19.681606 10.304150 -19.970266 29.872272 0.482303 2.303016 0.084793 -0.035000 -482780.000000 0 0 1
18.817606 10.070850 -21.016566 29.953637 0.491396 2.348488 0.073345 -0.037091 -641516.000000 0 0 1
19.461206 10.047450 -22.437166 31.354684 0.476587 2.368268 0.082203 -0.035226 -397576.000000 0 0 1
19.822506 11.342650 -22.766066 32.247189 0.519736 2.354611 0.074524 -0.036626 101603.000000 0 0 1
20.692806 11.308750 -23.877666 33.559246 0.500157 2.362438 0.082618 -0.034979 82945.000000 0 0 1
21.203006 12.738850 -24.293466 34.670135 0.541010 2.347179 0.078512 -0.018087 -244391.000000 0 0 1
21.924706 12.789350 -25.466446 35.955529 0.528072 2.357850 0.082628 -0.007361 -212768.000000 0 0 1
22.069306 14.098050 -25.903446 36.834736 0.568467 2.350733 0.081247 -0.009483 376432.000000 0 0 1
20.865406 14.720750 -26.708566 36.951497 0.614414 2.378643 0.085863 -0.011800 553086.000000 0 0 1
19.654506 14.746350 -26.007356 35.779002 0.643679 2.384577 0.070789 -0.006863 -57851.700000 0 0 1
18.543806 15.269150 -26.746436 35.949847 0.688853 2.409823 0.082856 -0.010647 1541310.000000 0 0 1
17.162006 14.910050 -26.064396 34.586078 0.715298 2.424332 0.084948 -0.019128 886384.000000 0 0 1
16.922506 13.536550 -26.106376 33.928635 0.674689 2.448775 0.087402 -0.018945 254131.000000 0 0 1
15.588506 13.258750 -25.699916 32.852422 0.704811 2.469120 0.075150 -0.027084 385075.000000 0 0 1
15.225606 11.744850 -25.942546 32.292046 0.657050 2.503734 0.064427 -0.032541 -752405.000000 0 0 1
13.887506 11.438550 -25.757676 31.419120 0.689001 2.531874 0.058888 -0.037728 -674726.000000 0 0 1
13.728506 9.999150 -25.664486 30.775326 0.629500 2.556988 0.060061 -0.040283 -1065840.000000 0 0 1
12.308906 9.504250 -25.551286 29.911672 0.657523 2.594854 0.083876 -0.051380 -609880.000000 0 0 1
11.583806 9.992450 -24.422166 28.817977 0.711777 2.581984 0.099008 -0.057063 273596.000000 0 0 1
10.465406 9.201050 -24.054366 27.799219 0.721197 2.616523 0.102299 -0.055062 339028.000000 0 0 1
9.550506 9.910250 -23.000766 26.804112 0.803882 2.602366 0.101719 -0.051558 -77324.800000 0 0 1
9.044006 11.148850 -23.440166 27.486947 0.889260 2.592071 0.104848 -0.047962 100383.000000 0 0 1
8.206506 11.949150 -22.624066 26.869635 0.968994 2.571765 0.097512 -0.037553 467133.000000 0 0 1
8.981206 12.808750 -21.572966 26.648058 0.959281 2.514183 0.102695 -0.041669 568591.000000 0 0 1
9.538506 11.994850 -20.475066 25.575141 0.898979 2.499067 0.115292 -0.048609 548143.000000 0 0 1
10.583106 12.675250 -19.786266 25.771310 0.875109 2.446139 0.135355 -0.050769 406570.000000 0 0 1
11.611206 11.733750 -19.015466 25.181123 0.790647 2.426676 0.144368 -0.050955 677253.000000 0 0 1
12.629306 11.105150 -19.796166 25.975217 0.721269 2.437374 0.138076 -0.051584 153717.000000 0 0 1
12.247006 10.212350 -20.786766 26.198681 0.695052 2.487217 0.128350 -0.053415 -1303120.000000 0 0 1
13.404906 9.526550 -21.504466 27.071917 0.617855 2.488726 0.129688 -0.049037 -429851.000000 0 0 1
14.142906 8.615950 -20.732966 26.535114 0.547161 2.467608 0.123312 -0.060118 19712.300000 0 0 1
15.223706 8.139550 -21.493866 27.568093 0.490992 2.464926 0.099326 -0.053205 -37063.000000 0 0 1
16.003806 6.948650 -20.824666 27.167485 0.409627 2.444215 0.135754 -0.053352 461104.000000 0 0 1
16.815906 7.318250 -19.706666 26.919958 0.410477 2.392118 0.109203 -0.051186 122102.000000 0 0 1
17.437806 6.191650 -19.184566 26.654478 0.341185 2.374239 0.108770 -0.045969 -184058.000000 0 0 1
18.300606 6.436750 -17.919266 26.409165 0.338209 2.316548 0.138608 -0.040462 -652606.000000 0 0 1
19.663906 6.576950 -18.171166 27.570215 0.322772 2.290400 0.122401 -0.051905 -467178.000000 0 0 1
20.466506 6.755450 -17.036666 27.472931 0.318814 2.239699 0.109714 -0.050524 -118463.000000 0 0 1
21.032806 5.489550 -16.374166 27.214470 0.255304 2.216388 0.097473 -0.046114 -391549.000000 0 0 1
22.072406 4.888450 -17.145666 28.373613 0.217955 2.219661 0.073302 -0.039778 616001.000000 0 0 1
22.914706 4.216350 -16.229566 28.394721 0.181967 2.179214 0.115699 -0.041556 867465.000000 0 0 1
24.181906 3.443750 -16.825866 29.660306 0.141459 2.174002 0.035631 -0.012465 1121900.000000 0 0 1
24.849706 2.697250 -15.782066 29.561066 0.108119 2.133979 0.038484 -0.007623 -193812.000000 0 0 1
26.009406 2.150550 -16.317866 30.779649 0.082496 2.129575 0.029843 -0.009402 -445821.000000 0 0 1
26.594806 0.980850 -15.502666 30.799000 0.036865 2.098267 0.051507 -0.026506 75653.200000 0 0 1
26.002506 -0.311850 -15.806266 30.431326 -0.011992 2.116954 0.064163 -0.026012 286425.000000 0 0 1
26.962206 -1.339950 -15.709866 31.233890 -0.049656 2.097834 0.054788 -0.019055 -252570.000000 0 0 1
26.405206 -2.750350 -15.938166 30.964891 -0.103785 2.111474 0.046327 -0.024958 -11105.000000 0 0 1
25.707406 -3.295650 -14.793866 29.842763 -0.127503 2.089468 0.054287 -0.025968 675426.000000 0 0 1
25.470706 -4.685250 -15.029766 29.943318 -0.181913 2.096637 0.050309 -0.020301 -1216470.000000 0 0 1
24.816506 -5.486850 -13.868666 28.953486 -0.217596 2.070309 0.053503 -0.022653 -355002.000000 0 0 1
23.499606 -5.215050 -13.519366 27.607997 -0.218382 2.082531 0.076413 -0.018854 -180756.000000 0 0 1
22.537806 -5.532350 -14.527366 27.378896 -0.240710 2.130110 0.088966 -0.014861 -5366.610000 0 0 1
21.063906 -5.502650 -13.978266 25.871977 -0.255525 2.141573 0.104514 -0.021579 379322.000000 0 0 1
20.876706 -6.531750 -13.046766 25.469957 -0.303224 2.108589 0.116164 -0.018670 338608.000000 0 0 1
20.864806 -5.979650 -11.758466 24.685175 -0.279109 2.067280 0.125443 -0.021945 -491407.000000 0 1 0
20.770106 -6.979750 -10.653266 24.364037 -0.324192 2.023339 0.122743 -0.024964 499211.000000 0 1 0
19.511206 -7.665550 -10.557466 23.471427 -0.374353 2.037339 0.124857 -0.024359 1056070.000000 0 1 0
19.252506 -8.729850 -11.473466 24.052228 -0.425711 2.068061 0.117566 -0.027052 46962.600000 0 1 0
17.863006 -9.465950 -11.440266 23.228665 -0.487295 2.085764 0.137917 -0.030243 831781.000000 0 1 0
16.784006 -8.569050 -11.676366 22.169100 -0.472051 2.125505 0.115817 -0.021510 641231.000000 0 1 0
15.576906 -9.271050 -12.025866 21.753478 -0.536867 2.156547 0.112155 -0.022201 615693.000000 0 1 0
14.402006 -8.317150 -12.335266 20.706316 -0.523711 2.208964 0.087111 -0.009859 -254807.000000 0 1 0
14.492006 -7.465150 -13.448466 21.133100 -0.475672 2.260579 0.082921 -0.010599 616855.000000 0 1 0
15.413706 -6.363450 -13.273566 21.313455 -0.391529 2.243086 0.075760 -0.012871 276113.000000 0 1 0
15.261406 -5.336650 -14.367766 21.629217 -0.336392 2.297321 0.069169 -0.009384 706277.000000 0 1 0
14.075006 -4.510450 -14.272666 20.546507 -0.310118 2.338732 0.068339 -0.006756 813683.000000 0 1 0
13.790206 -3.582850 -15.322266 20.923155 -0.254191 2.392506 0.062877 -0.009588 -651069.000000 0 1 0
14.720406 -2.400150 -15.532366 21.533821 -0.161627 2.376475 0.075560 -0.015934 -514746.000000 0 1 0
15.818406 -2.693550 -16.381066 22.930689 -0.168662 2.366524 0.073088 -0.010436 679639.000000 0 1 0
16.865406 -1.705750 -16.320366 23.530955 -0.100796 2.337229 0.083679 -0.011930 1048830.000000 0 1 0
18.046706 -2.031550 -15.340266 23.772559 -0.112100 2.272203 0.099760 -0.011615 162227.000000 0 1 0
17.668606 -2.077650 -13.940066 22.601365 -0.117052 2.235441 0.083315 -0.003789 310347.000000 0 1 0
18.679006 -2.737550 -13.216166 23.044880 -0.145522 2.181564 0.084855 -0.001499 36661.100000 0 1 0
18.280006 -2.877950 -11.713066 21.900619 -0.156155 2.135101 0.088623 0.000984 -137457.000000 0 1 0
18.203806 -1.637250 -11.049066 21.357458 -0.089699 2.114536 0.095905 -0.000485 565054.000000 0 1 0
17.710606 -1.882650 -9.757566 20.308127 -0.105903 2.071994 0.089490 -0.007895 -903147.000000 0 1 0
17.629406 -0.644050 -8.847366 19.735416 -0.036516 2.035658 0.078013 -0.006015 122256.000000 0 1 0
18.824506 -0.016050 -8.383566 20.606952 -0.000853 1.989780 0.085714 -0.003077 433210.000000 0 1 0
19.691006 0.619850 -9.247266 21.763085 0.031468 2.009654 0.081208 0.008941 -496031.000000 0 1 0
19.115406 1.909250 -9.868666 21.597096 0.099550 2.045353 0.079846 0.005112 -742771.000000 0 1 0
19.119506 2.951650 -8.962866 21.321368 0.153170 2.004650 0.063775 0.013688 426425.000000 0 1 0
18.477606 4.037350 -9.600366 21.210590 0.215119 2.040499 0.058138 0.006303 -529410.000000 0 1 0
18.695906 5.470350 -9.026366 21.469441 0.284651 2.004714 0.068451 0.017071 -224307.000000 0 1 0
17.996106 6.438250 -9.757666 21.459798 0.343569 2.042826 0.055337 0.011305 468302.000000 0 1 0
18.461306 7.715150 -9.328166 22.076187 0.395849 2.007047 0.073869 0.013832 84642.700000 0 1 0
-26.697664 -29.029230 5.812434 39.865346 0.827213 1.424473 0.076323 -0.007179 332342.000000 0 0 1
-27.039304 -27.938680 6.730334 39.458728 0.801756 1.399392 0.077350 -0.009821 387263.000000 0 0 1
-25.976204 -26.985150 6.618134 38.036314 0.804446 1.395911 0.078983 -0.010810 -253305.000000 0 0 1
-26.188994 -25.698920 7.518434 37.454302 0.775954 1.368687 0.063459 -0.014674 -1587180.000000 0 0 1
-27.305454 -24.975350 7.217034 37.702009 0.740859 1.378185 0.065105 -0.018723 416688.000000 0 0 1
-28.588484 -25.600830 7.570234 39.115372 0.730320 1.376031 0.069676 -0.016579 813962.000000 0 0 1
-28.872464 -25.802880 9.104034 39.778024 0.729315 1.339879 0.089124 -0.026132 -623665.000000 0 0 1
-27.918474 -26.604170 9.813334 39.793524 0.761297 1.321619 0.079825 -0.024618 -67137.200000 0 0 1
-28.207724 -26.823230 11.204234 40.505508 0.760245 1.290532 0.071439 -0.028690 -75275.500000 0 0 1
-27.003164 -27.550470 11.910434 40.373973 0.795430 1.271338 0.045320 -0.027065 605349.000000 0 0 1
-25.848904 -26.818030 12.179634 39.188213 0.803797 1.254763 0.042318 -0.015433 -529934.000000 0 0 1
-26.006854 -25.914110 13.251234 39.031945 0.783612 1.224414 0.048750 -0.017273 -1196540.000000 0 0 1
-24.736594 -25.468420 13.938734 38.142205 0.799974 1.196690 0.054548 -0.017302 -666153.000000 0 0 1
-24.148094 -26.529120 14.662334 38.754467 0.832348 1.182795 0.044996 -0.010362 54534.800000 0 0 1
-22.945494 -26.154330 15.316134 38.014847 0.850659 1.156114 0.048361 -0.008212 387428.000000 0 0 1
-22.082294 -27.294000 15.903034 38.542141 0.890560 1.145474 0.042428 -0.013493 -441756.000000 0 0 1
-22.761394 -28.038710 16.888534 39.868194 0.888911 1.133370 0.048467 -0.002334 -37162.300000 0 0 1
-22.112194 -29.191700 17.330234 40.514707 0.922524 1.128792 0.054341 -0.004791 198784.000000 0 0 1
-23.147794 -30.166280 18.004634 42.071269 0.916290 1.128567 0.069792 -0.018981 246215.000000 0 0 1
-24.182694 -30.678500 17.229034 42.694410 0.903254 1.155410 0.047617 -0.019838 -28423.200000 0 0 1
-24.882694 -31.677370 17.934134 44.093507 0.904957 1.151925 0.044234 -0.023260 -179987.000000 0 0 1
-25.847774 -32.551930 17.115034 44.951751 0.899696 1.180197 0.033755 -0.027642 -159463.000000 0 0 1
-25.216804 -33.504780 16.289034 44.986555 0.925612 1.200291 0.035364 -0.029190 410456.000000 0 0 1
-26.122274 33.492299 15.811134 45.322172 -0.908402 1.214441 0.042646 -0.033768 -1091000.000000 0 0 1
-25.423054 32.754622 14.668934 43.981525 -0.910758 1.230756 0.044846 -0.036428 -177952.000000 0 0 1
-24.331394 31.954729 15.018534 42.879806 -0.920018 1.212961 0.032301 -0.034102 -99554.100000 0 0 1
-23.119194 32.661137 14.924434 42.708146 -0.954821 1.213810 0.035676 -0.029984 -216452.000000 0 0 1
-21.781894 31.860979 14.877734 41.363267 -0.971125 1.202866 0.042960 -0.036929 438835.000000 0 0 1
-21.458294 31.203699 13.695934 40.270434 -0.968384 1.223774 0.023410 -0.016663 -1067740.000000 0 0 1
-20.264694 30.546139 13.794634 39.166521 -0.985050 1.210871 0.044160 -0.020368 -1083340.000000 0 0 1
-20.090794 29.600549 12.583634 37.923348 -0.974488 1.232567 0.039421 -0.015456 13461.800000 0 0 1
-19.900494 30.328669 11.395134 38.022453 -0.990102 1.266424 0.020241 -0.004668 -8134.470000 0 0 1
-20.335694 29.561539 10.249934 37.316031 -0.968230 1.292540 0.042105 -0.010416 182223.000000 0 0 1
-19.916794 30.115559 8.853834 37.175475 -0.986487 1.330322 0.035879 -0.010303 -689577.000000 0 0 1
-18.534294 30.216129 8.722034 36.504909 -1.020589 1.329535 0.047743 -0.022702 -911227.000000 0 0 1
-18.157694 30.702029 7.436134 36.436418 -1.036712 1.365267 0.063919 -0.025740 63566.600000 0 0 1
-17.659694 29.643719 6.461634 35.105093 -1.033521 1.385675 0.081409 -0.032274 -206790.000000 0 0 1
-18.682794 28.751389 6.022134 34.813148 -0.994558 1.396937 0.067121 -0.019882 255380.000000 0 0 1
-18.757294 27.564059 6.859834 34.039253 -0.973279 1.367879 0.050722 -0.012300 -235714.000000 0 0 1
-19.761994 26.552209 6.313834 33.696004 -0.930973 1.382306 0.046133 -0.005596 -194630.000000 0 0 1
-19.271894 25.744409 5.310334 32.594173 -0.928201 1.407144 0.070712 -0.021156 1078930.000000 0 0 1
-20.395694 25.236809 4.528734 32.762636 -0.891092 1.432124 0.066946 -0.018600 500583.000000 0 0 1
-19.929294 24.577569 3.206134 31.804291 -0.889460 1.469817 0.087214 -0.024035 -1140940.000000 0 0 1
-19.697594 25.463719 2.123134 32.263042 -0.912389 1.504942 0.096240 -0.023496 1288740.000000 0 0 1
-18.460394 26.217649 2.020634 32.128402 -0.957310 1.507862 0.095307 -0.019307 734130.000000 0 0 1
-17.085994 25.565169 2.292334 30.834459 -0.981642 1.496384 0.097736 -0.026823 -652149.000000 0 0 1
-16.721194 24.480649 1.451834 29.681784 -0.971546 1.521863 0.132781 -0.036856 46347.900000 0 0 1
-16.258794 24.816989 0.155234 29.669099 -0.990811 1.565564 0.144085 -0.040190 -230419.000000 0 0 1
-15.905094 23.591639 -0.704266 28.461086 -0.977608 1.595544 0.132966 -0.038325 -83027.400000 0 0 1
-17.005294 22.717749 -0.860366 28.390427 -0.928226 1.601106 0.145653 -0.053558 -37280.800000 0 0 1
-16.969694 21.691749 -1.778766 27.598306 -0.906935 1.635293 0.138301 -0.050698 -480366.000000 0 0 1
-15.982094 20.572749 -1.482166 26.093335 -0.910327 1.627629 0.132754 -0.051149 -544123.000000 0 0 1
-16.308094 19.725449 -0.434466 25.597578 -0.879954 1.587770 0.130961 -0.053035 -317847.000000 0 0 1
-15.288894 18.909649 0.100634 24.317385 -0.890880 1.566658 0.129746 -0.044501 -443838.000000 0 1 0
-15.735094 17.812049 1.036734 23.789432 -0.847231 1.527203 0.098107 -0.037066 -273862.000000 0 1 0
-16.396694 16.760849 0.384434 23.450489 -0.796380 1.554402 0.084541 -0.035530 374832.000000 0 1 0
-17.068594 15.952049 1.354934 23.401722 -0.751597 1.512865 0.099365 -0.048428 253830.000000 0 1 0
-17.788494 14.702549 0.771934 23.090936 -0.690704 1.537360 0.104298 -0.045515 -6457.400000 0 1 0
-18.858594 14.930149 -0.116166 24.053470 -0.669653 1.575626 0.126708 -0.050008 -25436.700000 0 1 0
-19.558294 13.734949 -0.292466 23.901071 -0.612239 1.583033 0.119921 -0.040873 -309890.000000 0 1 0
-20.594194 13.872149 -1.489366 24.875199 -0.592784 1.630706 0.106372 -0.036128 341478.000000 0 1 0
-21.470494 12.786349 -1.758666 25.051262 -0.537127 1.641057 0.100853 -0.037130 763868.000000 0 0 1
-22.368894 12.423649 -0.724266 25.597637 -0.506978 1.599094 0.115576 -0.036055 -1078810.000000 0 0 1
-23.701194 13.137349 -0.554666 27.104320 -0.506131 1.591262 0.132018 -0.038193 -899374.000000 0 0 1
-23.580294 14.517349 -0.325066 27.692767 -0.551852 1.582535 0.140856 -0.041314 437562.000000 0 0 1
-24.847794 15.099549 -0.047966 29.075962 -0.546049 1.572446 0.122489 -0.032521 236156.000000 0 0 1
-24.692694 16.337049 0.928634 29.622469 -0.584497 1.539442 0.121822 -0.038539 44454.200000 0 0 1
-24.539294 15.977449 2.267434 29.370003 -0.577146 1.493517 0.125622 -0.042750 -23934.400000 0 0 1
-24.225794 17.028949 3.140534 29.778132 -0.612687 1.465135 0.106093 -0.042533 -49509.400000 0 0 1
-25.382284 17.956449 3.593734 31.298711 -0.615702 1.455722 0.115679 -0.043682 -530197.000000 0 0 1
-26.308314 17.295349 4.437534 31.795411 -0.581567 1.430774 0.127501 -0.044985 1466240.000000 0 0 1
-27.582554 18.004449 4.501734 33.244895 -0.578304 1.434968 0.109038 -0.046271 1460800.000000 0 0 1
-28.591404 17.975549 3.330334 33.936409 -0.561259 1.472504 0.127210 -0.046886 64793.100000 0 0 1
-29.849434 18.605749 3.599234 35.356995 -0.557390 1.468823 0.124858 -0.039661 885723.000000 0 0 1
-30.493564 18.861649 2.328234 35.931044 -0.553944 1.505954 0.123949 -0.030236 -37595.500000 0 0 1
-31.739554 19.770349 2.407034 37.470786 -0.557083 1.506514 0.118426 -0.036012 -616262.000000 0 0 1
-32.917054 19.044649 2.673034 38.123171 -0.524509 1.500623 0.155847 -0.031141 517961.000000 0 0 1
-34.066261 19.920949 2.620934 39.550267 -0.529146 1.504479 0.135170 -0.025647 658890.000000 0 0 1
-34.501336 20.427349 3.997234 40.293878 -0.534571 1.471431 0.113651 -0.032806 -683004.000000 0 0 1
-33.498144 21.225349 4.566334 39.918573 -0.564779 1.456154 0.110916 -0.032754 191043.000000 0 0 1
-33.912814 21.786349 5.769134 40.718630 -0.571030 1.428635 0.108727 -0.032830 -525542.000000 0 0 1
-32.939254 22.822849 6.298834 40.565406 -0.605929 1.414889 0.100976 -0.035666 -479336.000000 0 0 1
-32.796374 24.056029 5.641934 41.062466 -0.632855 1.432961 0.092721 -0.028376 -374496.000000 0 0 1
-31.721734 24.691759 6.193134 40.673164 -0.661422 1.417936 0.089491 -0.028769 -791065.000000 0 0 1
-31.936554 26.257429 5.930434 41.768003 -0.688117 1.428330 0.079364 -0.021827 181485.000000 0 0 1
-33.091204 26.686899 6.636934 43.026355 -0.678671 1.415925 0.082691 -0.016938 486395.000000 0 0 1
-33.520044 28.037539 6.380034 44.163353 -0.696570 1.425825 0.080296 -0.017986 273688.000000 0 0 1
-34.564159 28.611249 7.388534 45.473895 -0.691447 1.407594 0.072600 -0.015056 -312820.000000 0 0 1
-34.069944 28.680089 8.719334 45.379900 -0.699714 1.377453 0.096676 -0.016303 340362.000000 0 0 1
-34.913926 29.279649 9.701434 46.587529 -0.697852 1.361020 0.093318 -0.016578 497940.000000 0 0 1
-36.275254 28.571879 9.996434 47.245899 -0.667159 1.357602 0.076153 -0.013186 270236.000000 0 0 1
-36.004116 27.480349 10.908234 46.588148 -0.651931 1.334461 0.087664 -0.016064 661172.000000 0 0 1
-37.183174 26.997759 11.545834 47.379043 -0.628012 1.324627 0.080258 -0.013531 404198.000000 0 0 1
-36.835664 25.736919 12.439234 46.626062 -0.609850 1.300739 0.102403 -0.007163 -453601.000000 0 0 1
-35.933836 26.026749 13.437734 46.359518 -0.626847 1.276717 0.136506 -0.021311 -559733.000000 0 0 1
-35.663345 24.895719 14.256834 45.770387 -0.609433 1.254040 0.146430 -0.023274 -512439.000000 0 0 1
-34.360735 25.124259 15.005334 45.133674 -0.631354 1.231881 0.157403 -0.026592 -629939.000000 0 0 1
-34.456128 26.201599 15.863134 46.101926 -0.650145 1.219529 0.159997 -0.032027 223072.000000 0 0 1
-33.269954 26.490599 16.615834 45.658817 -0.672439 1.198331 0.174004 -0.025640 451627.000000 0 0 1
-33.303234 27.756669 17.545234 46.769363 -0.694809 1.186244 0.169027 -0.033111 215031.000000 0 0 1
-32.798174 28.926559 16.817034 46.853801 -0.722756 1.203680 0.181977 -0.027310 360898.000000 0 0 1
-33.119774 30.160109 17.461134 48.077467 -0.738661 1.199110 0.148205 -0.019534 93881.400000 0 0 1
-32.760684 31.378339 16.525734 48.280042 -0.763849 1.221444 0.117086 -0.031434 479083.000000 0 0 1
-31.344894 31.504129 16.488134 47.401172 -0.787932 1.215528 0.109314 -0.027830 36875.500000 0 0 1
-30.922954 32.740083 15.897034 47.758327 -0.813933 1.231457 0.098939 -0.028308 -153940.000000 0 0 1
-29.431994 32.759050 15.476534 46.678911 -0.838845 1.232847 0.116478 -0.033793 -524691.000000 0 0 1
-29.139154 31.899279 14.356334 45.527559 -0.830587 1.249989 0.104335 -0.029501 164735.000000 0 0 1
-29.013034 30.497409 14.714934 44.591225 -0.810336 1.234497 0.121822 -0.033646 -248618.000000 0 0 1
-30.220824 29.625469 14.275834 44.662804 -0.775450 1.245451 0.152745 -0.032239 87265.300000 0 0 1
-30.311444 29.413809 12.893134 44.160941 -0.770370 1.274523 0.157358 -0.031675 -72135.500000 0 0 1
-31.329404 28.507129 12.519634 44.169324 -0.738267 1.283410 0.153885 -0.028243 78723.600000 0 0 1
-31.514054 28.208729 11.004334 43.703128 -0.730110 1.316259 0.131136 -0.017434 -197803.000000 0 0 1
-30.481554 27.400679 10.486234 42.307014 -0.732222 1.320325 0.103580 -0.008777 -118439.000000 0 0 1
-30.475714 27.353449 9.064034 41.942067 -0.731459 1.352969 0.094304 -0.012904 449401.000000 0 0 1
-29.142644 26.718969 8.560234 40.453363 -0.742038 1.357577 0.104591 -0.012552 528450.000000 0 0 1
-28.845064 27.024589 7.190634 40.175507 -0.752825 1.390846 0.089471 -0.021828 79562.200000 0 0 1
-27.842634 26.190359 6.600834 38.790697 -0.754829 1.399799 0.069764 -0.014277 -413312.000000 0 0 1
-27.599234 26.434449 5.086834 38.553517 -0.763845 1.438468 0.076566 -0.014834 -350427.000000 0 0 1
-26.993004 27.692599 4.823434 38.971372 -0.798191 1.446709 0.048151 -0.006905 238424.000000 0 0 1
-26.884924 27.984389 3.442334 38.958630 -0.805433 1.482322 0.046091 -0.008909 -509949.000000 0 0 1
-25.871624 29.049409 2.965134 39.012833 -0.843195 1.494719 0.044254 -0.006857 169022.000000 0 0 1
-24.567094 28.612819 3.351434 37.861162 -0.861328 1.482161 0.044073 -0.008113 -61761.500000 0 0 1
-23.637794 29.583819 2.965434 37.983436 -0.896659 1.492645 0.042001 -0.002270 490771.000000 0 0 1
-22.141894 29.128519 2.997934 36.711329 -0.920834 1.489043 0.034977 -0.016389 595489.000000 0 0 1
-21.206594 30.140489 2.848034 36.963225 -0.957664 1.493669 0.043039 -0.017057 -284304.000000 0 0 1
-19.905994 29.799259 3.294634 35.987484 -0.981869 1.479119 0.060075 -0.031394 632116.000000 0 0 1
-18.754094 30.623629 2.650534 36.007611 -1.021305 1.497119 0.060803 -0.028117 189575.000000 0 0 1
-18.636994 31.928839 3.181434 37.106736 -1.042445 1.484954 0.058320 -0.025623 -639962.000000 0 0 1
-17.489594 32.580251 2.774334 37.081742 -1.078132 1.495910 0.064494 -0.021015 -669766.000000 0 0 1
-17.165994 33.790710 3.713834 38.082489 -1.100762 1.473120 0.059733 -0.028967 -91359.500000 0 0 1
-18.025094 -33.081000 3.546434 37.839579 1.071894 1.476936 0.067513 -0.033701 23416.800000 0 0 1
-17.879694 -32.179160 4.636334 37.103603 1.063641 1.445512 0.043274 -0.031071 -184699.000000 0 0 1
-19.029594 -31.180420 4.785834 36.840850 1.022833 1.440523 0.059304 -0.026005 -307662.000000 0 0 1
-19.065994 -30.285360 3.740134 35.981992 1.008935 1.466664 0.081419 -0.027205 355338.000000 0 0 1
-20.036094 -29.260290 3.946834 35.681748 0.970376 1.459957 0.092191 -0.027299 -129635.000000 0 0 1
-20.396594 -28.277950 2.789334 34.977762 0.945924 1.490966 0.086580 -0.034547 527844.000000 0 0 1
-19.351494 -27.322190 2.467034 33.571843 0.954541 1.497245 0.092179 -0.036398 585636.000000 0 0 1
-19.760794 -26.349340 1.487634 32.969527 0.927325 1.525660 0.084636 -0.030744 121670.000000 0 0 1
-18.915694 -25.039390 1.547234 31.419237 0.923824 1.521532 0.094814 -0.020820 402719.000000 0 0 1
-17.628694 -25.292390 1.028734 30.846947 0.962089 1.537441 0.124513 -0.031890 -546139.000000 0 0 1
-16.731794 -24.222650 1.302734 29.468403 0.966305 1.526574 0.112323 -0.030425 803978.000000 0 0 1
-15.358994 -24.451750 0.583034 28.881251 1.009946 1.550608 0.105087 -0.030321 230925.000000 0 0 1
-15.475694 -24.565850 -0.844766 29.046372 1.008633 1.599884 0.087165 -0.023990 47061.200000 0 0 1
-15.596594 -23.351350 -1.629466 28.128179 0.981934 1.628759 0.100765 -0.030125 -100155.000000 0 0 1
-15.674794 -23.538550 -3.158566 28.455914 0.983311 1.682024 0.054233 -0.013552 -166174.000000 0 0 1
-14.477594 -24.015950 -3.712666 28.286931 1.028297 1.702426 0.077603 -0.020701 -364385.000000 0 0 1
-14.571594 -24.015950 -5.123166 28.554229 1.025431 1.751192 0.057426 -0.011685 -423629.000000 0 0 1
-13.332594 -24.363950 -5.929566 28.399293 1.070085 1.781137 0.086933 -0.022404 -333560.000000 0 0 1
-13.054994 -25.774510 -5.967166 29.501954 1.101956 1.774465 0.058235 -0.019007 -84931.600000 0 0 1
-12.072994 -26.109880 -6.941266 29.591623 1.137685 1.807571 0.059625 -0.018721 302525.000000 0 0 1
24.214506 12.721450 27.957167 39.112412 0.483733 0.774472 0.043233 -0.003394 -85147.400000 0 0 1
24.816806 11.466150 28.188427 39.267466 0.432814 0.770077 0.050189 -0.013182 90348.900000 0 0 1
23.995206 10.578550 28.925687 39.043194 0.415228 0.736441 0.056065 -0.017911 -245674.000000 0 0 1
24.046706 10.880550 30.467947 40.310374 0.424911 0.713870 0.077159 -0.020841 601349.000000 0 0 1
23.145906 11.935250 30.891977 40.404176 0.476091 0.700416 0.064410 -0.015774 661795.000000 0 0 1
23.558806 12.376150 32.167119 41.748174 0.483706 0.691165 0.067691 -0.022372 -4130.200000 0 0 1
22.593306 13.458950 32.708436 41.969544 0.537256 0.677189 0.054077 -0.013817 447503.000000 0 0 1
21.311006 12.904350 32.995242 41.344495 0.544472 0.646733 0.070489 -0.010968 101048.000000 0 0 1
20.582306 13.819750 33.757391 41.882912 0.591299 0.633443 0.064814 -0.005120 247467.000000 0 0 1
19.348706 13.203350 -33.341016 40.747076 0.598809 2.529145 0.066381 -0.002832 750538.000000 0 0 1
18.239206 12.823550 33.690684 40.400177 0.612787 0.584616 0.070338 -0.002150 186554.000000 0 0 1
17.147106 12.514950 -33.312816 39.501784 0.630485 2.574236 0.062830 -0.004739 67276.200000 0 0 1
15.801406 12.333950 33.791654 39.289778 0.662775 0.535405 0.056946 -0.000492 232914.000000 0 0 1
15.733006 11.264150 32.927152 38.191700 0.621355 0.531289 0.055041 0.001828 -79868.300000 0 0 1
14.378406 10.988650 32.600318 37.286321 0.652557 0.506755 0.054723 0.008179 451707.000000 0 0 1
14.299806 9.864750 31.492777 35.966551 0.603883 0.504093 0.056906 0.003560 36720.100000 0 0 1
14.526306 8.540350 32.011731 36.175988 0.531492 0.484541 0.038020 0.001872 -190004.000000 0 0 1
15.319206 7.769650 31.169487 35.589078 0.469378 0.503672 0.044644 -0.008983 7821.680000 0 0 1
15.698906 6.317050 31.716237 35.948303 0.382563 0.490126 0.059853 -0.014463 -413805.000000 0 0 1
14.715806 5.355950 31.603577 35.270770 0.349056 0.460056 0.056049 -0.016100 -199518.000000 0 0 1
15.250006 4.135550 32.166925 35.838199 0.264815 0.456593 0.062457 -0.025319 410742.000000 0 0 1
14.097306 3.109350 32.367970 35.441326 0.217088 0.419523 0.040497 -0.015227 -188610.000000 0 0 1
14.385606 1.783450 32.742269 35.807576 0.123345 0.416785 0.045944 -0.024661 -120619.000000 0 0 1
13.252806 0.925850 32.932019 35.510730 0.069747 0.383443 0.047702 -0.023909 -125544.000000 0 0 1
13.595906 -0.531250 33.266682 35.941661 -0.039054 0.388246 0.024567 -0.026596 -336844.000000 0 0 1
14.384306 -1.263850 32.387951 35.461034 -0.087638 0.419386 0.021386 -0.023414 -110078.000000 0 0 1
14.526906 -2.587450 32.896004 36.053751 -0.176266 0.421648 0.071344 -0.038145 -440169.000000 0 0 1
15.121806 -3.518550 31.807357 35.394310 -0.228613 0.454097 0.081198 -0.035183 -711495.000000 0 0 1
15.474006 -4.834550 32.280413 36.122608 -0.302821 0.465417 0.090988 -0.037211 264771.000000 0 0 1
16.531106 -5.075950 33.207974 37.440784 -0.297916 0.480105 0.065210 -0.032025 481703.000000 0 0 1
17.953506 -4.729750 32.665361 37.572926 -0.257592 0.516839 0.082417 -0.033575 -202387.000000 0 0 1
18.095306 -3.320850 32.519022 37.362480 -0.181500 0.514852 0.095353 -0.040616 -3670.880000 0 0 1
19.114806 -2.917850 31.613527 37.058127 -0.151479 0.548937 0.122037 -0.050299 96260.500000 0 0 1
19.110606 -1.342850 31.378257 36.764297 -0.070152 0.548135 0.140935 -0.053200 16882.300000 0 0 1
19.628206 -0.517050 32.479884 37.953612 -0.026336 0.543743 0.127316 -0.057560 374091.000000 0 0 1
19.587906 0.876550 32.317610 37.800560 0.044720 0.545341 0.124653 -0.049516 -174489.000000 0 0 1
20.920006 1.472150 31.830393 38.118077 0.070255 0.582578 0.132440 -0.043607 -299811.000000 0 0 1
21.141106 1.330950 30.444937 37.089244 0.062873 0.607888 0.148287 -0.046639 47504.100000 0 0 1
21.901606 2.395350 29.847427 37.098342 0.108936 0.635881 0.115115 -0.039256 48102.600000 0 0 1
21.170706 3.741250 29.590507 36.575865 0.174912 0.628318 0.097426 -0.023082 -126010.000000 0 0 1
20.914306 4.323050 30.836997 37.510230 0.203832 0.605714 0.106842 -0.030357 44185.000000 0 0 1
20.036506 5.405150 30.732577 37.083265 0.263493 0.593935 0.094993 -0.029515 -274245.000000 0 0 1
19.735606 5.933350 32.136988 38.177019 0.292046 0.570208 0.092330 -0.023251 -526929.000000 0 0 1
18.740606 5.248650 32.823905 38.159762 0.273072 0.535192 0.073847 -0.018573 -188769.000000 0 0 1
18.761906 5.522950 -33.639916 38.912158 0.286284 2.614969 0.067022 -0.015892 658942.000000 0 0 1
17.565306 4.769950 -32.918436 37.615367 0.265161 2.636506 0.068192 -0.018818 669274.000000 0 0 1
17.756606 3.394250 -32.920646 37.557781 0.188876 2.639408 0.075994 -0.023776 380033.000000 0 0 1
16.580506 2.750450 -32.457326 36.550734 0.164388 2.663790 0.062408 -0.023073 250514.000000 0 0 1
16.490006 1.234350 -32.838396 36.766889 0.074715 2.675100 0.067017 -0.042958 -293292.000000 0 0 1
17.545806 0.539050 -32.216856 36.688849 0.030713 2.642694 0.083031 -0.042475 -87065.400000 0 0 1
17.629506 -0.818850 -32.603336 37.073542 -0.046414 2.645446 0.087129 -0.044675 194936.000000 0 0 1
18.849806 -1.585150 -31.955726 37.134839 -0.083896 2.607110 0.088728 -0.045184 471746.000000 0 0 1
18.846706 -1.648950 -30.535976 35.921625 -0.087270 2.586919 0.082391 -0.043990 281617.000000 0 0 1
18.956206 -0.387550 -29.904226 35.408342 -0.020442 2.576526 0.073036 -0.033610 -755160.000000 0 0 1
18.596306 -0.411750 -28.400896 33.950007 -0.022138 2.561753 0.061582 -0.019289 874983.000000 0 0 1
17.217606 -0.758350 -28.145276 33.002691 -0.044017 2.592154 0.077899 -0.030488 952787.000000 0 0 1
16.799106 -0.866450 -26.787916 31.631521 -0.051531 2.580876 0.079688 -0.028867 -6897.610000 0 0 1
17.551506 -1.857350 -25.876516 31.322503 -0.105430 2.543004 0.079368 -0.021169 -573331.000000 0 0 1
18.903306 -1.553450 -25.613256 31.871414 -0.081994 2.504189 0.069679 -0.014972 -402108.000000 0 0 1
19.525606 -2.754650 -25.179126 31.981647 -0.140154 2.477213 0.057079 -0.013737 354702.000000 0 0 1
20.489406 -3.274550 -26.299986 33.499667 -0.158477 2.473625 0.058331 -0.027524 -170627.000000 0 0 1
21.624306 -2.481350 -26.546446 34.329018 -0.114248 2.454817 0.052958 -0.017332 -354093.000000 0 0 1
22.077806 -2.653950 -27.877876 35.660187 -0.119635 2.468287 0.056235 -0.025165 -289157.000000 0 0 1
23.485306 -2.131950 -28.138626 36.713581 -0.090530 2.444071 0.046332 -0.027639 -550033.000000 0 0 1
24.510206 -3.030250 -27.853096 37.225362 -0.123008 2.416185 0.045450 -0.028643 78289.400000 0 0 1
25.788206 -2.455050 -28.164996 38.266510 -0.094914 2.397972 0.039078 -0.026905 356326.000000 0 0 1
26.975906 -3.381250 -27.892766 38.950465 -0.124693 2.369008 0.049500 -0.019004 -470004.000000 0 0 1
27.014606 -4.605750 -28.572456 39.590240 -0.168867 2.377058 0.064365 -0.030822 271240.000000 0 0 1
28.202906 -5.368750 -28.402706 40.384911 -0.188111 2.350825 0.062896 -0.028341 248545.000000 0 0 1
28.160906 -6.366450 -27.188466 39.658303 -0.222336 2.326180 0.059008 -0.019992 -120516.000000 0 0 1
28.151506 -5.859650 -25.891036 38.693520 -0.205217 2.303835 0.050984 -0.013418 321183.000000 0 0 1
28.013706 -6.953450 -24.990366 38.179007 -0.243299 2.284394 0.028416 -0.010789 -224352.000000 0 0 1
28.059206 -6.496850 -23.483466 37.161825 -0.227531 2.254830 0.016657 -0.004877 170355.000000 0 0 1
29.355006 -6.064850 -23.100266 37.843375 -0.203737 2.227384 0.023878 -0.001565 386852.000000 0 0 1
29.334406 -5.778450 -21.690466 36.937436 -0.194495 2.198419 0.025058 -0.010710 -688519.000000 0 0 1
30.678906 -5.413950 -21.082766 37.616341 -0.174673 2.165747 0.047416 -0.007821 -571412.000000 0 0 1
31.185706 -4.175350 -21.624266 38.178406 -0.133095 2.172928 0.065905 -0.007131 544267.000000 0 0 1
32.524806 -3.898750 -21.218866 39.029521 -0.119301 2.145590 0.076727 -0.005038 910436.000000 0 0 1
33.121706 -2.659150 -22.005466 39.854222 -0.080112 2.155736 0.095977 -0.019802 378305.000000 0 0 1
32.272106 -1.550250 -21.757466 38.952271 -0.048000 2.163454 0.069171 -0.017005 141177.000000 0 0 1
32.701806 -0.370850 -22.413566 39.647365 -0.011340 2.171621 0.098223 -0.023745 -372290.000000 0 0 1
31.839606 0.902550 -22.339666 38.905472 0.028339 2.182428 0.080814 -0.020112 -257292.000000 0 0 1
30.676306 0.741150 -23.137466 38.430813 0.024156 2.216869 0.070875 -0.017683 -318120.000000 0 0 1
29.577706 1.312050 -22.518566 37.197419 0.044330 2.221039 0.059735 -0.010755 -155414.000000 0 0 1
28.403506 1.573350 -23.523066 36.912995 0.055336 2.261730 0.038117 -0.008904 492180.000000 0 0 1
27.322606 2.376050 -23.082966 35.846809 0.086745 2.270425 0.042463 -0.006308 31307.000000 0 0 1
26.476606 2.701750 -24.127466 35.922760 0.101691 2.307228 0.066015 -0.013502 -238415.000000 0 0 1
25.394606 3.759750 -23.806866 35.011264 0.146985 2.318528 0.066923 -0.011771 118001.000000 0 0 1
25.901306 5.111950 -23.659266 35.450960 0.194858 2.301482 0.065526 -0.008265 58595.100000 0 0 1
24.859306 6.001250 -23.422066 34.678426 0.236876 2.312313 0.075489 -0.015960 -336628.000000 0 0 1
25.357506 7.339550 -22.769166 34.861254 0.281743 2.282516 0.085596 -0.010148 -169652.000000 0 0 1
26.217406 8.046350 -23.615366 36.190905 0.297783 2.281704 0.094242 -0.007167 -113732.000000 0 0 1
26.547906 9.286250 -23.019166 36.344295 0.336490 2.256689 0.104265 -0.012193 106071.000000 0 0 1
27.616706 10.122750 -23.790166 37.830206 0.351337 2.250891 0.131669 -0.009707 -35675.200000 0 0 1
27.317406 10.615450 -25.093886 38.582788 0.370637 2.278895 0.142066 -0.023694 -233927.000000 0 0 1
26.211506 11.443550 -25.321316 38.199043 0.411642 2.295453 0.136480 -0.021958 -181806.000000 0 0 1
25.959606 11.827850 -26.763496 39.116287 0.427522 2.324307 0.126807 -0.019033 -267672.000000 0 0 1
25.415406 10.784550 -27.609396 39.045206 0.401304 2.356204 0.107301 -0.021776 82321.100000 0 0 1
26.225006 9.713250 -28.042986 39.604384 0.354715 2.357569 0.108867 -0.032282 -255497.000000 0 0 1
27.119006 10.063350 -29.260156 41.144480 0.355330 2.361938 0.100989 -0.031093 -255820.000000 0 0 1
28.136806 11.087150 -29.020266 41.913966 0.375362 2.335575 0.098978 -0.030373 1261230.000000 0 0 1
28.950006 11.392850 -30.138186 43.315241 0.374921 2.340311 0.104867 -0.034104 528856.000000 0 0 1
29.864306 10.259950 -30.692596 44.036108 0.330919 2.341983 0.089983 -0.032196 -812497.000000 0 0 1
29.092406 9.359250 -31.419406 43.830842 0.311251 2.370046 0.088676 -0.031722 -338533.000000 0 0 1
29.789306 8.197650 -31.666896 44.242474 0.268541 2.368505 0.086114 -0.025090 -460287.000000 0 0 1
28.930206 7.115650 -32.307506 43.947289 0.241172 2.396673 0.087085 -0.033366 -136000.000000 0 0 1
27.843706 6.686850 -31.553156 42.609712 0.235693 2.404634 0.096968 -0.036124 6273.500000 0 0 1
26.782506 6.069750 -32.282356 42.382720 0.222866 2.436709 0.073842 -0.037514 399379.000000 0 0 1
25.424906 6.146950 -31.551336 40.984114 0.237217 2.449392 0.093652 -0.033481 -378148.000000 0 0 1
25.028306 7.548650 -31.614466 41.022831 0.292928 2.450665 0.103277 -0.035905 72293.400000 0 0 1
24.088006 7.954850 -30.648066 39.784615 0.318965 2.450186 0.102820 -0.030697 170240.000000 0 0 1
22.578006 7.651250 -30.799066 38.947278 0.326735 2.482893 0.092978 -0.023285 109081.000000 0 0 1
22.003006 8.527450 -31.759396 39.566512 0.369735 2.502578 0.085970 -0.021961 691382.000000 0 0 1
20.634806 8.218050 -32.073836 39.013619 0.379007 2.535919 0.072847 -0.014930 586443.000000 0 0 1
20.140006 9.058450 -33.294026 39.952065 0.422666 2.555936 0.075588 -0.012270 -312195.000000 0 0 1
20.838606 8.702450 33.379649 40.301131 0.395596 0.594808 0.071984 -0.016785 -98029.300000 0 0 1
20.945706 9.708950 32.430355 39.808470 0.434048 0.618654 0.062042 -0.012351 173608.000000 0 0 1
19.684606 10.060750 31.551057 38.524948 0.472486 0.611170 0.067588 -0.012996 612608.000000 0 0 1
19.412706 9.088450 30.527737 37.301419 0.437861 0.612163 0.060697 -0.017144 163275.000000 0 0 1
20.393406 8.974450 29.494337 36.964141 0.414562 0.646964 0.083395 -0.018432 -624334.000000 0 0 1
20.122206 9.839450 28.247577 36.050570 0.454797 0.670431 0.080624 -0.018073 14912.400000 0 0 1
19.058606 9.468450 27.391037 34.686466 0.461090 0.660517 0.068257 -0.006204 -12419.300000 0 0 1
17.787806 9.853550 27.834327 34.470977 0.505871 0.630943 0.071536 -0.017587 -574617.000000 0 0 1
16.581306 9.313850 27.047037 33.064025 0.511788 0.612836 0.082854 -0.018648 -392816.000000 0 0 1
16.427606 9.748350 25.683907 32.008744 0.535562 0.639486 0.087000 -0.018143 -180899.000000 0 0 1
15.190806 9.467350 25.096107 30.825410 0.557325 0.619555 0.102168 -0.020116 -127823.000000 0 0 1
14.826806 7.979550 24.757317 29.940477 0.493726 0.597251 0.107204 -0.018774 -153069.000000 0 0 1
14.863106 7.114350 25.886307 30.685938 0.446429 0.566865 0.089158 -0.015035 37987.700000 0 0 1
14.630206 5.774950 25.533357 29.989087 0.375953 0.552106 0.087299 -0.022433 -21958.900000 0 0 1
14.606806 4.799850 26.694917 30.806102 0.317488 0.522556 0.088995 -0.017114 -1689020.000000 0 0 1
15.859506 4.432550 27.045107 31.664006 0.272534 0.546925 0.073607 -0.016062 -1314710.000000 0 0 1
15.864806 4.049250 28.373577 32.758944 0.249899 0.523385 0.054377 -0.016079 -618275.000000 0 0 1
17.009506 3.187250 28.828707 33.624042 0.185233 0.540632 0.086962 -0.022969 -758611.000000 0 0 1
16.925206 1.792250 28.763517 33.421770 0.105499 0.534306 0.075181 -0.021591 68567.500000 0 0 1
16.157306 1.295650 29.860827 33.976554 0.080019 0.497317 0.065596 -0.022713 158593.000000 0 0 1
15.954406 -0.247150 29.685047 33.701724 -0.015490 0.493212 0.064029 -0.025959 -562748.000000 0 0 1
15.134206 -0.620550 28.614027 32.375791 -0.040980 0.486853 0.054383 -0.017578 -58729.000000 0 0 1
15.729206 -0.706950 27.329017 31.540179 -0.044915 0.522684 0.066660 -0.012903 -421230.000000 0 0 1
16.852706 -1.829950 27.111607 31.975016 -0.108161 0.558785 0.076301 -0.018962 1954890.000000 0 0 1
18.166106 -1.640950 27.686467 33.154797 -0.090086 0.582542 0.086677 -0.027902 612823.000000 0 0 1
18.813206 -0.515050 27.231377 33.102113 -0.027370 0.604744 0.089043 -0.025982 -1126680.000000 0 0 1
20.257806 -0.464750 27.824467 34.420861 -0.022938 0.629434 0.120454 -0.022720 334040.000000 0 0 1
21.106106 -1.361450 27.145047 34.411842 -0.064416 0.661895 0.094616 -0.020553 1120160.000000 0 0 1
22.491606 -1.117350 27.539127 35.574209 -0.049638 0.685454 0.093695 -0.022372 1389090.000000 0 0 1
23.589306 -1.544150 26.573897 35.567004 -0.065366 0.727032 0.083895 -0.014794 -347769.000000 0 0 1
23.725606 -0.905550 25.348917 34.731715 -0.038149 0.752695 0.091030 0.006548 601299.000000 0 0 1
22.826706 -1.541850 24.414257 33.458807 -0.067443 0.752941 0.086561 0.017093 341565.000000 0 0 1
22.928306 -1.021650 22.964997 32.467554 -0.044529 0.785095 0.084459 -0.015494 46069.000000 0 0 1
22.182406 0.185050 22.826107 31.829618 0.008342 0.771115 0.072231 -0.004608 317945.000000 0 0 1
21.934606 0.568150 21.441917 30.679074 0.025896 0.796924 0.067554 0.005647 96969.500000 0 0 1
-31.480734 -27.100148 -10.060766 42.739603 0.710759 1.808423 0.041680 0.013612 257791.000000 0 0 1
-30.955384 -26.012848 -9.269366 41.482830 0.698855 1.796150 0.050554 0.008385 -61561.500000 0 0 1
-31.535614 -26.002548 -7.983466 41.645686 0.689530 1.763690 0.059808 0.006080 -586154.000000 0 0 1
-31.679204 -24.637348 -7.291466 40.788924 0.661003 1.750523 0.084777 -0.003788 -428029.000000 0 0 1
-30.573364 -23.944348 -6.806366 39.425740 0.664398 1.744303 0.096015 -0.013029 -921398.000000 0 0 1
-29.876134 -24.720748 -5.849366 39.216245 0.691251 1.720512 0.096996 -0.009064 -158338.000000 0 0 1
-28.617674 -24.045148 -5.229366 37.742372 0.698789 1.709798 0.093008 -0.016022 -139955.000000 0 0 1
-28.803344 -22.953748 -4.355266 37.087404 0.672856 1.688500 0.104304 -0.013817 399079.000000 0 0 1
-29.585304 -21.830948 -4.873266 37.089476 0.635711 1.702569 0.106220 -0.018434 337189.000000 0 0 1
-29.599354 -20.623548 -3.929666 36.289045 0.608546 1.679297 0.105405 -0.020034 329243.000000 0 0 1
-28.513614 -19.695048 -4.056966 34.890974 0.604474 1.687335 0.118766 -0.041220 476940.000000 0 0 1
-28.426874 -18.728848 -3.057966 34.179059 0.582567 1.660385 0.127886 -0.031546 51407.100000 0 0 1
-27.288084 -17.691548 -3.256266 32.683844 0.575197 1.670591 0.126164 -0.026001 208769.000000 0 0 1
-27.545924 -16.867848 -4.393166 32.597579 0.549454 1.705977 0.133633 -0.041454 67559.600000 0 0 1
-26.632694 -15.805448 -4.486966 31.292898 0.535597 1.714678 0.130529 -0.040869 -120899.000000 0 0 1
-27.049554 -14.880148 -5.630166 31.381459 0.502925 1.751184 0.124273 -0.052894 259420.000000 0 0 1
-28.203284 -14.152948 -5.232366 31.986072 0.465102 1.735117 0.121449 -0.033023 -792.378000 0 0 1
-28.607644 -13.193648 -6.145866 32.097372 0.432123 1.763462 0.154435 -0.053783 105739.000000 0 0 1
-30.051354 -12.730148 -5.768166 33.142304 0.400695 1.745730 0.141905 -0.036681 -60962.300000 0 0 1
-30.967644 -13.597948 -6.383066 34.418639 0.413754 1.757330 0.142352 -0.032483 -747196.000000 0 0 1
-32.243324 -13.036148 -6.241766 35.334583 0.384212 1.748376 0.127153 -0.031754 -1338300.000000 0 0 1
-33.263634 -13.769048 -7.028466 36.680449 0.392463 1.763602 0.095438 -0.030619 -1060080.000000 0 0 1
-33.754564 -14.956248 -6.392666 37.469002 0.417091 1.742247 0.082569 -0.039336 316339.000000 0 0 1
-34.189491 -15.867648 -7.459066 38.423186 0.434525 1.766166 0.080094 -0.024672 204193.000000 0 0 1
-35.324951 -16.835148 -6.962166 39.746020 0.444736 1.746871 0.066810 -0.031151 1728710.000000 0 0 1
-36.698024 -16.428248 -6.757466 40.771260 0.420907 1.737306 0.048220 -0.036382 1137280.000000 0 0 1
-36.913554 -15.375548 -5.809866 40.407580 0.394673 1.715078 0.076787 -0.044585 -4017.430000 0 0 1
36.008715 -15.375548 -5.560366 39.546842 -0.403559 1.711866 0.097691 -0.043638 3879.070000 0 0 1
35.233235 -14.702448 -6.540866 38.734039 -0.395321 1.740475 0.101924 -0.045067 1309750.000000 0 0 1
33.800035 -14.819248 -6.602766 37.491986 -0.413198 1.747831 0.113917 -0.044974 966362.000000 0 0 1
33.052085 -14.261548 -5.414766 36.402634 -0.407352 1.720097 0.141047 -0.049201 -1191260.000000 0 0 1
33.007445 -15.115048 -4.292466 36.556551 -0.429428 1.688488 0.146825 -0.050393 409648.000000 0 0 1
32.286575 -14.526348 -3.208966 35.549054 -0.422787 1.661188 0.167432 -0.048774 -1117340.000000 0 0 1
32.498255 -15.251748 -1.867166 35.947722 -0.438795 1.622761 0.185503 -0.037897 -265407.000000 0 0 1
33.787155 -15.331248 -1.273666 37.124672 -0.425976 1.605111 0.199588 -0.029476 580754.000000 0 0 1
34.814175 -15.946448 -2.052166 38.347456 -0.429524 1.624337 0.156864 -0.021421 -578683.000000 0 0 1
34.600295 -17.439448 -2.428566 38.822838 -0.466863 1.633392 0.146241 -0.028960 -884550.000000 0 0 1
34.938115 -18.392748 -1.421866 39.509325 -0.484574 1.606792 0.151956 -0.040938 297822.000000 0 0 1
34.556735 -19.746048 -1.701966 39.836805 -0.519132 1.613533 0.129711 -0.037033 224262.000000 0 0 1
35.687035 -20.507448 -2.435566 41.231686 -0.521569 1.629901 0.105033 -0.033593 186068.000000 0 0 1
35.902425 -19.953748 -3.694766 41.240605 -0.507268 1.660507 0.069659 -0.038159 -153261.000000 0 0 1
36.892705 -20.513648 -4.525066 42.454183 -0.507465 1.677586 0.081183 -0.039852 -471258.000000 0 0 1
36.928735 -19.741948 -5.880166 42.285368 -0.490940 1.710308 0.104095 -0.044781 395400.000000 0 0 1
35.779895 -20.065848 -6.681766 41.563027 -0.511107 1.732259 0.078609 -0.047781 562306.000000 0 0 1
35.491395 -19.075548 -7.572566 40.998286 -0.493172 1.756567 0.079098 -0.057410 -2151.130000 0 0 1
34.292925 -19.544848 -8.463166 40.368688 -0.518022 1.782010 0.080656 -0.063937 90979.600000 0 0 1
34.578005 -20.662748 -9.275666 41.335525 -0.538630 1.797123 0.081738 -0.059652 318460.000000 0 0 1
33.670995 -20.757848 -10.374166 40.893123 -0.552457 1.827289 0.075901 -0.063155 -112268.000000 0 0 1
33.578325 -22.202848 -10.870666 41.697024 -0.584226 1.834550 0.075237 -0.060994 -47355.400000 0 0 1
32.854455 -22.925048 -9.890566 41.264953 -0.609232 1.812837 0.075731 -0.058183 3335.560000 0 0 1
32.808325 -24.328148 -10.225166 42.104620 -0.638054 1.816100 0.059864 -0.044951 -414558.000000 0 0 1
31.873265 -25.087748 -9.283366 41.611069 -0.666831 1.795788 0.063787 -0.049024 -261777.000000 0 0 1
30.661365 -24.385948 -9.101266 40.219732 -0.671888 1.799062 0.068485 -0.051041 -547876.000000 0 0 1
29.761205 -25.276548 -8.483666 39.957550 -0.704094 1.784742 0.041226 -0.040709 855684.000000 0 0 1
28.286665 -24.702248 -8.434466 38.489956 -0.717856 1.791723 0.050560 -0.050158 979500.000000 0 0 1
27.620365 -24.708648 -9.687866 38.304786 -0.729813 1.826489 0.054128 -0.052443 -335731.000000 0 0 1
26.414065 -24.003148 -9.603366 36.960501 -0.737615 1.833640 0.074347 -0.059121 -353809.000000 0 0 1
25.877365 -23.712948 -11.038366 36.793851 -0.741780 1.875495 0.116891 -0.064306 -160625.000000 0 0 1
25.224465 -24.774948 -11.734666 37.252840 -0.776408 1.891254 0.099052 -0.056306 594473.000000 0 0 1
24.422665 -24.208148 -12.795566 36.690973 -0.780987 1.927021 0.107024 -0.033209 177387.000000 0 0 1
23.638965 -25.412148 -13.465166 37.227525 -0.821532 1.940886 0.108040 -0.039899 295586.000000 0 0 1
24.465965 -26.372248 -14.156366 38.658526 -0.822878 1.945708 0.099107 -0.031568 435745.000000 0 0 1
23.944865 -27.714748 -13.996166 39.209138 -0.858244 1.935810 0.121198 -0.022423 -46480.600000 0 0 1
24.799765 -28.877848 -14.578966 40.761559 -0.861226 1.936562 0.110993 -0.022745 -143478.000000 0 0 1
24.676165 -29.042648 -15.993666 41.330206 -0.866504 1.968143 0.105056 -0.012789 295267.000000 0 0 1
24.781665 -30.369448 -16.318966 42.458721 -0.886371 1.965299 0.102076 -0.016626 -205633.000000 0 0 1
24.623965 -30.712248 -17.805166 43.204233 -0.894981 1.995572 0.090000 -0.006574 1113090.000000 0 0 1
23.295165 -30.374148 -18.275966 42.417738 -0.916541 2.016238 0.095468 -0.012402 989266.000000 0 0 1
23.260365 -30.513748 -19.688066 43.124858 -0.919475 2.044895 0.083792 -0.015004 906095.000000 0 0 1
21.831765 -30.172448 -20.266666 42.399768 -0.944429 2.069161 0.064592 -0.010614 898988.000000 0 0 1
21.723265 -30.077448 -21.646566 42.954941 -0.945297 2.098947 0.060811 -0.017238 -45455.600000 0 0 1
20.392165 -29.869148 -22.061466 42.364073 -0.971764 2.118536 0.068345 -0.019273 -277151.000000 0 0 1
20.182765 -30.009148 -23.591666 43.179390 -0.978729 2.148813 0.067030 -0.015697 -285693.000000 0 0 1
20.684765 -28.912748 -24.334466 43.081002 -0.949796 2.171052 0.071297 -0.017015 365554.000000 0 0 1
20.723965 -29.241448 -25.687816 44.095452 -0.954243 2.192659 0.080209 -0.020321 -280145.000000 0 0 1
21.178665 -28.047348 -26.600486 44.076926 -0.924037 2.218681 0.081074 -0.026599 -26321.400000 0 0 1
20.295565 -26.950748 -26.597126 42.961144 -0.925339 2.238389 0.093546 -0.032542 -672294.000000 0 0 1
19.393665 -27.075248 -27.617566 43.265613 -0.949223 2.263118 0.109985 -0.040235 -780160.000000 0 0 1
18.540565 -25.849848 -27.981436 42.366590 -0.948593 2.292227 0.095597 -0.037892 -464714.000000 0 0 1
17.554265 -25.603348 -27.034676 41.165002 -0.969784 2.287283 0.072125 -0.014890 -488831.000000 0 0 1
17.040765 -24.310948 -27.228756 40.284178 -0.959433 2.313004 0.060113 -0.002978 -28588.300000 0 0 1
15.892965 -23.967348 -26.246716 38.934692 -0.985261 2.310571 0.067489 -0.006565 262710.000000 0 0 1
14.708965 -24.750548 -26.493826 39.126284 -1.034587 2.314660 0.098399 -0.023007 709882.000000 0 0 1
13.597565 -24.324548 -25.673646 37.890810 -1.061065 2.315249 0.085595 -0.018164 709969.000000 0 0 1
13.672165 -24.434448 -24.103766 36.945391 -1.060655 2.281564 0.076335 -0.013544 -991120.000000 0 0 1
14.597665 -23.589648 -23.512266 36.364680 -1.016656 2.273874 0.053045 -0.012723 -600642.000000 0 0 1
14.831865 -23.946948 -22.213166 35.872905 -1.016261 2.238543 0.053650 -0.021724 20647.600000 0 0 1
16.084565 -23.266548 -21.616566 35.599458 -0.965922 2.223348 0.045647 -0.022398 -71330.400000 0 0 1
15.942065 -21.977548 -21.102766 34.387335 -0.943239 2.231507 0.043962 -0.023180 459768.000000 0 0 1
17.164965 -21.306548 -20.756566 34.342977 -0.892638 2.219797 0.044237 -0.017962 376159.000000 0 0 1
16.889465 -19.933948 -20.156466 32.998476 -0.867888 2.227905 0.048689 -0.019122 296135.000000 0 0 1
16.084765 -20.112348 -18.988366 31.996629 -0.896210 2.206134 0.055866 -0.019372 214787.000000 0 0 1
14.767465 -19.632648 -19.143266 31.144559 -0.925896 2.232749 0.068776 -0.027269 -236714.000000 0 0 1
13.936565 -19.661648 -17.847666 29.989122 -0.954176 2.208234 0.083058 -0.026468 -259288.000000 0 0 1
14.266865 -18.707448 -16.855166 28.941470 -0.919261 2.192460 0.091019 -0.031262 427400.000000 0 0 1
13.426265 -18.727148 -15.685666 27.874913 -0.948791 2.168464 0.092824 -0.030214 203553.000000 0 0 1
13.527265 -17.423948 -14.913966 26.627190 -0.910637 2.165306 0.096144 -0.030400 178015.000000 0 0 1
12.838465 -16.335248 -15.600266 25.981432 -0.904690 2.214846 0.112578 -0.043766 485402.000000 0 0 1
12.743865 -15.200648 -14.738166 24.711927 -0.873089 2.209804 0.093587 -0.041055 -4314.150000 0 1 0
11.292365 -14.809448 -14.347966 23.509602 -0.919336 2.227239 0.090559 -0.029134 -128856.000000 0 1 0
10.666365 -14.204248 -15.434966 23.532322 -0.926702 2.286177 0.108229 -0.022561 -492883.000000 0 1 0
9.383065 -13.730348 -15.097666 22.461164 -0.971311 2.307929 0.102727 -0.020562 -33546.600000 0 1 0
8.725365 -13.027148 -16.333666 22.641273 -0.980639 2.376634 0.087047 -0.015968 -174583.000000 0 1 0
9.273765 -11.823448 -16.804366 22.542923 -0.905669 2.411989 0.084137 -0.010350 -72027.600000 0 1 0
10.513465 -11.913148 -17.476566 23.619619 -0.847729 2.403744 0.106062 -0.017957 132884.000000 0 1 0
10.621665 -10.679148 -18.409666 23.786126 -0.788097 2.455878 0.095670 -0.018602 144924.000000 0 1 0
9.801965 -10.914948 -19.537466 24.432093 -0.839070 2.497532 0.093880 -0.017602 187329.000000 0 1 0
9.784665 -9.708848 -20.243966 24.491214 -0.781509 2.543801 0.085850 -0.024412 -44232.000000 0 1 0
9.503765 -9.838448 -21.762366 25.704419 -0.802700 2.580434 0.087673 -0.022980 78252.600000 0 0 1
10.509965 -10.520648 -22.494166 26.965365 -0.785906 2.557454 0.077286 -0.025390 -207107.000000 0 0 1
10.262465 -10.549348 -23.892866 28.062002 -0.799182 2.589505 0.079444 -0.024853 336544.000000 0 0 1
11.452965 -11.322048 -24.487366 29.308536 -0.779650 2.559844 0.113783 -0.026469 94896.800000 0 0 1
11.101065 -12.670048 -24.419166 29.665796 -0.851306 2.537719 0.093464 -0.025198 268043.000000 0 0 1
12.190565 -13.496348 -24.824966 30.774019 -0.836189 2.509319 0.081260 -0.030877 244386.000000 0 0 1
11.924165 -15.024848 -24.696066 31.270233 -0.899952 2.481218 0.072548 -0.031764 15183.900000 0 0 1
10.975165 -15.613748 -25.552686 31.893309 -0.958115 2.500082 0.075654 -0.026655 -429236.000000 0 0 1
10.742565 -16.914148 -25.090436 32.109517 -1.004951 2.467705 0.074722 -0.034122 -8828.560000 0 0 1
9.482065 -17.631748 -25.573566 32.477613 -1.077381 2.477411 0.079575 -0.025324 -3336.640000 0 0 1
9.691165 -18.226648 -26.812736 33.838620 -1.082109 2.485482 0.072581 -0.038821 806894.000000 0 0 1
8.521765 -19.018948 -27.123356 34.205516 -1.149551 2.486436 0.083115 -0.030942 717881.000000 0 0 1
8.811565 -19.955248 -28.327096 35.753041 -1.154978 2.485364 0.087258 -0.033168 883351.000000 0 0 1
9.941265 -20.847448 -28.115056 36.385453 -1.125833 2.453881 0.076151 -0.030673 887967.000000 0 0 1
10.054465 -21.752548 -29.228996 37.796823 -1.137827 2.454856 0.081921 -0.026840 -212889.000000 0 0 1
10.776565 -23.022248 -28.841996 38.445013 -1.132998 2.419182 0.075017 -0.024334 -165463.000000 0 0 1
10.996565 -23.857248 -29.996456 39.873301 -1.138889 2.422334 0.076703 -0.024702 118576.000000 0 0 1
11.507465 -25.153748 -29.619446 40.527082 -1.141735 2.390371 0.101428 -0.031320 38941.200000 0 0 1
10.696465 -26.041348 -28.645136 40.163541 -1.181058 2.364867 0.098331 -0.032007 -59274.900000 0 0 1
10.856265 -25.650148 -27.335366 39.025771 -1.170414 2.346816 0.097125 -0.028787 -328603.000000 0 0 1
10.076765 -26.244048 -26.307616 38.501713 -1.204190 2.323048 0.084156 -0.022324 815723.000000 0 0 1
9.117765 -25.277548 -25.497246 37.043186 -1.224616 2.329955 0.080307 -0.022525 1189760.000000 0 0 1
9.941765 -24.329648 -24.785566 36.126095 -1.182875 2.326890 0.081115 -0.016503 193890.000000 0 0 1
9.282865 -23.098748 -24.763666 35.113571 -1.188673 2.353565 0.076460 -0.014499 -175452.000000 0 0 1
10.182165 -21.862948 -24.839766 34.621943 -1.134941 2.370942 0.091189 -0.016721 48117.700000 0 0 1
10.871865 -21.607648 -23.629266 33.814643 -1.104633 2.344498 0.084189 -0.016104 615443.000000 0 0 1
11.967865 -20.670248 -23.699166 33.647279 -1.045969 2.352291 0.080627 -0.019212 616753.000000 0 0 1
12.586965 -20.528548 -22.252666 32.787713 -1.020768 2.316773 0.079962 -0.019023 253254.000000 0 0 1
11.816565 -19.856648 -21.210166 31.365408 -1.033992 2.313427 0.080749 -0.017822 96548.100000 0 0 1
11.404865 -18.530948 -21.401766 30.520527 -1.019094 2.347911 0.077418 -0.021654 -153053.000000 0 0 1
12.464865 -17.412148 -21.243766 30.163776 -0.949497 2.352206 0.082803 -0.026931 222838.000000 0 0 1
13.523665 -17.601348 -22.175566 31.375989 -0.915666 2.355716 0.078849 -0.023805 -408668.000000 0 0 1
14.556365 -16.683448 -21.924666 31.159528 -0.853382 2.351284 0.081321 -0.023968 -439194.000000 0 0 1
15.767265 -16.967748 -22.829566 32.522303 -0.822054 2.348951 0.065931 -0.024314 -434422.000000 0 0 1
16.854065 -17.412548 -22.060466 32.770726 -0.801695 2.309292 0.061853 -0.016909 -44999.800000 0 0 1
18.090065 -17.067948 -22.645166 33.635827 -0.756334 2.309386 0.055132 -0.009275 -854168.000000 0 0 1
19.310565 -17.421348 -21.864266 33.977160 -0.734011 2.269857 0.036965 -0.006122 -908227.000000 0 0 1
19.637465 -18.773448 -21.942566 34.922036 -0.762908 2.250201 0.033321 -0.009370 147588.000000 0 0 1
20.967365 -18.969648 -21.490566 35.515101 -0.735418 2.220701 0.024601 -0.014005 543783.000000 0 0 1
21.457065 -20.461148 -21.458966 36.599883 -0.761644 2.197296 0.049926 -0.015848 220786.000000 0 0 1
20.781765 -21.126048 -20.381866 35.966820 -0.793613 2.173273 0.041464 -0.012593 330210.000000 0 0 1
21.075365 -22.505948 -20.376866 36.958157 -0.818212 2.154777 0.070289 -0.016042 -305131.000000 0 0 1
-16.442694 13.183550 29.267857 36.066267 -0.675830 0.624078 0.059575 -0.015434 -910135.000000 0 0 1
-17.550394 13.678050 28.582887 36.222739 -0.662027 0.661475 0.076735 -0.025134 -298313.000000 0 0 1
-17.320594 13.722850 27.202337 35.046922 -0.670019 0.682229 0.072961 -0.026083 -576517.000000 0 0 1
-18.516994 14.231350 26.426967 35.267478 -0.655272 0.723747 0.091739 -0.028657 -423689.000000 0 0 1
-18.862494 15.561950 26.773837 36.260258 -0.689812 0.740132 0.081781 -0.026923 143540.000000 0 0 1
-19.859694 16.053650 25.883277 36.360297 -0.679814 0.778660 0.108925 -0.023499 -348908.000000 0 0 1
-19.968894 17.582850 26.042047 37.230385 -0.721943 0.796122 0.106679 -0.014471 -541672.000000 0 0 1
-18.911294 18.380750 25.641187 36.782598 -0.771172 0.799450 0.042464 -0.017912 -105694.000000 0 0 1
-17.867594 18.478450 26.625677 37.008522 -0.802203 0.767790 0.036290 -0.000694 1074730.000000 0 0 1
-16.692794 19.495850 26.266627 36.724287 -0.862701 0.773831 0.043166 -0.007471 949325.000000 0 0 1
-17.156794 20.828050 26.210177 37.618302 -0.881749 0.799954 0.056267 -0.007846 18769.100000 0 0 1
-16.220694 21.541950 25.459237 37.085567 -0.925390 0.814132 0.071389 -0.016274 -62326.000000 0 0 1
-16.282194 23.082750 25.415337 37.998192 -0.956466 0.838127 0.069401 -0.014689 -143228.000000 0 0 1
-16.070994 23.735150 26.622677 39.120342 -0.975608 0.822307 0.076299 -0.009610 23836.400000 0 0 1
-16.379994 25.105150 26.472717 39.992218 -0.992697 0.847383 0.082573 -0.015713 -60660.500000 0 0 1
-15.696694 26.049450 27.511447 41.010240 -1.028487 0.835451 0.079325 -0.013121 -551857.000000 0 0 1
-14.312494 26.041150 27.382947 40.408103 -1.068252 0.826221 0.086023 -0.022727 -873559.000000 0 0 1
-13.768794 26.936650 28.319657 41.438699 -1.098265 0.818372 0.107659 -0.020670 1414230.000000 0 0 1
-12.187094 27.011250 28.479557 41.100098 -1.146957 0.805249 0.124466 -0.026448 1344990.000000 0 0 1
-11.603094 27.680850 27.426307 40.657885 -1.173871 0.830424 0.113295 -0.028418 -527336.000000 0 0 1
-10.204394 27.608050 27.479237 40.267140 -1.216754 0.819723 0.096482 -0.018936 104209.000000 0 0 1
-9.371594 28.211450 26.295937 39.688651 -1.250074 0.846571 0.097486 -0.024079 2545390.000000 0 0 1
-7.898194 28.120650 26.392437 39.366397 -1.296983 0.836007 0.080491 -0.021890 2612400.000000 0 0 1
-7.299294 28.429250 25.111167 38.627357 -1.319472 0.863097 0.095969 -0.028899 -730140.000000 0 0 1
-5.804494 28.219750 24.952817 38.114165 -1.367937 0.857029 0.096736 -0.025642 -729151.000000 0 0 1
-5.095794 29.216750 25.703417 39.246035 -1.398120 0.856706 0.092243 -0.027206 -856943.000000 0 0 1
-3.753994 28.897350 25.855177 38.956893 -1.441612 0.845059 0.071409 -0.024550 -309591.000000 0 0 1
-2.839994 29.624550 24.805877 38.742884 -1.475222 0.875948 0.064490 -0.025395 -461885.000000 0 0 1
-2.811094 29.076950 23.525537 37.507628 -1.474418 0.892818 0.061680 -0.018235 6587.710000 0 0 1
-2.480594 30.122350 22.568517 37.720648 -1.488631 0.929410 0.059570 -0.018669 -571440.000000 0 0 1
-2.733994 29.692050 21.080017 36.516567 -1.478977 0.955412 0.060637 -0.014089 1348480.000000 0 0 1
-4.128494 29.798250 20.722017 36.529196 -1.433125 0.967606 0.055899 -0.010309 946130.000000 0 0 1
-4.983694 28.826250 21.282217 36.176272 -1.399601 0.941851 0.065437 -0.011423 -128709.000000 0 0 1
-6.480194 28.924650 20.857617 36.244565 -1.350399 0.957619 0.078996 -0.021343 393737.000000 0 0 1
-6.646994 28.678950 19.451617 35.284984 -1.343045 0.986909 0.050130 -0.012833 224035.000000 0 0 1
-7.472894 27.561450 19.068017 34.337545 -1.306026 0.982059 0.036439 -0.006845 -445238.000000 0 0 1
-6.782794 26.210150 18.715517 32.912746 -1.317567 0.965944 0.019994 -0.003405 135113.000000 0 0 1
-5.799194 26.216050 17.716417 32.168049 -1.353094 0.987539 0.021785 0.002357 2448.100000 0 0 1
-4.532994 26.714550 18.113917 32.593392 -1.402715 0.981526 0.053061 0.000603 -228409.000000 0 0 1
-3.623394 26.973550 16.859217 32.014600 -1.437264 1.016188 0.055126 -0.002033 20935.900000 0 0 1
-3.229094 25.733250 16.346017 30.656476 -1.445965 1.008418 0.056341 -0.006871 -243130.000000 0 0 1
-2.475994 25.974350 15.190817 30.192025 -1.475759 1.043568 0.054111 -0.019075 -175831.000000 0 0 1
-1.850394 24.760350 14.492117 28.749267 -1.496203 1.042472 0.054307 -0.018193 248673.000000 0 0 1
-0.884294 24.141250 15.347017 28.620148 -1.534183 1.004831 0.051519 -0.017333 232150.000000 0 0 1
-0.287494 22.991950 14.738217 27.311673 -1.558293 1.000798 0.049147 -0.030721 397922.000000 0 0 1
1.093706 22.666550 15.387617 27.418013 1.522582 0.974934 0.039435 -0.026099 486744.000000 0 0 1
2.105206 23.627950 15.175417 28.160348 1.481933 1.001674 0.045989 -0.034625 431041.000000 0 0 1
3.337806 23.167550 15.743617 28.208825 1.427708 0.978690 0.059214 -0.034673 407156.000000 0 0 1
4.530506 24.128750 15.544817 29.057932 1.385194 1.006337 0.072539 -0.043405 -392343.000000 0 0 1
5.730606 23.440750 15.635517 28.753748 1.331027 0.995870 0.071861 -0.036137 -496473.000000 0 0 1
6.847106 24.289150 15.833317 29.791603 1.296027 1.010462 0.079149 -0.039839 -465334.000000 0 0 1
8.243706 23.729650 15.659617 29.602003 1.236439 1.013368 0.089389 -0.037096 -523176.000000 0 0 1
8.485606 23.212150 14.338117 28.572557 1.220321 1.045101 0.076547 -0.036431 -110156.000000 0 0 1
9.240806 24.171850 13.638817 29.252148 1.205644 1.085749 0.082526 -0.031856 -352932.000000 0 0 1
9.985106 23.591150 12.385217 28.454144 1.170403 1.120459 0.075189 -0.026774 -1409770.000000 0 0 1
11.018106 22.813950 12.757817 28.366122 1.120878 1.104305 0.077615 -0.032983 -1328950.000000 0 0 1
11.394906 21.954050 11.694817 27.360427 1.092037 1.129142 0.077760 -0.032797 -91622.400000 0 0 1
12.804806 21.388850 11.941317 27.641292 1.031357 1.124076 0.086247 -0.035801 -89636.900000 0 0 1
12.717106 20.350050 12.877317 27.233704 1.012256 1.078280 0.085358 -0.032638 -602602.000000 0 0 1
13.888306 19.619350 12.995617 27.325629 0.954796 1.075169 0.076447 -0.031186 -939104.000000 0 0 1
14.092706 18.990750 14.353117 27.663422 0.932382 1.025293 0.085150 -0.031404 -706047.000000 0 0 1
15.251506 18.223550 14.441017 27.807359 0.873950 1.024737 0.091410 -0.026025 -204685.000000 0 0 1
15.645606 17.781350 15.741217 28.438483 0.849204 0.984214 0.083939 -0.033763 773954.000000 0 0 1
17.050106 17.055050 15.688817 28.770121 0.785543 0.994030 0.063154 -0.030369 787154.000000 0 0 1
17.516306 16.588250 16.957717 29.488221 0.758193 0.958110 0.066194 -0.033868 22551.400000 0 0 1
18.573806 15.687750 16.728017 29.511326 0.701361 0.968139 0.055633 -0.028168 -181770.000000 0 0 1
19.279806 15.251250 18.049917 30.497722 0.669258 0.937451 0.063387 -0.017406 -110849.000000 0 0 1
20.041006 16.307050 18.604717 31.838614 0.683029 0.946724 0.076252 -0.008886 263456.000000 0 0 1
19.263806 17.193550 19.384517 32.287333 0.728673 0.926826 0.068182 -0.013862 3233.140000 0 0 1
20.090806 18.242750 20.143117 33.796207 0.737226 0.932265 0.045991 -0.007820 795204.000000 0 0 1
19.080206 19.083750 20.771017 34.054059 0.785491 0.914808 0.096511 -0.018071 1447710.000000 0 0 1
19.753506 20.032450 21.544217 35.435199 0.792409 0.917271 0.075201 -0.017176 56101.800000 0 0 1
18.807306 21.215850 21.853217 35.796511 0.845504 0.914124 0.094506 -0.019940 292037.000000 0 0 1
17.888106 20.850150 22.863437 35.741431 0.861713 0.876701 0.095899 -0.019774 354090.000000 0 0 1
16.932606 21.866150 23.140617 36.060087 0.911877 0.874052 0.086115 -0.030779 250030.000000 0 0 1
16.245506 21.774450 24.518507 36.595086 0.929808 0.836595 0.100930 -0.030781 -277034.000000 0 0 1
15.305006 20.753850 24.583937 35.627735 0.935373 0.809276 0.105980 -0.028521 -528433.000000 0 0 1
14.873406 20.648150 25.948997 36.344391 0.946558 0.775637 0.106905 -0.022400 546597.000000 0 0 1
13.778706 19.518150 26.183427 35.445490 0.956093 0.739663 0.133358 -0.016649 509002.000000 0 0 1
14.126506 18.128850 26.193247 34.846802 0.908850 0.720208 0.105858 -0.022997 -305441.000000 0 0 1
14.606106 17.593550 24.980417 33.865803 0.877912 0.741243 0.115150 -0.027352 51789.600000 0 0 1
13.580906 17.394650 23.826377 32.476316 0.907903 0.747113 0.126129 -0.026339 106882.000000 0 0 1
13.076106 18.480450 23.069927 32.322332 0.955012 0.775965 0.116764 -0.023673 281372.000000 0 0 1
13.997106 19.032150 22.119717 32.363925 0.936675 0.818293 0.115271 -0.027608 537468.000000 0 0 1
14.559106 18.091150 20.955117 31.278974 0.893157 0.836665 0.122708 -0.026298 423005.000000 0 0 1
13.598506 17.751650 19.958417 29.972969 0.917107 0.842123 0.108457 -0.028314 522740.000000 0 0 1
14.195106 16.910750 18.965717 29.106235 0.872481 0.861100 0.085094 -0.027777 965830.000000 0 0 1
13.051106 16.317950 18.046617 27.609550 0.896177 0.858416 0.091035 -0.024524 502059.000000 0 0 1
12.452606 17.167050 17.067817 27.222884 0.943240 0.893144 0.107637 -0.032340 776396.000000 0 0 1
11.433206 16.397150 16.371717 25.838302 0.961906 0.884570 0.087065 -0.030053 423449.000000 0 0 1
10.962106 17.041050 15.083817 25.260378 0.999162 0.930874 0.076527 -0.030556 -170406.000000 0 0 1
10.179406 18.193550 15.322517 25.872864 1.060684 0.936981 0.075198 -0.030313 34663.500000 0 0 1
9.920406 18.825650 14.092417 25.522848 1.085812 0.985857 0.066419 -0.027852 26767.300000 0 0 1
8.760006 19.858450 14.125517 25.896447 1.155350 0.993857 0.069148 -0.030636 891039.000000 0 0 1
7.505206 19.359650 14.619417 25.393927 1.200962 0.957330 0.048933 -0.026832 523778.000000 0 0 1
6.622706 20.455750 14.778717 26.090390 1.257688 0.968613 0.059022 -0.028593 695764.000000 0 0 1
5.283906 20.144150 15.542317 25.985959 1.314271 0.929663 0.052402 -0.028833 639124.000000 0 0 1
4.248006 19.573950 14.775117 24.889539 1.357087 0.935237 0.051005 -0.026011 -247941.000000 0 1 0
3.175006 19.099650 15.548217 24.831922 1.406069 0.894206 0.043509 -0.025876 -556260.000000 0 1 0
2.056206 18.552650 14.722617 23.773605 1.460416 0.902966 0.043603 -0.025445 -582203.000000 0 1 0
1.166506 19.499850 14.160317 24.127152 1.511046 0.943567 0.041682 -0.027741 -688338.000000 0 1 0
0.390006 18.817650 13.264317 23.026033 1.550074 0.956899 0.039197 -0.033046 -112317.000000 0 1 0
-0.557794 19.716750 12.386217 23.291195 -1.542514 1.010074 0.036241 -0.039609 155142.000000 0 1 0
-1.659494 20.219750 13.087317 24.142703 -1.488907 0.997884 0.039422 -0.035661 -234290.000000 0 1 0
-2.540494 20.793650 12.111917 24.197697 -1.449222 1.046574 0.035906 -0.029262 -131587.000000 0 1 0
-3.839794 21.434450 12.576217 25.146390 -1.393535 1.047059 0.039433 -0.025261 -723091.000000 0 0 1
-4.641094 20.550250 13.244817 24.885291 -1.348681 1.009558 0.045387 -0.033040 -460244.000000 0 1 0
-5.480394 21.343550 14.119417 26.171355 -1.319456 1.000954 0.045558 -0.016529 244226.000000 0 0 1
-6.336294 20.491450 15.093417 26.227074 -1.270906 0.957593 0.036413 -0.016665 -15268.300000 0 0 1
-7.358894 19.650350 14.553717 25.536254 -1.212471 0.964383 0.038715 -0.020084 234599.000000 0 0 1
-7.960094 18.891250 15.566517 25.740219 -1.172009 0.921339 0.037766 -0.009150 -258343.000000 0 0 1
-9.129294 19.467650 16.379617 27.030081 -1.132298 0.919802 0.022488 0.002429 -225691.000000 0 0 1
-10.333894 19.559150 15.622917 27.081825 -1.084734 0.955895 0.015244 -0.013304 -147825.000000 0 0 1
-11.423994 19.613550 16.503317 28.063472 -1.043378 0.942124 0.010915 -0.004070 -1173230.000000 0 0 1
-12.763194 19.585650 15.849217 28.243486 -0.993255 0.975005 0.027830 -0.018912 -1316920.000000 0 0 1
-13.173594 20.715150 15.137217 28.840880 -1.004369 1.018254 0.024321 -0.009318 213275.000000 0 0 1
-14.293894 20.318750 14.351417 28.690246 -0.957737 1.046944 0.031394 -0.024929 338341.000000 0 0 1
-15.402594 21.378950 14.112117 29.890655 -0.946473 1.079097 0.026745 -0.027841 -5429.930000 0 0 1
-16.429094 21.408150 15.062717 30.904845 -0.916238 1.061698 0.017916 -0.026088 -916097.000000 0 0 1
-17.397194 22.333750 14.728717 31.912284 -0.909014 1.091069 0.035817 -0.033606 -378142.000000 0 0 1
-18.604294 22.166550 15.680417 32.914301 -0.872549 1.074239 0.084298 -0.036471 -753960.000000 0 0 1
-19.375194 20.983050 15.473417 32.482506 -0.825217 1.074284 0.082440 -0.033056 394098.000000 0 0 1
-20.586694 20.907650 16.194017 33.513997 -0.793133 1.066488 0.087876 -0.028421 135800.000000 0 0 1
-21.711094 21.899350 15.939817 34.713555 -0.789715 1.093723 0.088041 -0.033476 -1487680.000000 0 0 1
-22.437694 21.675550 14.757317 34.511708 -0.768123 1.128957 0.098642 -0.034470 -204321.000000 0 0 1
-23.383294 22.697850 14.604117 35.710658 -0.770525 1.149486 0.133156 -0.050162 -200960.000000 0 0 1
-22.807594 23.966450 13.981117 35.917248 -0.810169 1.170969 0.109299 -0.038334 -254133.000000 0 0 1
-21.751094 24.639150 14.638517 35.978938 -0.847574 1.151778 0.079015 -0.040871 -3031.000000 0 0 1
-21.302294 25.762950 13.902617 36.204973 -0.879892 1.176675 0.061696 -0.020816 129195.000000 0 0 1
-19.833994 26.123850 14.220817 35.750168 -0.921415 1.161697 0.040971 -0.015390 415504.000000 0 0 1
-18.837994 25.400250 13.503017 34.385669 -0.932663 1.167238 0.045883 -0.010856 808085.000000 0 0 1
-17.552994 26.043050 13.662817 34.249389 -0.977735 1.160456 0.006811 0.000251 578864.000000 0 0 1
-16.557194 25.521350 12.611917 32.932362 -0.995294 1.177793 0.024030 -0.013696 572350.000000 0 0 1
-15.270194 26.157950 12.785317 32.876763 -1.042397 1.171374 0.031334 -0.008631 1042260.000000 0 0 1
-14.422794 25.793850 11.661917 31.770112 -1.060951 1.194937 0.041551 -0.022868 420929.000000 0 0 1
-13.012194 26.400850 11.862817 31.734028 -1.112869 1.187672 0.043794 -0.012850 -418972.000000 0 0 1
-11.964094 25.613650 11.373517 30.472209 -1.133815 1.188295 0.042553 -0.016891 1378410.000000 0 0 1
-10.591594 26.058550 11.563517 30.412906 -1.184739 1.180765 0.060286 -0.020094 1563100.000000 0 0 1
-10.120594 27.328550 10.863617 31.101355 -1.216126 1.213975 0.061357 -0.028957 -453090.000000 0 0 1
-8.831894 27.725250 11.303817 31.216472 -1.262409 1.200265 0.072958 -0.031041 405905.000000 0 0 1
-8.519294 29.044250 10.862317 32.157997 -1.285478 1.226239 0.074423 -0.037265 -602711.000000 0 0 1
-7.323294 29.696950 11.548117 32.694013 -1.329019 1.209788 0.066428 -0.029721 -742796.000000 0 0 1
-6.134094 29.131950 11.092917 31.770276 -1.363266 1.214122 0.071718 -0.033296 -1091580.000000 0 0 1
-5.055194 29.694750 11.759917 32.336185 -1.402174 1.198584 0.084516 -0.038115 -341356.000000 0 0 1
-3.649694 29.401550 11.200217 31.673590 -1.447295 1.209365 0.087190 -0.040464 52496.100000 0 0 1
-3.444594 30.068050 9.974617 31.866061 -1.456734 1.252428 0.095495 -0.047490 1354550.000000 0 0 1
-2.100094 29.826250 9.456817 31.359958 -1.500501 1.264471 0.082073 -0.039141 1502810.000000 0 0 1
-1.852794 30.467150 8.078417 31.574371 -1.510058 1.312066 0.080915 -0.042909 23544.700000 0 0 1
-2.732094 30.084050 7.044417 31.018353 -1.480229 1.341693 0.083324 -0.041728 100956.000000 0 0 1
-2.421294 30.800750 5.824717 31.440042 -1.492346 1.384456 0.090680 -0.031343 178178.000000 0 0 1
11.128906 -33.711348 -26.469476 44.282510 -1.251937 2.211477 0.107641 -0.028318 41562.400000 0 0 1
11.787206 -33.611248 -25.234206 43.651110 -1.233505 2.187180 0.083182 -0.027978 177201.000000 0 0 1
12.761706 -32.600248 -25.134526 43.097352 -1.197673 2.193463 0.087375 -0.025769 14324.600000 0 0 1
13.502606 -32.655148 -23.762966 42.583537 -1.178714 2.162808 0.073318 -0.029107 -656973.000000 0 0 1
12.986206 -31.923248 -22.661666 41.246653 -1.184446 2.152464 0.081231 -0.033909 313229.000000 0 0 1
13.752406 -31.936148 -21.455766 40.858244 -1.164173 2.123661 0.060855 -0.022286 993672.000000 0 0 1
15.287206 -31.571648 -21.440966 41.111831 -1.119863 2.119437 0.033176 -0.016639 476067.000000 0 0 1
16.105206 -32.622748 -21.857966 42.442809 -1.112217 2.111802 0.051302 -0.017401 -341849.000000 0 0 1
17.445006 -32.203448 -21.680466 42.560932 -1.074338 2.105282 0.043477 -0.020297 355557.000000 0 0 1
18.427806 -33.449748 -21.566966 43.858907 -1.067255 2.084878 0.031259 -0.012257 -213769.000000 0 0 1
19.760506 -33.114248 -21.331566 44.068886 -1.032779 2.076074 0.042721 -0.004398 -243554.000000 0 0 1
20.497506 33.656450 -21.330866 44.809711 1.023770 2.066934 0.026869 0.000053 74435.000000 0 0 1
22.009006 33.681550 -21.031766 45.400202 0.992004 2.052458 0.039288 -0.004446 344793.000000 0 0 1
22.801006 -33.590648 -21.991666 46.171971 -0.974447 2.067237 0.032797 -0.012526 1497910.000000 0 0 1
24.195706 -33.522248 -21.616666 46.652476 -0.945602 2.052574 0.026432 -0.008479 1856630.000000 0 0 1
25.324506 -33.295348 -22.683566 47.586290 -0.920544 2.067674 0.055498 -0.016311 643924.000000 0 0 1
25.471706 -31.919548 -23.083566 46.909662 -0.897278 2.085280 0.060869 -0.020997 -193358.000000 0 0 1
24.413006 -31.461648 -23.886566 46.437035 -0.910886 2.111088 0.045399 -0.017774 -127972.000000 0 0 1
24.298406 -29.947448 -23.752166 45.292688 -0.889162 2.122824 0.061203 -0.022652 262590.000000 0 0 1
25.240306 -29.102948 -24.423366 45.613106 -0.856357 2.135832 0.075889 -0.033124 123259.000000 0 0 1
25.029206 -27.786348 -23.996566 44.433968 -0.837554 2.141293 0.073107 -0.024537 49486.200000 0 0 1
25.516506 -26.724048 -24.962566 44.591440 -0.808509 2.164948 0.058427 -0.023679 110538.000000 0 0 1
24.771106 -26.471148 -26.136976 44.693074 -0.818563 2.195443 0.061163 -0.023287 -358833.000000 0 0 1
25.503406 -25.639748 -27.015236 45.140263 -0.788064 2.212390 0.050016 -0.020826 -340103.000000 0 0 1
24.700206 -25.262048 -28.298406 45.266666 -0.796643 2.246119 0.047279 -0.016043 -31864.700000 0 0 1
23.802406 -24.224848 -28.203906 44.145873 -0.794194 2.263838 0.061195 -0.019648 -117317.000000 0 0 1
22.552606 -24.497348 -27.560496 43.224079 -0.826708 2.262200 0.060099 -0.019517 -55949.200000 0 0 1
21.591906 -23.291548 -27.476626 41.996090 -0.823248 2.284008 0.061684 -0.017797 -212008.000000 0 0 1
21.050206 -22.913848 -28.682256 42.318169 -0.827763 2.315531 0.080628 -0.022508 -87341.400000 0 0 1
20.401206 -21.658548 -28.640426 41.298619 -0.815283 2.337127 0.063382 -0.004684 51302.600000 0 0 1
19.514806 -21.332148 -29.886046 41.582014 -0.829860 2.372764 0.082686 -0.024957 114752.000000 0 0 1
18.272106 -21.974548 -29.762306 41.261913 -0.877134 2.376477 0.076197 -0.024603 -436584.000000 0 0 1
17.295506 -21.579748 -30.659736 41.289702 -0.895160 2.407668 0.075101 -0.035827 -204717.000000 0 0 1
15.999406 -22.396548 -30.502616 41.085228 -0.950492 2.407476 0.087548 -0.038696 -91046.100000 0 0 1
16.226106 -23.655948 -31.133436 42.334161 -0.969582 2.397084 0.080112 -0.022165 813184.000000 0 0 1
15.358206 -24.628448 -30.481926 42.090174 -1.013207 2.380678 0.093145 -0.035273 555906.000000 0 0 1
15.387606 -26.008848 -31.229696 43.457249 -1.036554 2.372627 0.113551 -0.035844 -712753.000000 0 0 1
14.563406 -26.873648 -30.629146 43.271588 -1.074177 2.357225 0.107697 -0.028994 -784372.000000 0 0 1
14.787906 -28.216448 -31.099736 44.520149 -1.088064 2.344171 0.170196 -0.041421 187444.000000 0 0 1
14.277706 -29.309248 -30.115316 44.382622 -1.117490 2.316567 0.151748 -0.047766 -289484.000000 0 0 1
14.822206 -29.271248 -28.839106 43.682923 -1.102062 2.291870 0.154776 -0.048672 -227423.000000 0 0 1
14.324206 -28.265748 -27.954136 42.255995 -1.101748 2.293670 0.123898 -0.034802 -54903.500000 0 0 1
15.247406 -28.082048 -26.735786 41.663978 -1.073375 2.267509 0.100342 -0.025376 -23812.800000 0 0 1
15.222606 -29.199048 -25.790876 41.826803 -1.090224 2.235227 0.087286 -0.026146 76565.900000 0 0 1
16.114906 -29.019348 -24.711466 41.381993 -1.063881 2.210746 0.094035 -0.027611 -785806.000000 0 0 1
15.639806 -27.980048 -23.653866 39.837068 -1.061098 2.206527 0.077641 -0.026701 127089.000000 0 0 1
14.509206 -28.247048 -22.872266 39.135065 -1.096285 2.194991 0.073094 -0.028470 -386776.000000 0 0 1
13.287006 -28.276248 -23.572066 39.137361 -1.131517 2.217164 0.080889 -0.023246 -1276190.000000 0 0 1
12.104206 -28.153248 -22.630466 38.095343 -1.164749 2.206878 0.060777 -0.018112 -621123.000000 0 0 1
11.941506 -26.779448 -22.329666 36.855832 -1.151340 2.221649 0.052671 -0.018384 -257304.000000 0 0 1
10.678506 -26.391748 -21.858466 35.893556 -1.186318 2.225571 0.069800 -0.024264 -612426.000000 0 0 1
10.494506 -24.865948 -21.750866 34.663384 -1.171433 2.249119 0.076381 -0.024606 -234656.000000 0 0 1
11.060306 -24.300148 -20.603266 33.724207 -1.143665 2.228036 0.065845 -0.015758 105946.000000 0 0 1
10.659006 -22.928248 -20.449166 32.519031 -1.135633 2.250853 0.073967 -0.022187 -167378.000000 0 0 1
11.288106 -22.291848 -19.188066 31.504439 -1.102059 2.225670 0.072069 -0.016406 -8890.780000 0 0 1
10.657006 -22.764048 -18.029666 30.932871 -1.132951 2.193046 0.079401 -0.022754 81227.700000 0 0 1
11.134006 -22.055648 -16.892766 29.929638 -1.103305 2.170522 0.076081 -0.024137 -117935.000000 0 0 1
10.341106 -22.398348 -15.601266 29.189450 -1.138263 2.134692 0.061519 -0.027045 -9393.370000 0 0 1
10.431506 -23.736648 -15.125966 30.017322 -1.156735 2.098913 0.067844 -0.017580 11009.500000 0 0 1
9.754806 -23.854648 -13.893666 29.278566 -1.182618 2.065231 0.068415 -0.018136 92299.100000 0 0 1
9.878406 -25.340848 -13.441066 30.338157 -1.199095 2.029785 0.076588 -0.008864 522510.000000 0 0 1
11.103206 -25.773648 -12.851666 30.866283 -1.164026 2.000241 0.049860 -0.003754 49571.300000 0 0 1
11.269306 -27.132248 -13.091066 32.164144 -1.177130 1.989972 0.048908 -0.006955 -530959.000000 0 0 1
12.597906 -27.753548 -12.552566 32.962609 -1.144687 1.961471 0.037678 -0.003995 787796.000000 0 0 1
13.830006 -27.505348 -13.241266 33.513346 -1.104902 1.976978 0.041470 -0.001086 450369.000000 0 0 1
13.945906 -27.513148 -14.661566 34.152937 -1.101659 2.014504 0.039486 0.001043 -634560.000000 0 0 1
15.343406 -27.008848 -15.116666 34.545790 -1.054172 2.023706 0.037893 -0.001611 741232.000000 0 0 1
16.425906 -27.860048 -14.702966 35.527030 -1.038069 1.997479 0.075464 -0.007281 221037.000000 0 0 1
17.602106 -27.339548 -15.295366 35.933734 -0.998769 2.010482 0.091846 -0.012996 63145.200000 0 0 1
18.834606 -28.248848 -15.155466 37.181016 -0.982744 1.990635 0.096904 -0.020475 116292.000000 0 0 1
18.788206 -29.465148 -15.880566 38.384685 -1.003158 1.997334 0.083569 -0.018217 -927219.000000 0 0 1
20.003406 -30.095148 -15.686466 39.394408 -0.984176 1.980339 0.099223 -0.017005 -352214.000000 0 0 1
20.270306 -31.173748 -16.729966 40.774743 -0.994255 1.993582 0.079705 -0.017732 77527.400000 0 0 1
19.966806 -32.517048 -16.385566 41.527323 -1.020116 1.976400 0.061309 -0.013736 -122286.000000 0 0 1
20.418106 -33.483448 -17.329766 42.876114 -1.023204 1.986881 0.055350 -0.007960 40260.100000 0 0 1
20.210206 33.049350 -16.915466 42.271089 1.021952 1.982495 0.032190 -0.005528 110556.000000 0 0 1
21.190306 32.585150 -15.944766 42.012577 0.994206 1.960078 0.061615 -0.012737 475774.000000 0 0 1
20.978006 31.257750 -15.660166 40.772104 0.979710 1.965019 0.043964 -0.010210 -310351.000000 0 0 1
21.946106 30.707850 -14.608766 40.472456 0.950290 1.940089 0.059914 -0.016152 -82727.500000 0 0 1
23.309006 30.539050 -14.982966 41.236302 0.918867 1.942651 0.061122 -0.014244 145296.000000 0 0 1
24.192206 30.215550 -13.956666 41.146456 0.895657 1.916857 0.064837 -0.016487 10772.200000 0 0 1
23.919106 28.959450 -13.122666 39.786653 0.880430 1.906915 0.063764 -0.006518 -1613650.000000 0 0 1
23.934906 27.758550 -13.858466 39.185124 0.859231 1.932284 0.062091 0.006954 46179.000000 0 0 1
23.392906 26.630650 -13.207566 37.826702 0.850032 1.927471 0.023370 0.001783 -889636.000000 0 0 1
21.904406 26.682250 -12.961966 36.874897 0.883420 1.929982 0.027647 -0.004861 -2377560.000000 0 0 1
21.172906 26.299050 -14.073566 36.578645 0.892964 1.965731 0.034676 -0.012946 -1256690.000000 0 0 1
19.807406 26.430650 -13.893266 35.832045 0.927673 1.968967 0.047005 -0.015027 -932325.000000 0 0 1
19.205406 27.872450 -13.918966 36.598616 0.967460 1.960932 0.051838 -0.012890 -859135.000000 0 0 1
19.177106 28.540850 -15.213466 37.600413 0.979167 1.987348 0.040874 -0.013428 70539.100000 0 0 1
18.373006 28.040650 -16.290266 37.272217 0.990755 2.023126 0.028400 -0.008314 -137574.000000 0 0 1
18.497306 28.809250 -17.588066 38.489782 1.000022 2.045364 0.032492 -0.007504 282417.000000 0 0 1
17.686606 29.977250 -17.588766 38.997644 1.037762 2.038706 0.019179 -0.005599 216120.000000 0 0 1
18.161106 30.821750 -18.622366 40.331112 1.038333 2.050749 0.015190 -0.000421 77634.700000 0 0 1
17.301206 32.106050 -18.861566 41.059577 1.076533 2.048083 0.004587 0.005029 13774.500000 0 0 1
17.236506 33.002850 -17.777666 41.259310 1.089489 2.016260 0.020106 -0.018396 -328225.000000 0 0 1
16.418306 -33.945548 -18.228366 41.882387 -1.120301 2.021087 0.023195 -0.016322 -608649.000000 0 0 1
16.361106 -32.710348 -17.360366 40.484997 -1.107004 2.013971 0.025282 -0.008247 1126290.000000 0 0 1
15.257606 -31.868348 -17.849266 39.585129 -1.124277 2.038579 0.023330 -0.007541 965628.000000 0 0 1
14.834706 -30.961748 -16.829066 38.235008 -1.123984 2.026560 0.031557 -0.001255 778574.000000 0 0 1
13.548606 -30.199348 -17.314066 37.354280 -1.149075 2.052748 0.020290 -0.002614 1745690.000000 0 0 1
12.374106 -30.982348 -17.659566 37.747645 -1.190814 2.057633 0.018236 -0.000904 598046.000000 0 0 1
11.289206 -30.165148 -18.024766 36.909003 -1.212686 2.081002 0.011707 0.005914 -91781.300000 0 0 1
10.018006 -30.991548 -18.207366 37.314135 -1.258148 2.080534 0.038307 -0.011081 -481218.000000 0 0 1
9.262606 -31.405548 -17.051766 36.917029 -1.283992 2.050926 0.051344 -0.005126 1063260.000000 0 0 1
8.069306 -32.182848 -17.280466 37.409409 -1.325128 2.050964 0.081080 -0.010457 2126250.000000 0 0 1
6.781806 -31.347748 -17.747466 36.655787 -1.357739 2.076205 0.090987 -0.009028 506455.000000 0 0 1
6.846106 -30.936248 -19.104566 36.998717 -1.353009 2.113388 0.081715 -0.010383 -27080.200000 0 0 1
6.757306 -31.848548 -20.191666 38.310502 -1.361727 2.125925 0.074405 -0.021776 -1326360.000000 0 0 1
7.047906 -31.134648 -21.481366 38.477115 -1.348180 2.163119 0.060441 -0.015748 244448.000000 0 0 1
8.395306 -30.729048 -21.766366 38.581475 -1.304100 2.170219 0.058948 -0.021105 1053370.000000 0 0 1
9.387006 -31.763348 -21.911466 39.713203 -1.283446 2.155249 0.056634 -0.028871 11371.500000 0 0 1
9.101406 -32.884548 -22.926166 41.107641 -1.300787 2.162421 0.060673 -0.030101 -156506.000000 0 0 1
8.213406 -33.919548 -22.401866 41.470946 -1.333225 2.141450 0.060383 -0.035072 534095.000000 0 0 1
7.944906 33.036650 -23.357966 41.232710 1.334790 2.173038 0.065145 -0.043586 -250868.000000 0 0 1
6.737606 32.150050 -23.021666 40.112569 1.364218 2.182089 0.082248 -0.049318 98885.400000 0 0 1
5.425606 32.673250 -23.096766 40.378696 1.406241 2.179743 0.082842 -0.045918 640958.000000 0 0 1
4.944906 33.520350 -22.016366 40.407751 1.424333 2.147013 0.070158 -0.041363 -630089.000000 0 0 1
3.677706 -33.666848 -22.338966 40.571068 -1.461990 2.153895 0.074818 -0.036490 495842.000000 0 0 1
2.505506 33.504550 -22.099266 40.214549 1.496154 2.152603 0.065782 -0.043836 791748.000000 0 0 1
1.329006 -33.917248 -22.665566 40.815118 -1.531633 2.159547 0.067802 -0.039782 58243.400000 0 0 1
0.055906 33.324050 -22.236066 40.061678 1.569119 2.159214 0.072977 -0.042709 -249071.000000 0 0 1
-0.200194 33.709550 -20.852666 39.638460 -1.564858 2.124771 0.067486 -0.047015 -345224.000000 0 0 1
-1.374694 33.154250 -20.326866 38.913694 -1.529356 2.120410 0.069398 -0.051794 -186157.000000 0 0 1
-1.575194 33.296150 -18.826666 38.282610 -1.523523 2.084931 0.081905 -0.044376 207658.000000 0 0 1
-0.619094 32.581550 -18.057366 37.255995 -1.551797 2.076798 0.097822 -0.054588 118986.000000 0 0 1
-1.026894 32.463450 -16.703466 36.523087 -1.539175 2.045798 0.080884 -0.043084 284553.000000 0 0 1
-0.091994 31.513050 -15.898166 35.296352 -1.567877 2.038031 0.048058 -0.037800 831214.000000 0 0 1
1.079106 32.112950 -15.347066 35.608124 1.537206 2.016396 0.060753 -0.030281 172301.000000 0 0 1
1.875606 31.131150 -14.714766 34.484645 1.510621 2.011642 0.076678 -0.018272 -298938.000000 0 0 1
2.896006 31.715350 -13.767966 34.695924 1.479736 1.978844 0.088665 -0.023955 -1118590.000000 0 0 1
3.947106 32.367750 -14.384066 35.639195 1.449450 1.986247 0.076896 -0.023747 -465283.000000 0 0 1
4.797406 32.925050 -13.353466 35.852323 1.426108 1.952452 0.087686 -0.030829 -151018.000000 0 0 1
6.162606 33.173450 -13.978966 36.522144 1.387121 1.963571 0.091383 -0.035975 -358199.000000 0 0 1
6.985006 32.078550 -14.331866 35.822145 1.356396 1.982405 0.080716 -0.021262 276290.000000 0 0 1
8.067806 32.438350 -15.215566 36.726686 1.327030 1.997961 0.058775 -0.002014 335583.000000 0 0 1
9.018406 31.268550 -15.379166 35.994064 1.289999 2.012267 0.041050 -0.013408 -88902.700000 0 0 1
9.992906 31.193250 -14.344566 35.758126 1.260772 1.983574 0.037991 -0.017051 307925.000000 0 0 1
10.917306 30.089050 -14.343866 35.075419 1.222735 1.992092 0.051243 -0.025375 710385.000000 0 0 1
10.331606 28.638950 -14.082666 33.544791 1.224574 2.004040 0.053612 -0.023296 8435.840000 0 0 1
9.404206 28.177850 -15.054466 33.302662 1.248676 2.039858 0.063767 -0.033911 -54660.400000 0 0 1
8.814406 27.008050 -14.575266 31.930658 1.255333 2.044816 0.054512 -0.024051 -286605.000000 0 0 1
7.788806 26.420850 -15.559766 31.635947 1.284119 2.084996 0.060922 -0.020826 -139618.000000 0 0 1
8.452606 25.750550 -16.603266 31.783735 1.253628 2.120439 0.066657 -0.020187 -235781.000000 0 0 1
7.610206 24.928050 -17.313966 31.290515 1.274496 2.157152 0.068442 -0.013289 123200.000000 0 0 1
8.546506 24.165250 -18.277966 31.481520 1.230856 2.190254 0.070163 -0.015348 208980.000000 0 0 1
7.892306 23.099950 -18.903266 30.874417 1.241571 2.229716 0.092742 -0.025384 189082.000000 0 0 1
8.798006 22.319850 -19.715266 31.052735 1.195318 2.258671 0.079002 -0.022918 105778.000000 0 0 1
8.089106 21.422850 -20.749066 30.901390 1.209755 2.306974 0.084320 -0.023893 -103297.000000 0 0 1
7.494106 20.239150 -20.245766 29.591821 1.216172 2.324258 0.107124 -0.031992 106828.000000 0 0 1
7.070006 19.234250 -21.146066 29.446519 1.218552 2.371890 0.100811 -0.034938 126759.000000 0 0 1
25.590706 -12.452250 -9.408466 29.974355 -0.452864 1.890077 0.085126 -0.025026 -100385.000000 0 0 1
26.017406 -11.800050 -8.219366 29.727169 -0.425798 1.850940 0.099420 -0.035457 942137.000000 0 0 1
24.965606 -11.731850 -7.234666 28.517682 -0.439296 1.827290 0.101360 -0.028344 71262.900000 0 0 1
25.434306 -11.122350 -5.906166 28.381215 -0.412240 1.780430 0.081012 -0.034293 -343010.000000 0 0 1
25.668906 -9.688650 -5.751266 28.032833 -0.360914 1.777425 0.104694 -0.037832 120124.000000 0 0 1
26.675006 -9.107750 -6.513366 28.929760 -0.329023 1.797887 0.084740 -0.043340 -1258890.000000 0 0 1
27.238206 -7.713250 -6.093766 28.957695 -0.275953 1.782818 0.144320 -0.044534 -45693.900000 0 0 1
27.975806 -7.585850 -4.888366 29.395356 -0.264790 1.737870 0.137106 -0.051084 736215.000000 0 0 1
29.263106 -8.202250 -4.935766 30.789090 -0.273281 1.731800 0.124748 -0.048383 117591.000000 0 0 1
29.978706 -8.112150 -3.526466 31.256451 -0.264268 1.683861 0.143437 -0.047158 -286697.000000 0 0 1
30.370406 -6.794950 -3.242866 31.289760 -0.220111 1.674623 0.142369 -0.028772 -4434.400000 0 0 1
30.860706 -6.719650 -1.997166 31.646888 -0.214395 1.633946 0.149744 -0.019826 -442623.000000 0 0 1
31.269506 -5.285550 -1.540666 31.750476 -0.167449 1.619340 0.130139 -0.028329 -582397.000000 0 0 1
30.130806 -4.498750 -1.203666 30.488572 -0.148212 1.610286 0.165536 -0.020156 133012.000000 0 0 1
30.317806 -3.173350 -0.718066 30.491886 -0.104290 1.594348 0.137125 -0.008980 -352350.000000 0 0 1
31.028206 -2.942150 0.628534 31.173721 -0.094539 1.550633 0.135131 -0.024127 -209568.000000 0 0 1
30.331306 -3.415750 1.792434 30.575616 -0.112142 1.512140 0.169147 -0.033115 61084.900000 0 0 1
30.976606 -3.151750 2.992434 31.279999 -0.101397 1.474984 0.134671 -0.024712 -609805.000000 0 0 1
30.501606 -3.991850 4.237334 31.052179 -0.130134 1.433911 0.158492 -0.029183 -117765.000000 0 0 1
31.041706 -5.286850 4.212434 31.769213 -0.168696 1.437810 0.143815 -0.028439 109313.000000 0 0 1
30.878006 -5.923650 5.453534 31.910530 -0.189538 1.399053 0.146357 -0.034024 14541.200000 0 0 1
31.607206 -7.278050 5.578934 32.910636 -0.226321 1.400456 0.123505 -0.016132 623598.000000 0 0 1
33.026906 -7.203950 5.541934 34.254729 -0.214760 1.408296 0.113765 -0.023475 597627.000000 0 0 1
33.718106 -8.491650 5.587834 35.217079 -0.246712 1.411455 0.128466 -0.021025 1320000.000000 0 0 1
35.265906 -8.262450 5.731134 36.671489 -0.230139 1.413870 0.148539 -0.023988 624492.000000 0 0 1
35.987606 -7.998850 4.537934 37.144074 -0.218711 1.448319 0.154650 -0.019153 -633674.000000 0 0 1
-37.151653 -7.823850 4.961734 38.289382 0.207559 1.440846 0.148902 -0.021567 -870868.000000 0 0 1
-36.200453 -7.557950 3.820034 37.177790 0.205824 1.467864 0.142642 -0.013920 -489282.000000 0 0 1
-35.979753 -8.641950 2.934934 37.119264 0.235724 1.491646 0.159626 -0.017501 -97762.700000 0 0 1
-35.055953 -8.277450 1.943834 36.072351 0.231874 1.516883 0.174342 -0.026704 -298103.000000 0 0 1
-34.690953 -9.529550 1.177634 35.995297 0.268086 1.538074 0.168391 -0.018210 -13924.100000 0 0 1
-33.942953 -10.451850 1.949734 35.569182 0.298711 1.515954 0.162929 -0.014897 150053.000000 0 0 1
-33.992253 -11.779650 1.401234 36.002734 0.333588 1.531866 0.170115 -0.019038 -891216.000000 0 0 1
-33.677553 -12.907550 2.400634 36.146168 0.366000 1.504333 0.133282 -0.025609 1019020.000000 0 0 1
-32.335053 -13.051450 2.878234 34.988287 0.383633 1.488440 0.121800 -0.022058 1140300.000000 0 0 1
-31.283953 -13.230650 1.931334 34.021550 0.400109 1.513998 0.131416 -0.009089 -585205.000000 0 0 1
-29.925653 -13.547450 2.545234 32.947782 0.425100 1.493469 0.122256 -0.012733 -326457.000000 0 0 1
-29.242853 -12.440950 3.120234 31.932077 0.402240 1.472925 0.117680 -0.014014 212304.000000 0 0 1
-27.896753 -12.803650 3.342134 30.876077 0.430285 1.462340 0.121519 -0.010830 -161398.000000 0 0 1
-27.095853 -11.812950 4.197034 29.855421 0.411125 1.429750 0.131212 -0.011790 -229220.000000 0 0 1
-25.759153 -12.223650 4.386034 28.847684 0.443070 1.418163 0.114022 -0.002166 263750.000000 0 0 1
-25.111453 -11.259650 5.188334 28.005064 0.421512 1.384456 0.113402 0.002502 796189.000000 0 0 1
-23.728453 -11.705550 5.812634 27.089594 0.458284 1.354544 0.114182 0.012323 820122.000000 0 0 1
-23.834253 -12.582050 6.927834 27.827585 0.485716 1.319195 0.115643 0.004015 -355669.000000 0 0 1
-22.572653 -12.838750 7.443434 27.014124 0.517143 1.291646 0.120028 0.009909 -525013.000000 0 0 1
-22.212853 -12.196350 8.838834 26.838159 0.502127 1.235194 0.128604 0.008018 -569324.000000 0 0 1
-21.949153 -10.773650 8.879134 26.012994 0.456297 1.222460 0.123112 0.001208 621610.000000 0 0 1
-23.075953 -9.905550 8.941634 26.656563 0.405472 1.228726 0.120948 -0.003045 -80609.400000 0 0 1
-23.786553 -9.891350 10.331734 27.755786 0.394085 1.189378 0.107676 -0.005690 -310062.000000 0 0 1
-24.361253 -11.118050 10.743734 28.853241 0.428149 1.189248 0.109384 -0.019137 1551050.000000 0 0 1
-25.778053 -11.322650 10.483034 30.043376 0.413867 1.214367 0.119944 -0.017506 1436010.000000 0 0 1
-26.769453 -10.728750 11.498534 31.047157 0.381181 1.191403 0.127399 -0.025479 -529843.000000 0 0 1
-26.598553 -11.416950 12.731934 31.621700 0.405450 1.156405 0.117729 -0.026402 423357.000000 0 0 1
-27.735453 -11.260950 13.566134 32.864941 0.385679 1.145287 0.107972 -0.026834 52911.600000 0 0 1
-27.886153 -12.226250 14.766134 33.840175 0.413194 1.119259 0.104196 -0.030292 -201801.000000 0 0 1
-27.950653 -13.598350 14.456534 34.280395 0.452800 1.135461 0.108314 -0.028010 400212.000000 0 0 1
-27.983753 -14.289950 15.674534 35.113874 0.472133 1.108068 0.083594 -0.019104 -370372.000000 0 0 1
-27.518853 -15.749850 15.516334 35.300165 0.519825 1.115694 0.072559 -0.018409 184083.000000 0 0 1
-28.496953 -16.662550 15.001034 36.259453 0.529103 1.144267 0.091806 -0.022960 426219.000000 0 0 1
-28.031853 -17.987050 15.117434 36.576708 0.570493 1.144713 0.076418 -0.008817 4499.330000 0 0 1
-29.005553 -18.937650 15.872834 38.103852 0.578409 1.141130 0.057501 -0.000776 113110.000000 0 0 1
-29.180053 -18.721550 17.266934 38.731369 0.570438 1.108714 0.056098 0.006381 -151393.000000 0 0 1
-29.749353 -19.813650 17.961534 40.002768 0.587554 1.105142 0.053534 0.010037 986996.000000 0 0 1
-28.705553 -21.026750 18.242234 39.986399 0.632205 1.097064 0.036735 0.019715 2036350.000000 0 0 1
-27.586053 -20.745450 19.120834 39.458463 0.644797 1.064912 0.038033 0.024368 791862.000000 0 0 1
-26.736953 -21.824950 19.390834 39.587846 0.684592 1.058915 0.037511 0.032873 1024240.000000 0 0 1
-25.344353 -21.399750 20.027934 38.747951 0.701210 1.027597 0.045430 0.030896 935314.000000 0 0 1
-24.422253 -20.953950 19.095034 37.418375 0.709112 1.035249 0.060944 0.021713 -697474.000000 0 0 1
-23.131753 -20.743950 19.571634 36.721088 0.731030 1.008677 0.061709 0.022445 -78836.000000 0 0 1
-22.012753 -20.649250 18.513234 35.407523 0.753448 1.020592 0.057497 0.005621 737.544000 0 0 1
-21.831953 -21.816150 17.703834 35.580954 0.785036 1.050007 0.053877 0.003912 1411840.000000 0 0 1
-20.520353 -21.761650 17.058334 34.433139 0.814747 1.052496 0.053632 0.009822 1341570.000000 0 0 1
-20.287653 -22.824450 15.925034 34.440544 0.844172 1.090105 0.043974 0.010499 -424341.000000 0 0 1
-20.213153 -24.209550 16.403234 35.549120 0.875120 1.091196 0.046339 0.001442 399329.000000 0 0 1
-19.044853 -24.581850 17.130434 35.502472 0.911641 1.067274 0.059000 -0.011978 488736.000000 0 0 1
-17.721653 -24.732750 16.344134 34.538336 0.949065 1.077857 0.059431 -0.016391 -70648.600000 0 0 1
-17.053453 -23.523950 16.087934 33.211716 0.943527 1.065113 0.059681 -0.017888 899378.000000 0 0 1
-15.806153 -23.760950 15.368134 32.412910 0.983799 1.076814 0.059913 -0.018531 1408130.000000 0 0 1
-14.939053 -22.445850 15.111234 30.908589 0.983560 1.059967 0.057940 -0.009322 184783.000000 0 0 1
-15.508853 -21.452850 14.263434 30.069833 0.944848 1.076578 0.054660 -0.009977 392895.000000 0 0 1
-16.559953 -20.630850 14.833234 30.329670 0.894424 1.059777 0.047124 0.002202 473637.000000 0 0 1
-16.183853 -19.428750 15.762534 29.796827 0.876264 1.013374 0.062109 -0.003327 -375170.000000 0 0 1
-15.478053 -18.376350 15.089834 28.371878 0.870801 1.010002 0.069382 -0.007871 222861.000000 0 0 1
-15.475953 -17.284350 15.986434 28.174811 0.840543 0.967449 0.065768 -0.012426 -198416.000000 0 0 1
-14.720353 -16.080250 15.294434 26.630489 0.829521 0.959023 0.071734 -0.011908 190422.000000 0 0 1
-15.438953 -15.369750 14.327134 26.074073 0.783152 0.989057 0.068848 -0.017891 -101917.000000 0 0 1
-15.582553 -15.957350 13.059834 25.845933 0.797281 1.041072 0.078033 -0.018929 223079.000000 0 0 1
-16.509253 -15.034350 12.169234 25.429852 0.738675 1.071804 0.080993 -0.017643 673395.000000 0 0 1
-17.887253 -15.158350 12.508534 26.574289 0.703005 1.080712 0.071075 -0.018678 131463.000000 0 0 1
-18.687753 -14.201250 11.895034 26.313484 0.649822 1.101733 0.097650 -0.021549 147950.000000 0 0 1
-20.227053 -14.442650 12.062634 27.626635 0.620078 1.118946 0.094427 -0.020554 771554.000000 0 0 1
-20.774653 -15.611850 11.378334 28.368690 0.644451 1.158092 0.111145 -0.017387 149420.000000 0 0 1
-20.675053 -15.658750 9.968434 27.785319 0.648204 1.203851 0.118714 -0.020485 -983078.000000 0 0 1
-21.676853 -16.568350 9.293834 28.823108 0.652612 1.242486 0.117346 -0.011607 -473012.000000 0 0 1
-21.260453 -17.917550 9.034434 29.234679 0.700278 1.256622 0.118321 -0.004673 -626081.000000 0 0 1
-22.242353 -18.744250 8.532234 30.312839 0.700257 1.285468 0.107152 -0.022191 -655482.000000 0 0 1
-21.855553 -20.236950 8.633734 31.011945 0.746964 1.288668 0.114098 -0.024082 471692.000000 0 0 1
-20.779253 -20.680250 7.792034 30.334236 0.783010 1.311011 0.116042 -0.020731 217652.000000 0 0 1
-20.397253 -22.018750 8.044734 31.073961 0.823608 1.308924 0.093989 -0.025758 -98289.400000 0 0 1
-19.023753 -22.463250 7.566834 30.393383 0.868114 1.319187 0.095990 -0.027107 -411175.000000 0 0 1
-17.862753 -21.966150 8.147334 29.461309 0.888062 1.290601 0.076271 -0.026308 -359679.000000 0 0 1
-16.675253 -22.183150 7.420134 28.726549 0.926203 1.309532 0.100518 -0.030288 300857.000000 0 0 1
-15.382353 -21.858050 8.181134 27.952139 0.957566 1.273764 0.100693 -0.021416 632644.000000 0 0 1
-14.163253 -22.016750 7.446934 27.217491 0.999149 1.293654 0.105819 -0.023253 389486.000000 0 0 1
-12.998553 -21.882550 8.232334 26.750321 1.034790 1.257972 0.089668 -0.020703 185266.000000 0 0 1
-11.734253 -22.228350 7.433934 26.211746 1.085082 1.283239 0.092803 -0.016828 -114205.000000 0 0 1
-11.599753 -23.584050 7.135034 27.233626 1.113692 1.305709 0.086248 -0.011207 421377.000000 0 0 1
-10.307453 -23.965350 6.617734 26.914234 1.164615 1.322366 0.102503 -0.021048 1040530.000000 0 0 1
-10.116153 -25.499390 6.656334 28.228748 1.193120 1.332755 0.092425 -0.014610 -27826.100000 0 0 1
-10.845953 -26.161330 5.665434 28.881603 1.177785 1.373355 0.098548 -0.016156 -480455.000000 0 0 1
-10.921153 -27.534560 5.879234 30.199155 1.193195 1.374863 0.104442 -0.011578 -257860.000000 0 0 1
-9.823253 -28.313060 5.145034 30.407187 1.236840 1.400774 0.116879 -0.023302 1579970.000000 0 0 1
-8.497453 -27.918510 5.683434 29.731319 1.275339 1.378453 0.115120 -0.028160 1809530.000000 0 0 1
-7.411453 -28.779080 5.319334 30.190402 1.318744 1.393679 0.117286 -0.023256 653154.000000 0 0 1
-7.336453 -30.163230 6.050734 31.626814 1.332204 1.378293 0.133435 -0.037969 -330911.000000 0 0 1
-7.319453 -30.099250 7.513134 31.874542 1.332249 1.332848 0.125655 -0.029112 71621.200000 0 0 1
-7.204453 -31.338850 8.103834 33.161722 1.344833 1.323923 0.146688 -0.036209 -169845.000000 0 0 1
-7.534453 -31.304170 9.632734 33.608163 1.334603 1.280101 0.130241 -0.041324 -214812.000000 0 0 1
-6.690453 -30.601350 10.535634 33.048515 1.355551 1.246341 0.122629 -0.032893 -17608.100000 0 0 1
-6.863453 -30.754190 11.901734 33.683504 1.351223 1.209657 0.104097 -0.020440 113681.000000 0 0 1
-5.879453 -29.833000 12.728134 32.963332 1.376211 1.174364 0.092944 -0.025779 481407.000000 0 0 1
-6.182453 -28.453350 12.615434 31.732712 1.356838 1.161948 0.090319 -0.017299 -286989.000000 0 0 1
-5.372453 -27.688950 13.454034 31.249836 1.379149 1.125715 0.070935 -0.023794 -350239.000000 0 0 1
-5.814453 -27.493770 14.978234 31.844352 1.362385 1.081100 0.071620 -0.019093 -72533.500000 0 0 1
-5.984453 -28.712950 15.808334 33.318923 1.365315 1.076451 0.073347 -0.021901 77891.900000 0 0 1
-4.833453 -29.434480 16.179334 33.934079 1.408038 1.073800 0.072347 -0.023805 -82800.700000 0 0 1
-5.267453 -30.810270 16.752134 35.463401 1.401469 1.078809 0.060268 -0.019083 411415.000000 0 0 1
-6.079453 -31.495450 15.785334 35.750523 1.380115 1.113480 0.056946 -0.013173 353749.000000 0 0 1
-6.555453 -32.734950 16.290734 37.147529 1.373152 1.116821 0.054172 -0.016328 -105350.000000 0 0 1
-6.080453 -33.972550 15.555834 37.856176 1.393690 1.147334 0.045120 -0.015674 -134990.000000 0 0 1
-6.554453 33.844994 14.212134 37.288460 -1.379503 1.179767 0.060725 -0.017853 130676.000000 0 0 1
-5.812453 32.864736 13.548834 36.020083 -1.395747 1.185162 0.070489 -0.024414 -228262.000000 0 0 1
-4.664453 33.358959 12.658534 35.983548 -1.431871 1.211317 0.100700 -0.033850 -130124.000000 0 0 1
-5.070453 33.943941 11.488834 36.192457 -1.422515 1.247771 0.101622 -0.036465 478755.000000 0 0 1
-3.923453 -33.728490 10.683834 35.597034 1.454992 1.265965 0.113333 -0.044810 156052.000000 0 0 1
-4.327453 -33.366190 9.229834 34.888670 1.441821 1.303058 0.119509 -0.050911 -721771.000000 0 0 1
-4.473453 33.642512 8.203334 34.915972 -1.438602 1.333634 0.114798 -0.058591 353662.000000 0 0 1
-5.188453 32.413312 8.424034 33.889632 -1.412071 1.319590 0.132105 -0.056610 314638.000000 0 0 1
-6.615453 32.490205 9.026434 34.363559 -1.369928 1.305003 0.145858 -0.049080 27028.400000 0 0 1
-7.581453 33.144304 8.220834 34.980072 -1.345924 1.333563 0.144725 -0.046247 -735755.000000 0 0 1
-8.867453 33.122890 8.751834 35.388588 -1.309217 1.320897 0.107185 -0.044512 -681499.000000 0 0 1
-9.937353 33.353687 7.703534 35.644970 -1.281232 1.352959 0.106748 -0.054039 -629585.000000 0 0 1
-10.218853 -33.313180 7.219834 35.585375 1.273157 1.366490 0.116207 -0.042494 63246.900000 0 0 1
-11.087653 -33.429960 6.108634 35.746520 1.250545 1.399066 0.107105 -0.034129 -166933.000000 0 0 1
-11.400153 -32.118380 5.372834 34.502480 1.229726 1.414437 0.088566 -0.037374 143088.000000 0 0 1
-12.291953 -31.336940 6.157534 34.220040 1.196988 1.389871 0.089653 -0.034893 -269369.000000 0 0 1
-13.067253 -30.588810 5.218534 33.669890 1.167072 1.415178 0.083515 -0.032985 -383776.000000 0 0 1
-14.109353 -29.802430 6.000934 33.515219 1.128630 1.390775 0.066192 -0.026069 -503358.000000 0 0 1
-14.983253 -30.624820 6.736234 34.752760 1.115784 1.375728 0.083677 -0.025885 -85525.300000 0 0 1
-15.939453 -29.909360 7.491534 34.709639 1.081157 1.353250 0.066506 -0.020921 29236.500000 0 0 1
33.895195 -12.539950 -12.309066 38.179153 -0.354347 1.899063 0.046734 -0.034912 -309972.000000 0 0 1
32.825415 -12.839250 -11.452466 37.060939 -0.372843 1.884956 0.074061 -0.039122 -47165.800000 0 0 1
32.812015 -14.222850 -11.046266 37.429104 -0.409018 1.870383 0.075070 -0.044903 423349.000000 0 0 1
33.888955 -14.851250 -10.049966 38.340875 -0.413025 1.836016 0.062175 -0.041906 386981.000000 0 0 1
35.187495 -14.882250 -10.555166 39.636507 -0.400126 1.840348 0.061167 -0.040908 -149029.000000 0 0 1
36.199555 -15.182250 -9.570866 40.404331 -0.397122 1.809947 0.055566 -0.039450 169028.000000 0 0 1
-36.916664 -15.231050 -10.291566 41.240045 0.391303 1.823015 0.038608 -0.037665 -684490.000000 0 0 1
-36.202994 -14.052350 -10.526566 40.235977 0.370253 1.835497 0.041304 -0.030639 267809.000000 0 0 1
-34.823089 -14.293750 -10.763266 39.151075 0.389497 1.849299 0.069941 -0.032109 306607.000000 0 0 1
-33.994044 -13.042350 -11.021566 38.041725 0.366346 1.864734 0.113542 -0.037042 -370348.000000 0 0 1
-33.843404 -12.162550 -9.960166 37.316330 0.345004 1.840983 0.124233 -0.038848 320045.000000 0 0 1
-33.615604 -10.793050 -10.385266 36.801528 0.310676 1.856879 0.138609 -0.026603 -112064.000000 0 0 1
-34.116216 -9.719450 -9.401766 36.698462 0.277540 1.829875 0.139134 -0.032805 50410.300000 0 0 1
-33.419654 -9.729150 -8.175166 35.754202 0.283291 1.801486 0.142584 -0.028114 555005.000000 0 0 1
-34.091621 -8.862150 -7.286266 35.970349 0.254322 1.774771 0.156883 -0.033331 -19633.300000 0 0 1
-33.337194 -8.848850 -5.942966 34.999850 0.259452 1.741423 0.146278 -0.022315 -132351.000000 0 0 1
-32.082774 -8.168550 -6.065566 33.657401 0.249311 1.752001 0.168720 -0.032638 559926.000000 0 0 1
-31.499034 -8.004850 -4.794666 32.852025 0.248862 1.717267 0.170901 -0.033514 -333330.000000 0 0 1
-30.622074 -9.204650 -4.303166 32.263822 0.291997 1.704569 0.155310 -0.026007 -678547.000000 0 0 1
-31.237074 -10.437450 -3.876666 33.162082 0.322473 1.687965 0.151872 -0.021211 495810.000000 0 0 1
-32.006024 -10.372650 -2.666866 33.750401 0.313403 1.649896 0.132772 -0.024951 293499.000000 0 0 1
-32.437604 -11.774950 -2.159366 34.576154 0.348212 1.633289 0.137687 -0.023132 145421.000000 0 0 1
-33.329024 -12.478450 -3.022666 35.716551 0.358246 1.655527 0.138984 -0.024191 492748.000000 0 0 1
-33.908174 -13.630150 -2.432166 36.625956 0.382206 1.637251 0.137743 -0.026117 481159.000000 0 0 1
-35.468698 -13.667450 -2.433666 38.088718 0.367803 1.634735 0.107343 -0.022343 412880.000000 0 0 1
-35.941252 -12.894750 -1.328166 38.207489 0.344469 1.605565 0.129919 -0.020529 -601793.000000 0 0 1
37.164165 -13.123150 -1.121866 39.429061 -0.339445 1.599253 0.184325 -0.025534 -809639.000000 0 0 1
36.582695 -12.326050 0.066934 38.603492 -0.324990 1.569062 0.157582 -0.024621 -339736.000000 0 0 1
36.971615 -12.641150 1.357734 39.096579 -0.329454 1.536062 0.177056 -0.010891 424964.000000 0 0 1
36.225875 -11.941350 2.390234 38.218099 -0.318419 1.508214 0.176875 -0.008807 197429.000000 0 0 1
36.630295 -12.233450 3.892334 38.814767 -0.322324 1.470348 0.185647 -0.023088 -85820.100000 0 0 1
35.587095 -12.252150 4.842534 37.947420 -0.331576 1.442836 0.184552 -0.035265 -1714.470000 0 0 1
36.105095 -12.225350 6.180334 38.616494 -0.326487 1.410061 0.166507 -0.032731 13100.400000 0 0 1
35.055705 -12.306950 7.328134 37.869051 -0.337626 1.376055 0.159390 -0.053455 227502.000000 0 0 1
34.403705 -11.060350 7.563134 36.920825 -0.311051 1.364489 0.165328 -0.044358 -127691.000000 0 0 1
33.545265 -11.167750 8.647334 36.397525 -0.321375 1.330922 0.127354 -0.025105 -213442.000000 0 0 1
32.749315 -9.844550 8.997234 35.360756 -0.292010 1.313526 0.126722 -0.037373 273639.000000 0 0 1
31.505615 -9.753450 8.314634 34.012744 -0.300221 1.323837 0.151980 -0.032093 301497.000000 0 0 1
30.607705 -8.867150 8.936634 33.095640 -0.281984 1.297378 0.151901 -0.016471 1247280.000000 0 0 1
29.082765 -9.196150 8.617734 31.696084 -0.306258 1.295444 0.136413 -0.015639 1011540.000000 0 0 1
28.694665 -8.898950 7.333634 30.925027 -0.300720 1.331373 0.158154 -0.019140 333069.000000 0 0 1
27.409765 -9.497550 7.156434 29.878307 -0.333556 1.328926 0.173839 -0.026384 190471.000000 0 0 1
26.653565 -8.921550 5.932234 28.726260 -0.323000 1.362791 0.192347 -0.030608 -253897.000000 0 0 1
26.068665 -7.685850 6.295934 27.897785 -0.286708 1.343157 0.193280 -0.032677 -36272.700000 0 0 1
25.257065 -7.148450 5.283534 26.775650 -0.275814 1.372167 0.228598 -0.040187 -335342.000000 0 0 1
25.751365 -5.962850 4.454634 26.805450 -0.227544 1.403838 0.223669 -0.037489 146537.000000 0 0 1
26.798565 -6.280150 3.528534 27.749846 -0.230193 1.443296 0.227691 -0.032698 571153.000000 0 0 1
27.192765 -5.120350 2.843134 27.816324 -0.186119 1.468407 0.211723 -0.034745 -130773.000000 0 0 1
27.731965 -5.302750 1.445434 28.271370 -0.188934 1.519647 0.199195 -0.042607 6648.590000 0 0 1
26.668565 -5.660750 0.599534 27.269322 -0.209159 1.548809 0.225389 -0.053232 269513.000000 0 0 1
27.202565 -5.741950 -0.699166 27.810760 -0.208027 1.595939 0.197237 -0.047331 31793.700000 0 0 1
26.143565 -6.044050 -1.781966 26.892228 -0.227195 1.637108 0.210496 -0.050446 9687.260000 0 0 1
25.051765 -5.165650 -1.832666 25.644367 -0.203349 1.642322 0.220724 -0.044655 -172616.000000 0 0 1
24.270765 -5.395550 -2.986066 25.041937 -0.218749 1.690323 0.191542 -0.040582 234016.000000 0 0 1
22.967665 -4.536650 -3.022966 23.605787 -0.195013 1.699209 0.153734 -0.035000 90545.500000 0 1 0
23.061165 -3.111950 -3.015366 23.464740 -0.134133 1.699659 0.144918 -0.034093 396715.000000 0 1 0
23.807865 -2.441850 -4.072766 24.276831 -0.102207 1.739357 0.156855 -0.029823 -255819.000000 0 1 0
22.964865 -1.868050 -5.172066 23.614083 -0.081165 1.791611 0.151036 -0.013149 -449120.000000 0 1 0
22.163665 -0.762850 -4.776166 22.685276 -0.034405 1.782924 0.103017 0.000970 476501.000000 0 1 0
21.677865 -0.086850 -5.913366 22.470098 -0.004006 1.837099 0.134181 0.004071 -150609.000000 0 1 0
20.945865 1.207850 -5.558366 21.704461 0.057602 1.829775 0.080327 0.019054 -875803.000000 0 1 0
21.828265 2.229650 -5.176966 22.544300 0.101792 1.802499 0.092422 0.012880 438299.000000 0 1 0
22.218565 2.257550 -3.790266 22.652313 0.101259 1.738911 0.090933 0.009148 -347877.000000 0 1 0
23.397865 3.175650 -3.458366 23.864307 0.134900 1.716226 0.127750 -0.002512 -388801.000000 0 1 0
23.200065 4.552650 -3.346266 23.878173 0.193772 1.711398 0.085233 0.007517 338839.000000 0 1 0
24.397965 5.177050 -2.941766 25.114071 0.209091 1.688202 0.105600 -0.006796 -143885.000000 0 0 1
24.319665 6.650150 -2.782866 25.365626 0.266922 1.680728 0.098301 -0.006117 -66333.100000 0 0 1
23.486865 7.179550 -1.744966 24.621610 0.296663 1.641727 0.112723 -0.010886 692516.000000 0 1 0
23.162565 8.529250 -2.016666 24.765288 0.352826 1.652318 0.129348 -0.010326 -934617.000000 0 1 0
22.149365 9.058150 -1.063466 23.953610 0.388204 1.615208 0.112449 -0.002949 -376822.000000 0 1 0
22.737365 9.406550 0.198834 24.607123 0.392264 1.562716 0.110444 -0.011814 148349.000000 0 1 0
21.694365 9.982350 0.859934 23.896282 0.431251 1.534802 0.101284 -0.011416 -579911.000000 0 1 0
22.074165 10.658450 2.215934 24.612633 0.449831 1.480642 0.116153 -0.008636 -130384.000000 0 1 0
22.783865 11.902350 2.207334 25.800054 0.481409 1.485136 0.121406 -0.021111 328205.000000 0 0 1
22.201165 12.993050 1.559934 25.771001 0.529497 1.510229 0.114984 -0.021069 -862137.000000 0 0 1
21.094065 13.726950 2.332834 25.275104 0.576902 1.478367 0.102999 -0.014614 521707.000000 0 0 1
19.774065 13.128150 2.184034 23.835520 0.586090 1.479038 0.124167 -0.008682 966957.000000 0 1 0
18.768265 13.871750 2.757334 23.500556 0.636493 1.453195 0.108362 -0.014335 -689569.000000 0 1 0
18.584765 13.787250 4.251934 23.527871 0.638270 1.389079 0.089574 -0.013666 -636353.000000 0 1 0
18.276465 12.558050 4.770334 22.682370 0.602026 1.358904 0.079349 -0.008133 269849.000000 0 1 0
18.418065 12.506450 6.197334 23.109379 0.596514 1.299299 0.083665 -0.022673 -147023.000000 0 1 0
18.292965 11.134650 6.881434 22.493714 0.546781 1.259884 0.041981 -0.023149 807841.000000 0 1 0
19.448165 10.296150 6.616134 22.978579 0.486902 1.278736 0.045165 -0.021485 1358250.000000 0 1 0
19.383165 9.027650 7.252934 22.578986 0.435872 1.243774 0.045887 -0.015790 499656.000000 0 1 0
20.425565 8.080950 6.529734 22.915997 0.376733 1.281850 0.070414 -0.016865 472125.000000 0 1 0
19.984965 7.562050 5.291534 22.013264 0.361737 1.328040 0.051126 -0.021177 526767.000000 0 1 0
21.046265 7.006950 4.525634 22.638993 0.321388 1.369536 0.063186 -0.019074 -18827.400000 0 1 0
20.685965 6.482750 3.107434 21.899575 0.303694 1.428421 0.057242 -0.012902 240876.000000 0 1 0
21.765465 5.700650 2.594534 22.648720 0.256159 1.455989 0.067123 -0.013582 807402.000000 0 1 0
21.523365 5.520850 1.189534 22.251967 0.251092 1.517313 0.069060 -0.000837 780286.000000 0 1 0
22.666565 4.710850 0.436934 23.155047 0.204915 1.551925 0.106292 -0.008227 741024.000000 0 1 0
22.589265 3.337550 0.731134 22.846197 0.146688 1.538788 0.098876 -0.007483 89489.500000 0 1 0
23.731965 2.696850 0.268834 23.886219 0.113152 1.559541 0.115766 -0.010089 -507676.000000 0 1 0
23.533765 1.190350 0.167334 23.564445 0.050537 1.563695 0.140977 -0.018446 -154115.000000 0 1 0
22.390765 0.840350 -0.591766 22.414342 0.037514 1.597201 0.098683 -0.019010 721617.000000 0 1 0
22.258865 -0.542050 -0.926866 22.284748 -0.024347 1.612400 0.113654 -0.028915 -928175.000000 0 1 0
21.964365 -1.596950 0.216634 22.023409 -0.072579 1.560960 0.125138 -0.031245 11302.200000 0 1 0
22.956665 -1.790950 1.223534 23.058903 -0.077857 1.517710 0.131778 -0.031540 659970.000000 0 1 0
24.160765 -2.428650 0.788034 24.295307 -0.100184 1.538355 0.155819 -0.035533 -278667.000000 0 1 0
25.155565 -2.289850 1.933334 25.333449 -0.090777 1.494407 0.154050 -0.033223 -899666.000000 0 0 1
25.483465 -0.928850 2.105634 25.587174 -0.036433 1.488411 0.145636 -0.030410 498405.000000 0 0 1
26.465265 -0.733450 3.127234 26.659479 -0.027707 1.453223 0.152938 -0.035711 188579.000000 0 0 1
26.197065 0.529150 3.947034 26.498025 0.020196 1.421284 0.126559 -0.027355 -167090.000000 0 0 1
26.405765 1.793350 3.392834 26.683176 0.067811 1.443299 0.148901 -0.026735 -177399.000000 0 0 1
27.654865 2.111450 2.813934 27.877734 0.076202 1.469686 0.160361 -0.032315 -37072.600000 0 0 1
27.722465 3.375050 1.930934 27.993831 0.121148 1.501764 0.162166 -0.040757 194972.000000 0 0 1
27.130765 3.075850 0.634934 27.311947 0.112889 1.547547 0.146798 -0.028332 553444.000000 0 0 1
27.564765 4.046150 -0.327566 27.862070 0.145746 1.582553 0.147213 -0.025074 657935.000000 0 0 1
28.939565 3.836450 -1.067466 29.212262 0.131799 1.607346 0.170125 -0.029168 806169.000000 0 0 1
30.030955 4.198550 -0.222866 30.323848 0.138907 1.578146 0.187718 -0.039852 904535.000000 0 0 1
31.298665 3.949650 -0.846666 31.558248 0.125529 1.597628 0.160747 -0.036052 893080.000000 0 0 1
32.565375 4.393150 -0.070066 32.860437 0.134093 1.572929 0.118192 -0.032533 102499.000000 0 0 1
32.783305 3.597850 1.088034 32.998083 0.109309 1.537818 0.130333 -0.038696 -151876.000000 0 0 1
32.043505 3.839450 2.253934 32.351319 0.119251 1.501069 0.116786 -0.026591 -342232.000000 0 0 1
32.254095 2.846050 3.418534 32.559377 0.088010 1.465609 0.142016 -0.027145 162963.000000 0 0 1
31.484505 1.619650 3.377734 31.706568 0.051397 1.464063 0.143444 -0.028479 567031.000000 0 0 1
32.048135 0.636650 4.242234 32.333958 0.019863 1.439216 0.150463 -0.029868 77102.900000 0 0 1
33.306785 -0.053850 3.696034 33.511275 -0.001617 1.460279 0.158113 -0.027581 270009.000000 0 0 1
34.540555 0.653850 3.794334 34.754488 0.018928 1.461403 0.153566 -0.035001 762642.000000 0 0 1
35.612495 -0.232150 4.103534 35.848887 -0.006519 1.456077 0.132812 -0.030899 -943386.000000 0 0 1
36.873255 0.476850 4.558734 37.157051 0.012931 1.447798 0.157697 -0.045476 -391353.000000 0 0 1
-36.930354 1.287950 3.578934 37.125714 -0.034861 1.474246 0.149116 -0.048378 297677.000000 0 0 1
-36.036019 0.488450 2.804734 36.148303 -0.013554 1.493129 0.185715 -0.056743 -262928.000000 0 0 1
-35.373585 1.383150 1.690934 35.440977 -0.039081 1.523067 0.202016 -0.057904 6362.390000 0 0 1
-34.497614 2.370550 2.192734 34.648419 -0.068609 1.507469 0.213155 -0.081044 138972.000000 0 0 1
-34.040054 3.220650 1.149334 34.211384 -0.094333 1.537195 0.246117 -0.049933 -285947.000000 0 0 1
-33.144304 4.309550 1.770034 33.470138 -0.129298 1.517888 0.258653 -0.045589 -84984.300000 0 0 1
-31.963084 3.760450 2.321034 32.267118 -0.117111 1.498802 0.236396 -0.058727 651145.000000 0 0 1
-31.228834 4.398450 3.398534 31.719654 -0.139925 1.463447 0.242677 -0.047848 228976.000000 0 0 1
-31.864844 4.215350 4.765234 32.493767 -0.131525 1.423615 0.228460 -0.040435 262293.000000 0 0 1
-33.109814 4.899450 5.013734 33.843787 -0.146910 1.422106 0.212413 -0.017556 1199810.000000 0 0 1
-34.307558 4.147450 5.035334 34.922263 -0.120306 1.426105 0.215764 -0.017005 -108990.000000 0 0 1
-34.485299 3.208650 6.251734 35.193969 -0.092777 1.392212 0.170272 -0.011445 -862112.000000 0 0 1
-34.615428 3.762750 7.571434 35.633029 -0.108276 1.356680 0.156275 -0.014975 382028.000000 0 0 1
-34.285854 2.932450 8.674634 35.487580 -0.085322 1.323853 0.133887 -0.013241 -453711.000000 0 0 1
-35.204015 1.752150 8.989034 36.375753 -0.049730 1.321093 0.126999 -0.008916 -533403.000000 0 0 1
-35.002779 0.602050 8.191234 35.953488 -0.017198 1.340949 0.134210 -0.017209 787233.000000 0 0 1
-35.983965 -0.425350 8.447234 36.964610 0.011820 1.340237 0.131066 -0.015664 481484.000000 0 0 1
-35.741701 -1.190650 9.790334 37.077452 0.033300 1.303577 0.137820 -0.012641 184766.000000 0 0 1
-34.631636 -2.060250 9.590134 35.993965 0.059420 1.301102 0.133125 -0.023759 286434.000000 0 0 1
-34.417288 -2.731250 10.806434 36.177181 0.079191 1.267457 0.127108 -0.018993 -905871.000000 0 0 1
-33.173594 -3.564550 10.699434 35.038140 0.107041 1.260474 0.138124 -0.016969 -934715.000000 0 0 1
-33.233494 -4.626450 9.720234 34.933538 0.138321 1.288825 0.126021 -0.024767 605303.000000 0 0 1
-32.027614 -5.398050 9.726734 33.904518 0.166974 1.279822 0.115366 -0.032198 687939.000000 0 0 1
-32.243094 -6.549150 8.653334 34.020415 0.200392 1.313613 0.115975 -0.022042 -167172.000000 0 0 1
-33.255304 -7.383550 9.084034 35.255520 0.218482 1.310194 0.119295 -0.028734 -557503.000000 0 0 1
-33.586794 -8.318050 8.085134 35.533534 0.242774 1.341250 0.114209 -0.028493 14154.900000 0 0 1
-34.647733 -9.350350 8.511734 36.882842 0.263590 1.337920 0.117675 -0.026028 464065.000000 0 0 1
-35.929243 -8.749650 8.675534 37.983309 0.238875 1.340358 0.123328 -0.036345 216358.000000 0 0 1
-36.933824 -9.740350 8.775134 39.191641 0.257853 1.344979 0.132941 -0.041134 -19352.400000 0 0 1
8.006806 -24.244050 10.796434 27.720857 -1.251816 1.170741 0.133616 -0.032824 83968.100000 0 0 1
7.313806 -24.973550 9.817134 27.812696 -1.285901 1.210049 0.124105 -0.031217 -687053.000000 0 0 1
6.100006 -25.483590 10.293934 28.152948 -1.335847 1.196473 0.133994 -0.028188 -111361.000000 0 0 1
5.422406 -26.338490 9.220234 28.427649 -1.367759 1.240482 0.119736 -0.029712 -64558.100000 0 0 1
4.814106 -25.606530 8.169234 27.305794 -1.384962 1.266967 0.121818 -0.017356 -309028.000000 0 0 1
4.695606 -26.447040 7.028434 27.764969 -1.395080 1.314871 0.109793 -0.014903 -364784.000000 0 0 1
3.950506 -25.780050 5.893834 26.738638 -1.418740 1.348547 0.084103 -0.009864 1423630.000000 0 0 1
2.510706 -25.617160 5.867134 26.400110 -1.473100 1.346686 0.053979 -0.016144 1232920.000000 0 0 1
1.759406 -26.719740 5.383434 27.313392 -1.505045 1.372399 0.053222 -0.015847 45545.000000 0 0 1
0.239106 -26.563910 5.235934 27.076068 -1.561795 1.376192 0.068944 -0.020838 20159.700000 0 0 1
-0.422994 -26.336030 6.495934 27.128630 1.554736 1.328998 0.071085 -0.024607 726834.000000 0 0 1
-1.856594 -26.447930 6.486534 27.294964 1.500713 1.330855 0.064062 -0.023756 1222570.000000 0 0 1
-2.464394 -27.850640 6.511334 28.707644 1.482540 1.341990 0.089999 -0.025138 -539922.000000 0 0 1
-2.159794 -28.478680 7.727334 29.587355 1.495102 1.306562 0.088443 -0.030100 -147316.000000 0 0 1
-2.598394 -29.795450 7.830134 30.916524 1.483809 1.314740 0.110534 -0.026677 -196337.000000 0 0 1
-2.249394 -30.467000 9.168234 31.895993 1.497100 1.279242 0.098822 -0.028626 1624010.000000 0 0 1
-0.816794 -30.686470 9.358234 32.092104 1.544185 1.274891 0.096946 -0.024968 1535420.000000 0 0 1
-0.509794 -31.047730 10.756234 32.862106 1.554378 1.237337 0.094760 -0.021921 -213409.000000 0 0 1
0.941106 -31.001840 11.236334 32.988710 -1.540449 1.223229 0.100731 -0.022996 -3078.630000 0 0 1
1.721406 -32.162040 10.965734 34.023630 -1.517324 1.242641 0.112639 -0.017726 898708.000000 0 0 1
3.062806 -32.130330 11.490534 34.260345 -1.475759 1.228778 0.090459 -0.010289 775035.000000 0 0 1
3.284806 -32.943710 12.799534 35.495155 -1.471415 1.201886 0.093294 -0.010439 -136735.000000 0 0 1
2.854206 -32.225490 13.996534 35.249562 -1.482457 1.162474 0.103198 -0.019628 338025.000000 0 0 1
3.571406 -32.553310 15.196034 36.102526 -1.461524 1.136344 0.093613 -0.016797 -122017.000000 0 0 1
3.501106 -31.497530 16.359034 35.664690 -1.460096 1.094276 0.109095 -0.018460 44122.600000 0 0 1
3.972906 -30.211870 15.948034 34.393035 -1.440045 1.088630 0.107667 -0.030266 869621.000000 0 0 1
5.386006 -30.063230 16.179734 34.562851 -1.393521 1.083629 0.097062 -0.019542 492111.000000 0 0 1
5.965206 -28.790750 15.463434 33.220607 -1.366495 1.086623 0.101007 -0.030911 -79613.700000 0 0 1
6.104306 -28.844520 14.039634 32.655477 -1.362245 1.126379 0.093735 -0.025729 378923.000000 0 0 1
4.838606 -28.895370 13.373334 32.205598 -1.404883 1.142580 0.094147 -0.015034 285351.000000 0 0 1
5.053306 -28.947260 11.814934 31.671319 -1.397968 1.188504 0.091759 -0.022388 55151.500000 0 0 1
5.460206 -30.218110 11.277534 32.712854 -1.392032 1.218831 0.080872 -0.022022 -473939.000000 0 0 1
6.846806 -30.398730 11.166434 33.100616 -1.349260 1.226698 0.086313 -0.020806 -414134.000000 0 0 1
7.172606 -31.776550 10.571334 34.248336 -1.348797 1.257005 0.072724 -0.016833 -129353.000000 0 0 1
6.924806 -32.803990 11.539134 35.457105 -1.362754 1.239320 0.048987 -0.015596 192077.000000 0 0 1
6.895006 33.912558 10.859934 36.270386 1.370213 1.266716 0.046649 -0.011975 41053.700000 0 0 1
6.977106 32.665696 11.871134 35.449281 1.360367 1.229322 0.043874 -0.004127 636870.000000 0 0 1
5.738406 32.432094 12.575034 35.254808 1.395673 1.206074 0.038477 -0.003774 683679.000000 0 0 1
5.612406 31.126949 13.031034 34.208097 1.392406 1.179990 0.051484 0.000423 718898.000000 0 0 1
4.363206 30.951729 13.965634 34.235742 1.430751 1.150615 0.055963 -0.012811 662138.000000 0 0 1
4.647906 31.207999 15.287834 35.060806 1.422950 1.119605 0.066498 -0.014867 -594432.000000 0 0 1
3.503906 31.251859 16.062834 35.312472 1.459144 1.098562 0.093542 -0.020345 -456696.000000 0 0 1
3.816206 31.723819 17.485334 36.423907 1.451077 1.070083 0.107492 -0.020260 -73819.700000 0 0 1
4.222006 33.068233 17.628034 37.710489 1.443808 1.084384 0.114852 -0.021359 -73334.800000 0 0 1
4.856606 33.244235 18.837834 38.517915 1.425734 1.059777 0.104922 -0.019159 -510150.000000 0 0 1
4.961506 -33.304580 19.413234 38.867535 -1.422910 1.047807 0.096075 -0.026413 96772.000000 0 0 1
3.719106 -32.752120 19.799734 38.452082 -1.457728 1.029882 0.096483 -0.028478 -236738.000000 0 0 1
3.819706 -31.811350 20.848334 38.225714 -1.451295 0.993929 0.095259 -0.028746 -668254.000000 0 0 1
2.532406 -31.091530 21.183034 37.706992 -1.489526 0.974260 0.108206 -0.028593 -486870.000000 0 0 1
1.617406 -31.934870 21.858434 38.732971 -1.520193 0.971167 0.120493 -0.023641 -881513.000000 0 0 1
0.478506 -31.284640 22.257434 38.397279 -1.555502 0.952483 0.125669 -0.024431 -567764.000000 0 0 1
-0.668394 -32.173900 22.809234 39.444489 1.550025 0.954200 0.120277 -0.024231 -509103.000000 0 0 1
-1.417994 -32.807460 21.768034 39.397810 1.527602 0.985413 0.108341 -0.025567 419306.000000 0 0 1
-2.308894 -33.838980 22.232834 40.554981 1.502670 0.990568 0.095795 -0.024737 95115.800000 0 0 1
-3.544394 -33.365560 22.987534 40.672473 1.464964 0.970137 0.106771 -0.022833 -1013220.000000 0 0 1
-4.542294 -32.873960 22.133234 39.889970 1.433493 0.982605 0.083515 -0.027760 -286654.000000 0 0 1
-5.732394 -32.517530 22.812634 40.133108 1.396303 0.966207 0.076680 -0.022769 454807.000000 0 0 1
-6.963594 -32.137730 21.931134 39.525940 1.357415 0.982609 0.072110 -0.022827 -89927.200000 0 0 1
-7.664994 -33.277450 21.560434 40.385556 1.344409 1.007631 0.051537 -0.010469 -125821.000000 0 0 1
-8.778194 -32.874480 20.792634 39.876331 1.309863 1.022273 0.065091 -0.025855 748376.000000 0 0 1
-10.006094 -33.827790 20.557834 40.829717 1.283202 1.043149 0.084733 -0.029961 766398.000000 0 0 1
-10.689394 33.826483 21.731534 41.602328 -1.264720 1.021176 0.111245 -0.037604 388406.000000 0 0 1
-12.098594 33.605371 21.601634 41.741197 -1.225223 1.026854 0.117437 -0.032696 1255160.000000 0 0 1
-12.839494 33.271804 22.951734 42.410466 -1.202506 0.998956 0.129529 -0.039481 185126.000000 0 0 1
-13.159294 -33.573430 23.767334 43.188290 1.197244 0.988050 0.132236 -0.038014 750773.000000 0 0 1
-11.968294 -32.988940 24.331534 42.702854 1.222767 0.964550 0.112539 -0.036432 865619.000000 0 0 1
-12.279694 -31.617490 25.021734 42.149066 1.200345 0.935211 0.096758 -0.028729 127500.000000 0 0 1
-13.051494 -31.833760 26.177434 43.231792 1.181708 0.920385 0.109113 -0.028213 -212883.000000 0 0 1
-13.786294 -30.687620 26.456334 42.798709 1.148570 0.904400 0.111799 -0.020667 104112.000000 0 0 1
-14.489194 -30.700950 27.862534 43.918173 1.129843 0.883539 0.115308 -0.020853 247337.000000 0 0 1
-13.584694 -30.281400 28.870034 43.988475 1.149095 0.854880 0.088132 -0.009025 111445.000000 0 0 1
-14.305294 -29.857980 29.974634 44.661159 1.123999 0.835028 0.102973 -0.012573 -255917.000000 0 0 1
-13.488694 -29.445430 31.233134 44.994298 1.141234 0.803547 0.080523 -0.013316 -191780.000000 0 0 1
-14.304994 -28.995880 32.302334 45.703771 1.112486 0.785866 0.082674 -0.015451 187594.000000 0 0 1
-13.627794 -28.594960 33.460834 46.076197 1.126059 0.758009 0.075785 -0.012801 -548704.000000 0 0 1
-12.910994 -29.651450 -33.591148 46.629041 1.160129 2.375162 0.088100 -0.016796 -344517.000000 0 0 1
-11.559494 -29.874990 -33.898248 46.639341 1.201609 2.384472 0.105326 -0.024180 -151893.000000 0 0 1
-11.032094 -30.922380 -33.070448 46.599949 1.228105 2.359822 0.118063 -0.025156 308558.000000 0 0 1
-9.541994 -31.226260 -33.369148 46.686497 1.274232 2.367062 0.123433 -0.030831 214788.000000 0 0 1
-8.628294 -30.302290 -32.789148 45.473118 1.293397 2.376137 0.133757 -0.040427 -623674.000000 0 0 1
-7.364994 -30.890720 -32.901048 45.727002 1.336745 2.373893 0.129108 -0.046584 -600941.000000 0 0 1
-6.336494 -30.258820 -31.961348 44.466562 1.364369 2.372832 0.107819 -0.038797 -261761.000000 0 0 1
-6.672894 -30.411820 -30.563248 43.629330 1.354801 2.346923 0.128664 -0.047634 -512923.000000 0 0 1
-5.758494 -29.741970 -29.786548 42.485097 1.379548 2.347743 0.107294 -0.039572 -421477.000000 0 0 1
-6.103194 -29.689860 -28.301848 41.469644 1.368056 2.321935 0.097428 -0.037383 -98116.500000 0 0 1
-5.863894 -30.948770 -27.631348 41.901110 1.383545 2.290872 0.094134 -0.032291 303298.000000 0 0 1
-6.701894 -31.082000 -26.468648 41.371433 1.358428 2.265009 0.110924 -0.037284 346103.000000 0 0 1
-6.505194 -32.388890 -25.635748 41.815659 1.372587 2.230732 0.106763 -0.032265 612195.000000 0 0 1
-5.443594 -32.327800 -24.672648 41.029976 1.403974 2.215964 0.077544 -0.032554 327529.000000 0 0 1
-5.338094 -33.470140 -23.835048 41.434949 1.412640 2.183694 0.099883 -0.039451 208094.000000 0 0 1
-4.287594 -33.329840 -22.686748 40.545656 1.442858 2.164622 0.095163 -0.045508 279157.000000 0 0 1
-4.686594 -32.601340 -21.516848 39.341915 1.428020 2.149476 0.116728 -0.039666 102772.000000 0 0 1
-4.989894 -31.200900 -21.779948 38.376573 1.412211 2.174302 0.084308 -0.028150 -353532.000000 0 0 1
-5.579494 -30.532330 -20.564148 37.232219 1.390050 2.155943 0.126102 -0.041998 369065.000000 0 0 1
-7.004094 -30.756450 -20.379348 37.554419 1.346887 2.144399 0.135470 -0.052197 1281080.000000 0 0 1
-7.605294 -29.483670 -20.135448 36.504295 1.318350 2.155067 0.147692 -0.057111 -11922.500000 0 0 1
-7.746394 -28.542360 -21.371948 36.488808 1.305780 2.196555 0.154590 -0.062561 -687945.000000 0 0 1
-6.549394 -27.881180 -21.765648 35.972186 1.340076 2.220649 0.156790 -0.044269 -98758.200000 0 0 1
-6.702394 -26.891390 -22.768048 35.867157 1.326534 2.258531 0.175915 -0.054673 -849246.000000 0 0 1
-5.625394 -27.115500 -23.850948 36.548093 1.366238 2.281795 0.148365 -0.049373 594759.000000 0 0 1
-4.270494 -26.761270 -23.648048 35.967108 1.412553 2.288280 0.129904 -0.042635 428350.000000 0 0 1
-3.623894 -27.223040 -22.463348 35.479973 1.438456 2.256383 0.076373 -0.034448 -1625720.000000 0 0 1
-2.095194 -27.233140 -22.569548 35.431882 1.494012 2.261376 0.061243 -0.032589 -60856.200000 0 0 1
-1.445594 -25.973190 -22.849048 34.623335 1.515197 2.291525 0.064153 -0.037372 160457.000000 0 0 1
-1.402194 -25.078550 -21.768348 33.237942 1.514942 2.284879 0.079652 -0.042226 -854399.000000 0 0 1
-1.091694 -23.588950 -22.239348 32.437925 1.524549 2.326220 0.076880 -0.040794 50394.500000 0 0 1
-1.983594 -22.971050 -23.179548 32.693963 1.484658 2.358855 0.124983 -0.043880 748605.000000 0 0 1
-3.340994 -22.800850 -22.762448 32.390894 1.425302 2.350041 0.125264 -0.045473 278413.000000 0 0 1
-4.331594 -22.418450 -23.864048 33.027903 1.379933 2.378269 0.125766 -0.048335 -197308.000000 0 0 1
-4.395694 -21.081050 -24.266448 32.443694 1.365228 2.415773 0.125243 -0.034655 219715.000000 0 0 1
-5.049194 -20.867850 -25.532348 33.359591 1.333399 2.442409 0.166602 -0.044950 -59213.900000 0 0 1
-4.366294 -21.485450 -26.805348 34.629695 1.370306 2.456020 0.128103 -0.028028 -220578.000000 0 0 1
-5.101394 -21.487350 -27.993348 35.656107 1.337698 2.473642 0.126842 -0.032969 6344.610000 0 0 1
-4.340394 -21.943250 -29.070548 36.680267 1.375516 2.485758 0.136886 -0.031432 376739.000000 0 0 1
-5.418394 -22.112250 -30.176548 37.801252 1.330491 2.495255 0.141769 -0.041091 418152.000000 0 0 1
-5.792094 -21.012050 -30.882848 37.799536 1.301821 2.527014 0.132287 -0.044494 -596482.000000 0 0 1
-6.762494 -21.386150 -31.799448 38.914054 1.264536 2.527283 0.120399 -0.044010 -687718.000000 0 0 1
-6.843294 -20.540250 -33.121248 39.569554 1.249197 2.562645 0.102257 -0.031206 341887.000000 0 0 1
-5.701794 -20.635250 33.891134 40.086569 1.301210 0.563392 0.103393 -0.038209 -71296.300000 0 0 1
-6.115094 -20.295850 32.590734 38.877652 1.278149 0.576658 0.096653 -0.034802 629369.000000 0 0 1
-5.054194 -20.549050 31.473134 37.925803 1.329626 0.591938 0.100194 -0.039005 -898742.000000 0 0 1
-5.068694 -21.958150 31.185834 38.476074 1.343936 0.625748 0.092223 -0.037758 898278.000000 0 0 1
-3.971194 -22.391250 30.329034 37.907635 1.395267 0.643372 0.093135 -0.033077 2538080.000000 0 0 1
-2.479994 -22.132850 30.852334 38.051018 1.459211 0.625253 0.088241 -0.036977 551156.000000 0 0 1
-2.074194 -20.791350 30.756534 37.182616 1.471363 0.596734 0.105136 -0.036914 -14271.700000 0 0 1
-0.860394 -20.454250 31.417434 37.498957 1.528757 0.577516 0.112166 -0.038448 132526.000000 0 0 1
-1.018094 -20.125350 32.920934 38.598629 1.520252 0.549273 0.095504 -0.037135 -191874.000000 0 0 1
-1.823394 -18.968850 33.013134 38.118356 1.474965 0.523511 0.093125 -0.031036 -2868.900000 0 0 1
-2.343494 -18.804550 -33.518548 38.504495 1.446812 2.627034 0.099444 -0.035163 -162834.000000 0 0 1
-3.442694 -17.753650 -33.465748 38.039460 1.379259 2.646162 0.120246 -0.045136 -167818.000000 0 0 1
-2.989694 -16.367150 -33.650348 37.538884 1.390124 2.682406 0.100650 -0.034470 -633455.000000 0 0 1
-4.038094 -15.490250 -33.714048 37.321456 1.315786 2.698295 0.108024 -0.036208 -592395.000000 0 0 1
-3.529894 -14.027250 -33.917448 36.872987 1.324270 2.738483 0.114328 -0.042888 -58013.300000 0 0 1
-2.865094 -13.531050 -32.742848 35.544229 1.362136 2.741914 0.105845 -0.040371 2903.810000 0 0 1
-2.653194 -12.136050 -32.717748 34.996774 1.355562 2.778714 0.101057 -0.037814 382816.000000 0 0 1
-1.755994 -11.496250 -33.870548 35.811469 1.419223 2.810851 0.098351 -0.040564 -79269.400000 0 0 1
-2.404994 -11.496650 32.692834 34.738716 1.364579 0.344908 0.106411 -0.034166 -3972.660000 0 0 1
-1.689194 -10.900950 31.618534 33.487547 1.417061 0.335676 0.104929 -0.031950 506904.000000 0 0 1
-0.696594 -11.960650 30.991334 33.226574 1.512622 0.368892 0.095203 -0.035640 319966.000000 0 0 1
-1.420094 -12.958050 30.326334 33.009306 1.461640 0.405968 0.094462 -0.035077 -14305.400000 0 0 1
-0.664494 -14.112150 30.051334 33.206581 1.523744 0.439461 0.094531 -0.041707 -226847.000000 0 0 1
-1.316494 -15.342950 30.722234 34.365607 1.485201 0.464642 0.093532 -0.034169 267219.000000 0 0 1
-2.355494 -15.896550 29.932734 33.973773 1.423690 0.492710 0.094915 -0.035825 -35407.400000 0 0 1
-2.964494 -16.956250 30.524234 35.043281 1.397714 0.513473 0.091467 -0.035332 -601870.000000 0 0 1
-2.991994 -18.114650 29.501334 34.747968 1.407104 0.556690 0.084846 -0.021397 178193.000000 0 0 1
-3.857194 -17.913450 28.355634 33.761096 1.358711 0.573714 0.068126 -0.017882 337554.000000 0 0 1
-3.997094 -19.116650 27.661334 33.861076 1.364676 0.614769 0.079413 -0.022542 -70277.500000 0 0 1
-4.947294 -19.137450 26.477434 33.041977 1.317821 0.641286 0.066376 -0.027110 -803164.000000 0 0 1
-5.538694 -20.342050 26.142434 33.584267 1.304962 0.678662 0.068759 -0.025332 -233707.000000 0 0 1
-4.673794 -21.292050 25.550434 33.586015 1.354715 0.706334 0.100046 -0.031587 -180845.000000 0 0 1
-30.218014 -33.772448 -0.683966 45.323001 0.840887 1.585888 0.063680 -0.011179 -35178.100000 0 0 1
-29.813944 -32.502648 -0.227066 44.106065 0.828517 1.575945 0.065331 -0.010225 53489.800000 0 0 1
-30.138714 -32.402648 1.131034 44.266838 0.821581 1.545243 0.054657 0.002156 -365548.000000 0 0 1
-29.485254 -31.156348 1.721934 42.930913 0.812948 1.530676 0.071572 -0.004550 -367425.000000 0 0 1
-28.087294 -31.178948 1.717334 41.999668 0.837516 1.529896 0.080277 -0.012829 -640220.000000 0 0 1
-27.597724 -29.877048 2.041034 40.723927 0.825035 1.520657 0.092300 -0.013998 -214045.000000 0 0 1
-26.098434 -29.704548 2.222034 39.603357 0.849931 1.514660 0.095448 -0.015781 -357656.000000 0 0 1
-25.414444 -30.380848 3.251334 39.742434 0.874175 1.488895 0.078338 -0.006366 668655.000000 0 0 1
-23.999094 -30.131448 3.162234 38.650490 0.898205 1.488889 0.078005 -0.004843 713263.000000 0 0 1
-23.305994 -30.786548 4.354934 38.858028 0.922818 1.458487 0.068076 -0.012739 -514398.000000 0 0 1
-23.371894 -30.001248 5.510934 38.427734 0.908973 1.426890 0.057423 -0.008817 226771.000000 0 0 1
-22.685394 -30.583848 6.633934 38.652399 0.932600 1.398312 0.045179 -0.005982 -70331.800000 0 0 1
-23.282494 -30.265248 7.999534 39.013489 0.915069 1.364286 0.035913 0.002792 -188756.000000 0 0 1
-22.813194 -29.001448 8.545834 37.875548 0.904266 1.343207 0.033224 -0.003839 720749.000000 0 0 1
-23.573594 -28.696348 9.736834 38.392717 0.883092 1.314384 0.017188 -0.005281 620697.000000 0 0 1
-22.883194 -27.494048 10.447834 37.265540 0.876670 1.286625 0.017832 -0.004989 850463.000000 0 0 1
-21.595894 -27.774948 10.993734 36.860447 0.909907 1.267935 0.006674 -0.011445 109785.000000 0 0 1
-21.121094 -26.614648 11.717734 35.940860 0.899977 1.238697 0.025067 -0.014364 507461.000000 0 0 1
-19.790494 -27.005848 12.426434 35.712684 0.938380 1.215407 0.030195 -0.016633 119862.000000 0 0 1
-19.915694 -27.891748 13.554734 36.855330 0.950713 1.194173 0.035130 -0.015319 316981.000000 0 0 1
-18.684994 -28.015348 14.293834 36.582816 0.982594 1.169377 0.046750 -0.018390 712749.000000 0 0 1
-18.684794 -29.105548 15.390734 37.856693 1.000089 1.152119 0.078205 -0.025107 -16754.100000 0 0 1
-18.644594 -30.378548 14.742934 38.572415 1.020334 1.178605 0.066239 -0.022919 -52268.600000 0 0 1
-18.602394 -31.436148 15.638534 39.734673 1.036464 1.166280 0.079982 -0.021797 142956.000000 0 0 1
-18.450394 -32.843848 14.990134 40.544291 1.058968 1.192086 0.065672 -0.026486 101885.000000 0 0 1
-18.001394 -33.704748 15.998034 41.424598 1.080250 1.174292 0.090168 -0.028381 79444.500000 0 0 1
-17.822394 32.976350 15.367634 40.512240 -1.075307 1.181721 0.068655 -0.024197 -74727.200000 0 0 1
-17.710994 31.830050 16.376234 39.937607 -1.063035 1.148292 0.078853 -0.029647 -22813.600000 0 0 1
-18.886794 31.562950 17.115134 40.569183 -1.031565 1.135284 0.087874 -0.036934 51116.200000 0 0 1
-18.786394 30.456450 18.004134 40.058368 -1.018095 1.104650 0.058534 -0.027018 107823.000000 0 0 1
-19.814294 30.537150 19.147234 41.130772 -0.995224 1.086573 0.075287 -0.037805 -3018.400000 0 0 1
-19.293094 31.360950 20.169534 41.982649 -1.019279 1.069657 0.082122 -0.044342 -377358.000000 0 0 1
-20.155794 31.572050 21.214334 43.047629 -1.002615 1.055479 0.083240 -0.036629 -594978.000000 0 0 1
-19.868194 32.896150 21.978134 44.271212 -1.027465 1.051300 0.075004 -0.031410 -432257.000000 0 0 1
-18.632894 32.760750 22.594734 43.942844 -1.053667 1.030740 0.067539 -0.037832 -779560.000000 0 0 1
-18.664894 33.302650 23.899134 45.040131 -1.059956 1.011466 0.058959 -0.036978 -62478.200000 0 0 1
-19.472894 32.514550 24.989934 45.396987 -1.031188 0.987862 0.060839 -0.032713 818413.000000 0 0 1
-20.827394 32.981250 24.908534 46.281511 -1.007542 1.002501 0.064161 -0.033762 353195.000000 0 0 1
-21.770694 32.146750 25.565534 46.486269 -0.975517 0.988481 0.050917 -0.029664 1042770.000000 0 0 1
-23.246794 32.348450 25.080834 47.073176 -0.947671 1.008884 0.054221 -0.046510 342578.000000 0 0 1
-23.317694 31.960050 23.698234 46.116873 -0.940487 1.031102 0.054733 -0.029684 -146407.000000 0 0 1
-24.635594 31.820050 23.250534 46.475966 -0.911976 1.046886 0.044882 -0.031260 -352077.000000 0 0 1
-24.654494 31.523550 21.733234 45.540221 -0.907067 1.073295 0.036124 -0.037869 7455.160000 0 0 1
-24.271894 32.620250 20.933334 45.731937 -0.931098 1.095345 0.038907 -0.042004 -108687.000000 0 0 1
-23.940194 32.108550 19.668234 44.619854 -0.930116 1.114312 0.017243 -0.022986 -46140.500000 0 0 1
-23.267194 33.047650 18.621334 44.500153 -0.957357 1.139052 0.018868 -0.016174 -467043.000000 0 0 1
-22.028994 33.487750 19.075334 44.391152 -0.988942 1.126624 0.048605 -0.024967 -329641.000000 0 0 1
-21.309394 -33.735248 18.068334 43.802077 1.007418 1.145600 0.065765 -0.016881 747069.000000 0 0 1
-20.087394 -32.992248 18.659334 42.897116 1.023893 1.120782 0.083388 -0.031215 124868.000000 0 0 1
-20.525194 -31.836448 19.326434 42.524747 0.998151 1.099014 0.090087 -0.034207 -202272.000000 0 0 1
-19.490894 -31.233948 20.011734 41.903747 1.012895 1.072916 0.093088 -0.040244 -639493.000000 0 0 1
-20.035394 -30.351348 21.158734 42.075092 0.987343 1.043868 0.084771 -0.029751 -20500.100000 0 0 1
-20.622294 -29.178848 20.684534 41.286004 0.955551 1.046036 0.087311 -0.027244 95785.700000 0 0 1
-20.912594 -28.275348 21.731734 41.341265 0.933981 1.017297 0.105078 -0.022698 -242510.000000 0 0 1
-21.697994 -27.070048 21.216434 40.666049 0.895111 1.021926 0.091400 -0.028310 -141005.000000 0 0 1
-20.900394 -26.090448 20.523534 39.226948 0.895401 1.020195 0.079010 -0.012812 561321.000000 0 0 1
-21.660094 -24.989448 20.090434 38.694415 0.856647 1.024873 0.070178 0.011248 -609643.000000 0 0 1
-22.679894 -25.137848 18.976134 38.812146 0.836756 1.059942 0.051425 0.004465 -214899.000000 0 0 1
-23.982494 -25.387348 19.473234 39.986052 0.813846 1.062144 0.053589 0.006900 -140027.000000 0 0 1
-24.918094 -25.296548 18.417434 40.000358 0.792935 1.092315 0.045349 0.012673 1051190.000000 0 0 1
-26.423654 -25.584448 18.843234 41.326033 0.769264 1.097340 0.032199 0.010702 1352110.000000 0 0 1
-26.798674 -26.939148 19.174334 42.562210 0.788012 1.103469 0.025361 0.003380 -19145.000000 0 0 1
-26.949804 -27.748048 17.985034 42.658031 0.799991 1.135577 0.027540 -0.003311 -289766.000000 0 0 1
-27.608754 -29.141048 18.384134 44.152241 0.812392 1.141336 0.033022 -0.014959 1279620.000000 0 0 1
-28.999114 -29.002548 18.740434 45.092131 0.785457 1.142190 0.031814 -0.019730 1094290.000000 0 0 1
-29.879904 -29.311448 17.648434 45.425069 0.775795 1.171774 0.029008 -0.018172 -39368.000000 0 0 1
-31.337974 -28.860748 17.776934 46.163089 0.744271 1.175491 0.034923 -0.022499 -51104.100000 0 0 1
-31.504014 -27.506348 17.704234 45.415218 0.717756 1.170349 0.051764 -0.018162 -487150.000000 0 0 1
-32.855164 -27.241048 17.964634 46.306205 0.692250 1.172387 0.082724 -0.006406 -519044.000000 0 0 1
-33.494624 -26.103348 17.150634 45.797586 0.662009 1.186952 0.086831 -0.016775 -319045.000000 0 0 1
-33.720824 -26.252348 15.740334 45.541606 0.661506 1.217891 0.108311 -0.042156 -96603.100000 0 0 1
-34.262072 -25.042348 15.271834 45.102524 0.631168 1.225365 0.127337 -0.037870 -95796.100000 0 0 1
-33.296754 -23.952148 14.714734 43.576400 0.623597 1.226349 0.118306 -0.035989 512561.000000 0 0 1
-32.401474 -23.327248 15.659734 42.886400 0.623986 1.197008 0.095842 -0.025064 325045.000000 0 0 1
-32.011504 -22.041448 15.293734 41.766735 0.602998 1.195906 0.091291 -0.023509 -167954.000000 0 0 1
-33.047134 -20.873948 15.415834 42.017648 0.563361 1.195133 0.100484 -0.025825 3861.300000 0 0 1
-33.421114 -20.599248 16.775134 42.693150 0.552358 1.166988 0.087448 -0.025222 64732.500000 0 0 1
-34.518185 -19.735048 16.914334 43.209628 0.519373 1.168591 0.093646 -0.033410 -28751.400000 0 0 1
-34.840417 -19.393748 18.404134 43.916788 0.507931 1.138377 0.083657 -0.008414 69635.300000 0 0 1
-35.886355 -20.169648 18.968834 45.326172 0.512042 1.139007 0.089722 -0.013362 292938.000000 0 0 1
-36.012780 -19.804348 20.329134 45.852004 0.502786 1.111448 0.077824 -0.003381 -409847.000000 0 0 1
36.986455 -19.726348 20.818834 46.803318 -0.489962 1.109828 0.092994 -0.016742 43650.800000 0 0 1
36.228505 -20.902748 21.153934 46.871296 -0.523313 1.102553 0.106027 -0.021923 139394.000000 0 0 1
36.818665 -21.748448 22.114034 48.141870 -0.533546 1.093531 0.080144 -0.016366 -171309.000000 0 0 1
35.918855 -22.909848 22.703034 48.274767 -0.567767 1.081179 0.097763 -0.013937 105605.000000 0 0 1
34.991025 -22.620548 23.713134 47.941358 -0.573888 1.053390 0.103276 -0.023007 -129096.000000 0 0 1
34.594805 -23.875148 24.234534 48.519439 -0.604076 1.047797 0.090688 -0.020907 -239656.000000 0 0 1
33.609875 -23.825548 25.425234 48.412013 -0.616664 1.017865 0.091897 -0.021161 -630.428000 0 0 1
32.285115 -23.531448 25.055234 47.157423 -0.629836 1.010650 0.091138 -0.019557 232650.000000 0 0 1
31.422795 -23.743448 26.202934 47.304727 -0.647083 0.983734 0.054190 -0.016682 747268.000000 0 0 1
30.064575 -24.440548 25.902034 46.606164 -0.682579 0.981514 0.056440 -0.021415 351327.000000 0 0 1
29.150865 -23.630248 25.196934 45.200078 -0.681183 0.979481 0.067681 -0.020297 605053.000000 0 0 1
27.902465 -24.296548 24.916034 44.605814 -0.716428 0.978120 0.068644 -0.019255 836656.000000 0 0 1
26.772865 -23.360948 24.438634 43.125017 -0.717447 0.968310 0.083583 -0.020436 -284554.000000 0 0 1
26.867265 -22.756748 23.157834 42.142672 -0.702754 0.989018 0.071427 -0.011064 223054.000000 0 0 1
27.997665 -21.902648 22.980434 42.328426 -0.663856 0.996901 0.078165 -0.009484 395330.000000 0 0 1
27.919465 -21.246648 21.596734 41.198732 -0.650503 1.019011 0.081713 -0.014142 -298281.000000 0 0 1
27.111465 -20.131848 21.600034 40.085962 -0.638721 1.001733 0.079391 -0.014596 -396182.000000 0 0 1
27.101465 -19.600748 20.311534 39.131026 -0.626151 1.025040 0.067348 -0.010347 -48898.600000 0 0 1
25.969365 -18.561548 20.180034 37.764703 -0.620555 1.007043 0.049466 -0.004296 -79814.700000 0 0 1
26.252665 -17.381848 20.874934 37.776897 -0.584833 0.985334 0.047199 -0.019806 105450.000000 0 0 1
25.784365 -17.430148 22.230934 38.247327 -0.594434 0.950543 0.051892 -0.013608 -234563.000000 0 0 1
26.155265 -16.295348 23.184634 38.563760 -0.557177 0.925791 0.049277 -0.012237 -38684.400000 0 0 1
25.519665 -15.080548 22.780234 37.384694 -0.533730 0.915560 0.036032 -0.011303 -146399.000000 0 0 1
25.598565 -14.024748 23.658434 37.572618 -0.501208 0.889665 0.034483 -0.008754 -619756.000000 0 0 1
24.412765 -13.067648 23.653734 36.417656 -0.491471 0.863853 0.036308 -0.011505 199360.000000 0 0 1
23.226465 -13.682248 24.162534 36.200838 -0.532351 0.840007 0.035776 -0.011180 -212847.000000 0 0 1
22.144265 -12.806948 24.095834 35.142505 -0.524342 0.815285 0.039275 -0.018873 -423554.000000 0 0 1
20.803165 -13.428648 24.512634 34.842066 -0.573212 0.790436 0.048088 -0.014011 -75615.900000 0 0 1
20.284965 -14.299148 23.521934 34.193959 -0.614016 0.812208 0.062266 -0.024116 67609.000000 0 0 1
18.915865 -14.614148 23.711834 33.669487 -0.657801 0.789426 0.059439 -0.025120 94800.400000 0 0 1
18.367965 -15.702948 22.832734 33.246030 -0.707337 0.813746 0.080879 -0.017955 -269994.000000 0 0 1
18.927965 -17.012048 23.015034 34.312818 -0.732140 0.835588 0.072521 -0.012278 208567.000000 0 0 1
18.383565 -18.014048 22.127734 33.942570 -0.775246 0.860687 0.090470 -0.012089 56667.100000 0 0 1
18.831365 -19.406548 22.640234 35.267757 -0.800439 0.873754 0.074663 0.000529 3555.770000 0 0 1
18.223165 -19.704348 23.916234 35.949011 -0.824431 0.842925 0.077611 0.005813 465988.000000 0 0 1
18.440465 -21.014248 24.422334 37.122767 -0.850540 0.852796 0.083328 0.008303 -241847.000000 0 0 1
17.809965 -22.191848 23.621834 36.981942 -0.894505 0.877937 0.073991 0.000298 136562.000000 0 0 1
18.544465 -22.586548 22.463434 36.859941 -0.883357 0.915459 0.072068 0.010536 572445.000000 0 0 1
19.687965 -23.415648 22.736334 38.116263 -0.871665 0.931664 0.084476 0.002636 313859.000000 0 0 1
20.464565 -23.729048 21.402434 37.946414 -0.859132 0.971554 0.079959 0.007845 210537.000000 0 0 1
19.803265 -24.556148 20.456634 37.598506 -0.892136 0.995503 0.071178 -0.001238 716507.000000 0 0 1
20.777065 -24.856848 19.420534 37.771769 -0.874564 1.030774 0.068562 -0.004762 765652.000000 0 0 1
20.265365 -25.687448 18.240934 37.460135 -0.902848 1.062210 0.057940 -0.004904 181222.000000 0 0 1
19.720665 -26.998448 18.527734 38.224309 -0.939934 1.064764 0.061416 -0.013289 402105.000000 0 0 1
18.944465 -27.512348 17.440634 37.682858 -0.967776 1.089615 0.062256 -0.021315 -12869.300000 0 0 1
18.125865 -28.726748 17.842534 38.368335 -1.007912 1.087125 0.060723 -0.018075 -166398.000000 0 0 1
17.022565 -28.436448 18.659634 38.033949 -1.031394 1.058013 0.067933 -0.021511 95654.000000 0 0 1
16.321665 -29.573548 19.247234 38.877340 -1.066495 1.052874 0.066201 -0.027152 497378.000000 0 0 1
15.097465 -29.039848 20.035034 38.375107 -1.091365 1.021504 0.058694 -0.019106 1004290.000000 0 0 1
14.066865 -28.510648 19.159734 37.119122 -1.112451 1.028425 0.071673 -0.020783 647128.000000 0 0 1
12.816165 -28.155148 19.729334 36.690777 -1.143628 1.003067 0.059513 -0.020445 319712.000000 0 0 1
11.885865 -27.631548 18.639234 35.386400 -1.164567 1.016042 0.061332 -0.028658 -552577.000000 0 0 1
11.475465 -28.627048 17.697434 35.558310 -1.189548 1.049849 0.064988 -0.035785 31960.900000 0 0 1
11.118665 -28.037748 16.496534 34.378419 -1.193258 1.070311 0.065170 -0.037093 -202802.000000 0 0 1
10.827765 -29.058948 15.365234 34.608574 -1.214119 1.110770 0.070844 -0.033492 56619.900000 0 0 1
9.662965 -29.828148 15.607834 35.024218 -1.257510 1.108919 0.072017 -0.029784 28450.900000 0 0 1
9.470965 -30.646948 14.505634 35.204376 -1.271072 1.146104 0.061377 -0.022006 -480982.000000 0 0 1
8.236565 -31.515148 14.580834 35.688182 -1.315162 1.149918 0.050207 -0.017992 -863779.000000 0 0 1
8.392765 -32.537648 15.522634 37.014717 -1.318359 1.138052 0.057313 -0.022226 -355876.000000 0 0 1
7.517765 -33.605948 15.306534 37.685097 -1.350716 1.152538 0.060586 -0.017565 -212837.000000 0 0 1
7.691965 33.152450 16.260634 37.718159 1.342812 1.125075 0.069144 -0.019520 244644.000000 0 0 1
8.815965 32.316350 16.018834 37.130456 1.304475 1.124730 0.071216 -0.023570 -91221.600000 0 0 1
8.803865 31.216850 16.925834 36.585293 1.295913 1.089825 0.082083 -0.023601 181588.000000 0 0 1
10.133065 30.425950 16.901934 36.250419 1.249310 1.085744 0.063464 -0.031985 51128.900000 0 0 1
10.430365 29.690750 15.775234 35.202148 1.232964 1.106121 0.079391 -0.026694 821600.000000 0 0 1
11.786765 29.185350 15.874334 35.252050 1.186968 1.103684 0.074795 -0.032509 1219200.000000 0 0 1
12.369965 28.411550 14.656234 34.278819 1.160162 1.129005 0.062326 -0.024680 263869.000000 0 0 1
11.789265 27.101950 14.502734 32.921601 1.160489 1.114615 0.070610 -0.032581 417263.000000 0 0 1
12.450565 26.413850 13.418634 32.136705 1.130318 1.140051 0.079945 -0.025112 61644.800000 0 0 1
-9.204294 -9.264850 19.436717 23.416713 0.788677 0.591624 0.077683 -0.024855 126311.000000 0 1 0
-9.505694 -9.235550 18.040317 22.385411 0.770985 0.633609 0.077834 -0.027073 18796.600000 0 1 0
-9.239594 -10.500350 17.375317 22.305360 0.849180 0.677767 0.081779 -0.040083 -25537.400000 0 1 0
-9.804794 -10.578250 15.953517 21.506931 0.823326 0.735068 0.086513 -0.038465 1228230.000000 0 1 0
-11.256194 -10.680850 15.943717 22.248249 0.759177 0.771841 0.099502 -0.036513 1350650.000000 0 1 0
-11.778194 -11.083850 14.691817 21.850105 0.755036 0.833362 0.097496 -0.031898 150763.000000 0 1 0
-11.844194 -12.597050 14.480917 22.553659 0.816191 0.873607 0.086754 -0.031066 136477.000000 0 1 0
-10.551094 -13.134650 14.172117 22.015756 0.894045 0.871439 0.085514 -0.030062 557564.000000 0 1 0
-10.460794 -14.550350 14.155617 22.836865 0.947473 0.902234 0.095810 -0.033139 115392.000000 0 1 0
-10.169894 -15.227450 15.524917 24.006770 0.981964 0.867561 0.104142 -0.032622 16518.200000 0 1 0
-11.285494 -15.072050 16.360717 24.943980 0.928083 0.855424 0.115300 -0.028984 -314537.000000 0 1 0
-10.964894 -15.418250 17.705217 25.911890 0.952617 0.818543 0.127671 -0.030807 -71857.900000 0 0 1
-12.171694 -15.140050 18.641617 26.923617 0.893657 0.806001 0.105502 -0.034654 -171793.000000 0 0 1
-12.364994 -13.738350 18.713617 26.302753 0.837962 0.779209 0.122427 -0.034310 -117405.000000 0 0 1
-13.287694 -13.257250 17.772117 25.848900 0.784251 0.812702 0.114731 -0.037041 331598.000000 0 0 1
-14.819894 -13.360750 18.097517 26.938059 0.733666 0.834134 0.086498 -0.031955 525990.000000 0 0 1
-15.339694 -14.656050 18.460017 28.122557 0.762611 0.854742 0.094289 -0.019865 -223740.000000 0 0 1
-16.366094 -14.489650 19.407717 29.231121 0.724660 0.844721 0.098445 -0.023325 -325317.000000 0 0 1
-16.813294 -15.841650 19.920017 30.503308 0.755652 0.859199 0.084114 -0.006457 40864.100000 0 0 1
-17.734694 -16.421450 18.990817 30.738161 0.746969 0.904822 0.073612 -0.002983 274500.000000 0 0 1
-18.009994 -17.762250 19.395317 31.875315 0.778473 0.916659 0.054627 -0.005979 -230134.000000 0 0 1
-19.156594 -18.389650 18.584617 32.412070 0.764974 0.960164 0.053284 0.001386 -380394.000000 0 0 1
-18.981294 -18.509650 17.169017 31.585943 0.772819 0.996118 0.054627 0.004011 -144280.000000 0 0 1
-19.490294 -17.426450 16.490017 30.910732 0.729551 1.008096 0.056491 0.006470 -472327.000000 0 0 1
-19.237294 -17.541550 14.974717 30.033674 0.739324 1.048816 0.058404 -0.005914 -194379.000000 0 0 1
-19.737594 -18.708250 14.360117 30.753604 0.758631 1.084968 0.063585 -0.009257 28256.500000 0 0 1
-19.468294 -18.646550 12.987517 29.922966 0.763842 1.121833 0.072605 -0.018143 168162.000000 0 0 1
-19.804794 -19.906650 12.184817 30.610036 0.787963 1.161389 0.091459 -0.020973 -577535.000000 0 0 1
-18.933794 -20.877450 12.573617 30.861826 0.834181 1.151173 0.075317 -0.012793 -639721.000000 0 0 1
-19.082894 -22.116150 11.892317 31.538994 0.858890 1.184169 0.058416 -0.009492 -193872.000000 0 0 1
-18.224394 -23.312050 12.448117 32.101960 0.907278 1.172587 0.048840 -0.004849 195689.000000 0 0 1
-18.335194 -24.470750 11.656517 32.724170 0.927763 1.206593 0.053501 -0.024604 111566.000000 0 0 1
-17.496294 -24.435350 10.512217 31.838865 0.949397 1.234313 0.053274 -0.024489 -377432.000000 0 0 1
-17.866094 -25.599550 9.556517 32.647531 0.961477 1.273728 0.055532 -0.023711 1286510.000000 0 0 1
-19.165094 -25.396950 8.911717 33.041256 0.924344 1.297699 0.048550 -0.024069 1003550.000000 0 0 1
-19.289694 -26.385260 7.931217 33.632996 0.939515 1.332738 0.060332 -0.024042 984025.000000 0 0 1
-20.666494 -26.236620 7.177217 34.161040 0.903603 1.359120 0.062565 -0.023598 915297.000000 0 0 1
-20.667994 -24.996550 6.496417 33.078647 0.879906 1.373118 0.083770 -0.031353 467857.000000 0 0 1
-21.741994 -24.943950 5.535417 33.549304 0.853876 1.405045 0.095178 -0.030351 521287.000000 0 0 1
-21.687994 -23.647750 4.692017 32.428385 0.828599 1.425598 0.095097 -0.030622 -273441.000000 0 0 1
-22.739094 -23.503550 3.787217 32.921517 0.801928 1.455503 0.104881 -0.028450 -252158.000000 0 0 1
-22.598394 -22.324850 3.007817 31.908201 0.779309 1.476391 0.101891 -0.023759 100339.000000 0 0 1
-23.102494 -22.406050 1.553817 32.220655 0.770096 1.522553 0.083308 -0.024390 -223566.000000 0 0 1
-22.365294 -23.258050 0.738717 32.275206 0.804964 1.547906 0.095486 -0.022843 -57024.200000 0 0 1
-22.656094 -22.993850 -0.616983 32.286164 0.792797 1.589907 0.088153 -0.022347 -35766.600000 0 0 1
-21.883194 -23.855150 -1.670383 32.415005 0.828485 1.622350 0.092560 -0.021546 582344.000000 0 0 1
-20.464694 -23.644350 -1.682583 31.315971 0.857360 1.624551 0.104403 -0.018820 557451.000000 0 0 1
-19.788794 -24.215250 -2.756783 31.393861 0.885653 1.658722 0.091803 -0.013165 -10103.600000 0 0 1
-19.420994 -25.703760 -2.707083 32.329345 0.923740 1.654629 0.097772 -0.015175 395883.000000 0 0 1
-20.559094 -26.567530 -2.816983 33.711205 0.912210 1.654456 0.127643 -0.019080 429021.000000 0 0 1
-20.053194 -27.793960 -3.233183 34.425111 0.945790 1.664854 0.121288 -0.011115 91857.200000 0 0 1
-21.117994 -28.668550 -3.911883 35.821198 0.935910 1.680220 0.130411 -0.019418 -85298.300000 0 0 1
-21.682294 -28.153840 -5.080583 35.896697 0.914532 1.712807 0.116268 -0.008886 -22872.200000 0 0 1
-22.317194 -29.194980 -5.817283 37.205440 0.918131 1.727796 0.113996 -0.022887 -171761.000000 0 0 1
-22.934694 -28.723710 -7.153183 37.446224 0.896996 1.763003 0.097347 0.009817 -384610.000000 0 0 1
-21.989694 -28.403720 -8.143683 36.832560 0.911997 1.793739 0.113204 0.008220 -169821.000000 0 0 1
-22.399694 -28.320210 -9.482683 37.332316 0.901602 1.827618 0.107579 0.006375 -258792.000000 0 0 1
-23.269394 -27.121580 -9.928483 37.089346 0.861696 1.841792 0.095352 0.010679 212608.000000 0 0 1
-22.577494 -25.913140 -10.301783 35.879810 0.854079 1.862014 0.088729 0.007272 181542.000000 0 0 1
-22.168494 -25.042750 -9.265883 34.705014 0.846204 1.841064 0.082164 0.007753 -79918.000000 0 0 1
-21.925594 -23.632550 -9.754983 33.680688 0.822848 1.864638 0.067112 -0.003895 99363.600000 0 0 1
-23.100694 -22.898250 -10.053683 34.044800 0.780997 1.870574 0.083370 -0.008531 423342.000000 0 0 1
-22.763594 -21.497850 -10.243483 32.943401 0.756809 1.886980 0.092029 -0.002726 923064.000000 0 0 1
-24.059194 -20.615850 -10.357483 33.333699 0.708475 1.886748 0.106044 -0.005268 693764.000000 0 0 1
-24.840894 -20.681150 -11.568083 34.330752 0.694273 1.914482 0.093003 0.006898 1294340.000000 0 0 1
-26.062664 -19.916350 -11.560583 34.778880 0.652509 1.909646 0.103574 0.001958 715804.000000 0 0 1
-25.895024 -18.352550 -11.621183 33.799708 0.616560 1.921783 0.116256 -0.008991 -1145440.000000 0 0 1
-25.197634 -17.840350 -12.722083 33.392368 0.616086 1.961661 0.124316 -0.003994 310300.000000 0 0 1
-24.943094 -16.443650 -12.693583 32.460416 0.582848 1.972566 0.130335 -0.013451 -403076.000000 0 0 1
-24.070294 -15.898850 -11.583283 31.085767 0.583733 1.952631 0.099598 -0.004950 -1012740.000000 0 0 1
-24.589494 -16.073450 -10.267683 31.119516 0.578952 1.907040 0.141509 -0.005654 129844.000000 0 0 1
-23.600294 -16.266350 -9.264883 30.123181 0.603470 1.883431 0.114536 -0.011649 109238.000000 0 0 1
-24.193794 -16.909050 -7.976783 30.575884 0.609988 1.834735 0.108887 -0.025272 45894.600000 0 0 1
-24.575794 -18.262950 -8.207283 31.699597 0.639088 1.832688 0.110134 -0.016779 -97949.300000 0 0 1
-25.213744 -18.655750 -7.029983 32.143281 0.637008 1.791286 0.119065 -0.019003 846.489000 0 0 1
-25.723154 -20.132550 -7.157383 33.439921 0.664080 1.786502 0.131136 -0.030557 167550.000000 0 0 1
-26.653524 -20.351850 -8.200483 34.523268 0.652130 1.810624 0.108869 -0.028699 -207134.000000 0 0 1
-27.205634 -21.643250 -8.287583 35.738786 0.672017 1.804820 0.106816 -0.011159 15819.000000 0 0 1
-26.326704 -22.913850 -8.476583 35.916463 0.716199 1.809052 0.085855 0.003631 -103842.000000 0 0 1
-27.106634 -24.055050 -8.213783 37.160211 0.725823 1.793674 0.092361 0.002939 9481.410000 0 0 1
-26.479174 -25.255170 -8.658183 37.602319 0.761743 1.803138 0.071608 0.016275 -5557.320000 0 0 1
-27.297264 -26.501150 -8.319183 38.944324 0.770601 1.786073 0.086020 0.007350 -30055.100000 0 0 1
-27.097774 -26.841600 -6.943483 38.768193 0.780649 1.750871 0.108669 -0.004575 91.981300 0 0 1
-27.722924 -28.018940 -6.553983 39.957179 0.790709 1.735566 0.105245 -0.004600 -222575.000000 0 0 1
-27.225194 -28.386360 -5.167383 39.669868 0.806275 1.701427 0.118080 -0.013895 107058.000000 0 0 1
-27.811274 -27.662610 -4.071383 39.436824 0.782718 1.674219 0.092363 -0.010370 143177.000000 0 0 1
-27.277814 -28.018050 -2.803383 39.203944 0.798784 1.642365 0.094682 -0.011129 -187638.000000 0 0 1
-27.551284 -29.431970 -2.256683 40.378295 0.818390 1.626714 0.083045 0.002907 -117466.000000 0 0 1
-26.974004 -30.509630 -2.991583 40.833613 0.846827 1.644125 0.121300 -0.021206 -186294.000000 0 0 1
-26.778694 -31.745600 -2.336383 41.597358 0.870064 1.626993 0.107582 -0.027820 -4707.540000 0 0 1
-25.613294 -31.857350 -1.345183 40.899157 0.893621 1.603692 0.129780 -0.035538 -448033.000000 0 0 1
-24.320294 -31.678620 -1.881083 39.981872 0.916051 1.617862 0.135382 -0.052340 -510545.000000 0 0 1
-23.430694 -31.787950 -0.800683 39.498256 0.935607 1.591069 0.104272 -0.033701 9318.860000 0 0 1
-22.495894 -30.558920 -0.542283 37.950058 0.936219 1.585086 0.128006 -0.034700 209543.000000 0 0 1
-23.123994 -29.352270 -0.094283 37.366880 0.903533 1.573319 0.125615 -0.034801 -43009.200000 0 0 1
-23.602194 -28.532780 -1.136983 37.046941 0.879691 1.601491 0.143199 -0.038384 -59232.500000 0 0 1
-24.244394 -27.237870 -0.616983 36.470164 0.843479 1.587715 0.096323 -0.019726 38741.400000 0 0 1
-25.560034 -27.278680 -0.086983 37.382473 0.817913 1.573123 0.103205 -0.019646 -12175.700000 0 0 1
-26.128774 -25.993950 -0.026283 36.856464 0.782812 1.571509 0.104784 -0.033041 96285.100000 0 0 1
-25.704084 -25.195370 1.255717 36.015044 0.775404 1.535923 0.102099 -0.020380 -281265.000000 0 0 1
-26.190044 -25.706750 2.464817 36.780847 0.776086 1.503732 0.079448 -0.019797 -398431.000000 0 0 1
-25.861044 -24.959250 3.638517 36.124736 0.767655 1.469904 0.086759 -0.025437 156589.000000 0 0 1
-26.655744 -23.678850 4.093017 35.888291 0.726325 1.456499 0.101376 -0.022011 90820.500000 0 0 1
-26.378214 -22.659050 3.212017 34.922196 0.709699 1.478690 0.091494 -0.024705 59558.800000 0 0 1
-27.399974 -21.667450 3.184017 35.076700 0.669096 1.479898 0.071068 -0.028805 127911.000000 0 0 1
-27.169074 -20.519350 2.124617 34.113286 0.646850 1.508475 0.080780 -0.026353 229607.000000 0 0 1
-26.084544 -19.649250 2.423417 32.747052 0.645604 1.496724 0.063007 -0.022976 125298.000000 0 0 1
-25.670364 -18.836850 1.339117 31.868287 0.633051 1.528764 0.054233 -0.023185 164111.000000 0 0 1
-24.297194 -18.136750 1.445017 30.354298 0.641228 1.523173 0.086283 -0.025044 33015.900000 0 0 1
-23.231094 -19.053150 1.429917 30.079077 0.686912 1.523240 0.090354 -0.034427 1111570.000000 0 0 1
-21.958194 -18.440150 1.793717 28.730103 0.698533 1.508322 0.103299 -0.029173 1334700.000000 0 0 1
-20.687194 -19.263450 1.513717 28.307805 0.749776 1.517297 0.103807 -0.037431 -217057.000000 0 0 1
-20.429994 -19.462550 0.190617 28.217226 0.761152 1.564041 0.069941 -0.026142 1562620.000000 0 0 1
-19.130394 -20.130150 0.075017 27.770497 0.810857 1.568095 0.086834 -0.021710 1452890.000000 0 0 1
-18.864594 -20.612650 -1.384083 27.976238 0.829649 1.620290 0.088850 -0.021152 218138.000000 0 0 1
-18.270594 -19.678450 -2.311683 26.951806 0.822480 1.656673 0.087833 -0.025907 205536.000000 0 0 1
-18.193094 -20.272550 -3.593883 27.475097 0.839406 1.701977 0.088569 -0.019218 -283936.000000 0 0 1
-17.430594 -19.470550 -4.604983 26.535519 0.840624 1.745220 0.089670 -0.010492 220819.000000 0 0 1
-16.018294 -19.415250 -4.396383 25.551240 0.880974 1.743718 0.114809 -0.015312 305475.000000 0 0 1
-15.568094 -18.678350 -5.515483 24.933248 0.875970 1.793851 0.116243 -0.002128 -876781.000000 0 1 0
-14.096294 -18.321750 -5.496983 23.761499 0.915010 1.804251 0.127590 -0.017581 -610664.000000 0 1 0
-13.195694 -19.411450 -5.601283 24.130998 0.973764 1.805053 0.098665 -0.028089 404842.000000 0 1 0
-11.886194 -18.966450 -5.955583 23.161969 1.010979 1.830845 0.095534 -0.037155 1210840.000000 0 1 0
-10.755494 -20.059350 -5.822483 23.493818 1.078623 1.821237 0.092811 -0.045881 765232.000000 0 1 0
-10.975894 -21.073650 -6.764683 24.704856 1.090620 1.848159 0.088936 -0.041874 -171388.000000 0 1 0
-9.794594 -21.822350 -6.892183 24.892794 1.148913 1.851336 0.077679 -0.035460 26986.700000 0 1 0
-10.017594 -23.058750 -7.738083 26.304677 1.160959 1.869385 0.092487 -0.022942 -426950.000000 0 0 1
-10.408694 -22.821750 -9.067583 26.671975 1.142892 1.917678 0.084615 -0.020042 -44984.800000 0 0 1
-10.606094 -24.051650 -9.818083 28.060040 1.155476 1.928256 0.095869 -0.018916 -152807.000000 0 0 1
-11.323694 -23.814650 -11.143083 28.627467 1.126946 1.970608 0.129190 -0.026678 -405198.000000 0 0 1
-10.632794 -23.015350 -12.005183 28.051507 1.138019 2.013041 0.107668 -0.022192 -34335.200000 0 0 1
-11.464394 -22.707050 -13.136583 28.628871 1.103250 2.047506 0.112505 -0.033883 344189.000000 0 0 1
-10.981394 -21.461850 -13.935883 27.846200 1.097856 2.094925 0.098620 -0.017237 -153797.000000 0 0 1
-11.008194 -20.229750 -13.207683 26.549312 1.072449 2.091485 0.100312 -0.015612 -128196.000000 0 0 1
-10.795894 -19.131850 -14.013683 26.056905 1.057049 2.138634 0.087329 -0.000103 -158261.000000 0 0 1
-10.559994 -17.770450 -13.380183 24.623802 1.034619 2.145259 0.104275 -0.000538 88426.300000 0 1 0
-11.717494 -17.174950 -12.771883 24.400810 0.972087 2.121657 0.114235 -0.009561 275573.000000 0 1 0
-11.473694 -16.260050 -11.702383 23.086373 0.956297 2.102376 0.107578 -0.014285 -163227.000000 0 1 0
-11.139394 -14.800750 -12.146183 22.151254 0.925618 2.151162 0.106715 -0.012680 137792.000000 0 1 0
-12.208594 -14.040250 -12.675883 22.513471 0.855066 2.168851 0.094541 -0.006730 76161.700000 0 1 0
-12.023594 -13.846950 -14.081183 23.121084 0.855762 2.225620 0.110909 -0.019667 482384.000000 0 1 0
-13.275894 -13.140650 -14.724783 23.785400 0.780279 2.238352 0.100751 -0.015849 388311.000000 0 1 0
-13.488094 -11.867950 -14.156683 22.873316 0.721589 2.238159 0.087554 -0.008771 -529542.000000 0 1 0
-14.421594 -11.085450 -14.819783 23.462641 0.655343 2.254454 0.067661 -0.019582 -558676.000000 0 1 0
-14.580094 -9.693950 -14.161783 22.519056 0.586762 2.250908 0.073233 -0.035442 568617.000000 0 1 0
-13.403094 -8.870350 -14.257283 21.484789 0.584635 2.296416 0.057602 -0.028822 689108.000000 0 1 0
-13.325394 -8.127650 -15.436083 21.952163 0.547694 2.350641 0.060111 -0.034370 -384170.000000 0 1 0
-12.102994 -7.213650 -15.426683 20.892624 0.537489 2.401460 0.036256 -0.020008 -842156.000000 0 1 0
-10.903894 -7.861650 -15.657283 20.636156 0.624678 2.432158 0.032673 -0.013729 -904498.000000 0 1 0
-9.822194 -6.982850 -15.689583 19.783799 0.618021 2.486599 0.014271 0.003864 -205180.000000 0 1 0
11.766906 21.868350 15.675617 29.366815 1.077151 1.007724 0.099419 -0.033375 50440.100000 0 0 1
12.734306 21.947850 16.719517 30.387710 1.045057 0.988185 0.121328 -0.037708 210371.000000 0 0 1
12.974506 20.694150 17.347717 29.958788 1.010785 0.953230 0.115256 -0.036961 -244724.000000 0 0 1
14.083906 20.734950 18.406417 31.098083 0.974143 0.937404 0.120113 -0.043612 357693.000000 0 0 1
15.350006 21.103850 17.855417 31.619790 0.941946 0.970737 0.112278 -0.039806 941592.000000 0 0 1
16.451406 20.757050 18.721817 32.434709 0.900603 0.955482 0.120869 -0.044830 309038.000000 0 0 1
17.807906 21.133850 18.138617 33.057081 0.870600 0.989981 0.099375 -0.035132 -1076070.000000 0 0 1
18.110406 22.516550 18.261717 34.182922 0.893430 1.007194 0.103909 -0.035521 639608.000000 0 0 1
19.345206 22.911850 17.631617 34.785971 0.869602 1.039258 0.091190 -0.032363 1231850.000000 0 0 1
20.638606 22.600650 18.457117 35.740826 0.830744 1.028137 0.086635 -0.034053 -124686.000000 0 0 1
21.027006 21.242950 18.253717 35.022794 0.790507 1.022545 0.086729 -0.028844 348448.000000 0 0 1
22.276806 21.067450 18.929817 36.033755 0.757504 1.017687 0.086847 -0.026948 341077.000000 0 0 1
22.918506 19.699250 18.575217 35.473329 0.710003 1.019680 0.064867 -0.020088 -122850.000000 0 0 1
23.364506 19.597250 17.189817 35.006316 0.697933 1.057503 0.059044 -0.024823 174804.000000 0 0 1
22.937206 18.382150 16.612317 33.763708 0.675601 1.056391 0.042003 -0.007738 -306641.000000 0 0 1
23.607606 17.045050 17.017217 33.725932 0.625349 1.041908 0.038661 -0.016487 -700952.000000 0 0 1
24.869506 16.865050 16.480717 34.271508 0.595905 1.069130 0.061721 -0.029850 -824080.000000 0 0 1
25.309906 15.582650 16.696717 34.090918 0.551865 1.058970 0.031394 -0.009127 -1992560.000000 0 0 1
26.548406 15.317350 15.900217 34.529060 0.523306 1.092251 0.143071 -0.036668 -632283.000000 0 0 1
27.582906 16.239050 16.323717 35.930310 0.532096 1.099192 0.112851 -0.038053 937631.000000 0 0 1
28.360506 16.009450 17.531517 36.986145 0.513906 1.076966 0.118472 -0.053606 -18525.900000 0 0 1
29.561106 15.062850 17.248417 37.393266 0.471258 1.091370 0.117843 -0.059131 110918.000000 0 0 1
30.659706 15.708050 16.584117 38.233406 0.473467 1.122135 0.178073 -0.048662 596197.000000 0 0 1
31.416706 14.931450 15.659617 38.146838 0.443669 1.147784 0.176885 -0.054363 -2021.210000 0 0 1
30.735806 14.537250 14.329017 36.896370 0.441794 1.171947 0.144095 -0.049868 -285864.000000 0 0 1
30.368606 15.637850 13.505917 36.731518 0.475524 1.194269 0.153397 -0.027412 -35655.300000 0 0 1
29.554406 15.298350 12.413417 35.518944 0.477655 1.213773 0.132649 -0.026737 -23704.600000 0 0 1
28.219706 16.066750 12.292817 34.721832 0.517574 1.208912 0.115818 -0.036508 -278981.000000 0 0 1
28.206806 17.490950 11.942417 35.272916 0.555066 1.225398 0.095105 -0.019318 -8267.180000 0 0 1
28.893806 18.318250 12.850017 36.544949 0.565035 1.211493 0.102445 -0.033441 -464108.000000 0 0 1
28.199606 18.520450 14.211917 36.608789 0.581115 1.172107 0.097123 -0.034315 104656.000000 0 0 1
27.199306 19.538350 14.118317 36.343861 0.622929 1.171831 0.102923 -0.031813 -280683.000000 0 0 1
26.426206 19.578950 15.249417 36.252233 0.637646 1.136637 0.083136 -0.035352 -832168.000000 0 0 1
26.949706 20.164650 16.608417 37.533176 0.642369 1.112412 0.087731 -0.047278 -618236.000000 0 0 1
26.960706 21.531650 16.587217 38.283514 0.673906 1.122675 0.063808 -0.036057 3670.900000 0 0 1
25.747506 22.162850 16.950717 37.966470 0.710717 1.107985 0.070595 -0.036296 -27695.000000 0 0 1
25.643806 23.638250 16.502117 38.583566 0.744725 1.128852 0.074305 -0.027542 -20123.200000 0 0 1
25.324606 23.822350 15.122917 37.914940 0.754841 1.160518 0.103334 -0.042495 287496.000000 0 0 1
25.637206 25.168250 14.783717 38.849266 0.776168 1.180416 0.113505 -0.045651 -277026.000000 0 0 1
25.305106 25.380050 13.316017 38.233646 0.786877 1.215061 0.113709 -0.040047 726900.000000 0 0 1
23.889006 25.432550 13.064717 37.258369 0.816683 1.212529 0.115792 -0.036122 890040.000000 0 0 1
23.618006 25.636850 11.682317 36.763227 0.826363 1.247418 0.110229 -0.041929 5450.660000 0 0 1
23.047906 24.425050 10.910117 35.310334 0.814399 1.256678 0.117916 -0.041172 467988.000000 0 0 1
21.649106 24.189750 11.166217 34.329466 0.840767 1.239503 0.119345 -0.040796 736291.000000 0 0 1
21.234906 22.908650 10.805917 33.052917 0.823296 1.237745 0.123199 -0.037617 -15494.700000 0 0 1
21.097906 22.566350 9.320017 32.268011 0.819016 1.277790 0.135475 -0.035157 -1239400.000000 0 0 1
20.042106 23.181950 8.711317 31.858686 0.857912 1.293833 0.137975 -0.034925 -758815.000000 0 0 1
20.152306 23.230450 7.258517 31.598344 0.856233 1.339015 0.129656 -0.040030 588774.000000 0 0 1
18.780806 23.528350 6.538017 30.806616 0.897142 1.356942 0.107970 -0.033403 165587.000000 0 0 1
18.087006 22.348550 6.158817 29.402866 0.890402 1.359770 0.118175 -0.025534 668455.000000 0 0 1
17.167506 22.504050 5.066117 28.754497 0.919114 1.393687 0.133059 -0.032782 818165.000000 0 0 1
15.833106 23.278550 5.297917 28.646921 0.973511 1.384787 0.106008 -0.032844 -341120.000000 0 0 1
15.999706 24.704650 5.357717 29.916809 0.996082 1.390738 0.119550 -0.035743 104876.000000 0 0 1
14.823206 25.388050 5.748817 29.955458 1.042325 1.377686 0.108963 -0.037930 -24894.400000 0 0 1
14.784706 26.929550 5.429617 31.197259 1.068710 1.395864 0.093972 -0.035998 -392319.000000 0 0 1
14.401406 27.084750 4.092717 30.947286 1.082099 1.438160 0.077992 -0.020693 336866.000000 0 0 1
14.352606 28.407950 3.648217 32.036205 1.102972 1.456671 0.080085 -0.023631 -19484.100000 0 0 1
13.777906 28.432950 2.173217 31.669958 1.119564 1.502122 0.077577 -0.023527 122955.000000 0 0 1
14.706106 28.107950 1.149017 31.743451 1.088761 1.534591 0.093944 -0.025884 63345.900000 0 0 1
14.950306 26.726050 1.014317 30.640207 1.060772 1.537686 0.082866 -0.022108 256802.000000 0 0 1
16.020306 26.427650 -0.061283 30.904282 1.025834 1.572779 0.093535 -0.024994 475794.000000 0 0 1
15.469506 26.730250 -1.325283 30.912267 1.046166 1.613682 0.090602 -0.018214 98282.200000 0 0 1
16.480006 26.557950 -2.300983 31.340227 1.015418 1.644282 0.083754 -0.016114 24973.000000 0 0 1
16.154706 27.111950 -3.712483 31.777585 1.033433 1.687891 0.086439 -0.024297 -370162.000000 0 0 1
15.100906 26.568450 -4.450583 30.882481 1.053953 1.715413 0.103563 -0.032548 -511923.000000 0 0 1
15.176806 27.132550 -5.722683 31.611071 1.060797 1.752834 0.101859 -0.024052 1215130.000000 0 0 1
13.882506 26.847950 -6.601883 30.937377 1.093579 1.785845 0.121755 -0.040703 1151320.000000 0 0 1
13.784306 25.497250 -6.963283 29.809465 1.075184 1.806568 0.110074 -0.037451 -646371.000000 0 0 1
12.492906 25.317050 -7.444983 29.196806 1.112396 1.828637 0.078490 -0.035449 -516479.000000 0 0 1
12.285706 23.923850 -8.007983 28.060951 1.096380 1.860197 0.095439 -0.028873 -181274.000000 0 0 1
12.914706 23.517850 -9.221483 28.371018 1.068610 1.901842 0.092777 -0.026545 -62879.800000 0 0 1
12.571106 22.219650 -9.616783 27.280544 1.055930 1.931053 0.098877 -0.021653 -393015.000000 0 0 1
13.071706 21.767250 -10.946783 27.649860 1.029993 1.977852 0.105331 -0.017348 -594068.000000 0 0 1
12.232306 20.838950 -11.603383 26.805403 1.039996 2.018476 0.108698 -0.012597 -511777.000000 0 0 1
12.536806 20.328450 -12.885983 27.137906 1.018179 2.065571 0.105710 -0.017765 -742902.000000 0 0 1
13.782606 19.460150 -13.082583 27.199479 0.954556 2.072576 0.102225 -0.020740 -199179.000000 0 0 1
14.888106 20.329150 -12.964883 28.337576 0.938686 2.045996 0.094986 -0.022965 -333924.000000 0 0 1
16.110106 19.720850 -13.354083 28.753765 0.885831 2.053786 0.086215 -0.015769 500253.000000 0 0 1
17.360306 20.631550 -13.363383 30.093539 0.871290 2.030923 0.078182 -0.009569 120177.000000 0 0 1
17.525206 21.692650 -14.359083 31.366976 0.891265 2.046290 0.062652 -0.014636 -267083.000000 0 0 1
16.650506 22.788150 -14.184583 31.587047 0.939785 2.036513 0.059745 -0.016318 -20674.600000 0 0 1
17.195306 24.110950 -14.832883 33.121457 0.951283 2.035137 0.052551 -0.019206 -263435.000000 0 0 1
17.211306 24.458150 -16.225183 34.024796 0.957589 2.067879 0.045089 -0.016120 -480497.000000 0 0 1
15.927906 24.636650 -16.768183 33.791044 0.996877 2.090049 0.046174 -0.010144 -81905.700000 0 0 1
15.936606 24.673050 -18.280983 34.596664 0.997301 2.127515 0.053718 -0.005413 132024.000000 0 0 1
16.268706 23.403250 -18.793783 34.140726 0.963335 2.153735 0.054066 0.001255 -103105.000000 0 0 1
16.091406 23.343950 -20.165883 34.792761 0.967275 2.189034 0.059153 0.005671 -57639.400000 0 0 1
16.741506 22.036450 -20.735083 34.580729 0.921104 2.213815 0.064723 0.005096 231342.000000 0 0 1
15.960406 20.853050 -20.527283 33.330971 0.917528 2.234276 0.072259 0.002511 219339.000000 0 0 1
16.497306 19.753150 -21.264683 33.384649 0.874973 2.261345 0.059608 0.011368 -229550.000000 0 0 1
15.608906 18.520150 -21.422583 32.335135 0.870493 2.294971 0.056693 0.007589 -1248540.000000 0 0 1
15.116406 17.945850 -20.229483 30.980498 0.870769 2.282302 0.067938 -0.002464 99732.000000 0 0 1
14.245506 16.884750 -20.565183 30.182047 0.869977 2.320431 0.072211 -0.011162 -427853.000000 0 0 1
12.830506 17.284750 -20.965683 30.049032 0.932240 2.343000 0.081255 -0.017135 -2007150.000000 0 0 1
12.017706 17.513350 -19.868983 29.084690 0.969391 2.322853 0.073081 -0.022793 -254849.000000 0 0 1
10.672906 17.597350 -20.344283 28.939031 1.025606 2.350410 0.083680 -0.026542 -12343.500000 0 0 1
9.735906 17.140350 -19.247883 27.551052 1.054230 2.344272 0.106335 -0.036826 -780421.000000 0 0 1
9.721706 15.750650 -19.006983 26.530359 1.017807 2.369459 0.119847 -0.051470 1911370.000000 0 0 1
8.355006 15.215150 -18.818283 25.601459 1.068626 2.396533 0.126968 -0.038931 1697080.000000 0 0 1
7.720706 15.341950 -17.490183 24.513083 1.104559 2.365283 0.119419 -0.037042 -449525.000000 0 1 0
7.136206 16.554850 -17.165083 24.892340 1.163800 2.331695 0.128669 -0.037271 -554696.000000 0 1 0
6.706006 16.617250 -15.858083 23.928692 1.187227 2.295245 0.097389 -0.042580 94358.600000 0 1 0
6.290406 18.079050 -15.410083 24.574213 1.235959 2.248600 0.089824 -0.030623 959582.000000 0 1 0
7.440006 18.945450 -15.245483 25.430464 1.196593 2.213669 0.080705 -0.025889 668844.000000 0 0 1
7.883306 19.548850 -16.456883 26.741972 1.187481 2.233684 0.097956 -0.025157 373955.000000 0 0 1
9.096606 20.518350 -16.242983 27.705332 1.153495 2.197251 0.089185 -0.016562 471201.000000 0 0 1
8.868906 21.728350 -15.502383 28.126546 1.183265 2.154557 0.073974 -0.026879 -178535.000000 0 0 1
8.873106 21.574450 -14.098383 27.257170 1.180605 2.114414 0.072228 -0.022190 -60054.500000 0 0 1
8.518906 22.842450 -13.251383 27.747945 1.213831 2.068675 0.067306 -0.023995 -68004.000000 0 0 1
7.205006 23.345450 -13.399683 27.865277 1.271445 2.072447 0.058880 -0.017757 -106006.000000 0 0 1
6.882606 24.516850 -12.637483 28.428018 1.297111 2.031461 0.045504 -0.020291 86770.200000 0 0 1
6.219006 24.127150 -11.296483 27.357009 1.318528 1.996463 0.024081 -0.011760 -912383.000000 0 0 1
7.114706 23.635150 -10.366383 26.771277 1.278402 1.968411 0.020679 -0.011671 -220486.000000 0 0 1
6.441006 22.891150 -9.361783 25.556492 1.296513 1.945844 0.024881 -0.019024 619533.000000 0 0 1
7.379106 22.765250 -8.111083 25.268508 1.257343 1.897577 0.011362 -0.020522 482416.000000 0 0 1
7.418106 23.923950 -7.372083 26.109985 1.270127 1.857036 0.013229 -0.017734 592295.000000 0 0 1
8.551706 23.912350 -6.484683 26.210366 1.227343 1.820802 0.032266 -0.020040 516590.000000 0 0 1
8.794206 25.201050 -5.665283 27.286012 1.235047 1.779944 0.019580 -0.017193 -139202.000000 0 0 1
9.145406 26.290350 -6.513983 28.587636 1.236028 1.800676 0.054571 -0.032043 88083.000000 0 0 1
9.248006 27.431550 -5.728383 29.509828 1.245632 1.766154 0.037867 -0.021501 108397.000000 0 0 1
9.705706 28.648250 -6.626383 30.965011 1.244144 1.786460 0.040332 -0.017351 1272480.000000 0 0 1
11.082006 28.593750 -7.081483 31.473176 1.201053 1.797740 0.056789 -0.021210 956105.000000 0 0 1
11.206306 29.726050 -7.927883 32.742491 1.210286 1.815355 0.055303 -0.011981 82473.100000 0 0 1
12.609206 29.915050 -8.513583 33.561636 1.171894 1.827269 0.063584 -0.016672 9887.960000 0 0 1
13.729106 29.934050 -7.680183 33.815986 1.140776 1.799913 0.069025 -0.015798 158361.000000 0 0 1
14.877106 30.502250 -8.325383 34.943205 1.117006 1.811365 0.063390 -0.015302 251893.000000 0 0 1
16.003206 30.968550 -7.418783 35.639754 1.093833 1.780490 0.079264 -0.018956 -324636.000000 0 0 1
16.906006 29.915550 -7.056583 35.079175 1.056416 1.773340 0.090319 -0.028872 -110127.000000 0 0 1
17.852506 30.566050 -6.215983 35.939308 1.042177 1.744628 0.084278 -0.023427 612095.000000 0 0 1
19.078806 29.651850 -5.839783 35.739840 0.999056 1.734929 0.083196 -0.027120 361213.000000 0 0 1
18.820106 28.719750 -4.781283 34.668157 0.990703 1.709153 0.085922 -0.030810 1118790.000000 0 0 1
19.973906 27.872550 -4.447383 34.577669 0.949006 1.699774 0.071311 -0.028994 1101980.000000 0 0 1
20.182406 26.677050 -5.409383 33.885926 0.923119 1.731117 0.061045 -0.008022 -161627.000000 0 0 1
20.688406 27.022950 -6.697483 34.685822 0.917394 1.765107 0.054361 -0.010922 206460.000000 0 0 1
20.576406 26.026850 -7.667183 34.052476 0.901823 1.797901 0.039973 -0.009065 -829062.000000 0 0 1
21.111606 26.470750 -9.081183 35.055220 0.897554 1.832839 0.040284 -0.014089 204811.000000 0 0 1
22.519306 26.541850 -9.108383 35.979878 0.867206 1.826733 0.029130 -0.012199 354817.000000 0 0 1
23.220606 25.253950 -9.129083 35.500686 0.827320 1.830871 0.036736 -0.009804 -1368630.000000 0 0 1
24.706806 25.338050 -9.264983 36.582550 0.798011 1.826847 0.010058 -0.005894 -1203080.000000 0 0 1
25.296806 25.710550 -10.477383 37.559770 0.793509 1.853499 0.021208 -0.005259 -1174580.000000 0 0 1
26.661806 25.530850 -10.357783 38.340056 0.763733 1.844351 0.017444 0.007761 -965520.000000 0 0 1
27.340506 25.405750 -11.743783 39.126358 0.748734 1.875646 0.032766 0.001928 -95625.000000 0 0 1
27.435106 26.645050 -12.410983 40.207913 0.770790 1.884591 0.026812 0.003180 -94830.000000 0 0 1
28.179806 26.488950 -13.590083 40.993369 0.754479 1.908710 0.049539 -0.004685 79310.600000 0 0 1
27.962606 27.678050 -14.584683 41.960634 0.780284 1.925785 0.052391 -0.012526 78286.400000 0 0 1
28.242906 29.023950 -14.206783 42.917177 0.799036 1.908189 0.045036 -0.013548 105133.000000 0 0 1
28.431906 29.795150 -15.370983 43.958974 0.808806 1.928011 0.055531 -0.014256 -351481.000000 0 0 1
28.942106 31.208750 -15.222383 45.203457 0.823063 1.914262 0.052100 -0.014720 -201371.000000 0 0 1
30.249506 31.353650 -14.723783 45.987757 0.803320 1.896703 0.046820 -0.011666 -298577.000000 0 0 1
30.643506 32.692550 -14.874083 47.212982 0.817739 1.891297 0.047699 -0.011493 -311126.000000 0 0 1
15.800106 -32.215748 -27.985266 45.504647 -1.114821 2.233180 0.106079 -0.040082 38125.400000 0 0 1
17.074106 -32.689748 -27.585006 46.055155 -1.089462 2.212993 0.082660 -0.032366 233003.000000 0 0 1
17.406006 -32.083648 -26.365546 45.027453 -1.073714 2.196347 0.090339 -0.036148 -869527.000000 0 0 1
18.692306 -32.685048 -25.790816 45.638590 -1.051301 2.171363 0.051729 -0.031371 -306374.000000 0 0 1
19.944406 -32.211548 -26.221556 46.075299 -1.016401 2.176210 0.089185 -0.043626 258576.000000 0 0 1
20.255506 -32.619148 -27.574186 47.271874 -1.015100 2.193595 0.087187 -0.038355 -211519.000000 0 0 1
21.772506 -32.405248 -27.943926 48.010469 -0.979192 2.192029 0.089325 -0.040266 876100.000000 0 0 1
22.114706 -31.037648 -28.156816 47.383564 -0.951722 2.207106 0.084352 -0.045425 591198.000000 0 0 1
23.502806 -30.777948 -27.960316 47.764456 -0.918632 2.196144 0.050900 -0.034466 207350.000000 0 0 1
24.118506 -29.548848 -28.627736 47.690502 -0.886240 2.214650 0.029924 -0.023252 -78498.800000 0 0 1
24.571606 -29.700348 -29.935306 48.805707 -0.879619 2.231100 0.032309 -0.024075 -146846.000000 0 0 1
25.003606 -28.490748 -30.539456 48.678141 -0.850493 2.248974 0.021954 -0.029347 -38381.700000 0 0 1
25.523906 -28.674648 -31.942126 49.940010 -0.843466 2.264787 0.023121 -0.012868 86797.400000 0 0 1
26.660306 -29.517448 -31.949766 51.018028 -0.836213 2.247523 0.034867 -0.017896 -232114.000000 0 0 1
26.712306 -30.072248 -33.267506 52.197838 -0.844499 2.261831 0.024750 -0.016431 -146303.000000 0 0 1
27.954506 -30.894548 -33.644696 53.552713 -0.835316 2.250103 0.019897 -0.014825 587623.000000 0 0 1
29.110006 -30.168048 33.800100 53.851187 -0.803245 0.892256 0.029331 -0.017155 -217546.000000 0 0 1
30.296706 -30.893348 33.706252 54.848891 -0.795148 0.909007 0.029318 -0.008573 -39124.700000 0 0 1
31.522806 -29.981948 33.509959 54.913768 -0.760351 0.914447 0.049129 -0.017583 -307236.000000 0 0 1
31.580606 -29.196548 32.331192 53.805939 -0.746192 0.926188 0.061731 -0.013961 653239.000000 0 0 1
32.801306 -28.430548 32.198654 54.046046 -0.714139 0.932581 0.065817 -0.017758 787687.000000 0 0 1
32.872806 -27.518048 30.956757 52.878967 -0.696961 0.945390 0.065509 -0.021676 -221756.000000 0 0 1
34.054606 -26.721348 30.965477 53.222246 -0.665318 0.949838 0.070292 -0.023756 421978.000000 0 0 1
34.168106 -25.826548 29.887277 52.227573 -0.647246 0.961548 0.063608 -0.020679 124761.000000 0 0 1
34.938906 -26.517348 28.671987 52.402097 -0.649213 0.991837 0.068996 -0.013333 411146.000000 0 0 1
34.137306 -27.522848 28.045917 52.052246 -0.678534 1.001781 0.046797 -0.015546 766105.000000 0 0 1
33.237006 -27.089748 27.039747 50.692218 -0.683849 1.008169 0.053661 -0.017622 163215.000000 0 0 1
32.512306 -28.161748 26.219967 50.374803 -0.713817 1.023363 0.051245 -0.013970 -34369.000000 0 0 1
31.335806 -27.721748 25.585537 49.041287 -0.724279 1.021937 0.049608 -0.011131 67957.200000 0 0 1
30.781906 -28.736248 24.742937 48.841690 -0.751041 1.039566 0.055865 -0.006994 -286402.000000 0 0 1
29.462506 -28.322148 24.094517 47.441850 -0.765666 1.038080 0.062932 -0.010498 79863.100000 0 0 1
28.493306 -27.965348 25.100837 47.159105 -0.776047 1.009530 0.054008 -0.013621 720286.000000 0 0 1
27.180406 -27.918648 24.541367 46.048932 -0.798796 1.008724 0.055867 -0.009163 746753.000000 0 0 1
26.025906 -27.896548 25.573147 45.929849 -0.820076 0.980283 0.067946 -0.019777 86617.500000 0 0 1
26.003106 -26.820848 26.492647 45.797159 -0.800877 0.953935 0.057963 -0.017204 -116197.000000 0 0 1
24.813406 -26.778548 27.251227 45.556834 -0.823470 0.929567 0.052922 -0.020689 -223233.000000 0 0 1
24.729906 -25.595548 28.289327 45.464122 -0.802597 0.899203 0.048044 -0.009307 -106949.000000 0 0 1
23.620206 -25.742348 29.184787 45.522900 -0.828363 0.874864 0.057791 -0.010787 460669.000000 0 0 1
23.419906 -24.776748 30.217287 45.557257 -0.813543 0.845601 0.047690 -0.014838 -101905.000000 0 0 1
22.879706 -23.406148 29.593797 44.126200 -0.796771 0.835694 0.055855 -0.008200 -296088.000000 0 0 1
23.749906 -22.843148 28.623597 43.648342 -0.765939 0.855584 0.067027 -0.009741 198537.000000 0 0 1
23.410106 -21.471448 28.322017 42.558111 -0.742230 0.842646 0.079922 -0.000160 179337.000000 0 0 1
24.128106 -20.422248 29.231897 43.055052 -0.702406 0.824475 0.063502 -0.002169 -23869.600000 0 0 1
23.756206 -20.468748 30.567447 43.791504 -0.711200 0.798164 0.067691 -0.005704 -39805.500000 0 0 1
24.226906 -19.326348 31.255707 44.015565 -0.673351 0.781148 0.059084 -0.006203 -117696.000000 0 0 1
23.638806 -19.165348 32.689027 44.661798 -0.681266 0.749655 0.058325 -0.004916 -120699.000000 0 0 1
23.996706 -20.059748 33.716122 45.989263 -0.696273 0.747883 0.052463 -0.009338 -31772.500000 0 0 1
23.364906 -19.677348 -32.928216 44.915301 -0.699934 2.393692 0.065278 -0.015762 123144.000000 0 0 1
23.260006 -20.851748 -31.928186 44.668024 -0.730858 2.367118 0.043943 -0.006094 -425812.000000 0 0 1
24.484006 -21.048148 -31.303566 44.971150 -0.710081 2.340721 0.043092 -0.003042 -423068.000000 0 0 1
24.341006 -22.105748 -30.349196 44.746199 -0.737310 2.316177 0.043925 -0.015262 124843.000000 0 0 1
25.695606 -22.355548 -29.665996 45.167533 -0.715999 2.287362 0.046086 -0.004200 548732.000000 0 0 1
26.760306 -23.001348 -30.381106 46.563801 -0.710002 2.281625 0.042214 -0.000572 21769.400000 0 0 1
27.755006 -23.487248 -29.516806 46.831966 -0.702304 2.252698 0.052954 -0.006292 -347699.000000 0 0 1
28.897506 -24.251948 -30.189396 48.317931 -0.698214 2.245681 0.044292 -0.006191 -510412.000000 0 0 1
29.528806 -23.492048 -31.176756 48.947082 -0.672030 2.261329 0.046368 -0.008089 -115648.000000 0 0 1
28.854006 -23.411048 -32.419786 49.312000 -0.681631 2.288215 0.045761 -0.006107 -409539.000000 0 0 1
29.175506 -24.568948 -33.374386 50.682275 -0.699895 2.289623 0.042806 -0.005431 -124474.000000 0 0 1
28.534906 -25.759548 -32.971566 50.645033 -0.734326 2.279740 0.039290 -0.012151 -66645.400000 0 0 1
28.737506 -26.952048 -33.739196 51.870902 -0.753348 2.278967 0.036625 -0.017040 40306.900000 0 0 1
28.252606 -26.852148 32.577762 50.799195 -0.759989 0.874599 0.035166 -0.023071 119724.000000 0 0 1
28.975706 -25.952648 31.745137 50.208418 -0.730417 0.886320 0.043875 -0.027718 -256663.000000 0 0 1
28.731706 -26.066048 30.364697 49.264233 -0.736791 0.906679 0.030293 -0.028310 159141.000000 0 0 1
30.016906 -25.628448 29.570237 49.317653 -0.706696 0.927811 0.042036 -0.020932 736878.000000 0 0 1
30.538006 -24.273448 29.634197 48.989343 -0.671599 0.921142 0.039395 -0.020858 312823.000000 0 0 1
30.746006 -23.671448 30.915897 49.612973 -0.656118 0.898043 0.037700 -0.014592 -1351190.000000 0 0 1
31.218606 -22.213548 30.820527 49.172635 -0.618435 0.893380 0.041148 -0.009204 -358950.000000 0 0 1
32.404106 -21.892548 30.193937 49.406311 -0.594169 0.913302 0.061793 -0.017541 372505.000000 0 0 1
33.615306 -22.443248 30.791637 50.811545 -0.588683 0.919778 0.055931 -0.014350 547330.000000 0 0 1
34.897906 -21.732148 30.274987 51.056096 -0.556969 0.936048 0.051547 -0.014598 -32127.400000 0 0 1
35.353606 -22.345648 29.091577 50.946298 -0.563661 0.963043 0.065587 -0.023977 636486.000000 0 0 1
36.662606 -21.765748 28.909077 51.513389 -0.535757 0.974967 0.058238 -0.025590 756193.000000 0 0 1
37.168206 -22.002348 27.481207 51.193707 -0.534492 1.004147 0.072060 -0.024918 -120338.000000 0 0 1
-36.981053 -23.362548 27.253137 51.537757 0.563434 1.013611 0.065992 -0.014945 127481.000000 0 0 1
-36.468953 -23.568748 25.948467 50.584517 0.573748 1.032152 0.048947 -0.004751 -4481.040000 0 0 1
-36.233753 -25.063248 25.607797 50.958911 0.605140 1.044287 0.045674 -0.012598 -345772.000000 0 0 1
37.026206 -25.802248 25.587217 51.878720 -0.608618 1.055018 0.054931 -0.010861 -146770.000000 0 0 1
37.110306 -27.155548 25.188237 52.431345 -0.631720 1.069681 0.045790 -0.004309 -11132.300000 0 0 1
-36.475653 -28.090648 26.055757 52.900475 0.656254 1.055787 0.033964 -0.004474 -741177.000000 0 0 1
-36.384953 -29.410648 25.510577 53.288278 0.679793 1.071591 0.038936 -0.004388 716730.000000 0 0 1
-35.335353 -30.123248 26.190877 53.310030 0.705941 1.057222 0.033486 -0.016577 948836.000000 0 0 1
-33.859053 -29.687348 26.004067 51.999862 0.719844 1.047106 0.024561 -0.015432 -702708.000000 0 0 1
-33.436753 -29.816248 24.656607 51.136811 0.728222 1.067667 0.024455 -0.018950 -496206.000000 0 0 1
-32.100653 -29.417248 24.565427 49.992866 0.741806 1.057124 -0.004455 -0.015192 -474454.000000 0 0 1
-31.525853 -29.463048 23.141387 48.964012 0.751588 1.078535 0.005577 -0.016120 -338054.000000 0 0 1
-31.407153 -30.755648 22.555617 49.407237 0.774918 1.096711 0.015662 -0.018705 209814.000000 0 0 1
-30.783953 -30.661048 21.317017 48.395939 0.783398 1.114673 0.017165 -0.019258 -782734.000000 0 0 1
-30.807153 -31.908748 20.458017 48.844441 0.802961 1.138629 0.035933 -0.022853 -277277.000000 0 0 1
-29.900853 -32.928348 20.739517 49.076111 0.833547 1.134485 0.044604 -0.033229 -509001.000000 0 0 1
-28.563053 -32.677648 20.392017 47.953218 0.852485 1.131560 0.054319 -0.032656 26614.500000 0 0 1
-27.621653 -33.950648 20.536017 48.345943 0.887828 1.132086 0.053505 -0.025769 151690.000000 0 0 1
-27.847053 32.968050 19.658817 47.421723 -0.869406 1.143345 0.048906 -0.019412 676811.000000 0 0 1
-29.110853 32.288850 19.828517 47.782651 -0.837111 1.142883 0.059675 -0.020604 835271.000000 0 0 1
-29.160553 31.288650 21.016617 47.655175 -0.820588 1.114068 0.065793 -0.016011 -237591.000000 0 0 1
-28.326853 30.196950 20.766717 46.319790 -0.817342 1.105896 0.061447 -0.023179 -235804.000000 0 0 1
-28.451253 29.234050 21.814917 46.260070 -0.798967 1.079725 0.063422 -0.021561 -863658.000000 0 0 1
-27.556353 28.085750 21.580017 44.876042 -0.794912 1.069138 0.070078 -0.023905 -1142550.000000 0 0 1
-26.237253 28.542550 21.735517 44.446635 -0.827456 1.059825 0.057156 -0.022531 -921062.000000 0 0 1
-25.353453 27.638750 21.164217 43.065325 -0.828497 1.057049 0.044476 -0.027482 -73150.800000 0 0 1
-23.901753 28.201250 21.115017 42.572858 -0.867731 1.051841 0.030726 -0.024357 134946.000000 0 0 1
-23.280153 28.198050 22.378017 42.870400 -0.880643 1.021611 0.047144 -0.026836 -451632.000000 0 0 1
-21.914053 28.405050 22.158917 42.167407 -0.913686 1.017495 0.076143 -0.029660 -613860.000000 0 0 1
-21.175053 28.659150 23.489477 42.678863 -0.934464 0.987980 0.059464 -0.026263 -424704.000000 0 0 1
-21.031453 27.419750 24.221637 42.200147 -0.916492 0.959450 0.076814 -0.032701 203495.000000 0 0 1
-20.833453 27.525750 25.605217 42.980540 -0.922912 0.932610 0.074458 -0.035176 798409.000000 0 0 1
-19.407653 27.994550 26.121997 42.926805 -0.964605 0.916597 0.099367 -0.029867 708459.000000 0 0 1
-19.123853 29.393750 25.998567 43.653635 -0.993993 0.932828 0.079131 -0.029590 64117.000000 0 0 1
-17.890153 29.803650 26.561177 43.747129 -1.030180 0.918324 0.099418 -0.030899 -63002.300000 0 0 1
-17.774553 29.973550 28.083767 44.755407 -1.035534 0.892465 0.081850 -0.017473 -292335.000000 0 0 1
-17.518953 28.718650 28.733237 44.241084 -1.023042 0.863910 0.091181 -0.017432 166895.000000 0 0 1
-17.934553 28.763650 30.063637 45.308035 -1.013266 0.845257 0.073884 -0.007840 -339682.000000 0 0 1
-17.432453 27.585850 30.896767 44.938622 -1.007226 0.812711 0.077169 -0.007402 -664273.000000 0 0 1
-16.107853 27.739450 31.322507 44.833464 -1.044701 0.797300 0.081538 -0.001392 -85856.600000 0 0 1
-15.669553 26.489150 31.977158 44.381850 -1.036616 0.766272 0.090464 -0.004108 96161.600000 0 0 1
-16.070653 26.379950 33.482016 45.554507 -1.023640 0.745147 0.092665 0.004998 323255.000000 0 0 1
-17.440853 26.128850 33.767803 46.121196 -0.982221 0.749318 0.093375 0.001971 163636.000000 0 0 1
-17.887053 26.649250 -32.829886 45.912205 -0.979660 2.367503 0.097302 0.009191 -985375.000000 0 0 1
-19.254953 26.170550 -32.449706 45.919868 -0.936478 2.355562 0.078473 0.007543 -1469260.000000 0 0 1
-20.227353 26.551350 -33.377406 47.203509 -0.919773 2.356179 0.061846 0.004132 -422682.000000 0 0 1
-21.366953 25.791850 -33.004976 47.022278 -0.878954 2.348859 0.055710 0.001432 350264.000000 0 0 1
-22.601553 25.694450 33.882367 48.156513 -0.849351 0.790362 0.050113 -0.013049 212247.000000 0 0 1
-22.487753 24.907450 32.671634 46.834985 -0.836408 0.798767 0.049629 -0.009338 -38504.400000 0 0 1
-22.501153 23.551150 32.779471 46.210954 -0.808194 0.782229 0.044358 -0.010429 -301363.000000 0 0 1
-23.003553 22.914450 31.458277 45.209055 -0.783458 0.801207 0.050073 -0.018883 282502.000000 0 0 1
-24.376153 23.004050 31.127207 45.741515 -0.756447 0.822348 0.056848 -0.018848 -80126.800000 0 0 1
-24.601453 22.434550 29.854167 44.719256 -0.739362 0.839828 0.072748 -0.017857 862584.000000 0 0 1
-26.105453 22.129650 29.520957 45.196272 -0.703159 0.859030 0.077911 -0.023760 698636.000000 0 0 1
-26.505153 21.010550 30.278177 45.395312 -0.670272 0.840636 0.082918 -0.022084 178512.000000 0 0 1
-27.660053 20.423050 29.678407 45.420121 -0.636009 0.858703 0.097218 -0.025496 253181.000000 0 0 1
-28.185453 19.134250 30.370647 45.638969 -0.596403 0.842694 0.119219 -0.026735 -449181.000000 0 0 1
-28.919353 19.499550 31.519967 47.011379 -0.593250 0.835947 0.119833 -0.018200 -90084.500000 0 0 1
-29.080853 18.405650 32.426566 47.285793 -0.564269 0.815153 0.102333 -0.012036 -7130.440000 0 0 1
-29.927253 17.201750 31.956546 47.039999 -0.521673 0.823922 0.084129 -0.015113 413829.000000 0 0 1
-31.327053 17.408350 31.717567 47.858531 -0.507207 0.846330 0.067926 -0.015476 837183.000000 0 0 1
-31.983653 16.217950 31.319457 47.611809 -0.469288 0.852891 0.068241 -0.013599 -45234.700000 0 0 1
-33.497453 16.385350 31.122087 48.571014 -0.454932 0.875316 0.059450 -0.005593 -73106.300000 0 0 1
-34.195753 16.706150 32.347814 49.948234 -0.454441 0.866331 0.046138 -0.005474 -466426.000000 0 0 1
-35.571353 16.710250 32.210282 50.813934 -0.439170 0.884228 0.059589 -0.007908 -947564.000000 0 0 1
-36.202653 17.244150 33.544003 52.279948 -0.444527 0.874184 0.059066 -0.003521 693907.000000 0 0 1
36.835006 17.323250 33.701393 52.845970 0.439601 0.879250 0.054766 -0.016297 561230.000000 0 0 1
36.631806 17.844850 -32.879566 52.358321 0.453307 2.249741 0.050162 -0.018441 464283.000000 0 0 1
35.113006 17.974150 -32.577886 51.159671 0.473118 2.261122 0.049534 -0.018746 554891.000000 0 0 1
34.343006 16.753350 -32.674826 50.276844 0.453860 2.278247 0.060701 -0.009641 -93732.200000 0 0 1
33.182206 17.016950 -31.931956 49.094655 0.473862 2.278928 0.058371 -0.013858 -854751.000000 0 0 1
32.227206 15.839450 -31.899136 48.031613 0.456819 2.297123 0.068991 -0.010592 -320155.000000 0 0 1
31.849506 15.420450 -33.207976 48.527837 0.450900 2.324450 0.076899 -0.023755 327223.000000 0 0 1
30.817006 14.447650 -33.165726 47.522498 0.438395 2.343251 0.074910 -0.027389 500842.000000 0 0 1
31.423506 13.037350 -33.504826 47.749163 0.393278 2.348555 0.074550 -0.022881 421521.000000 0 0 1
32.176906 12.523550 -32.414776 47.359374 0.371170 2.324635 0.073975 -0.016882 208013.000000 0 0 1
32.948706 11.428150 -32.898516 47.943010 0.333863 2.327049 0.087754 -0.013085 11654.100000 0 0 1
18.043706 -21.182150 9.565034 29.423608 -0.865238 1.239700 0.012597 -0.002847 -58389.600000 0 0 1
17.726406 -22.277650 10.356034 30.294663 -0.898681 1.221918 0.015618 -0.006682 236769.000000 0 0 1
18.863306 -23.072950 10.698734 31.664621 -0.885445 1.226136 0.003567 -0.009332 191398.000000 0 0 1
18.532706 -24.444950 11.334834 32.703138 -0.922106 1.216855 0.008444 -0.010340 428120.000000 0 0 1
17.766106 -25.399380 10.551634 32.742938 -0.960426 1.242684 0.017155 -0.011518 -824740.000000 0 0 1
16.446706 -25.552660 10.906034 32.285820 -0.998905 1.226222 0.028367 -0.015292 -1021600.000000 0 0 1
15.662406 -26.460000 9.966034 32.322815 -1.036334 1.257361 0.055074 -0.028225 -195887.000000 0 0 1
15.533006 -25.825070 8.683534 31.362594 -1.029297 1.290255 0.060431 -0.025433 -425232.000000 0 0 1
14.769606 -26.532250 7.810034 31.354396 -1.062850 1.319057 0.083881 -0.023500 -610705.000000 0 0 1
14.594906 -25.754270 6.441234 30.294937 -1.055223 1.356543 0.090025 -0.018952 89194.800000 0 0 1
13.711106 -24.633450 6.659734 28.968143 -1.062896 1.338823 0.096766 -0.021221 346257.000000 0 0 1
13.271506 -24.104350 5.440234 28.049041 -1.067504 1.375605 0.105479 -0.011329 386684.000000 0 0 1
12.516806 -22.732050 5.672434 26.563001 -1.067474 1.355593 0.113367 -0.015197 526350.000000 0 0 1
11.846306 -22.181850 4.519134 25.549795 -1.080278 1.392985 0.109107 -0.013830 24145.400000 0 0 1
11.075606 -21.084150 4.952734 24.325707 -1.087110 1.365762 0.106874 -0.014974 77906.600000 0 1 0
10.298606 -20.439950 3.810534 23.202866 -1.104076 1.405822 0.093612 -0.019957 250290.000000 0 1 0
11.203106 -19.917450 2.858034 23.030040 -1.058424 1.446375 0.085298 -0.014971 974171.000000 0 1 0
10.372306 -19.207050 1.885034 21.910017 -1.075643 1.484655 0.063190 -0.010689 939165.000000 0 1 0
11.146506 -19.086350 0.558634 22.109849 -1.042222 1.545527 0.058905 -0.003270 537900.000000 0 1 0
12.242206 -18.187150 0.719034 21.935383 -0.978337 1.538011 0.060076 0.001032 -158836.000000 0 1 0
12.638906 -17.725750 -0.532566 21.776771 -0.951382 1.595254 0.060565 -0.009178 -267202.000000 0 1 0
13.770006 -16.708350 -0.288866 21.653301 -0.881509 1.584137 0.051937 -0.008566 781684.000000 0 1 0
14.936306 -17.339850 0.294834 22.887782 -0.859729 1.557914 0.066385 -0.012451 959593.000000 0 1 0
16.120106 -16.543750 0.216134 23.099788 -0.798367 1.561440 0.055783 -0.021150 948810.000000 0 1 0
17.301706 -17.049950 1.106734 24.316140 -0.778069 1.525266 0.040058 -0.016824 68120.000000 0 1 0
17.907206 -18.211950 0.576834 25.547522 -0.793835 1.548216 0.057551 -0.019440 396148.000000 0 0 1
19.063306 -18.577150 1.343734 26.651937 -0.772483 1.520357 0.039447 -0.015590 666620.000000 0 0 1
19.557006 -19.956250 0.771734 27.952173 -0.795502 1.543184 0.035571 -0.024456 122459.000000 0 0 1
18.621006 -20.996350 1.011934 28.082247 -0.845284 1.534754 0.049535 -0.017170 42887.100000 0 0 1
18.799606 -22.157350 0.255734 29.059228 -0.867197 1.561996 0.060562 -0.023402 161196.000000 0 0 1
17.604006 -23.152950 0.371134 29.087761 -0.920713 1.558037 0.071932 -0.020585 86003.200000 0 0 1
17.616006 -23.983850 1.519334 29.796931 -0.937293 1.519785 0.057574 -0.010298 -424267.000000 0 0 1
16.644906 -24.969150 1.418534 30.042030 -0.982827 1.523560 0.075440 -0.011710 -684502.000000 0 0 1
16.590706 -25.841750 2.708534 30.828294 -1.000057 1.482824 0.068174 -0.005098 730599.000000 0 0 1
17.631406 -26.829410 2.880134 32.233195 -0.989399 1.481324 0.048426 -0.010018 1593890.000000 0 0 1
18.873106 -26.304700 3.430634 32.556115 -0.948435 1.465224 0.039400 -0.004136 944701.000000 0 0 1
19.984506 -27.364080 3.619434 34.077465 -0.940011 1.464384 0.042711 -0.001275 222135.000000 0 0 1
20.595306 -27.751530 2.369634 34.639994 -0.932350 1.502335 0.062627 -0.001398 284827.000000 0 0 1
21.640106 -28.723880 2.418734 36.044497 -0.925133 1.503642 0.087429 -0.000398 608791.000000 0 0 1
21.193706 -30.243010 2.800434 37.035864 -0.959547 1.495110 0.081006 0.002817 107980.000000 0 0 1
20.928006 -30.463010 4.188034 37.195645 -0.968850 1.457962 0.092087 0.003193 -76859.700000 0 0 1
20.499506 -31.827410 4.324434 38.103996 -0.998592 1.457061 0.073496 -0.009730 -168543.000000 0 0 1
20.245506 -32.267720 5.784334 38.529791 -1.010457 1.420100 0.085148 -0.020230 474946.000000 0 0 1
21.367006 -32.777900 6.533034 39.668882 -0.993106 1.405353 0.069976 -0.027541 611533.000000 0 0 1
20.876406 -33.458370 7.724534 40.186506 -1.012951 1.377375 0.064760 -0.027706 533909.000000 0 0 1
21.915806 33.736427 8.591734 41.137172 0.994689 1.360392 0.072610 -0.034142 96215.000000 0 0 1
22.890206 -33.468220 9.198434 41.577572 -0.970931 1.347715 0.073931 -0.030581 -371048.000000 0 0 1
23.933806 33.760285 9.743234 42.514874 0.954100 1.339569 0.092235 -0.034327 32626.600000 0 0 1
24.936106 -33.413450 10.609134 43.021178 -0.929674 1.321623 0.081063 -0.030369 302445.000000 0 0 1
25.775106 -32.559460 9.806434 42.668966 -0.901179 1.338898 0.080717 -0.028063 215425.000000 0 0 1
26.750006 -31.877100 10.545534 42.929251 -0.872629 1.322607 0.084435 -0.024347 103931.000000 0 0 1
27.425506 -30.740410 9.724934 42.328543 -0.842327 1.338977 0.088869 -0.028197 458664.000000 0 0 1
26.500806 -29.663320 9.428634 40.879144 -0.841647 1.338054 0.069506 -0.024221 599712.000000 0 0 1
26.935406 -28.882980 8.333434 40.363210 -0.820275 1.362840 0.073876 -0.021503 -25289.600000 0 0 1
26.266106 -27.517210 8.345134 38.945429 -0.808656 1.354844 0.061354 -0.012403 -30504.100000 0 0 1
26.842706 -26.666720 9.331434 38.970764 -0.782109 1.329000 0.069883 -0.022342 131488.000000 0 0 1
26.395506 -25.277920 9.312934 37.715073 -0.763774 1.321287 0.044461 -0.017105 262675.000000 0 0 1
27.301806 -24.390150 10.234234 38.013255 -0.729131 1.298205 0.053502 -0.025926 1003540.000000 0 0 1
28.611306 -24.207350 9.683434 38.708804 -0.702212 1.317950 0.073426 -0.022821 40433.900000 0 0 1
29.454806 -23.515550 10.581434 39.147585 -0.673740 1.297096 0.065887 -0.025498 -610667.000000 0 0 1
30.842806 -23.383250 10.008834 39.977892 -0.648692 1.317745 0.100355 -0.029239 -795310.000000 0 0 1
30.810706 -22.465050 8.965034 39.170779 -0.630011 1.339879 0.109940 -0.027685 -638869.000000 0 0 1
31.986006 -22.259550 8.234234 39.829571 -0.607979 1.362558 0.111769 -0.030012 -327354.000000 0 0 1
31.678906 -21.378450 7.017234 38.856567 -0.593645 1.389207 0.111703 -0.010294 98089.500000 0 0 1
31.373206 -20.052450 7.362134 37.954971 -0.568716 1.375589 0.103872 -0.013199 -37709.400000 0 0 1
31.564506 -19.170550 6.236934 37.453002 -0.545803 1.403490 0.090194 -0.012913 121990.000000 0 0 1
31.355406 -17.625950 6.466334 36.546533 -0.512112 1.392926 0.116639 -0.011764 -316125.000000 0 0 1
32.279206 -17.182550 7.382034 37.305249 -0.489160 1.371600 0.132650 -0.017679 -400886.000000 0 0 1
32.118206 -15.802150 7.601834 36.593374 -0.457227 1.361534 0.143241 -0.022194 -222904.000000 0 0 1
32.811706 -15.302350 8.837834 37.267644 -0.436382 1.331370 0.141263 -0.039060 -57053.900000 0 0 1
34.217806 -15.308250 8.693734 38.480928 -0.420670 1.342906 0.123818 -0.033424 -157012.000000 0 0 1
34.848306 -15.164850 9.944834 39.284562 -0.410451 1.314863 0.115107 -0.049448 -84720.300000 0 0 1
36.368606 -15.349450 9.968634 40.714307 -0.399371 1.323438 0.101843 -0.059695 83253.500000 0 0 1
37.142606 -14.278350 9.406934 40.889300 -0.367003 1.338658 0.110260 -0.041091 -426758.000000 0 0 1
-35.953453 -14.536650 9.365334 39.895795 0.384224 1.333840 0.112242 -0.041433 -531937.000000 0 0 1
-35.105753 -13.390250 8.762434 38.580992 0.364393 1.341679 0.118040 -0.032136 -288799.000000 0 0 1
-35.450653 -13.102750 7.432734 38.518520 0.354033 1.376613 0.151120 -0.036663 27018.500000 0 0 1
-34.478753 -12.385250 6.684034 37.240504 0.344860 1.390336 0.116855 -0.022851 149837.000000 0 0 1
-33.410653 -13.278650 6.003034 36.450387 0.378295 1.405352 0.090396 -0.018209 421584.000000 0 0 1
-32.567053 -13.987250 6.969934 36.122515 0.405668 1.376626 0.102261 -0.012979 935128.000000 0 0 1
-31.730553 -14.918750 6.209934 35.608431 0.439500 1.395505 0.110211 0.000165 514842.000000 0 0 1
-31.086353 -16.008450 7.066434 35.673047 0.475549 1.371389 0.089676 -0.018229 -395707.000000 0 0 1
-32.001053 -16.881750 7.626334 36.975963 0.485434 1.363054 0.098395 -0.026312 -468479.000000 0 0 1
-32.254353 -16.537350 8.987134 37.344288 0.473769 1.327754 0.077579 -0.026659 -191071.000000 0 0 1
-33.152853 -17.482550 9.766934 38.731695 0.485273 1.315875 0.055946 -0.031319 424497.000000 0 0 1
-34.563353 -17.287550 9.538234 39.805310 0.463784 1.328820 0.074252 -0.028328 694455.000000 0 0 1
-35.391153 -17.824250 10.547234 41.005875 0.466552 1.310660 0.092379 -0.038518 -108511.000000 0 0 1
-35.950553 -19.235650 10.331834 42.061851 0.491300 1.322622 0.109628 -0.032073 255767.000000 0 0 1
-34.940253 -20.282550 10.397034 41.716920 0.525952 1.318913 0.108456 -0.031922 254016.000000 0 0 1
-34.426653 -20.580750 11.693834 41.779271 0.538811 1.287111 0.107608 -0.053491 -894065.000000 0 0 1
-35.276953 -21.320750 12.747334 43.145479 0.543635 1.270870 0.149032 -0.064719 -425321.000000 0 0 1
-35.590553 -22.673750 12.379734 43.977770 0.567233 1.285440 0.141039 -0.061837 414056.000000 0 0 1
-36.758653 -22.727750 11.546934 44.733443 0.553764 1.309713 0.131891 -0.043154 40882.200000 0 0 1
37.084706 -24.149950 11.546134 45.736295 -0.577226 1.315585 0.140380 -0.043226 -230372.000000 0 0 1
36.505806 -24.500750 12.769734 45.782385 -0.591098 1.288124 0.186028 -0.044766 -37709.200000 0 0 1
35.807506 -25.763170 12.775634 45.925322 -0.623688 1.288895 0.150073 -0.037804 -22975.300000 0 0 1
34.611906 -25.558590 13.724034 45.161650 -0.636057 1.262026 0.169246 -0.040305 -628483.000000 0 0 1
33.691406 -24.624950 13.236634 43.780218 -0.631163 1.263647 0.143651 -0.037820 -309601.000000 0 0 1
32.810206 -24.189150 14.262834 43.186260 -0.635288 1.234214 0.118412 -0.020421 -471206.000000 0 0 1
33.002806 -22.717650 14.650834 42.660565 -0.602868 1.220232 0.137259 -0.029958 564802.000000 0 0 1
34.164606 -22.429750 15.439734 43.688664 -0.580945 1.209589 0.157696 -0.037386 77115.400000 0 0 1
35.351806 -22.209250 14.715834 44.266881 -0.560922 1.231913 0.148479 -0.041098 -573071.000000 0 0 1
36.448306 -21.799150 15.710634 45.282513 -0.539010 1.216482 0.122086 -0.039085 -514322.000000 0 0 1
36.392406 -20.523750 16.342934 44.863382 -0.513496 1.197934 0.119563 -0.038398 624921.000000 0 0 1
35.272406 -20.319650 17.230434 44.203152 -0.522644 1.170381 0.129815 -0.038790 658967.000000 0 0 1
35.421406 -18.905450 17.916334 43.966886 -0.490266 1.151086 0.114078 -0.033315 -414297.000000 0 0 1
35.209206 -17.896450 16.953234 42.981197 -0.470257 1.165345 0.110060 -0.045168 139252.000000 0 0 1
35.255406 -16.557850 17.439434 42.675988 -0.439078 1.149825 0.107565 -0.043185 1508380.000000 0 0 1
36.704206 -16.000250 17.885534 43.853154 -0.411087 1.150698 0.088665 -0.036028 1333130.000000 0 0 1
37.126606 -16.438550 19.161934 44.897556 -0.416825 1.129853 0.088621 -0.018446 639002.000000 0 0 1
-36.364953 -15.453850 19.622234 44.116475 0.401841 1.109865 0.073327 -0.017707 468448.000000 0 0 1
-35.970653 -15.717750 21.103934 44.568056 0.411957 1.077512 0.068505 -0.002315 -188248.000000 0 0 1
-35.177753 -16.855950 21.282534 44.435837 0.446841 1.071338 0.068866 -0.001744 22645.300000 0 0 1
-34.885353 -17.006650 22.679034 44.950557 0.453599 1.041955 0.052663 0.011192 285833.000000 0 0 1
-33.781553 -18.041450 23.030934 44.689050 0.490525 1.029369 0.055331 0.010955 -394222.000000 0 0 1
-34.284653 -19.340950 22.991534 45.586406 0.513626 1.042167 0.058696 0.003405 271581.000000 0 0 1
-33.511653 -20.308450 23.696034 45.792642 0.544828 1.026912 0.038233 0.008322 143749.000000 0 0 1
-32.187553 -20.753750 23.030134 44.689415 0.572694 1.029395 0.030965 0.019558 156294.000000 0 0 1
-31.151853 -19.790150 23.116434 43.548335 0.565958 1.011226 0.033256 0.032830 15782.800000 0 0 1
-29.912753 -20.354650 22.734534 42.731062 0.597496 1.009791 0.033007 0.033799 453194.000000 0 0 1
-28.712853 -19.352250 22.722134 41.415370 0.593057 0.990059 0.032953 0.042148 283764.000000 0 0 1
-28.428653 -18.936350 24.016534 41.756049 0.587611 0.957993 0.034863 0.026354 196915.000000 0 0 1
-27.353253 -18.015050 24.044334 40.630930 0.582402 0.937538 0.043077 0.016737 -134310.000000 0 0 1
-27.010553 -17.524150 25.449234 41.040582 0.575523 0.901927 0.043029 -0.004331 -1033010.000000 0 0 1
-25.931053 -16.621250 25.366634 39.901774 0.570007 0.881846 0.048652 -0.014846 122882.000000 0 0 1
-25.452953 -16.198350 26.653734 40.257433 0.566758 0.847202 0.047440 -0.022389 211337.000000 0 0 1
-24.379453 -17.140750 27.212834 40.357173 0.612791 0.830780 0.048281 -0.020491 -492625.000000 0 0 1
-24.995153 -18.319750 27.692134 41.559899 0.632488 0.841536 0.053743 -0.018961 522591.000000 0 0 1
-24.001053 -19.088650 28.387334 41.788370 0.671884 0.823972 0.058522 -0.025169 199436.000000 0 0 1
-24.597753 -20.368750 28.995934 43.135828 0.691626 0.833619 0.058038 -0.014674 -382606.000000 0 0 1
-25.547653 -20.175550 29.980034 44.255371 0.668443 0.826530 0.058306 -0.022429 -566639.000000 0 0 1
-26.222753 -21.313750 30.362734 45.429113 0.682495 0.838802 0.055570 -0.018120 -159610.000000 0 0 1
-27.518253 -21.019150 31.187734 46.601864 0.652291 0.837614 0.061729 -0.022024 109534.000000 0 0 1
-27.238353 -20.182450 32.328334 46.844214 0.637688 0.809135 0.077314 -0.033533 1228950.000000 0 0 1
-28.380753 -20.153850 33.223434 48.119034 0.617488 0.808696 0.089375 -0.036621 843021.000000 0 0 1
-29.607753 -19.277650 32.958034 48.316445 0.577149 0.820126 0.075558 -0.041664 61898.200000 0 0 1
-30.387353 -19.702250 31.825134 48.212126 0.575229 0.849836 0.076472 -0.039188 -1160760.000000 0 0 1
-31.671253 -19.310950 32.002234 48.991061 0.547544 0.858959 0.085060 -0.044629 -1173900.000000 0 0 1
-32.761353 -19.907250 31.049134 49.332075 0.546021 0.890028 0.073001 -0.013015 -131819.000000 0 0 1
-33.064353 -19.038450 29.978734 48.522557 0.522435 0.904815 0.071062 -0.028953 383057.000000 0 0 1
-33.946853 -19.678850 29.048034 48.820429 0.525356 0.933534 0.059700 -0.023861 257912.000000 0 0 1
-34.421953 -18.688150 27.978734 48.134472 0.497386 0.950518 0.061892 -0.016131 -357118.000000 0 0 1
-35.467353 -19.158450 27.185134 48.621095 0.495266 0.977470 0.055725 -0.012586 -186041.000000 0 0 1
-36.061853 -18.115650 26.420034 48.235384 0.465525 0.991146 0.074929 -0.008066 -435266.000000 0 0 1
-37.024553 -18.778050 25.470834 48.705196 0.469374 1.020477 0.062726 -0.013008 -1296780.000000 0 0 1
36.275606 -19.242350 26.056434 48.632555 -0.487709 1.005363 0.067566 -0.015682 -773414.000000 0 0 1
35.346406 -19.606150 25.043734 47.549534 -0.506434 1.016098 0.105715 -0.024839 708570.000000 0 0 1
33.976406 -20.054550 25.654534 47.060985 -0.533219 0.994248 0.085610 -0.025642 341871.000000 0 0 1
33.198306 -19.183550 26.413334 46.559643 -0.523971 0.967572 0.081408 -0.026982 -311210.000000 0 0 1
31.979006 -19.805850 26.710034 46.134092 -0.554518 0.953337 0.061629 -0.023338 -252337.000000 0 0 1
-29.673024 -5.371250 33.544300 45.106083 0.179075 0.732244 0.082688 -0.016049 -387109.000000 0 0 1
-30.819534 -5.415750 32.752954 45.298234 0.173949 0.762587 0.088897 -0.015359 -82264.000000 0 0 1
-30.911544 -4.263150 31.923669 44.640997 0.137050 0.774001 0.081829 -0.015039 72007.600000 0 0 1
-31.849124 -4.435550 30.711507 44.466138 0.138378 0.808379 0.079388 -0.025721 169056.000000 0 0 1
-31.329034 -5.333250 29.720157 43.511374 0.168617 0.818875 0.064404 -0.021966 -299682.000000 0 0 1
-30.203814 -4.961350 28.989917 42.158044 0.162808 0.812551 0.065083 -0.025683 -291151.000000 0 0 1
-29.848394 -5.978350 27.868927 41.271593 0.197675 0.829483 0.066043 -0.032437 -88823.400000 0 0 1
-30.566814 -5.895850 26.669797 40.992307 0.190544 0.862416 0.072084 -0.030760 4534.180000 0 0 1
-30.103374 -6.863950 25.710147 40.178833 0.224180 0.876438 0.094027 -0.026542 431795.000000 0 0 1
-30.771084 -6.440450 24.353227 39.767055 0.206324 0.911707 0.082469 -0.020592 337264.000000 0 0 1
-30.193044 -5.267650 23.824177 38.819576 0.172727 0.910038 0.106369 -0.023611 -27949.100000 0 0 1
-30.738384 -4.977350 22.586217 38.467642 0.160533 0.943265 0.108857 -0.021809 -23857.800000 0 0 1
-30.169484 -3.644950 22.024517 37.530824 0.120233 0.943648 0.123568 -0.024302 68589.700000 0 0 1
-28.847374 -3.831750 21.583317 36.231104 0.132055 0.932644 0.134365 -0.019282 -437433.000000 0 0 1
-28.255094 -2.613950 21.307717 35.485235 0.092250 0.926711 0.144345 -0.015546 454305.000000 0 0 1
-26.794764 -2.728750 20.769217 34.011260 0.101489 0.913906 0.133816 -0.006126 172355.000000 0 0 1
-26.797964 -3.269550 19.498517 33.301847 0.121407 0.945289 0.133342 -0.001805 638354.000000 0 0 1
-25.558174 -3.167550 18.767517 31.866492 0.123306 0.941047 0.101724 0.001480 528465.000000 0 0 1
-25.493894 -4.053950 17.505917 31.190227 0.157696 0.974885 0.099896 -0.005621 371642.000000 0 0 1
-26.511954 -3.649850 16.571117 31.477087 0.136808 1.016376 0.113193 0.002349 644925.000000 0 0 1
-26.209724 -4.202550 15.354117 30.665289 0.158990 1.046389 0.117165 -0.007650 424146.000000 0 0 1
-27.473544 -4.259750 14.430117 31.323623 0.153824 1.092037 0.126250 -0.015412 703233.000000 0 0 1
-27.933784 -2.982450 13.949417 31.365228 0.106366 1.109911 0.130313 -0.013702 -72283.900000 0 0 1
-29.108504 -3.194350 13.194617 32.118636 0.109302 1.147455 0.135472 -0.019381 -25659.900000 0 0 1
-29.553334 -1.914050 12.477017 32.136258 0.064676 1.172061 0.136330 -0.007460 -303513.000000 0 0 1
-28.819364 -1.624850 11.307317 31.000827 0.056321 1.197440 0.139292 -0.014267 161703.000000 0 0 1
-29.298644 -0.509650 10.540817 31.141277 0.017393 1.225491 0.153244 -0.017376 -34574.300000 0 0 1
-30.610724 -0.748850 9.758717 32.137358 0.024459 1.262268 0.157238 -0.018584 -15090.600000 0 0 1
-30.517264 -1.590950 8.594317 31.744240 0.052086 1.296639 0.169587 -0.029558 363171.000000 0 0 1
-31.765184 -1.608650 7.896817 32.771548 0.050599 1.327436 0.152054 -0.024402 422230.000000 0 0 1
-31.791924 -2.460950 6.612717 32.565484 0.077254 1.366315 0.174505 -0.032224 -49969.300000 0 0 1
-31.314354 -1.774750 5.488517 31.841205 0.056615 1.397560 0.189609 -0.048607 294266.000000 0 0 1
-32.292404 -0.909850 4.954017 32.682862 0.028168 1.418631 0.188875 -0.046506 -170695.000000 0 0 1
-31.983934 -0.317250 3.563117 32.183357 0.009919 1.459856 0.191977 -0.047883 -312114.000000 0 0 1
-32.416174 -1.161750 2.542317 32.536462 0.035823 1.492579 0.194222 -0.065877 235775.000000 0 0 1
-32.050864 -0.753150 1.247817 32.083986 0.023494 1.531894 0.206822 -0.069812 -143803.000000 0 0 1
-32.813974 -1.470250 0.053117 32.846938 0.044776 1.569179 0.200025 -0.073594 1066500.000000 0 0 1
-34.177693 -0.991950 0.079417 34.192177 0.029015 1.568474 0.212842 -0.067437 991400.000000 0 0 1
-34.963821 -1.457250 -1.008883 35.008716 0.041655 1.599618 0.200826 -0.069848 600639.000000 0 0 1
-36.493744 -1.209150 -0.875183 36.524257 0.033121 1.594760 0.163398 -0.058047 392191.000000 0 0 1
37.225785 -1.978050 0.050717 37.278336 -0.053087 1.569436 0.159417 -0.053843 -116094.000000 0 0 1
35.849995 -1.734150 -0.045283 35.891942 -0.048335 1.572058 0.134521 -0.044608 -146528.000000 0 0 1
34.946465 -2.737150 0.738417 35.061271 -0.078165 1.549734 0.128976 -0.041880 -149105.000000 0 0 1
35.097935 -2.726850 2.173117 35.270713 -0.077537 1.509145 0.139201 -0.038546 65035.000000 0 0 1
34.668215 -3.908150 2.817417 35.001380 -0.112256 1.490215 0.120899 -0.018657 -125087.000000 0 0 1
34.937535 -3.941950 4.376217 35.430518 -0.112353 1.446965 0.118160 -0.003861 -197376.000000 0 0 1
34.042195 -3.080750 5.014017 34.547105 -0.090252 1.425146 0.127931 -0.015424 115359.000000 0 0 1
33.984205 -3.298750 6.442517 34.746424 -0.096764 1.384302 0.126402 -0.018223 67747.600000 0 0 1
33.238815 -2.082850 7.082317 34.048735 -0.062581 1.361261 0.144161 -0.019688 -80549.800000 0 0 1
31.842425 -2.208450 7.037717 32.685574 -0.069245 1.353781 0.143329 -0.022915 25384.100000 0 0 1
31.197865 -1.073150 7.679017 32.146940 -0.034385 1.329592 0.166798 -0.024198 1620050.000000 0 0 1
29.654055 -1.183450 8.045317 30.748832 -0.039887 1.306069 0.149176 -0.028760 1384120.000000 0 0 1
28.844265 -1.138950 6.874217 29.673957 -0.039466 1.337014 0.158657 -0.032856 212654.000000 0 0 1
27.486465 -1.495650 7.014817 28.406873 -0.054360 1.321274 0.163811 -0.026193 196322.000000 0 0 1
27.099465 -3.000450 6.969217 28.141672 -0.110271 1.320545 0.179542 -0.036237 -364129.000000 0 0 1
27.605565 -3.754850 8.064117 29.003381 -0.135188 1.289043 0.160856 -0.031433 470644.000000 0 0 1
27.205265 -5.087750 8.050117 28.823880 -0.184878 1.287745 0.188081 -0.033340 -315874.000000 0 0 1
27.491365 -5.666150 9.428317 29.610363 -0.203260 1.246742 0.157745 -0.035080 -166268.000000 0 0 1
26.420465 -5.469450 10.335417 28.892503 -0.204132 1.204971 0.149489 -0.027065 409529.000000 0 0 1
26.600265 -6.096750 11.585317 29.647328 -0.225307 1.169327 0.127492 -0.022219 497883.000000 0 0 1
25.250465 -6.220850 12.385917 28.804443 -0.241555 1.126303 0.087612 -0.021238 472430.000000 0 0 1
24.478465 -7.290550 12.044617 28.238629 -0.289470 1.130144 0.115798 -0.027830 -279569.000000 0 0 1
23.132065 -7.185150 12.465317 27.241567 -0.301166 1.095520 0.108578 -0.034851 430801.000000 0 0 1
22.352265 -8.534050 12.458517 26.975330 -0.364717 1.090718 0.099215 -0.023364 -272732.000000 0 0 1
22.754765 -9.412950 13.450417 28.058808 -0.392235 1.070865 0.081245 -0.031868 99266.800000 0 0 1
21.928265 -10.535950 13.613617 27.878049 -0.447905 1.060624 0.113060 -0.046589 -427847.000000 0 0 1
22.488165 -11.454550 14.741017 29.227074 -0.471107 1.042154 0.063737 -0.043472 -351799.000000 0 0 1
22.354965 -10.999650 16.070217 29.647743 -0.457263 0.997935 0.059811 -0.043867 91898.200000 0 0 1
22.713965 -11.953650 17.016917 30.795932 -0.484441 0.985351 0.056328 -0.051533 -255370.000000 0 0 1
22.328465 -11.610350 18.466117 31.214709 -0.479503 0.937774 0.067325 -0.050221 -939411.000000 0 0 1
20.976965 -11.615350 18.777117 30.455370 -0.505694 0.906449 0.075305 -0.054610 -853245.000000 0 0 1
20.698665 -11.711050 20.152917 31.172480 -0.514883 0.867812 0.080906 -0.054455 220790.000000 0 0 1
21.098965 -10.485850 21.053217 31.596793 -0.461232 0.841549 0.078520 -0.046385 -534575.000000 0 0 1
20.265465 -9.374450 20.926617 30.602168 -0.433268 0.817800 0.067611 -0.039929 -284600.000000 0 0 1
20.569065 -8.425450 19.905817 29.838167 -0.388770 0.840452 0.080044 -0.037210 -923497.000000 0 0 1
21.641465 -7.406950 20.282717 30.571303 -0.329761 0.845368 0.068951 -0.025760 861898.000000 0 0 1
22.999965 -7.825650 20.480217 31.775439 -0.327959 0.870388 0.084578 -0.024534 1036100.000000 0 0 1
23.720865 -8.141350 19.277817 31.632187 -0.330617 0.915446 0.087878 -0.036685 -953267.000000 0 0 1
25.158465 -8.551850 19.545217 32.986331 -0.327666 0.936607 0.094026 -0.038355 -900673.000000 0 0 1
25.258665 -9.768850 20.234717 33.806425 -0.369034 0.929111 0.058403 -0.040003 138603.000000 0 0 1
26.383565 -10.459650 19.712017 34.555179 -0.377439 0.963742 0.060280 -0.043335 187732.000000 0 0 1
26.367165 -11.994550 19.970417 35.184005 -0.426925 0.967209 0.033669 -0.035453 67801.300000 0 0 1
25.424965 -12.691750 19.149717 34.266909 -0.462995 0.977810 0.065557 -0.053789 303741.000000 0 0 1
25.399765 -14.071950 19.510017 34.982976 -0.505923 0.979184 0.051274 -0.041988 63469.900000 0 0 1
24.338365 -14.934750 18.744317 34.157755 -0.550381 0.989919 0.061664 -0.038041 -15728.500000 0 0 1
24.539065 -15.042950 17.334417 33.599674 -0.549938 1.028726 0.064630 -0.042695 -209721.000000 0 0 1
23.563965 -15.726950 16.599717 32.835164 -0.588521 1.040781 0.061477 -0.044559 -650494.000000 0 0 1
23.466965 -17.316950 16.741117 33.627968 -0.635731 1.049698 0.046263 -0.037038 67149.600000 0 0 1
24.636465 -17.981850 16.278817 34.573143 -0.630504 1.080541 0.061707 -0.036255 193528.000000 0 0 1
24.539465 -19.390850 16.383717 35.307458 -0.668731 1.088257 0.055380 -0.022204 -212311.000000 0 0 1
25.833965 -20.141150 16.017617 36.464006 -0.662201 1.116008 0.068785 -0.014272 -68188.300000 0 0 1
26.071265 -20.161250 14.618017 36.053756 -0.658255 1.153325 0.062494 -0.023455 414859.000000 0 0 1
27.036165 -21.169450 14.268717 37.184622 -0.664292 1.176968 0.067784 -0.029246 174109.000000 0 0 1
27.145265 -21.245150 12.729117 36.745779 -0.664070 1.217055 0.050095 -0.042964 -1131450.000000 0 0 1
25.909065 -21.486450 12.158117 35.787805 -0.692355 1.224169 0.048026 -0.031518 -511516.000000 0 0 1
25.887465 -20.943450 10.851917 35.022179 -0.680216 1.255752 0.071103 -0.027429 -1139380.000000 0 0 1
24.536865 -21.107650 10.250017 33.950751 -0.710410 1.264102 0.021287 -0.017558 -1469160.000000 0 0 1
24.219465 -22.427250 9.907317 34.463299 -0.746996 1.279207 0.011932 -0.014393 -540031.000000 0 0 1
22.851065 -22.473450 9.645017 33.470188 -0.777067 1.278484 -0.003174 -0.006376 -469633.000000 0 0 1
22.515665 -23.531550 8.573717 33.677851 -0.807456 1.313383 0.005061 -0.007370 -253193.000000 0 0 1
22.910065 -24.835250 8.889317 34.938241 -0.825698 1.313539 0.008813 -0.006600 -58462.800000 0 0 1
22.760665 -25.715940 7.771017 35.210029 -0.846286 1.348259 0.016726 -0.002162 -36249.400000 0 0 1
21.365265 -26.347690 7.497617 34.740316 -0.889446 1.353266 0.014424 -0.004268 81285.700000 0 0 1
20.475465 -25.369780 7.064717 33.358367 -0.891753 1.357398 0.010124 -0.002975 -510134.000000 0 0 1
19.126165 -25.766610 7.273417 32.903358 -0.932251 1.347901 0.016696 -0.017289 617970.000000 0 0 1
18.104465 -24.608850 7.223617 31.393436 -0.936517 1.338616 0.022794 -0.016007 -218835.000000 0 0 1
17.993865 -24.051450 5.905917 30.612600 -0.928486 1.376655 0.044229 -0.019255 68820.500000 0 0 1
17.238565 -22.853750 5.915817 29.231129 -0.924549 1.367008 0.068023 -0.004315 -103015.000000 0 0 1
16.919865 -22.273850 4.534117 28.336627 -0.921161 1.410096 0.088623 -0.007699 -175029.000000 0 0 1
16.113065 -21.148350 4.777617 27.013130 -0.919718 1.392998 0.113139 -0.004487 -133979.000000 0 0 1
15.852965 -20.574650 3.543017 26.214227 -0.914298 1.435225 0.109266 -0.008378 -209953.000000 0 0 1
14.935765 -19.365250 3.584317 24.717146 -0.913823 1.425270 0.115446 -0.002573 -35181.800000 0 1 0
15.508765 -18.220050 4.127817 24.280257 -0.865610 1.399959 0.061662 -0.002681 277040.000000 0 1 0
14.553465 -17.163150 4.065117 22.867056 -0.867495 1.392075 0.032640 0.007504 451823.000000 0 1 0
15.273365 -15.818850 4.281017 22.401759 -0.802940 1.378512 0.010936 -0.002984 -192391.000000 0 1 0
15.816265 -15.685150 5.579217 22.963141 -0.781236 1.325376 0.021194 -0.010829 195413.000000 0 1 0
16.758165 -14.623750 5.674117 22.953992 -0.717489 1.321012 0.022083 -0.016448 847442.000000 0 1 0
18.229665 -15.138350 5.467717 24.318435 -0.693019 1.344019 0.031204 -0.027927 -265376.000000 0 1 0
19.159765 -14.112850 5.542617 24.433374 -0.634862 1.341958 0.067746 -0.029229 -439230.000000 0 1 0
20.443065 -14.714250 5.401717 25.760563 -0.623870 1.359539 0.091970 -0.028779 76867.100000 0 0 1
21.458265 -13.551450 5.196917 25.905731 -0.563278 1.368817 0.097323 -0.030424 -195820.000000 0 0 1
21.535665 -12.765850 6.346517 25.826926 -0.535092 1.322521 0.113824 -0.032235 177487.000000 0 0 1
22.492465 -11.742350 6.193517 26.118067 -0.481137 1.331380 0.142156 -0.034619 -162359.000000 0 0 1
22.767265 -11.048150 7.551217 26.408916 -0.451790 1.280815 0.144401 -0.033279 -152738.000000 0 0 1
23.469665 -11.875050 8.455117 27.628446 -0.468416 1.259777 0.134709 -0.020770 161121.000000 0 0 1
23.673865 -11.137550 9.672217 27.893524 -0.439736 1.216687 0.149325 -0.038400 5888.100000 0 0 1
24.253265 -12.141250 10.725417 29.166169 -0.464130 1.194224 0.114071 -0.033454 -171633.000000 0 0 1
23.320065 -13.107250 11.166017 28.988021 -0.512054 1.175378 0.116855 -0.038194 33590.400000 0 0 1
23.695765 -13.894850 12.260217 30.081042 -0.530349 1.151002 0.112792 -0.045740 125872.000000 0 0 1
22.629365 -15.012350 12.630517 29.949771 -0.585739 1.135451 0.093497 -0.052049 1299670.000000 0 0 1
21.535465 -14.403150 13.388017 29.162750 -0.589485 1.093838 0.073160 -0.048524 921284.000000 0 0 1
20.627365 -15.474750 13.741117 29.219418 -0.643632 1.081196 0.043343 -0.041561 1437660.000000 0 0 1
19.269265 -14.918850 14.376917 28.294388 -0.658829 1.037797 0.047133 -0.039988 714570.000000 0 0 1
19.326565 -14.380850 15.658817 28.731925 -0.639713 0.994411 0.045702 -0.042351 51422.700000 0 0 1
19.108065 -12.983150 15.731117 27.949032 -0.596807 0.972966 0.075474 -0.058912 1.562400 0 0 1
17.596365 -12.664750 15.884217 26.876315 -0.623850 0.938484 0.089285 -0.056519 195629.000000 0 0 1
16.806065 -12.948250 14.654317 25.784686 -0.656462 0.966317 0.100441 -0.057238 -117188.000000 0 0 1
15.499065 -12.540550 14.893317 24.885685 -0.680275 0.929207 0.132574 -0.050763 -626097.000000 0 1 0
15.116665 -11.077950 14.621417 23.770157 -0.632422 0.908263 0.114199 -0.041839 -752154.000000 0 1 0
15.627465 -10.307750 15.635617 24.391390 -0.583089 0.874957 0.100316 -0.034663 30051.800000 0 1 0
15.386965 -8.913150 15.500417 23.589529 -0.525035 0.853846 0.104307 -0.031952 -463000.000000 0 1 0
16.195465 -8.127650 16.575917 24.558355 -0.465124 0.829885 0.126494 -0.029297 -100786.000000 0 1 0
17.566165 -8.056850 16.273817 25.264998 -0.430030 0.870917 0.124512 -0.046964 287165.000000 0 0 1
18.365365 -9.135550 16.854817 26.548630 -0.461592 0.882962 0.119977 -0.041164 302199.000000 0 0 1
19.839165 -9.031650 16.385017 27.269616 -0.427206 0.926229 0.081662 -0.037122 131809.000000 0 0 1
20.498465 -7.830350 16.774217 27.620207 -0.364891 0.918117 0.085483 -0.047668 464102.000000 0 0 1
21.575065 -7.497850 15.895117 27.827252 -0.334467 0.962821 0.068774 -0.030000 191577.000000 0 0 1
22.152465 -6.088850 16.176617 28.097843 -0.268237 0.957306 0.053470 -0.011408 -581583.000000 0 0 1
23.371165 -6.068950 16.850217 29.444411 -0.254065 0.961522 0.084623 -0.016303 -334073.000000 0 0 1
23.696065 -4.831150 17.329317 29.751450 -0.201123 0.949033 0.075618 -0.015563 -438769.000000 0 0 1
-5.993394 -33.206748 -6.768866 34.415497 1.392231 1.768768 0.056804 -0.018945 -167562.000000 0 0 1
-6.696294 -31.986848 -6.606366 33.341309 1.364431 1.770260 0.047418 -0.019305 94366.000000 0 0 1
-6.216994 -31.178848 -5.550566 32.273524 1.373980 1.743641 0.055154 -0.018793 -830882.000000 0 0 1
-6.784894 -29.725648 -5.571866 30.995074 1.346390 1.751545 0.056386 -0.023165 3036690.000000 0 0 1
-8.233894 -29.565548 -5.222766 31.131912 1.299183 1.739356 0.045860 -0.019672 2649570.000000 0 0 1
-9.108794 -30.124548 -6.168566 32.070387 1.277166 1.764347 0.039568 -0.013253 -1143360.000000 0 0 1
-10.577494 -29.998848 -5.757166 32.325829 1.231810 1.749850 0.049618 -0.004192 255652.000000 0 0 1
-11.565294 -30.286648 -6.751666 33.115285 1.206024 1.776120 0.044290 -0.004976 578636.000000 0 0 1
-12.877594 -30.034148 -6.268066 33.274181 1.165741 1.760305 0.054467 -0.002037 802090.000000 0 0 1
-14.062394 -30.500748 -7.167366 34.342651 1.138791 1.781043 0.073812 -0.012300 424027.000000 0 0 1
-14.086594 -29.913348 -8.455066 34.128121 1.130688 1.821148 0.102757 -0.028840 282596.000000 0 0 1
-15.213994 -30.393848 -9.180666 35.207048 1.106700 1.834608 0.097977 -0.019942 270128.000000 0 0 1
-15.390094 -29.645848 -10.520466 35.020159 1.091961 1.875921 0.110026 -0.012880 -82192.800000 0 0 1
-15.761894 -28.243048 -10.416666 33.979612 1.061770 1.882369 0.111936 -0.023192 -37561.800000 0 0 1
-14.671294 -27.382948 -10.212966 32.701336 1.078934 1.888420 0.103829 -0.020567 -391301.000000 0 0 1
-15.030594 -25.945548 -9.833166 31.556004 1.045727 1.887683 0.095691 -0.005626 134868.000000 0 0 1
-15.597394 -25.227948 -10.972366 31.624688 1.017060 1.925120 0.105972 -0.027573 319135.000000 0 0 1
-15.892594 -23.896848 -10.567166 30.582657 0.983914 1.923598 0.087667 -0.011557 -255944.000000 0 0 1
-16.664794 -23.134248 -11.624766 30.790323 0.946542 1.957941 0.105085 -0.016863 -741877.000000 0 0 1
-18.009594 -23.439748 -11.791866 31.824760 0.915663 1.950370 0.115310 -0.017857 -812551.000000 0 0 1
-18.652294 -22.655048 -12.803466 32.016996 0.881998 1.982200 0.128019 -0.025798 1568030.000000 0 0 1
-20.160894 -23.171848 -12.970566 33.341142 0.854771 1.970370 0.107518 -0.015035 1327340.000000 0 0 1
-20.378294 -24.557348 -13.375166 34.601059 0.878132 1.967688 0.131082 -0.019622 -44895.000000 0 0 1
-20.168594 -25.470148 -12.300366 34.739022 0.901043 1.932726 0.130965 -0.021846 -1584840.000000 0 0 1
-20.373394 -26.972848 -12.540866 36.053891 0.923893 1.926059 0.123892 -0.027906 556648.000000 0 0 1
-19.389194 -27.671248 -13.326266 36.321181 0.959602 1.946471 0.124308 -0.038165 1275110.000000 0 0 1
-17.997694 -27.397248 -13.039766 35.278346 0.989575 1.949402 0.136784 -0.037801 282709.000000 0 0 1
-17.128294 -28.546148 -13.562766 35.947318 1.030361 1.957671 0.117121 -0.031706 -341305.000000 0 0 1
-17.162394 -28.698548 -14.943966 36.626173 1.031832 1.991073 0.124271 -0.048668 -143034.000000 0 0 1
-16.447694 -29.835748 -15.438466 37.403806 1.066975 1.996269 0.145715 -0.046032 205607.000000 0 0 1
-16.968594 -31.246048 -15.012866 38.595788 1.073294 1.970317 0.125940 -0.044736 -105317.000000 0 0 1
-16.998194 -31.550448 -13.613166 38.336506 1.076622 1.933814 0.131927 -0.037259 38036.600000 0 0 1
-17.332894 -32.898148 -13.439666 39.539120 1.085888 1.917615 0.121658 -0.032743 -593890.000000 0 0 1
-17.948294 -33.205248 -12.053466 39.623425 1.075256 1.879895 0.140398 -0.039479 844299.000000 0 0 1
-19.327594 -32.864548 -11.821866 39.917301 1.039174 1.871465 0.152096 -0.036303 1017610.000000 0 0 1
-19.807994 -31.543948 -11.716266 39.046743 1.010079 1.875549 0.153849 -0.038981 -316467.000000 0 0 1
-19.207594 -30.691748 -10.593766 37.724567 1.011606 1.855443 0.163355 -0.028445 -503045.000000 0 0 1
-19.491594 -31.012048 -9.268766 37.783322 1.009672 1.818640 0.169840 -0.031993 231563.000000 0 0 1
-18.868994 -30.124748 -8.315966 36.506091 1.011218 1.800611 0.148176 -0.012759 -95502.200000 0 0 1
-18.995594 -30.466048 -6.806966 36.542406 1.013276 1.758167 0.170852 -0.018390 -10746.800000 0 0 1
-18.217394 -31.587348 -6.405666 37.022514 1.047662 1.744692 0.153331 -0.023591 236770.000000 0 0 1
-18.500194 -31.761248 -5.054766 37.102355 1.043361 1.707460 0.147272 -0.038749 -235325.000000 0 0 1
-17.663894 -32.888648 -4.341466 37.583569 1.077925 1.686570 0.141988 -0.030906 -130728.000000 0 0 1
-16.359994 -32.466048 -4.067566 36.581946 1.104025 1.682217 0.127020 -0.021161 -444234.000000 0 0 1
-16.192194 -31.761348 -2.810566 35.761287 1.099333 1.649470 0.105390 -0.025157 -892662.000000 0 0 1
-14.870894 -31.027248 -2.725166 34.514637 1.123858 1.649835 0.088811 -0.023498 -1153890.000000 0 0 1
-13.764394 -31.845348 -2.829066 34.807878 1.162821 1.652163 0.051437 -0.011549 -882044.000000 0 0 1
-12.595194 -31.063448 -2.555766 33.617089 1.185586 1.646896 0.039831 -0.004918 146403.000000 0 0 1
-11.394794 -32.015648 -2.685466 34.088925 1.228863 1.649656 0.036930 -0.008593 -608021.000000 0 0 1
-11.405894 -33.002448 -1.696666 34.959043 1.238040 1.619348 0.038748 -0.001381 979728.000000 0 0 1
-10.084994 -33.435448 -1.269566 34.946360 1.277849 1.607133 0.053913 -0.003825 1756340.000000 0 0 1
-9.205794 -32.470548 -0.375366 33.752393 1.294534 1.581918 0.067760 -0.012620 -5296.070000 0 0 1
-9.785894 -32.227648 0.901034 33.692683 1.275995 1.544050 0.081221 -0.013149 -347129.000000 0 0 1
-8.906694 -31.583048 1.774234 32.862837 1.295926 1.516781 0.067939 -0.015381 32496.200000 0 0 1
-8.043494 -32.630348 2.531634 33.702323 1.329111 1.495608 0.087103 -0.028706 -624579.000000 0 0 1
-8.679294 -33.219548 3.619434 34.524902 1.315238 1.465768 0.096887 -0.037442 -251779.000000 0 0 1
-8.037794 33.613750 4.186934 34.814089 -1.336082 1.450239 0.122461 -0.024352 257657.000000 0 0 1
-6.788294 33.893850 5.079834 34.938213 -1.373131 1.424884 0.129292 -0.027084 -10680.900000 0 0 1
-5.728294 -33.468048 4.441434 34.243977 1.401282 1.440730 0.134803 -0.037267 -1037640.000000 0 0 1
-4.801094 -33.056848 5.397134 33.836885 1.426567 1.410608 0.138348 -0.046827 -186891.000000 0 0 1
-3.570694 -32.305648 4.840234 32.860807 1.460715 1.422963 0.144802 -0.047141 83033.100000 0 0 1
-3.892694 -31.030048 4.323834 31.570754 1.445999 1.433408 0.143824 -0.039983 112212.000000 0 0 1
-4.514794 -30.993548 3.073234 31.471069 1.426145 1.472988 0.125678 -0.039443 -94776.200000 0 0 1
-4.567694 -29.511648 2.608934 29.976787 1.417239 1.483654 0.125209 -0.038433 242956.000000 0 0 1
-3.269894 -29.231248 2.102334 29.488606 1.459396 1.499443 0.121138 -0.030158 221944.000000 0 0 1
-3.160694 -27.949348 1.550934 28.170223 1.458188 1.515713 0.102747 -0.025013 122661.000000 0 0 1
-2.839994 -26.816748 2.522934 27.084474 1.465286 1.477511 0.082898 -0.020691 -433003.000000 0 0 1
-2.598394 -25.634648 1.786534 25.827864 1.469779 1.501570 0.069192 -0.025104 -178862.000000 0 0 1
-2.596694 -24.433348 2.588234 24.706887 1.464917 1.465846 0.050378 -0.019818 812822.000000 0 1 0
-3.959594 -24.071548 3.320334 24.619960 1.407764 1.435521 0.052944 -0.022815 777764.000000 0 1 0
-4.249694 -25.019348 4.315834 25.742069 1.402546 1.402344 0.081611 -0.020948 231152.000000 0 0 1
-5.314894 -24.499848 5.138434 25.590900 1.357171 1.368631 0.067742 -0.020868 248873.000000 0 0 1
-5.953094 -25.462748 6.123334 26.856770 1.341125 1.340774 0.093893 -0.022602 -382542.000000 0 0 1
-5.180694 -25.953448 7.209134 27.429777 1.373771 1.304851 0.081913 -0.025625 -174858.000000 0 0 1
-5.946494 -26.625948 8.206334 28.489399 1.351068 1.278608 0.094596 -0.022495 312874.000000 0 0 1
-5.087994 -27.017648 9.436434 29.066945 1.384655 1.240160 0.082322 -0.019911 211267.000000 0 0 1
-4.623494 -25.882748 10.234534 28.214164 1.394029 1.199585 0.067783 -0.031361 -128738.000000 0 0 1
-5.555394 -25.187148 11.049234 28.059587 1.353708 1.166059 0.082954 -0.025195 -383380.000000 0 0 1
-4.911094 -24.327148 12.130434 27.623838 1.371597 1.116167 0.050416 -0.028716 -120606.000000 0 0 1
-4.232794 -25.007548 13.127134 28.558986 1.403125 1.093195 0.045929 -0.030680 -308200.000000 0 0 1
-3.412494 -24.098148 13.858734 28.007684 1.430124 1.053170 0.051584 -0.036957 -68381.700000 0 0 1
-2.494694 -24.736948 14.876334 28.973185 1.470287 1.031594 0.068278 -0.038055 -4047.530000 0 0 1
-3.207994 -25.280748 16.008234 30.094369 1.444576 1.009913 0.073653 -0.037694 407597.000000 0 0 1
-2.358394 -26.099548 16.854534 31.158045 1.480680 0.999246 0.082485 -0.033303 371569.000000 0 0 1
-2.899494 -26.553548 18.201534 32.323271 1.462033 0.972653 0.112776 -0.036450 -96811.200000 0 0 1
-2.891994 -25.459748 19.118234 31.969819 1.457690 0.929782 0.111330 -0.033635 -308177.000000 0 0 1
-3.693294 -25.624848 20.251334 32.869284 1.427653 0.906993 0.180470 -0.038359 -152418.000000 0 0 1
-3.394694 -24.548248 21.356134 32.714292 1.433381 0.859512 0.151012 -0.042419 -54872.800000 0 0 1
-2.382694 -25.024148 22.258934 33.575964 1.475867 0.846054 0.119659 -0.044950 388483.000000 0 0 1
-2.149694 -24.093448 23.309834 33.592616 1.481809 0.803909 0.101008 -0.042016 65644.000000 0 0 1
-1.377894 -22.820948 22.929934 32.380182 1.510491 0.783926 0.116182 -0.047428 -623393.000000 0 0 1
-2.114494 -21.929048 22.154634 31.243913 1.474669 0.782595 0.128240 -0.043155 -357775.000000 0 0 1
-1.335294 -20.837048 21.707734 30.119617 1.506801 0.765960 0.128615 -0.042991 -162800.000000 0 0 1
-2.198594 -19.716048 21.057234 28.930321 1.459742 0.755600 0.099308 -0.023110 -478176.000000 0 0 1
-3.000494 -18.910848 21.941234 29.121142 1.413443 0.717508 0.100474 -0.036613 315908.000000 0 0 1
-4.290594 -19.448948 22.157934 29.793369 1.353666 0.732178 0.092657 -0.037782 -332864.000000 0 0 1
-5.327094 -19.164248 21.035634 28.950721 1.299671 0.757434 0.070971 -0.037970 -971012.000000 0 0 1
-5.235294 -19.929948 19.798534 28.576093 1.313915 0.805382 0.097008 -0.043867 -365571.000000 0 0 1
-5.692794 -21.272548 19.985434 29.737969 1.309311 0.833821 0.084903 -0.031018 46754.300000 0 0 1
-5.630194 -22.084848 18.686834 29.472655 1.321179 0.884030 0.074056 -0.034044 130225.000000 0 0 1
-6.229194 -23.365248 18.895834 30.688601 1.310255 0.907487 0.073955 -0.031690 -90275.300000 0 0 1
-6.158094 -24.025848 17.595834 30.410145 1.319887 0.953764 0.072861 -0.031592 62654.400000 0 0 1
-6.859594 -25.393348 17.552634 31.622320 1.306960 0.982348 0.056282 -0.034661 785220.000000 0 0 1
-8.251094 -25.303748 17.865434 32.055171 1.255586 0.979625 0.076116 -0.033852 66277.300000 0 0 1
-8.927394 -26.526448 17.856134 33.199282 1.246156 1.002915 0.072814 -0.028703 273833.000000 0 0 1
-10.455594 -26.405648 18.056634 33.654417 1.193777 1.004476 0.076987 -0.031322 -688533.000000 0 0 1
-11.163194 -25.818748 16.963334 32.847821 1.162702 1.028129 0.098811 -0.031999 302137.000000 0 0 1
-12.576294 -25.921848 17.108134 33.508113 1.119089 1.034952 0.089491 -0.032008 639148.000000 0 0 1
-13.133394 -24.949848 18.182434 33.549693 1.086259 0.998034 0.075548 -0.033199 -1305000.000000 0 0 1
-13.164894 -23.613848 17.742634 32.337739 1.062208 0.990028 0.068222 -0.025446 -102073.000000 0 0 1
-13.205894 -22.712748 18.818534 32.317206 1.044142 0.949233 0.059620 -0.020611 70094.800000 0 0 1
-11.804694 -22.334048 19.340534 31.815355 1.084569 0.917384 0.057279 -0.024604 130700.000000 0 0 1
-11.158594 -23.301548 20.144734 32.761055 1.124189 0.908539 0.057152 -0.020839 -301519.000000 0 0 1
-9.761594 -23.138948 20.174834 32.213717 1.171581 0.894023 0.071238 -0.034465 -89685.800000 0 0 1
-9.147594 -24.049948 21.211334 33.346652 1.207336 0.881381 0.075994 -0.034322 -184573.000000 0 0 1
-9.287994 -23.684648 22.559734 34.002515 1.197073 0.845346 0.067797 -0.033379 -334633.000000 0 0 1
-8.384494 -24.362248 23.353534 34.773646 1.239334 0.834447 0.075369 -0.034683 -561997.000000 0 0 1
-8.135594 -23.784748 24.754634 35.280222 1.241221 0.793075 0.082667 -0.030067 -433732.000000 0 0 1
-7.311594 -24.610948 25.481134 36.172454 1.282014 0.789170 0.119124 -0.030911 -612100.000000 0 0 1
-7.088994 -24.107648 26.721634 36.680762 1.284802 0.754679 0.113936 -0.035410 -238201.000000 0 0 1
-5.922094 -24.848148 27.389534 37.452480 1.336830 0.750549 0.121766 -0.034957 -376098.000000 0 0 1
-4.674094 -24.531948 26.858034 36.674482 1.382522 0.749051 0.124131 -0.035470 -555399.000000 0 0 1
-3.606194 -24.797248 27.757834 37.395261 1.426382 0.734327 0.127353 -0.030078 260204.000000 0 0 1
-2.285194 -24.188648 27.241334 36.502097 1.476602 0.728318 0.121291 -0.030929 -521668.000000 0 0 1
-2.304094 -22.783948 26.957734 35.371409 1.470011 0.704194 0.113416 -0.032332 -37026.700000 0 0 1
-1.056194 -22.232448 26.563134 34.655410 1.523325 0.697433 0.120586 -0.039792 -7678.980000 0 0 1
0.062706 -22.004648 27.561034 35.267820 -1.567947 0.673765 0.132836 -0.031710 -575559.000000 0 0 1
0.685206 -23.213248 27.938134 36.329929 -1.541287 0.693503 0.129006 -0.018837 -153174.000000 0 0 1
1.673706 -22.847348 28.888034 36.868973 -1.497671 0.670466 0.116190 -0.038516 -116482.000000 0 0 1
2.417706 -24.025048 29.519934 38.137577 -1.470501 0.685602 0.128009 -0.045628 -86913.400000 0 0 1
3.524906 -24.512048 28.751534 37.946228 -1.427972 0.711028 0.109260 -0.043135 331619.000000 0 0 1
4.174606 -25.587348 29.358634 39.167195 -1.409070 0.723381 0.095477 -0.030893 -452433.000000 0 0 1
5.365306 -25.121648 30.324234 39.742206 -1.360385 0.702818 0.075035 -0.034652 1260300.000000 0 0 1
6.581606 -24.589248 29.764834 39.164959 -1.309265 0.707504 0.069000 -0.028138 868813.000000 0 0 1
7.174506 -25.495448 28.831234 39.150115 -1.296487 0.743021 0.059496 -0.019607 -892837.000000 0 0 1
8.510006 -24.928448 28.290134 38.654617 -1.241824 0.749735 0.059028 -0.015788 -44536.900000 0 0 1
8.192306 -24.033448 27.293534 37.278111 -1.242277 0.749309 0.071594 -0.022506 154045.000000 0 0 1
9.265906 -23.480848 26.528034 36.618900 -1.194940 0.760581 0.055518 -0.006886 96385.500000 0 0 1
8.895406 -22.267248 25.650434 35.112724 -1.190735 0.751718 0.071749 -0.013326 381536.000000 0 0 1
8.061206 -22.571548 24.502034 34.275465 -1.227775 0.774378 0.062459 -0.011961 389661.000000 0 0 1
7.737706 -21.404948 23.750734 32.895916 -1.223921 0.764113 0.072431 -0.007406 178219.000000 0 0 1
7.117806 -21.823548 22.352234 32.039863 -1.255522 0.798701 0.058033 -0.007277 -83140.200000 0 0 1
8.035706 -22.503948 21.575834 32.194982 -1.227828 0.836370 0.051452 -0.008560 -292325.000000 0 0 1
7.398506 -22.846248 20.399434 31.509140 -1.257615 0.866611 0.060640 -0.017943 47566.400000 0 0 1
8.237706 -23.862748 19.559334 31.935218 -1.238393 0.911616 0.083422 -0.036850 927907.000000 0 0 1
9.375206 -23.237748 18.948334 31.415391 -1.187322 0.923346 0.100222 -0.026064 92978.800000 0 0 1
10.337906 -24.174648 18.513734 32.156559 -1.166697 0.957291 0.098747 -0.029929 320767.000000 0 0 1
11.626206 -23.489548 17.999534 31.794823 -1.111195 0.969011 0.097380 -0.024638 138269.000000 0 0 1
11.470506 -22.919048 16.721034 30.601442 -1.106765 0.992721 0.109811 -0.017349 -757906.000000 0 0 1
12.655706 -22.361248 16.258134 30.405908 -1.055778 1.006640 0.094422 -0.020651 -245907.000000 0 0 1
-12.549394 22.323850 11.394634 28.029971 -1.058671 1.152159 0.064416 -0.033480 -87777.200000 0 0 1
-13.684494 21.520950 11.085134 27.808216 -1.004420 1.160776 0.051052 -0.041028 185999.000000 0 0 1
-13.299594 20.251950 10.555834 26.428135 -0.989721 1.159916 0.083719 -0.045376 -420451.000000 0 0 1
-14.199094 19.609250 9.521934 26.015461 -0.944077 1.196078 0.095224 -0.044009 -1081800.000000 0 0 1
-14.321194 20.434050 8.360334 26.316196 -0.959500 1.247506 0.098530 -0.045126 -411262.000000 0 0 1
-14.935794 19.778150 7.327234 25.844565 -0.923997 1.283342 0.090411 -0.037487 -328399.000000 0 0 1
-16.463394 19.632050 7.356234 26.656611 -0.872959 1.291205 0.084643 -0.041440 -696461.000000 0 0 1
-16.977594 18.750950 8.306434 26.623931 -0.834992 1.253508 0.075629 -0.045229 543221.000000 0 0 1
-18.338594 19.087750 8.616934 27.836986 -0.805412 1.256077 0.072179 -0.037070 283576.000000 0 0 1
-18.971494 18.116450 9.564734 27.921452 -0.762348 1.221157 0.076222 -0.038766 -370272.000000 0 0 1
-19.082794 16.778350 8.941034 26.937115 -0.721226 1.232455 0.073869 -0.037914 5538.750000 0 0 1
-19.669094 15.802150 9.729234 27.041435 -0.676811 1.202754 0.088106 -0.045703 -344078.000000 0 0 1
-18.783994 15.219550 10.873134 26.508455 -0.680954 1.148149 0.080361 -0.030522 314880.000000 0 0 1
-17.758394 14.394450 10.344634 25.091278 -0.681154 1.145841 0.058587 -0.001416 521004.000000 0 0 1
-16.894194 13.621450 11.184734 24.414258 -0.678558 1.094914 0.063481 -0.008371 563085.000000 0 1 0
-17.599394 12.432450 11.890534 24.610756 -0.615017 1.066554 0.055953 -0.004236 -31144.900000 0 1 0
-18.237094 11.537650 10.976634 24.211474 -0.564080 1.100259 0.039716 -0.007933 290268.000000 0 1 0
-19.005794 10.591250 11.701934 24.704859 -0.508403 1.077344 0.056538 -0.014066 48103.500000 0 1 0
-19.890394 9.704550 10.784034 24.619128 -0.453922 1.117385 0.059086 -0.022191 -462401.000000 0 1 0
-19.207094 8.778950 9.981934 23.358541 -0.428716 1.129253 0.032739 -0.017007 48270.300000 0 1 0
-18.915994 9.217550 8.665334 22.756671 -0.453427 1.180154 0.053382 -0.018408 -778151.000000 0 1 0
-19.999994 9.224350 7.569934 23.289317 -0.432143 1.239743 0.069757 -0.033709 -301903.000000 0 1 0
-20.370294 7.922250 7.193634 23.009983 -0.370911 1.252835 0.053272 -0.039196 62237.900000 0 1 0
-21.218394 7.907050 6.101234 23.451370 -0.356709 1.307603 0.063736 -0.044858 -424877.000000 0 1 0
-21.396494 6.493850 5.538434 23.035935 -0.294665 1.327992 0.074747 -0.038051 -678475.000000 0 1 0
-22.198094 5.684350 6.338434 23.774839 -0.250687 1.300930 0.098861 -0.037679 497795.000000 0 1 0
-21.960494 4.337950 5.895934 23.148286 -0.195024 1.313256 0.106567 -0.050705 -879055.000000 0 1 0
-23.208694 3.513450 6.025734 24.234217 -0.150244 1.319515 0.144924 -0.045020 -740132.000000 0 1 0
-24.259194 3.782850 5.140334 25.084686 -0.154689 1.364415 0.177626 -0.054061 652596.000000 0 0 1
-25.438184 2.998950 5.357134 26.168565 -0.117350 1.364622 0.208389 -0.050391 115842.000000 0 0 1
-26.521454 3.309350 4.339234 27.077080 -0.124138 1.409847 0.209297 -0.047277 -708683.000000 0 0 1
-26.179874 2.869350 2.995334 26.506433 -0.109166 1.457550 0.205423 -0.048270 436250.000000 0 0 1
-27.324104 2.774350 2.178734 27.550872 -0.101188 1.491633 0.200598 -0.040138 -98666.100000 0 0 1
-27.004554 2.598550 0.681734 27.137855 -0.095931 1.545673 0.211733 -0.041033 106960.000000 0 0 1
-26.321194 3.742150 0.106034 26.586090 -0.141226 1.566808 0.197314 -0.044759 524210.000000 0 0 1
-26.396904 3.856150 -1.323066 26.709866 -0.145057 1.620351 0.214915 -0.030324 -144478.000000 0 0 1
-27.692204 4.365350 -1.991666 28.104825 -0.156352 1.641721 0.205935 -0.035560 602783.000000 0 0 1
-28.797464 3.438650 -2.025166 29.072660 -0.118845 1.640512 0.198164 -0.036888 1749900.000000 0 0 1
-30.065764 4.157450 -2.070466 30.422383 -0.137407 1.638906 0.180159 -0.025083 616873.000000 0 0 1
-31.217814 3.161850 -2.028266 31.443013 -0.100939 1.635347 0.178592 -0.027566 -765108.000000 0 0 1
-31.412594 2.452850 -3.264166 31.676842 -0.077927 1.674025 0.165577 -0.035906 1338170.000000 0 0 1
-32.403954 1.364550 -3.229966 32.593111 -0.042086 1.670059 0.173749 -0.045447 709111.000000 0 0 1
-32.563894 0.801650 -4.650666 32.904081 -0.024613 1.712611 0.169847 -0.041254 -334320.000000 0 0 1
-31.391094 0.271250 -5.264566 31.830646 -0.008641 1.736953 0.195102 -0.046731 427485.000000 0 0 1
-31.509324 -0.409950 -6.534566 32.182388 0.013010 1.775266 0.197254 -0.042336 -452592.000000 0 0 1
-31.936924 0.343150 -7.795866 32.876441 -0.010744 1.810203 0.192222 -0.033928 147113.000000 0 0 1
-33.338764 0.599350 -7.771966 34.237930 -0.017976 1.799791 0.194696 -0.028528 548406.000000 0 0 1
-33.664924 1.412950 -8.862866 34.840693 -0.041946 1.828006 0.199666 -0.028007 198298.000000 0 0 1
-35.115604 1.970350 -8.866166 36.271157 -0.056052 1.817740 0.210829 -0.031308 425804.000000 0 0 1
-35.501996 2.808750 -7.780966 36.453041 -0.078951 1.785903 0.176041 -0.026130 -186842.000000 0 0 1
-36.882454 2.937450 -7.600966 37.771930 -0.079476 1.773413 0.173559 -0.025126 -603994.000000 0 0 1
37.214105 3.673350 -6.341866 37.928912 0.098390 1.738789 0.181207 -0.023140 -850266.000000 0 0 1
35.845255 3.720350 -6.126766 36.554898 0.103419 1.739196 0.181728 -0.025320 -577215.000000 0 0 1
35.519525 4.493850 -4.943866 36.142401 0.125849 1.708015 0.192996 -0.022175 -123131.000000 0 0 1
34.042245 4.285850 -4.581066 34.615447 0.125239 1.703527 0.192152 -0.030350 -121915.000000 0 0 1
33.706335 2.914450 -4.160866 34.087004 0.086251 1.693168 0.175586 -0.030675 269452.000000 0 0 1
32.308635 2.687450 -4.213566 32.692881 0.082990 1.700039 0.164563 -0.028657 241639.000000 0 0 1
32.095295 1.313650 -3.547266 32.317437 0.040907 1.680781 0.193640 -0.021114 -260316.000000 0 0 1
32.715335 0.265650 -4.206966 32.985789 0.008120 1.698683 0.121669 -0.028833 219769.000000 0 0 1
32.444805 -0.914950 -3.471566 32.642829 -0.028193 1.677348 0.131248 -0.023459 -119205.000000 0 0 1
33.591925 -1.908150 -3.713766 33.850414 -0.056743 1.680729 0.106099 -0.029621 -235598.000000 0 0 1
33.531935 -3.244950 -3.109666 33.831796 -0.096472 1.662842 0.074630 -0.021996 -225780.000000 0 0 1
34.729155 -3.973850 -3.207166 35.102587 -0.113929 1.662289 0.103996 -0.022061 -154647.000000 0 0 1
34.586005 -5.476150 -2.867066 35.134030 -0.157031 1.652491 0.117905 -0.018749 -390551.000000 0 0 1
34.380285 -5.647050 -1.455166 34.871345 -0.162799 1.612538 0.097463 -0.005389 -50435.500000 0 0 1
34.806985 -6.937150 -1.025066 35.506352 -0.196726 1.599670 0.128305 -0.008873 -281757.000000 0 0 1
34.295045 -7.248750 0.368834 35.054679 -0.208299 1.560274 0.126388 -0.005657 -440178.000000 0 0 1
32.899255 -7.361850 0.327834 33.714467 -0.220143 1.561072 0.114572 -0.004494 -14705.800000 0 0 1
32.197815 -7.651950 1.566034 33.131618 -0.233326 1.523512 0.148418 -0.014166 -173841.000000 0 0 1
32.148915 -9.150050 1.892134 33.479193 -0.277283 1.514249 0.151718 -0.011297 602283.000000 0 0 1
30.983325 -9.877150 1.433834 32.551197 -0.308604 1.526733 0.166406 -0.019201 1032630.000000 0 0 1
29.785255 -9.606050 2.144634 31.369365 -0.311978 1.502376 0.174105 -0.025622 328276.000000 0 0 1
28.570665 -10.512650 1.595134 30.485130 -0.352578 1.518447 0.192566 -0.027603 1241850.000000 0 0 1
27.266265 -10.395750 2.210634 29.264445 -0.364254 1.495184 0.208026 -0.036984 1372960.000000 0 0 1
26.609265 -9.229250 1.732634 28.217620 -0.333860 1.509355 0.209291 -0.046184 -589379.000000 0 0 1
25.821065 -9.425050 0.409334 27.490481 -0.349987 1.555906 0.181572 -0.037749 -387720.000000 0 0 1
26.691765 -9.690350 -0.716266 28.405391 -0.348250 1.596015 0.167946 -0.046012 630507.000000 0 0 1
26.048465 -9.959550 -1.947466 27.955461 -0.365196 1.640516 0.158083 -0.044895 -340377.000000 0 0 1
25.358665 -11.308150 -2.119066 27.846483 -0.419463 1.646968 0.140342 -0.033278 267446.000000 0 0 1
24.043265 -11.400550 -1.593366 26.656893 -0.442769 1.630605 0.148066 -0.020853 577625.000000 0 0 1
23.452365 -12.702550 -1.631566 26.721344 -0.496396 1.631893 0.120502 -0.015038 90222.100000 0 0 1
21.979965 -12.870650 -1.186166 25.498617 -0.529736 1.617332 0.110072 -0.016179 -233943.000000 0 0 1
21.149265 -12.409750 -2.198666 24.619656 -0.530635 1.660221 0.109115 -0.012031 -270841.000000 0 1 0
19.787465 -12.550650 -1.842966 23.504449 -0.565240 1.649286 0.101537 -0.013108 -25678.300000 0 1 0
18.863865 -11.941050 -2.911266 22.514652 -0.564340 1.700465 0.099362 -0.012792 -204988.000000 0 1 0
18.802865 -12.624950 -4.138366 23.023101 -0.591298 1.751527 0.103044 -0.022676 538891.000000 0 1 0
17.910965 -11.927050 -5.011666 22.094660 -0.587477 1.799615 0.096381 -0.023061 133116.000000 0 1 0
17.888465 -12.436350 -6.455666 22.723019 -0.607508 1.858867 0.103376 -0.034549 154610.000000 0 1 0
17.157465 -13.630850 -6.770166 22.934991 -0.671351 1.870450 0.108461 -0.036426 651342.000000 0 1 0
17.521065 -14.022250 -8.070966 23.848516 -0.674929 1.916040 0.120826 -0.043964 -267489.000000 0 1 0
16.723865 -15.218450 -8.677766 24.219672 -0.738304 1.937236 0.113246 -0.040774 -50810.700000 0 1 0
15.351965 -15.014450 -8.937666 23.259372 -0.774284 1.965203 0.118949 -0.027711 168346.000000 0 1 0
14.770865 -16.131050 -9.579866 23.878087 -0.829386 1.983622 0.110325 -0.027833 137363.000000 0 1 0
14.215865 -15.767750 -11.007166 23.913813 -0.837110 2.049112 0.112324 -0.042466 113692.000000 0 1 0
12.994665 -15.039450 -11.071766 22.751492 -0.858208 2.079035 0.074393 -0.034707 235338.000000 0 1 0
13.133665 -13.606750 -10.915566 21.835439 -0.803088 2.094281 0.067591 -0.026499 -261942.000000 0 1 0
13.350365 -12.732650 -12.202266 22.118949 -0.761720 2.155156 0.089379 -0.016643 -307044.000000 0 1 0
14.585965 -12.932750 -12.837266 23.340989 -0.725394 2.153146 0.104177 -0.023490 -60780.200000 0 1 0
14.613865 -12.226350 -14.095466 23.700862 -0.696679 2.207718 0.128443 -0.025187 -100878.000000 0 1 0
16.031965 -11.809750 -14.564466 24.670180 -0.634894 2.202310 0.128764 -0.043325 130447.000000 0 1 0
16.820265 -12.909450 -14.989966 25.966792 -0.654603 2.186183 0.122132 -0.040488 -181190.000000 0 0 1
18.044765 -12.448350 -15.493866 26.844643 -0.603888 2.186053 0.121234 -0.037003 -516120.000000 0 0 1
19.075465 -13.540050 -15.788966 28.222292 -0.617283 2.164519 0.105653 -0.036025 -877166.000000 0 0 1
19.923465 -13.705150 -14.697966 28.298512 -0.602552 2.116933 0.098410 -0.048619 -216794.000000 0 0 1
20.910065 -14.664150 -15.099366 29.669158 -0.611595 2.104731 0.061321 -0.037063 88396.800000 0 0 1
22.059565 -14.671350 -14.049666 29.987765 -0.586903 2.058403 0.056306 -0.040244 -18210.000000 0 0 1
22.886565 -13.511750 -14.086866 30.079927 -0.533315 2.058178 0.065925 -0.031123 220889.000000 0 0 1
23.683965 -13.433750 -12.909966 30.134085 -0.515959 2.013537 0.055297 -0.031044 163165.000000 0 0 1
24.439665 -12.104950 -12.836766 30.143152 -0.459880 2.010709 0.065515 -0.028269 -635883.000000 0 0 1
23.614965 -11.127950 -12.287066 28.852553 -0.440363 2.010705 0.065669 -0.020109 -156872.000000 0 0 1
24.029765 -9.771750 -12.298066 28.708172 -0.386228 2.013498 0.071315 -0.028895 79489.300000 0 0 1
25.225765 -9.377550 -11.383066 29.220744 -0.355914 1.970944 0.078666 -0.027804 -117943.000000 0 0 1
26.455765 -9.942850 -11.738266 30.603181 -0.359497 1.964448 0.074755 -0.022658 -173785.000000 0 0 1
27.417065 -9.444350 -10.819966 30.950975 -0.331740 1.927923 0.085758 -0.027149 -379326.000000 0 0 1
28.807465 -10.078850 -10.944466 32.422748 -0.336558 1.915115 0.100319 -0.025081 -206051.000000 0 0 1
29.271565 -9.983450 -12.277166 33.274955 -0.328691 1.948687 0.086598 -0.026308 1391930.000000 0 0 1
30.645305 -10.426550 -12.484766 34.694626 -0.327948 1.938900 0.067258 -0.026215 1548280.000000 0 0 1
31.358025 -9.933650 -13.805866 35.673591 -0.306781 1.968178 0.046087 -0.014980 91160.200000 0 0 1
30.861995 -10.508150 -14.983666 35.880276 -0.328176 2.001601 0.046888 -0.013871 510743.000000 0 0 1
31.670595 -10.093850 -16.091566 36.930352 -0.308536 2.021643 0.034774 -0.008825 -164454.000000 0 0 1
31.296525 -10.907950 -17.319266 37.395358 -0.335370 2.052331 0.016984 -0.000439 1160250.000000 0 0 1
29.992735 -10.728450 -17.931366 36.554038 -0.343519 2.083510 0.027470 -0.008139 1128680.000000 0 0 1
29.911635 -9.492350 -18.599766 36.479610 -0.307294 2.105827 0.023258 -0.004099 -984837.000000 0 0 1
28.491465 -9.053250 -18.908066 35.372869 -0.307663 2.134755 -0.003738 -0.012973 -870237.000000 0 0 1
27.993765 -9.580250 -20.093266 35.765506 -0.329734 2.167363 -0.010045 -0.002756 -604843.000000 0 0 1
26.718865 -9.115650 -20.383966 34.820955 -0.328786 2.196162 0.022992 -0.005474 -685275.000000 0 0 1
26.228665 -9.677850 -21.719666 35.402649 -0.353482 2.231286 0.042196 -0.011048 -234863.000000 0 0 1
25.951965 -11.058650 -21.753166 35.623005 -0.402819 2.227677 0.037044 -0.010296 357018.000000 0 0 1
25.320065 -11.332750 -23.020666 36.048411 -0.420839 2.263479 0.051705 -0.021072 -865034.000000 0 0 1
25.386065 -12.848950 -23.458866 36.876364 -0.468549 2.260293 0.046264 -0.008942 760742.000000 0 0 1
26.622365 -13.386150 -23.926366 38.215315 -0.465898 2.247330 0.045409 -0.006092 409017.000000 0 0 1
27.816265 -13.117150 -23.211266 38.530080 -0.440641 2.217325 0.029582 0.003245 -594906.000000 0 0 1
28.970565 -13.945450 -23.815166 40.011640 -0.448630 2.208318 0.030872 0.006964 -225177.000000 0 0 1
29.386665 -13.332650 -25.062296 40.858956 -0.425924 2.231137 0.046346 -0.006291 -60450.500000 0 0 1
30.787425 -13.493150 -25.124866 41.966529 -0.413055 2.212659 0.028177 -0.009064 -147558.000000 0 0 1
31.456215 -12.868350 -26.314996 42.983333 -0.388316 2.229654 0.035519 -0.005205 -272224.000000 0 0 1
31.301475 -13.649150 -27.501746 43.845498 -0.411197 2.248803 0.044263 -0.016157 345556.000000 0 0 1
32.232135 -13.325850 -28.540506 45.067164 -0.392033 2.256591 0.047411 -0.014803 292939.000000 0 0 1
32.107725 -14.206950 -29.794696 46.048532 -0.416581 2.274477 0.049095 -0.027187 -142394.000000 0 0 1
32.708055 -15.455750 -29.697866 46.804490 -0.441436 2.258169 0.066501 -0.016999 -312952.000000 0 0 1
32.962985 -16.154850 -30.920746 47.996147 -0.455689 2.270818 0.047652 -0.023416 657454.000000 0 0 1
31.689365 -16.665950 -31.696656 47.818906 -0.484165 2.295412 0.040405 -0.015561 587521.000000 0 0 1
31.041065 -15.647650 -32.454546 47.557273 -0.466918 2.321879 0.025705 -0.020471 -105346.000000 0 0 1
29.877195 -16.286750 -32.962466 47.375407 -0.499091 2.340290 0.027007 -0.012812 86204.100000 0 0 1
29.104065 -15.321550 33.915187 47.244433 -0.484575 0.770064 0.039423 -0.011441 -46963.300000 0 0 1
28.431165 -14.290850 -33.239496 46.015471 -0.465763 2.377998 0.041158 -0.018462 167340.000000 0 0 1
29.170465 -13.100550 -33.405756 46.243756 -0.422108 2.378040 0.049946 -0.019795 327580.000000 0 0 1
28.304465 -11.833050 -32.974716 45.038824 -0.395980 2.392254 0.054818 -0.017557 319323.000000 0 0 1
27.370565 -11.386250 33.912947 45.043118 -0.394226 0.718339 0.059948 -0.012042 -261058.000000 0 0 1
26.748565 -10.239950 -33.385836 43.988139 -0.365611 2.432532 0.045113 -0.020343 -34154.000000 0 0 1
21.131606 -29.735648 9.117134 37.601538 -0.952959 1.325888 0.029452 -0.019996 -296197.000000 0 0 1
21.707506 -29.341848 7.927134 37.349690 -0.933846 1.356929 0.042184 -0.017078 -924085.000000 0 0 1
22.769706 -30.118348 7.550534 38.504350 -0.923461 1.373422 0.058081 -0.014995 -614083.000000 0 0 1
23.348806 -29.728248 6.127234 38.294628 -0.905016 1.410103 0.060138 -0.011795 27119.100000 0 0 1
23.715806 -28.386648 6.113334 37.491521 -0.874806 1.407006 0.054958 -0.007626 -121533.000000 0 0 1
24.337706 -28.027648 4.901334 37.441903 -0.855747 1.439514 0.061471 -0.001224 -61692.300000 0 0 1
24.431406 -26.539048 4.503434 36.352381 -0.826725 1.446594 0.063604 -0.011470 170383.000000 0 0 1
25.269106 -25.649648 5.232534 36.384222 -0.792872 1.426483 0.062136 -0.007077 82577.300000 0 0 1
25.065306 -24.321048 4.833634 35.258290 -0.770329 1.433271 0.050313 -0.002596 313584.000000 0 0 1
25.841906 -23.256948 5.732334 35.235627 -0.732799 1.407384 0.033992 -0.002586 1031420.000000 0 0 1
27.255306 -23.151448 5.482434 36.178700 -0.704162 1.418673 0.047390 -0.003647 684295.000000 0 0 1
27.889606 -22.418448 6.497034 36.367959 -0.677071 1.391185 0.071106 -0.005200 13175.800000 0 0 1
27.559106 -20.883448 6.619234 35.205639 -0.648455 1.381654 0.055577 -0.003554 -315387.000000 0 0 1
27.830206 -20.152048 5.367734 34.776975 -0.626723 1.415829 0.062574 0.007217 280798.000000 0 0 1
27.347806 -18.814048 5.479534 33.643665 -0.602596 1.407198 0.066870 -0.004969 -70668.400000 0 0 1
27.458606 -17.996348 4.181334 33.095727 -0.580161 1.444117 0.067563 0.001042 538670.000000 0 0 1
28.805306 -17.762748 3.755934 34.049492 -0.552571 1.460263 0.116496 -0.002006 688345.000000 0 0 1
28.931206 -17.037048 2.560934 33.672453 -0.532204 1.494669 0.119512 0.007192 46724.200000 0 0 1
30.024006 -15.951748 2.638734 34.100764 -0.488373 1.493338 0.151799 -0.012859 146879.000000 0 0 1
29.558806 -14.855748 3.339034 33.250044 -0.465712 1.470205 0.152922 -0.020595 277184.000000 0 0 1
30.653406 -14.020048 3.630134 33.902374 -0.428969 1.463515 0.182366 -0.029257 197288.000000 0 0 1
30.269006 -12.874848 4.626634 33.217167 -0.402165 1.431058 0.190372 -0.029902 155940.000000 0 0 1
30.056706 -13.416048 5.914434 33.442136 -0.419821 1.393005 0.176377 -0.031507 92938.200000 0 0 1
29.819306 -12.343048 6.842534 32.990334 -0.392455 1.361869 0.168386 -0.026715 -45213.800000 0 0 1
29.792806 -12.692348 8.341034 33.440692 -0.402735 1.318707 0.170282 -0.022426 35474.900000 0 0 1
28.502306 -13.243748 8.550234 32.571227 -0.434974 1.305175 0.146999 -0.020409 315175.000000 0 0 1
28.145406 -13.542948 9.926734 32.773700 -0.448477 1.263076 0.136089 -0.014320 55115.500000 0 0 1
28.833406 -14.750648 10.574934 34.070165 -0.472870 1.255196 0.130493 -0.029246 -735247.000000 0 0 1
30.111606 -14.605748 11.084534 35.254838 -0.451619 1.250959 0.125319 -0.030574 -630603.000000 0 0 1
30.164406 -15.522348 12.169434 36.040669 -0.475253 1.226368 0.124340 -0.028384 182519.000000 0 0 1
31.154906 -15.246548 13.314934 37.153370 -0.455115 1.204267 0.118907 -0.028816 -483854.000000 0 0 1
32.501106 -15.122148 12.999534 38.131210 -0.435489 1.222905 0.114557 -0.030066 -72996.500000 0 0 1
33.313706 -15.176948 14.214934 39.270945 -0.427482 1.200415 0.107424 -0.031879 -66291.400000 0 0 1
34.770906 -14.845448 13.941334 40.295956 -0.403521 1.217520 0.104451 -0.034945 -723450.000000 0 0 1
35.152606 -13.490348 13.783034 40.095726 -0.366433 1.219886 0.099213 -0.036396 61887.600000 0 0 1
36.523106 -13.453548 13.461234 41.184221 -0.352934 1.237823 0.088730 -0.035953 -201215.000000 0 0 1
37.217106 -12.068648 13.516934 41.394115 -0.313578 1.238153 0.085223 -0.040063 -539200.000000 0 0 1
-35.983053 -12.075148 12.897234 40.086506 0.323770 1.243235 0.093060 -0.042736 -381889.000000 0 0 1
-35.390353 -10.821148 13.049634 39.241143 0.296738 1.231790 0.091800 -0.046899 796240.000000 0 0 1
-34.020553 -10.674648 12.267134 37.707144 0.304042 1.239439 0.097125 -0.042173 1227770.000000 0 0 1
-32.937953 -11.557348 12.519634 37.083990 0.337461 1.226428 0.092698 -0.037655 317234.000000 0 0 1
-33.113953 -12.916048 12.060534 37.534180 0.371898 1.243672 0.086022 -0.037882 -452158.000000 0 0 1
-31.894553 -13.831948 12.305034 36.878167 0.409198 1.230605 0.073476 -0.025769 748589.000000 0 0 1
-30.708953 -13.520548 11.559834 35.489080 0.414742 1.239013 0.087963 -0.024121 1282000.000000 0 0 1
-29.738453 -14.603548 11.743534 35.150389 0.456475 1.230152 0.096074 -0.021795 2030400.000000 0 0 1
-28.336053 -14.497948 10.985734 33.672077 0.472919 1.238456 0.102889 -0.020586 1205670.000000 0 0 1
-28.421853 -14.539748 9.549734 33.322717 0.472860 1.280138 0.090742 -0.015567 277488.000000 0 0 1
-27.143753 -14.577648 8.930034 32.078602 0.492849 1.288690 0.092290 -0.012083 225380.000000 0 0 1
-27.117353 -14.466748 7.417034 31.617243 0.490077 1.334001 0.112087 -0.004970 2780.740000 0 0 1
-27.466753 -15.720948 6.841934 32.378740 0.519850 1.357882 0.104829 0.002980 179655.000000 0 0 1
-27.303153 -15.656448 5.452934 31.942465 0.520654 1.399245 0.108372 0.002363 -432925.000000 0 0 1
-27.755653 -16.902048 4.708534 32.836349 0.546981 1.426906 0.098743 -0.001965 1052.010000 0 0 1
-29.160853 -17.015948 4.606634 34.075195 0.528214 1.435191 0.078768 -0.009109 -6943.280000 0 0 1
-29.551353 -18.213348 3.942934 34.936446 0.552339 1.457695 0.084923 -0.006289 -275820.000000 0 0 1
-31.075253 -18.363748 3.891934 36.304900 0.533734 1.463389 0.108784 -0.016677 -324587.000000 0 0 1
-31.752953 -17.449148 3.014234 36.356683 0.502481 1.487794 0.130349 -0.015938 -485072.000000 0 0 1
-33.098653 -17.708048 3.296834 37.682422 0.491260 1.483194 0.140644 -0.021170 -763905.000000 0 0 1
-34.125053 -16.809548 2.617234 38.130435 0.457699 1.502103 0.118772 -0.017667 -115372.000000 0 0 1
-34.399053 -17.086248 1.247434 38.429036 0.461010 1.538330 0.121395 -0.011522 -29613.100000 0 0 1
-35.321153 -16.187948 0.658934 38.859590 0.429741 1.553839 0.155971 -0.012491 168835.000000 0 0 1
-36.006753 -16.753948 -0.620066 39.718579 0.435504 1.586408 0.149043 -0.020025 -226554.000000 0 0 1
-35.079553 -17.042148 -1.642266 39.034689 0.452235 1.612881 0.142987 -0.021182 -235499.000000 0 0 1
-35.464153 -17.974248 -2.569666 39.841975 0.469096 1.635338 0.130049 -0.025561 -352605.000000 0 0 1
-34.275353 -18.520248 -3.366666 39.104141 0.495394 1.656998 0.098990 -0.012098 -167643.000000 0 0 1
-34.594253 -19.738448 -4.023066 40.031909 0.518499 1.671463 0.103370 -0.032253 -33041.500000 0 0 1
-33.551853 -20.210248 -4.874866 39.470816 0.542152 1.694618 0.085233 -0.027734 -160424.000000 0 0 1
-34.016953 -21.312248 -5.824466 40.562167 0.559690 1.714888 0.102731 -0.024011 -243775.000000 0 0 1
-34.358553 -22.420548 -4.988566 41.328888 0.578163 1.691795 0.106358 -0.033003 10998.400000 0 0 1
-35.031053 -23.403748 -5.766166 42.522450 0.588984 1.706818 0.090149 -0.022603 246283.000000 0 0 1
-35.744753 -24.453648 -4.878166 43.582850 0.599988 1.682960 0.093281 -0.023612 -301064.000000 0 0 1
-34.819353 -25.407248 -4.481966 43.335939 0.630374 1.674405 0.096202 -0.018640 -315304.000000 0 0 1
-35.388053 -26.692848 -4.330366 44.537339 0.646241 1.668180 0.075399 -0.008977 -127964.000000 0 0 1
-34.337353 -27.697448 -3.926666 44.290193 0.678769 1.659571 0.070548 -0.005904 -1750610.000000 0 0 1
-33.433553 -28.102948 -4.918366 43.951888 0.698989 1.682935 0.063082 -0.002951 350081.000000 0 0 1
-32.417153 -29.014248 -4.502166 43.737489 0.730061 1.673915 0.071058 0.004491 450285.000000 0 0 1
-31.451953 -28.589148 -3.385566 42.638326 0.737753 1.650282 0.081698 -0.002833 -1334000.000000 0 0 1
-32.108253 -28.364248 -2.181266 42.897884 0.723565 1.621666 0.069410 -0.008513 -650388.000000 0 0 1
-31.202053 -28.197748 -1.120566 42.070617 0.734864 1.597435 0.074915 -0.007180 -526963.000000 0 0 1
-31.783553 -28.169848 0.244034 42.471098 0.725196 1.565050 0.066875 -0.006020 -326747.000000 0 0 1
-32.157253 -29.440348 0.752334 43.604920 0.741319 1.553542 0.064619 -0.004594 9204.600000 0 0 1
-33.039853 -29.148348 1.828534 44.097638 0.722903 1.529319 0.057902 -0.001675 -21614.600000 0 0 1
-33.646653 -30.421548 2.499334 45.429226 0.735102 1.515753 0.042959 -0.001475 -522679.000000 0 0 1
-34.587053 -30.193948 3.549234 46.049276 0.717687 1.493645 0.034930 -0.004418 437269.000000 0 0 1
-35.138653 -31.318548 4.184634 47.255556 0.727979 1.482127 0.027870 -0.000843 -164015.000000 0 0 1
-35.971053 -32.229348 3.288234 48.409297 0.730590 1.502818 0.016937 0.000928 -845904.000000 0 0 1
-36.775353 -33.181948 3.963734 49.690839 0.734078 1.490944 0.030404 -0.008082 10968.200000 0 0 1
36.671606 -33.623848 3.086934 49.848762 -0.742069 1.508831 0.039945 -0.013231 -337799.000000 0 0 1
35.498006 33.605950 3.763634 49.026863 0.758025 1.493954 0.045165 -0.013078 83706.400000 0 0 1
34.628006 -33.652248 4.630534 48.507881 -0.771109 1.475191 0.042360 -0.018265 521663.000000 0 0 1
33.816906 -32.600848 4.120734 47.152719 -0.767091 1.483293 0.052484 -0.019528 387898.000000 0 0 1
32.691406 -32.916048 3.052934 46.492093 -0.788822 1.505083 0.060437 -0.015380 77913.800000 0 0 1
33.127106 -33.416348 1.737934 47.085857 -0.789745 1.533878 0.066086 -0.010486 -198165.000000 0 0 1
32.425606 -32.897748 0.613034 46.195861 -0.792626 1.557526 0.063362 -0.002385 -713799.000000 0 0 1
32.849406 -33.524748 -0.800066 46.942862 -0.795573 1.587841 0.064815 -0.010368 332133.000000 0 0 1
34.055506 -33.232748 -1.452666 47.605707 -0.773171 1.601316 0.034843 -0.000926 -889516.000000 0 0 1
35.211706 -33.329548 -0.697366 48.489271 -0.757945 1.585179 0.034182 0.001022 -709644.000000 0 0 1
36.544606 -33.162948 -1.488866 49.371106 -0.736924 1.600958 0.027785 0.001335 185480.000000 0 0 1
36.909806 33.689350 -2.272566 50.024701 0.739814 1.616241 0.029210 -0.007562 395380.000000 0 0 1
-36.714253 -33.932048 -3.378566 50.107235 0.746036 1.638274 0.030168 -0.005056 -99100.700000 0 0 1
-36.138153 32.805250 -4.143766 48.982868 -0.737093 1.655494 0.042542 -0.010915 295891.000000 0 0 1
-34.992453 32.310650 -3.459466 47.753720 -0.745573 1.643304 0.050707 -0.006729 280834.000000 0 0 1
-34.339053 31.274950 -4.169266 46.633420 -0.738733 1.660321 0.072888 -0.021181 801615.000000 0 0 1
-33.022853 30.628850 -3.588166 45.183075 -0.747805 1.650294 0.085537 -0.028078 521566.000000 0 0 1
-31.919453 31.538350 -3.603766 45.016732 -0.779393 1.650936 0.082469 -0.025851 439659.000000 0 0 1
-30.701053 30.851950 -3.322866 43.651334 -0.787850 1.646993 0.102950 -0.033830 546284.000000 0 0 1
-30.380353 30.796050 -1.807966 43.297013 -0.792193 1.612566 0.090212 -0.027230 -742812.000000 0 0 1
-31.255753 29.972850 -1.121266 43.319177 -0.764449 1.596683 0.073826 -0.022745 -707207.000000 0 0 1
-30.913553 29.909150 0.212534 43.014535 -0.768886 1.565855 0.063610 -0.016902 391446.000000 0 0 1
-32.119553 29.362550 1.097534 43.531938 -0.740586 1.545581 0.061538 -0.018744 717427.000000 0 0 1
-32.448253 28.058050 0.715634 42.902861 -0.712967 1.554115 0.064030 -0.024142 222156.000000 0 0 1
-33.455153 28.055650 -0.296366 43.662966 -0.697841 1.577584 0.068947 -0.023998 -387680.000000 0 0 1
-33.822053 26.645850 -0.852066 43.065748 -0.667273 1.590583 0.085076 -0.015601 -264116.000000 0 0 1
-34.169353 25.797950 0.197034 42.814924 -0.646695 1.566194 0.086835 -0.020114 26902.300000 0 0 1
-34.556253 24.561150 -0.333166 42.396884 -0.617910 1.578655 0.101124 -0.006250 -258860.000000 0 0 1
-34.699353 23.432450 0.676034 41.875791 -0.593955 1.554652 0.106258 -0.015288 72565.600000 0 0 1
-33.502653 22.993450 1.296334 40.654729 -0.601484 1.538904 0.110745 -0.021877 236755.000000 0 0 1
-33.022353 23.776250 2.380834 40.760940 -0.624026 1.512353 0.095949 -0.022015 -2098890.000000 0 0 1
-31.562353 23.675650 2.627134 39.542640 -0.643580 1.504309 0.094196 -0.028501 -1043870.000000 0 0 1
-30.684253 24.352550 1.701834 39.210539 -0.670857 1.527380 0.081811 -0.027833 489007.000000 0 0 1
-30.484153 25.762550 2.051334 39.964992 -0.701650 1.519445 0.057269 -0.022969 -200563.000000 0 0 1
-29.617853 26.477050 0.995834 39.739692 -0.729466 1.545735 0.043710 -0.022671 158901.000000 0 0 1
-28.267953 26.088650 0.858334 38.476377 -0.745327 1.548486 0.047612 -0.023262 -53202.800000 0 0 1
-27.674153 26.782850 -0.215566 38.512677 -0.769033 1.576394 0.054278 -0.021079 509216.000000 0 0 1
-26.453853 26.128750 -0.933066 37.193932 -0.779216 1.595885 0.056933 -0.023565 74689.700000 0 0 1
-26.799253 25.246050 -1.978166 36.871075 -0.755564 1.624473 0.067965 -0.027560 14933.600000 0 0 1
-25.679053 24.688650 -2.633566 35.719447 -0.765737 1.644592 0.073240 -0.018388 -14459.700000 0 0 1
-24.804353 23.625050 -1.992266 34.312797 -0.761052 1.628891 0.075259 -0.022729 65126.600000 0 0 1
-25.404953 22.307550 -1.801766 33.856828 -0.720571 1.624039 0.061862 -0.021318 386801.000000 0 0 1
-24.484653 21.472650 -1.073266 32.584120 -0.719953 1.603741 0.071181 -0.029909 -286133.000000 0 0 1
-25.003653 20.064450 -0.609566 32.064566 -0.676240 1.589808 0.087429 -0.031324 184878.000000 0 0 1
-25.960653 19.965050 0.461234 32.753190 -0.655582 1.556714 0.055144 -0.023700 756206.000000 0 0 1
-27.241253 20.532650 0.270234 34.113760 -0.645886 1.562875 0.053778 -0.021979 -144314.000000 0 0 1
-28.234453 19.816650 -0.657566 34.500962 -0.611974 1.589857 0.071157 -0.020920 -657312.000000 0 0 1
-28.604753 18.550650 -0.227466 34.094138 -0.575332 1.577468 0.100024 -0.031028 -464283.000000 0 0 1
-29.614353 18.087650 -1.043966 34.716896 -0.548303 1.600872 0.114672 -0.020276 -639934.000000 0 0 1
-29.708753 16.523950 -0.948866 34.008106 -0.507589 1.598701 0.139984 -0.027765 14654.300000 0 0 1
-30.424053 16.099550 0.207434 34.421818 -0.486712 1.564770 0.146038 -0.040426 252819.000000 0 0 1
-30.498453 14.698650 0.382434 33.857824 -0.449102 1.559501 0.162763 -0.040474 390522.000000 0 0 1
-29.152453 13.959350 0.706734 32.329993 -0.446576 1.548935 0.165228 -0.040450 29238.000000 0 0 1
-28.832253 14.138550 2.121434 32.182261 -0.455916 1.504829 0.174582 -0.040614 607959.000000 0 0 1
-27.491653 13.845650 2.510734 30.883601 -0.466548 1.489410 0.168048 -0.039280 442107.000000 0 0 1
-27.138153 12.354050 2.546834 29.926381 -0.427193 1.485590 0.192160 -0.034631 -488914.000000 0 0 1
-27.042753 11.898950 1.184334 29.568533 -0.414511 1.530732 0.170757 -0.036416 364935.000000 0 0 1
-26.509453 10.552950 1.157734 28.556194 -0.378852 1.530243 0.182259 -0.029939 -34247.300000 0 0 1
-26.541253 9.954650 -0.267366 28.347922 -0.358826 1.580228 0.160244 -0.025856 -257178.000000 0 0 1
-27.777153 9.504250 -0.763266 29.368071 -0.329674 1.596789 0.171538 -0.035112 89005.200000 0 0 1
-27.704153 9.252150 -2.126966 29.285600 -0.322317 1.643489 0.174063 -0.032713 -323895.000000 0 0 1
-28.970453 8.599950 -2.667266 30.337446 -0.288567 1.658830 0.177392 -0.038959 -323166.000000 0 0 1
-28.903353 8.597050 -4.107666 30.433304 -0.289108 1.706182 0.177282 -0.032472 925528.000000 0 0 1
-30.174353 8.179750 -4.631066 31.604536 -0.264721 1.717858 0.180372 -0.036056 716214.000000 0 0 1
-11.986394 18.209450 -19.555866 29.286338 -0.988642 2.301974 0.122677 -0.016779 51667.900000 0 0 1
-11.986194 17.063950 -20.370666 29.151522 -0.958443 2.344495 0.104873 -0.025514 -252108.000000 0 0 1
-10.869294 16.935950 -21.220566 29.245177 -1.000216 2.382715 0.091412 -0.022398 -150181.000000 0 0 1
-10.971994 15.743450 -22.167166 29.319347 -0.962138 2.428067 0.087584 -0.016755 271094.000000 0 0 1
-10.131394 14.595550 -21.891266 28.194020 -0.964012 2.459810 0.109677 -0.035664 348066.000000 0 0 1
-10.377394 13.632350 -22.866466 28.572828 -0.920145 2.498570 0.099681 -0.038708 -384188.000000 0 0 1
-9.579194 12.349750 -22.681466 27.544984 -0.911075 2.538232 0.080647 -0.033138 589177.000000 0 0 1
-8.162794 12.565050 -22.870666 27.341892 -0.994672 2.561606 0.072054 -0.030683 384288.000000 0 0 1
-7.489994 11.498450 -22.362466 26.237268 -0.993443 2.591195 0.061150 -0.026367 -450122.000000 0 0 1
-5.961494 11.498150 -22.332666 25.816561 -1.092479 2.616050 0.049093 -0.021899 420243.000000 0 0 1
-5.230094 11.305550 -23.593766 26.680238 -1.137503 2.655824 0.042345 -0.026797 2055090.000000 0 0 1
-3.804094 11.091550 -23.309066 26.092262 -1.240396 2.675503 0.038630 -0.024418 2005340.000000 0 0 1
-2.892094 10.952850 -24.568166 27.054092 -1.312639 2.709551 0.067066 -0.032752 45767.000000 0 0 1
-2.797894 9.559850 -25.011266 26.921782 -1.286077 2.762591 0.073084 -0.038678 -158920.000000 0 0 1
-2.379894 9.513850 -26.324846 28.092254 -1.325676 2.784982 0.080284 -0.040625 -401268.000000 0 0 1
-2.045194 8.016450 -26.664956 27.918921 -1.321000 2.840744 0.085601 -0.026784 106666.000000 0 0 1
-0.915694 7.394150 -26.086616 27.129752 -1.447583 2.863388 0.077266 -0.028459 79341.300000 0 0 1
-0.942894 7.208850 -24.678966 25.727571 -1.440738 2.855104 0.086780 -0.048053 -259866.000000 0 0 1
-0.119194 5.963950 -24.174366 24.899455 -1.550813 2.899671 0.030480 -0.032847 -293296.000000 0 1 0
1.263506 6.193550 -24.090966 24.906448 1.369554 2.884992 0.060950 -0.017362 -98884.100000 0 1 0
1.967406 5.477550 -23.094866 23.816949 1.225970 2.894722 0.053302 -0.016189 203828.000000 0 1 0
1.901706 6.303550 -21.754966 22.729491 1.277792 2.847705 0.041820 -0.018987 -540220.000000 0 1 0
2.572806 7.511450 -21.814166 23.214199 1.240803 2.792521 0.039813 -0.020800 -32234.400000 0 1 0
2.414306 8.131550 -20.593566 22.272089 1.282180 2.750874 0.048713 -0.019439 -30628.700000 0 1 0
3.036206 9.530350 -20.423966 22.741691 1.262379 2.686192 0.045057 -0.024609 -396267.000000 0 1 0
2.489006 10.273150 -19.357366 22.055393 1.333094 2.641776 0.056534 -0.025877 320875.000000 0 1 0
3.059506 11.587950 -19.283566 22.704561 1.312662 2.585503 0.057213 -0.029010 678392.000000 0 1 0
4.354706 11.711550 -18.395666 22.237904 1.214808 2.544940 0.063409 -0.041915 540939.000000 0 1 0
5.404906 10.964250 -18.950366 22.550923 1.112799 2.568700 0.063648 -0.032863 -207528.000000 0 1 0
6.473506 10.722850 -18.033866 21.956915 1.027652 2.534534 0.066684 -0.032056 937214.000000 0 1 0
7.632506 9.798950 -18.591566 22.358911 0.909048 2.552609 0.098849 -0.038872 549225.000000 0 1 0
7.289106 8.400050 -18.842166 21.879651 0.856090 2.608369 0.083548 -0.026052 271165.000000 0 1 0
6.765606 8.100750 -20.087266 22.691272 0.874968 2.657810 0.064244 -0.017863 -215463.000000 0 1 0
6.779106 6.589250 -20.443566 22.523629 0.771197 2.708446 0.074398 -0.014424 216379.000000 0 1 0
8.064006 6.051450 -20.733666 23.055002 0.643775 2.688993 0.076401 -0.004863 511641.000000 0 1 0
8.007606 4.648150 -20.902266 22.861141 0.525933 2.724608 0.071353 -0.004468 -307778.000000 0 1 0
8.072806 4.217450 -22.394766 24.176075 0.481428 2.755319 0.083386 -0.020228 -1025780.000000 0 1 0
6.968406 4.646750 -23.088866 24.561081 0.588116 2.793600 0.092706 -0.024707 -584118.000000 0 1 0
7.118306 4.442550 -24.463066 25.862098 0.557953 2.811166 0.078637 -0.035716 31290.800000 0 0 1
5.896706 5.108850 -25.161086 26.342963 0.713933 2.840911 0.067208 -0.040008 182989.000000 0 0 1
5.864006 6.561850 -25.272106 26.760489 0.841500 2.806504 0.061131 -0.043724 102064.000000 0 0 1
5.495106 7.216350 -24.063066 25.715813 0.919988 2.781120 0.077435 -0.040778 -627332.000000 0 0 1
5.498306 8.788150 -24.109766 26.243928 1.011730 2.735521 0.083401 -0.039469 684612.000000 0 0 1
4.426206 9.406350 -24.865466 26.951106 1.130981 2.745599 0.070568 -0.040671 160617.000000 0 0 1
3.268606 9.524350 -24.118566 26.136225 1.240206 2.746088 0.071099 -0.041145 -74527.300000 0 0 1
1.949606 9.943150 -24.886366 26.870028 1.377177 2.754938 0.088534 -0.028887 667540.000000 0 0 1
1.956106 11.220350 -25.458336 27.889953 1.398195 2.720919 0.096893 -0.037036 -9504.240000 0 0 1
0.911006 11.311850 -26.406216 28.741540 1.490434 2.735693 0.124847 -0.039782 24686.400000 0 0 1
0.427906 12.712450 -26.860626 29.720072 1.537149 2.699334 0.115306 -0.035623 -122935.000000 0 0 1
-0.131194 13.402750 -25.795016 29.069464 -1.561008 2.662379 0.103255 -0.036377 -91192.500000 0 0 1
-0.521894 14.691850 -26.094136 29.950405 -1.535289 2.628529 0.106581 -0.045332 -270976.000000 0 0 1
-1.138394 15.411450 -24.880366 29.288928 -1.497063 2.585796 0.115935 -0.049370 -732606.000000 0 0 1
-2.211194 14.783250 -24.280366 28.512629 -1.422323 2.589760 0.099863 -0.041944 -576434.000000 0 0 1
-2.487894 15.403750 -23.042266 27.828244 -1.410667 2.546359 0.098833 -0.048812 -139789.000000 0 0 1
-3.730094 14.814050 -22.283266 27.016913 -1.324130 2.540626 0.086352 -0.039827 755849.000000 0 0 1
-5.054194 15.199550 -22.559766 27.667928 -1.249776 2.524175 0.086393 -0.037063 -29593.300000 0 0 1
-5.487694 14.989950 -23.898566 28.739430 -1.219859 2.552707 0.080359 -0.038449 -120319.000000 0 0 1
-7.028094 15.053450 -24.156566 29.317915 -1.133997 2.539147 0.060317 -0.029977 419616.000000 0 0 1
-7.547094 16.326350 -24.399866 30.312733 -1.137790 2.506367 0.056904 -0.026248 -1520420.000000 0 0 1
-8.771494 16.180850 -24.966766 31.017711 -1.074046 2.506336 0.062050 -0.023661 -1537080.000000 0 0 1
-9.449794 17.505250 -25.383176 32.249620 -1.075798 2.476864 0.066124 -0.020410 -85868.600000 0 0 1
-9.995994 18.332650 -24.354966 32.080684 -1.071602 2.432846 0.067375 -0.023221 -382178.000000 0 0 1
-10.956394 19.110950 -24.973066 33.300525 -1.050237 2.418753 0.052714 -0.005796 -178884.000000 0 0 1
-11.542794 20.295750 -24.172166 33.607249 -1.053687 2.373525 0.049248 -0.011014 296004.000000 0 0 1
-10.590594 21.319550 -23.985066 33.793006 -1.109748 2.359960 0.065889 -0.010243 215975.000000 0 0 1
-11.197794 22.571850 -24.249966 34.970557 -1.110277 2.337048 0.052350 -0.013885 67767.900000 0 0 1
-11.122894 23.167350 -25.699846 36.344559 -1.123186 2.356209 0.047247 -0.007294 -351542.000000 0 0 1
-11.636494 22.346450 -26.709786 36.717632 -1.090702 2.385377 0.046985 -0.002772 53157.500000 0 0 1
-11.527094 22.926550 -28.026546 37.999840 -1.104924 2.400222 0.056074 -0.000687 -5091.170000 0 0 1
-12.138794 22.074150 -29.213846 38.575474 -1.068022 2.429991 0.054155 -0.006919 166410.000000 0 0 1
-11.416594 20.918950 -29.603036 38.003695 -1.071219 2.463788 0.061821 -0.010758 -105779.000000 0 0 1
-11.229694 19.927350 -28.598386 36.620663 -1.057623 2.466959 0.058063 -0.006558 -150856.000000 0 0 1
-10.203694 18.894850 -29.121446 36.182721 -1.075644 2.506209 0.051928 -0.013097 -951853.000000 0 0 1
-8.927894 19.481650 -29.101286 36.140376 -1.141085 2.506858 0.042863 -0.015944 -115756.000000 0 0 1
-7.900994 18.679850 -29.722386 35.983089 -1.170647 2.542788 0.044913 -0.014025 762295.000000 0 0 1
-7.502394 17.318850 -29.047376 34.640706 -1.162007 2.565381 0.062128 -0.029476 -923816.000000 0 0 1
-8.513394 16.352950 -29.053296 34.409168 -1.090803 2.576143 0.050705 -0.026209 -59412.500000 0 0 1
-8.020794 15.178450 -28.461536 33.238193 -1.084662 2.598840 0.048130 -0.028072 131884.000000 0 0 1
-9.221294 14.257750 -28.230366 32.943425 -0.996705 2.600089 0.053666 -0.017824 -119940.000000 0 0 1
-10.128094 14.557150 -27.220296 32.487435 -0.962930 2.564169 0.060369 -0.021113 -55984.400000 0 0 1
-11.402694 13.973750 -27.439996 32.836572 -0.886370 2.560118 0.107091 -0.020341 680321.000000 0 0 1
-12.451194 14.408950 -26.365356 32.523562 -0.858157 2.516065 0.101310 -0.018332 613318.000000 0 0 1
-13.076994 15.706950 -26.598086 33.543617 -0.876514 2.486416 0.087492 -0.012705 552153.000000 0 0 1
-14.204094 15.910950 -25.729946 33.420723 -0.842015 2.449449 0.094976 -0.017438 1083470.000000 0 0 1
-15.153994 17.068550 -26.217676 34.761264 -0.844745 2.425263 0.078396 -0.009751 321676.000000 0 0 1
-14.541094 18.333350 -26.127336 35.074105 -0.900246 2.411208 0.069203 -0.006776 108904.000000 0 0 1
-15.476094 19.365150 -26.374736 36.195928 -0.896560 2.387168 0.059382 -0.001512 -37720.800000 0 0 1
-14.905994 20.801750 -26.474456 36.821166 -0.949033 2.373160 0.044705 -0.000326 246610.000000 0 0 1
-15.946294 21.791850 -26.541576 37.863231 -0.939075 2.347575 0.032217 -0.000925 524991.000000 0 0 1
-15.496094 23.114050 -26.631486 38.517844 -0.980201 2.334230 0.026321 0.002801 -60776.100000 0 0 1
-15.215794 23.901950 -25.297166 37.983815 -1.003904 2.299628 -0.003042 0.008903 43267.400000 0 0 1
-14.730094 25.173050 -25.620066 38.820689 -1.041365 2.291561 0.014245 0.002113 -100765.000000 0 0 1
-14.303694 25.820950 -24.424666 38.312941 -1.064920 2.262051 0.015571 -0.003990 -60498.000000 0 0 1
-13.980394 27.277350 -24.679066 39.351767 -1.097177 2.248672 0.051451 -0.005433 -41224.300000 0 0 1
-15.055094 28.023950 -25.210936 40.590503 -1.077816 2.240947 0.059426 -0.009256 -170544.000000 0 0 1
-15.570894 28.944750 -24.286266 40.866539 -1.077250 2.207169 0.058757 -0.015175 -51835.300000 0 0 1
-16.911294 29.598750 -24.695466 42.094464 -1.051708 2.197734 0.048313 -0.012849 662991.000000 0 0 1
-18.034594 28.727450 -24.540766 41.866002 -1.010199 2.197125 0.028241 -0.007052 431356.000000 0 0 1
-19.180694 29.184950 -25.279906 43.113037 -0.989368 2.197358 0.031527 -0.005682 483176.000000 0 0 1
-20.249694 28.093150 -25.352346 42.918721 -0.946243 2.202730 0.029321 0.004056 -153034.000000 0 0 1
-20.819194 27.851050 -24.067266 42.288924 -0.928885 2.176226 0.028713 -0.004342 -32016.900000 0 0 1
-21.730994 26.759650 -24.112266 42.067997 -0.888732 2.181170 0.037994 -0.017905 -66166.600000 0 0 1
-22.278194 26.346550 -22.706566 41.304319 -0.868872 2.152847 0.039220 -0.019196 -54769.800000 0 0 1
-23.219794 27.296250 -22.272466 42.193682 -0.865920 2.126878 0.042237 -0.017800 -244966.000000 0 0 1
-23.340194 27.343650 -20.892966 41.580715 -0.864223 2.097247 0.031874 -0.005303 -176075.000000 0 0 1
-24.527194 28.226350 -20.458766 42.624772 -0.855405 2.071421 0.020008 -0.003720 875542.000000 0 0 1
-25.814364 27.661650 -20.794266 43.173484 -0.819929 2.073326 0.058777 -0.019425 406367.000000 0 0 1
-26.821994 28.630150 -20.675266 44.346042 -0.817994 2.055816 0.071770 -0.023310 -1186250.000000 0 0 1
-28.189854 28.075750 -20.896266 44.939621 -0.783370 2.054414 0.072594 -0.019150 -1187420.000000 0 0 1
-28.386064 27.541650 -22.160566 45.336539 -0.770301 2.081512 0.066050 -0.019618 -971882.000000 0 0 1
-29.699184 27.109150 -22.224366 45.944205 -0.739837 2.075702 0.082936 -0.014881 -865929.000000 0 0 1
-30.151754 26.839050 -23.629966 46.774332 -0.727337 2.100399 0.077099 -0.015841 -48130.000000 0 0 1
-29.892884 25.498150 -23.927366 46.002815 -0.706224 2.117797 0.072070 -0.006626 -85117.500000 0 0 1
-30.045414 25.332250 -25.296656 46.737251 -0.700493 2.142722 0.078739 -0.004061 -105633.000000 0 0 1
-30.119694 23.891450 -25.829496 46.315874 -0.670591 2.162386 0.067122 -0.009271 212080.000000 0 0 1
-28.921354 23.109550 -25.792936 45.119525 -0.674160 2.179321 0.072102 -0.015242 331021.000000 0 0 1
-28.994774 21.915250 -26.582646 45.029015 -0.647225 2.202282 0.075337 -0.015400 -47617.000000 0 0 1
-27.961844 20.785250 -26.302686 43.654583 -0.639227 2.217449 0.081651 -0.011248 48903.800000 0 0 1
-28.142474 20.035250 -25.103226 42.703419 -0.618683 2.199195 0.072049 -0.005788 128325.000000 0 0 1
-27.448224 18.790250 -25.152066 41.702577 -0.600296 2.218215 0.075732 -0.009963 69158.000000 0 0 1
-28.367114 17.551150 -25.287436 41.859174 -0.554067 2.219442 0.060135 -0.004199 81213.200000 0 0 1
-29.142834 17.448050 -26.472206 43.064102 -0.539469 2.232823 0.058380 -0.007858 158608.000000 0 0 1
-29.755514 16.182550 -26.464116 42.983892 -0.498110 2.234039 0.036824 -0.012687 -239537.000000 0 0 1
-30.622654 15.873750 -27.708706 44.243590 -0.478232 2.247564 0.015948 -0.015645 1101400.000000 0 0 1
-31.945664 16.467150 -27.640976 45.340005 -0.475950 2.226400 0.005759 -0.013947 1015450.000000 0 0 1
-32.675064 16.104550 -28.795556 46.434905 -0.457927 2.239701 0.016003 -0.013125 180875.000000 0 0 1
-33.961414 16.926550 -29.075806 47.804688 -0.462371 2.224614 0.028679 -0.012551 174674.000000 0 0 1
-35.054750 16.577750 -28.247496 47.974767 -0.441742 2.200369 0.014159 -0.005421 -1364420.000000 0 0 1
-36.189134 17.081450 -28.794236 49.300480 -0.441002 2.194513 0.026335 -0.004934 -1310650.000000 0 0 1
37.025585 16.645450 -27.994996 49.312116 0.422493 2.174518 0.047787 -0.007040 -182031.000000 0 0 1
36.695525 17.517450 -26.937386 48.775459 0.445383 2.155885 0.051747 -0.019029 -22389.500000 0 0 1
35.678245 17.048050 -26.090236 47.373765 0.445753 2.154037 0.061700 -0.017288 -102336.000000 0 0 1
35.205105 18.043450 -24.999066 46.796569 0.473616 2.134366 0.076992 -0.013743 267355.000000 0 0 1
34.485285 19.172750 -25.536246 46.999246 0.507414 2.145199 0.079281 -0.027716 373815.000000 0 0 1
33.881765 19.964550 -24.549966 46.360092 0.532471 2.128866 0.097811 -0.021523 -427469.000000 0 0 1
33.310075 21.305150 -25.150296 46.861583 0.569030 2.137310 0.106998 -0.033750 1133790.000000 0 0 1
31.973105 21.364950 -25.700796 46.252259 0.589075 2.159960 0.103526 -0.032920 886225.000000 0 0 1
30.975225 21.394850 -24.683466 45.016416 0.604463 2.151152 0.096538 -0.022321 -121722.000000 0 0 1
29.557175 21.396650 -25.296906 44.400188 0.626591 2.176995 0.055734 -0.027346 223528.000000 0 0 1
29.133365 20.163250 -25.898226 43.886532 0.605405 2.202001 0.062384 -0.036586 275816.000000 0 0 1
27.926365 20.243650 -26.668876 43.599498 0.627239 2.228977 0.059589 -0.035227 198899.000000 0 0 1
27.435865 18.830950 -26.994886 42.849215 0.601515 2.252346 0.066168 -0.020948 102873.000000 0 0 1
28.337565 18.024750 -27.770956 43.579068 0.566522 2.261727 0.077653 -0.033689 -274284.000000 0 0 1
29.350565 17.444950 -27.029846 43.547612 0.536266 2.240427 0.091478 -0.030060 -948371.000000 0 0 1
30.098645 16.489250 -27.949076 44.260306 0.501184 2.254244 0.069933 -0.021503 -297608.000000 0 0 1
29.395965 15.330050 -28.435796 43.677542 0.480701 2.279749 0.072873 -0.030929 88561.200000 0 0 1
28.922265 14.318850 -27.518876 42.412444 0.459704 2.276855 0.086671 -0.026293 -494815.000000 0 0 1
29.904045 13.604650 -26.591266 42.266226 0.426957 2.251239 0.082255 -0.017108 -327253.000000 0 0 1
30.312125 14.517050 -25.580086 42.236364 0.446641 2.221368 0.078155 -0.022542 714604.000000 0 0 1
31.402115 14.068950 -24.741466 42.381226 0.421211 2.194177 0.062326 -0.013754 756389.000000 0 0 1
-14.680294 -31.219548 -23.793166 41.908066 1.131249 2.174562 0.164104 -0.034612 -155526.000000 0 0 1
-13.982494 -30.213848 -24.449666 41.305846 1.137362 2.204233 0.159840 -0.042842 -332218.000000 0 0 1
-14.611294 -29.753348 -25.608836 41.887517 1.114310 2.228589 0.141770 -0.040065 -96399.200000 0 0 1
-13.905494 -28.523448 -26.239696 41.176103 1.117190 2.261728 0.140334 -0.037074 14033.300000 0 0 1
-14.168994 -27.233148 -25.649226 40.003594 1.091053 2.266822 0.124422 -0.028954 170284.000000 0 0 1
-13.570994 -26.150748 -26.342536 39.521674 1.092102 2.300346 0.103074 -0.019157 13701.400000 0 0 1
-14.207394 -24.837248 -25.761486 38.501858 1.051205 2.303790 0.058461 -0.006382 203827.000000 0 0 1
-13.760194 -24.529948 -24.442066 37.262258 1.059581 2.286233 0.084874 -0.020789 27782.600000 0 0 1
-14.082694 -23.212448 -24.012466 36.245531 1.025474 2.294940 0.065012 -0.014646 -294261.000000 0 0 1
-13.645894 -22.770348 -22.621366 34.877290 1.030904 2.276538 0.082599 -0.022845 290247.000000 0 0 1
-12.244994 -22.550548 -22.599266 34.193478 1.073342 2.292845 0.111839 -0.035556 4432.890000 0 0 1
-11.740794 -21.864548 -21.452966 32.804488 1.078005 2.283609 0.096452 -0.027891 197834.000000 0 0 1
-10.204994 -21.773248 -21.488066 32.248305 1.132506 2.300075 0.103249 -0.033067 68706.600000 0 0 1
-9.754594 -20.671848 -22.334166 31.957665 1.129898 2.344609 0.121341 -0.032120 -364145.000000 0 0 1
-8.360094 -20.642448 -22.443466 31.618207 1.185991 2.360049 0.141167 -0.034380 -371769.000000 0 0 1
-7.858694 -19.468248 -23.351266 31.401487 1.187133 2.409288 0.146945 -0.023030 -150367.000000 0 0 1
-8.011594 -18.242148 -22.685566 30.192656 1.156976 2.420918 0.119622 -0.022544 -182555.000000 0 0 1
-8.070594 -17.094148 -23.545766 30.195156 1.129695 2.465121 0.097383 -0.021109 -170836.000000 0 0 1
-6.833094 -16.703248 -24.363866 30.319756 1.182480 2.504055 0.115231 -0.027776 -260585.000000 0 0 1
-6.814294 -17.437048 -25.576126 31.695796 1.198251 2.509723 0.122326 -0.033613 230761.000000 0 0 1
-5.739794 -17.013648 -26.409086 31.935079 1.245422 2.544479 0.100079 -0.029518 262450.000000 0 0 1
-5.796194 -17.731948 -27.797756 33.477352 1.254866 2.550523 0.108594 -0.030247 -532565.000000 0 0 1
-6.861494 -17.298148 -28.568826 34.095217 1.193172 2.564245 0.111746 -0.027825 -528045.000000 0 0 1
-6.902494 -18.085448 -29.756916 35.499322 1.206199 2.564842 0.122363 -0.030600 -108340.000000 0 0 1
-7.996094 -17.620448 -30.726666 36.311785 1.144790 2.579591 0.118012 -0.032945 -71560.800000 0 0 1
-7.770294 -16.406148 -31.537956 36.389309 1.128474 2.619308 0.088497 -0.027025 -211776.000000 0 0 1
-7.516194 -15.218448 -30.877986 35.235555 1.112051 2.638987 0.068778 -0.021486 -1042.040000 0 0 1
-7.824694 -13.936148 -31.688316 35.490723 1.059192 2.674457 0.054585 -0.023877 385669.000000 0 0 1
-6.910194 -13.733848 -32.786576 36.212276 1.104631 2.703116 0.082212 -0.030764 232514.000000 0 0 1
-7.540894 -13.181648 33.908537 37.153867 1.051163 0.421071 0.074099 -0.028928 -277139.000000 0 0 1
-7.968994 -11.695348 -33.844386 36.684172 0.972676 2.745533 0.052914 -0.019016 -207941.000000 0 0 1
-6.932894 -10.758248 -33.802826 36.144653 0.998350 2.779647 0.044285 -0.019623 -527084.000000 0 0 1
-6.223394 -10.677548 32.800164 35.051268 1.043084 0.360341 0.046813 -0.022375 -25660.600000 0 0 1
-5.234194 -9.494248 32.899565 34.639846 1.066954 0.318326 0.064346 -0.022239 -45744.000000 0 0 1
-4.861894 -8.948848 31.634977 33.233894 1.073113 0.311454 0.050733 -0.010496 -141974.000000 0 0 1
-3.957494 -7.892148 31.874116 33.074266 1.105992 0.270215 0.055329 -0.021476 -1027950.000000 0 0 1
-3.979994 -6.855948 30.742637 31.748293 1.044826 0.252367 0.050784 -0.017819 35097.800000 0 0 1
-5.097194 -5.990548 30.715817 31.706931 0.865796 0.250690 0.034916 -0.012813 -421533.000000 0 0 1
-6.289494 -6.629448 30.340557 31.686854 0.811707 0.292547 0.027815 -0.011791 -894455.000000 0 0 1
-7.460494 -5.603048 30.370627 31.771498 0.644159 0.298060 0.013208 -0.007152 -541920.000000 0 0 1
-8.620094 -6.214448 29.925787 31.756545 0.624633 0.341211 0.023442 0.000928 -780344.000000 0 0 1
-9.670094 -5.245648 29.794327 31.760502 0.497037 0.353711 0.023904 -0.004549 713818.000000 0 0 1
-10.879894 -5.810848 28.996757 31.511109 0.490547 0.402186 0.034989 -0.004487 -21773.400000 0 0 1
-10.588694 -5.779748 27.661447 30.177501 0.499645 0.411243 0.029412 -0.007632 -208447.000000 0 0 1
-11.449494 -6.474448 26.835237 29.885437 0.514650 0.455737 0.047202 -0.015392 -481766.000000 0 0 1
-11.115294 -6.174748 25.368797 28.376983 0.507070 0.464620 0.045632 -0.015785 936931.000000 0 0 1
-9.910394 -6.826948 24.894227 27.650419 0.603215 0.450292 0.045052 -0.014173 843658.000000 0 0 1
-9.375994 -6.482748 23.621137 26.227722 0.604944 0.449609 0.050998 -0.020729 203782.000000 0 0 1
-10.289994 -6.783048 22.398917 25.565704 0.582808 0.503018 0.069861 -0.024185 115912.000000 0 0 1
-11.351094 -5.866748 22.236717 25.646397 0.477032 0.521545 0.056240 -0.019454 -166137.000000 0 0 1
-12.063894 -6.081248 21.043717 25.007142 0.466912 0.570727 0.063727 -0.023693 -604554.000000 0 0 1
-13.228894 -5.129348 20.826817 25.200598 0.369891 0.598039 0.060988 -0.016015 -524686.000000 0 0 1
-12.859694 -3.834048 20.530817 24.527252 0.289754 0.578906 0.033846 -0.006412 -392001.000000 0 1 0
-14.011594 -3.051848 20.383917 24.922733 0.214459 0.613072 0.043234 -0.004598 -36562.400000 0 1 0
-13.819194 -1.576048 19.932317 24.305376 0.113557 0.609248 0.024251 0.004455 48942.600000 0 1 0
-13.075294 -0.691048 20.806917 24.583911 0.052802 0.561677 0.030587 0.004474 239115.000000 0 1 0
-13.304194 0.702952 20.631717 24.559387 -0.052788 0.573376 0.041998 -0.007299 -387791.000000 0 1 0
-12.925094 1.335952 19.218917 23.199345 -0.102995 0.594507 0.058153 -0.017306 364884.000000 0 1 0
-13.780994 0.992952 18.111317 22.779850 -0.071928 0.651692 0.073650 -0.010478 2506050.000000 0 1 0
-15.197394 1.420952 18.237417 23.781995 -0.093229 0.696865 0.067551 -0.009148 1575570.000000 0 1 0
-16.050794 0.582952 17.290917 23.599653 -0.036303 0.748550 0.081702 -0.010037 -520881.000000 0 1 0
-16.253494 -0.787048 17.736417 24.070231 0.048386 0.742381 0.075112 -0.006777 421826.000000 0 1 0
-16.977794 -1.588048 16.819117 23.950993 0.093265 0.792271 0.069275 0.006887 -293825.000000 0 1 0
-17.063394 -3.022948 17.229517 24.436732 0.175341 0.788280 0.080305 0.010842 136866.000000 0 1 0
-17.909994 -3.392248 18.308217 25.835364 0.187188 0.783214 0.078315 0.010761 216108.000000 0 0 1
-17.611094 -4.722548 18.721917 26.133566 0.261994 0.772177 0.071840 0.009277 -16176.100000 0 0 1
-18.320794 -5.224848 20.003217 27.623889 0.277812 0.761028 0.050987 0.018079 -85895.900000 0 0 1
-17.885494 -4.544348 21.171517 28.085141 0.248815 0.716919 0.053160 0.010711 38098.700000 0 0 1
-18.632694 -4.767448 22.346717 29.483582 0.250491 0.710651 0.054932 0.001980 -643876.000000 0 0 1
-18.468194 -6.099548 23.105987 30.202075 0.318994 0.699683 0.080964 -0.002679 1264060.000000 0 0 1
-17.181294 -6.559448 23.600667 29.920139 0.364700 0.661961 0.053382 -0.015361 2160570.000000 0 0 1
-16.086694 -6.813748 22.683317 28.631133 0.400654 0.656291 0.080059 -0.015062 521214.000000 0 0 1
-14.834894 -7.546048 23.182237 28.538273 0.470559 0.622676 0.098643 -0.018222 -244221.000000 0 0 1
-15.009094 -8.855448 23.657047 29.382780 0.533038 0.634897 0.088563 -0.030281 -8079.630000 0 0 1
-15.006694 -8.814848 25.069087 30.518217 0.531099 0.606853 0.080899 -0.029610 306034.000000 0 0 1
-16.029894 -9.849248 25.648937 31.809325 0.550962 0.632869 0.065980 -0.022784 82517.000000 0 0 1
-15.695694 -11.247648 25.578367 32.048670 0.621785 0.646644 0.068790 -0.035137 -222517.000000 0 0 1
-14.899594 -11.679548 26.647767 32.688121 0.664836 0.617700 0.072448 -0.028149 -266662.000000 0 0 1
-14.750094 -13.211348 26.674817 33.221241 0.730423 0.638577 0.078068 -0.036237 200176.000000 0 0 1
-15.986494 -13.845048 26.998707 34.295532 0.713736 0.664481 0.067423 -0.037043 359003.000000 0 0 1
-16.020294 -15.259248 26.852647 34.793090 0.761073 0.689159 0.075659 -0.026450 57633.800000 0 0 1
-14.959194 -16.172148 27.536247 35.264157 0.824341 0.674761 0.090270 -0.023935 152157.000000 0 0 1
-13.666794 -16.189248 26.963847 34.291720 0.869685 0.665986 0.068571 -0.029132 138889.000000 0 0 1
-12.865694 -17.059948 27.768667 35.038076 0.924647 0.655853 0.085746 -0.023550 953451.000000 0 0 1
-11.439794 -17.277948 27.106727 34.119951 0.985959 0.652689 0.089854 -0.028056 851899.000000 0 0 1
-10.568394 -18.044548 27.904427 34.870528 1.040970 0.643118 0.088349 -0.026305 -326907.000000 0 0 1
-9.573794 -18.652048 27.146957 34.300346 1.096578 0.657621 0.077131 -0.024997 -610194.000000 0 0 1
-8.489394 -19.327948 27.952897 35.028615 1.156936 0.646824 0.071558 -0.026205 -487643.000000 0 0 1
-9.004994 -20.514548 28.520817 36.268080 1.157164 0.665855 0.082159 -0.022417 -77521.300000 0 0 1
-8.166594 -21.080048 29.473957 37.145334 1.201191 0.654296 0.095754 -0.026233 -303223.000000 0 0 1
-8.866994 -22.262048 30.181637 38.537691 1.191756 0.671046 0.093934 -0.030633 187064.000000 0 0 1
-8.874094 -23.388448 29.303367 38.528644 1.208154 0.706620 0.110905 -0.030607 -80806.600000 0 0 1
-9.486994 -24.471848 29.921387 39.801556 1.200965 0.720063 0.092715 -0.031350 -272307.000000 0 0 1
-9.544994 -25.785048 29.085737 40.024439 1.216262 0.757291 0.095411 -0.026072 -551731.000000 0 0 1
-10.507494 -25.823748 28.081347 39.570639 1.184362 0.781793 0.087452 -0.022780 -315432.000000 0 0 1
-10.648294 -27.107448 27.517297 40.067463 1.196497 0.813755 0.091768 -0.021968 361715.000000 0 0 1
-11.968794 -27.226148 26.668027 39.946199 1.156619 0.839818 0.076491 -0.018887 532335.000000 0 0 1
-11.978894 -26.645048 25.363887 38.688232 1.148298 0.855823 0.075538 -0.020404 -45241.000000 0 0 1
-11.953494 -25.244348 25.275657 37.669908 1.128563 0.835270 0.066367 -0.007095 -265915.000000 0 0 1
-12.284894 -24.702748 23.886417 36.492538 1.109304 0.857201 0.065247 -0.033974 52036.500000 0 0 1
-13.611994 -24.818048 23.394847 36.722483 1.069127 0.880103 0.051919 -0.023248 258051.000000 0 0 1
-13.610594 -24.454248 22.057017 35.633840 1.062920 0.903339 0.057562 -0.027937 251279.000000 0 0 1
-15.001994 -24.566348 21.380417 35.856485 1.022566 0.931940 0.066381 -0.026703 -350913.000000 0 0 1
-15.386594 -25.910748 21.140017 36.810521 1.034926 0.959056 0.076591 -0.024947 160857.000000 0 0 1
-16.598494 -26.051148 20.426217 37.032454 1.003507 0.986544 0.077836 -0.024671 135001.000000 0 0 1
-16.906894 -27.497748 19.969017 37.956961 1.019532 1.016793 0.088043 -0.032747 78243.600000 0 0 1
-16.263794 -27.740848 18.748517 37.223280 1.040529 1.042946 0.076720 -0.035015 -39417.900000 0 0 1
-16.023494 -29.093848 18.457417 37.998429 1.067376 1.063585 0.101015 -0.027386 99046.000000 0 0 1
-14.929994 -29.295448 17.375517 37.189200 1.099470 1.084653 0.095804 -0.033547 -87239.100000 0 0 1
-15.268894 -28.834748 16.106417 36.386790 1.083804 1.112250 0.085837 -0.037752 -811917.000000 0 0 1
-14.228994 -28.922748 15.228117 35.649477 1.113597 1.129444 0.103206 -0.032714 -717842.000000 0 0 1
-14.691394 -28.304948 13.919517 34.795978 1.092033 1.159244 0.077795 -0.031628 106037.000000 0 0 1
-14.928994 -26.889448 13.953017 33.772829 1.063970 1.144893 0.078038 -0.033561 -400967.000000 0 0 1
-15.202194 -26.460048 12.613017 33.020131 1.049312 1.178859 0.072161 -0.030476 36077.700000 0 0 1
-14.149294 -26.507448 11.457917 32.157910 1.080487 1.206490 0.076322 -0.026904 159910.000000 0 0 1
-14.632894 -25.973848 10.246017 31.523693 1.057746 1.239757 0.054952 -0.021220 -192532.000000 0 0 1
-13.663594 -26.050248 9.216617 30.826211 1.087734 1.267166 0.069307 -0.021292 219878.000000 0 0 1
-14.205294 -25.536148 7.836317 30.253812 1.063143 1.308790 0.089929 -0.030357 527166.000000 0 0 1
-15.304894 -26.261148 7.276517 31.254366 1.043123 1.335824 0.058591 -0.027013 252631.000000 0 0 1
-15.690594 -25.624448 6.085117 30.656741 1.021361 1.370977 0.072737 -0.028493 15842.100000 0 0 1
-16.533994 -26.432548 5.097517 31.591727 1.011826 1.408732 0.050219 -0.032728 -235237.000000 0 0 1
-15.749694 -27.425448 4.512017 31.946305 1.049509 1.429085 0.067595 -0.025515 -187374.000000 0 0 1
-16.378994 -28.064848 3.433317 32.675600 1.042514 1.465529 0.080801 -0.024221 -631929.000000 0 0 1
-15.505294 -29.123048 2.753317 33.108108 1.081561 1.487539 0.079364 -0.027329 -1141650.000000 0 0 1
-14.440794 -28.581448 2.079017 32.089843 1.102957 1.505964 0.055292 -0.018450 -1050730.000000 0 0 1
-13.803394 -29.614248 1.372817 32.702018 1.134629 1.528804 0.041021 -0.022980 -31830.600000 0 0 1
-12.478494 -29.151748 0.718917 31.718356 1.166343 1.548129 0.043504 -0.020982 -18895.500000 0 0 1
-12.565494 -28.477048 -0.526383 31.130548 1.155243 1.587706 0.047299 -0.019542 -56558.200000 0 0 1
-12.818994 -27.089348 -0.445683 29.972621 1.128808 1.585667 0.047524 -0.023264 -366290.000000 0 0 1
-12.520294 -26.321648 -1.742183 29.199694 1.126805 1.630496 0.057694 -0.024915 24629.800000 0 0 1
-11.153194 -26.392648 -2.108683 28.729987 1.170971 1.644259 0.049402 -0.028394 -122472.000000 0 0 1
-10.793694 -25.835448 -3.370983 28.201733 1.175052 1.690614 0.073890 -0.036358 467036.000000 0 0 1
-9.324094 -26.098048 -3.785783 27.971039 1.227658 1.706560 0.066441 -0.036356 333240.000000 0 0 1
-8.782194 -25.364048 -4.834383 27.273304 1.237470 1.748995 0.067860 -0.042836 -958081.000000 0 0 1
-7.536494 -25.858048 -5.200283 27.431375 1.287196 1.761525 0.075866 -0.029574 -39463.000000 0 0 1
-6.714694 -24.836948 -6.095783 26.440871 1.306757 1.803433 0.058007 -0.026899 145679.000000 0 0 1
-7.243794 -24.614648 -7.389083 26.701161 1.284588 1.851189 0.061514 -0.030821 146538.000000 0 0 1
-6.438394 -23.635748 -8.078483 25.794639 1.304848 1.889341 0.051817 -0.025655 117127.000000 0 0 1
-6.617394 -23.612748 -9.624183 26.343437 1.297559 1.944789 0.057741 -0.024791 -285225.000000 0 0 1
-6.102294 -24.762448 -10.224083 27.476330 1.329177 1.952072 0.046309 -0.024145 -302942.000000 0 0 1
-6.306894 -24.945548 -11.613283 28.229871 1.323159 1.994767 0.041670 -0.013613 -506745.000000 0 0 1
-7.718894 -25.207648 -12.134883 29.021755 1.273650 2.002183 0.054531 -0.026453 -481477.000000 0 0 1
-7.692894 -25.574748 -13.542383 29.944023 1.278605 2.040090 0.065563 -0.023308 -809248.000000 0 0 1
-8.894294 -26.079048 -13.994983 30.904446 1.242116 2.040752 0.091415 -0.026483 -1565000.000000 0 0 1
-9.061494 -26.182748 -15.535883 31.764928 1.237612 2.081842 0.104020 -0.032708 -215243.000000 0 0 1
-8.021494 -26.749248 -16.268783 32.319343 1.279452 2.098298 0.089981 -0.041636 -1357320.000000 0 0 1
-6.844794 -26.061448 -16.290083 31.486776 1.313956 2.114563 0.093655 -0.034785 -1487140.000000 0 0 1
-5.599594 -26.821348 -16.789983 32.134774 1.364979 2.120561 0.102316 -0.031959 -383516.000000 0 0 1
-5.535494 -27.098148 -18.126983 33.068699 1.369293 2.150961 0.147071 -0.040639 -1025060.000000 0 0 1
-4.381294 -27.792348 -18.317583 33.572968 1.414439 2.147907 0.129858 -0.045681 -1250430.000000 0 0 1
-25.479744 14.228550 -5.789366 29.752071 -0.509289 1.766633 0.128187 -0.047740 -75827.100000 0 0 1
-25.059484 13.677150 -4.561166 28.911008 -0.499603 1.729224 0.123514 -0.040970 215189.000000 0 0 1
-23.808594 13.022850 -4.603766 27.525233 -0.500522 1.738842 0.119981 -0.039119 -396492.000000 0 0 1
-23.847894 11.518150 -4.209866 26.816279 -0.449942 1.728438 0.121249 -0.035040 -59010.400000 0 0 1
-24.528294 10.664250 -5.179366 27.243151 -0.410120 1.762077 0.118713 -0.021869 927504.000000 0 0 1
-25.955544 10.641450 -5.130166 28.517527 -0.389087 1.751676 0.144225 -0.030676 362054.000000 0 0 1
-26.508864 9.786750 -6.304866 28.952576 -0.353665 1.790321 0.157004 -0.027880 -145432.000000 0 0 1
-26.492224 10.452850 -7.523366 29.456766 -0.375811 1.829062 0.176534 -0.036332 50076.400000 0 0 1
-26.662184 9.634950 -8.677266 29.647922 -0.346769 1.867822 0.163389 -0.030529 -150083.000000 0 0 1
-27.086624 10.458850 -9.976366 30.701801 -0.368489 1.901749 0.155658 -0.026241 205118.000000 0 0 1
-26.011514 11.265150 -10.408666 30.196735 -0.408697 1.922710 0.145826 -0.030793 699947.000000 0 0 1
-26.454684 12.002350 -11.528066 31.253848 -0.425922 1.948571 0.146796 -0.029270 67186.400000 0 0 1
-25.369174 13.008150 -11.945466 30.911181 -0.473799 1.967570 0.119430 -0.023613 -189365.000000 0 0 1
-25.187214 14.128850 -11.099266 30.938873 -0.511214 1.937723 0.113344 -0.025296 -51081.100000 0 0 1
-24.305994 15.035250 -11.673366 30.872440 -0.553971 1.958557 0.095156 -0.024140 -410664.000000 0 0 1
-24.261494 16.442650 -11.012166 31.308922 -0.595620 1.930211 0.096778 -0.032429 -225325.000000 0 0 1
-23.412294 16.608450 -9.897766 30.363496 -0.617000 1.902840 0.093302 -0.024931 105754.000000 0 0 1
-23.634994 17.951950 -9.486966 31.159075 -0.649585 1.880177 0.067113 -0.009774 386572.000000 0 0 1
-22.547394 18.398950 -8.452466 30.304299 -0.684429 1.853465 0.069436 -0.009742 158314.000000 0 0 1
-22.585894 17.912350 -7.139066 29.697494 -0.670505 1.813567 0.085455 -0.020434 15080.400000 0 0 1
-23.676594 18.398750 -6.390866 30.658413 -0.660612 1.780790 0.090660 -0.023260 -73205.600000 0 0 1
-23.951094 17.752950 -4.992866 30.228312 -0.637856 1.736729 0.090509 -0.018726 -419348.000000 0 0 1
-22.881094 17.927050 -4.140966 29.361049 -0.664591 1.712304 0.085334 -0.035231 -545141.000000 0 0 1
-23.210394 17.429550 -2.908666 29.171423 -0.644101 1.670672 0.080415 -0.030413 -68227.500000 0 0 1
-22.008294 17.049050 -2.012166 27.912075 -0.659101 1.642948 0.092443 -0.043693 -4157.950000 0 0 1
-21.206194 18.173350 -1.655166 27.977007 -0.708534 1.629993 0.087584 -0.043743 844413.000000 0 0 1
-20.255694 17.851850 -0.601066 27.006351 -0.722401 1.593055 0.140935 -0.062375 792505.000000 0 0 1
-19.734294 19.141250 0.145334 27.492743 -0.770144 1.565510 0.125270 -0.056555 525675.000000 0 0 1
-20.770994 19.718250 0.943834 28.655443 -0.759403 1.537853 0.110486 -0.045678 618411.000000 0 0 1
-20.704194 21.154150 0.803634 29.610936 -0.796147 1.543653 0.124848 -0.039639 390044.000000 0 0 1
-21.746194 21.844750 1.753234 30.873353 -0.787659 1.513978 0.091262 -0.029953 108687.000000 0 0 1
-21.571994 21.509350 3.116334 30.622126 -0.783944 1.468852 0.113395 -0.030632 901387.000000 0 0 1
-22.774394 21.592450 3.917534 31.626792 -0.758764 1.446610 0.086375 -0.025419 753287.000000 0 0 1
-22.534794 21.187450 5.415234 31.401429 -0.754592 1.397478 0.094977 -0.026593 -120016.000000 0 0 1
-21.683494 22.023650 6.157734 31.514009 -0.793181 1.374134 0.092037 -0.015839 168287.000000 0 0 1
-21.103994 21.391150 7.339534 30.932647 -0.792155 1.331237 0.087106 -0.019781 437247.000000 0 0 1
-22.010294 21.223550 8.605534 31.763932 -0.767203 1.296446 0.066597 -0.041189 69748.500000 0 0 1
-23.187194 20.393050 8.543234 32.039184 -0.721371 1.300881 0.085716 -0.037469 1106330.000000 0 0 1
-23.758294 20.001050 9.776034 32.558707 -0.699747 1.265832 0.105125 -0.037206 21550.900000 0 0 1
-24.236294 21.214850 10.662734 33.928774 -0.719019 1.251111 0.106210 -0.038800 -751471.000000 0 0 1
-25.402144 21.860150 10.162634 35.020197 -0.710595 1.276367 0.127877 -0.035291 475474.000000 0 0 1
-25.891544 22.844450 11.082134 36.263682 -0.722957 1.260229 0.140577 -0.036254 341607.000000 0 0 1
-27.426764 23.028550 10.860034 37.423012 -0.698447 1.276364 0.147981 -0.035144 184797.000000 0 0 1
-28.108954 23.662150 11.913934 38.625801 -0.699715 1.257238 0.154965 -0.038687 2296.380000 0 0 1
-28.056354 25.094150 11.934334 39.488020 -0.729723 1.263769 0.130301 -0.031708 -172823.000000 0 0 1
-28.171434 25.712450 13.332934 40.404541 -0.739795 1.234508 0.140102 -0.030102 1069390.000000 0 0 1
-26.985314 25.477750 14.139934 39.714741 -0.756670 1.206772 0.119500 -0.034467 854346.000000 0 0 1
-27.146464 26.110050 15.407534 40.694684 -0.765940 1.182499 0.140968 -0.034297 189768.000000 0 0 1
-25.876484 26.166550 16.295834 40.247174 -0.790972 1.153934 0.111971 -0.037404 108581.000000 0 0 1
-25.571194 24.886550 16.833434 39.453655 -0.771830 1.129996 0.137808 -0.044577 -570975.000000 0 0 1
-24.480994 25.002950 17.674334 39.202662 -0.795946 1.103084 0.104396 -0.038950 -692300.000000 0 0 1
-24.071194 23.646450 18.314834 38.392840 -0.776497 1.073515 0.112504 -0.033223 -355745.000000 0 0 1
-22.944494 23.724750 19.145934 38.156001 -0.802115 1.045140 0.114892 -0.040192 -47279.000000 0 0 1
-22.681594 22.448650 19.781834 37.546206 -0.780237 1.015887 0.102456 -0.035933 2287.710000 0 0 1
-21.276494 22.506050 20.444234 37.110352 -0.813474 0.987350 0.069585 -0.030410 -85791.200000 0 0 1
-20.275894 22.663450 19.440634 36.092688 -0.840944 1.001985 0.064381 -0.031257 -86590.700000 0 0 1
-18.981794 22.269950 19.820934 35.343014 -0.864940 0.975425 0.058916 -0.028195 -168118.000000 0 0 1
-18.692694 20.740750 19.828534 34.245676 -0.837289 0.953284 0.046790 -0.020657 -844174.000000 0 0 1
-19.205494 20.019450 20.940334 34.758121 -0.806146 0.924218 0.062671 -0.014739 55503.500000 0 0 1
-18.525394 20.315650 22.111234 35.282043 -0.831457 0.893486 0.066567 -0.017483 -798784.000000 0 0 1
-19.397794 20.178650 23.331834 36.439358 -0.805126 0.875918 0.056112 -0.013809 -534598.000000 0 0 1
-20.420494 21.145250 23.254834 37.482069 -0.802833 0.901511 0.046043 -0.013592 77202.900000 0 0 1
-21.280794 21.085250 24.375334 38.621456 -0.780783 0.887781 0.066241 -0.010186 479446.000000 0 0 1
-22.476494 22.085850 24.489434 39.908770 -0.776632 0.910140 0.066732 -0.013628 -292274.000000 0 0 1
-22.148394 23.435650 24.762734 40.656784 -0.813630 0.915912 0.083576 -0.027473 626801.000000 0 0 1
-23.228894 24.404350 24.838234 41.857995 -0.810070 0.935529 0.085754 -0.032598 460604.000000 0 0 1
-24.028394 24.660150 23.566334 41.723601 -0.798373 0.970581 0.079969 -0.039448 -164119.000000 0 0 1
-24.991294 23.694450 23.202334 41.525174 -0.758767 0.977914 0.060472 -0.034126 214636.000000 0 0 1
-25.569434 24.050650 21.895834 41.372180 -0.754799 1.013091 0.065563 -0.042229 13589.800000 0 0 1
-26.638554 23.012850 21.533934 41.266381 -0.712504 1.021804 0.079461 -0.037046 -1031140.000000 0 0 1
-27.822564 23.207350 22.214934 42.499170 -0.695202 1.020764 0.082366 -0.036966 -452649.000000 0 0 1
-28.675384 22.053650 21.968034 42.322992 -0.655601 1.025049 0.098807 -0.034007 1413360.000000 0 0 1
-30.198044 22.364250 22.263934 43.677962 -0.637449 1.035926 0.110799 -0.028458 604002.000000 0 0 1
-30.814914 23.207650 21.299934 44.066327 -0.645502 1.066307 0.131623 -0.038160 631862.000000 0 0 1
-32.199364 23.475150 21.509634 45.282956 -0.629962 1.075827 0.141470 -0.034383 408238.000000 0 0 1
-33.131194 22.473450 20.820734 45.124660 -0.596025 1.091218 0.142857 -0.049914 -1264980.000000 0 0 1
-33.008814 21.108450 21.306334 44.599421 -0.568944 1.072731 0.126894 -0.045196 531510.000000 0 0 1
-33.915144 20.244750 20.647834 44.569272 -0.538154 1.089109 0.126609 -0.035508 1525530.000000 0 0 1
-35.483144 20.428750 20.818434 45.932500 -0.522384 1.100400 0.130646 -0.038756 755239.000000 0 0 1
-36.258904 19.734350 19.879634 45.818692 -0.498427 1.122006 0.125110 -0.035353 -952201.000000 0 0 1
36.851985 19.850850 20.169134 46.464170 0.494099 1.121780 0.140976 -0.051003 -616436.000000 0 0 1
35.927905 19.021050 19.258234 44.983267 0.486908 1.128385 0.156072 -0.058538 3125.920000 0 0 1
36.282765 17.636950 19.307334 44.724426 0.452464 1.124425 0.163058 -0.055598 -73570.000000 0 0 1
35.628405 16.944050 18.320034 43.498365 0.443919 1.136066 0.176905 -0.068480 -359277.000000 0 0 1
35.996545 15.408650 18.190334 43.174831 0.404459 1.135898 0.184844 -0.081743 23983.200000 0 0 1
35.130585 14.718350 17.298134 41.833161 0.396745 1.144498 0.198006 -0.069206 85779.800000 0 0 1
35.602255 13.427550 16.887234 41.629297 0.360658 1.153098 0.185367 -0.055843 -545976.000000 0 0 1
34.692735 12.601150 16.032034 40.241782 0.348405 1.161032 0.173016 -0.064482 -630269.000000 0 0 1
34.491415 13.112450 14.697934 39.719307 0.363292 1.191739 0.172883 -0.053981 560070.000000 0 0 1
33.619085 12.205850 14.007434 38.411377 0.348265 1.197519 0.176389 -0.046700 -126374.000000 0 0 1
33.602845 12.471750 12.465734 37.948522 0.355392 1.236091 0.177097 -0.046466 253196.000000 0 0 1
34.898455 12.212850 11.930234 38.850822 0.336634 1.258675 0.156730 -0.032490 626688.000000 0 0 1
35.000625 12.401050 10.543834 38.600548 0.340509 1.294128 0.142854 -0.014702 -972484.000000 0 0 1
36.392145 12.645650 9.989434 39.800622 0.334431 1.317097 0.098519 -0.000403 -1239430.000000 0 0 1
-37.194714 11.594150 10.336634 40.307779 -0.302170 1.311456 0.123636 -0.012182 -5359.170000 0 0 1
-35.951721 11.722750 9.670334 39.031583 -0.315199 1.320432 0.147598 -0.009224 -5209.450000 0 0 1
-35.935527 11.242950 8.138234 38.522680 -0.303217 1.357934 0.119861 -0.020483 -296432.000000 0 0 1
-36.589704 12.059750 7.140434 39.182009 -0.318381 1.387535 0.108526 -0.027443 411652.000000 0 0 1
-36.057864 11.827950 5.844434 38.395669 -0.316967 1.417986 0.149040 -0.043774 182000.000000 0 0 1
-36.829464 12.699150 4.803934 39.252460 -0.332043 1.448103 0.147295 -0.042987 -534308.000000 0 0 1
36.305135 12.280750 4.630234 38.604647 0.326182 1.450567 0.126340 -0.043208 209182.000000 0 0 1
35.394635 13.415450 4.454034 38.112897 0.362295 1.453664 0.122368 -0.033019 675027.000000 0 0 1
35.013625 14.177950 5.745234 38.209632 0.384746 1.419863 0.106411 -0.014408 -1393040.000000 0 0 1
34.250165 15.349350 5.368034 37.914274 0.421318 1.428736 0.092943 -0.004798 559747.000000 0 0 1
33.516925 15.906250 6.452634 37.656733 0.443100 1.398592 0.073238 0.007355 574216.000000 0 0 1
32.385305 15.053350 7.129334 36.417561 0.435110 1.373757 0.104904 -0.001944 -258460.000000 0 0 1
32.881795 13.918650 7.889034 36.567447 0.400424 1.353347 0.130547 -0.006405 -81334.600000 0 0 1
31.894095 12.958950 8.159634 35.380042 0.385936 1.338073 0.150310 -0.016783 -201583.000000 0 0 1
31.850485 11.781750 7.146934 34.703627 0.354299 1.363370 0.139950 -0.014569 42378.800000 0 0 1
31.347315 12.109950 5.863934 34.112913 0.368654 1.398041 0.114228 -0.018415 243254.000000 0 0 1
31.684465 11.054750 5.004234 33.928678 0.335696 1.422764 0.130426 -0.031424 -65397.100000 0 0 1
31.142245 11.201650 3.555334 33.285985 0.345284 1.463780 0.111172 -0.037068 -155088.000000 0 0 1
29.791855 10.839950 3.441534 31.888922 0.348965 1.462663 0.100492 -0.031484 -182389.000000 0 0 1
29.257465 11.264850 2.161634 31.425607 0.367530 1.501956 0.114116 -0.038485 482887.000000 0 0 1
27.731965 10.917450 2.117834 29.878719 0.375044 1.499856 0.120152 -0.026878 508269.000000 0 0 1
27.584165 9.573250 1.828234 29.255354 0.334050 1.508263 0.097126 -0.025960 -43146.100000 0 0 1
26.217165 9.240350 1.753734 27.853176 0.338860 1.507791 0.105339 -0.023402 -173203.000000 0 0 1
25.983265 7.717050 1.654334 27.155474 0.288703 1.509838 0.111174 -0.019720 267921.000000 0 0 1
26.459065 6.941250 2.772334 27.494526 0.256558 1.469792 0.119893 -0.010094 950325.000000 0 0 1
27.873165 6.833850 2.975434 28.852523 0.240434 1.467487 0.136111 -0.027653 335641.000000 0 0 1
28.306965 6.060750 4.215834 29.253893 0.210924 1.426181 0.143610 -0.034810 10227.700000 0 0 1
29.706805 6.031650 4.436634 30.635907 0.200316 1.425467 0.180018 -0.038334 436443.000000 0 0 1
29.917565 5.358950 5.666834 30.917504 0.177244 1.386465 0.167232 -0.021232 -593633.000000 0 0 1
31.400695 5.268150 6.006634 32.401184 0.166224 1.384335 0.165445 -0.034463 -391466.000000 0 0 1
31.978605 6.502350 6.413634 33.257277 0.200600 1.376731 0.166815 -0.032950 -120495.000000 0 0 1
33.308105 6.384150 6.874334 34.604100 0.189373 1.370809 0.131648 -0.025213 164079.000000 0 0 1
33.792165 7.790350 7.456334 35.471072 0.226579 1.359008 0.099844 -0.028661 10691.800000 0 0 1
33.263025 7.964850 8.742434 35.302944 0.235025 1.320552 0.110986 -0.026739 73519.100000 0 0 1
33.702215 9.160950 9.292234 36.140116 0.265408 1.310759 0.123250 -0.026832 -211137.000000 0 0 1
33.317935 9.090850 10.781734 36.179748 0.266368 1.268195 0.133621 -0.034934 -625265.000000 0 0 1
31.950595 9.373350 10.952934 35.052347 0.285363 1.253000 0.142760 -0.037310 -358344.000000 0 0 1
31.583055 8.808950 12.169534 34.974056 0.272001 1.215403 0.145681 -0.048347 190079.000000 0 0 1
30.048245 9.078050 12.322634 33.721734 0.293397 1.196711 0.131931 -0.055286 198352.000000 0 0 1
29.656545 10.383150 12.720834 33.898969 0.336776 1.186122 0.161814 -0.056805 153709.000000 0 0 1
29.717505 11.407350 11.695734 33.912357 0.366515 1.218684 0.158829 -0.060023 -341847.000000 0 0 1
28.636265 11.362850 10.568434 32.570568 0.377744 1.240336 0.134041 -0.047415 75051.600000 0 0 1
28.717765 12.407650 9.614934 32.727768 0.407831 1.272612 0.112433 -0.017600 416295.000000 0 0 1
27.507465 12.426350 8.874334 31.461542 0.424304 1.284846 0.110858 -0.018712 151124.000000 0 0 1
27.452065 13.635450 7.895734 31.652552 0.461004 1.318684 0.106655 -0.014797 11546.600000 0 0 1
27.151265 14.807150 8.592834 32.097971 0.499272 1.299784 0.102502 -0.003386 273941.000000 0 0 1
27.373865 15.916150 7.769934 32.604052 0.526658 1.330169 0.094384 -0.004009 -690770.000000 0 0 1
27.021665 17.267950 8.483534 33.171115 0.568633 1.312172 0.104239 -0.011685 1974130.000000 0 0 1
25.679565 17.881550 8.454734 32.414078 0.608261 1.306909 0.116082 -0.017202 1918370.000000 0 0 1
24.581565 17.059250 8.810434 31.191267 0.606678 1.284434 0.121967 -0.012623 -198597.000000 0 0 1
23.277665 17.867550 8.944534 30.677414 0.654660 1.274931 0.118144 -0.027875 -52987.600000 0 0 1
22.713565 18.321150 7.690934 30.178156 0.678763 1.313103 0.124590 -0.029204 721478.000000 0 0 1
21.482565 19.025250 7.868434 29.755218 0.724810 1.303174 0.164401 -0.040913 660336.000000 0 0 1
20.906465 19.568550 6.541534 29.373460 0.752355 1.346211 0.146718 -0.036162 -38006.100000 0 0 1
21.864065 20.455650 6.033534 30.542995 0.752130 1.371946 0.098442 -0.015933 20081.500000 0 0 1
21.696365 20.775950 4.659434 30.398729 0.763731 1.416912 0.118935 -0.023498 -256561.000000 0 0 1
19.231206 17.135650 33.070100 41.917792 0.727839 0.661735 0.075133 -0.020058 -81629.000000 0 0 1
18.320006 17.798650 32.227940 41.122436 0.770965 0.670185 0.085917 -0.019437 37131.200000 0 0 1
17.540406 16.887250 31.513177 39.823679 0.766429 0.657835 0.101919 -0.031141 -119573.000000 0 0 1
16.994306 17.466350 30.148137 38.765836 0.799095 0.679800 0.106582 -0.037201 1133110.000000 0 0 1
17.985906 17.679850 29.085667 38.497350 0.776817 0.714343 0.098947 -0.019276 703804.000000 0 0 1
17.313006 18.171550 27.964287 37.575880 0.809588 0.731447 0.102323 -0.022234 205413.000000 0 0 1
18.273206 18.452250 26.792377 37.312559 0.790273 0.769796 0.086294 -0.012916 -17111.200000 0 0 1
19.071606 19.608150 26.874607 38.346450 0.799269 0.794226 0.080000 -0.020334 129995.000000 0 0 1
19.705306 19.967250 25.668587 38.024552 0.792001 0.829760 0.067130 -0.014144 309623.000000 0 0 1
20.780606 21.088350 25.801557 39.271777 0.792748 0.853964 0.077293 -0.012530 409981.000000 0 0 1
20.067706 22.317450 25.870757 39.624203 0.838427 0.859386 0.080162 -0.018803 601479.000000 0 0 1
20.913606 23.414550 26.142827 40.854223 0.841757 0.876422 0.092209 -0.021083 -286041.000000 0 0 1
20.137006 24.713550 26.135627 41.222926 0.887086 0.884072 0.106619 -0.024631 -66393.100000 0 0 1
19.743406 25.211750 24.876067 40.549392 0.906443 0.910342 0.115942 -0.031508 52958.800000 0 0 1
18.778406 26.215150 24.995977 40.800264 0.949202 0.911397 0.108556 -0.034454 -180315.000000 0 0 1
18.634506 26.874650 23.643357 40.354677 0.964523 0.944820 0.088462 -0.033728 81150.700000 0 0 1
19.663706 27.816750 23.424297 41.341633 0.955453 0.968419 0.125024 -0.039871 155083.000000 0 0 1
19.411306 28.534850 22.248917 41.061549 0.973437 0.998168 0.113754 -0.037684 -30113.700000 0 0 1
20.481906 29.623950 21.998317 42.202048 0.965868 1.022467 0.122489 -0.041176 -376511.000000 0 0 1
21.737206 29.033250 21.791517 42.312007 0.928127 1.029766 0.129620 -0.040445 -348855.000000 0 0 1
22.768506 30.018450 21.741617 43.499542 0.921888 1.047414 0.126124 -0.048878 288046.000000 0 0 1
23.339406 30.302550 20.308617 43.306031 0.914484 1.082688 0.124237 -0.044757 -246843.000000 0 0 1
22.514906 31.057850 19.477717 43.022001 0.943531 1.100962 0.089514 -0.037918 -121926.000000 0 0 1
23.105306 31.081350 18.193817 42.789257 0.931544 1.131618 0.081066 -0.015585 -127045.000000 0 0 1
22.510406 32.022950 17.130317 42.727456 0.958096 1.158275 0.072207 -0.025187 -605915.000000 0 0 1
22.845406 33.403650 17.337017 44.025999 0.970944 1.166045 0.082433 -0.021352 199237.000000 0 0 1
23.040906 -33.804748 16.145517 43.980929 -0.972535 1.194904 0.070971 -0.018573 160790.000000 0 0 1
24.178906 33.739350 15.163717 44.191646 0.948991 1.220543 0.064934 -0.019674 52787.500000 0 0 1
23.836006 32.555450 14.439317 42.854479 0.938807 1.227133 0.092297 -0.030139 948325.000000 0 0 1
22.840506 32.795550 13.389017 42.148578 0.962456 1.247533 0.049074 -0.021836 822392.000000 0 0 1
22.292906 31.630450 12.588617 40.693148 0.956861 1.256282 0.063006 -0.034228 -400491.000000 0 0 1
23.342806 31.108950 11.804017 40.644658 0.927067 1.276131 0.107593 -0.050354 67717.400000 0 0 1
23.050806 29.850450 11.247617 39.356041 0.913232 1.280964 0.112469 -0.048203 -1466250.000000 0 0 1
24.097606 29.316450 10.270817 39.314610 0.882794 1.306483 0.119724 -0.051350 210037.000000 0 0 1
25.200006 28.679250 10.906217 39.704978 0.849883 1.292538 0.120261 -0.048838 410615.000000 0 0 1
26.125906 29.504150 11.590617 41.077978 0.846051 1.284750 0.112936 -0.050874 -985375.000000 0 0 1
27.525306 28.901150 11.779217 41.613326 0.809776 1.283809 0.122652 -0.048646 -72770.500000 0 0 1
27.689606 27.849450 12.739517 41.286820 0.788276 1.257116 0.119602 -0.044391 -450174.000000 0 0 1
29.011406 27.706150 13.182017 42.226272 0.762389 1.253314 0.104077 -0.035253 -247877.000000 0 0 1
29.265506 26.550850 14.197817 41.988040 0.736801 1.225857 0.083518 -0.038817 -524350.000000 0 0 1
30.388706 26.830450 14.969417 43.213771 0.723292 1.217061 0.057053 -0.035524 -358037.000000 0 0 1
30.634306 25.785750 15.859517 43.068433 0.699672 1.193681 0.050728 -0.030735 285298.000000 0 0 1
31.926306 25.975050 16.691417 44.413913 0.682975 1.185520 0.051881 -0.032294 394028.000000 0 0 1
33.166706 26.057650 16.020117 45.118463 0.665934 1.207810 0.068843 -0.020011 220003.000000 0 0 1
34.244806 26.030950 16.928317 46.226454 0.649961 1.195870 0.058941 -0.023008 166899.000000 0 0 1
35.646506 26.301750 16.363117 47.225068 0.635679 1.216967 0.094611 -0.031951 -15780.400000 0 0 1
35.912706 27.725750 16.288417 48.205313 0.657453 1.226115 0.108740 -0.029398 -281252.000000 0 0 1
37.175006 28.039650 15.754217 49.156876 0.646222 1.244551 0.134778 -0.028439 -273.484000 0 0 1
37.157606 29.045750 14.624717 49.378393 0.663477 1.270109 0.110530 -0.034472 192158.000000 0 0 1
36.561206 30.327650 14.879417 49.778361 0.692474 1.267243 0.131072 -0.046214 252784.000000 0 0 1
36.959906 31.323850 13.933417 50.411887 0.703046 1.290759 0.104839 -0.031112 -98064.800000 0 0 1
36.113506 32.520550 14.252017 50.644758 0.733096 1.285532 0.105594 -0.039975 -973476.000000 0 0 1
36.083306 33.575450 13.286117 51.047397 0.749412 1.307494 0.079957 -0.043338 484580.000000 0 0 1
34.959706 -33.533148 13.384817 50.257402 -0.764573 1.301218 0.078659 -0.035927 644490.000000 0 0 1
33.570506 33.900750 12.957517 49.438214 0.790293 1.305604 0.096214 -0.037283 31210.100000 0 0 1
33.041006 32.874350 13.785817 48.605347 0.782870 1.283221 0.089207 -0.040260 259978.000000 0 0 1
31.831206 32.308650 13.288617 47.261633 0.792842 1.285782 0.100704 -0.034661 175952.000000 0 0 1
31.261906 31.113650 14.059717 46.292998 0.783021 1.262211 0.108892 -0.042676 -552943.000000 0 0 1
30.531706 31.450150 15.169517 46.383308 0.800215 1.237619 0.109187 -0.035947 -278381.000000 0 0 1
29.909606 30.357250 15.767517 45.439650 0.792826 1.216427 0.097204 -0.041385 198501.000000 0 0 1
28.851906 30.662350 16.878217 45.359524 0.815809 1.189527 0.096538 -0.041504 273809.000000 0 0 1
28.758406 29.637750 17.804117 44.971422 0.800455 1.163750 0.075408 -0.036375 331039.000000 0 0 1
29.762906 29.794750 18.830217 46.131711 0.785933 1.150333 0.072838 -0.030803 530555.000000 0 0 1
29.680206 28.710050 19.948617 45.859884 0.768785 1.120769 0.059328 -0.026072 -50551.900000 0 0 1
28.643106 28.926850 20.889417 45.755414 0.790327 1.096688 0.085127 -0.035068 12705.300000 0 0 1
28.533906 27.928550 21.897317 45.537679 0.774677 1.069159 0.067394 -0.031436 1014840.000000 0 0 1
27.246806 28.168450 22.806717 45.343096 0.802028 1.043752 0.080100 -0.032648 1849350.000000 0 0 1
25.964706 27.710350 22.336617 44.056259 0.817909 1.039093 0.125299 -0.040258 934330.000000 0 0 1
24.908306 27.597150 23.265747 43.855688 0.836564 1.011598 0.145035 -0.045656 223883.000000 0 0 1
24.960706 26.359550 24.239087 43.650843 0.812649 0.982079 0.108448 -0.043321 -285271.000000 0 0 1
25.923506 26.494850 25.268807 44.861095 0.796297 0.972461 0.094070 -0.039833 56829.600000 0 0 1
25.757306 25.518450 26.232847 44.752569 0.780740 0.944466 0.113570 -0.033012 -228725.000000 0 0 1
26.995106 25.346350 27.149407 45.915831 0.753909 0.938143 0.091667 -0.019601 168513.000000 0 0 1
27.191206 26.441350 28.103517 47.205025 0.771418 0.933095 0.114794 -0.033573 292361.000000 0 0 1
27.937306 27.514850 27.521037 47.905820 0.777780 0.958825 0.084873 -0.031317 -257466.000000 0 0 1
28.346906 28.631050 28.534067 49.370812 0.790385 0.954577 0.051443 -0.020149 63777.800000 0 0 1
29.317506 28.244650 29.492617 50.270179 0.766762 0.943841 0.042201 -0.010013 21895.900000 0 0 1
29.880406 29.372350 30.118117 51.601111 0.776824 0.947553 0.037055 -0.008890 366255.000000 0 0 1
31.432506 29.371150 30.024077 52.460577 0.751509 0.961468 0.022718 -0.004417 237627.000000 0 0 1
31.855406 29.389750 28.670787 51.966704 0.745161 0.986378 0.013644 -0.004562 -104133.000000 0 0 1
33.261806 29.460250 28.555587 52.817380 0.724863 0.999590 0.004978 -0.005072 16357.800000 0 0 1
33.669306 29.942250 27.139307 52.599454 0.726874 1.028666 0.004404 -0.004799 -631584.000000 0 0 1
33.292206 31.262650 26.861487 52.983618 0.753969 1.039122 0.002334 0.001737 125313.000000 0 0 1
33.776706 31.823250 25.670257 53.033454 0.755629 1.065532 0.013712 -0.009235 -335359.000000 0 0 1
33.421406 33.291850 25.486357 53.618020 0.783456 1.075455 0.015197 -0.011094 -111442.000000 0 0 1
34.151706 -33.807548 26.338707 54.799789 -0.780334 1.069417 0.024608 -0.008688 380631.000000 0 0 1
33.857206 -32.452748 26.054727 53.650164 -0.764221 1.063700 0.031416 -0.006082 269013.000000 0 0 1
34.924506 -31.518548 26.741177 54.113128 -0.734182 1.053914 0.030120 -0.005435 317618.000000 0 0 1
34.790106 -31.411848 28.148277 54.675234 -0.734413 1.029991 0.030891 -0.008909 555115.000000 0 0 1
35.886606 -30.764948 28.809217 55.356134 -0.708707 1.023437 0.035821 -0.011520 37468.700000 0 0 1
35.609606 -30.124348 30.214357 55.573625 -0.702145 0.995979 0.043750 -0.013677 -338219.000000 0 0 1
35.617006 -31.031748 31.299227 56.667293 -0.716709 0.985636 0.049360 -0.012999 967140.000000 0 0 1
34.423206 -31.845148 31.350077 56.408314 -0.746514 0.981507 0.051972 -0.013941 329679.000000 0 0 1
34.285506 -32.716048 32.631043 57.537994 -0.761978 0.967789 0.055546 -0.017828 -303436.000000 0 0 1
33.926306 -31.945348 33.796952 57.565037 -0.755334 0.943313 0.053099 -0.024245 116443.000000 0 0 1
34.250006 -32.637848 -32.820196 57.580008 -0.761300 2.177294 0.057458 -0.025264 -235772.000000 0 0 1
33.543006 -33.990348 -32.481896 57.754226 -0.792022 2.168101 0.050207 -0.022356 143716.000000 0 0 1
33.958106 32.973850 -33.416906 57.940636 0.770694 2.185534 0.040771 -0.022311 89944.000000 0 0 1
33.010806 31.926450 -33.499856 56.844101 0.768701 2.201024 0.048200 -0.014611 109400.000000 0 0 1
33.210106 30.891450 33.180913 56.197561 0.749242 0.939201 0.036024 -0.008191 -15087.900000 0 0 1
34.472206 30.266250 33.260760 56.662660 0.720521 0.943453 0.024652 -0.007951 -219502.000000 0 0 1
34.648806 29.305850 32.261223 55.679073 0.702049 0.952787 0.014758 -0.008301 -370671.000000 0 0 1
35.972206 28.546050 32.090306 56.023784 0.670801 0.960881 0.011656 -0.006417 -275271.000000 0 0 1
36.176206 27.628250 33.141876 56.306501 0.652220 0.941473 0.009658 -0.002870 367594.000000 0 0 1
-37.029853 26.971450 33.002705 56.461028 -0.629514 0.946506 0.019912 -0.008864 218403.000000 0 0 1
-36.869253 25.726150 33.832367 56.265493 -0.609226 0.925671 0.023533 -0.010322 27913.200000 0 0 1
36.922406 24.612450 33.274640 55.463848 0.587956 0.927378 0.010436 -0.009498 116477.000000 0 0 1
36.897806 23.439750 -33.757976 55.231068 0.565944 2.228389 0.019752 -0.018245 -272076.000000 0 0 1
36.373506 22.298350 33.291630 54.116365 0.549951 0.908174 0.012670 -0.019496 -787790.000000 0 0 1
-37.219853 21.912250 32.263068 53.910757 -0.532088 0.929227 0.031974 -0.014742 -19231.000000 0 0 1
36.798606 20.742050 31.578817 52.740798 0.513273 0.928851 0.038937 -0.015985 147994.000000 0 0 1
-36.554353 19.980350 30.807357 51.812435 -0.500224 0.934036 0.052503 -0.024003 66845.400000 0 0 1
-35.920153 20.540950 29.683997 50.924726 -0.519464 0.948504 0.052607 -0.014485 636760.000000 0 0 1
-34.707053 19.868050 29.309947 49.582174 -0.519916 0.938326 0.065652 -0.012645 604423.000000 0 0 1
-34.871053 18.972350 28.050237 48.608191 -0.498280 0.955662 0.076802 -0.012326 -247857.000000 0 0 1
-35.793353 17.971050 28.418707 49.109528 -0.465309 0.953687 0.065831 -0.011792 98678.300000 0 0 1
-35.980653 17.015050 27.379187 48.308790 -0.441729 0.968236 0.071596 -0.017220 -214494.000000 0 0 1
-36.625453 15.794750 28.041907 48.757015 -0.407153 0.958026 0.079278 -0.026612 -216459.000000 0 0 1
-35.710953 14.931850 28.671497 48.169358 -0.396038 0.933254 0.078582 -0.025059 -63465.700000 0 0 1
-36.349653 13.813450 29.191847 48.623787 -0.363161 0.926843 0.074381 -0.031278 -450504.000000 0 0 1
-35.363553 12.713450 29.551947 47.807220 -0.345119 0.904412 0.082429 -0.026839 -443537.000000 0 0 1
-34.431653 13.079750 30.529057 47.839753 -0.363038 0.878700 0.089289 -0.020823 105556.000000 0 0 1
-33.584853 12.013050 30.866737 47.170024 -0.343511 0.857445 0.078952 -0.017172 772316.000000 0 0 1
-32.031353 12.173150 30.693287 46.002946 -0.363181 0.840349 0.080083 -0.016857 180138.000000 0 0 1
-31.584153 12.105950 29.336107 44.774099 -0.366020 0.856346 0.075133 -0.019416 1618480.000000 0 0 1
-30.215453 12.567250 29.150817 43.825558 -0.394156 0.843094 0.081711 -0.020151 2319770.000000 0 0 1
-28.999853 11.630450 29.573087 43.021231 -0.381413 0.812884 0.080183 -0.021029 503155.000000 0 0 1
-28.732753 10.573250 28.736967 41.990213 -0.352607 0.817053 0.093494 -0.032105 204969.000000 0 0 1
-27.693953 9.765050 29.311137 41.490409 -0.338994 0.786318 0.080465 -0.026782 137153.000000 0 0 1
-27.346353 8.503050 28.473277 40.383814 -0.301462 0.788279 0.085037 -0.027420 1239380.000000 0 0 1
-28.334653 7.402050 28.475467 40.847217 -0.255526 0.799422 0.085063 -0.033854 768794.000000 0 0 1
-29.593053 7.681950 27.915127 41.400670 -0.253980 0.830824 0.087420 -0.034115 -224027.000000 0 0 1
-30.560453 6.456550 27.927377 41.899484 -0.208210 0.841248 0.085903 -0.031749 176102.000000 0 0 1
-30.873353 5.996950 29.250867 42.950443 -0.191854 0.821618 0.086056 -0.026497 -93188.400000 0 0 1
-31.548053 4.774050 29.174877 43.234762 -0.150187 0.830101 0.091238 -0.025238 -279510.000000 0 0 1
-32.182653 4.417050 30.558847 44.599065 -0.136397 0.815931 0.087880 -0.016603 -539609.000000 0 0 1
-33.293153 5.215850 30.813377 45.662932 -0.155401 0.830102 0.079430 -0.015775 -702277.000000 0 0 1
-33.807253 4.903050 32.090913 46.870001 -0.144025 0.816633 0.083179 -0.017493 623679.000000 0 0 1
-35.340053 5.175250 32.220714 48.102775 -0.145408 0.836816 0.094416 -0.005566 461650.000000 0 0 1
-35.671753 6.539250 32.537181 48.722725 -0.181304 0.839543 0.092344 -0.012582 807159.000000 0 0 1
-37.105453 6.673350 32.611849 49.848580 -0.177946 0.857648 0.084644 -0.005952 1010140.000000 0 0 1
36.839706 8.088450 32.952016 50.084153 0.216129 0.852726 0.081580 -0.010869 -128108.000000 0 0 1
37.204406 8.451150 -33.584796 50.828420 0.223364 2.292612 0.083379 -0.005867 171953.000000 0 0 1
36.714406 9.744550 -33.281426 50.503041 0.259433 2.290283 0.082856 -0.004624 42405.800000 0 0 1
36.630506 10.163950 -31.754256 49.532137 0.270663 2.266706 0.075416 -0.008748 -691675.000000 0 0 1
35.491906 9.613050 -31.210146 48.230274 0.264506 2.274580 0.080976 -0.006872 -699700.000000 0 0 1
35.460106 9.725250 -29.786066 47.320284 0.267677 2.251650 0.074952 -0.006051 271391.000000 0 0 1
34.100706 9.340250 -29.140446 45.817726 0.267345 2.260111 0.086155 -0.009246 195210.000000 0 0 1
33.883106 7.973150 -29.122636 45.384622 0.231109 2.267490 0.103332 -0.015641 -890211.000000 0 0 1
32.611406 7.549650 -28.839646 44.184004 0.227496 2.281961 0.111103 -0.024657 -1227410.000000 0 0 1
35.955275 6.067450 -20.559266 41.860234 0.167175 2.084195 0.066651 -0.020791 -232719.000000 0 0 1
35.231395 6.776750 -19.572766 40.868921 0.190029 2.070215 0.050673 -0.033463 266110.000000 0 0 1
35.835625 7.961050 -19.083666 41.373381 0.218605 2.050205 0.046801 -0.016836 -1222670.000000 0 0 1
37.107895 7.954250 -18.211766 42.094351 0.211159 2.018217 0.061967 -0.026661 883535.000000 0 0 1
-36.114984 7.614750 -18.871966 41.453921 -0.207804 2.043451 0.070793 -0.034331 610134.000000 0 0 1
-35.705687 8.657850 -19.733766 41.704627 -0.237887 2.063692 0.063190 -0.021338 -2016140.000000 0 0 1
-34.554274 8.147350 -20.534866 41.012899 -0.231555 2.095195 0.070350 -0.019013 -946314.000000 0 0 1
-34.792430 7.046150 -21.455466 41.478891 -0.199817 2.114445 0.067047 -0.012550 104795.000000 0 0 1
-35.487033 7.420450 -22.637466 42.741636 -0.206133 2.128967 0.060995 -0.009838 122570.000000 0 0 1
-35.480427 6.180650 -23.532466 43.021368 -0.172468 2.149567 0.090092 -0.019866 230490.000000 0 0 1
-34.230427 5.987850 -24.172666 42.330772 -0.173176 2.178571 0.084720 -0.023546 92416.800000 0 0 1
-34.051034 4.690950 -24.749766 42.355977 -0.136901 2.194848 0.079747 -0.017706 -572848.000000 0 0 1
-32.766334 4.603950 -25.560956 41.811379 -0.139595 2.228549 0.088258 -0.016061 -54688.900000 0 0 1
-31.602164 4.635450 -24.741666 40.402156 -0.145643 2.229870 0.089903 -0.016753 -456531.000000 0 0 1
-30.481474 4.316650 -25.493826 39.971100 -0.140680 2.262443 0.088319 -0.015815 861351.000000 0 0 1
-29.057444 4.745350 -24.927366 38.577545 -0.161880 2.273342 0.063069 -0.011076 1240720.000000 0 0 1
-28.800904 6.141750 -25.015466 38.639186 -0.210101 2.274980 0.049318 -0.011473 662193.000000 0 0 1
-27.463404 6.375350 -24.537766 37.376270 -0.228100 2.286974 0.063699 -0.007246 983408.000000 0 0 1
-27.017514 7.827650 -24.769266 37.479790 -0.282004 2.292774 0.049896 -0.013397 -31403.300000 0 0 1
-27.613224 8.718450 -23.864366 37.523452 -0.305829 2.260081 0.045426 -0.016108 -209280.000000 0 0 1
-27.330594 10.058250 -24.231066 37.885014 -0.352639 2.264768 0.038320 -0.014410 822782.000000 0 0 1
-26.017074 10.721350 -23.664066 36.767152 -0.390884 2.270015 0.052628 -0.010750 578191.000000 0 0 1
-26.056254 10.901350 -22.255666 35.959456 -0.396248 2.238151 0.045193 -0.007251 946838.000000 0 0 1
-24.722294 10.936650 -21.703066 34.667350 -0.416499 2.247258 0.070743 -0.011548 421243.000000 0 0 1
-24.657494 11.204750 -20.158666 33.762557 -0.426520 2.210642 0.089267 -0.016483 -746804.000000 0 0 1
-25.181954 12.454250 -19.700766 34.312670 -0.459295 2.182367 0.088230 -0.018164 1029630.000000 0 0 1
-26.575574 12.713450 -19.825966 35.510025 -0.446209 2.163156 0.067574 -0.004127 600651.000000 0 0 1
-27.678064 11.786950 -19.211666 35.694475 -0.402598 2.139126 0.065431 -0.003834 -142214.000000 0 0 1
-27.473454 11.605750 -17.823666 34.744311 -0.399696 2.109467 0.086578 -0.011205 155163.000000 0 0 1
-28.283474 10.566150 -17.356666 34.826029 -0.357525 2.092528 0.092938 -0.011986 -754846.000000 0 0 1
-27.945084 10.106550 -15.893866 33.699926 -0.347022 2.061934 0.122684 -0.015538 56127.300000 0 0 1
-26.846434 9.249150 -15.704766 32.448690 -0.331785 2.076002 0.137116 -0.018911 -462649.000000 0 0 1
-25.596694 9.834350 -15.806966 31.650677 -0.366815 2.093725 0.117106 -0.015000 -1542340.000000 0 0 1
-24.523294 8.757650 -15.751866 30.433693 -0.343000 2.114816 0.091999 -0.014618 -146202.000000 0 0 1
-23.171794 9.198250 -15.775566 29.502683 -0.377882 2.134968 0.083197 -0.008346 715888.000000 0 0 1
-22.341494 8.162450 -15.237366 28.247925 -0.350283 2.140539 0.093105 -0.012127 1556110.000000 0 0 1
-20.774794 8.443050 -15.139466 27.056988 -0.386019 2.164627 0.126218 -0.024084 1384100.000000 0 0 1
-20.200394 8.440650 -16.449366 27.383976 -0.395795 2.215164 0.135893 -0.031658 625021.000000 0 0 1
-18.785594 8.583550 -16.312766 26.318856 -0.428595 2.239301 0.151995 -0.035322 -77380.200000 0 0 1
-18.084894 9.205750 -17.483966 26.786158 -0.470845 2.281971 0.119949 -0.028880 -332618.000000 0 0 1
-17.835894 8.407550 -18.612466 27.115123 -0.440494 2.327356 0.152344 -0.037051 1152200.000000 0 0 1
-16.809194 7.360250 -18.463566 26.031242 -0.412721 2.359280 0.163781 -0.036805 480816.000000 0 0 1
-16.577894 6.683850 -19.882566 26.736059 -0.383243 2.409326 0.124444 -0.027952 522942.000000 0 0 1
-17.668394 5.878450 -20.333666 27.571476 -0.321189 2.400141 0.125322 -0.021833 974113.000000 0 0 1
-18.740694 6.599450 -20.991566 28.903498 -0.338585 2.383667 0.127151 -0.018659 487675.000000 0 0 1
-19.638994 5.626250 -21.790866 29.869493 -0.279011 2.388439 0.099379 -0.005681 455323.000000 0 0 1
-20.513794 4.820050 -20.953366 29.716866 -0.230780 2.353361 0.093182 -0.012125 623251.000000 0 0 1
-21.063594 3.687550 -21.572066 30.374776 -0.173311 2.360574 0.076873 -0.003356 -205298.000000 0 0 1
-21.946794 2.926950 -20.537266 30.199471 -0.132583 2.318632 0.096877 -0.006971 -155907.000000 0 0 1
-22.537194 1.746150 -20.934866 30.809783 -0.077324 2.317860 0.099073 -0.005071 73625.900000 0 0 1
-23.111694 1.120550 -19.817666 30.465487 -0.048446 2.279033 0.113081 -0.007966 -329883.000000 0 0 1
-23.721094 -0.252050 -20.080366 31.080137 0.010625 2.273238 0.123149 -0.002707 318688.000000 0 0 1
-22.715194 -1.240650 -20.313466 30.498461 0.054563 2.299695 0.092869 -0.010707 394768.000000 0 0 1
-23.304494 -2.480750 -20.614866 31.212597 0.106050 2.292236 0.108621 -0.019092 -349718.000000 0 0 1
-24.034694 -2.727550 -21.949966 32.663543 0.113000 2.307705 0.098243 -0.024846 535321.000000 0 0 1
-23.147594 -2.728750 -23.074466 32.797685 0.117343 2.351162 0.069477 -0.024898 361674.000000 0 0 1
-22.209494 -3.798750 -23.129266 32.290169 0.169402 2.369274 0.055552 -0.034593 -399062.000000 0 0 1
-21.324794 -3.591050 -24.334666 32.554853 0.166833 2.415083 0.057438 -0.027810 -388077.000000 0 0 1
-21.945994 -3.899850 -25.588776 33.935541 0.175866 2.424989 0.059160 -0.034324 902178.000000 0 0 1
-21.021894 -3.802250 -26.695226 34.190820 0.178936 2.466696 0.064426 -0.040062 308416.000000 0 0 1
-21.836794 -3.930650 -27.972116 35.703429 0.178094 2.471006 0.075568 -0.048805 135168.000000 0 0 1
-22.522094 -5.159850 -28.074646 36.360067 0.225215 2.452980 0.070160 -0.044229 -47332.900000 0 0 1
-23.228394 -5.347750 -29.271006 37.748490 0.226282 2.458179 0.038845 -0.032338 -383326.000000 0 0 1
-22.734794 -6.503050 -30.181066 38.341325 0.278600 2.477000 0.055802 -0.033658 450122.000000 0 0 1
-21.443794 -6.136150 -30.689506 37.938561 0.278703 2.513120 0.048438 -0.032965 421210.000000 0 0 1
-20.796594 -7.251750 -31.235706 38.219831 0.335515 2.527444 0.060004 -0.031165 -23606.500000 0 0 1
-19.351294 -7.019350 -31.751066 37.840111 0.347973 2.566395 0.070003 -0.036294 -347016.000000 0 0 1
-19.191994 -6.520350 -33.063326 38.781840 0.327508 2.591635 0.061966 -0.043532 260155.000000 0 0 1
-19.337394 -7.615850 33.868097 39.736431 0.375185 0.550394 0.056560 -0.039098 -799142.000000 0 0 1
-19.082294 -7.323150 32.376539 38.288415 0.366434 0.563115 0.053651 -0.040035 -320294.000000 0 0 1
-17.811194 -6.962550 31.910960 37.202488 0.372645 0.539892 0.073861 -0.042745 -107253.000000 0 0 1
-17.247594 -5.733650 32.361913 37.116676 0.320939 0.511734 0.054493 -0.044674 -540225.000000 0 0 1
-15.991494 -5.329750 31.590117 35.806000 0.321708 0.490160 0.056199 -0.037170 -804968.000000 0 0 1
-16.164594 -5.180350 30.207957 34.650408 0.310134 0.511947 0.058487 -0.032242 987670.000000 0 0 1
-15.091294 -4.605550 29.375607 33.344933 0.296202 0.492906 0.047976 -0.016816 1003880.000000 0 0 1
-15.398494 -4.861550 27.850127 32.192823 0.305812 0.525439 0.063729 -0.020396 917933.000000 0 0 1
-16.495094 -3.994250 27.457117 32.279025 0.237575 0.553637 0.065951 -0.022515 739116.000000 0 0 1
-16.920494 -4.169050 26.075387 31.362556 0.241579 0.589142 0.077106 -0.015499 431994.000000 0 0 1
-15.910694 -3.687050 24.972027 29.838677 0.227715 0.579199 0.075492 -0.006196 226787.000000 0 0 1
-15.817294 -2.297150 24.920157 29.605370 0.144222 0.570290 0.075385 -0.000062 -14720.000000 0 0 1
-14.715594 -1.912650 24.130897 28.328557 0.129250 0.551342 0.071240 -0.001283 -103938.000000 0 0 1
-14.507594 -0.381650 24.076577 28.112231 0.026301 0.542453 0.072294 0.003703 -289086.000000 0 0 1
-15.542794 0.311050 23.434927 28.122429 -0.020010 0.585713 0.060857 -0.001266 -193993.000000 0 0 1
-15.709794 1.519550 24.143237 28.844455 -0.096426 0.578992 0.041179 0.004768 -139330.000000 0 0 1
-16.398294 2.651650 23.377567 28.678318 -0.160315 0.617782 0.044967 0.000876 -217188.000000 0 0 1
-15.571594 3.095650 22.350117 27.415057 -0.196243 0.617636 0.028764 0.000868 317779.000000 0 0 1
-16.238494 4.126650 21.642517 27.369992 -0.248860 0.658781 0.027984 -0.004039 232594.000000 0 0 1
-15.305394 4.691050 20.550317 26.049502 -0.297406 0.661788 0.038041 -0.001845 670788.000000 0 0 1
-14.254094 5.518850 21.080417 26.038834 -0.369403 0.627367 0.031570 -0.006514 871376.000000 0 0 1
-13.272894 5.810550 20.077817 24.759866 -0.412642 0.625105 0.027324 -0.006577 659380.000000 0 1 0
-12.251294 6.933150 20.470217 24.843361 -0.514977 0.602412 0.023307 -0.009502 395847.000000 0 1 0
-12.811494 8.206550 20.628817 25.632595 -0.569711 0.635477 0.031829 -0.010650 451571.000000 0 0 1
-11.740294 9.158950 20.563017 25.388158 -0.662507 0.626738 0.032134 -0.009742 612507.000000 0 0 1
-12.186994 10.651150 20.591317 26.191070 -0.718250 0.666167 0.025194 -0.002571 50071.100000 0 0 1
-12.705194 11.206150 19.353017 25.720401 -0.722788 0.719040 0.033384 -0.004303 535648.000000 0 0 1
-13.313794 12.469850 19.597617 26.773511 -0.752678 0.749576 0.020613 -0.000943 -254928.000000 0 0 1
-13.969094 13.103450 18.349317 26.524205 -0.753434 0.806824 0.044483 -0.001753 -70989.500000 0 0 1
-13.052894 13.679550 17.433617 25.718459 -0.808836 0.825943 0.035684 -0.006778 290761.000000 0 0 1
-12.586194 15.009350 17.748917 26.433254 -0.872983 0.834617 0.047425 -0.017124 -397113.000000 0 0 1
-13.559594 16.149450 17.394117 27.335373 -0.872352 0.881074 0.045464 -0.015178 -105570.000000 0 0 1
-13.715694 16.589050 16.019917 26.831970 -0.879931 0.930983 0.044654 -0.029366 -201798.000000 0 0 1
-14.200494 15.781050 15.007617 25.998541 -0.838067 0.955441 0.076112 -0.023574 -220501.000000 0 0 1
-14.724994 16.589850 13.783317 26.115674 -0.844880 1.014812 0.062937 -0.030137 827217.000000 0 0 1
-16.002594 17.226150 13.955817 27.342057 -0.822204 1.035128 0.051457 -0.036188 533007.000000 0 0 1
-16.525894 17.656850 12.671117 27.302504 -0.818472 1.088177 0.068927 -0.037613 -203669.000000 0 0 1
-17.717594 18.581550 12.873917 28.721506 -0.809195 1.106009 0.064419 -0.036965 -292170.000000 0 0 1
-18.972394 17.963950 12.965917 29.167966 -0.758103 1.110151 0.070085 -0.038104 -822769.000000 0 0 1
-20.073994 18.786750 13.071317 30.442841 -0.752286 1.126999 0.071837 -0.044506 686343.000000 0 0 1
-21.388894 17.914550 13.300417 30.908203 -0.697229 1.125949 0.087027 -0.029690 1106810.000000 0 0 1
-21.816094 17.228750 12.120717 30.326285 -0.668445 1.159632 0.089475 -0.038499 224669.000000 0 0 1
-23.021994 16.516650 12.378917 30.920051 -0.622328 1.158895 0.098010 -0.033482 200488.000000 0 0 1
-23.492894 15.661250 11.178817 30.367034 -0.587983 1.193806 0.103831 -0.032324 223220.000000 0 0 1
-22.696694 14.509550 10.835317 29.035686 -0.568802 1.188370 0.081835 -0.019967 483502.000000 0 0 1
-23.250194 13.866050 9.679917 28.749603 -0.537757 1.227389 0.090066 -0.022937 34178.100000 0 0 1
-22.472094 12.613150 9.233517 27.374156 -0.511463 1.226741 0.110786 -0.023167 -523407.000000 0 0 1
-22.555894 11.411850 9.947717 27.165341 -0.468386 1.195883 0.112514 -0.020003 986093.000000 0 0 1
-23.857394 10.834450 10.188817 28.113565 -0.426286 1.199937 0.139518 -0.011979 888059.000000 0 0 1
-24.785094 10.339350 9.065517 28.344076 -0.395211 1.245238 0.167201 -0.020242 -400012.000000 0 0 1
-25.329784 11.459350 8.381817 29.037381 -0.424853 1.277973 0.167264 -0.026729 932056.000000 0 0 1
-26.358084 11.014050 7.446117 29.521222 -0.395809 1.315813 0.212921 -0.032644 304996.000000 0 0 1
-26.698844 12.242450 6.515717 30.085884 -0.429932 1.352496 0.195535 -0.026359 -228644.000000 0 0 1
-25.824054 12.531450 5.435517 29.214104 -0.451788 1.383648 0.186241 -0.034074 1229410.000000 0 0 1
-24.574894 13.192850 5.751717 28.479097 -0.492685 1.367435 0.171589 -0.034541 477100.000000 0 0 1
-24.579594 14.672750 6.093917 29.267420 -0.538173 1.361047 0.149356 -0.032125 9060.840000 0 0 1
-23.237794 15.101050 6.347417 28.431083 -0.576269 1.345643 0.115337 -0.037210 814558.000000 0 0 1
-23.241194 16.483550 6.792117 29.291524 -0.616899 1.336786 0.113138 -0.039581 -762157.000000 0 0 1
-21.900794 17.183750 6.839317 28.665350 -0.665291 1.329881 0.098684 -0.038550 -701616.000000 0 0 1
-21.557494 17.713650 5.555317 28.449262 -0.687829 1.374263 0.113369 -0.047126 -452128.000000 0 0 1
-20.206694 18.014850 5.653817 27.655216 -0.728115 1.364905 0.117650 -0.042613 -937752.000000 0 0 1
-19.575094 18.492550 4.326717 27.274149 -0.756968 1.411485 0.104528 -0.031956 -206530.000000 0 0 1
-18.205994 18.820850 4.414317 26.555015 -0.802002 1.403788 0.086115 -0.035652 281235.000000 0 0 1
-17.741094 19.900650 3.566717 26.898025 -0.842707 1.437803 0.098302 -0.035471 143873.000000 0 0 1
-18.148094 21.328450 3.962617 28.283537 -0.865788 1.430231 0.105690 -0.043660 -209204.000000 0 0 1
-17.567294 21.768450 5.188917 28.449958 -0.891797 1.387382 0.124489 -0.042612 78848.600000 0 0 1
-17.803894 23.107950 5.581917 29.700401 -0.914325 1.381731 0.098302 -0.036397 -612397.000000 0 0 1
-16.928894 23.437350 6.797817 29.700289 -0.945257 1.339869 0.071699 -0.024965 -28476.400000 0 0 1
-17.357094 22.806850 7.995517 29.754822 -0.920262 1.298739 0.072871 -0.031140 -108762.000000 0 0 1
-16.502694 23.025450 9.080317 29.748318 -0.948940 1.260608 0.074605 -0.032734 -332992.000000 0 0 1
-16.911994 22.240250 10.314817 29.783212 -0.920658 1.217140 0.052696 -0.034679 482596.000000 0 0 1
-18.077294 22.869150 10.877417 31.114382 -0.901896 1.213658 0.056856 -0.028239 122800.000000 0 0 1
-18.977994 21.892050 11.321817 31.106425 -0.856578 1.198269 0.063135 -0.035349 -23273.700000 0 0 1
-20.312194 22.445250 11.911017 32.530706 -0.835244 1.195931 0.064260 -0.029087 29069.400000 0 0 1
-21.223694 23.082350 11.067817 33.252619 -0.827324 1.231482 0.071843 -0.022329 -278714.000000 0 0 1
-20.819194 24.347350 10.618917 33.748981 -0.863354 1.250715 0.053292 -0.014499 -60215.800000 0 0 1
-21.968794 25.248950 10.042117 34.942546 -0.854755 1.279296 0.066976 -0.003037 595141.000000 0 0 1
-22.889394 25.817550 10.957717 36.201406 -0.845444 1.263285 0.071065 -0.014758 153250.000000 0 0 1
-23.597894 26.866150 10.332817 37.221200 -0.850072 1.289495 0.074567 -0.007483 87341.200000 0 0 1
-24.390694 27.636250 11.395217 38.581333 -0.847700 1.270969 0.084178 -0.020014 215076.000000 0 0 1
-23.381894 28.187550 12.239717 38.614267 -0.878318 1.248259 0.082352 -0.019384 883187.000000 0 0 1
-23.898794 29.023850 13.271817 39.870758 -0.881938 1.231450 0.070560 -0.018702 -186189.000000 0 0 1
9.490606 -32.547748 27.183427 43.455336 -1.287073 0.894962 0.082271 -0.023146 -239022.000000 0 0 1
10.879606 -32.764548 27.181577 43.939954 -1.250197 0.903827 0.059328 -0.031068 -110676.000000 0 0 1
11.395606 -32.287748 25.974357 42.977038 -1.231506 0.921812 0.069250 -0.021196 354941.000000 0 0 1
12.906006 -32.553548 25.707487 43.441609 -1.193350 0.937542 0.025611 -0.009748 561757.000000 0 0 1
13.211106 -33.917348 25.358797 44.362016 -1.199367 0.962301 0.034725 -0.035226 -208085.000000 0 0 1
14.592506 33.863850 25.182307 44.652550 1.163925 0.971621 0.041497 -0.022930 38672.700000 0 0 1
15.097006 32.463150 24.784217 43.543463 1.135497 0.965284 0.060590 -0.013320 -286134.000000 0 0 1
15.100506 32.310150 23.375047 42.642279 1.133599 0.990626 0.038541 -0.032482 -229210.000000 0 0 1
16.107906 31.470250 22.931747 42.139131 1.097717 0.995371 0.035443 -0.023981 -652814.000000 0 0 1
15.806506 30.797150 21.572617 40.788331 1.096608 1.013502 0.041814 -0.036160 402347.000000 0 0 1
14.700906 29.875350 21.454717 39.610076 1.113509 0.998400 0.041512 -0.017355 236142.000000 0 0 1
14.943606 28.503850 21.901617 38.928931 1.087925 0.973263 0.051254 -0.018375 -499454.000000 0 0 1
14.578706 28.235250 23.359437 39.438957 1.094170 0.936894 0.060744 -0.030783 -167122.000000 0 0 1
15.502806 28.731250 24.303777 40.700065 1.075988 0.930861 0.065882 -0.031479 191167.000000 0 0 1
15.204206 28.137650 25.575847 40.951425 1.075391 0.896253 0.051532 -0.032084 191290.000000 0 0 1
16.155106 28.642050 26.749837 42.389955 1.057242 0.887901 0.052887 -0.031824 577442.000000 0 0 1
15.911206 29.985250 27.105297 43.439370 1.082943 0.896971 0.046770 -0.033215 401042.000000 0 0 1
16.748806 30.351550 28.220977 44.700813 1.066551 0.887529 0.065322 -0.029600 340952.000000 0 0 1
16.466806 31.784050 28.655937 45.853509 1.092786 0.895735 0.074437 -0.028691 417425.000000 0 0 1
17.213206 32.773750 27.879337 46.342967 1.087182 0.925310 0.070949 -0.027363 268108.000000 0 0 1
17.036106 -33.924248 28.383037 47.399160 -1.105406 0.928783 0.065020 -0.013067 244076.000000 0 0 1
17.916106 -32.788648 27.767747 46.552445 -1.070712 0.931684 0.051742 -0.016835 -382426.000000 0 0 1
17.564706 -32.558048 26.386647 45.440077 -1.076059 0.951219 0.073384 -0.019038 195623.000000 0 0 1
18.178806 -31.428548 25.745127 44.508811 -1.046398 0.953996 0.074694 -0.027581 190199.000000 0 0 1
19.714006 -31.355648 25.524257 44.981179 -1.009525 0.967399 0.096095 -0.024710 60341.200000 0 0 1
20.458706 -31.250748 26.711207 45.920110 -0.991150 0.949993 0.098927 -0.026601 -331249.000000 0 0 1
21.483706 -30.314048 26.465047 45.616772 -0.954252 0.951871 0.109771 -0.031702 -351226.000000 0 0 1
21.769206 -29.397048 27.699817 45.884253 -0.933388 0.922676 0.111653 -0.028916 -800923.000000 0 0 1
20.680706 -28.580548 27.890087 44.971061 -0.944411 0.901826 0.099473 -0.022506 -634582.000000 0 0 1
20.792706 -27.823348 29.091277 45.307590 -0.929018 0.873583 0.101955 -0.022812 124316.000000 0 0 1
19.457106 -27.389748 29.742857 44.871091 -0.953138 0.846176 0.101359 -0.031172 183855.000000 0 0 1
18.766006 -26.352948 29.095767 43.510970 -0.951994 0.838338 0.115750 -0.024739 1233920.000000 0 0 1
17.493106 -25.979948 29.698327 43.161987 -0.978194 0.811975 0.114887 -0.020311 1056220.000000 0 0 1
16.552506 -25.208048 28.749837 41.665145 -0.989770 0.809278 0.106350 -0.001112 -468013.000000 0 0 1
16.111406 -25.962548 27.637297 41.200140 -1.015394 0.835501 0.099211 -0.006492 454346.000000 0 0 1
15.327806 -25.269148 26.666157 39.806475 -1.025551 0.836729 0.094390 -0.015877 1040900.000000 0 0 1
13.822006 -24.900948 26.995087 39.240793 -1.064062 0.812157 0.075403 -0.007913 1537780.000000 0 0 1
12.888406 -26.001448 27.216027 39.785656 -1.110610 0.817473 0.068152 -0.000726 795988.000000 0 0 1
12.443706 -26.548248 25.958287 39.159775 -1.132484 0.846136 0.050479 -0.007632 93672.300000 0 0 1
11.453506 -27.786648 26.190167 39.864840 -1.179822 0.853998 0.058323 -0.008156 -190461.000000 0 0 1
10.133906 -27.384748 26.316557 39.308799 -1.216367 0.837284 0.052148 -0.015744 -713775.000000 0 0 1
9.240206 -28.512648 26.232737 39.831006 -1.257402 0.851838 0.049401 -0.013206 286134.000000 0 0 1
7.811506 -28.050248 26.626627 39.456474 -1.299195 0.830055 0.041178 -0.019194 319287.000000 0 0 1
6.920306 -27.719348 25.551347 38.329157 -1.326141 0.841119 0.051984 -0.030281 220232.000000 0 0 1
7.273306 -26.539948 24.816477 37.055733 -1.303312 0.836982 0.072449 -0.032232 -853172.000000 0 0 1
6.259606 -26.091548 23.738487 35.825512 -1.335337 0.846493 0.069614 -0.023233 -571087.000000 0 0 1
6.063506 -27.025448 22.665717 35.789324 -1.350088 0.884974 0.064815 -0.022862 -319836.000000 0 0 1
5.498806 -28.291848 22.949277 36.842026 -1.378830 0.898339 0.062709 -0.027968 -384627.000000 0 0 1
4.016106 -28.204448 23.402387 36.868574 -1.429355 0.883109 0.120095 -0.035188 -1509400.000000 0 0 1
3.135406 -28.180148 22.317017 36.083248 -1.459989 0.903981 0.122770 -0.034453 722444.000000 0 0 1
1.787206 -27.832848 22.711517 35.967688 -1.506672 0.887385 0.156324 -0.033178 955328.000000 0 0 1
1.500906 -26.441248 23.238667 35.233904 -1.514093 0.850571 0.136772 -0.037636 -931514.000000 0 0 1
2.081706 -26.124648 24.495047 35.872525 -1.491281 0.819159 0.112775 -0.033224 -22037.000000 0 0 1
1.813506 -24.758148 24.845427 35.121930 -1.497678 0.784976 0.111645 -0.035682 -537034.000000 0 0 1
2.849906 -24.290448 25.837827 35.577256 -1.454004 0.757952 0.114509 -0.030411 -216783.000000 0 0 1
4.085606 -23.919548 25.244677 35.016149 -1.401623 0.765633 0.112509 -0.029753 150996.000000 0 0 1
4.928606 -23.000448 25.921267 35.003198 -1.359706 0.736923 0.104990 -0.031829 187860.000000 0 0 1
4.428406 -21.527448 26.103987 34.124184 -1.367917 0.699801 0.102776 -0.023042 -221092.000000 0 0 1
4.419506 -20.894748 24.826997 32.749081 -1.362356 0.710405 0.091602 -0.029351 -66807.500000 0 0 1
3.699806 -19.704248 24.970157 32.022722 -1.385191 0.676508 0.119758 -0.028888 -151593.000000 0 0 1
3.861306 -18.752048 23.793707 30.539966 -1.367721 0.677566 0.113761 -0.031668 -736740.000000 0 0 1
5.027306 -18.027348 23.685597 30.187193 -1.298835 0.668707 0.105128 -0.022764 -985742.000000 0 0 1
5.194406 -17.844748 22.295417 29.025894 -1.287535 0.694894 0.097601 -0.024761 -513909.000000 0 0 1
6.392406 -17.050548 21.817617 28.418172 -1.212105 0.695498 0.097134 -0.012470 -528730.000000 0 0 1
7.564506 -17.769248 22.116717 29.361831 -1.168326 0.717811 0.084263 -0.016895 -57442.900000 0 0 1
8.710906 -17.082548 21.577217 28.866410 -1.099236 0.726528 0.077954 -0.012412 1442080.000000 0 0 1
10.020306 -17.248648 22.474017 30.050022 -1.044515 0.725923 0.090305 -0.004246 880322.000000 0 0 1
10.038406 -16.714348 23.803657 30.769354 -1.029946 0.686269 0.086252 -0.001537 -880248.000000 0 0 1
11.281106 -16.741248 24.409347 31.675684 -0.977836 0.691011 0.094517 0.004048 -773128.000000 0 0 1
11.379406 -15.859748 25.706597 32.277727 -0.948420 0.649446 0.106764 -0.015201 -99973.400000 0 0 1
11.417006 -14.454048 25.503997 31.459838 -0.902255 0.625476 0.116530 -0.009290 25982.300000 0 0 1
11.412806 -13.740448 26.727557 32.146763 -0.877674 0.589133 0.109581 -0.012161 -116406.000000 0 0 1
11.517106 -12.201848 26.669967 31.508983 -0.814259 0.561562 0.110972 -0.018058 24865.500000 0 0 1
10.598606 -11.576348 25.801527 30.200349 -0.829462 0.546507 0.118981 -0.019402 -99607.600000 0 0 1
10.802806 -10.145448 25.767527 29.725346 -0.754028 0.521940 0.114814 -0.019518 6138.390000 0 0 1
9.816606 -9.318848 24.878757 28.322416 -0.759392 0.498267 0.111294 -0.018311 636890.000000 0 0 1
8.471006 -9.520948 25.313067 28.340038 -0.843688 0.466404 0.107563 -0.020435 109509.000000 0 0 1
7.559406 -8.790348 24.512457 27.115962 -0.860545 0.441794 0.104681 -0.029057 -125757.000000 0 0 1
6.100706 -9.063948 24.894587 27.186656 -0.978371 0.413571 0.098309 -0.035113 -686047.000000 0 0 1
5.589606 -8.332048 26.024257 27.891373 -0.979899 0.367975 0.100120 -0.037743 538239.000000 0 0 1
4.262406 -8.622248 26.429647 28.125389 -1.111679 0.349022 0.094498 -0.035921 936269.000000 0 0 1
3.029406 -8.445848 25.506647 27.038837 -1.226405 0.338259 0.079332 -0.032996 3602.770000 0 0 1
3.037406 -7.192548 24.830547 26.029112 -1.171216 0.304647 0.081267 -0.030731 -914851.000000 0 0 1
1.856506 -7.059348 24.148997 25.228061 -1.313634 0.293533 0.063262 -0.026911 -788346.000000 0 0 1
1.739206 -5.665748 23.409727 24.148310 -1.272959 0.247962 0.053239 -0.028811 -156435.000000 0 1 0
1.522306 -4.585948 24.299337 24.775111 -1.250291 0.196293 0.063103 -0.023188 -88727.900000 0 1 0
2.017606 -3.405948 23.787617 24.114766 -1.036001 0.164907 0.061651 -0.022669 -747320.000000 0 1 0
1.191606 -2.800048 22.595917 22.799905 -1.168446 0.133867 0.049263 -0.026542 320582.000000 0 1 0
0.083806 -1.989048 22.867477 22.953972 -1.528687 0.086840 0.045437 -0.031285 -135814.000000 0 1 0
-1.026394 -2.599048 23.500187 23.665742 1.194684 0.118353 0.049176 -0.023771 -524549.000000 0 1 0
-2.066194 -1.534048 23.847787 23.986234 0.638652 0.107494 0.055478 -0.029980 -156950.000000 0 1 0
-1.552794 -0.700048 24.932177 24.990292 0.423545 0.068211 0.067492 -0.019461 652250.000000 0 1 0
-2.326994 0.469952 25.227287 25.338741 -0.199276 0.093827 0.069626 -0.017128 105726.000000 0 0 1
-1.710394 1.154952 26.494177 26.574439 -0.593925 0.077740 0.100338 -0.021105 -60801.800000 0 0 1
-1.844694 0.455952 27.735937 27.800953 -0.242313 0.068404 0.123868 -0.023683 195811.000000 0 0 1
-1.108594 -0.774048 27.929827 27.962535 0.609534 0.048372 0.129197 -0.026473 -778988.000000 0 0 1
0.147106 -0.525048 28.770777 28.775944 -1.297624 0.018950 0.148945 -0.023818 354204.000000 0 0 1
1.279406 0.025952 28.060337 28.089501 0.020281 0.045573 0.129835 -0.027022 1081190.000000 0 0 1
1.929106 -0.711048 26.983847 27.062059 -0.353139 0.076046 0.122180 -0.030526 -393319.000000 0 0 1
3.023206 -1.704048 27.364767 27.583945 -0.513267 0.126146 0.124860 -0.034473 -846394.000000 0 0 1
2.583806 -2.906048 27.915967 28.185500 -0.844029 0.138406 0.133697 -0.037197 -312550.000000 0 0 1
3.542906 -3.893948 28.226747 28.713486 -0.832566 0.184389 0.129370 -0.034074 -77745.900000 0 0 1
4.178706 -4.549748 26.931387 27.630805 -0.827882 0.225480 0.121950 -0.034016 78875.800000 0 0 1
5.262306 -3.813348 26.412887 27.200627 -0.627081 0.241252 0.112717 -0.031583 -492259.000000 0 0 1
6.015906 -4.664948 25.618527 26.725677 -0.659582 0.288845 0.111178 -0.033346 -1431600.000000 0 0 1
7.120106 -3.952448 24.822187 26.123911 -0.506759 0.317012 0.109652 -0.037434 -581868.000000 0 0 1
8.332706 -3.829648 25.541047 27.137525 -0.430802 0.344718 0.098187 -0.031686 348689.000000 0 0 1
9.090906 -5.049948 25.745017 27.766031 -0.507052 0.383895 0.105229 -0.028913 -391541.000000 0 0 1
9.894006 -5.519548 24.504587 26.996881 -0.508864 0.433069 0.098283 -0.036309 -555129.000000 0 0 1
9.008706 -5.826648 23.442997 25.781403 -0.574108 0.429201 0.096273 -0.035166 -101886.000000 0 0 1
9.589606 -5.925248 22.127417 24.833278 -0.553465 0.471168 0.095406 -0.031907 161169.000000 0 1 0
9.811606 -4.511348 21.506317 24.065360 -0.430971 0.465354 0.102196 -0.030680 238425.000000 0 1 0
8.572806 -3.952048 21.140817 23.152664 -0.431962 0.419960 0.092073 -0.031398 -226175.000000 0 1 0
8.769306 -2.661048 20.541417 22.492926 -0.294619 0.419632 0.086203 -0.022112 153419.000000 0 1 0
7.484106 -1.875048 20.123917 21.552255 -0.245484 0.366111 0.074956 -0.022095 411773.000000 0 1 0
6.745606 -1.499048 21.271517 22.365773 -0.218672 0.314101 0.078226 -0.024451 -124491.000000 0 1 0
5.508806 -0.900048 20.999917 21.729095 -0.161953 0.259796 0.052135 -0.020762 -389303.000000 0 1 0
4.861906 -0.387048 22.264117 22.792079 -0.079441 0.215658 0.061527 -0.027019 -442336.000000 0 1 0
3.576506 0.146952 22.111817 22.399675 0.041065 0.160491 0.055849 -0.025596 -137617.000000 0 1 0
2.964306 0.476952 23.337297 23.529642 0.159531 0.127951 0.071670 -0.026354 -331589.000000 0 1 0
1.512106 0.941952 23.236317 23.304510 0.557117 0.076519 0.065547 -0.030842 -390771.000000 0 1 0
1.262406 2.300952 23.012637 23.161812 1.068994 0.113556 0.061823 -0.020592 776543.000000 0 1 0
-0.143994 2.564952 22.923987 23.067486 -1.514716 0.111600 0.049945 -0.014958 728516.000000 0 1 0
-0.517794 3.991952 22.476017 22.833640 -1.441807 0.177218 0.058829 -0.011193 -380504.000000 0 1 0
-0.475394 5.099952 23.363987 23.918850 -1.477850 0.215815 0.058278 -0.010004 -549664.000000 0 1 0
-1.209394 6.162952 22.905477 23.750905 -1.377022 0.267615 0.054032 -0.019721 -632603.000000 0 1 0
-1.157494 7.474952 23.721097 24.897894 -1.417167 0.308681 0.063747 -0.017553 502261.000000 0 1 0
0.043706 8.238952 23.545307 24.945214 1.565492 0.336607 0.050414 -0.013410 198424.000000 0 1 0
-0.156194 9.589952 23.969737 25.817433 -1.554511 0.380626 0.058932 -0.010753 -724210.000000 0 0 1
0.632206 10.618952 23.168327 25.493788 1.511331 0.430438 0.057146 -0.018465 543874.000000 0 0 1
2.053806 10.649952 23.253527 25.658646 1.380288 0.436434 0.051837 -0.016523 232184.000000 0 0 1
2.589306 11.131952 24.428897 26.970278 1.342259 0.437601 0.073004 -0.025907 76639.700000 0 0 1
3.932206 11.958952 24.251087 27.323872 1.253124 0.478814 0.065161 -0.035315 1183050.000000 0 0 1
5.133806 11.277952 23.945227 26.961492 1.143620 0.477543 0.057542 -0.029913 179519.000000 0 0 1
5.177906 10.890952 22.604417 25.619977 1.126996 0.490077 0.057661 -0.026139 -535535.000000 0 0 1
6.508806 10.254952 22.089717 25.208812 1.005253 0.502732 0.062115 -0.027925 51474.100000 0 0 1
7.454606 11.241952 21.853617 25.681379 0.985263 0.553001 0.065350 -0.034165 -201669.000000 0 0 1
8.674706 10.705952 21.348017 25.408773 0.889825 0.573176 0.074565 -0.034460 285546.000000 0 0 1
9.552206 11.850952 20.796917 25.772106 0.892390 0.631819 0.069596 -0.040033 -844845.000000 0 0 1
9.042006 12.303952 19.579517 24.829470 0.937038 0.662333 0.062641 -0.035516 2968.510000 0 1 0
9.784906 13.260952 18.881117 25.061800 0.935101 0.717606 0.086035 -0.035886 67518.500000 0 0 1
11.219206 12.938952 18.361717 25.108559 0.856465 0.750580 0.079932 -0.035697 94129.100000 0 0 1
12.160606 12.824952 19.397017 26.241265 0.811981 0.738944 0.091459 -0.037381 120251.000000 0 0 1
13.439706 12.549952 18.835217 26.322849 0.751177 0.773391 0.092356 -0.036454 214193.000000 0 0 1
14.636506 12.319952 19.753817 27.499488 0.699672 0.769392 0.093948 -0.025522 -50419.700000 0 0 1
15.222806 13.490952 20.277717 28.721515 0.725157 0.786946 0.093953 -0.026253 -340398.000000 0 0 1
16.444906 13.189952 20.879317 29.670788 0.676001 0.790205 0.096987 -0.021014 -228984.000000 0 0 1
17.309606 14.395952 21.286317 30.983434 0.693758 0.813413 0.101425 -0.014048 -56576.900000 0 0 1
16.835006 15.151952 22.444617 31.886673 0.732830 0.789941 0.102005 -0.012106 578559.000000 0 0 1
17.717506 16.230952 22.743617 33.085132 0.741638 0.812856 0.087342 -0.002416 87937.000000 0 0 1
-22.254894 13.288450 -24.220566 35.475330 -0.538286 2.322308 0.081907 0.005823 80197.400000 0 0 1
-21.935294 12.895950 -25.483496 36.012098 -0.531481 2.356945 0.069275 -0.011957 188135.000000 0 0 1
-22.540594 13.862250 -26.372106 37.359447 -0.551369 2.354492 0.067118 -0.017024 59141.200000 0 0 1
-22.335694 13.623550 -27.859056 38.217945 -0.547700 2.387586 0.068072 -0.014763 230454.000000 0 0 1
-21.006694 13.604550 -28.359656 37.823736 -0.574707 2.418533 0.096262 -0.017341 14820.300000 0 0 1
-20.813294 14.408550 -29.519206 38.886798 -0.605523 2.432735 0.087578 -0.022253 -772879.000000 0 0 1
-19.325594 14.634650 -29.692246 38.331202 -0.648136 2.456916 0.085712 -0.034079 -1128920.000000 0 0 1
-18.602394 13.489550 -30.083736 37.855623 -0.627407 2.489304 0.079289 -0.031927 1175610.000000 0 0 1
-17.184394 13.778550 -30.257816 37.425756 -0.675841 2.512354 0.068017 -0.016965 1724350.000000 0 0 1
-16.306294 13.619850 -28.968206 35.924260 -0.695869 2.508783 0.101654 -0.013877 -474343.000000 0 0 1
-16.689594 14.257850 -27.764796 35.393682 -0.706983 2.472615 0.099173 -0.009388 40917.800000 0 0 1
-17.311094 13.252550 -26.913106 34.635521 -0.653381 2.460742 0.126567 -0.009546 158885.000000 0 0 1
-17.933694 13.809950 -25.643696 34.204257 -0.656214 2.418439 0.120305 -0.011837 -169968.000000 0 0 1
-16.986294 14.192150 -24.677066 33.149795 -0.696019 2.410448 0.150768 -0.030598 143300.000000 0 0 1
-17.644794 14.745650 -23.542766 32.909494 -0.696130 2.367963 0.131287 -0.029698 -264308.000000 0 0 1
-16.653894 15.097850 -22.463066 31.778713 -0.736431 2.355844 0.123782 -0.025130 -203770.000000 0 0 1
-16.032194 16.316950 -22.857266 32.337729 -0.794201 2.355803 0.106347 -0.029490 -69293.500000 0 0 1
-15.403694 16.989950 -21.774666 31.623856 -0.834327 2.330287 0.094477 -0.024721 -334555.000000 0 0 1
-15.078594 18.489450 -21.977866 32.438408 -0.886661 2.315190 0.078580 -0.017708 137692.000000 0 0 1
-16.169094 19.384750 -21.841766 33.380696 -0.875597 2.284084 0.046202 -0.013001 299213.000000 0 0 1
-17.104794 19.319450 -22.902666 34.501409 -0.846125 2.296709 0.035954 -0.011671 110855.000000 0 0 1
-18.445094 20.061950 -22.657666 35.441122 -0.827362 2.264390 0.029630 -0.010729 276698.000000 0 0 1
-18.392394 21.430350 -23.042366 36.448466 -0.861538 2.255173 0.017048 -0.008029 -270663.000000 0 0 1
-19.675594 21.914250 -23.321266 37.566538 -0.839173 2.240558 0.050758 -0.018971 -286061.000000 0 0 1
-19.605194 23.399550 -23.748666 38.676888 -0.873401 2.231949 0.033539 -0.011970 -125039.000000 0 0 1
-19.235294 24.246850 -22.700566 38.382574 -0.900147 2.203626 0.020933 -0.009400 -14080.600000 0 0 1
-18.528994 25.389750 -23.154366 39.039566 -0.940361 2.205700 0.013440 -0.000630 -81969.600000 0 0 1
-17.434094 25.830750 -22.121666 38.217056 -0.977091 2.188105 0.006424 -0.007571 81709.300000 0 0 1
-16.337994 24.959650 -21.932366 37.026245 -0.991211 2.204764 0.023787 -0.024691 -116744.000000 0 0 1
-16.518894 23.680350 -21.268166 35.860392 -0.961698 2.205678 0.031500 -0.003045 -969316.000000 0 0 1
-15.370394 22.648050 -21.340466 34.707329 -0.974534 2.233016 0.060351 -0.008549 -75345.500000 0 0 1
-14.311994 23.011550 -20.501066 33.980263 -1.014395 2.218457 0.081797 -0.020188 -284035.000000 0 0 1
-13.361094 21.995350 -20.270066 32.759576 -1.024916 2.237950 0.081431 -0.019634 161507.000000 0 0 1
-12.439594 22.168450 -19.044266 31.762678 -1.059441 2.213772 0.080350 -0.022822 101218.000000 0 0 1
-13.018194 21.916050 -17.771666 31.074406 -1.034798 2.179625 0.089678 -0.021019 337731.000000 0 0 1
-13.783994 23.010650 -17.237666 31.884567 -1.031093 2.141979 0.096959 -0.031076 234719.000000 0 0 1
-14.455494 22.845750 -15.898266 31.363107 -1.006648 2.102392 0.104157 -0.036931 110034.000000 0 0 1
-13.542594 23.175450 -14.880266 30.690807 -1.041963 2.076982 0.120818 -0.048942 387996.000000 0 0 1
-14.204994 23.196950 -13.616066 30.418376 -1.021335 2.034905 0.140334 -0.042382 29163.100000 0 0 1
-13.164794 23.434850 -12.526466 29.654955 -1.058968 2.006896 0.184783 -0.045564 -245995.000000 0 0 1
-12.595594 24.694850 -12.754966 30.515140 -1.099142 2.002026 0.165419 -0.052813 379718.000000 0 0 1
-11.585694 25.018550 -11.785466 29.984219 -1.137115 1.974749 0.106979 -0.044487 437188.000000 0 0 1
-11.342594 26.527950 -11.760666 31.156056 -1.166750 1.957866 0.131897 -0.050358 -43908.600000 0 0 1
-10.703694 26.919650 -12.946766 31.730984 -1.192346 1.991077 0.118697 -0.047545 -182034.000000 0 0 1
-10.769694 28.283650 -13.278666 33.049571 -1.206973 1.984256 0.101217 -0.030928 -588451.000000 0 0 1
-10.206094 28.395450 -14.695266 33.562133 -1.225748 2.024005 0.130223 -0.051292 639777.000000 0 0 1
-8.794294 28.357350 -14.864366 33.202835 -1.270078 2.034970 0.108123 -0.055752 401871.000000 0 0 1
-8.153494 27.074350 -14.661366 31.850519 -1.278283 2.049150 0.121488 -0.053421 229139.000000 0 0 1
-6.621594 27.113450 -14.963566 31.668486 -1.331267 2.062929 0.138428 -0.055092 988831.000000 0 0 1
-5.851294 27.936650 -14.075966 31.824941 -1.364332 2.028951 0.120088 -0.046316 -351328.000000 0 0 1
-4.486594 27.777950 -14.402066 31.609548 -1.410663 2.043869 0.132741 -0.051096 595559.000000 0 0 1
-3.574994 28.834950 -13.627966 32.092934 -1.447445 2.009361 0.110361 -0.035222 196406.000000 0 0 1
-3.728594 30.179650 -14.001766 33.477801 -1.447873 2.002304 0.106705 -0.032759 -282588.000000 0 0 1
-4.792394 30.947150 -13.516466 34.108474 -1.417159 1.978257 0.103164 -0.033087 -281968.000000 0 0 1
-4.616494 32.441250 -13.860166 35.578799 -1.429442 1.970953 0.101327 -0.037555 227999.000000 0 0 1
-3.591094 33.087850 -13.135266 35.780400 -1.462687 1.946694 0.071224 -0.036410 1745.490000 0 0 1
-3.489794 -33.552648 -13.524366 36.343739 1.467159 1.952092 0.071695 -0.035949 459696.000000 0 0 1
-2.562994 -32.643048 -12.627066 35.093879 1.492441 1.938859 0.073472 -0.039166 249860.000000 0 0 1
-3.125194 -32.241948 -11.387466 34.336343 1.474169 1.908843 0.067717 -0.037402 -248144.000000 0 0 1
-2.205194 -31.566848 -10.615966 33.377051 1.501052 1.894481 0.053910 -0.039188 -367472.000000 0 0 1
-2.649494 -31.619448 -9.095666 33.008188 1.487198 1.849966 0.044983 -0.027026 -426560.000000 0 0 1
-1.597394 -31.243548 -8.284166 32.362608 1.519714 1.829657 0.059308 -0.041546 -304730.000000 0 0 1
-1.985594 -31.212748 -6.894066 32.026651 1.507267 1.787755 0.055529 -0.041126 344369.000000 0 0 1
-0.816394 -30.663648 -6.042466 31.263992 1.544178 1.765293 0.078378 -0.037707 173395.000000 0 0 1
-1.128994 -30.646048 -4.628566 31.014167 1.533973 1.720596 0.096096 -0.035040 790059.000000 0 0 1
-0.022394 -30.004548 -3.938566 30.261952 1.570050 1.701316 0.097360 -0.028680 582260.000000 0 0 1
0.070106 -30.197748 -2.401366 30.293159 -1.568475 1.650150 0.099851 -0.022361 -243172.000000 0 0 1
0.194606 -31.540648 -1.856966 31.595865 -1.564626 1.629603 0.104125 -0.029949 572976.000000 0 0 1
1.287106 -32.342148 -2.348466 32.452835 -1.531021 1.643225 0.101303 -0.032097 681906.000000 0 0 1
2.703906 -32.051548 -1.796566 32.215532 -1.486634 1.626592 0.093380 -0.028242 -642977.000000 0 0 1
2.953706 -32.468448 -0.444066 32.605547 -1.480074 1.584416 0.082360 -0.024517 -732449.000000 0 0 1
4.181906 -32.055248 0.063734 32.326945 -1.441070 1.568825 0.065416 -0.020353 -442688.000000 0 0 1
4.451606 -30.521848 0.289634 30.846133 -1.425968 1.561407 0.049521 -0.016197 -551538.000000 0 0 1
4.693506 -29.907448 -0.923666 30.287582 -1.415132 1.601298 0.061859 -0.022165 8924.840000 0 0 1
4.539406 -28.518748 -0.681366 28.885801 -1.412948 1.594387 0.070632 -0.009612 -206321.000000 0 0 1
4.095906 -27.763848 -1.986266 28.134551 -1.424326 1.641454 0.069717 -0.005304 -287581.000000 0 0 1
2.842806 -28.124548 -2.489866 28.377301 -1.470059 1.658651 0.080424 -0.014882 -422494.000000 0 0 1
2.269106 -27.196848 -3.376066 27.499368 -1.487556 1.693876 0.075816 -0.014845 998.044000 0 0 1
2.728006 -27.142548 -4.891566 27.714389 -1.470626 1.748225 0.087535 -0.021221 21187.800000 0 0 1
2.255106 -28.291948 -5.552066 28.919635 -1.491256 1.763978 0.089990 -0.029276 -239613.000000 0 0 1
2.643406 -28.244848 -6.866066 29.187359 -1.477479 1.808263 0.106302 -0.047831 -85090.800000 0 0 1
1.841106 -29.088948 -7.895066 30.197494 -1.507588 1.835318 0.092535 -0.046993 641679.000000 0 0 1
0.538306 -28.557448 -8.209066 29.718788 -1.551949 1.850660 0.084138 -0.044583 683689.000000 0 0 1
0.406706 -28.543748 -9.600866 30.117895 -1.556549 1.895234 0.096853 -0.051742 400243.000000 0 0 1
-0.982394 -27.915248 -9.922466 29.642562 1.535619 1.912123 0.073219 -0.046971 -469260.000000 0 0 1
-1.104694 -26.548748 -9.537966 28.231705 1.529210 1.915424 0.075139 -0.042184 168082.000000 0 0 1
-2.361294 -25.936748 -9.832366 27.838212 1.480006 1.931782 0.084015 -0.033868 1381420.000000 0 0 1
-3.620794 -26.438548 -9.024266 28.169919 1.434692 1.896896 0.072294 -0.037226 -205584.000000 0 0 1
-3.567994 -26.456348 -7.601266 27.756948 1.436742 1.848191 0.082008 -0.038192 223197.000000 0 0 1
-2.654794 -27.446848 -7.043366 28.460260 1.474371 1.820876 0.099072 -0.030596 404093.000000 0 0 1
-2.231394 -27.175048 -5.614666 27.838585 1.488868 1.773876 0.091312 -0.017899 121691.000000 0 0 1
-3.285194 -27.315248 -4.671266 27.905842 1.451102 1.738982 0.091433 -0.024309 99655.400000 0 0 1
-2.833894 -27.212148 -3.323866 27.560480 1.467030 1.691693 0.081630 -0.010755 424523.000000 0 0 1
-3.973594 -27.169448 -2.231166 27.548983 1.425574 1.651874 0.105767 -0.022043 435966.000000 0 0 1
-4.770094 -25.999248 -2.236866 26.527689 1.389344 1.655218 0.091793 -0.026608 -272791.000000 0 0 1
-5.591294 -26.034648 -1.088966 26.650541 1.359246 1.611669 0.103460 -0.032046 208236.000000 0 0 1
-6.554294 -24.795848 -0.998566 25.666905 1.312376 1.609711 0.073136 -0.034631 328510.000000 0 0 1
-5.801394 -23.661248 -0.696866 24.372043 1.330354 1.599393 0.056742 -0.029854 -131301.000000 0 1 0
-6.580794 -22.855448 0.128134 23.784339 1.290448 1.565409 0.082646 -0.036680 -265457.000000 0 1 0
-5.861994 -21.628448 0.585834 22.416421 1.306123 1.544659 0.054453 -0.027384 -227654.000000 0 1 0
-4.858694 -21.731948 1.568034 22.323602 1.350840 1.500497 0.044874 -0.025714 -66372.900000 0 1 0
-4.330194 -20.415848 1.751734 20.943400 1.361794 1.487057 0.022396 -0.020310 -265893.000000 0 1 0
-3.261994 -20.341348 2.840734 20.796173 1.411787 1.433769 0.021467 -0.011748 -256157.000000 0 1 0
-3.795194 -20.278848 4.160334 21.046225 1.385786 1.371810 0.016035 -0.003854 -295573.000000 0 1 0
-2.820594 -20.045348 5.149434 20.887518 1.431003 1.321697 0.018933 -0.009602 54350.700000 0 1 0
-1.862494 -21.210148 5.513734 21.994102 1.483210 1.317402 0.022891 -0.021857 314214.000000 0 1 0
-0.869494 -21.555948 4.569534 22.052110 1.530482 1.362069 0.037033 -0.017700 -476265.000000 0 1 0
-0.215994 -22.715448 4.980934 23.256138 1.561288 1.354947 0.036396 -0.016603 -382986.000000 0 1 0
0.772306 -23.165048 3.842834 23.494325 -1.537469 1.406494 0.039220 -0.015602 688328.000000 0 1 0
1.926406 -22.336848 3.743934 22.730219 -1.484766 1.405331 0.010750 -0.023244 894148.000000 0 1 0
3.028406 -22.787548 4.584234 23.440538 -1.438673 1.373959 0.037971 -0.020587 -215491.000000 0 1 0
4.068706 -21.714748 4.766134 22.600900 -1.385573 1.358319 0.048440 -0.025636 -656691.000000 0 1 0
4.850606 -21.726148 3.591834 22.548951 -1.351138 1.410824 0.034967 -0.010564 -747221.000000 0 1 0
5.889706 -20.792648 3.724934 21.929387 -1.294768 1.400108 0.052370 -0.010545 -40915.300000 0 1 0
6.585606 -20.354848 2.445334 21.532991 -1.257886 1.456989 0.057484 -0.010308 32667.900000 0 1 0
7.281606 -21.476548 1.910334 22.757708 -1.243910 1.486755 0.069674 -0.011542 -312223.000000 0 1 0
7.162406 -21.490848 0.502234 22.658527 -1.249096 1.548629 0.061609 -0.013685 -201827.000000 0 1 0
8.157006 -22.393748 -0.233666 23.834247 -1.221480 1.580600 0.060205 -0.008084 401566.000000 0 1 0
9.323906 -21.650148 -0.650766 23.581511 -1.164139 1.598396 0.069428 -0.011646 -123047.000000 0 1 0
10.013806 -22.498148 -1.497066 24.671526 -1.152029 1.631514 0.075051 -0.014887 -160043.000000 0 1 0
11.405906 -21.978148 -1.945366 24.837837 -1.092091 1.649199 0.083939 -0.017132 278622.000000 0 1 0
11.365806 -20.946348 -2.897866 24.006847 -1.073641 1.691801 0.079462 -0.013815 2143.440000 0 1 0
12.653706 -20.883748 -3.485866 24.665735 -1.026041 1.712595 0.083567 -0.019186 157677.000000 0 1 0
12.763006 -19.820748 -4.557366 24.010955 -0.998706 1.761758 0.080434 -0.022440 -93693.600000 0 1 0
12.819006 -18.549248 -3.934466 22.888459 -0.966082 1.743552 0.092648 -0.016558 136625.000000 0 1 0
13.077106 -17.532548 -4.828066 22.398910 -0.929940 1.788050 0.105939 -0.024261 -868283.000000 0 1 0
13.425906 -16.191648 -4.144066 21.438230 -0.878510 1.765323 0.102508 -0.018846 -44122.000000 0 1 0
14.679706 -16.073348 -3.529966 22.052368 -0.830684 1.731560 0.091081 -0.021756 843835.000000 0 1 0
15.777106 -16.018448 -4.482266 22.925934 -0.792988 1.767575 0.104804 -0.026237 463991.000000 0 1 0
17.186006 -15.500848 -4.117866 23.507274 -0.733889 1.746879 0.095878 -0.023119 453205.000000 0 1 0
17.961606 -16.341348 -3.300066 24.506109 -0.738199 1.705870 0.098593 -0.030141 209655.000000 0 1 0
19.355506 -16.161948 -3.441166 25.449672 -0.695724 1.706426 0.075069 -0.013942 136104.000000 0 0 1
20.063606 -17.026548 -2.331466 26.417558 -0.703697 1.659166 0.071388 -0.027539 -955956.000000 0 0 1
21.436906 -17.036948 -2.441566 27.491086 -0.671531 1.659726 0.063962 -0.019868 -758731.000000 0 0 1
22.056806 -17.867648 -1.431266 28.421894 -0.680854 1.621175 0.054552 -0.017419 762109.000000 0 0 1
23.612106 -17.874648 -1.550666 29.655340 -0.647974 1.623110 0.060391 -0.022305 500125.000000 0 0 1
24.292006 -16.645248 -1.310366 29.476820 -0.600734 1.615265 0.082617 -0.018528 -264958.000000 0 0 1
25.489306 -16.925348 -0.652966 30.603897 -0.586166 1.592134 0.111534 -0.023039 -325952.000000 0 0 1
26.160006 -15.587048 -0.217066 30.452407 -0.537351 1.577924 0.111157 -0.020201 38699.000000 0 0 1
25.347806 -14.857048 0.692034 29.389149 -0.530157 1.547247 0.101309 -0.022627 446527.000000 0 0 1
26.032906 -13.761948 1.279534 29.474406 -0.486294 1.527371 0.092811 -0.017990 371975.000000 0 0 1
25.133606 -13.073748 2.357934 28.428523 -0.479653 1.487758 0.115220 -0.024870 205071.000000 0 0 1
24.753706 -13.705248 3.517734 28.512353 -0.505652 1.447105 0.115053 -0.021159 -98463.500000 0 0 1
25.836006 -14.091948 4.335134 29.746859 -0.499334 1.424541 0.139104 -0.016533 -11047.200000 0 0 1
25.474206 -14.756448 5.711334 29.988453 -0.525038 1.379175 0.104625 -0.014057 304955.000000 0 0 1
24.777606 -15.997148 5.579934 30.016232 -0.573297 1.383811 0.101407 -0.021140 180440.000000 0 0 1
24.090206 -16.330248 6.769334 29.880410 -0.595725 1.342265 0.077147 -0.016055 14701.100000 0 0 1
23.374106 -17.674448 6.712334 30.063107 -0.647429 1.345624 0.061936 -0.014373 492262.000000 0 0 1
24.392906 -18.708748 6.765634 31.477054 -0.654277 1.354167 0.063173 -0.011041 559381.000000 0 0 1
23.804006 -19.979948 6.732634 31.798701 -0.698280 1.357455 0.022225 0.000732 -129581.000000 0 0 1
2.537506 23.252350 -3.146966 23.601147 1.462097 1.704534 0.033547 -0.016232 -12059.400000 0 1 0
3.301506 24.363350 -2.750966 24.739454 1.436106 1.682224 0.047744 -0.016157 21303.500000 0 1 0
3.965306 25.028150 -3.848666 25.630922 1.413668 1.721524 0.066431 -0.014638 650490.000000 0 0 1
5.004406 26.119550 -3.374166 26.807834 1.381494 1.696996 0.055604 -0.008585 -298279.000000 0 0 1
6.040606 25.529250 -2.691166 26.371839 1.338454 1.673021 0.028662 -0.009067 -1118440.000000 0 0 1
6.766806 26.431650 -1.903166 27.350390 1.320168 1.640437 0.028518 -0.009476 -585004.000000 0 0 1
7.869506 25.677050 -1.186366 26.882104 1.273405 1.614943 0.005754 -0.024717 -753038.000000 0 0 1
8.893306 25.283250 -2.065466 26.881216 1.232566 1.647709 0.009174 -0.028850 -978377.000000 0 0 1
9.524106 24.194650 -1.478066 26.043701 1.195780 1.627580 0.011784 -0.026984 -422857.000000 0 0 1
10.727806 23.709050 -2.306366 26.125164 1.145884 1.659193 0.040190 -0.025318 -822865.000000 0 0 1
11.749306 24.648050 -2.240766 27.396963 1.125976 1.652677 0.047914 -0.018325 -431318.000000 0 0 1
12.663106 24.727850 -3.335866 27.981223 1.097516 1.690299 0.066547 -0.025882 1231170.000000 0 0 1
13.789906 23.638750 -3.518666 27.592264 1.042702 1.698668 0.077421 -0.023233 221402.000000 0 0 1
13.244506 22.332750 -3.695766 26.226463 1.035501 1.712184 0.080490 -0.026590 -250773.000000 0 0 1
12.808006 22.115250 -4.994366 26.039835 1.045850 1.763789 0.100593 -0.036394 517275.000000 0 0 1
11.738906 20.930550 -5.098066 24.533245 1.059661 1.780124 0.090980 -0.038356 1179030.000000 0 1 0
10.454006 21.287850 -4.589066 24.156124 1.114311 1.761933 0.062683 -0.030690 -93568.800000 0 1 0
9.503506 20.295350 -4.827566 22.924294 1.132861 1.782972 0.034787 -0.020351 -905374.000000 0 1 0
8.082706 20.759250 -4.645266 22.756430 1.199501 1.776371 0.021517 -0.015405 -870940.000000 0 1 0
7.682506 21.140450 -3.369266 22.744043 1.222231 1.719482 0.019364 -0.013947 1567590.000000 0 1 0
6.298106 21.628550 -3.331866 22.771949 1.287438 1.717638 0.020445 -0.004618 1791250.000000 0 1 0
5.987506 22.296850 -1.979266 23.171475 1.308450 1.656319 0.020605 -0.007099 -177144.000000 0 1 0
5.796706 21.415950 -0.944266 22.206674 1.306458 1.613331 0.017900 -0.012822 65958.600000 0 1 0
5.176406 22.160550 0.111734 22.757365 1.341324 1.565886 0.026801 -0.007446 232214.000000 0 1 0
4.528006 21.160650 1.096734 21.667459 1.359993 1.520158 0.008741 -0.009617 -197425.000000 0 1 0
3.673906 21.684650 2.074034 22.091249 1.402966 1.476773 0.016029 -0.014044 19275.900000 0 1 0
3.407006 20.707450 3.073634 21.209748 1.407727 1.425368 0.025931 -0.017477 -68379.600000 0 1 0
2.421606 21.253650 4.143834 21.788832 1.457347 1.379449 0.014371 -0.016667 -669675.000000 0 1 0
1.171806 21.493550 3.604734 21.825213 1.516331 1.404872 0.012973 -0.016987 -817926.000000 0 1 0
0.220606 21.830950 4.590834 22.309523 1.560691 1.363537 0.014747 -0.025429 346073.000000 0 1 0
-1.182194 22.202950 4.077934 22.605268 -1.517602 1.389406 0.022302 -0.016060 -83558.700000 0 1 0
-2.162594 22.508950 5.031034 23.165512 -1.475013 1.351874 0.035262 -0.026965 420180.000000 0 1 0
-3.363994 22.836050 4.314534 23.482267 -1.424538 1.386011 0.055552 -0.024271 -827324.000000 0 1 0
-4.626494 23.029450 5.029934 24.022079 -1.372541 1.359847 0.069532 -0.040029 -1371970.000000 0 1 0
-4.899994 24.321450 5.507834 25.414152 -1.371990 1.352340 0.090867 -0.034826 -500332.000000 0 0 1
-6.108794 24.345350 6.199834 25.854427 -1.324950 1.328639 0.103992 -0.037385 -458023.000000 0 0 1
-6.438594 25.709450 6.817234 27.366147 -1.325407 1.319033 0.119616 -0.040815 -341652.000000 0 0 1
-5.762994 26.024450 7.988334 27.826203 -1.352868 1.279620 0.083590 -0.041257 -263430.000000 0 0 1
-6.079694 27.296850 8.538834 29.240253 -1.351648 1.274455 0.105710 -0.036340 -191330.000000 0 0 1
-6.021694 28.644450 7.733134 30.274853 -1.363592 1.312503 0.129449 -0.038778 -241815.000000 0 0 1
-7.144794 28.739350 6.912334 30.410174 -1.327129 1.341489 0.142017 -0.048718 -658135.000000 0 0 1
-7.252094 30.026050 6.335434 31.532432 -1.333808 1.368501 0.142193 -0.046630 -212273.000000 0 0 1
-8.623394 30.373150 5.690734 32.082326 -1.294161 1.392474 0.115176 -0.050966 1368.130000 0 0 1
-9.689094 30.555250 6.550834 32.717202 -1.263726 1.369208 0.102294 -0.047535 -696984.000000 0 0 1
-10.323694 29.431250 7.094734 31.986128 -1.233433 1.347129 0.098271 -0.048338 -18266.100000 0 0 1
-11.458294 29.883650 8.093234 33.012505 -1.204655 1.323115 0.068840 -0.035893 515442.000000 0 0 1
-11.019794 30.569250 9.262234 33.789109 -1.224810 1.293123 0.070653 -0.031810 -84961.300000 0 0 1
-12.150294 30.852450 10.043534 34.646442 -1.195629 1.276688 0.082925 -0.022514 -178947.000000 0 0 1
-11.692194 31.312050 11.400734 35.314709 -1.213421 1.242076 0.078216 -0.025316 -153075.000000 0 0 1
-11.042494 32.555750 11.420134 36.224757 -1.243787 1.250068 0.081107 -0.028146 -120743.000000 0 0 1
-10.179594 32.728550 12.491334 36.480345 -1.269250 1.221313 0.077844 -0.032141 -233576.000000 0 0 1
-9.639694 -33.872148 12.734634 37.448859 1.293536 1.223822 0.080360 -0.035104 -333265.000000 0 0 1
-10.562294 -33.011748 13.313534 37.129339 1.261134 1.204059 0.080009 -0.014561 -469740.000000 0 0 1
-10.446094 -31.669048 12.885834 35.750444 1.252182 1.202058 0.073570 -0.014917 289450.000000 0 0 1
-11.410894 -30.763148 13.739434 35.571784 1.215601 1.174239 0.072819 -0.019777 241216.000000 0 0 1
-11.197794 -30.751748 15.178434 36.075552 1.221585 1.136535 0.075278 -0.021291 -129446.000000 0 0 1
-10.031194 -30.109248 15.658634 35.389045 1.249202 1.112444 0.080885 -0.023925 123095.000000 0 0 1
-9.691994 -30.386748 17.098434 36.189027 1.262042 1.078699 0.061521 -0.032648 -22487.700000 0 0 1
-10.237594 -29.556448 18.111134 36.144227 1.237355 1.045951 0.104962 -0.033417 214134.000000 0 0 1
-11.225394 -30.281148 18.852434 37.394808 1.215796 1.042404 0.075196 -0.036027 275808.000000 0 0 1
-11.738994 -29.605948 20.149334 37.687025 1.193304 1.006704 0.099607 -0.040329 373705.000000 0 0 1
-10.758894 -29.568348 21.184934 37.932077 1.221823 0.978224 0.087287 -0.035151 485208.000000 0 0 1
-11.268194 -28.825248 22.289734 38.140522 1.198147 0.946643 0.072945 -0.031121 636381.000000 0 0 1
-10.130394 -28.487748 23.309034 38.177058 1.229137 0.914040 0.088910 -0.032015 508630.000000 0 0 1
-9.702094 -29.611348 24.060134 39.368168 1.254171 0.913275 0.093712 -0.027229 -368277.000000 0 0 1
-8.572894 -29.407848 24.854134 39.446724 1.287140 0.889155 0.105138 -0.030633 -338135.000000 0 0 1
-8.334494 -30.593748 25.847234 40.908688 1.304826 0.886888 0.114918 -0.033306 20461.400000 0 0 1
-8.174194 -31.827248 25.214234 41.419184 1.319400 0.916303 0.125160 -0.031781 304331.000000 0 0 1
-8.400694 -32.916448 26.118834 42.851578 1.320918 0.915343 0.132125 -0.032459 -339295.000000 0 0 1
-8.078694 33.691750 25.572334 43.062090 -1.335457 0.934963 0.128589 -0.033012 582331.000000 0 0 1
-6.713594 33.546250 25.139534 42.454911 -1.373276 0.937076 0.112510 -0.024896 794783.000000 0 0 1
-6.355894 32.329150 24.439334 41.022584 -1.376673 0.932593 0.112761 -0.019620 39599.200000 0 0 1
-7.173494 31.829550 23.191334 40.030205 -1.349128 0.952870 0.108511 -0.022100 493986.000000 0 0 1
-8.251894 30.963750 23.578034 39.784058 -1.310348 0.936451 0.100233 -0.031270 734351.000000 0 0 1
-9.239394 30.852250 22.547734 39.314477 -1.279824 0.959997 0.098287 -0.026983 578085.000000 0 0 1
-10.237794 29.702850 22.760334 38.795677 -1.238874 0.943853 0.098804 -0.032135 120581.000000 0 0 1
-9.490994 28.528450 22.570334 37.594833 -1.249629 0.926848 0.081941 -0.022337 164652.000000 0 0 1
-10.174794 27.320250 22.905834 37.075595 -1.214284 0.904836 0.066057 -0.019902 -459346.000000 0 0 1
-9.541994 25.972550 22.495334 35.660385 -1.218716 0.888185 0.053973 -0.017599 -2669.520000 0 0 1
-8.307994 25.851150 23.189734 35.708102 -1.259844 0.863968 0.054722 -0.027857 66723.900000 0 0 1
-7.779994 24.561050 22.964034 34.512612 -1.264034 0.842792 0.063135 -0.024684 -573535.000000 0 0 1
-6.416094 24.252750 23.544034 34.404705 -1.312170 0.817117 0.066697 -0.020472 -437037.000000 0 0 1
-5.395994 25.053050 22.987434 34.426650 -1.358654 0.839652 0.067888 -0.021605 731293.000000 0 0 1
-4.151294 24.911150 23.715034 34.643925 -1.405670 0.816828 0.092188 -0.025102 2273280.000000 0 0 1
-2.845794 25.531050 23.027234 34.499081 -1.459790 0.839985 0.089649 -0.015637 1227040.000000 0 0 1
-2.530194 24.906850 21.786634 33.187505 -1.469557 0.854665 0.082910 -0.016196 411117.000000 0 0 1
-1.375094 25.426650 21.124834 33.085708 -1.516768 0.878264 0.079132 -0.008895 525428.000000 0 0 1
-1.048394 24.582750 19.875434 31.629790 -1.528175 0.891331 0.064432 -0.006098 -438819.000000 0 0 1
-0.228394 23.477850 20.086534 30.898713 -1.561069 0.863111 0.079373 -0.019303 -264765.000000 0 0 1
0.050106 22.810050 18.887834 29.615050 1.568600 0.879186 0.071558 -0.015144 58374.600000 0 0 1
1.134906 21.692550 19.034834 28.882169 1.518526 0.851240 0.065031 -0.009022 -389737.000000 0 0 1
2.418506 22.135350 19.264234 29.443737 1.461968 0.857576 0.054447 -0.018942 -892848.000000 0 0 1
3.357306 21.048350 19.245434 28.717439 1.412624 0.836365 0.056509 -0.014427 163170.000000 0 0 1
4.792706 21.589550 19.266234 29.330300 1.352347 0.854134 0.039903 -0.020652 -334758.000000 0 0 1
5.733006 20.604950 18.875534 28.525728 1.299426 0.847710 0.051193 -0.018237 110696.000000 0 0 1
6.980406 21.237650 18.624834 29.097222 1.253239 0.876181 0.078748 -0.023955 -143062.000000 0 0 1
8.068506 20.298250 18.073934 28.351135 1.192449 0.879543 0.076848 -0.021584 -555721.000000 0 0 1
8.579806 19.482250 19.089134 28.593115 1.155962 0.839798 0.084437 -0.019322 126598.000000 0 0 1
9.363006 18.427450 18.497834 27.738181 1.100689 0.840792 0.081821 -0.025778 -132419.000000 0 0 1
10.072506 17.537350 19.521534 28.108795 1.049454 0.803073 0.109592 -0.023775 -14544.600000 0 0 1
9.227606 16.751250 20.419834 27.977182 1.067293 0.752658 0.104655 -0.022910 216192.000000 0 0 1
9.977306 16.198950 21.462234 28.680658 1.018751 0.725274 0.096822 -0.036211 -229750.000000 0 0 1
9.195106 15.216350 22.327134 28.540992 1.027228 0.672474 0.083377 -0.025743 -154019.000000 0 0 1
8.202806 15.866050 23.094034 29.195068 1.093639 0.658313 0.076589 -0.017397 40405.500000 0 0 1
7.115806 15.084550 23.573134 28.876825 1.130021 0.615761 0.072456 -0.022383 227245.000000 0 0 1
7.320506 13.806950 24.417734 28.990472 1.083278 0.569320 0.078090 -0.023610 -657651.000000 0 0 1
7.905906 14.163950 25.676734 30.371294 1.061701 0.563431 0.088731 -0.027149 -28162.300000 0 0 1
8.006506 13.122050 26.626534 30.745157 1.022942 0.523570 0.100930 -0.033046 -563826.000000 0 0 1
8.824206 13.540250 27.894734 32.238505 0.993226 0.525125 0.066968 -0.024171 892253.000000 0 0 1
10.224306 13.741850 27.644334 32.520518 0.931129 0.554700 0.099685 -0.023840 473265.000000 0 0 1
10.609606 14.888550 26.934234 32.552813 0.951663 0.596332 0.090857 -0.019476 -712793.000000 0 0 1
11.956006 14.693950 26.207934 32.337503 0.887776 0.625876 0.107656 -0.024465 22055.300000 0 0 1
11.786906 13.774650 25.128734 30.985891 0.863005 0.624982 0.100164 -0.029487 -168039.000000 0 0 1
12.930106 13.554250 24.347634 30.719906 0.808960 0.655786 0.118191 -0.031654 -303987.000000 0 0 1
12.612706 12.479750 23.254234 29.250367 0.780100 0.651778 0.091431 -0.026492 198299.000000 0 0 1
12.304606 11.163950 23.752834 28.986795 0.736833 0.610369 0.091626 -0.028407 1481920.000000 0 0 1
10.928206 10.974050 24.185134 28.718917 0.787491 0.569571 0.104737 -0.032661 919087.000000 0 0 1
10.530706 9.524850 24.551334 28.361710 0.735287 0.524348 0.093249 -0.029371 -53729.500000 0 0 1
10.711406 8.634650 23.434534 27.174783 0.678460 0.530877 0.092781 -0.025600 327197.000000 0 0 1
10.546606 7.290050 23.904234 27.125415 0.604811 0.492299 0.083546 -0.032895 -59738.200000 0 0 1
10.885006 6.129050 22.919634 26.102840 0.512824 0.499021 0.091725 -0.047593 -734021.000000 0 0 1
12.260206 5.993750 22.707034 26.492397 0.454711 0.541153 0.102671 -0.039850 -168808.000000 0 0 1
12.587506 4.864150 21.937334 25.755619 0.368751 0.551481 0.109581 -0.041846 -249306.000000 0 0 1
12.548206 3.513950 22.641834 26.123897 0.273042 0.522229 0.090141 -0.042819 -309583.000000 0 0 1
13.747806 3.167850 23.307734 27.244962 0.226473 0.544304 0.087138 -0.039935 98628.400000 0 0 1
13.539806 2.014950 24.080934 27.699779 0.147733 0.516901 0.087675 -0.032432 -647805.000000 0 0 1
14.835606 1.550150 24.722634 28.873982 0.104111 0.542878 0.086340 -0.026110 -552739.000000 0 0 1
15.682606 0.911450 23.810634 28.525799 0.058053 0.583199 0.082298 -0.027615 -466603.000000 0 0 1
17.015706 1.293550 24.027334 29.470669 0.075875 0.617555 0.078278 -0.022845 -634392.000000 0 0 1
18.029006 0.360850 23.343234 29.497150 0.020012 0.657745 0.076515 -0.021998 -121853.000000 0 0 1
18.035806 -0.851350 23.981834 30.019052 -0.047168 0.645354 0.075231 -0.018674 499024.000000 0 0 1
19.102606 -1.620150 23.414334 30.261618 -0.084611 0.686088 0.065223 -0.003384 146084.000000 0 0 1
19.165806 -3.147950 23.704834 30.645667 -0.162795 0.686430 0.060699 -0.001587 -189574.000000 0 0 1
18.083806 -3.860150 23.164534 29.639846 -0.210303 0.673676 0.057179 0.001844 138388.000000 0 0 1
18.290606 -5.240950 23.490234 30.229207 -0.279061 0.680798 0.064099 -0.000484 190930.000000 0 0 1
17.364306 -6.231050 22.722534 29.268732 -0.344530 0.681956 0.066339 -0.008499 -50753.200000 0 0 1
17.561506 -6.486150 21.342134 28.389493 -0.353798 0.720067 0.077437 -0.012574 -42211.900000 0 0 1
16.665606 -7.428350 20.786334 27.658534 -0.419297 0.720412 0.097356 -0.026446 -146771.000000 0 0 1
16.866406 -8.965350 21.100534 28.462005 -0.488568 0.735705 0.094801 -0.038310 -45495.800000 0 0 1
16.523006 -9.412950 22.348134 29.343695 -0.517833 0.705019 0.075434 -0.023109 -450539.000000 0 0 1
17.446406 -10.387550 22.660334 30.426453 -0.537029 0.730625 0.066903 -0.030243 -473528.000000 0 0 1
17.033006 -11.389950 23.742634 31.361871 -0.589408 0.712004 0.078634 -0.037452 67483.900000 0 0 1
15.904006 -12.173850 23.393634 30.796139 -0.653321 0.708054 0.083134 -0.033144 243094.000000 0 0 1
15.464906 -13.059050 24.412334 31.712209 -0.701252 0.692255 0.104734 -0.024528 16826.000000 0 0 1
14.371706 -14.017650 23.924734 31.231928 -0.772927 0.698147 0.110352 -0.029171 3595.990000 0 0 1
14.909506 -14.933950 22.988834 31.205813 -0.786217 0.742642 0.118874 -0.031730 641673.000000 0 0 1
13.836006 -15.522250 22.268134 30.467115 -0.842772 0.751170 0.122365 -0.014074 -2785.860000 0 0 1
14.290006 -16.286550 21.034934 30.198087 -0.850602 0.800197 0.106181 -0.026593 -139649.000000 0 0 1
15.159206 -17.356850 21.364134 31.424322 -0.852882 0.823225 0.122497 -0.029305 148857.000000 0 0 1
15.308406 -18.124950 20.190134 31.152891 -0.869443 0.865712 0.110772 -0.028688 -103100.000000 0 0 1
-25.065734 -32.278148 26.358567 48.630689 0.910516 0.997963 0.058820 -0.035415 -732292.000000 0 0 1
-25.340254 -33.517548 25.816827 49.315952 0.923448 1.019844 0.056507 -0.028859 292798.000000 0 0 1
-26.661044 33.970650 25.948337 50.379882 -0.905377 1.029726 0.032232 -0.036687 -68652.300000 0 0 1
-27.257054 33.519550 27.275717 51.092778 -0.888077 1.007653 0.027893 -0.030646 -780533.000000 0 0 1
-27.849294 -33.442248 27.987377 51.742250 0.876398 0.999290 0.046063 -0.029793 -63654.800000 0 0 1
-27.612234 -33.511948 29.379237 52.427337 0.881620 0.975952 0.034822 -0.024944 -294229.000000 0 0 1
-28.800974 -33.052248 30.228587 53.251429 0.854022 0.967138 0.021315 -0.031486 -272466.000000 0 0 1
-28.965384 -31.703748 30.072117 52.425694 0.830504 0.959885 0.000241 -0.015695 -150280.000000 0 0 1
-29.721094 -31.096248 31.076457 53.066621 0.808006 0.945161 0.004959 0.002613 -285765.000000 0 0 1
-29.915414 -29.576548 30.902247 52.198210 0.779702 0.937237 -0.010069 -0.002649 -51405.800000 0 0 1
-30.544404 -29.207848 29.677187 51.641015 0.763034 0.958580 -0.028746 0.007431 151283.000000 0 0 1
-30.862584 -27.808348 29.611077 51.015872 0.733388 0.951541 -0.015703 0.011932 74834.900000 0 0 1
-31.452704 -27.353248 28.217067 50.335630 0.715799 0.975712 -0.029863 0.004025 107374.000000 0 0 1
-30.555164 -27.459748 27.132297 49.232280 0.732093 0.987105 -0.013076 -0.000955 -110949.000000 0 0 1
-29.723364 -26.327048 27.013817 48.024350 0.724878 0.973387 -0.002310 0.002032 -254146.000000 0 0 1
-28.860354 -26.400348 25.745657 46.826673 0.740911 0.988663 -0.001256 0.009920 269025.000000 0 0 1
-29.652244 -26.235248 24.602377 46.613526 0.724334 1.014794 -0.008877 0.005734 475966.000000 0 0 1
-28.645524 -26.234048 23.619677 45.460758 0.741485 1.024458 0.011943 0.022696 390646.000000 0 0 1
-29.144674 -26.570248 22.179017 45.247087 0.739224 1.058505 -0.008919 0.032286 -209720.000000 0 0 1
-29.730374 -25.469948 21.559417 44.692526 0.708370 1.067410 -0.007300 0.023754 -203612.000000 0 0 1
-30.250724 -25.975348 20.343017 44.762298 0.709505 1.099022 -0.003725 0.031348 -162328.000000 0 0 1
-30.809974 -24.812748 19.509817 44.108502 0.677993 1.112619 0.016308 0.021350 -41350.800000 0 0 1
-31.951594 -24.154248 20.045217 44.789985 0.647307 1.106786 0.042514 0.003738 -101656.000000 0 0 1
-32.361944 -23.185848 19.164617 44.183272 0.621684 1.122143 0.067802 -0.003797 42771.400000 0 0 1
-33.815314 -22.773548 19.562117 45.219314 0.592697 1.123416 0.084347 -0.001323 293490.000000 0 0 1
-34.729023 -23.794148 19.154617 46.251118 0.600681 1.143794 0.079922 -0.012925 -156976.000000 0 0 1
-36.000373 -23.204248 18.982717 46.848773 0.572538 1.153608 0.087739 -0.022409 86228.000000 0 0 1
-36.949574 -24.106048 18.141817 47.702181 0.578063 1.180660 0.117277 -0.024280 -17401.500000 0 0 1
36.989275 -25.253648 18.749217 48.553953 -0.599040 1.174340 0.109648 -0.020112 -152235.000000 0 0 1
36.321075 -26.063548 17.827617 48.128505 -0.622432 1.191338 0.116470 -0.016394 -142965.000000 0 0 1
35.687545 -27.363948 18.310617 48.555795 -0.654144 1.184128 0.107440 -0.002592 920289.000000 0 0 1
34.448755 -27.297248 19.054817 47.905559 -0.670091 1.161724 0.102851 -0.006345 913901.000000 0 0 1
34.652615 -26.876048 20.397017 48.364905 -0.659675 1.135442 0.089953 -0.004174 -341302.000000 0 0 1
33.367625 -26.662548 21.199017 47.683207 -0.674164 1.110091 0.081385 -0.007647 68229.400000 0 0 1
32.494085 -25.606748 20.798417 46.304917 -0.667408 1.104969 0.088526 -0.011089 169698.000000 0 0 1
31.563675 -25.261448 21.823017 45.941816 -0.674944 1.075816 0.084440 -0.009925 -189405.000000 0 0 1
30.688025 -24.107748 21.257017 44.438713 -0.665883 1.072028 0.105123 -0.013441 -272571.000000 0 0 1
31.259005 -22.886348 20.777117 43.961335 -0.631980 1.078532 0.101278 -0.011226 1803.600000 0 0 1
32.223805 -22.247248 21.614317 44.726864 -0.604253 1.066432 0.114934 -0.024879 249733.000000 0 0 1
32.835225 -21.064748 20.881717 44.248410 -0.570397 1.079329 0.126157 -0.031353 300632.000000 0 0 1
31.829905 -20.063248 20.750317 42.968040 -0.562421 1.066805 0.114872 -0.032298 366496.000000 0 0 1
32.423885 -18.832148 20.460417 42.715183 -0.526190 1.071285 0.122036 -0.033663 164390.000000 0 0 1
31.404245 -17.647248 20.630117 41.512091 -0.511963 1.050697 0.096842 -0.027637 242973.000000 0 0 1
31.092045 -17.193648 21.944317 41.759908 -0.505137 1.017508 0.108355 -0.030838 771929.000000 0 0 1
30.162005 -18.063648 22.669817 41.832554 -0.539601 0.998079 0.100353 -0.025979 451979.000000 0 0 1
30.102525 -17.735548 24.192447 42.496896 -0.532419 0.965172 0.080251 -0.014403 -16680.400000 0 0 1
29.406025 -16.542548 24.476247 41.682813 -0.512432 0.943198 0.074445 -0.017110 199010.000000 0 0 1
29.580285 -16.148248 25.797797 42.441554 -0.499700 0.917455 0.063752 -0.011413 -238047.000000 0 0 1
29.402185 -14.607848 26.065517 41.920030 -0.461107 0.899768 0.043639 -0.014123 438462.000000 0 0 1
28.052965 -14.187248 25.806087 40.671870 -0.468222 0.883442 0.057126 -0.013474 700041.000000 0 0 1
27.787865 -12.838448 26.164077 40.268476 -0.432802 0.863553 0.041099 -0.013462 35003.100000 0 0 1
28.533965 -11.706248 25.338577 39.915748 -0.389317 0.883045 0.063820 -0.026404 -138913.000000 0 0 1
28.167065 -11.721848 24.010327 38.823718 -0.394355 0.904034 0.054987 -0.017891 382677.000000 0 0 1
28.919465 -10.772848 23.204467 38.611359 -0.356588 0.926076 0.058720 -0.015902 83770.100000 0 0 1
30.068295 -11.309148 22.346217 39.132501 -0.359748 0.963024 0.067635 -0.032156 -407584.000000 0 0 1
29.711185 -12.220948 21.297217 38.544488 -0.390231 0.985393 0.071019 -0.037046 44927.100000 0 0 1
29.490075 -13.579348 21.689617 39.044881 -0.431528 0.981826 0.078578 -0.029745 -462530.000000 0 0 1
28.950865 -14.432548 20.540217 38.319076 -0.462462 1.005068 0.078952 -0.033584 -596330.000000 0 0 1
29.647195 -14.591248 19.312817 38.273302 -0.457358 1.041874 0.085844 -0.038229 -241623.000000 0 0 1
29.077765 -15.625648 18.523317 37.852221 -0.493098 1.059442 0.080902 -0.040040 -474634.000000 0 0 1
29.659355 -15.716648 17.089017 37.665965 -0.487285 1.099884 0.096063 -0.042229 158645.000000 0 0 1
29.064765 -16.726248 16.167917 37.228074 -0.522196 1.121542 0.095960 -0.044191 2406520.000000 0 0 1
27.593365 -16.655348 16.117817 36.035794 -0.543062 1.107083 0.083101 -0.046319 1449440.000000 0 0 1
26.903865 -15.506148 15.263917 34.601240 -0.522851 1.113930 0.102838 -0.047903 -525420.000000 0 0 1
26.891965 -15.697648 13.838917 34.075058 -0.528370 1.152581 0.107663 -0.050635 337148.000000 0 0 1
26.000965 -16.742048 13.515017 33.749105 -0.572076 1.158782 0.087409 -0.053922 -541240.000000 0 0 1
26.190165 -17.306548 12.085917 33.637936 -0.583932 1.203285 0.096962 -0.037232 -245636.000000 0 0 1
25.724465 -16.425748 11.081017 32.470637 -0.568267 1.222536 0.112381 -0.035455 -204799.000000 0 0 1
25.660865 -17.044348 9.767917 32.317209 -0.586304 1.263743 0.089326 -0.038136 653488.000000 0 0 1
26.971765 -17.534248 9.025917 33.412470 -0.576443 1.297262 0.103693 -0.029059 906146.000000 0 0 1
27.781465 -18.437848 9.759817 34.742166 -0.585928 1.286042 0.101835 -0.026893 131200.000000 0 0 1
29.155065 -18.454148 9.379917 35.756905 -0.564307 1.305366 0.109677 -0.017450 732534.000000 0 0 1
29.959945 -19.312448 10.429417 37.139490 -0.572576 1.286151 0.117552 -0.033311 72269.000000 0 0 1
30.031355 -18.740648 11.715617 37.287396 -0.557906 1.251185 0.125422 -0.051802 182.073000 0 0 1
30.365935 -19.730248 12.647417 38.357918 -0.576199 1.234788 0.118574 -0.043645 -327493.000000 0 0 1
30.402505 -19.179448 14.061817 38.599200 -0.562796 1.197912 0.115091 -0.037182 -4624.790000 0 0 1
30.582855 -20.216148 14.995817 39.609068 -0.584089 1.182518 0.102727 -0.033174 -71093.900000 0 0 1
30.582815 -19.755548 16.332017 39.903948 -0.573536 1.149128 0.120893 -0.045129 75085.300000 0 0 1
30.349285 -20.858048 17.362317 40.713479 -0.602129 1.130231 0.104190 -0.034211 171916.000000 0 0 1
28.981865 -21.186748 17.479917 39.929617 -0.631252 1.117681 0.069275 -0.017515 -143562.000000 0 0 1
28.797665 -22.355548 18.242717 40.766074 -0.660120 1.106831 0.090415 -0.016909 972791.000000 0 0 1
27.335965 -22.923248 18.155817 40.029539 -0.697824 1.100040 0.064673 -0.001960 1280210.000000 0 0 1
26.261765 -22.148948 18.673017 39.101634 -0.700645 1.072931 0.070845 -0.008524 430849.000000 0 0 1
25.019965 -22.826548 18.594817 38.636993 -0.739587 1.068694 0.078643 -0.008821 229691.000000 0 0 1
23.890365 -22.136948 19.388317 37.903837 -0.747321 1.033851 0.065765 -0.007266 -361911.000000 0 0 1
23.412765 -20.977048 18.724117 36.589434 -0.730582 1.033593 0.062383 -0.010887 80315.900000 0 0 1
22.265765 -20.376648 19.319917 35.836173 -0.741126 1.001407 0.051493 -0.003990 399221.000000 0 0 1
22.292765 -19.925048 20.809817 36.428333 -0.729373 0.962764 0.050009 -0.000571 -460166.000000 0 0 1
22.346865 -20.954348 21.783917 37.589974 -0.753250 0.952664 0.061228 -0.000490 -207045.000000 0 0 1
22.576365 -20.503748 23.102377 38.259846 -0.737324 0.922501 0.066566 -0.000544 -82569.100000 0 0 1
23.165065 -21.658548 23.911307 39.717296 -0.751801 0.924746 0.068170 0.000540 227484.000000 0 0 1
22.192465 -22.583448 24.416027 39.983247 -0.794130 0.913907 0.068068 0.002640 225576.000000 0 0 1
22.753665 -23.528348 25.262127 41.345949 -0.802135 0.913481 0.072914 0.005212 398849.000000 0 0 1
21.615965 -24.336148 25.994007 41.655570 -0.844525 0.896917 0.081128 -0.001210 646724.000000 0 0 1
20.913265 -25.293248 25.245857 41.406115 -0.879907 0.915098 0.088763 -0.002537 -68077.100000 0 0 1
19.912165 -25.939148 25.990517 41.771291 -0.916095 0.899234 0.090700 -0.013211 -438383.000000 0 0 1
19.073465 -26.879548 25.147547 41.457283 -0.953663 0.919033 0.095217 -0.011655 -497539.000000 0 0 1
18.180565 -26.130748 24.373937 40.092864 -0.962926 0.917337 0.099619 -0.013366 85582.800000 0 0 1
17.518365 -26.876748 23.356407 39.683428 -0.993154 0.941510 0.083336 -0.013733 19256.500000 0 0 1
16.728665 -25.986748 22.365817 38.149562 -0.998836 0.944354 0.079362 -0.008564 -222197.000000 0 0 1
15.550065 -25.485348 22.944427 37.653078 -1.022942 0.915538 0.073122 -0.006455 -176800.000000 0 0 1
14.952665 -24.530948 22.041017 36.209889 -1.023390 0.916373 0.059612 -0.008220 364115.000000 0 0 1
13.455865 -24.260048 22.339717 35.618439 -1.064389 0.892849 0.042056 -0.010000 813249.000000 0 0 1
12.569065 -25.366548 22.015217 35.862417 -1.110757 0.909830 0.032857 -0.009755 735247.000000 0 0 1
11.214165 -25.039048 22.293717 35.351397 -1.149718 0.888429 0.037189 -0.011994 389313.000000 0 0 1
10.197365 -26.163748 22.283817 35.848243 -1.199156 0.899993 0.038659 -0.023935 -151397.000000 0 0 1
9.894765 -26.736548 21.008217 35.413198 -1.216343 0.935730 0.033728 -0.027303 229789.000000 0 0 1
8.603265 -27.325548 21.010017 35.526365 -1.265778 0.938012 0.048651 -0.027214 -37324.200000 0 0 1
8.316065 -28.163048 19.750517 35.389224 -1.283673 0.978709 0.058584 -0.036512 -46291.200000 0 0 1
8.757165 -29.519448 19.815517 36.616123 -1.282409 0.998969 0.059760 -0.031376 194512.000000 0 0 1
8.266665 -30.222948 18.698217 36.488186 -1.303804 1.032766 0.050521 -0.028632 -65475.500000 0 0 1
8.933365 -31.582548 18.564617 37.708187 -1.295140 1.056039 0.050564 -0.023630 -123047.000000 0 0 1
8.571265 -32.507348 19.582017 38.905651 -1.312992 1.043359 0.060620 -0.027400 -165778.000000 0 0 1
9.334565 -33.652048 19.583017 40.038594 -1.300214 1.059735 0.063793 -0.031319 -488645.000000 0 0 1
8.823365 33.280750 20.579417 40.112000 1.311639 1.032063 0.088219 -0.039268 673591.000000 0 0 1
7.584565 32.654550 20.201417 39.140038 1.342576 1.028468 0.081923 -0.035348 354409.000000 0 0 1
7.622065 31.356050 20.799717 38.391744 1.332340 0.998248 0.092067 -0.044338 456093.000000 0 0 1
6.563265 30.279950 20.346817 37.066762 1.357345 0.989720 0.077506 -0.038308 1851430.000000 0 0 1
5.193865 30.508050 20.784017 37.278583 1.402167 0.979386 0.090560 -0.042897 932462.000000 0 0 1
4.394565 29.401150 20.540417 36.133760 1.422426 0.966170 0.102157 -0.038401 -685960.000000 0 0 1
2.991065 29.419150 21.088417 36.320163 1.469474 0.951299 0.094209 -0.031940 -693829.000000 0 0 1
2.960665 28.737450 22.359617 36.531617 1.468134 0.912131 0.078857 -0.037655 207521.000000 0 0 1
1.636965 28.373150 22.737417 36.396503 1.513166 0.896031 0.075578 -0.029651 292456.000000 0 0 1
1.393165 27.899550 24.227097 36.976723 1.520903 0.856351 0.086660 -0.029532 -150283.000000 0 0 1
1.686365 28.875950 25.235357 38.386034 1.512462 0.853420 0.091006 -0.031992 185774.000000 0 0 1
1.608265 28.426050 26.586617 38.954782 1.514279 0.819619 0.084322 -0.028423 -153410.000000 0 0 1
2.796465 27.586850 27.102107 38.773428 1.469772 0.796817 0.070398 -0.027020 -330276.000000 0 0 1
3.090965 26.340450 26.465207 37.467060 1.453984 0.786455 0.079880 -0.025686 -403155.000000 0 0 1
4.166165 25.770150 27.110677 37.635706 1.410517 0.766497 0.062392 -0.010182 -670833.000000 0 0 1
4.546465 24.401750 26.531927 36.332615 1.386591 0.752107 0.053021 -0.008953 -61919.500000 0 0 1
3.485065 23.466750 26.628857 35.664129 1.423363 0.727775 0.068667 -0.007772 82474.500000 0 0 1
3.896965 22.172350 26.283357 34.606565 1.396815 0.708267 0.067928 -0.001597 -415231.000000 0 0 1
2.735765 21.188650 26.195047 33.802719 1.442392 0.684178 0.069733 0.000864 -386309.000000 0 0 1
3.107765 19.819350 26.260627 33.046715 1.415258 0.652363 0.077121 0.002171 370104.000000 0 0 1
4.001865 19.255350 25.280797 32.029707 1.365882 0.661141 0.076877 0.001315 -65715.300000 0 0 1
4.496065 17.865350 25.660797 31.588951 1.324252 0.622652 0.075639 -0.006669 11453.800000 0 0 1
5.634665 17.753150 26.489317 32.382213 1.263463 0.612835 0.066772 -0.003465 597176.000000 0 0 1
6.843365 17.771950 25.701917 31.988473 1.203230 0.637688 0.073655 -0.004428 74302.600000 0 0 1
8.159865 17.835550 26.513277 32.979450 1.141718 0.636917 0.069806 -0.016374 76648.400000 0 0 1
8.496665 19.038350 27.198457 34.269639 1.151030 0.653994 0.065305 -0.017053 105808.000000 0 0 1
9.011365 20.023450 26.299997 34.261248 1.147909 0.695660 0.056259 -0.008751 -174305.000000 0 0 1
9.679765 21.199650 27.091647 35.736261 1.142467 0.710402 0.058905 -0.012867 -313652.000000 0 0 1
10.819365 20.826650 27.796377 36.379206 1.091674 0.701193 0.077734 -0.032028 -492679.000000 0 0 1
11.158365 21.963050 28.609487 37.754304 1.100728 0.710891 0.095471 -0.042928 -19719.900000 0 0 1
12.239265 21.749650 29.664687 38.766488 1.058229 0.699422 0.119643 -0.042152 -617453.000000 0 0 1
13.536265 21.517250 29.222867 38.732396 1.009262 0.715933 0.103688 -0.041001 -172549.000000 0 0 1
14.499265 21.560750 30.308007 39.920796 0.978777 0.708708 0.102686 -0.033085 -509811.000000 0 0 1
15.879665 21.310650 29.809457 39.936341 0.930405 0.728124 0.072709 -0.026757 -1045680.000000 0 0 1
16.436065 22.403350 29.065267 40.210000 0.937846 0.762898 0.063827 -0.034038 200156.000000 0 0 1
17.718465 22.149550 28.515767 40.220586 0.896088 0.782739 0.091165 -0.017751 297807.000000 0 0 1
-8.962094 16.905750 4.555334 19.669128 -1.083343 1.337076 0.035875 -0.013082 20523.700000 0 1 0
-8.570994 18.174150 5.024834 20.712572 -1.130123 1.325753 0.046689 -0.017320 389800.000000 0 1 0
-7.161694 18.365550 5.100834 20.361773 -1.198981 1.317589 0.040999 -0.015034 278405.000000 0 1 0
-6.854094 19.761050 5.582834 21.648227 -1.236932 1.309960 0.050291 -0.021791 -215612.000000 0 1 0
-7.036994 20.797050 4.632034 22.438635 -1.244524 1.362870 0.059517 -0.030868 1205210.000000 0 1 0
-8.392694 21.317350 4.527034 23.352961 -1.195731 1.375708 0.059520 -0.023131 1305630.000000 0 1 0
-8.417294 22.557050 3.549134 24.336551 -1.213643 1.424439 0.098445 -0.032808 86798.700000 0 1 0
-8.008794 22.366150 2.190334 23.857557 -1.226945 1.478858 0.073003 -0.028725 -11974.800000 0 1 0
-8.511994 21.213450 1.510434 22.907333 -1.189209 1.504812 0.081839 -0.026711 -446498.000000 0 1 0
-7.895894 21.124450 0.129034 22.552255 -1.213096 1.565075 0.056830 -0.010921 748177.000000 0 1 0
-6.548194 20.720150 -0.089466 21.730427 -1.264699 1.574913 0.042953 -0.005688 1008420.000000 0 1 0
-5.536594 21.718950 0.227634 22.414694 -1.321193 1.560641 0.048042 -0.012700 655595.000000 0 1 0
-4.115694 21.375750 -0.268566 21.770020 -1.380584 1.583133 0.033346 -0.009662 55720.700000 0 1 0
-3.999794 21.663850 -1.640566 22.090999 -1.388222 1.645129 0.029662 -0.009227 251482.000000 0 1 0
-2.656594 21.502150 -2.070266 21.764328 -1.447869 1.666062 0.027377 -0.006598 322429.000000 0 1 0
-2.587594 21.761550 -3.598266 22.208292 -1.452445 1.733537 0.033956 -0.005288 153018.000000 0 1 0
-1.290594 22.032650 -4.084366 22.445163 -1.512287 1.753787 0.050562 -0.010061 62599.600000 0 1 0
-1.382194 22.494550 -5.447366 23.185967 -1.509428 1.807956 0.059578 -0.013898 789801.000000 0 1 0
-0.025094 23.063950 -5.995366 23.830460 -1.569708 1.825113 0.067903 -0.017758 822732.000000 0 1 0
1.050906 22.145750 -6.058866 22.983657 1.523378 1.837565 0.045516 -0.009053 851143.000000 0 1 0
2.164206 22.775450 -6.775766 23.860342 1.476057 1.858735 0.042511 -0.002333 841479.000000 0 1 0
3.369106 21.857450 -6.979866 23.190893 1.417860 1.876511 0.037922 0.006205 -193233.000000 0 1 0
3.050606 20.770450 -7.814466 22.400528 1.424967 1.927142 0.033813 -0.007548 953800.000000 0 1 0
4.130606 19.783350 -7.813166 21.667681 1.364961 1.939698 0.021585 -0.005482 1038940.000000 0 1 0
3.835706 18.663950 -8.777466 20.978551 1.368104 2.002481 0.014986 -0.011019 -180594.000000 0 1 0
4.199006 18.963650 -10.154566 21.917274 1.352888 2.052527 0.017588 -0.013381 204760.000000 0 1 0
3.167806 18.764750 -11.123266 22.042638 1.403556 2.099744 0.019212 -0.016788 -213387.000000 0 1 0
3.488906 19.066750 -12.588766 23.112560 1.389815 2.146794 0.029455 -0.022680 84925.700000 0 1 0
3.899606 20.443450 -12.794266 24.430203 1.382310 2.121993 0.061511 -0.028131 28665.000000 0 1 0
3.883306 20.696650 -14.179166 25.386613 1.385323 2.163408 0.074023 -0.030401 -63217.800000 0 0 1
4.332106 22.128550 -14.614666 26.870585 1.377471 2.145863 0.079473 -0.028901 270981.000000 0 0 1
3.344606 23.145450 -14.702666 27.623661 1.427286 2.132051 0.092686 -0.030323 110764.000000 0 0 1
3.933106 24.367350 -15.146966 28.959759 1.410768 2.121204 0.079118 -0.026817 363625.000000 0 0 1
2.819506 25.392250 -15.465266 29.864535 1.460211 2.115129 0.089308 -0.028220 319355.000000 0 0 1
1.864506 25.627650 -14.459066 29.484189 1.498171 2.083346 0.111209 -0.038847 -238701.000000 0 0 1
1.377806 26.957150 -14.519966 30.649889 1.519730 2.064325 0.088840 -0.036550 -761636.000000 0 0 1
0.386706 27.264950 -13.423966 30.392925 1.556614 2.028267 0.109959 -0.033922 370497.000000 0 0 1
-0.951194 26.767750 -13.552666 30.018194 -1.535276 2.039222 0.105014 -0.045018 544315.000000 0 0 1
-1.161494 25.350650 -13.562866 28.774222 -1.525011 2.061623 0.092191 -0.042859 -539164.000000 0 0 1
-0.997494 24.611950 -12.200366 27.488034 -1.530290 2.030679 0.102112 -0.041065 39039.300000 0 0 1
-2.010994 24.996950 -11.258766 27.489115 -1.490520 1.992781 0.101088 -0.032589 306040.000000 0 0 1
-2.128294 23.895150 -10.386666 26.141742 -1.481963 1.979392 0.103730 -0.026549 -80375.300000 0 0 1
-3.236694 23.963650 -9.310566 25.911761 -1.436542 1.938333 0.083588 -0.024548 46066.500000 0 0 1
-2.904194 24.505350 -8.065366 25.961446 -1.452834 1.886691 0.100178 -0.018133 -163846.000000 0 0 1
-2.885794 25.900850 -8.037366 27.272350 -1.459837 1.869946 0.116011 -0.025033 -47822.000000 0 0 1
-2.654294 26.468850 -6.610266 27.410599 -1.470851 1.814354 0.103089 -0.024811 376888.000000 0 0 1
-1.417694 26.094350 -6.014866 26.816107 -1.516520 1.797021 0.109286 -0.026012 73407.700000 0 0 1
-1.154694 26.519250 -4.685666 26.954766 -1.527282 1.745518 0.106857 -0.036969 -141928.000000 0 0 1
-2.007694 25.942250 -3.537366 26.259172 -1.493559 1.705917 0.097291 -0.022002 314428.000000 0 0 1
-3.408194 26.174850 -3.595366 26.639543 -1.441316 1.706173 0.079651 -0.022377 366465.000000 0 0 1
-4.083994 25.537850 -2.504466 25.983324 -1.412220 1.667334 0.072370 -0.014845 546241.000000 0 0 1
-5.266694 24.606750 -2.951466 25.336562 -1.359943 1.687552 0.057614 -0.016473 272027.000000 0 0 1
-6.345194 25.322650 -3.529666 26.343057 -1.325278 1.705189 0.046058 -0.012346 -979214.000000 0 0 1
-7.358694 24.418050 -3.758366 25.778225 -1.278090 1.717114 0.026109 -0.016258 -1040540.000000 0 0 1
-8.683394 25.133750 -3.941866 26.882058 -1.238147 1.717963 0.028935 -0.015033 -424217.000000 0 0 1
-9.396694 25.535550 -2.770166 27.350247 -1.218190 1.672255 0.055186 -0.019697 -1351730.000000 0 0 1
-10.651294 25.992150 -3.052666 28.255277 -1.181880 1.679046 0.076638 -0.019124 -1013220.000000 0 0 1
-11.450194 26.268650 -1.758166 28.709582 -1.159740 1.632074 0.098227 -0.023472 92234.000000 0 0 1
-12.045294 25.128050 -1.099966 27.887595 -1.123799 1.610249 0.112512 -0.021622 328460.000000 0 0 1
-11.112694 24.208450 -0.536166 26.642607 -1.140449 1.590922 0.117770 -0.026698 164168.000000 0 0 1
-11.774394 22.870750 -0.151166 25.724121 -1.095361 1.576673 0.113475 -0.024943 143310.000000 0 0 1
-12.523794 22.898050 1.048134 26.120197 -1.070308 1.530658 0.130661 -0.027255 161088.000000 0 0 1
-13.149894 21.633450 1.353634 25.352677 -1.024625 1.517379 0.126591 -0.034588 373587.000000 0 0 1
-14.162494 21.726450 2.528134 26.057750 -0.993118 1.473623 0.136745 -0.043987 168001.000000 0 0 1
-13.536194 21.686750 3.788234 25.843653 -1.012795 1.423683 0.127104 -0.042493 20899.000000 0 0 1
-13.317594 23.013050 4.290234 26.932599 -1.046188 1.410820 0.131068 -0.045216 108152.000000 0 0 1
-12.915994 22.987950 5.783134 26.994692 -1.058894 1.354891 0.127602 -0.043953 639365.000000 0 0 1
-11.669194 22.353950 6.115334 25.947379 -1.089689 1.332876 0.117862 -0.043150 818681.000000 0 0 1
-11.737994 22.172950 7.495234 26.183941 -1.083919 1.280482 0.094768 -0.040737 -140114.000000 0 0 1
-10.356694 21.861850 8.085734 25.506484 -1.128382 1.248224 0.089499 -0.041562 -12136.300000 0 0 1
-9.459694 22.988150 8.189234 26.172589 -1.180413 1.252558 0.099432 -0.043338 324367.000000 0 0 1
-8.298094 22.736450 8.944334 25.803210 -1.220849 1.216813 0.090169 -0.044253 -175130.000000 0 0 1
-8.369294 22.536350 10.469934 26.221207 -1.215213 1.160051 0.071889 -0.039545 -774006.000000 0 0 1
-9.224994 21.505350 10.837734 25.788313 -1.165574 1.137067 0.076744 -0.039345 -314217.000000 0 0 1
-9.075394 21.040650 12.234134 25.975869 -1.163579 1.080394 0.051484 -0.025696 -572798.000000 0 0 1
-10.213994 20.159150 12.710334 25.928163 -1.101829 1.058462 0.054812 -0.023179 -797233.000000 0 0 1
-10.166094 18.894050 12.028434 24.597110 -1.077168 1.059833 0.070590 -0.034767 -214743.000000 0 1 0
-10.942094 17.913250 12.631534 24.498359 -1.022446 1.029080 0.071234 -0.033200 -363214.000000 0 1 0
-11.135094 16.657350 11.707634 23.206170 -0.981540 1.041987 0.069301 -0.036753 -133482.000000 0 1 0
-11.289594 15.398450 12.349134 22.739136 -0.938157 0.996697 0.064629 -0.032677 153108.000000 0 1 0
-11.852894 14.432650 11.473834 21.918973 -0.883228 1.019883 0.051907 -0.018971 -67947.500000 0 1 0
-12.246794 13.100650 12.149234 21.661369 -0.819072 0.975359 0.044305 -0.010570 897408.000000 0 1 0
-13.374294 13.336150 13.034734 22.948397 -0.783970 0.966720 0.064017 -0.000728 1067300.000000 0 1 0
-13.879694 12.072150 13.540334 22.841265 -0.715861 0.936263 0.051977 0.020433 237497.000000 0 1 0
-14.719694 12.170250 14.863534 24.201426 -0.690870 0.909476 0.063265 0.012629 -533423.000000 0 1 0
-15.937994 12.747250 14.565534 25.073229 -0.674621 0.950938 0.087547 -0.005017 -1488430.000000 0 0 1
-16.802494 12.606550 15.635134 26.185995 -0.643679 0.930940 0.084056 -0.004216 -237079.000000 0 0 1
-17.932594 13.693250 15.535634 27.394141 -0.652146 0.967797 0.074100 -0.005269 299603.000000 0 0 1
-19.023894 13.131250 14.820234 27.458653 -0.604153 1.000681 0.084628 -0.005485 758129.000000 0 0 1
-20.052994 14.129950 14.614134 28.554351 -0.613827 1.033517 0.097746 -0.012387 890356.000000 0 0 1
-21.270294 13.725350 13.749334 28.807201 -0.573052 1.073230 0.083691 -0.011870 657289.000000 0 0 1
-22.127794 12.669850 14.231034 29.200800 -0.520011 1.061743 0.074240 -0.001346 1111700.000000 0 0 1
-23.241794 12.291550 13.415234 29.516634 -0.486465 1.098988 0.071822 -0.004302 756888.000000 0 0 1
-24.194194 11.291250 14.139534 30.212213 -0.436648 1.083762 0.084086 -0.016350 753352.000000 0 0 1
-25.086094 11.900850 15.129034 31.620089 -0.442959 1.071893 0.058237 -0.014781 469392.000000 0 0 1
-25.951844 10.993250 15.693934 32.259097 -0.400686 1.062721 0.061522 -0.021124 -587022.000000 0 0 1
-26.645974 11.563150 16.951934 33.631569 -0.409431 1.042517 0.061391 -0.014398 -446775.000000 0 0 1
-27.499464 12.603450 16.540934 34.477094 -0.429748 1.070408 0.061745 -0.007905 -67380.600000 0 0 1
-28.119664 13.143950 17.671234 35.717663 -0.437253 1.053252 0.058547 0.005771 196104.000000 0 0 1
-29.256514 14.209150 17.398734 36.885763 -0.452122 1.079587 0.065360 -0.005552 401158.000000 0 0 1
-28.894544 15.500750 16.935834 36.905154 -0.492388 1.094038 0.068199 -0.010076 -436082.000000 0 0 1
-29.986564 16.370950 16.951934 38.138827 -0.499723 1.110203 0.080684 -0.014817 -434915.000000 0 0 1
-29.571504 17.813050 16.574534 38.294827 -0.542162 1.123184 0.100308 -0.021976 -84030.600000 0 0 1
-28.871204 18.609350 17.518334 38.558350 -0.572545 1.099173 0.100525 -0.031278 349379.000000 0 0 1
-29.608084 19.024550 18.682534 39.844814 -0.571117 1.082771 0.110253 -0.033828 82344.600000 0 0 1
-28.616384 19.056050 19.900334 39.724725 -0.587481 1.046093 0.086377 -0.031731 740995.000000 0 0 1
-28.135224 17.773750 20.377334 39.022209 -0.563421 1.021370 0.084321 -0.018702 657873.000000 0 0 1
-27.061754 17.179850 19.595434 37.569493 -0.565643 1.022097 0.089122 -0.019251 200206.000000 0 0 1
-26.560854 15.958750 20.371834 37.083316 -0.541035 0.989206 0.074876 -0.003162 -218622.000000 0 0 1
-27.555264 14.969950 20.548434 37.491734 -0.497662 0.990730 0.073420 -0.011129 199299.000000 0 0 1
-27.091574 13.806550 21.206534 37.071435 -0.471318 0.961799 0.069260 -0.003141 -374870.000000 0 0 1
-28.306794 13.005050 21.670234 37.947397 -0.430670 0.963000 0.078294 -0.017804 14665.700000 0 0 1
-29.126344 12.652950 20.551134 37.825787 -0.409819 0.996421 0.079124 -0.016361 363623.000000 0 0 1
-30.157214 11.712550 20.873334 38.501136 -0.370452 0.997804 0.106642 -0.014067 -49182.300000 0 0 1
-31.025614 11.467950 19.618134 38.457428 -0.354053 1.035465 0.100695 -0.014055 -537798.000000 0 0 1
-30.515554 10.903850 18.394734 37.262035 -0.343182 1.054504 0.121010 -0.016860 28113.000000 0 0 1
-30.014674 9.590950 18.559134 36.569228 -0.309287 1.038507 0.140500 -0.014144 -227489.000000 0 0 1
-29.330014 8.957550 17.338334 35.229324 -0.296409 1.056231 0.145971 -0.022848 -563657.000000 0 0 1
-30.136354 8.721850 16.236834 35.325703 -0.281716 1.093215 0.144859 -0.015471 -128959.000000 0 0 1
-30.734404 9.763250 15.470534 35.766773 -0.307584 1.123489 0.136409 -0.014055 -487444.000000 0 0 1
-29.854094 10.696450 14.660734 34.937345 -0.344042 1.137759 0.119807 -0.008822 -634808.000000 0 0 1
-29.471074 10.164950 13.420734 33.940927 -0.332136 1.164277 0.129233 -0.023252 438002.000000 0 0 1
-28.582094 11.110850 12.828134 33.240760 -0.370757 1.174596 0.100295 -0.016368 44215.200000 0 0 1
-28.030514 10.907250 11.395834 32.164310 -0.371093 1.208630 0.131609 -0.009817 -441823.000000 0 0 1
-27.159504 9.851850 11.107734 30.952857 -0.347979 1.203750 0.151891 -0.017139 303835.000000 0 0 1
-27.746584 8.530850 11.131534 31.089538 -0.298283 1.204620 0.168622 -0.019473 -385755.000000 0 0 1
-26.846924 7.381150 10.649334 29.810183 -0.268305 1.205487 0.196899 -0.034179 -484574.000000 0 0 1
-26.552664 7.590750 9.302434 29.141015 -0.278448 1.245889 0.193637 -0.031344 325947.000000 0 0 1
-26.264544 6.371450 8.643034 28.374702 -0.237990 1.261274 0.234773 -0.060275 -286093.000000 0 0 1
-25.503344 6.602350 7.348034 27.349684 -0.253320 1.298785 0.210469 -0.044616 -30160.600000 0 0 1
-26.349424 7.243750 6.409634 28.068621 -0.268284 1.340408 0.211250 -0.045969 704366.000000 0 0 1
-25.641664 7.391050 5.194834 27.186557 -0.280637 1.378533 0.196900 -0.045704 11434.500000 0 0 1
-26.452654 8.300650 4.187534 28.038886 -0.304062 1.420888 0.176434 -0.036754 177666.000000 0 0 1
-27.504874 7.656250 3.478634 28.761731 -0.271487 1.449553 0.221481 -0.042752 486428.000000 0 0 1
-27.150434 6.497250 2.701834 28.047464 -0.234888 1.474316 0.228028 -0.043734 -394345.000000 0 0 1
-26.121974 6.598050 1.511834 26.984763 -0.247411 1.514741 0.214043 -0.036963 251697.000000 0 0 1
-24.913494 7.099050 2.024134 25.984145 -0.277591 1.492819 0.180126 -0.029247 -509953.000000 0 0 1
-23.870294 7.163650 1.091434 24.945942 -0.291555 1.527030 0.171424 -0.015887 -97058.000000 0 1 0
-22.696494 7.948450 1.762234 24.112531 -0.336858 1.497647 0.146460 -0.018475 -103464.000000 0 1 0
-22.925394 9.370750 1.857034 24.836127 -0.388026 1.495955 0.128280 -0.018882 1166130.000000 0 1 0
-21.808294 10.045750 2.471334 24.137653 -0.431666 1.468232 0.126818 -0.019400 663999.000000 0 1 0
-22.219294 11.318750 3.157134 25.135207 -0.471148 1.444858 0.136388 -0.033126 597589.000000 0 0 1
-21.047194 12.136650 3.097134 24.492344 -0.523066 1.444004 0.119698 -0.031784 976513.000000 0 1 0
-21.351494 13.366450 3.680834 25.457746 -0.559332 1.425702 0.115454 -0.042464 -251141.000000 0 0 1
-20.108694 14.093750 4.222034 24.916239 -0.611315 1.400526 0.075462 -0.031145 22459.200000 0 1 0
-19.449294 13.367850 5.269234 24.181383 -0.602164 1.351129 0.063110 -0.038008 381196.000000 0 1 0
-18.595194 14.174350 6.065734 24.155467 -0.651301 1.316967 0.076478 -0.037604 -305270.000000 0 1 0
-17.996094 13.350850 7.223934 23.543361 -0.638281 1.258930 0.049220 -0.036111 -427478.000000 0 1 0
-16.950794 12.526150 6.767334 22.136636 -0.636405 1.260115 0.047777 -0.023114 -106644.000000 0 1 0
-16.569094 11.733150 7.825534 21.758692 -0.616165 1.202903 0.043841 -0.024222 -793401.000000 0 1 0
11.092506 -33.306048 -14.627966 38.030434 -1.249303 1.965612 0.029464 0.006580 -155544.000000 0 0 1
11.999806 -32.842748 -13.646866 37.535029 -1.220494 1.942901 0.013659 0.002125 314.891000 0 0 1
12.385006 -31.500148 -13.923766 36.599439 -1.196189 1.961065 0.020234 -0.007527 -205908.000000 0 0 1
13.571606 -31.174748 -12.977266 36.393170 -1.160201 1.935407 0.025074 -0.006236 -1138410.000000 0 0 1
14.716006 -31.752148 -13.421766 37.482043 -1.136802 1.937013 0.037900 -0.007778 -1457640.000000 0 0 1
15.858706 -31.321448 -12.714566 37.338879 -1.102105 1.918264 0.047582 -0.000132 817026.000000 0 0 1
17.165806 -31.932848 -13.366766 38.639903 -1.077555 1.924028 0.075848 -0.014388 711925.000000 0 0 1
17.256406 -33.379648 -13.062966 39.782226 -1.093662 1.905365 0.071903 -0.019107 -368056.000000 0 0 1
18.293506 -33.989548 -13.801766 40.993054 -1.077050 1.914191 0.073031 -0.005607 210232.000000 0 0 1
18.668606 32.552250 -13.367766 39.835449 1.050093 1.913011 0.061627 -0.016296 497455.000000 0 0 1
19.475306 32.522850 -12.144366 39.805891 1.031246 1.880829 0.061384 -0.023057 417617.000000 0 0 1
19.268206 31.234850 -11.488566 38.456037 1.018056 1.874174 0.052664 -0.018517 388989.000000 0 0 1
20.159306 31.001650 -10.215466 38.364771 0.994234 1.840320 0.065846 -0.020927 694960.000000 0 0 1
21.469106 30.514950 -10.491766 38.757733 0.957685 1.844918 0.063974 -0.022482 321534.000000 0 0 1
22.098806 30.301850 -9.236166 38.624683 0.940683 1.812262 0.060604 -0.022985 619833.000000 0 0 1
23.508906 29.639150 -9.189266 38.930586 0.900233 1.809087 0.033652 -0.007648 140741.000000 0 0 1
24.563506 30.237950 -9.862866 40.186759 0.888576 1.818755 0.045767 -0.021638 -763756.000000 0 0 1
25.698606 29.425650 -9.792966 40.276413 0.852907 1.816402 0.033415 -0.004881 -538083.000000 0 0 1
26.759706 29.785350 -10.814366 41.475287 0.838856 1.834587 0.026250 -0.008371 -202215.000000 0 0 1
27.509906 30.977250 -10.540766 42.749184 0.844613 1.819938 0.027615 -0.025897 434365.000000 0 0 1
28.404306 31.341250 -11.566066 43.850341 0.834516 1.837717 0.028070 -0.015853 164021.000000 0 0 1
29.159106 32.700150 -11.445666 45.283071 0.842579 1.826326 0.024705 -0.017612 -73030.400000 0 0 1
28.458106 33.841950 -11.873466 45.783410 0.871602 1.833135 0.045020 -0.015114 119173.000000 0 0 1
28.979006 -32.928248 -11.268066 45.288206 -0.849105 1.822246 0.069610 -0.020121 -85747.600000 0 0 1
28.011706 -31.786748 -11.543766 43.912545 -0.848444 1.836803 0.062997 -0.017539 -620998.000000 0 0 1
26.757706 -32.014148 -10.967866 43.141333 -0.874599 1.827849 0.076589 -0.024943 -605402.000000 0 0 1
25.726006 -31.127848 -11.374766 41.954209 -0.880127 1.845356 0.086954 -0.026313 313690.000000 0 0 1
25.816006 -29.637248 -10.925466 40.794589 -0.854199 1.841922 0.071407 -0.031941 -705470.000000 0 0 1
26.623006 -28.912648 -11.824766 41.043279 -0.826603 1.863043 0.059327 -0.019879 -169560.000000 0 0 1
26.977306 -27.704248 -11.190166 40.255686 -0.798691 1.852484 0.053466 -0.024686 -144524.000000 0 0 1
28.025606 -26.882548 -11.998766 40.645742 -0.764584 1.870465 0.054271 -0.013181 699424.000000 0 0 1
29.332206 -27.422548 -12.194566 41.965246 -0.751763 1.865637 0.038982 -0.000801 431696.000000 0 0 1
29.350606 -28.359748 -13.235066 42.905715 -0.768230 1.884379 0.044353 -0.011276 -551008.000000 0 0 1
30.713706 -28.979248 -13.606066 44.365004 -0.756350 1.882504 0.038000 -0.004691 102440.000000 0 0 1
31.052406 -30.010148 -12.662566 45.002239 -0.768331 1.856024 0.040320 -0.008552 -247667.000000 0 0 1
32.237806 -30.628848 -13.077766 46.351164 -0.759811 1.856826 0.042600 -0.014243 -369312.000000 0 0 1
32.591206 -31.980248 -12.398666 47.314373 -0.775937 1.835941 0.031328 -0.004522 -670641.000000 0 0 1
33.720306 -32.557848 -12.934366 48.624791 -0.767861 1.840041 0.025229 -0.010264 -878903.000000 0 0 1
34.476406 -33.477848 -12.209066 49.582761 -0.770705 1.819591 0.028762 -0.008578 -155845.000000 0 0 1
33.758006 33.304450 -11.541466 48.805684 0.778635 1.809536 0.015907 -0.011102 -17940.900000 0 0 1
33.113206 33.635450 -10.314766 48.313790 0.793222 1.785948 0.015548 -0.023131 11089.900000 0 0 1
32.499606 32.549050 -9.650066 46.997754 0.786158 1.777598 0.019037 -0.019086 -252954.000000 0 0 1
31.743506 32.849550 -8.345366 46.436928 0.802520 1.751492 0.006467 -0.019756 97941.900000 0 0 1
30.711006 33.787850 -8.536666 46.450612 0.833066 1.755626 0.005986 -0.022936 -499480.000000 0 0 1
29.844006 33.966750 -7.458466 45.826123 0.849917 1.734279 0.019901 -0.027423 169005.000000 0 0 1
28.914306 -32.803148 -7.595066 44.382076 -0.848325 1.742772 0.036980 -0.036936 204202.000000 0 0 1
29.660106 -31.542748 -7.797066 43.993876 -0.816149 1.748968 0.013244 -0.032502 807886.000000 0 0 1
28.864906 -30.453748 -8.316066 42.775817 -0.812177 1.766453 0.021629 -0.025695 338357.000000 0 0 1
27.893806 -29.749948 -7.363666 41.440891 -0.817587 1.749436 0.043210 -0.031345 443341.000000 0 0 1
26.883706 -28.948548 -7.969666 40.302204 -0.822364 1.769856 0.051485 -0.045290 -76257.200000 0 0 1
26.014506 -28.399348 -7.037766 39.151088 -0.829198 1.751538 0.063675 -0.043998 -395748.000000 0 0 1
24.964306 -27.505648 -7.693166 37.933653 -0.833795 1.775019 0.098605 -0.050631 205469.000000 0 0 1
23.951606 -28.194148 -8.475066 37.952815 -0.866579 1.796000 0.116790 -0.046141 752223.000000 0 0 1
23.268806 -27.249748 -9.259066 37.009680 -0.864037 1.823662 0.126874 -0.045894 -80098.200000 0 0 1
22.022406 -27.826448 -9.996766 36.867776 -0.901309 1.845386 0.122965 -0.039869 -337209.000000 0 0 1
22.220906 -28.688048 -11.181666 37.971074 -0.911755 1.869706 0.134159 -0.038802 156126.000000 0 0 1
21.095806 -29.465848 -11.584366 38.045588 -0.949452 1.880196 0.116578 -0.037501 446469.000000 0 0 1
20.730506 -30.674648 -10.627666 38.517986 -0.976484 1.850337 0.121109 -0.040254 150869.000000 0 0 1
21.622806 -31.785948 -10.741566 39.915830 -0.973440 1.843260 0.118228 -0.034794 -63570.700000 0 0 1
21.305806 -32.980648 -10.112966 40.545439 -0.997232 1.822881 0.098044 -0.036975 -316047.000000 0 0 1
22.451006 -33.976448 -10.225766 41.988248 -0.986879 1.816809 0.100635 -0.034229 -273055.000000 0 0 1
23.589506 -33.703648 -9.461866 42.212884 -0.960131 1.796863 0.099191 -0.030525 -73475.800000 0 0 1
24.679606 33.415850 -9.758866 42.672444 0.934657 1.801531 0.079055 -0.027874 -321509.000000 0 0 1
25.939906 33.808150 -9.008866 43.554901 0.916335 1.779140 0.059349 -0.026047 -996904.000000 0 0 1
25.989406 33.513750 -7.601366 43.085977 0.911183 1.748148 0.044611 -0.040117 69368.300000 0 0 1
26.339606 32.162550 -7.376566 42.221064 0.884605 1.746411 0.042794 -0.022717 -542948.000000 0 0 1
26.247006 31.847950 -5.895666 41.688801 0.881511 1.712693 0.046274 -0.026993 -810403.000000 0 0 1
27.261406 32.390950 -5.062266 42.637829 0.871178 1.689804 0.035395 -0.027407 405459.000000 0 0 1
28.294306 31.421850 -4.768766 42.551634 0.837724 1.683102 0.039288 -0.017625 26912.800000 0 0 1
27.901206 30.199350 -3.901766 41.300143 0.824932 1.665411 0.048456 -0.004208 -768475.000000 0 0 1
27.795606 30.612150 -2.537766 41.426317 0.833583 1.632094 0.057585 -0.003212 -54160.500000 0 0 1
27.580806 29.462250 -1.701666 40.393325 0.818369 1.612936 0.052248 0.002535 807033.000000 0 0 1
26.214206 28.671350 -1.755266 38.888454 0.830137 1.615948 0.054506 0.007377 722430.000000 0 0 1
25.101406 29.424750 -1.311666 38.699057 0.864522 1.604697 0.062817 0.003991 -941292.000000 0 0 1
23.908906 28.852650 -1.741466 37.511917 0.878825 1.617237 0.053315 0.003905 -391244.000000 0 0 1
22.747806 29.570150 -1.016766 37.321445 0.915068 1.598043 0.072790 -0.004380 -67816.300000 0 0 1
22.487006 29.127350 0.294634 36.798842 0.913348 1.562790 0.076376 -0.009252 427756.000000 0 0 1
21.298006 29.747650 0.802434 36.594694 0.949442 1.548867 0.066078 -0.009994 659452.000000 0 0 1
20.667706 29.001350 2.019234 35.669451 0.951633 1.514156 0.074084 -0.025415 -86516.700000 0 0 1
19.882406 27.866850 1.738434 34.276721 0.951081 1.520057 0.085952 -0.021162 171190.000000 0 0 1
19.483906 27.222250 2.915034 33.603139 0.949588 1.483938 0.111910 -0.027242 176071.000000 0 0 1
18.685706 25.867750 2.739334 32.028114 0.945224 1.485163 0.102983 -0.014389 104252.000000 0 0 1
19.424906 24.846550 2.138934 31.610965 0.907255 1.503080 0.101959 -0.016406 -304029.000000 0 0 1
20.312906 24.185450 3.007134 31.726850 0.872206 1.475872 0.096824 -0.010391 310337.000000 0 0 1
21.467906 23.409550 2.265834 31.843556 0.828637 1.499581 0.078387 -0.003417 107161.000000 0 0 1
21.097106 22.316350 1.437334 30.743671 0.813475 1.524027 0.080472 -0.002446 329153.000000 0 0 1
22.190606 21.655950 0.787234 31.016494 0.773205 1.545412 0.059592 -0.004676 156162.000000 0 0 1
21.748006 20.675650 -0.267466 30.008829 0.760126 1.579709 0.095964 -0.005117 -227516.000000 0 0 1
21.436306 21.376150 -1.457566 30.308077 0.783993 1.618907 0.050904 0.006245 264859.000000 0 0 1
21.579906 20.524550 -2.588766 29.894000 0.760338 1.657503 0.106033 -0.003485 31915.300000 0 0 1
21.391006 21.259150 -3.895666 30.408927 0.782307 1.699259 0.073390 -0.009043 -318370.000000 0 0 1
22.457206 22.140650 -4.158166 31.809194 0.778300 1.701894 0.073534 -0.002341 45670.400000 0 0 1
22.355806 22.876650 -5.369566 32.433862 0.796912 1.737116 0.050729 -0.007700 -442954.000000 0 0 1
23.384006 24.014850 -5.540966 33.973918 0.798707 1.734623 0.047378 -0.000846 -103324.000000 0 0 1
23.241906 25.186250 -4.727466 34.595987 0.825526 1.707873 0.041148 0.001713 -164342.000000 0 0 1
23.703606 25.039550 -3.411666 34.647936 0.812799 1.669423 0.043999 0.000844 -437353.000000 0 0 1
22.691606 24.722350 -2.294466 33.635817 0.828202 1.639064 0.036465 0.002574 -1226620.000000 0 0 1
21.822506 25.835250 -2.050066 33.880447 0.869399 1.631342 0.054347 -0.006970 1523300.000000 0 0 1
20.693106 25.558650 -1.167766 32.906123 0.890210 1.606292 0.072574 0.000736 978354.000000 0 0 1
19.749106 24.406150 -1.547966 31.433796 0.890479 1.620062 0.092548 -0.016027 -1462930.000000 0 0 1
19.029806 24.713250 -2.723966 31.309715 0.914602 1.657907 0.076245 -0.020365 77296.100000 0 0 1
18.378806 23.585350 -3.328566 30.085355 0.908839 1.681661 0.078647 -0.026776 141222.000000 0 0 1
17.841406 24.065650 -4.690866 30.322855 0.932845 1.726117 0.079694 -0.027393 -435519.000000 0 0 1
16.957606 23.145150 -5.240166 29.167066 0.938483 1.751438 0.082918 -0.030826 -219923.000000 0 0 1
16.693106 23.441950 -6.611466 29.527890 0.951993 1.796617 0.083730 -0.034979 375744.000000 0 0 1
15.802706 22.386950 -7.368366 28.375938 0.956129 1.833476 0.103834 -0.033599 223371.000000 0 0 1
16.522106 21.181750 -7.707366 27.947272 0.908360 1.850200 0.093960 -0.030933 606578.000000 0 0 1
15.836706 20.322650 -8.647866 27.177140 0.908828 1.894630 0.128699 -0.028516 -244558.000000 0 0 1
16.515106 18.965350 -8.808866 26.646376 0.854348 1.907719 0.123375 -0.029583 480836.000000 0 0 1
17.812606 19.178850 -9.380066 27.804727 0.822315 1.914902 0.121118 -0.032116 625508.000000 0 0 1
18.410006 17.981650 -9.834566 27.549714 0.773628 1.935824 0.121288 -0.032852 -398178.000000 0 0 1
19.829006 18.167450 -10.369866 28.823252 0.741697 1.938822 0.097914 -0.030078 -500908.000000 0 0 1
19.893606 18.877750 -11.537066 29.752797 0.759203 1.969001 0.093100 -0.028022 558618.000000 0 0 1
21.277706 18.902850 -11.868666 30.837052 0.726362 1.965878 0.086131 -0.017081 354674.000000 0 0 1
21.506106 19.264950 -13.336366 31.804238 0.730484 2.003500 0.078480 -0.022782 -208667.000000 0 0 1
21.497606 18.151750 -14.184966 31.509465 0.701211 2.037764 0.074865 -0.018194 369656.000000 0 0 1
21.859806 18.420150 -15.526366 32.530310 0.700211 2.068364 0.070370 -0.020993 12417.100000 0 0 1
21.880406 17.194650 -16.486966 32.345451 0.666051 2.105650 0.063353 -0.013463 118282.000000 0 0 1
22.886906 16.186250 -16.290266 32.421874 0.615560 2.097223 0.082025 -0.015524 494288.000000 0 0 1
23.004206 15.375250 -17.471166 32.723592 0.589179 2.134004 0.084730 -0.017208 -53572.800000 0 0 1
23.792706 15.982650 -18.676766 34.210518 0.591511 2.148303 0.079852 -0.018004 578804.000000 0 0 1
25.214506 16.113350 -18.466666 35.162894 0.568640 2.123717 0.095216 -0.017421 1277350.000000 0 0 1
25.841006 16.589750 -19.654066 36.459014 0.570726 2.140132 0.110987 -0.022362 -828708.000000 0 0 1
27.341506 16.733350 -19.530166 37.536520 0.549206 2.117996 0.097233 -0.023685 -827450.000000 0 0 1
27.652406 17.816450 -18.711266 37.844325 0.572358 2.087972 0.083845 -0.024436 264872.000000 0 0 1
29.052406 17.896950 -18.475566 38.803217 0.552118 2.067050 0.083794 -0.032021 228354.000000 0 0 1
29.258506 19.002950 -17.387166 38.980583 0.576013 2.033140 0.086131 -0.027864 605421.000000 0 0 1
28.626006 18.677450 -16.077166 37.772617 0.578106 2.010454 0.077404 -0.031447 1809060.000000 0 0 1
27.206506 18.976550 -16.002966 36.829314 0.609046 2.020298 0.073168 -0.018670 1272730.000000 0 0 1
26.533706 18.626550 -14.625566 35.565336 0.612064 1.994600 0.071817 -0.011415 -115093.000000 0 0 1
26.944806 19.451150 -13.579566 35.899505 0.625266 1.958719 0.068617 -0.019347 86133.700000 0 0 1
26.350706 19.088050 -12.371366 34.810402 0.626905 1.934131 0.068326 -0.020907 -406817.000000 0 0 1
26.732206 19.937750 -11.150566 35.163331 0.640829 1.893475 0.057685 -0.015928 -536461.000000 0 0 1
26.127006 21.205450 -11.103966 35.434300 0.681792 1.889534 0.060140 -0.015968 7393.630000 0 0 1
26.286606 21.913150 -9.910966 35.628627 0.694910 1.852689 0.049957 -0.011578 361328.000000 0 0 1
25.339206 21.544150 -8.708766 34.381221 0.704628 1.826886 0.060731 -0.013248 -298253.000000 0 0 1
25.769806 20.318050 -8.021666 33.782439 0.667655 1.810537 0.086840 -0.021264 884636.000000 0 0 1
24.823006 19.829450 -7.050166 32.543718 0.674029 1.789164 0.088440 -0.019716 781713.000000 0 0 1
23.369006 19.454750 -7.453366 31.307354 0.694248 1.811175 0.080459 -0.026914 431244.000000 0 0 1
22.618206 20.655150 -7.770366 31.600586 0.740065 1.819237 0.063934 -0.017886 -596542.000000 0 0 1
21.279006 20.391550 -8.055966 30.553396 0.764104 1.837620 0.066232 -0.020802 -523485.000000 0 0 1
20.501806 21.723850 -8.094866 30.947966 0.814331 1.835438 0.060316 -0.024947 -590015.000000 0 0 1
20.980406 22.603750 -9.108266 32.156919 0.822627 1.857972 0.060283 -0.024288 122910.000000 0 0 1
20.533206 22.511550 -10.464266 32.216196 0.831326 1.901611 0.074527 -0.013075 -253423.000000 0 0 1
19.021706 22.718150 -10.696566 31.501685 0.873727 1.917240 0.073225 -0.024680 -161127.000000 0 0 1
18.570206 23.963950 -10.204266 31.988287 0.911535 1.895471 0.065355 -0.028116 -415009.000000 0 0 1
17.217806 24.203850 -10.476166 31.496496 0.952483 1.909870 0.076197 -0.025291 -267816.000000 0 0 1
16.957006 25.559350 -9.751766 32.185670 0.985033 1.878619 0.072471 -0.026751 -210707.000000 0 0 1
17.404506 26.710850 -10.345666 33.517445 0.993305 1.884586 0.095874 -0.009819 -101116.000000 0 0 1
17.382806 27.890250 -9.541666 34.220920 1.013451 1.853367 0.106170 -0.028965 11812.700000 0 0 1
21.345206 29.000450 -33.831006 49.408308 0.936296 2.325020 0.055079 -0.014453 31709.700000 0 0 1
20.218406 29.054450 33.143753 48.491787 0.962841 0.818260 0.085671 -0.016201 76874.800000 0 0 1
19.412506 27.900850 33.226981 47.532464 0.962917 0.796746 0.064251 -0.015027 -680199.000000 0 0 1
17.933606 28.206650 33.305643 47.185752 1.004473 0.787187 0.097274 -0.025953 -909342.000000 0 0 1
17.269306 28.448250 32.115821 46.248869 1.025214 0.803192 0.085496 -0.024244 285860.000000 0 0 1
15.920106 28.876050 32.357566 46.198357 1.066936 0.794831 0.143376 -0.035335 1051330.000000 0 0 1
15.058906 29.054150 31.069747 45.124755 1.092612 0.811336 0.124873 -0.034602 142850.000000 0 0 1
14.521106 27.839450 30.599277 43.843053 1.090017 0.798297 0.121070 -0.040841 -1145140.000000 0 0 1
13.194706 28.060450 30.272787 43.335099 1.131252 0.797393 0.131192 -0.027525 -1027740.000000 0 0 1
12.442206 26.701050 30.180627 42.173746 1.134732 0.773276 0.120955 -0.039384 -85073.200000 0 0 1
12.681906 26.040550 28.964277 40.961816 1.117598 0.785402 0.110789 -0.036773 1344110.000000 0 0 1
14.031406 25.535850 28.762827 40.942157 1.068353 0.791859 0.089517 -0.035006 1044990.000000 0 0 1
14.197506 24.657050 27.454817 39.538668 1.048362 0.803240 0.084861 -0.024477 -196659.000000 0 0 1
13.783506 25.364450 26.253317 39.020213 1.073020 0.832791 0.072282 -0.026885 302429.000000 0 0 1
13.534406 24.596550 25.118357 37.670974 1.067756 0.840913 0.080432 -0.029179 384764.000000 0 0 1
12.423806 23.479750 25.109737 36.553366 1.084118 0.813535 0.081956 -0.022118 133463.000000 0 0 1
12.146006 23.046150 23.777047 35.270363 1.085759 0.831001 0.103772 -0.026319 -291411.000000 0 0 1
11.092106 22.149250 23.689997 34.275940 1.106518 0.807710 0.107252 -0.024884 -423769.000000 0 0 1
10.864906 21.728950 22.248017 32.941884 1.107133 0.829328 0.109217 -0.028231 -266254.000000 0 0 1
10.455606 22.738850 21.312617 32.872521 1.139812 0.865392 0.111275 -0.035661 226538.000000 0 0 1
10.545206 22.267250 20.013617 31.742348 1.128512 0.888596 0.118395 -0.029401 -657793.000000 0 0 1
10.291706 23.421650 18.974217 31.851434 1.156784 0.932647 0.090791 -0.034001 -13514.600000 0 0 1
8.988406 23.912650 18.725617 31.674201 1.211250 0.938257 0.091506 -0.032071 -185596.000000 0 0 1
8.519306 24.667750 19.773417 32.742396 1.238259 0.922400 0.092090 -0.029430 -118680.000000 0 0 1
7.145606 25.379550 19.595617 32.850715 1.296351 0.931657 0.099842 -0.031323 268500.000000 0 0 1
7.217306 26.365550 18.556717 33.039121 1.303602 0.974407 0.092529 -0.039596 -215239.000000 0 0 1
5.904306 26.746050 18.233517 32.904000 1.353527 0.983463 0.082486 -0.043715 -377394.000000 0 0 1
5.790806 27.791650 17.127017 33.154848 1.365371 1.027948 0.093546 -0.040531 -118534.000000 0 0 1
6.193706 27.506150 15.807417 32.323749 1.349315 1.059814 0.085049 -0.036791 466241.000000 0 0 1
7.281406 28.426750 15.532617 33.201825 1.320041 1.083969 0.079349 -0.029920 314374.000000 0 0 1
8.118206 28.121750 14.294617 32.574134 1.289756 1.116496 0.068937 -0.028236 -258927.000000 0 0 1
7.481806 28.205950 13.023117 31.955510 1.311511 1.151039 0.061606 -0.027490 -483936.000000 0 0 1
6.958606 26.999850 12.576317 30.587217 1.318558 1.147067 0.050025 -0.036054 177918.000000 0 0 1
5.867306 27.146850 11.486417 30.055192 1.357938 1.178645 0.044779 -0.033783 -204529.000000 0 0 1
6.438906 27.594850 10.220717 30.123053 1.341561 1.224625 0.038937 -0.026416 428304.000000 0 0 1
6.820906 28.976950 10.187217 31.463754 1.339614 1.241078 0.036735 -0.024477 -172238.000000 0 0 1
6.975106 29.545450 8.785917 31.603450 1.338961 1.289080 0.029191 -0.006484 -1037050.000000 0 0 1
5.791306 29.492750 8.099817 31.128260 1.376900 1.307559 0.018435 -0.007624 -1101100.000000 0 0 1
5.559606 28.294350 7.370917 29.762559 1.376776 1.320535 0.007820 -0.000641 -432221.000000 0 0 1
4.109006 28.090650 6.917817 29.220280 1.425550 1.331780 0.019208 -0.003005 -164764.000000 0 0 1
3.558006 29.051550 6.042617 29.885870 1.448931 1.367203 0.036246 -0.003850 -459474.000000 0 0 1
2.179106 28.866650 5.888317 29.541569 1.495451 1.370129 0.031885 -0.004513 -326905.000000 0 0 1
1.522606 29.869450 4.926517 30.311268 1.519865 1.407541 0.054373 -0.018259 -235982.000000 0 0 1
1.978306 29.756150 3.541017 30.031333 1.504410 1.452611 0.050054 -0.021665 539997.000000 0 0 1
1.129006 30.410050 2.568717 30.539223 1.533687 1.486585 0.068410 -0.027929 537400.000000 0 0 1
-0.047894 29.575950 2.062717 29.647832 -1.569177 1.501166 0.090073 -0.026153 -313686.000000 0 0 1
0.511006 28.429650 1.498617 28.473707 1.552824 1.518140 0.087682 -0.027073 103490.000000 0 0 1
-0.424794 27.524850 0.924617 27.543652 -1.555364 1.537221 0.086914 -0.031746 7322.000000 0 0 1
-1.071694 27.891450 -0.414583 27.915111 -1.532391 1.585648 0.102125 -0.036343 -238357.000000 0 0 1
-2.024494 28.898250 -0.378083 28.971545 -1.500855 1.583847 0.113491 -0.032709 -426458.000000 0 0 1
-1.671594 29.861950 -1.367983 29.939968 -1.514877 1.616503 0.111006 -0.033281 -243206.000000 0 0 1
-2.786894 30.873750 -1.778583 31.050259 -1.480773 1.628108 0.139787 -0.024593 457651.000000 0 0 1
-3.911694 30.262950 -2.441783 30.612249 -1.442252 1.650646 0.083622 -0.025259 576879.000000 0 0 1
-3.696194 29.528650 -3.657283 29.982974 -1.446271 1.693080 0.078436 -0.028851 -522129.000000 0 0 1
-5.018394 28.996050 -4.292483 29.738538 -1.399422 1.715643 0.069450 -0.019060 -288587.000000 0 0 1
-5.704694 29.962950 -4.957983 30.901513 -1.382656 1.731937 0.061441 -0.019530 -150379.000000 0 0 1
-6.686994 29.310650 -5.766083 30.611727 -1.346493 1.760290 0.046881 -0.026759 101551.000000 0 0 1
-7.385794 30.131650 -6.881983 31.777791 -1.330418 1.789092 0.048427 -0.021201 -237384.000000 0 0 1
-8.141194 31.090950 -6.200983 32.731917 -1.314695 1.761396 0.042745 -0.008316 -149895.000000 0 0 1
-8.607894 32.103950 -7.096283 33.987008 -1.308832 1.781138 0.042753 -0.015341 -189424.000000 0 0 1
-9.516394 33.191150 -6.493683 35.133775 -1.291572 1.756693 0.042739 -0.013294 394814.000000 0 0 1
-10.909694 32.881850 -6.563383 35.260679 -1.250440 1.758027 0.051171 -0.007739 297972.000000 0 0 1
-11.644494 33.881150 -5.865683 36.303344 -1.239757 1.733082 0.055441 -0.012576 -177092.000000 0 0 1
-13.149694 33.640150 -5.817183 36.584338 -1.198166 1.730482 0.090751 -0.014748 -264562.000000 0 0 1
-13.789294 33.553850 -7.064583 36.958271 -1.180877 1.763130 0.096189 -0.017819 587549.000000 0 0 1
-15.192594 33.269250 -6.967983 37.231851 -1.142421 1.759058 0.127921 -0.027910 284944.000000 0 0 1
-15.786494 33.227750 -8.369483 37.727245 -1.127267 1.794499 0.163813 -0.035383 532550.000000 0 0 1
-17.183894 32.953450 -8.479983 38.119893 -1.090129 1.795129 0.188357 -0.031445 640791.000000 0 0 1
-18.020694 -33.883348 -8.486383 39.304521 1.081998 1.788424 0.179993 -0.033318 -971800.000000 0 0 1
-19.479894 33.711650 -8.696383 39.894470 -1.046831 1.790545 0.167523 -0.033784 -145056.000000 0 0 1
-20.186794 32.940150 -7.681983 39.390012 -1.020995 1.767078 0.153257 -0.034823 500228.000000 0 0 1
-20.306894 33.564550 -6.418783 39.751097 -1.026701 1.732981 0.136534 -0.038308 -728522.000000 0 0 1
-21.180594 32.798950 -5.415883 39.417261 -0.997400 1.708631 0.141582 -0.036217 -591022.000000 0 0 1
-21.171394 33.461750 -4.165583 39.815433 -1.006676 1.675610 0.140617 -0.045940 505434.000000 0 0 1
-22.245194 33.149150 -3.291983 40.056859 -0.979756 1.653072 0.129598 -0.038282 559062.000000 0 0 1
-23.627794 33.829550 -3.523783 41.414106 -0.961120 1.655986 0.143617 -0.043953 9012.180000 0 0 1
-24.118794 33.685150 -4.811583 41.707996 -0.949408 1.686417 0.147314 -0.050493 -934026.000000 0 0 1
-25.219774 -33.515448 -5.042683 42.246313 0.925709 1.690445 0.146859 -0.056910 -949270.000000 0 0 1
-25.658614 -33.358448 -6.441583 42.575163 0.915133 1.722679 0.174859 -0.032865 5324.420000 0 0 1
-24.794994 -32.552548 -7.247183 41.556970 0.919855 1.746084 0.193013 -0.023351 94692.300000 0 0 1
-24.875794 -32.747948 -8.664283 42.027408 0.921171 1.778443 0.146677 -0.017800 -87275.100000 0 0 1
-25.949064 -31.939048 -9.425083 42.217164 0.888506 1.795946 0.121213 -0.007836 543675.000000 0 0 1
-27.297374 -32.380048 -9.190983 43.336916 0.870362 1.784501 0.129057 -0.004933 699626.000000 0 0 1
-28.341544 -31.812048 -9.934683 43.748685 0.843028 1.799880 0.063176 0.003803 290742.000000 0 0 1
-28.724514 -30.361948 -9.672983 42.901191 0.813104 1.798223 0.045107 0.014701 -418078.000000 0 0 1
-27.901664 -29.387148 -10.317383 41.815735 0.811322 1.820105 0.059186 0.023873 51935.900000 0 0 1
-28.237944 -29.227848 -11.699783 42.291057 0.802622 1.851102 0.045678 0.011038 -136603.000000 0 0 1
-27.187374 -28.470948 -12.538983 41.315545 0.808456 1.879153 0.096032 0.004550 521606.000000 0 0 1
-25.885934 -29.053048 -12.380983 40.834421 0.842982 1.878845 0.090684 -0.008844 133431.000000 0 0 1
-24.944094 -28.399048 -13.194883 40.035218 0.850076 1.906657 0.082110 -0.010226 -1119840.000000 0 0 1
-23.678894 -29.209248 -13.220083 39.857757 0.889587 1.908882 0.099391 -0.025108 -1036280.000000 0 0 1
-23.710794 -30.339248 -14.058983 40.991789 0.907424 1.920874 0.111696 -0.029644 -239126.000000 0 0 1
-24.241694 -31.457248 -13.447083 41.929014 0.914226 1.897276 0.104970 -0.027141 -282172.000000 0 0 1
-24.229094 -32.646548 -14.401283 43.130535 0.932329 1.911234 0.114361 -0.027464 -190797.000000 0 0 1
-24.621094 -33.735948 -13.645283 43.937526 0.940337 1.886580 0.106814 -0.031129 -160443.000000 0 0 1
-24.626194 33.017450 -14.361383 43.621678 -0.929954 1.906280 0.105577 -0.028827 -86542.200000 0 0 1
-25.352154 31.936750 -13.459483 42.940021 -0.899833 1.889619 0.101589 -0.035307 -76000.700000 0 0 1
-24.627794 31.500150 -12.337583 41.844996 -0.907233 1.870085 0.105755 -0.029127 87365.600000 0 0 1
-24.700994 32.377450 -11.224083 42.242377 -0.919086 1.839733 0.151058 -0.028616 109300.000000 0 0 1
-23.828494 32.018550 -9.997583 41.145308 -0.931012 1.816235 0.155091 -0.032725 173814.000000 0 0 1
-24.511894 31.081650 -9.226483 40.645171 -0.903027 1.799793 0.139710 -0.032739 397232.000000 0 0 1
-23.675194 30.677750 -8.136583 39.595999 -0.913527 1.777761 0.130899 -0.031470 562717.000000 0 0 1
-24.284494 29.437350 -7.361283 38.864929 -0.881023 1.761354 0.121693 -0.028960 66351.900000 0 0 1
-24.361294 28.252950 -8.140283 38.183322 -0.859230 1.785635 0.115948 -0.011949 -72619.200000 0 0 1
-24.618394 27.039450 -7.496683 37.328239 -0.832231 1.773003 0.097389 -0.011268 -215422.000000 0 0 1
-23.607494 26.495150 -6.463983 36.070623 -0.842969 1.750973 0.106506 -0.006835 -402895.000000 0 0 1
-23.549994 27.132650 -5.207883 36.302961 -0.855969 1.714749 0.109870 -0.010297 23674.900000 0 0 1
-22.582694 26.639650 -4.308383 35.188225 -0.867633 1.693543 0.100927 -0.011806 162433.000000 0 0 1
-21.172494 27.286150 -4.376483 34.813246 -0.910897 1.696843 0.095471 -0.017521 42355.100000 0 0 1
-20.534994 27.039750 -5.606583 34.413193 -0.921283 1.734445 0.102749 -0.023399 804521.000000 0 0 1
-19.148694 27.430450 -5.470383 33.897303 -0.961359 1.732886 0.117193 -0.022935 1536400.000000 0 0 1
-18.234294 27.213850 -6.730783 33.442287 -0.980464 1.773446 0.138773 -0.026742 472511.000000 0 0 1
-18.793394 27.821950 -7.943883 34.501563 -0.976711 1.803128 0.150276 -0.029398 502285.000000 0 0 1
-18.668294 29.219550 -8.004183 35.585872 -1.002266 1.797663 0.152311 -0.036807 834.785000 0 0 1
-18.641394 29.758050 -9.413383 36.354572 -1.011168 1.832713 0.137990 -0.032053 -1037250.000000 0 0 1
-17.355294 29.758950 -9.889083 35.841251 -1.042825 1.850336 0.141207 -0.038661 -940292.000000 0 0 1
-17.322394 30.517050 -11.065883 36.794150 -1.054518 1.876276 0.133762 -0.034585 667033.000000 0 0 1
-15.853394 30.640650 -11.630583 36.406730 -1.093328 1.895958 0.131430 -0.036348 967222.000000 0 0 1
-15.684194 31.422950 -12.797683 37.378823 -1.107844 1.920243 0.126757 -0.037921 -248410.000000 0 0 1
-16.194094 30.776050 -13.958783 37.473478 -1.086416 1.952495 0.116657 -0.046021 -78562.000000 0 0 1
-15.894994 31.437950 -15.289783 38.402773 -1.102680 1.980288 0.145538 -0.050487 -152392.000000 0 0 1
-14.523294 31.527550 -15.569883 38.043840 -1.139118 1.992441 0.148055 -0.053862 -500454.000000 0 0 1
-14.278294 31.905850 -16.908083 38.829579 -1.150012 2.021327 0.125377 -0.060318 -463374.000000 0 0 1
-12.769794 31.880850 -17.176583 38.399105 -1.189818 2.034560 0.151141 -0.065504 -752152.000000 0 0 1
-12.251894 30.566850 -16.986283 37.053678 -1.189581 2.047017 0.157844 -0.076238 -696506.000000 0 0 1
-10.941694 30.427450 -17.443983 36.740209 -1.225595 2.065525 0.151834 -0.073329 -311381.000000 0 0 1
-10.639794 30.543150 -18.951383 37.486586 -1.235590 2.100817 0.177307 -0.074846 -670250.000000 0 0 1
-11.432994 29.670450 -19.699583 37.404846 -1.202998 2.125461 0.145478 -0.080709 -19545.500000 0 0 1
-11.066894 29.724750 -21.072283 38.079890 -1.214384 2.157202 0.142008 -0.080361 -600242.000000 0 0 1
-12.211694 29.504850 -22.093283 38.830076 -1.178375 2.176053 0.123054 -0.064302 154915.000000 0 0 1
-13.137794 30.563750 -22.271383 40.034472 -1.164826 2.160729 0.115240 -0.057977 -96925.900000 0 0 1
-14.150794 30.576650 -21.306083 39.863839 -1.137351 2.134679 0.106018 -0.057960 -732144.000000 0 0 1
-15.142294 31.759150 -21.425583 41.194518 -1.125892 2.117773 0.118558 -0.051611 3733.500000 0 0 1
-15.920494 31.675050 -22.598983 42.041467 -1.105055 2.138314 0.099854 -0.043586 -63105.500000 0 0 1
-16.699494 32.880350 -22.713383 43.311526 -1.100859 2.122829 0.104557 -0.042764 248980.000000 0 0 1
-17.016594 33.244750 -24.145283 44.472155 -1.097707 2.144719 0.105975 -0.030522 -124096.000000 0 0 1
-15.912794 33.542250 -24.980683 44.747448 -1.127829 2.163083 0.122106 -0.026540 -204173.000000 0 0 1
-16.187894 33.758250 -26.382283 45.800570 -1.123663 2.184654 0.131396 -0.028351 279270.000000 0 0 1
-17.020094 -33.032848 -26.896983 45.872654 1.095025 2.197330 0.110920 -0.025638 190074.000000 0 0 1
-18.353294 -32.800048 -26.522683 46.001514 1.060650 2.185310 0.122110 -0.026307 -226023.000000 0 0 1
-18.957494 -31.860648 -27.415583 46.109670 1.034052 2.207531 0.099687 -0.020258 -785927.000000 0 0 1
-20.416394 -31.732848 -27.051483 46.428284 0.999086 2.192783 0.071945 -0.028770 -1081230.000000 0 0 1
-21.241294 -32.747348 -27.549983 47.776385 0.995377 2.185412 0.067971 -0.018786 -1391640.000000 0 0 1
-22.558994 -32.334348 -27.403583 48.014317 0.961630 2.178200 0.055540 -0.019594 -293971.000000 0 0 1
-23.582594 -33.508548 -27.432883 49.310492 0.957539 2.160758 0.038408 -0.002447 78620.600000 0 0 1
-23.741294 33.917350 -26.144783 48.965144 -0.960087 2.134058 0.054258 -0.005911 -413046.000000 0 0 1
-24.601694 32.797850 -26.059583 48.580286 -0.927231 2.136989 0.029299 0.006211 -45386.900000 0 0 1
-24.058194 31.516050 -26.730283 47.818052 -0.918797 2.163975 0.028645 0.004441 247583.000000 0 0 1
-23.109794 30.779050 -25.986283 46.440278 -0.926765 2.164655 0.025565 -0.011928 135820.000000 0 0 1
-23.773894 29.946450 -25.011683 45.689957 -0.899798 2.150077 0.030964 -0.006823 169389.000000 0 0 1
32.344415 10.312450 -25.804876 42.642695 0.308644 2.220740 0.061124 -0.005349 -88693.400000 0 0 1
32.080145 8.927450 -25.735426 42.085000 0.271418 2.228765 0.051336 -0.008809 -409962.000000 0 0 1
30.726185 8.640450 -25.949556 41.135572 0.274129 2.253419 0.062997 -0.010396 -244858.000000 0 0 1
30.285075 7.182350 -25.785536 40.418632 0.232856 2.262645 0.059866 -0.012544 -161297.000000 0 0 1
30.223755 6.872450 -24.425566 39.462821 0.223584 2.238203 0.043744 -0.004805 -151051.000000 0 0 1
29.736155 5.573150 -24.312766 38.812492 0.185271 2.247743 0.050972 -0.002917 -30373.700000 0 0 1
29.706195 5.125150 -22.846366 37.824352 0.170846 2.219322 0.051232 -0.010627 592491.000000 0 0 1
30.982075 4.901250 -22.230166 38.445956 0.156896 2.187340 0.068059 -0.012277 531241.000000 0 0 1
30.875415 4.826350 -20.847166 37.565799 0.155062 2.159100 0.040912 -0.012158 206936.000000 0 0 1
32.187005 4.506850 -20.060066 38.193209 0.139116 2.123777 0.045786 -0.011195 327925.000000 0 0 1
32.482195 3.123550 -19.972766 38.259129 0.095867 2.120036 0.063511 -0.009890 208750.000000 0 0 1
33.490885 2.857650 -19.011466 38.616595 0.085120 2.085542 0.083641 -0.019623 -192833.000000 0 0 1
33.826045 1.392750 -18.877566 38.762141 0.041151 2.079460 0.084971 -0.019878 -301650.000000 0 0 1
32.771635 0.541250 -18.521666 37.647379 0.016514 2.085156 0.069692 -0.016230 -609385.000000 0 0 1
33.291145 -0.826050 -18.452066 38.071793 -0.024808 2.076776 0.088220 -0.013725 874389.000000 0 0 1
32.261325 -1.864750 -17.833066 36.909194 -0.057737 2.075057 0.088829 -0.013485 621353.000000 0 0 1
32.256815 -1.963450 -16.451066 36.262857 -0.060794 2.041666 0.089008 -0.014367 1356090.000000 0 0 1
30.954465 -1.564650 -15.922266 34.844592 -0.050504 2.045361 0.076094 -0.020473 1093380.000000 0 0 1
30.869975 -1.903650 -14.445766 34.135896 -0.061589 2.007753 0.089671 -0.032392 -146654.000000 0 0 1
30.661315 -3.311050 -14.211766 33.956643 -0.107571 2.002619 0.088313 -0.028611 397884.000000 0 0 1
29.469495 -3.513750 -13.483066 32.597403 -0.118673 1.997227 0.081055 -0.036048 -337904.000000 0 0 1
29.338965 -5.034050 -13.087666 32.517742 -0.169928 1.985018 0.088018 -0.033569 -132996.000000 0 0 1
28.794665 -5.825150 -14.131166 32.599923 -0.199606 2.019139 0.074715 -0.031496 431467.000000 0 0 1
28.594465 -7.133550 -13.657966 32.481857 -0.244483 2.004770 0.072205 -0.031188 -126610.000000 0 0 1
27.925765 -8.071450 -14.717766 32.582346 -0.281365 2.039477 0.051762 -0.021057 -124990.000000 0 0 1
26.586365 -7.814650 -15.062166 31.540013 -0.285883 2.068669 0.057322 -0.025233 -176964.000000 0 0 1
26.190065 -8.707150 -16.052866 31.928490 -0.320964 2.097603 0.044049 -0.022082 165965.000000 0 0 1
24.712165 -8.465850 -16.454366 30.872445 -0.330048 2.132914 0.032911 -0.022624 115267.000000 0 0 1
24.659065 -7.424850 -17.426566 31.094744 -0.292466 2.165707 0.026800 -0.022400 112469.000000 0 0 1
23.321065 -7.370150 -17.875666 30.294069 -0.306097 2.201944 0.068079 -0.025217 170931.000000 0 0 1
23.081265 -7.765150 -19.343566 31.100095 -0.324532 2.242062 0.040947 -0.023036 -100154.000000 0 0 1
23.745865 -6.867350 -20.213566 31.931408 -0.281521 2.256258 0.034959 -0.025353 205416.000000 0 0 1
23.461665 -7.128350 -21.541866 32.639165 -0.294967 2.291616 0.056713 -0.032490 -503180.000000 0 0 1
24.131565 -6.220750 -22.550166 33.608632 -0.252292 2.306304 0.057269 -0.031885 -314455.000000 0 0 1
23.955865 -6.655350 -23.883466 34.476037 -0.270983 2.336099 0.068409 -0.037488 38041.900000 0 0 1
24.237365 -5.652350 -24.838666 35.161886 -0.229113 2.355208 0.052537 -0.030995 -282010.000000 0 0 1
24.021065 -5.953350 -26.364246 36.159748 -0.242943 2.387809 0.060660 -0.031791 -412104.000000 0 0 1
22.784465 -6.408750 -26.828066 35.776375 -0.274193 2.418680 0.076655 -0.029034 -598975.000000 0 0 1
22.641165 -6.486250 -28.253636 36.782628 -0.279008 2.446703 0.065397 -0.023860 72237.600000 0 0 1
21.402265 -7.254750 -28.736796 36.558060 -0.326816 2.475204 0.073258 -0.027785 -163456.000000 0 0 1
21.495065 -8.587950 -28.417256 36.651482 -0.380102 2.458045 0.064951 -0.022657 277100.000000 0 0 1
20.252165 -9.219550 -28.149076 35.882039 -0.427201 2.472668 0.080244 -0.039158 -21882.400000 0 0 1
20.358765 -10.719550 -27.987156 36.230774 -0.484648 2.453516 0.095280 -0.041040 -78145.000000 0 0 1
19.180965 -11.332450 -27.489056 35.383358 -0.533640 2.460511 0.103828 -0.036093 289045.000000 0 0 1
19.380665 -12.653750 -27.045316 35.597425 -0.578415 2.433732 0.109242 -0.034167 -116460.000000 0 0 1
19.328165 -13.723950 -28.158896 36.808262 -0.617439 2.441862 0.101545 -0.033958 625756.000000 0 0 1
18.034365 -13.711250 -28.780286 36.627060 -0.650051 2.474729 0.102940 -0.033656 791812.000000 0 0 1
17.992465 -14.774850 -29.759136 37.784006 -0.687516 2.477720 0.088010 -0.034786 280813.000000 0 0 1
16.659065 -14.874550 -30.570856 37.859661 -0.728868 2.510661 0.090536 -0.035002 970992.000000 0 0 1
15.574265 -15.511650 -29.883406 37.096994 -0.783384 2.507396 0.090039 -0.036468 165862.000000 0 0 1
14.428965 -15.630250 -30.661466 37.317894 -0.825341 2.535059 0.086888 -0.046742 34220.200000 0 0 1
13.231265 -16.316750 -29.927966 36.564817 -0.889444 2.529575 0.090957 -0.048541 759665.000000 0 0 1
13.663365 -17.622250 -29.545076 37.015439 -0.911269 2.495068 0.086244 -0.042252 615250.000000 0 0 1
12.652065 -18.127550 -28.675376 36.207181 -0.961450 2.484842 0.090646 -0.037755 705625.000000 0 0 1
13.182765 -19.447850 -28.072006 36.606579 -0.975090 2.444726 0.086335 -0.034377 449860.000000 0 0 1
14.256965 -19.281750 -27.169176 36.238254 -0.934112 2.418462 0.084234 -0.031449 -212112.000000 0 0 1
14.620265 -20.510250 -26.654546 36.672705 -0.951513 2.384480 0.063563 -0.023307 -41671.300000 0 0 1
15.527965 -20.425550 -25.402246 36.105330 -0.920785 2.351190 0.061325 -0.018731 59171.500000 0 0 1
16.901865 -20.302950 -25.707596 36.861407 -0.876560 2.342577 0.066302 -0.021157 4827.420000 0 0 1
17.679765 -20.258750 -24.534566 36.399670 -0.853272 2.310451 0.066921 -0.021444 19196.000000 0 0 1
19.177165 -20.579750 -24.798066 37.499784 -0.820663 2.293328 0.033786 -0.015742 192778.000000 0 0 1
19.601365 -21.928350 -25.002466 38.602970 -0.841371 2.275335 0.048052 -0.016908 263945.000000 0 0 1
19.178065 -22.842850 -24.026566 38.299737 -0.872391 2.248916 0.045998 -0.017231 -715238.000000 0 0 1
19.805165 -24.243550 -24.113966 39.515536 -0.885820 2.227160 0.050219 -0.017164 -193865.000000 0 0 1
21.146565 -24.356550 -23.682366 40.015912 -0.855826 2.204116 0.070291 -0.017335 101616.000000 0 0 1
21.503265 -25.685410 -23.394466 40.858680 -0.873793 2.180434 0.071511 -0.028162 -76785.400000 0 0 1
21.282065 -25.968790 -21.875366 40.072883 -0.884263 2.148247 0.080934 -0.026948 354688.000000 0 0 1
19.928265 -26.094640 -21.444766 39.216629 -0.918590 2.149368 0.061721 -0.021281 433221.000000 0 0 1
19.877265 -26.105200 -20.016366 38.434906 -0.920020 2.118568 0.071630 -0.018478 549785.000000 0 0 1
18.602365 -26.810210 -19.436666 37.981829 -0.964207 2.108000 0.062335 -0.016063 -348409.000000 0 0 1
18.607165 -28.212170 -19.698066 39.117348 -0.987741 2.098515 0.072440 -0.017983 330308.000000 0 0 1
17.455365 -28.859900 -19.147366 38.784084 -1.026832 2.087126 0.057066 -0.008437 1028940.000000 0 0 1
16.111065 -28.502560 -19.872766 38.299989 -1.056320 2.116326 0.051536 -0.012785 -407438.000000 0 0 1
15.407765 -27.527360 -19.150666 36.903967 -1.060517 2.116398 0.049403 -0.005857 -574303.000000 0 0 1
14.215565 -27.158030 -19.811166 36.498262 -1.088574 2.144561 0.041767 0.000567 102246.000000 0 0 1
13.400965 -26.171360 -18.928466 34.968740 -1.097558 2.142775 0.042942 -0.007674 -163108.000000 0 0 1
12.749465 -26.751400 -17.821466 34.580210 -1.126051 2.112231 0.039776 -0.006459 -528137.000000 0 0 1
11.907865 -25.825370 -17.243366 33.257791 -1.138757 2.115864 0.051109 -0.010641 -224531.000000 0 0 1
10.396065 -26.005080 -17.461866 33.003925 -1.190488 2.128318 0.062144 -0.013295 -242385.000000 0 0 1
9.779165 -27.178340 -16.841666 33.435549 -1.225405 2.098679 0.072787 -0.001607 201602.000000 0 0 1
8.386465 -27.252010 -17.072566 33.233678 -1.272256 2.110303 0.076017 0.003314 439960.000000 0 0 1
7.876765 -27.713950 -18.454166 34.214948 -1.293882 2.140473 0.079933 -0.002392 -338724.000000 0 0 1
7.735865 -26.715460 -19.438166 33.932310 -1.288940 2.180777 0.080224 -0.015332 -162041.000000 0 0 1
7.336265 -27.500900 -20.560166 35.111831 -1.310103 2.196370 0.071576 -0.016695 -16130.400000 0 0 1
7.020465 -26.561950 -21.760666 35.047834 -1.312400 2.240667 0.072169 -0.008185 -301720.000000 0 0 1
5.792665 -25.873110 -21.664466 34.239186 -1.350541 2.255881 0.074317 -0.017297 -11232.500000 0 0 1
5.602265 -25.083060 -22.808066 34.362088 -1.351054 2.296627 0.058439 -0.015595 -298390.000000 0 0 1
4.104765 -24.765250 -22.885966 33.969606 -1.406543 2.310026 0.031836 -0.010091 -561320.000000 0 0 1
3.277265 -25.832330 -23.240066 34.902011 -1.444604 2.299450 0.029480 -0.010475 -670710.000000 0 0 1
2.069665 -25.287540 -23.709866 34.726084 -1.489133 2.322341 0.023620 -0.013238 -509119.000000 0 0 1
1.258765 -26.326980 -24.458866 35.957342 -1.523020 2.318858 0.011404 -0.014965 -592920.000000 0 0 1
1.877865 -26.856700 -25.607906 37.156070 -1.500988 2.331179 0.012449 -0.014469 -121524.000000 0 0 1
1.191365 -27.966000 -26.116146 38.282758 -1.528222 2.321551 0.011936 -0.018766 -205860.000000 0 0 1
1.880365 -28.545780 -27.399706 39.612387 -1.505019 2.334630 0.018368 -0.020717 -1165800.000000 0 0 1
1.936265 -27.628680 -28.464546 39.715531 -1.500829 2.369870 0.030292 -0.021688 70242.700000 0 0 1
2.551865 -28.265860 -29.562406 40.980564 -1.480760 2.376584 0.032389 -0.018879 207070.000000 0 0 1
4.032965 -28.722150 -29.515956 41.381377 -1.431295 2.364944 0.032474 -0.018635 -417471.000000 0 0 1
4.570365 -29.471400 -28.374256 41.164912 -1.416944 2.331295 0.019461 -0.017866 -282436.000000 0 0 1
5.628465 -30.320190 -28.748656 42.160156 -1.387251 2.321142 0.025675 -0.013038 31410.100000 0 0 1
6.021365 -31.269380 -27.571666 42.121582 -1.380561 2.284414 0.040660 -0.019527 -39483.100000 0 0 1
5.173565 -32.384390 -27.345826 42.700218 -1.412380 2.265834 0.034808 -0.027186 -83808.600000 0 0 1
5.751265 -33.457910 -26.640606 43.153570 -1.400564 2.236159 0.063925 -0.037005 4911.400000 0 0 1
4.687565 33.470916 -26.205706 42.766979 1.431652 2.230339 0.075247 -0.040414 34322.400000 0 0 1
4.129765 32.784886 -27.306286 42.866501 1.445491 2.261406 0.072579 -0.034157 475553.000000 0 0 1
2.976365 32.049084 -26.889346 41.940904 1.478193 2.266759 0.048587 -0.028323 143053.000000 0 0 1
1.813565 32.170807 -27.888166 42.614547 1.514483 2.284223 0.052832 -0.012647 -388637.000000 0 0 1
1.813665 31.391529 -29.039016 42.801658 1.513085 2.316454 0.065312 -0.022343 255109.000000 0 0 1
0.742465 31.825919 -29.875076 43.657308 1.547472 2.324452 0.065570 -0.029526 431295.000000 0 0 1
0.266765 30.825549 -30.932976 43.670752 1.562143 2.357915 0.073964 -0.031162 6604.730000 0 0 1
1.194665 30.749179 -31.989926 44.388000 1.531964 2.375591 0.074918 -0.032840 42435.800000 0 0 1
0.710065 29.903189 -32.970196 44.516724 1.547055 2.404796 0.095093 -0.037113 -633368.000000 0 0 1
1.771465 29.326339 -33.880036 44.844499 1.510464 2.427214 0.077518 -0.024915 -184984.000000 0 0 1
2.528465 30.307199 33.257942 45.066730 1.487561 0.740738 0.082444 -0.025780 516080.000000 0 0 1
3.558165 29.900559 32.358082 44.201238 1.452353 0.749451 0.074857 -0.034064 144658.000000 0 0 1
3.029965 29.103199 31.093057 42.696078 1.467059 0.755044 0.074411 -0.024843 41689.000000 0 0 1
2.690365 27.700959 31.278007 41.867588 1.473978 0.727153 0.075122 -0.028045 550744.000000 0 0 1
3.849465 26.858269 31.317357 41.436238 1.428441 0.713927 0.078223 -0.024682 156154.000000 0 0 1
3.547465 25.395259 31.578947 40.678417 1.432004 0.682010 0.083997 -0.025352 -83795.000000 0 0 1
2.700565 24.768089 30.640137 39.491382 1.462191 0.682705 0.075917 -0.011018 351385.000000 0 0 1
3.093665 23.400149 30.499787 38.566498 1.439352 0.658622 0.083625 -0.010188 184661.000000 0 0 1
2.094765 22.608649 29.625407 37.325645 1.478407 0.653927 0.076773 -0.001929 -102557.000000 0 0 1
0.817265 22.416249 30.162047 37.588632 1.534354 0.639449 0.075362 -0.006898 -374236.000000 0 0 1
-0.017635 21.830649 29.190147 36.450545 -1.569989 0.642141 0.085765 -0.003990 639397.000000 0 0 1
-1.428735 21.352349 29.691987 36.600248 -1.503984 0.624508 0.092025 -0.007799 1033900.000000 0 0 1
-2.317435 22.470849 29.952907 37.516479 -1.468029 0.646174 0.097772 -0.012262 583217.000000 0 0 1
-3.665035 22.032549 29.991507 37.394601 -1.405959 0.640114 0.074627 -0.018025 -103235.000000 0 0 1
-4.602035 23.159379 30.380167 38.477138 -1.374640 0.660698 0.055917 -0.027780 -327588.000000 0 0 1
-4.423535 23.547509 31.738017 39.766249 -1.385105 0.646637 0.067468 -0.019694 -14779.500000 0 0 1
-5.140635 24.742649 31.911762 40.706085 -1.365947 0.669784 0.063928 -0.023988 190551.000000 0 0 1
-5.355135 25.063179 33.406840 42.105313 -1.360296 0.654403 0.073588 -0.019584 336924.000000 0 0 1
-6.483135 25.900149 33.647814 42.953744 -1.325523 0.670759 0.061927 -0.020075 264420.000000 0 0 1
-6.640135 26.236719 -32.825926 42.544074 -1.322916 2.452109 0.063814 -0.013329 -334729.000000 0 0 1
-8.082735 26.608739 -32.484526 42.762133 -1.275891 2.433581 0.077902 -0.005960 -606601.000000 0 0 1
-8.615335 27.766919 -33.072446 44.034219 -1.269941 2.420466 0.087818 -0.008784 1264060.000000 0 0 1
-9.882535 28.262929 -32.521066 44.204947 -1.234421 2.397479 0.088604 -0.015386 1380210.000000 0 0 1
-9.798735 28.662519 -30.950486 43.306902 -1.241386 2.366960 0.085068 -0.007421 -453285.000000 0 0 1
-9.149635 29.909789 -30.740546 43.855358 -1.273928 2.347529 0.093512 -0.007745 149074.000000 0 0 1
-9.196235 30.159029 -29.316996 43.053734 -1.274828 2.319841 0.105859 -0.015108 -2243.990000 0 0 1
-8.447535 31.429709 -28.892576 43.519747 -1.308226 2.296813 0.103356 -0.021918 -319275.000000 0 0 1
-7.054135 31.346739 -28.771366 43.129692 -1.349448 2.301091 0.086134 -0.029903 -657474.000000 0 0 1
-6.660235 32.633795 -28.414416 43.780159 -1.369471 2.277098 0.107239 -0.025350 309445.000000 0 0 1
-5.121435 32.495350 -28.143506 43.292422 -1.414477 2.278485 0.114845 -0.029893 159683.000000 0 0 1
-4.406435 33.658619 -27.804376 43.879410 -1.440621 2.257064 0.114422 -0.036115 99762.300000 0 0 1
-4.090735 -33.328430 -28.769576 44.217721 1.448667 2.279216 0.114363 -0.041373 -290442.000000 0 0 1
-3.115835 -33.636860 -29.941856 45.140464 1.478428 2.296022 0.102757 -0.038912 25310.100000 0 0 1
-3.620835 33.353792 -30.895736 45.608468 -1.462661 2.315035 0.099410 -0.036131 647114.000000 0 0 1
-4.495635 33.919548 -31.912226 46.788210 -1.439026 2.321368 0.106894 -0.033590 171498.000000 0 0 1
-3.938935 -33.109700 -32.954816 46.880564 1.452387 2.350337 0.080734 -0.039908 -510602.000000 0 0 1
-3.401335 -31.875160 -32.491276 45.642939 1.464491 2.362936 0.089290 -0.045230 307274.000000 0 0 1
-2.936535 -31.056580 -33.520616 45.790458 1.476522 2.392113 0.061261 -0.041342 -199929.000000 0 0 1
32.751445 17.764650 12.817417 39.402109 0.496996 1.239470 0.116727 -0.028400 1039560.000000 0 0 1
34.158115 17.630550 13.127917 40.619643 0.476480 1.241696 0.112957 -0.043372 1114810.000000 0 0 1
34.430275 16.655250 14.133917 40.775101 0.450554 1.216819 0.121452 -0.018905 10636.200000 0 0 1
35.911865 16.641650 14.582517 42.181233 0.433943 1.217800 0.122829 -0.050486 564257.000000 0 0 1
37.015355 16.269250 13.766317 42.712253 0.414111 1.242634 0.121936 -0.008095 368165.000000 0 0 1
37.054885 14.883250 13.449817 42.136365 0.381932 1.245914 0.148223 -0.023894 -622058.000000 0 0 1
-36.140004 14.341550 12.737417 40.914811 -0.377773 1.254219 0.147034 -0.020026 188869.000000 0 0 1
-35.225161 13.642450 13.555417 40.133250 -0.369504 1.226260 0.126249 -0.025820 -150175.000000 0 0 1
-35.638364 12.313650 13.800017 40.151705 -0.332675 1.219946 0.117631 -0.023685 -185854.000000 0 0 1
-34.920958 11.649950 14.993217 39.749103 -0.321999 1.184029 0.137498 -0.034043 38890.000000 0 0 1
-35.376619 12.146650 16.239917 40.777214 -0.330741 1.161178 0.149671 -0.031467 298496.000000 0 0 1
-34.701849 11.561750 17.335917 40.477480 -0.321607 1.128202 0.135959 -0.018823 -66678.800000 0 0 1
-34.911356 12.337450 18.606817 41.439463 -0.339695 1.105137 0.142294 -0.025092 -307976.000000 0 0 1
-36.203484 12.266150 19.137517 42.748044 -0.326673 1.106625 0.150074 -0.043157 -116004.000000 0 0 1
-36.247404 13.070150 20.256517 43.531938 -0.346070 1.086794 0.167438 -0.045194 -86791.800000 0 0 1
36.860855 12.969150 20.987317 44.355259 0.338314 1.077917 0.173283 -0.060937 -104982.000000 0 0 1
36.773435 11.681550 21.578317 44.208234 0.307581 1.060878 0.141101 -0.044233 -415049.000000 0 0 1
35.681805 11.499350 22.418717 43.680947 0.311765 1.031843 0.148532 -0.051757 -435469.000000 0 0 1
35.605275 10.202650 23.187077 43.697486 0.279071 1.011456 0.117709 -0.043195 -1625.400000 0 0 1
36.508745 10.276850 24.311767 45.050684 0.274390 1.000771 0.106395 -0.029640 299837.000000 0 0 1
36.136655 11.106350 25.397667 45.543939 0.298180 0.979242 0.104229 -0.028639 -1010190.000000 0 0 1
-37.074364 11.467350 26.194117 46.820299 -0.299973 0.977061 0.094971 -0.031059 309214.000000 0 0 1
-36.075304 12.242050 25.551357 45.871202 -0.327153 0.979998 0.121060 -0.039775 -28264.900000 0 0 1
-35.154144 11.591950 24.699867 44.500232 -0.318519 0.982373 0.109745 -0.041329 11909.300000 0 0 1
-34.039164 12.609350 24.165377 43.607635 -0.354764 0.983449 0.121165 -0.045254 1293940.000000 0 0 1
-33.108964 13.039850 25.181317 43.592888 -0.375190 0.954953 0.108103 -0.038101 142555.000000 0 0 1
-33.708024 13.883550 26.117697 44.845490 -0.390703 0.949127 0.093164 -0.029522 -1057790.000000 0 0 1
-32.858314 14.546250 27.232147 45.087160 -0.416763 0.922300 0.102587 -0.018524 -378586.000000 0 0 1
-32.068264 15.621850 26.734807 44.577636 -0.453310 0.927625 0.114099 -0.019838 -24980.100000 0 0 1
-31.429604 16.292850 27.788307 45.005188 -0.478253 0.905304 0.096914 -0.021818 -337321.000000 0 0 1
-30.770774 17.568650 27.309677 44.736076 -0.518787 0.914152 0.094636 -0.013102 -147019.000000 0 0 1
-31.638824 18.579350 26.805097 45.439197 -0.530979 0.939847 0.084739 -0.020018 414203.000000 0 0 1
-30.858564 19.598450 26.195717 44.972945 -0.565833 0.949023 0.092542 -0.025041 135485.000000 0 0 1
-31.642684 20.652150 25.371237 45.513409 -0.578248 0.979491 0.098140 -0.018183 -246662.000000 0 0 1
-32.460824 21.517450 26.104237 46.884293 -0.585373 0.980292 0.100192 -0.028748 273466.000000 0 0 1
-33.307864 22.262550 25.272587 47.368118 -0.589193 1.008021 0.106832 -0.026552 -304143.000000 0 0 1
-33.714164 23.636750 25.845917 48.614321 -0.611459 1.010246 0.111401 -0.022783 -250035.000000 0 0 1
-34.585642 24.189050 24.893167 48.999455 -0.610320 1.037901 0.127700 -0.025790 -160872.000000 0 0 1
-34.860454 25.535250 25.057027 49.951525 -0.632206 1.045318 0.113592 -0.026215 85926.600000 0 0 1
-36.125844 25.890950 24.241997 50.626992 -0.621838 1.071469 0.112269 -0.018603 -21559.900000 0 0 1
-35.871755 25.844850 22.877337 49.780635 -0.624339 1.093293 0.122125 -0.026978 -451283.000000 0 0 1
-36.998624 26.183550 22.130517 50.440423 -0.615868 1.116594 0.129278 -0.033599 -412900.000000 0 0 1
-36.856864 26.150950 20.595917 49.663794 -0.617092 1.143176 0.168985 -0.036385 121761.000000 0 0 1
-36.540354 24.833450 20.071117 48.525740 -0.596915 1.144372 0.142765 -0.034578 205140.000000 0 0 1
-36.150584 24.746750 18.724017 47.642997 -0.600279 1.166897 0.147639 -0.035541 -20134.800000 0 0 1
-36.133694 23.388750 18.098517 46.692974 -0.574463 1.172762 0.150411 -0.037711 362615.000000 0 0 1
37.079595 23.087450 17.478417 47.047017 0.556905 1.190162 0.126938 -0.032760 -48751.700000 0 0 1
37.104645 22.278650 16.283417 46.241136 0.540734 1.210938 0.118253 -0.038630 83510.100000 0 0 1
35.748625 22.075950 15.557017 44.803265 0.553212 1.216181 0.088464 -0.024776 315553.000000 0 0 1
34.821885 21.190750 16.170117 43.852985 0.546680 1.193149 0.099557 -0.042221 778918.000000 0 0 1
33.739445 20.897350 15.237017 42.511365 0.554544 1.204219 0.089858 -0.035545 711407.000000 0 0 1
32.589385 20.045250 15.873417 41.422765 0.551438 1.177532 0.090604 -0.041705 855265.000000 0 0 1
31.719795 20.685850 16.830617 41.440554 0.577880 1.152572 0.077521 -0.041865 697245.000000 0 0 1
30.768165 21.615950 16.306317 40.985672 0.612430 1.161620 0.069905 -0.031046 -55523.900000 0 0 1
29.976845 22.248350 17.466017 41.214829 0.638480 1.133182 0.054651 -0.029440 4389.140000 0 0 1
30.734965 23.182550 18.224417 42.593405 0.646230 1.128662 0.016817 -0.015765 -134519.000000 0 0 1
29.913185 23.740850 19.208017 42.747802 0.670862 1.104777 0.018061 -0.009993 397301.000000 0 0 1
30.714475 24.538650 20.344717 44.265470 0.674087 1.093244 0.005669 -0.016241 1076730.000000 0 0 1
31.511785 25.656550 19.862417 45.230154 0.683333 1.116154 0.022752 -0.012072 501756.000000 0 0 1
32.459025 26.056450 20.819517 46.540082 0.676415 1.107001 0.030320 -0.016100 24705.500000 0 0 1
33.376695 27.254450 20.355617 47.656689 0.684764 1.129480 0.059930 -0.018405 749225.000000 0 0 1
34.380635 27.608450 21.330517 48.982094 0.676582 1.120230 0.063113 -0.018994 694717.000000 0 0 1
33.907495 28.473750 22.328417 49.588617 0.698512 1.103725 0.030982 -0.007938 696172.000000 0 0 1
34.982635 28.537450 23.533817 50.911800 0.684277 1.090269 0.021922 -0.013848 919964.000000 0 0 1
36.127465 29.281450 23.217267 51.977289 0.681113 1.107744 0.061492 -0.013840 -498795.000000 0 0 1
36.750735 29.694650 24.421617 53.186504 0.679601 1.093736 0.064795 -0.013541 190383.000000 0 0 1
-36.409834 30.507750 24.259487 53.337806 -0.697427 1.098618 0.062153 -0.016123 -77804.600000 0 0 1
-35.242500 29.917950 23.794937 51.993428 -0.703865 1.095443 0.075645 -0.016592 -279065.000000 0 0 1
-34.145685 30.817450 23.788917 51.783739 -0.734210 1.093488 0.073272 -0.016756 290474.000000 0 0 1
-32.771334 30.117250 23.804677 50.474466 -0.743220 1.079671 0.097358 -0.022966 -54907.900000 0 0 1
-32.272754 29.653050 22.507517 49.268878 -0.743119 1.096368 0.085935 -0.016780 368457.000000 0 0 1
-32.842474 28.417450 22.059317 48.711324 -0.713290 1.100828 0.099353 -0.013600 -68361.300000 0 0 1
-32.345764 27.077850 22.699217 47.903161 -0.696979 1.077131 0.102335 -0.017196 -936009.000000 0 0 1
-30.999244 26.880150 22.380317 46.737289 -0.714351 1.071448 0.095453 -0.017368 -370835.000000 0 0 1
-30.311924 25.965950 23.215847 46.173790 -0.708328 1.043970 0.089860 -0.015458 27013.400000 0 0 1
-30.036604 26.273250 24.665737 46.913536 -0.718664 1.017176 0.078417 -0.020182 -679370.000000 0 0 1
-31.228864 26.557850 25.339937 48.194126 -0.704742 1.017154 0.081089 -0.019477 -228723.000000 0 0 1
-30.873714 26.888050 26.682977 48.868545 -0.716506 0.993196 0.089264 -0.029389 -307243.000000 0 0 1
-32.027504 27.099150 27.648147 50.244850 -0.702238 0.988111 0.081319 -0.025346 -524397.000000 0 0 1
-32.730554 25.998450 28.127727 50.382314 -0.671266 0.978478 0.082868 -0.027664 156098.000000 0 0 1
-33.814544 26.449950 28.922917 51.764451 -0.663797 0.977929 0.079911 -0.021490 31033.500000 0 0 1
-34.586631 25.353850 29.661857 52.142867 -0.632567 0.965680 0.078575 -0.014400 -296970.000000 0 0 1
-33.873174 24.794450 30.758637 52.040854 -0.631868 0.938439 0.085614 -0.014717 -96039.900000 0 0 1
-34.401615 23.593750 31.295107 52.149016 -0.601154 0.927159 0.063446 -0.017211 -391405.000000 0 0 1
-33.366534 22.865950 32.140233 51.664029 -0.600789 0.899373 0.094241 -0.032010 -591679.000000 0 0 1
-32.285004 22.341450 31.384517 50.263802 -0.605341 0.896438 0.089999 -0.024384 342966.000000 0 0 1
-31.347884 21.557450 32.087183 49.769477 -0.602413 0.870144 0.085482 -0.028217 127678.000000 0 0 1
-30.475824 22.131450 33.211958 50.215646 -0.628092 0.848130 0.085765 -0.030346 -936668.000000 0 0 1
-31.219294 22.508650 -33.477546 51.010094 -0.624672 2.286691 0.105864 -0.036114 67745.800000 0 0 1
-30.760844 22.123050 -32.218106 49.735955 -0.623493 2.275467 0.093518 -0.024182 -90795.300000 0 0 1
-29.514064 22.823450 -31.581376 48.881215 -0.658252 2.273239 0.091761 -0.030968 323224.000000 0 0 1
-29.632894 24.164350 -31.129296 49.305753 -0.684095 2.254092 0.082497 -0.032552 -162014.000000 0 0 1
-28.690214 24.332950 -30.096436 48.176927 -0.703406 2.245552 0.089955 -0.020905 -132991.000000 0 0 1
-28.771484 25.596550 -29.223776 48.342639 -0.727067 2.219951 0.073590 -0.010564 -278882.000000 0 0 1
-28.627394 26.896150 -29.847506 49.333601 -0.754228 2.220579 0.064502 -0.006688 545210.000000 0 0 1
-29.649294 27.298750 -30.780876 50.712569 -0.744146 2.223035 0.075828 -0.008366 261833.000000 0 0 1
-29.428254 28.727550 -31.313796 51.689922 -0.773350 2.221568 0.065962 -0.006156 19721.400000 0 0 1
-29.543324 29.708250 -30.301566 51.706605 -0.788182 2.196946 0.059663 -0.006597 46588.300000 0 0 1
-29.229504 30.987150 -30.822196 52.579227 -0.814579 2.197163 0.046467 -0.014026 -16009.100000 0 0 1
-29.580854 32.225950 -29.966746 53.024001 -0.828168 2.171417 0.043914 -0.000641 248283.000000 0 0 1
-28.802734 32.361250 -28.791746 52.017426 -0.843513 2.157359 0.026609 0.003428 305090.000000 0 0 1
-29.370014 33.432250 -28.011056 52.582624 -0.849991 2.132591 0.012177 0.008243 -561822.000000 0 0 1
-28.690824 33.597050 -26.683746 51.613442 -0.864003 2.114130 0.006989 0.011680 1284680.000000 0 0 1
-27.340314 -33.832748 -26.711986 51.045840 0.891135 2.121508 0.010094 0.006291 1103750.000000 0 0 1
-27.283184 -32.431348 -26.980446 50.240511 0.871398 2.137704 0.030141 0.004949 -368877.000000 0 0 1
-27.812434 -31.378848 -25.932726 49.301824 0.845578 2.124686 0.032586 -0.002081 174267.000000 0 0 1
-29.216404 -31.306948 -25.789346 49.988135 0.819926 2.112865 0.013335 0.000033 -350253.000000 0 0 1
-29.515924 -30.320248 -24.889366 49.091626 0.798839 2.102495 0.021586 -0.002638 -508144.000000 0 0 1
-31.011694 -30.037348 -24.935166 49.857095 0.769439 2.094548 0.014001 -0.005370 -443580.000000 0 0 1
-31.390754 -29.295748 -26.060656 50.227264 0.750890 2.116307 0.009665 -0.005260 1263810.000000 0 0 1
-32.832064 -29.296448 -26.233526 51.229134 0.728551 2.108403 0.013951 -0.010596 1087270.000000 0 0 1
-33.366964 -28.336248 -27.308086 51.594852 0.704047 2.128547 0.028590 -0.018077 431115.000000 0 0 1
-34.782716 -28.445748 -27.368616 52.612157 0.685508 2.117876 0.040614 -0.024839 121584.000000 0 0 1
-35.446005 -27.488548 -28.120816 52.941664 0.659625 2.130773 0.048109 -0.032403 -66349.700000 0 0 1
-36.936554 -27.758548 -28.358136 54.212820 0.644473 2.121268 0.047813 -0.037690 75336.200000 0 0 1
36.656955 -27.547948 -27.286126 53.358734 -0.644465 2.107576 0.051833 -0.032346 -464183.000000 0 0 1
35.303575 -27.504248 -27.638546 52.599575 -0.661853 2.124042 0.056489 -0.034096 -46846.100000 0 0 1
34.285465 -27.007948 -26.604356 51.114716 -0.667219 2.118213 0.066581 -0.028854 34229.100000 0 0 1
34.116225 -27.795548 -25.420406 50.820334 -0.683659 2.094628 0.071342 -0.027209 -232719.000000 0 0 1
33.058405 -27.316548 -24.656566 49.467143 -0.690580 2.092599 0.071924 -0.019446 -308651.000000 0 0 1
32.905235 -27.993648 -23.290366 49.079935 -0.704921 2.065237 0.066570 -0.013065 176393.000000 0 0 1
32.322705 -29.309148 -23.440466 49.530182 -0.736541 2.063780 0.075887 -0.027501 216265.000000 0 0 1
31.913785 -29.982148 -22.237766 49.111477 -0.754200 2.040702 0.076885 -0.028093 775567.000000 0 0 1
32.986355 -30.079048 -21.023266 49.343961 -0.739331 2.010925 0.068772 -0.016056 -82557.100000 0 0 1
34.198495 -30.635648 -21.409566 50.660138 -0.730500 2.007121 0.059780 -0.021113 -1097940.000000 0 0 1
35.229265 -30.412448 -20.525966 50.865837 -0.712149 1.986170 0.049136 -0.014156 -146162.000000 0 0 1
36.036275 -29.106848 -20.739066 50.753627 -0.679424 1.991740 0.040401 -0.010485 -548157.000000 0 0 1
35.293765 -27.993848 -20.342766 49.428064 -0.670561 1.994965 0.042451 -0.002861 17890.100000 0 0 1
35.838265 -26.771948 -20.886466 49.369656 -0.641592 2.007619 0.023562 0.002444 631308.000000 0 0 1
34.902615 -25.560948 -20.512766 47.878264 -0.632109 2.013557 0.036895 0.011352 809437.000000 0 0 1
33.657415 -25.531448 -21.204966 47.268669 -0.648962 2.036000 0.052849 0.000579 -222820.000000 0 0 1
32.737465 -24.862848 -20.406966 45.894957 -0.649529 2.031574 0.053265 -0.010533 -1098010.000000 0 0 1
31.405245 -24.747748 -21.115266 45.217197 -0.667389 2.056662 0.065461 -0.015993 -357793.000000 0 0 1
30.683455 -25.963448 -21.355566 45.515220 -0.702267 2.059177 0.085744 -0.020002 639551.000000 0 0 1
29.436145 -25.815048 -22.045466 44.932237 -0.719953 2.083618 0.091786 -0.020863 805628.000000 0 0 1
28.950065 -27.202448 -22.606566 45.707070 -0.754286 2.088167 0.082301 -0.023226 -34760.100000 0 0 1
28.531165 -28.061148 -21.575666 45.463884 -0.777093 2.065269 0.081566 -0.023682 -208302.000000 0 0 1
28.134265 -29.292248 -22.022066 46.201126 -0.805560 2.067644 0.071589 -0.029400 -420841.000000 0 0 1
27.286565 -30.033348 -20.997666 45.688736 -0.833282 2.048319 0.075666 -0.016858 -63692.200000 0 0 1
27.981265 -30.500648 -19.822166 45.892908 -0.828451 2.017419 0.085554 -0.019162 391429.000000 0 0 1
28.809565 -31.644648 -20.027066 47.248896 -0.832260 2.008503 0.084177 -0.014891 178903.000000 0 0 1
29.613085 -32.169448 -18.793266 47.591964 -0.826751 1.976737 0.057283 -0.010793 103374.000000 0 0 1
28.900865 -32.807248 -17.718666 47.175488 -0.848618 1.955830 0.063681 -0.011636 52126.000000 0 0 1
28.517565 -31.948148 -16.642766 45.944721 -0.842073 1.941460 0.049766 -0.012690 -98997.900000 0 0 1
27.975365 -32.807348 -15.504066 45.818328 -0.864727 1.915993 0.062039 -0.010809 -67910.700000 0 0 1
26.710465 -33.371648 -15.792166 45.568721 -0.895815 1.924695 0.065383 -0.011467 62390.400000 0 0 1
26.141565 -33.949048 -14.650966 45.283221 -0.914603 1.900265 0.071363 -0.008283 473353.000000 0 0 1
24.590965 33.866050 -14.592566 44.323447 0.942752 1.906283 0.086849 -0.015760 949325.000000 0 0 1
23.887665 -32.853748 -14.620266 43.171073 -0.942119 1.916287 0.091352 -0.016184 -359581.000000 0 0 1
22.599365 -33.023448 -14.120466 42.434267 -0.970656 1.910026 0.097319 -0.026796 -473373.000000 0 0 1
-1.070494 -7.055750 -28.780836 29.652421 1.420225 2.898535 0.062945 -0.014286 232790.000000 0 0 1
-0.577194 -8.392750 -28.714576 29.921535 1.502132 2.856596 0.069386 -0.009954 -48579.500000 0 0 1
-0.940994 -9.058350 -29.903656 31.259683 1.467286 2.845969 0.066017 -0.022402 -262454.000000 0 0 1
-0.593494 -10.529150 -29.933676 31.737047 1.514489 2.802863 0.077218 -0.015641 704032.000000 0 0 1
0.811206 -10.784750 -29.825076 31.725447 -1.495720 2.793718 0.066542 -0.017193 433335.000000 0 0 1
1.070106 -12.144250 -29.525576 31.943505 -1.482907 2.750010 0.078642 -0.021661 277868.000000 0 0 1
2.473706 -12.407550 -28.911346 31.558397 -1.374006 2.729094 0.063472 -0.014278 -248316.000000 0 0 1
3.476006 -12.248750 -29.891496 32.490245 -1.294282 2.738914 0.079840 -0.021241 635431.000000 0 0 1
4.807206 -12.511550 -29.385456 32.297881 -1.203966 2.713661 0.069297 -0.025692 1496100.000000 0 0 1
5.283506 -13.959250 -28.890876 32.518591 -1.208965 2.664735 0.057787 -0.029547 -739222.000000 0 0 1
4.761206 -14.246050 -27.620796 31.440855 -1.248255 2.643510 0.052840 -0.022169 -300625.000000 0 0 1
5.489106 -15.196650 -26.900496 31.380011 -1.224174 2.600700 0.058218 -0.026408 -256432.000000 0 0 1
5.419406 -16.713450 -27.340556 32.499467 -1.257239 2.570409 0.021885 -0.018766 -206754.000000 0 0 1
5.887006 -17.074750 -28.638376 33.857946 -1.238781 2.578933 0.045231 -0.034194 -56656.100000 0 0 1
5.286906 -18.297250 -29.067236 34.751186 -1.289512 2.561549 0.021379 -0.024631 -286274.000000 0 0 1
5.650106 -18.789350 -30.463336 36.235041 -1.278690 2.569398 0.052236 -0.044438 -164437.000000 0 0 1
6.990006 -19.136950 -30.709916 36.853520 -1.220590 2.555841 0.058782 -0.042576 -359525.000000 0 0 1
7.019406 -19.815250 -31.985586 38.275238 -1.230347 2.560153 0.068235 -0.043374 -86794.300000 0 0 1
8.470406 -19.933650 -32.462056 39.024136 -1.168985 2.553221 0.093392 -0.043373 -113787.000000 0 0 1
9.130206 -18.704150 -32.628626 38.701849 -1.116683 2.573775 0.095511 -0.047599 94494.400000 0 0 1
10.258506 -18.818450 -33.492876 39.763598 -1.071700 2.572332 0.090890 -0.050420 523812.000000 0 0 1
10.860606 -17.374650 -33.781526 39.509780 -1.012137 2.596380 0.100291 -0.042091 142065.000000 0 0 1
9.951206 -16.686550 33.222803 38.486648 -1.033057 0.529164 0.110759 -0.044984 72445.500000 0 0 1
10.354806 -15.391150 32.854567 37.729724 -0.978576 0.513995 0.107415 -0.040702 -139119.000000 0 0 1
9.342406 -14.663450 31.967448 36.389766 -1.003528 0.498138 0.135696 -0.049345 -43651.100000 0 0 1
9.457706 -15.232150 30.655827 35.514030 -1.015148 0.529216 0.137603 -0.051049 349547.000000 0 0 1
8.407206 -14.860150 29.746467 34.298068 -1.055938 0.521058 0.134126 -0.037478 447227.000000 0 0 1
8.386606 -15.678050 28.442967 33.543088 -1.079599 0.558685 0.111887 -0.017120 -205347.000000 0 0 1
8.136306 -17.061150 28.599447 34.281346 -1.125806 0.584013 0.110678 -0.023855 197634.000000 0 0 1
7.981506 -17.694050 27.326597 33.519051 -1.147041 0.617626 0.097340 -0.017532 66950.300000 0 0 1
7.518606 -19.184950 27.550267 34.403618 -1.197291 0.642174 0.092490 -0.026361 -48728.300000 0 0 1
8.333906 -19.796350 28.516747 35.700901 -1.172334 0.645551 0.106158 -0.024663 392755.000000 0 0 1
7.701406 -20.938750 29.099847 36.668024 -1.218347 0.654089 0.090066 -0.026006 -357.222000 0 0 1
8.141806 -21.028050 30.572667 37.988891 -1.201383 0.635493 0.100336 -0.027608 -106939.000000 0 0 1
7.521206 -20.195250 31.581657 38.233725 -1.214286 0.598794 0.127085 -0.043067 103415.000000 0 0 1
7.661406 -18.804850 31.374317 37.372012 -1.183913 0.574409 0.115762 -0.038218 -280288.000000 0 0 1
6.956006 -17.854950 32.355903 37.604384 -1.199301 0.534685 0.116034 -0.034350 377217.000000 0 0 1
5.552206 -18.062050 32.451132 37.551839 -1.272568 0.527300 0.136975 -0.037960 -100500.000000 0 0 1
4.937906 -17.247350 33.396190 37.909887 -1.291956 0.492960 0.126965 -0.038143 305443.000000 0 0 1
3.499206 -17.693050 33.769857 38.284353 -1.375543 0.490537 0.126746 -0.045846 262881.000000 0 0 1
3.484806 -18.770650 -33.183466 38.283463 -1.387234 2.619512 0.112654 -0.044824 659429.000000 0 0 1
2.122706 -19.155450 -32.927096 38.152729 -1.460432 2.612041 0.085900 -0.048023 714239.000000 0 0 1
1.919106 -20.243750 -31.838016 37.777660 -1.476279 2.573212 0.039903 -0.019115 -140514.000000 0 0 1
0.622906 -20.773850 -32.074636 38.219407 -1.540820 2.566651 0.063000 -0.026889 250614.000000 0 0 1
0.113106 -21.515250 -30.967386 37.708059 -1.565539 2.534378 0.063564 -0.025231 -217364.000000 0 0 1
-0.449494 -20.779450 -29.761436 36.300560 1.549168 2.531966 0.067927 -0.025663 -368534.000000 0 0 1
-1.601694 -20.147650 -30.319576 36.438577 1.491465 2.553632 0.091791 -0.037315 -67619.700000 0 0 1
-2.129694 -19.132650 -29.462616 35.194312 1.459941 2.562832 0.105016 -0.027296 117688.000000 0 0 1
-1.772994 -17.685650 -29.820806 34.716079 1.470880 2.604092 0.088704 -0.019376 3505.330000 0 0 1
-2.643994 -16.750550 -29.229866 33.792849 1.414243 2.615891 0.091567 -0.019327 -57700.300000 0 0 1
-2.478994 -15.514950 -29.886616 33.764906 1.412355 2.657588 0.096441 -0.015735 123866.000000 0 0 1
-3.542494 -14.568750 -29.331656 32.941520 1.332268 2.669055 0.093809 0.000707 9536.900000 0 0 1
-3.318694 -14.172350 -27.995576 31.553470 1.340774 2.662129 0.079210 -0.012990 -422797.000000 0 0 1
-4.329594 -13.317750 -27.568616 30.921455 1.256474 2.671595 0.067017 -0.011520 -435493.000000 0 0 1
-4.305394 -12.938150 -26.060746 29.412490 1.249555 2.659536 0.055114 -0.013396 158352.000000 0 0 1
-4.970794 -13.921950 -25.190426 29.207653 1.227857 2.610906 0.065817 -0.011522 444886.000000 0 0 1
-4.778394 -13.763550 -23.764466 27.875046 1.236638 2.591614 0.053231 -0.008341 -504729.000000 0 0 1
-5.708794 -12.695350 -23.213666 27.067259 1.148212 2.601438 0.052897 -0.010431 -969046.000000 0 0 1
-7.016894 -13.050650 -23.481066 27.765387 1.077472 2.578664 0.061589 -0.016403 -1190930.000000 0 0 1
-7.947494 -11.998350 -23.364866 27.441574 0.985766 2.589522 0.043964 -0.018588 413670.000000 0 0 1
-9.383694 -12.496350 -23.695466 28.384636 0.926710 2.558564 0.083072 -0.029354 125463.000000 0 0 1
-9.996494 -13.309450 -22.741366 28.182283 0.926603 2.509746 0.079630 -0.029192 -273323.000000 0 0 1
-10.948794 -14.147550 -23.366266 29.428075 0.912174 2.488178 0.076334 -0.023636 -61533.200000 0 0 1
-11.717494 -15.046750 -22.354066 29.383815 0.909154 2.435281 0.082339 -0.026838 -182740.000000 0 0 1
-11.002294 -16.151950 -21.896266 29.349317 0.972817 2.412917 0.086037 -0.025448 -649797.000000 0 0 1
-11.794094 -17.257750 -21.569366 30.036113 0.971293 2.371885 0.088913 -0.017558 62585.100000 0 0 1
-12.519194 -18.082250 -22.669266 31.584705 0.965225 2.371332 0.075638 -0.013035 225786.000000 0 0 1
-13.708894 -17.401250 -22.992866 31.928187 0.903532 2.374805 0.066131 -0.014931 -619765.000000 0 0 1
-14.239394 -17.930650 -24.208866 33.321730 0.899641 2.384039 0.045350 -0.016901 -198601.000000 0 0 1
-15.506594 -17.154450 -24.598466 33.761133 0.835809 2.387077 0.060187 -0.021236 -703570.000000 0 0 1
-16.650394 -17.808350 -24.133666 34.304617 0.818990 2.351122 0.065309 -0.017483 1075990.000000 0 0 1
-17.930894 -17.609750 -24.808766 35.314234 0.776362 2.349721 0.051804 -0.023838 1820070.000000 0 0 1
-18.608394 -16.204050 -24.746366 34.946046 0.716442 2.357643 0.066582 -0.022866 -525366.000000 0 0 1
-18.894094 -15.846350 -23.430566 34.015952 0.697893 2.330644 0.052944 -0.016613 275920.000000 0 0 1
-19.637294 -14.605150 -23.358266 33.831085 0.639486 2.332891 0.062006 -0.023709 183167.000000 0 0 1
-20.452794 -14.623650 -22.022666 33.424029 0.620719 2.290135 0.049809 -0.028505 43498.200000 0 0 1
-19.658894 -14.760050 -20.832166 32.222823 0.644018 2.273789 0.061539 -0.016997 -42742.400000 0 0 1
-20.410794 -14.654450 -19.615066 31.876389 0.622688 2.233623 0.054654 -0.020423 64831.800000 0 0 1
-20.893594 -13.289750 -19.128166 31.289718 0.566519 2.228529 0.062561 -0.028456 -111959.000000 0 0 1
-22.143294 -12.863650 -19.631266 32.267407 0.526278 2.224831 0.066580 -0.035244 -310249.000000 0 0 1
-22.687994 -11.953950 -18.744266 31.764595 0.484923 2.201978 0.075429 -0.037210 -834515.000000 0 0 1
-24.186894 -11.745850 -18.860866 32.843615 0.452085 2.182500 0.100850 -0.037415 -734174.000000 0 0 1
-24.518394 -11.117550 -20.079366 33.584706 0.425709 2.211640 0.090599 -0.048990 -176909.000000 0 0 1
-25.807164 -10.554050 -20.023466 34.326911 0.388205 2.193603 0.098936 -0.038689 -294707.000000 0 0 1
-26.034544 -9.524750 -21.142466 34.864340 0.350725 2.222348 0.097922 -0.034658 -213975.000000 0 0 1
-26.171194 -10.102850 -22.420266 35.911938 0.368405 2.245047 0.075182 -0.035460 453122.000000 0 0 1
-26.847264 -9.139850 -23.249166 36.672007 0.328132 2.257480 0.059878 -0.034956 -268770.000000 0 0 1
-27.074744 -9.413850 -24.747066 37.869243 0.334623 2.282979 0.060851 -0.022024 392818.000000 0 0 1
-25.937524 -9.554850 -25.604086 37.677838 0.352954 2.317949 0.044676 -0.029293 427797.000000 0 0 1
-25.166474 -10.749950 -25.479746 37.391580 0.403693 2.320511 0.049415 -0.020594 -93040.200000 0 0 1
-23.992794 -10.757450 -26.470316 37.310246 0.421491 2.359535 0.054610 -0.022381 -340697.000000 0 0 1
-24.493594 -10.849750 -27.812666 38.616027 0.416986 2.374939 0.059749 -0.013424 85117.500000 0 0 1
-23.558294 -10.873050 -28.889396 38.830576 0.432407 2.409812 0.058882 -0.015294 -41952.700000 0 0 1
-24.121194 -11.444750 -30.212226 40.318642 0.443015 2.417856 0.061899 -0.018705 135595.000000 0 0 1
-25.150874 -10.664950 -30.792436 41.164083 0.401056 2.415902 0.059371 -0.016497 -91623.400000 0 0 1
-24.675494 -9.521550 -31.495846 41.128192 0.368267 2.443076 0.055010 -0.030618 -772292.000000 0 0 1
-25.672474 -8.451250 -31.924546 41.829130 0.318021 2.439068 0.057645 -0.019461 -778972.000000 0 0 1
-26.437274 -8.750250 -33.119766 43.271413 0.319632 2.442453 0.069565 -0.020931 704663.000000 0 0 1
-27.707654 -9.336250 -33.021656 44.105662 0.325007 2.416887 0.075628 -0.022177 -85806.000000 0 0 1
-28.806354 -8.606050 -32.207886 44.059256 0.290314 2.390602 0.051861 -0.004982 -747293.000000 0 0 1
-30.073634 -9.223450 -32.244196 45.046461 0.297588 2.368563 0.080763 -0.007948 104527.000000 0 0 1
-30.989094 -8.457650 -31.470836 44.969648 0.266435 2.345947 0.082246 -0.002517 1165740.000000 0 0 1
-32.488974 -8.955050 -31.475236 46.113087 0.268955 2.322065 0.085915 -0.004510 1010230.000000 0 0 1
-32.646344 -10.326050 -31.117566 46.267850 0.306343 2.308449 0.084962 -0.009708 597957.000000 0 0 1
-34.020724 -10.707650 -31.008636 47.260966 0.304923 2.286456 0.081761 -0.011554 534032.000000 0 0 1
-34.220891 -12.177650 -30.794956 47.620309 0.341881 2.274016 0.084573 -0.017090 107858.000000 0 0 1
-35.563243 -12.612650 -30.923776 48.786300 0.340815 2.257332 0.073240 -0.017246 97434.400000 0 0 1
-35.538464 -14.006150 -30.873926 49.115720 0.375421 2.250542 0.067831 -0.019812 321374.000000 0 0 1
-36.927634 -14.647050 -30.624896 50.160447 0.377608 2.227537 0.067710 -0.028048 185659.000000 0 0 1
37.219875 -14.667650 -29.260766 49.564619 -0.375393 2.202296 0.079582 -0.030025 -58313.800000 0 0 1
37.227925 -15.910550 -28.552566 49.541024 -0.403887 2.185042 0.068353 -0.032034 -72541.600000 0 0 1
-37.185104 -15.761950 -27.016066 48.590522 0.400920 2.160355 0.097348 -0.036138 216410.000000 0 0 1
-35.871191 -15.408850 -26.624886 47.255259 0.405727 2.169324 0.087893 -0.037349 78876.600000 0 0 1
-35.693479 -15.529450 -25.253976 46.399909 0.410376 2.146312 0.116144 -0.041381 1028000.000000 0 0 1
-34.258185 -15.169250 -24.685566 44.867656 0.416844 2.153384 0.123816 -0.036355 1871930.000000 0 0 1
-33.240634 -16.176050 -24.970866 44.611080 0.452898 2.164875 0.121213 -0.035376 727358.000000 0 0 1
-31.980504 -15.797350 -24.451166 43.245444 0.458810 2.171720 0.124624 -0.022802 372026.000000 0 0 1
-30.824984 -16.794950 -24.687766 42.915449 0.498880 2.183725 0.103706 -0.020476 62670.200000 0 0 1
-30.790974 -17.968650 -23.876566 42.907422 0.528250 2.160924 0.106866 -0.026056 -162809.000000 0 0 1
-31.698154 -18.981750 -24.241466 44.189687 0.539557 2.151458 0.107685 -0.030074 -42483.400000 0 0 1
-31.582994 -20.284450 -23.413766 44.239675 0.570914 2.128511 0.109348 -0.029293 -495360.000000 0 0 1
-30.360464 -20.915750 -23.597866 43.773115 0.603247 2.140159 0.099728 -0.022006 -639523.000000 0 0 1
-30.182984 -22.057850 -22.810766 43.793747 0.631102 2.118664 0.097321 -0.024576 -451977.000000 0 0 1
-28.890104 -22.859850 -23.153466 43.511996 0.669395 2.131895 0.094045 -0.020347 954740.000000 0 0 1
-27.617314 -22.363250 -22.748366 42.193828 0.680661 2.140212 0.100395 -0.017180 305176.000000 0 0 1
-27.347004 -22.016150 -21.418966 41.125923 0.677822 2.118601 0.097886 -0.023867 -679313.000000 0 0 1
-27.318214 -23.140750 -20.372866 41.192630 0.702797 2.088143 0.091644 -0.018902 -149858.000000 0 0 1
-27.333144 -22.638950 -19.040266 40.275979 0.691737 2.063200 0.092614 -0.020960 17282.900000 0 0 1
-27.313554 -23.648450 -18.006166 40.367083 0.713603 2.033155 0.074327 0.006824 100673.000000 0 0 1
-27.339954 -23.016050 -16.603066 39.406515 0.699742 2.005705 0.074666 0.002219 525383.000000 0 0 1
-28.627754 -22.468450 -16.305366 39.877869 0.665434 1.992026 0.087374 -0.008338 457303.000000 0 0 1
-28.487614 -21.398950 -15.414766 38.821053 0.644247 1.979121 0.089575 -0.011928 -25084.500000 0 0 1
-29.846814 -20.941650 -14.869566 39.376249 0.611824 1.958029 0.089522 -0.004591 95362.400000 0 0 1
-30.736284 -20.316350 -15.782066 40.081752 0.584062 1.975501 0.083768 -0.007577 -320328.000000 0 0 1
-31.815734 -19.790550 -15.079766 40.389431 0.556465 1.953424 0.088264 -0.006138 -140824.000000 0 0 1
-32.867184 -19.029250 -15.955466 41.193944 0.524816 1.968525 0.086248 -0.020026 461702.000000 0 0 1
-33.828874 -19.892550 -16.566866 42.597738 0.531575 1.970249 0.052882 -0.010232 385050.000000 0 0 1
-34.579804 -19.265950 -17.609966 43.324941 0.508312 1.989375 0.054566 -0.018651 -34667.300000 0 0 1
-35.292743 -20.238550 -18.506966 44.695463 0.520667 1.997715 0.048723 -0.009683 188541.000000 0 0 1
-36.492824 -20.880350 -18.093866 45.772297 0.519710 1.977193 0.039472 -0.005829 184505.000000 0 0 1
-36.401224 -21.807450 -17.042866 45.728254 0.539747 1.952712 0.046715 -0.010393 -557440.000000 0 0 1
37.118705 -22.988850 -17.130866 46.901514 -0.554514 1.944700 0.029739 0.012214 -147629.000000 0 0 1
35.724175 -22.817450 -17.002866 45.672203 -0.568399 1.952261 0.031986 -0.005931 -200861.000000 0 0 1
35.133225 -24.044650 -16.844466 45.784547 -0.600169 1.947554 0.024849 -0.003068 -561648.000000 0 0 1
33.651675 -24.093050 -16.491266 44.551904 -0.621353 1.949976 0.020058 -0.007001 -616928.000000 0 0 1
32.720725 -23.854250 -17.525466 44.122704 -0.629942 1.979258 0.029244 -0.011781 -302941.000000 0 0 1
31.476335 -24.062750 -16.878166 43.065625 -0.652698 1.973511 0.044927 -0.015399 -98315.900000 0 0 1
30.256935 -23.771650 -17.764766 42.381132 -0.665935 2.003324 0.064029 -0.012022 -316266.000000 0 0 1
30.099255 -22.409050 -18.082666 41.654693 -0.639975 2.019845 0.058284 -0.013671 1433450.000000 0 0 1
28.799665 -22.095950 -18.682766 40.825206 -0.654437 2.046122 0.076892 -0.029487 1392480.000000 0 0 1
34.998495 30.049950 -18.374666 49.654028 0.709470 1.949863 0.077616 -0.015187 -158417.000000 0 0 1
33.958725 30.068750 -19.300866 49.293490 0.724718 1.973112 0.069981 -0.020257 -218315.000000 0 0 1
34.440025 29.622850 -20.573566 49.868830 0.710345 1.996052 0.081774 -0.004716 -61058.900000 0 0 1
33.420035 29.803050 -21.708366 49.763176 0.728251 2.022205 0.095995 0.000237 -752083.000000 0 0 1
32.419235 28.830650 -21.770366 48.540314 0.726876 2.035884 0.081983 -0.007409 30981.000000 0 0 1
31.561755 28.942850 -22.915366 48.568992 0.742141 2.062140 0.100892 -0.001420 559919.000000 0 0 1
30.368715 29.908650 -22.774066 48.326435 0.777766 2.061509 0.075799 -0.003258 -294273.000000 0 0 1
30.777745 31.260050 -22.773366 49.427589 0.793172 2.049627 0.105217 -0.025025 -108565.000000 0 0 1
29.633435 32.032850 -22.518866 49.105430 0.824288 2.047195 0.095519 -0.020633 -378917.000000 0 0 1
29.990785 33.513450 -22.427866 50.255425 0.840813 2.033398 0.100068 -0.024401 546358.000000 0 0 1
30.728675 33.924750 -21.263166 50.470411 0.834792 2.005674 0.084702 -0.028717 544528.000000 0 0 1
32.123645 33.652850 -21.242666 51.143854 0.808642 1.999125 0.071880 -0.027731 -12648.900000 0 0 1
32.703005 33.496250 -19.846466 50.846510 0.797380 1.971777 0.068061 -0.026933 -302374.000000 0 0 1
32.747225 -33.406048 -18.938166 50.467801 -0.795357 1.955465 0.059790 -0.018518 56812.500000 0 0 1
32.896705 -33.794648 -17.639066 50.352836 -0.798862 1.928698 0.045592 -0.025630 -307838.000000 0 0 1
32.954185 -32.523848 -16.798466 49.254111 -0.778826 1.918838 0.044039 -0.011698 -90939.700000 0 0 1
34.071475 -31.709648 -17.027566 49.561126 -0.749509 1.921509 0.059752 -0.008658 -368363.000000 0 0 1
35.087225 -31.823848 -16.071566 50.021655 -0.736665 1.897890 0.050939 -0.006940 -232887.000000 0 0 1
36.360115 -31.027348 -16.344366 50.516261 -0.706427 1.900272 0.056422 0.000273 482308.000000 0 0 1
37.217165 -31.475748 -17.430266 51.765377 -0.702011 1.914224 0.049153 -0.005540 -358681.000000 0 0 1
-36.084714 -30.745648 -17.639666 50.582203 0.705678 1.927015 0.036196 0.003573 -145428.000000 0 0 1
-35.049185 -31.537648 -18.475966 50.640201 0.732711 1.944266 0.053528 -0.008176 -718428.000000 0 0 1
-34.334187 -32.541048 -17.765066 50.530721 0.758591 1.930044 0.051539 -0.014999 -72163.700000 0 0 1
-33.288024 -33.180548 -18.431666 50.485321 0.783781 1.944525 0.066270 -0.015313 645128.000000 0 0 1
-32.010814 -32.285448 -18.662866 49.146159 0.789670 1.960314 0.061102 -0.018039 -603819.000000 0 0 1
-32.132414 -31.483048 -19.843066 49.167282 0.775191 1.986226 0.055330 -0.011340 488507.000000 0 0 1
-30.902984 -30.971748 -20.371766 48.262329 0.786510 2.006562 0.067516 -0.014286 325082.000000 0 0 1
-29.982684 -31.946848 -21.092266 48.625571 0.817104 2.019468 0.062373 -0.007566 -434282.000000 0 0 1
-30.613564 -32.645748 -22.130666 49.926962 0.817512 2.030029 0.056997 -0.003411 -208520.000000 0 0 1
-29.760894 -33.619648 -22.697966 50.310925 0.846205 2.038854 0.049181 -0.009491 439473.000000 0 0 1
-30.549974 33.438250 -23.679166 51.108907 -0.830505 2.052521 0.041685 -0.014688 -64441.900000 0 0 1
-31.497034 32.486650 -23.185766 50.843144 -0.800864 2.044320 0.057213 -0.034215 579457.000000 0 0 1
-32.147644 31.701750 -24.233266 51.241810 -0.778415 2.063398 0.061325 -0.020882 790267.000000 0 0 1
-33.105854 32.460950 -25.184816 52.763489 -0.775563 2.068393 0.060711 -0.030966 -991654.000000 0 0 1
-32.427124 33.224750 -26.141926 53.280415 -0.797547 2.083630 0.040140 -0.020404 -4809.470000 0 0 1
-33.289144 -33.821748 -26.866576 54.533390 0.793334 2.085943 0.040400 -0.020803 139126.000000 0 0 1
-32.560544 -32.979448 -27.909296 54.099555 0.791790 2.112840 0.024350 -0.014296 -283084.000000 0 0 1
-32.402344 -33.478648 -29.260816 55.017516 0.801734 2.131575 0.026678 -0.012040 1198350.000000 0 0 1
-33.616344 -33.382248 -30.077306 56.116641 0.781904 2.136463 0.039464 -0.014392 1249690.000000 0 0 1
-33.573744 33.610850 -31.285866 56.883134 -0.785950 2.153164 0.061439 -0.013996 -9630.980000 0 0 1
-32.766864 -33.887248 -32.332136 57.161000 0.802206 2.171997 0.060802 -0.017271 -121735.000000 0 0 1
-32.864104 33.268650 -33.500896 57.525320 -0.791515 2.192435 0.054462 -0.024140 -381619.000000 0 0 1
-32.019534 33.710750 33.133079 57.091735 -0.811122 0.951640 0.067903 -0.028749 280887.000000 0 0 1
-30.666604 33.292650 33.107523 56.079847 -0.826433 0.939287 0.071081 -0.024477 -15769.700000 0 0 1
-30.428424 31.966150 32.783588 54.977153 -0.810038 0.931896 0.073903 -0.027412 -1832350.000000 0 0 1
-28.976584 31.668450 32.665739 53.940557 -0.829756 0.920292 0.069466 -0.026156 -1329880.000000 0 0 1
-28.340914 31.439150 -33.905756 54.233088 -0.837179 2.246166 0.070754 -0.014690 241152.000000 0 0 1
-26.997254 30.995050 33.898727 53.279157 -0.854226 0.881172 0.066617 -0.010887 2963.130000 0 0 1
-26.569034 29.618950 33.372204 51.931684 -0.839626 0.872887 0.070928 -0.025883 -483949.000000 0 0 1
-26.824404 28.624150 -33.485316 51.576710 -0.817845 2.277372 0.070424 -0.014800 229011.000000 0 0 1
-26.311574 27.372750 -33.852636 50.868137 -0.805163 2.298957 0.054349 -0.011621 -284709.000000 0 0 1
-26.186104 26.348650 -32.767596 49.534622 -0.788492 2.293625 0.063519 -0.018351 173412.000000 0 0 1
-25.099494 26.391050 -31.833816 48.372140 -0.810476 2.289092 0.058374 -0.004424 263633.000000 0 0 1
-25.108304 27.513150 -30.923196 48.411201 -0.831067 2.263683 0.048566 0.001941 -56906.200000 0 0 1
-23.880094 27.705250 -30.004296 47.308536 -0.859415 2.257803 0.064985 -0.000591 -202539.000000 0 0 1
-22.715994 28.174750 -30.669186 47.438717 -0.892254 2.273786 0.061083 -0.000307 58935.700000 0 0 1
-21.556894 28.084350 -29.869516 46.320820 -0.916141 2.271610 0.061211 0.000443 139561.000000 0 0 1
-21.384794 29.172950 -28.842336 46.262844 -0.938242 2.243937 0.045788 0.012566 -683476.000000 0 0 1
-21.068394 30.418450 -29.415916 47.270027 -0.965041 2.242468 0.043292 0.016651 244012.000000 0 0 1
-20.566394 31.436950 -28.510786 47.160612 -0.991467 2.219993 0.051924 0.003263 263136.000000 0 0 1
-20.010494 32.682250 -29.263956 48.217512 -1.021401 2.222970 0.071386 -0.001631 642801.000000 0 0 1
-18.782994 32.552350 -29.994616 48.084648 -1.047454 2.244376 0.077089 -0.007519 328530.000000 0 0 1
-18.646394 33.660050 -30.846816 49.317472 -1.064916 2.246536 0.077046 -0.003587 728031.000000 0 0 1
-17.141794 33.965750 -31.202586 49.204823 -1.103413 2.257688 0.095054 -0.005867 22581.400000 0 0 1
-16.532294 -33.327748 -30.175726 47.902296 1.110312 2.252276 0.119147 -0.025234 541559.000000 0 0 1
-15.229094 -32.747248 -30.412096 47.214438 1.135498 2.270678 0.131965 -0.020917 2191780.000000 0 0 1
-14.049494 -33.824648 -30.618676 47.738856 1.177117 2.267090 0.137872 -0.021672 45278.000000 0 0 1
-13.842894 33.399950 -29.414306 46.608838 -1.177888 2.253752 0.154696 -0.024103 36378.700000 0 0 1
-13.275894 32.104250 -29.666366 45.683974 -1.178686 2.277568 0.126490 -0.014905 77717.700000 0 0 1
-13.338294 31.168450 -28.409176 44.231930 -1.166436 2.268262 0.100943 -0.020240 255060.000000 0 0 1
-12.171594 31.321450 -27.625996 43.501455 -1.200154 2.258881 0.114229 -0.021674 169193.000000 0 0 1
-12.356294 30.708850 -26.317946 42.288837 -1.188249 2.242522 0.088939 -0.026260 706595.000000 0 0 1
-11.120594 31.002450 -25.387126 41.585162 -1.226392 2.227469 0.118114 -0.031609 1272800.000000 0 0 1
-9.926794 30.356650 -25.849336 41.088388 -1.254752 2.251211 0.116102 -0.022944 498637.000000 0 0 1
-8.823094 30.818550 -25.058916 40.688810 -1.291963 2.234283 0.126772 -0.031319 643674.000000 0 0 1
-7.459394 30.157550 -25.375706 40.112926 -1.328316 2.255711 0.097338 -0.029100 157448.000000 0 0 1
-7.068494 28.945750 -24.742966 38.730278 -1.331286 2.263803 0.100832 -0.047114 -101011.000000 0 0 1
-5.879294 28.482450 -25.337636 38.572164 -1.367237 2.287482 0.094760 -0.054346 -201058.000000 0 0 1
-5.433794 27.122050 -24.709166 37.090088 -1.373068 2.299889 0.114300 -0.043478 145958.000000 0 0 1
-6.285794 25.983650 -24.902966 36.535175 -1.333443 2.320765 0.120262 -0.041245 337506.000000 0 0 1
-5.813694 24.937750 -24.110266 35.170944 -1.341759 2.326109 0.121180 -0.054070 348248.000000 0 0 1
-6.774094 23.683950 -24.158266 34.502748 -1.292214 2.346451 0.104289 -0.043875 369074.000000 0 0 1
-6.791794 23.059650 -25.412606 34.981087 -1.284364 2.383963 0.103644 -0.036259 340651.000000 0 0 1
-7.713294 21.973550 -25.604976 34.611365 -1.233208 2.403547 0.091255 -0.039627 -398151.000000 0 0 1
-7.470094 21.139750 -26.910146 35.026380 -1.231125 2.446950 0.073504 -0.028261 975176.000000 0 0 1
-6.235694 20.370050 -26.891646 34.307192 -1.273734 2.471636 0.094698 -0.042955 756801.000000 0 0 1
-6.261294 19.282850 -25.948346 32.929451 -1.256829 2.478347 0.083982 -0.037151 -938208.000000 0 0 1
-4.996994 18.451350 -26.020916 32.287928 -1.306320 2.507994 0.096336 -0.049639 -535006.000000 0 0 1
-4.750494 17.781250 -27.231246 32.867625 -1.309731 2.547243 0.089247 -0.044559 598016.000000 0 0 1
-3.651594 16.834250 -27.183496 32.181805 -1.357191 2.576773 0.085592 -0.042508 500918.000000 0 0 1
-3.348994 16.347650 -28.583356 33.097880 -1.368731 2.613165 0.084713 -0.036475 -150751.000000 0 0 1
-2.888394 17.447450 -29.357816 34.272988 -1.406736 2.599416 0.097009 -0.041287 173474.000000 0 0 1
-2.666294 17.198350 -30.722736 35.309756 -1.416989 2.626185 0.095151 -0.048767 -235235.000000 0 0 1
-1.736494 18.224150 -31.349016 36.302835 -1.475798 2.613048 0.106579 -0.026479 538526.000000 0 0 1
-0.353494 18.204350 -30.929856 35.891215 -1.551381 2.609538 0.132894 -0.041692 1044040.000000 0 0 1
0.415706 19.256250 -31.489756 36.913151 1.549212 2.592650 0.144803 -0.017711 187394.000000 0 0 1
0.234906 20.648150 -30.788366 37.071886 1.559420 2.550809 0.135120 -0.017896 75840.800000 0 0 1
1.176206 20.956850 -29.747536 36.407264 1.514730 2.527119 0.156354 -0.046252 181474.000000 0 0 1
0.932406 22.224450 -29.166526 36.680810 1.528867 2.490041 0.155433 -0.046787 -161241.000000 0 0 1
1.959306 22.472850 -28.082216 36.020532 1.483831 2.464850 0.161672 -0.047643 -65029.500000 0 0 1
3.226406 22.848250 -28.582696 36.734490 1.430514 2.462414 0.125996 -0.041732 -329280.000000 0 0 1
4.228706 22.708850 -27.602216 35.992446 1.386691 2.444776 0.121971 -0.041695 146476.000000 0 0 1
4.926806 24.076650 -27.244986 36.691249 1.368953 2.407662 0.118323 -0.035291 -244397.000000 0 0 1
5.625506 24.607450 -28.323976 37.939696 1.346049 2.413662 0.098299 -0.032918 -122512.000000 0 0 1
5.981506 25.895250 -28.053086 38.643473 1.343789 2.383206 0.088353 -0.031340 -763152.000000 0 0 1
6.758406 26.552450 -29.135356 39.994720 1.321558 2.386897 0.099974 -0.025973 -620264.000000 0 0 1
8.143606 26.385250 -28.961896 40.016136 1.271430 2.380025 0.096135 -0.020311 -319077.000000 0 0 1
8.923506 27.131050 -29.865466 41.323951 1.253038 2.378520 0.100999 -0.027244 908991.000000 0 0 1
10.456106 26.791250 -29.769846 41.392571 1.198697 2.373457 0.101824 -0.021866 650788.000000 0 0 1
11.286306 27.629850 -30.532956 42.697198 1.182999 2.367570 0.133475 -0.029994 -35153.100000 0 0 1
12.452906 27.863550 -29.732796 42.608584 1.150503 2.343135 0.114031 -0.030313 79280.200000 0 0 1
13.386206 28.820850 -30.508886 44.052514 1.135981 2.335824 0.124748 -0.033544 -495820.000000 0 0 1
12.938706 30.144650 -30.770146 44.976793 1.165356 2.324212 0.126950 -0.031426 181004.000000 0 0 1
13.902606 30.943650 -31.459386 46.265375 1.148535 2.318527 0.146405 -0.036476 58679.500000 0 0 1
13.545706 32.434450 -31.652436 47.300702 1.175182 2.303894 0.150127 -0.039696 -25622.700000 0 0 1
12.540206 32.580250 -32.633946 47.788114 1.203373 2.322505 0.125500 -0.036613 -91021.100000 0 0 1
11.661306 33.622650 -32.325076 48.076805 1.236949 2.308193 0.114008 -0.026525 -134814.000000 0 0 1
10.439606 33.668250 -33.276056 48.475069 1.270124 2.327402 0.092578 -0.023140 77245.300000 0 0 1
10.566906 -33.586448 33.381390 48.518308 -1.265983 0.812044 0.088959 -0.014766 10664.300000 0 0 1
9.296306 -33.331748 32.814795 47.688966 -1.298806 0.811929 0.097020 -0.018238 137847.000000 0 0 1
9.355406 -32.596248 31.507617 46.290053 -1.291300 0.822138 0.098257 -0.012874 86081.000000 0 0 1
9.639506 -31.214148 31.652057 45.487315 -1.271269 0.801202 0.075761 -0.023953 -30340.300000 0 0 1
9.701606 -30.644148 30.378087 44.226838 -1.264190 0.813623 0.111309 -0.020659 -318678.000000 0 0 1
9.492606 -29.093048 30.326017 43.083435 -1.255403 0.789936 0.090355 -0.041817 593048.000000 0 0 1
8.109306 -28.761248 30.434967 42.652755 -1.295978 0.776241 0.061225 -0.023890 172167.000000 0 0 1
7.601406 -28.714548 31.770277 43.493185 -1.312009 0.751793 0.052188 -0.016986 -466572.000000 0 0 1
6.082106 -28.460948 31.651567 42.998131 -1.360263 0.743484 0.047362 -0.019130 -21922.100000 0 0 1
5.272506 -29.555548 31.257557 43.340104 -1.394260 0.765241 0.071994 -0.023804 -42739.700000 0 0 1
5.303006 -30.066548 29.945877 42.765345 -1.396216 0.795067 0.083587 -0.025159 -710816.000000 0 0 1
4.699106 -29.210948 28.830467 41.310494 -1.411295 0.798339 0.058667 -0.027979 953048.000000 0 0 1
3.264106 -29.353748 28.708227 41.188096 -1.460052 0.799587 0.089154 -0.035724 1093540.000000 0 0 1
2.808406 -28.458648 27.711177 39.820738 -1.472431 0.801127 0.107843 -0.042835 1097870.000000 0 0 1
1.306306 -28.743248 27.247947 39.627407 -1.525380 0.812613 0.118807 -0.044681 1386730.000000 0 0 1
0.998906 -29.951048 26.587047 40.061630 -1.537457 0.845104 0.128287 -0.044859 15808.100000 0 0 1
0.881106 -31.095448 27.438207 41.479615 -1.542468 0.847997 0.145831 -0.044359 -573769.000000 0 0 1
1.257406 -32.454348 26.747217 42.074689 -1.532072 0.881871 0.134071 -0.043031 1065960.000000 0 0 1
2.661406 -32.709348 26.546057 42.209924 -1.489610 0.890652 0.121967 -0.037297 991989.000000 0 0 1
3.299906 -32.009648 25.505287 41.061255 -1.468068 0.900584 0.118048 -0.040971 -704495.000000 0 0 1
4.824706 -32.006548 25.673177 41.313544 -1.421182 0.900239 0.124915 -0.029256 -426492.000000 0 0 1
5.447106 -31.584548 24.514847 40.351362 -1.400015 0.917843 0.111057 -0.040757 -127885.000000 0 0 1
6.849206 -31.685748 24.712877 40.763029 -1.357911 0.919451 0.086897 -0.041386 210288.000000 0 0 1
7.719406 -31.421348 23.459427 39.965424 -1.329893 0.943457 0.072219 -0.029349 386599.000000 0 0 1
9.124406 -31.366848 23.671217 40.341796 -1.287715 0.943736 0.061590 -0.009391 338194.000000 0 0 1
9.816806 -31.342948 22.446317 39.781745 -1.267268 0.971288 0.042611 -0.016961 278076.000000 0 0 1
10.947006 -30.270748 22.497917 39.272273 -1.223793 0.960793 0.030423 -0.015565 561305.000000 0 0 1
12.073406 -30.454748 23.356977 40.234403 -1.193365 0.951426 0.042860 -0.007760 358709.000000 0 0 1
12.885206 -29.309648 23.319747 39.609275 -1.156605 0.941291 0.044152 -0.004451 1317180.000000 0 0 1
14.339206 -29.344748 23.974167 40.515278 -1.116273 0.937591 0.071992 -0.011066 1236780.000000 0 0 1
14.274306 -29.448548 25.382187 41.415314 -1.119447 0.911109 0.068137 -0.008636 677843.000000 0 0 1
15.472306 -29.036448 26.066607 41.975893 -1.081209 0.900791 0.079957 -0.012040 389411.000000 0 0 1
-10.901894 -13.738650 25.249227 30.742890 0.900019 0.607105 0.075991 -0.035423 470050.000000 0 0 1
-9.489094 -13.827950 25.108227 30.194009 0.969375 0.588880 0.070313 -0.030818 -138497.000000 0 0 1
-8.946094 -14.302650 26.333597 31.273898 1.011848 0.569759 0.063953 -0.027038 -347906.000000 0 0 1
-7.417594 -14.381050 26.242677 30.830397 1.094597 0.552539 0.073167 -0.025822 -340020.000000 0 0 1
-6.886594 -15.381750 25.384237 30.469376 1.149847 0.586096 0.075200 -0.030521 14365.400000 0 0 1
-6.872194 -15.117650 23.994767 29.180802 1.144140 0.605392 0.085912 -0.035080 -292131.000000 0 0 1
-6.279694 -16.399750 23.255387 29.141026 1.205105 0.646779 0.081591 -0.031843 263661.000000 0 0 1
-7.138694 -17.494750 22.984137 29.753954 1.183372 0.688070 0.087446 -0.038263 -415456.000000 0 0 1
-7.364494 -18.332150 24.108067 31.168933 1.188803 0.686507 0.087635 -0.034324 -459934.000000 0 0 1
-8.216094 -19.577050 23.798697 31.892680 1.173440 0.728443 0.082968 -0.030091 -630029.000000 0 0 1
-9.565394 -19.335050 23.571347 31.952297 1.111383 0.741133 0.072343 -0.030018 -933011.000000 0 0 1
-10.200394 -20.567650 23.367507 32.758459 1.110399 0.776562 0.065393 -0.025961 -42516.000000 0 0 1
-11.722794 -20.575050 23.630457 33.453775 1.052911 0.786452 0.059426 -0.028839 -67942.800000 0 0 1
-12.054894 -20.582950 24.974107 34.535262 1.040977 0.762447 0.064138 -0.030446 -304889.000000 0 0 1
-13.452094 -20.441750 25.026827 35.002372 0.988769 0.774167 0.066011 -0.021549 -327204.000000 0 0 1
-14.098094 -20.305750 26.376277 36.149519 0.963912 0.752995 0.066727 -0.018885 -513809.000000 0 0 1
-14.001694 -21.425150 27.207587 37.354214 0.991953 0.754860 0.058238 -0.016246 -1031120.000000 0 0 1
-12.911394 -21.366350 28.017697 37.526209 1.027231 0.727834 0.065993 -0.015767 -889643.000000 0 0 1
-12.613894 -22.766750 28.569897 38.648082 1.064850 0.738867 0.058592 -0.009199 472854.000000 0 0 1
-13.687794 -23.269650 29.389337 39.906960 1.039080 0.742994 0.050220 -0.008011 527617.000000 0 0 1
-13.462394 -24.638750 29.696067 40.867596 1.070728 0.757376 0.065745 -0.013714 -629440.000000 0 0 1
-14.473994 -25.240610 30.623467 42.241941 1.050135 0.759829 0.059517 -0.015674 -534493.000000 0 0 1
-14.213894 -24.957250 31.980893 42.984609 1.053083 0.731747 0.087262 -0.014431 234618.000000 0 0 1
-15.329294 -25.149550 32.847784 44.118749 1.023402 0.730964 0.080344 -0.017799 40905.500000 0 0 1
-15.034394 -24.676850 -33.555516 44.282644 1.023602 2.430666 0.074813 -0.019226 52732.100000 0 0 1
-15.012694 -23.259950 -33.362996 43.353151 0.997640 2.448953 0.075128 -0.022211 196337.000000 0 0 1
-16.275394 -22.631950 -33.560076 43.627655 0.947344 2.448445 0.078483 -0.023963 -220771.000000 0 0 1
-16.122294 -21.101050 -33.417576 42.683920 0.918363 2.470122 0.061615 -0.026069 -58773.100000 0 0 1
-15.890794 -20.780350 -32.088286 41.400463 0.917952 2.457623 0.058090 -0.024919 108781.000000 0 0 1
-16.026594 -19.373250 -31.918416 40.632004 0.879657 2.474379 0.057040 -0.025154 -461254.000000 0 0 1
-16.063494 -18.951350 -30.417086 39.273255 0.867687 2.456719 0.088805 -0.022831 -502186.000000 0 0 1
-17.313694 -19.163150 -29.831626 39.457777 0.836057 2.428037 0.080456 -0.020830 -371525.000000 0 0 1
-17.393294 -18.890650 -28.464266 38.335333 0.826642 2.407602 0.052726 -0.021934 -54605.500000 0 0 1
-16.710294 -19.860150 -27.454616 37.781151 0.871317 2.384266 0.053015 -0.011974 -234129.000000 0 0 1
-15.321094 -19.700550 -27.377656 37.045696 0.909802 2.402417 0.058002 -0.017410 -393974.000000 0 0 1
-14.691894 -20.844450 -26.850126 37.030691 0.956833 2.381943 0.053729 -0.011147 67185.700000 0 0 1
-13.202294 -21.008850 -27.203736 36.820043 1.009744 2.402128 0.099293 -0.019556 -620306.000000 0 0 1
-12.397194 -20.106350 -26.495156 35.495760 1.018274 2.413480 0.096570 -0.027619 -83027.600000 0 0 1
-10.997394 -20.272450 -26.527186 35.151194 1.073745 2.425931 0.086335 -0.034922 323357.000000 0 0 1
-10.425294 -21.515350 -25.796966 35.172155 1.119584 2.394178 0.117359 -0.039443 -722034.000000 0 0 1
-10.657494 -22.817850 -26.317156 36.425666 1.133839 2.378192 0.109392 -0.040229 101753.000000 0 0 1
-10.124194 -23.748450 -25.376066 36.199902 1.167817 2.347593 0.154915 -0.043296 130364.000000 0 0 1
-9.996394 -25.134030 -26.000366 37.518880 1.192254 2.336430 0.141797 -0.035503 203035.000000 0 0 1
-8.763494 -25.404560 -26.681516 37.869430 1.238621 2.352608 0.138276 -0.039505 503160.000000 0 0 1
-8.713694 -26.721250 -27.206356 39.116997 1.255573 2.339929 0.129552 -0.034629 -122806.000000 0 0 1
-8.560594 -27.904400 -26.184106 39.211563 1.273128 2.301998 0.132740 -0.032135 -45522.500000 0 0 1
-9.760194 -28.097760 -25.443036 39.141967 1.236470 2.278406 0.126519 -0.035699 263792.000000 0 0 1
-9.660394 -29.121610 -24.469066 39.244446 1.250493 2.244013 0.171149 -0.040268 307752.000000 0 0 1
-10.922394 -29.173110 -23.540166 39.044954 1.212552 2.217926 0.172318 -0.043406 454217.000000 0 0 1
-10.956194 -28.247940 -22.419566 37.691129 1.200801 2.207842 0.141487 -0.051809 -104514.000000 0 0 1
-11.692094 -27.101950 -22.780666 37.285110 1.163508 2.228101 0.134879 -0.044402 -132167.000000 0 0 1
-11.699894 -26.023260 -21.682366 35.836051 1.148280 2.220617 0.139262 -0.051403 163424.000000 0 0 1
-12.426794 -26.367040 -20.494866 35.632647 1.130371 2.183610 0.108304 -0.049304 273135.000000 0 0 1
-12.463994 -25.262610 -19.611766 34.324509 1.112461 2.178962 0.101710 -0.045649 -241398.000000 0 0 1
-13.105394 -25.570000 -18.263666 34.046112 1.097175 2.137008 0.120193 -0.048601 168039.000000 0 0 1
-14.447094 -26.009970 -18.439766 35.003743 1.063783 2.125621 0.132269 -0.049992 -16549.200000 0 0 1
-15.025094 -26.334130 -17.183566 34.849889 1.052308 2.086416 0.121114 -0.046472 119431.000000 0 0 1
-16.571694 -26.330740 -17.225266 35.561758 1.009063 2.076446 0.124831 -0.050036 -794532.000000 0 0 1
-17.176494 -25.053350 -17.125066 34.870763 0.969803 2.084150 0.106195 -0.038063 -931170.000000 0 0 1
-18.384594 -25.130470 -16.451466 35.216254 0.939198 2.056867 0.116685 -0.032549 -65598.600000 0 0 1
-19.627194 -25.681540 -17.242266 36.634191 0.918236 2.060836 0.104616 -0.028982 -734889.000000 0 0 1
-19.717594 -27.059500 -17.644466 37.846099 0.941083 2.055805 0.110953 -0.034451 -158387.000000 0 0 1
-19.895994 -28.047900 -16.645266 38.204713 0.953818 2.021597 0.117349 -0.042981 -952928.000000 0 0 1
-21.305394 -28.509950 -16.302566 39.147295 0.929028 2.000324 0.100717 -0.032420 -623645.000000 0 0 1
-21.838694 -29.273530 -17.356866 40.436727 0.929846 2.014442 0.093121 -0.029637 -151486.000000 0 0 1
-23.009094 -29.906260 -16.864166 41.330411 0.915011 1.991095 0.081912 -0.020754 88522.800000 0 0 1
-23.670994 -30.751330 -17.944566 42.754739 0.914771 2.003921 0.069877 -0.026926 -119716.000000 0 0 1
-23.022694 -31.999220 -17.947066 43.313874 0.947118 1.998024 0.062871 -0.030403 289382.000000 0 0 1
-23.345694 -32.698580 -19.164466 44.513990 0.950758 2.015873 0.054316 -0.013556 173403.000000 0 0 1
-22.634394 33.937804 -19.233866 45.100243 -0.982606 2.011382 0.034724 -0.009768 506442.000000 0 0 1
-23.428694 32.908197 -18.566466 44.458597 -0.952101 2.001612 0.044385 -0.010601 392471.000000 0 0 1
-22.660894 31.776829 -18.355166 43.129979 -0.951315 2.010397 0.028928 -0.011972 -455234.000000 0 0 1
-23.454194 30.590129 -17.843566 42.476441 -0.916677 2.004331 0.051997 -0.025872 -126706.000000 0 0 1
-24.015194 30.690229 -16.537066 42.333134 -0.906816 1.972124 0.047657 -0.028963 122414.000000 0 0 1
-24.668294 29.447109 -16.184266 41.684378 -0.873478 1.969536 0.051561 -0.022680 302185.000000 0 0 1
-23.801494 28.139509 -16.011466 40.183456 -0.868723 1.980633 0.059062 -0.026320 157199.000000 0 0 1
-23.227394 27.590029 -17.204966 39.959134 -0.871037 2.015914 0.040284 -0.017299 -93411.600000 0 0 1
-22.545294 26.432369 -16.832866 38.604479 -0.864596 2.021983 0.041368 -0.016269 -135823.000000 0 0 1
-22.157294 25.555289 -18.063466 38.344586 -0.856496 2.061314 0.022855 -0.008846 -846449.000000 0 0 1
-21.661894 24.229929 -17.864866 37.087471 -0.841298 2.073385 0.049667 -0.022593 491317.000000 0 0 1
-20.917294 23.691899 -18.958866 36.854821 -0.847516 2.111128 0.041261 -0.009945 36693.800000 0 0 1
-19.547894 24.353439 -19.209266 36.663415 -0.894426 2.122261 0.030253 -0.013501 -1180450.000000 0 0 1
-18.682594 24.088509 -18.117166 35.461631 -0.911123 2.107022 0.046617 -0.023388 109643.000000 0 0 1
-17.511694 24.886159 -18.144966 35.429086 -0.957610 2.108481 0.073079 -0.030449 205631.000000 0 0 1
-17.659294 26.033679 -17.116366 35.813029 -0.974766 2.069101 0.085997 -0.045448 316227.000000 0 0 1
-18.612094 27.075669 -17.432466 37.193988 -0.968570 2.058604 0.048918 -0.026064 321296.000000 0 0 1
-18.526694 28.244979 -16.634466 37.652658 -0.990265 2.028386 0.056348 -0.035169 -784121.000000 0 0 1
-19.582294 29.266239 -16.947466 39.079350 -0.981105 2.019356 0.028761 -0.024907 -635961.000000 0 0 1
-19.517194 29.868809 -18.244166 40.073884 -0.992013 2.043464 0.017032 -0.020573 -2020.020000 0 0 1
-19.958694 29.094149 -19.281066 40.206697 -0.969526 2.070937 0.003168 -0.010708 -549249.000000 0 0 1
-19.761394 29.736569 -20.678166 41.259699 -0.984262 2.095748 0.014738 -0.015564 144298.000000 0 0 1
-20.754094 30.709379 -20.932966 42.567445 -0.976482 2.084906 0.024631 -0.013071 169992.000000 0 0 1
-20.963094 30.780529 -22.339766 43.427611 -0.972902 2.111120 0.028406 -0.011347 261649.000000 0 0 1
-21.747494 32.041434 -22.852466 44.964899 -0.974488 2.103923 0.031702 -0.017340 -2260.510000 0 0 1
-20.954494 33.189800 -22.777766 45.381497 -1.007641 2.096611 0.030903 -0.020729 -215407.000000 0 0 1
-21.369494 -33.732690 -23.605166 46.386997 1.006111 2.104673 0.053593 -0.021004 -372350.000000 0 0 1
-20.355494 -32.578120 -23.680566 45.127034 1.012326 2.123222 0.070541 -0.024935 -61243.900000 0 0 1
-20.115394 -31.834020 -22.475566 43.854132 1.007262 2.108899 0.066158 -0.030095 394900.000000 0 0 1
-19.402994 -32.505900 -21.408666 43.490696 1.032654 2.085479 0.075667 -0.036808 -160737.000000 0 0 1
-19.212994 -31.540220 -20.207766 42.098437 1.023670 2.071465 0.092226 -0.043303 -646468.000000 0 0 1
-18.329894 -30.495440 -20.466466 41.046718 1.029590 2.092795 0.105074 -0.049053 -230645.000000 0 0 1
-17.949894 -29.919840 -19.203566 39.826780 1.030426 2.073935 0.093690 -0.045440 496023.000000 0 0 1
-16.705594 -28.984070 -19.438566 38.691226 1.047932 2.097171 0.116229 -0.046365 456155.000000 0 0 1
-15.518194 -29.690030 -19.660266 38.843767 1.089175 2.101496 0.126380 -0.050094 -1269540.000000 0 0 1
-14.537994 -28.863770 -20.157666 38.089394 1.104212 2.128477 0.117669 -0.055669 -1691360.000000 0 0 1
-13.317694 -29.654300 -20.581466 38.475124 1.148693 2.135220 0.158263 -0.053499 -173854.000000 0 0 1
-12.498394 -30.278130 -19.561366 38.152615 1.179316 2.109139 0.150312 -0.046516 474854.000000 0 0 1
-11.697594 -29.343920 -18.846566 36.784404 1.191465 2.108718 0.132338 -0.045065 -576440.000000 0 0 1
-11.063894 -30.061240 -17.611966 36.555016 1.218137 2.073496 0.131836 -0.026613 287873.000000 0 0 1
-11.963294 -30.533810 -16.604266 36.757796 1.197375 2.039490 0.144533 -0.044698 358057.000000 0 0 1
-12.603194 -31.798610 -16.825966 38.119617 1.193445 2.027954 0.153273 -0.045055 102602.000000 0 0 1
-13.400094 -32.402840 -15.639766 38.394125 1.178666 1.990345 0.134671 -0.043389 -75626.600000 0 0 1
-12.690694 -32.879660 -14.501366 38.110567 1.202439 1.961142 0.128193 -0.034127 -64281.600000 0 0 1
-13.601194 -33.282890 -13.473666 38.396392 1.182852 1.929339 0.125263 -0.028192 2199.090000 0 0 1
-13.036094 33.956892 -12.211166 38.368253 -1.204245 1.894692 0.110854 -0.027114 -387813.000000 0 0 1
-12.296094 -33.139360 -11.450466 37.155407 1.215500 1.884073 0.093925 -0.002761 -331583.000000 0 0 1
-12.053294 -33.617590 -10.156566 37.129235 1.226533 1.847874 0.089249 -0.007707 560363.000000 0 0 1
-10.755494 -32.905090 -9.610266 35.927466 1.254879 1.841584 0.082464 -0.016360 849173.000000 0 0 1
-9.570894 -33.203070 -10.332666 36.066741 1.290151 1.861355 0.066856 -0.020507 -344990.000000 0 0 1
-8.505594 -32.549530 -9.699266 35.012751 1.315199 1.851489 0.058314 -0.022186 -386211.000000 0 0 1
-7.111494 -32.887610 -10.253066 35.175184 1.357839 1.866576 0.065735 -0.034067 -188676.000000 0 0 1
-6.704494 33.894806 -9.671966 35.879730 -1.375514 1.843739 0.055560 -0.019695 288235.000000 0 0 1
-5.486294 33.437454 -10.279666 35.409522 -1.408169 1.865345 0.066798 -0.018854 626385.000000 0 0 1
-4.916194 32.168741 -9.581866 33.923576 -1.419145 1.857148 0.067144 -0.021425 623792.000000 0 0 1
-4.137394 32.566026 -8.399666 33.885372 -1.444427 1.821293 0.083755 -0.030067 462040.000000 0 0 1
-3.711094 31.457499 -7.630766 32.581821 -1.453367 1.807195 0.080667 -0.035432 135391.000000 0 0 1
-3.132994 31.866819 -6.273166 32.629165 -1.472796 1.764257 0.089679 -0.036928 304997.000000 0 0 1
-2.004694 32.748542 -6.240266 33.398005 -1.509658 1.758746 0.075588 -0.034306 350192.000000 0 0 1
-1.701894 33.276805 -4.923766 33.682127 -1.519697 1.717505 0.083413 -0.034884 -443084.000000 0 0 1
-0.607394 32.626878 -4.108866 32.890194 -1.552182 1.696050 0.091624 -0.043697 -40052.700000 0 0 1
0.718006 32.983095 -4.489466 33.294976 1.549031 1.706047 0.098125 -0.038017 -629549.000000 0 0 1
1.699506 32.359365 -3.810066 32.627188 1.518325 1.687839 0.091969 -0.036490 -965859.000000 0 0 1
3.087806 32.604799 -4.416066 33.047074 1.476374 1.704827 0.078136 -0.024525 -364944.000000 0 0 1
3.707806 33.789196 -3.958566 34.221745 1.461500 1.686730 0.076093 -0.025441 275766.000000 0 0 1
5.111106 33.568098 -4.179066 34.211185 1.419696 1.693257 0.073509 -0.018027 764101.000000 0 0 1
5.916106 -33.201560 -3.644866 33.920922 -1.394459 1.678456 0.070357 -0.016942 43904.700000 0 0 1
5.719006 -32.067230 -4.465966 32.877942 -1.394308 1.707052 0.075886 -0.026613 -108245.000000 0 0 1
6.450206 -30.991890 -3.939366 31.900172 -1.365600 1.694603 0.070011 -0.027633 137993.000000 0 0 1
6.266106 -29.653430 -4.756466 30.679210 -1.362549 1.726463 0.085642 -0.028468 369897.000000 0 0 1
7.161106 -29.614430 -5.886666 31.031415 -1.333539 1.761653 0.095791 -0.030328 200005.000000 0 0 1
6.987206 -28.511480 -6.737266 30.118371 -1.330466 1.796398 0.099647 -0.029746 253331.000000 0 0 1
7.399406 -27.070500 -6.224266 28.745515 -1.303976 1.789055 0.089072 -0.021328 666042.000000 0 0 1
6.426806 -26.595980 -5.286966 27.867579 -1.333696 1.761671 0.080729 -0.021367 326980.000000 0 0 1
6.902906 -25.431550 -4.622966 26.754171 -1.305751 1.744462 0.066634 -0.021640 -55060.500000 0 0 1
5.946206 -24.944150 -3.540066 25.886291 -1.336783 1.707981 0.070085 -0.020138 323026.000000 0 0 1
4.697406 -24.438550 -3.989766 25.203701 -1.380899 1.729766 0.071717 -0.019622 133256.000000 0 0 1
3.992406 -23.795450 -2.932566 24.305610 -1.404564 1.691745 0.057004 -0.015375 892276.000000 0 1 0
2.656606 -23.086050 -3.352166 23.478932 -1.456226 1.714059 0.057960 -0.018241 1070420.000000 0 1 0
1.690506 -23.931150 -3.964666 24.316174 -1.500273 1.734574 0.075384 -0.019193 -99671.200000 0 1 0
0.653506 -23.179350 -4.559866 23.632641 -1.542610 1.764962 0.060193 -0.022192 193487.000000 0 1 0
-15.576794 23.163650 17.944317 33.184179 -0.978789 0.999469 0.002712 -0.013218 -126701.000000 0 0 1
-15.696994 22.698550 19.296717 33.674665 -0.965770 0.960594 0.004126 -0.010569 205796.000000 0 0 1
-15.327194 23.692350 20.239417 34.725845 -0.996585 0.948584 0.009394 -0.007420 -1163980.000000 0 0 1
-15.386494 23.150550 21.728717 35.282139 -0.984207 0.907324 0.028025 -0.014413 125218.000000 0 0 1
-14.330494 22.237750 22.102117 34.472948 -0.998352 0.874809 0.018706 -0.010419 1531690.000000 0 0 1
-12.999994 22.795850 22.178517 34.358947 -1.052517 0.869126 0.001059 -0.012761 592545.000000 0 0 1
-12.710994 23.808450 23.270837 35.636267 -1.080409 0.859244 0.043908 -0.013529 -851800.000000 0 0 1
-12.581694 23.249750 24.547547 36.075365 -1.074770 0.822417 0.032716 -0.009268 135006.000000 0 0 1
-12.513894 24.211350 25.570977 37.371940 -1.093751 0.817250 0.077908 -0.019284 -261082.000000 0 0 1
-11.940794 23.665050 26.865617 37.740940 -1.103495 0.778678 0.074621 -0.018156 -366005.000000 0 0 1
-10.548694 23.543250 26.905517 37.275547 -1.149560 0.764396 0.048270 -0.021723 -564378.000000 0 0 1
-10.106594 22.861450 28.033277 37.558671 -1.154548 0.728181 0.035884 -0.026862 -433697.000000 0 0 1
-8.590794 22.569450 28.061497 37.022013 -1.207092 0.710604 0.043119 -0.031890 679519.000000 0 0 1
-7.720694 23.680250 28.379637 37.759332 -1.255625 0.720323 0.051814 -0.036454 453678.000000 0 0 1
-7.479894 24.525950 27.229597 37.402166 -1.274778 0.755364 0.054168 -0.022320 -358521.000000 0 0 1
-6.361094 25.546050 27.579097 38.127035 -1.326754 0.762158 0.055774 -0.032473 -559071.000000 0 0 1
-5.070594 25.074250 27.457167 37.527656 -1.371264 0.750055 0.064832 -0.029921 -1046650.000000 0 0 1
-4.103994 26.003150 27.903727 38.361759 -1.414261 0.756294 0.078759 -0.022532 -100543.000000 0 0 1
-2.702494 25.391350 27.853657 37.786907 -1.464762 0.741991 0.071867 -0.024748 -436726.000000 0 0 1
-2.003594 25.362450 26.594557 36.804059 -1.491962 0.763242 0.079225 -0.030281 -543806.000000 0 0 1
-0.778794 24.798950 26.909767 36.602323 -1.539402 0.744845 0.089033 -0.017070 -738638.000000 0 0 1
0.110506 24.402150 25.726407 35.458781 1.566268 0.758992 0.085555 -0.026559 68561.600000 0 0 1
-0.356094 23.270750 25.001257 34.157246 -1.555495 0.749623 0.097954 -0.023844 222165.000000 0 0 1
0.448306 23.161550 23.815947 33.224354 1.551443 0.771563 0.100089 -0.020907 240156.000000 0 0 1
0.124506 21.926350 22.990407 31.770099 1.565118 0.761721 0.075585 -0.024390 -165002.000000 0 0 1
0.655706 20.720250 23.394237 31.257784 1.539161 0.725106 0.099790 -0.021912 -386261.000000 0 0 1
0.297506 19.651250 22.567617 29.925867 1.555658 0.716487 0.091849 -0.017857 -745010.000000 0 0 1
1.124006 18.419350 22.670917 29.231940 1.509849 0.683206 0.091738 -0.005563 -1586880.000000 0 0 1
2.374906 18.638850 22.151417 29.047069 1.444062 0.703467 0.072399 -0.012332 -1614870.000000 0 0 1
3.124206 17.474650 22.226617 28.445502 1.393880 0.673929 0.059729 -0.012025 774793.000000 0 0 1
4.565606 17.720650 21.601217 28.310401 1.318637 0.702834 0.059738 -0.013319 886755.000000 0 0 1
5.567106 18.219350 22.439917 29.436156 1.274246 0.703898 0.059423 -0.007212 -1039400.000000 0 0 1
6.645706 18.641050 21.644717 29.328279 1.228334 0.740672 0.067112 -0.015955 -96921.000000 0 0 1
7.746206 19.231850 22.586117 30.659427 1.187896 0.742652 0.082619 -0.023369 -215812.000000 0 0 1
7.378706 20.367850 23.298917 31.814056 1.223231 0.749035 0.063229 -0.014997 33961.700000 0 0 1
7.246106 21.501350 22.473317 31.935311 1.245743 0.790185 0.071906 -0.023248 -754927.000000 0 0 1
6.237706 22.451150 23.088587 32.803140 1.299797 0.789989 0.047879 -0.017311 -276832.000000 0 0 1
5.855406 23.575050 22.227717 32.926284 1.327350 0.829730 0.040662 -0.020244 -206702.000000 0 0 1
4.783606 24.236950 22.798717 33.616873 1.375933 0.825496 0.024302 -0.017307 -1182750.000000 0 0 1
4.551306 25.647450 22.166617 34.203289 1.395168 0.865730 0.038473 -0.016113 -108052.000000 0 0 1
4.259906 25.695450 20.798017 33.331074 1.406506 0.896967 0.044999 -0.018363 -967693.000000 0 0 1
3.063706 25.053650 20.547717 32.546588 1.449115 0.887526 0.065969 -0.026018 -1522490.000000 0 0 1
2.473706 25.535850 19.202917 32.046075 1.474226 0.928259 0.059116 -0.025444 -721662.000000 0 0 1
1.673906 26.689450 19.278817 32.966673 1.508160 0.946166 0.070356 -0.032344 133587.000000 0 0 1
1.107006 26.951250 17.980417 32.417445 1.529745 0.982851 0.079891 -0.032206 119550.000000 0 0 1
0.063106 28.062050 18.083417 33.384018 1.568548 0.998363 0.068002 -0.014910 139880.000000 0 0 1
0.761206 29.290650 18.289517 34.540238 1.544814 1.012770 0.082537 -0.016143 562922.000000 0 0 1
-0.166694 30.360650 18.404017 35.503587 -1.565306 1.025852 0.066413 -0.008973 -250868.000000 0 0 1
0.383806 31.655750 18.902617 36.871978 1.558673 1.032522 0.073649 -0.008223 -381182.000000 0 0 1
0.685106 31.605450 20.293417 37.565897 1.549123 1.000111 0.083406 -0.014528 -201465.000000 0 0 1
1.208706 32.791250 20.759617 38.828968 1.533952 1.006712 0.092391 -0.017036 -227944.000000 0 0 1
1.624406 32.644250 22.224617 39.524921 1.521076 0.973639 0.098443 -0.033123 -382607.000000 0 0 1
0.575806 32.343150 23.102177 39.750742 1.552995 0.950623 0.092464 -0.026050 -193464.000000 0 0 1
0.983506 32.256250 24.451387 40.488311 1.540315 0.922396 0.102769 -0.028874 344263.000000 0 0 1
-0.208194 31.869450 25.410967 40.760550 -1.564264 0.897686 0.091920 -0.026619 299704.000000 0 0 1
-1.182694 32.917050 25.443867 41.621165 -1.534882 0.913068 0.099183 -0.023076 49260.000000 0 0 1
-2.111294 32.786250 26.497627 42.208056 -1.506489 0.892091 0.098336 -0.023305 -105557.000000 0 0 1
-1.679294 33.225550 27.947467 43.449029 -1.520297 0.872095 0.110687 -0.030778 -687071.000000 0 0 1
-0.680494 32.382850 28.453677 43.112919 -1.549785 0.850004 0.114662 -0.027211 -199781.000000 0 0 1
-0.286894 32.750350 29.803617 44.282314 -1.562037 0.832490 0.108866 -0.031951 91063.100000 0 0 1
0.951906 31.903650 30.223117 43.956636 1.540968 0.812664 0.098060 -0.029461 1092130.000000 0 0 1
2.195906 32.011550 29.490927 43.580685 1.502306 0.827529 0.094418 -0.031744 1020240.000000 0 0 1
2.283006 31.608450 28.114937 42.364560 1.498694 0.845118 0.094829 -0.034153 -3650.720000 0 0 1
3.788706 31.489050 27.677997 42.094965 1.451054 0.853283 0.090063 -0.027641 1042950.000000 0 0 1
4.466706 30.403150 28.330517 41.796187 1.424924 0.825995 0.087428 -0.035585 -75682.500000 0 0 1
5.854806 30.442050 28.099857 41.840162 1.380790 0.834430 0.110049 -0.046462 -94137.300000 0 0 1
6.547906 29.185850 28.674527 41.435702 1.350099 0.806506 0.120161 -0.037930 -11867.900000 0 0 1
6.692906 29.346750 30.076997 42.551763 1.346568 0.785785 0.123602 -0.047634 -99752.300000 0 0 1
7.467506 28.291450 30.585077 42.327494 1.312733 0.763266 0.108180 -0.047476 -97662.600000 0 0 1
7.554806 28.254450 32.072323 43.405333 1.309524 0.739356 0.129330 -0.042118 -4524.260000 0 0 1
6.280806 28.393650 32.690860 43.753174 1.353097 0.727009 0.109693 -0.038066 -34323.000000 0 0 1
6.312006 28.112150 -33.765696 44.387573 1.349930 2.435190 0.114127 -0.035557 -76944.900000 0 0 1
6.412206 26.660150 -33.369406 43.190245 1.334763 2.453745 0.109238 -0.030171 -301834.000000 0 0 1
7.709406 26.189550 -33.613416 43.303455 1.284513 2.459459 0.114160 -0.035106 -234544.000000 0 0 1
7.772306 24.855350 -33.179276 42.178923 1.267728 2.476131 0.113572 -0.031495 861292.000000 0 0 1
9.205406 24.249050 -33.423176 42.306792 1.207982 2.481637 0.118321 -0.034294 529922.000000 0 0 1
9.498206 24.104750 33.024695 41.974819 1.195439 0.665231 0.110315 -0.030670 1450480.000000 0 0 1
10.814506 23.592750 32.640905 41.701320 1.140993 0.671755 0.114686 -0.040759 1181410.000000 0 0 1
11.052006 22.067650 32.963940 41.179478 1.106490 0.642677 0.109680 -0.040885 -636444.000000 0 0 1
10.406906 21.175450 32.100883 39.839303 1.114003 0.633840 0.101909 -0.041095 -135152.000000 0 0 1
10.244806 19.875250 32.625420 39.552493 1.094861 0.600835 0.091527 -0.045464 1239410.000000 0 0 1
8.896706 19.656050 33.460728 39.813717 1.145766 0.572716 0.114033 -0.044468 914667.000000 0 0 1
8.881606 20.251550 -33.115716 39.820332 1.157493 2.552830 0.130574 -0.039681 -707855.000000 0 0 1
7.623606 20.293250 -32.535126 39.095649 1.211437 2.553847 0.133529 -0.034168 -673327.000000 0 0 1
7.685106 20.726850 -31.057726 38.121457 1.215730 2.523016 0.135669 -0.037755 -300976.000000 0 0 1
7.855606 22.117850 -30.911026 38.812387 1.229523 2.492151 0.139570 -0.032937 6619.250000 0 0 1
8.031506 22.546050 -29.592816 38.060008 1.228585 2.461525 0.103135 -0.024833 -387234.000000 0 0 1
9.487406 22.775450 -29.192996 38.222546 1.176094 2.439920 0.094809 -0.022708 -402114.000000 0 0 1
10.194706 21.590050 -28.992416 37.558254 1.129639 2.452671 0.093842 -0.022838 550314.000000 0 0 1
11.621306 21.818050 -28.948906 38.067325 1.081374 2.434827 0.097633 -0.013566 989612.000000 0 0 1
12.372206 20.506350 -29.025476 37.630574 1.027928 2.451720 0.100984 -0.019989 -273896.000000 0 0 1
12.488506 19.681450 -30.187716 38.139487 1.005372 2.484069 0.102527 -0.020084 70865.500000 0 0 1
11.237606 19.103250 -30.488726 37.693240 1.039057 2.513015 0.115736 -0.026456 -59502.900000 0 0 1
11.317806 18.080750 -31.621876 38.143797 1.011508 2.548145 0.120660 -0.042765 -492811.000000 0 0 1
11.935206 16.902050 -31.196866 37.434915 0.955962 2.555960 0.127221 -0.029098 93233.100000 0 0 1
12.069806 15.871050 -32.205386 37.878191 0.920614 2.587229 0.119032 -0.030689 -38246.400000 0 0 1
13.224006 16.015150 -33.232856 39.189055 0.880569 2.583022 0.102379 -0.015664 -248712.000000 0 0 1
13.183406 17.210250 33.915657 40.252537 0.917121 0.568755 0.106663 -0.030505 -136784.000000 0 0 1
13.894906 17.288950 32.706483 39.518227 0.893811 0.595924 0.105238 -0.033073 -376335.000000 0 0 1
13.063906 16.821250 31.520357 38.041464 0.910468 0.594232 0.107035 -0.039200 -623084.000000 0 0 1
13.414906 17.573850 30.403467 37.592163 0.918809 0.628736 0.101540 -0.037618 478349.000000 0 0 1
12.530406 17.456250 29.272557 36.312730 0.948212 0.633224 0.095268 -0.035317 2571340.000000 0 0 1
10.953306 17.740650 29.410647 36.051238 1.017672 0.616683 0.069405 -0.031445 1858410.000000 0 0 1
10.096606 16.778050 30.001327 35.826304 1.029073 0.578268 0.080689 -0.035873 -197150.000000 0 0 1
8.815306 17.319450 30.179977 35.895738 1.099988 0.572097 0.080406 -0.033079 -17453.300000 0 0 1
8.024606 16.499150 31.268087 36.253407 1.118116 0.530633 0.089693 -0.037493 165925.000000 0 0 1
8.366806 16.733650 32.659398 37.638475 1.107150 0.520213 0.099362 -0.029844 158247.000000 0 0 1
7.885006 15.627750 33.418032 37.724856 1.103514 0.482504 0.121410 -0.037944 30542.400000 0 0 1
8.019306 15.914050 -32.882836 37.401165 1.104023 2.644962 0.118821 -0.036656 -46507.400000 0 0 1
7.082606 16.844050 -32.379036 37.179124 1.172759 2.627813 0.113018 -0.037876 97580.400000 0 0 1
6.953106 16.754550 -30.973846 35.894843 1.177428 2.611787 0.120983 -0.040983 180674.000000 0 0 1
5.743906 17.607150 -30.491666 35.675564 1.255456 2.595756 0.131337 -0.040385 -420723.000000 0 0 1
5.752106 17.833650 -29.092836 34.605186 1.258789 2.569385 0.128300 -0.046903 38647.800000 0 0 1
4.997106 18.938450 -28.655946 34.710217 1.312816 2.542020 0.135712 -0.048875 515912.000000 0 0 1
3.458406 18.675350 -28.601796 34.333540 1.387685 2.555407 0.159330 -0.054415 -468120.000000 0 0 1
3.023606 17.871750 -27.522546 32.955002 1.403200 2.559211 0.168497 -0.053172 27501.200000 0 0 1
1.658206 17.545550 -27.578616 32.728826 1.476568 2.572964 0.157269 -0.051728 429280.000000 0 0 1
0.477706 18.545050 -27.438746 33.121471 1.545043 2.547091 0.151589 -0.057863 -47088.300000 0 0 1
0.132206 18.871950 -26.100006 32.208357 1.563791 2.515544 0.164776 -0.061766 -548757.000000 0 0 1
-0.817594 19.867950 -26.085576 32.800323 -1.529668 2.490272 0.165192 -0.056243 -818823.000000 0 0 1
-1.324394 20.155650 -24.710966 31.916079 -1.505182 2.456323 0.154275 -0.060350 -22732.700000 0 0 1
-2.137794 19.155750 -24.092766 30.854081 -1.459656 2.466840 0.138948 -0.053289 49089.200000 0 0 1
-2.499294 19.625050 -22.821866 30.203090 -1.444126 2.427387 0.135712 -0.057552 -328896.000000 0 0 1
-3.706594 18.924950 -22.200866 29.406989 -1.377387 2.426377 0.105173 -0.043088 -1522510.000000 0 0 1
-4.915294 19.272050 -22.714666 30.191523 -1.321072 2.422422 0.103648 -0.031316 -975731.000000 0 0 1
-5.878194 18.276850 -22.283666 29.413571 -1.259625 2.430422 0.086790 -0.036657 1034390.000000 0 0 1
-7.387094 18.671950 -22.277466 29.991605 -1.194067 2.408024 0.102215 -0.022577 568129.000000 0 0 1
-7.801794 19.592150 -21.264266 29.948111 -1.191834 2.360347 0.065918 -0.018283 58183.200000 0 0 1
-7.717594 20.949450 -21.694166 31.130010 -1.217832 2.341847 0.083333 -0.025538 131903.000000 0 0 1
-8.202094 21.905450 -20.544166 31.131750 -1.212524 2.291496 0.102392 -0.033887 -143865.000000 0 0 1
-7.257694 21.998850 -19.543266 30.307800 -1.252128 2.271592 0.110710 -0.037967 -121457.000000 0 0 1
-7.673294 23.082950 -18.697866 30.680812 -1.249866 2.226140 0.116686 -0.042855 -159157.000000 0 0 1
-6.831294 23.060550 -17.440866 29.709247 -1.282799 2.198209 0.129007 -0.049400 977357.000000 0 0 1
-5.497594 23.598250 -17.614466 29.956140 -1.341913 2.199391 0.129275 -0.054775 685458.000000 0 0 1
-4.783994 23.620150 -16.390466 29.145248 -1.370961 2.168048 0.112974 -0.046266 -697180.000000 0 0 1
-3.299594 23.877750 -16.514666 29.219317 -1.433479 2.171468 0.105509 -0.044076 -719194.000000 0 0 1
-2.951494 25.231650 -16.790366 30.451008 -1.454350 2.154825 0.092949 -0.045249 -147830.000000 0 0 1
-1.645294 25.276850 -17.321466 30.686468 -1.505797 2.170582 0.098482 -0.048639 3134.260000 0 0 1
-1.166494 26.706150 -17.417366 31.905231 -1.527145 2.148270 0.100448 -0.062355 127825.000000 0 0 1
-2.062994 27.430750 -18.245766 33.009241 -1.495730 2.156454 0.119912 -0.071044 205446.000000 0 0 1
-1.644394 28.768550 -18.286166 34.127956 -1.513699 2.136265 0.120555 -0.065600 -618097.000000 0 0 1
-2.511094 29.718550 -19.177566 35.458100 -1.486501 2.142245 0.160064 -0.065571 876558.000000 0 0 1
-3.703294 30.190450 -18.528566 35.615803 -1.448742 2.117922 0.137406 -0.057763 917664.000000 0 0 1
-4.807694 29.299050 -18.480366 34.972449 -1.408155 2.127542 0.111867 -0.060183 -387989.000000 0 0 1
-6.089194 29.768050 -17.797966 35.213388 -1.369025 2.100679 0.143912 -0.051085 -248126.000000 0 0 1
-6.662094 30.903350 -18.290266 36.523066 -1.358467 2.095304 0.180848 -0.047271 -144354.000000 0 0 1
-6.369394 32.043150 -17.479766 37.052326 -1.374578 2.062081 0.173781 -0.073303 26888.800000 0 0 1
-7.156294 33.340550 -17.869066 38.498160 -1.359362 2.053475 0.163229 -0.046722 -584497.000000 0 0 1
-8.531594 33.183050 -17.902866 38.657671 -1.319140 2.052301 0.167701 -0.068665 -632548.000000 0 0 1
-9.224294 -33.596948 -17.584266 39.026259 1.302842 2.038206 0.193350 -0.054025 214982.000000 0 0 1
29.844006 -20.289950 -26.222426 44.608994 -0.597086 2.199168 0.087944 -0.015496 291881.000000 0 0 1
29.629706 -21.466350 -25.449396 44.568996 -0.626972 2.178533 0.083594 -0.020393 954296.000000 0 0 1
28.203306 -21.719950 -25.376806 43.716873 -0.656254 2.190115 0.075150 -0.021910 1281640.000000 0 0 1
27.779706 -23.156750 -24.809866 43.857457 -0.694887 2.172070 0.060594 -0.014437 239457.000000 0 0 1
28.128106 -24.336850 -25.586026 45.145513 -0.713261 2.173347 0.064997 0.000254 -1394340.000000 0 0 1
29.468306 -24.483750 -25.822836 46.202315 -0.693271 2.163864 0.068265 -0.000862 -1357720.000000 0 0 1
29.684106 -25.763260 -26.690536 47.510803 -0.714803 2.167330 0.069656 -0.008102 -73967.800000 0 0 1
29.339406 -26.832870 -25.877476 47.438881 -0.740805 2.147771 0.082387 -0.019293 -87399.900000 0 0 1
29.629706 -28.144610 -26.359066 48.629609 -0.759699 2.143656 0.072346 -0.017841 601277.000000 0 0 1
28.421406 -28.657150 -27.215136 48.679279 -0.789528 2.164060 0.073451 -0.021793 225708.000000 0 0 1
28.250106 -28.133250 -28.558156 49.041987 -0.783326 2.192377 0.049357 -0.019800 105762.000000 0 0 1
29.291806 -28.304490 -29.529126 50.310270 -0.768258 2.198071 0.032873 -0.017955 -48228.600000 0 0 1
29.481506 -29.781310 -29.987186 51.529767 -0.790457 2.191907 0.042569 -0.017672 -182024.000000 0 0 1
30.151206 -30.671370 -29.021906 51.885443 -0.793950 2.164393 0.050828 -0.020068 1109360.000000 0 0 1
31.523506 -30.413960 -28.686046 52.360573 -0.767486 2.150595 0.058576 -0.018422 609885.000000 0 0 1
32.592806 -30.353890 -29.779696 53.576860 -0.749845 2.160159 0.057191 -0.020190 -844549.000000 0 0 1
32.549506 -29.113620 -30.484076 53.257413 -0.729735 2.180215 0.063089 -0.025967 484481.000000 0 0 1
33.767506 -28.932360 -31.225606 54.335664 -0.708435 2.183009 0.062072 -0.029882 597802.000000 0 0 1
33.880506 -27.579690 -31.935546 54.114758 -0.683236 2.202035 0.055183 -0.020312 -8925.690000 0 0 1
33.850806 -26.515370 -31.034976 53.029347 -0.664475 2.195974 0.051456 -0.010156 414315.000000 0 0 1
32.559206 -26.143340 -30.537236 51.731024 -0.676536 2.202237 0.062078 -0.005701 408307.000000 0 0 1
32.544806 -24.722950 -29.865696 50.619645 -0.649654 2.201858 0.054744 -0.012507 -172694.000000 0 0 1
33.281106 -24.658950 -28.645606 50.361360 -0.637671 2.175844 0.062785 -0.011820 334473.000000 0 0 1
33.221406 -23.356850 -28.156236 49.416372 -0.612781 2.177029 0.060645 -0.011684 -264470.000000 0 0 1
34.184006 -23.149250 -26.971686 49.314358 -0.595256 2.149494 0.064051 -0.019642 -395760.000000 0 0 1
33.926006 -23.804350 -25.750986 48.792768 -0.611836 2.126760 0.067760 -0.027084 406660.000000 0 0 1
32.904506 -23.310750 -24.884866 47.385168 -0.616366 2.123701 0.080218 -0.013738 207789.000000 0 0 1
33.418006 -22.081850 -24.105366 46.748688 -0.583914 2.112548 0.088951 -0.008718 30141.800000 0 0 1
33.384906 -20.882850 -24.924066 46.603159 -0.558972 2.135085 0.087494 -0.022422 24895.900000 0 0 1
33.409106 -19.761550 -24.004966 45.639080 -0.534147 2.124656 0.069663 -0.033077 6633.410000 0 0 1
33.576706 -18.430150 -24.761166 45.609001 -0.501996 2.144684 0.066008 -0.044177 1141360.000000 0 0 1
32.375706 -18.118150 -25.525546 45.033401 -0.510200 2.173429 0.087397 -0.031935 1313110.000000 0 0 1
32.539906 -16.946750 -26.265656 45.121198 -0.480148 2.192122 0.082930 -0.018265 706841.000000 0 0 1
31.338706 -16.908050 -27.283916 44.859878 -0.494766 2.224591 0.063820 -0.003994 812257.000000 0 0 1
30.059206 -16.614850 -26.751946 43.534764 -0.504942 2.232543 0.062713 -0.007148 -28372.200000 0 0 1
29.127706 -16.456450 -27.790286 43.491815 -0.514268 2.263964 0.035393 -0.010691 -433094.000000 0 0 1
27.728206 -16.106950 -27.322756 42.128615 -0.526247 2.276482 0.023784 -0.006807 37361.400000 0 0 1
26.893606 -16.976250 -26.480256 41.384333 -0.563072 2.265115 0.054585 -0.000058 748639.000000 0 0 1
27.100506 -16.829350 -25.105836 40.595165 -0.555716 2.237557 0.061726 -0.003773 -168385.000000 0 0 1
26.416606 -17.924550 -24.281166 40.108622 -0.596173 2.221046 0.066240 -0.003341 -57108.700000 0 0 1
26.346906 -17.641050 -22.902566 39.113854 -0.590009 2.196337 0.061132 0.001373 133169.000000 0 0 1
25.804706 -18.731750 -22.139066 38.818804 -0.627901 2.177689 0.069652 0.003993 -7778.150000 0 0 1
25.825406 -18.377550 -20.631166 37.819716 -0.618474 2.147798 0.072692 -0.005843 300619.000000 0 0 1
24.824006 -17.472950 -20.153666 36.437693 -0.613321 2.156876 0.067851 -0.012156 212350.000000 0 0 1
24.821506 -16.127050 -20.701666 36.121294 -0.576179 2.181099 0.057804 -0.008214 220979.000000 0 0 1
26.032106 -15.165150 -20.395466 36.381689 -0.527494 2.165903 0.048008 -0.008859 526078.000000 0 0 1
26.072306 -14.609750 -19.098066 35.467535 -0.510759 2.139412 0.045302 -0.017753 56236.100000 0 0 1
27.270006 -13.883850 -18.962166 35.999698 -0.470921 2.125547 0.031318 -0.012183 -217172.000000 0 0 1
27.511106 -13.072950 -17.678866 35.217968 -0.443602 2.096688 0.036928 -0.016804 -334142.000000 0 0 1
27.805406 -13.730250 -16.445866 35.101665 -0.458674 2.058412 0.028187 -0.010827 238316.000000 0 0 1
27.712306 -12.725050 -15.440866 34.180684 -0.430465 2.039514 0.022867 -0.009867 -216839.000000 0 0 1
28.430706 -12.952550 -14.102666 34.277672 -0.427487 1.994812 0.035569 -0.023884 -499532.000000 0 0 1
27.997206 -14.077450 -13.339166 34.058060 -0.465898 1.973231 0.073415 -0.036751 118335.000000 0 0 1
28.450906 -14.104250 -12.037166 33.959936 -0.460234 1.933124 0.089721 -0.034710 -308309.000000 0 0 1
27.844506 -15.293550 -11.287166 33.713637 -0.502266 1.912184 0.095903 -0.051834 511354.000000 0 0 1
26.425906 -15.170750 -11.147366 32.446015 -0.521147 1.921508 0.085289 -0.058909 593705.000000 0 0 1
25.872706 -16.333450 -10.661866 32.401449 -0.563117 1.906099 0.079983 -0.058170 339838.000000 0 0 1
24.378406 -16.492950 -10.238166 31.163185 -0.594806 1.905547 0.101156 -0.059038 445936.000000 0 0 1
24.008006 -15.701350 -9.155966 30.112264 -0.579185 1.879749 0.088377 -0.053445 622151.000000 0 0 1
22.607206 -15.578850 -8.934066 28.872199 -0.603380 1.885395 0.102943 -0.054750 163817.000000 0 0 1
22.393006 -15.386250 -7.432266 28.167747 -0.602016 1.837815 0.090011 -0.043554 -556006.000000 0 0 1
22.656406 -14.115450 -6.968166 27.588294 -0.557176 1.826139 0.102292 -0.033382 296707.000000 0 0 1
22.450906 -13.900150 -5.589466 26.990729 -0.554371 1.779394 0.108867 -0.028724 -14310.500000 0 0 1
23.514306 -14.577050 -4.658566 28.055573 -0.554940 1.737617 0.101209 -0.022531 -553135.000000 0 0 1
24.784206 -14.044550 -4.808766 28.889972 -0.515554 1.738026 0.097326 -0.027403 -817243.000000 0 0 1
25.752506 -14.806850 -4.144466 29.993515 -0.521810 1.709419 0.107210 -0.035450 174058.000000 0 0 1
27.181906 -14.308250 -4.522766 31.048952 -0.484535 1.716982 0.111636 -0.039660 235078.000000 0 0 1
27.589906 -13.058350 -3.987766 30.783530 -0.442062 1.700704 0.131333 -0.028826 -272776.000000 0 0 1
28.928506 -12.809150 -4.295666 31.927817 -0.416839 1.705749 0.147314 -0.032720 -294709.000000 0 0 1
29.655906 -11.718850 -3.449066 32.073357 -0.376328 1.678541 0.159431 -0.044706 -591751.000000 0 0 1
30.309606 -12.311050 -2.320166 32.796606 -0.385820 1.641600 0.162802 -0.044879 129181.000000 0 0 1
30.900406 -11.360250 -1.508066 32.957012 -0.352303 1.616571 0.179572 -0.044457 277596.000000 0 0 1
32.330006 -10.847150 -1.874666 34.152662 -0.323711 1.625715 0.176052 -0.035260 17322.800000 0 0 1
32.316606 -10.065950 -3.046866 33.984846 -0.301955 1.660571 0.171470 -0.038214 214273.000000 0 0 1
33.294406 -10.612350 -3.921766 35.164182 -0.308562 1.682556 0.162394 -0.041321 -92767.200000 0 0 1
33.127606 -10.273050 -5.438366 35.107687 -0.300702 1.726328 0.148746 -0.046199 11397.200000 0 0 1
32.040306 -11.044750 -5.921866 34.404014 -0.331958 1.743785 0.128379 -0.052733 297927.000000 0 0 1
32.050906 -11.057550 -7.323966 34.686748 -0.332213 1.783543 0.112231 -0.048125 490854.000000 0 0 1
30.792706 -11.734750 -7.996266 33.909222 -0.364098 1.808852 0.110162 -0.049597 627449.000000 0 0 1
30.726206 -13.095950 -7.611366 34.256919 -0.402899 1.794851 0.092260 -0.045723 369254.000000 0 0 1
29.514006 -13.734250 -7.984466 33.518023 -0.435543 1.811323 0.085186 -0.042542 308790.000000 0 0 1
29.647706 -15.295750 -7.924666 34.289164 -0.476300 1.804018 0.090917 -0.049884 -114112.000000 0 0 1
30.127106 -15.818450 -9.134466 35.232149 -0.483492 1.833058 0.101528 -0.057845 152928.000000 0 0 1
30.363506 -17.239250 -8.914066 36.036021 -0.516378 1.820757 0.095589 -0.057665 -82217.700000 0 0 1
30.829906 -17.897450 -10.258266 37.094930 -0.525975 1.850989 0.078941 -0.063159 -218918.000000 0 0 1
32.127106 -17.607350 -10.728566 38.174230 -0.501347 1.855676 0.077556 -0.050784 134611.000000 0 0 1
32.393506 -18.029550 -12.052466 38.982891 -0.507880 1.885120 0.058329 -0.035220 -348909.000000 0 0 1
31.635406 -17.378450 -13.213866 38.437165 -0.502333 1.921734 0.052910 -0.040946 -67285.900000 0 0 1
32.106006 -16.073250 -13.518266 38.365199 -0.464152 1.930885 0.044744 -0.033630 77589.200000 0 0 1
31.209906 -15.510350 -14.435666 37.722906 -0.461220 1.963488 0.041816 -0.033711 -814245.000000 0 0 1
31.825406 -14.326850 -15.256366 38.090311 -0.422995 1.982893 0.037926 -0.019110 696493.000000 0 0 1
32.944906 -14.581250 -16.108266 39.464616 -0.416679 1.991245 0.017481 -0.022018 244893.000000 0 0 1
34.147306 -14.962950 -15.499066 40.375109 -0.412988 1.964787 0.026720 -0.025840 -1670980.000000 0 0 1
35.143106 -15.157550 -16.624266 41.727155 -0.407203 1.980572 0.037905 -0.027057 -768503.000000 0 0 1
36.437706 -15.383150 -16.103066 42.704291 -0.399477 1.957441 0.050945 -0.028846 -205102.000000 0 0 1
-37.182853 -15.908650 -17.107266 43.912507 0.404281 1.970968 0.052968 -0.031325 730473.000000 0 0 1
-35.642153 -15.859950 -16.748066 42.454667 0.418669 1.976312 0.069664 -0.026684 1114100.000000 0 0 1
-35.208953 -16.809750 -15.756366 42.077323 0.445428 1.954613 0.058014 -0.024836 312959.000000 0 0 1
-35.580153 -16.355550 -14.450366 41.740440 0.430876 1.924309 0.055233 -0.032393 -728963.000000 0 0 1
-34.868153 -17.165250 -13.381566 41.103530 0.457461 1.902398 0.048675 -0.030615 -164258.000000 0 0 1
-33.477353 -16.893150 -13.248366 39.769723 0.467332 1.910414 0.118270 -0.025733 568695.000000 0 0 1
-32.954953 -17.422450 -12.023066 39.167905 0.486323 1.882796 0.120906 -0.019885 -962572.000000 0 0 1
-31.533953 -17.015050 -11.776066 37.717076 0.494807 1.888326 0.146623 -0.019747 -1162810.000000 0 0 1
-31.299453 -15.684950 -11.385766 36.814523 0.464547 1.885226 0.144240 -0.032362 1182210.000000 0 0 1
-30.056153 -15.329750 -10.712166 35.399492 0.471645 1.878224 0.168141 -0.031707 1032350.000000 0 0 1
-30.084153 -15.446250 -9.179166 35.041404 0.474338 1.835841 0.157966 -0.025093 -138863.000000 0 0 1
-30.145453 -16.765450 -8.668266 35.566381 0.507554 1.816997 0.130095 -0.021464 1265.370000 0 0 1
-30.213953 -16.873350 -7.268166 35.361266 0.509317 1.777812 0.150821 -0.027360 -39493.100000 0 0 1
-30.603753 -18.366950 -6.824466 36.338793 0.540532 1.759719 0.124095 -0.031417 580591.000000 0 0 1
-31.849353 -18.980250 -7.136766 37.756650 0.537428 1.760960 0.097005 -0.029837 177815.000000 0 0 1
-31.792553 -19.413150 -8.472266 38.202305 0.548191 1.794429 0.095179 -0.024087 602662.000000 0 0 1
-33.111653 -20.165850 -8.891566 39.775659 0.547030 1.796244 0.077698 -0.027230 547640.000000 0 0 1
-34.204253 -19.329050 -9.206066 40.352134 0.514367 1.800967 0.069786 -0.024862 322355.000000 0 0 1
-35.260653 -20.205250 -9.644066 41.768095 0.520349 1.803794 0.046634 -0.031044 528468.000000 0 0 1
-36.584653 -19.528750 -10.069566 42.675579 0.490318 1.808999 0.041247 -0.039067 -165342.000000 0 0 1
-36.636853 -19.078250 -11.383666 42.846546 0.480101 1.839710 0.036254 -0.039518 -370930.000000 0 0 1
36.520406 -18.659850 -11.663766 42.637700 -0.472364 1.847884 0.054784 -0.045808 -672746.000000 0 0 1
36.209906 -18.500550 -13.160966 42.739193 -0.472349 1.883820 0.047510 -0.037552 -489218.000000 0 0 1
35.960006 -19.795650 -13.717666 43.280066 -0.503220 1.893309 0.036958 -0.029192 -121555.000000 0 0 1
35.401706 -19.702350 -15.022066 43.210251 -0.507848 1.925860 0.032974 -0.027903 -186444.000000 0 0 1
34.194106 -20.631950 -15.236866 42.744313 -0.542899 1.935278 0.042960 -0.034074 632102.000000 0 0 1
33.083406 -20.260550 -14.326566 41.355195 -0.549493 1.924556 0.048731 -0.033654 2141030.000000 0 0 1
31.830606 -20.932250 -14.626466 40.807843 -0.581709 1.937374 0.058115 -0.033467 1338340.000000 0 0 1
31.065006 -20.460950 -15.894366 40.451402 -0.582432 1.974607 0.063914 -0.035306 -504885.000000 0 0 1
30.373106 -19.218150 -15.657166 39.204715 -0.564143 1.981625 0.064265 -0.034257 448698.000000 0 0 1
29.482606 -18.937050 -16.731066 38.829943 -0.570952 2.016265 0.059419 -0.029605 82205.500000 0 0 1
28.717706 -17.602750 -16.566566 37.536842 -0.549893 2.027889 0.059078 -0.023416 240599.000000 0 0 1
27.637606 -17.769450 -15.650066 36.393889 -0.571399 2.015310 0.075083 -0.036233 472646.000000 0 0 1
27.031206 -16.584350 -15.195566 35.165778 -0.550306 2.017630 0.047188 -0.029168 -1575030.000000 0 0 1
25.641606 -16.631650 -14.582166 33.863598 -0.575404 2.015970 0.057607 -0.041520 -492784.000000 0 0 1
24.679706 -17.125350 -15.480666 33.793735 -0.606623 2.046645 0.071740 -0.036423 182459.000000 0 0 1
24.212406 -16.220150 -16.468066 33.474334 -0.590245 2.085137 0.058689 -0.023544 -858140.000000 0 0 1
23.281106 -16.800350 -17.558366 33.653497 -0.625096 2.119685 0.053911 -0.023163 -92503.600000 0 0 1
21.988706 -17.153750 -17.140966 32.734798 -0.662499 2.121904 0.063616 -0.018605 -431403.000000 0 0 1
21.253406 -17.676150 -18.233166 33.114979 -0.693765 2.153881 0.065828 -0.022771 491774.000000 0 0 1
19.749006 -17.875950 -17.906666 32.097064 -0.735657 2.162639 0.054058 -0.022872 461111.000000 0 0 1
19.009206 -16.658650 -17.747666 30.884303 -0.719592 2.182973 0.067996 -0.029736 860953.000000 0 0 1
17.620306 -17.017150 -17.672266 30.205422 -0.767987 2.195762 0.086143 -0.033785 819431.000000 0 0 1
16.598206 -15.954650 -17.239466 28.761962 -0.765631 2.213528 0.093758 -0.032329 -76385.900000 0 0 1
16.007406 -15.268350 -18.310166 28.716227 -0.761772 2.262207 0.098773 -0.027885 -440065.000000 0 0 1
14.768506 -14.757150 -17.923766 27.516243 -0.785014 2.280209 0.106467 -0.022181 4749.580000 0 0 1
13.843106 -14.461150 -19.186566 27.728699 -0.807230 2.334968 0.093391 -0.025243 330839.000000 0 0 1
14.151006 -13.304750 -19.981366 27.866150 -0.754585 2.370354 0.102475 -0.035489 245872.000000 0 0 1
13.184106 -13.049950 -21.010166 28.027645 -0.780284 2.418289 0.099537 -0.030392 493632.000000 0 0 1
13.201306 -11.570650 -21.485966 27.745290 -0.719666 2.456563 0.100354 -0.028473 374144.000000 0 0 1
14.432106 -11.197050 -22.132266 28.696634 -0.659837 2.451598 0.096384 -0.022923 516419.000000 0 0 1
14.304306 -9.909750 -22.750966 28.643023 -0.605864 2.488640 0.067719 -0.030174 -789604.000000 0 0 1
15.681406 -9.319550 -22.967866 29.330587 -0.536222 2.470381 0.074429 -0.023061 -550582.000000 0 0 1
16.260506 -10.005850 -24.042866 30.701473 -0.551628 2.470460 0.114343 -0.023428 646634.000000 0 0 1
17.687706 -9.862050 -24.112666 31.488658 -0.508633 2.443014 0.094763 -0.033521 620643.000000 0 0 1
22.326706 5.009350 -7.044766 23.941682 0.220711 1.869464 0.147468 0.025562 -36931.900000 0 1 0
22.197506 6.424050 -6.959366 24.133596 0.281708 1.863319 0.135968 0.019914 326100.000000 0 1 0
21.275606 6.728550 -5.972366 23.099653 0.306304 1.832315 0.113930 0.014614 -694797.000000 0 1 0
21.232406 8.280050 -5.855066 23.529898 0.371832 1.822274 0.101276 0.015686 -477799.000000 0 1 0
20.469006 8.772450 -6.927966 23.322367 0.404893 1.872401 0.072568 0.008379 362121.000000 0 1 0
20.249806 10.186250 -6.993366 23.721752 0.466068 1.870051 0.081275 0.010252 371295.000000 0 1 0
19.629106 10.998750 -5.764566 23.227237 0.510738 1.821599 0.093360 0.001989 408424.000000 0 1 0
20.629806 11.227850 -4.787466 23.970260 0.498421 1.771874 0.105357 0.007705 578276.000000 0 1 0
20.373706 12.578350 -4.329066 24.331946 0.553102 1.749666 0.131334 -0.004739 194001.000000 0 1 0
21.360606 12.896150 -3.210266 25.157345 0.543161 1.698753 0.125178 -0.020218 66956.700000 0 0 1
22.710406 13.117850 -3.611766 26.474240 0.523797 1.707649 0.120976 -0.026810 1164570.000000 0 0 1
23.573906 13.491850 -2.498266 27.276371 0.519819 1.662516 0.118433 -0.031112 538436.000000 0 0 1
24.285106 12.334650 -1.767466 27.295309 0.469956 1.635595 0.111994 -0.027886 -591079.000000 0 0 1
25.407706 11.813250 -2.448466 28.126489 0.435215 1.657959 0.098720 -0.026244 231837.000000 0 0 1
25.993606 10.802150 -1.636966 28.196341 0.393856 1.628885 0.101252 -0.028540 -976586.000000 0 0 1
27.364906 10.413650 -2.139066 29.357415 0.363625 1.643724 0.115329 -0.024738 -484119.000000 0 0 1
28.332506 11.465650 -2.030166 30.631905 0.384536 1.637121 0.093848 -0.035536 -232936.000000 0 0 1
29.625906 10.963350 -2.117666 31.660289 0.354432 1.637733 0.081532 -0.030958 -947688.000000 0 0 1
30.679706 11.968950 -1.700466 32.975623 0.371965 1.622387 0.068923 -0.031527 -1181290.000000 0 0 1
30.547406 12.348850 -0.346466 32.950845 0.384167 1.581311 0.106202 -0.040169 1043640.000000 0 0 1
31.598806 13.209150 0.174834 34.249040 0.395950 1.565692 0.094151 -0.045708 964703.000000 0 0 1
33.097206 12.813050 0.059134 35.490883 0.369366 1.569130 0.099821 -0.041971 124392.000000 0 0 1
34.032706 13.717850 0.646534 36.699080 0.383157 1.553178 0.102074 -0.053178 422854.000000 0 0 1
34.882406 14.346550 -0.305066 37.718680 0.390195 1.578884 0.120458 -0.035670 14220.900000 0 0 1
34.310906 15.629150 -1.078866 37.718332 0.427431 1.599403 0.075657 -0.021207 -1039300.000000 0 0 1
33.282306 15.339050 -1.911266 36.696748 0.431862 1.622903 0.075500 -0.014222 -1153600.000000 0 0 1
32.921606 16.533250 -2.593366 36.931099 0.465407 1.641076 0.061756 0.003547 -11199.700000 0 0 1
31.645706 16.214750 -3.397766 35.719934 0.473506 1.666063 0.064041 -0.015989 -580994.000000 0 0 1
31.925206 15.212350 -4.343166 35.630008 0.444671 1.692997 0.048673 -0.010393 367121.000000 0 0 1
30.889306 14.991650 -5.298466 34.741510 0.451847 1.723905 0.047910 -0.016525 913068.000000 0 0 1
29.645306 14.196350 -4.728366 33.207499 0.446604 1.713670 0.049721 -0.023623 147847.000000 0 0 1
28.634506 13.929350 -5.659066 32.341719 0.452752 1.746679 0.083361 -0.030265 593886.000000 0 0 1
27.468206 13.390150 -5.008666 30.965872 0.453580 1.733258 0.077747 -0.010817 1128780.000000 0 0 1
26.257306 13.181150 -5.987166 29.983912 0.465246 1.771827 0.080087 -0.014548 227144.000000 0 0 1
26.404106 11.999850 -6.820566 29.794183 0.426564 1.801767 0.077908 -0.001449 217900.000000 0 0 1
25.256906 11.621250 -7.556666 28.810900 0.431239 1.836186 0.103965 -0.004672 -19247.300000 0 0 1
24.859106 12.466950 -8.819166 29.174950 0.464850 1.877886 0.113772 -0.010206 -215781.000000 0 0 1
24.235506 13.670150 -8.482766 29.089346 0.513570 1.866707 0.108854 -0.018344 126715.000000 0 0 1
24.255006 14.615350 -9.521566 29.875977 0.542307 1.895157 0.110144 -0.025326 -682472.000000 0 0 1
23.564106 15.985950 -9.150566 29.909038 0.596084 1.881729 0.097873 -0.021251 1528340.000000 0 0 1
22.121006 15.989850 -9.033066 28.750835 0.625888 1.890394 0.135330 -0.021459 1438820.000000 0 0 1
21.601706 15.302550 -7.909566 27.629024 0.616338 1.861136 0.152167 -0.029149 -77649.700000 0 0 1
20.156906 14.821850 -8.288966 26.357069 0.634042 1.890713 0.176197 -0.014595 931743.000000 0 0 1
19.175306 14.923550 -7.257166 25.358848 0.661349 1.861033 0.192252 -0.048087 474129.000000 0 0 1
17.895506 14.439150 -7.605666 24.219503 0.678909 1.890232 0.183597 -0.057398 639633.000000 0 1 0
16.826406 14.816750 -6.492166 23.341213 0.721973 1.852655 0.168876 -0.036200 381193.000000 0 1 0
16.954006 14.040350 -5.339066 22.651167 0.691668 1.808744 0.154642 -0.031420 583789.000000 0 1 0
16.346706 14.767150 -4.235466 22.432626 0.734675 1.760745 0.128784 -0.024091 135279.000000 0 1 0
15.900606 13.687250 -3.177566 21.219496 0.710731 1.721109 0.092914 -0.015886 -186956.000000 0 1 0
16.986806 13.048650 -2.552766 21.571636 0.655025 1.689413 0.083150 -0.016596 439718.000000 0 1 0
16.579706 12.438550 -1.375966 20.772517 0.643647 1.637085 0.062253 -0.011702 -71854.600000 0 1 0
16.574706 13.332150 -0.133866 21.271696 0.677398 1.577090 0.059641 -0.014438 -398759.000000 0 1 0
15.568806 14.330050 -0.074366 21.159953 0.743990 1.574311 0.064493 -0.017848 406989.000000 0 1 0
15.702306 15.157850 1.069734 21.851022 0.767757 1.521821 0.063690 -0.013728 -796968.000000 0 1 0
14.480706 15.992850 1.385034 21.618983 0.834979 1.506687 0.063761 -0.008627 -723087.000000 0 1 0
14.481006 17.120450 0.536034 22.429817 0.868728 1.546896 0.071352 -0.011436 1349440.000000 0 1 0
13.407106 18.015050 0.987334 22.478153 0.931007 1.526858 0.057692 -0.017651 847912.000000 0 1 0
13.433306 19.412450 0.198634 23.607973 0.965464 1.562382 0.051490 -0.012343 -712841.000000 0 1 0
13.133306 19.257750 -1.165066 23.338853 0.972270 1.620737 0.056200 -0.022449 429612.000000 0 1 0
12.336306 20.375550 -1.610366 23.873432 1.026382 1.638302 0.055105 -0.028320 -56409.700000 0 1 0
10.841306 20.362950 -1.306966 23.106099 1.081563 1.627390 0.047350 -0.029658 -826333.000000 0 1 0
10.503306 20.561450 0.047034 23.088848 1.098526 1.568759 0.031130 -0.025055 155232.000000 0 1 0
9.139106 20.187650 0.225234 22.161119 1.145693 1.560633 0.025047 -0.030648 564212.000000 0 1 0
8.676906 20.046450 1.686234 21.908726 1.162304 1.493754 0.015981 -0.028057 7517.610000 0 1 0
8.419506 21.290750 2.344034 23.014748 1.194215 1.468770 0.012807 -0.018414 171824.000000 0 1 0
7.372006 21.220350 3.284634 22.703272 1.236437 1.425610 0.004858 -0.020192 -282205.000000 0 1 0
7.027806 22.616950 3.794534 23.985725 1.269523 1.411929 0.007675 -0.011516 234725.000000 0 1 0
7.823606 23.136950 4.875134 24.905707 1.244723 1.373781 0.019698 -0.009442 409160.000000 0 1 0
7.222606 24.299150 5.378334 25.914112 1.281876 1.361732 0.016648 -0.006848 8933.040000 0 0 1
7.805506 24.734250 6.734234 26.796622 1.265113 1.316764 0.017601 -0.007910 246554.000000 0 0 1
7.220606 23.964350 7.789434 26.212641 1.278142 1.269076 0.020749 -0.028893 327274.000000 0 0 1
7.740206 24.432250 9.006934 27.165613 1.263996 1.232843 0.030970 -0.031182 62617.800000 0 0 1
7.298706 23.494750 10.141734 26.610697 1.269595 1.179794 0.038163 -0.036504 -97113.100000 0 0 1
6.025206 23.723750 10.709334 26.717209 1.322081 1.158362 0.037345 -0.032551 22017.900000 0 0 1
5.582406 22.573850 11.429734 25.911017 1.328365 1.113956 0.039141 -0.032396 -273820.000000 0 0 1
4.291606 22.946650 12.166534 26.324726 1.385907 1.090354 0.029313 -0.033414 -308765.000000 0 0 1
3.250906 23.225750 11.260834 26.015577 1.431730 1.123145 0.019356 -0.031018 -36893.400000 0 0 1
2.071406 23.628350 11.952234 26.560225 1.483354 1.104025 0.028811 -0.027413 453736.000000 0 0 1
0.879006 23.899650 10.999334 26.323968 1.534034 1.139724 0.039184 -0.013674 -254622.000000 0 0 1
1.060506 25.060850 10.268234 27.103644 1.528504 1.182242 0.037950 -0.020384 199845.000000 0 0 1
0.247806 25.137450 9.079434 26.728055 1.560939 1.224202 0.025614 -0.018166 587493.000000 0 0 1
-1.178194 25.710850 9.288534 27.362617 -1.525004 1.224453 0.043238 -0.031758 337600.000000 0 0 1
-2.028994 24.920750 10.110434 26.970011 -1.489558 1.186532 0.051813 -0.029647 167496.000000 0 0 1
-3.343794 25.459650 10.071634 27.582831 -1.440207 1.197012 0.067271 -0.035306 161548.000000 0 0 1
-4.496494 24.496550 10.536834 27.043009 -1.389261 1.170564 0.075320 -0.037145 412587.000000 0 0 1
-4.743594 24.529250 11.944634 27.692239 -1.379769 1.124824 0.056999 -0.024093 375434.000000 0 0 1
-5.618394 25.629750 12.242734 28.954015 -1.354996 1.134226 0.067292 -0.021354 -214529.000000 0 0 1
-6.155894 25.670450 13.665134 29.725460 -1.335436 1.093126 0.053243 -0.011251 -543821.000000 0 0 1
-7.216994 24.806150 13.897034 29.335263 -1.287676 1.077273 0.051790 -0.019735 -523414.000000 0 0 1
-7.554594 24.943250 15.229834 30.185849 -1.276707 1.041952 0.032621 0.008082 -352991.000000 0 0 1
-8.738594 24.032250 15.550234 29.928613 -1.222040 1.024440 0.034063 -0.004154 -284794.000000 0 0 1
-9.977494 24.622350 15.280534 30.648087 -1.185797 1.048836 0.031426 -0.000601 637363.000000 0 0 1
-11.113794 23.700150 15.293634 30.316807 -1.132309 1.042039 0.033822 -0.008530 961226.000000 0 0 1
-12.485794 24.266850 14.966434 31.125058 -1.095600 1.069174 0.031920 -0.007895 -171285.000000 0 0 1
-13.062394 25.014050 16.046634 32.462645 -1.089545 1.053755 0.020930 -0.002475 -202301.000000 0 0 1
-14.043494 25.898850 15.610434 33.341503 -1.073927 1.083546 0.019641 0.001321 -575457.000000 0 0 1
-14.656794 26.868050 16.635434 34.834629 -1.071407 1.072927 0.026725 -0.002779 459349.000000 0 0 1
-15.817994 26.381150 17.327134 35.304442 -1.030675 1.057798 0.025515 -0.007388 478778.000000 0 0 1
-16.160794 27.290850 18.332634 36.633963 -1.036155 1.046704 0.047617 -0.019732 502184.000000 0 0 1
-17.427894 26.804750 19.145534 37.266307 -0.994295 1.031247 0.039548 -0.022881 1727850.000000 0 0 1
-18.680094 27.048150 18.445734 37.693414 -0.966391 1.059438 0.030954 -0.017052 307556.000000 0 0 1
-19.760994 26.595950 19.177634 38.283457 -0.931785 1.046114 0.045973 -0.021957 -480262.000000 0 0 1
-21.080894 26.618950 18.381434 38.611523 -0.900983 1.074626 0.059512 -0.032099 -293587.000000 0 0 1
-21.689394 27.874550 18.296834 39.776809 -0.909548 1.092815 0.049242 -0.030860 94942.700000 0 0 1
-22.424994 27.992350 17.083134 39.727642 -0.895378 1.126297 0.067786 -0.033291 -441638.000000 0 0 1
-23.412594 29.153250 17.055534 41.096871 -0.894176 1.142845 0.053069 -0.036628 -729722.000000 0 0 1
-24.647594 28.784950 17.596734 41.781842 -0.862675 1.136075 0.051491 -0.038111 -323864.000000 0 0 1
-25.601924 29.816550 17.531134 43.032846 -0.861303 1.151202 0.054888 -0.040575 236638.000000 0 0 1
-27.011764 29.564850 18.112834 43.952139 -0.830494 1.146035 0.072084 -0.038425 -51164.300000 0 0 1
-27.835234 28.688350 17.411934 43.600426 -0.800490 1.159986 0.099615 -0.028257 186344.000000 0 0 1
-29.169684 28.559250 17.881134 44.567210 -0.774824 1.157951 0.140511 -0.039879 499201.000000 0 0 1
-29.414714 27.299250 18.783834 44.309219 -0.748115 1.133020 0.131113 -0.036880 -426077.000000 0 0 1
-29.465974 26.187050 17.946734 43.313860 -0.726549 1.143577 0.144022 -0.036366 138664.000000 0 0 1
-29.651484 25.051050 18.697834 43.085666 -0.701496 1.121903 0.139193 -0.029887 -44479.600000 0 0 1
-30.055034 23.807350 17.851734 42.293964 -0.669921 1.135050 0.143132 -0.037865 -144173.000000 0 0 1
-31.356714 23.789950 17.295034 42.992132 -0.649038 1.156786 0.161804 -0.039305 82812.400000 0 0 1
-31.546824 22.859150 16.290134 42.226903 -0.627053 1.174747 0.158241 -0.046964 -115719.000000 0 0 1
-31.979874 21.413950 16.736634 41.968852 -0.590036 1.160603 0.150295 -0.046722 -238160.000000 0 0 1
-33.365084 21.241950 16.901334 43.012840 -0.566934 1.166973 0.150288 -0.037325 -184878.000000 0 0 1
-33.558544 19.790750 16.967234 42.493961 -0.532840 1.160059 0.129696 -0.035006 249504.000000 0 0 1
-34.918013 19.440050 16.320034 43.168585 -0.507999 1.183103 0.125019 -0.043719 41582.800000 0 0 1
-34.957644 19.660650 14.922734 42.793294 -0.512324 1.214595 0.093835 -0.037592 770702.000000 0 0 1
-36.287804 19.424350 14.434834 43.617365 -0.491476 1.233494 0.102674 -0.035123 611084.000000 0 0 1
-36.404964 19.776050 12.965634 43.411073 -0.497626 1.267496 0.092678 -0.023144 -199218.000000 0 0 1
-36.291124 21.199850 12.807834 43.937683 -0.528692 1.275002 0.081339 -0.029854 15449.800000 0 0 1
-36.257624 21.720950 11.474834 43.795968 -0.539737 1.305695 0.050591 -0.022121 417853.000000 0 0 1
-35.229700 21.154450 10.412734 42.391834 -0.540767 1.322626 0.081075 -0.026724 70039.100000 0 0 1
-35.663979 19.926950 9.854234 42.025096 -0.509530 1.334108 0.101112 -0.022753 -222416.000000 0 0 1
-34.596713 19.188950 9.345534 40.650798 -0.506404 1.338824 0.119496 -0.027177 -118850.000000 0 0 1
-33.880374 18.256050 10.346934 39.852505 -0.494234 1.308157 0.099916 -0.028816 131180.000000 0 0 1
-33.161304 18.942850 11.377334 39.849058 -0.518999 1.281257 0.103511 -0.029023 448541.000000 0 0 1
-32.598354 18.029050 12.334034 39.240639 -0.505194 1.251058 0.112132 -0.043431 119291.000000 0 0 1
-31.877944 18.640750 13.550734 39.335776 -0.529134 1.219102 0.093705 -0.016932 755075.000000 0 0 1
-30.598714 19.224950 13.286734 38.502173 -0.560964 1.218461 0.111073 -0.028662 454473.000000 0 0 1
-30.747194 20.614950 13.168534 39.290920 -0.590628 1.229027 0.125080 -0.028285 107693.000000 0 0 1
-29.393804 21.305250 13.421734 38.704681 -0.627191 1.216668 0.148804 -0.040274 -231371.000000 0 0 1
-29.035274 21.247850 14.788034 38.899926 -0.631747 1.180832 0.136970 -0.038030 523050.000000 0 0 1
-27.845934 22.022950 14.991934 38.537832 -0.669159 1.171230 0.156727 -0.041734 418427.000000 0 0 1
-27.110204 21.936450 16.367434 38.523550 -0.680300 1.131980 0.130922 -0.044305 26527.400000 0 0 1
-26.223984 20.820250 16.384834 37.277915 -0.671034 1.115719 0.131682 -0.041318 34069.800000 0 0 1
-25.864114 20.508450 17.693834 37.451578 -0.670416 1.078733 0.109746 -0.028516 -703508.000000 0 0 1
-24.754294 19.487950 17.777734 36.174620 -0.666921 1.057051 0.114052 -0.023258 -369869.000000 0 0 1
-24.260894 19.335850 19.142234 36.453960 -0.672907 1.017955 0.101444 -0.029493 202083.000000 0 0 1
-23.238194 18.368850 19.203434 35.301561 -0.668896 0.995620 0.086852 -0.024102 -113344.000000 0 0 1
-22.798894 18.090050 20.680934 35.703509 -0.670741 0.952999 0.088236 -0.021280 485882.000000 0 0 1
-23.846594 17.422050 21.385034 36.462413 -0.630962 0.944071 0.093017 -0.011742 527665.000000 0 0 1
-23.634894 17.693850 22.770534 37.285088 -0.642625 0.913834 0.106271 -0.011319 231509.000000 0 0 1
-24.577394 16.878650 23.683234 38.076669 -0.601781 0.899517 0.099789 -0.009185 81829.600000 0 0 1
-23.876594 15.791350 24.263934 37.525951 -0.584329 0.867690 0.114957 -0.022058 -16954.600000 0 0 1
-24.687194 14.918850 24.995334 38.168002 -0.543587 0.856777 0.116593 -0.029473 -56019.900000 0 0 1
21.796406 24.857150 33.243068 46.883503 0.850910 0.782637 0.051132 -0.000863 -11448.400000 0 0 1
22.682406 23.900150 32.751726 46.458414 0.811534 0.788417 0.066964 -0.013594 -287191.000000 0 0 1
22.434106 22.583250 33.316096 46.078787 0.788711 0.762626 0.070912 -0.014374 92725.100000 0 0 1
21.276206 21.748450 32.695488 44.661695 0.796374 0.749441 0.067138 -0.020839 112392.000000 0 0 1
21.537806 21.285350 31.388577 43.614057 0.779503 0.767441 0.073182 -0.016576 191270.000000 0 0 1
20.596106 20.328550 30.901137 42.335916 0.778860 0.752615 0.078873 -0.016856 -44786.400000 0 0 1
20.898206 19.671650 29.492127 41.152089 0.755174 0.771792 0.077570 -0.007769 855716.000000 0 0 1
22.042906 18.763750 29.459057 41.301381 0.705212 0.776643 0.068693 -0.007057 699520.000000 0 0 1
22.092706 18.247850 28.172837 40.184331 0.690375 0.793871 0.057419 -0.008867 -279336.000000 0 0 1
23.316806 17.345250 28.058537 40.395701 0.639582 0.802943 0.066970 -0.007320 515420.000000 0 0 1
24.584406 18.017250 28.220837 41.538295 0.632449 0.823861 0.075389 -0.006449 385641.000000 0 0 1
25.481606 17.056950 28.792987 42.062904 0.589881 0.816848 0.070703 -0.002123 19655.900000 0 0 1
26.910406 17.608650 28.878667 43.222817 0.579423 0.839097 0.082051 -0.009388 -488558.000000 0 0 1
27.724406 17.594550 27.742947 42.986998 0.565489 0.869276 0.069942 -0.004206 352713.000000 0 0 1
29.066506 17.839850 28.194027 44.249579 0.550476 0.879990 0.082089 -0.007035 624253.000000 0 0 1
30.113406 17.537350 27.109927 44.151150 0.527360 0.909646 0.072750 -0.001193 -108428.000000 0 0 1
30.334406 18.623450 26.184177 44.188463 0.550605 0.936567 0.075041 -0.006742 -231833.000000 0 0 1
31.364106 18.399450 25.277157 44.285230 0.530538 0.963340 0.090871 -0.005686 -217529.000000 0 0 1
31.760106 19.488650 24.250997 44.459225 0.550374 0.993851 0.097585 -0.020538 387046.000000 0 0 1
30.665106 19.805350 23.391627 43.356301 0.573459 1.000928 0.077439 -0.015670 606832.000000 0 0 1
31.036306 20.747750 22.412017 43.543311 0.589270 1.030131 0.054621 -0.018634 -84552.300000 0 0 1
31.571206 20.003750 21.182817 42.960480 0.564765 1.055173 0.075594 -0.028034 -1781.010000 0 0 1
30.554706 19.245650 20.533917 41.540665 0.562097 1.053757 0.085021 -0.034746 279352.000000 0 0 1
30.928906 18.756750 19.242917 40.971975 0.545147 1.081890 0.091412 -0.036474 150949.000000 0 0 1
32.018006 17.646150 19.288117 41.334862 0.503712 1.085319 0.118544 -0.049465 287562.000000 0 0 1
31.416306 16.468250 19.877617 40.660881 0.482815 1.060010 0.129269 -0.044454 609553.000000 0 0 1
32.339606 15.411550 20.057817 41.057058 0.444715 1.060386 0.126554 -0.042582 -704483.000000 0 0 1
31.868906 14.203850 20.832817 40.637210 0.419269 1.032524 0.137119 -0.040664 -115271.000000 0 0 1
31.330306 14.347150 22.123817 40.949873 0.429431 1.000043 0.117057 -0.033198 137011.000000 0 0 1
30.023206 14.870850 22.196317 40.189695 0.459890 0.985689 0.116328 -0.021114 -155584.000000 0 0 1
29.169406 14.166650 23.322317 39.943444 0.452116 0.947292 0.073005 -0.006487 261177.000000 0 0 1
28.604306 12.906750 23.002647 38.909026 0.423866 0.938262 0.078846 -0.010231 -60676.800000 0 0 1
28.105606 12.285650 24.125907 39.024629 0.412095 0.904317 0.068208 -0.003823 -254150.000000 0 0 1
27.644706 10.859550 23.684787 37.988534 0.374306 0.897621 0.087088 -0.005952 756568.000000 0 0 1
26.494006 10.880550 22.808917 36.613733 0.389679 0.898274 0.063784 0.008214 654323.000000 0 0 1
26.279306 9.607450 22.188217 35.710251 0.350495 0.900344 0.080356 0.001896 -185658.000000 0 0 1
24.938106 9.536550 21.431617 34.236956 0.365250 0.894410 0.069767 -0.000815 -537642.000000 0 0 1
23.812706 9.373950 22.264017 33.920530 0.375023 0.854815 0.058096 -0.009617 -502428.000000 0 0 1
22.788306 9.083050 21.351617 32.522304 0.379285 0.854597 0.047819 -0.002654 -999559.000000 0 0 1
21.384306 9.241950 21.937017 31.998983 0.407940 0.815433 0.041748 -0.013036 -403232.000000 0 0 1
21.119306 8.374450 23.049367 32.364021 0.377512 0.778182 0.058569 -0.014087 834879.000000 0 0 1
19.694106 8.308850 23.209767 31.552941 0.399238 0.744271 0.071337 -0.013847 832685.000000 0 0 1
19.234806 7.588150 24.493957 32.054824 0.375757 0.701109 0.073072 -0.009232 -217367.000000 0 0 1
19.560706 6.241550 24.433657 31.915228 0.308874 0.698854 0.064519 -0.014347 32392.000000 0 0 1
19.061406 5.493750 25.486427 32.296694 0.280609 0.661398 0.070790 -0.021259 -325941.000000 0 0 1
19.466606 4.024050 25.445217 32.289330 0.203844 0.663181 0.073120 -0.024145 355222.000000 0 0 1
20.869406 3.826950 25.579737 33.234028 0.181361 0.692449 0.083976 -0.017793 408853.000000 0 0 1
21.386606 2.512550 25.490337 33.368505 0.116946 0.701455 0.072662 -0.012828 726137.000000 0 0 1
22.938106 2.448050 25.322087 34.254310 0.106322 0.738858 0.089672 -0.016777 206134.000000 0 0 1
23.670106 2.858050 26.400357 35.572760 0.120163 0.734522 0.103752 -0.027785 -194418.000000 0 0 1
25.049706 2.781250 26.102387 36.284401 0.110576 0.767882 0.115487 -0.024736 239757.000000 0 0 1
26.089606 3.235850 27.142827 37.787185 0.123398 0.769429 0.108222 -0.031739 -616093.000000 0 0 1
26.181506 2.267750 28.170957 38.525534 0.086401 0.750676 0.112861 -0.035376 -58845.400000 0 0 1
27.079806 2.570750 29.194017 39.902573 0.094649 0.750083 0.110663 -0.023862 532660.000000 0 0 1
28.601906 2.812750 28.964777 40.803663 0.098026 0.781501 0.103880 -0.020482 -844022.000000 0 0 1
28.874806 4.038350 28.298407 40.630808 0.138956 0.800321 0.103516 -0.010647 677977.000000 0 0 1
30.269606 4.220150 28.012037 41.457604 0.138526 0.828911 0.089116 -0.009518 593279.000000 0 0 1
31.014806 3.235550 27.137947 41.338301 0.103947 0.854648 0.082401 -0.014652 -1210220.000000 0 0 1
30.586306 3.328550 25.816677 40.163443 0.108398 0.872661 0.087134 -0.003627 -112679.000000 0 0 1
30.959006 2.253350 24.988667 39.849355 0.072657 0.893000 0.080472 0.008600 -199956.000000 0 0 1
30.412006 2.395750 23.563567 38.547003 0.078614 0.913101 0.104628 -0.005956 165227.000000 0 0 1
31.042906 3.383750 22.745417 38.632445 0.108574 0.941267 0.096638 -0.005066 615463.000000 0 0 1
32.360306 3.000650 22.289617 39.408379 0.092462 0.969628 0.093997 -0.010918 649725.000000 0 0 1
33.033606 4.195950 21.646017 39.716183 0.126344 0.994386 0.091682 -0.023979 -924774.000000 0 0 1
32.530306 4.527450 20.384617 38.655546 0.138288 1.015329 0.093548 -0.025710 -150792.000000 0 0 1
33.074606 5.694450 19.796217 38.964683 0.170498 1.037871 0.089483 -0.021891 1409.920000 0 0 1
34.603606 5.810150 19.550417 40.166979 0.166354 1.062455 0.057501 -0.021597 363828.000000 0 0 1
35.463506 5.888050 20.698417 41.481970 0.164530 1.048382 0.053877 -0.015210 317084.000000 0 0 1
35.354006 7.047850 21.484717 41.966308 0.196771 1.033341 0.067378 -0.017436 -675488.000000 0 0 1
36.128506 6.690550 22.760217 43.221059 0.183113 1.016200 0.066321 -0.022967 -87701.900000 0 0 1
35.430206 5.813550 23.625157 42.979587 0.162635 0.988811 0.061962 -0.012276 331961.000000 0 0 1
36.164406 5.461150 24.802077 44.190853 0.149877 0.974902 0.067675 -0.012300 60598.400000 0 0 1
35.565206 4.216050 25.420697 43.918912 0.117994 0.953528 0.060950 -0.004011 4188.060000 0 0 1
35.580406 3.042550 24.666547 43.401163 0.085304 0.966311 0.064745 -0.011768 -62347.900000 0 0 1
35.251606 1.914950 25.495057 43.546994 0.054269 0.945348 0.069431 -0.018018 -51756.800000 0 0 1
35.082006 0.546850 24.783647 42.956668 0.015587 0.955813 0.060017 -0.020178 136640.000000 0 0 1
33.806406 0.344650 24.192657 41.572545 0.010194 0.949686 0.080138 -0.012204 108453.000000 0 0 1
33.728506 -0.896850 23.590237 41.169355 -0.026584 0.960629 0.072636 -0.017396 -108269.000000 0 0 1
32.405906 -1.324350 22.922947 39.715969 -0.040845 0.955535 0.086361 -0.017222 233371.000000 0 0 1
31.291406 -1.407950 23.814877 39.348225 -0.044964 0.920737 0.091836 -0.011133 -101636.000000 0 0 1
30.337406 -2.230150 23.196057 38.254266 -0.073380 0.919315 0.104974 -0.014654 617260.000000 0 0 1
28.842206 -1.777950 23.328497 37.138292 -0.061566 0.891620 0.075746 -0.001894 643826.000000 0 0 1
28.487906 -0.502150 22.808617 36.497205 -0.017625 0.895740 0.086361 0.003982 -453409.000000 0 0 1
27.097106 -0.386450 22.880417 35.467111 -0.014261 0.869621 0.091609 0.002819 -421336.000000 0 0 1
26.463006 0.971350 22.702117 34.880085 0.036689 0.862077 0.079514 0.014966 -165765.000000 0 0 1
26.483306 1.555650 21.425717 34.100541 0.058673 0.891417 0.073178 0.008133 141012.000000 0 0 1
25.622106 2.670250 21.404817 33.493115 0.103842 0.877493 0.085290 0.002033 188.021000 0 0 1
25.655706 3.460150 20.079817 32.762585 0.134060 0.911085 0.085066 -0.006932 -94214.600000 0 0 1
25.124706 2.798650 18.942717 31.589711 0.110933 0.927735 0.080296 -0.002510 148038.000000 0 0 1
24.532606 3.771550 18.134617 30.739839 0.152542 0.939814 0.088786 -0.012659 -370075.000000 0 0 1
24.141306 3.247750 16.743717 29.558461 0.133728 0.968591 0.093794 -0.011784 -610583.000000 0 0 1
25.224106 2.960650 15.898017 29.962776 0.116839 1.011497 0.095437 -0.017947 -7218.390000 0 0 1
24.949406 2.997650 14.479917 29.002186 0.119576 1.048040 0.099149 -0.030405 -571113.000000 0 0 1
24.234706 1.761350 13.890717 27.988843 0.072551 1.051471 0.108094 -0.013303 474610.000000 0 0 1
22.834206 1.792350 14.186317 26.941883 0.078333 1.016256 0.097044 -0.006296 869770.000000 0 0 1
22.187906 0.685450 13.533617 25.998689 0.030883 1.023301 0.098916 -0.015883 803717.000000 0 0 1
20.623806 0.662750 13.794817 24.820910 0.032124 0.981503 0.085705 -0.029798 812548.000000 0 1 0
19.726706 1.349050 12.975217 23.649929 0.068281 0.990064 0.107630 -0.029128 284275.000000 0 1 0
19.672106 1.013250 11.610417 22.865262 0.051461 1.038196 0.108162 -0.025532 -1179890.000000 0 1 0
19.404506 -0.510750 11.219017 22.420126 -0.026315 1.046736 0.102153 -0.018504 260382.000000 0 1 0
20.543406 -1.379550 11.179917 23.429154 -0.067052 1.073354 0.110285 -0.035893 1028650.000000 0 1 0
21.603806 -1.010150 10.311917 23.959977 -0.046724 1.125882 0.113684 -0.034653 -637570.000000 0 1 0
22.869906 -1.856150 10.455917 25.215156 -0.080984 1.143218 0.140394 -0.048595 -408051.000000 0 0 1
23.522906 -1.651250 11.682717 26.316147 -0.070083 1.110808 0.119001 -0.051464 -893477.000000 0 0 1
24.690106 -2.359050 11.700017 27.423655 -0.095257 1.130022 0.088975 -0.048224 -961501.000000 0 0 1
25.255706 -2.573750 13.160017 28.594771 -0.101557 1.092548 0.114290 -0.030053 72607.900000 0 0 1
25.837606 -1.452050 13.804717 29.330199 -0.056140 1.080751 0.114454 -0.025243 185209.000000 0 0 1
26.157106 -1.732750 15.145917 30.275327 -0.066147 1.046883 0.094659 -0.024817 -152994.000000 0 0 1
27.193306 -0.732650 15.681717 31.399505 -0.026936 1.047861 0.131694 -0.029112 -339472.000000 0 0 1
28.526406 -1.153950 15.532317 32.501390 -0.040430 1.072537 0.137287 -0.029888 -295522.000000 0 0 1
29.358506 -0.048550 15.849617 33.363672 -0.001654 1.075768 0.113941 -0.028443 337444.000000 0 0 1
30.842706 -0.459750 16.092317 34.791473 -0.014905 1.089943 0.107526 -0.025886 564087.000000 0 0 1
31.405106 -1.084050 14.912717 34.782826 -0.034505 1.127701 0.135988 -0.029918 170070.000000 0 0 1
32.773806 -1.387950 15.042517 36.087755 -0.042324 1.140839 0.136714 -0.033539 -141729.000000 0 0 1
33.401606 -2.190350 13.929117 36.255830 -0.065482 1.176466 0.127696 -0.039081 -250711.000000 0 0 1
33.668406 -1.492950 12.721217 36.022491 -0.044314 1.209864 0.139217 -0.039148 211230.000000 0 0 1
34.452206 -2.273350 11.860017 36.507296 -0.065890 1.239925 0.132643 -0.034030 -147444.000000 0 0 1
34.435506 -1.863650 10.372217 36.011945 -0.054067 1.278636 0.160734 -0.025889 -443788.000000 0 0 1
35.029206 -0.646650 10.019817 36.439816 -0.018458 1.292239 0.135116 -0.020212 81052.600000 0 0 1
34.198606 0.494750 10.057317 35.650232 0.014466 1.284803 0.128246 -0.022948 -581048.000000 0 0 1
34.834406 1.845650 9.683217 36.202306 0.052934 1.300025 0.130489 -0.026395 -453822.000000 0 0 1
35.240506 1.872350 8.363117 36.267626 0.053081 1.338108 0.128349 -0.022877 318648.000000 0 0 1
35.601806 3.212850 7.976717 36.625661 0.090000 1.351246 0.126888 -0.017440 -67096.800000 0 0 1
35.776006 3.306050 6.427517 36.498843 0.092148 1.393771 0.127916 -0.025434 -106042.000000 0 0 1
36.091406 4.622950 5.989817 36.875997 0.127396 1.407642 0.112253 -0.009005 -64073.000000 0 0 1
36.408906 4.423150 4.629717 36.967648 0.120893 1.445230 0.149224 -0.015344 -120171.000000 0 0 1
36.790806 5.705450 3.833417 37.427405 0.153853 1.468194 0.154266 -0.028846 -42265.000000 0 0 1
35.684406 6.570150 3.799117 36.482558 0.182079 1.466472 0.143930 -0.038183 153095.000000 0 0 1
36.046606 7.852850 3.289217 37.038413 0.214501 1.481874 0.134847 -0.039601 -571654.000000 0 0 1
34.870406 8.823450 3.496317 36.138936 0.247834 1.473898 0.150954 -0.031427 219218.000000 0 0 1
33.797006 8.787650 2.591517 35.016801 0.254380 1.496721 0.171050 -0.046327 430520.000000 0 0 1
32.933406 7.612350 2.668817 33.906927 0.227154 1.492005 0.180195 -0.048776 -112008.000000 0 0 1
31.667006 7.818750 1.798617 32.667524 0.242064 1.515710 0.198654 -0.053663 -87749.500000 0 0 1
31.896006 7.984250 0.438817 32.883066 0.245281 1.557451 0.202366 -0.043181 319585.000000 0 0 1
30.717406 7.820850 -0.342283 31.699241 0.249309 1.581594 0.170292 -0.040676 393709.000000 0 0 1
31.136706 7.643850 -1.832383 32.113557 0.240733 1.627887 0.150297 -0.033410 -271832.000000 0 0 1
30.088506 7.007850 -2.497983 30.994646 0.228828 1.651478 0.165776 -0.036311 457897.000000 0 0 1
30.450206 6.818250 -3.833583 31.438829 0.220281 1.693038 0.161770 -0.030090 676643.000000 0 0 1
29.315306 6.076350 -4.689883 30.303535 0.204382 1.726184 0.173856 -0.021833 448734.000000 0 0 1
29.270606 4.671450 -4.413283 29.967781 0.158261 1.718601 0.176210 -0.020829 468765.000000 0 0 1
28.277806 4.051850 -5.183183 29.033036 0.142319 1.750286 0.161585 -0.009593 -444559.000000 0 0 1
28.139906 2.510050 -5.031583 28.696193 0.088964 1.747047 0.188029 -0.008927 -443348.000000 0 0 1
27.525506 2.217350 -3.842183 27.880683 0.080383 1.709044 0.191022 -0.014697 254282.000000 0 0 1
27.726006 0.859450 -3.617783 27.974246 0.030988 1.700485 0.188546 -0.024402 -15178.100000 0 0 1
27.771806 0.465050 -2.120483 27.856524 0.016744 1.646992 0.173826 -0.029934 878121.000000 0 0 1
29.100706 0.704050 -1.615983 29.154042 0.024189 1.626254 0.162414 -0.019989 1170220.000000 0 0 1
29.117606 0.272650 -0.257383 29.120020 0.009363 1.579635 0.164339 -0.019906 63672.100000 0 0 1
30.475306 0.640750 0.378717 30.484394 0.021022 1.558373 0.184270 -0.024399 300508.000000 0 0 1
31.597906 -0.025250 -0.193083 31.598506 -0.000799 1.576907 0.168983 -0.024591 -396858.000000 0 0 1
32.763006 0.520350 0.294517 32.768462 0.015881 1.561808 0.133153 -0.031610 -928193.000000 0 0 1
-2.604394 -21.403450 -8.132566 23.044070 1.449711 1.931480 0.042090 -0.006746 294275.000000 0 1 0
-3.304494 -22.073350 -7.096166 23.420248 1.422195 1.878628 0.035434 -0.007207 19204.800000 0 1 0
-2.704994 -23.329150 -6.810366 24.452961 1.455363 1.853037 0.044527 -0.009948 231462.000000 0 1 0
-3.231794 -23.885250 -5.456366 24.712782 1.436308 1.793422 0.040949 -0.006176 -163096.000000 0 1 0
-2.843894 -23.073250 -4.366966 23.654449 1.448160 1.756476 0.038019 -0.002433 133576.000000 0 1 0
-3.407794 -23.584850 -3.159066 24.038259 1.427299 1.702596 0.046748 -0.017673 27438.500000 0 1 0
-2.864094 -22.736250 -1.945366 22.998359 1.445486 1.655485 0.047755 -0.024001 -1478160.000000 0 1 0
-1.533194 -22.831850 -1.728466 22.948456 1.503745 1.646187 0.051865 -0.016468 -2046040.000000 0 1 0
-1.262894 -22.391750 -0.425266 22.431367 1.514456 1.589756 0.043647 -0.021383 -436656.000000 0 1 0
0.202506 -22.408550 -0.002966 22.409465 -1.561760 1.570929 0.049518 -0.015134 -442465.000000 0 1 0
0.985006 -21.438950 -0.640066 21.471108 -1.524884 1.600611 0.026705 -0.012234 -77107.700000 0 1 0
2.217906 -21.236150 0.038634 21.351690 -1.466733 1.568987 0.018967 -0.009225 528616.000000 0 1 0
3.120806 -20.122850 -0.577166 20.371589 -1.416934 1.599132 0.020520 -0.011436 412215.000000 0 1 0
3.836206 -20.564050 -1.723166 20.989662 -1.386367 1.652985 0.018115 -0.005275 -197740.000000 0 1 0
4.612806 -19.559450 -2.337466 20.231505 -1.339193 1.686591 0.026385 -0.002500 -300827.000000 0 1 0
5.492306 -20.097750 -3.507366 21.127863 -1.304030 1.737575 0.034188 -0.003063 -494197.000000 0 1 0
6.576706 -20.862850 -2.993866 22.078831 -1.265421 1.706814 0.045798 -0.011820 -158558.000000 0 1 0
7.276506 -21.552150 -4.034366 23.102355 -1.245190 1.746326 0.051120 -0.010227 190297.000000 0 1 0
8.477806 -20.791350 -4.631566 22.926073 -1.183621 1.774218 0.068699 -0.013473 -775704.000000 0 1 0
8.176206 -19.606750 -5.275366 21.888455 -1.175713 1.814204 0.049012 -0.013414 -1194480.000000 0 1 0
9.179606 -19.275250 -6.117766 22.208725 -1.126338 1.849872 0.065505 -0.010384 -1168060.000000 0 1 0
8.859006 -18.042350 -7.008266 21.286713 -1.114365 1.906286 0.045117 -0.010056 371098.000000 0 1 0
9.799606 -17.894950 -8.098766 21.951116 -1.069783 1.948671 0.056004 -0.000595 707215.000000 0 1 0
9.585606 -16.670150 -8.740266 21.122736 -1.048950 1.997404 0.050423 0.001302 425030.000000 0 1 0
10.449106 -16.551850 -10.064166 22.009884 -1.007683 2.045704 0.059680 -0.005208 191676.000000 0 1 0
10.044406 -17.295550 -11.229666 22.937557 -1.044651 2.082399 0.067332 0.001788 -117560.000000 0 1 0
9.143706 -16.575250 -12.020266 22.423939 -1.066689 2.136543 0.044847 -0.008548 69064.100000 0 1 0
8.234506 -17.215450 -13.100266 23.147262 -1.124642 2.172385 0.051964 -0.013683 -440481.000000 0 1 0
7.189706 -17.995450 -12.666366 23.150916 -1.190696 2.149718 0.040516 -0.009157 -410615.000000 0 1 0
6.593106 -18.630550 -13.786566 24.096386 -1.230663 2.179912 0.047916 -0.009034 -133107.000000 0 1 0
5.462606 -19.584150 -13.384566 24.341848 -1.298780 2.152991 0.052018 -0.005779 -246644.000000 0 1 0
5.890606 -20.844150 -12.843066 25.181782 -1.295376 2.105998 0.067351 -0.014511 32524.600000 0 0 1
4.809606 -21.669650 -12.462466 25.456219 -1.352386 2.082387 0.109833 -0.021596 267000.000000 0 0 1
5.346806 -23.091250 -12.243866 26.677826 -1.343255 2.047613 0.085863 -0.022977 -395021.000000 0 0 1
5.765606 -23.671550 -13.496866 27.852286 -1.331881 2.076688 0.103674 -0.032555 10333.200000 0 0 1
5.237106 -24.958550 -13.868066 29.028946 -1.363965 2.068868 0.093502 -0.025113 -122979.000000 0 0 1
3.722106 -25.078520 -14.046966 28.984538 -1.423454 2.076744 0.110218 -0.039963 -345067.000000 0 0 1
2.928406 -24.885550 -12.861966 28.165516 -1.453660 2.045030 0.119894 -0.046345 1229540.000000 0 0 1
1.517106 -25.000350 -13.218166 28.320293 -1.510187 2.056395 0.103197 -0.057270 1486280.000000 0 0 1
0.788506 -26.306850 -12.868966 29.296456 -1.540832 2.025579 0.096371 -0.049551 -480961.000000 0 0 1
1.104706 -27.402130 -13.717366 30.663712 -1.530504 2.034595 0.093502 -0.041852 17727.000000 0 0 1
0.623506 -28.634500 -13.210666 31.541164 -1.549025 2.002963 0.086106 -0.035906 -77270.000000 0 0 1
-0.827094 -29.030860 -13.502266 32.027895 1.542314 2.005981 0.071128 -0.041119 120161.000000 0 0 1
-1.913894 -28.344660 -12.877766 31.191659 1.503376 1.996387 0.067432 -0.045433 -103958.000000 0 0 1
-3.078494 -29.043500 -13.213266 32.056082 1.465195 1.995655 0.069741 -0.046643 417355.000000 0 0 1
-4.448794 -28.356830 -12.801966 31.429157 1.415179 1.990322 0.061047 -0.045166 1060960.000000 0 0 1
-4.783594 -28.312170 -11.429966 30.904787 1.403418 1.949638 0.049789 -0.043039 125627.000000 0 0 1
-5.297894 -29.533380 -10.881066 31.916857 1.393298 1.918691 0.048081 -0.040705 -570430.000000 0 0 1
-5.807594 -29.452810 -9.429266 31.465969 1.376111 1.875138 0.044146 -0.027449 420484.000000 0 0 1
-7.172994 -29.054350 -9.283166 31.333436 1.328754 1.871582 0.052609 -0.025200 356397.000000 0 0 1
-7.292094 -27.665250 -9.090766 30.019705 1.313075 1.878453 0.057656 -0.024961 -98033.900000 0 0 1
-8.793894 -27.395940 -8.771266 30.079980 1.260193 1.866693 0.053548 -0.016254 792528.000000 0 0 1
-9.725794 -27.521570 -9.842266 30.804189 1.231106 1.896009 0.076026 -0.019470 122057.000000 0 0 1
-10.089594 -28.845640 -10.247066 32.231556 1.234319 1.894331 0.089017 -0.031169 -663109.000000 0 0 1
-11.380894 -29.025480 -11.058866 33.080232 1.197119 1.911663 0.102493 -0.031120 -361577.000000 0 0 1
-11.377794 -28.434590 -12.383766 33.035401 1.190170 1.955046 0.115936 -0.036108 758917.000000 0 0 1
-12.367994 -29.022980 -13.298966 34.236868 1.167956 1.969734 0.122643 -0.038589 695423.000000 0 0 1
-12.631994 -28.225960 -14.599266 34.196646 1.149997 2.011881 0.125326 -0.041402 392178.000000 0 0 1
-13.635194 -27.189820 -14.545866 33.716272 1.105964 2.016862 0.123947 -0.049175 369443.000000 0 0 1
-13.469594 -26.172610 -13.523966 32.393411 1.095502 2.001479 0.119626 -0.041146 -173760.000000 0 0 1
-14.442394 -25.011650 -13.748666 31.987360 1.047140 2.015085 0.133972 -0.037328 -195230.000000 0 0 1
-14.073894 -24.303650 -14.902466 31.793480 1.045897 2.058646 0.133243 -0.039198 -31093.400000 0 0 1
-14.994894 -23.277950 -15.113366 31.545580 0.998532 2.070421 0.142101 -0.039700 -301087.000000 0 0 1
-14.677494 -22.383350 -16.369066 31.374982 0.990402 2.119666 0.130096 -0.034660 201331.000000 0 0 1
-13.408594 -21.739550 -16.369066 30.337184 1.018127 2.140724 0.114595 -0.025600 482209.000000 0 0 1
-13.176894 -21.029950 -17.587066 30.417005 1.011063 2.187315 0.076675 -0.017964 -106002.000000 0 0 1
-13.513794 -19.508450 -17.581866 29.535136 0.964976 2.208418 0.081497 -0.010372 48756.300000 0 0 1
-12.454794 -18.809950 -16.951766 28.218761 0.985935 2.215206 0.088799 -0.002218 291763.000000 0 0 1
-12.706894 -17.418950 -16.909966 27.401312 0.940553 2.235877 0.096159 0.000461 -684894.000000 0 0 1
-11.492894 -16.600950 -17.286766 26.580263 0.965255 2.278856 0.111787 -0.013366 -746476.000000 0 0 1
-10.636094 -16.518350 -16.172366 25.446567 0.998724 2.259507 0.109334 -0.005214 17233.000000 0 0 1
-9.511094 -15.725050 -16.560866 24.738641 1.026828 2.304242 0.096548 -0.005043 -175794.000000 0 1 0
-8.782294 -15.040050 -15.392866 23.243754 1.042279 2.294596 0.082022 -0.004619 -135381.000000 0 1 0
-8.211894 -15.798050 -14.385366 22.890005 1.091431 2.250363 0.078175 -0.006346 -209096.000000 0 1 0
-7.182894 -16.698450 -14.690966 23.372134 1.164569 2.250506 0.081273 0.001516 -533335.000000 0 1 0
-6.571194 -17.430450 -13.464666 22.984742 1.210278 2.196674 0.063421 -0.003177 80367.800000 0 1 0
-5.840594 -16.545450 -12.564966 21.581075 1.231449 2.192255 0.061141 -0.012466 660764.000000 0 1 0
-5.397294 -17.193850 -11.371866 21.309120 1.266629 2.133721 0.044684 -0.018893 276983.000000 0 1 0
-4.473194 -18.471550 -11.317166 22.119807 1.333204 2.107878 0.053430 -0.015091 323788.000000 0 1 0
-3.101194 -18.243150 -11.546666 21.811818 1.402414 2.128662 0.053303 -0.000682 -516648.000000 0 1 0
-2.238294 -19.325050 -11.363566 22.529938 1.455487 2.099456 0.034818 0.007019 123511.000000 0 1 0
-0.792394 -18.920150 -11.691766 22.255277 1.528940 2.123920 0.031506 0.014740 -854920.000000 0 1 0
-0.697794 -18.567650 -13.032366 22.695530 1.533233 2.182455 0.041430 0.008941 625204.000000 0 1 0
0.553606 -17.934350 -13.379766 22.382259 -1.539938 2.211531 0.040673 0.005409 749514.000000 0 1 0
1.820006 -18.788850 -13.473066 23.191740 -1.474231 2.190682 0.051454 -0.008103 -916281.000000 0 1 0
1.924606 -19.796050 -14.476266 24.599796 -1.473879 2.199963 0.076003 -0.002160 -97960.600000 0 1 0
1.056206 -20.901150 -14.333866 25.365988 -1.520306 2.171329 0.073031 -0.019941 -593180.000000 0 0 1
1.120106 -21.860550 -15.563666 26.858257 -1.519602 2.188880 0.084756 -0.029340 208076.000000 0 0 1
2.361706 -22.476450 -15.841166 27.599112 -1.466106 2.182147 0.116204 -0.034537 218907.000000 0 0 1
3.336506 -21.640250 -16.496866 27.414946 -1.417820 2.216483 0.113371 -0.027920 523660.000000 0 0 1
4.736206 -22.320450 -16.562566 28.194906 -1.361706 2.198677 0.108454 -0.028385 210999.000000 0 0 1
4.847806 -23.381550 -17.471566 29.588067 -1.366358 2.202467 0.096171 -0.026912 31554.300000 0 0 1
6.191706 -23.801750 -17.609866 30.248436 -1.316300 2.192197 0.103361 -0.023740 281515.000000 0 0 1
6.643706 -23.586550 -19.097966 31.067611 -1.296236 2.232831 0.088674 -0.018601 7861.820000 0 0 1
6.759606 -22.243850 -19.523166 30.358444 -1.275778 2.269321 0.103478 -0.030446 43432.000000 0 0 1
7.084706 -22.161350 -20.890366 31.268608 -1.261377 2.302440 0.099258 -0.017619 -72494.800000 0 0 1
7.466206 -20.834350 -21.558666 30.896447 -1.226693 2.343078 0.078999 -0.020454 -145767.000000 0 0 1
6.328306 -20.145350 -21.953466 30.460421 -1.266425 2.375638 0.088355 -0.023208 -297136.000000 0 0 1
6.694206 -18.823150 -22.297866 29.938573 -1.229109 2.411012 0.094858 -0.025319 674018.000000 0 0 1
5.443506 -17.901350 -22.485866 29.252423 -1.275597 2.447577 0.081380 -0.022793 200413.000000 0 0 1
4.801206 -18.083850 -23.742866 30.229139 -1.311286 2.474186 0.061335 -0.019001 464578.000000 0 0 1
3.691106 -17.256350 -24.092366 29.863823 -1.360073 2.509412 0.066719 -0.014819 1463470.000000 0 0 1
2.366706 -17.281250 -23.246466 29.062709 -1.434691 2.497879 0.071644 -0.005898 -2556.420000 0 0 1
2.487806 -16.599650 -22.020266 27.688078 -1.422033 2.490295 0.086395 -0.011413 -562584.000000 0 0 1
1.314506 -15.911950 -21.676866 26.922195 -1.488372 2.506754 0.078804 -0.008701 -115406.000000 0 0 1
1.399606 -15.077350 -20.422966 25.424061 -1.478233 2.503600 0.068924 -0.011568 119344.000000 0 0 1
2.291206 -13.991150 -20.611666 25.016847 -1.408476 2.539075 0.073056 -0.008939 -82941.200000 0 0 1
2.379406 -13.129850 -19.489066 23.619445 -1.391521 2.541225 0.076703 -0.011731 -278206.000000 0 1 0
3.620306 -12.255050 -19.536166 23.344263 -1.283553 2.562340 0.076750 -0.015546 -1734430.000000 0 1 0
4.825806 -12.901450 -19.376466 23.773583 -1.212858 2.523598 0.083231 -0.016599 -870278.000000 0 1 0
5.937706 -12.060250 -19.628266 23.790225 -1.113298 2.541097 0.081126 -0.011998 319032.000000 0 1 0
6.341106 -11.036950 -18.550866 22.497967 -1.049312 2.540216 0.078415 -0.010163 -711901.000000 0 1 0
5.467606 -9.932750 -18.352866 21.572712 -1.067598 2.588196 0.054729 -0.008180 -68685.200000 0 1 0
5.609406 -8.871450 -19.307666 21.976215 -1.006966 2.643658 0.067878 -0.014641 -422713.000000 0 1 0
4.817706 -8.874450 -20.616466 22.956585 -1.073441 2.686143 0.081971 -0.028085 -137304.000000 0 1 0
3.420406 -8.739050 -20.377266 22.434418 -1.197731 2.710007 0.078537 -0.033502 -235144.000000 0 1 0
2.809306 -9.019550 -21.607166 23.582071 -1.268851 2.729423 0.075223 -0.030180 -959537.000000 0 1 0
1.313206 -8.847650 -21.584966 23.364849 -1.423448 2.748744 0.060401 -0.027716 -784050.000000 0 1 0
0.867406 -7.499950 -21.755966 23.028758 -1.455653 2.807567 0.055439 -0.024964 167690.000000 0 1 0
-0.553994 -7.472950 -21.874266 23.122184 1.496798 2.811553 0.048501 -0.017833 688219.000000 0 1 0
-1.037394 -6.322750 -22.842166 23.723783 1.408172 2.868118 0.052260 -0.013627 105651.000000 0 1 0
-0.843694 -6.754750 -24.232766 25.170725 1.446536 2.867740 0.053177 -0.004831 -259677.000000 0 0 1
-1.357994 -5.978250 -25.317456 26.049130 1.347431 2.904019 0.057378 -0.010079 391046.000000 0 0 1
-0.615694 -4.614850 -25.607956 26.027741 1.438164 2.961749 0.059396 -0.008260 37954.300000 0 0 1
-1.216894 -4.032850 -26.768646 27.098064 1.277739 2.985508 0.050417 -0.011643 -36158.500000 0 0 1
-0.921594 -2.674550 -27.085946 27.233270 1.238959 3.037529 0.041479 -0.008511 -623047.000000 0 0 1
-1.480594 -1.597450 -26.083576 26.174356 0.823344 3.058282 0.048198 -0.018774 431358.000000 0 0 1
-2.891994 -1.477250 -26.073686 26.275140 0.472256 3.017682 0.042818 -0.019848 144171.000000 0 0 1
-3.505794 -0.881550 -27.227326 27.466252 0.246348 3.009596 0.057981 -0.014560 -897916.000000 0 0 1
-5.020394 -0.877050 -27.089236 27.564475 0.172952 2.955632 0.074539 -0.025822 -544800.000000 0 0 1
-5.566694 0.115050 -26.250086 26.834089 -0.020665 2.932581 0.089215 -0.024173 526402.000000 0 0 1
-6.944094 -0.166050 -25.976076 26.888743 0.023908 2.880303 0.093086 -0.036414 394307.000000 0 0 1
-7.745294 0.920650 -25.276796 26.452856 -0.118311 2.842286 0.086631 -0.032730 -499430.000000 0 0 1
-8.053994 2.096150 -26.028446 27.326556 -0.254614 2.832127 0.103710 -0.034300 796309.000000 0 0 1
-9.000094 2.112650 -27.142096 28.673304 -0.230562 2.813312 0.105435 -0.038346 1023790.000000 0 0 1
-10.462794 1.681750 -26.825796 28.843052 -0.159373 2.765375 0.102515 -0.029853 454966.000000 0 0 1
-11.512594 2.365250 -27.506596 29.912322 -0.202629 2.737791 0.108902 -0.040244 62393.800000 0 0 1
-12.772594 1.839750 -27.237846 30.140074 -0.143055 2.699150 0.064901 -0.025252 70279.500000 0 0 1
-13.934094 2.308550 -28.166136 31.509040 -0.164185 2.676782 0.049506 -0.018335 -1161240.000000 0 0 1
-15.114994 1.585950 -28.013706 31.870770 -0.104543 2.644511 0.043500 -0.015847 -577419.000000 0 0 1
-16.190294 2.081050 -28.754746 33.064963 -0.127836 2.625277 0.040438 -0.022380 -6179.630000 0 0 1
-16.812794 3.383850 -28.075506 32.899156 -0.198613 2.593233 0.032797 -0.002560 -1082730.000000 0 0 1
-16.095894 4.630050 -28.226266 32.821292 -0.280092 2.606063 0.054151 -0.002295 49700.800000 0 0 1
-15.987594 5.178450 -29.577956 34.018744 -0.313241 2.624906 0.056729 -0.018046 -107619.000000 0 0 1
-17.311794 5.611650 -30.288476 35.335260 -0.313465 2.600554 0.039321 -0.008755 174789.000000 0 0 1
-17.922394 6.695350 -29.657706 35.293334 -0.357520 2.568670 0.034496 -0.000035 -398958.000000 0 0 1
-18.860794 7.284950 -30.501276 36.594096 -0.368596 2.556213 0.031855 0.002831 -532112.000000 0 0 1
-19.703994 8.322850 -29.755126 36.645391 -0.399661 2.518323 0.042722 -0.001842 -166315.000000 0 0 1
-18.891394 9.401450 -29.310636 36.116276 -0.461772 2.517619 0.052891 0.000218 904006.000000 0 0 1
-19.690094 10.172850 -28.397046 36.021922 -0.476877 2.478881 0.072400 -0.001191 452359.000000 0 0 1
-9.204394 25.392650 30.521187 40.755986 -1.223045 0.724432 0.065220 -0.017478 -895933.000000 0 0 1
-9.891594 26.556450 30.813007 41.863231 -1.214242 0.743595 0.073110 -0.014611 -261783.000000 0 0 1
-9.203294 27.525150 31.564517 42.879520 -1.248123 0.743475 0.080905 -0.021302 -746638.000000 0 0 1
-7.814094 28.010450 31.172797 42.630842 -1.298742 0.750678 0.081194 -0.017415 -634102.000000 0 0 1
-7.806694 28.810850 29.990187 42.313365 -1.306187 0.783052 0.098760 -0.018425 -241215.000000 0 0 1
-6.504694 29.163450 29.629087 42.079694 -1.351346 0.789615 0.086969 -0.016617 -483564.000000 0 0 1
-6.395494 30.477150 28.823157 42.432693 -1.363952 0.824032 0.102060 -0.016423 -144401.000000 0 0 1
-6.446694 31.607250 29.615507 43.791054 -1.369594 0.828080 0.108324 -0.017749 263769.000000 0 0 1
-6.207994 32.788050 28.862827 44.120950 -1.383674 0.857705 0.119221 -0.019659 -90852.000000 0 0 1
-6.539894 -33.849948 29.628787 45.458269 1.379945 0.860867 0.120274 -0.024972 -344057.000000 0 0 1
-5.769294 -33.550748 30.789037 45.901005 1.400505 0.835549 0.120877 -0.026777 351902.000000 0 0 1
-6.577594 -33.058648 31.898648 46.407572 1.374394 0.812950 0.123361 -0.032929 813606.000000 0 0 1
-7.565294 33.883650 32.482758 47.544348 -1.351127 0.818647 0.102071 -0.033758 417821.000000 0 0 1
-6.820194 33.078450 33.367605 47.477321 -1.367463 0.791454 0.126610 -0.029456 446683.000000 0 0 1
-7.280794 31.750750 33.252038 46.549094 -1.345382 0.775111 0.115166 -0.019365 79967.600000 0 0 1
-7.051794 31.016150 -33.269126 46.027862 -1.347238 2.378648 0.098141 -0.020039 -37103.600000 0 0 1
-5.696394 30.738450 -32.998846 45.455748 -1.387557 2.383219 0.091658 -0.015884 -128474.000000 0 0 1
-5.454894 30.148250 -31.761516 44.130111 -1.391797 2.374202 0.111491 -0.020146 445263.000000 0 0 1
-3.958594 30.007250 -31.303356 43.543146 -1.439632 2.373021 0.106530 -0.027126 1275240.000000 0 0 1
-3.160394 28.851750 -31.645136 42.939797 -1.461692 2.399366 0.095491 -0.016856 593497.000000 0 0 1
-3.048594 28.555650 -33.031286 43.769680 -1.464439 2.425934 0.094256 -0.018407 -526518.000000 0 0 1
-2.279094 27.224950 -33.218416 43.009944 -1.487278 2.453317 0.093500 -0.024668 -139731.000000 0 0 1
-0.963994 27.198550 -32.653186 42.507893 -1.535368 2.446771 0.108207 -0.017560 761735.000000 0 0 1
-0.355794 25.905050 -32.765736 41.770703 -1.557063 2.472555 0.111954 -0.013598 91351.900000 0 0 1
0.070806 25.445550 33.646760 42.185134 1.568014 0.647495 0.094685 -0.011206 -509341.000000 0 0 1
-1.026694 25.099750 32.806888 41.320013 -1.529915 0.653483 0.101400 -0.008226 146199.000000 0 0 1
-0.761494 25.052350 31.421087 40.193095 -1.540410 0.673324 0.111305 -0.009784 52710.200000 0 0 1
-0.447194 26.465850 30.766347 40.585827 -1.553901 0.710468 0.082902 -0.010544 287248.000000 0 0 1
-1.624294 27.238150 30.596527 40.996373 -1.511234 0.728276 0.081796 -0.013529 194480.000000 0 0 1
-1.386194 28.464450 29.924207 41.323173 -1.522136 0.760994 0.069917 -0.014972 16544.100000 0 0 1
-2.420794 29.563850 30.242787 42.361630 -1.489095 0.775717 0.087990 -0.018768 53406.800000 0 0 1
-2.146794 30.100450 31.526397 43.641260 -1.499596 0.763531 0.102583 -0.016986 52490.000000 0 0 1
-3.086894 31.062150 31.961206 44.675550 -1.471744 0.773590 0.105245 -0.014204 155119.000000 0 0 1
-2.473094 31.881350 33.099432 46.022919 -1.493380 0.768154 0.125985 -0.018875 246305.000000 0 0 1
-1.450994 32.776550 32.682764 46.309510 -1.526556 0.787320 0.112281 -0.023261 -195962.000000 0 0 1
-0.764194 33.206250 33.818767 47.401984 -1.547787 0.776392 0.086869 -0.020046 -605126.000000 0 0 1
0.680106 33.666250 33.635563 47.594433 1.550598 0.785956 0.094950 -0.029310 -408058.000000 0 0 1
0.758806 -33.166248 32.847761 46.685664 -1.547921 0.790353 0.112171 -0.038849 695428.000000 0 0 1
2.084106 -32.793548 32.442906 46.176861 -1.507329 0.791781 0.087019 -0.038114 673603.000000 0 0 1
2.155606 -31.344948 31.974706 44.827829 -1.502134 0.776632 0.093677 -0.032630 -87718.700000 0 0 1
1.864506 -30.477948 33.032223 44.983436 -1.509697 0.746132 0.088653 -0.026796 -62471.100000 0 0 1
1.895306 -29.145348 32.674154 43.825151 -1.505858 0.729426 0.069923 -0.030795 -72118.700000 0 0 1
1.372606 -28.321948 33.838317 44.148030 -1.522370 0.697463 0.061804 -0.031861 -221981.000000 0 0 1
-0.018094 -28.353848 -33.804426 44.121199 1.570158 2.443659 0.057069 -0.032270 -195922.000000 0 0 1
-0.298494 -27.544148 -32.677656 42.738722 1.559960 2.441203 0.056157 -0.029442 -512679.000000 0 0 1
-1.779894 -27.264648 -32.449916 42.420821 1.505607 2.441764 0.082560 -0.034817 -474529.000000 0 0 1
-2.118194 -27.118148 -31.053726 41.282134 1.492845 2.422239 0.061231 -0.033596 -241781.000000 0 0 1
-3.390194 -26.544348 -31.042306 40.984394 1.443766 2.430145 0.086788 -0.034187 -593742.000000 0 0 1
-3.861594 -25.840848 -29.753776 39.597330 1.422456 2.420991 0.089478 -0.040985 -250932.000000 0 0 1
-4.313394 -26.700148 -28.735336 39.461662 1.410631 2.386464 0.092538 -0.041524 111804.000000 0 0 1
-4.557494 -26.170248 -27.451486 38.199957 1.398378 2.372621 0.112047 -0.037430 562138.000000 0 0 1
-3.239694 -25.718348 -26.739076 37.241203 1.445488 2.371717 0.096888 -0.040183 523993.000000 0 0 1
-2.589594 -24.528848 -27.148516 36.679862 1.465613 2.404086 0.090586 -0.039688 -592941.000000 0 0 1
-1.480294 -24.350448 -26.344766 35.905185 1.510080 2.394594 0.060497 -0.033513 -1355450.000000 0 0 1
-0.552194 -23.214348 -26.886096 35.525667 1.547014 2.429212 0.038399 -0.022622 220966.000000 0 0 1
0.120006 -23.475348 -28.116876 36.628747 -1.565684 2.445912 0.009882 -0.021993 -264737.000000 0 0 1
1.208106 -24.321448 -27.936956 37.060300 -1.521165 2.424659 -0.001058 -0.016577 -1283530.000000 0 0 1
2.007306 -24.675648 -29.164816 38.255763 -1.489627 2.437755 -0.002895 -0.023928 -168041.000000 0 0 1
2.834406 -23.660348 -29.696186 38.075049 -1.451569 2.465363 0.023131 -0.021043 -13163.700000 0 0 1
3.670006 -24.174748 -30.695196 39.243884 -1.420135 2.468929 0.040396 -0.023282 -341205.000000 0 0 1
4.653906 -23.126948 -31.290566 39.186912 -1.372215 2.495588 0.059189 -0.028557 79920.500000 0 0 1
5.831506 -22.860948 -30.502366 38.561947 -1.321037 2.483232 0.041237 -0.028811 1230800.000000 0 0 1
6.961806 -23.717948 -30.434486 39.207980 -1.285291 2.459463 0.059130 -0.024338 380654.000000 0 0 1
7.695706 -23.809048 -31.796086 40.460916 -1.258170 2.474861 0.064698 -0.022418 -858823.000000 0 0 1
6.916406 -24.578348 -32.696826 41.485109 -1.296488 2.478607 0.047578 -0.021373 -117680.000000 0 0 1
7.194706 -24.351348 33.786087 42.264070 -1.283515 0.644493 0.067572 -0.028144 -94960.900000 0 0 1
6.648106 -23.030948 33.143099 40.903385 -1.289776 0.626171 0.083919 -0.034338 -618130.000000 0 0 1
5.254406 -23.064348 33.031699 40.628390 -1.346804 0.621476 0.094902 -0.032351 -592872.000000 0 0 1
4.845006 -22.086448 32.138418 39.295842 -1.354851 0.613118 0.115354 -0.052026 -1041160.000000 0 0 1
3.553606 -21.418648 32.564751 39.138851 -1.406382 0.588037 0.112582 -0.056595 884189.000000 0 0 1
2.314206 -22.193748 32.446528 39.378867 -1.466899 0.602436 0.100248 -0.045250 1293290.000000 0 0 1
2.105906 -23.134848 33.536456 40.796445 -1.480019 0.605806 0.086739 -0.043805 193807.000000 0 0 1
0.658706 -23.707948 33.351567 40.924659 -1.543019 0.618153 0.093418 -0.043012 637850.000000 0 0 1
0.507106 -24.667948 32.280434 40.629931 -1.550242 0.652614 0.100479 -0.044711 -1605300.000000 0 0 1
-0.742194 -25.159148 32.095625 40.788022 1.541305 0.665046 0.121921 -0.053286 -1607430.000000 0 0 1
-0.826294 -26.408548 31.177357 40.867124 1.539518 0.703016 0.119575 -0.042162 429868.000000 0 0 1
-2.081694 -26.637448 30.527427 40.568595 1.492806 0.718963 0.121831 -0.052473 590324.000000 0 0 1
-2.044994 -27.870648 29.777187 40.836698 1.497553 0.753678 0.131268 -0.053348 337390.000000 0 0 1
-3.340794 -28.168448 28.950817 40.531126 1.452747 0.775193 0.140354 -0.046955 456053.000000 0 0 1
-4.434094 -28.536648 29.772927 41.478051 1.416647 0.770160 0.131815 -0.048168 723821.000000 0 0 1
-5.616494 -28.622748 28.944207 41.092260 1.377033 0.789259 0.138457 -0.037701 886704.000000 0 0 1
-6.930094 -28.926048 29.719417 42.047428 1.335649 0.785822 0.130846 -0.028671 -447113.000000 0 0 1
-8.034994 -29.134848 28.854587 41.785018 1.301699 0.808549 0.136977 -0.026883 1220710.000000 0 0 1
-9.258694 -29.407348 29.613777 42.749168 1.265778 0.805524 0.117591 -0.022945 1026400.000000 0 0 1
-9.308094 -30.636648 30.607557 44.295230 1.275837 0.807939 0.106294 -0.020576 -1050660.000000 0 0 1
-9.326594 -31.949848 30.062017 44.849783 1.286775 0.836207 0.117924 -0.020187 489950.000000 0 0 1
-10.621594 -32.368748 29.604987 45.133240 1.253724 0.855361 0.111296 -0.021003 526939.000000 0 0 1
-10.757494 -33.692048 28.892627 45.669045 1.261739 0.885823 0.138457 -0.021471 -277611.000000 0 0 1
-10.656794 33.194250 29.781007 45.851215 -1.260147 0.863851 0.139036 -0.018456 167687.000000 0 0 1
-10.643894 32.025950 29.011717 44.504311 -1.249929 0.860728 0.126491 -0.029266 -108184.000000 0 0 1
-10.859494 30.753550 29.880867 44.233197 -1.231350 0.829113 0.120153 -0.004749 1207810.000000 0 0 1
-12.258794 30.668950 30.242197 44.782285 -1.190537 0.829403 0.112047 -0.001115 982131.000000 0 0 1
-12.453094 29.425050 30.944717 44.480205 -1.170439 0.801407 0.107138 -0.006353 45671.900000 0 0 1
-12.469694 29.546250 32.517974 45.671576 -1.171436 0.778460 0.109165 -0.016604 -256483.000000 0 0 1
-13.629794 30.138950 33.044105 46.755112 -1.146088 0.785905 0.104732 -0.010997 -121410.000000 0 0 1
-13.909594 29.821150 -33.447886 46.920559 -1.134360 2.364367 0.107953 -0.011325 336268.000000 0 0 1
-15.369394 30.069550 -32.963076 47.190682 -1.098286 2.344107 0.101827 -0.008362 314049.000000 0 0 1
-15.491694 29.856150 -31.613586 46.160601 -1.092161 2.325209 0.081068 0.001221 761257.000000 0 0 1
-16.863594 29.907050 -31.174816 46.375442 -1.057369 2.308009 0.093215 -0.002019 906995.000000 0 0 1
-17.047494 29.519750 -29.738616 45.237351 -1.047089 2.288147 0.097358 -0.004587 -30605.700000 0 0 1
-17.020094 28.119950 -29.499796 44.166199 -1.026513 2.302216 0.085117 -0.002355 163172.000000 0 0 1
-16.978094 27.855150 -28.126876 43.073033 -1.023411 2.282341 0.060398 -0.000690 -186763.000000 0 0 1
-17.430894 26.472450 -27.734436 42.116809 -0.988501 2.289637 0.054084 -0.006042 1106340.000000 0 0 1
-18.863894 26.296550 -27.825666 42.680472 -0.948519 2.280954 0.069721 -0.007511 954709.000000 0 0 1
-19.279694 25.018850 -27.468446 41.858870 -0.914237 2.286589 0.051504 -0.006075 -451083.000000 0 0 1
-20.741794 24.716250 -27.763456 42.566707 -0.872608 2.281324 0.033862 -0.003858 -577389.000000 0 0 1
-21.693494 25.123850 -26.801986 42.663356 -0.858539 2.250060 0.029869 -0.004503 669669.000000 0 0 1
-22.983794 24.713150 -27.279856 43.395681 -0.821639 2.250588 0.057309 -0.011188 290834.000000 0 0 1
-24.119494 24.719150 -26.258436 43.385387 -0.797676 2.220860 0.064567 -0.015939 -619663.000000 0 0 1
-24.706394 25.988650 -26.194656 44.406934 -0.810686 2.201704 0.037857 -0.005206 -226091.000000 0 0 1
-25.915624 25.933450 -25.461696 44.636995 -0.785742 2.177810 0.047932 -0.015379 -232.574000 0 0 1
-25.986224 25.672350 -23.917266 43.662215 -0.779322 2.150504 0.059691 -0.005124 -796434.000000 0 0 1
-25.814004 24.339350 -23.435066 42.520220 -0.756004 2.154539 0.065133 -0.008895 79542.100000 0 0 1
-27.019474 23.594850 -23.313966 42.782122 -0.717840 2.147122 0.068710 -0.006129 35237.700000 0 0 1
-27.890614 23.913250 -22.066066 42.856051 -0.708771 2.111673 0.071945 -0.008924 -244851.000000 0 0 1
-27.286284 23.742150 -20.764166 41.705894 -0.716055 2.091939 0.062900 -0.001661 841785.000000 0 0 1
-26.155484 24.596050 -20.468166 41.328209 -0.754681 2.088929 0.066837 -0.004825 601517.000000 0 0 1
-25.393084 24.082050 -19.209066 39.921699 -0.758906 2.072784 0.055610 -0.009151 -69508.600000 0 0 1
-26.096584 24.180050 -17.982966 39.863437 -0.747297 2.038810 0.063220 -0.008019 348007.000000 0 0 1
-25.263844 23.619450 -16.970266 38.524410 -0.751772 2.026959 0.061429 -0.018439 144704.000000 0 0 1
-25.846994 23.772650 -15.538566 38.401211 -0.743618 1.987379 0.077140 -0.020494 -527397.000000 0 0 1
-25.839154 25.086450 -15.058166 39.035115 -0.770619 1.966827 0.070931 -0.022197 -340756.000000 0 0 1
-26.442464 25.201250 -13.856666 39.068070 -0.761369 1.933368 0.052765 -0.019954 -210943.000000 0 0 1
-26.330494 26.624950 -13.364766 39.759274 -0.790959 1.913614 0.060899 -0.010602 1431380.000000 0 0 1
-24.952794 26.915150 -13.010766 38.940304 -0.823214 1.911469 0.071319 -0.023621 1154210.000000 0 0 1
-24.902094 27.657750 -11.806866 39.044430 -0.837779 1.878001 0.075234 -0.020567 -158130.000000 0 0 1
-23.468194 27.957950 -11.360266 38.229030 -0.872482 1.872517 0.097209 -0.026650 -339546.000000 0 0 1
-22.643194 26.878750 -11.031266 36.835720 -0.870719 1.874936 0.098432 -0.027988 -354900.000000 0 0 1
-21.683694 27.172050 -10.053566 36.188079 -0.897267 1.852314 0.106780 -0.028076 -343949.000000 0 0 1
-20.960194 25.841050 -9.781466 34.680927 -0.889312 1.856718 0.148930 -0.036388 -243579.000000 0 0 1
-20.227894 25.267250 -10.838266 34.133116 -0.895715 1.893919 0.126090 -0.039858 169562.000000 0 0 1
-19.294894 24.343450 -10.302066 32.726580 -0.900577 1.891034 0.126920 -0.032699 -155895.000000 0 0 1
-18.503494 23.650150 -11.448666 32.136908 -0.906890 1.935044 0.124608 -0.036249 -482556.000000 0 0 1
-17.703894 22.649350 -10.888266 30.740450 -0.907344 1.932855 0.105281 -0.028578 -85714.900000 0 0 1
-17.421894 21.608150 -11.744666 30.139206 -0.892247 1.971081 0.108598 -0.021428 192561.000000 0 0 1
-17.001494 20.258350 -11.128266 28.693028 -0.872586 1.969082 0.093671 -0.017500 -152264.000000 0 0 1
-18.134994 19.578150 -10.653466 28.734619 -0.823646 1.950617 0.093144 -0.007943 -190740.000000 0 0 1
-17.852694 18.221050 -10.286666 27.505288 -0.795609 1.954102 0.107716 -0.023737 -1032010.000000 0 0 1
-19.063494 17.311150 -10.098466 27.659930 -0.737261 1.944530 0.087721 -0.009848 -316095.000000 0 0 1
-19.779394 16.885650 -11.227966 28.326963 -0.706638 1.978356 0.080282 -0.009515 384934.000000 0 0 1
-20.411394 17.830150 -12.099466 29.680572 -0.718002 1.990682 0.084245 -0.008349 -503751.000000 0 0 1
-21.299494 17.242150 -13.183366 30.409888 -0.680513 2.019194 0.088223 -0.010482 -263358.000000 0 0 1
-20.501694 16.708650 -14.215766 30.026429 -0.683814 2.063990 0.087734 -0.020338 210453.000000 0 0 1
-21.169394 16.618750 -15.485366 31.050324 -0.665550 2.092916 0.091444 -0.015063 36983.100000 0 0 1
-20.272394 16.193850 -16.699966 30.856111 -0.674017 2.142684 0.104711 -0.022433 -102115.000000 0 0 1
-19.458694 17.280050 -17.100966 31.139748 -0.726167 2.152165 0.087343 -0.024913 86264.300000 0 0 1
-18.789194 17.025750 -18.309066 31.275100 -0.736200 2.196194 0.078438 -0.017175 -398778.000000 0 0 1
-18.094094 18.319950 -18.797266 31.880307 -0.791601 2.201385 0.055869 -0.014344 33695.200000 0 0 1
-16.885294 18.664750 -18.115766 31.010756 -0.835411 2.194662 0.066792 -0.019925 811811.000000 0 0 1
-16.418294 19.981550 -18.488166 31.790486 -0.882979 2.191445 0.070607 -0.016843 103670.000000 0 0 1
34.023265 30.009150 2.617934 45.442109 0.722791 1.513154 0.092829 -0.014686 -51946.900000 0 0 1
35.248205 30.026650 1.937034 46.344232 0.705575 1.528987 0.103246 -0.020450 -44821.200000 0 0 1
35.092575 31.016850 0.899434 46.843813 0.723825 1.551594 0.085520 -0.009507 172435.000000 0 0 1
36.308565 31.211150 -0.042066 47.879532 0.710046 1.571675 0.063097 -0.014814 -356692.000000 0 0 1
-37.040004 31.744050 0.593834 48.785236 -0.708556 1.558624 0.053209 -0.014481 -584112.000000 0 0 1
-35.936329 31.718550 -0.268766 47.932853 -0.723136 1.576403 0.036493 -0.010980 320303.000000 0 0 1
-34.802043 32.793350 -0.014466 47.818262 -0.755690 1.571099 0.034112 -0.012535 550570.000000 0 0 1
-34.107597 32.599650 1.173234 47.195782 -0.762797 1.545935 0.019941 -0.004248 -150043.000000 0 0 1
-33.259824 33.653450 1.536934 47.340604 -0.791281 1.538325 0.020667 0.000688 -345287.000000 0 0 1
-32.668944 33.432250 2.955834 46.837082 -0.796945 1.507646 0.033028 -0.002622 -124141.000000 0 0 1
-32.363674 -33.346448 3.677534 46.614561 0.800353 1.491822 0.036652 -0.000307 121975.000000 0 0 1
-31.894364 -33.603848 4.982934 46.597196 0.811492 1.463655 0.045358 -0.013254 -244891.000000 0 0 1
-31.678504 -32.289948 5.818934 45.607328 0.794956 1.442860 0.066165 -0.015027 -233321.000000 0 0 1
-32.808424 -31.706648 6.406534 46.073288 0.768322 1.431293 0.058332 -0.016880 -202433.000000 0 0 1
-33.152614 -32.250848 7.701434 46.888433 0.771611 1.405798 0.064715 -0.031473 -1300050.000000 0 0 1
-34.295555 -31.577148 8.463934 47.380793 0.744154 1.391196 0.087601 -0.030220 412147.000000 0 0 1
-35.612628 -31.505048 7.946034 48.207539 0.724275 1.405211 0.070750 -0.030723 102697.000000 0 0 1
-36.206694 -32.707448 7.587134 49.378806 0.734665 1.416534 0.053446 -0.031486 -1248240.000000 0 0 1
36.749835 -32.587348 7.265734 49.651552 -0.725438 1.423934 0.052405 -0.027927 197627.000000 0 0 1
35.981145 -32.391548 8.456634 49.146413 -0.732946 1.397865 0.048016 -0.027818 329992.000000 0 0 1
34.592705 -32.371548 8.207834 48.082647 -0.752241 1.399254 0.038241 -0.016212 152413.000000 0 0 1
33.617925 -32.479948 9.385434 47.678070 -0.768183 1.372652 0.065955 -0.033330 258226.000000 0 0 1
32.240455 -32.350048 9.078034 46.565903 -0.787095 1.374590 0.069125 -0.035284 1108960.000000 0 0 1
31.288385 -32.426148 10.178334 46.195418 -0.803253 1.348641 0.080523 -0.036360 774180.000000 0 0 1
31.210365 -31.168348 11.148134 45.495426 -0.784725 1.323237 0.083910 -0.029314 -434218.000000 0 0 1
30.752665 -29.879248 10.631734 44.176121 -0.770994 1.327743 0.066048 -0.024508 225297.000000 0 0 1
31.252895 -29.342448 9.380834 43.883058 -0.753881 1.355365 0.073783 -0.028012 -366928.000000 0 0 1
30.672515 -27.997248 8.959034 42.484273 -0.739831 1.358322 0.069976 -0.020957 -284170.000000 0 0 1
30.936675 -27.514848 7.670734 42.106828 -0.726924 1.387600 0.073485 -0.025685 -152267.000000 0 0 1
30.360295 -26.231148 7.412034 40.801457 -0.712563 1.388121 0.080484 -0.025753 143010.000000 0 0 1
30.548665 -25.676248 6.015234 40.356830 -0.698955 1.421188 0.075506 -0.016274 -186512.000000 0 0 1
31.852905 -25.300848 5.681534 41.073353 -0.671257 1.432025 0.079423 -0.018874 -786243.000000 0 0 1
31.979465 -24.779448 4.394934 40.694259 -0.659219 1.462586 0.066904 -0.014340 183788.000000 0 0 1
33.432795 -24.366548 4.025534 41.565435 -0.629809 1.473796 0.071716 -0.013544 298582.000000 0 0 1
34.243625 -25.515648 3.900834 42.882289 -0.640371 1.479704 0.059803 -0.012939 -481540.000000 0 0 1
35.605435 -25.178448 3.862934 43.779259 -0.615510 1.482445 0.067233 -0.015899 -17690.700000 0 0 1
36.584695 -26.363348 3.778634 45.252007 -0.624426 1.487197 0.058410 -0.016941 -144042.000000 0 0 1
36.583195 -27.099848 4.979034 45.798720 -0.637570 1.461865 0.041711 -0.018096 -154241.000000 0 0 1
-37.205104 -28.330348 4.862934 47.015705 0.650798 1.467179 0.037349 -0.017770 -1249110.000000 0 0 1
36.907955 -29.224848 6.084834 47.469086 -0.669740 1.442257 0.041599 -0.017553 751945.000000 0 0 1
35.638065 -29.885148 5.925634 46.886106 -0.697823 1.444074 0.012864 -0.014563 798905.000000 0 0 1
34.559995 -28.992548 6.184534 45.532512 -0.698017 1.434548 0.037472 -0.008760 678950.000000 0 0 1
33.085035 -29.610448 6.311434 44.846766 -0.730035 1.429594 0.070061 -0.012101 1784910.000000 0 0 1
32.449925 -30.079348 5.121434 44.542047 -0.747505 1.455562 0.045850 -0.015165 -54508.800000 0 0 1
31.719125 -29.087948 4.429834 43.264709 -0.742154 1.468227 0.059638 -0.015416 913153.000000 0 0 1
30.204125 -29.444048 4.119034 42.381690 -0.772656 1.473454 0.064012 -0.015993 1270530.000000 0 0 1
30.036345 -30.689448 3.417334 43.077865 -0.796153 1.491384 0.072859 -0.012292 15914.900000 0 0 1
28.777265 -31.304348 3.662834 42.679147 -0.827434 1.484868 0.082030 -0.015057 366970.000000 0 0 1
28.685665 -32.773948 3.045334 43.660888 -0.851820 1.500990 0.087965 -0.010221 -149811.000000 0 0 1
28.733965 -32.802348 1.615534 43.637653 -0.851416 1.533766 0.077502 -0.000743 194977.000000 0 0 1
28.483465 33.902950 1.077534 44.293102 0.872050 1.546467 0.068530 0.003622 -258279.000000 0 0 1
28.299865 33.989850 -0.478966 44.231456 0.876492 1.581625 0.051074 -0.002354 -50110.900000 0 0 1
29.314965 -33.452848 -1.318766 44.499431 -0.851227 1.600436 0.056554 -0.006045 250012.000000 0 0 1
28.875365 -33.421848 -2.656166 44.247733 -0.858250 1.630862 0.048638 -0.002735 577714.000000 0 0 1
30.031235 -32.993248 -3.663666 44.764405 -0.832361 1.652731 0.046335 -0.007893 816621.000000 0 0 1
30.317575 -31.622148 -3.684766 43.962406 -0.806457 1.654711 0.035364 -0.006317 -92327.200000 0 0 1
31.240225 -31.274648 -4.678866 44.451626 -0.785949 1.676249 0.033565 -0.007002 -263379.000000 0 0 1
31.696035 -29.795848 -4.645466 43.749418 -0.754507 1.677180 0.020982 0.002973 -59019.900000 0 0 1
30.639745 -28.900748 -4.978666 42.412667 -0.756199 1.688454 0.027217 -0.009530 457057.000000 0 0 1
31.090795 -27.538248 -4.978066 41.830298 -0.724879 1.690085 0.028700 -0.013793 631758.000000 0 0 1
32.132555 -27.008148 -6.052066 42.409535 -0.698966 1.713990 0.040715 -0.015400 58239.400000 0 0 1
33.381545 -27.568648 -5.846166 43.686790 -0.690314 1.705019 0.032408 0.003767 -549658.000000 0 0 1
34.470905 -27.213248 -6.688766 44.424585 -0.668278 1.721936 0.050623 -0.006306 335866.000000 0 0 1
34.613595 -27.959548 -8.011266 45.210814 -0.679456 1.748935 0.044868 -0.028053 -689061.000000 0 0 1
33.598215 -27.877648 -9.003366 44.576495 -0.692611 1.774171 0.034399 -0.025551 23347.900000 0 0 1
33.124915 -29.030248 -9.676366 45.095980 -0.719615 1.787051 0.027879 -0.008444 398730.000000 0 0 1
32.775615 -30.311448 -8.870366 45.516022 -0.746358 1.766936 0.024105 -0.001165 -661839.000000 0 0 1
33.926665 -30.906248 -8.372466 46.650970 -0.738844 1.751244 0.030031 -0.004452 -953910.000000 0 0 1
33.657655 -32.120648 -7.849266 47.182463 -0.762036 1.737933 0.032220 -0.013887 415040.000000 0 0 1
34.934605 -32.802248 -7.271066 48.469398 -0.753929 1.721378 0.031601 -0.007909 342064.000000 0 0 1
34.706355 33.971750 -6.560366 49.006625 0.774702 1.705066 0.030533 -0.008828 -83459.100000 0 0 1
34.190505 -33.873048 -5.234366 48.412526 -0.780734 1.679128 0.033067 -0.009842 4746.650000 0 0 1
33.928155 32.718050 -4.636966 47.361292 0.767243 1.668860 0.025326 -0.010380 -50161.700000 0 0 1
32.815545 32.085450 -5.220766 46.190827 0.774149 1.684064 0.032850 -0.019730 -93217.500000 0 0 1
32.623725 30.752150 -4.762366 45.085278 0.755875 1.676624 0.041611 -0.010603 -715106.000000 0 0 1
31.455915 30.074950 -5.403866 43.854065 0.762958 1.694334 0.048348 -0.023003 -1268540.000000 0 0 1
31.561905 29.888850 -6.760266 43.990890 0.758179 1.725082 0.025443 -0.019024 -1725.040000 0 0 1
30.325135 29.491950 -7.331966 42.931884 0.771470 1.742419 0.008822 -0.013443 123496.000000 0 0 1
30.276505 29.109350 -8.781366 42.908431 0.765747 1.776906 0.019332 -0.013274 -345458.000000 0 0 1
30.851875 27.840650 -9.080066 42.536897 0.734138 1.785915 0.038562 -0.011871 40876.000000 0 0 1
31.158965 27.678850 -10.437166 42.964338 0.726319 1.816178 0.031327 -0.010630 393765.000000 0 0 1
32.478885 28.344450 -10.950366 44.476919 0.717528 1.819557 0.050554 -0.011410 -188362.000000 0 0 1
33.636175 27.785250 -10.311966 44.830225 0.690426 1.802897 0.050360 -0.015568 589460.000000 0 0 1
34.789705 28.533750 -10.698166 46.248776 0.686924 1.804228 0.059031 -0.011491 161928.000000 0 0 1
35.041745 29.917150 -10.135666 47.177235 0.706671 1.787327 0.056399 -0.019198 -935057.000000 0 0 1
35.747785 29.856250 -8.897266 47.417941 0.695834 1.759550 0.051680 -0.018533 215361.000000 0 0 1
35.718005 31.148450 -8.249566 48.104648 0.717166 1.743140 0.038551 -0.017902 -542447.000000 0 0 1
36.789155 31.310950 -7.128066 48.832642 0.705128 1.717289 0.054530 -0.012450 502431.000000 0 0 1
-36.343194 31.438150 -7.600766 48.651379 -0.713158 1.727668 0.062937 -0.011900 -192283.000000 0 0 1
-35.686413 30.233550 -7.796266 47.416974 -0.702867 1.735966 0.066799 -0.013598 174367.000000 0 0 1
-34.171466 30.343050 -8.224266 46.433052 -0.726126 1.748857 0.103717 -0.010961 851211.000000 0 0 1
-33.248964 30.788550 -7.210166 45.884800 -0.746996 1.728587 0.093452 -0.014059 429981.000000 0 0 1
-31.972604 30.990250 -7.778866 45.201258 -0.769797 1.743751 0.100794 -0.027394 -175479.000000 0 0 1
-31.744924 32.341250 -8.524966 46.112598 -0.794703 1.756739 0.067818 -0.014270 -603108.000000 0 0 1
-31.774754 33.585450 -7.857066 46.897238 -0.813094 1.739128 0.052316 -0.000039 195255.000000 0 0 1
-30.655984 33.856750 -7.031866 46.211644 -0.834972 1.723556 0.077658 -0.008693 19355.800000 0 0 1
-30.759624 -32.741348 -6.361866 45.372058 0.816596 1.711475 0.068753 -0.001954 121382.000000 0 0 1
-31.778854 -32.555848 -5.390966 45.813113 0.797475 1.688743 0.059526 -0.006236 40916.200000 0 0 1
-31.713964 -33.294448 -4.187966 46.171797 0.809705 1.661625 0.061389 -0.012791 -667732.000000 0 0 1
-32.955364 -33.162148 -3.325466 46.870490 0.788526 1.641806 0.054979 -0.012814 -794640.000000 0 0 1
-33.104374 -31.861648 -2.735066 46.027652 0.766272 1.630254 0.061006 -0.009133 -414045.000000 0 0 1
-34.129387 -31.839448 -1.805766 46.710024 0.750700 1.609465 0.055801 -0.012809 -452884.000000 0 0 1
-34.538030 -30.455148 -1.247066 46.064593 0.722660 1.597872 0.062944 -0.007494 513623.000000 0 0 1
-35.736266 -30.475548 -0.471866 46.968739 0.706112 1.580843 0.042455 -0.002195 276070.000000 0 0 1
-36.257434 -29.168948 -0.177366 46.534509 0.677476 1.574608 0.050744 -0.005742 -176367.000000 0 0 1
-37.221904 -29.307648 0.990834 47.385548 0.666996 1.549885 0.041894 -0.002631 -842509.000000 0 0 1
36.075725 -30.079048 0.731234 46.975971 -0.694999 1.555230 0.023778 0.001254 117046.000000 0 0 1
35.148775 -30.055348 1.796234 46.281604 -0.707441 1.531976 0.026580 -0.005640 707219.000000 0 0 1
34.270805 -28.718748 1.885034 44.752742 -0.697483 1.528663 0.022863 0.012437 -486401.000000 0 0 1
33.225435 -28.549848 0.951334 43.816988 -0.709855 1.549083 0.017514 0.002662 -138084.000000 0 0 1
32.559665 -27.367048 1.228434 42.551101 -0.698965 1.541923 0.014531 0.003279 510148.000000 0 0 1
31.273575 -27.167748 0.323334 41.427378 -0.715258 1.562991 0.015882 -0.021722 1677840.000000 0 0 1
30.070075 -27.884748 0.694634 41.015255 -0.747709 1.553860 0.029007 -0.002951 1051940.000000 0 0 1
29.985355 -29.204348 0.200634 41.857565 -0.772204 1.566003 0.031342 0.002246 -318907.000000 0 0 1
29.493315 -29.438648 -1.248866 41.689919 -0.784471 1.600757 0.032778 -0.002713 415648.000000 0 0 1
28.082365 -29.323348 -1.445566 40.627179 -0.807013 1.606385 0.042861 0.000031 562560.000000 0 0 1
27.899565 -29.581848 -2.818866 40.760489 -0.814656 1.640008 0.040852 -0.006215 185709.000000 0 0 1
26.440765 -30.038948 -3.080866 40.136570 -0.849020 1.647631 0.060405 -0.014000 309059.000000 0 0 1
25.534165 -28.968148 -3.076366 38.737724 -0.848321 1.650295 0.067371 -0.014867 965152.000000 0 0 1
24.164765 -29.389348 -3.307466 38.191740 -0.882648 1.657507 0.071093 -0.016926 1404630.000000 0 0 1
23.131865 -28.248748 -3.471366 36.675951 -0.884659 1.665588 0.076609 -0.019544 85391.300000 0 0 1
23.233565 -27.519048 -4.681266 36.318189 -0.869637 1.700052 0.074441 -0.023167 580514.000000 0 0 1
22.342065 -26.385648 -4.586166 34.876973 -0.868192 1.702674 0.076129 -0.030969 422817.000000 0 0 1
21.916565 -25.616948 -5.895266 34.224524 -0.863089 1.743912 0.077859 -0.045088 -149831.000000 0 0 1
20.829765 -26.301648 -6.486666 34.172104 -0.900979 1.761779 0.088665 -0.045214 -460906.000000 0 0 1
20.325265 -25.519148 -7.505466 33.476490 -0.898211 1.796920 0.092085 -0.046357 59109.800000 0 0 1
18.798965 -25.708048 -7.749066 32.777322 -0.939405 1.809471 0.082248 -0.040831 521458.000000 0 0 1
18.070065 -25.143748 -6.648666 31.669229 -0.947650 1.782311 0.085502 -0.043729 -135809.000000 0 0 1
16.699565 -25.448448 -6.751566 31.178240 -0.990067 1.789073 0.078149 -0.044666 -145427.000000 0 0 1
15.823865 -24.485148 -5.936466 29.751619 -0.997052 1.771679 0.070773 -0.034107 -273983.000000 0 0 1
15.714665 -24.928348 -4.580566 29.822053 -1.008328 1.725003 0.058770 -0.035289 -39761.500000 0 0 1
14.799765 -24.212848 -3.805366 28.631729 -1.022156 1.704098 0.065400 -0.034594 -287842.000000 0 0 1
14.587365 -24.710648 -2.357666 28.791769 -1.037520 1.652775 0.076714 -0.030981 -392364.000000 0 0 1
13.746665 -25.821348 -2.283266 29.341543 -1.081585 1.648692 0.063038 -0.027758 -230867.000000 0 0 1
14.456265 -27.034648 -2.112566 30.729770 -1.079751 1.639597 0.073749 -0.025968 -207864.000000 0 0 1
13.584865 -28.291948 -2.306166 31.469053 -1.123140 1.644146 0.066899 -0.014848 -240392.000000 0 0 1
12.685965 -28.542348 -1.249666 31.259575 -1.152558 1.610784 0.084771 -0.026598 -239224.000000 0 0 1
12.277265 -29.884748 -1.108066 32.327345 -1.180997 1.605079 0.083733 -0.025203 75038.900000 0 0 1
13.355465 -30.897648 -0.594766 33.665812 -1.162802 1.588464 0.078183 -0.023955 271225.000000 0 0 1
14.412565 -31.068348 -1.512966 34.281969 -1.136445 1.614944 0.068775 -0.021239 -363439.000000 0 0 1
15.165365 -32.213148 -1.182566 35.624061 -1.130795 1.603998 0.075615 -0.017651 910256.000000 0 0 1
16.637065 -32.226248 -1.762166 36.310167 -1.094227 1.619346 0.066087 -0.012342 1165740.000000 0 0 1
17.530865 -31.257948 -1.206366 35.858693 -1.059665 1.604445 0.077292 -0.011642 1029420.000000 0 0 1
18.772965 -31.271748 -1.941766 36.525565 -1.030144 1.623983 0.081907 -0.011854 303365.000000 0 0 1
19.751265 -30.215648 -1.483366 36.128912 -0.991841 1.611865 0.096169 -0.013268 -209314.000000 0 0 1
19.190465 -28.882048 -1.613166 34.713815 -0.984335 1.617283 0.084738 -0.018613 801941.000000 0 0 1
20.064865 -27.923948 -0.969066 34.398907 -0.947726 1.598971 0.073680 -0.012788 60916.100000 0 0 1
19.489065 -26.475548 -0.752666 32.883808 -0.936241 1.593687 0.076656 -0.013733 -86647.500000 0 0 1
19.421565 -25.627248 -1.856266 32.208676 -0.922291 1.628461 0.082028 -0.016693 -37468.200000 0 0 1
18.261365 -25.881748 -2.602466 31.782309 -0.956342 1.652772 0.089747 -0.028168 -634093.000000 0 0 1
32.835365 -28.684348 13.601434 45.672224 -0.718026 1.268403 0.086167 -0.037901 -474179.000000 0 0 1
33.748995 -29.330848 14.399134 46.974764 -0.715472 1.259252 0.119187 -0.026733 -561072.000000 0 0 1
33.135225 -29.850348 15.554334 47.232656 -0.733293 1.235220 0.105914 -0.017683 187276.000000 0 0 1
34.082375 -30.671848 16.456134 48.715244 -0.732778 1.226215 0.108867 -0.015115 -284504.000000 0 0 1
33.364255 -31.116448 17.569334 48.888530 -0.750552 1.203198 0.098637 -0.015970 373608.000000 0 0 1
34.165795 -31.482248 18.710634 50.085141 -0.744543 1.187935 0.082715 -0.019006 902064.000000 0 0 1
35.134965 -32.754648 18.493934 51.471918 -0.750351 1.203277 0.076180 -0.015624 585536.000000 0 0 1
36.230485 -32.516248 17.616234 51.771480 -0.731423 1.223593 0.086511 -0.023031 98796.300000 0 0 1
36.989915 -33.724648 17.702934 53.094252 -0.739256 1.230863 0.076309 -0.012564 -189983.000000 0 0 1
-36.246014 -33.794248 16.764634 52.315177 0.750407 1.244587 0.085767 -0.022146 -242745.000000 0 0 1
-35.183680 -33.004548 17.239134 51.228696 0.753451 1.227585 0.079578 -0.024393 255568.000000 0 0 1
-34.085771 -33.034848 16.316634 50.193362 0.769742 1.239705 0.104458 -0.022559 221234.000000 0 0 1
-32.848194 -32.287348 16.899934 49.062047 0.776788 1.219132 0.077054 -0.022687 713172.000000 0 0 1
-31.705134 -32.149348 16.041234 47.917818 0.792355 1.229440 0.083885 -0.029997 478337.000000 0 0 1
-31.883694 -31.233348 14.943934 47.068176 0.775095 1.247709 0.103648 -0.037928 -612755.000000 0 0 1
-30.664414 -31.199348 14.017634 45.936910 0.794045 1.260701 0.076082 -0.040668 -114280.000000 0 0 1
-29.514214 -30.666648 14.608334 44.999284 0.804545 1.240171 0.070656 -0.041775 -553817.000000 0 0 1
-28.422824 -30.604448 13.716634 43.961747 0.822341 1.253485 0.064074 -0.029609 595850.000000 0 0 1
-27.155494 -30.024648 14.477134 42.994043 0.835534 1.227361 0.049738 -0.027684 722334.000000 0 0 1
-26.050034 -30.252448 13.617534 42.181182 0.859900 1.242074 0.040381 -0.020149 15809.900000 0 0 1
-24.838294 -29.926848 14.299434 41.437072 0.878048 1.218464 0.026509 -0.015685 318322.000000 0 0 1
-23.545794 -30.068448 13.478934 40.499354 0.906462 1.231505 0.029703 -0.008875 60534.600000 0 0 1
-23.301494 -31.371148 13.016734 41.189124 0.931940 1.249261 0.026191 -0.022512 206523.000000 0 0 1
-21.941494 -31.530548 12.628234 40.436085 0.962840 1.253182 0.014089 -0.020381 385192.000000 0 0 1
-21.629594 -32.975348 12.267534 41.300186 0.990262 1.269212 0.010490 -0.010393 -100433.000000 0 0 1
-22.168894 -33.490248 11.046234 41.654242 0.986066 1.302397 0.022689 -0.013561 16318.800000 0 0 1
-22.292994 33.045950 10.982234 41.347574 -0.977317 1.301962 0.036141 -0.005339 -33697.500000 0 0 1
-23.410394 32.711650 9.973234 41.443504 -0.949638 1.327764 0.029486 -0.003596 -387295.000000 0 0 1
-23.149594 32.954050 8.620134 41.184704 -0.958407 1.359933 0.030454 -0.008199 -28710.500000 0 0 1
-24.304894 33.024350 7.795234 41.738487 -0.936336 1.382929 0.039898 -0.006754 -324832.000000 0 0 1
-23.950394 33.391750 6.301134 41.573244 -0.948584 1.418643 0.049216 -0.009692 -400752.000000 0 0 1
-23.259794 32.445850 5.503934 40.299436 -0.948831 1.433792 0.035737 -0.009521 529157.000000 0 0 1
-21.926394 32.132650 5.893834 39.344774 -0.972000 1.420431 0.046762 -0.010896 576286.000000 0 0 1
-20.796894 33.201050 5.589334 39.573491 -1.011196 1.429083 0.050407 -0.015358 -42853.000000 0 0 1
-20.884694 -33.593248 6.365734 40.064939 1.014578 1.411235 0.042032 -0.015366 -10021.500000 0 0 1
-20.167494 -33.690948 7.579934 39.990789 1.031405 1.380101 0.029852 -0.015691 -196508.000000 0 0 1
-20.171294 -32.466348 8.517634 39.159864 1.014863 1.351534 0.016563 -0.010598 -217309.000000 0 0 1
-19.400094 -31.369848 8.017834 37.745420 1.016935 1.356747 0.021641 -0.016519 20049.400000 0 0 1
-19.497994 -30.171048 8.757134 36.975009 0.997063 1.331685 0.023111 -0.017979 -318049.000000 0 0 1
-19.024094 -30.131248 10.217734 37.070344 1.007626 1.291550 0.006665 -0.010615 729652.000000 0 0 1
-17.650594 -30.551648 10.272634 36.748792 1.046913 1.287485 0.015335 -0.020331 95924.500000 0 0 1
-17.181194 -30.593348 11.560434 36.943065 1.059092 1.252524 0.045365 -0.025462 -668038.000000 0 0 1
-15.765694 -31.120448 11.479434 36.726242 1.101881 1.252901 0.054617 -0.026494 -129290.000000 0 0 1
-14.765994 -30.361948 10.766234 35.437188 1.118143 1.262105 0.065675 -0.021524 98888.300000 0 0 1
-13.713494 -31.199248 10.344634 35.615509 1.156670 1.276096 0.078869 -0.012458 55296.300000 0 0 1
-12.654994 -30.341248 9.594734 34.246155 1.175646 1.286825 0.096991 -0.013963 285580.000000 0 0 1
-11.745894 -29.711948 10.485534 33.626066 1.194326 1.253680 0.116651 -0.020766 44953.500000 0 0 1
-10.813194 -28.836048 9.837834 32.329953 1.212036 1.261598 0.114655 -0.021156 1036470.000000 0 0 1
-9.690994 -28.310148 10.785434 31.807318 1.240984 1.224851 0.132575 -0.012215 554159.000000 0 0 1
-10.204094 -27.409748 11.711934 31.505353 1.214413 1.189909 0.126010 -0.024461 -466425.000000 0 0 1
-9.205194 -27.135748 12.667734 31.329793 1.243750 1.154545 0.113325 -0.009790 106178.000000 0 0 1
-9.366194 -25.800148 13.405134 30.546209 1.222562 1.116480 0.101948 -0.017393 152791.000000 0 0 1
-8.979694 -24.616848 12.664834 29.103645 1.221017 1.120577 0.091073 -0.020291 -149284.000000 0 0 1
-9.779394 -24.246148 11.565734 28.588083 1.187416 1.154293 0.085409 -0.020970 67969.100000 0 0 1
-9.174394 -22.995448 10.896934 27.050015 1.191182 1.156174 0.086310 -0.026120 -758474.000000 0 0 1
-8.044194 -23.239348 10.172534 26.613095 1.237560 1.178579 0.077329 -0.024585 -1125680.000000 0 0 1
-7.520594 -22.006848 9.659134 25.182525 1.241500 1.177143 0.076596 -0.025239 -366957.000000 0 0 1
-6.285394 -22.109748 8.783734 24.606933 1.293822 1.205783 0.065785 -0.024447 287412.000000 0 1 0
-5.114994 -22.487848 9.532234 24.954558 1.347146 1.178855 0.051927 -0.028578 920678.000000 0 1 0
-3.947494 -22.515948 8.697134 24.457939 1.397240 1.207245 0.050164 -0.027343 1502120.000000 0 1 0
-2.587694 -23.051648 9.278034 24.983126 1.459008 1.190310 0.050853 -0.033508 953051.000000 0 1 0
-2.072194 -22.231048 10.309634 24.592724 1.477853 1.138216 0.046043 -0.032264 245827.000000 0 1 0
-1.017394 -22.991548 10.948034 25.485404 1.526574 1.126768 0.060834 -0.035088 1092580.000000 0 0 1
-0.083494 -22.432648 12.053834 25.466166 1.567074 1.077732 0.063121 -0.031544 -102176.000000 0 0 1
-0.813294 -22.160848 13.200534 25.807339 1.534113 1.033863 0.065107 -0.033423 -145160.000000 0 0 1
-0.021894 -21.884448 14.376034 26.183963 1.569796 0.989582 0.085657 -0.039138 113800.000000 0 0 1
0.938106 -20.693048 14.406734 25.231653 -1.525493 0.963099 0.062863 -0.032430 333726.000000 0 0 1
2.093106 -20.884648 13.555534 24.986039 -1.470908 0.997357 0.066797 -0.028410 72193.100000 0 1 0
2.529806 -19.598248 13.240534 23.786614 -1.442423 0.980463 0.052337 -0.022386 900735.000000 0 1 0
4.100706 -19.575248 13.066334 23.890066 -1.364298 0.992097 0.072609 -0.010642 1079420.000000 0 1 0
4.329206 -20.202248 11.846234 23.816090 -1.359696 1.050192 0.065578 -0.005694 -1552350.000000 0 1 0
5.690206 -20.288748 11.666034 24.085434 -1.297360 1.065164 0.101420 -0.011352 -963278.000000 0 1 0
6.056906 -20.930548 10.314934 24.107506 -1.289110 1.128659 0.101824 -0.022492 -169911.000000 0 1 0
5.844106 -20.065448 9.207134 22.837406 -1.287384 1.155829 0.083602 -0.024559 -466384.000000 0 1 0
5.922706 -20.767548 7.977234 23.021854 -1.292981 1.216951 0.084919 -0.030706 78380.500000 0 1 0
7.279406 -21.408048 7.504234 23.824521 -1.243030 1.250361 0.090217 -0.019866 757444.000000 0 1 0
8.248206 -20.563748 6.869034 23.196644 -1.189338 1.270166 0.088453 -0.020749 465767.000000 0 1 0
8.920806 -19.585848 7.670734 22.847897 -1.143401 1.228416 0.094020 -0.011023 310705.000000 0 1 0
9.880206 -19.984248 8.850534 23.985842 -1.111639 1.192874 0.087048 -0.002936 275714.000000 0 1 0
9.195506 -20.190348 10.041434 24.352370 -1.143427 1.145776 0.098385 -0.010465 -846727.000000 0 1 0
10.096006 -20.212148 11.110534 25.177455 -1.107547 1.113762 0.089695 0.000921 51312.700000 0 0 1
9.423206 -20.134948 12.512234 25.510174 -1.133073 1.058156 0.105070 -0.007404 -27888.200000 0 0 1
8.953606 -21.382548 12.879234 26.518958 -1.174245 1.063677 0.092634 -0.016324 -334143.000000 0 0 1
8.330706 -21.368748 14.125634 26.936177 -1.199066 1.018773 0.115683 -0.023205 3955.110000 0 0 1
8.457706 -22.713548 14.928734 28.465860 -1.214339 1.018735 0.113367 -0.033329 236570.000000 0 0 1
8.135106 -23.904548 14.196934 28.968264 -1.242774 1.058608 0.114646 -0.032296 -199156.000000 0 0 1
8.441006 -25.139748 14.828134 30.383073 -1.246860 1.060954 0.115258 -0.042405 141561.000000 0 0 1
8.387106 -26.270348 13.841734 30.855605 -1.261764 1.105601 0.120841 -0.051662 822421.000000 0 0 1
9.461206 -26.400248 12.865034 30.854443 -1.226679 1.140699 0.114392 -0.043077 533445.000000 0 0 1
9.349706 -27.561348 12.082834 31.512534 -1.243746 1.177290 0.106521 -0.040872 -504209.000000 0 0 1
10.653806 -27.829748 11.338134 31.883409 -1.205187 1.207227 0.102921 -0.035481 175761.000000 0 0 1
11.690606 -28.263648 12.236034 32.942748 -1.178598 1.190244 0.080280 -0.039600 368319.000000 0 0 1
12.787306 -28.818948 11.544034 33.575463 -1.153184 1.219811 0.101852 -0.035088 98412.200000 0 0 1
13.714106 -29.786448 12.337334 35.035968 -1.139316 1.210947 0.076443 -0.031501 -186177.000000 0 0 1
14.638206 -29.038548 13.125434 35.068382 -1.103878 1.187175 0.065581 -0.025833 -479429.000000 0 0 1
15.430306 -29.873848 13.891934 36.380311 -1.094024 1.178996 0.054507 -0.025703 646079.000000 0 0 1
16.867006 -29.909048 13.240434 36.801578 -1.057311 1.202765 0.066602 -0.021215 325079.000000 0 0 1
17.578306 -28.693848 13.125734 36.119506 -1.021152 1.198884 0.058580 -0.025598 18974.100000 0 0 1
18.904706 -28.891848 12.685734 36.783891 -0.991386 1.218694 0.049164 -0.020179 -474901.000000 0 0 1
19.726606 -27.608548 12.814734 36.271040 -0.950398 1.209695 0.023656 -0.017897 440684.000000 0 0 1
21.056506 -27.712148 12.294134 36.911859 -0.921034 1.231242 0.016963 -0.017467 793818.000000 0 0 1
21.779406 -26.452248 12.219134 36.378170 -0.881980 1.228244 0.011567 -0.014627 103110.000000 0 0 1
23.187006 -26.563448 11.625534 37.126905 -0.853162 1.252310 0.022453 -0.006948 -482446.000000 0 0 1
24.006206 -27.276848 12.497034 38.425255 -0.849088 1.239542 0.036259 -0.009480 -179421.000000 0 0 1
24.981506 -28.011948 11.777334 39.337647 -0.842521 1.266742 0.034057 -0.017883 -386656.000000 0 0 1
26.139806 -28.677248 12.563634 40.786259 -0.831654 1.257668 0.055837 -0.015128 98779.800000 0 0 1
27.073406 -27.836348 13.205834 41.014944 -0.799292 1.242980 0.040752 -0.009566 594270.000000 0 0 1
28.130806 -27.520148 12.272234 41.222670 -0.774426 1.268508 0.029295 -0.010171 987155.000000 0 0 1
29.487806 -26.909848 12.820334 41.928888 -0.739720 1.260056 0.066205 -0.024138 925499.000000 0 0 1
29.400506 -25.547348 13.263034 41.145654 -0.715389 1.242592 0.073526 -0.022855 -136707.000000 0 0 1
28.675606 -25.237748 14.435334 40.836420 -0.721718 1.209495 0.071934 -0.017603 -268961.000000 0 0 1
29.508106 -25.210148 15.752734 41.885899 -0.707012 1.185227 0.072414 -0.008500 153701.000000 0 0 1
29.967306 -26.502948 16.219634 43.168533 -0.724127 1.185614 0.085789 -0.005772 109377.000000 0 0 1
30.793306 -26.325448 17.349534 44.071116 -0.707337 1.166174 0.104502 0.002689 152889.000000 0 0 1
31.022706 -27.600448 18.203334 45.338223 -0.727087 1.157641 0.101777 0.007028 178652.000000 0 0 1
29.805506 -28.079848 18.724134 45.027095 -0.755595 1.141928 0.067264 0.002647 -49953.200000 0 0 1
30.115706 -29.220948 19.526334 46.282797 -0.770320 1.135265 0.098538 -0.002205 -95643.500000 0 0 1
28.945906 -30.027048 20.093834 46.295262 -0.803729 1.121828 0.085247 -0.008758 -1509960.000000 0 0 1
28.158006 -29.331748 21.048234 45.784855 -0.805812 1.093116 0.085700 -0.008671 845545.000000 0 0 1
26.918206 -29.921348 21.446234 45.605020 -0.838185 1.081211 0.089124 -0.013810 1137190.000000 0 0 1
25.924306 -30.511348 20.390934 44.931083 -0.866499 1.099741 0.102660 -0.019852 -928885.000000 0 0 1
26.417806 -31.658948 19.736834 45.713588 -0.875399 1.124364 0.095244 -0.022405 -63881.200000 0 0 1
25.536106 -32.083748 18.704134 45.069993 -0.898548 1.142851 0.089781 -0.011262 -212.081000 0 0 1
25.634306 -31.228148 17.399334 43.989223 -0.883458 1.164145 0.078539 -0.001336 1445680.000000 0 0 1
26.998106 -31.383948 16.906334 44.717716 -0.860380 1.183088 0.091143 -0.016756 1344100.000000 0 0 1
27.482406 -30.337748 16.116434 43.993194 -0.834741 1.195725 0.079486 -0.022238 35506.100000 0 0 1
28.737706 -30.713948 15.302134 44.758884 -0.818627 1.221880 0.100950 -0.026053 -81735.500000 0 0 1
28.525506 -31.641048 14.270834 44.927911 -0.837134 1.247558 0.111852 -0.026548 114163.000000 0 0 1
28.575006 -33.045148 14.630834 46.071402 -0.857815 1.247632 0.080416 -0.030615 -212453.000000 0 0 1
27.947506 33.990450 13.592934 46.056288 0.882655 1.271197 0.112865 -0.034027 104830.000000 0 0 1
28.627706 33.852250 12.331834 46.017329 0.868824 1.299498 0.129879 -0.035797 196256.000000 0 0 1
28.049806 32.811150 11.641134 44.708827 0.863472 1.307384 0.124277 -0.034987 -411625.000000 0 0 1
28.789406 32.482750 10.307334 44.611659 0.845603 1.337644 0.126597 -0.039922 -248211.000000 0 0 1
30.103106 32.098650 10.618134 45.268810 0.817469 1.334033 0.115202 -0.043311 -353036.000000 0 0 1
30.655606 31.354650 9.584734 44.885938 0.796671 1.355604 0.117479 -0.047804 -84000.200000 0 0 1
32.160606 31.044550 9.772734 45.755601 0.767742 1.355553 0.087950 -0.047847 52289.400000 0 0 1
32.401106 30.214350 10.881734 45.619632 0.750489 1.329943 0.071589 -0.032806 -271432.000000 0 0 1
33.748506 29.930450 11.127534 46.460903 0.725512 1.328942 0.090087 -0.035399 -382272.000000 0 0 1
33.853906 28.888650 12.257134 46.161439 0.706426 1.302045 0.068403 -0.023100 -139788.000000 0 0 1
33.456906 27.588650 11.884234 44.963688 0.689564 1.303311 0.065073 -0.030091 285192.000000 0 0 1
33.494706 26.739650 12.997734 44.786665 0.673719 1.276345 0.066549 -0.027658 -23769.100000 0 0 1
33.309406 25.276950 12.642934 43.683916 0.649143 1.277177 0.046423 -0.027580 164972.000000 0 0 1
34.527906 24.757450 12.140234 44.187022 0.622062 1.292470 0.039567 -0.011186 -97548.300000 0 0 1
34.676406 23.341350 12.073234 43.509019 0.592456 1.289618 0.050736 -0.014548 510648.000000 0 0 1
33.558306 22.455250 11.353434 41.943994 0.589714 1.296696 0.044630 -0.014843 946071.000000 0 0 1
32.433006 22.182950 12.151834 41.129676 0.599881 1.270868 0.074395 -0.032126 -274510.000000 0 0 1
31.279106 21.802450 11.478134 39.818047 0.608729 1.278382 0.083632 -0.022946 -430734.000000 0 0 1
29.954406 21.750750 12.228534 38.985877 0.628048 1.251745 0.077782 -0.017757 -122440.000000 0 0 1
29.503706 23.073050 12.582834 39.511543 0.663693 1.246692 0.083178 -0.020189 274502.000000 0 0 1
28.271806 22.935850 13.282334 38.752660 0.681571 1.220958 0.108115 -0.021892 258403.000000 0 0 1
24.693306 9.231450 25.663037 36.790903 0.357757 0.798841 0.058567 -0.010327 -182403.000000 0 0 1
24.192306 8.080650 26.252087 36.602413 0.322366 0.770988 0.078880 -0.022857 -20735.900000 0 0 1
22.780806 8.048650 26.288757 35.704967 0.339619 0.743244 0.071144 -0.026087 -196711.000000 0 0 1
22.336206 6.782950 27.053807 35.732660 0.294825 0.711908 0.090096 -0.030426 -304601.000000 0 0 1
22.565306 6.825950 28.480397 36.971877 0.293747 0.691444 0.093226 -0.031659 796025.000000 0 0 1
23.927106 6.649150 28.902987 38.106433 0.271053 0.709818 0.086942 -0.032901 557802.000000 0 0 1
24.132506 6.456150 30.434347 39.373966 0.261407 0.687309 0.087522 -0.037707 -58125.200000 0 0 1
24.019306 7.675750 31.161157 40.085682 0.309309 0.680332 0.105285 -0.037478 151278.000000 0 0 1
24.198906 7.476850 32.593411 41.277364 0.299670 0.660608 0.097634 -0.037033 77406.000000 0 0 1
24.419106 8.710550 33.468019 42.335266 0.342640 0.659095 0.111244 -0.037326 -184568.000000 0 0 1
25.699206 9.262550 33.326558 43.091803 0.345929 0.686633 0.091501 -0.039524 -520391.000000 0 0 1
26.062206 10.061250 -33.435916 43.570951 0.368421 2.445557 0.104100 -0.032937 662525.000000 0 0 1
27.386906 10.865950 -33.679706 44.748565 0.377708 2.422864 0.084748 -0.032881 473863.000000 0 0 1
27.114906 12.119550 33.481543 44.756177 0.420331 0.725621 0.076346 -0.034154 427652.000000 0 0 1
26.817306 13.201450 -33.441936 44.853197 0.457447 2.412211 0.069669 -0.032266 -170410.000000 0 0 1
26.497406 14.553950 33.694412 45.268570 0.502274 0.731277 0.061514 -0.024470 97829.600000 0 0 1
27.618406 15.238150 33.115990 45.734521 0.504177 0.761080 0.056757 -0.024801 460810.000000 0 0 1
27.435506 16.661050 33.061900 46.080222 0.545756 0.770610 0.066788 -0.021532 -163924.000000 0 0 1
27.642906 17.615650 -33.566036 46.916097 0.567365 2.368062 0.052462 -0.028898 -184690.000000 0 0 1
26.915706 17.249950 -32.423416 45.533437 0.569943 2.363252 0.049660 -0.026341 -82580.100000 0 0 1
27.788606 16.704250 -31.498396 45.203844 0.541242 2.341734 0.057815 -0.028874 -338159.000000 0 0 1
27.028406 16.054950 -30.330246 43.683177 0.535998 2.338275 0.050310 -0.021818 121065.000000 0 0 1
26.364206 14.819550 -30.696566 43.092570 0.512092 2.363623 0.059497 -0.017513 402934.000000 0 0 1
25.611506 14.280350 -29.600676 41.666265 0.508641 2.360895 0.077788 -0.026777 228443.000000 0 0 1
24.781506 13.084850 -30.116266 41.137888 0.485803 2.392168 0.074768 -0.020648 -439944.000000 0 0 1
23.722506 13.304250 -31.035396 41.266889 0.511119 2.421986 0.076464 -0.024595 477616.000000 0 0 1
23.091406 12.073350 -31.392106 40.797587 0.481760 2.448791 0.070066 -0.020394 -11266.100000 0 0 1
22.152106 11.311150 -30.439936 39.309638 0.472102 2.456504 0.069317 -0.021520 -786413.000000 0 0 1
21.025906 12.091750 -30.114046 38.667233 0.521901 2.463547 0.089742 -0.021039 102936.000000 0 0 1
20.214606 11.281350 -29.242196 37.296182 0.509025 2.471966 0.083713 -0.016849 -61889.700000 0 0 1
18.936106 11.929550 -28.713736 36.405616 0.562179 2.479516 0.085405 -0.010052 -37690.500000 0 0 1
17.920306 12.120050 -29.675956 36.724588 0.594663 2.511661 0.070797 -0.006714 1493340.000000 0 0 1
16.732806 12.818650 -29.153936 35.975777 0.653712 2.515591 0.066026 -0.006137 1067080.000000 0 0 1
15.764006 13.360650 -30.230306 36.618059 0.703065 2.541985 0.078474 -0.009765 -216905.000000 0 0 1
14.975606 12.393550 -30.821966 36.439847 0.691335 2.578918 0.074971 -0.016780 493488.000000 0 0 1
13.652106 12.324150 -30.241746 35.395308 0.734321 2.595191 0.069243 -0.018384 869737.000000 0 0 1
12.602606 11.592750 -31.138876 35.536560 0.743685 2.638818 0.074545 -0.021598 146778.000000 0 0 1
12.149306 12.444750 -32.137566 36.541765 0.797410 2.645554 0.079617 -0.016041 -131853.000000 0 0 1
11.116506 11.784350 -32.835216 36.614191 0.814552 2.683255 0.079985 -0.011348 -249720.000000 0 0 1
10.500706 12.524350 33.832227 37.573179 0.873062 0.450026 0.092642 -0.017788 -490171.000000 0 0 1
11.400006 12.873450 32.832541 37.062941 0.846026 0.482454 0.078096 -0.009096 149949.000000 0 0 1
10.710706 13.273850 31.662217 35.964014 0.891861 0.494121 0.077080 -0.025005 -15246.800000 0 0 1
11.754806 13.310450 30.544267 35.331230 0.847382 0.526618 0.089219 -0.022034 18710.500000 0 0 1
12.101106 11.990650 30.128477 34.611235 0.780813 0.514614 0.079990 -0.021765 -77518.300000 0 0 1
12.323706 11.951450 28.698567 33.441272 0.770065 0.539086 0.087256 -0.016577 -318837.000000 0 0 1
12.766906 10.586750 28.115407 32.642753 0.692314 0.532961 0.088452 -0.014767 -145576.000000 0 0 1
11.892506 9.542450 28.375677 32.212872 0.676198 0.493078 0.087435 -0.018948 -133220.000000 0 0 1
12.400506 8.399350 27.690587 31.481586 0.595355 0.495817 0.076254 -0.023995 -239872.000000 0 0 1
11.705206 7.079450 27.899317 31.072534 0.543950 0.455873 0.054012 -0.013947 310061.000000 0 0 1
10.350706 6.920150 27.452167 30.143773 0.589318 0.425802 0.055967 -0.029405 660916.000000 0 0 1
9.661306 5.796150 27.994727 30.176828 0.540371 0.382620 0.055510 -0.034228 112485.000000 0 0 1
9.960506 4.455450 27.384507 29.478364 0.420616 0.379177 0.057138 -0.027503 382461.000000 0 0 1
11.353806 4.097150 27.428307 29.966775 0.346318 0.414568 0.038986 -0.017368 939840.000000 0 0 1
11.650706 2.761550 27.035947 29.568692 0.232734 0.416912 0.027529 -0.021620 -352431.000000 0 0 1
12.052206 1.824050 28.196657 30.718631 0.150206 0.408039 0.018563 -0.017109 32778.200000 0 0 1
10.915206 1.469250 28.949397 30.973667 0.133802 0.363536 0.011596 -0.011423 74196.200000 0 0 1
11.177906 0.286150 29.712647 31.746951 0.025594 0.359931 0.003290 -0.009021 -121626.000000 0 0 1
10.105006 0.027150 30.745677 32.363692 0.002687 0.317544 0.033705 -0.003237 -561451.000000 0 0 1
10.253506 0.966950 31.796017 33.422389 0.094026 0.313244 0.005140 -0.004582 493440.000000 0 0 1
9.152706 1.181650 32.710488 33.987415 0.128394 0.274984 0.035225 -0.008289 297864.000000 0 0 1
9.350406 2.477750 33.578697 34.944216 0.259035 0.280479 0.037318 -0.010341 -154199.000000 0 0 1
9.247706 3.713050 32.952785 34.426630 0.381808 0.293667 0.027173 -0.013043 394295.000000 0 0 1
10.323706 3.970050 32.053976 33.908665 0.367123 0.332273 0.011010 -0.009912 -50450.500000 0 0 1
10.358706 5.370550 31.379567 33.478692 0.478304 0.355996 0.016260 -0.013821 -22048.500000 0 0 1
10.600306 6.413650 32.296520 34.591424 0.544120 0.366306 0.027522 -0.019086 6274.670000 0 0 1
10.849406 7.583950 31.559277 34.223002 0.610068 0.397154 0.040452 -0.018654 -203217.000000 0 0 1
10.662206 8.888750 32.464302 35.307555 0.694936 0.404061 0.072455 -0.027949 1427670.000000 0 0 1
9.321806 9.273150 32.920348 35.449072 0.782782 0.379996 0.081783 -0.032132 1502630.000000 0 0 1
8.921506 8.458650 -33.808776 35.974649 0.758773 2.792825 0.076782 -0.030417 -460147.000000 0 0 1
7.615806 8.911350 -33.157936 35.169040 0.863627 2.801777 0.072854 -0.027268 -220882.000000 0 0 1
7.114606 8.000450 -32.198576 33.931889 0.843938 2.820585 0.077740 -0.022163 -206528.000000 0 0 1
5.738206 8.120550 -31.955666 33.466923 0.955636 2.839928 0.077264 -0.029263 -138617.000000 0 0 1
5.345106 7.521450 -30.600296 31.961234 0.952960 2.848722 0.070978 -0.022319 -602869.000000 0 0 1
5.979406 8.124750 -29.509686 31.186318 0.936348 2.812198 0.072819 -0.031235 83668.800000 0 0 1
5.657706 7.554250 -28.234316 29.770000 0.927972 2.818995 0.075933 -0.029415 795325.000000 0 0 1
4.174406 7.750450 -27.725556 29.089544 1.076746 2.834150 0.063174 -0.023050 1144320.000000 0 0 1
3.242706 6.934050 -28.458896 29.470408 1.133362 2.878834 0.057519 -0.017203 188105.000000 0 0 1
1.934806 6.956050 -27.891856 28.811208 1.299507 2.888292 0.083349 -0.014618 -113036.000000 0 0 1
1.023306 6.390950 -28.947876 29.662618 1.412026 2.921624 0.091431 -0.028530 -905827.000000 0 0 1
0.733206 7.216950 -30.081996 30.944279 1.469549 2.904966 0.070603 -0.029639 -368653.000000 0 0 1
-0.039894 6.507550 -30.979316 31.655454 -1.564666 2.934538 0.109077 -0.025047 -824644.000000 0 0 1
-0.490094 7.243550 -32.262256 33.069054 -1.503240 2.920246 0.120218 -0.032219 -203360.000000 0 0 1
0.489606 7.846450 -33.080616 34.001965 1.508479 2.908268 0.088517 -0.029552 415604.000000 0 0 1
1.585706 7.112550 -33.632366 34.412772 1.351439 2.928220 0.094449 -0.033541 476093.000000 0 0 1
1.331106 6.764950 32.695162 33.414219 1.376513 0.207832 0.126509 -0.042693 -684519.000000 0 0 1
0.441606 5.738050 32.427996 32.934711 1.493987 0.175642 0.122716 -0.039234 -572864.000000 0 0 1
0.165106 5.556650 31.050157 31.543872 1.541092 0.177159 0.141921 -0.036456 684790.000000 0 0 1
1.301906 4.795950 30.236917 30.642573 1.305725 0.162896 0.147553 -0.031493 664821.000000 0 0 1
1.085706 4.906050 28.856537 29.290746 1.353007 0.172400 0.130640 -0.030891 30233.300000 0 0 1
1.859306 4.041750 28.053307 28.403887 1.139637 0.157278 0.119479 -0.026653 -269681.000000 0 0 1
1.740406 4.259650 26.491887 26.888543 1.182916 0.171978 0.110276 -0.020268 97045.600000 0 0 1
2.454306 5.434750 26.106667 26.779063 1.146617 0.224565 0.099600 -0.018352 194128.000000 0 0 1
2.121006 5.933750 24.807377 25.595195 1.227502 0.248753 0.072172 -0.015598 -801096.000000 0 0 1
2.786706 7.331750 24.483077 25.708780 1.207573 0.310033 0.060874 -0.019100 747571.000000 0 0 1
4.214806 7.430850 24.565117 26.008212 1.054841 0.334685 0.056895 -0.023433 801660.000000 0 0 1
4.906406 6.793150 23.498507 24.947937 0.945288 0.342548 0.056353 -0.023476 925996.000000 0 1 0
6.500406 6.804550 23.570877 25.379981 0.808254 0.379853 0.064128 -0.026453 1525740.000000 0 0 1
7.098306 5.934550 24.518157 26.205817 0.696340 0.360842 0.066692 -0.027501 -45518.100000 0 0 1
6.947906 4.509750 24.450277 25.815253 0.575729 0.326642 0.077117 -0.024719 -527364.000000 0 0 1
7.260706 3.804750 23.051837 24.465919 0.482678 0.341653 0.083184 -0.027587 768667.000000 0 1 0
6.234606 4.010050 22.061117 23.273240 0.571575 0.324163 0.066318 -0.024765 762222.000000 0 1 0
5.045406 3.228850 22.150817 22.946466 0.569284 0.264108 0.063112 -0.019301 111839.000000 0 1 0
3.955906 3.584350 21.151017 21.814268 0.736162 0.247224 0.039872 -0.014881 -444989.000000 0 1 0
3.356006 4.800850 21.393517 22.180927 0.960712 0.267251 0.027255 -0.012629 49862.500000 0 1 0
2.243806 5.056450 20.554317 21.285730 1.153151 0.262908 0.023402 -0.011641 -82644.000000 0 1 0
1.680706 6.487050 20.653417 21.713365 1.317284 0.313745 0.023278 -0.014459 -261656.000000 0 1 0
2.434206 7.475950 19.999317 21.489250 1.256017 0.374567 0.021159 -0.010347 -79562.600000 0 1 0
1.935106 8.717350 20.467017 22.330151 1.352355 0.411394 0.031225 -0.003458 110900.000000 0 1 0
2.774406 9.897150 19.982517 22.471135 1.297487 0.475088 0.036529 -0.014439 -747529.000000 0 1 0
2.664406 10.034450 18.564817 21.270677 1.311259 0.509908 0.025816 -0.015264 96279.000000 0 1 0
3.512006 11.068450 18.066917 21.476924 1.263546 0.571252 0.028995 -0.023132 1855640.000000 0 1 0
5.084906 10.790750 18.148017 21.717437 1.130430 0.581495 0.037752 -0.027299 959059.000000 0 1 0
5.470106 9.897050 17.094917 20.496582 1.065882 0.584410 0.038453 -0.021724 -202994.000000 0 1 0
6.804206 9.487650 17.282517 20.856609 0.948643 0.594131 0.030296 -0.021464 -70268.800000 0 1 0
7.053906 8.096450 17.974617 20.937931 0.854103 0.538514 0.043908 -0.018303 -363108.000000 0 1 0
6.723806 8.065950 19.388117 22.049222 0.875899 0.496383 0.054429 -0.015418 -33870.600000 0 1 0
6.881806 6.786550 19.993317 22.206964 0.778429 0.450298 0.049850 -0.014838 64060.800000 0 1 0
8.327106 6.287550 20.194017 22.730427 0.646738 0.476919 0.071416 -0.020776 -45625.400000 0 1 0
9.033506 6.097450 18.953017 21.863211 0.593737 0.521865 0.067862 -0.025860 -13047.300000 0 1 0
10.311306 5.511350 19.146717 22.434233 0.490862 0.548208 0.075782 -0.027392 70252.000000 0 1 0
10.392106 3.988050 19.005917 22.025560 0.366426 0.529811 0.074745 -0.028610 -371824.000000 0 1 0
9.997406 3.226350 20.126317 22.702998 0.312167 0.481060 0.090962 -0.032890 313926.000000 0 1 0
10.365506 1.863050 19.936517 22.547270 0.177837 0.485997 0.096657 -0.043970 -129030.000000 0 1 0
9.646106 0.995150 20.955117 23.090141 0.102802 0.433419 0.108779 -0.043762 -250448.000000 0 1 0
9.866506 1.318450 22.318417 24.437635 0.132842 0.419530 0.090471 -0.035622 10891.300000 0 1 0
9.165206 0.466650 23.152677 24.905124 0.050871 0.377375 0.105030 -0.041968 -673967.000000 0 1 0
9.687006 0.655350 24.600117 26.446802 0.067550 0.375911 0.083108 -0.034433 601810.000000 0 0 1
11.004806 0.147850 24.891247 27.215837 0.013434 0.416311 0.075309 -0.032060 929815.000000 0 0 1
11.125406 -1.249950 24.825137 27.232783 -0.111882 0.423661 0.078778 -0.033483 -531383.000000 0 0 1
12.573806 -1.710850 25.058157 28.088055 -0.135234 0.468761 0.065733 -0.021529 -69639.600000 0 0 1
12.727606 -3.124650 24.976397 28.205953 -0.240741 0.483225 0.077264 -0.019672 -215404.000000 0 0 1
14.082406 -3.483350 25.043007 28.941322 -0.242487 0.525042 0.061537 -0.009132 -196899.000000 0 0 1
14.190006 -5.043350 25.142767 29.307855 -0.341491 0.539657 0.064255 -0.012241 -109471.000000 0 0 1
13.846006 -5.786250 23.998697 28.304241 -0.395842 0.558816 0.091545 -0.020834 355799.000000 0 0 1
13.509306 -7.128350 24.412467 28.797279 -0.485532 0.559096 0.094260 -0.026189 -8289.370000 0 0 1
13.351406 -8.108650 23.245177 28.006223 -0.545789 0.591688 0.118798 -0.034847 115883.000000 0 0 1
12.804506 -9.381650 23.507707 28.365173 -0.632326 0.593922 0.118421 -0.025177 -297107.000000 0 0 1
13.062306 -10.155550 22.339917 27.799837 -0.660851 0.637479 0.109846 -0.034016 32287.500000 0 0 1
12.239406 -11.462450 22.288317 27.891932 -0.752629 0.645007 0.122198 -0.028381 337440.000000 0 0 1
10.877906 -11.135050 22.055817 26.995875 -0.797079 0.614595 0.119667 -0.023808 537817.000000 0 0 1
10.008406 -12.298750 22.308317 27.369480 -0.887713 0.617929 0.104824 -0.022535 158210.000000 0 0 1
8.567006 -12.013150 22.681617 27.058550 -0.951309 0.576745 0.090007 -0.024141 -333746.000000 0 0 1
7.807006 -11.565250 21.540917 25.665453 -0.977019 0.574809 0.085892 -0.024878 1115360.000000 0 0 1
6.393606 -11.702550 21.847917 25.596081 -1.070765 0.548006 0.068661 -0.027824 1409410.000000 0 0 1
5.514806 -10.720950 21.065617 24.271631 -1.095699 0.519815 0.056833 -0.025317 -13099.700000 0 1 0
5.751206 -9.436750 21.637817 24.296579 -1.023459 0.472198 0.063304 -0.022651 -505314.000000 0 1 0
4.843006 -8.442050 21.306017 23.423691 -1.049957 0.428494 0.050354 -0.011924 -424565.000000 0 1 0
5.279106 -7.015350 21.764517 23.468666 -0.925692 0.383432 0.055699 -0.021765 368235.000000 0 1 0
4.444206 -6.011450 21.198617 22.478209 -0.934185 0.339041 0.028820 -0.024892 351498.000000 0 1 0
5.046706 -4.767550 21.506817 22.599601 -0.756962 0.312246 0.065583 -0.043562 362033.000000 0 1 0
-8.356994 -14.556350 -20.280866 26.325656 1.049629 2.450240 0.072490 -0.006201 176617.000000 0 0 1
-7.544394 -14.594450 -19.116166 25.206024 1.093692 2.431646 0.053624 -0.003463 -554291.000000 0 0 1
-6.478994 -13.742750 -19.243366 24.518313 1.130250 2.473261 0.043965 -0.011576 -732219.000000 0 1 0
-5.689294 -13.357550 -17.975366 23.106405 1.168144 2.462175 0.031829 -0.012498 517308.000000 0 1 0
-4.731094 -14.391050 -17.687266 23.287871 1.253174 2.433349 0.035395 -0.003871 -179212.000000 0 1 0
-3.987394 -14.093550 -16.562366 22.109713 1.295079 2.417497 0.032161 -0.006607 39070.800000 0 1 0
-3.015594 -15.258850 -16.197166 22.456057 1.375681 2.376449 0.040810 0.011788 190794.000000 0 1 0
-1.820394 -15.301850 -16.960366 22.915376 1.452387 2.404061 0.047569 0.006280 82004.100000 0 1 0
-1.086394 -16.420650 -16.392466 23.227805 1.504732 2.354244 0.056768 0.020460 -512972.000000 0 1 0
0.114606 -16.741850 -17.283866 24.063139 -1.563951 2.372111 0.047424 0.024960 -474335.000000 0 1 0
-0.003894 -17.364450 -18.611566 25.454165 1.570572 2.390846 0.070727 0.004653 -440206.000000 0 0 1
-0.374494 -18.734550 -18.581066 26.389005 1.550810 2.351982 0.064290 0.013857 -214079.000000 0 0 1
-0.947694 -19.155850 -19.928466 27.658424 1.521364 2.375349 0.067789 -0.001822 -30490.400000 0 0 1
-2.341594 -18.960350 -20.052266 27.696052 1.447919 2.380397 0.081751 -0.010626 -81930.400000 0 0 1
-2.808594 -19.026450 -21.377566 28.755770 1.424239 2.408963 0.058888 -0.022947 116757.000000 0 0 1
-3.711394 -17.811750 -21.752666 28.358620 1.365368 2.445037 0.078538 -0.024638 103811.000000 0 0 1
-3.129594 -16.515750 -21.734366 27.476299 1.383525 2.483275 0.070212 -0.017038 -182681.000000 0 0 1
-3.524894 -15.812350 -20.550466 26.168243 1.351462 2.474010 0.060458 -0.011608 288175.000000 0 0 1
-2.542194 -14.646150 -20.243566 25.115222 1.398934 2.508206 0.061248 -0.005540 144126.000000 0 0 1
-2.566194 -13.676550 -21.263666 25.412140 1.385318 2.562121 0.045761 -0.011215 -295899.000000 0 0 1
-1.809794 -12.600650 -20.839166 24.419716 1.428145 2.593221 0.041154 -0.007770 -353401.000000 0 1 0
-1.589994 -11.533650 -21.963266 24.858363 1.433803 2.654156 0.043650 -0.010425 -272869.000000 0 1 0
-2.650494 -10.694350 -22.319466 24.890817 1.327851 2.683042 0.033106 -0.006655 -315333.000000 0 1 0
-2.539194 -10.174550 -23.668866 25.887915 1.326229 2.724529 0.034054 0.000691 -315303.000000 0 0 1
-3.525494 -9.040750 -23.912466 25.806400 1.198979 2.756091 0.020709 0.004312 -899501.000000 0 0 1
-4.864694 -9.380550 -24.029666 26.250425 1.092385 2.727299 0.047637 -0.007197 -857694.000000 0 0 1
-5.613094 -8.221850 -23.832766 25.828402 0.971773 2.745913 0.025114 -0.011485 -143049.000000 0 0 1
-7.132794 -8.458050 -23.545966 26.015915 0.870197 2.702317 0.030931 -0.021384 805616.000000 0 0 1
-7.967594 -8.808050 -24.643466 27.356255 0.835456 2.692485 0.045260 -0.025518 205801.000000 0 0 1
-8.353594 -7.716950 -25.440056 27.866293 0.745803 2.721210 0.048021 -0.030302 -478144.000000 0 0 1
-9.311894 -8.222850 -26.539686 29.303268 0.723370 2.703801 0.047430 -0.031820 126285.000000 0 0 1
-9.914994 -7.127750 -27.226166 29.839169 0.623289 2.719981 0.065128 -0.038776 71084.100000 0 0 1
-10.644894 -7.527250 -28.377306 31.228909 0.615491 2.710925 0.061015 -0.035916 -117779.000000 0 0 1
-11.635794 -6.521350 -28.952626 31.877488 0.510835 2.709871 0.068126 -0.038600 155413.000000 0 0 1
-10.988394 -5.494350 -29.729706 32.168122 0.463659 2.749726 0.046630 -0.023861 108858.000000 0 0 1
-11.887894 -4.930750 -30.661426 33.252930 0.393175 2.744184 0.076070 -0.029039 67140.600000 0 0 1
-11.252394 -3.775650 -31.497066 33.659130 0.323737 2.781221 0.060796 -0.028426 132459.000000 0 0 1
-10.254194 -4.232650 -32.419526 34.264989 0.391468 2.811899 0.054472 -0.019365 287796.000000 0 0 1
-9.795594 -3.161750 -33.163566 34.724234 0.312216 2.840643 0.046938 -0.016061 -720171.000000 0 0 1
-8.642194 -3.485650 33.742418 35.005543 0.383373 0.269454 0.032551 -0.014445 433217.000000 0 0 1
-7.372794 -3.703550 -33.443606 34.446322 0.465507 2.899717 0.033942 -0.018178 103374.000000 0 0 1
-6.387094 -3.847350 33.451103 34.272049 0.542155 0.219317 0.033342 -0.012932 -1173190.000000 0 0 1
-4.969994 -3.531250 33.867227 34.411621 0.617747 0.178112 0.062655 -0.017677 -640410.000000 0 0 1
-4.673894 -2.189250 33.909557 34.300090 0.438049 0.151046 0.085120 -0.030275 -1925470.000000 0 0 1
-3.337794 -2.002650 -33.835856 34.059016 0.540414 3.027056 0.089287 -0.031772 -1624210.000000 0 0 1
-2.897994 -0.547450 -33.491476 33.621080 0.186706 3.053760 0.101339 -0.035102 -8245.770000 0 0 1
-2.992794 -0.323650 -32.101656 32.242485 0.107724 3.048094 0.095211 -0.037792 117219.000000 0 0 1
-3.750494 0.843450 -31.790236 32.021816 -0.221210 3.021254 0.113767 -0.043580 -457537.000000 0 0 1
-4.260594 0.904150 -30.325416 30.636595 -0.209110 2.998944 0.132790 -0.052444 377177.000000 0 0 1
-5.307194 -0.036150 -30.077006 30.541674 0.006811 2.966933 0.108343 -0.047624 1039930.000000 0 0 1
-6.612794 0.515850 -30.383836 31.099399 -0.077850 2.926662 0.112050 -0.052678 780983.000000 0 0 1
-7.721594 -0.583150 -30.384956 31.356157 0.075379 2.892055 0.093502 -0.048852 185663.000000 0 0 1
-7.970994 -1.069950 -29.106326 30.197015 0.133433 2.872005 0.073062 -0.041675 101737.000000 0 0 1
-9.055594 -1.977650 -29.096346 30.537063 0.215014 2.833193 0.062179 -0.033162 13801.600000 0 0 1
-9.433894 -2.646550 -27.717956 29.398769 0.273506 2.801810 0.063765 -0.032906 -15892.500000 0 0 1
-10.041294 -1.722850 -26.830376 28.699562 0.169922 2.778691 0.063123 -0.028583 143919.000000 0 0 1
-10.425794 -2.452350 -25.650576 27.796820 0.231020 2.746051 0.052436 -0.026464 -628636.000000 0 0 1
-11.436394 -1.672250 -24.866266 27.421136 0.145193 2.706494 0.054872 -0.022948 -750375.000000 0 0 1
-11.000694 -0.581050 -24.130966 26.526522 0.052770 2.713338 0.058983 -0.022863 -399426.000000 0 0 1
-12.055494 0.066850 -23.474666 26.389379 -0.005545 2.667155 0.063995 -0.022442 158582.000000 0 0 1
-11.489494 1.329150 -22.731166 25.504529 -0.115172 2.670912 0.077551 -0.025952 276565.000000 0 0 1
-11.165194 2.312350 -23.683566 26.285353 -0.204216 2.692906 0.058076 -0.024319 177029.000000 0 0 1
-10.401594 3.384350 -23.078666 25.539612 -0.314565 2.698995 0.073947 -0.023402 147029.000000 0 0 1
-10.377394 4.630650 -23.997766 26.552325 -0.419710 2.699344 0.094988 -0.033428 -102935.000000 0 0 1
-11.645694 5.190850 -24.228466 27.378562 -0.419298 2.657168 0.087326 -0.025864 -314200.000000 0 0 1
-12.070894 5.057750 -25.535626 28.694172 -0.396781 2.667974 0.077411 -0.021264 172020.000000 0 0 1
-13.474294 5.623950 -25.882866 29.717136 -0.395402 2.627978 0.071912 -0.008654 334843.000000 0 0 1
-13.381994 7.045850 -26.088726 30.155321 -0.484636 2.616236 0.071179 -0.008067 -81446.500000 0 0 1
-14.602194 7.662250 -26.437426 31.158813 -0.483238 2.583890 0.075447 0.000343 -82563.600000 0 0 1
-14.538394 9.197550 -26.330976 31.452823 -0.564073 2.562862 0.107698 -0.004755 -164049.000000 0 0 1
-14.379394 9.615050 -24.982566 30.386588 -0.589387 2.535987 0.136745 -0.011887 164372.000000 0 0 1
-14.778894 10.974450 -24.794866 30.881056 -0.638733 2.502966 0.139026 -0.012790 25307.400000 0 0 1
-14.556094 11.443250 -23.358466 29.806807 -0.666238 2.471336 0.139215 -0.024007 331696.000000 0 0 1
-15.639494 11.125250 -22.496266 29.571049 -0.618307 2.435269 0.158150 -0.025523 90536.200000 0 0 1
-15.385294 11.711650 -21.208166 28.699413 -0.650646 2.402345 0.147142 -0.023352 -471594.000000 0 0 1
-16.510794 11.768950 -20.185566 28.610690 -0.619267 2.353960 0.145987 -0.028010 -34851.200000 0 0 1
-17.698794 12.426550 -20.615266 29.877343 -0.612143 2.332281 0.131477 -0.025399 109011.000000 0 0 1
-18.468894 12.765850 -19.510666 29.744462 -0.604801 2.286227 0.118579 -0.017134 -1162140.000000 0 0 1
-19.852194 13.283350 -19.814766 31.035173 -0.589694 2.263294 0.106659 -0.022419 -874087.000000 0 0 1
-20.028294 14.479350 -20.535066 32.132119 -0.625960 2.264101 0.083583 -0.024070 -277442.000000 0 0 1
-21.386194 14.820150 -20.478966 33.111843 -0.605997 2.237601 0.079918 -0.024329 -199299.000000 0 0 1
-21.804494 16.162950 -21.131866 34.398149 -0.637888 2.232335 0.080760 -0.020651 -59608.400000 0 0 1
-21.836194 16.009950 -22.512266 35.212781 -0.632652 2.264411 0.084194 -0.018140 19762.500000 0 0 1
-21.813394 17.245550 -23.174466 36.197914 -0.668980 2.265575 0.070838 -0.005769 -54477.900000 0 0 1
-21.632294 17.120350 -24.649366 36.995321 -0.669491 2.300010 0.069073 -0.002248 -891319.000000 0 0 1
-20.345294 16.648950 -24.898066 36.208179 -0.685812 2.329025 0.077383 -0.014719 -398921.000000 0 0 1
-20.119794 16.532150 -26.309486 37.017660 -0.687825 2.361329 0.075293 -0.015000 -455051.000000 0 0 1
-19.469394 17.780850 -26.900676 37.667788 -0.740099 2.366214 0.046769 -0.005917 -554570.000000 0 0 1
-20.280794 18.919550 -26.736316 38.523896 -0.750687 2.337853 0.046413 -0.013788 120081.000000 0 0 1
-19.617394 20.086450 -27.101716 39.023206 -0.797211 2.338525 0.019694 -0.010796 -998678.000000 0 0 1
-20.597694 21.225050 -27.265296 40.226410 -0.800397 2.315557 0.051889 -0.006280 -195827.000000 0 0 1
-21.291394 21.547950 -26.063656 39.961879 -0.791387 2.281296 0.064220 -0.006365 -180528.000000 0 0 1
-22.612994 21.098550 -26.077556 40.454113 -0.750766 2.271323 0.099948 -0.014043 -1018170.000000 0 0 1
-23.395394 21.369450 -24.803966 40.239714 -0.740172 2.234965 0.095728 -0.004844 -263494.000000 0 0 1
-22.915194 20.747450 -23.634666 38.912212 -0.735791 2.223560 0.067327 -0.004635 -74793.500000 0 0 1
-23.657594 21.183550 -22.534066 38.938524 -0.730281 2.187941 0.057832 -0.006983 -66515.800000 0 0 1
-23.209594 20.546250 -21.193966 37.550204 -0.724605 2.170523 0.055391 -0.003735 37368.800000 0 0 1
-22.035894 21.070450 -20.606266 36.798949 -0.763005 2.165145 0.058253 -0.006998 274848.000000 0 0 1
-21.179494 20.133350 -19.964166 35.390545 -0.760081 2.170151 0.063427 -0.009128 -112036.000000 0 0 1
-21.679594 19.428250 -18.652866 34.574428 -0.730686 2.140638 0.069066 -0.015181 -1631680.000000 0 0 1
-22.695094 18.480350 -18.932566 34.857319 -0.683393 2.144974 0.094954 -0.021472 270569.000000 0 0 1
-23.480494 18.230150 -17.761866 34.628830 -0.660181 2.109381 0.087708 -0.017244 412582.000000 0 0 1
-24.548994 19.363050 -17.550166 35.855113 -0.667844 2.082283 0.068980 -0.011235 -954639.000000 0 0 1
-25.679084 19.325050 -18.382966 37.024402 -0.645137 2.090369 0.059594 -0.002968 66887.900000 0 0 1
-26.648534 20.289250 -18.029066 38.037419 -0.650735 2.064604 0.064485 -0.002555 -410140.000000 0 0 1
-28.055184 19.944050 -18.594566 39.123092 -0.617995 2.066083 0.043076 0.010666 199696.000000 0 0 1
-28.692434 18.759450 -18.134666 38.781940 -0.579050 2.057377 0.026969 0.009465 196267.000000 0 0 1
-29.017444 18.794250 -16.779366 38.428934 -0.574748 2.022650 0.030933 0.001541 -894103.000000 0 0 1
-30.041594 17.708050 -16.346266 38.513281 -0.532627 2.009131 0.010059 0.003223 -239109.000000 0 0 1
-29.645494 16.373250 -16.563666 37.700048 -0.504608 2.025676 0.034885 -0.006113 -568546.000000 0 0 1
-30.593794 15.499750 -16.116466 37.894102 -0.468938 2.010093 0.029704 0.001314 -357814.000000 0 0 1
-29.885884 14.332550 -15.348866 36.526370 -0.447175 2.004477 0.075304 -0.003946 -136265.000000 0 0 1
-29.269444 14.675550 -14.129666 35.661177 -0.464763 1.978192 0.091482 -0.007156 380942.000000 0 0 1
-30.151364 14.889750 -12.985766 36.047739 -0.458702 1.939319 0.060162 -0.001672 366753.000000 0 0 1
-29.423804 15.559950 -11.808666 35.317374 -0.486438 1.911721 0.087539 -0.017362 108377.000000 0 0 1
-29.183454 16.966850 -11.991166 35.823680 -0.526620 1.912112 0.086635 -0.011045 607385.000000 0 0 1
-30.199214 17.770950 -11.353066 36.833291 -0.531889 1.884127 0.041022 -0.004325 387860.000000 0 0 1
-29.828054 19.260650 -11.554866 37.338993 -0.573362 1.885420 0.097211 -0.010138 -254936.000000 0 0 1
-28.872684 19.805050 -10.684366 36.606387 -0.601230 1.866979 0.049872 -0.010419 13167.400000 0 0 1
-28.129414 20.805750 -11.358766 36.785387 -0.636840 1.884711 0.037838 -0.014512 185800.000000 0 0 1
-27.005234 21.530650 -10.623066 36.134486 -0.673078 1.869192 0.061372 -0.011416 254638.000000 0 0 1
-27.602574 22.534050 -9.817066 36.960253 -0.684646 1.839634 0.067921 -0.010231 163166.000000 0 0 1
-27.025134 23.808050 -10.010366 37.381660 -0.722195 1.841893 0.080581 -0.013876 174952.000000 0 0 1
-27.693624 24.804750 -9.053566 38.264598 -0.730426 1.809666 0.092649 0.006986 -39198.300000 0 0 1
-27.239744 24.502350 -7.804266 37.460317 -0.732543 1.780668 0.078230 0.004735 -137964.000000 0 0 1
-28.108764 24.877850 -6.772466 38.142841 -0.724498 1.749298 0.101405 -0.006350 -117850.000000 0 0 1
-27.893194 24.074750 -5.524466 37.257799 -0.712053 1.719622 0.097251 -0.004889 -33703.100000 0 0 1
-28.251634 22.727050 -5.688166 36.701892 -0.677449 1.726406 0.098981 -0.007163 157486.000000 0 0 1
-28.036864 22.030550 -4.462366 35.934991 -0.666004 1.695297 0.096187 -0.002332 -14618.800000 0 0 1
-28.066734 20.448950 -4.528066 35.020059 -0.629653 1.700459 0.114557 -0.006384 385394.000000 0 0 1
-26.998384 19.840650 -5.261166 33.915247 -0.633756 1.726552 0.097432 -0.018494 389952.000000 0 0 1
-27.014574 20.081350 -6.693966 34.319921 -0.639233 1.767101 0.086157 -0.008336 -111705.000000 0 0 1
-27.919744 19.122650 -7.584866 34.680225 -0.600530 1.791287 0.093550 -0.010536 472997.000000 0 0 1
-27.474354 17.759050 -7.425266 33.546364 -0.573831 1.793988 0.094696 -0.011967 448344.000000 0 0 1
-27.626064 17.019050 -8.637566 33.577597 -0.552138 1.830963 0.068878 -0.016103 -201681.000000 0 0 1
-27.447774 15.471250 -8.592166 32.658310 -0.513271 1.837023 0.118168 -0.028739 146916.000000 0 0 1
-28.414214 14.757550 -7.830066 32.961535 -0.479025 1.810641 0.109715 -0.023136 279449.000000 0 0 1
-28.228814 13.400750 -8.156066 32.295007 -0.443219 1.826110 0.116735 -0.035445 -224756.000000 0 0 1
-29.171514 12.468950 -7.385566 32.572972 -0.403932 1.799525 0.107806 -0.040627 -497799.000000 0 0 1
-30.497704 12.610950 -7.849166 33.922786 -0.392094 1.804296 0.136022 -0.038300 -273428.000000 0 0 1
-31.373704 11.876050 -7.018466 34.272565 -0.361866 1.777039 0.157409 -0.036612 -109197.000000 0 0 1
-31.812054 10.489050 -7.530566 34.332730 -0.318494 1.791935 0.150582 -0.034948 -497822.000000 0 0 1
-30.755184 9.567050 -7.583866 33.089648 -0.301583 1.802043 0.152299 -0.029095 -150482.000000 0 0 1
-31.117594 8.422250 -8.261666 33.279033 -0.264326 1.821674 0.130470 -0.021496 246720.000000 0 0 1
-29.891834 7.479950 -8.554466 31.978904 -0.245199 1.841597 0.162666 -0.019476 600976.000000 0 0 1
-29.112424 7.815250 -9.699466 31.665296 -0.262267 1.882113 0.160860 -0.033579 414809.000000 0 0 1
-28.353194 6.687250 -10.105766 30.834225 -0.231622 1.904712 0.165527 -0.038241 -342786.000000 0 0 1
-27.463604 6.790550 -11.357366 30.485257 -0.242395 1.952555 0.123994 -0.029736 -574656.000000 0 0 1
-26.243244 7.441450 -11.130466 29.461336 -0.276304 1.958214 0.155105 -0.031363 327697.000000 0 0 1
-25.474684 7.248750 -12.342766 29.220674 -0.277220 2.006886 0.133234 -0.017951 -64579.600000 0 0 1
-32.304544 25.817650 -33.544246 53.248014 -0.674250 2.252301 0.066438 -0.012062 -126771.000000 0 0 1
-32.982614 26.991950 -33.857876 54.431369 -0.685842 2.242127 0.061735 -0.013673 171707.000000 0 0 1
-32.945684 27.311450 32.630351 53.815176 -0.692166 0.919345 0.070069 -0.019306 -100737.000000 0 0 1
-33.547164 28.718150 32.424390 54.785814 -0.707998 0.937458 0.075569 -0.023828 12203.100000 0 0 1
-33.681664 29.148150 31.089977 54.319940 -0.713368 0.961428 0.099700 -0.018914 -116831.000000 0 0 1
-33.998634 30.491250 30.939267 55.162140 -0.731065 0.975350 0.102956 -0.020296 -80791.300000 0 0 1
-33.706934 31.094050 29.542337 54.550408 -0.745098 0.998504 0.090859 -0.026230 -1065270.000000 0 0 1
-32.345644 31.083350 29.325527 53.594793 -0.765500 0.991815 0.080073 -0.026779 -951729.000000 0 0 1
-31.984634 31.659250 28.088207 53.049716 -0.780286 1.012821 0.079935 -0.025319 -249209.000000 0 0 1
-30.483204 31.619650 27.779647 51.968614 -0.803696 1.006825 0.079301 -0.024349 -551960.000000 0 0 1
-30.169944 30.305450 27.310767 50.739766 -0.787639 1.002435 0.094348 -0.027941 529468.000000 0 0 1
-29.079434 30.224250 26.377597 49.546911 -0.804700 1.009391 0.071715 -0.021459 111606.000000 0 0 1
-29.294334 30.877250 25.009777 49.366502 -0.811699 1.039543 0.068773 -0.023086 -470022.000000 0 0 1
-29.260974 32.302650 24.947777 50.220090 -0.834765 1.050925 0.055318 -0.031361 312112.000000 0 0 1
-30.248824 32.905850 24.101147 50.780426 -0.827445 1.076270 0.063011 -0.026874 213005.000000 0 0 1
-30.478764 -33.612848 24.589327 51.608271 0.834259 1.074171 0.058640 -0.024329 -436765.000000 0 0 1
-31.083164 -33.572548 25.817737 52.534128 0.823881 1.057046 0.051272 -0.029031 -109868.000000 0 0 1
-31.099114 -32.272748 26.424407 52.028208 0.803916 1.038067 0.030561 -0.030684 -538980.000000 0 0 1
-31.576824 -32.306048 27.841867 53.065489 0.796813 1.018469 0.048139 -0.029947 68159.700000 0 0 1
-32.912684 -32.729048 28.067257 54.242108 0.782601 1.026935 0.032714 -0.028032 178011.000000 0 0 1
-33.103414 -32.865548 29.510237 55.198137 0.781792 1.006734 0.037300 -0.024489 -294502.000000 0 0 1
-34.490519 -33.367648 29.895007 56.539431 0.768852 1.013674 0.047906 -0.024975 -297425.000000 0 0 1
-34.695958 -33.512948 31.243817 57.472631 0.768056 0.996041 0.045998 -0.028586 368952.000000 0 0 1
-36.076634 -33.771648 31.509557 58.608019 0.752410 1.003170 0.038731 -0.021155 399320.000000 0 0 1
-36.548514 -33.937948 32.923120 59.762112 0.748379 0.987351 0.037497 -0.019022 -145648.000000 0 0 1
-36.341214 32.667550 33.422523 59.202346 -0.732214 0.970912 0.038732 -0.020356 1217.860000 0 0 1
-37.115144 32.374350 -33.275356 59.438050 -0.717281 2.164980 0.044508 -0.019403 122989.000000 0 0 1
-36.915224 30.905550 -32.890416 58.306657 -0.697018 2.170132 0.043409 -0.016812 760389.000000 0 0 1
-35.599022 30.728750 -32.362066 57.086336 -0.712102 2.173530 0.048994 -0.015033 194241.000000 0 0 1
-35.360482 29.365450 -32.032776 56.024924 -0.693040 2.179445 0.050669 -0.018839 437055.000000 0 0 1
-34.314780 29.183250 -30.900456 54.626041 -0.704759 2.172045 0.053078 -0.011511 221736.000000 0 0 1
-34.823347 29.501150 -29.610836 54.403906 -0.702846 2.146324 0.063931 -0.020275 -203688.000000 0 0 1
-34.800521 30.879050 -29.294166 54.979452 -0.725763 2.132726 0.052764 -0.020528 264898.000000 0 0 1
-35.864510 31.351250 -28.249536 55.382310 -0.718353 2.106077 0.052853 -0.020285 577895.000000 0 0 1
-35.466045 31.249350 -26.917396 54.395849 -0.722278 2.088450 0.057294 -0.031486 835611.000000 0 0 1
-36.715444 31.134650 -26.187466 54.801219 -0.703331 2.069016 0.098161 -0.032459 1216810.000000 0 0 1
-36.550964 30.837650 -24.686766 53.817934 -0.700819 2.047338 0.089271 -0.034168 -61550.700000 0 0 1
-36.021379 31.937850 -23.906266 53.750121 -0.725382 2.031710 0.102561 -0.037132 30795.500000 0 0 1
-35.973368 31.773950 -22.505866 53.011141 -0.723491 2.009261 0.091975 -0.042006 366641.000000 0 0 1
37.115055 31.666650 -21.775566 53.427328 0.706350 1.990592 0.082677 -0.039629 1247530.000000 0 0 1
36.074565 32.696650 -21.743966 53.322090 0.736319 1.990824 0.094525 -0.047033 1513900.000000 0 0 1
36.533335 33.911750 -20.975466 54.080140 0.748201 1.969104 0.091106 -0.043964 251100.000000 0 0 1
36.779035 33.703150 -19.480866 53.554681 0.741785 1.943094 0.089753 -0.035528 687998.000000 0 0 1
-36.651524 32.712150 -19.239766 52.759715 -0.728666 1.944072 0.083955 -0.044738 305950.000000 0 0 1
-36.389944 32.460050 -17.890566 51.941845 -0.728381 1.922433 0.078396 -0.028344 -491744.000000 0 0 1
-35.195423 31.533750 -17.758166 50.482152 -0.730580 1.930259 0.098685 -0.032332 -463209.000000 0 0 1
-35.024838 31.186950 -16.360666 49.669271 -0.727499 1.906456 0.071156 -0.016763 710539.000000 0 0 1
-33.906384 30.277250 -16.210566 48.261135 -0.728915 1.913349 0.090308 -0.015150 455168.000000 0 0 1
-33.547114 29.997650 -14.714766 47.347568 -0.729598 1.886812 0.090829 -0.012329 -48637.800000 0 0 1
-34.539953 29.362250 -13.946766 47.430606 -0.704549 1.869253 0.064714 -0.005041 -45371.700000 0 0 1
-33.962654 28.998650 -12.707466 46.431275 -0.706719 1.848017 0.083876 -0.000318 -38215.300000 0 0 1
-34.903349 28.221350 -11.794066 46.408925 -0.679937 1.827748 0.083930 -0.006258 447676.000000 0 0 1
-34.224528 27.818250 -10.573166 45.353778 -0.682507 1.806088 0.094105 -0.003282 462584.000000 0 0 1
-35.138092 26.995650 -9.957066 45.415788 -0.655094 1.791834 0.105267 -0.017012 -27714.300000 0 0 1
-34.475657 26.223950 -8.759566 44.192720 -0.650283 1.770331 0.114863 -0.004574 208751.000000 0 0 1
-34.034864 27.044750 -7.711666 44.150428 -0.671451 1.746365 0.118610 -0.009109 226410.000000 0 0 1
-33.082934 26.381950 -6.917566 42.875874 -0.673183 1.732844 0.111931 -0.018191 -133639.000000 0 0 1
-32.618614 27.172850 -5.683066 42.832639 -0.694569 1.703869 0.118437 -0.024779 93613.800000 0 0 1
-31.661774 26.503950 -4.874466 41.577491 -0.696955 1.688305 0.124841 -0.021184 310094.000000 0 0 1
-31.488124 27.144050 -3.654666 41.733176 -0.711443 1.658481 0.114817 -0.020499 -142308.000000 0 0 1
-30.653154 26.295350 -2.663666 40.474145 -0.709025 1.636655 0.108917 -0.016704 -260438.000000 0 0 1
-31.158764 24.992150 -2.453466 40.018691 -0.676014 1.632143 0.103077 -0.006818 -20047.900000 0 0 1
-30.267774 24.165250 -1.728766 38.769654 -0.673754 1.615402 0.093569 -0.010928 111502.000000 0 0 1
-30.906344 22.847750 -1.226066 38.454194 -0.636590 1.602686 0.097238 -0.011365 33836.400000 0 0 1
-31.079524 21.938550 -2.261366 38.109718 -0.614664 1.630169 0.095269 -0.003629 674103.000000 0 0 1
-32.166074 21.025150 -2.001666 38.480124 -0.578932 1.622838 0.111835 -0.007542 605963.000000 0 0 1
-32.400584 20.211650 -3.285566 38.328887 -0.557740 1.656622 0.146734 -0.001865 92183.900000 0 0 1
-31.564164 19.049150 -3.369266 37.020515 -0.542993 1.661933 0.126207 -0.003707 200286.000000 0 0 1
-31.832084 18.322050 -4.540866 37.008088 -0.522273 1.693806 0.138745 -0.000740 568356.000000 0 0 1
-30.683124 17.354650 -5.058966 35.612233 -0.514748 1.713335 0.140514 -0.009735 587130.000000 0 0 1
-30.412394 16.338050 -4.109766 34.766877 -0.492976 1.689283 0.168404 -0.025900 -45709.700000 0 0 1
-29.803214 15.284050 -4.792066 33.834858 -0.473861 1.712905 0.160986 -0.033373 -285697.000000 0 0 1
-29.583904 14.058350 -3.977666 32.994945 -0.443614 1.691644 0.160177 -0.038276 51180.600000 0 0 1
-30.774304 13.357550 -3.689666 33.750490 -0.409510 1.680337 0.184129 -0.040269 340461.000000 0 0 1
-30.480134 12.300050 -2.857266 32.992329 -0.383557 1.657509 0.170818 -0.047355 -28654.000000 0 0 1
-31.763304 11.554950 -2.434866 33.887356 -0.348901 1.642710 0.184448 -0.042778 161045.000000 0 0 1
-32.650394 11.245850 -3.525166 34.712306 -0.331706 1.672525 0.178646 -0.031619 -50333.900000 0 0 1
-33.697794 10.506750 -2.989966 35.424187 -0.302241 1.655302 0.178691 -0.031187 -103681.000000 0 0 1
-34.690623 10.100750 -4.142466 36.367905 -0.283333 1.684949 0.139062 -0.029056 585752.000000 0 0 1
-34.048314 9.043450 -4.851666 35.561360 -0.259612 1.707654 0.132054 -0.022069 695909.000000 0 0 1
-34.939929 8.526050 -5.807666 36.431046 -0.239343 1.730895 0.121833 -0.010944 131508.000000 0 0 1
-34.327370 7.349250 -6.638666 35.727464 -0.210909 1.757697 0.134966 -0.013202 -190176.000000 0 0 1
-33.739304 6.266850 -5.946766 34.827835 -0.183650 1.742385 0.133254 -0.016404 410268.000000 0 0 1
-33.364704 5.270050 -6.837766 34.463487 -0.156659 1.770528 0.149789 -0.027011 174448.000000 0 0 1
-32.246264 4.292650 -6.321666 33.139279 -0.132343 1.762733 0.153666 -0.030314 649428.000000 0 0 1
-30.942484 4.843250 -6.260966 31.938912 -0.155264 1.768103 0.152134 -0.029154 668549.000000 0 0 1
-29.958284 3.886850 -5.856166 30.771757 -0.129021 1.762274 0.162257 -0.028914 -444801.000000 0 0 1
-28.558514 4.441450 -5.816566 29.481310 -0.154285 1.769396 0.169755 -0.029610 -816274.000000 0 0 1
-27.887064 4.666950 -7.020866 29.133508 -0.165815 1.814181 0.178381 -0.025360 1374410.000000 0 0 1
-26.449784 4.751750 -6.852166 27.733056 -0.177756 1.820458 0.187162 -0.036935 1608090.000000 0 0 1
-25.603064 5.087850 -8.121666 27.337969 -0.196165 1.872433 0.165981 -0.030657 63134.700000 0 0 1
-25.698304 4.068150 -9.104966 27.565432 -0.157001 1.907422 0.167225 -0.041530 32528.600000 0 0 1
-24.816494 4.222950 -10.159666 27.146095 -0.168553 1.954394 0.171268 -0.041018 -326850.000000 0 0 1
-25.373074 3.417350 -11.371966 28.014153 -0.133878 1.988800 0.150355 -0.045444 233950.000000 0 0 1
-26.551694 3.903550 -11.978166 29.388886 -0.145971 1.990593 0.149936 -0.028420 372615.000000 0 0 1
-26.937834 3.120250 -13.119366 30.124751 -0.115318 2.021391 0.143733 -0.033702 11177.800000 0 0 1
-27.796664 3.913350 -14.091866 31.409386 -0.139866 2.036052 0.134328 -0.027923 -34316.100000 0 0 1
-26.982984 4.563850 -15.058066 31.235484 -0.167552 2.073826 0.112318 -0.017303 525019.000000 0 0 1
-27.696194 5.534550 -15.820366 32.372741 -0.197233 2.081389 0.139788 -0.029616 354287.000000 0 0 1
-28.579554 4.949050 -16.995866 33.617606 -0.171467 2.100832 0.103313 -0.018974 -53696.000000 0 0 1
-29.833854 4.497550 -16.585566 34.429171 -0.149627 2.073424 0.120048 -0.026316 -514613.000000 0 0 1
-30.663904 4.058950 -17.653366 35.614483 -0.131604 2.089413 0.124298 -0.024170 559916.000000 0 0 1
-32.125954 3.817250 -17.153766 36.618301 -0.118267 2.058329 0.122265 -0.024893 285305.000000 0 0 1
-32.376154 2.734350 -16.241166 36.324475 -0.084256 2.034332 0.124517 -0.029079 213320.000000 0 0 1
-32.271354 1.517850 -16.843266 36.434047 -0.046999 2.051378 0.141322 -0.032193 -317420.000000 0 0 1
-32.410014 0.335050 -15.842766 36.076509 -0.010337 2.025441 0.161200 -0.032948 -511755.000000 0 0 1
-32.100804 -0.883450 -16.375466 36.047163 0.027514 2.042359 0.168787 -0.013137 290625.000000 0 0 1
-32.364264 -1.954750 -15.441166 35.912341 0.060325 2.015254 0.173952 -0.023161 -140600.000000 0 0 1
-31.947694 -3.294450 -16.098766 35.926018 0.102757 2.035445 0.155355 -0.017736 167411.000000 0 0 1
-32.917614 -3.705050 -17.050366 37.256029 0.112084 2.046151 0.169312 -0.021128 644.312000 0 0 1
-32.452774 -4.582550 -18.008866 37.396544 0.140279 2.073236 0.167764 -0.015795 -505394.000000 0 0 1
-33.389164 -4.863250 -19.166766 38.805314 0.144636 2.087390 0.167129 -0.009210 -655666.000000 0 0 1
-32.956004 -5.983350 -19.854566 38.937160 0.179599 2.105880 0.175860 -0.009581 440895.000000 0 0 1
-33.813804 -6.122650 -20.971966 40.257714 0.179129 2.118751 0.165114 -0.009573 82753.100000 0 0 1
-33.357314 -7.299950 -21.866766 40.548182 0.215445 2.140377 0.162175 -0.006355 -152978.000000 0 0 1
-32.194164 -7.086250 -22.620366 39.979496 0.216655 2.172198 0.155380 -0.012929 -143697.000000 0 0 1
-32.022754 -8.059650 -23.585366 40.579357 0.246564 2.191018 0.140992 -0.004420 -1073740.000000 0 0 1
-30.740554 -7.780050 -24.302466 39.951479 0.247882 2.224713 0.125848 -0.004697 -1284520.000000 0 0 1
-30.634504 -6.636450 -25.145106 40.184470 0.213337 2.246879 0.114307 -0.011541 27173.600000 0 0 1
-30.691784 -6.932050 -26.535876 41.160559 0.222133 2.271416 0.086883 -0.008300 551606.000000 0 0 1
-32.134704 -6.970750 -27.166596 42.652719 0.213613 2.261300 0.110412 -0.008302 331083.000000 0 0 1
-32.873434 -8.022250 -26.662496 43.080249 0.239356 2.238142 0.113874 -0.005790 -511196.000000 0 0 1
-34.135989 -8.103850 -27.291516 44.449578 0.233084 2.231900 0.115284 -0.008713 454467.000000 0 0 1
-35.123019 -9.133850 -26.685956 45.046575 0.254418 2.204841 0.113786 -0.013999 -483009.000000 0 0 1
-34.754859 -10.404150 -27.043676 45.249386 0.290868 2.211374 0.113743 -0.007173 -430804.000000 0 0 1
-35.624843 -11.459550 -26.800956 46.029794 0.311220 2.192293 0.100912 -0.006890 223481.000000 0 0 1
-36.947574 -11.509150 -27.654226 47.564061 0.301973 2.191257 0.089946 -0.000502 360612.000000 0 0 1
36.607755 -10.477050 -27.316346 46.862342 -0.278746 2.193097 0.080514 -0.003256 -255025.000000 0 0 1
35.760115 -10.221750 -28.425236 46.810939 -0.278418 2.223372 0.076065 -0.003843 -123495.000000 0 0 1
34.782445 -9.077150 -28.108976 45.632529 -0.255276 2.234433 0.072915 0.003913 87301.200000 0 0 1
33.611305 -9.461250 -27.431426 44.404034 -0.274390 2.236698 0.051607 0.003924 459983.000000 0 0 1
32.593695 -8.470950 -27.248436 43.319548 -0.254270 2.251076 0.029143 0.013917 1036690.000000 0 0 1
31.391575 -8.959250 -26.379996 41.971458 -0.278012 2.250448 0.022341 0.012983 116139.000000 0 0 1
31.721475 -9.215750 -25.026366 41.442744 -0.282738 2.219154 0.017824 0.020446 -646656.000000 0 0 1
30.672185 -9.586950 -24.209266 40.234079 -0.302941 2.216437 0.003439 0.015331 -740730.000000 0 0 1
31.074225 -9.786550 -22.714666 39.715741 -0.305107 2.179654 -0.005676 0.014560 -239003.000000 0 0 1
31.952745 -10.835650 -22.512766 40.561236 -0.326945 2.159197 0.000131 0.010346 -148225.000000 0 0 1
32.073725 -11.096850 -21.099366 39.963072 -0.333089 2.127007 0.001544 0.008482 130558.000000 0 0 1
32.921525 -12.367650 -20.723366 40.819646 -0.359358 2.103288 0.022287 0.006851 -12897.800000 0 0 1
34.297705 -12.183250 -20.871666 41.957009 -0.341318 2.091457 0.039516 0.002339 -119468.000000 0 0 1
35.105875 -13.088950 -20.130066 42.531901 -0.356878 2.063822 0.064985 0.000993 1696120.000000 0 0 1
36.644865 -13.204450 -20.549366 44.039529 -0.345853 2.056252 0.091969 -0.010826 1077400.000000 0 0 1
-37.111584 -11.970750 -20.547966 44.077062 0.312024 2.055767 0.118847 -0.014283 197599.000000 0 0 1
37.174875 -11.014950 -21.600766 44.383483 -0.288060 2.079087 0.128467 -0.000935 -691457.000000 0 0 1
-36.684024 -11.403050 -22.982266 44.765296 0.301377 2.109932 0.111188 -0.000038 51880.500000 0 0 1
37.156835 -12.445350 -23.725766 45.808614 -0.323197 2.115228 0.104183 0.001641 346231.000000 0 0 1
35.824595 -12.195650 -24.139266 44.886965 -0.328121 2.138597 0.108242 0.000638 29528.500000 0 0 1
35.162755 -13.291450 -25.033916 45.163912 -0.361396 2.158306 0.092726 -0.019453 -65586.500000 0 0 1
35.077015 -14.623950 -24.579166 45.259168 -0.394998 2.144892 0.092865 -0.034782 591375.000000 0 0 1
34.397035 -14.861850 -23.319666 44.134311 -0.407842 2.127487 0.075027 -0.025570 57718.200000 0 0 1
-30.206124 7.990250 -19.203466 36.674611 -0.258601 2.121888 0.085683 -0.021105 -1156420.000000 0 0 1
-29.006504 7.403650 -19.416866 35.682012 -0.249905 2.146189 0.080670 -0.016672 -1485790.000000 0 0 1
-28.282954 8.036150 -20.468266 35.825341 -0.276838 2.178928 0.092298 -0.024934 361120.000000 0 0 1
-26.930694 7.304650 -20.716466 34.753304 -0.264866 2.209432 0.085406 -0.021288 95917.000000 0 0 1
-25.923374 7.706550 -19.791866 33.513134 -0.288961 2.202562 0.085283 -0.011583 -547138.000000 0 0 1
-24.974994 6.697550 -19.806566 32.571576 -0.262006 2.224453 0.095587 -0.018570 -132483.000000 0 0 1
-23.545594 7.225750 -19.487666 31.406617 -0.297760 2.240171 0.073847 -0.015474 229349.000000 0 0 1
-22.976094 8.117250 -20.365066 31.757307 -0.339604 2.266951 0.067616 -0.015259 58392.700000 0 0 1
-21.802094 8.732250 -19.830366 30.738037 -0.380958 2.272004 0.063806 -0.010332 294503.000000 0 0 1
-21.152994 9.758550 -20.785166 31.220211 -0.432237 2.299308 0.073949 -0.013027 -288210.000000 0 0 1
-20.520094 9.145950 -21.875766 31.357165 -0.419278 2.342884 0.102748 -0.010117 -202.390000 0 0 1
-19.893394 10.082250 -22.765966 31.869862 -0.469084 2.366479 0.093593 -0.010266 -1440.620000 0 0 1
-18.930594 9.403750 -23.729866 31.778993 -0.461043 2.413907 0.116174 -0.005169 101319.000000 0 0 1
-19.581494 8.405850 -24.560666 32.516450 -0.405486 2.426955 0.095731 -0.001039 372691.000000 0 0 1
-18.629294 7.815750 -25.436946 32.483453 -0.397238 2.470389 0.088379 0.005519 189185.000000 0 0 1
-19.206594 6.683450 -26.342786 33.279184 -0.334871 2.484169 0.061688 0.007929 36552.600000 0 0 1
-19.367994 5.484950 -25.610376 32.574456 -0.275970 2.475449 0.082791 0.004240 158899.000000 0 0 1
-19.997994 4.473750 -26.384736 33.407910 -0.220086 2.481239 0.068865 -0.001112 -499330.000000 0 0 1
-20.009294 3.146350 -25.646296 32.680328 -0.155967 2.473109 0.074771 -0.007382 660827.000000 0 0 1
-18.777994 2.444050 -25.403576 31.684824 -0.129427 2.501028 0.071613 0.001834 718624.000000 0 0 1
-17.856694 3.006150 -24.464566 30.437040 -0.166785 2.504412 0.064122 0.002412 -406570.000000 0 0 1
-17.106294 1.862250 -23.809166 29.376345 -0.108436 2.515781 0.063034 -0.004888 -221238.000000 0 0 1
-17.741894 1.079750 -22.789766 28.901801 -0.060784 2.479202 0.059139 -0.002476 771465.000000 0 0 1
-19.016594 0.468650 -23.077466 29.906854 -0.024639 2.452219 0.059694 -0.002836 811806.000000 0 0 1
-19.625594 -0.324850 -21.874066 29.389525 0.016551 2.410254 0.082726 -0.006812 139121.000000 0 0 1
-18.910994 -1.493250 -21.541666 28.703638 0.078798 2.419593 0.080537 -0.012724 114796.000000 0 0 1
-19.675394 -2.305150 -20.678566 28.636304 0.116627 2.377644 0.089507 -0.011511 -473709.000000 0 0 1
-19.167794 -3.748350 -20.549166 28.350003 0.193117 2.381596 0.072280 -0.022877 -135734.000000 0 0 1
-19.200194 -4.497250 -21.708366 29.327902 0.230082 2.404157 0.067248 -0.030671 274223.000000 0 0 1
-19.130394 -5.864550 -21.335766 29.250296 0.297461 2.388271 0.079480 -0.030034 -213915.000000 0 0 1
-19.013894 -6.893450 -22.521466 30.269857 0.347809 2.409868 0.054294 -0.034003 -4791.880000 0 0 1
-17.807294 -6.936650 -23.261766 30.105258 0.371457 2.453850 0.058142 -0.021005 14169.100000 0 0 1
-17.959494 -7.620650 -24.519766 31.334272 0.401298 2.469503 0.085361 -0.034832 -322388.000000 0 0 1
-16.590294 -7.763550 -25.168726 31.128368 0.437686 2.512474 0.088254 -0.037107 -990639.000000 0 0 1
-16.509594 -8.594150 -26.256636 32.184422 0.479956 2.524939 0.100267 -0.069264 202308.000000 0 0 1
-15.165494 -8.869950 -26.592966 31.872465 0.529225 2.557759 0.117443 -0.064233 876459.000000 0 0 1
-14.183594 -9.704050 -25.653656 30.878034 0.600026 2.551351 0.110873 -0.058982 -22688.200000 0 0 1
-13.585294 -9.025550 -24.592966 29.509909 0.586405 2.555991 0.101613 -0.044459 391319.000000 0 0 1
-12.661594 -9.824650 -23.859166 28.741946 0.659898 2.550113 0.079555 -0.042899 520718.000000 0 0 1
-11.738094 -9.111550 -22.816866 27.228892 0.660083 2.564340 0.073872 -0.029610 487061.000000 0 0 1
-12.383694 -8.683550 -21.597666 26.367007 0.611536 2.530666 0.071339 -0.025714 472581.000000 0 0 1
-11.454394 -7.980750 -20.801166 25.051627 0.608536 2.550499 0.065317 -0.018697 -502212.000000 0 0 1
-12.046994 -7.667450 -19.392266 24.082770 0.566799 2.506866 0.056963 -0.018715 189990.000000 0 1 0
-13.133994 -6.769850 -19.498566 24.464806 0.475927 2.493116 0.053133 -0.006939 1928690.000000 0 1 0
-14.449094 -7.430650 -19.626066 25.478880 0.474994 2.450088 0.062880 -0.024330 1325570.000000 0 0 1
-15.668694 -6.518850 -19.366566 25.750092 0.394260 2.422034 0.065775 -0.015119 -60550.000000 0 0 1
-15.842694 -6.060550 -18.046366 24.766762 0.365369 2.387149 0.052676 -0.015707 346300.000000 0 1 0
-15.296594 -4.764650 -17.840566 23.978604 0.301959 2.409864 0.052717 -0.010940 -378190.000000 0 1 0
-15.001994 -4.454550 -16.349166 22.631793 0.288638 2.378061 0.060155 -0.007779 361447.000000 0 1 0
-16.102894 -4.078850 -15.492766 22.714885 0.248081 2.321363 0.097229 -0.021595 706668.000000 0 1 0
-16.591694 -2.732350 -15.690566 22.998780 0.163217 2.321611 0.061001 -0.019895 463469.000000 0 1 0
-17.862594 -2.458850 -14.836266 23.350224 0.136794 2.259297 0.064576 -0.025166 228962.000000 0 1 0
-17.478394 -2.312250 -13.524766 22.220712 0.131528 2.225162 0.080897 -0.029746 1080770.000000 0 1 0
-18.571994 -1.759950 -12.779466 22.612632 0.094481 2.171408 0.088560 -0.030299 530562.000000 0 1 0
-18.146194 -0.420150 -12.070166 21.797931 0.023149 2.157633 0.081146 -0.025814 44910.100000 0 1 0
-17.921994 0.655950 -12.938366 22.114010 -0.036584 2.195769 0.108049 -0.026231 357632.000000 0 1 0
-16.880194 1.464850 -12.455466 21.029155 -0.086562 2.204701 0.093127 -0.018430 -780623.000000 0 1 0
-16.322094 2.508150 -13.478966 21.316287 -0.152473 2.255356 0.092926 -0.017862 472422.000000 0 1 0
-15.620294 1.878650 -14.575866 21.447116 -0.119695 2.318039 0.092809 -0.026367 1579700.000000 0 1 0
-14.284094 1.434550 -14.206466 20.196954 -0.100094 2.350961 0.081442 -0.020208 478507.000000 0 1 0
-13.651494 0.391750 -15.163866 20.407341 -0.028689 2.408427 0.066863 -0.022207 -218437.000000 0 1 0
-13.170294 1.024850 -16.336566 21.009292 -0.077659 2.461616 0.072345 -0.024014 -57377.000000 0 1 0
-12.757694 0.035150 -17.242466 21.449070 -0.002755 2.504585 0.025032 -0.011988 -176800.000000 0 1 0
-12.230594 0.606450 -18.577366 22.250252 -0.049544 2.558799 0.041002 -0.015713 -924022.000000 0 1 0
-11.003394 1.203150 -18.429766 21.498337 -0.108911 2.600730 0.020710 -0.009030 -1281020.000000 0 1 0
-10.645294 2.124850 -19.425266 22.252600 -0.197015 2.632001 0.031769 -0.011076 -296138.000000 0 1 0
-9.255694 2.723550 -19.223166 21.508503 -0.286179 2.676427 0.023116 -0.011955 -1028220.000000 0 1 0
-8.266294 1.777650 -19.534266 21.285657 -0.211822 2.733098 0.024403 -0.006512 -274916.000000 0 1 0
-6.915494 2.126850 -19.299566 20.611181 -0.298368 2.782921 0.023056 -0.003361 537306.000000 0 1 0
-6.361394 3.305850 -20.164866 21.401350 -0.479263 2.800005 0.030882 -0.005954 -923713.000000 0 1 0
-6.420394 2.900750 -21.509566 22.633984 -0.424352 2.825064 0.036653 -0.004234 260021.000000 0 1 0
-5.917794 3.933650 -22.360466 23.462402 -0.586651 2.833897 0.040304 -0.009691 -162303.000000 0 1 0
-5.391794 3.531150 -23.749066 24.608100 -0.579821 2.876588 0.060903 -0.019945 -165280.000000 0 1 0
-4.204994 2.791650 -23.631066 24.164076 -0.586077 2.931167 0.080767 -0.025907 -317974.000000 0 1 0
-3.687794 2.380750 -24.900666 25.284599 -0.573259 2.967104 0.108391 -0.028194 79876.800000 0 0 1
-2.241994 1.849150 -24.907666 25.076636 -0.689669 3.025440 0.083395 -0.027755 -1189400.000000 0 0 1
-1.303794 2.852750 -24.641366 24.840188 -1.142111 3.014985 0.078248 -0.035520 -1134180.000000 0 1 0
-0.004594 2.374650 -24.705066 24.818929 -1.568862 3.045767 0.073838 -0.028211 -657317.000000 0 1 0
0.477806 1.403750 -23.581166 23.627742 1.242719 3.078793 0.069072 -0.023077 -1329720.000000 0 1 0
0.146706 0.001550 -23.763166 23.763618 0.010567 3.135419 0.060640 -0.017472 -97791.500000 0 1 0
0.633006 -0.746450 -22.689166 22.710265 -0.867451 3.098484 0.057414 -0.017289 -642090.000000 0 1 0
0.109106 -2.176150 -22.561866 22.666833 -1.520701 3.045318 0.063533 -0.025700 377981.000000 0 1 0
-1.131194 -2.359650 -21.892966 22.048798 1.123772 3.022631 0.055047 -0.020005 -723897.000000 0 1 0
-2.269694 -2.356850 -22.660866 22.895875 0.804234 2.998192 0.062999 -0.019133 -686978.000000 0 1 0
-3.128794 -1.069450 -22.646866 22.886974 0.329359 2.996614 0.070964 -0.019293 -760420.000000 0 1 0
-3.812194 -0.943950 -21.414966 21.772106 0.242731 2.960217 0.056497 -0.017239 -76711.900000 0 1 0
-4.839094 0.006850 -21.432366 21.971872 -0.001416 2.919532 0.041532 -0.020108 290818.000000 0 1 0
-6.211094 -0.281450 -22.072466 22.931433 0.045283 2.867023 0.056195 -0.016917 105999.000000 0 1 0
-6.969694 -1.370950 -21.494266 22.637570 0.194222 2.822420 0.065302 -0.006647 993686.000000 0 1 0
-8.379694 -1.238250 -21.744566 23.336209 0.146706 2.770124 0.050656 0.000051 1066710.000000 0 1 0
-9.121094 -2.579550 -21.581566 23.571432 0.275614 2.727748 0.038155 -0.004200 -213241.000000 0 1 0
-9.184594 -3.375250 -22.707666 24.726244 0.352171 2.734720 0.068542 -0.000350 -38410.800000 0 1 0
-9.480294 -4.720350 -22.375666 24.755365 0.461976 2.699530 0.044366 0.006525 1276970.000000 0 1 0
-10.746394 -5.367050 -23.115566 26.050328 0.463190 2.662346 0.050831 -0.007572 496539.000000 0 0 1
-12.039794 -5.011850 -22.791666 26.259004 0.394456 2.621868 0.049331 -0.014479 -617468.000000 0 0 1
-12.921194 -5.769150 -23.630966 27.543836 0.419929 2.602043 0.058829 -0.030069 -393791.000000 0 0 1
-14.375894 -5.361250 -23.453166 28.026065 0.356958 2.562271 0.056052 -0.036940 -848975.000000 0 0 1
-14.745194 -4.103350 -23.971066 28.440644 0.271417 2.573345 0.068733 -0.033585 916927.000000 0 0 1
-16.174094 -3.939850 -23.827766 29.066925 0.238937 2.531780 0.088080 -0.037308 975308.000000 0 0 1
-16.711794 -2.564050 -24.176966 29.502272 0.152240 2.531326 0.069556 -0.029800 -228550.000000 0 0 1
-16.473494 -2.388650 -25.539196 30.484950 0.143996 2.563972 0.064271 -0.028968 38897.700000 0 0 1
-16.840194 -1.107450 -26.004906 31.001189 0.065668 2.565937 0.057982 -0.028052 1056990.000000 0 0 1
-18.343794 -1.029050 -26.508696 32.253134 0.056039 2.535526 0.061389 -0.024582 917353.000000 0 0 1
-18.787294 -1.639250 -27.763006 33.562390 0.087033 2.544913 0.074997 -0.036982 -6907.390000 0 0 1
-18.245594 -1.087950 -28.917416 34.209681 0.059558 2.577921 0.058454 -0.034320 -318822.000000 0 0 1
-18.443294 -1.871250 -30.256306 35.483809 0.101114 2.591889 0.050853 -0.038751 604280.000000 0 0 1
-19.797094 -1.956050 -30.706746 36.587638 0.098485 2.566727 0.048109 -0.039618 486418.000000 0 0 1
-19.876894 -2.679050 -31.945786 37.720040 0.133975 2.580959 0.053160 -0.040085 -75852.500000 0 0 1
-21.273894 -3.291750 -32.235016 38.762229 0.153514 2.552795 0.038912 -0.034386 231373.000000 0 0 1
-22.379394 -2.443350 -32.397876 39.451611 0.108748 2.534317 0.032886 -0.035463 383064.000000 0 0 1
-23.018694 -2.000750 -31.182626 38.810043 0.086701 2.503894 0.021852 -0.017121 209587.000000 0 0 1
-24.021094 -0.839850 -31.446606 39.580390 0.034949 2.488979 0.017944 -0.014901 209976.000000 0 0 1
-23.303894 0.309350 -31.854756 39.470148 -0.013274 2.509951 0.025289 -0.022993 161498.000000 0 0 1
-24.187494 1.231050 -32.432876 40.477670 -0.050852 2.500184 0.019397 -0.017464 -308782.000000 0 0 1
-23.613794 2.530650 -32.967356 40.630801 -0.106761 2.517320 0.029683 -0.021038 -852251.000000 0 0 1
-23.225194 3.547050 -32.116376 39.792622 -0.151553 2.510009 0.026872 -0.025252 595665.000000 0 0 1
-24.235894 4.203950 -31.328446 39.831184 -0.171751 2.475967 0.030461 -0.021555 403094.000000 0 0 1
-25.249534 5.121750 -32.115656 41.172644 -0.200130 2.465501 0.019240 -0.020395 -713234.000000 0 0 1
-26.493404 4.542250 -32.286326 42.011181 -0.169797 2.447317 0.034459 -0.025611 -1029870.000000 0 0 1
-27.107964 5.250650 -33.293766 43.253738 -0.191325 2.449217 0.061636 -0.038681 95323.900000 0 0 1
-28.468574 4.551550 -33.646396 44.308648 -0.158538 2.433132 0.079321 -0.027763 292465.000000 0 0 1
-28.361654 3.376850 33.411470 43.955806 -0.118506 0.707306 0.076388 -0.023111 -234591.000000 0 0 1
-29.628654 2.966250 33.002141 44.449939 -0.099782 0.734067 0.091508 -0.024601 -575245.000000 0 0 1
-29.795864 1.494950 32.604302 44.193539 -0.050131 0.741048 0.096645 -0.006769 -238963.000000 0 0 1
-29.758644 0.744950 33.783861 45.027559 -0.025028 0.722291 0.091962 -0.007659 256347.000000 0 0 1
-29.862494 -0.636150 33.456123 44.849586 0.021299 0.728817 0.083176 -0.004864 -597960.000000 0 0 1
-29.857524 -1.516450 -33.124026 44.620314 0.050746 2.407372 0.051843 0.003412 1675250.000000 0 0 1
-28.529334 -1.779350 -32.538906 43.311307 0.062288 2.420795 0.051646 -0.005140 1931190.000000 0 0 1
-27.822664 -0.656050 -32.027196 42.429616 0.023575 2.426193 0.046584 -0.005306 -647284.000000 0 0 1
-27.896044 -0.244850 -30.562266 41.379962 0.008777 2.401753 0.052325 -0.000586 346127.000000 0 0 1
-27.000584 -1.045050 -29.724586 40.170569 0.038685 2.403806 0.034044 -0.008252 853697.000000 0 0 1
-27.203444 -0.688150 -28.365206 39.307579 0.025291 2.376938 0.043536 -0.010529 -182592.000000 0 0 1
-26.122924 -1.112850 -27.346926 37.835168 0.042575 2.378629 0.048545 -0.015431 -68310.900000 0 0 1
-26.258504 -2.466150 -27.104966 37.818912 0.093643 2.369861 0.024728 -0.009820 556058.000000 0 0 1
-25.238944 -2.880850 -26.191826 36.487194 0.113651 2.371486 0.057862 -0.028214 267314.000000 0 0 1
-25.556434 -4.350850 -25.626186 36.452196 0.168628 2.350415 0.057721 -0.031635 -85016.300000 0 0 1
-26.444804 -4.293150 -24.560566 36.345291 0.160940 2.312787 0.063864 -0.022550 -533786.000000 0 0 1
-26.774624 -5.506650 -23.986466 36.366938 0.202838 2.291040 0.070171 -0.023893 662836.000000 0 0 1
-27.857884 -5.332950 -22.845566 36.420076 0.189146 2.248851 0.084467 -0.019214 569103.000000 0 0 1
-28.178554 -6.500150 -22.164166 36.435327 0.226711 2.224733 0.113545 -0.029470 -9545.160000 0 0 1
-29.117074 -6.232550 -21.131966 36.513130 0.210869 2.187991 0.151283 -0.017994 177101.000000 0 0 1
-29.446384 -7.463150 -20.297866 36.534798 0.248222 2.159852 0.170620 -0.022649 332223.000000 0 0 1
-28.341134 -7.849550 -19.471066 35.269784 0.270194 2.155630 0.175592 -0.033662 586546.000000 0 0 1
-28.664104 -8.755650 -18.385466 35.161308 0.296456 2.121033 0.202126 -0.033709 -303394.000000 0 0 1
-29.377044 -8.086650 -17.179666 34.979216 0.268618 2.084193 0.200063 -0.030583 219108.000000 0 0 1
-28.485064 -7.247150 -16.450666 33.682999 0.249134 2.081048 0.181415 -0.039818 521255.000000 0 0 1
-29.125484 -6.464250 -15.430066 33.588201 0.218405 2.048104 0.177073 -0.031260 -239169.000000 0 0 1
-28.161784 -5.741850 -14.496466 32.190098 0.201131 2.037942 0.188194 -0.031642 -283036.000000 0 0 1
-27.427544 -4.697050 -15.087266 31.653721 0.169608 2.067619 0.193419 -0.024798 31131.900000 0 0 1
-26.855544 -3.867950 -14.131266 30.592057 0.143044 2.050962 0.161260 -0.029274 -294844.000000 0 0 1
-13.930094 21.009150 -4.661866 25.635228 -0.985303 1.753668 0.097740 -0.033177 -116398.000000 0 0 1
-14.226694 20.541050 -5.960966 25.687870 -0.965055 1.804985 0.123450 -0.041018 -24515.700000 0 0 1
-15.004994 19.392650 -5.791666 25.194605 -0.912270 1.802748 0.116507 -0.055660 -141737.000000 0 0 1
-15.394994 18.662150 -7.110366 25.215848 -0.881037 1.856654 0.146859 -0.059776 -144879.000000 0 0 1
-14.237494 18.110750 -7.701366 24.290256 -0.904567 1.893420 0.126093 -0.053495 -15819.900000 0 1 0
-14.489094 17.233050 -8.787266 24.168738 -0.871683 1.942904 0.112405 -0.051572 -486347.000000 0 1 0
-15.124594 15.892250 -8.426866 23.501681 -0.810143 1.937526 0.107355 -0.046667 -739821.000000 0 1 0
-16.482794 16.047750 -8.143366 24.403426 -0.772026 1.911020 0.113911 -0.039455 -498809.000000 0 1 0
-16.904394 14.998150 -7.291366 23.745885 -0.725717 1.882897 0.113973 -0.031459 -926011.000000 0 1 0
-18.294594 15.094150 -6.730766 24.654183 -0.689836 1.847314 0.120096 -0.034677 -1714040.000000 0 1 0
-19.289894 14.641450 -7.540366 25.363935 -0.649250 1.872646 0.120282 -0.040510 -902221.000000 0 0 1
-20.530194 15.096850 -7.029766 26.435229 -0.634058 1.839959 0.095867 -0.039183 348794.000000 0 0 1
-21.732994 14.538250 -7.868166 27.305526 -0.589581 1.863094 0.099396 -0.028104 138253.000000 0 0 1
-21.907194 13.123250 -7.659966 26.661206 -0.539712 1.862211 0.133366 -0.036740 -44508.800000 0 0 1
-22.793594 12.554750 -8.575066 27.398931 -0.503459 1.889116 0.134057 -0.035966 82691.800000 0 0 1
-23.230094 11.071950 -8.187166 27.004722 -0.444770 1.878819 0.126570 -0.037520 752054.000000 0 0 1
-22.055794 10.238850 -8.254166 25.679240 -0.434620 1.898039 0.134628 -0.032531 1025560.000000 0 0 1
-22.385794 9.113350 -7.489166 25.303449 -0.386616 1.871271 0.140325 -0.041185 406744.000000 0 0 1
-21.137294 8.229850 -7.206366 23.800154 -0.371294 1.878411 0.111881 -0.015743 -1887.320000 0 1 0
-20.968194 7.178050 -8.072866 23.587300 -0.329826 1.920112 0.110688 -0.015059 -105240.000000 0 1 0
-19.855094 6.459550 -7.642866 22.234296 -0.314535 1.921695 0.094133 -0.004518 -423222.000000 0 1 0
-19.537894 5.258650 -8.648966 22.004257 -0.262921 1.974752 0.076790 -0.015043 357706.000000 0 1 0
-20.574794 4.266250 -8.568366 22.692288 -0.204456 1.957988 0.104627 -0.018727 968360.000000 0 1 0
-20.405894 3.305250 -9.626066 22.803209 -0.160581 2.006597 0.102954 -0.020045 21919.200000 0 1 0
-21.295894 2.056750 -9.465966 23.395509 -0.096281 1.987344 0.108702 -0.026387 9484.020000 0 1 0
-20.869294 1.203650 -8.391366 22.525346 -0.057612 1.952530 0.098297 -0.028923 322424.000000 0 1 0
-21.845294 0.273850 -7.926366 23.240463 -0.012535 1.918839 0.102424 -0.025282 46729.800000 0 1 0
-21.811994 -1.105850 -8.679966 23.501655 0.050656 1.949089 0.101120 -0.036143 128033.000000 0 1 0
-20.668794 -1.910350 -8.422666 22.400665 0.092165 1.956273 0.080140 -0.024978 527971.000000 0 1 0
-20.757694 -3.211750 -9.041266 22.867918 0.153508 1.977266 0.076413 -0.022711 222159.000000 0 1 0
-21.771994 -4.209750 -8.416466 23.718740 0.190999 1.933544 0.084944 -0.025535 482756.000000 0 1 0
-21.274894 -4.412150 -7.087866 22.854453 0.204489 1.886127 0.069070 -0.027521 592346.000000 0 1 0
-22.218494 -5.064350 -6.266666 23.634301 0.224105 1.839157 0.090413 -0.029552 -384758.000000 0 1 0
-22.307094 -6.575350 -6.441566 24.131627 0.286647 1.841007 0.100400 -0.033407 240197.000000 0 1 0
-21.189794 -7.366050 -6.027466 23.229214 0.334555 1.833278 0.079788 -0.033354 748829.000000 0 1 0
-21.633194 -8.639550 -5.893566 24.028546 0.379959 1.818598 0.107361 -0.036411 300577.000000 0 1 0
-20.494094 -9.639050 -5.487466 23.303035 0.439634 1.808512 0.096603 -0.034734 417422.000000 0 1 0
-19.439094 -9.871750 -6.380166 22.716433 0.469892 1.855488 0.081684 -0.018934 567810.000000 0 1 0
-18.561494 -10.911050 -5.891666 22.322450 0.531425 1.837895 0.082595 -0.010359 508678.000000 0 1 0
-17.594094 -11.431150 -6.993266 22.116263 0.576175 1.892523 0.048447 -0.005673 -180001.000000 0 1 0
-16.590694 -10.517450 -7.360366 20.977198 0.565000 1.929301 0.051258 -0.035342 160121.000000 0 1 0
-16.800394 -10.008750 -8.652466 21.384421 0.537285 1.987355 0.045983 -0.036881 -222584.000000 0 1 0
-15.855094 -10.460950 -9.793466 21.371182 0.583223 2.046828 0.054828 -0.033982 220013.000000 0 1 0
-16.183594 -11.747550 -10.219866 22.457945 0.627893 2.043244 0.081787 -0.031893 496768.000000 0 1 0
-15.212594 -12.137350 -11.190466 22.449160 0.673428 2.092641 0.072737 -0.013113 435620.000000 0 1 0
-15.418894 -13.573850 -11.669866 23.625779 0.721846 2.087419 0.085623 -0.020823 -77852.700000 0 1 0
-16.414594 -13.575150 -12.661966 24.780011 0.690999 2.107115 0.083299 -0.016192 4695.550000 0 1 0
-16.515994 -14.834050 -13.293166 25.875381 0.731799 2.110332 0.070900 -0.006885 -147338.000000 0 0 1
-16.993994 -14.808650 -14.728766 26.926353 0.716790 2.149575 0.082740 -0.008806 -158395.000000 0 0 1
-17.188794 -16.071850 -15.250966 28.041950 0.751829 2.145829 0.075249 0.000648 199317.000000 0 0 1
-17.395194 -16.021550 -16.629066 28.910355 0.744315 2.183638 0.066131 -0.001642 -320731.000000 0 0 1
-17.721494 -17.369050 -17.299666 30.249193 0.775355 2.179623 0.082131 -0.012602 -381752.000000 0 0 1
-18.955094 -17.871450 -16.863266 31.033112 0.755981 2.145273 0.051215 -0.002781 -819655.000000 0 0 1
-19.835594 -18.021250 -17.961466 32.261904 0.737508 2.161251 0.051282 -0.001520 -452927.000000 0 0 1
-21.292394 -17.791450 -17.568366 32.841273 0.696061 2.135242 0.047898 -0.006816 -574523.000000 0 0 1
-21.491694 -16.480250 -17.033066 31.994013 0.654179 2.132209 0.040181 -0.001050 97174.800000 0 0 1
-21.172594 -16.284250 -15.678166 30.971929 0.655626 2.101576 0.036051 -0.002687 -599377.000000 0 0 1
-21.267594 -14.859850 -15.130666 30.034359 0.609859 2.098764 0.059204 -0.013504 -129091.000000 0 0 1
-22.578294 -14.359150 -15.035366 30.692454 0.566450 2.082739 0.088695 -0.009764 286795.000000 0 0 1
-22.445794 -13.012150 -14.542466 29.742445 0.525370 2.081678 0.091751 -0.014705 -71828.200000 0 0 1
-23.808794 -12.298650 -14.344366 30.395333 0.476807 2.062271 0.109407 -0.025522 -54756.100000 0 0 1
-24.508394 -12.990350 -13.313466 30.767823 0.487387 2.018290 0.142037 -0.014245 89722.000000 0 0 1
-25.464644 -12.138150 -12.756366 30.959774 0.444807 1.995478 0.176054 -0.022146 -802306.000000 0 0 1
-26.219064 -12.641550 -11.575666 31.324816 0.449267 1.949307 0.175251 -0.021964 -396447.000000 0 0 1
-27.200444 -11.726850 -11.128666 31.642224 0.407049 1.930186 0.152331 -0.025612 -43014.300000 0 0 1
-27.902284 -12.237450 -10.065466 32.087478 0.413319 1.889871 0.151666 -0.024425 -572266.000000 0 0 1
-28.930124 -11.308750 -9.445966 32.466385 0.372636 1.866012 0.162360 -0.034270 -496819.000000 0 0 1
-28.313654 -10.230650 -8.802766 31.365871 0.346735 1.855265 0.167082 -0.035644 677632.000000 0 0 1
-29.210404 -9.288550 -8.112766 31.707126 0.307877 1.829539 0.196295 -0.037361 695730.000000 0 0 1
-28.484364 -8.096250 -7.378566 30.518052 0.276931 1.814993 0.174042 -0.034307 167063.000000 0 0 1
-27.811864 -8.547650 -6.184266 29.745709 0.298175 1.780228 0.158955 -0.040464 406447.000000 0 0 1
-27.120134 -7.463950 -5.545766 28.669979 0.268569 1.765458 0.150153 -0.036238 93418.600000 0 0 1
-28.013904 -6.387050 -4.867866 29.142226 0.224164 1.738621 0.176734 -0.039910 -872961.000000 0 0 1
-28.678154 -6.722250 -3.693466 29.686139 0.230246 1.695537 0.179319 -0.042886 473914.000000 0 0 1
-27.919704 -7.012950 -2.486166 28.894158 0.246092 1.656947 0.180101 -0.040995 -63407.600000 0 0 1
-27.043424 -5.943150 -1.863966 27.751435 0.216324 1.638013 0.182451 -0.042839 -561324.000000 0 0 1
-27.829344 -5.082750 -1.145466 28.312874 0.180649 1.611265 0.196140 -0.053025 -28015.900000 0 0 1
-27.133934 -4.254350 -0.249266 27.466561 0.155525 1.579872 0.178553 -0.059693 -613597.000000 0 0 1
-28.007774 -3.034750 0.157434 28.172147 0.107933 1.565208 0.197846 -0.057824 596359.000000 0 0 1
-29.133744 -3.273650 1.014534 29.334640 0.111897 1.536205 0.187084 -0.054192 729325.000000 0 0 1
-28.760094 -3.707650 2.275134 29.087212 0.128209 1.492499 0.183815 -0.049789 -231835.000000 0 0 1
-29.997804 -3.986250 3.183734 30.428516 0.132111 1.465975 0.175787 -0.047498 72749.400000 0 0 1
-30.622594 -5.200450 2.885734 31.194798 0.168219 1.478157 0.177834 -0.045196 131343.000000 0 0 1
-31.624964 -5.330750 3.893334 32.306552 0.166992 1.449990 0.172496 -0.041119 -43696.700000 0 0 1
-32.212204 -6.719750 4.002034 33.148113 0.205659 1.449769 0.157610 -0.033527 60960.200000 0 0 1
-31.256194 -7.691850 4.371834 32.484260 0.241296 1.435804 0.138628 -0.026329 552208.000000 0 0 1
-31.944384 -8.923150 4.221734 33.434852 0.272391 1.444191 0.137279 -0.019971 217008.000000 0 0 1
-31.192584 -10.161850 4.731534 33.145556 0.314935 1.427557 0.119004 -0.009445 -95627.600000 0 0 1
-31.242204 -10.284450 6.169734 33.465069 0.318012 1.385372 0.102057 -0.016223 391441.000000 0 0 1
-30.267354 -11.198450 6.616534 32.943839 0.354366 1.368578 0.092315 -0.008930 -143544.000000 0 0 1
-30.451014 -11.501750 8.131734 33.551149 0.361147 1.325990 0.090084 -0.014938 -76652.700000 0 0 1
-30.297934 -10.308550 8.883534 33.213675 0.327953 1.300034 0.107792 -0.013524 458203.000000 0 0 1
-30.390004 -10.485050 10.280734 33.751772 0.332228 1.261280 0.106298 -0.019984 -338561.000000 0 0 1
-30.278054 -9.147050 11.104434 33.522195 0.293384 1.233162 0.099503 -0.017997 470032.000000 0 0 1
-29.048664 -8.417050 10.952034 32.165489 0.282033 1.223358 0.105425 -0.028328 801257.000000 0 0 1
-29.072884 -7.349850 11.797434 32.224716 0.247619 1.195983 0.107334 -0.031971 -227185.000000 0 0 1
-27.953844 -6.362550 11.457134 30.873376 0.223796 1.190602 0.122636 -0.027406 -216144.000000 0 0 1
-28.149084 -5.730750 10.231334 30.494141 0.200841 1.228641 0.131577 -0.025342 102047.000000 0 0 1
-27.524174 -4.505650 10.305134 29.733429 0.162259 1.216869 0.121898 -0.023831 -490996.000000 0 0 1
-27.702474 -3.612150 9.079234 29.375282 0.129659 1.256574 0.143998 -0.026784 -242322.000000 0 0 1
-26.932744 -4.040350 7.983734 28.380224 0.148906 1.285634 0.127071 -0.021941 180408.000000 0 0 1
-27.165014 -3.330950 6.807334 28.202358 0.122010 1.327014 0.156208 -0.046527 -274805.000000 0 0 1
-26.322264 -3.837550 5.603934 27.184415 0.144771 1.363163 0.135601 -0.035047 -484421.000000 0 0 1
-24.943694 -3.721750 5.742734 25.865388 0.148113 1.346907 0.149207 -0.047489 50995.600000 0 0 1
-24.166194 -4.126450 4.652534 24.953529 0.169122 1.383251 0.147056 -0.034670 -83080.000000 0 1 0
-22.661694 -3.804050 4.629734 23.440512 0.166312 1.371979 0.141834 -0.032695 27831.700000 0 1 0
-22.364394 -2.448350 4.465334 22.936864 0.109041 1.374866 0.120229 -0.035365 1208600.000000 0 1 0
-20.941894 -2.218650 4.455534 21.525267 0.105549 1.362298 0.089647 -0.030951 684568.000000 0 1 0
-20.503794 -0.783150 4.903234 21.096459 0.038177 1.336231 0.070851 -0.036947 -672072.000000 0 1 0
-20.564394 0.293750 3.988434 20.949659 -0.014283 1.379245 0.068504 -0.038240 1290800.000000 0 1 0
-21.864694 0.649950 3.492634 22.151428 -0.029717 1.412465 0.075244 -0.047741 448200.000000 0 1 0
-21.786694 1.901350 2.562834 22.019157 -0.087051 1.454141 0.086839 -0.030266 -466288.000000 0 1 0
-21.254794 3.078750 3.129634 21.703446 -0.143849 1.426092 0.073847 -0.042354 285986.000000 0 1 0
-21.526494 4.220550 2.291434 22.055694 -0.193607 1.466715 0.094673 -0.026577 -390204.000000 0 1 0
-20.676094 4.399650 1.042134 21.164683 -0.209662 1.521537 0.074790 -0.010174 -827452.000000 0 1 0
-21.194694 5.180650 -0.013466 21.818670 -0.239731 1.571413 0.109375 0.001022 410560.000000 0 1 0
-22.174594 4.568850 -0.841966 22.656035 -0.203196 1.607968 0.134249 -0.009238 -52989.500000 0 1 0
-21.713594 3.354750 -1.707666 22.037482 -0.153288 1.648363 0.130786 -0.007880 -408313.000000 0 1 0
-21.316894 2.253350 -0.968466 21.457527 -0.105316 1.615946 0.084401 -0.010379 487418.000000 0 1 0
-20.910794 1.219750 -1.897166 21.032079 -0.058265 1.661123 0.078530 -0.009301 -607746.000000 0 1 0
-20.065494 0.194350 -1.211666 20.102984 -0.009685 1.631106 0.067937 -0.007963 -854679.000000 0 1 0
-20.821394 -0.652350 -0.331166 20.834243 0.031320 1.586692 0.080971 -0.016502 612615.000000 0 1 0
-20.183594 -1.413650 0.688234 20.244741 0.069925 1.536794 0.077432 -0.014814 -950648.000000 0 1 0
-19.218894 -2.503050 0.237534 19.382661 0.129510 1.558541 0.039162 -0.009059 -622078.000000 0 1 0
-18.687194 -3.200450 1.327534 19.005695 0.169619 1.500890 0.053863 -0.006273 757581.000000 0 1 0
-17.783494 -4.221850 0.902634 18.300039 0.233088 1.521452 0.025640 -0.004505 47139.600000 0 1 0
-18.497994 -5.569050 0.604534 19.327585 0.292431 1.539513 0.020587 -0.007111 -274751.000000 0 1 0
-19.088994 -6.031450 1.792834 20.099312 0.306038 1.481479 0.034984 -0.009519 185048.000000 0 1 0
-20.102094 -6.928350 1.422434 21.310080 0.331908 1.503997 0.055749 -0.017159 -874388.000000 0 1 0
-20.872394 -7.317050 2.651334 22.276122 0.337175 1.451492 0.079590 -0.012802 -683538.000000 0 1 0
-20.146794 -8.017150 3.667934 21.991401 0.378726 1.403224 0.074661 -0.009521 1270900.000000 0 1 0
-21.025594 -8.535350 4.711934 23.176068 0.385626 1.366059 0.086978 -0.011934 580334.000000 0 1 0
-20.307094 -9.475450 5.718334 23.127074 0.436579 1.320948 0.090513 -0.003078 -31804.400000 0 1 0
-19.991494 -10.768350 5.249134 23.306021 0.494085 1.343621 0.105333 0.000612 1060800.000000 0 1 0
-19.060194 -11.471350 6.131634 23.075524 0.541778 1.301845 0.116281 -0.004016 752696.000000 0 1 0
-18.421094 -12.706350 5.446634 23.031584 0.603828 1.332049 0.097791 -0.008420 317838.000000 0 1 0
-19.367994 -13.769950 5.199834 24.326302 0.618047 1.355381 0.124654 -0.008663 685397.000000 0 1 0
-18.780294 -14.955750 4.670534 24.457878 0.672513 1.378654 0.106620 -0.008014 -291951.000000 0 1 0
-19.885794 -15.907150 4.265234 25.820039 0.674695 1.404845 0.128335 -0.011861 -613625.000000 0 0 1
-19.429694 -17.257550 4.020134 26.296340 0.726260 1.417316 0.131493 -0.024506 83828.700000 0 0 1
-19.618194 -18.065150 5.203934 27.171752 0.744208 1.378086 0.109561 -0.030310 123656.000000 0 0 1
-18.577494 -19.211550 5.267134 27.238752 0.802175 1.376201 0.115781 -0.034321 -258097.000000 0 0 1
-18.705294 -20.108750 4.172434 27.778752 0.821541 1.420023 0.116601 -0.034909 373945.000000 0 0 1
-17.826594 -21.242050 4.101534 28.032744 0.872598 1.423957 0.103167 -0.035305 461541.000000 0 0 1
-16.328394 -21.057550 3.796134 26.915562 0.911225 1.429286 0.123196 -0.033565 1077560.000000 0 0 1
-15.507394 -22.301850 3.957634 27.450221 0.963204 1.426117 0.107371 -0.031218 781841.000000 0 0 1
-14.111194 -22.068150 3.976334 26.494155 1.001883 1.420144 0.110494 -0.030605 651057.000000 0 0 1
-13.250094 -23.368150 4.215834 27.192070 1.054984 1.415129 0.116310 -0.027420 182987.000000 0 0 1
-13.432194 -24.254450 3.101734 27.898439 1.065038 1.459387 0.107524 -0.031569 -59065.800000 0 0 1
-13.050094 -25.553870 3.383134 28.892054 1.098634 1.453431 0.082271 -0.031191 -140987.000000 0 0 1
18.956906 19.104850 -23.861466 35.968446 0.789285 2.296150 0.079601 0.011018 577029.000000 0 0 1
18.015706 19.426750 -24.933566 36.381960 0.823066 2.325850 0.077282 0.006149 862543.000000 0 0 1
18.598606 19.128250 -26.227926 37.412594 0.799436 2.347659 0.077822 0.007560 -32030.400000 0 0 1
17.654106 19.417650 -27.361316 37.912454 0.832933 2.377048 0.079302 0.007038 -306558.000000 0 0 1
17.497706 20.739850 -27.706306 38.780800 0.869985 2.366611 0.080747 0.006925 -364358.000000 0 0 1
16.642306 20.873050 -28.780936 39.255482 0.897697 2.393768 0.077545 0.004481 -312946.000000 0 0 1
16.300606 22.393450 -29.093556 40.169782 0.941578 2.380764 0.093904 -0.005230 -230671.000000 0 0 1
15.465606 22.991450 -28.142076 39.493900 0.978651 2.363947 0.087954 -0.003784 21621.200000 0 0 1
15.153306 24.291750 -28.577136 40.452002 1.013057 2.355260 0.088592 -0.001330 -239337.000000 0 0 1
14.242706 25.009250 -27.583506 39.864358 1.053107 2.334961 0.086333 -0.005663 86495.100000 0 0 1
12.863906 24.683050 -27.680766 39.255036 1.090362 2.353434 0.082941 -0.012729 136419.000000 0 0 1
12.222206 25.327150 -26.564426 38.684824 1.121187 2.327720 0.067005 -0.006753 -500060.000000 0 0 1
10.751906 24.881350 -26.383646 37.825677 1.162904 2.342708 0.078441 -0.010631 573251.000000 0 0 1
9.994506 25.774150 -25.540006 37.636271 1.200875 2.316652 0.068619 -0.018957 250354.000000 0 0 1
9.650606 27.010450 -26.059866 38.753261 1.227641 2.308319 0.068380 -0.021969 -463604.000000 0 0 1
9.152606 28.054750 -24.949866 38.643693 1.255443 2.272656 0.070241 -0.029006 748190.000000 0 0 1
10.222606 28.525250 -24.114466 38.725948 1.226684 2.242979 0.069397 -0.023794 513685.000000 0 0 1
9.678006 29.420050 -23.209066 38.702247 1.252987 2.213901 0.084818 -0.038260 -443428.000000 0 0 1
10.572406 29.776150 -22.036266 38.522615 1.229618 2.179780 0.072127 -0.033295 -12274.400000 0 0 1
11.752506 30.488050 -22.403166 39.617476 1.202870 2.171820 0.059021 -0.037836 57648.400000 0 0 1
12.343506 30.988350 -21.257266 39.553904 1.191733 2.138177 0.046222 -0.032951 103329.000000 0 0 1
13.625106 31.827750 -21.576066 40.794311 1.166312 2.128099 0.039627 -0.019986 -81958.700000 0 0 1
14.674206 31.052950 -22.028666 40.802943 1.129345 2.141090 0.035687 -0.021996 -686136.000000 0 0 1
15.706806 31.854550 -22.573066 42.082769 1.112701 2.136958 0.033725 -0.016867 -408576.000000 0 0 1
16.865906 31.098150 -23.169866 42.289436 1.073850 2.150634 0.018337 -0.008882 -135976.000000 0 0 1
17.760406 30.607150 -22.157366 41.751389 1.045011 2.130220 0.026143 -0.004254 601819.000000 0 0 1
19.001106 30.255750 -22.772766 42.368046 1.010031 2.138264 0.035529 -0.001883 594277.000000 0 0 1
20.098206 29.545150 -21.938766 41.930457 0.973446 2.121419 0.028365 0.003197 404917.000000 0 0 1
20.790306 30.340050 -20.994666 42.350106 0.970043 2.089484 0.028717 0.004069 75994.100000 0 0 1
21.675606 29.545050 -20.214066 41.849138 0.937844 2.074899 0.036320 0.004255 401552.000000 0 0 1
22.287306 30.372950 -19.024766 42.204050 0.937752 2.038436 0.040137 -0.010231 -680568.000000 0 0 1
23.343406 31.192950 -19.331466 43.492762 0.928349 2.031385 0.044099 -0.013615 -773213.000000 0 0 1
23.898606 31.633550 -18.119766 43.590719 0.923795 1.999486 0.050582 -0.018286 -339178.000000 0 0 1
25.163706 32.514650 -18.302766 45.004509 0.912162 1.989621 0.059516 -0.017261 -753303.000000 0 0 1
26.195806 31.658650 -18.646766 45.124187 0.879543 1.996797 0.061688 -0.018865 -520277.000000 0 0 1
27.384106 32.453150 -18.429866 46.289914 0.869910 1.980285 0.061814 -0.019198 84387.000000 0 0 1
28.624306 31.842650 -19.061866 46.868540 0.838573 1.989645 0.074103 -0.025363 -351620.000000 0 0 1
29.112506 30.644450 -18.524466 46.149498 0.811029 1.983843 0.054695 -0.014606 -158295.000000 0 0 1
30.425106 30.343050 -18.948866 46.962190 0.784048 1.986126 0.054214 -0.008918 212352.000000 0 0 1
31.033506 29.114750 -18.215466 46.287691 0.753509 1.975262 0.057036 -0.015468 -215483.000000 0 0 1
31.373806 29.386550 -16.847366 46.170540 0.752703 1.944316 0.050585 -0.008484 76018.700000 0 0 1
31.724606 28.237850 -16.117266 45.426788 0.727315 1.933493 0.062008 -0.006107 -443564.000000 0 0 1
32.177906 28.463150 -14.653266 45.390382 0.724217 1.899512 0.062764 -0.007079 403876.000000 0 0 1
33.486306 28.986050 -14.473866 46.594169 0.713486 1.886659 0.040613 -0.002046 230161.000000 0 0 1
33.441306 30.380450 -14.522566 47.457324 0.737475 1.881799 0.037444 -0.006011 1290860.000000 0 0 1
34.936006 30.897150 -14.755566 48.917125 0.724125 1.877213 0.048109 -0.010329 2002880.000000 0 0 1
35.784606 30.860650 -13.604966 49.173294 0.711649 1.851127 0.046114 -0.009515 61922.800000 0 0 1
37.038706 31.447650 -13.863366 50.527353 0.703941 1.848734 0.054349 -0.018668 153989.000000 0 0 1
-36.532053 31.744750 -12.656866 50.025157 -0.715397 1.826587 0.053493 -0.012650 -61609.300000 0 0 1
-37.051953 32.886450 -11.980766 50.969644 -0.725909 1.808073 0.060573 -0.013722 352348.000000 0 0 1
-36.266653 33.213850 -10.863766 50.363195 -0.741489 1.788214 0.051895 -0.001305 -101718.000000 0 0 1
-36.809153 -33.459048 -10.241866 50.786981 0.737758 1.773852 0.046112 0.006221 -126928.000000 0 0 1
-36.000853 -32.769748 -9.325266 49.566908 0.738449 1.760059 0.046859 0.003576 -263912.000000 0 0 1
-35.842653 -33.485548 -8.109266 49.716576 0.751412 1.734638 0.035769 0.000218 -71371.500000 0 0 1
-35.378453 -32.640748 -6.903266 48.628268 0.745171 1.713237 0.033458 -0.001419 -406572.000000 0 0 1
-36.211553 -31.606948 -6.517466 48.505187 0.717606 1.705570 0.036425 0.001714 -656824.000000 0 0 1
-35.817653 -30.893548 -5.357266 47.602688 0.711720 1.683576 0.058612 0.005021 -44731.000000 0 0 1
-37.038053 -30.177248 -4.753066 48.011200 0.683678 1.669958 0.046466 0.005181 -94044.800000 0 0 1
36.504206 -31.104148 -4.193966 48.141608 -0.705695 1.658024 0.029228 -0.000209 1246630.000000 0 0 1
35.182606 -30.651648 -3.800866 46.816513 -0.716683 1.652072 0.027019 -0.004108 1043480.000000 0 0 1
35.102206 -29.688948 -2.652666 46.050355 -0.702042 1.628432 0.025372 -0.000759 -525220.000000 0 0 1
35.698806 -28.444348 -2.906566 45.737663 -0.672779 1.634388 0.054611 -0.005366 140960.000000 0 0 1
35.086406 -27.559448 -2.031966 44.662154 -0.665820 1.616308 0.046239 -0.006961 -99919.500000 0 0 1
35.506006 -26.095248 -2.259766 44.121933 -0.633801 1.622035 0.058647 -0.015389 -268124.000000 0 0 1
34.938906 -25.517548 -3.404166 43.398857 -0.630805 1.649316 0.064818 -0.016705 342298.000000 0 0 1
35.132406 -24.098548 -3.448666 42.742476 -0.601224 1.651569 0.068271 -0.025826 -17087.600000 0 0 1
34.633706 -23.569548 -4.809166 42.168060 -0.597544 1.685093 0.074326 -0.034454 -106393.000000 0 0 1
35.674106 -23.703248 -5.753066 43.215548 -0.586458 1.704318 0.080647 -0.039475 131810.000000 0 0 1
35.296506 -23.228548 -7.038766 42.836352 -0.582047 1.735862 0.063804 -0.042119 645844.000000 0 0 1
36.490006 -23.077848 -8.078366 43.924567 -0.563934 1.755764 0.055548 -0.042675 764044.000000 0 0 1
37.088606 -24.262748 -8.596466 45.145818 -0.579310 1.762382 0.051349 -0.028257 -349154.000000 0 0 1
-36.401153 -23.946448 -9.538066 44.603263 0.581873 1.786303 0.061817 -0.024236 -128835.000000 0 0 1
-35.887153 -25.136348 -10.408566 45.034009 0.611013 1.804032 0.057163 -0.023744 -354729.000000 0 0 1
-35.100353 -26.088148 -9.790066 44.815975 0.639164 1.791023 0.062741 -0.006989 -38377.600000 0 0 1
-35.838053 -27.091948 -9.067666 45.831891 0.647301 1.769957 0.052917 -0.006572 256739.000000 0 0 1
-34.940853 -28.175148 -8.389366 45.662716 0.678611 1.755571 0.044924 0.005205 248736.000000 0 0 1
-34.250353 -28.941948 -9.356866 45.806921 0.701591 1.776512 0.048326 -0.000989 -94590.000000 0 0 1
-33.636153 -30.107548 -8.893866 46.010391 0.730098 1.765322 0.054673 -0.000641 -79942.400000 0 0 1
-33.123453 -30.992548 -10.054566 46.462840 0.752175 1.788922 0.060727 0.002745 200495.000000 0 0 1
-32.083453 -30.379648 -10.811966 45.488126 0.758128 1.810781 0.047086 0.015089 248437.000000 0 0 1
-31.946853 -31.005648 -12.053166 46.121909 0.770448 1.835199 0.040497 0.011440 -98936.600000 0 0 1
-32.146753 -30.019148 -13.223766 45.928542 0.751187 1.862851 0.021770 0.007895 -490013.000000 0 0 1
-31.069853 -29.124848 -13.453566 44.660844 0.753098 1.876788 0.026268 0.012042 205502.000000 0 0 1
-31.433053 -28.175848 -14.476566 44.626071 0.730810 1.901171 0.014758 0.010431 -76250.900000 0 0 1
-30.252653 -27.265648 -14.771766 43.322554 0.733513 1.918747 0.032289 0.005646 199380.000000 0 0 1
-29.116553 -27.866748 -15.364866 43.132452 0.763469 1.935021 0.047947 0.000273 -173059.000000 0 0 1
-28.083053 -26.995448 -15.773166 42.026240 0.765654 1.955535 0.068220 0.002098 501563.000000 0 0 1
-26.897553 -27.932048 -16.214466 42.030781 0.804263 1.966845 0.089011 -0.008471 -116646.000000 0 0 1
-27.173553 -28.718848 -17.342466 43.173318 0.813039 1.984162 0.083348 -0.012741 -155052.000000 0 0 1
-27.176653 -28.029848 -18.581966 43.238089 0.800852 2.015022 0.065654 -0.008423 379955.000000 0 0 1
-25.767853 -27.606348 -19.111066 42.324054 0.819830 2.039289 0.074649 -0.009053 646295.000000 0 0 1
-25.242153 -26.469848 -18.413966 40.949888 0.809135 2.037193 0.084191 -0.013638 -47770.200000 0 0 1
-23.835953 -26.398948 -18.596966 40.136072 0.836374 2.052566 0.085788 -0.027175 640125.000000 0 0 1
-23.259153 -25.175248 -17.808766 38.625555 0.824938 2.049988 0.087184 -0.018775 -35184.300000 0 0 1
-23.657453 -25.329248 -16.454166 38.366463 0.819512 2.014036 0.090933 -0.019806 105897.000000 0 0 1
-23.226253 -24.303548 -15.618266 37.068201 0.808060 2.005717 0.095355 -0.021087 -247919.000000 0 0 1
-23.762953 -24.408448 -14.185066 36.900764 0.798797 1.965366 0.080763 -0.017048 -488432.000000 0 0 1
-25.121253 -24.112248 -14.078666 37.559109 0.764907 1.955021 0.065401 -0.005096 -527348.000000 0 0 1
-25.352353 -23.882648 -12.687166 37.068678 0.755556 1.920119 0.061383 -0.002784 1522130.000000 0 0 1
-26.870553 -23.832748 -12.189766 37.929104 0.725556 1.897986 0.057055 0.007803 1036050.000000 0 0 1
-27.570453 -25.077748 -12.235366 39.226617 0.738087 1.888004 0.068806 0.004531 572629.000000 0 0 1
-28.942853 -25.151748 -11.899066 40.148312 0.715430 1.871694 0.058970 0.007623 58187.000000 0 0 1
-29.938953 -24.301048 -12.712666 40.601647 0.681826 1.889259 0.061529 0.001450 -1121050.000000 0 0 1
-30.350653 -22.977448 -12.356966 40.022742 0.648008 1.884673 0.070169 0.005126 276151.000000 0 0 1
-30.880453 -22.751448 -11.062566 39.920059 0.634973 1.851590 0.077680 -0.001052 -52500.900000 0 0 1
-32.330053 -23.325048 -10.796866 41.302089 0.624988 1.835281 0.055183 -0.004401 634659.000000 0 0 1
-33.377353 -22.515148 -11.300266 41.817169 0.593450 1.844429 0.072083 -0.020134 115663.000000 0 0 1
-33.491353 -22.581548 -12.729966 42.351494 0.593234 1.876096 0.065932 -0.014553 -1084240.000000 0 0 1
-34.927953 -22.176748 -13.095366 43.396528 0.565707 1.877335 0.032230 -0.024454 -248153.000000 0 0 1
-35.934853 -23.048948 -12.665466 44.530683 0.570312 1.859199 0.041046 -0.019939 -232665.000000 0 0 1
-37.172353 -22.606448 -13.193266 45.463146 0.546392 1.865229 0.049221 -0.028086 -284272.000000 0 0 1
36.177306 -23.659348 -13.069166 45.159333 -0.579170 1.864398 0.049743 -0.017491 -650194.000000 0 0 1
36.357906 -24.855648 -13.743666 46.136633 -0.599660 1.873278 0.036473 -0.003341 -383035.000000 0 0 1
35.432906 -25.795548 -13.333066 45.811263 -0.629279 1.866114 0.034971 -0.014080 -233686.000000 0 0 1
35.455306 -26.998448 -14.273366 46.794486 -0.650807 1.880758 0.035576 -0.010733 706366.000000 0 0 1
34.560906 -26.823248 -15.395766 46.378578 -0.660006 1.909175 0.039124 -0.019987 200692.000000 0 0 1
34.244306 -27.929048 -16.268466 47.088929 -0.684170 1.923551 0.035261 0.001252 345425.000000 0 0 1
33.202106 -27.692348 -17.406166 46.607087 -0.695163 1.953539 0.036369 0.000699 -628099.000000 0 0 1
31.895306 -28.043948 -17.160566 45.806753 -0.721232 1.954794 0.055924 0.002139 -1048420.000000 0 0 1
31.122806 -27.769548 -18.323366 45.557904 -0.728521 1.984714 0.056676 -0.000785 147243.000000 0 0 1
29.602206 -27.805548 -18.077966 44.455056 -0.754112 1.989588 0.061705 -0.006479 101888.000000 0 0 1
29.186606 -26.845548 -17.097066 43.183922 -0.743642 1.977858 0.053322 -0.008569 -790830.000000 0 0 1
27.820306 -26.919748 -16.854666 42.222293 -0.768948 1.981428 0.090127 -0.013271 -452717.000000 0 0 1
27.336806 -25.969048 -15.762366 40.867403 -0.759745 1.966758 0.081630 -0.018940 -53256.500000 0 0 1
27.515206 -24.639748 -16.135466 40.305794 -0.730321 1.982669 0.072187 -0.027877 -101957.000000 0 0 1
27.297306 -23.898548 -14.965666 39.246079 -0.719108 1.962030 0.080215 -0.029279 -190088.000000 0 0 1
26.811506 -22.423648 -15.119066 38.082319 -0.696513 1.979053 0.086837 -0.038991 540885.000000 0 0 1
25.537606 -22.158848 -15.707766 37.281601 -0.714678 2.005705 0.093159 -0.033685 334181.000000 0 0 1
25.200106 -20.826848 -15.489866 36.176496 -0.690667 2.013268 0.092116 -0.038497 684538.000000 0 0 1
23.700406 -20.413248 -15.702866 34.999856 -0.711020 2.036056 0.080129 -0.037368 772722.000000 0 0 1
22.805106 -20.829548 -14.671766 34.193620 -0.740154 2.014269 0.082129 -0.038903 469685.000000 0 0 1
21.555006 -20.156948 -14.677566 32.959851 -0.751894 2.032324 0.078354 -0.036432 292211.000000 0 0 1
21.517606 -18.723048 -14.047866 31.794692 -0.716063 2.028434 0.071176 -0.032526 -476199.000000 0 0 1
21.107906 -18.843848 -12.723166 31.024398 -0.728789 1.993362 0.070877 -0.050627 70566.600000 0 0 1
20.711906 -17.608748 -12.183166 29.790613 -0.704596 1.992110 0.085922 -0.061069 76849.300000 0 0 1
19.768706 -17.766948 -10.930166 28.739080 -0.732119 1.960943 0.097798 -0.054676 -124073.000000 0 0 1
20.433006 -18.089648 -9.738866 28.975656 -0.724642 1.913575 0.105219 -0.062695 -115972.000000 0 0 1
19.634006 -18.025748 -8.578666 28.000273 -0.742719 1.882182 0.088427 -0.059214 -176056.000000 0 0 1
20.237706 -18.890248 -7.421566 28.661575 -0.750975 1.832719 0.078673 -0.053601 -111698.000000 0 0 1
21.489906 -18.399048 -7.032966 29.151392 -0.708066 1.814457 0.090184 -0.050150 -331095.000000 0 0 1
22.079506 -19.156448 -5.978366 29.836470 -0.714630 1.772533 0.093369 -0.042601 -785866.000000 0 0 1
23.394306 -18.511048 -5.635966 30.359786 -0.669391 1.757519 0.087120 -0.037123 -1410030.000000 0 0 1
24.337306 -18.564848 -6.649366 31.323667 -0.651652 1.784703 0.078054 -0.054541 36707.700000 0 0 1
25.406206 -17.665248 -6.373966 31.593730 -0.607573 1.773938 0.091964 -0.046594 -1019930.000000 0 0 1
26.486506 -17.573848 -7.390966 32.634361 -0.585808 1.799257 0.089958 -0.061305 -1570290.000000 0 0 1
27.377606 -18.590948 -7.226866 33.873061 -0.596531 1.785800 0.103075 -0.070227 -505617.000000 0 0 1
27.143106 -19.650048 -8.183166 34.494011 -0.626615 1.810314 0.102890 -0.077651 167316.000000 0 0 1
28.186306 -20.811248 -8.005066 35.939630 -0.636001 1.795417 0.097073 -0.081160 1847900.000000 0 0 1
29.547606 -20.450148 -8.351866 36.892049 -0.605410 1.799163 0.095652 -0.069621 672699.000000 0 0 1
30.482806 -21.458048 -8.229666 38.175603 -0.613365 1.788076 0.095480 -0.067006 -325084.000000 0 0 1
-30.220574 29.446650 4.705734 42.456239 -0.772428 1.459731 0.053615 -0.012620 -23385.300000 0 0 1
-29.850564 30.447650 3.791034 42.807564 -0.795300 1.482120 0.045992 -0.006957 -15038.900000 0 0 1
-28.749994 31.135650 4.361134 42.602938 -0.825214 1.468250 0.041077 -0.001347 86876.900000 0 0 1
-28.264634 32.328150 3.543134 43.087732 -0.852361 1.488473 0.055394 -0.010110 -464281.000000 0 0 1
-27.715704 31.902350 2.299834 42.322682 -0.855508 1.516429 0.063061 -0.005264 269584.000000 0 0 1
-27.181964 32.997350 1.515334 42.778272 -0.881733 1.535366 0.071757 -0.020080 -706.705000 0 0 1
-25.908764 33.702450 2.002234 42.557351 -0.915403 1.523731 0.076543 -0.020093 307857.000000 0 0 1
-24.679894 33.023750 1.648434 41.259939 -0.929001 1.530833 0.068559 -0.020652 696897.000000 0 0 1
-23.574294 33.657050 2.285634 41.155419 -0.959784 1.515231 0.069088 -0.020118 392093.000000 0 0 1
-22.213594 33.157550 1.754134 39.949266 -0.980530 1.526873 0.067874 -0.021105 73031.800000 0 0 1
-21.732294 33.862250 0.613734 40.240791 -1.000218 1.555544 0.093810 -0.037315 481906.000000 0 0 1
-20.336694 33.592050 0.498334 39.271558 -1.026414 1.558107 0.095959 -0.038662 46665.000000 0 0 1
-19.598094 -33.667048 -0.639366 38.961060 1.043631 1.587207 0.105862 -0.039870 -122690.000000 0 0 1
-19.371594 -32.258348 -0.519166 37.631492 1.029999 1.584593 0.107766 -0.045591 286042.000000 0 0 1
-18.581694 -31.794748 0.556734 36.830630 1.041907 1.555680 0.103950 -0.034109 -365047.000000 0 0 1
-18.347794 -30.287948 0.510134 35.415556 1.026139 1.556392 0.098527 -0.038336 -326844.000000 0 0 1
-17.496294 -29.873948 -0.531566 34.624495 1.040980 1.586149 0.090813 -0.027792 80043.000000 0 0 1
-17.219794 -28.461048 -0.370866 33.266952 1.026686 1.581945 0.076496 -0.020408 -192560.000000 0 0 1
-16.245994 -27.956648 -1.442666 32.366461 1.044380 1.615384 0.066271 -0.019749 -433405.000000 0 0 1
-16.768694 -28.027848 -2.765766 32.778024 1.031637 1.655275 0.061182 -0.012317 -638183.000000 0 0 1
-15.860494 -27.682648 -3.735066 32.122189 1.050512 1.687337 0.057304 -0.008567 -594363.000000 0 0 1
-16.398994 -27.719048 -5.199266 32.623688 1.036565 1.730850 0.083998 -0.010915 521689.000000 0 0 1
-17.354594 -26.682448 -5.507566 32.302759 0.994131 1.742132 0.081198 -0.004185 185636.000000 0 0 1
-17.732294 -26.718648 -6.898466 32.801056 0.984873 1.782691 0.092626 -0.011184 342648.000000 0 0 1
-18.441394 -25.368548 -7.146166 32.167001 0.942218 1.794824 0.072842 -0.000619 701913.000000 0 0 1
-17.489894 -24.317048 -6.936866 30.746306 0.947271 1.798372 0.059330 -0.002013 628293.000000 0 0 1
-18.066994 -23.122948 -7.374666 30.256779 0.907535 1.817012 0.056233 0.001013 -2289.160000 0 0 1
-17.030394 -22.019248 -7.241866 28.763279 0.912467 1.825310 0.076073 -0.003068 82889.900000 0 0 1
-15.880994 -22.155748 -8.041566 28.420942 0.948891 1.857660 0.101798 -0.019316 -443380.000000 0 0 1
-14.814694 -21.393948 -7.528966 27.089878 0.965141 1.852430 0.116543 -0.032616 -426654.000000 0 0 1
-13.783994 -21.041348 -8.561866 26.571458 0.990851 1.898870 0.102117 -0.026328 -599960.000000 0 0 1
-14.195594 -20.093048 -9.514366 26.377427 0.955726 1.939816 0.120957 -0.019435 -421090.000000 0 0 1
-13.270294 -19.895348 -10.553866 26.140192 0.982560 1.986399 0.112277 -0.018631 -154327.000000 0 0 1
-13.902894 -19.211148 -11.767366 26.473186 0.944348 2.031414 0.120693 -0.019030 -68561.900000 0 0 1
-14.831594 -19.999748 -12.514766 27.867283 0.932700 2.036537 0.109265 -0.000980 -74571.800000 0 0 1
-15.163394 -19.296348 -13.707066 28.109806 0.904764 2.080165 0.100629 -0.013372 1330920.000000 0 0 1
-16.579194 -19.701348 -14.311866 29.459163 0.871243 2.078098 0.102054 -0.015631 712684.000000 0 0 1
-17.710594 -19.145148 -13.715966 29.467432 0.824302 2.054953 0.102617 -0.013822 -1092400.000000 0 0 1
-18.792894 -19.641848 -14.421766 30.772754 0.807483 2.058562 0.080958 -0.004977 -668108.000000 0 0 1
-20.158594 -19.384648 -13.734366 31.157123 0.765829 2.027297 0.059735 0.003385 -128387.000000 0 0 1
-21.194494 -19.986448 -14.469366 32.527330 0.756072 2.031789 0.068473 -0.010833 473793.000000 0 0 1
-22.480294 -19.534048 -13.973866 32.896984 0.715388 2.009511 0.062593 -0.004446 888368.000000 0 0 1
-23.611694 -20.182048 -14.827166 34.419065 0.707244 2.016157 0.076324 -0.012843 -126703.000000 0 0 1
-23.858594 -19.704248 -16.180466 34.918439 0.690321 2.052601 0.072869 -0.020875 333481.000000 0 0 1
-24.860494 -20.473048 -16.809766 36.328475 0.688917 2.051853 0.092259 -0.029120 -250444.000000 0 0 1
-25.070854 -20.018448 -18.283066 36.926366 0.673810 2.088772 0.095930 -0.020449 -563542.000000 0 0 1
-23.898094 -20.108048 -19.004266 36.559740 0.699485 2.117430 0.074384 -0.019433 -465157.000000 0 0 1
-24.163494 -19.705448 -20.315766 37.214372 0.684124 2.148273 0.083791 -0.023874 221817.000000 0 0 1
-22.998394 -18.975748 -21.064466 36.506395 0.689854 2.185856 0.053732 -0.020706 428994.000000 0 0 1
-21.881894 -19.808348 -21.321266 36.411321 0.735702 2.196376 0.034812 -0.011829 -58917.900000 0 0 1
-20.898594 -19.116848 -22.050666 35.894804 0.740901 2.232312 0.031277 -0.008839 981980.000000 0 0 1
-19.499494 -19.846548 -22.155466 35.566563 0.794219 2.243278 0.039982 -0.005471 471042.000000 0 0 1
-19.377294 -20.798848 -23.183366 36.681604 0.820766 2.254948 0.032198 0.001230 542141.000000 0 0 1
-18.120294 -21.496348 -23.133466 36.408725 0.870411 2.259300 0.039978 -0.000992 615773.000000 0 0 1
-18.240494 -22.829248 -23.908366 37.755796 0.896667 2.256525 0.050163 -0.004784 -59349.100000 0 0 1
-18.259894 -22.677948 -25.306386 38.576239 0.892903 2.286316 0.048950 -0.001842 112092.000000 0 0 1
-18.313294 -23.933648 -25.988426 39.794403 0.917657 2.282424 0.060593 -0.013024 -40558.900000 0 0 1
-18.157894 -23.752848 -27.479696 40.608381 0.918110 2.314068 0.068310 -0.002593 702925.000000 0 0 1
-16.768194 -23.592848 -27.797616 40.131063 0.952904 2.335982 0.058160 -0.005947 582895.000000 0 0 1
-16.594694 -23.519148 -29.171286 40.981680 0.956334 2.362872 0.078761 -0.012151 47599.800000 0 0 1
-15.129394 -23.469448 -29.650876 40.729449 0.998197 2.386191 0.043053 -0.020263 -196041.000000 0 0 1
-14.401394 -24.650448 -29.471996 41.032222 1.042057 2.372101 0.066870 -0.019318 -67778.800000 0 0 1
-13.212094 -24.563548 -30.242776 41.140647 1.077311 2.396621 0.089182 -0.022620 -287969.000000 0 0 1
-12.307394 -25.732948 -29.905586 41.327964 1.124680 2.379824 0.103372 -0.025184 -1352470.000000 0 0 1
-12.674694 -27.012648 -30.464166 42.642660 1.132080 2.366571 0.111159 -0.024767 704731.000000 0 0 1
-11.683594 -28.027848 -30.165716 42.802302 1.175843 2.352893 0.128615 -0.037870 2194440.000000 0 0 1
-10.286094 -27.870848 -30.954956 42.904512 1.217241 2.376741 0.129842 -0.042403 1409160.000000 0 0 1
-9.574494 -26.721748 -30.456796 41.633390 1.226743 2.391385 0.131766 -0.049124 -972073.000000 0 0 1
-8.350494 -26.540448 -31.078406 41.713229 1.265970 2.411405 0.120832 -0.038021 -799961.000000 0 0 1
-7.498394 -25.413148 -30.489406 40.393785 1.283878 2.426152 0.128206 -0.041621 -265231.000000 0 0 1
-7.987394 -24.058748 -30.656086 39.779611 1.250250 2.450654 0.141969 -0.035077 419705.000000 0 0 1
-9.083894 -23.772448 -29.782446 39.174488 1.205799 2.434496 0.121667 -0.030128 113447.000000 0 0 1
-9.504394 -22.303648 -29.655236 38.304298 1.167964 2.456248 0.112887 -0.037417 -316438.000000 0 0 1
-10.216594 -21.796448 -30.747196 39.049379 1.132478 2.477364 0.095632 -0.032336 -105414.000000 0 0 1
-10.648094 -20.496348 -30.397286 38.176919 1.091661 2.491820 0.090736 -0.032566 13729.500000 0 0 1
-11.481194 -19.939848 -31.572176 39.066835 1.048367 2.511814 0.065523 -0.026156 -11655.000000 0 0 1
-12.065394 -18.651248 -31.465866 38.516795 0.996607 2.526879 0.063708 -0.025366 56320.200000 0 0 1
-12.637994 -18.340548 -32.709776 39.573021 0.967441 2.543778 0.060989 -0.021897 -936583.000000 0 0 1
-13.387994 -17.001048 -32.569846 39.103310 0.903736 2.555156 0.061926 -0.024761 -221700.000000 0 0 1
-12.659194 -15.736748 -32.616726 38.363410 0.893357 2.587169 0.067971 -0.025321 -543156.000000 0 0 1
-11.793694 -15.418248 -31.597036 37.083504 0.917816 2.590687 0.047897 -0.022839 -340351.000000 0 0 1
-11.617894 -13.846748 -31.612266 36.414877 0.872703 2.622186 0.049940 -0.023408 319718.000000 0 0 1
-10.907794 -13.160548 -32.705546 36.903018 0.878725 2.659996 0.055624 -0.022903 441351.000000 0 0 1
-11.508094 -13.332348 33.865637 38.171575 0.858705 0.479566 0.061800 -0.021619 -416461.000000 0 0 1
-12.044994 -12.044848 33.209098 37.322975 0.785392 0.473942 0.058250 -0.014735 589255.000000 0 0 1
-13.308194 -11.779348 33.858667 38.239645 0.724533 0.483370 0.041892 -0.014917 382828.000000 0 0 1
-14.076494 -10.936148 33.011282 37.516553 0.660501 0.495118 0.039432 -0.022723 30238.100000 0 0 1
-15.371294 -10.481448 33.680565 38.477499 0.598464 0.504675 0.058384 -0.022476 -77618.900000 0 0 1
-15.046994 -9.650048 -33.054756 37.578615 0.570254 2.645851 0.065601 -0.017622 -557493.000000 0 0 1
-16.147194 -9.164748 -32.394596 37.338108 0.516237 2.621155 0.074422 -0.031408 -547368.000000 0 0 1
-15.610894 -8.102448 -31.400436 35.990791 0.478752 2.631005 0.069010 -0.039338 191402.000000 0 0 1
-15.002594 -6.976748 -32.022616 36.044427 0.435287 2.664689 0.065841 -0.044795 119089.000000 0 0 1
-15.860394 -5.885748 -32.260396 36.427013 0.355345 2.658618 0.076931 -0.045033 -283260.000000 0 0 1
-16.228294 -5.039048 -30.996426 35.348662 0.301071 2.640123 0.085817 -0.050842 89260.000000 0 0 1
-16.900194 -5.792348 -29.988106 34.906365 0.330191 2.604308 0.099208 -0.052445 -88264.300000 0 0 1
-17.110294 -5.169048 -28.677866 33.792029 0.293384 2.584239 0.101553 -0.053827 398448.000000 0 0 1
-15.869594 -4.581848 -27.924376 32.443922 0.281075 2.607433 0.094261 -0.049036 462621.000000 0 0 1
-15.380594 -3.363148 -28.476956 32.539367 0.215274 2.636550 0.091059 -0.044695 341498.000000 0 0 1
-14.071894 -3.077948 -27.977826 31.468249 0.215339 2.666130 0.083732 -0.038237 697761.000000 0 0 1
-13.465794 -1.821048 -28.715056 31.767881 0.134420 2.699602 0.060086 -0.026116 125859.000000 0 0 1
-13.388394 -2.118048 -30.073966 32.987553 0.156900 2.718141 0.068252 -0.034418 -82731.900000 0 0 1
-13.346394 -0.911048 -30.728596 33.514218 0.068156 2.730995 0.065065 -0.040697 -153285.000000 0 0 1
-13.748294 -1.035048 -32.204176 35.031355 0.075144 2.737084 0.063613 -0.045428 50341.500000 0 0 1
-15.080894 -1.488048 -32.412186 35.779847 0.098353 2.704245 0.061887 -0.047652 609307.000000 0 0 1
-15.146994 -1.568048 -33.781146 37.054770 0.103155 2.718088 0.048020 -0.041706 -472410.000000 0 0 1
-16.588794 -1.905048 33.679611 37.591668 0.114339 0.460269 0.046346 -0.047091 -410893.000000 0 0 1
-16.640294 -1.989048 32.315683 36.402734 0.118968 0.478413 0.055932 -0.046671 36054.100000 0 0 1
-17.967894 -2.045048 31.865095 36.638937 0.113329 0.516190 0.052725 -0.036996 -201695.000000 0 0 1
-18.036694 -1.921048 30.337877 35.346846 0.106108 0.538866 0.065797 -0.029469 85154.600000 0 0 1
-17.498894 -0.691048 29.771687 34.540443 0.039470 0.531718 0.068876 -0.012166 236034.000000 0 0 1
-17.593594 -0.637048 28.378687 33.395962 0.036193 0.555259 0.075688 -0.015827 -30104.000000 0 0 1
-16.793494 0.607952 27.869237 32.543593 -0.036186 0.542605 0.062595 -0.012342 201670.000000 0 0 1
-17.308994 1.898952 28.219857 33.159729 -0.109272 0.552857 0.065769 -0.013721 442848.000000 0 0 1
-18.648894 2.140952 27.798317 33.542680 -0.114303 0.593936 0.074774 -0.017290 277773.000000 0 0 1
-18.799094 2.952952 26.427387 32.565820 -0.155806 0.624070 0.073610 -0.015708 -382697.000000 0 0 1
-18.433394 4.319952 26.491547 32.561543 -0.230200 0.620507 0.066880 -0.011824 227286.000000 0 0 1
-18.981794 5.002952 25.381057 32.086385 -0.257705 0.658318 0.060747 -0.006401 -446475.000000 0 0 1
-18.753394 6.571952 25.563097 32.378268 -0.337067 0.660780 0.059221 -0.002243 145689.000000 0 0 1
-17.443494 7.098952 25.479057 31.683638 -0.386499 0.636517 0.040777 -0.003884 24405.200000 0 0 1
-16.973394 7.042952 24.144797 30.342553 -0.393320 0.650567 0.035570 -0.009629 -327291.000000 0 0 1
-15.755194 7.939952 23.873907 29.685559 -0.466809 0.636424 0.034593 -0.011937 -279721.000000 0 0 1
-14.534094 7.492952 24.375957 29.352538 -0.476005 0.590873 0.024554 -0.006418 -104829.000000 0 0 1
-13.479294 8.281952 23.823077 28.597571 -0.550955 0.586206 0.037143 -0.018799 492860.000000 0 0 1
-12.081694 8.107952 24.490037 28.486280 -0.591061 0.536088 0.031569 -0.010896 -109066.000000 0 0 1
-11.166594 8.982952 23.885057 27.854662 -0.677448 0.540428 0.030665 -0.020854 -199292.000000 0 0 1
-9.909294 8.945952 24.529217 27.926809 -0.734351 0.498419 0.036118 -0.025492 22617.100000 0 0 1
-9.709694 10.166952 25.415927 29.045041 -0.808399 0.505253 0.044139 -0.034240 -600286.000000 0 0 1
-10.725694 10.220952 26.408567 30.280700 -0.761306 0.511267 0.019074 -0.026501 404732.000000 0 0 1
-10.784894 11.467952 27.136497 31.372238 -0.816084 0.525677 0.037104 -0.028339 -622232.000000 0 0 1
-11.386594 12.694952 26.381757 31.413587 -0.839675 0.573845 0.023045 -0.027976 -429379.000000 0 0 1
-12.742394 12.615952 26.040387 31.616967 -0.780412 0.603031 0.019512 -0.029110 -188263.000000 0 0 1
-13.074794 11.772952 24.918927 30.504189 -0.733053 0.614777 0.019884 -0.025149 -934404.000000 0 0 1
-14.562594 11.630952 24.603727 30.865702 -0.673940 0.648283 0.005077 -0.020873 -368339.000000 0 0 1
-15.087294 12.840952 24.064117 31.170470 -0.705138 0.688789 0.003561 -0.021030 49383.700000 0 0 1
-16.394694 12.686952 23.531787 31.360640 -0.658588 0.722189 0.023948 -0.011533 245629.000000 0 0 1
-16.580094 12.243952 22.034317 30.171593 -0.636083 0.752035 0.023238 -0.004080 -172158.000000 0 0 1
-16.544094 10.861952 21.854117 29.483749 -0.580963 0.735902 0.035821 -0.004633 82021.200000 0 0 1
-16.284694 10.519952 20.494817 28.211667 -0.573560 0.757631 0.045683 -0.012726 -103497.000000 0 0 1
-16.480894 9.018952 20.250817 27.623485 -0.500719 0.747925 0.036693 -0.010291 1188040.000000 0 0 1
-17.879194 8.722952 20.074217 28.261806 -0.453907 0.780879 0.052162 -0.016781 596549.000000 0 0 1
-18.177894 7.318952 20.208417 28.149298 -0.382771 0.770014 0.041703 -0.006498 357571.000000 0 0 1
-19.629394 6.933952 20.610017 29.294464 -0.339561 0.790421 0.079474 -0.016743 349270.000000 0 0 1
-20.007994 7.384952 21.900217 30.569214 -0.353588 0.772147 0.069508 -0.020687 -853907.000000 0 0 1
-21.383394 7.379952 22.035817 31.579906 -0.332326 0.798503 0.063749 -0.024481 -987197.000000 0 0 1
-21.902294 8.140952 23.322137 33.013749 -0.355869 0.786345 0.085789 -0.020822 -568276.000000 0 0 1
-21.927494 9.566952 23.316367 33.406504 -0.411402 0.798253 0.084904 -0.015751 399587.000000 0 0 1
-20.729194 10.298952 23.086777 32.692005 -0.461111 0.786693 0.074125 -0.013973 -113656.000000 0 0 1
-19.596494 10.172952 24.098797 32.684301 -0.478827 0.741701 0.074709 -0.017729 -850368.000000 0 0 1
-19.755794 10.897952 25.322927 33.916182 -0.504096 0.727811 0.087104 -0.014443 97967.300000 0 0 1
-19.060494 10.404952 26.448077 34.220845 -0.499683 0.687453 0.079860 -0.007839 39346.800000 0 0 1
-31.387814 -14.043450 20.705617 40.138958 0.420704 1.028799 0.072695 -0.004465 -120365.000000 0 0 1
-30.864324 -15.335650 20.877417 40.294605 0.461143 1.026146 0.072733 -0.001652 160904.000000 0 0 1
-31.626964 -16.413750 20.297217 41.007963 0.478716 1.053010 0.071114 -0.000470 176566.000000 0 0 1
-31.504584 -16.567450 18.710517 40.213215 0.484132 1.086842 0.075181 -0.007937 60295.000000 0 0 1
-32.071864 -15.504550 17.993917 39.909605 0.450305 1.103060 0.083257 -0.022640 -88389.900000 0 0 1
-31.599274 -15.400550 16.656717 38.899065 0.453493 1.128292 0.086763 -0.023767 -1115060.000000 0 0 1
-32.203824 -14.258150 15.855217 38.623426 0.416806 1.147785 0.078664 -0.032200 1280700.000000 0 0 1
-33.526424 -14.607150 15.299817 39.641825 0.410891 1.174557 0.087175 -0.031012 570676.000000 0 0 1
-34.584644 -14.495250 16.120117 40.817497 0.396883 1.164803 0.093700 -0.032087 -2045130.000000 0 0 1
-35.144572 -13.067850 16.290217 40.881301 0.355990 1.160942 0.088135 -0.032535 -1014550.000000 0 0 1
-36.229614 -13.174150 17.172217 42.202230 0.348765 1.151735 0.073013 -0.029032 -76046.600000 0 0 1
-36.866074 -11.918650 17.426817 42.483592 0.312690 1.148122 0.063087 -0.022475 603455.000000 0 0 1
36.464165 -11.949050 18.507117 42.601978 -0.316666 1.121403 0.062924 -0.000609 205920.000000 0 0 1
36.975295 -12.153250 19.792617 43.664879 -0.317562 1.100350 0.065764 -0.000575 365891.000000 0 0 1
35.998955 -11.894150 20.818817 43.252962 -0.319111 1.068628 0.068242 -0.007457 -208754.000000 0 0 1
36.594225 -12.194850 22.222017 44.515949 -0.321671 1.048130 0.059856 -0.006768 108177.000000 0 0 1
-36.674764 -11.593950 22.666417 44.645542 0.306187 1.038287 0.056993 -0.003931 84249.400000 0 0 1
-35.509672 -12.166650 22.106317 43.562064 0.330093 1.038554 0.053965 -0.007319 -454848.000000 0 0 1
-34.186786 -11.420650 22.337817 42.404547 0.322410 1.015990 0.070842 -0.014289 34387.100000 0 0 1
-34.068422 -10.212050 21.663817 41.644499 0.291229 1.023701 0.096114 -0.019891 122791.000000 0 0 1
-32.716384 -9.782650 21.604217 40.407972 0.290552 1.006700 0.109281 -0.025280 176780.000000 0 0 1
-32.515194 -8.515250 20.690217 39.469386 0.256133 1.019010 0.127449 -0.024757 90549.800000 0 0 1
-32.833184 -8.707450 19.296417 39.066474 0.259235 1.054183 0.122264 -0.023684 500684.000000 0 0 1
-34.222044 -8.734950 18.978617 40.095331 0.249907 1.077721 0.095725 -0.027818 220555.000000 0 0 1
-34.434780 -8.677450 17.437117 39.561411 0.246857 1.114350 0.098591 -0.033784 -14543.100000 0 0 1
-35.811548 -8.566950 17.120717 40.607617 0.234810 1.135572 0.048257 -0.033584 77081.100000 0 0 1
-36.127094 -8.382650 15.757617 40.295635 0.227998 1.169024 0.073195 -0.032670 758582.000000 0 0 1
36.772585 -8.400450 15.631917 40.830717 -0.224589 1.177920 0.069627 -0.033871 911851.000000 0 0 1
36.069225 -9.602550 15.978917 40.602017 -0.260191 1.166306 0.068270 -0.021518 -181095.000000 0 0 1
34.687675 -9.421550 15.813017 39.268969 -0.265213 1.156348 0.071511 -0.021223 -190962.000000 0 0 1
33.869945 -10.720650 15.739317 38.856552 -0.306547 1.153750 0.076563 -0.023390 -42510.400000 0 0 1
33.684815 -11.353150 16.960217 39.385400 -0.325083 1.125615 0.066723 -0.027352 -190473.000000 0 0 1
32.484645 -12.089550 16.917117 38.569395 -0.356280 1.116739 0.079639 -0.033904 61916.100000 0 0 1
32.091245 -12.679150 18.274917 39.045889 -0.376272 1.083728 0.073012 -0.029000 583715.000000 0 0 1
33.107735 -13.575250 18.800217 40.421006 -0.389125 1.087037 0.081557 -0.022157 485188.000000 0 0 1
32.924405 -13.893350 20.172717 41.036327 -0.399308 1.056891 0.079181 -0.016743 46931.600000 0 0 1
33.881805 -15.017150 20.689917 42.444837 -0.417203 1.061625 0.081134 -0.010963 216221.000000 0 0 1
33.878985 -15.043050 22.130317 43.172097 -0.417872 1.032578 0.079511 -0.011192 -257355.000000 0 0 1
34.423145 -16.275450 22.574617 44.265749 -0.441656 1.035636 0.081604 -0.004302 -84903.200000 0 0 1
34.797315 -16.245350 24.028677 45.300573 -0.436783 1.011691 0.086948 -0.009052 -180846.000000 0 0 1
36.061425 -15.660050 24.187677 46.159585 -0.409688 1.019254 0.090798 0.003615 -255986.000000 0 0 1
36.284055 -15.012050 25.417807 46.775626 -0.392292 0.996316 0.083567 0.006485 -53917.400000 0 0 1
-36.953324 -14.069550 25.413907 47.003905 0.363792 0.999555 0.075624 0.002303 -499360.000000 0 0 1
-35.712386 -14.662050 25.244397 46.126238 0.389576 0.991674 0.043956 0.010367 -698536.000000 0 0 1
-34.723650 -13.942150 25.919267 45.518390 0.381814 0.964991 0.046526 0.001026 1075420.000000 0 0 1
-33.237914 -14.479850 25.844907 44.523973 0.410850 0.951488 0.050185 -0.008094 956506.000000 0 0 1
-32.644354 -14.453650 24.554837 43.330150 0.416818 0.968311 0.046839 0.001132 1611740.000000 0 0 1
-31.205724 -14.674250 24.453387 42.274093 0.439559 0.953971 0.057205 -0.014844 1660950.000000 0 0 1
-30.682004 -16.072250 24.754027 42.573048 0.482532 0.950289 0.058879 -0.005986 -744143.000000 0 0 1
-30.630974 -16.385550 26.155777 43.484106 0.491203 0.925416 0.059163 -0.015693 202216.000000 0 0 1
-30.516214 -17.741850 26.444937 44.106091 0.526624 0.927826 0.055606 -0.021812 -361388.000000 0 0 1
-30.255144 -18.031650 27.990227 44.988520 0.537463 0.899293 0.067167 -0.031564 -26953.800000 0 0 1
-29.042854 -17.409350 28.347237 44.160374 0.540005 0.873802 0.063625 -0.030531 -198002.000000 0 0 1
-28.657544 -17.630450 29.699817 44.879469 0.551529 0.847621 0.080595 -0.041318 -156933.000000 0 0 1
-27.347764 -16.920850 30.037757 44.005479 0.554077 0.819494 0.079620 -0.041859 -318978.000000 0 0 1
-27.551224 -15.550750 30.206537 43.741635 0.513855 0.808523 0.101970 -0.049513 272154.000000 0 0 1
-26.269814 -14.954550 30.229717 42.750175 0.517515 0.785372 0.080110 -0.043871 -856785.000000 0 0 1
-26.281644 -13.580350 30.917277 42.790522 0.476937 0.763347 0.089663 -0.041494 -455522.000000 0 0 1
-25.778804 -13.615450 32.213076 43.446628 0.485925 0.735582 0.094044 -0.040857 200884.000000 0 0 1
-25.407914 -12.331450 32.719961 43.222941 0.451850 0.712080 0.089526 -0.029873 -113693.000000 0 0 1
-24.673094 -12.428750 -33.764716 43.626728 0.466633 2.455845 0.101407 -0.028269 709650.000000 0 0 1
-23.301994 -12.854250 -33.856956 43.064000 0.504099 2.475433 0.058436 -0.021593 819731.000000 0 0 1
-22.984394 -14.211350 -33.566156 43.092129 0.553770 2.463769 0.063005 -0.029564 -15021.600000 0 0 1
-23.113694 -14.740850 -32.119166 42.227672 0.567718 2.435062 0.070699 -0.027388 77635.600000 0 0 1
-22.000594 -14.262350 -31.355876 40.873362 0.575159 2.445178 0.050869 -0.016495 508728.000000 0 0 1
-21.787194 -15.191850 -30.280896 40.279111 0.608900 2.421549 0.071503 -0.024721 -227280.000000 0 0 1
-20.480394 -14.915750 -29.521026 38.902662 0.629464 2.432332 0.076295 -0.024663 -122054.000000 0 0 1
-20.415094 -13.733950 -28.802206 37.880925 0.592192 2.434626 0.066878 -0.029895 -64386.500000 0 0 1
-21.040294 -13.742750 -27.552816 37.292289 0.578596 2.402135 0.073657 -0.023981 -195344.000000 0 0 1
-20.645194 -12.476150 -26.759416 36.026999 0.543584 2.407980 0.072384 -0.024139 -312292.000000 0 0 1
-19.354094 -12.684250 -26.239356 34.985353 0.580147 2.418873 0.074079 -0.035388 -419256.000000 0 0 1
-18.882694 -11.465750 -25.675126 33.870808 0.545704 2.431085 0.074098 -0.039003 -105156.000000 0 0 1
-17.463394 -11.790950 -25.179596 32.833042 0.593874 2.444790 0.089886 -0.046262 -810598.000000 0 0 1
-17.423194 -12.576350 -23.996466 32.211219 0.625218 2.411290 0.096992 -0.042517 -144031.000000 0 0 1
-16.220194 -12.583450 -23.258066 31.022178 0.659803 2.418441 0.102108 -0.041071 -170649.000000 0 0 1
-15.071494 -13.459450 -23.771666 31.199340 0.728957 2.437082 0.090315 -0.032804 -560194.000000 0 0 1
-14.384294 -12.814450 -24.817066 31.416632 0.727745 2.481498 0.097961 -0.046805 -291974.000000 0 0 1
-13.703294 -13.781750 -25.579856 32.125471 0.788253 2.491865 0.087212 -0.045239 -481136.000000 0 0 1
-12.698394 -13.161850 -26.574396 32.259603 0.803318 2.538820 0.076249 -0.040105 14801.400000 0 0 1
-13.276794 -12.320950 -27.601366 33.013852 0.748075 2.560848 0.100211 -0.048292 325096.000000 0 0 1
-12.303794 -11.667050 -28.432356 33.104414 0.758841 2.603854 0.098788 -0.044164 334576.000000 0 0 1
-12.995594 -10.625850 -29.278396 33.749349 0.685411 2.621000 0.061111 -0.036483 571855.000000 0 0 1
-12.053594 -9.795050 -30.009716 33.790755 0.682392 2.664001 0.063856 -0.029512 529729.000000 0 0 1
-11.876894 -10.167250 -31.379846 35.058926 0.707998 2.679362 0.063653 -0.017801 346866.000000 0 0 1
-11.132594 -9.000550 -32.127206 35.172459 0.679894 2.722404 0.053386 -0.016717 1303240.000000 0 0 1
-9.849594 -8.582350 -31.620786 34.213233 0.716754 2.749802 0.042247 -0.015081 524773.000000 0 0 1
-9.379094 -7.373950 -32.127696 34.271437 0.666276 2.786023 0.041936 -0.018379 -838542.000000 0 0 1
-7.898694 -7.165850 -31.865706 33.603005 0.736790 2.818630 0.048362 -0.014429 -654569.000000 0 0 1
-7.385594 -6.940850 -30.538396 32.176327 0.754365 2.821147 0.037594 -0.010205 -25721.600000 0 0 1
-7.739494 -5.716950 -29.902476 31.412439 0.636212 2.830276 0.041199 -0.012950 -346819.000000 0 0 1
-6.801594 -4.533950 -30.275816 31.359901 0.587957 2.877888 0.032637 -0.015213 594719.000000 0 0 1
-5.431594 -4.619550 -29.868846 30.708149 0.704782 2.907255 0.053217 -0.020160 350882.000000 0 0 1
-4.822794 -3.408950 -30.343656 30.913067 0.615303 2.949361 0.064522 -0.030509 698261.000000 0 0 1
-3.291194 -3.318550 -30.050106 30.411405 0.789537 2.987294 0.060445 -0.019251 394681.000000 0 0 1
-2.428294 -4.016150 -30.924906 31.279000 1.026978 2.990981 0.076707 -0.026597 -27201.700000 0 0 1
-1.049594 -3.826750 -30.724446 30.979626 1.303101 3.013153 0.086205 -0.023399 195149.000000 0 0 1
-0.432994 -2.525450 -31.337646 31.442223 1.400995 3.060010 0.089312 -0.022773 150904.000000 0 0 1
0.952706 -2.295550 -31.033966 31.133330 -1.177406 3.061677 0.094372 -0.014269 750459.000000 0 0 1
1.444106 -1.023950 -31.404236 31.454092 -0.616777 3.085281 0.042435 -0.015111 -66488.100000 0 0 1
1.402906 0.029350 -30.310796 30.343258 0.020918 3.095332 0.045694 -0.023137 -676484.000000 0 0 1
0.134906 0.290350 -29.800086 29.801805 1.135841 3.130849 0.074129 -0.022552 -935226.000000 0 0 1
0.174206 1.271550 -28.780406 28.809008 1.434641 3.097028 0.090787 -0.040865 513106.000000 0 0 1
-1.182294 1.924350 -28.363596 28.453374 -1.019866 3.062133 0.082226 -0.035523 342117.000000 0 0 1
-1.678594 2.923150 -29.260116 29.453639 -1.049532 3.026896 0.064526 -0.045576 -92305.500000 0 0 1
-2.161794 4.062250 -28.617686 28.985292 -1.081748 2.982160 0.115781 -0.041400 -462124.000000 0 0 1
-3.456394 4.592850 -29.227146 29.787027 -0.925659 2.947400 0.138798 -0.041246 -674960.000000 0 0 1
-3.346594 5.159450 -30.503226 31.116979 -0.995382 2.942649 0.132596 -0.042407 -830461.000000 0 0 1
-4.527594 5.635250 -31.051166 31.881500 -0.893960 2.912865 0.138458 -0.032961 -999093.000000 0 0 1
-4.408994 6.124950 -32.520226 33.384417 -0.946878 2.913564 0.135303 -0.032260 -131224.000000 0 0 1
-4.142994 5.217250 -33.603906 34.257942 -0.899666 2.945876 0.154394 -0.036722 -27754.800000 0 0 1
-2.848594 4.662950 -33.583376 34.025001 -1.022401 2.980300 0.144177 -0.035679 -387325.000000 0 0 1
-2.529494 3.865950 33.007174 33.328928 -0.991404 0.139065 0.134412 -0.033965 18083.200000 0 0 1
-3.422294 2.762350 32.742933 33.036984 -0.679094 0.133521 0.123394 -0.035747 227217.000000 0 0 1
-3.312894 2.048550 31.480497 31.720554 -0.553808 0.123105 0.128760 -0.027002 -179003.000000 0 0 1
-3.177094 2.840350 30.180877 30.480270 -0.729495 0.140276 0.126749 -0.023611 -227833.000000 0 0 1
-4.263494 3.698150 29.950867 30.477994 -0.714509 0.186255 0.095673 -0.022200 -202218.000000 0 0 1
-4.040194 4.623950 28.904797 29.549812 -0.852673 0.209322 0.093884 -0.027003 113895.000000 0 0 1
-5.256494 5.562850 28.700107 29.703067 -0.813706 0.260607 0.095510 -0.019908 301518.000000 0 0 1
-5.144094 6.379650 27.559077 28.751772 -0.892208 0.289041 0.090650 -0.015428 44283.000000 0 0 1
-6.399194 7.020950 27.417697 29.016780 -0.831695 0.333535 0.081724 -0.009739 -370440.000000 0 0 1
-6.462294 7.707450 26.091527 27.963080 -0.873047 0.367939 0.082616 -0.016406 105774.000000 0 0 1
-5.673894 8.920950 25.969337 28.038953 -1.004312 0.386623 0.107334 -0.024286 340523.000000 0 0 1
-5.630694 9.544350 24.696897 27.069098 -1.037799 0.421772 0.095710 -0.027041 595612.000000 0 0 1
-4.560794 10.728650 24.718517 27.329652 -1.168837 0.440689 0.091703 -0.026908 125270.000000 0 0 1
-4.488894 11.568050 23.576347 26.642337 -1.200641 0.484473 0.091938 -0.031077 -49979.300000 0 0 1
-4.008994 12.807050 23.858727 27.373919 -1.267428 0.512368 0.093177 -0.023886 71511.700000 0 0 1
-2.459994 13.016250 23.996307 27.409799 -1.384005 0.504400 0.077190 -0.016363 335537.000000 0 0 1
-1.801694 12.385750 25.087517 28.036341 -1.426344 0.462765 0.080487 -0.015585 -88295.300000 0 0 1
-2.013194 13.038950 26.322657 29.444005 -1.417608 0.464623 0.097443 -0.017425 -631452.000000 0 0 1
-1.227794 12.526950 27.539767 30.279873 -1.473096 0.428699 0.090451 -0.019598 1575020.000000 0 0 1
0.199206 12.820350 27.464767 30.310304 1.555259 0.436777 0.089503 -0.018363 1130880.000000 0 0 1
0.882406 12.214650 28.561627 31.076404 1.498680 0.405063 0.077672 -0.029384 -467480.000000 0 0 1
2.384706 12.247050 28.339357 30.964435 1.378486 0.414736 0.089951 -0.023036 -575752.000000 0 0 1
2.972206 13.496250 28.581877 31.747543 1.354032 0.450370 0.091923 -0.023694 190544.000000 0 0 1
4.393006 13.407050 28.469187 31.773293 1.254157 0.460096 0.089406 -0.020457 631088.000000 0 0 1
5.098906 14.787450 28.615497 32.611566 1.238750 0.500246 0.093455 -0.025892 -145776.000000 0 0 1
5.016406 15.356650 29.949617 34.028967 1.255064 0.494679 0.103138 -0.017583 423055.000000 0 0 1
3.963106 16.318450 30.125957 34.490163 1.332548 0.508522 0.084714 -0.013923 321061.000000 0 0 1
4.184006 17.666650 29.462127 34.606840 1.338250 0.552265 0.092938 -0.013173 -587089.000000 0 0 1
5.184706 18.420550 30.039657 35.617115 1.296431 0.567207 0.122260 -0.009388 -513831.000000 0 0 1
5.393606 19.573950 29.267847 35.620744 1.301919 0.606493 0.098413 -0.011600 -540158.000000 0 0 1
6.453006 20.507350 29.782877 36.731628 1.265938 0.625238 0.095493 -0.011948 -707743.000000 0 0 1
6.128406 21.264950 30.962277 38.058088 1.290207 0.620560 0.093834 -0.025804 -259766.000000 0 0 1
7.138006 22.135550 31.393197 39.070021 1.258856 0.637626 0.085883 -0.024253 -374393.000000 0 0 1
7.227706 23.505950 30.625577 39.277161 1.272488 0.676562 0.087007 -0.019028 -173193.000000 0 0 1
7.798006 23.509150 29.330137 38.389399 1.250516 0.701281 0.063134 -0.017237 365680.000000 0 0 1
8.077906 24.832350 28.839557 38.905247 1.256295 0.735826 0.073443 -0.025533 83428.600000 0 0 1
8.695806 24.866050 27.430847 38.031420 1.234383 0.765165 0.081685 -0.025271 -317035.000000 0 0 1
7.766106 24.442750 26.473227 36.859086 1.263157 0.769544 0.069632 -0.020575 251299.000000 0 0 1
8.315106 24.540350 25.180987 36.131038 1.244103 0.799682 0.077814 -0.021100 -215209.000000 0 0 1
28.324865 2.583250 7.382034 29.384785 0.090949 1.316856 0.157127 -0.007944 -169919.000000 0 0 1
29.104465 3.549850 8.077334 30.412410 0.121370 1.301977 0.152865 -0.018934 363821.000000 0 0 1
28.968065 3.532550 9.493334 30.687964 0.121347 1.256286 0.155587 -0.011485 -279407.000000 0 0 1
29.726315 4.661850 10.253834 31.788800 0.155559 1.242362 0.149133 -0.018137 102196.000000 0 0 1
29.213065 5.970250 10.032634 31.459511 0.201593 1.246221 0.142809 -0.019030 306313.000000 0 0 1
29.938945 6.597150 8.968534 31.942095 0.216887 1.286195 0.138517 -0.031387 -115347.000000 0 0 1
29.621765 8.015150 8.640534 31.880252 0.264255 1.296332 0.149195 -0.036068 -654686.000000 0 0 1
28.511365 8.158150 7.834334 30.672955 0.278690 1.312519 0.149332 -0.032763 -693259.000000 0 0 1
28.627565 9.328550 7.007034 30.913717 0.315009 1.342145 0.154515 -0.056248 -292940.000000 0 0 1
27.585665 9.551850 5.897334 29.782299 0.333340 1.371464 0.143612 -0.042704 367564.000000 0 0 1
26.348165 10.025350 6.441434 28.917565 0.363580 1.346160 0.134928 -0.037154 877404.000000 0 0 1
25.282065 9.801550 5.487434 27.665234 0.369848 1.371121 0.150204 -0.037587 -124819.000000 0 0 1
23.925265 10.275350 5.924534 26.703956 0.405657 1.347075 0.100836 -0.029105 -871638.000000 0 0 1
23.931265 11.709250 6.127134 27.337772 0.455040 1.344749 0.107391 -0.026176 335191.000000 0 0 1
22.608465 12.148150 6.385434 26.447950 0.493062 1.326953 0.104216 -0.016530 209310.000000 0 0 1
22.491565 13.723450 6.520534 27.142604 0.547857 1.328191 0.091991 -0.011462 -37869.100000 0 0 1
22.371565 14.394650 5.269834 27.119440 0.571746 1.375233 0.096950 -0.018596 266223.000000 0 0 1
22.580365 15.775450 5.397234 28.068984 0.609810 1.377307 0.114453 -0.022193 -225440.000000 0 0 1
22.128165 16.622550 4.215934 27.995339 0.644265 1.419627 0.113000 -0.031918 -538775.000000 0 0 1
20.747265 16.656650 3.998134 26.904983 0.676468 1.421642 0.124555 -0.021041 -95108.900000 0 0 1
20.319165 17.697350 3.144834 27.128485 0.716542 1.454611 0.124891 -0.025362 -527611.000000 0 0 1
18.827965 17.719950 2.863134 26.013198 0.755091 1.460508 0.104423 -0.019509 16709.100000 0 0 1
17.928065 18.160150 3.905634 25.815898 0.791829 1.418925 0.100163 -0.027344 869261.000000 0 0 1
16.565165 18.099550 3.559234 24.792470 0.829633 1.426737 0.075362 -0.032794 -261159.000000 0 1 0
15.654965 19.165950 4.143434 25.091426 0.885888 1.404903 0.100120 -0.036584 -239730.000000 0 0 1
14.357465 18.735050 4.499434 24.028813 0.916918 1.382433 0.103046 -0.042858 159562.000000 0 1 0
13.496065 19.851850 4.453734 24.414657 0.973730 1.387349 0.080898 -0.042589 10892.900000 0 1 0
11.974465 19.622650 4.378634 23.401040 1.022884 1.382574 0.064723 -0.037307 115826.000000 0 1 0
11.434465 19.078750 5.578734 22.931812 1.030870 1.325056 0.046039 -0.037495 248184.000000 0 1 0
10.017865 19.099550 5.503134 22.258368 1.087735 1.320967 0.036115 -0.027598 504177.000000 0 1 0
9.198865 18.595850 6.718034 21.807264 1.111419 1.257639 0.023510 -0.019810 -244051.000000 0 1 0
9.283565 19.468750 7.807934 22.938628 1.125844 1.223471 0.037982 -0.027360 -26104.700000 0 1 0
8.609465 18.976350 8.950534 22.678995 1.144874 1.165097 0.037468 -0.017896 600038.000000 0 1 0
7.264465 19.722050 9.300134 22.983129 1.217875 1.154200 0.045388 -0.024452 1215760.000000 0 1 0
6.253865 19.773450 8.294434 22.336020 1.264475 1.190336 0.034754 -0.035851 103847.000000 0 1 0
6.316965 21.008150 7.587134 23.212304 1.278706 1.237819 0.031676 -0.025224 484764.000000 0 1 0
5.052065 21.245850 6.625634 22.821230 1.337341 1.276227 0.008297 -0.009957 1230350.000000 0 1 0
3.844165 21.649550 7.268734 23.158479 1.395065 1.251531 0.004884 -0.003552 98053.500000 0 1 0
3.808065 22.863150 8.043734 24.534194 1.405752 1.236761 0.016407 -0.012738 -892362.000000 0 1 0
3.722565 24.161750 7.259134 25.501818 1.417930 1.282153 0.022990 -0.008867 126848.000000 0 0 1
2.526265 24.390250 6.525334 25.374127 1.467588 1.310709 0.000848 -0.006237 190765.000000 0 0 1
2.774665 25.130150 5.366434 25.846118 1.460830 1.361645 0.023815 -0.006880 -42200.900000 0 0 1
1.579865 25.335050 4.360034 25.755983 1.508518 1.400695 0.032526 -0.009005 -169384.000000 0 0 1
0.606865 26.041650 5.072434 26.538000 1.547497 1.378474 0.039444 -0.015856 -1376680.000000 0 0 1
-0.504835 26.121750 4.257634 26.471270 -1.551473 1.409255 0.050708 -0.019489 -941597.000000 0 0 1
-1.696735 26.764750 4.971734 27.275427 -1.507487 1.387493 0.062657 -0.022596 -385010.000000 0 0 1
-2.826035 26.971250 4.156934 27.435650 -1.466398 1.418695 0.097681 -0.028642 -335339.000000 0 0 1
-3.769735 27.655050 4.966034 28.349148 -1.435319 1.394714 0.093374 -0.029425 267245.000000 0 0 1
-4.953435 28.150350 4.052234 28.868657 -1.396616 1.429963 0.104445 -0.033354 491276.000000 0 0 1
-4.509135 29.288950 3.312934 29.818626 -1.418042 1.459464 0.108276 -0.028313 222204.000000 0 0 1
-5.450535 29.636450 2.336434 30.223938 -1.388916 1.493415 0.121445 -0.037997 -390476.000000 0 0 1
-4.780235 30.476350 1.223034 30.873198 -1.415213 1.531171 0.119241 -0.028980 31943.000000 0 0 1
-4.409035 31.810650 1.578534 32.153520 -1.433071 1.521683 0.119085 -0.022581 225718.000000 0 0 1
-3.118035 31.782350 2.167834 32.008428 -1.473003 1.503017 0.125930 -0.032936 -230728.000000 0 0 1
-2.339435 33.103550 1.848334 33.237544 -1.500243 1.515158 0.128975 -0.039694 -371074.000000 0 0 1
-1.530335 33.111950 0.659534 33.153856 -1.524612 1.550902 0.125785 -0.028354 641694.000000 0 0 1
-0.707535 -33.712548 0.435134 33.722780 1.549812 1.557893 0.113679 -0.030891 1052520.000000 0 0 1
0.561965 -33.679548 1.378534 33.712433 -1.554112 1.529894 0.094286 -0.022762 -268694.000000 0 0 1
0.338765 -33.675748 2.807734 33.794292 -1.560737 1.487617 0.094802 -0.029936 -162741.000000 0 0 1
1.479265 33.952250 3.565734 34.171011 1.527255 1.466256 0.065750 -0.022723 63883.700000 0 0 1
1.251665 -33.805948 5.066834 34.206456 -1.533788 1.422124 0.059087 -0.025427 157375.000000 0 0 1
0.278665 33.332950 5.663134 33.811748 1.562436 1.402513 0.077436 -0.035079 59270.600000 0 0 1
-0.076135 33.718750 7.001834 34.438142 -1.568538 1.366053 0.090868 -0.032009 76666.000000 0 0 1
1.046765 33.678950 8.059134 34.645592 1.539726 1.336029 0.072102 -0.020931 -232903.000000 0 0 1
1.262665 32.316350 8.464634 33.430388 1.531744 1.314808 0.066943 -0.027031 -910932.000000 0 0 1
2.336365 32.220850 9.286034 33.613572 1.498412 1.290897 0.073326 -0.020508 -1298310.000000 0 0 1
3.024565 30.835550 9.450934 32.392890 1.473022 1.274730 0.057728 -0.024102 235262.000000 0 0 1
2.152865 29.846450 10.022234 31.557735 1.498790 1.247616 0.078342 -0.029578 260942.000000 0 0 1
2.731665 28.571750 10.141534 30.441052 1.475479 1.231150 0.053361 -0.026615 -586116.000000 0 0 1
2.325165 27.738050 11.299434 30.041356 1.487166 1.185181 0.053547 -0.032177 -843490.000000 0 0 1
2.781965 28.201050 12.561534 30.997269 1.472467 1.153548 0.064553 -0.029279 -198159.000000 0 0 1
2.669665 27.237050 13.588134 30.555219 1.473092 1.109949 0.070553 -0.031355 -602608.000000 0 0 1
1.280265 26.838950 14.155634 30.370221 1.523131 1.085916 0.060368 -0.030203 390744.000000 0 0 1
0.520065 28.005150 14.592234 31.583100 1.552228 1.090517 0.070451 -0.030382 425491.000000 0 0 1
-0.117335 28.799750 13.606934 31.852599 -1.566722 1.129420 0.084486 -0.029397 -1020810.000000 0 0 1
-0.912935 29.968550 14.154734 33.155753 -1.540343 1.129716 0.082613 -0.022824 -305415.000000 0 0 1
-2.103535 29.568250 14.782934 33.124635 -1.499774 1.108190 0.059006 -0.018748 -273844.000000 0 0 1
-2.822835 30.749850 15.110334 34.377957 -1.479253 1.115715 0.060228 -0.013950 -910960.000000 0 0 1
-4.108335 30.543550 15.853934 34.657382 -1.437091 1.095674 0.050526 0.000609 -425043.000000 0 0 1
-5.023935 29.677450 15.153834 33.699105 -1.403102 1.104389 0.053606 -0.012697 188208.000000 0 0 1
-6.245535 29.633550 15.837434 34.175698 -1.363077 1.088954 0.052801 -0.002703 -5436.090000 0 0 1
-7.381635 28.746750 15.236934 33.362080 -1.319445 1.096498 0.047681 -0.010306 1548540.000000 0 0 1
-8.650935 28.826450 15.946534 34.060165 -1.279244 1.083558 0.046643 -0.009572 1111680.000000 0 0 1
-9.708035 28.281650 15.180134 33.534075 -1.240136 1.101030 0.050417 -0.013671 284047.000000 0 0 1
-10.861235 27.760750 16.079034 33.869766 -1.197861 1.076138 0.043082 -0.006630 274281.000000 0 0 1
-11.715835 28.756250 16.674034 35.244945 -1.183911 1.078001 0.047841 -0.015220 588821.000000 0 0 1
-11.275635 29.136450 17.929434 36.021345 -1.201552 1.049800 0.061452 -0.021537 -587736.000000 0 0 1
-12.052235 30.316350 18.433834 37.471906 -1.192405 1.056483 0.071863 -0.020571 -695882.000000 0 0 1
-13.218535 29.976150 19.144234 37.944709 -1.155478 1.041959 0.076669 -0.023963 -219470.000000 0 0 1
-13.834035 31.276550 19.257734 39.248738 -1.154353 1.057951 0.084553 -0.029785 5307.410000 0 0 1
-15.117935 31.236050 20.110234 40.108158 -1.120039 1.045580 0.093739 -0.031679 374514.000000 0 0 1
-14.713435 30.904950 21.444134 40.391237 -1.126462 1.011122 0.105216 -0.033722 215809.000000 0 0 1
-15.884935 30.836450 22.206234 41.186584 -1.095114 1.001355 0.091322 -0.030017 -113248.000000 0 0 1
-15.563935 30.874750 23.668634 41.900961 -1.103875 0.970520 0.105335 -0.020489 -308751.000000 0 0 1
-14.777635 29.704350 23.911534 40.896068 -1.109158 0.946298 0.090472 -0.029221 692135.000000 0 0 1
-14.236435 29.479650 25.231134 41.332021 -1.120902 0.914168 0.106922 -0.030379 582814.000000 0 0 1
-13.414735 30.571250 25.997934 42.313698 -1.157293 0.909159 0.109759 -0.028202 102190.000000 0 0 1
-14.319035 31.547250 26.497834 43.616499 -1.144711 0.917863 0.112697 -0.027307 675892.000000 0 0 1
-13.666935 32.653550 27.062534 44.558054 -1.174407 0.918070 0.120066 -0.025832 -487231.000000 0 0 1
-14.710635 33.586650 27.681734 45.942837 -1.157974 0.924134 0.121048 -0.027490 228412.000000 0 0 1
-15.575435 33.058050 28.706034 46.470047 -1.130491 0.904941 0.097840 -0.025117 489654.000000 0 0 1
-14.968635 32.784950 29.950134 46.860682 -1.142492 0.877428 0.112760 -0.022518 -363610.000000 0 0 1
-15.918535 32.051850 30.918534 47.293516 -1.109833 0.858256 0.099103 -0.018766 -431530.000000 0 0 1
-16.957335 32.871050 31.346034 48.483307 -1.094530 0.867766 0.093091 -0.018438 -460804.000000 0 0 1
-17.805035 32.140850 32.250934 48.889429 -1.064911 0.850416 0.072132 -0.012443 77273.600000 0 0 1
-19.211835 32.744550 32.276834 49.830655 -1.040200 0.866195 0.071975 -0.006423 -344558.000000 0 0 1
-19.223935 -33.938448 32.763534 50.939446 1.055422 0.872145 0.084331 -0.008986 -120330.000000 0 0 1
-20.564835 -33.499548 32.879934 51.246680 1.020231 0.874212 0.072566 -0.005395 176695.000000 0 0 1
-20.728335 -31.999248 33.379334 50.673422 0.995986 0.851687 0.084802 -0.006928 -65819.400000 0 0 1
-20.386735 -31.580748 -33.185548 50.142230 0.997561 2.294051 0.079765 -0.008226 5517.200000 0 0 1
-21.294135 -32.045848 -32.190948 50.166061 0.984302 2.267493 0.065418 -0.003754 440778.000000 0 0 1
-20.930435 -31.279848 -30.851048 48.665174 0.981087 2.257440 0.081294 -0.008821 281727.000000 0 0 1
-21.070835 -29.884248 -30.919848 47.886171 0.956668 2.272729 0.105846 -0.010477 -72144.800000 0 0 1
-20.579835 -29.268948 -29.780248 46.551736 0.957974 2.264935 0.109623 -0.017012 -14686.300000 0 0 1
-20.770335 -27.725348 -29.817848 45.707831 0.927842 2.281487 0.098386 -0.024338 41288.900000 0 0 1
-22.105835 -27.389148 -29.523348 45.939759 0.891740 2.268753 0.103799 -0.024158 -92314.100000 0 0 1
-22.299035 -25.973148 -29.610948 45.262121 0.861364 2.283934 0.091709 -0.024123 -332879.000000 0 0 1
-23.485635 -25.536048 -28.776248 45.074796 0.827200 2.263228 0.092250 -0.022228 -486601.000000 0 0 1
-23.324835 -25.750748 -27.376448 44.233685 0.834790 2.238144 0.094819 -0.024473 18727.600000 0 0 1
-22.452835 -24.854048 -26.728048 42.851395 0.836113 2.244312 0.098438 -0.033547 -39346.300000 0 0 1
-22.299135 -25.322148 -25.289448 42.166560 0.848793 2.213987 0.090071 -0.026818 333532.000000 0 0 1
-23.526535 -25.133448 -24.594948 42.309568 0.818409 2.191133 0.086080 -0.024931 468852.000000 0 0 1
-23.490835 -25.720748 -23.336348 41.928050 0.830680 2.161061 0.081923 -0.020842 -1136370.000000 0 0 1
-24.756535 -25.371448 -22.586448 42.032654 0.797664 2.138094 0.073465 -0.017041 1256230.000000 0 0 1
-26.053035 -25.904248 -23.013248 43.352051 0.782535 2.130394 0.092566 -0.017320 1414820.000000 0 0 1
-26.149835 -27.297048 -22.929048 44.211808 0.806859 2.116030 0.080352 -0.012551 -1324080.000000 0 0 1
-27.567235 -27.845748 -23.084548 45.477846 0.790424 2.103193 0.057961 -0.009927 -134686.000000 0 0 1
-28.349035 -27.709148 -21.912248 45.294716 0.773984 2.075754 0.061213 -0.005608 -420885.000000 0 0 1
-29.524435 -26.992448 -22.152748 45.727768 0.740628 2.076529 0.051239 -0.003252 -29169.100000 0 0 1
-30.310435 -26.583048 -20.859148 45.392565 0.719976 2.048260 0.060564 -0.004066 120267.000000 0 0 1
-30.989535 -27.589548 -20.159948 46.129795 0.727422 2.023087 0.064014 0.001828 -120482.000000 0 0 1
-31.417135 -27.222348 -18.915748 45.671634 0.713985 1.997825 0.068615 0.012525 -857211.000000 0 0 1
-32.477635 -28.095948 -18.255148 46.662935 0.713187 1.972746 0.049308 0.009794 813212.000000 0 0 1
-33.829035 -28.104848 -18.757248 47.813392 0.693236 1.973928 0.045460 0.009110 1600790.000000 0 0 1
-34.640635 -26.909948 -18.746348 47.702667 0.660454 1.974670 0.034850 0.012438 47584.100000 0 0 1
-35.225535 -26.390948 -17.395448 47.327815 0.642989 1.947172 0.037295 0.010748 -460188.000000 0 0 1
-34.306035 -25.787448 -16.496748 45.978682 0.644581 1.937769 0.032639 0.012785 48614.500000 0 0 1
-34.845035 -25.237648 -15.302348 45.664835 0.626838 1.912509 0.031371 0.011526 -268056.000000 0 0 1
-34.633935 -26.049348 -13.985248 45.537514 0.644865 1.882956 0.048986 0.011382 -114681.000000 0 0 1
-35.303935 -27.284148 -13.903748 46.734428 0.657957 1.872875 0.052445 0.010688 239499.000000 0 0 1
-34.948135 -27.904448 -12.698648 46.489633 0.673797 1.847462 0.039713 0.001207 -423560.000000 0 0 1
-35.658935 -29.241548 -12.509348 47.781917 0.686838 1.835684 0.045779 -0.000874 -358963.000000 0 0 1
-35.258135 -30.292648 -13.442648 48.388897 0.709792 1.852304 0.042095 0.004448 124689.000000 0 0 1
-35.955535 -31.509848 -13.305848 49.625766 0.719597 1.842241 0.034274 0.003131 -166211.000000 0 0 1
-35.333135 -32.536948 -14.266448 50.106037 0.744222 1.859516 0.036349 0.014628 1051540.000000 0 0 1
-34.017635 -33.047448 -13.909448 49.424751 0.770933 1.856077 0.036472 0.007842 1337700.000000 0 0 1
-33.476735 -33.851248 -14.979648 49.909805 0.790961 1.875630 0.069837 -0.016484 -20855.300000 0 0 1
-32.053035 33.587750 -14.842548 48.742540 -0.808774 1.880219 0.066824 -0.015170 -134612.000000 0 0 1
-31.600835 33.137350 -16.116948 48.543308 -0.809128 1.909232 0.093256 -0.018698 313591.000000 0 0 1
-30.248935 32.674850 -16.037448 47.326986 -0.823932 1.916506 0.087235 -0.020835 405231.000000 0 0 1
9.777606 19.684550 -9.886466 24.100317 1.109780 1.993493 0.056038 -0.019528 -562226.000000 0 1 0
8.378906 19.645150 -9.624066 23.425641 1.167645 1.994166 0.041921 -0.016877 456701.000000 0 1 0
7.602706 19.515250 -10.806366 23.567428 1.199307 2.047136 0.044109 -0.024215 198035.000000 0 1 0
7.742706 18.196450 -11.613566 22.933277 1.168497 2.101809 0.042875 -0.016557 -699366.000000 0 1 0
9.042006 17.966550 -12.132066 23.489185 1.104537 2.113550 0.076293 -0.025224 -12510.100000 0 1 0
8.937406 16.831850 -12.970466 23.052579 1.082672 2.168381 0.077030 -0.032260 -381995.000000 0 1 0
10.212906 16.448650 -13.710966 23.724505 1.015153 2.186979 0.099929 -0.028331 7362.710000 0 1 0
9.895906 15.375950 -14.560466 23.374259 0.998936 2.243276 0.104894 -0.034524 1287550.000000 0 1 0
11.149306 14.977350 -15.182966 24.065546 0.930882 2.253510 0.134996 -0.041794 935470.000000 0 1 0
11.256606 13.501750 -15.664766 23.545558 0.875833 2.298687 0.128100 -0.048608 -706188.000000 0 1 0
11.328906 12.526850 -14.626566 22.342840 0.835572 2.284505 0.127440 -0.046789 163115.000000 0 1 0
12.591806 12.243150 -14.040466 22.485173 0.771360 2.245201 0.155402 -0.044824 -15891.500000 0 1 0
13.613506 11.512950 -14.920666 23.248695 0.701993 2.267620 0.174262 -0.046494 -49750.600000 0 1 0
14.235706 12.399550 -15.916666 24.693003 0.716570 2.271273 0.150952 -0.041166 329436.000000 0 1 0
15.125906 11.755550 -16.787466 25.471651 0.660671 2.290371 0.155067 -0.045660 -179280.000000 0 0 1
15.808006 12.663750 -17.810766 26.971967 0.675410 2.292073 0.117660 -0.041159 236535.000000 0 0 1
16.857906 13.450250 -17.236866 27.608111 0.673435 2.245083 0.093279 -0.035211 425134.000000 0 0 1
17.612106 14.037650 -18.296666 29.017406 0.672937 2.253046 0.065993 -0.022659 432612.000000 0 0 1
18.795506 15.008450 -17.971466 30.024960 0.673833 2.212487 0.051520 -0.010106 158064.000000 0 0 1
18.537406 16.301950 -17.349766 30.172891 0.721321 2.183415 0.053835 -0.013597 98298.200000 0 0 1
17.897106 17.293750 -18.126366 30.788721 0.768255 2.200288 0.051053 -0.003295 -4282.560000 0 0 1
17.744006 18.673250 -17.417066 31.094922 0.810909 2.165334 0.047955 0.005543 480893.000000 0 0 1
18.868606 19.517750 -17.667866 32.390127 0.802307 2.147747 0.046882 -0.005868 347864.000000 0 0 1
18.610306 20.823850 -17.135166 32.765685 0.841472 2.121117 0.042659 -0.002270 -137830.000000 0 0 1
19.662406 21.934850 -17.346366 34.185439 0.839974 2.102984 0.050940 -0.005972 378349.000000 0 0 1
20.733506 21.939050 -16.406366 34.356499 0.813642 2.068641 0.053329 -0.009180 -122014.000000 0 0 1
20.474806 22.780650 -15.310966 34.243268 0.838655 2.034343 0.050683 -0.004447 -237879.000000 0 0 1
21.732806 23.228350 -14.511766 34.963731 0.818649 1.998796 0.054439 -0.008388 -474618.000000 0 0 1
22.108606 22.296850 -13.548366 34.197927 0.789637 1.978144 0.058720 -0.009546 75469.200000 0 0 1
23.446706 22.395450 -13.104566 34.971901 0.762470 1.954888 0.051089 -0.008672 -31416.600000 0 0 1
24.538506 21.879150 -14.052966 35.753620 0.728169 1.974743 0.047969 -0.007923 -811942.000000 0 0 1
24.868306 22.621250 -15.188466 36.889607 0.738117 1.995145 0.050366 -0.011872 74668.800000 0 0 1
26.021406 23.434950 -15.023166 38.105196 0.733148 1.976053 0.053649 -0.009031 59670.800000 0 0 1
26.489306 24.081950 -16.372866 39.366158 0.737831 1.999742 0.050220 -0.010612 1120.240000 0 0 1
27.296706 23.228550 -17.181866 39.747858 0.705054 2.017807 0.056693 -0.018874 259089.000000 0 0 1
27.273606 23.419050 -18.559166 40.456695 0.709506 2.047375 0.046644 -0.012512 -1079430.000000 0 0 1
27.811206 22.234250 -19.362966 40.530846 0.674418 2.068870 0.046444 -0.012129 677463.000000 0 0 1
29.233906 22.395350 -19.537066 41.687767 0.653710 2.058561 0.044596 -0.012924 524373.000000 0 0 1
29.608206 21.574650 -20.599266 42.029051 0.629710 2.083023 0.056357 -0.013559 -221048.000000 0 0 1
31.119106 21.778550 -20.790266 43.300568 0.610622 2.071609 0.100060 -0.022607 -276182.000000 0 0 1
31.462206 22.983650 -21.418166 44.461853 0.630914 2.073413 0.078245 -0.006555 257415.000000 0 0 1
32.809906 23.419150 -21.271666 45.578836 0.619916 2.056353 0.116788 -0.004538 508013.000000 0 0 1
33.055706 24.779250 -21.957166 46.784699 0.643258 2.059321 0.111950 -0.002346 -164360.000000 0 0 1
33.321206 24.860550 -23.321166 47.667877 0.640993 2.082018 0.105348 -0.004906 949997.000000 0 0 1
32.143206 24.722550 -24.163366 47.204432 0.655637 2.108177 0.088707 -0.005692 793468.000000 0 0 1
32.414606 24.994650 -25.720206 48.342199 0.656864 2.131810 0.092863 -0.010581 -324115.000000 0 0 1
32.570406 26.361650 -26.019076 49.323020 0.680431 2.126480 0.104527 -0.009608 596711.000000 0 0 1
31.340706 27.067250 -26.287066 49.049829 0.712363 2.136400 0.084053 -0.003472 1105980.000000 0 0 1
30.577306 26.852550 -27.637596 49.192152 0.720631 2.167392 0.082989 0.001994 34767.500000 0 0 1
30.164906 25.513750 -27.694486 48.247876 0.702056 2.182184 0.069484 -0.007178 -211507.000000 0 0 1
29.676606 25.211150 -29.013266 48.559990 0.704221 2.211142 0.067898 -0.011167 215925.000000 0 0 1
28.903606 23.848350 -29.168076 47.486197 0.689859 2.232223 0.081949 -0.014157 940459.000000 0 0 1
27.575906 23.847850 -28.644006 46.364098 0.713028 2.236745 0.074382 -0.009264 442792.000000 0 0 1
26.746306 22.799050 -29.076106 45.613392 0.705897 2.261976 0.086507 -0.019513 -362948.000000 0 0 1
25.405506 22.817750 -28.367686 44.393863 0.731788 2.263994 0.067122 -0.018201 -598351.000000 0 0 1
25.623706 22.524650 -27.017936 43.518996 0.721122 2.240598 0.049651 -0.003938 527867.000000 0 0 1
24.486706 22.916750 -26.246646 42.587118 0.752291 2.234838 0.048926 -0.009051 210333.000000 0 0 1
24.617006 22.947250 -24.727266 41.761357 0.750307 2.204469 0.046843 -0.002994 -274842.000000 0 0 1
25.032506 21.709450 -24.200366 41.031504 0.714424 2.201607 0.044836 -0.004345 291294.000000 0 0 1
25.321806 21.928650 -22.847166 40.546918 0.713709 2.169382 0.047111 -0.009642 -317986.000000 0 0 1
25.720906 20.619650 -22.108166 39.692644 0.675758 2.161546 0.057400 -0.005006 -500477.000000 0 0 1
27.022606 20.304050 -22.499866 40.604429 0.644379 2.158106 0.033986 -0.007795 -494213.000000 0 0 1
27.225906 18.945550 -22.259266 39.945697 0.607945 2.161852 0.066471 -0.012925 566913.000000 0 0 1
28.460306 18.241450 -22.927766 40.846321 0.569982 2.166774 0.090096 -0.024284 1184620.000000 0 0 1
29.695506 18.187150 -22.193866 41.293622 0.549527 2.138224 0.126339 -0.037118 510433.000000 0 0 1
30.736106 17.860850 -23.114966 42.403064 0.526409 2.147334 0.119659 -0.029452 1006490.000000 0 0 1
32.072806 17.727550 -22.265566 42.879906 0.504936 2.116774 0.109732 -0.027662 587946.000000 0 0 1
32.527906 18.866650 -21.543766 43.337617 0.525594 2.091067 0.109045 -0.025890 676144.000000 0 0 1
33.707506 18.512750 -20.788366 43.715833 0.502242 2.066367 0.117125 -0.029298 676364.000000 0 0 1
34.191306 19.648750 -19.951766 44.194929 0.521587 2.039185 0.091588 -0.032845 -66507.500000 0 0 1
33.380106 19.906550 -18.840366 43.190990 0.537739 2.022179 0.110039 -0.033803 74509.200000 0 0 1
34.087606 20.778550 -18.015566 43.798101 0.547422 1.994711 0.101148 -0.014668 -7846.710000 0 0 1
33.589706 20.670050 -16.587066 42.786097 0.551643 1.968903 0.112271 -0.024463 170865.000000 0 0 1
34.079006 19.483550 -15.908966 42.356612 0.519364 1.955836 0.111549 -0.030607 440857.000000 0 0 1
33.769106 19.637450 -14.547566 41.684693 0.526721 1.927290 0.099896 -0.024227 -159331.000000 0 0 1
34.306606 18.461850 -13.698666 41.296932 0.493694 1.908914 0.088320 -0.018394 174831.000000 0 0 1
35.719506 18.247750 -13.737866 42.398024 0.472300 1.900773 0.078581 -0.018329 604249.000000 0 0 1
36.143706 17.095950 -13.042566 42.056480 0.441815 1.886116 0.063809 -0.002235 -39715.700000 0 0 1
36.290006 17.210350 -11.479766 41.772547 0.442832 1.849195 0.079534 -0.013898 60939.900000 0 0 1
37.129506 18.270550 -10.957266 42.807416 0.457289 1.829644 0.067232 -0.014099 629922.000000 0 0 1
36.686706 18.775050 -9.707666 42.339765 0.473017 1.802134 0.080492 -0.012270 410434.000000 0 0 1
35.567406 19.906850 -9.641066 41.884045 0.510255 1.803064 0.078442 -0.012048 1300070.000000 0 0 1
34.268206 19.382250 -9.946766 40.606893 0.514745 1.818267 0.092237 -0.024278 355970.000000 0 0 1
33.279806 20.374850 -9.997966 40.281998 0.549363 1.821617 0.077179 -0.008124 -86874.600000 0 0 1
31.844906 19.936950 -10.309166 38.959709 0.559364 1.838597 0.065831 -0.012245 -164746.000000 0 0 1
31.604506 19.731050 -11.697866 39.051238 0.558104 1.875019 0.092065 -0.018061 -346809.000000 0 0 1
30.353606 19.130750 -11.871866 37.792436 0.562375 1.890340 0.074991 -0.019095 -483228.000000 0 0 1
30.156206 18.391750 -13.205466 37.709913 0.547655 1.928565 0.108215 -0.020664 -65094.300000 0 0 1
30.871506 17.134550 -13.141866 37.674279 0.506695 1.927117 0.100279 -0.016959 515476.000000 0 0 1
30.820906 16.489150 -14.407666 37.807422 0.491253 1.961761 0.081789 -0.010844 43747.400000 0 0 1
32.187206 15.914650 -14.841166 38.852960 0.459190 1.962737 0.092970 -0.021933 -19768.500000 0 0 1
32.804506 14.931950 -14.035566 38.679398 0.427153 1.942142 0.078091 -0.022395 619419.000000 0 0 1
33.996706 14.398950 -14.621266 39.710039 0.400633 1.947869 0.094303 -0.023076 359023.000000 0 0 1
34.753706 13.362650 -13.782366 39.703074 0.367070 1.925312 0.081137 -0.032082 -314143.000000 0 0 1
35.632006 13.938550 -12.844666 40.359738 0.372880 1.894684 0.083694 -0.013254 60866.800000 0 0 1
36.211306 12.814250 -12.174466 40.294929 0.340122 1.877727 0.065934 -0.007802 140414.000000 0 0 1
-37.149653 13.169050 -11.128766 40.955708 -0.340666 1.845983 0.089945 -0.005232 431382.000000 0 0 1
-35.948653 13.677550 -11.690666 40.200158 -0.363562 1.865871 0.064433 -0.001804 -482487.000000 0 0 1
-35.047653 13.894850 -10.695266 39.189202 -0.377447 1.847217 0.048265 -0.010788 -1022720.000000 0 0 1
-33.617753 14.310850 -11.135766 38.196322 -0.402458 1.866633 0.090521 -0.015868 567515.000000 0 0 1
-32.741153 13.347850 -11.719266 37.249019 -0.387108 1.890852 0.090033 -0.020291 330929.000000 0 0 1
-32.320653 12.344150 -10.830566 36.253328 -0.364830 1.874176 0.127435 -0.018979 -834505.000000 0 0 1
-31.253353 11.346150 -11.322066 35.124014 -0.348242 1.899002 0.147548 -0.022317 -88788.100000 0 0 1
-31.664953 10.551750 -12.436266 35.618386 -0.321659 1.927463 0.123533 -0.012628 149740.000000 0 0 1
-30.853153 9.420050 -12.587466 34.628005 -0.296329 1.942824 0.142409 -0.016514 -285692.000000 0 0 1
-31.086253 8.720950 -13.928266 35.162575 -0.273510 1.978073 0.140552 -0.026868 -487662.000000 0 0 1
-32.238853 7.951550 -14.094466 36.072493 -0.241818 1.972217 0.113713 -0.020991 -156786.000000 0 0 1
-32.357953 7.452750 -15.413966 36.608345 -0.226374 2.005400 0.129349 -0.036561 -466845.000000 0 0 1
-33.760653 7.020450 -15.829166 37.942468 -0.205026 2.001146 0.133721 -0.038727 -593571.000000 0 0 1
-34.313253 5.981550 -15.099266 37.962694 -0.172588 1.979848 0.155406 -0.045006 20495.000000 0 0 1
-35.526853 5.521650 -15.663966 39.217416 -0.154188 1.981673 0.116314 -0.047390 -22897.800000 0 0 1
-36.568453 4.837550 -14.765066 39.732365 -0.131524 1.951542 0.105002 -0.045305 561019.000000 0 0 1
36.647406 4.574950 -15.430866 40.025919 0.124194 1.966570 0.100672 -0.035072 488927.000000 0 0 1
35.660706 4.143750 -14.520966 38.726155 0.115681 1.955156 0.117206 -0.034605 -53106.100000 0 0 1
34.705006 3.127550 -15.171966 38.005362 0.089875 1.981447 0.106895 -0.034163 -94659.200000 0 0 1
35.335206 1.855450 -15.384466 38.583692 0.052462 1.980928 0.117300 -0.036761 321399.000000 0 0 1
34.495506 0.750850 -15.078866 37.654693 0.021763 1.982805 0.101067 -0.025775 -14421.900000 0 0 1
33.967706 0.483250 -13.668766 36.617943 0.014226 1.953339 0.125285 -0.029503 -341039.000000 0 0 1
34.869906 0.004450 -12.685766 37.105781 0.000128 1.919714 0.140534 -0.032410 -12406.900000 0 0 1
34.484106 0.103850 -11.334766 36.299329 0.003012 1.888366 0.150358 -0.026205 -291420.000000 0 0 1
34.567406 1.472350 -10.716666 36.220440 0.042568 1.871166 0.151059 -0.031901 68687.400000 0 0 1
33.565906 2.422150 -11.087266 35.432532 0.072036 1.889054 0.139048 -0.026436 439454.000000 0 0 1
33.697306 3.731850 -10.576866 35.514859 0.110297 1.873200 0.145145 -0.031704 -627511.000000 0 0 1
32.607806 4.655350 -11.091566 34.755778 0.141810 1.895606 0.131858 -0.028035 -322879.000000 0 0 1
32.830306 5.045050 -12.433566 35.466535 0.152478 1.928978 0.117747 -0.024117 1112040.000000 0 0 1
31.675806 5.786650 -12.831866 34.662643 0.180691 1.950013 0.113724 -0.021463 516281.000000 0 0 1
32.039606 6.414250 -14.221766 35.636184 0.197585 1.981312 0.060103 -0.019215 -89942.300000 0 0 1
32.049206 5.520650 -15.350766 35.962136 0.170581 2.011813 0.046723 -0.011494 253199.000000 0 0 1
32.569206 6.115650 -16.536466 37.035241 0.185613 2.033653 0.038561 -0.012263 -486446.000000 0 0 1
31.543706 6.982850 -17.347566 36.670201 0.217857 2.063568 0.044842 -0.012014 747305.000000 0 0 1
30.437806 6.321450 -17.965966 35.905385 0.204773 2.094822 0.031961 -0.012513 1325620.000000 0 0 1
29.453506 5.720550 -17.058966 34.514374 0.191835 2.087776 0.023652 -0.001743 -558062.000000 0 0 1
28.078806 5.654750 -17.710966 33.676013 0.198730 2.124595 0.027594 -0.005041 -652209.000000 0 0 1
28.127106 4.724850 -18.793366 34.156242 0.166428 2.153421 0.030438 -0.004536 209120.000000 0 0 1
27.038806 4.842150 -19.691566 33.797947 0.177203 2.192752 0.027920 -0.004686 -3252.600000 0 0 1
26.654806 3.480950 -20.292766 33.680737 0.129859 2.217431 0.029667 -0.000144 -165678.000000 0 0 1
25.809106 2.643450 -19.533266 32.475318 0.102067 2.216149 0.032989 -0.003807 22062.400000 0 0 1
25.480006 1.465350 -20.262366 32.587443 0.057447 2.241815 0.039122 -0.004750 -372743.000000 0 0 1
24.471806 0.727250 -19.362566 31.213893 0.029709 2.239945 0.050666 -0.009001 -391631.000000 0 0 1
23.222806 1.338950 -19.272766 30.208128 0.057593 2.262694 0.057230 -0.017336 -134181.000000 0 0 1
22.242306 0.602250 -18.554766 28.971749 0.027070 2.265872 0.071343 -0.020681 1129300.000000 0 0 1
20.918306 1.422250 -18.272666 27.811664 0.067886 2.287648 0.084332 -0.025581 311991.000000 0 0 1
20.111706 1.631450 -19.407766 27.996495 0.080942 2.336745 0.083804 -0.025175 837219.000000 0 0 1
18.994506 2.535250 -19.323566 27.214315 0.132689 2.360368 0.066491 -0.017637 1216700.000000 0 0 1
17.748306 2.157750 -18.454966 25.695214 0.120981 2.372045 0.116588 -0.030436 -367016.000000 0 0 1
17.999506 2.268350 -17.071166 24.910888 0.125362 2.325797 0.131481 -0.030042 160847.000000 0 1 0
16.811106 2.324250 -16.300966 23.531615 0.137386 2.336059 0.101780 -0.011857 481805.000000 0 1 0
15.912006 3.602850 -16.396866 23.130708 0.222669 2.358703 0.113544 -0.007242 -12054.400000 0 1 0
15.165506 3.641250 -17.591066 23.509506 0.235640 2.416222 0.095240 -0.007740 -88085.100000 0 1 0
14.360506 4.781350 -17.684966 23.277531 0.321407 2.433716 0.119232 -0.009404 -283503.000000 0 1 0
-21.001594 -21.619850 -17.554966 34.880678 0.799903 2.098194 0.083043 -0.022242 178455.000000 0 0 1
-20.414094 -22.512250 -18.502966 35.579437 0.834237 2.117702 0.085004 -0.026531 433975.000000 0 0 1
-21.110794 -22.423850 -19.750266 36.586441 0.815550 2.141025 0.082359 -0.016375 165321.000000 0 0 1
-20.581694 -23.425150 -20.796566 37.481207 0.849922 2.158983 0.059862 -0.016005 3763.670000 0 0 1
-20.794394 -24.808050 -20.460766 38.294766 0.873186 2.134472 0.066534 -0.024339 27616.100000 0 0 1
-20.156394 -25.636420 -21.393966 39.002666 0.904502 2.151396 0.062536 -0.036728 -129524.000000 0 0 1
-20.305394 -27.098420 -20.976866 39.832929 0.927730 2.125417 0.070748 -0.009119 164249.000000 0 0 1
-21.593194 -27.675290 -21.128666 40.970821 0.908225 2.112621 0.070231 0.011223 101716.000000 0 0 1
-21.535194 -29.112960 -21.289466 42.006789 0.933912 2.102277 0.104630 -0.025382 106643.000000 0 0 1
-22.890794 -29.768850 -21.709866 43.376158 0.915276 2.094975 0.096716 -0.024962 632831.000000 0 0 1
-23.518694 -29.304850 -22.906766 44.007080 0.894501 2.118262 0.083059 -0.024501 -8635.900000 0 0 1
-22.989294 -29.828540 -24.089766 44.705327 0.914169 2.139876 0.079144 -0.030851 -292101.000000 0 0 1
-23.546994 -29.073560 -25.292506 45.160200 0.890041 2.165257 0.063688 -0.018294 638622.000000 0 0 1
-24.917194 -29.400320 -25.582526 46.257010 0.867747 2.156819 0.055179 -0.011801 1143360.000000 0 0 1
-25.528814 -28.549410 -26.579156 46.618029 0.841196 2.177482 0.063285 -0.005120 135919.000000 0 0 1
-25.061644 -28.773120 -28.039296 47.351668 0.854231 2.204521 0.064377 -0.025337 -245211.000000 0 0 1
-25.588404 -29.942600 -28.644576 48.701513 0.863648 2.199586 0.034772 -0.010957 254447.000000 0 0 1
-25.055694 -29.993010 -29.943646 49.234036 0.874849 2.224575 0.074722 -0.010272 220904.000000 0 0 1
-25.470674 -31.292430 -30.714466 50.708478 0.887603 2.221450 0.057119 -0.005870 -1601.420000 0 0 1
-24.847994 -32.461570 -30.354896 50.917541 0.917475 2.209503 0.045294 -0.002873 265603.000000 0 0 1
-25.775774 -33.548250 -30.591216 52.208218 0.915673 2.196844 0.046603 -0.000621 410172.000000 0 0 1
-25.180834 33.018181 -30.601796 51.582406 -0.919257 2.205899 0.036681 0.002384 -92233.000000 0 0 1
-24.298294 32.839296 -31.683036 51.697594 -0.933781 2.230463 0.044339 -0.006912 361296.000000 0 0 1
-23.449494 31.695929 -31.428886 50.421082 -0.933838 2.243788 0.053664 0.002152 -110663.000000 0 0 1
-22.421494 31.326589 -32.455096 50.372729 -0.949589 2.270903 0.049255 0.003589 -650592.000000 0 0 1
-22.922094 30.774259 -33.627776 51.022590 -0.930602 2.290386 0.046615 0.002211 -33814.000000 0 0 1
-21.972794 29.907209 33.614495 50.071740 -0.937160 0.834799 0.056140 -0.000983 70115.900000 0 0 1
-22.130094 29.570459 32.127665 48.952426 -0.928329 0.854887 0.046725 -0.005977 -152380.000000 0 0 1
-21.711194 30.678189 31.358377 48.947676 -0.954916 0.875451 0.057456 -0.009554 80272.100000 0 0 1
-21.615094 30.377629 29.976467 47.839327 -0.952363 0.893604 0.055932 -0.011514 -430396.000000 0 0 1
-21.054594 31.559459 29.185007 47.865019 -0.982466 0.915069 0.062320 -0.021453 -356808.000000 0 0 1
-21.925894 32.669510 29.119117 48.948592 -0.979702 0.933665 0.042982 -0.015746 -25335.100000 0 0 1
-21.332594 33.873320 28.668857 49.238042 -1.008770 0.949303 0.066385 -0.031310 55408.700000 0 0 1
-22.293894 -32.931060 28.906397 49.163525 0.975683 0.942256 0.083322 -0.039138 104514.000000 0 0 1
-22.431294 -32.528070 30.293977 49.789189 0.967086 0.916697 0.071715 -0.023251 552504.000000 0 0 1
-23.400994 -31.473970 30.629027 49.762984 0.931466 0.907778 0.090496 -0.026061 717148.000000 0 0 1
-23.329594 -30.136030 29.916537 48.450484 0.912022 0.905279 0.104747 -0.023251 -6048.120000 0 0 1
-24.082894 -30.068040 28.695167 48.036293 0.895478 0.930586 0.061658 -0.021103 127227.000000 0 0 1
-24.201594 -28.723920 28.247357 46.996743 0.870638 0.925983 0.070043 -0.030705 -182102.000000 0 0 1
-25.481754 -28.475680 27.401597 47.021608 0.840828 0.948694 0.079226 -0.023151 461176.000000 0 0 1
-26.733484 -28.337120 28.124207 48.048335 0.814510 0.945507 0.111785 -0.017719 969677.000000 0 0 1
-27.384674 -29.584650 28.330397 49.272541 0.823996 0.958225 0.077641 -0.023070 -452391.000000 0 0 1
-28.262054 -30.068060 27.132437 49.386244 0.816350 0.989159 0.053215 0.004582 -774040.000000 0 0 1
-27.532014 -30.120710 25.908887 48.337763 0.830270 1.005108 0.041176 -0.007767 -233543.000000 0 0 1
-28.255314 -30.505550 24.824067 48.427117 0.823674 1.032578 0.028735 -0.001899 -1055570.000000 0 0 1
-27.266854 -30.543890 23.677667 47.297383 0.842023 1.046490 0.025800 -0.008636 -832413.000000 0 0 1
-26.771494 -29.291500 23.315237 46.025049 0.830317 1.039586 0.021683 -0.017149 245318.000000 0 0 1
-26.098614 -29.231090 22.081017 44.979613 0.841953 1.057660 0.048552 -0.022283 218726.000000 0 0 1
-24.781694 -29.989180 21.852017 44.620555 0.880191 1.059016 0.053338 -0.024610 -714959.000000 0 0 1
-25.155074 -31.320730 21.548117 45.586042 0.894141 1.078454 0.047426 -0.030352 601246.000000 0 0 1
-24.082694 -32.269360 21.451217 45.622828 0.929666 1.081295 0.051060 -0.020703 524830.000000 0 0 1
-23.326494 -32.618080 22.766417 46.112625 0.949981 1.054442 0.068872 -0.028605 298894.000000 0 0 1
-22.414294 -31.678630 23.345897 45.287604 0.955020 1.029202 0.092609 -0.034929 369356.000000 0 0 1
-21.934494 -32.293780 24.544957 46.113611 0.974155 1.009515 0.100117 -0.051466 -712711.000000 0 0 1
-20.962294 -31.453660 25.336537 45.504841 0.982944 0.980283 0.099935 -0.036200 -584208.000000 0 0 1
-19.765694 -31.172000 24.606927 44.360761 1.005691 0.982794 0.116581 -0.037414 463529.000000 0 0 1
-18.794894 -30.516520 25.405727 43.931276 1.018773 0.954145 0.135999 -0.037702 378355.000000 0 0 1
-17.994194 -31.313130 26.517357 44.804836 1.049223 0.937455 0.113179 -0.043470 -495180.000000 0 0 1
-18.724694 -31.708520 27.663567 46.057761 1.037372 0.926510 0.110091 -0.035857 -204474.000000 0 0 1
-17.887894 -32.268890 28.604847 46.685065 1.064628 0.911299 0.114392 -0.028319 -608933.000000 0 0 1
-18.038794 -31.626170 29.937447 47.136646 1.052444 0.882632 0.125318 -0.025218 -14720.700000 0 0 1
-17.610694 -30.287580 29.981767 46.112692 1.044129 0.862969 0.124010 -0.016794 90306.100000 0 0 1
-18.189694 -29.624450 31.073657 46.626657 1.020139 0.841379 0.110951 -0.008844 -158956.000000 0 0 1
-17.968294 -28.089250 31.135967 45.621420 1.001706 0.819638 0.111614 -0.009576 -54179.400000 0 0 1
-18.668594 -27.145940 30.313397 44.769638 0.968365 0.826985 0.126198 -0.017516 119136.000000 0 0 1
-18.639894 -27.322860 28.882077 43.910804 0.972111 0.852976 0.126350 -0.011664 -149334.000000 0 0 1
-17.265894 -27.150230 28.199797 42.784046 1.004369 0.851149 0.113598 -0.009847 -84029.300000 0 0 1
-17.035294 -25.761060 28.079907 41.741042 0.986532 0.832922 0.096533 -0.007220 206286.000000 0 0 1
-15.922994 -25.528110 27.223357 40.575082 1.013101 0.835324 0.080304 -0.002909 64034.700000 0 0 1
-15.922394 -24.057350 26.663617 39.283930 0.986135 0.824749 0.071085 -0.000411 -111289.000000 0 0 1
-17.024194 -23.936650 25.784677 39.084984 0.952581 0.850366 0.092963 -0.015395 184296.000000 0 0 1
-16.908494 -22.785250 24.966627 37.794143 0.932383 0.849185 0.080838 -0.025380 -178127.000000 0 0 1
-17.441194 -21.463150 25.497667 37.616394 0.888413 0.825984 0.082649 -0.013421 -588880.000000 0 0 1
-17.272794 -20.390250 24.545077 36.284604 0.867982 0.827851 0.080935 -0.008960 28374.700000 0 0 1
-17.837194 -19.209850 25.046317 36.256059 0.822433 0.808177 0.083880 -0.001989 -233712.000000 0 0 1
-17.415194 -17.957550 24.225397 34.822872 0.800730 0.801437 0.081948 -0.016212 -180758.000000 0 0 1
-15.997594 -17.881750 24.255247 34.117400 0.840955 0.779970 0.086916 -0.020864 -70342.200000 0 0 1
-15.542894 -16.917050 23.335877 32.746470 0.827707 0.777567 0.084609 -0.019335 927142.000000 0 0 1
-14.020494 -16.598650 23.504087 32.008304 0.869401 0.746143 0.087723 -0.027211 772140.000000 0 0 1
-13.012794 -17.452750 22.999347 31.668616 0.930116 0.757945 0.070683 -0.024628 -143909.000000 0 0 1
-11.700694 -17.006450 23.178117 31.037891 0.968159 0.727606 0.068953 -0.026592 -536616.000000 0 0 1
-11.159194 -16.209650 21.961017 29.488415 0.967878 0.730661 0.080305 -0.025004 -165461.000000 0 0 1
-10.716594 -17.001550 20.808217 28.928878 1.008373 0.768018 0.093211 -0.026652 -224040.000000 0 0 1
-9.397794 -17.445750 20.978717 28.857915 1.076680 0.756903 0.080906 -0.027835 -715066.000000 0 0 1
-8.971394 -18.582750 19.980917 28.723536 1.121019 0.801502 0.080715 -0.023238 41022.800000 0 0 1
-8.749694 -17.977150 18.735017 27.399561 1.117836 0.817879 0.085175 -0.026782 -241184.000000 0 0 1
-8.736494 -18.986150 17.770417 27.433336 1.139533 0.866146 0.072440 -0.029137 54659.000000 0 0 1
-8.543994 -18.438750 16.292417 26.046692 1.136878 0.895014 0.070822 -0.030623 654840.000000 0 0 1
-7.281794 -17.748350 16.340417 25.199954 1.181459 0.865275 0.093240 -0.039932 188721.000000 0 0 1
-6.727594 -17.713650 15.052017 24.199114 1.207827 0.899493 0.092991 -0.040332 -120038.000000 0 1 0
-5.640994 -16.654450 14.991717 23.107209 1.244216 0.864804 0.072636 -0.036246 93994.800000 0 1 0
-6.206494 -15.391250 15.436517 22.664889 1.187493 0.821565 0.080832 -0.039129 327247.000000 0 1 0
-5.180294 -14.429350 15.425617 21.748362 1.226117 0.782324 0.052059 -0.028554 -173853.000000 0 1 0
-5.344394 -13.541950 16.648617 22.116134 1.194906 0.718519 0.033459 -0.010672 -91875.000000 0 1 0
-4.957694 -14.019850 17.953417 23.312231 1.230901 0.691753 0.037490 -0.007102 -245624.000000 0 1 0
-5.839194 -14.923150 18.596717 24.548614 1.197826 0.711250 0.077519 -0.025069 385333.000000 0 1 0
-7.211494 -14.367750 19.082717 24.951713 1.105612 0.700087 0.106244 -0.033416 324605.000000 0 1 0
-6.915394 -13.480250 20.093917 25.165558 1.096801 0.646049 0.097085 -0.035329 -787802.000000 0 0 1
-8.003194 -12.963350 20.777917 25.764732 1.017702 0.632676 0.103715 -0.027211 -471312.000000 0 0 1
-7.683094 -12.025550 21.993017 26.217105 1.002266 0.575573 0.085877 -0.012469 -207987.000000 0 0 1
-7.155094 -10.761350 21.595817 25.167068 0.984026 0.539242 0.063013 -0.011954 40593.600000 0 0 1
-6.913794 -9.861550 22.660917 25.662577 0.959342 0.488509 0.063589 -0.013274 181687.000000 0 0 1
-5.544994 -10.064450 23.363387 26.036282 1.067225 0.457092 0.057974 -0.007377 40636.900000 0 0 1
-5.374494 -11.249950 24.143827 27.172982 1.125119 0.476680 0.077568 -0.003748 -958790.000000 0 0 1
-4.087694 -11.524450 24.567957 27.442790 1.229943 0.461821 0.060147 -0.002754 -1002850.000000 0 0 1
-4.029794 -12.804450 25.383597 28.714459 1.265892 0.486445 0.067669 -0.008171 -224854.000000 0 0 1
-2.748394 -13.184250 25.833777 29.133523 1.365279 0.480558 0.060795 -0.014149 -87015.300000 0 0 1
-2.797094 -14.285550 26.724637 30.432004 1.377444 0.498762 0.070483 -0.019094 -127879.000000 0 0 1
-2.839494 -15.771650 26.200747 30.712975 1.392667 0.548929 0.066448 -0.029639 424721.000000 0 0 1
-1.699594 -16.135350 25.402307 30.141588 1.465850 0.568395 0.082931 -0.037464 521953.000000 0 0 1
-1.898294 -17.425950 24.752537 30.330766 1.462289 0.616189 0.082703 -0.036276 -179872.000000 0 0 1
-0.561594 -18.209350 24.590917 30.604069 1.539965 0.637615 0.105232 -0.040524 791171.000000 0 0 1
0.081406 -18.639850 25.817527 31.843293 -1.566429 0.625333 0.120266 -0.041294 459205.000000 0 0 1
0.765406 -17.623950 26.561027 31.885382 -1.527394 0.586260 0.136251 -0.045409 -532307.000000 0 0 1
1.198406 -18.210850 27.901477 33.340121 -1.505084 0.579249 0.139374 -0.042644 -651474.000000 0 0 1
2.380506 -18.967150 27.852527 33.781398 -1.445942 0.601491 0.128618 -0.045128 -189701.000000 0 0 1
2.936906 -19.004750 29.152077 34.923481 -1.417474 0.583133 0.124729 -0.049244 640948.000000 0 0 1
4.057506 -17.937350 29.422207 34.696947 -1.348336 0.558640 0.153548 -0.045493 107777.000000 0 0 1
3.474506 -16.682150 29.534367 34.097583 -1.365455 0.523306 0.137436 -0.049565 260036.000000 0 0 1
4.484906 -15.784450 29.945057 34.146298 -1.293958 0.501290 0.154835 -0.066678 295367.000000 0 0 1
3.836306 -14.545950 30.636387 34.130487 -1.312931 0.456445 0.157072 -0.061701 467956.000000 0 0 1
3.169306 -15.027850 31.808237 35.322015 -1.362947 0.449829 0.131491 -0.061863 28033.500000 0 0 1
2.390806 -14.005850 32.408125 35.385963 -1.401725 0.413184 0.129225 -0.051508 -55262.400000 0 0 1
1.647206 -14.502350 33.646233 36.675611 -1.457699 0.409297 0.088588 -0.038990 202602.000000 0 0 1
2.507606 -14.708850 -33.086946 36.295789 -1.401937 2.717936 0.087318 -0.040427 141752.000000 0 0 1
1.748106 -15.332350 -32.051886 35.573307 -1.457272 2.692887 0.107068 -0.042372 166920.000000 0 0 1
2.351306 -15.487250 -30.691416 34.457895 -1.420125 2.669664 0.064422 -0.022556 -611994.000000 0 0 1
1.442106 -16.118250 -29.866976 33.969308 -1.481564 2.645049 0.076165 -0.016117 -377800.000000 0 0 1
1.917306 -16.125150 -28.503376 32.804557 -1.452450 2.623741 0.057795 -0.017225 23450.300000 0 0 1
1.489806 -17.289750 -27.601876 32.603965 -1.484842 2.580324 0.063861 -0.019993 -50745.800000 0 0 1
2.147306 -18.471850 -28.034096 33.641205 -1.455068 2.555894 0.038343 -0.015471 13713.200000 0 0 1
2.012506 -19.558550 -27.125506 33.501942 -1.468261 2.514385 0.040351 -0.020551 -935436.000000 0 0 1
2.870606 -20.807850 -27.362966 34.495491 -1.433704 2.486897 0.016346 -0.014724 1138030.000000 0 0 1
4.299506 -20.707250 -27.137226 34.405014 -1.366072 2.479582 0.033839 -0.013112 1266270.000000 0 0 1
4.729006 -20.513350 -25.799256 33.298087 -1.344222 2.457190 0.057684 -0.017022 -352264.000000 0 0 1
5.946906 -21.422150 -25.419286 33.770020 -1.300009 2.422977 0.047834 -0.013470 71640.900000 0 0 1
5.673906 -22.815050 -25.351336 34.574701 -1.327050 2.393862 0.068287 -0.023463 125996.000000 0 0 1
5.582906 -23.440750 -26.629606 35.913416 -1.336981 2.406092 0.044441 -0.020399 -206339.000000 0 0 1
5.016006 -24.898150 -26.640186 36.807304 -1.371996 2.380053 0.049378 -0.016170 -325231.000000 0 0 1
5.760706 -25.790720 -25.901146 37.002923 -1.351040 2.346160 0.052293 -0.018304 -318794.000000 0 0 1
5.375906 -27.110150 -26.232036 38.104859 -1.375037 2.330101 0.042567 -0.017164 148788.000000 0 0 1
6.117506 -28.154330 -25.324966 38.359406 -1.356837 2.291884 0.057335 -0.010370 1674060.000000 0 0 1
7.529406 -28.282910 -25.663316 38.925836 -1.310613 2.290667 0.068331 -0.019580 964803.000000 0 0 1
8.179006 -29.336130 -25.044806 39.430279 -1.298898 2.259021 0.071406 -0.020238 -463567.000000 0 0 1
9.561206 -29.518070 -25.664816 40.266808 -1.257550 2.261875 0.096572 -0.030771 -297197.000000 0 0 1
9.420206 -29.961600 -27.004806 41.420976 -1.266173 2.280962 0.086496 -0.017189 1231900.000000 0 0 1
10.718506 -29.893710 -27.656436 42.111740 -1.226522 2.287283 0.094519 -0.032371 1296130.000000 0 0 1
10.579606 -29.873400 -29.162986 43.067712 -1.230431 2.314669 0.097874 -0.016366 -102311.000000 0 0 1
10.123006 -31.073160 -29.670726 44.140327 -1.255859 2.307960 0.084295 -0.026255 18050.000000 0 0 1
10.270906 -31.072950 -31.055526 45.116132 -1.251560 2.330003 0.094428 -0.035608 -21139.100000 0 0 1
-35.969991 -4.398150 -5.013566 36.583054 0.121669 1.708275 0.177945 -0.048424 -62838.300000 0 0 1
-35.216931 -3.629850 -4.109266 35.641185 0.102708 1.686349 0.180333 -0.052742 445359.000000 0 0 1
-34.572810 -2.405150 -4.533666 34.951653 0.069456 1.700875 0.199281 -0.053580 -243005.000000 0 0 1
-35.466686 -1.281050 -5.061166 35.848881 0.036104 1.712450 0.183607 -0.044884 -517569.000000 0 0 1
-36.363524 -0.831150 -4.064666 36.599429 0.022853 1.682084 0.169918 -0.046351 85186.800000 0 0 1
37.226265 0.141750 -4.596666 37.509256 0.003808 1.693653 0.167884 -0.041552 -155905.000000 0 0 1
36.295105 0.719150 -3.536766 36.474108 0.019811 1.667915 0.169555 -0.039238 -617860.000000 0 0 1
36.982405 1.481250 -2.609766 37.103952 0.040031 1.641191 0.193258 -0.039066 -439589.000000 0 0 1
36.138915 2.340950 -1.922366 36.265641 0.064686 1.623829 0.173025 -0.040149 -989123.000000 0 0 1
36.879955 3.296150 -0.905066 37.038019 0.089138 1.595235 0.169959 -0.040632 321895.000000 0 0 1
-36.804124 4.333250 -1.451566 37.086758 -0.117199 1.609946 0.192686 -0.047873 565879.000000 0 0 1
-35.686294 3.944550 -2.259166 35.974642 -0.110087 1.633637 0.169390 -0.015003 -446327.000000 0 0 1
-34.793819 5.173250 -2.605866 35.272693 -0.147602 1.644741 0.156041 -0.019150 10196.600000 0 0 1
-33.995924 5.629650 -1.523466 34.492561 -0.164109 1.614979 0.155040 -0.030642 282926.000000 0 0 1
-33.454254 6.878150 -1.889266 34.206218 -0.202773 1.626056 0.162183 -0.041573 148281.000000 0 0 1
-32.590194 7.525350 -0.733666 33.455790 -0.226931 1.592727 0.169901 -0.045027 403975.000000 0 0 1
-31.308064 6.959250 -0.440366 32.075223 -0.218727 1.584526 0.188560 -0.043309 1011360.000000 0 0 1
-30.790124 7.249450 0.864434 31.643854 -0.231236 1.543475 0.189283 -0.044570 112625.000000 0 0 1
-30.653624 8.768950 1.351934 31.911861 -0.278625 1.528419 0.198502 -0.048039 -1312100.000000 0 0 1
-31.880054 9.339350 1.609234 33.258847 -0.284979 1.522392 0.204765 -0.050919 -959897.000000 0 0 1
-31.918494 10.723250 2.035534 33.733096 -0.324110 1.510417 0.204048 -0.042020 223353.000000 0 0 1
-33.318624 11.384950 1.873434 35.259857 -0.329261 1.517639 0.213100 -0.043037 -426522.000000 0 0 1
-33.610164 11.672950 0.494034 35.582931 -0.334271 1.556912 0.199140 -0.043700 1441470.000000 0 0 1
-34.770783 12.536450 0.293434 36.962901 -0.346038 1.562858 0.190153 -0.038630 851607.000000 0 0 1
-36.169234 12.098850 0.728334 38.146116 -0.322806 1.551702 0.194656 -0.047886 -637161.000000 0 0 1
-36.681194 10.980850 -0.019866 38.289548 -0.290869 1.571315 0.187317 -0.037462 -161307.000000 0 0 1
36.477375 10.637950 0.376434 37.998771 0.283762 1.560890 0.184001 -0.045758 362279.000000 0 0 1
35.746235 9.509850 -0.508866 36.993101 0.260015 1.584552 0.189471 -0.040024 583658.000000 0 0 1
35.330255 9.946050 -1.787866 36.747072 0.274414 1.619469 0.173548 -0.037242 45883.800000 0 0 1
34.818385 8.835250 -2.486366 36.007827 0.248507 1.639902 0.171176 -0.047498 -57644.700000 0 0 1
34.385095 9.089250 -3.973366 35.787385 0.258426 1.682053 0.139475 -0.027439 1370920.000000 0 0 1
33.000255 9.524250 -4.080166 34.588668 0.280976 1.689034 0.148641 -0.030041 1471880.000000 0 0 1
32.563835 9.629150 -5.431766 34.389359 0.287508 1.729410 0.122717 -0.018438 615672.000000 0 0 1
31.176585 10.320550 -5.683466 33.328592 0.319681 1.742162 0.137311 -0.026126 591723.000000 0 0 1
30.054695 9.493750 -5.424366 31.981866 0.305963 1.741228 0.142093 -0.018642 -136141.000000 0 0 1
28.930565 10.138850 -5.935466 31.225048 0.337080 1.762047 0.139952 -0.010181 -468767.000000 0 0 1
27.671065 9.224350 -5.994566 29.777698 0.321772 1.773492 0.155859 0.005473 -75960.200000 0 0 1
27.684265 8.267450 -7.040766 29.737883 0.290203 1.809827 0.148494 -0.003352 392605.000000 0 0 1
26.633465 7.343450 -6.835166 28.460275 0.269038 1.813332 0.177537 -0.005781 -80316.400000 0 0 1
26.584365 6.344750 -8.025966 28.485092 0.234282 1.856424 0.162806 -0.016927 139857.000000 0 0 1
27.618665 5.366950 -7.989066 29.247564 0.191931 1.847466 0.167969 -0.015331 634755.000000 0 0 1
27.714465 4.614550 -9.184766 29.559188 0.164990 1.886752 0.138987 -0.007268 -173029.000000 0 0 1
28.754665 3.481650 -9.096666 30.359545 0.120495 1.875102 0.133355 -0.003804 -295309.000000 0 0 1
30.127235 3.831250 -9.176966 31.726101 0.126490 1.864246 0.134801 -0.006824 887677.000000 0 0 1
30.924905 3.259650 -8.114466 32.137511 0.105018 1.826051 0.109772 -0.009873 168380.000000 0 0 1
31.180795 1.775750 -8.116066 32.268651 0.056889 1.825042 0.098805 -0.008483 166641.000000 0 0 1
30.004925 1.087450 -7.588766 30.968814 0.036227 1.818363 0.133036 -0.018599 1374110.000000 0 0 1
30.242445 -0.252550 -7.140866 31.075090 -0.008351 1.802662 0.123324 -0.023416 -242123.000000 0 0 1
30.246525 -1.404050 -8.205766 31.371296 -0.046387 1.835444 0.103745 -0.020559 -259418.000000 0 0 1
31.326475 -1.500250 -9.101766 32.656407 -0.047854 1.853250 0.113776 -0.028128 187620.000000 0 0 1
31.189665 -2.709350 -9.736766 32.786284 -0.086649 1.872321 0.100978 -0.036014 -147182.000000 0 0 1
32.140285 -3.093550 -10.908766 34.081801 -0.095956 1.896606 0.109606 -0.033637 815971.000000 0 0 1
33.528465 -3.130750 -10.519766 35.279244 -0.093106 1.873588 0.127132 -0.032005 739247.000000 0 0 1
34.340195 -3.580350 -11.556866 36.409189 -0.103886 1.893800 0.137215 -0.045396 -326870.000000 0 0 1
35.738955 -3.960250 -11.041766 37.614852 -0.110360 1.868733 0.152887 -0.035788 -349469.000000 0 0 1
35.759215 -5.108550 -10.225266 37.541641 -0.141900 1.846653 0.136481 -0.033714 680912.000000 0 0 1
37.103315 -5.442250 -9.894566 38.783715 -0.145640 1.828770 0.153065 -0.031644 377670.000000 0 0 1
37.079885 -6.716950 -9.046366 38.753994 -0.179205 1.806401 0.150127 -0.036335 -181725.000000 0 0 1
36.639455 -6.506250 -7.740566 38.009174 -0.175743 1.775881 0.140722 -0.035639 193280.000000 0 0 1
36.450975 -7.778850 -7.185066 37.957994 -0.210252 1.761235 0.136452 -0.029403 -232134.000000 0 0 1
36.270555 -7.778350 -5.636966 37.521078 -0.211254 1.721602 0.132564 -0.029179 284215.000000 0 0 1
-37.008194 -7.543950 -4.843166 38.078522 0.201090 1.698331 0.139946 -0.021917 810309.000000 0 0 1
-37.103684 -8.089750 -3.531366 38.139192 0.214671 1.663521 0.148175 -0.020750 -339032.000000 0 0 1
-36.672244 -9.617850 -3.370566 38.062018 0.256489 1.659467 0.145732 -0.030083 413580.000000 0 0 1
37.045725 -10.605250 -4.142066 38.755823 -0.278818 1.677877 0.128557 -0.026782 973510.000000 0 0 1
-36.553394 -11.081850 -5.198366 38.548424 0.294361 1.706061 0.123750 -0.025467 302162.000000 0 0 1
37.111625 -11.782050 -6.288866 39.441593 -0.307412 1.730927 0.109117 -0.029787 389821.000000 0 0 1
36.404355 -11.005150 -7.310966 38.727776 -0.293568 1.760714 0.136424 -0.030661 611556.000000 0 0 1
36.173885 -11.881350 -8.387966 38.988132 -0.317350 1.787633 0.117420 -0.029860 -21157.000000 0 0 1
36.528285 -11.243050 -9.777766 39.450304 -0.298588 1.821257 0.090328 -0.032161 386156.000000 0 0 1
35.684265 -10.116250 -10.137066 38.450818 -0.276245 1.837587 0.093007 -0.030406 825862.000000 0 0 1
36.084375 -9.549450 -11.399766 39.028564 -0.258711 1.867205 0.092233 -0.028682 -260431.000000 0 0 1
35.231385 -8.358150 -11.870266 38.105280 -0.232930 1.887580 0.090883 -0.029783 -214944.000000 0 0 1
35.591085 -7.832150 -13.158166 38.745390 -0.216607 1.917294 0.100412 -0.026339 205634.000000 0 0 1
34.603725 -6.955650 -13.618466 37.832017 -0.198365 1.939034 0.081058 -0.028932 -164544.000000 0 0 1
34.964085 -6.252750 -14.950066 38.536847 -0.176963 1.969194 0.078498 -0.025091 -299685.000000 0 0 1
35.885715 -5.208550 -15.064366 39.266381 -0.144136 1.964537 0.079394 -0.020838 87386.000000 0 0 1
35.330885 -3.895550 -15.060566 38.603982 -0.109815 1.971569 0.106570 -0.025414 -601079.000000 0 0 1
36.417965 -2.866650 -15.070366 39.517108 -0.078553 1.962067 0.109558 -0.025654 -739092.000000 0 0 1
37.146065 -2.894450 -16.298266 40.667450 -0.077764 1.983153 0.112360 -0.023933 -653919.000000 0 0 1
-36.062984 -2.308250 -16.209366 39.605686 0.063919 1.992449 0.151703 -0.021976 -889554.000000 0 0 1
-35.919739 -0.739550 -15.998966 39.328634 0.020586 1.989747 0.137946 -0.022365 -896002.000000 0 0 1
-36.252174 0.068350 -17.107466 40.086035 -0.001885 2.011713 0.114137 -0.018105 67245.100000 0 0 1
-36.275974 1.486050 -16.750266 39.984072 -0.040942 2.003056 0.126512 -0.032461 -185993.000000 0 0 1
-36.438014 2.451550 -17.963666 40.699290 -0.067179 2.027927 0.104437 -0.030306 601327.000000 0 0 1
-35.309395 2.485650 -18.842766 40.099646 -0.070280 2.059972 0.111468 -0.023276 722307.000000 0 0 1
-35.425466 3.791350 -19.395466 40.565035 -0.106617 2.069324 0.100474 -0.023221 -163083.000000 0 0 1
-34.544815 3.973750 -20.621166 40.427310 -0.114528 2.106074 0.098612 -0.016099 -282127.000000 0 0 1
-33.166154 4.097750 -20.356566 39.130232 -0.122929 2.117912 0.098325 -0.017618 178685.000000 0 0 1
-32.465584 4.350750 -21.566166 39.217887 -0.133217 2.153048 0.081053 -0.015695 -474112.000000 0 0 1
-30.972184 4.668750 -21.575266 38.033741 -0.149614 2.173979 0.110162 -0.013175 -574897.000000 0 0 1
-30.216834 3.547350 -21.206666 37.085892 -0.116862 2.179526 0.106364 -0.003609 758604.000000 0 0 1
-28.836874 3.964250 -21.370966 36.110923 -0.136615 2.204104 0.087901 -0.007906 930622.000000 0 0 1
-27.779994 3.040750 -20.747166 34.805446 -0.109024 2.209418 0.114429 -0.007386 -113324.000000 0 0 1
-27.399934 3.308850 -19.453166 33.765819 -0.120179 2.184770 0.115306 -0.000131 -405588.000000 0 0 1
-26.635184 2.268950 -18.951266 32.767844 -0.084981 2.187500 0.118017 -0.007355 -413255.000000 0 0 1
-25.861234 2.597950 -17.651966 31.418858 -0.100121 2.167389 0.112131 -0.010939 -444780.000000 0 0 1
-24.771994 3.450450 -17.864166 30.735740 -0.138398 2.191021 0.106193 -0.010585 223162.000000 0 0 1
-24.086894 3.817650 -16.618066 29.511235 -0.157187 2.168940 0.118497 -0.022246 316175.000000 0 0 1
-22.886894 4.769850 -16.727466 28.746643 -0.205469 2.191851 0.110272 -0.026294 80724.200000 0 0 1
-21.804194 4.212150 -17.438766 28.236070 -0.190830 2.236491 0.141822 -0.030914 -552776.000000 0 0 1
-20.670594 5.025050 -17.399266 27.481976 -0.238475 2.256368 0.130788 -0.025610 -602233.000000 0 0 1
-19.472994 4.251650 -17.968566 26.835487 -0.214962 2.304443 0.157376 -0.029240 -443250.000000 0 0 1
-19.042094 3.245250 -17.055366 25.768556 -0.168803 2.294103 0.192337 -0.035753 -483331.000000 0 0 1
-18.061694 2.441350 -17.589866 25.329594 -0.134353 2.338437 0.150077 -0.033713 -912539.000000 0 0 1
-17.797694 1.000650 -17.010066 24.639431 -0.056164 2.332782 0.148065 -0.029641 -270707.000000 0 1 0
-18.556894 -0.073650 -17.463966 25.482422 0.003969 2.325858 0.117668 -0.028104 155962.000000 0 0 1
-19.859394 -0.026650 -16.894366 26.073278 0.001342 2.275696 0.124638 -0.032801 56674.200000 0 0 1
-20.919694 -1.040450 -17.367366 27.209217 0.049694 2.263071 0.103467 -0.030858 5815.260000 0 0 1
-20.754094 -2.254050 -16.719466 26.746097 0.108183 2.246079 0.089324 -0.023537 -355440.000000 0 0 1
-21.839394 -3.040850 -17.002366 27.843964 0.138347 2.227652 0.090326 -0.013231 -694110.000000 0 0 1
-21.940094 -4.177750 -15.992466 27.469624 0.188164 2.192213 0.099371 -0.025037 -322307.000000 0 0 1
-22.315294 -3.768750 -14.733166 27.004481 0.167308 2.147880 0.092416 -0.025649 280835.000000 0 0 1
-22.770094 -4.906650 -13.972566 27.162198 0.212241 2.111118 0.093249 -0.036409 21922.200000 0 0 1
-23.127594 -4.447650 -12.528666 26.676481 0.189990 2.059693 0.110953 -0.046142 383390.000000 0 0 1
-24.139194 -3.416450 -12.440866 27.370567 0.140597 2.042646 0.103999 -0.038380 866456.000000 0 0 1
-24.220794 -2.919050 -11.126866 26.813706 0.119940 1.998705 0.111888 -0.044281 -346070.000000 0 0 1
-25.036794 -1.615150 -11.020466 27.402562 0.064422 1.984681 0.162938 -0.044252 -200679.000000 0 0 1
-25.367744 -1.339150 -9.694466 27.190043 0.052741 1.935363 0.153826 -0.048559 654027.000000 0 0 1
-26.144454 -0.150150 -9.616866 27.857479 0.005743 1.923266 0.161661 -0.045750 -165274.000000 0 0 1
-26.549424 0.188450 -8.167566 27.777987 -0.007098 1.869237 0.175801 -0.040804 -680290.000000 0 0 1
-25.490144 0.507150 -7.324466 26.526448 -0.019893 1.850550 0.167433 -0.036021 94893.800000 0 0 1
-25.903244 0.935250 -6.034566 26.613318 -0.036090 1.799536 0.180127 -0.040092 89275.100000 0 0 1
-24.663494 1.333150 -5.189266 25.238734 -0.054001 1.777880 0.133521 -0.028155 119044.000000 0 0 1
-24.035294 2.466650 -5.752266 24.836833 -0.102268 1.804521 0.144346 -0.030056 -282844.000000 0 1 0
-22.772594 2.682850 -5.213066 23.515203 -0.117270 1.794343 0.127490 -0.013978 -512178.000000 0 1 0
-22.287994 4.170050 -5.372166 23.302450 -0.184960 1.803430 0.123097 -0.014421 -80594.700000 0 1 0
-22.930294 5.067050 -4.450866 23.901539 -0.217481 1.758106 0.130132 -0.012335 734307.000000 0 1 0
-22.644994 6.420250 -4.614766 23.985650 -0.276267 1.764400 0.128100 -0.016131 -495994.000000 0 1 0
-23.137594 7.417550 -3.474066 24.544601 -0.310233 1.712814 0.127797 -0.015032 -234844.000000 0 1 0
-22.435394 7.451950 -2.268666 23.749217 -0.320687 1.666468 0.105789 -0.013267 14122.400000 0 1 0
-21.075094 7.771550 -2.181166 22.567988 -0.353285 1.667596 0.113393 -0.013896 -338711.000000 0 1 0
-20.643794 9.291750 -2.424366 22.767969 -0.422936 1.677480 0.103354 -0.014892 -439889.000000 0 1 0
-20.633594 9.736050 -3.765766 23.123946 -0.440879 1.734376 0.098400 -0.014003 700105.000000 0 1 0
-20.265594 11.138850 -3.910666 23.453392 -0.502569 1.738321 0.117347 -0.009650 -433763.000000 0 1 0
-20.090194 11.618850 -5.363666 23.819792 -0.524337 1.797921 0.117059 -0.016544 -15087.200000 0 1 0
-18.964194 10.979950 -5.950166 22.706925 -0.524823 1.835934 0.093877 -0.019536 306431.000000 0 1 0
-18.717794 11.527250 -7.231666 23.141527 -0.551988 1.888617 0.084419 -0.018172 27807.100000 0 1 0
-17.419394 11.085850 -7.941666 22.122419 -0.566761 1.937979 0.071413 -0.016468 -167137.000000 0 1 0
-17.255694 9.711450 -8.366566 21.495829 -0.512615 1.970579 0.071544 -0.014526 345344.000000 0 1 0
-18.162694 9.146850 -9.324266 22.371639 -0.466529 2.000707 0.085234 -0.013668 1553.760000 0 1 0
-18.298794 9.869850 -10.675066 23.371282 -0.494647 2.045146 0.099845 -0.016918 -22872.900000 0 1 0
-17.120894 9.632550 -11.415466 22.720561 -0.512480 2.097202 0.095969 -0.020093 202990.000000 0 1 0
-17.011894 10.480050 -12.558066 23.599597 -0.552132 2.131911 0.097253 -0.025391 366109.000000 0 1 0
-15.964194 9.985150 -13.620466 23.239531 -0.558938 2.197021 0.079834 -0.015073 165769.000000 0 1 0
-16.153094 8.796550 -14.280666 23.286029 -0.498668 2.230993 0.100260 -0.027017 -39579.500000 0 1 0
-15.880994 7.608250 -13.493666 22.184915 -0.446771 2.224633 0.086236 -0.024769 -94481.500000 0 1 0
-15.923594 6.358150 -14.448366 22.421913 -0.379895 2.271016 0.102600 -0.027007 -359600.000000 0 1 0
-14.810194 6.375850 -15.289866 22.221010 -0.406523 2.329638 0.115295 -0.029329 1860.300000 0 1 0
-14.701194 5.159150 -16.038966 22.360464 -0.337507 2.370703 0.101525 -0.032110 22292.300000 0 1 0
32.703315 -15.683450 27.722917 45.651260 -0.447168 0.918169 0.049635 0.006808 -366462.000000 0 0 1
31.826825 -14.652050 28.067427 44.893316 -0.431442 0.895405 0.068346 0.001632 -345111.000000 0 0 1
31.015685 -14.842650 29.227157 45.127638 -0.446343 0.866293 0.064512 0.001147 -24706.100000 0 0 1
31.610385 -14.933350 30.650987 46.494133 -0.441340 0.850983 0.065151 -0.008603 -205994.000000 0 0 1
32.145905 -13.675150 31.046597 46.736069 -0.402217 0.844244 0.054866 -0.008480 -23756.000000 0 0 1
32.241665 -13.658850 32.472605 47.755201 -0.400718 0.823060 0.040006 -0.008758 -195854.000000 0 0 1
32.683495 -12.258850 33.016822 48.047901 -0.358839 0.813217 0.051867 -0.004366 9608.700000 0 0 1
32.285875 -11.975350 -33.481496 48.029130 -0.355185 2.342152 0.038352 -0.013076 117857.000000 0 0 1
32.616685 -10.682250 -33.083966 47.670823 -0.316499 2.337838 0.046610 -0.006051 -309097.000000 0 0 1
32.107325 -10.417850 -31.662516 46.280955 -0.313752 2.324216 0.055084 -0.008653 -400387.000000 0 0 1
30.710565 -10.468650 -31.598456 45.290108 -0.328528 2.342964 0.065949 -0.011809 -336360.000000 0 0 1
30.287055 -10.515050 -30.192946 44.039595 -0.334160 2.326205 0.060548 -0.004484 386684.000000 0 0 1
29.041165 -9.633750 -29.763626 42.685733 -0.320305 2.342383 0.059794 0.000291 776558.000000 0 0 1
28.750765 -9.652950 -28.375986 41.532909 -0.323920 2.322955 0.061671 -0.009555 297555.000000 0 0 1
28.008765 -10.815750 -28.005696 41.058378 -0.368515 2.321419 0.093436 -0.015965 -696721.000000 0 0 1
27.559765 -10.709950 -26.501106 39.705822 -0.370647 2.301557 0.079503 -0.011853 -700142.000000 0 0 1
26.787865 -9.607950 -26.072976 38.596664 -0.344376 2.312472 0.058535 -0.015781 1098970.000000 0 0 1
25.494365 -9.370150 -26.662996 38.061499 -0.352213 2.346928 0.050784 -0.017751 671351.000000 0 0 1
24.403865 -10.439450 -26.517846 37.519687 -0.404222 2.355720 0.059032 -0.013742 -1075800.000000 0 0 1
24.641165 -11.612850 -27.308436 38.571958 -0.440407 2.357440 0.065160 -0.019685 119157.000000 0 0 1
23.684565 -12.644750 -27.116356 38.159469 -0.490384 2.361156 0.074378 -0.034327 304717.000000 0 0 1
24.264865 -13.977350 -27.685026 39.377794 -0.522610 2.350490 0.078959 -0.016303 260492.000000 0 0 1
24.385765 -13.945050 -29.117816 40.459574 -0.519465 2.374133 0.072112 -0.026717 -238142.000000 0 0 1
25.457865 -14.751650 -29.483516 41.653232 -0.525175 2.357221 0.066613 -0.022160 -688913.000000 0 0 1
25.820965 -14.824150 -30.990006 42.975087 -0.521167 2.376208 0.066989 -0.025650 -48846.200000 0 0 1
24.783365 -15.461450 -31.706186 43.110948 -0.557782 2.397135 0.082537 -0.020507 6836.400000 0 0 1
24.986865 -15.768650 -33.084126 44.357109 -0.562958 2.412619 0.082372 -0.017014 18271.100000 0 0 1
25.152565 -14.614450 33.758843 44.563361 -0.526356 0.711249 0.049106 -0.015374 -95133.000000 0 0 1
23.965865 -13.889150 33.645763 43.581057 -0.525239 0.688772 0.065774 -0.020013 -333131.000000 0 0 1
24.161765 -12.803750 32.767039 42.677931 -0.487294 0.695435 0.044183 -0.016888 -425347.000000 0 0 1
23.148365 -11.627150 32.863921 41.845845 -0.465476 0.667524 0.059127 -0.023752 -385135.000000 0 0 1
21.809065 -11.945350 32.687355 41.070548 -0.501094 0.650332 0.048670 -0.024691 -551962.000000 0 0 1
21.400765 -12.227250 31.374197 39.897853 -0.519084 0.665897 0.039242 -0.015582 -684781.000000 0 0 1
19.891665 -12.445350 31.155037 39.002582 -0.559071 0.645508 0.049749 -0.019409 172142.000000 0 0 1
18.991165 -11.374350 31.114267 38.185571 -0.539631 0.618382 0.053244 -0.021476 -23101.000000 0 0 1
18.135465 -11.351750 32.253921 38.704945 -0.559276 0.585695 0.047154 -0.021506 107669.000000 0 0 1
17.329965 -10.065350 32.497608 38.180276 -0.526187 0.552601 0.061843 -0.022069 -186038.000000 0 0 1
16.451065 -9.743750 31.376707 36.743380 -0.534729 0.547282 0.094392 -0.025727 297577.000000 0 0 1
15.634565 -8.665150 31.700527 36.392965 -0.506085 0.513436 0.102486 -0.027009 926702.000000 0 0 1
14.495865 -8.654050 32.814555 36.902815 -0.538212 0.475169 0.106385 -0.025382 237302.000000 0 0 1
13.563665 -9.689450 32.736409 36.735962 -0.620304 0.470973 0.104147 -0.023373 551002.000000 0 0 1
12.450565 -9.718350 33.638715 37.162159 -0.662771 0.438976 0.102610 -0.022137 1014710.000000 0 0 1
11.122265 -9.029350 33.187059 36.147128 -0.681911 0.407510 0.129953 -0.027310 129941.000000 0 0 1
11.361865 -7.731150 32.772353 35.537161 -0.597482 0.397066 0.112187 -0.030824 1146140.000000 0 0 1
10.161465 -7.186650 32.153866 34.478608 -0.615572 0.369316 0.118847 -0.023709 1137150.000000 0 0 1
10.414465 -5.704250 31.781847 33.927649 -0.501094 0.357560 0.102441 -0.019037 52237.000000 0 0 1
10.445465 -5.012850 32.972412 34.948768 -0.447444 0.337909 0.086240 -0.019737 87676.100000 0 0 1
10.936265 -3.711750 32.823327 34.795830 -0.327199 0.338325 0.044049 -0.011472 -354439.000000 0 0 1
10.933565 -2.924550 -33.737026 35.584867 -0.261365 2.817915 0.053317 -0.022011 -663418.000000 0 0 1
9.650265 -2.625950 -33.257376 34.728609 -0.265679 2.849475 0.051508 -0.004567 -344222.000000 0 0 1
9.692265 -1.699750 -32.165596 33.637103 -0.173606 2.844711 0.058671 -0.006342 110778.000000 0 0 1
8.270865 -1.296850 -31.708666 32.795251 -0.155531 2.883457 0.063401 -0.002904 428985.000000 0 0 1
7.543265 -0.445350 -32.591686 33.456198 -0.058971 2.913767 0.045478 -0.000405 123239.000000 0 0 1
6.175065 -0.329650 -32.284566 32.871466 -0.053333 2.952343 0.059177 -0.002195 259269.000000 0 0 1
5.379865 0.609250 -33.257016 33.694855 0.112766 2.980208 0.089331 -0.008423 318958.000000 0 0 1
5.882065 1.932350 -33.145516 33.718806 0.317408 2.956928 0.059400 -0.007059 711792.000000 0 0 1
5.063765 2.815450 33.899547 34.391100 0.507438 0.169276 0.083665 -0.016199 315496.000000 0 0 1
5.885265 4.085250 33.685940 34.439341 0.606788 0.209554 0.055413 -0.022514 121294.000000 0 0 1
5.213465 5.052250 32.899792 33.691271 0.769695 0.217185 0.089654 -0.033160 111379.000000 0 0 1
5.975065 6.265750 32.779510 33.903648 0.809141 0.258231 0.070367 -0.038007 24685.900000 0 0 1
5.466265 7.341050 31.798427 33.089440 0.930750 0.280258 0.096069 -0.040888 -225759.000000 0 0 1
4.246865 7.919450 32.240484 33.469425 1.078565 0.271828 0.112597 -0.047305 86253.000000 0 0 1
3.967565 9.139450 31.632987 33.164997 1.161231 0.305135 0.128620 -0.051899 -255180.000000 0 0 1
3.577565 9.158250 30.078647 31.644866 1.198386 0.315935 0.125144 -0.049998 268678.000000 0 0 1
2.355265 8.508550 29.717237 31.000918 1.300747 0.288779 0.123763 -0.052229 239283.000000 0 0 1
2.154765 8.561750 28.344117 29.687296 1.324243 0.301959 0.101531 -0.036608 -1040300.000000 0 0 1
0.847065 8.061350 27.812297 28.969411 1.466103 0.283589 0.102228 -0.032581 -1474380.000000 0 0 1
-0.223535 8.881350 28.106577 29.477246 -1.545633 0.306151 0.103654 -0.031418 -513574.000000 0 0 1
-1.358835 8.539150 27.307147 28.643390 -1.412990 0.306654 0.095988 -0.022024 778956.000000 0 0 1
-2.699635 8.482850 28.078927 29.456288 -1.262685 0.307013 0.085357 -0.026342 221623.000000 0 0 1
-3.061535 9.761150 28.586827 30.362143 -1.266869 0.343657 0.099576 -0.024096 -19381.000000 0 0 1
-4.424935 9.904150 28.955717 30.920960 -1.150627 0.358446 0.083339 -0.010256 125181.000000 0 0 1
-4.817635 11.290250 29.595977 32.040618 -1.167480 0.393163 0.072210 -0.008461 -43663.000000 0 0 1
-4.763135 12.390650 28.690807 31.612942 -1.203798 0.433347 0.068009 -0.016427 834693.000000 0 0 1
-5.885035 12.511150 27.778677 31.029299 -1.131122 0.461826 0.063683 -0.022378 666003.000000 0 0 1
-6.091035 14.010750 27.377107 31.351361 -1.160705 0.508994 0.049014 -0.017048 -50085.500000 0 0 1
-5.125535 14.472550 26.479817 30.608929 -1.230424 0.525444 0.051447 -0.015597 -283261.000000 0 0 1
-5.494835 15.756950 26.001447 30.895792 -1.235258 0.570585 0.048973 -0.014482 -344431.000000 0 0 1
-4.389935 16.596950 25.383397 30.643876 -1.312216 0.594667 0.099809 -0.016036 -336018.000000 0 0 1
-3.806035 15.985350 24.270047 29.309598 -1.337053 0.595161 0.065871 -0.012787 -159388.000000 0 0 1
-2.751435 16.780750 23.763257 29.220821 -1.408279 0.621115 0.064715 -0.010368 134017.000000 0 0 1
-2.609235 16.818050 22.222217 27.990746 -1.416879 0.653579 0.074875 -0.013450 157000.000000 0 0 1
-1.999635 15.643850 21.664717 26.797174 -1.443663 0.629248 0.075848 -0.009812 180077.000000 0 0 1
-2.433335 15.499250 20.313817 25.667081 -1.415071 0.657644 0.071440 -0.009770 286632.000000 0 0 1
-1.589735 14.425850 19.556217 24.353194 -1.461039 0.638443 0.062190 -0.015467 98158.200000 0 1 0
-1.905535 13.096250 19.861617 23.866853 -1.426308 0.587761 0.062842 -0.013464 -422506.000000 0 1 0
-1.152535 12.222050 19.091417 22.697777 -1.476775 0.571457 0.051639 -0.010344 -560864.000000 0 1 0
-1.796735 10.833450 18.839417 21.806319 -1.406442 0.527749 0.033333 -0.016073 -497421.000000 0 1 0
-1.972435 9.861450 19.932117 22.325501 -1.373387 0.467282 0.042548 -0.023677 195069.000000 0 1 0
-2.785035 10.363250 20.993417 23.577043 -1.308258 0.472534 0.065894 -0.020826 118844.000000 0 1 0
-4.316835 10.455750 20.803817 23.680299 -1.179247 0.498023 0.059511 -0.019620 172069.000000 0 1 0
-5.050135 9.208850 20.840217 23.337126 -1.069182 0.466813 0.062044 -0.023046 48829.600000 0 1 0
-6.438535 9.453050 20.845117 23.776749 -0.972863 0.501834 0.059907 -0.017696 -293350.000000 0 1 0
-7.179235 8.131250 20.682817 23.354605 -0.847499 0.483014 0.055030 -0.024790 -246104.000000 0 1 0
-7.151635 7.511850 21.937017 24.265335 -0.809959 0.441650 0.064316 -0.036829 230003.000000 0 1 0
-7.820035 6.255950 21.834717 24.021755 -0.674735 0.430024 0.060236 -0.029235 204478.000000 0 1 0
-7.800635 5.493750 23.185807 25.072153 -0.613586 0.390383 0.056637 -0.026623 -266861.000000 0 0 1
-8.671835 5.952850 24.169347 26.358955 -0.601579 0.410476 0.038133 -0.023909 -308499.000000 0 0 1
-8.830535 4.998050 25.188337 27.155316 -0.515041 0.382952 0.037126 -0.003321 -439098.000000 0 0 1
-9.806835 5.428150 26.253597 28.546281 -0.505532 0.403518 0.033624 -0.002892 -455746.000000 0 0 1
-9.292135 6.384750 27.118437 29.368664 -0.602025 0.394002 0.023060 -0.003257 -476732.000000 0 0 1
-10.363035 6.944450 27.853977 30.519861 -0.590388 0.421073 0.030105 0.001372 158902.000000 0 0 1
-10.000735 8.166350 28.761597 31.526710 -0.684766 0.421948 0.042109 -0.006340 -76431.700000 0 0 1
-9.108535 7.916350 29.814287 32.164044 -0.715486 0.384611 0.044289 -0.008309 -119206.000000 0 0 1
-8.775335 9.088850 30.496297 33.009663 -0.802946 0.392751 0.048796 -0.016626 99976.400000 0 0 1
-7.713435 8.860350 31.586367 33.700170 -0.854489 0.356064 0.072672 -0.019333 -53309.500000 0 0 1
-6.384935 8.609250 31.219027 33.007791 -0.932669 0.330723 0.067831 -0.020911 -684169.000000 0 0 1
-5.731235 7.778650 32.128944 33.550313 -0.935803 0.292123 0.107553 -0.020427 -778166.000000 0 0 1
-4.258235 7.632650 31.844447 33.022095 -1.061910 0.267867 0.082862 -0.025932 -1204780.000000 0 0 1
-3.463735 8.710050 32.149855 33.488440 -1.192299 0.283692 0.075660 -0.035560 -335287.000000 0 0 1
-2.084535 8.354850 32.287156 33.415704 -1.326288 0.260633 0.093616 -0.045436 116631.000000 0 0 1
-1.294435 9.514350 31.740217 33.160817 -1.435576 0.293766 0.104405 -0.044103 -676790.000000 0 0 1
-1.512735 10.707750 32.415015 34.171296 -1.430450 0.322002 0.099121 -0.054617 -39852.500000 0 0 1
-1.538835 11.860850 31.572457 33.761929 -1.441776 0.362115 0.081289 -0.037862 -256976.000000 0 0 1
-1.690535 13.151850 32.432310 35.038319 -1.442958 0.388115 0.076304 -0.047785 -54493.600000 0 0 1
-0.480735 13.509550 33.098206 35.752347 -1.535227 0.387747 0.122561 -0.049074 170220.000000 0 0 1
-0.771835 14.600550 -33.842886 36.866146 -1.517982 2.733788 0.121536 -0.043289 -90102.400000 0 0 1
0.427565 15.090350 -33.024846 36.311732 1.542470 2.712831 0.104375 -0.044038 -635963.000000 0 0 1
1.299665 15.860850 -33.807396 37.365702 1.489037 2.701638 0.124082 -0.042334 -579084.000000 0 0 1
2.482065 15.969050 -33.048386 36.788137 1.416600 2.686780 0.137018 -0.041611 -179376.000000 0 0 1
3.619865 16.594950 -33.885466 37.904097 1.356030 2.676944 0.139119 -0.028675 -108717.000000 0 0 1
3.383465 17.949050 33.862737 38.474683 1.384479 0.494660 0.119653 -0.020176 287922.000000 0 0 1
4.424665 18.676650 33.195953 38.345355 1.338176 0.524229 0.101619 -0.001811 451530.000000 0 0 1
4.130565 20.149050 33.115663 38.983239 1.368597 0.555789 0.103878 -0.016572 -84256.700000 0 0 1
4.241665 20.896450 -33.541706 39.745432 1.370532 2.575333 0.113512 -0.029080 4000.260000 0 0 1
3.989665 22.268950 -33.718156 40.604650 1.393519 2.550624 0.095528 -0.019786 127793.000000 0 0 1
4.033565 22.937350 -32.310426 39.829076 1.396725 2.517044 0.114020 -0.023176 158247.000000 0 0 1
3.650065 24.307550 -32.317496 40.602962 1.421748 2.491354 0.108522 -0.023092 270130.000000 0 0 1
3.384865 24.735750 -30.966216 39.777144 1.434800 2.463057 0.112600 -0.023795 -145720.000000 0 0 1
2.942065 26.233450 -30.924066 40.658917 1.459114 2.434991 0.105379 -0.037345 338346.000000 0 0 1
3.969065 27.227450 -30.907596 41.380756 1.426042 2.414195 0.094159 -0.032380 874580.000000 0 0 1
3.326565 28.434850 -30.430456 41.780610 1.454337 2.386691 0.085948 -0.034357 295020.000000 0 0 1
4.347665 29.576950 -30.244726 42.525776 1.424846 2.362013 0.089019 -0.035929 65968.200000 0 0 1
5.140365 29.465850 -29.080846 41.717565 1.398083 2.342125 0.085275 -0.038820 15123.300000 0 0 1
5.920565 30.629650 -28.912056 42.533934 1.379856 2.318206 0.088805 -0.042636 -227415.000000 0 0 1
6.999565 30.571750 -27.788646 41.902681 1.345720 2.295844 0.091063 -0.037243 36923.600000 0 0 1
8.148665 29.796550 -28.153346 41.795287 1.303847 2.309866 0.088275 -0.031970 714664.000000 0 0 1
9.396365 30.465750 -28.205906 42.567907 1.271629 2.295094 0.094184 -0.034090 266836.000000 0 0 1
9.537365 31.757350 -29.129926 44.136642 1.279046 2.291607 0.109148 -0.035337 -515420.000000 0 0 1
8.736565 32.875350 -28.593226 44.437470 1.311052 2.269791 0.087053 -0.029210 635322.000000 0 0 1
8.641465 33.970950 -29.479806 45.801303 1.321701 2.270049 0.072141 -0.021777 62530.700000 0 0 1
7.382765 -33.991848 -30.389036 46.189225 -1.356926 2.288856 0.061102 -0.015905 -20274.100000 0 0 1
7.411965 33.067950 -31.444876 46.229934 1.350297 2.318810 0.058516 -0.018559 28703.400000 0 0 1
6.161965 32.821050 -32.043786 46.281696 1.385212 2.335557 0.066557 -0.017245 -166865.000000 0 0 1
6.258065 31.861650 -33.271056 46.489690 1.376851 2.368372 0.081729 -0.032414 34602.700000 0 0 1
6.618465 32.626050 33.432010 47.180108 1.370654 0.783279 0.100181 -0.030491 141349.000000 0 0 1
6.889265 31.875950 32.286767 45.890887 1.357943 0.790408 0.116971 -0.030894 -94729.500000 0 0 1
6.070865 32.418650 31.114907 45.342714 1.385676 0.814522 0.111496 -0.033125 -167211.000000 0 0 1
6.640165 33.610850 30.644837 45.966152 1.375748 0.841047 0.113958 -0.033845 -158107.000000 0 0 1
5.879265 -33.773348 29.652137 45.326086 -1.398443 0.857677 0.098763 -0.042050 -83101.800000 0 0 1
18.935706 -21.793350 29.346447 41.167038 -0.855446 0.777225 0.091776 -0.003532 -304153.000000 0 0 1
17.953806 -20.779650 29.408617 40.236796 -0.858225 0.751173 0.088665 0.003094 1856320.000000 0 0 1
16.586106 -21.279250 29.631497 40.074069 -0.908712 0.738591 0.087863 -0.000932 1892780.000000 0 0 1
16.102806 -21.813250 31.009897 41.191406 -0.934882 0.718454 0.083617 -0.018104 -342813.000000 0 0 1
16.622806 -23.090050 31.439797 42.401992 -0.946831 0.735538 0.108853 -0.022855 211277.000000 0 0 1
16.242606 -23.312250 32.782768 43.381945 -0.962261 0.714108 0.111983 -0.034433 -57691.800000 0 0 1
17.116806 -24.357150 33.465466 44.790548 -0.958232 0.727026 0.105145 -0.038242 -31785.300000 0 0 1
16.869506 -25.693030 32.936833 45.050494 -0.989810 0.750850 0.133127 -0.037176 92761.400000 0 0 1
17.626406 -26.600880 33.726792 46.430523 -0.985597 0.757738 0.126626 -0.043339 95688.800000 0 0 1
17.281206 -28.086680 33.494988 47.004424 -1.019216 0.777610 0.137941 -0.041084 287538.000000 0 0 1
17.960406 -28.666220 32.359210 46.812892 -1.011094 0.807585 0.133887 -0.050737 198328.000000 0 0 1
17.479906 -29.940620 32.126894 47.266533 -1.042360 0.823448 0.134481 -0.054762 229440.000000 0 0 1
18.147006 -30.680620 30.888207 47.166679 -1.036664 0.856781 0.127285 -0.043264 548866.000000 0 0 1
19.317206 -31.392410 31.244157 48.320132 -1.019169 0.867668 0.123262 -0.047656 164244.000000 0 0 1
20.102406 -31.876950 30.186217 48.285136 -1.008162 0.895452 0.095588 -0.038549 366861.000000 0 0 1
21.629206 -32.068490 30.489127 49.252385 -0.977411 0.903278 0.091853 -0.037376 454472.000000 0 0 1
22.367006 -30.867340 30.562547 48.858417 -0.943739 0.894982 0.075270 -0.036328 -293617.000000 0 0 1
23.712806 -31.260730 30.455907 49.669837 -0.921846 0.910733 0.053823 -0.028781 -126298.000000 0 0 1
24.691106 -30.043850 30.299697 49.298634 -0.882882 0.908898 0.036045 -0.020861 78031.100000 0 0 1
25.645706 -30.227430 29.280527 49.282340 -0.867217 0.934602 0.037842 -0.022975 -562424.000000 0 0 1
26.532106 -29.158570 29.310947 49.125416 -0.832525 0.931469 0.027939 -0.020623 -761244.000000 0 0 1
27.762106 -29.290400 28.417847 49.358242 -0.812179 0.957279 0.041339 -0.025454 -611637.000000 0 0 1
28.732706 -30.127900 28.979017 50.725163 -0.809097 0.962714 0.036776 -0.013705 -452586.000000 0 0 1
29.874606 -30.122520 28.156277 50.917917 -0.789530 0.984867 0.043471 -0.023505 -186396.000000 0 0 1
30.904106 -31.190690 28.567377 52.383375 -0.790013 0.993987 0.033667 -0.010894 -54087.100000 0 0 1
30.521606 -32.509390 28.200927 52.760981 -0.816924 1.006876 0.025221 -0.007380 346930.000000 0 0 1
31.411206 -33.463790 28.807507 54.188205 -0.817027 1.010285 0.036682 -0.008396 -613243.000000 0 0 1
30.811806 33.104893 29.024007 53.737271 0.821259 1.000229 0.023818 -0.007224 -34950.000000 0 0 1
30.105606 32.935457 30.266267 53.917889 0.830257 0.974792 0.035452 -0.009890 -19573.000000 0 0 1
29.198506 33.838255 30.783677 54.269835 0.858870 0.967653 0.033038 -0.011694 232377.000000 0 0 1
27.776006 33.889172 30.061727 53.138404 0.884210 0.969484 0.035523 -0.006526 607209.000000 0 0 1
27.117106 32.673074 30.279387 52.150824 0.878056 0.951316 0.042160 -0.009796 -53806.200000 0 0 1
25.724306 32.843336 30.003267 51.386970 0.906357 0.947310 0.053874 -0.017342 712665.000000 0 0 1
25.078406 31.428679 29.899087 50.106324 0.897309 0.931398 0.068579 -0.026460 -168447.000000 0 0 1
25.081006 30.796919 28.648337 48.971770 0.887336 0.945920 0.085071 -0.034835 -190543.000000 0 0 1
24.539706 29.538279 28.739697 47.965376 0.877569 0.928325 0.099070 -0.046180 -664181.000000 0 0 1
23.930006 28.940919 27.524227 46.559694 0.879892 0.938300 0.116869 -0.047383 316394.000000 0 0 1
22.667706 29.580639 27.256387 46.170875 0.916943 0.939320 0.135831 -0.042946 554841.000000 0 0 1
22.147906 29.277239 25.980977 44.974411 0.923155 0.954908 0.151462 -0.048248 345961.000000 0 0 1
20.677006 29.730069 25.760807 44.441363 0.963103 0.952487 0.122243 -0.043720 297168.000000 0 0 1
20.540606 31.143069 25.669357 45.284911 0.987732 0.968130 0.153833 -0.053239 999265.000000 0 0 1
19.169306 31.525069 25.378237 44.781103 1.024467 0.968280 0.111681 -0.044464 987841.000000 0 0 1
19.173306 32.881753 24.614337 45.328699 1.042897 0.996768 0.115928 -0.041948 287479.000000 0 0 1
19.820306 32.971352 23.303917 44.978074 1.029541 1.026148 0.109500 -0.046537 1485840.000000 0 0 1
21.245706 33.206989 23.376307 45.831603 1.001628 1.035556 0.124656 -0.048983 874669.000000 0 0 1
21.906506 33.479907 22.032417 45.675229 0.991392 1.067437 0.118708 -0.047592 -214075.000000 0 0 1
21.506906 -33.280810 21.423317 45.045730 -0.997079 1.075161 0.097469 -0.035466 328639.000000 0 0 1
21.922206 -33.219990 20.071517 44.575965 -0.987486 1.103721 0.094939 -0.033724 -59940.500000 0 0 1
21.673606 -31.849910 19.428517 43.146602 -0.973283 1.103705 0.086592 -0.026112 126543.000000 0 0 1
22.537706 -30.889380 20.045817 43.173334 -0.940462 1.087941 0.080087 -0.024301 544561.000000 0 0 1
22.094306 -29.561270 19.748917 41.857458 -0.928957 1.079450 0.082726 -0.019668 88972.500000 0 0 1
22.633406 -28.889280 18.443217 41.073274 -0.906226 1.105115 0.059553 -0.013741 -206650.000000 0 0 1
22.256406 -29.571170 17.276317 40.844496 -0.925609 1.134067 0.042905 -0.017218 254523.000000 0 0 1
22.704306 -28.923710 16.097217 40.139593 -0.905286 1.158154 0.041177 -0.009078 201742.000000 0 0 1
22.042406 -29.641070 14.846217 39.810436 -0.931375 1.188639 0.041601 -0.015786 224410.000000 0 0 1
22.828206 -30.752280 14.431417 40.927931 -0.932225 1.210442 0.035065 -0.010955 161160.000000 0 0 1
22.951806 -30.887500 13.052317 40.634788 -0.931740 1.243789 0.035052 -0.016181 -448694.000000 0 0 1
21.701006 -31.277010 12.259517 39.993509 -0.964222 1.259243 0.028659 -0.015769 -520663.000000 0 0 1
21.168606 -32.528640 12.571917 40.795531 -0.993881 1.257529 0.031770 -0.017426 -275149.000000 0 0 1
19.978506 -32.807500 11.887417 40.209246 -1.023813 1.270672 0.055702 -0.008515 -166536.000000 0 0 1
18.847506 -33.469090 12.685717 40.451649 -1.057927 1.251812 0.068230 -0.013451 -90853.100000 0 0 1
18.502206 -32.595290 13.798317 39.939681 -1.054515 1.218047 0.061408 -0.013171 253261.000000 0 0 1
19.066906 -33.111880 14.986317 41.043065 -1.048336 1.197017 0.050248 -0.018438 -821784.000000 0 0 1
19.206206 -32.036710 16.152217 40.695494 -1.030740 1.162655 0.048222 -0.015100 -145475.000000 0 0 1
18.030106 -31.433190 16.676517 39.890304 -1.050014 1.139488 0.057260 -0.018653 348740.000000 0 0 1
17.053806 -32.370090 17.176717 40.418988 -1.085909 1.131871 0.057601 -0.015417 -204430.000000 0 0 1
17.428706 -33.319740 18.379017 41.853950 -1.088860 1.116174 0.035874 -0.021482 -440542.000000 0 0 1
18.244306 33.564652 18.027117 42.242366 1.072913 1.129895 0.036197 -0.020762 5715.030000 0 0 1
18.502706 32.908823 19.268217 42.386377 1.058603 1.098890 0.039018 -0.025616 -141964.000000 0 0 1
19.253606 31.583839 19.136117 41.646503 1.023346 1.093376 0.058728 -0.025150 -145771.000000 0 0 1
18.520706 30.447469 18.676617 40.235320 1.024308 1.088082 0.041503 -0.024509 -178251.000000 0 0 1
19.383006 29.338459 18.548617 39.755469 0.986958 1.085390 0.049518 -0.028289 235121.000000 0 0 1
18.673606 27.953879 18.298917 38.274969 0.981861 1.072316 0.051335 -0.020837 588836.000000 0 0 1
18.018206 27.363219 19.461017 38.106859 0.988481 1.034802 0.064993 -0.033419 258227.000000 0 0 1
17.654206 26.021329 19.222917 36.855137 0.974679 1.022094 0.072213 -0.034252 -510083.000000 0 0 1
17.580906 24.967519 20.374617 36.709539 0.957290 0.982406 0.088204 -0.031729 289963.000000 0 0 1
16.417606 24.919019 21.177317 36.591994 0.988233 0.953611 0.085917 -0.031394 570779.000000 0 0 1
15.265906 24.304289 20.606817 35.332524 1.009960 0.948103 0.078118 -0.031288 77799.200000 0 0 1
13.923406 24.442199 21.334417 35.304953 1.052995 0.921922 0.092798 -0.035746 -281057.000000 0 0 1
13.327206 25.643589 20.975717 35.709786 1.091506 0.942961 0.079976 -0.036889 114998.000000 0 0 1
12.041806 25.782339 21.598217 35.724181 1.133849 0.921555 0.075023 -0.038297 47030.800000 0 0 1
11.372406 26.932289 20.907817 35.941851 1.171249 0.949964 0.065244 -0.031436 -703058.000000 0 0 1
11.940206 28.213979 21.119317 37.210518 1.170450 0.967253 0.053896 -0.033653 -279333.000000 0 0 1
11.561506 29.134739 20.086517 37.228613 1.193027 1.000900 0.062813 -0.034840 -305820.000000 0 0 1
11.888706 30.651319 20.342517 38.660868 1.200791 1.016696 0.062052 -0.035296 -228040.000000 0 0 1
11.182706 31.267539 21.374817 39.491704 1.227326 0.998875 0.061180 -0.032242 -85064.900000 0 0 1
11.929806 31.105499 22.556517 40.232683 1.204571 0.975624 0.041807 -0.027698 37366.400000 0 0 1
11.346806 32.072450 23.613487 41.412424 1.230752 0.964043 0.043541 -0.025838 605019.000000 0 0 1
10.046906 31.648099 24.029307 40.987194 1.263402 0.944357 0.055321 -0.030950 182711.000000 0 0 1
9.711006 32.074185 25.341877 42.015089 1.276803 0.923338 0.053660 -0.024713 -926698.000000 0 0 1
8.270506 32.068167 25.820547 41.993681 1.318393 0.908578 0.133982 -0.043665 -1412420.000000 0 0 1
7.391306 33.047734 25.306117 42.275096 1.350762 0.929037 0.123153 -0.039461 142748.000000 0 0 1
6.752606 32.668536 24.077217 41.140531 1.366966 0.945616 0.114094 -0.048789 324194.000000 0 0 1
5.640106 31.567139 24.205867 40.177345 1.393992 0.924197 0.102648 -0.052930 -474278.000000 0 0 1
6.144806 30.302919 24.679367 39.561303 1.370730 0.897168 0.090044 -0.040848 -557099.000000 0 0 1
5.366706 29.118199 24.514737 38.440127 1.388534 0.879238 0.071743 -0.034510 -764586.000000 0 0 1
6.226006 27.833829 24.852777 37.830487 1.350734 0.854029 0.082328 -0.035986 190644.000000 0 0 1
7.210506 27.526149 23.920897 37.173776 1.314602 0.871749 0.077682 -0.036689 416846.000000 0 0 1
8.295906 28.453529 23.699657 37.948638 1.287101 0.896280 0.085907 -0.040275 943015.000000 0 0 1
9.643506 28.057739 24.457607 38.450078 1.239743 0.881379 0.068380 -0.046023 398484.000000 0 0 1
9.466706 28.079439 25.889717 39.349090 1.245624 0.852704 0.075377 -0.040891 785772.000000 0 0 1
10.620406 27.635539 26.642347 39.828767 1.203895 0.838038 0.082566 -0.031685 329832.000000 0 0 1
11.804706 28.587359 26.664927 40.836338 1.179190 0.859296 0.069372 -0.018579 -1004250.000000 0 0 1
11.551906 29.750129 27.471907 42.109647 1.200419 0.860063 0.083281 -0.028882 301535.000000 0 0 1
12.670306 30.623489 27.403817 43.003534 1.178498 0.879877 0.078334 -0.019220 -111214.000000 0 0 1
12.606806 31.833459 28.280907 44.408449 1.193722 0.880409 0.073643 -0.030239 -146937.000000 0 0 1
12.455606 31.597649 29.683557 45.107284 1.195305 0.852549 0.076525 -0.043239 312282.000000 0 0 1
11.145306 31.291699 30.129197 44.845923 1.228631 0.834109 0.106367 -0.042037 -112411.000000 0 0 1
10.990806 31.051649 31.635707 45.670786 1.230605 0.805584 0.130116 -0.037155 -164422.000000 0 0 1
11.280606 29.772279 32.081131 45.197784 1.208614 0.781590 0.131306 -0.035657 149596.000000 0 0 1
11.130406 29.689929 33.469712 46.104224 1.212124 0.758371 0.156424 -0.037671 -32526.800000 0 0 1
11.150306 28.242039 -33.908946 45.516576 1.194770 2.411301 0.154455 -0.038596 746849.000000 0 0 1
12.453506 27.662439 33.757602 45.385857 1.147780 0.732072 0.152733 -0.030227 659044.000000 0 0 1
12.475906 26.351799 -33.517236 44.423762 1.128624 2.425671 0.153916 -0.034482 -21785.500000 0 0 1
13.774506 25.652179 33.841777 44.643445 1.078010 0.710485 0.151657 -0.035036 229769.000000 0 0 1
13.866306 24.252609 -33.751506 43.813555 1.051412 2.450177 0.127323 -0.032533 -41806.700000 0 0 1
13.969206 23.836319 -32.396886 42.577776 1.040699 2.435476 0.122700 -0.031080 -293367.000000 0 0 1
14.076406 22.329649 -32.405126 41.795342 1.008330 2.458032 0.094892 -0.043740 883715.000000 0 0 1
15.398506 21.868049 -32.753366 42.286032 0.957287 2.456827 0.099829 -0.029223 714569.000000 0 0 1
15.450506 20.454549 -32.797186 41.626459 0.923875 2.478176 0.093559 -0.025149 -37419.900000 0 0 1
16.871506 20.062149 -33.227646 42.322736 0.871573 2.473656 0.117739 -0.035276 190046.000000 0 0 1
17.835806 20.321849 -32.219586 42.061802 0.850458 2.443401 0.085042 -0.029445 -1396420.000000 0 0 1
19.059706 19.815849 -32.494156 42.565366 0.804846 2.439348 0.096723 -0.029424 -1124370.000000 0 0 1
20.173206 20.293149 -31.514866 42.567087 0.788362 2.404398 0.075490 -0.018814 153408.000000 0 0 1
20.499706 21.671549 -31.803976 43.604895 0.813179 2.388193 0.052743 -0.019822 139976.000000 0 0 1
21.493106 22.270849 -30.986866 43.796463 0.803168 2.356779 0.039033 -0.001043 188326.000000 0 0 1
21.030806 22.420349 -29.539416 42.632663 0.817367 2.336275 0.051211 -0.005806 -78210.100000 0 0 1
20.065006 23.444479 -29.555246 42.728920 0.862915 2.334625 0.037321 0.005425 182069.000000 0 0 1
19.558506 24.005979 -28.303886 41.951545 0.887135 2.311328 0.049882 0.008687 522169.000000 0 0 1
20.703406 24.591199 -27.409586 42.245041 0.871022 2.276834 0.053010 0.002210 292495.000000 0 0 1
21.475506 25.653709 -27.915706 43.572890 0.873821 2.266163 0.039442 0.009042 -290163.000000 0 0 1
20.899706 26.977579 -28.046606 44.172385 0.911670 2.258721 0.048893 0.002527 74049.400000 0 0 1
21.931206 27.941039 -28.723346 45.680521 0.905324 2.250789 0.034552 -0.001537 75173.800000 0 0 1
22.131106 27.877419 -30.128306 46.633155 0.899803 2.273221 0.048962 -0.004320 -3671.240000 0 0 1
22.602006 26.673729 -30.758716 46.566480 0.867842 2.292325 0.040224 -0.000627 493797.000000 0 0 1
24.037006 26.129729 -30.431826 46.761484 0.827089 2.279419 0.052172 -0.003498 410435.000000 0 0 1
25.020806 26.995059 -30.957066 48.094842 0.823335 2.270077 0.054700 -0.002260 162907.000000 0 0 1
26.328306 26.473429 -30.721476 48.351124 0.788147 2.259301 0.071824 -0.009320 107919.000000 0 0 1
27.430806 27.478799 -31.054786 49.718540 0.786272 2.245431 0.052947 -0.005013 -505289.000000 0 0 1
27.528706 28.618779 -30.256756 49.923295 0.804810 2.221900 0.041898 -0.005979 1011060.000000 0 0 1
28.742906 29.365039 -30.535066 51.194242 0.796104 2.209874 0.047518 -0.013319 1093590.000000 0 0 1
28.724606 30.689879 -29.718346 51.479624 0.818463 2.186194 0.033479 -0.007684 -25410.800000 0 0 1
28.859106 30.346739 -28.353486 50.573637 0.810519 2.165952 0.061615 -0.010683 450330.000000 0 0 1
28.509306 31.442709 -27.495456 50.570985 0.834288 2.145636 0.054943 -0.010337 -739874.000000 0 0 1
28.927106 31.031609 -26.036736 49.775996 0.820483 2.121255 0.077048 -0.012062 -263885.000000 0 0 1
28.224006 30.094349 -25.257096 48.375461 0.817458 2.120114 0.047365 -0.000914 -376472.000000 0 0 1
26.864306 30.390229 -25.107936 47.703935 0.846904 2.125073 0.032310 0.001296 -686995.000000 0 0 1
26.243706 29.649719 -23.877866 46.238408 0.846261 2.113447 0.035948 0.008196 22277.800000 0 0 1
26.605006 30.271719 -22.674266 46.242033 0.849777 2.083275 0.066817 -0.004037 121595.000000 0 0 1
25.880506 29.739949 -21.601866 44.954485 0.854676 2.072052 0.049317 -0.004622 9722.850000 0 0 1
3.291006 -25.977750 -19.113966 32.419406 -1.444782 2.201340 0.067373 -0.015706 72785.000000 0 0 1
3.142106 -27.173340 -18.355366 32.942111 -1.455676 2.161807 0.075198 -0.013075 151599.000000 0 0 1
3.131706 -26.904940 -16.985366 31.971644 -1.454919 2.130888 0.098003 -0.020375 -86322.100000 0 0 1
3.274306 -28.095140 -16.011966 32.502938 -1.454776 2.085907 0.095125 -0.019861 -189617.000000 0 0 1
4.576306 -28.383820 -15.559966 32.690921 -1.410943 2.066865 0.091150 -0.018529 -347083.000000 0 0 1
4.658406 -29.284470 -14.483566 33.000827 -1.413044 2.025154 0.095896 -0.026439 -572150.000000 0 0 1
6.083006 -29.636870 -14.116966 33.386161 -1.368357 2.007372 0.098941 -0.011955 -851567.000000 0 0 1
6.816806 -28.614040 -13.486666 32.359269 -1.336923 2.000695 0.093131 -0.005844 2248790.000000 0 0 1
8.280006 -28.879260 -13.436066 32.910454 -1.291575 1.991345 0.084797 0.001127 2242790.000000 0 0 1
8.835606 -29.938890 -12.449566 33.606498 -1.283821 1.950291 0.072358 -0.002962 -888178.000000 0 0 1
8.862906 -29.481470 -11.093666 32.722738 -1.278765 1.916671 0.077071 -0.023036 -56216.700000 0 0 1
9.093006 -30.491690 -10.119466 33.389062 -1.280980 1.878716 0.084986 -0.018872 -214706.000000 0 0 1
10.428906 -31.243950 -10.088066 34.448738 -1.248635 1.867995 0.057364 -0.014067 -175099.000000 0 0 1
11.456606 -30.573950 -9.370266 33.967957 -1.212273 1.850276 0.046766 -0.008114 333009.000000 0 0 1
12.608606 -31.400000 -9.303266 35.092559 -1.188956 1.839111 0.040926 -0.008929 411924.000000 0 0 1
13.816706 -30.917640 -8.447766 34.902243 -1.150534 1.815265 0.055775 -0.018565 524357.000000 0 0 1
14.611606 -29.918350 -9.125766 34.523706 -1.116486 1.838309 0.048583 -0.022576 145312.000000 0 0 1
15.736606 -29.569380 -8.365966 34.525040 -1.081728 1.815548 0.058875 -0.030430 250104.000000 0 0 1
16.980606 -29.133510 -9.204266 34.954554 -1.043079 1.837259 0.072579 -0.035878 291754.000000 0 0 1
16.913406 -27.809450 -9.751966 33.978370 -1.024377 1.861895 0.075364 -0.032161 -74258.300000 0 0 1
16.053706 -27.730330 -10.866566 33.834523 -1.046019 1.897759 0.062385 -0.021714 -143195.000000 0 0 1
15.632006 -26.242770 -11.068266 32.489215 -1.033567 1.918431 0.056114 -0.022910 -549881.000000 0 0 1
14.800506 -25.615300 -10.100066 31.260356 -1.046861 1.899794 0.050821 -0.030728 233452.000000 0 0 1
14.583706 -24.204650 -10.267266 30.066032 -1.028528 1.919299 0.033747 -0.016615 154447.000000 0 0 1
13.797306 -23.798050 -11.548266 29.834129 -1.045387 1.968262 0.029233 -0.002827 17007.600000 0 0 1
14.622506 -23.707650 -12.691066 30.609369 -1.018127 1.998315 0.027853 -0.001610 126041.000000 0 0 1
13.838006 -23.526750 -13.846266 30.605840 -1.039112 2.040258 0.042907 -0.007691 337255.000000 0 0 1
14.743506 -22.871450 -14.908066 31.027804 -0.998209 2.071992 0.039817 -0.007163 713939.000000 0 0 1
15.717206 -23.704450 -15.543366 32.411845 -0.985303 2.070947 0.040648 -0.008763 464449.000000 0 0 1
16.381306 -23.010350 -16.567366 32.746007 -0.952121 2.101262 0.052462 -0.016452 -238054.000000 0 0 1
17.277106 -23.788350 -17.631066 34.281751 -0.942647 2.110986 0.059467 -0.015862 595072.000000 0 0 1
18.509706 -24.290750 -17.202066 35.050832 -0.919655 2.083775 0.082504 -0.019604 -468769.000000 0 0 1
19.531206 -23.308350 -17.054566 34.865533 -0.873340 2.081914 0.089932 -0.024511 -228329.000000 0 0 1
20.805806 -24.018050 -16.523666 35.815916 -0.856940 2.050312 0.082864 -0.025535 122450.000000 0 0 1
21.319406 -24.975150 -17.403966 37.164139 -0.864202 2.058162 0.095345 -0.019011 159257.000000 0 0 1
22.433106 -25.694130 -16.833366 38.036755 -0.853053 2.029242 0.111393 -0.020385 1145730.000000 0 0 1
23.208206 -26.625990 -17.882066 39.589549 -0.853874 2.039451 0.107043 -0.016576 527318.000000 0 0 1
24.127906 -25.948840 -18.731666 40.079589 -0.821745 2.057100 0.113504 -0.021205 -65775.800000 0 0 1
24.727106 -26.811900 -19.636166 41.423263 -0.825827 2.064667 0.098635 -0.024965 -105797.000000 0 0 1
25.915906 -26.158050 -20.370466 42.081274 -0.790048 2.076101 0.081593 -0.023861 -150181.000000 0 0 1
25.534206 -25.097420 -21.281566 41.650705 -0.776772 2.107090 0.097685 -0.026700 -79467.100000 0 0 1
25.762706 -23.880150 -20.645766 40.745874 -0.747494 2.102144 0.105299 -0.022279 -821972.000000 0 0 1
24.663506 -22.856050 -20.808266 39.543286 -0.747380 2.124939 0.133330 -0.023203 -866499.000000 0 0 1
24.630506 -22.162350 -22.034566 39.791377 -0.732701 2.157660 0.123743 -0.020319 51915.600000 0 0 1
24.259806 -22.883450 -23.173566 40.610400 -0.756211 2.178071 0.086261 -0.021338 -796831.000000 0 0 1
23.417006 -22.031050 -24.093266 40.177217 -0.754912 2.213891 0.066861 -0.020462 -344405.000000 0 0 1
24.135206 -21.045850 -24.815166 40.512077 -0.717127 2.230063 0.059474 -0.008810 264793.000000 0 0 1
23.279106 -20.323050 -25.674846 40.176371 -0.717706 2.264063 0.053517 -0.006438 -270796.000000 0 0 1
24.082706 -19.770050 -26.788666 41.090926 -0.687369 2.280932 0.053451 -0.009136 -159035.000000 0 0 1
23.277306 -18.986250 -27.688056 40.852651 -0.684214 2.315500 0.053780 -0.008372 226843.000000 0 0 1
23.900906 -18.651650 -28.889516 41.877696 -0.662659 2.332084 0.059882 -0.016457 -51038.500000 0 0 1
23.074206 -17.501850 -29.546666 41.373170 -0.648921 2.366206 0.089517 -0.023617 -4889.160000 0 0 1
21.878606 -17.915150 -30.145276 41.332356 -0.686126 2.388151 0.078619 -0.021861 81173.700000 0 0 1
21.112206 -16.931350 -30.855246 41.041955 -0.675941 2.421580 0.088782 -0.029631 454260.000000 0 0 1
19.834706 -17.564750 -31.455326 41.126312 -0.724778 2.441600 0.077812 -0.028187 -48761.000000 0 0 1
20.089506 -18.282150 -32.617096 42.446439 -0.738332 2.447180 0.076006 -0.025278 -740901.000000 0 0 1
18.945106 -18.787050 -33.180946 42.577523 -0.781209 2.464355 0.088793 -0.030159 -889440.000000 0 0 1
19.228506 -19.612950 33.407161 43.248603 -0.795296 0.688114 0.092684 -0.020939 66413.300000 0 0 1
19.842106 -20.830050 33.831837 44.409384 -0.809684 0.704682 0.090409 -0.015376 236202.000000 0 0 1
20.258906 -21.665050 32.746688 44.183065 -0.818926 0.736001 0.077889 -0.019006 -53148.200000 0 0 1
21.319006 -22.690750 33.166887 45.490796 -0.816557 0.753805 0.061559 -0.022159 -199599.000000 0 0 1
20.821606 -23.819350 33.879747 46.354482 -0.852450 0.751180 0.080753 -0.024060 22991.100000 0 0 1
21.032606 -23.791950 -32.558916 45.480879 -0.846879 2.368682 0.082046 -0.027320 -177909.000000 0 0 1
19.994206 -24.677850 -31.855876 44.984012 -0.889862 2.357685 0.090707 -0.029574 -191519.000000 0 0 1
20.128306 -26.060720 -31.961206 45.889307 -0.913137 2.341283 0.111081 -0.042623 320494.000000 0 0 1
21.091806 -26.559260 -31.006426 45.952769 -0.899638 2.311416 0.091138 -0.038994 577804.000000 0 0 1
21.120506 -28.094110 -31.063936 46.907599 -0.926159 2.294596 0.098164 -0.050085 667272.000000 0 0 1
19.837206 -28.600090 -30.673486 46.393346 -0.964374 2.293162 0.112313 -0.045673 393089.000000 0 0 1
19.788306 -30.025830 -30.744916 47.311493 -0.988090 2.278171 0.108042 -0.045924 -337444.000000 0 0 1
18.500806 -30.604980 -30.129486 46.762490 -1.027072 2.270916 0.151652 -0.054545 264255.000000 0 0 1
17.305906 -30.463000 -30.872546 46.696925 -1.054166 2.293115 0.164849 -0.062091 -131549.000000 0 0 1
17.152606 -31.303060 -31.976626 47.922834 -1.069526 2.301310 0.165468 -0.062578 -660898.000000 0 0 1
15.755306 -31.849160 -32.347776 48.051818 -1.111410 2.309304 0.170615 -0.062368 -33637.000000 0 0 1
14.940506 -30.879500 -32.932386 47.553173 -1.120166 2.335798 0.177122 -0.060796 -117009.000000 0 0 1
13.765106 -31.349060 -33.564366 47.945890 -1.157051 2.346259 0.120859 -0.044354 293193.000000 0 0 1
12.898906 -30.300240 33.555191 47.015286 -1.168330 0.776018 0.116738 -0.032082 298904.000000 0 0 1
12.140206 -29.465460 -33.428186 46.184862 -1.179975 2.380077 0.122629 -0.044414 866507.000000 0 0 1
11.216606 -28.598100 33.664209 45.573485 -1.197019 0.739687 0.093535 -0.037321 783998.000000 0 0 1
10.423706 -27.561340 -33.325886 44.484781 -1.209223 2.417578 0.096268 -0.038039 389818.000000 0 0 1
9.412806 -28.215860 -32.587026 44.120856 -1.248806 2.401766 0.094448 -0.031199 -691125.000000 0 0 1
8.435206 -27.378770 -32.115246 43.036481 -1.271931 2.413182 0.052687 -0.022718 7429.510000 0 0 1
7.285406 -28.030860 -31.278116 42.627770 -1.316516 2.394621 0.041219 -0.016867 138453.000000 0 0 1
6.281206 -28.720060 -31.965186 43.428890 -1.355482 2.397991 0.040386 -0.014390 -170052.000000 0 0 1
6.567406 -30.061620 -32.336536 44.637242 -1.355711 2.381003 0.040890 -0.016640 -76801.500000 0 0 1
5.264606 -30.719650 -32.888566 45.310823 -1.401069 2.383056 0.044119 -0.013437 612307.000000 0 0 1
4.575106 -31.138760 -31.699296 44.669892 -1.424914 2.359776 0.045122 -0.024929 -21840.300000 0 0 1
3.637006 -32.177820 -31.902906 45.458061 -1.458246 2.348731 0.071359 -0.044302 -1145780.000000 0 0 1
2.990506 -32.585300 -30.593496 44.796282 -1.479278 2.322586 0.051956 -0.049751 182727.000000 0 0 1
2.030806 -31.617230 -30.105696 43.704992 -1.506653 2.330682 0.055478 -0.048833 726901.000000 0 0 1
0.759806 -31.836190 -30.723596 44.249967 -1.546935 2.338270 0.046916 -0.021203 -490395.000000 0 0 1
-0.193494 -30.672290 -30.409966 43.192509 1.564488 2.351890 0.036464 -0.017263 -310806.000000 0 0 1
-0.676494 -30.673090 -29.075226 42.268958 1.548745 2.329336 0.020957 -0.022814 -105839.000000 0 0 1
-1.372894 -29.476170 -28.823346 41.249420 1.524254 2.344456 0.055942 -0.018722 -298260.000000 0 0 1
-2.193694 -29.624200 -27.534706 40.503895 1.496880 2.318292 0.056930 -0.021357 -724093.000000 0 0 1
-1.387694 -29.752030 -26.414476 39.809967 1.524188 2.296302 0.034064 -0.019402 -208632.000000 0 0 1
-2.049994 -29.894600 -25.129806 39.107502 1.502329 2.268661 0.050154 -0.019329 229766.000000 0 0 1
-1.041094 -30.454070 -24.126766 38.866889 1.536624 2.240500 0.033979 -0.022082 -55335.200000 0 0 1
-1.531394 -30.193230 -22.864366 37.904558 1.520120 2.218315 0.062394 -0.026781 154206.000000 0 0 1
-0.711494 -30.828490 -21.863566 37.801025 1.547721 2.187545 0.056471 -0.022577 519686.000000 0 0 1
-1.405494 -30.861770 -20.476166 37.063427 1.525286 2.156112 0.044224 -0.017565 174013.000000 0 0 1
-1.549594 -29.614480 -19.816666 35.666776 1.518518 2.159888 0.041436 -0.021014 -2944.550000 0 0 1
-0.324194 -29.135730 -19.298666 34.949025 1.559670 2.155791 0.052526 -0.031544 -3459.950000 0 0 1
-0.446494 -27.707820 -18.683166 33.421300 1.554683 2.163999 0.053940 -0.028739 -127177.000000 0 0 1
-1.247794 -27.726810 -17.523266 32.823738 1.525824 2.133955 0.051986 -0.033814 -375380.000000 0 0 1
-1.108094 -26.527160 -16.732066 31.382799 1.529049 2.133128 0.064085 -0.037305 350173.000000 0 0 1
-2.265394 -26.252850 -15.695866 30.670904 1.484718 2.108018 0.065789 -0.037088 -40872.500000 0 0 1
-2.330294 -24.944650 -15.116366 29.260388 1.477648 2.113690 0.065558 -0.032861 140906.000000 0 0 1
-2.905994 -24.998450 -13.806366 28.705104 1.455069 2.072560 0.060491 -0.032115 -95060.200000 0 0 1
-2.625794 -23.715950 -12.993666 27.169402 1.460527 2.069453 0.058596 -0.024656 -411437.000000 0 0 1
-1.387794 -23.773850 -12.356466 26.829166 1.512488 2.049423 0.071706 -0.032769 -662694.000000 0 0 1
-1.299694 -22.689250 -11.474066 25.458701 1.513576 2.038338 0.070587 -0.026006 -200955.000000 0 0 1
0.079306 -22.606950 -10.821666 25.063697 -1.567288 2.017247 0.078202 -0.029797 -212328.000000 0 0 1
0.271706 -21.372750 -10.127266 23.652268 -1.558084 2.013267 0.057849 -0.021059 745639.000000 0 1 0
1.629406 -21.340950 -9.628266 23.469014 -1.494593 1.993529 0.054560 -0.022207 1274780.000000 0 1 0
2.080406 -19.878250 -9.257166 22.026530 -1.466519 2.004543 0.038120 -0.013330 -1014020.000000 0 1 0
2.478406 -19.079850 -10.348166 21.846457 -1.441623 2.064258 0.033890 -0.007089 39730.800000 0 1 0
3.436606 -18.043550 -10.152966 20.987202 -1.382589 2.075753 0.018269 -0.006668 158556.000000 0 1 0
4.842206 -18.624750 -9.892066 21.637496 -1.316440 2.045610 0.042897 -0.013314 -900326.000000 0 1 0
4.973106 -19.082150 -8.572566 21.502305 -1.315852 1.980875 0.041750 -0.014496 -21897.300000 0 1 0
6.064206 -19.980250 -8.375766 22.497520 -1.276122 1.952279 0.050806 -0.010316 -53273.600000 0 1 0
5.760806 -21.142550 -7.365766 23.118149 -1.304780 1.895063 0.048984 -0.009237 212059.000000 0 1 0
4.776306 -22.041650 -7.883666 23.891413 -1.357401 1.907078 0.061284 -0.025366 375135.000000 0 1 0
4.625306 -23.140250 -7.033266 24.623798 -1.373515 1.860459 0.080384 -0.023281 195615.000000 0 1 0
3.704106 -24.229450 -7.662666 25.680792 -1.419095 1.873792 0.093079 -0.021467 -43018.100000 0 0 1
4.197806 -24.731650 -8.861066 26.604409 -1.402665 1.910351 0.104667 -0.028566 -486052.000000 0 0 1
3.390706 -25.617610 -9.582366 27.560489 -1.439203 1.925897 0.108597 -0.042693 -532510.000000 0 0 1
4.143906 -26.556590 -10.504966 28.857906 -1.416004 1.943381 0.096907 -0.044183 -126336.000000 0 0 1
4.949406 -27.484340 -9.806066 29.598048 -1.392625 1.908486 0.119028 -0.048169 93434.000000 0 0 1
5.600006 -28.466980 -10.618366 30.894639 -1.376557 1.921646 0.130905 -0.035895 57035.800000 0 0 1
5.053406 -29.906160 -10.470866 32.086669 -1.403402 1.903215 0.112276 -0.038249 950530.000000 0 0 1
3.720306 -30.123020 -10.985066 32.278610 -1.447915 1.918054 0.115023 -0.033995 829218.000000 0 0 1
3.285406 -31.465390 -10.872466 33.452581 -1.466760 1.901820 0.102082 -0.034443 -381491.000000 0 0 1
1.804906 -31.600010 -11.239166 33.587753 -1.513741 1.911999 0.080313 -0.040382 -422936.000000 0 0 1
1.547406 -31.524460 -12.616366 33.990568 -1.521750 1.951068 0.088651 -0.044147 176286.000000 0 0 1
1.375006 -32.721970 -13.303466 35.349684 -1.528800 1.956638 0.090393 -0.040608 -385842.000000 0 0 1
0.833306 -32.591200 -14.740166 35.779228 -1.545233 1.995417 0.096344 -0.036341 515181.000000 0 0 1
-0.370294 -31.813530 -14.830266 35.102344 1.559157 2.006983 0.096280 -0.034077 295792.000000 0 0 1
-0.727194 -31.714840 -16.167466 35.605432 1.547871 2.042128 0.061791 -0.031851 474873.000000 0 0 1
-1.959994 -30.768060 -16.438966 34.939300 1.507180 2.060654 0.067411 -0.021841 1025470.000000 0 0 1
-3.182094 -31.308450 -15.947866 35.280011 1.469507 2.039844 0.086360 -0.028345 -461174.000000 0 0 1
-4.182394 -31.335560 -16.908066 35.850975 1.438109 2.061924 0.089612 -0.022029 -318452.000000 0 0 1
-5.589894 -31.383360 -16.286366 35.796758 1.394528 2.043132 0.106320 -0.031502 -507800.000000 0 0 1
-5.929094 -30.146610 -15.714366 34.509615 1.376600 2.043575 0.082299 -0.025362 -252037.000000 0 0 1
-7.290694 -29.858250 -15.530866 34.436566 1.331306 2.038681 0.091473 -0.029991 75255.000000 0 0 1
-7.990394 -30.580970 -14.325766 34.702589 1.315224 1.996339 0.093344 -0.034739 -210146.000000 0 0 1
-8.260094 -31.931000 -14.579066 36.060602 1.317660 1.987003 0.108915 -0.031425 -148876.000000 0 0 1
-9.090994 -32.555250 -13.612766 36.438960 1.298485 1.953659 0.095818 -0.023221 178806.000000 0 0 1
-9.488794 33.955818 -13.839966 37.875842 -1.298302 1.944863 0.135836 -0.037669 -455122.000000 0 0 1
-8.427594 33.177719 -14.245166 37.077083 -1.322044 1.965142 0.133512 -0.036586 -319334.000000 0 0 1
-9.005694 31.942949 -14.640866 36.274088 -1.295998 1.986264 0.162098 -0.047331 202547.000000 0 0 1
-8.076294 -22.487350 -3.395266 24.133695 1.225995 1.711950 0.082376 -0.017319 325767.000000 0 1 0
-7.471094 -21.294050 -3.928566 22.906057 1.233361 1.743156 0.054191 -0.020010 704676.000000 0 1 0
-6.254294 -21.469250 -4.661666 22.842417 1.287327 1.776320 0.041730 -0.009183 688218.000000 0 1 0
-6.013294 -20.271650 -5.640666 21.884163 1.282429 1.831490 0.040325 -0.022209 369659.000000 0 1 0
-6.825994 -20.399350 -6.814666 22.564736 1.247890 1.877592 0.049956 -0.024922 -150699.000000 0 1 0
-6.610794 -19.357850 -7.742766 21.871885 1.241710 1.932647 0.035024 -0.014613 -506251.000000 0 1 0
-7.590494 -19.264350 -8.897466 22.536541 1.195458 1.976648 0.041540 -0.031022 -319274.000000 0 1 0
-7.334194 -20.223150 -9.891366 23.677105 1.222885 2.001776 0.048506 -0.017837 -227872.000000 0 1 0
-8.328494 -20.308950 -10.890466 24.503459 1.181622 2.031352 0.076931 -0.015673 183967.000000 0 1 0
-7.869894 -21.193350 -12.111366 25.647192 1.215240 2.062615 0.063624 -0.018009 -267688.000000 0 0 1
-6.824894 -20.688950 -12.888466 25.312534 1.252156 2.105020 0.060115 -0.013305 -329867.000000 0 0 1
-6.531794 -21.619450 -13.947966 26.544504 1.277390 2.124047 0.049424 -0.010927 394118.000000 0 0 1
-5.431494 -21.133250 -14.958066 26.454850 1.319229 2.171737 0.042406 0.002423 531010.000000 0 0 1
-4.111494 -21.168150 -14.395966 25.927568 1.378955 2.159445 0.042435 -0.003476 827384.000000 0 0 1
-3.145994 -20.429450 -15.167766 25.638268 1.418003 2.203846 0.054697 0.001680 333608.000000 0 0 1
-3.298994 -18.878150 -15.178566 24.447019 1.397791 2.240656 0.057369 0.007602 -30421.800000 0 1 0
-4.418094 -18.285650 -15.890766 24.625210 1.333725 2.272218 0.059525 0.004425 760121.000000 0 1 0
-4.293194 -18.444050 -17.271366 25.630344 1.342100 2.310222 0.072574 -0.004676 61926.900000 0 0 1
-5.654594 -18.190650 -17.995666 26.205308 1.269414 2.327761 0.062943 0.005146 648815.000000 0 0 1
-6.618694 -19.181050 -17.646466 26.890845 1.238525 2.286602 0.053435 0.001886 -192640.000000 0 0 1
-7.781794 -19.025050 -18.429866 27.607404 1.182531 2.301736 0.052013 -0.002257 -457595.000000 0 0 1
-8.925894 -19.844050 -17.889566 28.169033 1.148107 2.258907 0.083028 -0.009960 -606240.000000 0 0 1
-8.582994 -21.171350 -18.031766 29.103924 1.185638 2.238984 0.073695 -0.010199 254961.000000 0 0 1
-9.597294 -22.041850 -17.612866 29.802084 1.160139 2.203087 0.099886 -0.018446 -9340.730000 0 0 1
-9.109494 -23.455050 -18.072566 30.979669 1.200346 2.193666 0.110007 -0.031795 -380819.000000 0 0 1
-9.040094 -23.681850 -19.462966 31.958729 1.206138 2.225599 0.111031 -0.035747 -16070.800000 0 0 1
-8.364094 -24.830850 -19.917866 32.912772 1.245891 2.220777 0.117107 -0.049391 -16152.500000 0 0 1
-6.821794 -24.789250 -19.778066 32.437874 1.302252 2.226505 0.100261 -0.043339 -158312.000000 0 0 1
-6.151094 -23.758150 -20.541066 32.003453 1.317455 2.267690 0.124207 -0.037521 250956.000000 0 0 1
-6.015694 -22.474950 -19.960766 30.655246 1.309265 2.279878 0.102207 -0.034823 -132602.000000 0 0 1
-5.048794 -22.228350 -18.746366 29.512981 1.347453 2.259051 0.109150 -0.028896 59372.300000 0 0 1
-3.712194 -22.542550 -19.008366 29.719773 1.407586 2.264757 0.084761 -0.036453 -44586.700000 0 0 1
-2.897594 -22.627050 -17.817966 28.945800 1.443431 2.233897 0.045900 -0.032916 559510.000000 0 0 1
-1.480794 -23.164750 -18.117666 29.445682 1.506959 2.233551 0.068992 -0.034872 795240.000000 0 0 1
-0.649294 -22.307050 -18.963166 29.285281 1.541697 2.275138 0.084464 -0.030416 1672940.000000 0 0 1
0.734506 -22.741850 -19.039166 29.668520 -1.538510 2.267548 0.066598 -0.032109 1373420.000000 0 0 1
1.688006 -21.980850 -19.956866 29.736906 -1.494152 2.306507 0.060958 -0.027529 -148391.000000 0 0 1
1.424906 -22.105150 -21.299766 30.730246 -1.506425 2.336606 0.054623 -0.032584 -755040.000000 0 0 1
2.315806 -21.424150 -22.130666 30.888890 -1.463121 2.369512 0.037233 -0.028292 -785690.000000 0 0 1
2.055806 -21.637050 -23.653666 32.122954 -1.476067 2.398453 0.056442 -0.033107 343395.000000 0 0 1
1.250106 -20.673950 -24.358466 31.973580 -1.510402 2.436931 0.048832 -0.028457 2028680.000000 0 0 1
-0.124894 -20.513250 -23.836366 31.448074 1.564708 2.430976 0.074947 -0.030995 1590570.000000 0 0 1
-0.932694 -19.366450 -24.560466 31.291305 1.522673 2.473327 0.097483 -0.028684 241703.000000 0 0 1
-0.484894 -18.059750 -24.238866 30.230982 1.543953 2.501079 0.052105 -0.023213 109962.000000 0 0 1
-1.318694 -17.112650 -24.907666 30.248530 1.493889 2.538233 0.078312 -0.031283 213902.000000 0 0 1
-0.898294 -15.691350 -24.556866 29.155875 1.513611 2.572261 0.063961 -0.012130 843688.000000 0 0 1
0.309006 -15.368150 -25.287306 29.592623 -1.550692 2.595410 0.073986 -0.019916 375463.000000 0 0 1
0.905906 -14.107950 -25.020666 28.738278 -1.506672 2.627296 0.066094 -0.014760 173249.000000 0 0 1
0.243506 -12.809050 -25.535696 28.569263 -1.551788 2.676583 0.068037 -0.009442 -164016.000000 0 0 1
0.934606 -11.642950 -25.118916 27.701835 -1.490696 2.706332 0.053841 -0.007450 -265896.000000 0 0 1
0.557406 -10.435950 -25.754816 27.794429 -1.517435 2.756112 0.049512 -0.006866 -574312.000000 0 0 1
1.467506 -9.226250 -25.446006 27.106760 -1.413060 2.789731 0.058137 -0.008866 1121930.000000 0 0 1
2.837606 -9.231650 -25.881836 27.625075 -1.272585 2.784441 0.076511 -0.014491 658428.000000 0 0 1
3.024206 -9.233950 -27.322816 28.999102 -1.254296 2.799919 0.081194 -0.017308 510103.000000 0 0 1
4.490106 -8.826650 -27.726976 29.442418 -1.100214 2.798550 0.107394 -0.023379 684581.000000 0 0 1
4.647206 -7.376050 -27.867776 29.199581 -1.008581 2.838405 0.101494 -0.024226 -622094.000000 0 0 1
5.849506 -6.972250 -28.424716 29.846163 -0.872741 2.831726 0.111757 -0.023896 -22505.100000 0 0 1
7.111306 -6.690350 -27.471046 29.154585 -0.754907 2.800097 0.114941 -0.026714 1300790.000000 0 0 1
7.782906 -7.854450 -27.007446 29.183354 -0.789973 2.752992 0.089567 -0.027950 387192.000000 0 0 1
8.553506 -8.553750 -27.974006 30.477436 -0.785412 2.733450 0.103295 -0.037532 -612982.000000 0 0 1
8.912206 -10.011950 -27.621456 30.701977 -0.843446 2.689795 0.090876 -0.030933 169372.000000 0 0 1
7.811306 -10.911550 -27.585416 30.676271 -0.949495 2.688832 0.093629 -0.038778 300672.000000 0 0 1
8.068406 -12.002150 -26.757026 30.415279 -0.978941 2.646076 0.089666 -0.040411 296134.000000 0 0 1
9.014106 -13.170750 -27.231116 31.563530 -0.970615 2.611460 0.086050 -0.046964 546629.000000 0 0 1
8.417606 -13.980050 -28.229486 32.606774 -1.028823 2.617454 0.088515 -0.051630 -236754.000000 0 0 1
9.308106 -14.984550 -28.535866 33.548073 -1.014949 2.587915 0.095613 -0.056308 -323050.000000 0 0 1
8.695306 -15.899650 -29.566366 34.678195 -1.070347 2.591723 0.074658 -0.050931 -227648.000000 0 0 1
8.458406 -15.148250 -30.708896 35.271098 -1.061546 2.627325 0.079627 -0.049365 159964.000000 0 0 1
7.704706 -15.778850 -31.714366 36.251008 -1.116558 2.635932 0.088973 -0.045896 31412.600000 0 0 1
6.663706 -14.861250 -32.433376 36.293051 -1.149278 2.676216 0.103595 -0.046215 279191.000000 0 0 1
7.240206 -13.763750 -33.087516 36.560157 -1.086539 2.702213 0.139437 -0.050122 121973.000000 0 0 1
6.191406 -12.926650 -33.576436 36.507654 -1.124118 2.738136 0.111901 -0.051799 248533.000000 0 0 1
6.623606 -11.793950 33.375725 36.012615 -1.059083 0.385052 0.151697 -0.049082 -199013.000000 0 0 1
7.016306 -12.108050 32.054266 34.975840 -1.045606 0.411633 0.157077 -0.042923 161377.000000 0 0 1
7.158906 -10.972650 31.292407 33.924382 -0.992713 0.396505 0.157004 -0.045410 -169959.000000 0 0 1
7.826006 -11.196450 29.901507 32.874108 -0.960761 0.428533 0.148671 -0.040181 -22501.500000 0 0 1
6.964706 -11.794350 28.946257 32.023423 -1.037382 0.441974 0.151982 -0.031550 -26364.400000 0 0 1
7.433606 -11.790350 27.640447 30.955858 -1.008264 0.467054 0.128074 -0.031733 42885.200000 0 0 1
6.495606 -12.472550 26.571227 30.063059 -1.090654 0.486767 0.119356 -0.035291 359976.000000 0 0 1
6.300306 -13.895050 26.815527 30.851884 -1.145101 0.517275 0.126322 -0.027674 -94406.400000 0 0 1
5.929406 -14.666350 25.687567 30.168042 -1.186600 0.551990 0.096429 -0.028860 -510760.000000 0 0 1
4.449906 -15.027550 25.644567 30.054496 -1.282906 0.548574 0.101377 -0.036590 -4567.550000 0 0 1
3.537306 -14.009750 25.217187 29.063588 -1.323477 0.520329 0.089522 -0.039295 -489662.000000 0 0 1
2.283306 -14.493750 24.900217 28.901610 -1.414543 0.532479 0.081604 -0.033154 -384244.000000 0 0 1
1.242406 -13.379450 24.596177 28.027222 -1.478203 0.500002 0.069123 -0.031530 -449202.000000 0 0 1
1.510706 -12.609250 23.457697 26.674688 -1.451555 0.496198 0.041587 -0.021363 -94488.100000 0 0 1
0.668206 -11.467150 23.297377 25.975177 -1.512591 0.458066 0.038936 -0.007274 537277.000000 0 0 1
-0.799594 -11.784650 22.909477 25.775210 1.503050 0.476036 0.032341 -0.005228 -377795.000000 0 0 1
-0.864294 -12.347150 21.611717 24.905129 1.500911 0.520116 0.025130 -0.008907 906861.000000 0 1 0
-2.165694 -12.961450 21.404817 25.116839 1.405238 0.550602 0.035332 -0.014901 1214180.000000 0 0 1
-2.387794 -13.685150 20.101817 24.434974 1.398055 0.604712 0.045965 -0.016932 -335506.000000 0 1 0
-1.430794 -14.670550 19.918417 24.779337 1.473575 0.637087 0.065118 -0.026069 -658439.000000 0 1 0
-1.583994 -15.446750 18.722117 24.323420 1.468608 0.692401 0.066305 -0.030815 212467.000000 0 1 0
-2.657394 -16.578550 18.718317 25.145287 1.411857 0.731151 0.055775 -0.035563 -6589.230000 0 0 1
-2.434994 -17.591250 17.758917 25.114944 1.433250 0.785400 0.048656 -0.034488 90357.200000 0 0 1
-3.477694 -18.576850 17.724017 25.910123 1.385733 0.817485 0.065936 -0.034247 428067.000000 0 0 1
-2.980294 -19.975350 17.228617 26.546600 1.422690 0.864533 0.059800 -0.026693 63438.800000 0 0 1
-1.932194 -20.595750 17.934117 27.377926 1.477255 0.856538 0.072685 -0.036196 -284051.000000 0 0 1
-1.893094 -21.983150 17.718017 28.297894 1.484893 0.894223 0.081395 -0.047630 -147196.000000 0 0 1
-0.722994 -22.756050 18.377017 29.258764 1.539036 0.891705 0.097288 -0.040337 449346.000000 0 0 1
0.446506 -22.668850 17.574817 28.687111 -1.551102 0.911402 0.114972 -0.049528 -426047.000000 0 0 1
1.466106 -23.545250 18.017017 29.684022 -1.508609 0.918566 0.122806 -0.048589 -326742.000000 0 0 1
2.673506 -23.371150 17.100217 29.082223 -1.456898 0.942218 0.114053 -0.057513 -496411.000000 0 0 1
3.361806 -22.166750 17.336317 28.341038 -1.420283 0.912584 0.104235 -0.045414 -510415.000000 0 0 1
4.468806 -22.047050 16.483017 27.887855 -1.370812 0.938441 0.083668 -0.040278 58479.900000 0 0 1
5.284306 -20.733250 16.765817 27.182424 -1.321238 0.906140 0.078951 -0.031563 -728739.000000 0 0 1
5.851906 -20.771650 18.044817 28.130440 -1.296188 0.874384 0.083329 -0.029149 -361794.000000 0 0 1
6.087206 -19.440950 18.570217 27.565514 -1.267353 0.831625 0.069216 -0.017312 434448.000000 0 0 1
7.198306 -18.642750 17.814917 26.771982 -1.202314 0.842725 0.084557 -0.019656 -351159.000000 0 0 1
6.888006 -18.349150 16.462417 25.595841 -1.211688 0.872168 0.080136 -0.015377 645323.000000 0 0 1
7.970106 -17.615150 15.838817 24.993684 -1.145901 0.884453 0.093043 -0.017510 778867.000000 0 1 0
7.376506 -16.621750 14.824017 23.461605 -1.153122 0.886869 0.065947 -0.009122 -53999.900000 0 1 0
6.459906 -17.281550 13.984017 23.150272 -1.213075 0.922218 0.063592 -0.004143 98990.900000 0 1 0
5.907706 -16.423350 12.949817 21.733043 -1.225494 0.932462 0.048845 -0.006922 96847.300000 0 1 0
6.423306 -16.585850 11.498417 21.179303 -1.201307 0.996900 0.056180 -0.007133 -552141.000000 0 1 0
7.762706 -16.230150 11.388917 21.292834 -1.124668 1.006441 0.063396 -0.004985 -704549.000000 0 1 0
8.307006 -16.311150 10.068217 20.890882 -1.099749 1.067925 0.067568 -0.011364 585776.000000 0 1 0
9.851306 -16.153150 10.060917 21.428825 -1.023152 1.082067 0.061552 0.002901 256260.000000 0 1 0
10.517406 -16.389450 8.884817 21.404903 -1.000265 1.142762 0.063006 -0.001351 -246269.000000 0 1 0
11.869906 -15.948750 9.021817 21.832326 -0.930983 1.144796 0.065236 0.008194 673086.000000 0 1 0
12.822306 -16.751050 8.088617 22.592807 -0.917472 1.204653 0.066038 -0.006684 53187.900000 0 1 0
13.078206 -18.074650 8.516117 23.880048 -0.944429 1.206148 0.073219 -0.010485 -87400.500000 0 1 0
13.779206 -18.813250 7.542917 24.509192 -0.938641 1.257960 0.063743 -0.008306 -135045.000000 0 1 0
14.432906 -20.086150 8.071017 26.017369 -0.947729 1.255376 0.072415 -0.007636 -393574.000000 0 0 1
13.576506 -20.995550 8.703717 26.474314 -0.996789 1.235805 0.087618 -0.007328 -636239.000000 0 0 1
14.234306 -22.107050 9.131717 27.833889 -0.998735 1.236527 0.083585 -0.004771 -322839.000000 0 0 1
13.293506 -23.059950 9.901417 28.399237 -1.047854 1.214665 0.102151 -0.013139 216661.000000 0 0 1
12.912606 -22.454550 11.135717 28.194794 -1.048921 1.164776 0.100873 -0.015976 19138.600000 0 0 1
11.933406 -23.191550 11.895017 28.666105 -1.095570 1.142908 0.110034 -0.021565 361213.000000 0 0 1
12.227906 -24.660050 12.432217 30.202645 -1.110467 1.146558 0.093349 -0.027597 196222.000000 0 0 1
13.268106 -24.729150 13.416417 31.105847 -1.078348 1.124847 0.065299 -0.018992 156668.000000 0 0 1
13.232306 -25.980660 14.100817 32.387060 -1.099726 1.120331 0.067759 -0.034515 -189412.000000 0 0 1
14.350406 -26.123860 15.137117 33.429366 -1.068474 1.100883 0.052656 -0.027612 -263268.000000 0 0 1
14.259406 -25.386240 16.359417 33.397939 -1.059016 1.058898 0.046694 -0.018585 -259660.000000 0 0 1
15.188106 -25.827890 17.303617 34.600197 -1.039209 1.047080 0.047060 -0.016004 -560187.000000 0 0 1
15.109706 -25.099790 18.638417 34.723094 -1.028918 1.004189 0.056463 -0.005602 -56186.800000 0 0 1
15.586906 -23.766350 18.693817 34.018375 -0.990327 0.989005 0.045420 -0.008188 734933.000000 0 0 1
16.996806 -23.647550 18.930417 34.734115 -0.947593 0.994396 0.056764 -0.006380 442963.000000 0 0 1
17.539706 -22.234750 19.162817 34.194136 -0.902896 0.975913 0.061455 -0.016583 -129064.000000 0 0 1
17.660606 -21.333350 18.034717 33.049355 -0.879309 0.993583 0.052690 -0.021257 102864.000000 0 0 1
16.428806 -20.777750 17.627717 31.817558 -0.901757 0.983605 0.055288 -0.017374 -431760.000000 0 0 1
16.560806 -19.732650 16.475217 30.578923 -0.872571 1.001812 0.049522 -0.013696 260318.000000 0 0 1
17.285006 -18.585050 16.932817 30.510585 -0.821625 0.982455 0.051253 -0.016974 343434.000000 0 0 1
18.689506 -18.587050 16.776617 31.244695 -0.782650 1.003987 0.056547 -0.014225 154763.000000 0 0 1
19.500406 -17.310650 17.180217 31.226340 -0.725982 0.988212 0.060887 -0.025067 -143423.000000 0 0 1
19.649706 -17.196750 18.554117 32.032709 -0.718924 0.953020 0.061624 -0.027446 143000.000000 0 0 1
20.039206 -15.855750 18.831717 31.742844 -0.669374 0.935696 0.068435 -0.035700 -583608.000000 0 0 1
20.644506 -15.687450 20.187417 32.860668 -0.649798 0.909255 0.062179 -0.026149 -768330.000000 0 0 1
21.877506 -16.320350 20.397017 34.073705 -0.640928 0.929026 0.056825 -0.026694 -325787.000000 0 0 1
22.325306 -16.035450 21.728417 35.038251 -0.622878 0.901883 0.053990 -0.016477 17388.400000 0 0 1
34.752875 -1.430350 -7.794566 35.644965 -0.041135 1.791250 0.137674 -0.018602 1073550.000000 0 0 1
36.116505 -1.021850 -8.049466 37.016753 -0.028286 1.790002 0.166762 -0.024120 862951.000000 0 0 1
36.946135 -2.128950 -8.090666 37.881502 -0.057559 1.786033 0.179502 -0.036278 -442773.000000 0 0 1
-36.055191 -1.922250 -8.519866 37.097978 0.053264 1.802523 0.182262 -0.038828 165291.000000 0 0 1
-35.209137 -2.991450 -8.092066 36.250705 0.084759 1.795918 0.183879 -0.034529 101129.000000 0 0 1
-33.904314 -2.886050 -8.604766 35.098059 0.084919 1.818485 0.228150 -0.039039 185560.000000 0 0 1
-32.869704 -3.895450 -7.986366 34.049581 0.117962 1.807553 0.223700 -0.035273 219557.000000 0 0 1
-32.491814 -3.565850 -6.661366 33.358763 0.109309 1.771836 0.223973 -0.045134 748744.000000 0 0 1
-31.454874 -4.429850 -6.139466 32.353140 0.139912 1.761718 0.218275 -0.045060 534408.000000 0 0 1
-31.050594 -4.195750 -4.697566 31.682974 0.134313 1.719613 0.217761 -0.060179 -236047.000000 0 0 1
-30.349444 -2.981150 -4.526966 30.829684 0.097913 1.718167 0.218824 -0.060911 392357.000000 0 0 1
-30.290564 -2.813450 -3.150866 30.583684 0.092616 1.674004 0.216752 -0.066931 -153642.000000 0 0 1
-29.653104 -1.463650 -2.784166 29.819464 0.049319 1.664300 0.231483 -0.066377 -721231.000000 0 0 1
-28.270354 -1.305050 -2.825366 28.441145 0.046130 1.670301 0.207808 -0.054529 -72345.400000 0 0 1
-27.854914 -0.020150 -2.301566 27.949845 0.000723 1.653236 0.216604 -0.057668 753163.000000 0 0 1
-26.302224 0.102250 -2.090066 26.385333 -0.003887 1.650093 0.194931 -0.040351 599426.000000 0 0 1
-25.920814 -0.661350 -0.992666 25.948244 0.025509 1.609061 0.191174 -0.045100 1617120.000000 0 0 1
-24.531294 -0.448250 -0.591866 24.542527 0.018271 1.594915 0.144932 -0.036649 1372480.000000 0 1 0
-24.105494 -1.348150 0.572434 24.149949 0.055869 1.547091 0.124784 -0.038262 -443511.000000 0 1 0
-23.983694 -2.685750 0.125434 24.133930 0.111518 1.565599 0.135574 -0.035708 649286.000000 0 1 0
-23.147794 -3.362750 1.042634 23.414003 0.144264 1.526251 0.116943 -0.032782 -371988.000000 0 1 0
-23.507094 -4.857850 0.984834 24.023989 0.203786 1.529791 0.115385 -0.030068 -219589.000000 0 1 0
-24.676494 -5.295350 1.652134 25.292284 0.211385 1.505428 0.133717 -0.041595 458492.000000 0 0 1
-24.899394 -6.654450 1.427934 25.812797 0.261150 1.515449 0.113394 -0.031299 -1082070.000000 0 0 1
-26.260274 -7.118650 1.867134 27.272025 0.264719 1.502279 0.140028 -0.028387 -988373.000000 0 0 1
-26.366964 -7.288550 3.300234 27.554152 0.269693 1.450735 0.130755 -0.025868 250986.000000 0 0 1
-27.680774 -7.685150 3.620734 28.955077 0.270814 1.445422 0.138470 -0.016510 -43913.500000 0 0 1
-27.918724 -7.715350 5.151234 29.419670 0.269621 1.394794 0.126692 -0.028203 114529.000000 0 0 1
-27.019734 -8.601550 5.820034 28.946942 0.308199 1.368358 0.124427 -0.005139 271637.000000 0 0 1
-27.066984 -8.490150 7.198834 29.266491 0.303952 1.322271 0.106409 -0.009228 23902.400000 0 0 1
-26.322124 -7.342250 7.951034 28.460179 0.272024 1.287654 0.119780 -0.009423 -1017780.000000 0 0 1
-24.964794 -7.295750 7.686334 27.121000 0.284324 1.283449 0.140157 -0.021124 -820267.000000 0 0 1
-24.467394 -6.112650 8.200634 26.519205 0.244817 1.256409 0.128212 -0.030166 -545774.000000 0 0 1
-23.057994 -5.721850 7.759834 24.992512 0.243237 1.255092 0.143431 -0.030703 -549530.000000 0 1 0
-21.979694 -6.419950 8.317034 24.361768 0.284180 1.222394 0.143707 -0.038766 -371777.000000 0 1 0
-20.805194 -5.913350 7.760834 22.979433 0.276922 1.226293 0.128506 -0.029802 -188245.000000 0 1 0
-19.505394 -6.170350 8.563334 22.178014 0.306380 1.174377 0.141129 -0.039449 39814.300000 0 1 0
-19.507594 -5.408050 9.737434 22.463545 0.270436 1.122449 0.132317 -0.032105 413134.000000 0 1 0
-18.393794 -5.645750 10.577034 21.956316 0.297809 1.068168 0.130118 -0.039042 -255034.000000 0 1 0
-18.146294 -4.556050 11.604034 22.015885 0.245989 1.015641 0.124978 -0.028069 959274.000000 0 1 0
-19.275294 -4.508150 12.528734 23.427112 0.229752 1.006530 0.129410 -0.022062 1298140.000000 0 1 0
-19.252394 -3.312550 13.221734 23.589021 0.170391 0.975802 0.117241 -0.014889 77220.700000 0 1 0
-20.351794 -3.228550 14.298234 25.081040 0.157326 0.964191 0.102840 -0.009983 -21106.000000 0 0 1
-20.296894 -4.273950 15.295334 25.771647 0.207540 0.935402 0.097773 -0.007654 183170.000000 0 0 1
-21.474894 -4.242450 16.074034 27.157762 0.195042 0.937412 0.074755 0.009658 59480.500000 0 0 1
-21.502794 -5.435350 17.138534 28.029316 0.247588 0.912904 0.071907 0.010247 621089.000000 0 0 1
-22.576294 -5.347750 18.109134 29.431755 0.232588 0.908040 0.068540 0.015952 1133980.000000 0 0 1
-22.185694 -5.929850 19.353534 30.032107 0.261177 0.870521 0.074360 0.013766 -161851.000000 0 0 1
-23.025294 -5.302350 20.482834 31.270203 0.226338 0.856578 0.072702 0.010741 -488950.000000 0 0 1
-22.728894 -3.998850 20.794334 31.064413 0.174155 0.837403 0.058590 0.014987 121104.000000 0 0 1
-23.288894 -3.630650 22.015734 32.252857 0.154651 0.819485 0.061265 0.001983 -262665.000000 0 0 1
-23.112194 -2.153650 22.305334 32.192230 0.092914 0.805322 0.065113 0.004685 973.983000 0 0 1
-24.123694 -1.349850 21.731434 32.496614 0.055897 0.838298 0.080333 -0.003573 -60008.800000 0 0 1
-24.021594 -0.009450 22.213534 32.718163 0.000393 0.824484 0.088286 -0.010233 308539.000000 0 0 1
-25.176764 0.932150 21.683134 33.239986 -0.037007 0.860154 0.106424 -0.017651 790627.000000 0 0 1
-26.369894 0.637950 22.410434 34.612221 -0.024188 0.866534 0.114530 -0.025495 -580986.000000 0 0 1
-27.496844 1.122850 21.769834 35.089356 -0.040813 0.901529 0.120047 -0.022374 -767078.000000 0 0 1
-28.676894 1.100650 22.729734 36.608967 -0.038362 0.900933 0.113924 -0.022363 -532275.000000 0 0 1
-28.416564 1.929850 23.849034 37.148376 -0.067809 0.873700 0.110986 -0.026318 76925.800000 0 0 1
-29.452474 1.683550 24.779034 38.526395 -0.057099 0.872165 0.092216 -0.023068 -66003.300000 0 0 1
-29.352874 2.596950 26.039534 39.324200 -0.088244 0.847078 0.107649 -0.027710 -148023.000000 0 0 1
-28.498634 2.105450 27.041834 39.342926 -0.073745 0.812981 0.083256 -0.030875 -98262.300000 0 0 1
-28.327504 3.077150 28.096034 40.016290 -0.108203 0.792433 0.079088 -0.033520 -344767.000000 0 0 1
-27.068644 2.728450 28.902334 39.692579 -0.100458 0.755171 0.082903 -0.031517 -252904.000000 0 0 1
-27.196214 1.646750 29.829634 40.399912 -0.060477 0.740163 0.074309 -0.026177 141530.000000 0 0 1
-26.133394 1.734350 30.755134 40.396046 -0.066268 0.705419 0.067413 -0.030225 31485.100000 0 0 1
-26.138334 0.485550 31.661934 41.060033 -0.018574 0.690209 0.043084 -0.033236 -180931.000000 0 0 1
-25.760494 -0.646450 30.983134 40.298580 0.025089 0.693772 0.049814 -0.037491 -102529.000000 0 0 1
-26.158174 -1.748850 31.783034 41.200362 0.066757 0.689717 0.064116 -0.033863 -180647.000000 0 0 1
-27.031604 -2.788050 30.996434 41.222079 0.102777 0.719800 0.053824 -0.027916 1141150.000000 0 0 1
-28.379484 -2.466450 30.606634 41.812014 0.086692 0.749535 0.069009 -0.022897 1008250.000000 0 0 1
-28.517934 -1.419650 29.646534 41.160721 0.049740 0.766615 0.069306 -0.020172 -770079.000000 0 0 1
-29.955974 -1.165450 29.162034 41.822756 0.038886 0.799205 0.093568 -0.020965 111032.000000 0 0 1
-30.866904 -0.639450 30.097134 43.116263 0.020713 0.798131 0.108473 -0.018141 -1439720.000000 0 0 1
-32.142234 -0.892150 29.647234 43.736457 0.027749 0.825947 0.090687 -0.015892 -1147960.000000 0 0 1
-33.181894 -0.545950 30.705834 45.212658 0.016452 0.824203 0.085749 -0.019694 -323253.000000 0 0 1
-33.241924 -1.511550 31.709134 45.964981 0.045440 0.809509 0.117881 -0.022529 192289.000000 0 0 1
-34.162904 -1.094150 32.723334 47.319317 0.032016 0.807174 0.135605 -0.019808 336073.000000 0 0 1
-34.688129 -2.246050 33.597734 48.343756 0.064660 0.802410 0.144636 -0.019939 -50789.400000 0 0 1
-35.700994 -3.016850 33.002734 48.711835 0.084303 0.826425 0.106324 -0.020764 -260173.000000 0 0 1
-35.782037 -4.306950 33.631534 49.294869 0.119790 0.819958 0.103408 -0.016096 163236.000000 0 0 1
-36.970534 -5.230150 33.235334 49.987621 0.140535 0.843475 0.101490 -0.012117 -116244.000000 0 0 1
36.272045 -4.795450 33.760334 49.783710 -0.131446 0.825567 0.112457 -0.019170 -576032.000000 0 0 1
35.182885 -5.534350 33.253334 48.726263 -0.156024 0.819684 0.102825 -0.019037 859401.000000 0 0 1
33.757325 -4.945650 33.659734 47.926967 -0.145471 0.792155 0.117633 -0.016736 602558.000000 0 0 1
33.289515 -5.261350 -32.858948 47.069992 -0.156752 2.343519 0.106587 -0.020603 468685.000000 0 0 1
32.650415 -6.559350 -32.752948 46.710067 -0.198257 2.347871 0.102784 -0.019300 -397201.000000 0 0 1
31.240665 -6.645750 -33.353648 46.180202 -0.209603 2.377846 0.076441 -0.016006 -477730.000000 0 0 1
30.190175 -6.397750 -32.432248 44.768612 -0.208826 2.381020 0.077295 -0.015608 76275.300000 0 0 1
28.947765 -6.815350 -32.953048 44.388349 -0.231225 2.407413 0.076223 -0.010635 -24937.200000 0 0 1
27.818365 -6.680050 -31.899848 42.849561 -0.235669 2.410524 0.071573 -0.018569 213674.000000 0 0 1
26.561065 -7.119450 -32.388048 42.487203 -0.261885 2.437658 0.045997 -0.016921 317077.000000 0 0 1
25.496765 -6.701750 -31.531748 41.100482 -0.257033 2.445240 0.039022 -0.015333 1050060.000000 0 0 1
24.090265 -7.192950 -32.087048 40.763441 -0.290157 2.476975 0.042750 -0.023954 812550.000000 0 0 1
24.019165 -8.623750 -32.071348 40.986104 -0.344702 2.469456 0.055849 -0.026258 177413.000000 0 0 1
23.920965 -9.233650 -30.762848 40.047793 -0.368385 2.446748 0.060127 -0.029308 -492091.000000 0 0 1
23.732465 -10.733450 -30.710948 40.269085 -0.424739 2.438186 0.064280 -0.030851 379486.000000 0 0 1
22.604165 -11.285650 -31.401848 40.303725 -0.463066 2.464073 0.071921 -0.039082 402019.000000 0 0 1
22.386565 -12.640450 -31.130748 40.374036 -0.514017 2.451298 0.076025 -0.035502 -489157.000000 0 0 1
21.235065 -13.224350 -31.991048 40.610819 -0.556987 2.477939 0.074868 -0.030308 1050240.000000 0 0 1
19.886765 -12.873050 -31.667048 39.547450 -0.574487 2.499318 0.074059 -0.030388 436629.000000 0 0 1
19.495165 -11.553850 -31.905048 39.134193 -0.534999 2.523997 0.068737 -0.030558 -891930.000000 0 0 1
18.092165 -11.208850 -31.404248 37.936678 -0.554665 2.545984 0.074999 -0.033339 -587958.000000 0 0 1
17.030065 -11.690450 -32.145548 38.210287 -0.601580 2.570443 0.063034 -0.028930 -995802.000000 0 0 1
15.814165 -11.271750 -31.606948 37.096352 -0.619240 2.590634 0.099042 -0.032789 283117.000000 0 0 1
14.564165 -11.671250 -32.469348 37.451189 -0.675574 2.619902 0.098156 -0.035253 -382038.000000 0 0 1
14.360165 -13.104150 -32.698648 38.041224 -0.739697 2.605201 0.104557 -0.038466 215726.000000 0 0 1
13.098765 -13.401850 -33.256648 38.173183 -0.796835 2.628447 0.105179 -0.039163 275763.000000 0 0 1
11.838365 -13.298950 -32.376348 36.949112 -0.843437 2.638803 0.105346 -0.041975 -342692.000000 0 0 1
11.254065 -12.024950 -32.179548 36.149367 -0.818501 2.668543 0.150955 -0.038948 -345935.000000 0 0 1
10.208365 -12.112650 -31.245048 35.031130 -0.870506 2.672375 0.134753 -0.043263 -508073.000000 0 0 1
9.018365 -11.240350 -31.566948 34.700844 -0.894642 2.713329 0.116674 -0.033038 -853058.000000 0 0 1
9.264865 -9.884450 -31.350148 34.152187 -0.817742 2.733689 0.131181 -0.029917 143211.000000 0 0 1
8.275565 -9.031650 -31.905948 34.176677 -0.829056 2.775014 0.123387 -0.030916 -17694.700000 0 0 1
8.677065 -7.557850 -32.063148 34.065496 -0.716568 2.797022 0.121298 -0.026862 -200262.000000 0 0 1
9.030065 -6.886750 -30.859948 32.883215 -0.651546 2.788973 0.121498 -0.031352 265945.000000 0 0 1
9.428465 -5.589850 -31.228448 33.096199 -0.535160 2.804034 0.106636 -0.023677 -199622.000000 0 0 1
9.452665 -4.728050 -29.959848 31.769480 -0.463793 2.802445 0.102460 -0.018754 -38001.100000 0 0 1
8.163565 -4.255650 -29.638048 31.034952 -0.480540 2.840420 0.102543 -0.020194 26951.900000 0 0 1
8.225365 -3.277650 -28.528348 29.870827 -0.379196 2.840649 0.110147 -0.022279 809438.000000 0 0 1
6.758865 -2.795750 -28.273248 29.204025 -0.392211 2.888443 0.087020 -0.022650 -41427.600000 0 0 1
6.157065 -2.138750 -29.381048 30.095344 -0.334326 2.923286 0.066769 -0.012119 834596.000000 0 0 1
4.795665 -1.689350 -29.285848 29.723950 -0.338692 2.969689 0.079531 -0.020480 1531960.000000 0 0 1
3.745465 -2.894250 -29.233848 29.614575 -0.657893 2.981070 0.069419 -0.024394 -191568.000000 0 0 1
3.823265 -3.754050 -28.099848 28.606148 -0.776264 2.953171 0.081220 -0.017853 583725.000000 0 0 1
2.587565 -4.480250 -27.933448 28.408549 -1.047048 2.958450 0.079072 -0.015866 944964.000000 0 0 1
2.673765 -5.460550 -26.751448 27.433677 -1.115462 2.918111 0.070151 -0.020844 -417964.000000 0 0 1
2.742565 -4.823950 -25.499048 26.095854 -1.053837 2.927315 0.069333 -0.019571 -57574.600000 0 0 1
2.891765 -5.833450 -24.500548 25.350904 -1.110578 2.881852 0.076174 -0.027628 -24045.700000 0 0 1
2.901165 -5.282150 -23.068848 23.843021 -1.068537 2.886067 0.081722 -0.035346 301499.000000 0 1 0
3.966265 -4.388950 -22.766548 23.522539 -0.835944 2.887378 0.079224 -0.037310 130104.000000 0 1 0
3.820065 -3.872750 -21.505748 22.183063 -0.792247 2.893844 0.071492 -0.037510 119097.000000 0 1 0
4.743065 -2.667150 -21.245148 21.930953 -0.512257 2.890852 0.085185 -0.038750 781516.000000 0 1 0
6.107565 -2.996650 -20.960548 22.036943 -0.456136 2.827752 0.079007 -0.037992 244213.000000 0 1 0
6.836465 -1.873550 -20.536748 21.725687 -0.267485 2.809233 0.082574 -0.032026 768635.000000 0 1 0
8.352765 -2.221950 -20.293448 22.057420 -0.259993 2.738949 0.092964 -0.031750 -185076.000000 0 1 0
8.976865 -2.458650 -21.539748 23.464651 -0.267331 2.733718 0.098396 -0.045335 272716.000000 0 1 0
10.258165 -3.074550 -21.495548 24.015441 -0.291197 2.679389 0.090339 -0.042791 1365170.000000 0 1 0
11.451265 -2.460450 -20.658148 23.747513 -0.211645 2.625812 0.088934 -0.035828 -380103.000000 0 1 0
11.269765 -2.469350 -19.243648 22.437097 -0.215704 2.601519 0.077978 -0.019457 -307123.000000 0 1 0
12.352165 -2.082250 -18.447948 22.298846 -0.167004 2.545090 0.078091 -0.026498 -439142.000000 0 1 0
12.583965 -0.562750 -18.284048 22.203137 -0.044690 2.538331 0.060402 -0.027603 -101531.000000 0 1 0
12.948465 0.048450 -19.467048 23.380143 0.003742 2.554639 0.062412 -0.031164 -62233.600000 0 1 0
13.153565 1.425950 -19.240548 23.350553 0.107986 2.539208 0.088055 -0.045088 99581.100000 0 1 0
13.770665 2.110450 -20.484148 24.772678 0.152074 2.544342 0.089407 -0.041062 -1445650.000000 0 1 0
15.125165 2.140050 -20.644548 25.681663 0.140556 2.504558 0.092452 -0.033429 -1261250.000000 0 0 1
15.451165 3.243750 -21.484948 26.662022 0.206931 2.507865 0.090088 -0.039457 278556.000000 0 0 1
16.916065 3.242450 -21.998648 27.939350 0.189382 2.477330 0.056925 -0.028244 200780.000000 0 0 1
17.095265 2.349250 -23.105448 28.837975 0.136566 2.500121 0.047781 -0.025974 -112499.000000 0 0 1
18.024965 1.291450 -23.036748 29.278986 0.071526 2.476406 0.048481 -0.018046 -73633.500000 0 0 1
9.448706 26.246150 3.049134 28.061284 1.225238 1.461922 0.022529 -0.002716 1516.130000 0 0 1
9.424506 26.759150 4.356634 28.702852 1.232165 1.418423 0.032922 -0.004128 475935.000000 0 0 1
10.706706 27.236250 4.769234 29.651180 1.196248 1.409250 0.042177 -0.010897 352743.000000 0 0 1
10.729006 28.027150 6.084434 30.621121 1.205198 1.370764 0.038242 -0.013431 -91022.700000 0 0 1
10.485706 27.184150 7.211234 30.015495 1.202653 1.328173 0.033869 -0.016454 108656.000000 0 0 1
10.433506 28.017650 8.295334 31.026752 1.214315 1.300143 0.037764 -0.016328 -324404.000000 0 0 1
10.341106 27.300150 9.691234 30.759660 1.208704 1.250273 0.041634 -0.024089 828757.000000 0 0 1
11.544806 26.647850 10.151834 30.764431 1.161971 1.234507 0.057198 -0.020227 751652.000000 0 0 1
12.035306 25.545650 9.412334 29.766103 1.130511 1.249065 0.060542 -0.023347 -209620.000000 0 0 1
13.285406 24.866450 9.998334 29.913359 1.080110 1.229994 0.065822 -0.029731 -23600.000000 0 0 1
14.449306 25.664850 9.977134 31.096788 1.058027 1.244179 0.080732 -0.028276 -163993.000000 0 0 1
15.577206 24.994250 10.452634 31.250911 1.013470 1.229749 0.077009 -0.028961 -530517.000000 0 0 1
16.710006 25.892050 10.928934 32.696547 0.997681 1.229983 0.073056 -0.033928 -1476860.000000 0 0 1
17.389006 26.563750 9.882934 33.251808 0.991184 1.269022 0.075813 -0.037641 878197.000000 0 0 1
18.797906 26.249350 9.801034 33.740924 0.949328 1.276069 0.104726 -0.042424 1114660.000000 0 0 1
19.625006 26.820350 10.966734 34.996304 0.939097 1.252058 0.095278 -0.042703 -1273780.000000 0 0 1
19.956806 28.203250 10.966334 36.248558 0.954983 1.263449 0.087199 -0.045761 268578.000000 0 0 1
18.811406 29.032250 11.109334 36.333977 0.995865 1.260064 0.070548 -0.036313 258752.000000 0 0 1
19.166606 30.542850 11.379334 37.811556 1.010379 1.265109 0.062440 -0.016386 -806358.000000 0 0 1
19.594506 31.366650 10.271534 38.383797 1.012418 1.299894 0.083988 -0.034275 25980.400000 0 0 1
18.720306 31.502150 9.169534 37.774538 1.034612 1.325603 0.094515 -0.034373 -537250.000000 0 0 1
17.307606 32.026150 9.353134 37.586017 1.075337 1.319308 0.092794 -0.034136 -768803.000000 0 0 1
17.268306 33.315050 9.902634 38.809137 1.092590 1.312781 0.076840 -0.030995 1153490.000000 0 0 1
15.931306 33.877750 9.808934 38.700435 1.131224 1.314543 0.104686 -0.030822 1264900.000000 0 0 1
15.914606 -32.611448 10.077934 37.660935 -1.116789 1.299899 0.108783 -0.037386 -400983.000000 0 0 1
16.786806 -31.923048 9.262734 37.238100 -1.086681 1.319414 0.106587 -0.035516 -323069.000000 0 0 1
16.809706 -30.548248 9.485434 36.134958 -1.067748 1.305184 0.059454 -0.019740 65236.300000 0 0 1
17.521706 -29.806148 8.320634 35.561912 -1.039355 1.334631 0.055740 -0.024294 301140.000000 0 0 1
16.800306 -29.856548 7.067434 34.980171 -1.058254 1.367355 0.057960 -0.031524 127318.000000 0 0 1
17.614006 -29.419348 6.012034 34.812294 -1.031317 1.397228 0.045775 -0.010627 162922.000000 0 0 1
17.014806 -29.599148 4.562634 34.444605 -1.049081 1.437943 0.059910 -0.013661 81534.800000 0 0 1
17.089906 -30.922848 4.183934 35.577981 -1.065911 1.452925 0.066200 -0.019357 86014.000000 0 0 1
16.811506 -30.989648 2.733834 35.361828 -1.073739 1.493409 0.074669 -0.015582 23886.700000 0 0 1
17.005206 -32.441148 2.203734 36.694163 -1.087987 1.510703 0.075727 -0.014257 -809369.000000 0 0 1
18.333006 -32.840248 2.159234 37.672846 -1.061643 1.513449 0.087723 -0.003915 -575111.000000 0 0 1
18.563006 33.936050 1.441334 38.708115 1.070260 1.533552 0.111974 -0.011450 -817569.000000 0 0 1
19.996206 33.444650 1.536034 38.996824 1.031930 1.531397 0.096846 -0.009598 -546854.000000 0 0 1
20.357506 33.211050 2.891234 39.060993 1.020892 1.496710 0.092569 -0.020435 233572.000000 0 0 1
21.688906 32.754450 3.064834 39.403755 0.985916 1.492937 0.080723 -0.004798 156859.000000 0 0 1
22.076806 32.335850 4.491834 39.410267 0.971752 1.456572 0.081285 -0.001094 -272063.000000 0 0 1
21.334406 31.299150 5.039234 38.212401 0.972507 1.438537 0.075494 -0.020627 407157.000000 0 0 1
22.226606 30.308650 5.652034 38.007654 0.938042 1.421535 0.066013 -0.023962 910348.000000 0 0 1
21.502706 29.320750 6.619634 36.957981 0.938029 1.390712 0.082196 -0.036734 401419.000000 0 0 1
20.381106 28.742450 5.950634 35.734129 0.953993 1.403492 0.089036 -0.035237 -201067.000000 0 0 1
19.471606 28.302550 6.926834 35.045097 0.968183 1.371831 0.093630 -0.043422 927291.000000 0 0 1
17.966606 28.405650 6.426434 34.219570 1.006821 1.381875 0.107323 -0.038849 656260.000000 0 0 1
17.492906 29.736450 6.196534 35.052179 1.039050 1.393082 0.102690 -0.051000 134978.000000 0 0 1
17.954606 30.389050 5.002334 35.649483 1.037151 1.430012 0.109956 -0.042213 -420353.000000 0 0 1
17.875506 31.949750 5.113634 36.965788 1.060698 1.432017 0.113234 -0.037575 -1104120.000000 0 0 1
16.657406 32.522750 5.334534 36.927709 1.097455 1.425830 0.113493 -0.035971 -1321020.000000 0 0 1
16.762306 33.958150 5.439234 38.258543 1.112268 1.428143 0.106810 -0.037463 -220588.000000 0 0 1
15.422106 -33.331148 5.742134 37.172287 -1.137437 1.415702 0.090973 -0.037621 56760.100000 0 0 1
14.584506 -33.333648 4.596134 36.673756 -1.158360 1.445141 0.094357 -0.031191 356505.000000 0 0 1
13.325706 -32.712348 4.883534 35.658394 -1.183961 1.433411 0.091716 -0.032486 758959.000000 0 0 1
12.496106 -32.308648 3.651734 34.832981 -1.201744 1.465768 0.090356 -0.030231 -463628.000000 0 0 1
11.381406 -31.495248 3.723934 33.695026 -1.224029 1.460051 0.090911 -0.036759 -677308.000000 0 0 1
10.929806 -31.287648 2.446134 33.231930 -1.234716 1.497122 0.082051 -0.025279 -1068070.000000 0 0 1
9.990806 -30.107548 2.346234 31.808576 -1.250393 1.496968 0.093200 -0.024257 -19448.000000 0 0 1
9.330406 -29.808048 1.104534 31.253739 -1.267441 1.535448 0.089768 -0.013555 78467.000000 0 0 1
8.365706 -30.757748 0.727834 31.883442 -1.305233 1.547966 0.068420 -0.018779 -817394.000000 0 0 1
8.495406 -31.364048 -0.654966 32.500837 -1.306279 1.590950 0.079323 -0.014220 -1581950.000000 0 0 1
9.626706 -32.065448 -0.808466 33.489104 -1.279137 1.594940 0.072685 -0.022974 -1761910.000000 0 0 1
9.831506 -32.778048 -2.001466 34.279219 -1.279393 1.629217 0.067337 -0.009653 235371.000000 0 0 1
11.181206 -33.559148 -2.019066 35.430389 -1.249185 1.627814 0.057358 -0.007729 305081.000000 0 0 1
11.263806 33.664050 -0.858566 35.508854 1.247911 1.594978 0.057374 -0.002060 -14836.300000 0 0 1
12.279406 32.685350 -0.945466 34.928639 1.211425 1.597868 0.069542 -0.006965 -234184.000000 0 0 1
12.471506 31.766550 0.309834 34.128407 1.196687 1.561718 0.066572 -0.015548 -569795.000000 0 0 1
12.833706 32.434650 1.535834 34.915173 1.194021 1.526795 0.071724 -0.021444 945929.000000 0 0 1
14.149706 33.012250 1.583134 35.951762 1.165864 1.526747 0.087203 -0.021161 579199.000000 0 0 1
15.372406 32.072550 1.555834 35.600281 1.123845 1.527080 0.097561 -0.025399 -815298.000000 0 0 1
15.830806 31.786550 0.252834 35.511451 1.108722 1.563676 0.096100 -0.029899 412932.000000 0 0 1
16.640206 30.594850 0.233034 34.828087 1.072657 1.564105 0.105204 -0.023300 448001.000000 0 0 1
17.278106 30.081050 -1.096466 34.707417 1.049424 1.602393 0.098282 -0.023317 1022390.000000 0 0 1
18.346806 30.799550 -1.770566 35.893627 1.033556 1.620144 0.074312 -0.021236 561553.000000 0 0 1
18.123106 32.148950 -2.183866 36.969869 1.057478 1.629902 0.082706 -0.020186 -37820.200000 0 0 1
19.309506 32.953150 -2.794666 38.295917 1.040758 1.643837 0.089514 -0.014007 1584460.000000 0 0 1
20.416106 33.293450 -1.884766 39.100173 1.020715 1.619019 0.088020 -0.012389 1752610.000000 0 0 1
21.436006 -33.858248 -2.452766 40.148467 -1.006386 1.631927 0.082545 -0.012215 -41322.300000 0 0 1
22.572806 -33.403448 -1.509666 40.343538 -0.976523 1.608225 0.076962 -0.003273 -503179.000000 0 0 1
23.516306 33.637650 -1.025866 41.055579 0.960670 1.595786 0.072488 0.000495 764439.000000 0 0 1
24.377406 32.946450 -1.949666 41.030814 0.933784 1.618331 0.081852 -0.004503 249979.000000 0 0 1
25.184406 33.838450 -2.915866 42.282352 0.930983 1.639813 0.071452 -0.007293 -999807.000000 0 0 1
24.357906 -33.746548 -4.033066 41.813906 -0.945596 1.667399 0.074234 -0.029113 375698.000000 0 0 1
25.034206 -32.897648 -4.942366 41.634045 -0.920310 1.689787 0.071030 -0.029080 -473424.000000 0 0 1
24.137006 -32.413048 -6.058666 40.864510 -0.930716 1.719607 0.072796 -0.035777 -249858.000000 0 0 1
23.155406 -31.475248 -5.643266 39.480508 -0.936529 1.714226 0.080679 -0.032642 45821.500000 0 0 1
22.448806 -31.068548 -6.788266 38.926651 -0.945091 1.746079 0.081595 -0.037428 -220213.000000 0 0 1
21.538506 -29.849848 -6.561766 37.389537 -0.945746 1.747207 0.093070 -0.038296 723629.000000 0 0 1
20.322506 -30.153848 -5.863966 36.832661 -0.977761 1.730682 0.093881 -0.030271 953945.000000 0 0 1
19.440206 -28.992848 -5.789566 35.383979 -0.980133 1.735156 0.105397 -0.042511 1124350.000000 0 0 1
18.217606 -29.110448 -4.829566 34.678871 -1.011615 1.710516 0.089300 -0.026538 1666160.000000 0 0 1
17.113806 -29.953648 -5.319266 34.905558 -1.051715 1.723783 0.078830 -0.034240 211379.000000 0 0 1
16.062706 -29.948448 -4.450766 34.274326 -1.078497 1.701021 0.066098 -0.023373 -995469.000000 0 0 1
14.768406 -30.627848 -4.882966 34.351336 -1.121499 1.713427 0.054157 -0.019114 -340502.000000 0 0 1
14.876506 -32.036448 -4.861566 35.655003 -1.136063 1.707573 0.055036 -0.012073 -266044.000000 0 0 1
13.648706 -32.737848 -4.867466 35.801482 -1.175799 1.707176 0.052663 -0.007042 -203926.000000 0 0 1
13.777606 33.740350 -5.089066 36.798536 1.183119 1.709536 0.054953 -0.008004 -132934.000000 0 0 1
14.166906 32.944250 -3.962766 36.079473 1.164676 1.680853 0.060909 -0.011181 -43107.200000 0 0 1
14.485906 31.601550 -4.198966 35.016150 1.140985 1.691001 0.070755 -0.018182 -289713.000000 0 0 1
13.362006 30.602750 -4.502566 33.694875 1.159118 1.704825 0.057108 -0.018018 -32230.000000 0 0 1
12.493906 30.135550 -3.485766 32.808530 1.177776 1.677243 0.052275 -0.014569 268434.000000 0 0 1
13.147406 29.259350 -2.580866 32.181124 1.148491 1.651081 0.071389 -0.020032 -483771.000000 0 0 1
12.196906 28.294850 -1.881566 30.869133 1.163800 1.631787 0.051878 -0.014033 -594084.000000 0 0 1
11.393706 29.024650 -1.042966 31.198311 1.196726 1.604233 0.041899 -0.010962 -1125630.000000 0 0 1
10.450406 28.187950 -0.455466 30.066243 1.215766 1.585946 0.019591 0.001642 -399755.000000 0 0 1
9.273306 28.998350 0.124034 30.445261 1.261286 1.566722 0.014798 0.008363 -75745.300000 0 0 1
8.314706 28.252050 0.848634 29.462397 1.284573 1.541988 0.014091 0.001785 187885.000000 0 0 1
7.125306 29.054950 0.864234 29.928365 1.330307 1.541916 0.023260 0.002745 1233650.000000 0 0 1
5.881206 28.352650 1.552734 28.997799 1.366266 1.517224 0.021158 -0.001339 863678.000000 0 0 1
5.392506 27.244650 0.828634 27.785549 1.375393 1.540969 0.032757 -0.009888 -546572.000000 0 0 1
4.230706 26.751750 1.419434 27.121390 1.413948 1.518436 0.032526 -0.017010 -65046.200000 0 0 1
3.541506 25.653050 0.548834 25.902171 1.433609 1.549606 0.038980 -0.014774 -509228.000000 0 0 1
2.353706 25.170050 1.058234 25.302000 1.477555 1.528960 0.056752 -0.018210 -662903.000000 0 0 1
1.854406 24.070850 0.346634 24.144664 1.493909 1.556439 0.047857 -0.023717 -469683.000000 0 1 0
0.471406 23.557150 0.728334 23.573121 1.550788 1.539895 0.050103 -0.021683 288619.000000 0 1 0
-0.585094 24.479950 0.448634 24.491051 -1.546900 1.552477 0.063568 -0.028353 -928412.000000 0 1 0
-1.847294 24.018950 0.670334 24.099208 -1.494038 1.542977 0.045942 -0.021862 -1322480.000000 0 1 0
-2.893694 25.080950 1.096034 25.271106 -1.455930 1.527412 0.071778 -0.031901 -721732.000000 0 0 1
-4.094894 24.363050 1.279034 24.737872 -1.404275 1.519070 0.075135 -0.023623 -809187.000000 0 1 0
-4.983194 25.153650 2.009634 25.721139 -1.375219 1.492585 0.075733 -0.027140 -322742.000000 0 0 1
-6.316794 25.270350 1.244434 26.077598 -1.325847 1.523058 0.084622 -0.029262 -238610.000000 0 0 1
-6.251294 26.392450 0.412334 27.125820 -1.338223 1.555595 0.091264 -0.028460 31913.800000 0 0 1
-7.439094 26.544550 -0.335866 27.569296 -1.297556 1.582979 0.084469 -0.022156 26310.800000 0 0 1
-7.341594 27.644750 -1.427566 28.638596 -1.311219 1.620665 0.075977 -0.011753 -62032.800000 0 0 1
-7.468094 28.945550 -0.829866 29.904949 -1.318298 1.598550 0.107943 -0.020513 14246.900000 0 0 1
-7.567294 29.869050 -1.907266 30.871698 -1.322668 1.632616 0.090497 -0.023567 -98780.200000 0 0 1
-7.533394 31.282050 -1.404666 32.207014 -1.334475 1.614424 0.078621 -0.021822 -498368.000000 0 0 1
-7.973494 32.324550 -2.200666 33.366092 -1.328954 1.636799 0.065945 -0.008749 -331945.000000 0 0 1
-7.341494 32.634650 -3.421666 33.624778 -1.349520 1.672733 0.059386 -0.012686 -664964.000000 0 0 1
-5.871394 33.057750 -3.500066 33.757052 -1.395019 1.674667 0.088659 -0.008261 -354473.000000 0 0 1
-5.483494 -33.705348 -2.858466 34.267916 1.409520 1.654309 0.088777 -0.016363 96901.100000 0 0 1
-5.212094 -33.885448 -1.489166 34.316281 1.418177 1.614205 0.126205 -0.029509 -371250.000000 0 0 1
-4.974994 -32.564548 -0.714866 32.950135 1.419195 1.592493 0.137600 -0.027423 -210812.000000 0 0 1
-6.093394 -31.731848 -0.781666 32.321056 1.381078 1.594983 0.110000 -0.019856 -450501.000000 0 0 1
-5.798394 -30.512448 -1.432266 31.091514 1.383002 1.616879 0.114604 -0.016779 -106439.000000 0 0 1
-7.086694 -29.703648 -1.649466 30.581836 1.336595 1.624759 0.119355 -0.024979 -120879.000000 0 0 1
-7.660094 -29.255848 -0.437166 30.245211 1.314714 1.585251 0.113016 -0.023338 -472519.000000 0 0 1
-8.611394 -28.278748 -0.747866 29.570306 1.275200 1.596090 0.066384 -0.022194 -345777.000000 0 0 1
-8.973194 -27.453348 0.508334 28.887072 1.254890 1.553198 0.068030 -0.017098 -412556.000000 0 0 1
-7.905494 -26.736248 1.073434 27.901184 1.283303 1.532314 0.087509 -0.032129 -504126.000000 0 0 1
-8.016094 -26.407548 2.481334 27.708724 1.276083 1.481126 0.102546 -0.021254 179300.000000 0 0 1
-8.858794 -25.127248 2.762334 26.785954 1.231845 1.467486 0.101748 -0.023119 466156.000000 0 0 1
-8.120094 -23.907148 2.741434 25.396912 1.243370 1.462642 0.100750 -0.028425 -462996.000000 0 0 1
-8.888794 -22.845548 3.251234 24.728531 1.199737 1.438938 0.117728 -0.035851 287893.000000 0 1 0
-8.000094 -21.616648 3.721734 23.348068 1.216338 1.410711 0.065082 -0.019485 772118.000000 0 1 0
-7.232394 -21.729248 4.905134 23.420677 1.249489 1.359798 0.074772 -0.017523 -176158.000000 0 1 0
-6.610394 -20.514948 5.347434 22.207104 1.259078 1.327608 0.041427 -0.016332 -332408.000000 0 1 0
-7.495094 -19.464548 6.035634 21.713451 1.203232 1.289119 0.051331 -0.016534 -54113.800000 0 1 0
-7.920394 -19.867748 7.317834 22.605547 1.191449 1.241139 0.053351 -0.021363 -532773.000000 0 1 0
-9.054994 -19.185548 7.734834 22.581095 1.129823 1.221182 0.049992 -0.015537 -462017.000000 0 1 0
-28.123804 28.614750 -5.333566 40.474674 -0.794051 1.702956 0.127486 -0.014881 274833.000000 0 0 1
-27.377234 29.396950 -4.384666 40.409391 -0.820958 1.679516 0.114036 -0.032832 -41544.200000 0 0 1
-26.198724 28.702650 -4.056966 39.072679 -0.830974 1.674815 0.103421 -0.027232 -278219.000000 0 0 1
-25.247964 29.542350 -3.209766 38.993753 -0.863617 1.653204 0.091545 -0.027975 -226459.000000 0 0 1
-25.846434 29.855850 -1.951466 39.537554 -0.857254 1.620174 0.069267 -0.032174 563590.000000 0 0 1
-25.212494 31.010150 -1.333766 39.988476 -0.888155 1.604156 0.066970 -0.029640 1898230.000000 0 0 1
-23.845994 30.780150 -0.485866 38.939506 -0.911661 1.583274 0.051598 -0.023852 1667650.000000 0 0 1
-22.775894 30.413650 -1.337266 38.019991 -0.928018 1.605976 0.077308 -0.024544 122189.000000 0 0 1
-21.618094 30.170150 -0.533366 37.119596 -0.949056 1.585166 0.074982 -0.023591 1157220.000000 0 0 1
-20.375694 29.709150 -1.430766 36.053427 -0.969638 1.610491 0.088267 -0.024564 245289.000000 0 0 1
-19.200794 29.635050 -0.701666 35.318537 -0.995893 1.590664 0.093637 -0.023501 -380451.000000 0 0 1
-18.211794 28.795250 -1.330666 34.097017 -1.006852 1.609832 0.097484 -0.022902 135509.000000 0 0 1
-16.842994 29.232050 -0.780866 33.746244 -1.048074 1.593938 0.098315 -0.022881 -574909.000000 0 0 1
-16.490694 28.563950 0.379834 32.984641 -1.047216 1.559281 0.094759 -0.027869 96268.800000 0 0 1
-15.389194 29.245150 0.969034 33.061233 -1.086398 1.541482 0.100866 -0.029723 68806.300000 0 0 1
-14.792794 28.481850 2.134534 32.165180 -1.091768 1.504386 0.109482 -0.032953 -352011.000000 0 0 1
-15.581394 28.525550 3.316534 32.672408 -1.070855 1.469112 0.101824 -0.036597 -32751.200000 0 0 1
-15.000694 27.866250 4.439234 31.957089 -1.076972 1.431433 0.120658 -0.049606 586682.000000 0 0 1
-13.774394 28.634550 5.050034 32.174124 -1.122431 1.413185 0.106932 -0.041929 358667.000000 0 0 1
-14.095194 29.846850 5.703434 33.496838 -1.129594 1.399695 0.082910 -0.046205 -112468.000000 0 0 1
-14.262194 30.986750 4.847034 34.454065 -1.139437 1.429647 0.074435 -0.036154 -3950.290000 0 0 1
-14.111494 32.274950 5.631234 35.672363 -1.158615 1.412273 0.085343 -0.036226 -430493.000000 0 0 1
-15.159894 32.583250 6.483534 36.517486 -1.135320 1.392304 0.093024 -0.042565 -305061.000000 0 0 1
-14.813994 33.784250 7.157334 37.577352 -1.157557 1.379156 0.075960 -0.039561 105622.000000 0 0 1
-15.973694 -33.720848 8.040334 38.169379 1.128406 1.358558 0.064508 -0.029947 61100.700000 0 0 1
-16.144694 33.483050 9.243134 38.304064 -1.121510 1.327081 0.043636 -0.028562 -332652.000000 0 0 1
-17.217294 33.901150 10.033534 39.324229 -1.100875 1.312795 0.043762 -0.021742 -1049470.000000 0 0 1
-17.313894 33.096750 11.320834 39.029823 -1.088817 1.276511 0.043959 -0.012084 367021.000000 0 0 1
-16.402294 33.450750 12.352134 39.250008 -1.114905 1.250652 0.056311 -0.019279 -360987.000000 0 0 1
-15.075994 33.076050 12.128734 38.319928 -1.143131 1.248746 0.069928 -0.020716 -736565.000000 0 0 1
-14.126894 33.184150 13.337734 38.453246 -1.168323 1.216580 0.079499 -0.017979 -222285.000000 0 0 1
-14.519894 32.321650 14.423434 38.256396 -1.148582 1.184219 0.061267 -0.009949 86986.600000 0 0 1
-14.096294 30.969450 14.572434 37.015783 -1.143653 1.166163 0.044812 -0.012688 -138795.000000 0 0 1
-15.027094 29.932450 13.895734 36.260951 -1.105523 1.177522 0.051780 -0.013967 -60326.600000 0 0 1
-14.840794 29.885850 12.491434 35.629330 -1.109886 1.212591 0.050468 -0.008689 148161.000000 0 0 1
-15.940394 29.432350 11.739734 35.470844 -1.074430 1.233467 0.040386 -0.008269 -80232.600000 0 0 1
-15.597194 29.527550 10.229034 34.925375 -1.084824 1.273556 0.037236 -0.011970 249348.000000 0 0 1
-14.741294 28.453550 9.763134 33.499688 -1.092787 1.275065 0.031797 -0.014847 505798.000000 0 0 1
-14.973594 28.081250 8.435134 32.922889 -1.080924 1.311698 0.054876 -0.022490 -291307.000000 0 0 1
-14.296294 26.725250 8.092834 31.370639 -1.079592 1.309871 0.070955 -0.028046 -355890.000000 0 0 1
-12.923794 26.894050 7.942134 30.877045 -1.122834 1.310654 0.089086 -0.033101 -284399.000000 0 0 1
-12.135794 25.691150 7.911634 29.494180 -1.129494 1.299227 0.101222 -0.037049 206159.000000 0 0 1
-10.891994 25.881450 7.046034 28.950503 -1.172453 1.324945 0.131744 -0.046188 -341033.000000 0 0 1
-11.300694 26.028150 5.682734 28.938966 -1.161183 1.373142 0.131947 -0.045504 -573617.000000 0 0 1
-10.233694 26.035550 4.845134 28.391085 -1.196282 1.399300 0.147021 -0.036755 -1115330.000000 0 0 1
-10.537994 26.476650 3.382434 28.696745 -1.192006 1.452653 0.135236 -0.034708 -27727.100000 0 0 1
-10.435294 27.861350 3.265634 29.930161 -1.212426 1.461470 0.128204 -0.028750 61017.900000 0 0 1
-10.621094 28.358150 1.973634 30.346129 -1.212434 1.505713 0.123769 -0.025070 7248.820000 0 0 1
-10.222294 29.832650 1.782434 31.585747 -1.240680 1.514335 0.135461 -0.032487 -6651.930000 0 0 1
-11.077394 30.763850 2.382334 32.784122 -1.225171 1.498065 0.118778 -0.036499 -225972.000000 0 0 1
-10.803594 32.069750 1.944034 33.896398 -1.245859 1.513413 0.111564 -0.026822 -615574.000000 0 0 1
-11.615094 33.151650 2.593334 35.223113 -1.233799 1.497104 0.091179 -0.028415 -1024670.000000 0 0 1
-12.942094 33.380750 2.283934 35.874624 -1.200928 1.507089 0.098484 -0.029750 -868640.000000 0 0 1
-13.110894 -33.884548 1.115734 36.349732 1.201609 1.540097 0.070521 -0.019535 -1011350.000000 0 0 1
-14.593094 -33.784348 0.786334 36.809766 1.163055 1.549433 0.072723 -0.019522 -312803.000000 0 0 1
-15.160394 32.971450 0.290334 36.291023 -1.139820 1.562796 0.073143 -0.016531 -157030.000000 0 0 1
-15.365294 32.879950 -1.101466 36.309732 -1.133637 1.601136 0.089851 -0.020453 276813.000000 0 0 1
-14.121194 32.626050 -2.018666 35.608177 -1.162321 1.627518 0.077527 -0.011701 764537.000000 0 0 1
-13.513294 31.300750 -1.861666 34.143987 -1.163244 1.625347 0.082347 -0.007082 312961.000000 0 0 1
-12.143994 31.282750 -2.183066 33.628155 -1.200503 1.635760 0.070714 -0.006709 115217.000000 0 0 1
-11.502594 29.848850 -2.225266 32.065797 -1.202973 1.640249 0.040962 -0.002166 108537.000000 0 0 1
-11.694094 29.174550 -3.496466 31.624856 -1.189573 1.681583 0.056996 -0.018020 54362.500000 0 0 1
-10.684794 29.434850 -4.474766 31.632242 -1.222589 1.712735 0.040049 -0.012215 88085.900000 0 0 1
-10.905594 28.910950 -5.918566 31.461158 -1.210087 1.760047 0.043613 -0.012391 -226953.000000 0 0 1
-10.943594 27.486150 -6.012866 30.189489 -1.191886 1.771308 0.055928 -0.009796 83774.100000 0 0 1
-10.765994 27.075550 -7.323666 30.043770 -1.192337 1.817044 0.048934 -0.008866 4178.410000 0 0 1
-11.323194 25.621950 -7.433766 28.982062 -1.154671 1.830191 0.065289 -0.021618 675905.000000 0 0 1
-10.537394 24.663050 -6.652866 27.632650 -1.167018 1.813946 0.034189 -0.013464 544658.000000 0 0 1
-10.975194 23.324450 -6.893566 26.683443 -1.130989 1.832106 0.094197 -0.028580 76301.700000 0 0 1
-10.378394 22.238750 -5.958866 25.254329 -1.134158 1.808997 0.066496 -0.029289 426347.000000 0 0 1
-8.987394 21.985550 -6.130966 24.530112 -1.182738 1.823411 0.051843 -0.026262 459627.000000 0 1 0
-8.351794 20.886150 -5.469866 23.149582 -1.190400 1.809336 0.055447 -0.019797 -90356.700000 0 1 0
-8.197994 20.765450 -3.921166 22.666861 -1.194789 1.744662 0.052459 -0.026441 -1125340.000000 0 1 0
-9.323394 20.762350 -3.146966 22.976167 -1.148730 1.708195 0.058236 -0.027433 -1123100.000000 0 1 0
-9.993594 19.520950 -3.076866 22.145124 -1.097641 1.710188 0.051043 -0.027809 -66215.100000 0 1 0
-11.391194 19.562050 -2.415766 22.765523 -1.043485 1.677112 0.058321 -0.025920 -48900.900000 0 1 0
-11.400794 19.558250 -0.988266 22.660095 -1.043034 1.614423 0.060889 -0.025585 111774.000000 0 1 0
-11.151594 18.272850 -0.393566 21.410511 -1.022851 1.589179 0.056896 -0.023035 -177113.000000 0 1 0
-11.146594 18.262650 1.141134 21.425992 -1.022802 1.517512 0.067465 -0.020429 -73798.500000 0 1 0
-12.418494 18.255450 1.730334 22.146659 -0.973440 1.492586 0.090584 -0.024595 -165192.000000 0 1 0
-12.205194 18.443650 3.095334 22.331952 -0.986201 1.431743 0.093119 -0.021360 -426459.000000 0 1 0
-13.443594 18.384650 3.972734 23.119433 -0.939410 1.398104 0.086593 -0.026943 -499975.000000 0 1 0
-13.819694 17.066850 4.277634 22.373187 -0.890145 1.378417 0.060591 -0.024197 706015.000000 0 1 0
-15.053894 17.036350 5.012034 23.280409 -0.847097 1.353808 0.072534 -0.032840 524594.000000 0 1 0
-15.376594 15.641750 5.562434 22.628404 -0.793946 1.322434 0.043824 -0.030529 -621267.000000 0 1 0
-14.845194 15.159250 6.779834 22.274398 -0.795865 1.261511 0.058210 -0.022983 -142332.000000 0 1 0
-15.265594 15.845050 7.959134 23.397688 -0.804022 1.223701 0.052441 -0.022130 -878845.000000 0 1 0
-14.240894 15.811550 9.108734 23.146862 -0.837615 1.166340 0.052238 -0.013021 583740.000000 0 1 0
-13.050194 16.562450 8.937434 22.901966 -0.903453 1.169896 0.057194 -0.023063 381440.000000 0 1 0
-12.086194 16.120450 7.983834 21.672254 -0.927460 1.193520 0.051623 -0.022728 -487804.000000 0 1 0
-11.043794 17.209250 7.698734 21.849352 -1.000253 1.210710 0.070486 -0.025046 35095.200000 0 1 0
-10.116294 17.362550 8.755034 21.919128 -1.043232 1.159907 0.065130 -0.021201 341678.000000 0 1 0
-9.249294 18.487150 8.589934 22.385512 -1.106901 1.176967 0.063668 -0.026558 252612.000000 0 1 0
-7.934794 18.563950 9.394734 22.267515 -1.166869 1.135253 0.055646 -0.024679 -915759.000000 0 1 0
-6.956794 17.827750 8.764734 21.048663 -1.198747 1.141311 0.042580 -0.021962 -279516.000000 0 1 0
-5.678094 17.871250 9.421834 20.985550 -1.263161 1.105187 0.041428 -0.023962 1001450.000000 0 1 0
-4.778194 18.983450 8.823034 21.472039 -1.324215 1.147346 0.034501 -0.024407 -1323440.000000 0 1 0
-5.219894 20.304050 8.985334 22.808726 -1.319159 1.165879 0.046966 -0.028685 -409312.000000 0 1 0
-4.565794 21.307350 8.264934 23.305767 -1.359706 1.208278 0.049471 -0.032180 1197760.000000 0 1 0
-3.105194 21.791750 8.703234 23.670000 -1.429255 1.194272 0.044953 -0.025281 1588270.000000 0 1 0
-2.027594 20.951350 8.284834 22.620979 -1.474320 1.195825 0.031043 -0.011382 -72389.400000 0 1 0
-0.844494 21.638550 8.601334 23.300708 -1.531789 1.192708 0.023085 -0.001729 409740.000000 0 1 0
0.515706 20.986650 8.194834 22.535766 1.546228 1.198627 0.016822 0.016038 892914.000000 0 1 0
0.903206 19.850650 8.995234 21.812344 1.525328 1.145718 0.021357 -0.017272 -1640690.000000 0 1 0
2.262006 19.707650 9.092634 21.821644 1.456518 1.141007 0.018142 -0.010133 -1184190.000000 0 1 0
2.802606 18.872250 10.243434 21.655124 1.423370 1.078074 0.011167 -0.039812 734994.000000 0 1 0
4.202006 18.897250 10.582434 22.062431 1.351995 1.070531 0.035080 -0.012282 833061.000000 0 1 0
4.442606 18.057350 11.702034 21.971396 1.329560 1.009123 0.029930 -0.025173 1092250.000000 0 1 0
5.939306 17.838050 12.178834 22.400790 1.249384 0.995982 0.043202 -0.027448 1078310.000000 0 1 0
6.764606 17.006450 11.399334 21.562098 1.192216 1.013758 0.031488 -0.027798 -671513.000000 0 1 0
7.804106 16.549350 12.173234 21.976640 1.130154 0.983735 0.037605 -0.021393 -625845.000000 0 1 0
9.114906 16.059950 11.505034 21.757053 1.054575 1.013615 0.042110 -0.022973 464986.000000 0 1 0
9.990206 17.074950 11.027634 22.648772 1.041420 1.062262 0.056979 -0.034537 -62336.000000 0 1 0
10.966706 16.628650 10.152734 22.357519 0.987767 1.099425 0.053579 -0.037943 -13251.700000 0 1 0
12.167306 17.563150 9.817434 23.513605 0.964936 1.140080 0.060618 -0.029964 450040.000000 0 1 0
13.141906 16.994350 8.970534 23.280638 0.912543 1.175240 0.067270 -0.026861 -320103.000000 0 1 0
14.100406 17.980150 8.677934 24.442050 0.905751 1.207838 0.077990 -0.026537 845672.000000 0 1 0
15.096706 17.532850 7.482034 24.316501 0.859921 1.258028 0.082192 -0.027571 926500.000000 0 1 0
16.003906 16.463050 7.739534 24.229268 0.799539 1.245669 0.102859 -0.040419 80504.600000 0 1 0
17.003906 16.423150 6.755334 24.586322 0.768026 1.292456 0.115335 -0.029764 -777180.000000 0 1 0
18.357806 16.583450 7.425234 25.829324 0.734661 1.279209 0.107025 -0.028956 -1010260.000000 0 0 1
18.752006 15.429350 8.193034 25.628664 0.688496 1.245402 0.112703 -0.022802 606665.000000 0 0 1
19.846706 15.808950 9.039034 26.935456 0.672635 1.228574 0.107474 -0.020743 216323.000000 0 0 1
20.140006 14.675850 10.003234 26.852656 0.629724 1.189070 0.097720 -0.020723 -81720.100000 0 0 1
20.733406 13.511950 9.431834 26.484079 0.577569 1.206671 0.101998 -0.028207 379413.000000 0 0 1
20.784206 12.449850 10.342234 26.342813 0.539688 1.167338 0.105415 -0.038559 -402397.000000 0 0 1
21.779706 11.436950 9.775834 26.471237 0.483541 1.192540 0.104047 -0.031480 931728.000000 0 0 1
23.156406 11.634150 10.228834 27.860396 0.465579 1.194857 0.102900 -0.043053 2746570.000000 0 0 1
24.152506 10.782250 9.554334 28.122692 0.419876 1.224158 0.130662 -0.034085 668029.000000 0 0 1
24.177206 9.246650 9.768934 27.667127 0.365289 1.209927 0.140125 -0.042209 -478336.000000 0 0 1
22.964906 8.585750 9.428634 26.267873 0.357774 1.203663 0.142545 -0.039192 683749.000000 0 0 1
22.845406 7.214750 9.799934 25.884434 0.305895 1.182509 0.139262 -0.041551 167406.000000 0 0 1
23.877906 6.221250 9.094034 26.297525 0.254878 1.217691 0.151397 -0.044808 527126.000000 0 0 1
23.728506 5.986750 7.708034 25.657299 0.247144 1.265661 0.135138 -0.031088 -141023.000000 0 0 1
24.879606 5.407450 7.184334 26.454678 0.214016 1.295771 0.136740 -0.027827 -500869.000000 0 0 1
24.794606 4.904450 5.716434 25.913389 0.195282 1.348369 0.139246 -0.030778 95097.200000 0 0 1
23.777306 3.917650 5.529834 24.724226 0.163297 1.345228 0.133959 -0.028712 721424.000000 0 1 0
23.650206 3.561050 4.159034 24.275726 0.149449 1.398622 0.135517 -0.026349 -245403.000000 0 1 0
22.589106 2.488750 3.841834 23.048238 0.109732 1.403328 0.120809 -0.023954 -20082.800000 0 1 0
22.938906 1.181550 4.296934 23.367780 0.051463 1.385861 0.134385 -0.028664 739618.000000 0 1 0
21.966406 0.305250 3.756734 22.287423 0.013895 1.401429 0.112227 -0.023062 34878.200000 0 1 0
22.438806 -1.128950 4.128234 22.843311 -0.050270 1.389078 0.128642 -0.028881 -365205.000000 0 1 0
22.367506 -1.553350 5.470734 23.079150 -0.069335 1.331476 0.120055 -0.037883 374712.000000 0 1 0
22.915006 -2.795850 5.595734 23.753453 -0.121409 1.332986 0.134401 -0.035440 -545649.000000 0 1 0
22.649106 -3.493550 6.893634 23.931341 -0.153041 1.278597 0.158577 -0.038152 -472028.000000 0 1 0
23.126606 -4.757850 6.907534 24.600632 -0.202900 1.286182 0.167036 -0.038173 199636.000000 0 1 0
23.391906 -5.139550 8.278434 25.340259 -0.216278 1.237996 0.204046 -0.041345 -123915.000000 0 0 1
22.941206 -6.639750 8.598134 25.383324 -0.281727 1.225228 0.200327 -0.044141 -943749.000000 0 0 1
21.567306 -6.676350 8.617834 24.165873 -0.300203 1.206158 0.187185 -0.039945 -939884.000000 0 1 0
21.162806 -7.991950 8.967234 24.334069 -0.361084 1.193396 0.157880 -0.041243 -29019.300000 0 1 0
-27.439194 -32.483048 5.611534 42.889942 0.869374 1.439584 0.056298 -0.014204 -30621.000000 0 0 1
-28.441514 -33.400948 5.923934 44.267777 0.865422 1.436573 0.055658 -0.019428 -227498.000000 0 0 1
-28.207964 -33.926548 7.241234 44.711692 0.877175 1.408126 0.048755 -0.011780 169215.000000 0 0 1
-29.042604 32.811750 7.684234 44.487428 -0.846259 1.397197 0.052945 -0.014399 146520.000000 0 0 1
-30.420174 33.041450 7.843934 45.592233 -0.826680 1.397891 0.058117 -0.011323 -298411.000000 0 0 1
-31.157194 31.885550 8.174834 45.324243 -0.796951 1.389440 0.075020 -0.019025 485623.000000 0 0 1
-32.694014 32.084050 8.070034 46.512474 -0.775982 1.396411 0.089030 -0.022368 72230.100000 0 0 1
-33.156594 32.290050 6.798234 46.778447 -0.772158 1.424951 0.066186 -0.020351 -48475.900000 0 0 1
-34.566627 32.157450 6.785534 47.696926 -0.749307 1.428048 0.060968 -0.022823 261084.000000 0 0 1
-35.234310 32.201750 5.375034 48.034366 -0.740459 1.458662 0.049252 -0.018605 -93896.300000 0 0 1
-35.036667 30.945750 4.803034 46.992304 -0.723477 1.468409 0.054426 -0.017039 422279.000000 0 0 1
-35.750485 30.799250 3.578934 47.323353 -0.711136 1.495097 0.062635 -0.005144 19270.200000 0 0 1
-35.410542 29.459250 2.994434 46.159729 -0.693912 1.505880 0.066196 -0.016956 -42862.000000 0 0 1
-35.793331 28.290050 3.746134 45.776883 -0.668843 1.488870 0.086499 -0.022633 125184.000000 0 0 1
-35.293080 27.134950 3.173634 44.631592 -0.655454 1.499629 0.085235 -0.022872 -254629.000000 0 0 1
-35.809933 25.824050 3.851034 44.317754 -0.624775 1.483791 0.104861 -0.023376 500599.000000 0 0 1
-37.164654 25.505950 3.549134 45.214614 -0.601469 1.492220 0.108387 -0.017184 191102.000000 0 0 1
36.621445 24.790550 4.543934 44.456147 0.595082 1.468406 0.111747 -0.014116 -12791.100000 0 0 1
35.146345 24.498150 4.188134 43.046085 0.608732 1.473348 0.136338 -0.017085 -89263.700000 0 0 1
34.857915 23.505050 3.169734 42.161699 0.593276 1.495545 0.115121 -0.018701 142622.000000 0 0 1
35.335865 22.213750 3.423634 41.878340 0.561217 1.488953 0.104355 -0.017693 -739023.000000 0 0 1
34.851525 21.219850 2.302534 40.868234 0.546912 1.514426 0.120985 -0.017680 1386170.000000 0 0 1
33.436105 20.891150 2.333234 39.495029 0.558461 1.511685 0.115928 -0.024650 1547280.000000 0 0 1
33.058815 20.039950 3.428334 38.810287 0.544959 1.482345 0.091688 -0.021879 -519857.000000 0 0 1
33.208855 18.501250 3.255334 38.153919 0.508292 1.485371 0.103765 -0.024175 -450514.000000 0 0 1
32.441245 18.013750 2.174134 37.170640 0.506883 1.512272 0.083894 -0.033056 345757.000000 0 0 1
32.530855 16.574650 1.989134 36.564084 0.471223 1.516368 0.089024 -0.032772 -347673.000000 0 0 1
31.789135 15.626650 2.983434 35.547745 0.456883 1.486770 0.096687 -0.027335 378398.000000 0 0 1
30.369295 15.637450 2.855234 34.277928 0.475504 1.487403 0.070663 -0.022078 545102.000000 0 0 1
29.797435 14.730750 3.788434 33.454961 0.459128 1.457313 0.072966 -0.022418 311589.000000 0 0 1
28.245065 14.790050 3.879034 32.118160 0.482375 1.449727 0.070037 -0.021653 315422.000000 0 0 1
27.638065 14.137250 2.793734 31.169367 0.472816 1.481045 0.073713 -0.039467 714956.000000 0 0 1
26.310165 14.639250 2.543034 30.215881 0.507752 1.486534 0.062275 -0.026068 917357.000000 0 0 1
25.587165 14.086750 1.269434 29.236125 0.503257 1.527363 0.083060 -0.028385 -210798.000000 0 0 1
26.073065 14.713250 0.083434 29.938127 0.513762 1.568009 0.094588 -0.028209 569689.000000 0 0 1
27.375465 14.343350 -0.318266 30.907104 0.482623 1.581094 0.097667 -0.030703 -690624.000000 0 0 1
28.086165 15.125650 -1.450366 31.933079 0.494006 1.616231 0.113910 -0.030350 675.556000 0 0 1
28.287765 16.489950 -1.228266 32.766214 0.527778 1.608291 0.090814 -0.033844 764248.000000 0 0 1
29.300365 16.665650 -0.221166 33.709112 0.517152 1.577357 0.090342 -0.037220 -316349.000000 0 0 1
29.793535 18.142350 -0.113766 34.882841 0.546964 1.574058 0.100317 -0.028356 45363.400000 0 0 1
30.711785 18.491750 -1.133266 35.867017 0.541967 1.602398 0.084233 -0.024096 163003.000000 0 0 1
31.389585 19.708650 -0.881066 37.074428 0.560662 1.594563 0.084290 -0.012391 -17851.700000 0 0 1
32.622815 19.974050 -1.758866 38.292354 0.549395 1.616745 0.086781 -0.014044 -361352.000000 0 0 1
33.026265 21.299050 -1.788166 39.339310 0.572790 1.616267 0.029445 -0.005437 67278.200000 0 0 1
32.230675 22.153050 -2.579566 39.194747 0.602171 1.636658 0.084791 -0.006564 -320764.000000 0 0 1
32.984535 23.505450 -2.854666 40.603385 0.619146 1.641160 0.084728 -0.009621 203585.000000 0 0 1
33.216245 24.362150 -1.728066 41.228868 0.632819 1.612723 0.097048 -0.005440 37758.200000 0 0 1
34.162225 23.900450 -0.809566 41.700654 0.610468 1.590211 0.111876 0.002894 -747747.000000 0 0 1
34.398895 24.873650 0.358134 42.451275 0.626058 1.562360 0.111151 -0.015099 77659.700000 0 0 1
35.018115 26.074550 -0.113966 43.659633 0.640037 1.573407 0.125172 -0.010455 1198520.000000 0 0 1
36.313645 26.282750 0.515734 44.830010 0.626502 1.559292 0.111022 -0.009597 1262670.000000 0 0 1
36.977465 27.675050 0.135534 46.187225 0.642496 1.567862 0.086230 -0.022266 34563.900000 0 0 1
-37.070794 27.744150 -1.225966 46.319376 -0.642483 1.597267 0.076446 -0.023293 180924.000000 0 0 1
36.292855 28.073750 -2.039466 45.928926 0.658393 1.615216 0.066586 -0.016448 -154798.000000 0 0 1
36.352585 27.367450 -3.417966 45.630804 0.645312 1.645771 0.074060 -0.016159 87449.900000 0 0 1
-37.025344 27.767650 -4.247266 46.475346 -0.643478 1.662312 0.063908 -0.013752 151901.000000 0 0 1
-36.950064 27.210750 -5.537166 46.221125 -0.634753 1.690882 0.064724 -0.010479 719728.000000 0 0 1
36.373225 27.606550 -6.607166 46.138788 0.649224 1.714492 0.052307 0.002502 1210760.000000 0 0 1
35.086075 27.165050 -6.204266 44.804749 0.658835 1.709716 0.063632 -0.001891 -46295.100000 0 0 1
34.185375 27.135050 -7.303566 44.252603 0.670926 1.736598 0.055340 -0.005101 1074110.000000 0 0 1
32.955495 26.149050 -7.072166 42.659736 0.670744 1.737346 0.066865 0.001934 494183.000000 0 0 1
33.101475 24.803850 -7.286066 42.000303 0.643071 1.745155 0.066550 -0.001030 -343571.000000 0 0 1
34.110995 24.249250 -6.491466 42.352394 0.617999 1.724676 0.065632 -0.004040 -118884.000000 0 0 1
34.277335 22.733050 -6.794566 41.688049 0.585605 1.734513 0.072148 0.001410 354721.000000 0 0 1
33.303265 21.952850 -6.114566 40.353724 0.582802 1.722906 0.069380 0.002500 113646.000000 0 0 1
33.424295 20.586850 -6.480466 39.786912 0.552047 1.734405 0.069214 0.000632 -196638.000000 0 0 1
32.407395 19.701650 -5.775766 38.363443 0.546235 1.721925 0.083876 -0.008204 -2111.850000 0 0 1
31.062135 19.998450 -6.112666 37.445413 0.572019 1.734772 0.082908 -0.011230 -670230.000000 0 0 1
30.200085 19.162950 -5.472966 36.183106 0.565425 1.722637 0.103045 -0.017884 -1374530.000000 0 0 1
29.079265 18.835550 -6.420066 35.236329 0.574779 1.754020 0.070462 -0.015689 -953366.000000 0 0 1
29.399865 17.931150 -7.471566 35.237800 0.547671 1.784451 0.053106 -0.013893 -108892.000000 0 0 1
28.397665 17.943750 -8.449766 34.638189 0.563527 1.817227 0.077288 -0.023585 -150296.000000 0 0 1
28.377365 16.561850 -9.240066 34.131343 0.528295 1.844938 0.074574 -0.022664 308784.000000 0 0 1
27.490465 16.587150 -10.377366 33.742391 0.542900 1.883410 0.086041 -0.025981 510472.000000 0 0 1
27.675265 15.418150 -11.105866 33.570522 0.508285 1.907971 0.081825 -0.015661 -157175.000000 0 0 1
26.903165 15.391550 -12.430766 33.394671 0.519659 1.952215 0.088519 -0.017334 769770.000000 0 0 1
25.465365 15.346250 -12.269166 32.164027 0.542353 1.962167 0.074376 -0.017753 1168920.000000 0 0 1
24.793865 15.480650 -13.504666 32.198793 0.558149 2.003597 0.067588 -0.019852 -397723.000000 0 0 1
24.572465 14.199250 -14.338166 31.796348 0.523975 2.038612 0.067988 -0.021719 -918611.000000 0 0 1
25.717465 13.497250 -14.748066 32.574058 0.483312 2.040649 0.080054 -0.022788 -222068.000000 0 0 1
26.189765 14.021250 -15.942566 33.714458 0.491543 2.063342 0.089297 -0.025467 -719412.000000 0 0 1
27.590865 13.506950 -16.288766 34.770928 0.455248 2.058342 0.099991 -0.027356 -255505.000000 0 0 1
27.560965 12.180550 -16.732166 34.466476 0.416139 2.077688 0.100666 -0.024201 292517.000000 0 0 1
28.849865 11.898650 -17.253966 35.659388 0.391179 2.075850 0.090782 -0.011620 320970.000000 0 0 1
29.081465 10.521250 -17.862266 35.713987 0.347135 2.094566 0.068954 -0.005574 -428003.000000 0 0 1
28.418565 10.296150 -19.072266 35.740410 0.347593 2.133687 0.071138 -0.007467 -148139.000000 0 0 1
28.718365 9.114250 -19.693966 35.995366 0.307312 2.149722 0.052751 -0.003303 -532787.000000 0 0 1
30.106955 8.866950 -20.285166 37.370303 0.286417 2.144582 0.050227 -0.004681 -1076940.000000 0 0 1
30.380215 9.765850 -21.327566 38.382214 0.311022 2.159956 0.062200 -0.012325 338930.000000 0 0 1
31.059175 9.113950 -22.423166 39.376831 0.285426 2.176634 0.047295 -0.009439 505517.000000 0 0 1
32.559805 8.723750 -22.283266 40.407780 0.261782 2.154909 0.044203 -0.006450 96852.100000 0 0 1
33.483245 9.798550 -22.285366 41.397788 0.284691 2.139242 0.052757 -0.009719 -1138500.000000 0 0 1
34.730705 9.312350 -22.588066 42.463661 0.261968 2.131685 0.039552 -0.009410 -1246270.000000 0 0 1
35.807405 10.382350 -22.458066 43.523881 0.282211 2.112964 0.058500 -0.014783 -330040.000000 0 0 1
35.803525 10.699150 -21.099066 42.913108 0.290383 2.084802 0.053434 -0.010538 -119600.000000 0 0 1
36.623265 11.793450 -20.820366 43.747419 0.311535 2.066809 0.032738 -0.006240 -294596.000000 0 0 1
36.564995 12.253550 -19.322066 43.133405 0.323355 2.035279 0.026526 0.000728 -74383.300000 0 0 1
37.103475 11.299850 -18.400666 42.929465 0.295626 2.013767 0.032683 -0.006984 270721.000000 0 0 1
37.122655 11.849950 -17.127066 42.565822 0.308987 1.984897 0.043523 -0.007293 -33220.700000 0 0 1
-36.818194 10.936750 -15.981166 41.600355 -0.288746 1.965093 0.041639 -0.010128 -110483.000000 0 0 1
36.702055 9.933950 -15.648466 41.116891 0.264331 1.961225 0.041147 -0.011325 139137.000000 0 0 1
37.105785 8.954450 -14.647566 40.884871 0.236795 1.937204 0.050026 -0.016528 -747765.000000 0 0 1
36.148785 7.816850 -14.353266 39.671830 0.212962 1.940994 0.097381 -0.015110 -483958.000000 0 0 1
35.024205 8.269850 -13.608266 38.474281 0.231871 1.932318 0.107676 -0.017097 568394.000000 0 0 1
35.097415 8.080950 -12.239666 38.038661 0.226300 1.898394 0.106739 -0.019120 -887173.000000 0 0 1
33.975545 8.844550 -11.547766 36.958282 0.254669 1.888572 0.109005 -0.019428 -489526.000000 0 0 1
34.102385 10.273150 -11.503366 37.427767 0.292598 1.883202 0.119875 -0.027567 331385.000000 0 0 1
33.247635 10.855050 -10.512166 36.520446 0.315580 1.862770 0.082821 -0.014311 -22787.700000 0 0 1
33.711715 10.657050 -8.983266 36.479467 0.306182 1.819611 0.105111 -0.018659 303698.000000 0 0 1
34.805165 11.482150 -8.622866 37.650938 0.318655 1.801868 0.100932 -0.019230 332954.000000 0 0 1
34.401135 12.817050 -8.280566 37.633531 0.356644 1.792643 0.092352 -0.019209 -197182.000000 0 0 1
34.040535 13.032050 -6.786066 37.076179 0.365626 1.754864 0.097343 -0.021836 219743.000000 0 0 1
35.180235 12.831350 -5.953966 37.917571 0.349738 1.728473 0.129361 -0.026440 547166.000000 0 0 1
34.914435 13.231850 -4.621166 37.622531 0.362255 1.693937 0.120219 -0.025000 360724.000000 0 0 1
36.086935 12.946150 -3.605066 38.508002 0.344448 1.664552 0.157570 -0.027515 348849.000000 0 0 1
37.122825 13.889350 -3.810266 39.818794 0.358022 1.666633 0.156596 -0.017367 -840070.000000 0 0 1
-36.258704 13.425150 -3.059966 38.785199 -0.354609 1.649774 0.158864 -0.029618 43004.100000 0 0 1
-35.087646 14.479050 -3.059666 38.080801 -0.391367 1.651230 0.160052 -0.025624 472485.000000 0 0 1
-35.514224 15.617950 -2.267266 38.862848 -0.414311 1.629170 0.164184 -0.023242 80526.200000 0 0 1
-34.619760 16.694150 -2.091666 38.491525 -0.449318 1.625164 0.181657 -0.025345 -168311.000000 0 0 1
-35.145732 17.848050 -1.150966 39.434757 -0.469892 1.599987 0.158876 -0.019212 666604.000000 0 0 1
-36.267124 18.513550 -1.762266 40.757348 -0.471994 1.614048 0.125008 -0.010081 665350.000000 0 0 1
-36.964294 19.312250 -0.859566 41.714037 -0.481451 1.591404 0.118480 -0.013749 -47577.300000 0 0 1
36.698245 20.431750 -1.547566 42.031091 0.508011 1.607624 0.113027 -0.008422 276570.000000 0 0 1
-36.927544 21.544850 -1.918666 42.796090 -0.528151 1.615644 0.102789 -0.002604 425034.000000 0 0 1
37.045225 22.257750 -3.035766 43.324035 0.541027 1.640925 0.071858 -0.002405 -169871.000000 0 0 1
-36.472584 23.429850 -3.420366 43.484551 -0.571011 1.649535 0.074189 -0.004465 -192977.000000 0 0 1
-35.261416 22.917450 -3.901666 42.235056 -0.576326 1.663308 0.092836 0.005701 -318026.000000 0 0 1
-34.361375 23.971150 -4.228766 42.109412 -0.609126 1.671389 0.105098 -0.002597 747557.000000 0 0 1
-32.976854 23.493650 -4.769566 40.769759 -0.619019 1.688053 0.124173 -0.005759 422935.000000 0 0 1
-33.070364 22.905750 -6.072166 40.684070 -0.605767 1.720608 0.122125 -0.002821 -292748.000000 0 0 1
-31.802534 22.741450 -6.651766 39.658804 -0.620777 1.739318 0.107966 0.002036 -204375.000000 0 0 1
-31.816074 21.716850 -7.791866 39.301365 -0.598935 1.770378 0.089487 -0.004259 120570.000000 0 0 1
-32.678494 21.866850 -8.907466 40.316077 -0.589721 1.793575 0.094439 -0.007580 13344.500000 0 0 1
-32.051874 21.442750 -10.109066 39.866118 -0.589617 1.827171 0.052204 -0.006751 265686.000000 0 0 1
-32.983304 21.730050 -11.355066 41.097822 -0.582550 1.850732 0.045253 -0.000909 332216.000000 0 0 1
-33.093424 23.105250 -11.605766 41.996680 -0.609505 1.850790 0.057459 -0.002304 87144.600000 0 0 1
-33.780014 23.265350 -12.816966 42.972555 -0.603123 1.873665 0.033892 -0.000780 -873860.000000 0 0 1
-34.096603 24.752650 -13.152566 44.139121 -0.627935 1.873372 0.056297 -0.006663 -471625.000000 0 0 1
-32.952834 25.524150 -13.166266 43.711807 -0.659039 1.876754 0.058873 -0.011613 -787314.000000 0 0 1
-32.089854 25.441950 -14.285666 43.372016 -0.670357 1.906438 0.052577 -0.011547 76990.300000 0 0 1
-30.865344 26.409750 -14.046966 42.982108 -0.707762 1.903722 0.077228 -0.018794 109538.000000 0 0 1
-29.859914 25.979250 -13.154066 41.708097 -0.716013 1.891658 0.083792 -0.014731 -96999.600000 0 0 1
-30.187164 25.580150 -11.857866 41.306391 -0.702974 1.861964 0.082116 -0.012187 -773086.000000 0 0 1
-30.690804 26.678550 -10.895866 42.099767 -0.715575 1.832587 0.097817 -0.004071 -121512.000000 0 0 1
-29.577734 27.391450 -10.442166 41.643399 -0.747040 1.824253 0.105581 0.000580 -402830.000000 0 0 1
-29.893964 28.460450 -9.626466 42.382958 -0.760837 1.799927 0.093419 -0.001727 182042.000000 0 0 1
-28.624114 29.227050 -9.158166 41.921741 -0.795820 1.791031 0.109172 -0.010624 292396.000000 0 0 1
-28.849654 30.622350 -8.782866 42.978711 -0.815197 1.776600 0.096014 -0.022616 -84752.800000 0 0 1
-27.669364 31.342350 -8.453466 42.654398 -0.847560 1.770302 0.121529 -0.015024 98902.600000 0 0 1
35.503525 -24.628650 33.497326 54.673042 -0.606482 0.911343 0.057257 -0.012551 -227534.000000 0 0 1
35.225455 -23.279550 33.768738 54.065681 -0.583981 0.896193 0.061161 -0.017030 -763215.000000 0 0 1
34.095225 -23.202850 -33.301236 53.007819 -0.597540 2.250076 0.055034 -0.011763 -589497.000000 0 0 1
33.553765 -21.763350 -32.971146 51.832374 -0.575398 2.260244 0.043777 -0.009821 253404.000000 0 0 1
32.929895 -21.093450 33.782298 51.677416 -0.569708 0.858313 0.033319 -0.002607 -54952.700000 0 0 1
32.474505 -19.865850 -33.598836 50.775262 -0.549005 2.293902 0.024937 0.000009 115357.000000 0 0 1
32.109015 -19.026150 32.998030 49.818202 -0.534922 0.846820 0.030184 -0.003972 -18990.300000 0 0 1
33.256995 -18.701350 32.248991 49.957639 -0.512259 0.869084 0.043946 -0.015145 26217.900000 0 0 1
32.983705 -18.368250 30.903567 48.788809 -0.508117 0.884838 0.051291 -0.010028 88428.500000 0 0 1
34.291745 -18.255750 30.063417 49.122350 -0.489204 0.912195 0.046138 -0.008687 773593.000000 0 0 1
35.132135 -17.154450 30.516757 49.596518 -0.454231 0.908029 0.050036 -0.014627 144177.000000 0 0 1
36.272315 -17.085450 29.719927 49.908592 -0.440206 0.932924 0.077371 -0.013176 -314068.000000 0 0 1
-37.140264 -16.048150 30.187947 50.480238 0.407865 0.929774 0.067956 -0.015653 853633.000000 0 0 1
-35.780806 -16.387350 29.878667 49.412003 0.429481 0.921427 0.070006 -0.011739 1165290.000000 0 0 1
-34.866387 -15.346050 30.281787 48.663670 0.414623 0.899161 0.075754 -0.019664 2006220.000000 0 0 1
-33.332764 -15.753950 30.404287 47.787873 0.441510 0.881189 0.079654 -0.030279 1594770.000000 0 0 1
-32.438884 -14.733350 30.888307 47.153370 0.426331 0.856534 0.083736 -0.033654 -129604.000000 0 0 1
-31.257104 -15.402450 31.235817 46.796563 0.457844 0.839976 0.095828 -0.041537 -260123.000000 0 0 1
-30.257374 -14.352650 31.815974 46.192677 0.442920 0.811010 0.088439 -0.048073 211204.000000 0 0 1
-30.774094 -13.845450 33.034500 47.223083 0.422776 0.796041 0.097264 -0.049343 142717.000000 0 0 1
-29.825544 -12.954350 33.515888 46.697891 0.409753 0.770278 0.088100 -0.045594 -249695.000000 0 0 1
-30.181924 -12.287750 -32.991176 46.371920 0.386632 2.362352 0.090131 -0.024154 -149096.000000 0 0 1
-30.107854 -13.272450 -31.914776 45.838779 0.415202 2.340942 0.104238 -0.024189 157848.000000 0 0 1
-30.291484 -12.734450 -30.651006 44.935780 0.397965 2.321436 0.103770 -0.016099 -209330.000000 0 0 1
-30.475094 -13.751650 -29.478446 44.573736 0.423886 2.293402 0.103637 -0.020105 194527.000000 0 0 1
-31.754614 -14.366750 -29.491566 45.656450 0.424873 2.273057 0.098820 -0.021713 147963.000000 0 0 1
-31.886644 -15.172150 -28.377536 45.301619 0.444113 2.247740 0.111904 -0.019680 486408.000000 0 0 1
-33.177834 -16.033350 -28.495536 46.581461 0.450162 2.229049 0.104326 -0.029900 95324.900000 0 0 1
-33.085654 -17.017050 -29.463496 47.458804 0.475048 2.240588 0.100209 -0.030804 389642.000000 0 0 1
-34.147331 -17.958750 -29.321616 48.459406 0.484168 2.220657 0.084985 -0.027821 173742.000000 0 0 1
-33.920844 -19.289650 -30.120166 49.294408 0.517062 2.228152 0.077465 -0.024804 63286.300000 0 0 1
-35.119265 -20.038050 -30.048126 50.376345 0.518500 2.209896 0.046532 -0.027226 -45064.900000 0 0 1
-34.951588 -21.334750 -30.603376 51.120951 0.548038 2.212607 0.040756 -0.030215 -640722.000000 0 0 1
-36.193794 -22.155550 -30.920036 52.506263 0.549296 2.200472 0.042213 -0.026821 -321842.000000 0 0 1
-36.790024 -22.813750 -29.778866 52.542876 0.555073 2.173356 0.047531 -0.031327 207743.000000 0 0 1
36.597095 -23.699150 -30.032986 52.943152 -0.574664 2.173982 0.058780 -0.028019 63019.600000 0 0 1
37.021485 -25.103680 -30.577206 54.182567 -0.595865 2.170426 0.059591 -0.022459 125675.000000 0 0 1
-36.928064 -25.067320 -31.907266 54.864615 0.596366 2.191446 0.064590 -0.019150 -165879.000000 0 0 1
-36.068754 -26.185230 -32.079786 54.915698 0.627951 2.194646 0.048898 -0.024927 -34208.900000 0 0 1
-36.332624 -26.937310 -33.431086 56.243361 0.637980 2.207316 0.048666 -0.025523 481520.000000 0 0 1
36.832015 -27.530220 -33.512106 56.899662 -0.641869 2.200578 0.065123 -0.021348 59664.200000 0 0 1
36.874745 -28.865970 33.808325 57.758064 -0.664172 0.945492 0.052380 -0.014067 116132.000000 0 0 1
-36.962114 -30.053630 -33.241636 58.089800 0.682674 2.180038 0.041199 -0.020034 -538018.000000 0 0 1
36.731225 -30.497510 -32.155826 57.561082 -0.692939 2.163539 0.059881 -0.026817 29458.400000 0 0 1
-37.025784 -31.506280 -31.403426 57.876847 0.705033 2.144314 0.038885 -0.029569 -142137.000000 0 0 1
36.835905 -31.707090 -30.021636 57.127245 -0.710711 2.124125 0.035254 -0.029962 -792994.000000 0 0 1
35.899615 -32.715120 -30.016406 57.096813 -0.739020 2.124347 0.059997 -0.030249 -635177.000000 0 0 1
35.378935 -32.746380 -28.699586 56.104016 -0.746775 2.107775 0.066750 -0.031586 43069.700000 0 0 1
34.165805 -33.707550 -28.512596 55.825346 -0.778647 2.106849 0.079242 -0.035175 1028200.000000 0 0 1
32.993385 -33.330300 -29.275086 55.285649 -0.790478 2.128836 0.085784 -0.033627 496186.000000 0 0 1
31.963635 33.735087 -29.032646 54.796210 0.812355 2.129196 0.080843 -0.036947 -27585.300000 0 0 1
30.609465 33.986419 -29.722766 54.547767 0.837629 2.147059 0.045823 -0.030376 36581.900000 0 0 1
30.467525 33.648020 -31.116126 55.033377 0.834963 2.171720 0.038431 -0.023963 130192.000000 0 0 1
29.150065 33.878433 -31.600056 54.736076 0.860277 2.186235 0.043379 -0.014007 31542.600000 0 0 1
28.816465 33.240912 -32.940626 54.958454 0.856574 2.213514 0.035542 -0.013694 35517.800000 0 0 1
28.839965 31.861179 -32.967856 54.164175 0.835129 2.225174 0.022529 -0.008913 -84549.500000 0 0 1
28.640065 31.313359 33.615075 54.136430 0.829958 0.900864 0.039758 -0.007107 -284279.000000 0 0 1
28.878965 29.846139 33.642872 53.447446 0.801866 0.889942 0.038533 -0.017481 57188.500000 0 0 1
30.257355 29.481669 33.714706 54.049586 0.772414 0.897235 0.038748 -0.009984 92182.400000 0 0 1
30.345945 28.148729 -33.681706 53.363701 0.747853 2.253860 0.040324 -0.016712 675365.000000 0 0 1
31.795275 27.558019 -33.799676 53.970381 0.714129 2.247547 0.056963 -0.012035 832548.000000 0 0 1
32.511385 27.926499 -32.611696 53.855382 0.709682 2.221243 0.058146 -0.013908 1293440.000000 0 0 1
33.783895 27.188289 -32.485396 54.183536 0.677643 2.213727 0.077084 -0.018204 1645440.000000 0 0 1
34.442335 27.430899 -31.104206 53.909186 0.672560 2.185815 0.080067 -0.019582 -784751.000000 0 0 1
34.943305 28.716209 -30.779936 54.708863 0.687890 2.168340 0.073212 -0.022492 31288.900000 0 0 1
34.175855 29.923019 -30.728056 54.841495 0.719147 2.165552 0.070523 -0.011035 -783983.000000 0 0 1
33.051565 29.903799 -29.732176 53.578404 0.735440 2.159073 0.076405 -0.016026 -732323.000000 0 0 1
33.518075 30.167429 -28.448556 53.318435 0.732834 2.133600 0.079778 -0.014129 -339381.000000 0 0 1
32.492765 30.341429 -27.530046 52.290396 0.751173 2.125256 0.082130 -0.017555 -604600.000000 0 0 1
32.978755 30.756749 -26.160786 52.134083 0.750549 2.096473 0.109395 -0.022711 9577.160000 0 0 1
33.508255 32.093538 -26.025976 53.199152 0.763836 2.081989 0.101574 -0.030916 257265.000000 0 0 1
33.777555 32.504524 -24.684066 52.978962 0.766194 2.055473 0.100145 -0.037146 90104.600000 0 0 1
34.551895 33.808613 -24.581966 54.232175 0.774526 2.041230 0.099593 -0.041288 668591.000000 0 0 1
33.637895 -33.100780 -24.915266 53.366095 -0.777350 2.056549 0.099241 -0.034385 836264.000000 0 0 1
34.138975 -31.842230 -24.488466 52.717001 -0.750603 2.053897 0.083287 -0.038286 -261539.000000 0 0 1
34.728275 -30.926330 -25.592546 53.079840 -0.727554 2.073906 0.070633 -0.040233 324038.000000 0 0 1
35.983975 -31.336180 -26.082416 54.379178 -0.716467 2.071040 0.094864 -0.039160 -700343.000000 0 0 1
37.097395 -30.640310 -25.612206 54.507159 -0.690360 2.059959 0.101283 -0.037422 -69065.500000 0 0 1
-36.065314 -31.359960 -26.112776 54.461280 0.715725 2.070852 0.066801 -0.026427 -105106.000000 0 0 1
-35.763755 -32.636340 -25.618086 54.776483 0.739708 2.057465 0.058581 -0.018373 -476442.000000 0 0 1
-35.601256 -32.881000 -24.172666 54.156508 0.745697 2.033477 0.068976 -0.021718 -138718.000000 0 0 1
-34.407040 -32.215930 -23.447166 52.644849 0.752522 2.032399 0.054785 -0.028944 59249.500000 0 0 1
-34.492907 -30.785830 -23.328666 51.785660 0.728671 2.038105 0.027882 -0.021712 -209947.000000 0 0 1
-34.252567 -30.268970 -22.013666 50.735100 0.723736 2.019607 0.042215 -0.018759 -253300.000000 0 0 1
-33.989664 -28.736020 -22.105066 49.695976 0.701837 2.031754 0.048394 -0.003734 576917.000000 0 0 1
-35.124790 -27.894310 -22.377166 50.125652 0.671163 2.033558 0.037029 -0.004714 273347.000000 0 0 1
-35.476246 -27.895520 -23.755966 51.000686 0.666341 2.055331 0.034451 -0.003601 129375.000000 0 0 1
-36.611144 -26.863970 -24.025966 51.374077 0.633029 2.057446 0.044490 -0.015176 239922.000000 0 0 1
-36.286854 -25.534530 -23.626066 50.268668 0.613195 2.060082 0.044084 -0.009340 313785.000000 0 0 1
37.200015 -24.557750 -24.086966 50.666617 -0.583480 2.066216 0.050320 -0.008448 726531.000000 0 0 1
-36.964514 -23.981750 -25.512146 50.915314 0.575515 2.095631 0.062198 -0.012443 113329.000000 0 0 1
-35.757126 -23.248550 -25.541176 49.713366 0.576501 2.110368 0.055361 -0.018335 -271169.000000 0 0 1
-35.475255 -22.896250 -26.856316 50.039921 0.573145 2.137315 0.058250 -0.030886 405871.000000 0 0 1
-34.307919 -21.842650 -26.837946 48.727918 0.566944 2.154085 0.074724 -0.037513 300568.000000 0 0 1
-34.556710 -20.730550 -26.013926 47.965052 0.540346 2.144030 0.072430 -0.023084 -332835.000000 0 0 1
-35.518554 -19.827750 -26.496266 48.546467 0.509145 2.148130 0.074135 -0.022062 712989.000000 0 0 1
-36.792114 -19.672950 -25.560056 48.928530 0.491025 2.120454 0.075770 -0.024393 757669.000000 0 0 1
-36.577604 -19.054450 -24.277066 47.857801 0.480253 2.102816 0.068814 -0.035895 -19890.400000 0 0 1
-35.684525 -19.737350 -23.380566 47.006373 0.505225 2.091386 0.057494 -0.027986 210365.000000 0 0 1
-36.194444 -21.076050 -22.739666 47.658473 0.527304 2.068191 0.076167 -0.014166 489373.000000 0 0 1
37.208465 -20.790750 -21.824566 47.885664 -0.509547 2.044027 0.060605 -0.010826 -82775.700000 0 0 1
36.656105 -21.895850 -21.189766 47.666597 -0.538455 2.031458 0.055001 0.000616 408630.000000 0 0 1
35.487895 -21.544150 -20.230166 46.182255 -0.545612 2.024225 0.038298 -0.000475 181683.000000 0 0 1
34.283435 -21.080450 -20.766666 45.287898 -0.551294 2.047157 0.069738 -0.000753 -588709.000000 0 0 1
33.221205 -21.169050 -19.844966 44.108954 -0.567335 2.037459 0.057895 -0.003036 458379.000000 0 0 1
31.934505 -20.499550 -20.418166 43.092292 -0.570677 2.064425 0.061577 0.002196 -43657.900000 0 0 1
31.438225 -21.272650 -21.566366 43.657711 -0.594882 2.087466 0.056179 0.002933 352046.000000 0 0 1
30.091305 -21.025650 -21.929566 42.760618 -0.609872 2.109292 0.088468 -0.003886 214625.000000 0 0 1
29.770405 -19.666250 -22.638166 42.255472 -0.583789 2.136186 0.097389 -0.016434 -520588.000000 0 0 1
29.950905 -18.607250 -21.741666 41.424467 -0.555904 2.123336 0.092758 -0.010001 -18188.800000 0 0 1
29.977175 -17.366650 -22.477766 41.297476 -0.525082 2.146338 0.086404 -0.012447 -38929.700000 0 0 1
30.802445 -16.372350 -21.663766 41.062918 -0.488550 2.126540 0.066395 -0.015477 -534359.000000 0 0 1
30.152115 -16.098750 -20.453566 39.833003 -0.490412 2.110035 0.041955 -0.013111 40602.600000 0 0 1
30.934095 -15.468350 -19.452766 39.681207 -0.463681 2.083146 0.022503 -0.010491 -148721.000000 0 0 1
32.061955 -16.321450 -18.867766 40.624516 -0.470869 2.053802 0.035316 -0.016169 462259.000000 0 0 1
33.263445 -16.472650 -19.651866 42.000010 -0.459815 2.057711 0.049394 -0.017293 1154380.000000 0 0 1
34.170935 -17.432050 -19.071166 42.839684 -0.471729 2.032166 0.043985 -0.008269 718410.000000 0 0 1
35.397885 -17.761650 -19.973366 44.355629 -0.465064 2.037898 0.047543 -0.018316 163658.000000 0 0 1
36.313615 -16.698750 -20.143966 44.758309 -0.431013 2.037630 0.054421 -0.025705 -90976.300000 0 0 1
-37.082954 -17.258350 -20.888166 45.927242 0.435585 2.042955 0.063783 -0.024204 -265484.000000 0 0 1
-36.107344 -16.194450 -21.414666 44.995426 0.421613 2.066817 0.078888 -0.029713 36787.500000 0 0 1
-35.193156 -15.725050 -20.410666 43.616862 0.420207 2.057770 0.099144 -0.037305 400816.000000 0 0 1
-34.444012 -14.583250 -20.901866 42.847977 0.400506 2.080381 0.120436 -0.038873 218689.000000 0 0 1
-33.060614 -14.448550 -20.204366 41.351919 0.412018 2.081276 0.133553 -0.039707 528552.000000 0 0 1
-32.074484 -15.420450 -20.545566 41.093589 0.448146 2.094361 0.144586 -0.052437 300006.000000 0 0 1
-32.265654 -16.717250 -19.900866 41.431670 0.478033 2.071827 0.118904 -0.045175 -1397260.000000 0 0 1
-31.201634 -17.727850 -20.066766 41.115614 0.516687 2.080659 0.106712 -0.049214 -1063370.000000 0 0 1
-31.502164 -18.880750 -19.406466 41.538897 0.539940 2.056904 0.095037 -0.040935 537789.000000 0 0 1
-30.463694 -19.879850 -19.468066 41.258340 0.578183 2.062193 0.107926 -0.038420 402403.000000 0 0 1
-30.995554 -21.241550 -19.015666 42.113220 0.600798 2.039283 0.087531 -0.017754 230811.000000 0 0 1
-31.861654 -21.759050 -20.027566 43.470963 0.599173 2.049593 0.070488 -0.017761 173474.000000 0 0 1
-32.242834 -23.087350 -19.713966 44.286189 0.621414 2.032137 0.066474 -0.008801 131909.000000 0 0 1
-33.157474 -23.734150 -20.801966 45.776082 0.621252 2.042527 0.054118 -0.001224 120914.000000 0 0 1
-32.520544 -23.901650 -22.064566 45.996953 0.633813 2.071105 0.067106 -0.011939 -170185.000000 0 0 1
-33.194274 -24.849350 -22.848366 47.343403 0.642607 2.074428 0.061938 -0.012922 -73635.900000 0 0 1
-32.709724 -24.825950 -24.363166 47.747436 0.649222 2.106273 0.064699 -0.015038 677819.000000 0 0 1
-31.374214 -25.270040 -24.565266 47.184409 0.678049 2.118376 0.049438 -0.018473 -14252.200000 0 0 1
-31.028614 -25.283680 -25.939146 47.695688 0.683731 2.145811 0.053803 -0.011646 99225.200000 0 0 1
-29.578054 -25.800030 -26.117196 47.144572 0.717281 2.157935 0.064464 -0.013973 166782.000000 0 0 1
-28.700894 -24.707550 -26.117016 46.003291 0.710767 2.174531 0.082616 -0.027393 307148.000000 0 0 1
-27.309324 -25.050290 -26.141676 45.350892 0.742280 2.185151 0.076805 -0.021752 1421080.000000 0 0 1
-26.290974 -23.860350 -26.250056 44.154241 0.736970 2.207450 0.085803 -0.014969 378296.000000 0 0 1
-26.335784 -23.386850 -27.557616 44.720694 0.726160 2.234726 0.090733 -0.022979 -207705.000000 0 0 1
-25.690414 -22.195350 -27.747506 43.846950 0.712540 2.255994 0.106599 -0.023317 -265774.000000 0 0 1
-25.953014 -21.657050 -29.194676 44.664480 0.695410 2.283186 0.086018 -0.022226 -191690.000000 0 0 1
-25.322534 -22.462450 -30.102146 45.298251 0.725616 2.297664 0.095274 -0.021110 -131709.000000 0 0 1
-25.487344 -22.037350 -31.434936 46.080415 0.712932 2.321530 0.091870 -0.022998 -282501.000000 0 0 1
-24.986094 -23.128950 -32.416036 47.011196 0.746819 2.331648 0.082838 -0.028207 135548.000000 0 0 1
-25.687284 -24.402750 -32.367076 47.989148 0.759759 2.311038 0.068939 -0.023622 -16712.500000 0 0 1
-24.983994 -25.408840 -33.022626 48.582949 0.793829 2.318172 0.083198 -0.011415 -2526.210000 0 0 1
-19.908694 -14.233250 -11.746066 27.146115 0.620674 2.018279 0.052374 0.015168 -23389.100000 0 0 1
-20.489994 -13.887550 -10.558066 26.910530 0.595652 1.973970 0.060078 0.008562 17579.400000 0 0 1
-19.589794 -14.291550 -9.548366 26.061076 0.630278 1.945916 0.044200 -0.000017 314614.000000 0 0 1
-20.075494 -13.980450 -8.068966 25.760175 0.608302 1.889393 0.069402 -0.020488 123841.000000 0 0 1
-21.005494 -14.857450 -7.421566 26.777868 0.615617 1.851626 0.116797 -0.020974 531481.000000 0 0 1
-21.412294 -14.221550 -6.206466 26.443506 0.586277 1.807713 0.106337 -0.035970 -607293.000000 0 0 1
-22.639994 -14.874850 -5.600666 27.662211 0.581292 1.774672 0.128333 -0.042264 -845434.000000 0 0 1
-22.458794 -16.134750 -4.941866 28.091807 0.622979 1.747635 0.108781 -0.044994 138413.000000 0 0 1
-21.758494 -16.048450 -3.719466 27.291376 0.635499 1.707509 0.117979 -0.048701 -102067.000000 0 0 1
-21.716194 -17.470450 -3.081766 28.041166 0.677472 1.680920 0.091186 -0.031682 616123.000000 0 0 1
-23.037494 -17.930650 -2.775666 29.324710 0.661384 1.665591 0.087322 -0.042596 651828.000000 0 0 1
-22.988194 -19.131950 -2.069266 29.979500 0.694099 1.639874 0.082488 -0.029236 550547.000000 0 0 1
-24.309894 -19.985250 -2.045666 31.536739 0.688074 1.635708 0.068122 -0.035966 564039.000000 0 0 1
-24.416394 -20.684250 -3.220366 32.161611 0.702835 1.671095 0.046635 -0.031403 -429833.000000 0 0 1
-25.468694 -21.584650 -3.127466 33.531068 0.703039 1.664203 0.062423 -0.023886 -391770.000000 0 0 1
-25.438234 -22.679050 -4.188766 34.336406 0.728118 1.693093 0.080692 -0.019711 125186.000000 0 0 1
-24.231894 -23.433050 -4.064366 33.953079 0.768640 1.690789 0.085706 -0.016937 16789.600000 0 0 1
-24.053994 -24.239950 -5.187966 34.541059 0.789249 1.721564 0.086854 -0.012377 -588431.000000 0 0 1
-22.612794 -24.440650 -5.693466 33.780162 0.824225 1.740149 0.079258 -0.010223 136086.000000 0 0 1
-22.055794 -23.222650 -6.248666 32.631202 0.811163 1.763480 0.056419 -0.007071 400797.000000 0 0 1
-21.629994 -22.271650 -5.259966 31.488891 0.800013 1.738625 0.048774 -0.006218 -803814.000000 0 0 1
-21.751694 -20.809050 -5.860566 30.667556 0.763254 1.763079 0.062376 -0.000213 -350734.000000 0 0 1
-20.662194 -20.471150 -6.663566 29.839526 0.780754 1.796009 0.044021 0.001009 -223971.000000 0 0 1
-20.718794 -19.145250 -7.265266 29.130621 0.745946 1.822860 0.039156 -0.004561 517440.000000 0 0 1
-19.473494 -18.773150 -8.145066 28.248720 0.767089 1.863283 0.047975 -0.004315 419972.000000 0 0 1
-19.449894 -19.408250 -9.381066 29.034168 0.784326 1.899804 0.033598 -0.003755 792037.000000 0 0 1
-18.217394 -19.361250 -10.150166 28.456235 0.815828 1.935523 0.068311 -0.001741 546273.000000 0 0 1
-17.899594 -18.044650 -10.892166 27.652199 0.789434 1.975666 0.061994 0.002099 -152287.000000 0 0 1
-17.501194 -16.932450 -10.123166 26.371919 0.768883 1.964771 0.067802 -0.001993 -279421.000000 0 0 1
-16.147194 -17.098850 -9.790166 25.474495 0.814015 1.965259 0.095634 0.004126 -844948.000000 0 0 1
-15.654994 -16.051750 -8.779866 24.079525 0.797911 1.944021 0.061321 0.002527 -189377.000000 0 1 0
-16.097694 -16.280950 -7.474966 24.084854 0.791058 1.886368 0.032522 -0.000009 -188487.000000 0 1 0
-16.386594 -15.123450 -6.806566 23.314556 0.745333 1.867056 0.052905 -0.007388 -3709.320000 0 1 0
-16.861394 -15.409350 -5.373866 23.465573 0.740433 1.801858 0.046315 -0.019841 23403.700000 0 1 0
-17.174594 -14.264250 -4.606566 22.795963 0.693090 1.774276 0.040814 -0.017645 53838.400000 0 1 0
-17.577794 -14.657850 -3.293066 23.123055 0.695063 1.713697 0.034035 -0.019035 142427.000000 0 1 0
-18.334294 -13.454050 -2.634766 22.893226 0.633064 1.686141 0.043496 -0.027005 1186850.000000 0 1 0
-19.722494 -13.312750 -3.031366 23.987398 0.593752 1.697508 0.085297 -0.042290 1363050.000000 0 1 0
-20.274094 -12.181250 -2.348366 23.768394 0.541028 1.669760 0.092468 -0.033548 149876.000000 0 1 0
-21.828394 -12.309050 -2.369266 25.171510 0.513453 1.665061 0.113745 -0.036626 180760.000000 0 0 1
-22.382894 -11.963750 -3.646366 25.640227 0.490868 1.713493 0.136342 -0.039906 -862775.000000 0 0 1
-23.755094 -12.037550 -3.553066 26.866920 0.469021 1.703432 0.136286 -0.039853 -1226290.000000 0 0 1
-24.488594 -11.198750 -4.592266 27.316518 0.428912 1.739712 0.148354 -0.047884 -328476.000000 0 0 1
-24.261494 -11.543050 -5.891166 27.505780 0.444082 1.786648 0.159853 -0.051325 253697.000000 0 0 1
-24.968694 -10.745450 -6.834466 28.028740 0.406399 1.817117 0.167800 -0.050492 41813.100000 0 0 1
-24.411994 -10.905850 -8.252666 27.981949 0.420141 1.870177 0.172033 -0.046953 212282.000000 0 0 1
-23.120494 -10.345750 -8.441366 26.699221 0.420749 1.892481 0.157999 -0.051007 300748.000000 0 0 1
-22.498394 -11.021050 -9.546966 26.810181 0.455502 1.934882 0.107952 -0.036293 -151340.000000 0 0 1
-21.105294 -10.368850 -9.706566 25.439416 0.456657 1.962276 0.098035 -0.039458 -220556.000000 0 0 1
-21.155894 -9.132550 -10.293166 25.237365 0.407514 1.990899 0.086110 -0.039102 -638414.000000 0 0 1
-20.017194 -8.534150 -9.857466 23.889106 0.403006 1.996141 0.095034 -0.039550 -1328600.000000 0 1 0
-19.708594 -7.189950 -10.509566 23.464335 0.349810 2.035206 0.082784 -0.042007 -133790.000000 0 1 0
-19.519794 -7.184450 -11.866266 23.946752 0.352672 2.089238 0.101667 -0.041556 330789.000000 0 1 0
-19.349594 -5.881850 -12.391866 23.718374 0.295102 2.120528 0.100268 -0.052413 -302699.000000 0 1 0
-18.749994 -5.908950 -13.836466 24.040086 0.305292 2.184083 0.119812 -0.042375 -53870.200000 0 1 0
-19.574094 -6.472150 -14.818966 25.389675 0.319332 2.194026 0.112429 -0.048541 185065.000000 0 0 1
-18.925994 -6.275050 -16.057866 25.601261 0.320151 2.248787 0.108713 -0.048105 -113199.000000 0 0 1
-19.368494 -7.238950 -17.201666 26.896807 0.357673 2.264700 0.093874 -0.039097 -865192.000000 0 0 1
-20.609894 -6.906350 -17.712366 28.039138 0.323339 2.254542 0.085169 -0.045421 -475774.000000 0 0 1
-21.005194 -7.926650 -18.602466 29.156503 0.360844 2.262722 0.099930 -0.044316 -42631.700000 0 0 1
-22.464694 -7.787050 -19.116066 30.507779 0.333674 2.247975 0.079993 -0.043388 -673742.000000 0 0 1
-22.613394 -6.589850 -19.873066 30.817697 0.283561 2.271635 0.083691 -0.045549 -348096.000000 0 0 1
-23.807594 -6.472250 -20.568766 32.121109 0.265441 2.265751 0.062508 -0.041487 387561.000000 0 0 1
-25.075584 -6.193850 -19.654966 32.457146 0.242160 2.221274 0.124835 -0.042922 181417.000000 0 0 1
-25.206404 -4.839350 -19.291066 32.108057 0.189681 2.215319 0.123781 -0.032106 101550.000000 0 0 1
-26.469454 -4.627450 -18.699066 32.736835 0.173073 2.178755 0.149883 -0.027477 -365867.000000 0 0 1
-26.675254 -3.206150 -18.094466 32.392256 0.119618 2.163499 0.139182 -0.022095 -46395.900000 0 0 1
-26.976344 -2.101250 -18.942366 33.029556 0.077735 2.181565 0.134617 -0.021302 -752600.000000 0 0 1
-28.257794 -2.172650 -19.431666 34.362959 0.076736 2.171815 0.157226 -0.015713 -1163700.000000 0 0 1
-28.696584 -1.060750 -20.428266 35.241072 0.036947 2.189123 0.144962 -0.018827 -182105.000000 0 0 1
-28.081484 -1.047550 -21.674566 35.488785 0.037287 2.227796 0.129123 -0.008929 -263419.000000 0 0 1
-28.676064 -1.883150 -22.642966 36.586429 0.065576 2.238125 0.122421 -0.001392 49166.100000 0 0 1
-28.070324 -1.644750 -24.055266 37.004109 0.058527 2.278473 0.098369 -0.002830 -312121.000000 0 0 1
-28.409174 -0.352650 -24.717366 37.658381 0.012413 2.286777 0.084121 0.003104 230071.000000 0 0 1
-27.874834 0.888950 -24.222066 36.939208 -0.031880 2.285943 0.103086 0.003770 547811.000000 0 0 1
-26.389634 0.990250 -23.757066 35.521705 -0.037507 2.303395 0.097495 -0.007663 596686.000000 0 0 1
-25.397184 0.720150 -24.724466 35.451865 -0.028348 2.342573 0.077452 -0.007467 221994.000000 0 0 1
-24.082594 0.659350 -24.196366 34.144841 -0.027372 2.358364 0.063769 -0.006862 -6137.820000 0 0 1
-23.057694 0.028850 -25.110606 34.091063 -0.001251 2.398788 0.063138 -0.009333 -562692.000000 0 0 1
-22.744294 0.830850 -26.207236 34.710408 -0.036514 2.426489 0.041872 -0.007317 -207672.000000 0 0 1
-22.080394 0.121550 -27.163806 35.006155 -0.005505 2.459051 0.030883 -0.017128 -391190.000000 0 0 1
-22.063494 0.889250 -28.485376 36.041714 -0.040282 2.482168 0.030992 -0.006697 -141871.000000 0 0 1
-21.226094 2.032550 -28.362286 35.483765 -0.095466 2.496931 0.033204 -0.007283 285366.000000 0 0 1
-20.989194 2.728850 -29.606376 36.394098 -0.129287 2.520931 0.018630 -0.007309 -175121.000000 0 0 1
-20.365394 2.058350 -30.827406 37.004257 -0.100729 2.555444 0.015733 -0.009850 -152744.000000 0 0 1
-18.952894 1.940350 -30.860746 36.267930 -0.102022 2.588512 0.007503 -0.003416 178707.000000 0 0 1
-18.514094 1.604650 -32.156376 37.139993 -0.086456 2.617574 0.020742 -0.009479 -746548.000000 0 0 1
-17.001394 1.528850 -32.208576 36.452395 -0.089684 2.654247 0.034700 -0.029704 -972605.000000 0 0 1
-16.425694 2.781650 -32.447106 36.474041 -0.167756 2.667253 0.044481 -0.020402 155483.000000 0 0 1
-15.021594 2.639350 -32.610876 36.001162 -0.173928 2.704127 0.064997 -0.025854 528572.000000 0 0 1
-14.202594 3.925950 -32.946236 36.091290 -0.269690 2.721028 0.068186 -0.008288 -68520.700000 0 0 1
-14.055294 4.843150 -31.888856 35.183895 -0.331837 2.705356 0.078551 -0.028361 113613.000000 0 0 1
-13.446894 6.040550 -32.378266 35.576106 -0.422201 2.714352 0.088197 -0.017359 -4792.160000 0 0 1
-12.975794 6.987750 -31.213316 34.517690 -0.493988 2.700463 0.093888 -0.025925 213040.000000 0 0 1
-11.782194 6.625050 -30.516666 33.376313 -0.512233 2.724625 0.118768 -0.035858 350948.000000 0 0 1
-11.828194 5.556250 -29.583866 32.341663 -0.439153 2.725634 0.117822 -0.036715 -588519.000000 0 0 1
-10.399194 5.037050 -29.348326 31.541074 -0.451065 2.766516 0.130361 -0.047766 -335080.000000 0 0 1
-9.904894 4.222850 -30.380206 32.231914 -0.403005 2.800981 0.115032 -0.045998 209127.000000 0 0 1
-10.545794 2.945650 -30.553516 32.456247 -0.272378 2.797481 0.114007 -0.039992 -17295.700000 0 0 1
-10.000194 2.280950 -31.810066 33.422850 -0.224254 2.829673 0.108284 -0.045357 10925.700000 0 0 1
-10.841794 1.179250 -32.077146 33.880354 -0.108343 2.813868 0.112910 -0.045994 317005.000000 0 0 1
-10.562394 0.595050 -33.333846 34.972325 -0.056277 2.834278 0.093541 -0.030591 -374740.000000 0 0 1
-11.082094 1.310850 33.254994 35.077425 -0.117738 0.323761 0.096100 -0.028544 700507.000000 0 0 1
-12.493894 1.301150 33.003944 35.313605 -0.103769 0.363676 0.069703 -0.031953 585357.000000 0 0 1
-12.759594 1.915550 31.738697 34.261078 -0.149013 0.386119 0.058237 -0.013844 -1100150.000000 0 0 1
-14.088894 1.618950 31.113447 34.193048 -0.114408 0.427669 0.061131 -0.017411 -357958.000000 0 0 1
-15.174494 2.237150 31.843916 35.345510 -0.146374 0.448883 0.067446 -0.005483 653388.000000 0 0 1
-16.364694 1.498150 31.564147 35.585714 -0.091293 0.480012 0.060831 0.004779 659392.000000 0 0 1
-17.623194 2.421450 31.385447 36.076123 -0.136546 0.515638 0.062429 0.016207 233125.000000 0 0 1
-18.020094 3.266250 32.518647 37.320967 -0.179309 0.512903 0.052220 -0.001487 434667.000000 0 0 1
-17.324794 4.505950 32.548995 37.146859 -0.254449 0.502825 0.062986 -0.000268 -479307.000000 0 0 1
-17.697594 5.396150 33.748261 38.487250 -0.295954 0.501487 0.046624 -0.003343 568002.000000 0 0 1
-19.051894 5.825550 33.609541 39.070615 -0.296744 0.535084 0.031641 -0.001074 390859.000000 0 0 1
-19.972394 5.188350 -33.381376 39.244512 -0.254158 2.587921 0.016317 0.001942 -212999.000000 0 0 1
-21.345094 5.881750 -33.303036 39.991252 -0.268882 2.554867 0.005653 -0.002549 -381646.000000 0 0 1
-21.405094 7.246550 -32.829686 39.855725 -0.326432 2.538725 0.007469 -0.009965 157670.000000 0 0 1
-21.154694 8.241150 -33.825366 40.738102 -0.371479 2.550465 0.012890 -0.007162 -293748.000000 0 0 1
-21.114594 9.691750 -33.286806 40.592703 -0.430319 2.532241 0.027006 -0.003594 -599591.000000 0 0 1
-20.025794 10.031050 -32.469536 39.445217 -0.464373 2.537742 0.038763 -0.006456 -39442.500000 0 0 1
-19.991294 11.400150 -32.213426 39.589393 -0.518262 2.521265 0.058116 -0.017139 -357776.000000 0 0 1
-19.207094 12.277750 -33.137756 40.221468 -0.568767 2.539024 0.047661 -0.022595 -801746.000000 0 0 1
-19.792294 12.254250 33.394116 40.707107 -0.554376 0.608772 0.058863 -0.021364 -212513.000000 0 0 1
-18.934994 12.545250 32.351650 39.529060 -0.585142 0.612128 0.049011 -0.019754 -532083.000000 0 0 1
-19.542294 12.223250 30.981317 38.615426 -0.558942 0.639651 0.072694 -0.016855 -281803.000000 0 0 1
-19.746194 10.818850 30.748287 38.110587 -0.501226 0.632051 0.057350 -0.007116 -151029.000000 0 0 1
-18.618794 10.164950 30.241807 36.939851 -0.499729 0.611693 0.049295 -0.016336 -243386.000000 0 0 1
-18.655594 8.619350 30.409077 36.701994 -0.432809 0.594301 0.066657 0.000451 -62836.700000 0 0 1
-19.554894 7.935650 29.577467 36.334488 -0.385508 0.619734 0.066496 -0.003558 78133.100000 0 0 1
-19.625594 6.558350 29.934847 36.390534 -0.322506 0.604828 0.062088 -0.004014 117316.000000 0 0 1
-20.272894 5.685350 28.786987 35.665166 -0.273418 0.631495 0.070108 -0.009664 497145.000000 0 0 1
-21.687694 5.694950 28.671247 36.398200 -0.256792 0.663713 0.094103 -0.020528 126168.000000 0 0 1
-22.204094 4.637250 27.889777 35.949486 -0.205887 0.682807 0.085515 -0.025479 -121323.000000 0 0 1
-23.719694 4.832350 27.718217 36.800476 -0.200977 0.717879 0.078860 -0.017549 -227480.000000 0 0 1
-24.021394 5.689450 26.581387 36.276264 -0.232564 0.748444 0.090818 -0.031956 379182.000000 0 0 1
-25.418224 5.875850 26.482617 37.174463 -0.227176 0.777902 0.098449 -0.032168 -270694.000000 0 0 1
-25.992914 6.690150 25.303287 36.886936 -0.251916 0.814862 0.100540 -0.033688 -88320.700000 0 0 1
-26.003234 5.990150 24.067017 35.934265 -0.226412 0.836923 0.102018 -0.026316 147381.000000 0 0 1
-26.969354 4.983650 23.980017 36.431086 -0.182728 0.852332 0.104662 -0.021342 -595018.000000 0 0 1
-27.205064 4.439750 22.594617 35.641880 -0.161770 0.884166 0.115399 -0.026154 221864.000000 0 0 1
-27.824514 5.307150 21.592317 35.617377 -0.188473 0.919485 0.109015 -0.016052 226941.000000 0 0 1
-28.004644 4.618450 20.383117 34.943692 -0.163446 0.947995 0.144957 -0.016354 567954.000000 0 0 1
-29.021624 5.245450 19.342617 35.269055 -0.178812 0.990310 0.131374 -0.016597 -179508.000000 0 0 1
-30.367044 5.034750 19.571917 36.476924 -0.164302 1.004446 0.136081 -0.013026 -757549.000000 0 0 1
-31.145664 5.651250 18.552217 36.690241 -0.179493 1.040668 0.142086 -0.013331 1130410.000000 0 0 1
-32.709714 5.622150 18.727417 38.108399 -0.170217 1.057071 0.136449 -0.012194 977510.000000 0 0 1
-33.196294 6.567750 19.608417 39.110348 -0.195323 1.045625 0.120656 -0.019298 -433930.000000 0 0 1
-34.575248 6.427650 19.837817 40.376992 -0.183805 1.057198 0.111319 -0.014527 -61113.700000 0 0 1
-34.988582 7.486850 20.921017 41.448073 -0.210801 1.041701 0.091949 -0.020931 -134923.000000 0 0 1
-34.279701 7.337650 22.122417 41.452869 -0.210870 1.007854 0.096437 -0.022735 81215.700000 0 0 1
-34.225285 8.545950 22.882407 42.047687 -0.244693 0.995359 0.108421 -0.020162 26514.800000 0 0 1
-0.555594 32.927350 11.317134 34.822358 -1.553925 1.239789 0.114335 -0.022397 -276208.000000 0 0 1
-0.621594 32.761750 12.689134 35.138765 -1.551825 1.201333 0.100470 -0.011210 76940.700000 0 0 1
-0.289094 33.964250 13.363034 36.499652 -1.562285 1.195967 0.099889 -0.020132 -70682.700000 0 0 1
-0.300194 33.858050 14.924134 37.002533 -1.561930 1.155646 0.097064 -0.012988 900610.000000 0 0 1
-1.604094 33.891250 15.528434 37.313834 -1.523501 1.141581 0.078713 -0.000828 505861.000000 0 0 1
-1.440894 -33.828648 16.919934 37.851523 1.528228 1.107379 0.069686 -0.016752 -7378.500000 0 0 1
-2.682394 -33.454248 17.751234 37.966937 1.490787 1.084285 0.062018 -0.007148 215354.000000 0 0 1
-3.581494 33.441950 18.078834 38.184230 -1.464107 1.077578 0.050394 -0.004861 559849.000000 0 0 1
-4.348094 33.824650 19.236834 39.154421 -1.442949 1.057207 0.038528 -0.007504 83367.200000 0 0 1
-5.423294 32.754050 19.567134 38.537160 -1.406709 1.038229 0.035474 -0.015698 39642.000000 0 0 1
-6.431594 32.795450 18.570134 38.232929 -1.377142 1.063621 0.048453 -0.017743 -331991.000000 0 0 1
-7.444794 31.882650 18.933434 37.820673 -1.341401 1.046492 0.061124 -0.030473 4110.120000 0 0 1
-8.527194 31.762350 17.822234 37.405775 -1.308512 1.074176 0.045708 -0.026193 -110113.000000 0 0 1
-9.317294 32.927050 17.704434 38.528556 -1.295038 1.093348 0.060289 -0.028678 1126.640000 0 0 1
-10.164894 32.872050 16.567634 38.188785 -1.270897 1.122051 0.068324 -0.017958 435428.000000 0 0 1
-11.216594 -33.984548 16.390134 39.362393 1.252004 1.141324 0.110886 -0.028904 1491560.000000 0 0 1
-12.478494 33.851250 17.101234 39.925833 -1.217624 1.128158 0.106901 -0.026007 919491.000000 0 0 1
-13.324794 -33.018648 16.939134 39.429881 1.187230 1.126745 0.082867 -0.028059 -515141.000000 0 0 1
-14.686294 -33.305248 17.541334 40.405757 1.155485 1.121724 0.106815 -0.033179 -588102.000000 0 0 1
-14.787194 -33.364248 18.978834 41.134296 1.153608 1.091238 0.113170 -0.030174 -1040610.000000 0 0 1
-16.105294 -33.245148 19.379034 41.715313 1.119674 1.087665 0.113137 -0.036151 -654239.000000 0 0 1
-16.316094 -32.954448 20.872734 42.283349 1.111068 1.054527 0.116559 -0.046010 33473.800000 0 0 1
-15.851594 -31.639048 21.121934 41.212116 1.106338 1.032682 0.113233 -0.036589 55448.900000 0 0 1
-16.007894 -31.340548 22.533534 41.788070 1.098568 1.001269 0.107046 -0.028850 266393.000000 0 0 1
-15.696494 -29.850948 22.841734 40.733326 1.086700 0.975490 0.105351 -0.032263 -113396.000000 0 0 1
-15.809394 -29.457848 24.185234 41.262905 1.078238 0.944528 0.106231 -0.040168 -71932.400000 0 0 1
-15.595094 -28.022848 24.386834 40.289014 1.062966 0.920657 0.074420 -0.021540 -373575.000000 0 0 1
-16.753494 -27.159648 23.887534 39.861515 1.018077 0.928216 0.098870 -0.020025 114383.000000 0 0 1
-17.845294 -27.258648 24.811934 40.952662 0.991148 0.919939 0.119503 -0.023148 168240.000000 0 0 1
-18.943294 -26.506448 24.384334 40.694422 0.950294 0.928288 0.120557 -0.023594 -797837.000000 0 0 1
-19.970494 -26.094648 25.430434 41.550671 0.917569 0.912166 0.124359 -0.021135 -130491.000000 0 0 1
-20.720394 -27.101248 26.131534 42.972892 0.918045 0.917140 0.141303 -0.024049 504530.000000 0 0 1
-21.647094 -27.889748 25.414234 43.500782 0.910758 0.946872 0.124790 -0.033507 -162924.000000 0 0 1
-23.027994 -27.263648 25.102834 43.631953 0.869422 0.957787 0.078899 -0.008943 -402033.000000 0 0 1
-22.958094 -26.063748 24.353734 42.420484 0.848666 0.959288 0.088512 -0.005571 304679.000000 0 0 1
-24.182994 -25.896548 23.645134 42.597427 0.819601 0.982333 0.067669 0.000798 429618.000000 0 0 1
-24.743894 -24.440248 23.406234 41.921806 0.779225 0.978424 0.063215 0.019217 157183.000000 0 0 1
-25.441154 -23.851948 24.475334 42.605278 0.753169 0.958843 0.049183 0.013118 199257.000000 0 0 1
-25.920964 -22.548648 24.069734 41.948659 0.715934 0.959670 0.038723 0.021741 229012.000000 0 0 1
-26.437594 -21.663548 25.224534 42.479793 0.686472 0.935022 0.045014 0.016233 -515898.000000 0 0 1
-27.584724 -22.178348 25.795734 43.797443 0.677180 0.941003 0.032650 0.020543 -482927.000000 0 0 1
-27.870674 -21.469948 27.007234 44.352270 0.656393 0.916091 0.024886 0.005556 78773.200000 0 0 1
-29.005344 -22.142548 27.896034 45.932463 0.652019 0.918104 0.023098 -0.001285 2284070.000000 0 0 1
-30.434454 -21.986348 27.614534 46.607060 0.625613 0.936642 0.025654 -0.000327 1958600.000000 0 0 1
-30.800284 -22.467048 26.339434 46.337798 0.630214 0.966209 0.021327 0.018015 -1094430.000000 0 0 1
-32.239354 -22.985248 26.323834 47.546207 0.619369 0.984058 0.017404 0.000712 -224282.000000 0 0 1
-32.835554 -23.409848 25.102134 47.500650 0.619359 1.014012 0.013816 0.010496 96034.200000 0 0 1
-32.447484 -24.723148 24.653434 47.664086 0.651101 1.027182 -0.001713 0.008884 -503513.000000 0 0 1
-32.843584 -25.095848 23.231334 47.415161 0.652465 1.058757 0.021359 0.006981 -685278.000000 0 0 1
-34.189495 -25.303048 22.980134 48.345138 0.637124 1.075452 0.038824 -0.007517 -905617.000000 0 0 1
-34.340055 -25.822048 21.640434 48.107442 0.644749 1.104215 0.045601 -0.004803 729483.000000 0 0 1
-35.743692 -26.509948 21.467734 49.409032 0.638147 1.121324 0.059930 -0.006986 648289.000000 0 0 1
-36.006086 -27.696648 22.279634 50.595698 0.655690 1.114812 0.055141 -0.007878 -132010.000000 0 0 1
-35.078507 -28.747048 22.170134 50.481772 0.686522 1.116121 0.030925 -0.006132 -722572.000000 0 0 1
-35.318305 -29.934248 21.156534 50.902267 0.703074 1.142160 0.048210 -0.016051 -206710.000000 0 0 1
-35.178751 -29.448648 19.840534 49.984140 0.696966 1.162619 0.051181 -0.021234 397314.000000 0 0 1
-35.759496 -30.442048 19.026434 50.670159 0.705248 1.185865 0.073406 -0.022975 -174947.000000 0 0 1
-36.147504 -29.844048 17.646534 50.087019 0.690168 1.210750 0.084474 -0.017154 -44627.000000 0 0 1
-35.067771 -29.588348 16.749834 48.844405 0.700853 1.220770 0.101195 -0.026443 573072.000000 0 0 1
-35.510851 -29.079948 15.461834 48.432760 0.686161 1.245865 0.121145 -0.020691 324671.000000 0 0 1
-36.331044 -29.970148 14.522234 49.285392 0.689752 1.271701 0.132325 -0.028676 701284.000000 0 0 1
-35.417523 -30.945948 13.944934 49.056231 0.718120 1.282557 0.125148 -0.042241 785283.000000 0 0 1
-35.928241 -31.771448 12.903134 49.666430 0.724075 1.307985 0.124614 -0.038241 -92229.900000 0 0 1
-36.229164 -31.110848 11.526834 49.125402 0.709537 1.333947 0.123125 -0.044969 383494.000000 0 0 1
37.090575 -30.257848 11.620834 49.257405 -0.684291 1.332631 0.120552 -0.047686 312452.000000 0 0 1
36.845175 -29.557448 10.430234 48.373541 -0.676085 1.353471 0.091177 -0.035861 -4122.960000 0 0 1
35.595515 -28.647648 10.390734 46.858253 -0.677667 1.347189 0.123874 -0.025477 88539.300000 0 0 1
35.588405 -27.749348 9.299634 46.076503 -0.662258 1.367570 0.131425 -0.053900 1324970.000000 0 0 1
34.411115 -26.880448 9.411934 44.668421 -0.663145 1.358499 0.105195 -0.043488 1142110.000000 0 0 1
34.436845 -25.845648 8.268134 43.843539 -0.643836 1.381078 0.100783 -0.040625 357712.000000 0 0 1
35.385105 -24.825648 8.575234 44.067597 -0.611789 1.374954 0.115991 -0.046007 262520.000000 0 0 1
35.379525 -23.916848 7.455834 43.351077 -0.594442 1.397950 0.105990 -0.044590 -65135.200000 0 0 1
36.100685 -22.613448 7.614034 43.273561 -0.559605 1.393924 0.123934 -0.049426 -212188.000000 0 0 1
35.211245 -21.648648 8.129934 42.125902 -0.551247 1.376586 0.112744 -0.044450 45420.000000 0 0 1
35.690245 -20.354448 7.878234 41.834959 -0.518301 1.381348 0.131934 -0.044338 189749.000000 0 0 1
34.915035 -19.287948 8.684634 40.822880 -0.504703 1.356419 0.133099 -0.033668 343040.000000 0 0 1
35.204225 -19.353348 10.101034 41.423670 -0.502647 1.324466 0.118420 -0.048932 391610.000000 0 0 1
34.245655 -18.566648 10.809334 40.426811 -0.496805 1.300123 0.115011 -0.037636 402693.000000 0 0 1
34.636435 -18.525148 12.310834 41.163338 -0.491134 1.267076 0.111841 -0.047785 1165990.000000 0 0 1
35.954065 -17.952448 12.515934 42.090781 -0.463100 1.268874 0.091467 -0.045283 1119590.000000 0 0 1
36.375405 -18.405648 13.793534 43.037189 -0.468429 1.244536 0.102731 -0.040151 8082.080000 0 0 1
-36.839864 -17.639548 14.313334 43.280490 0.446558 1.233739 0.108525 -0.042970 1052120.000000 0 0 1
-35.618405 -17.916048 13.569034 42.116199 0.466045 1.242764 0.096334 -0.038998 1737600.000000 0 0 1
-34.495348 -17.331448 14.284934 41.162695 0.465589 1.216388 0.076464 -0.031364 662720.000000 0 0 1
-33.186944 -17.348548 13.479734 39.800108 0.481683 1.225276 0.085251 -0.029951 -39659.100000 0 0 1
-32.523314 -18.611748 13.355834 39.781169 0.519772 1.228413 0.089300 -0.033358 490591.000000 0 0 1
-31.353464 -18.515748 12.550634 38.514816 0.533441 1.238870 0.092041 -0.028470 -332863.000000 0 0 1
-30.546694 -19.750348 12.422334 38.438147 0.573955 1.241711 0.086741 -0.033598 -541748.000000 0 0 1
-30.986094 -20.742748 11.496034 39.019975 0.589907 1.271739 0.091704 -0.035699 -307643.000000 0 0 1
-29.990804 -21.703848 11.197434 38.676710 0.626445 1.277078 0.084384 -0.040502 -578679.000000 0 0 1
-30.310264 -22.637348 10.056934 39.144649 0.641485 1.310965 0.097209 -0.041873 -19835.000000 0 0 1
-31.233874 -23.664048 10.265634 40.508336 0.648373 1.314582 0.102938 -0.037255 76910.000000 0 0 1
-32.602874 -23.278248 10.326134 41.369715 0.620056 1.318523 0.126556 -0.047699 -225782.000000 0 0 1
-33.540834 -24.461948 10.560134 42.835626 0.630133 1.321701 0.147867 -0.049199 -328926.000000 0 0 1
-33.939864 -25.120748 9.362634 43.250726 0.637170 1.352595 0.129083 -0.041004 164265.000000 0 0 1
-34.726358 -26.314448 9.499234 44.593784 0.648453 1.356135 0.138143 -0.037286 485627.000000 0 0 1
-34.928705 -26.919748 8.124234 44.840723 0.656622 1.388610 0.118170 -0.037946 572862.000000 0 0 1
-33.755404 -27.645948 7.749634 44.314587 0.686224 1.395015 0.111549 -0.034714 231375.000000 0 0 1
-33.784484 -28.239448 6.492934 44.508606 0.696234 1.424393 0.084544 -0.030689 -1142660.000000 0 0 1
-32.452014 -28.400248 5.820334 43.515326 0.718913 1.436641 0.069435 -0.021156 -759760.000000 0 0 1
-31.905314 -27.243948 5.186434 42.273879 0.706754 1.447800 0.076822 -0.009996 96742.600000 0 0 1
-30.761244 -27.607148 4.427134 41.569319 0.731413 1.464094 0.081074 -0.012290 271629.000000 0 0 1
-29.969144 -26.413148 3.854034 40.132999 0.722412 1.474617 0.063311 -0.004141 118398.000000 0 0 1
-30.429334 -25.951348 2.609034 40.077723 0.706140 1.505651 0.084705 -0.005837 -102132.000000 0 0 1
-29.630324 -24.864248 2.199334 38.743051 0.698161 1.513999 0.081105 -0.015692 -160544.000000 0 0 1
-29.892844 -24.362648 0.789934 38.571294 0.683820 1.550315 0.084981 -0.011096 -260694.000000 0 0 1
-29.547014 -25.302948 -0.183166 38.901141 0.708176 1.575505 0.084198 -0.012251 -106690.000000 0 0 1
-29.574144 -24.789248 -1.491666 38.618155 0.697608 1.609432 0.091211 -0.018160 1619540.000000 0 0 1
-31.055324 -24.580348 -2.097066 39.661371 0.669538 1.623695 0.109487 -0.016724 1694410.000000 0 0 1
-31.714564 -23.468348 -1.577766 39.485013 0.637062 1.610766 0.104209 -0.018538 -156223.000000 0 0 1
-33.049894 -23.378748 -2.056366 40.535047 0.615660 1.621549 0.120853 -0.025575 556958.000000 0 0 1
-33.880544 -22.141348 -1.594166 40.505209 0.578840 1.610164 0.116853 -0.023448 89759.400000 0 0 1
-34.220403 -21.960848 -0.240366 40.661685 0.570552 1.576708 0.124165 -0.028816 3040.290000 0 0 1
-34.915292 -20.752548 -0.194466 40.617529 0.536268 1.575584 0.132694 -0.023716 -324527.000000 0 0 1
-35.375915 -20.347048 1.212334 40.828023 0.521960 1.541098 0.133227 -0.029401 -13216.300000 0 0 1
-36.323064 -21.185648 1.850734 42.090639 0.528017 1.526812 0.126820 -0.039083 183681.000000 0 0 1
-36.387114 -20.971648 3.243434 42.123057 0.522847 1.493721 0.140122 -0.038052 -146091.000000 0 0 1
36.902525 -21.845448 3.812534 43.052937 -0.534499 1.482126 0.157210 -0.034486 1207930.000000 0 0 1
35.569135 -21.559748 3.401934 41.731994 -0.544919 1.489187 0.117923 -0.025175 449773.000000 0 0 1
34.986495 -20.333348 3.860234 40.649740 -0.526464 1.475690 0.116438 -0.029898 -662716.000000 0 0 1
33.712395 -19.997248 3.087634 39.318558 -0.535384 1.492187 0.097099 -0.014589 -699652.000000 0 0 1
32.646115 -20.819548 3.420834 38.870613 -0.567704 1.482677 0.084915 -0.008397 243501.000000 0 0 1
31.437565 -20.364048 2.739034 37.556854 -0.574800 1.497801 0.088544 -0.016859 639694.000000 0 0 1
30.193675 -21.190648 2.957034 37.006022 -0.611949 1.490804 0.076442 -0.002998 -509765.000000 0 0 1
30.183945 -22.315348 2.105734 37.596269 -0.636626 1.514758 0.049088 -0.002494 -500864.000000 0 0 1
29.053465 -23.076948 2.376534 37.179259 -0.671251 1.506832 0.050084 -0.000549 -352207.000000 0 0 1
28.702765 -24.228748 1.388134 37.587337 -0.701074 1.533857 0.040501 0.002303 -51919.800000 0 0 1
28.353165 -23.809048 0.111834 37.024117 -0.698502 1.567776 0.039603 -0.008019 17131.100000 0 0 1
27.917565 -24.984948 -0.576766 37.469598 -0.730020 1.586190 0.040736 -0.010798 -306339.000000 0 0 1
27.168965 -24.580248 -1.848466 36.684576 -0.735416 1.621206 0.059748 -0.016745 -381242.000000 0 0 1
27.909365 -24.111048 -2.956766 37.000240 -0.712512 1.650794 0.038646 -0.035376 -127145.000000 0 0 1
28.165665 -25.032148 -3.971866 37.890485 -0.726563 1.675814 0.042794 -0.033600 -371746.000000 0 0 1
26.993965 -25.423848 -4.908766 37.405109 -0.755453 1.702408 0.057903 -0.035659 80046.200000 0 0 1
26.489765 -24.353848 -5.696666 36.431711 -0.743413 1.727806 0.058289 -0.052537 -204451.000000 0 0 1
25.284665 -23.838548 -5.227266 35.141357 -0.755968 1.720100 0.057798 -0.053256 -768161.000000 0 0 1
24.590165 -22.900548 -6.246266 34.177876 -0.749835 1.754587 0.061630 -0.064605 -206225.000000 0 0 1
24.114765 -23.410348 -7.475066 34.430262 -0.770577 1.789647 0.075867 -0.071214 651159.000000 0 0 1
22.945865 -22.748548 -7.961066 33.277436 -0.781080 1.812372 0.075585 -0.071696 141690.000000 0 0 1
23.117065 -21.353348 -8.547366 32.610146 -0.745758 1.836002 0.072636 -0.069993 -588249.000000 0 0 1
23.758165 -21.336148 -9.802566 33.403173 -0.731740 1.868643 0.082074 -0.070487 238557.000000 0 0 1
23.643565 -20.111448 -10.460066 32.755175 -0.704848 1.895830 0.079660 -0.069760 298372.000000 0 0 1
24.644365 -20.041348 -11.697366 33.850092 -0.682752 1.923636 0.079325 -0.067651 323465.000000 0 0 1
25.991065 -20.033148 -11.281566 34.700666 -0.656662 1.901925 0.091339 -0.069506 -164762.000000 0 0 1
26.771765 -19.630148 -12.434766 35.449874 -0.632689 1.929190 0.084219 -0.070336 -510006.000000 0 0 1
28.236665 -19.937848 -12.166666 36.644984 -0.614807 1.909235 0.067407 -0.061803 -860366.000000 0 0 1
28.518665 -21.278948 -12.523366 37.721911 -0.641027 1.909211 0.062992 -0.063343 358156.000000 0 0 1
29.320365 -21.979848 -11.568966 38.427055 -0.643273 1.876604 0.074418 -0.062523 80076.400000 0 0 1
29.691185 -23.450548 -12.046966 39.706726 -0.668500 1.879054 0.066305 -0.053323 -480353.000000 0 0 1
30.451815 -23.561848 -13.212266 40.706728 -0.658524 1.901356 0.047348 -0.050211 54151.300000 0 0 1
30.870195 -24.866248 -13.389566 41.839930 -0.678092 1.896546 0.050051 -0.035163 -273805.000000 0 0 1
-4.167694 -8.904550 -27.444116 29.152018 1.133041 2.797595 0.038932 -0.004575 126963.000000 0 0 1
-3.940394 -7.560250 -26.994706 28.308978 1.090334 2.835685 0.030217 -0.000932 -32298.300000 0 0 1
-4.864694 -6.625450 -27.533586 28.734303 0.937456 2.851485 0.032061 -0.004088 31746.300000 0 0 1
-4.855994 -5.301750 -26.838696 27.784974 0.829253 2.879859 0.038631 -0.015648 56406.100000 0 0 1
-5.567094 -5.275450 -25.616696 26.740194 0.758507 2.850687 0.039310 -0.011987 79288.000000 0 0 1
-5.180794 -4.167050 -24.874766 25.747988 0.677373 2.880412 0.048426 -0.015937 115424.000000 0 0 1
-5.729194 -4.136450 -23.411166 24.454377 0.625336 2.848450 0.036835 -0.019947 50608.500000 0 1 0
-5.124094 -5.131050 -22.604866 23.739502 0.786076 2.831171 0.033692 -0.019761 133176.000000 0 1 0
-5.598194 -5.077150 -21.293166 22.594604 0.736629 2.800532 0.031395 -0.017147 28980.700000 0 1 0
-5.007494 -6.155950 -20.338866 21.832090 0.887914 2.769598 0.031201 -0.021909 -136199.000000 0 1 0
-5.508494 -7.438350 -20.598266 22.582318 0.933369 2.719275 0.030678 -0.012626 607055.000000 0 1 0
-4.600094 -8.394550 -20.030066 22.199839 1.069501 2.695783 0.027428 -0.012616 -295487.000000 0 1 0
-5.137894 -9.861350 -20.220566 23.076296 1.090480 2.638817 0.035052 -0.002769 301536.000000 0 1 0
-6.226194 -10.226950 -19.400466 22.797677 1.023929 2.588653 0.033998 -0.000878 -105696.000000 0 1 0
-7.470994 -9.647050 -19.735866 23.203140 0.911841 2.587862 0.040428 -0.010139 -944352.000000 0 1 0
-8.362894 -9.805450 -18.502666 22.548469 0.864631 2.533209 0.037775 -0.012941 -567833.000000 0 1 0
-9.113494 -11.005850 -18.462966 23.346640 0.879179 2.482942 0.056946 -0.012290 -117400.000000 0 1 0
-9.805094 -11.033150 -17.227366 22.685951 0.844263 2.433163 0.057592 -0.016484 590700.000000 0 1 0
-10.995294 -12.090050 -17.314466 23.808749 0.832785 2.385076 0.084831 -0.009349 292074.000000 0 1 0
-12.054894 -11.786450 -18.165866 24.783856 0.774139 2.393477 0.102192 -0.021262 -254752.000000 0 1 0
-11.816894 -12.012850 -19.541966 25.803797 0.793621 2.430010 0.101864 -0.024062 -1372250.000000 0 0 1
-13.071994 -11.797750 -20.392366 26.942763 0.734206 2.429318 0.095646 -0.024198 256009.000000 0 0 1
-14.100494 -12.778850 -20.408666 27.904060 0.736268 2.391150 0.090567 -0.017563 -502205.000000 0 0 1
-14.839994 -12.858150 -19.294966 27.529132 0.713968 2.347445 0.077925 -0.015491 -1880610.000000 0 0 1
-16.134094 -13.611650 -19.574666 28.788080 0.700800 2.318501 0.078073 -0.005888 -488766.000000 0 0 1
-15.924694 -15.010450 -19.763866 29.487622 0.755853 2.305332 0.076105 -0.003336 54598.900000 0 0 1
-16.809694 -15.592750 -20.732066 30.911457 0.747859 2.305938 0.068348 -0.006627 -158284.000000 0 0 1
-16.396694 -17.059050 -21.085366 31.693144 0.805194 2.298688 0.065615 -0.007591 148303.000000 0 0 1
-16.645694 -18.005550 -20.050566 31.674976 0.824622 2.256231 0.067353 0.002018 18054.200000 0 0 1
-16.322494 -19.293150 -20.593166 32.599508 0.868614 2.254543 0.066721 -0.001833 -252585.000000 0 0 1
-16.795894 -20.504150 -19.734366 33.044930 0.884489 2.210799 0.065625 -0.012595 -27175.900000 0 0 1
-16.335194 -21.767150 -20.236566 33.914097 0.927006 2.210180 0.066371 -0.013926 614055.000000 0 0 1
-16.949094 -22.870750 -19.500266 34.505120 0.933027 2.171401 0.076626 -0.016529 342772.000000 0 0 1
-16.357894 -24.200850 -20.015866 35.410404 0.976413 2.171537 0.085702 -0.021236 76195.200000 0 0 1
-16.680794 -24.594550 -21.372666 36.605076 0.974830 2.194286 0.064048 -0.016518 214380.000000 0 0 1
-15.920894 -25.780610 -21.617066 37.221126 1.017570 2.190476 0.081635 -0.022422 134047.000000 0 0 1
-16.107294 -26.361120 -23.053966 38.546581 1.022310 2.211900 0.086236 -0.025204 310283.000000 0 0 1
-17.323294 -27.040030 -23.374466 39.719332 1.001020 2.199987 0.100342 -0.027494 165973.000000 0 0 1
-17.245294 -28.432050 -23.183566 40.537135 1.025579 2.179628 0.098052 -0.027492 470936.000000 0 0 1
-18.524294 -29.141000 -23.795166 41.935155 1.004555 2.174175 0.101531 -0.036727 801420.000000 0 0 1
-18.787394 -29.241460 -25.247556 42.958913 0.999718 2.199027 0.107712 -0.030872 86478.700000 0 0 1
-18.896994 -27.927660 -25.801786 42.459189 0.975920 2.223938 0.122736 -0.043862 -258587.000000 0 0 1
-17.735594 -27.477960 -26.717596 42.230551 0.997628 2.255780 0.137370 -0.045651 2410.530000 0 0 1
-17.793394 -27.927210 -28.023906 43.380562 1.003518 2.273131 0.128752 -0.027807 -193647.000000 0 0 1
-16.656094 -27.546200 -28.757696 43.165074 1.026957 2.299933 0.111020 -0.018361 -183080.000000 0 0 1
-16.814994 -27.588600 -30.337506 44.319737 1.023428 2.324734 0.102193 -0.018867 -27699.700000 0 0 1
-16.832994 -28.917700 -30.813266 45.486705 1.043643 2.315036 0.096518 -0.018126 191625.000000 0 0 1
-17.371994 -29.040640 -32.133936 46.666206 1.031704 2.330341 0.087803 -0.014058 237040.000000 0 0 1
-17.476194 -30.508150 -32.617406 47.958938 1.050589 2.318710 0.086781 -0.018214 543987.000000 0 0 1
-16.247194 -30.889330 -33.257386 48.209705 1.086581 2.332076 0.109640 -0.016146 474432.000000 0 0 1
-16.436294 -32.065940 33.808271 49.410277 1.097137 0.817241 0.105967 -0.014292 -121859.000000 0 0 1
-15.253194 -32.724550 33.070005 48.961018 1.134628 0.829241 0.090947 -0.022900 736138.000000 0 0 1
-14.363294 -33.499540 -33.895286 49.773625 1.165744 2.319909 0.106296 -0.023249 540049.000000 0 0 1
-13.249694 33.918816 33.313579 49.354179 -1.198394 0.829845 0.109924 -0.026573 -263022.000000 0 0 1
-12.347494 33.128862 -33.588886 48.766744 -1.214034 2.330582 0.126190 -0.031139 -190692.000000 0 0 1
-11.461694 33.929875 -32.814676 48.573756 -1.245026 2.312526 0.134370 -0.025452 158.208000 0 0 1
-10.683294 33.112876 -31.975226 47.254739 -1.258707 2.314008 0.129030 -0.036128 -275938.000000 0 0 1
-9.705894 33.983999 -31.135416 47.101281 -1.292601 2.292989 0.114323 -0.031729 -332985.000000 0 0 1
-10.254194 -33.191790 -30.164096 46.007783 1.271160 2.285813 0.132178 -0.035634 -806082.000000 0 0 1
-9.340294 -32.282770 -29.606056 44.787686 1.289159 2.292988 0.137880 -0.044157 -437164.000000 0 0 1
-9.934194 -31.214310 -28.623326 43.500760 1.262675 2.288951 0.158616 -0.040002 109075.000000 0 0 1
-10.151494 -31.528690 -27.235776 42.882381 1.259302 2.258970 0.176602 -0.038800 -244074.000000 0 0 1
-10.868494 -32.696600 -27.010006 43.780500 1.249882 2.235647 0.177154 -0.038827 -464114.000000 0 0 1
-11.127294 -32.966150 -25.546796 43.165061 1.245267 2.204136 0.164284 -0.040662 1615540.000000 0 0 1
-9.912794 -33.258720 -24.772866 42.639193 1.281129 2.190739 0.176343 -0.045929 1154460.000000 0 0 1
-10.376294 -33.560280 -23.476066 42.250272 1.270935 2.159932 0.164630 -0.048320 36880.500000 0 0 1
-9.299894 -33.736310 -22.405866 41.552971 1.301813 2.140298 0.171006 -0.049270 -17150.500000 0 0 1
-8.580594 33.030880 -22.578366 40.920022 -1.316639 2.155279 0.155668 -0.054666 72307.000000 0 0 1
-8.058494 32.533891 -21.332966 39.730200 -1.327988 2.137609 0.172243 -0.053789 129335.000000 0 0 1
-7.159694 31.271329 -21.421766 38.575242 -1.345722 2.159549 0.164239 -0.066296 -335065.000000 0 0 1
-5.932294 31.500609 -22.041266 38.901129 -1.384653 2.173166 0.129640 -0.063629 -33367.500000 0 0 1
-5.186794 30.275389 -22.165866 37.879118 -1.401123 2.195891 0.122760 -0.054092 -238610.000000 0 0 1
-3.755994 30.427789 -22.673566 38.131987 -1.447978 2.207574 0.118035 -0.061923 -436448.000000 0 0 1
-3.720594 30.715679 -24.076666 39.204357 -1.450253 2.232082 0.123940 -0.051190 933924.000000 0 0 1
-2.438594 31.306789 -24.381066 39.755479 -1.493060 2.230997 0.099339 -0.050690 752072.000000 0 0 1
-2.203494 31.655859 -25.911336 40.967623 -1.501301 2.255551 0.101581 -0.030743 65317.700000 0 0 1
-1.133694 32.563975 -26.147146 41.777637 -1.535996 2.247036 0.091838 -0.039649 110182.000000 0 0 1
-1.587494 33.901091 -26.118676 42.825101 -1.524003 2.226720 0.080205 -0.031260 220875.000000 0 0 1
-0.559694 -32.985600 -26.580546 42.366124 1.553830 2.249007 0.034549 -0.017085 12646.200000 0 0 1
0.494106 -32.840240 -25.671526 41.686361 -1.555752 2.234230 0.044398 -0.024681 -470458.000000 0 0 1
1.479906 -32.035350 -26.271546 41.456578 -1.524633 2.257139 0.033310 -0.016197 -862389.000000 0 0 1
2.655206 -31.643570 -25.437896 40.687248 -1.487083 2.246191 0.025329 -0.018778 -1107070.000000 0 0 1
2.305806 -30.801320 -24.353866 39.333813 -1.496075 2.238467 0.025404 -0.020050 442710.000000 0 0 1
3.474606 -30.160940 -23.852866 38.609770 -1.456100 2.236730 0.014401 -0.019347 115589.000000 0 0 1
3.226906 -29.546290 -22.491066 37.272566 -1.462012 2.218581 0.030140 -0.016585 -60614.100000 0 0 1
3.363906 -30.506260 -21.453866 37.446176 -1.460971 2.180867 0.048297 -0.020118 83217.800000 0 0 1
3.399606 -29.820680 -20.180566 36.167464 -1.457285 2.162741 0.056477 -0.020734 -310151.000000 0 0 1
3.382506 -30.719030 -18.861066 36.205523 -1.461127 2.118753 0.062865 -0.016325 258986.000000 0 0 1
2.174106 -31.469170 -18.612066 36.625734 -1.501819 2.103854 0.059934 -0.024436 660165.000000 0 0 1
2.065006 -32.773940 -19.119366 37.999283 -1.507872 2.098037 0.060424 -0.018894 -432648.000000 0 0 1
2.867606 -33.909970 -18.487966 38.728724 -1.486432 2.068457 0.048261 -0.031642 958286.000000 0 0 1
4.264506 -33.991690 -18.841266 39.097497 -1.445991 2.073623 0.061028 -0.024618 783489.000000 0 0 1
4.804106 32.879363 -18.125366 37.850506 1.425710 2.070160 0.068770 -0.042049 176611.000000 0 0 1
6.053306 32.265552 -18.790166 37.825635 1.385343 2.090655 0.074468 -0.031461 123188.000000 0 0 1
7.161606 33.122986 -18.871866 38.788763 1.357861 2.078909 0.118822 -0.031133 -414035.000000 0 0 1
8.323206 32.489745 -19.329166 38.710153 1.320010 2.093622 0.079625 -0.047259 -259620.000000 0 0 1
9.531006 33.390526 -19.536466 39.842701 1.292750 2.083276 0.057541 -0.045977 -544372.000000 0 0 1
10.468006 33.400594 -18.512866 39.596780 1.267085 2.057296 0.041538 -0.028709 -1440040.000000 0 0 1
11.698806 33.827737 -18.916466 40.484695 1.237837 2.056974 0.047262 -0.017772 -1021510.000000 0 0 1
12.758506 33.794187 -17.792966 40.266812 1.209805 2.028486 0.008592 -0.013791 -510714.000000 0 0 1
13.001306 32.531090 -17.302166 39.072634 1.190585 2.029538 0.018193 -0.020304 21004.700000 0 0 1
13.844906 32.730156 -16.166266 39.042191 1.170620 1.997719 0.009020 -0.017837 131222.000000 0 0 1
14.882006 31.625639 -15.858066 38.381420 1.130971 1.996729 0.023869 -0.023325 441034.000000 0 0 1
14.301706 30.491499 -15.199366 36.949845 1.132223 1.994732 0.037669 -0.017737 -9944.150000 0 0 1
15.290506 29.481699 -15.086566 36.477042 1.092345 1.997191 0.034863 -0.012242 -55374.700000 0 0 1
15.014406 28.332819 -14.137766 35.043650 1.083493 1.986062 0.042857 -0.014540 -363204.000000 0 0 1
15.337106 28.638729 -12.802066 34.918426 1.079125 1.946178 0.055289 -0.019619 239766.000000 0 0 1
14.226706 28.651359 -11.906366 34.132991 1.109916 1.927111 0.059507 -0.017717 285164.000000 0 0 1
13.503506 27.401109 -11.445666 32.621599 1.112918 1.929287 0.064880 -0.019240 -480286.000000 0 0 1
12.699606 26.889959 -12.513266 32.263473 1.129569 1.969090 0.056052 -0.023031 -89276.200000 0 0 1
12.284206 25.523019 -12.352366 30.901572 1.122221 1.982021 0.084167 -0.032502 -20266.900000 0 0 1
11.328506 25.291159 -11.172266 29.879714 1.149671 1.954015 0.085889 -0.030729 -815387.000000 0 0 1
10.125406 26.019829 -11.338866 30.135116 1.199685 1.956561 0.064633 -0.025150 31255.400000 0 0 1
9.480106 26.160749 -10.048066 29.584131 1.223136 1.917334 0.039835 -0.009778 363773.000000 0 0 1
8.278606 27.121289 -10.182966 30.129594 1.274536 1.915558 0.043600 -0.012086 101624.000000 0 0 1
8.789806 28.419289 -10.313366 31.484634 1.270838 1.904525 0.040864 -0.025099 418525.000000 0 0 1
7.782806 29.362159 -10.688766 32.201835 1.311692 1.909146 0.041296 -0.023267 512480.000000 0 0 1
8.424306 30.735959 -11.080266 33.740782 1.303280 1.905399 0.068532 -0.020619 -34673.100000 0 0 1
9.085706 31.311219 -9.989666 34.098914 1.288378 1.868119 0.062384 -0.017009 -366578.000000 0 0 1
9.531806 32.628809 -10.235866 35.500246 1.286577 1.863281 0.065710 -0.018946 437264.000000 0 0 1
10.678706 32.956636 -11.277966 36.433050 1.257448 1.885519 0.042780 -0.007841 266986.000000 0 0 1
11.934306 32.461713 -10.882866 36.257789 1.218492 1.875649 0.035984 -0.004704 -48936.500000 0 0 1
12.934106 32.719116 -11.868266 37.130680 1.194342 1.896141 0.034333 -0.004628 -1006530.000000 0 0 1
14.314506 32.389056 -11.438066 37.212704 1.154653 1.883224 0.041710 -0.012467 -1188420.000000 0 0 1
14.766706 33.204205 -10.385866 37.794722 1.152339 1.849175 0.039737 -0.004104 -1215410.000000 0 0 1
16.117106 33.456211 -10.427266 38.572102 1.121865 1.844534 0.057247 -0.014063 -998938.000000 0 0 1
16.610006 -33.418400 -9.467366 38.500815 -1.109526 1.819245 0.067203 -0.016165 -16215.000000 0 0 1
16.706606 -33.910070 -8.142666 38.669193 -1.113027 1.782957 0.070071 -0.024504 197417.000000 0 0 1
17.202806 -32.892480 -7.301866 37.830794 -1.088918 1.765029 0.072240 -0.033014 -1332900.000000 0 0 1
17.480406 -33.384880 -5.838466 38.134007 -1.088446 1.724505 0.082054 -0.023436 208702.000000 0 0 1
18.549606 33.657274 -5.798166 38.865392 1.067084 1.720541 0.083410 -0.037136 1295730.000000 0 0 1
19.855306 -33.798080 -6.159266 39.679717 -1.039642 1.726651 0.093618 -0.037583 -85426.300000 0 0 1
20.699406 33.216969 -7.015466 39.762409 1.013523 1.748159 0.083332 -0.032782 97776.000000 0 0 1
21.081506 32.017345 -6.342766 38.855771 0.988511 1.734769 0.083736 -0.026382 191238.000000 0 0 1
22.354406 32.180965 -5.713766 39.597741 0.963672 1.715597 0.081638 -0.026268 -102156.000000 0 0 1
22.887906 30.922759 -5.074066 38.804889 0.933620 1.701930 0.062589 -0.023531 -409037.000000 0 0 1
23.489006 30.023129 -5.993066 38.588062 0.906902 1.726736 0.046834 -0.020618 -45618.400000 0 0 1
23.779106 28.838199 -5.300066 37.751534 0.881252 1.711655 0.036035 -0.008418 -19480.100000 0 0 1
24.738206 27.933249 -6.112066 37.810086 0.845984 1.733160 0.023912 0.000188 -751497.000000 0 0 1
26.038906 28.413679 -6.185966 39.033677 0.828982 1.729945 0.039651 -0.004860 -346769.000000 0 0 1
26.943406 27.436579 -6.746966 39.041446 0.794467 1.744484 0.025958 -0.001603 371144.000000 0 0 1
27.666206 26.491849 -5.822066 38.744464 0.763718 1.721636 0.025409 0.004651 69911.300000 0 0 1
28.778406 27.054079 -5.093666 39.825435 0.754524 1.699047 0.038936 0.002372 574696.000000 0 0 1
29.424006 26.117309 -4.289366 39.576314 0.725933 1.679392 0.055698 0.001445 930625.000000 0 0 1
30.873906 26.420899 -3.740466 40.807512 0.707833 1.662586 0.061492 0.000464 845121.000000 0 0 1
30.843406 27.461229 -2.831166 41.393844 0.727454 1.639246 0.072574 -0.001152 -716490.000000 0 0 1
32.047106 27.622069 -2.168966 42.363901 0.711374 1.622017 0.097336 -0.021937 -524201.000000 0 0 1
32.012806 28.768879 -1.108266 43.054575 0.732079 1.596540 0.090867 -0.009879 90893.000000 0 0 1
31.867806 29.963889 -1.759566 43.777709 0.754616 1.611000 0.062333 -0.005639 -25284.000000 0 0 1
31.386206 30.993409 -0.921566 44.119549 0.779101 1.591686 0.084790 -0.010317 154446.000000 0 0 1
33.947025 22.725850 19.185117 45.132400 0.589927 1.131740 0.090022 -0.019907 163126.000000 0 0 1
34.042995 22.287450 20.537417 45.578959 0.579662 1.103370 0.084254 -0.029983 213935.000000 0 0 1
34.916845 23.199550 21.184617 46.970131 0.586448 1.102885 0.098940 -0.025629 54352.000000 0 0 1
34.673885 23.234950 22.735117 47.529220 0.590375 1.072033 0.075736 -0.019456 -409036.000000 0 0 1
33.471275 23.859950 23.066567 47.134807 0.619297 1.059424 0.052766 -0.013882 -93341.500000 0 0 1
33.510365 23.954550 24.475007 47.914414 0.620616 1.034673 0.060365 -0.010749 -937223.000000 0 0 1
32.323485 24.609250 25.079207 47.742953 0.650721 1.017733 0.030559 -0.012377 -1138740.000000 0 0 1
32.343095 26.006450 24.772647 48.333170 0.677224 1.032657 0.014592 -0.015626 661264.000000 0 0 1
31.137655 26.596750 25.252857 48.110784 0.706908 1.018211 0.014025 -0.015831 206700.000000 0 0 1
31.164875 28.118650 25.354067 49.038114 0.734059 1.027421 -0.000386 -0.012546 -375645.000000 0 0 1
31.113295 28.760350 24.088377 48.738535 0.746120 1.053840 0.006627 -0.016807 543457.000000 0 0 1
30.433345 30.059950 24.173327 49.133887 0.779226 1.056424 0.020398 -0.018544 162263.000000 0 0 1
30.638315 30.985950 22.983757 49.265491 0.791039 1.085434 0.031780 -0.021759 -299483.000000 0 0 1
31.997175 31.290750 22.787817 50.221658 0.774237 1.099833 0.013922 -0.017734 -391843.000000 0 0 1
32.257575 32.003550 21.571617 50.300229 0.781445 1.127569 0.025212 -0.016410 299150.000000 0 0 1
33.769565 32.264350 21.376017 51.364443 0.762608 1.141574 0.005667 -0.022965 294354.000000 0 0 1
34.315275 33.278150 22.215617 52.711546 0.770056 1.135746 0.021164 -0.010879 78019.100000 0 0 1
35.702855 33.381450 21.938717 53.575390 0.751808 1.148899 0.027151 -0.003135 292535.000000 0 0 1
36.388905 -33.557048 22.823067 54.507984 -0.744934 1.138771 0.030085 -0.000230 -179809.000000 0 0 1
35.788965 -32.329048 22.409317 53.180776 -0.734649 1.135830 0.032792 -0.005083 326590.000000 0 0 1
36.166185 -31.224448 23.241447 53.133078 -0.712199 1.118069 0.035974 -0.004808 -777366.000000 0 0 1
35.486605 -29.846748 22.986667 51.754366 -0.699287 1.110572 0.043915 0.000031 581894.000000 0 0 1
34.075555 -29.774548 23.201307 50.852412 -0.718139 1.097022 0.039243 0.000116 965613.000000 0 0 1
33.270465 -30.225048 22.097517 50.087700 -0.737472 1.113887 0.056600 -0.001350 -217033.000000 0 0 1
32.562095 -31.562048 22.294717 50.532241 -0.769804 1.113863 0.040288 -0.006390 -108391.000000 0 0 1
31.477165 -31.544248 23.223367 50.251133 -0.786463 1.090383 0.054752 -0.006833 394460.000000 0 0 1
30.934775 -32.830648 23.443907 50.837275 -0.815121 1.091499 0.046283 -0.015699 -11019.000000 0 0 1
29.972955 -32.867348 24.645467 50.853119 -0.831425 1.064845 0.048572 -0.018480 -229400.000000 0 0 1
29.467985 33.861350 24.919637 51.341421 0.854660 1.064009 0.056411 -0.034843 -422178.000000 0 0 1
28.612365 33.925050 25.998217 51.434267 0.870147 1.040876 0.062005 -0.033903 -810510.000000 0 0 1
28.332665 32.397850 26.397297 50.489384 0.852237 1.020630 0.061155 -0.017993 403743.000000 0 0 1
27.629365 31.593450 25.410847 49.063623 0.852234 1.026383 0.075670 -0.032276 -9497.360000 0 0 1
26.226965 31.741850 25.508697 48.436478 0.880248 1.016150 0.078280 -0.038191 -294693.000000 0 0 1
25.576865 31.155950 24.265937 47.050026 0.883423 1.028916 0.120448 -0.046552 -288463.000000 0 0 1
25.639365 31.756850 22.977117 46.838259 0.891581 1.058061 0.125377 -0.053420 495706.000000 0 0 1
26.993365 31.857750 22.531417 47.447052 0.867866 1.075974 0.099694 -0.049677 252541.000000 0 0 1
27.191865 32.669050 21.232717 47.513079 0.876643 1.107520 0.104506 -0.040825 302608.000000 0 0 1
28.563565 32.876050 20.933517 48.321052 0.855474 1.122737 0.100418 -0.039304 291204.000000 0 0 1
28.595065 33.679150 19.791917 48.411599 0.866858 1.149629 0.092666 -0.037074 127704.000000 0 0 1
29.999085 -33.840048 19.344217 49.186306 -0.845492 1.166595 0.099240 -0.038778 614304.000000 0 0 1
30.836385 33.151950 18.727517 48.996473 0.821570 1.178597 0.109190 -0.040637 498641.000000 0 0 1
31.773405 33.596350 17.763017 49.535733 0.813278 1.204039 0.105150 -0.029071 286779.000000 0 0 1
32.784305 32.529150 17.257617 49.302958 0.781492 1.213191 0.087207 -0.033403 342877.000000 0 0 1
33.690745 32.004750 18.232917 49.918029 0.759740 1.196887 0.064739 -0.029428 348794.000000 0 0 1
34.626585 31.172450 17.578717 49.796921 0.732951 1.210012 0.073786 -0.033792 -125252.000000 0 0 1
35.671355 30.476250 18.437717 50.410285 0.707021 1.196355 0.060035 -0.027878 -159314.000000 0 0 1
36.545105 31.355350 19.127217 51.812674 0.709115 1.192690 0.074034 -0.027740 -411652.000000 0 0 1
-36.934134 30.587450 19.760817 51.867256 -0.691679 1.179931 0.096842 -0.023225 -458499.000000 0 0 1
-35.859917 31.528150 20.322517 51.893763 -0.721206 1.168407 0.100971 -0.028444 -450389.000000 0 0 1
-35.142201 32.216550 19.319517 51.440492 -0.741992 1.185784 0.109683 -0.033347 470076.000000 0 0 1
-33.960764 32.865750 19.833517 51.252897 -0.769014 1.173449 0.089120 -0.014301 655499.000000 0 0 1
-34.055484 -33.828948 20.722717 52.283886 0.782061 1.163259 0.070505 -0.022031 -464093.000000 0 0 1
-34.296061 33.854150 22.081717 53.008731 -0.778914 1.141130 0.065513 -0.011263 152211.000000 0 0 1
-34.317949 -32.958248 22.874387 52.793990 0.765190 1.122671 0.039127 -0.005874 -173751.000000 0 0 1
-34.386245 -33.170848 24.389327 53.642877 0.767409 1.098805 0.032918 -0.005851 847981.000000 0 0 1
-35.634689 -33.739548 24.865967 55.013676 0.758087 1.101795 0.034102 0.002907 593583.000000 0 0 1
-35.632839 -33.987248 26.262977 55.808388 0.761766 1.080835 0.033019 0.002771 -298924.000000 0 0 1
-36.969304 33.487950 26.775547 56.613622 -0.736027 1.078158 0.019506 -0.006953 -388642.000000 0 0 1
-36.935434 32.891850 28.035347 56.851392 -0.727554 1.055108 0.038701 -0.012969 -1012990.000000 0 0 1
36.274275 32.519150 28.483017 56.432264 0.730867 1.041728 0.038892 -0.013116 -1013970.000000 0 0 1
36.459305 31.463650 29.605577 56.530810 0.711982 1.019600 0.035308 -0.008465 -105230.000000 0 0 1
36.627305 30.085050 29.228637 55.686470 0.687644 1.018224 0.032126 -0.010444 780723.000000 0 0 1
-36.827484 29.684050 28.258647 55.099524 -0.678407 1.032277 0.045013 -0.018523 105643.000000 0 0 1
-37.082224 28.254850 27.650927 54.203336 -0.651106 1.035457 0.056454 -0.024953 -122385.000000 0 0 1
36.156995 28.038550 26.958307 53.105922 0.659602 1.038361 0.040547 -0.018916 267094.000000 0 0 1
35.789585 26.663750 26.717117 52.015905 0.640303 1.031382 0.054024 -0.017595 -66761.300000 0 0 1
35.494505 25.627150 27.827417 51.874617 0.625341 1.004588 0.036775 -0.022262 -316616.000000 0 0 1
36.650355 25.255550 28.578957 52.894689 0.603369 1.000004 0.038677 -0.021145 304967.000000 0 0 1
36.568245 23.872850 28.961937 52.401750 0.578362 0.985207 0.043351 -0.020679 -128387.000000 0 0 1
37.017265 22.919250 27.855087 51.686322 0.554382 1.001635 0.057423 -0.013515 -194247.000000 0 0 1
36.268785 23.032250 26.641527 50.553737 0.565789 1.015736 0.056659 -0.007108 72972.500000 0 0 1
36.772015 22.151150 25.663457 50.014674 0.542176 1.031982 0.067582 -0.027106 -134385.000000 0 0 1
36.752205 20.649150 25.843407 49.446878 0.511894 1.020840 0.061684 -0.023456 -387493.000000 0 0 1
35.440225 20.203850 26.065287 48.410787 0.518131 1.002237 0.097322 -0.015209 -151256.000000 0 0 1
35.353345 19.013850 26.794227 48.262989 0.493446 0.982227 0.107778 -0.016692 -493489.000000 0 0 1
35.226545 19.151150 28.350827 49.106471 0.497960 0.955337 0.079331 -0.017305 500955.000000 0 0 1
34.001815 19.613750 28.950797 48.774699 0.523219 0.935319 0.061742 -0.014790 760300.000000 0 0 1
33.717635 20.978250 28.613097 48.945636 0.556565 0.946423 0.057997 -0.017812 -521833.000000 0 0 1
32.610115 21.551350 29.538177 48.993716 0.583985 0.923669 0.058162 -0.015506 1630110.000000 0 0 1
31.215275 21.219650 29.243727 47.747906 0.597029 0.911626 0.067598 -0.020048 2004680.000000 0 0 1
30.551185 21.833550 28.108317 46.905824 0.620494 0.928232 0.063704 -0.012573 193774.000000 0 0 1
30.208295 23.330450 28.265647 47.495240 0.657633 0.933374 0.064473 -0.007741 570150.000000 0 0 1
31.375305 24.145750 27.941527 48.457775 0.655914 0.956216 0.047075 -0.015748 1093570.000000 0 0 1
31.373045 25.358550 28.682777 49.497735 0.679776 0.952710 0.041059 -0.011630 7927.830000 0 0 1
31.714125 25.268450 30.220227 50.572151 0.672760 0.930334 0.037562 -0.021018 993340.000000 0 0 1
33.087955 24.827250 30.415427 51.344945 0.643719 0.936794 0.014083 -0.005531 1193920.000000 0 0 1
33.411855 24.866250 31.817020 52.411881 0.639801 0.918444 0.025800 -0.011649 159099.000000 0 0 1
32.996155 23.603950 32.697220 52.105671 0.620957 0.892436 0.040112 -0.003695 -268026.000000 0 0 1
33.371235 23.789350 -33.813096 53.130951 0.619311 2.260632 0.043636 -0.015276 391581.000000 0 0 1
32.769805 22.765950 -33.023066 51.794512 0.607176 2.262147 0.050523 -0.017744 -197310.000000 0 0 1
33.381495 22.768050 -31.604056 51.298389 0.598581 2.234556 0.041349 -0.024122 -55441.900000 0 0 1
33.036685 23.843450 -30.711426 51.020823 0.625159 2.216723 0.031517 -0.025238 292269.000000 0 0 1
33.440375 23.490250 -29.421366 50.355410 0.612370 2.194782 0.073258 -0.033248 -85179.800000 0 0 1
34.657945 24.212250 -28.805096 51.157988 0.609790 2.168882 0.079148 -0.015942 29699.500000 0 0 1
35.076675 23.466950 -27.700536 50.481587 0.589629 2.151635 0.092446 -0.018151 -48626.400000 0 0 1
36.191585 23.980450 -26.992556 51.122313 0.585180 2.127040 0.109376 -0.010962 220710.000000 0 0 1
36.840935 23.041850 -25.944906 50.609480 0.558917 2.109064 0.091983 -0.007454 81716.200000 0 0 1
-36.793544 22.012750 -26.545356 50.427988 -0.539152 2.125159 0.074935 -0.007120 355507.000000 0 0 1
-36.652514 20.866450 -25.698816 49.388710 -0.517544 2.118043 0.052685 -0.004133 -386905.000000 0 0 1
-35.542001 19.902550 -26.127026 48.393872 -0.510468 2.141094 0.053268 0.005293 1183870.000000 0 0 1
-34.307001 20.045850 -25.345936 47.129851 -0.528801 2.138609 0.061851 0.006411 1080250.000000 0 0 1
-33.348144 19.061950 -25.656986 46.192397 -0.519279 2.159685 0.018179 -0.003528 294932.000000 0 0 1
-31.948934 19.351950 -25.060526 44.980688 -0.544611 2.161734 0.022259 -0.004047 78219.800000 0 0 1
-31.889114 19.104750 -23.695766 44.083970 -0.539757 2.138283 0.027137 -0.004435 -226493.000000 0 0 1
-30.725134 19.632450 -23.123766 43.176099 -0.568582 2.135977 0.030544 0.003127 -199699.000000 0 0 1
-30.994844 19.927050 -21.636666 42.730703 -0.571378 2.101742 0.025525 0.000307 71967.100000 0 0 1
-31.386844 18.841450 -20.844866 42.126508 -0.540638 2.088419 0.011197 0.001593 128431.000000 0 0 1
-32.068084 19.405050 -19.720266 42.353357 -0.544176 2.055123 0.021632 0.005337 -709477.000000 0 0 1
-32.876924 18.327550 -18.961966 42.146736 -0.508552 2.037454 0.034907 0.003481 333333.000000 0 0 1
-33.711344 18.758850 -17.877166 42.519904 -0.507786 2.004729 0.031396 -0.002470 59406.700000 0 0 1
-34.847783 19.441550 -18.312966 43.905655 -0.508888 2.001046 0.033691 -0.006270 -1171560.000000 0 0 1
-35.968333 19.559550 -17.255666 44.430338 -0.498070 1.969665 0.051609 -0.007187 -244619.000000 0 0 1
-35.646559 20.282050 -16.069366 44.048419 -0.517296 1.944227 0.047300 -0.009878 239509.000000 0 0 1
-36.720524 20.192850 -15.141666 44.558031 -0.502771 1.917521 0.057352 -0.009225 -114950.000000 0 0 1
-36.482504 21.113150 -13.856666 44.370546 -0.524625 1.888403 0.055588 -0.008257 -175816.000000 0 0 1
-36.616884 22.531750 -14.038066 45.227682 -0.551621 1.886396 0.070833 -0.015034 -454620.000000 0 0 1
36.499265 22.867550 -14.194866 45.349922 0.559692 1.889154 0.065811 -0.016232 -672493.000000 0 0 1
36.064245 24.291850 -14.475466 45.828625 0.592768 1.892160 0.066578 -0.018474 -151301.000000 0 0 1
36.134935 25.141450 -13.399266 46.014850 0.607879 1.866271 0.075199 -0.015475 -118451.000000 0 0 1
35.748275 26.454150 -13.677666 46.527839 0.637078 1.869171 0.070520 -0.005936 -281015.000000 0 0 1
36.794345 27.337850 -14.350566 48.032496 0.639000 1.874198 0.090349 0.000740 -220825.000000 0 0 1
37.026645 27.028050 -15.702366 48.456705 0.630553 1.900803 0.094779 0.002082 342786.000000 0 0 1
-36.474834 27.857350 -16.380466 48.731562 -0.652238 1.913608 0.100585 -0.006131 -469594.000000 0 0 1
-36.313384 27.549050 -17.901266 48.970066 -0.649012 1.945026 0.104684 -0.007545 79723.900000 0 0 1
-35.670212 26.336650 -18.281466 47.960350 -0.635995 1.961867 0.101815 -0.009708 384585.000000 0 0 1
-34.314690 26.195650 -17.894666 46.732527 -0.652019 1.963748 0.099598 -0.000724 -252677.000000 0 0 1
-33.670004 24.982850 -18.544466 45.844402 -0.638356 1.987238 0.077660 -0.001427 -305757.000000 0 0 1
-33.491474 25.098650 -19.884766 46.336001 -0.643120 2.014340 0.073691 0.003823 761757.000000 0 0 1
-32.671124 23.975550 -20.354866 45.349200 -0.633082 2.036271 0.061253 0.008627 446874.000000 0 0 1
-32.593594 23.955950 -21.913166 46.004530 -0.633825 2.067268 0.062296 0.008149 849849.000000 0 0 1
-33.798804 23.499350 -22.576766 46.949856 -0.607546 2.072443 0.081491 0.005119 923850.000000 0 0 1
-33.500514 23.249450 -23.998466 47.315407 -0.606690 2.102731 0.070679 -0.003438 -73513.500000 0 0 1
-34.282778 24.056350 -25.071316 48.811758 -0.611868 2.110210 0.073331 -0.000873 -291502.000000 0 0 1
-33.825464 25.422050 -25.097456 49.196798 -0.644502 2.106149 0.075722 -0.006159 95514.800000 0 0 1
-34.534580 26.252350 -25.990226 50.569901 -0.649982 2.110575 0.084431 -0.008008 127765.000000 0 0 1
-33.849454 27.635050 -26.153586 50.926335 -0.684668 2.110122 0.078666 -0.012794 963538.000000 0 0 1
-32.591844 27.669650 -26.848496 50.484449 -0.703899 2.131541 0.066675 -0.014292 105636.000000 0 0 1
-32.279514 28.991750 -26.986016 51.095339 -0.731790 2.127217 0.075868 -0.016435 -100791.000000 0 0 1
-30.794634 29.148850 -27.361566 50.464049 -0.757949 2.143849 0.056060 -0.004766 -967208.000000 0 0 1
-29.926604 28.537350 -26.447176 49.085997 -0.761640 2.139800 0.039168 -0.007185 178972.000000 0 0 1
-28.656624 28.369550 -27.116176 48.593420 -0.780364 2.162796 0.044258 0.003758 1390940.000000 0 0 1
-27.659434 29.607850 -27.036866 48.709970 -0.819408 2.159229 0.034071 -0.004874 -216229.000000 0 0 1
-27.020354 29.829150 -25.751256 47.780800 -0.834766 2.139981 0.019077 -0.010632 98540.300000 0 0 1
-27.815784 30.229050 -24.607666 47.885807 -0.826950 2.110500 0.034537 -0.015509 -122290.000000 0 0 1
-27.094834 30.834850 -23.383466 47.240920 -0.849870 2.088612 0.014352 -0.017485 -53960.900000 0 0 1
-26.446204 32.084850 -23.586366 47.803305 -0.881438 2.086796 0.008766 -0.010474 148955.000000 0 0 1
-25.903104 32.540150 -22.352966 47.217446 -0.898478 2.063948 0.021302 0.011621 -137842.000000 0 0 1
-25.468494 -33.958848 -22.295466 47.947214 0.927307 2.054431 0.019691 0.020907 65432.500000 0 0 1
-26.536154 -33.026748 -22.362866 47.906485 0.893940 2.056468 0.015494 -0.002790 -36409.000000 0 0 1
-26.120614 -31.725048 -22.467366 46.835325 0.881983 2.071120 0.031957 -0.007091 -220305.000000 0 0 1
17.226306 8.774650 -24.901266 31.524802 0.471119 2.481433 0.040018 -0.030944 -868103.000000 0 0 1
16.013106 8.140650 -24.659566 30.508752 0.470325 2.512019 0.033574 -0.028580 -551898.000000 0 0 1
16.059306 6.853850 -25.121536 30.593596 0.403380 2.534197 0.024156 -0.030894 295080.000000 0 0 1
14.698106 6.103850 -25.153446 29.765536 0.393610 2.577460 0.058128 -0.040302 538548.000000 0 0 1
14.061106 5.959650 -23.863266 28.331742 0.400887 2.572296 0.080896 -0.053519 -76502.900000 0 0 1
12.708106 5.649150 -24.065166 27.794623 0.418297 2.617585 0.090272 -0.051091 -560945.000000 0 0 1
11.890906 5.689550 -22.766866 26.307695 0.446283 2.616759 0.096824 -0.051714 -260485.000000 0 0 1
12.298806 4.793650 -21.723266 25.419284 0.371653 2.595572 0.096961 -0.037763 269299.000000 0 0 1
11.607606 5.008450 -20.488166 24.074593 0.407346 2.588737 0.112213 -0.036053 -298628.000000 0 1 0
11.714306 6.428650 -19.853866 23.931747 0.501911 2.549194 0.107553 -0.041819 -149474.000000 0 1 0
11.128706 6.560650 -18.588266 22.636560 0.532682 2.534239 0.087789 -0.029597 -268777.000000 0 1 0
11.252406 7.858150 -18.008966 22.642659 0.609620 2.490390 0.090929 -0.034056 247961.000000 0 1 0
12.636306 8.455850 -17.613966 23.268636 0.589734 2.429480 0.082318 -0.033035 204263.000000 0 1 0
13.180006 7.748750 -16.501966 22.496012 0.531488 2.394328 0.099472 -0.029297 142798.000000 0 1 0
14.534306 8.109050 -16.364566 23.340989 0.508907 2.347747 0.094499 -0.021153 141694.000000 0 1 0
15.208906 7.694950 -14.969566 22.685039 0.468396 2.291465 0.100493 -0.027295 918348.000000 0 1 0
16.591006 8.061550 -14.863366 23.689021 0.452303 2.249053 0.088793 -0.027077 1215900.000000 0 1 0
17.056406 8.071350 -13.483166 23.191883 0.441991 2.191213 0.078541 -0.023851 214408.000000 0 1 0
17.850506 9.303650 -13.050466 23.989855 0.480462 2.145992 0.119547 -0.030898 97369.500000 0 1 0
16.992506 10.425650 -12.861366 23.724548 0.550319 2.143745 0.150869 -0.033715 537559.000000 0 1 0
17.741406 11.541950 -12.458566 24.559926 0.576773 2.102813 0.181199 -0.049482 -470952.000000 0 1 0
16.880506 12.806350 -12.098666 24.399422 0.649012 2.089620 0.200259 -0.044716 -259329.000000 0 1 0
16.029706 12.573250 -10.975366 23.140803 0.665139 2.064949 0.214122 -0.032575 344075.000000 0 1 0
15.375206 13.668850 -10.387966 23.046567 0.726715 2.038388 0.123561 -0.023806 -84247.600000 0 1 0
14.188106 14.166050 -11.213666 22.972280 0.784620 2.080753 0.082565 -0.032018 -575911.000000 0 1 0
13.143606 14.894050 -10.568266 22.500563 0.847749 2.059735 0.116851 -0.041961 206519.000000 0 1 0
13.245406 16.272850 -10.645466 23.528119 0.887603 2.040315 0.137000 -0.037540 296937.000000 0 1 0
12.169106 17.023550 -9.798266 23.106155 0.950180 2.008714 0.125940 -0.027952 188709.000000 0 1 0
12.393306 16.768650 -8.430466 22.491208 0.934323 1.955014 0.104031 -0.029121 312080.000000 0 1 0
11.484306 17.403450 -7.542266 22.173298 0.987502 1.917874 0.089448 -0.012308 318933.000000 0 1 0
12.027706 17.229650 -6.078866 21.874167 0.961359 1.852405 0.082138 -0.011570 452467.000000 0 1 0
13.138206 18.048850 -5.774166 23.058934 0.941574 1.823899 0.096859 -0.019449 -10994.500000 0 1 0
13.739806 17.585450 -4.604366 22.786630 0.907552 1.774262 0.104693 -0.022191 -554356.000000 0 1 0
14.766106 18.589250 -4.086966 24.089446 0.899519 1.741279 0.094470 -0.026214 20966.900000 0 1 0
16.009006 18.546250 -4.802166 24.966227 0.858692 1.764349 0.109081 -0.037219 534492.000000 0 1 0
16.656706 19.787150 -4.555266 26.262666 0.871086 1.745128 0.086532 -0.035587 -122153.000000 0 0 1
18.012606 19.878950 -5.301066 27.344614 0.834613 1.765893 0.076553 -0.026073 -119681.000000 0 0 1
19.116606 19.187050 -4.791666 27.505410 0.787237 1.745898 0.074495 -0.035621 -78713.700000 0 0 1
19.268106 17.886650 -5.320066 26.823409 0.748234 1.770457 0.099201 -0.037743 -299189.000000 0 0 1
20.440706 17.124250 -4.678266 27.073023 0.697341 1.744470 0.120811 -0.043371 141484.000000 0 0 1
21.764606 17.435950 -5.082566 28.346833 0.675420 1.751070 0.102740 -0.043371 -24389.800000 0 0 1
22.600206 16.554450 -4.415166 28.360410 0.632201 1.727113 0.110548 -0.047536 -70697.900000 0 0 1
24.104906 16.937350 -4.528866 29.806559 0.612503 1.723329 0.106503 -0.041081 259316.000000 0 0 1
24.652406 18.005750 -3.811466 30.764841 0.630829 1.695006 0.122923 -0.039247 -15805.000000 0 0 1
26.052806 17.995250 -3.927566 31.906167 0.604472 1.694207 0.099999 -0.025733 57686.500000 0 0 1
26.843506 19.123250 -3.186266 33.112306 0.618998 1.667171 0.125563 -0.025455 49518.600000 0 0 1
26.748906 20.365350 -3.925566 33.847622 0.650727 1.687035 0.126889 -0.024917 115966.000000 0 0 1
27.246306 21.421750 -3.139566 34.800998 0.666285 1.661134 0.139384 -0.003483 -51006.600000 0 0 1
27.162906 22.801050 -3.868566 35.674601 0.698319 1.679450 0.085930 -0.003377 377315.000000 0 0 1
28.142106 23.083150 -4.900566 36.726360 0.686958 1.704630 0.080865 0.001762 442698.000000 0 0 1
28.108406 22.389950 -6.128666 36.454806 0.672638 1.739715 0.070210 -0.001014 468763.000000 0 0 1
29.195606 23.000450 -7.101266 37.839557 0.667261 1.759584 0.058970 0.002475 391798.000000 0 0 1
28.725206 24.060050 -7.952766 38.304960 0.697247 1.779935 0.042285 0.006721 551520.000000 0 0 1
29.755306 24.887550 -8.523466 39.716720 0.696550 1.787085 0.031410 0.002965 110590.000000 0 0 1
30.739706 24.221350 -9.509366 40.274451 0.667350 1.809161 0.046192 -0.004628 -534301.000000 0 0 1
30.166806 23.951450 -10.750466 39.991007 0.671051 1.842966 0.047136 0.000893 -148478.000000 0 0 1
30.949006 23.186550 -11.655066 40.389326 0.642980 1.863527 0.042770 -0.007369 -178566.000000 0 0 1
30.237406 22.789250 -12.986766 40.028824 0.645851 1.901211 0.070172 -0.007643 9624.390000 0 0 1
30.296306 23.651350 -14.123666 40.947899 0.662841 1.922948 0.062878 -0.015743 53666.100000 0 0 1
30.277106 22.850850 -15.281766 40.894949 0.646517 1.953773 0.079350 -0.020145 -45325.100000 0 0 1
30.530006 23.704750 -16.569566 42.054096 0.660210 1.975782 0.080618 -0.009431 -238723.000000 0 0 1
31.863506 24.154150 -16.546866 43.272448 0.648634 1.963176 0.079724 -0.006085 -268919.000000 0 0 1
32.109706 24.900550 -17.688666 44.316583 0.659612 1.981379 0.098437 -0.006105 -49329.200000 0 0 1
33.591906 25.285250 -17.881266 45.689164 0.645239 1.972914 0.096293 -0.007837 -19668.700000 0 0 1
34.419406 24.155250 -18.016266 45.746666 0.611927 1.975588 0.095087 0.001135 -1503640.000000 0 0 1
35.733406 24.551350 -18.112766 46.986353 0.601995 1.966535 0.109884 -0.003619 -1023300.000000 0 0 1
36.703306 23.334850 -17.998066 47.069930 0.566306 1.963155 0.097132 -0.010179 -51933.100000 0 0 1
36.801906 22.501550 -19.159466 47.199419 0.548777 1.988788 0.089804 -0.000289 237500.000000 0 0 1
-36.485753 22.852750 -19.882766 47.421332 -0.559568 2.003447 0.098570 0.012149 -78724.200000 0 0 1
-36.217953 22.121550 -21.204766 47.442019 -0.548315 2.034162 0.099113 -0.001552 -261276.000000 0 0 1
-35.858353 20.749450 -21.031066 46.461456 -0.524573 2.040538 0.080812 -0.005533 183489.000000 0 0 1
-35.427653 20.295050 -22.276466 46.510736 -0.520224 2.070258 0.062822 -0.002862 25660.100000 0 0 1
-35.004653 18.827050 -22.291366 45.570698 -0.493463 2.081923 0.040539 -0.004389 997483.000000 0 0 1
-36.191953 17.995150 -22.102866 46.067554 -0.461416 2.071214 0.060403 -0.013787 1164210.000000 0 0 1
-35.976553 16.609050 -22.173366 45.407390 -0.432511 2.080961 0.034009 -0.016165 -626113.000000 0 0 1
37.224606 15.789150 -21.914466 45.991438 0.401158 2.067454 0.040694 -0.012806 -298534.000000 0 0 1
36.140806 16.094750 -22.790766 45.657615 0.418967 2.093433 0.089687 -0.015515 723168.000000 0 0 1
34.970506 15.325650 -22.512066 44.323864 0.413036 2.103541 0.097482 -0.004757 116562.000000 0 0 1
35.046806 13.904150 -23.192866 44.266387 0.377685 2.122265 0.060134 -0.012579 -712171.000000 0 0 1
34.969606 14.008250 -24.661966 45.025737 0.381009 2.150445 0.067750 -0.011041 362585.000000 0 0 1
35.472106 12.786050 -25.187866 45.345143 0.345957 2.159724 0.051541 -0.010544 -165158.000000 0 0 1
35.396806 12.580750 -26.727736 46.104024 0.341496 2.189190 0.059356 -0.005844 -454183.000000 0 0 1
34.166206 12.223650 -27.301136 45.410343 0.343580 2.215810 0.054015 -0.003319 -164886.000000 0 0 1
33.632806 13.319650 -28.080136 45.793807 0.377081 2.230884 0.066191 -0.004826 -21708.900000 0 0 1
34.229006 13.322450 -29.488126 47.102676 0.371175 2.247260 0.063432 -0.010047 -727478.000000 0 0 1
35.551206 13.743150 -29.601106 48.259589 0.368878 2.231120 0.062561 -0.004937 -654071.000000 0 0 1
35.888206 13.737250 -30.971606 49.354997 0.365573 2.249170 0.066208 -0.013574 -1134120.000000 0 0 1
-37.196353 14.301350 -31.244556 50.639111 -0.367058 2.235727 0.072362 -0.010562 26737.900000 0 0 1
-36.065853 13.525450 -30.806176 49.322450 -0.358789 2.245399 0.063466 -0.008042 704170.000000 0 0 1
-35.791153 13.350650 -29.437386 48.226613 -0.357030 2.227358 0.047012 -0.009357 -271762.000000 0 0 1
-34.594153 12.374150 -29.187406 46.923125 -0.343513 2.242124 0.054506 -0.012909 477701.000000 0 0 1
-34.994753 11.022250 -29.445876 47.044472 -0.305132 2.247102 0.055808 -0.021679 704809.000000 0 0 1
-33.912453 10.091050 -29.325696 45.955198 -0.289218 2.262872 0.065270 -0.026312 446530.000000 0 0 1
-34.405453 8.633050 -29.635956 46.222880 -0.245845 2.266797 0.085656 -0.026272 -175003.000000 0 0 1
-34.690653 8.388250 -31.054666 47.309581 -0.237248 2.286852 0.083996 -0.026237 210161.000000 0 0 1
-35.037153 7.040750 -31.388956 47.565122 -0.198310 2.291502 0.095033 -0.021913 385929.000000 0 0 1
-36.430353 6.506150 -30.904526 48.214005 -0.176728 2.266579 0.111047 -0.011194 193170.000000 0 0 1
-36.496653 5.984750 -29.589296 47.364009 -0.162534 2.245571 0.116513 -0.024062 949860.000000 0 0 1
36.820806 5.103450 -29.499216 47.455460 0.137725 2.241604 0.113736 -0.011346 613833.000000 0 0 1
36.885606 4.338550 -28.137456 46.594929 0.117084 2.219149 0.117769 -0.012533 372898.000000 0 0 1
-36.467653 3.435850 -28.129366 46.183937 -0.093939 2.225687 0.137173 -0.009746 628260.000000 0 0 1
-36.641853 2.549550 -27.061926 45.623168 -0.069468 2.205777 0.142673 -0.011806 426619.000000 0 0 1
-35.595853 1.380350 -27.093406 44.755142 -0.038759 2.221027 0.148578 -0.011296 -138668.000000 0 0 1
-34.478553 1.566350 -26.302376 43.393998 -0.045398 2.221981 0.139014 -0.015838 -432288.000000 0 0 1
-33.546453 0.483350 -26.401226 42.692187 -0.014407 2.237513 0.131130 -0.011395 1098150.000000 0 0 1
-32.351853 0.736850 -25.383456 41.127912 -0.022772 2.235954 0.117911 -0.006084 676621.000000 0 0 1
-32.798353 0.603750 -24.025966 40.661327 -0.018406 2.202946 0.111666 -0.003510 -414295.000000 0 0 1
-31.794753 0.577250 -23.091666 39.299676 -0.018154 2.198860 0.112650 -0.003417 -611109.000000 0 0 1
-32.415153 0.354650 -21.699366 39.009363 -0.010940 2.160675 0.116860 0.000771 -195131.000000 0 0 1
-32.783353 -0.945350 -21.365066 39.142151 0.028828 2.148179 0.132850 -0.004853 248594.000000 0 0 1
-33.330853 -0.994650 -20.055866 38.912374 0.029833 2.112284 0.137174 -0.012582 1470970.000000 0 0 1
-34.906253 -0.798350 -19.906866 40.191631 0.022867 2.088975 0.128890 -0.009870 1195550.000000 0 0 1
-35.619453 -2.019050 -20.006366 40.903260 0.056623 2.081870 0.130684 -0.006568 792929.000000 0 0 1
-37.015253 -1.824250 -19.718366 41.979409 0.049244 2.059764 0.122220 -0.007063 938784.000000 0 0 1
36.573906 -3.083450 -19.574966 41.597326 -0.084108 2.060747 0.098313 -0.009549 -391265.000000 0 0 1
36.210306 -3.730050 -20.781966 41.916460 -0.102649 2.089546 0.105690 -0.000853 380585.000000 0 0 1
37.212406 -4.293050 -21.630966 43.256122 -0.114858 2.094473 0.112968 0.000569 97997.400000 0 0 1
36.533506 -5.153850 -22.724266 43.331876 -0.140147 2.122835 0.101923 0.003201 168046.000000 0 0 1
35.929306 -6.407350 -22.300266 42.769978 -0.176477 2.119287 0.096232 0.004722 619553.000000 0 0 1
35.351506 -7.142250 -23.374066 42.977758 -0.199352 2.145831 0.102021 0.006120 413518.000000 0 0 1
33.891206 -6.835950 -23.801466 41.974443 -0.199032 2.173712 0.079347 0.011820 -2367.570000 0 0 1
33.775906 -5.668250 -24.557266 42.142617 -0.166270 2.192866 0.091334 0.006329 438580.000000 0 0 1
32.395506 -5.409250 -24.790566 41.149738 -0.165449 2.217361 0.052508 0.004072 502678.000000 0 0 1
32.197606 -4.299650 -25.878976 41.531846 -0.132754 2.243511 0.087482 -0.030372 -31911.900000 0 0 1
32.605006 -4.523150 -27.188276 42.693649 -0.137846 2.261166 0.091884 -0.029597 240711.000000 0 0 1
32.084706 -3.482150 -28.003866 42.729033 -0.108107 2.285485 0.096865 -0.033748 227311.000000 0 0 1
31.920006 -3.812150 -29.506716 43.635599 -0.118865 2.313399 0.097316 -0.024663 -66301.800000 0 0 1
31.126906 -2.899750 -30.162856 43.440657 -0.092891 2.338307 0.073910 -0.031254 -337109.000000 0 0 1
30.536706 -3.339150 -31.359186 43.898051 -0.108916 2.366511 0.078931 -0.032638 -335023.000000 0 0 1
30.058506 -2.058850 -32.131266 44.047371 -0.068388 2.388344 0.077156 -0.033575 -926879.000000 0 0 1
28.999106 -1.314050 -31.506436 42.840756 -0.045282 2.397099 0.060477 -0.027758 260288.000000 0 0 1
27.687006 -1.806150 -31.568426 42.028538 -0.065142 2.420552 0.069968 -0.030933 -446494.000000 0 0 1
27.166606 -1.993050 -33.005226 42.794178 -0.073233 2.451607 0.064060 -0.029533 -1935050.000000 0 0 1
27.725306 -3.138550 -33.617476 43.688417 -0.112722 2.448827 0.068263 -0.025734 -23364.800000 0 0 1
27.111606 -3.331250 32.958657 42.806652 -0.122259 0.692045 0.064682 -0.025694 -31880.100000 0 0 1
27.698506 -4.574150 32.165642 42.693777 -0.163664 0.717573 0.048296 -0.026245 856701.000000 0 0 1
29.049206 -4.603450 31.678657 43.227138 -0.157164 0.748307 0.064975 -0.023033 605864.000000 0 0 1
29.335406 -3.895550 30.510717 42.504649 -0.132021 0.770129 0.085219 -0.028568 -398882.000000 0 0 1
29.923206 -2.513150 30.839217 43.043832 -0.083790 0.772081 0.068061 -0.028478 -809468.000000 0 0 1
31.252506 -2.605250 31.264347 44.282794 -0.083169 0.786940 0.069463 -0.024268 -292479.000000 0 0 1
31.833906 -1.295850 31.386467 44.723452 -0.040684 0.792889 0.064095 -0.021069 201493.000000 0 0 1
33.232306 -1.310350 32.055250 46.191366 -0.039410 0.803813 0.059958 -0.024557 98607.000000 0 0 1
34.169406 -1.918450 31.202817 46.312467 -0.056086 0.831531 0.080144 -0.021341 329451.000000 0 0 1
35.468806 -2.006250 31.810887 47.686411 -0.056504 0.840507 0.090640 -0.018178 604142.000000 0 0 1
36.532906 -2.521950 30.836807 47.874024 -0.068923 0.870919 0.095200 -0.013390 -323681.000000 0 0 1
36.814506 -1.699450 29.719697 47.344022 -0.046130 0.892151 0.081906 -0.004813 478439.000000 0 0 1
-36.534553 -2.246750 29.002917 46.701078 0.061419 0.900736 0.080386 -0.007945 534117.000000 0 0 1
-36.217253 -1.528950 27.705217 45.624622 0.042191 0.918211 0.087251 -0.013269 519295.000000 0 0 1
37.160406 -1.649550 26.765757 45.826003 -0.044361 0.947058 0.066176 -0.028970 369349.000000 0 0 1
-36.758053 -1.928850 25.531767 44.796719 0.052426 0.964355 0.084766 -0.027419 -375290.000000 0 0 1
-27.597184 14.507550 11.737734 33.314381 -0.483987 1.210734 0.094385 -0.019174 -137934.000000 0 0 1
-28.861294 14.127350 12.213334 34.376181 -0.455205 1.207578 0.058406 -0.001476 19718.000000 0 0 1
-29.450154 15.061850 13.077834 35.569659 -0.472754 1.194296 0.080554 -0.013262 443550.000000 0 0 1
-30.679464 14.424750 13.811234 36.606736 -0.439505 1.183932 0.085845 -0.015764 179964.000000 0 0 1
-31.543264 15.330850 14.395934 37.911151 -0.452406 1.181294 0.101255 -0.019618 -246091.000000 0 0 1
-32.690934 14.658150 14.916934 38.808162 -0.421511 1.176264 0.123112 -0.021531 615743.000000 0 0 1
-33.701474 15.580750 15.705434 40.313891 -0.433049 1.170622 0.123296 -0.027423 388947.000000 0 0 1
-33.152804 16.083450 16.905634 40.541167 -0.451682 1.140655 0.104363 -0.027495 9703.350000 0 0 1
-34.086644 16.001450 17.989034 41.731895 -0.438898 1.125127 0.128039 -0.051163 129622.000000 0 0 1
-33.491294 16.261150 19.383934 41.974143 -0.452008 1.090765 0.131910 -0.038432 -646235.000000 0 0 1
-32.706774 15.214750 19.790834 41.144852 -0.435411 1.068997 0.121057 -0.034318 -826486.000000 0 0 1
-31.490914 15.582250 20.375634 40.615892 -0.459493 1.045272 0.108988 -0.026008 -45213.400000 0 0 1
-31.590554 16.071750 21.879834 41.653228 -0.470624 1.017746 0.123916 -0.036467 -894277.000000 0 0 1
-32.253914 17.343750 21.966034 42.703950 -0.493371 1.030512 0.108820 -0.031543 915853.000000 0 0 1
-33.006004 17.642550 23.178034 44.021326 -0.490885 1.016296 0.105308 -0.034490 -332501.000000 0 0 1
-33.936874 16.558350 23.752634 44.610290 -0.453934 1.009307 0.100840 -0.038543 380036.000000 0 0 1
-35.125857 16.236450 22.975434 45.003541 -0.432983 1.035001 0.133697 -0.038142 1580610.000000 0 0 1
-36.151434 17.231950 22.997434 46.181688 -0.444802 1.049532 0.113260 -0.040541 379199.000000 0 0 1
36.821525 16.761750 22.925134 46.500998 0.427183 1.055258 0.095256 -0.041428 792571.000000 0 0 1
36.211135 16.133150 24.053734 46.369246 0.419131 1.025416 0.105399 -0.037883 529372.000000 0 0 1
34.886055 15.732250 23.698234 45.012741 0.423653 1.016343 0.115729 -0.042544 760580.000000 0 0 1
34.144565 14.912650 24.808334 44.762618 0.411781 0.983371 0.092985 -0.019773 79263.900000 0 0 1
33.790385 15.814450 25.911134 45.423275 0.437735 0.963758 0.099978 -0.022297 137890.000000 0 0 1
33.845365 15.204950 27.226434 46.021495 0.422228 0.937751 0.097702 -0.021556 581654.000000 0 0 1
32.840495 14.005850 27.619834 45.138866 0.403124 0.912354 0.095023 -0.015911 519281.000000 0 0 1
33.078915 12.767950 27.018034 44.578127 0.368366 0.919670 0.092179 -0.025938 233640.000000 0 0 1
32.164455 11.753950 27.437334 43.880689 0.350357 0.895317 0.091442 -0.018199 114721.000000 0 0 1
32.624645 10.389450 26.970734 43.585877 0.308300 0.903588 0.098405 -0.023107 441700.000000 0 0 1
33.770975 9.897250 27.678434 44.771979 0.285087 0.904334 0.088426 -0.016001 607869.000000 0 0 1
34.315315 8.727350 27.060634 44.564397 0.249048 0.918233 0.078739 -0.013214 458997.000000 0 0 1
35.502315 8.060250 27.854234 45.839289 0.223250 0.917698 0.067085 -0.012872 25768.600000 0 0 1
36.619225 8.851450 28.048334 46.968339 0.237167 0.930821 0.074922 -0.017441 -864836.000000 0 0 1
-36.853274 8.105150 28.686234 47.399972 -0.216484 0.920785 0.074793 -0.016424 591895.000000 0 0 1
-35.469421 8.830350 28.905134 46.600018 -0.243997 0.901695 0.086845 -0.023553 602308.000000 0 0 1
-34.734065 9.045850 27.758134 45.373965 -0.254772 0.912508 0.080306 -0.026323 -344985.000000 0 0 1
-33.381344 9.252150 28.099534 44.603814 -0.270378 0.889268 0.094375 -0.025607 193827.000000 0 0 1
-32.530194 9.957150 26.989934 43.425971 -0.297034 0.900120 0.091289 -0.028070 49140.700000 0 0 1
-32.026514 9.042450 26.036834 42.253760 -0.275180 0.906886 0.087344 -0.024051 95454.500000 0 0 1
-31.229544 9.746050 25.092634 41.229967 -0.302500 0.916499 0.092165 -0.024126 41833.100000 0 0 1
-30.540374 8.700050 24.176034 39.910975 -0.277519 0.920089 0.101557 -0.021928 219977.000000 0 0 1
-29.582184 9.309650 23.302234 38.791356 -0.304892 0.926411 0.105739 -0.026044 -179993.000000 0 0 1
-28.851324 8.318850 22.689334 37.635197 -0.280721 0.923696 0.101827 -0.016758 -202627.000000 0 0 1
-27.688984 8.924050 21.851334 36.384053 -0.311784 0.926577 0.090427 -0.013947 -566376.000000 0 0 1
-26.589664 9.355150 22.685034 36.182038 -0.338308 0.893139 0.086682 -0.021520 526031.000000 0 0 1
-25.557194 10.024750 22.028834 35.198513 -0.373806 0.894581 0.072267 -0.007032 67854.500000 0 0 1
-24.798294 9.366250 20.860334 33.731818 -0.361133 0.904069 0.062747 -0.008992 -1405200.000000 0 0 1
-25.620124 9.140550 19.773934 33.629584 -0.342695 0.942222 0.071924 -0.010485 -173589.000000 0 0 1
-24.955894 8.518150 18.677734 32.314289 -0.328929 0.954518 0.081096 -0.021112 -90345.200000 0 0 1
-24.620694 7.018550 18.775734 31.748493 -0.277701 0.938015 0.087385 -0.011830 -760930.000000 0 0 1
-23.363694 6.787050 19.347234 31.084429 -0.282715 0.898979 0.074428 -0.015355 65077.700000 0 0 1
-23.062894 5.424250 19.691434 30.807015 -0.230996 0.877356 0.070870 -0.015503 -335990.000000 0 0 1
-23.127294 4.368350 18.536934 29.959508 -0.186684 0.903668 0.085451 -0.018503 -168525.000000 0 0 1
-24.498494 4.103450 18.218334 30.804581 -0.165957 0.937982 0.110594 -0.017448 1020700.000000 0 0 1
-24.590694 3.131650 17.157634 30.147867 -0.126669 0.965366 0.101426 -0.014692 -86988.200000 0 0 1
-24.593394 1.652150 17.614034 30.295525 -0.067078 0.950339 0.090263 0.000326 736916.000000 0 0 1
-23.292094 1.219550 18.080834 29.511447 -0.052311 0.911359 0.061972 0.002391 1187580.000000 0 0 1
-23.308894 -0.144450 18.567834 29.800837 0.006197 0.898142 0.071828 -0.006529 -168281.000000 0 0 1
-21.981594 -0.952250 18.643334 28.838710 0.043293 0.867849 0.069112 0.009783 105601.000000 0 0 1
-21.152094 -0.501650 19.707134 28.914250 0.023712 0.820888 0.056260 0.015298 297044.000000 0 0 1
-20.065994 -1.408850 19.889934 28.288486 0.070096 0.791034 0.040118 0.014437 327299.000000 0 0 1
-19.066494 -0.941850 20.971734 28.358983 0.049358 0.738455 0.045031 0.013678 218824.000000 0 0 1
-19.587494 -0.966850 22.298634 29.695687 0.049321 0.721365 0.045733 0.010311 441511.000000 0 0 1
-18.519794 -0.752250 23.216234 29.707612 0.040596 0.673744 0.053454 0.006401 -90176.000000 0 0 1
-19.024094 -0.895750 24.648834 31.149375 0.047050 0.657847 0.062840 0.006133 507864.000000 0 0 1
-19.841494 0.180950 25.121134 32.012326 -0.009120 0.668531 0.062658 -0.009162 1915200.000000 0 0 1
-21.292194 0.022150 24.984234 32.826361 -0.001040 0.705785 0.081076 -0.019945 1739690.000000 0 0 1
-22.108994 1.201050 25.572534 33.826094 -0.054271 0.713616 0.078501 -0.032176 -40910.800000 0 0 1
-21.780694 2.461150 24.972334 33.227600 -0.112520 0.720382 0.079352 -0.023398 1261620.000000 0 0 1
-22.962094 3.035650 24.342034 33.600708 -0.131440 0.760560 0.085888 -0.028641 377717.000000 0 0 1
-22.572494 4.224250 23.367534 32.762836 -0.185002 0.776696 0.097896 -0.025623 279588.000000 0 0 1
-21.908994 3.986450 22.131834 31.396081 -0.179986 0.788481 0.101784 -0.026533 41562.600000 0 0 1
-20.671894 3.348650 22.257334 30.560262 -0.160595 0.754944 0.061731 -0.013081 -925031.000000 0 0 1
-20.148694 2.576750 21.010634 29.224241 -0.127196 0.768512 0.052394 -0.007810 -48112.400000 0 0 1
-19.696194 3.406050 19.975434 28.258790 -0.171236 0.785726 0.048676 -0.008523 112053.000000 0 0 1
-19.201794 2.663350 18.933934 27.097900 -0.137824 0.797185 0.052855 -0.011611 -256270.000000 0 0 1
-18.752494 3.436450 17.686234 26.005155 -0.181242 0.822891 0.048116 -0.012781 321799.000000 0 0 1
-17.482994 4.065050 17.912534 25.358206 -0.228455 0.786425 0.067723 -0.024328 726898.000000 0 0 1
-16.988194 4.692750 16.708634 24.285780 -0.269515 0.812066 0.066231 -0.011941 645900.000000 0 1 0
-15.514494 5.208150 16.855134 23.492976 -0.323875 0.770655 0.064993 -0.006282 468539.000000 0 1 0
-15.366694 6.456550 17.540234 24.196738 -0.397768 0.759906 0.065282 -0.008731 195144.000000 0 1 0
-16.004294 7.653350 17.026734 24.589040 -0.446061 0.805914 0.077330 -0.017448 -74964.900000 0 1 0
-15.510994 8.286550 15.661334 23.548572 -0.490661 0.843215 0.047216 -0.017466 42753.800000 0 1 0
-15.833694 7.443950 14.586534 22.779053 -0.439470 0.875844 0.084111 -0.022390 649142.000000 0 1 0
-17.176394 7.564650 14.095434 23.471977 -0.414850 0.926643 0.060868 -0.028167 515965.000000 0 1 0
-17.535494 6.597850 12.995534 22.801515 -0.359872 0.964361 0.069651 -0.026958 -334144.000000 0 1 0
-17.534794 5.215550 13.495134 22.733007 -0.289107 0.935227 0.069932 -0.012024 325408.000000 0 1 0
-17.682994 4.270450 12.467534 22.053672 -0.236963 0.969967 0.042367 -0.016719 51992.100000 0 1 0
-17.643894 2.795050 12.938134 22.057076 -0.157109 0.943973 0.063014 0.002946 -93816.900000 0 1 0
-18.788694 2.450250 13.703234 23.383699 -0.129679 0.944662 0.074976 -0.019798 445675.000000 0 1 0
-18.622494 1.217350 14.398734 23.571228 -0.065277 0.913649 0.080439 -0.002733 362956.000000 0 1 0
-19.991194 0.888650 15.080134 25.056895 -0.044423 0.924999 0.120756 -0.004643 20747.200000 0 0 1
-20.947094 0.460150 14.156434 25.286303 -0.021964 0.976596 0.116784 -0.014683 -163296.000000 0 0 1
-22.157094 0.281850 14.895434 26.700004 -0.012720 0.978966 0.095313 -0.011075 -102676.000000 0 0 1
-23.232994 -0.170250 13.873434 27.060546 0.007328 1.032492 0.101676 -0.008761 -418905.000000 0 0 1
-22.940094 -1.411850 13.321734 26.565200 0.061468 1.045496 0.114209 -0.028795 -41655.500000 0 0 1
-23.894694 -1.732750 12.375434 26.964981 0.072389 1.093989 0.114633 -0.014734 -512139.000000 0 0 1
-23.826694 -3.185750 11.746734 26.755301 0.132917 1.116263 0.115510 -0.026060 -145856.000000 0 0 1
-24.009194 -4.219650 12.724934 27.498560 0.173975 1.089702 0.117569 -0.017108 251535.000000 0 0 1
-23.721394 -5.492450 12.140234 27.207661 0.227530 1.108274 0.133246 -0.033808 -75728.200000 0 0 1
-23.698294 -6.739450 13.045134 27.878394 0.277071 1.083849 0.129485 -0.027291 -556796.000000 0 0 1
-24.869494 -6.919350 13.759734 29.252340 0.271363 1.081074 0.114640 -0.021996 -344824.000000 0 0 1
-25.198544 -8.274350 14.121334 30.047355 0.317273 1.081540 0.123593 -0.034717 1024260.000000 0 0 1
-26.286594 -8.474850 15.304734 31.575988 0.311880 1.064781 0.117075 -0.021202 1031730.000000 0 0 1
-27.618344 -8.179150 14.931334 32.444047 0.287920 1.092556 0.126254 -0.026381 -659040.000000 0 0 1
-28.407484 -8.428050 16.004334 33.677231 0.288412 1.075574 0.118762 -0.026627 -469878.000000 0 0 1
-29.865274 -7.876050 15.826534 34.705128 0.257849 1.097269 0.122138 -0.032381 1046870.000000 0 0 1
-30.817464 -8.451850 14.906434 35.261192 0.267674 1.134326 0.122341 -0.039478 981362.000000 0 0 1
-31.147544 -9.842450 14.984234 35.938428 0.306065 1.140718 0.125321 -0.043636 -304558.000000 0 0 1
-31.463954 -10.509150 16.380534 36.996548 0.322356 1.112124 0.118797 -0.044003 851636.000000 0 0 1
-30.191054 -10.662850 17.092534 36.295328 0.339504 1.080452 0.117666 -0.031399 1380890.000000 0 0 1
-30.320634 -11.240550 18.381834 37.196541 0.355016 1.053903 0.105032 -0.026321 169201.000000 0 0 1
-28.955294 -11.272950 19.119434 36.483438 0.371268 1.019188 0.113097 -0.017783 1036030.000000 0 0 1
-28.012654 -12.215250 18.537834 35.743145 0.411203 1.025536 0.090393 -0.021995 1225370.000000 0 0 1
-26.796704 -12.336050 19.294634 35.249459 0.431433 0.991573 0.092317 -0.021740 23799.300000 0 0 1
-25.714974 -13.226550 18.717934 34.446518 0.475063 0.996325 0.078863 -0.012745 -403049.000000 0 0 1
-25.051394 -12.507950 17.653334 33.100776 0.463081 1.008275 0.081626 -0.014448 584224.000000 0 0 1
-24.318394 -13.423350 16.793934 32.459310 0.504365 1.027005 0.085203 -0.022335 90334.700000 0 0 1
-24.061594 -12.846950 15.339834 31.294008 0.490413 1.058495 0.088641 -0.026440 31640.100000 0 0 1
-23.057294 -11.843050 15.223734 30.060917 0.474497 1.039757 0.094837 -0.028553 70517.300000 0 0 1
-22.831994 -11.638550 13.829034 29.120405 0.471415 1.075956 0.101804 -0.023883 847475.000000 0 0 1
-21.449694 -10.962850 13.490034 27.608956 0.472485 1.060299 0.099215 -0.029419 404014.000000 0 0 1
-21.397794 -9.573050 13.792034 27.197961 0.420677 1.038982 0.104952 -0.031158 118365.000000 0 0 1
-20.112294 -8.996350 13.662634 25.925012 0.420611 1.015723 0.122869 -0.031977 -254823.000000 0 0 1
-19.501894 -8.811350 12.271934 24.669092 0.424367 1.050126 0.124004 -0.021972 -856130.000000 0 1 0
-18.761794 -9.857950 11.775834 24.245708 0.483782 1.063647 0.103913 -0.033181 351.213000 0 1 0
-18.596294 -9.742950 10.422334 23.438692 0.482599 1.109998 0.120218 -0.023546 -360519.000000 0 1 0
-18.041794 -11.035050 9.727634 23.278864 0.548933 1.139692 0.094912 -0.018508 604297.000000 0 1 0
-16.652594 -11.318050 9.722334 22.359135 0.596942 1.120951 0.108498 -0.024681 580097.000000 0 1 0
-16.057594 -11.597150 10.989634 22.651982 0.625485 1.064260 0.110800 -0.023298 -193423.000000 0 1 0
-14.535394 -11.873250 10.996534 21.752598 0.684932 1.040803 0.098886 -0.022716 156278.000000 0 1 0
-14.291294 -13.277350 10.909834 22.350695 0.748636 1.060861 0.088819 -0.023740 -462344.000000 0 1 0
-12.951294 -13.530650 10.618934 21.530821 0.807272 1.055035 0.094387 -0.031108 -428738.000000 0 1 0
-12.679594 -15.052350 10.547534 22.329259 0.870751 1.078826 0.107942 -0.034214 50395.300000 0 1 0
-13.196594 -15.656150 9.365634 22.516221 0.870438 1.141809 0.098433 -0.034557 220304.000000 0 1 0
-12.823594 -17.032650 9.381934 23.293270 0.925453 1.156250 0.080777 -0.027203 40862.000000 0 1 0
-13.221294 -17.880350 8.227834 23.710900 0.934093 1.216419 0.092286 -0.023233 -189686.000000 0 1 0
-12.229094 -17.930550 7.202334 22.867640 0.972236 1.250384 0.091774 -0.021327 86814.500000 0 1 0
-12.604894 -18.638450 6.054934 23.301017 0.976165 1.307922 0.078257 -0.019860 -440737.000000 0 1 0
-11.629394 -18.408950 4.915634 22.322538 1.007376 1.348767 0.074471 -0.017819 -285495.000000 0 1 0
-11.847194 -19.340050 3.887134 23.010940 1.021183 1.401057 0.090079 -0.023534 255940.000000 0 1 0
-10.940294 -19.247550 2.780834 22.313477 1.053937 1.445846 0.095303 -0.027591 49107.100000 0 1 0
-11.284294 -20.115250 1.556834 23.116710 1.059561 1.503399 0.094745 -0.027469 -41455.500000 0 1 0
-11.090894 -21.481450 1.771734 24.240455 1.094193 1.497641 0.086407 -0.036432 -328064.000000 0 1 0
-11.664894 -22.314150 0.751834 25.190401 1.089109 1.540946 0.090650 -0.035988 -143190.000000 0 0 1
-10.808194 -22.622650 -0.467466 25.076281 1.125099 1.589439 0.098807 -0.030929 -167758.000000 0 0 1
-10.845894 -21.571850 -1.444666 24.188120 1.104927 1.630558 0.095176 -0.038462 165199.000000 0 1 0
-11.961394 -21.629050 -2.331066 24.825886 1.065634 1.664831 0.106483 -0.032802 106070.000000 0 1 0
-12.744994 -20.357250 -2.521466 24.149747 1.011430 1.675397 0.097344 -0.029500 -264972.000000 0 1 0
-13.266994 -19.907250 -1.313466 23.959067 0.982950 1.625645 0.090399 -0.038941 875982.000000 0 1 0
-14.448994 -19.098450 -1.567166 23.999588 0.923114 1.636143 0.102980 -0.026354 1132510.000000 0 1 0
26.697406 -19.934550 -4.109566 33.571212 -0.641376 1.693518 0.085281 -0.041823 35335.900000 0 0 1
25.437106 -20.073350 -3.482466 32.590080 -0.668082 1.677857 0.063003 -0.032352 103865.000000 0 0 1
25.499406 -21.084850 -2.511166 33.182775 -0.690915 1.646546 0.050909 -0.032472 -160159.000000 0 0 1
24.162006 -21.584150 -1.932366 32.456311 -0.729106 1.630369 0.051913 -0.028363 115965.000000 0 0 1
23.280906 -22.204950 -2.855166 32.298798 -0.761748 1.659310 0.067631 -0.033811 -413423.000000 0 0 1
22.035106 -22.412850 -2.246266 31.510751 -0.793897 1.642143 0.061234 -0.028666 56772.100000 0 0 1
20.994006 -23.045850 -3.210466 31.339537 -0.831955 1.673418 0.082623 -0.038020 154507.000000 0 0 1
20.501906 -22.110950 -4.157866 30.438628 -0.823140 1.707823 0.084039 -0.041218 -599976.000000 0 0 1
19.540206 -22.714350 -4.977866 30.373352 -0.860377 1.735428 0.085109 -0.041510 -586388.000000 0 0 1
18.607306 -21.670950 -5.597966 29.106685 -0.861314 1.764328 0.074132 -0.027876 -778619.000000 0 0 1
17.614306 -21.206050 -4.723066 27.969048 -0.877658 1.740477 0.085745 -0.028427 83940.800000 0 0 1
18.050706 -20.229450 -3.800866 27.377093 -0.842253 1.710080 0.072217 -0.029185 99650.700000 0 0 1
16.812006 -19.758550 -2.972566 26.112832 -0.865796 1.684879 0.088221 -0.020750 629236.000000 0 0 1
16.399806 -20.669550 -1.967866 26.458579 -0.900075 1.645240 0.092462 -0.028838 437053.000000 0 0 1
15.340306 -20.106550 -1.187666 25.318153 -0.919058 1.617723 0.089764 -0.018270 108210.000000 0 0 1
15.033806 -20.764050 0.139334 25.635532 -0.944124 1.565361 0.090800 -0.019499 -75492.000000 0 0 1
14.349206 -22.012350 -0.013066 26.276290 -0.993107 1.571294 0.107461 -0.024425 -77668.300000 0 0 1
13.509606 -22.181450 1.099334 25.994898 -1.023749 1.528493 0.093111 -0.017431 -215703.000000 0 0 1
12.621106 -23.423750 1.138234 26.631935 -1.076580 1.528044 0.096457 -0.022112 16544.900000 0 0 1
13.325506 -24.632050 1.289734 28.035164 -1.074903 1.524776 0.087073 -0.020586 517592.000000 0 0 1
12.417306 -25.718230 0.949034 28.574770 -1.120986 1.537578 0.083788 -0.028571 738513.000000 0 0 1
12.717706 -27.086610 1.599734 29.966375 -1.131829 1.517387 0.090137 -0.022381 27921.900000 0 0 1
12.505306 -27.066470 2.998234 29.966079 -1.137990 1.470574 0.112977 -0.030929 29180.600000 0 0 1
13.099806 -28.162580 3.639634 31.272716 -1.135416 1.454148 0.112029 -0.033963 -119270.000000 0 0 1
12.566806 -28.356280 5.068434 31.427571 -1.153632 1.408815 0.122129 -0.034238 -151508.000000 0 0 1
13.215606 -29.315890 5.858234 32.686275 -1.147277 1.390597 0.116272 -0.034085 -204430.000000 0 0 1
12.524906 -29.526760 7.081634 32.845888 -1.169613 1.353488 0.113943 -0.040524 -201800.000000 0 0 1
13.197206 -30.578930 7.945634 34.239893 -1.163367 1.336604 0.100172 -0.029687 185750.000000 0 0 1
12.547306 -30.907480 9.205234 34.604097 -1.185160 1.301539 0.084617 -0.026251 298552.000000 0 0 1
11.512306 -31.895580 9.083734 35.105205 -1.224411 1.309061 0.079932 -0.027350 572583.000000 0 0 1
11.037506 -32.162380 10.560434 35.605730 -1.240210 1.269672 0.067030 -0.014342 -438649.000000 0 0 1
12.070606 -32.796770 11.238534 36.710112 -1.218139 1.259658 0.066783 -0.021620 -63131.800000 0 0 1
11.812406 -32.973250 12.648434 37.239106 -1.226798 1.224247 0.068193 -0.012701 20417.700000 0 0 1
10.754206 33.952777 12.999934 37.913616 1.264053 1.220812 0.063782 -0.019053 119895.000000 0 0 1
11.321906 32.677580 12.949234 36.928207 1.237267 1.212521 0.086788 -0.024456 659538.000000 0 0 1
10.274906 31.713369 13.102334 35.818747 1.257476 1.196309 0.058351 -0.012358 352090.000000 0 0 1
10.460106 30.659779 12.002334 34.546952 1.242012 1.215977 0.065032 -0.016338 458449.000000 0 0 1
9.844006 30.996479 10.713734 34.241353 1.263286 1.252563 0.051160 -0.018655 712696.000000 0 0 1
10.745006 31.810839 9.949734 35.019735 1.245051 1.282710 0.050603 -0.018893 332373.000000 0 0 1
10.263106 31.974175 8.509934 34.642433 1.260204 1.322606 0.051730 -0.013717 -68347.700000 0 0 1
9.017106 32.634461 8.595834 34.931427 1.301216 1.322165 0.047505 -0.010669 -84608.400000 0 0 1
8.292706 32.709264 7.376634 34.540985 1.322500 1.355577 0.033359 -0.016506 -445126.000000 0 0 1
8.798406 33.708877 6.318934 35.406627 1.315481 1.391368 0.060996 -0.016140 -339617.000000 0 0 1
8.439106 -32.973140 6.718234 34.692667 -1.320236 1.375915 0.066050 -0.011140 342956.000000 0 0 1
9.294406 -32.016550 6.113534 33.894258 -1.288262 1.389433 0.093594 -0.029301 -20709.000000 0 0 1
8.793906 -30.600210 6.409934 32.477575 -1.290957 1.372127 0.098311 -0.031154 80203.500000 0 0 1
8.881306 -30.159300 7.780634 32.388258 -1.284412 1.328193 0.093951 -0.030594 4906.180000 0 0 1
8.170506 -28.962630 7.999934 31.138241 -1.295837 1.310966 0.110942 -0.027158 -88312.900000 0 0 1
8.833006 -27.689380 7.418634 29.995998 -1.261998 1.320882 0.131307 -0.031453 396210.000000 0 0 1
9.933206 -27.209420 8.196034 30.103091 -1.220764 1.295050 0.126409 -0.030438 538851.000000 0 0 1
10.614506 -25.990470 7.831234 29.146192 -1.183070 1.298766 0.114883 -0.031526 1062780.000000 0 0 1
9.677306 -24.836550 7.209234 27.612995 -1.199253 1.306654 0.104420 -0.029412 574422.000000 0 0 1
9.288306 -25.146250 5.932934 27.455532 -1.216969 1.352986 0.117260 -0.032062 -454679.000000 0 0 1
8.359706 -24.228850 5.385234 26.190124 -1.238555 1.363698 0.118115 -0.026807 276152.000000 0 0 1
7.940406 -24.657050 3.986534 26.209018 -1.259249 1.418098 0.108039 -0.015019 14660.900000 0 0 1
7.060706 -25.773470 4.026734 27.024802 -1.303404 1.421238 0.071802 -0.013538 -29119.200000 0 0 1
7.650006 -27.071010 4.165934 28.437953 -1.295387 1.423775 0.080122 -0.016205 58026.700000 0 0 1
6.608606 -28.057470 3.608334 29.050221 -1.339474 1.446264 0.092499 -0.019654 457669.000000 0 0 1
5.476306 -28.227510 4.466434 29.098647 -1.379171 1.416694 0.080520 -0.014131 -92038.400000 0 0 1
4.535206 -29.126780 3.945034 29.740556 -1.416331 1.437756 0.081313 -0.012432 24138.100000 0 0 1
4.878106 -30.656500 4.184434 31.322937 -1.412998 1.436806 0.074068 -0.014021 37737.800000 0 0 1
6.015206 -31.194470 3.533834 31.965069 -1.380305 1.460017 0.072615 -0.018041 14428.000000 0 0 1
5.960906 -32.596470 3.764934 33.350217 -1.389925 1.457664 0.063808 -0.016005 -184541.000000 0 0 1
7.095606 -33.472830 3.203734 34.366290 -1.361908 1.477438 0.064413 -0.016994 -214135.000000 0 0 1
7.117606 -33.601450 1.780734 34.393150 -1.362057 1.518997 0.068599 -0.014248 -96001.500000 0 0 1
7.955706 33.288789 1.441034 34.256580 1.336206 1.528718 0.054097 -0.015180 -383504.000000 0 0 1
7.915406 32.722971 -0.024666 33.666706 1.333464 1.571529 0.053867 -0.010483 110938.000000 0 0 1
6.788706 31.925019 -0.311266 32.640316 1.361272 1.580333 0.047847 -0.010573 266684.000000 0 0 1
5.589406 32.668235 -0.584466 33.148101 1.401341 1.588429 0.060412 -0.016212 -65876.900000 0 0 1
4.317306 31.936679 -0.189566 32.227729 1.436428 1.576678 0.056213 -0.019994 -464504.000000 0 0 1
4.117406 30.854659 -1.071766 31.146616 1.438135 1.605213 0.067689 -0.019512 232560.000000 0 0 1
2.952206 30.066249 -0.853266 30.222887 1.472920 1.599033 0.080070 -0.027225 268588.000000 0 0 1
2.788306 28.926849 -1.903666 29.123207 1.474702 1.636209 0.081811 -0.025955 67092.000000 0 0 1
2.315306 29.365969 -3.193866 29.629741 1.492116 1.678799 0.099717 -0.037781 155471.000000 0 0 1
2.225806 28.381389 -4.134366 28.767176 1.492532 1.715014 0.083199 -0.041285 -121254.000000 0 0 1
1.891706 28.977709 -5.542466 29.563577 1.505607 1.759388 0.093839 -0.042191 370546.000000 0 0 1
0.519506 29.308259 -5.722166 29.866153 1.553073 1.763582 0.121440 -0.041461 307825.000000 0 0 1
0.284306 30.201519 -6.796466 30.958109 1.561383 1.792137 0.104282 -0.033078 -122574.000000 0 0 1
0.308706 29.671739 -8.212166 30.788749 1.560393 1.840791 0.104229 -0.031627 30513.700000 0 0 1
-0.953094 29.117529 -8.647466 30.389431 -1.538075 1.859339 0.120961 -0.037584 951945.000000 0 0 1
-0.981194 28.670369 -10.037066 30.392359 -1.536586 1.907364 0.115485 -0.028856 -83057.300000 0 0 1
-1.142994 29.787919 -11.029366 31.784799 -1.532444 1.925168 0.102487 -0.028585 -1101850.000000 0 0 1
-0.048594 30.604389 -11.152966 32.573296 -1.569209 1.920262 0.091142 -0.027243 -975511.000000 0 0 1
-0.341894 31.965247 -11.414266 33.943768 -1.560101 1.913750 0.084737 -0.032434 150106.000000 0 0 1
-0.742594 32.863961 -10.219466 34.424248 -1.548204 1.872208 0.075428 -0.043453 50209.300000 0 0 1
0.398906 33.081156 -9.435766 34.402844 1.558739 1.848630 0.070869 -0.049047 -231384.000000 0 0 1
0.155106 33.947138 -8.333766 34.955456 1.566227 1.811526 0.081513 -0.044420 -184610.000000 0 0 1
1.381706 -33.810770 -7.421066 34.643174 -1.529953 1.786684 0.082736 -0.042760 151221.000000 0 0 1
2.306206 -32.860280 -7.915966 33.878888 -1.500729 1.806631 0.090007 -0.044140 48232.700000 0 0 1
3.261606 -32.467210 -6.938166 33.360095 -1.470674 1.780304 0.088294 -0.044500 -510056.000000 0 0 1
4.503106 -31.750350 -7.477466 32.928334 -1.429907 1.799878 0.077425 -0.039035 67676.400000 0 0 1
5.401006 -32.581270 -8.194066 34.027235 -1.406520 1.813996 0.076181 -0.034933 354649.000000 0 0 1
6.254506 -33.480230 -7.514866 34.878616 -1.386113 1.787957 0.081792 -0.024219 -936018.000000 0 0 1
6.653606 33.258322 -8.353666 34.930934 1.373345 1.812285 0.072696 -0.019399 -534530.000000 0 0 1
5.749706 32.232825 -8.557266 33.841408 1.394273 1.826435 0.062365 -0.026265 -807653.000000 0 0 1
4.495306 32.507605 -9.114066 34.059042 1.433383 1.841694 0.071830 -0.037940 63093.600000 0 0 1
3.512706 31.324169 -9.269566 32.855251 1.459122 1.856814 0.072379 -0.046670 96871.500000 0 0 1
3.935106 30.558129 -10.379166 32.511711 1.442727 1.895728 0.065484 -0.028950 91371.500000 0 0 1
3.304706 29.279569 -10.507366 31.282886 1.458405 1.913338 0.064266 -0.035438 228864.000000 0 0 1
4.045706 28.433589 -11.587866 30.969587 1.429459 1.954297 0.050451 -0.031449 159005.000000 0 0 1
4.056906 28.836459 -12.928766 31.861463 1.431027 1.988629 0.058514 -0.026030 601896.000000 0 0 1
5.370206 28.689989 -13.482766 32.151820 1.385757 2.003522 0.041575 -0.023788 503507.000000 0 0 1
5.569206 29.158019 -14.951266 33.237727 1.382069 2.037369 0.051026 -0.022833 -344693.000000 0 0 1
4.850406 28.406669 -15.908766 32.917383 1.401678 2.075209 0.070660 -0.026098 -134723.000000 0 0 1
4.397706 29.206039 -16.944666 34.050759 1.421344 2.091660 0.087527 -0.026251 -339859.000000 0 0 1
3.279406 28.553549 -17.756966 33.784160 1.456446 2.124217 0.084924 -0.036922 -323971.000000 0 0 1
3.624106 27.262039 -18.225566 32.992789 1.438635 2.156050 0.092983 -0.027428 206192.000000 0 0 1
2.673506 26.699139 -19.135766 32.957081 1.470994 2.190295 0.102791 -0.037978 440124.000000 0 0 1
3.301506 25.493059 -19.828266 32.464690 1.442007 2.227821 0.110609 -0.040679 274527.000000 0 0 1
3.609406 24.348069 -19.068966 31.136501 1.423626 2.229929 0.111940 -0.046086 -175638.000000 0 0 1
4.430906 23.448299 -19.751366 30.976961 1.384034 2.262194 0.109630 -0.039168 26121.300000 0 0 1
4.780506 22.121249 -19.060566 29.588985 1.357965 2.270744 0.113561 -0.038245 678450.000000 0 0 1
3.598606 21.354849 -18.783466 28.667021 1.403850 2.285282 0.122509 -0.036059 493820.000000 0 0 1
4.050506 20.119549 -18.209666 27.437106 1.372130 2.296534 0.101275 -0.026346 364664.000000 0 0 1
2.982006 19.014549 -18.020366 26.366247 1.415236 2.323293 0.090053 -0.035460 186128.000000 0 0 1
2.158206 19.138549 -16.856466 25.594576 1.458503 2.289747 0.088823 -0.034328 15248.600000 0 0 1
1.328206 18.008949 -16.606066 24.532586 1.497177 2.314337 0.062685 -0.025762 -381907.000000 0 1 0
1.855206 16.873349 -15.720566 23.136289 1.461287 2.317845 0.057410 -0.022218 -55565.800000 0 1 0
3.108306 16.344249 -16.116466 23.163258 1.382863 2.340298 0.067631 -0.028281 -46240.400000 0 1 0
2.988306 15.103349 -16.822966 22.804677 1.375462 2.400451 0.065256 -0.036056 -114551.000000 0 1 0
3.045206 15.360249 -18.348166 24.121893 1.375082 2.435100 0.068046 -0.033189 69645.000000 0 1 0
4.325406 15.856349 -18.731266 24.919736 1.304489 2.421378 0.095898 -0.039771 66120.600000 0 1 0
4.358306 16.289749 -20.043366 26.193267 1.309370 2.442165 0.114529 -0.040342 -318472.000000 0 0 1
4.511506 15.116649 -21.116766 26.358766 1.280766 2.499975 0.106311 -0.042912 1242920.000000 0 0 1
3.335206 14.265949 -21.284666 25.839464 1.341133 2.538750 0.089435 -0.037079 1619590.000000 0 0 1
2.138706 14.849349 -21.829466 26.487786 1.427753 2.539467 0.093973 -0.044408 465824.000000 0 0 1
1.308506 13.783049 -22.567866 26.476276 1.476144 2.591317 0.079860 -0.030111 -10572.900000 0 0 1
0.667406 12.844449 -21.681466 25.209348 1.518882 2.606177 0.071173 -0.020332 391167.000000 0 0 1
0.096906 11.731649 -22.398366 25.284931 1.562536 2.659094 0.049659 -0.011679 -212098.000000 0 0 1
-0.477294 10.747349 -21.380866 23.934802 -1.526415 2.675422 0.028097 -0.012812 -807553.000000 0 1 0
-1.541594 11.291549 -20.624866 23.563970 -1.435109 2.636793 0.022561 -0.013221 -235360.000000 0 1 0
-1.979594 10.414949 -19.656466 22.333083 -1.382965 2.646975 0.009725 -0.011070 -140092.000000 0 1 0
-2.993094 9.323349 -20.024266 22.290237 -1.260157 2.686778 0.015034 -0.014795 -868310.000000 0 1 0
-2.614094 8.409649 -20.977966 22.751499 -1.269420 2.744134 0.019699 -0.006888 -519456.000000 0 1 0
-3.616694 7.473249 -21.214966 22.781674 -1.120069 2.768568 0.029678 -0.005276 -244980.000000 0 1 0
-2.951194 6.284149 -21.935366 23.007832 -1.131743 2.835064 0.033612 -0.013814 -137979.000000 0 1 0
-2.181394 5.471549 -21.081566 21.889009 -1.191429 2.869133 0.038731 -0.013292 -76605.600000 0 1 0
-2.052794 4.167449 -21.688466 22.180422 -1.113104 2.930584 0.052029 -0.020881 -414020.000000 0 1 0
-1.158094 3.132749 -20.969266 21.233591 -1.216704 2.983641 0.049216 -0.018848 718310.000000 0 1 0
0.254106 3.338349 -21.177766 21.440777 1.494826 2.984800 0.051637 -0.011359 175907.000000 0 1 0
0.851206 2.505749 -20.288066 20.459935 1.243326 3.011885 0.052576 -0.005228 -112146.000000 0 1 0
2.398306 2.622649 -20.362766 20.670568 0.830050 2.968804 0.042218 -0.009581 482357.000000 0 1 0
3.026006 1.838249 -21.382066 21.673223 0.545904 2.977494 0.058603 -0.017188 511862.000000 0 1 0
4.442006 2.000549 -21.337966 21.887037 0.423162 2.917128 0.079272 -0.016994 591145.000000 0 1 0
5.246606 1.300849 -22.432666 23.074739 0.243040 2.905136 0.082622 -0.019907 172614.000000 0 1 0
6.609406 1.022249 -22.138066 23.126245 0.153450 2.848207 0.082006 -0.035258 480888.000000 0 1 0
7.282206 0.488049 -23.282266 24.399439 0.066919 2.837815 0.090412 -0.034614 -162190.000000 0 1 0
8.804506 0.370849 -23.150366 24.770876 0.042095 2.777873 0.102397 -0.045065 -196172.000000 0 1 0
9.447606 1.633149 -23.276466 25.173762 0.171172 2.750865 0.093327 -0.055909 -660356.000000 0 0 1
10.808706 1.491949 -23.007866 25.464012 0.137165 2.698767 0.096914 -0.052670 -632625.000000 0 0 1
13.828706 -20.300150 22.798117 33.512436 -0.972791 0.822640 0.092160 -0.000145 -47678.900000 0 0 1
12.886106 -21.354450 23.157947 34.034611 -1.027852 0.822456 0.085027 0.006309 833568.000000 0 0 1
11.552806 -20.914050 22.924807 33.112106 -1.066117 0.806071 0.077166 -0.009288 571059.000000 0 0 1
10.998406 -20.860850 21.449217 31.878032 -1.085605 0.832738 0.103729 -0.020713 -348263.000000 0 0 1
11.617706 -19.802450 20.733417 30.935137 -1.040228 0.836288 0.112651 -0.024053 -11663.000000 0 0 1
11.116606 -19.860750 19.412017 29.914122 -1.060516 0.864626 0.126686 -0.027023 355286.000000 0 0 1
11.447206 -18.510350 18.662717 28.669995 -1.016941 0.861962 0.126495 -0.026030 505444.000000 0 0 1
10.678806 -17.423650 19.210117 28.047265 -1.020952 0.816303 0.150345 -0.027724 121836.000000 0 0 1
10.939106 -16.239650 18.447117 26.901420 -0.978006 0.815190 0.147701 -0.033602 -25730.900000 0 0 1
9.933706 -15.132250 18.812117 26.106690 -0.989894 0.766149 0.127763 -0.023598 858982.000000 0 0 1
8.576706 -15.554650 18.574017 25.700217 -1.066885 0.763069 0.115480 -0.018413 668914.000000 0 0 1
7.701506 -14.464750 18.870717 24.992922 -1.081540 0.715077 0.095199 -0.015246 64661.600000 0 1 0
6.237206 -14.682650 18.468317 24.404132 -1.169094 0.712439 0.050751 -0.008232 -345469.000000 0 1 0
6.026006 -14.739850 17.067117 23.342288 -1.182706 0.750765 0.039556 -0.010091 -331852.000000 0 1 0
4.669706 -14.908750 16.746317 22.902317 -1.267256 0.750708 0.018548 -0.008547 -89521.800000 0 1 0
4.020106 -16.328650 16.880617 23.827322 -1.329398 0.783488 0.010613 -0.002092 397487.000000 0 1 0
2.677106 -16.381750 16.382417 23.321926 -1.408808 0.791967 0.008878 -0.000200 359913.000000 0 1 0
2.072306 -17.628850 16.631417 24.324367 -1.453781 0.817928 0.015373 -0.012130 109328.000000 0 1 0
0.571406 -17.505950 16.302417 23.928092 -1.538167 0.821247 0.017894 -0.006695 10678.800000 0 1 0
0.278206 -17.540350 14.903117 23.018344 -1.554937 0.866569 0.019847 -0.005821 -741987.000000 0 1 0
-1.049494 -17.874050 14.655817 23.138195 1.512148 0.884852 0.032029 -0.001288 -701095.000000 0 1 0
-1.497794 -18.076250 13.145517 22.400866 1.488125 0.943657 0.030922 -0.015690 549674.000000 0 1 0
-2.885294 -18.391950 13.062317 22.742314 1.415187 0.958972 0.037084 -0.021954 369502.000000 0 1 0
-3.112294 -19.638250 12.388617 23.427016 1.413622 1.013590 0.051899 -0.028571 221824.000000 0 1 0
-4.609294 -20.014950 12.228317 23.903463 1.344450 1.033784 0.049867 -0.028737 287427.000000 0 1 0
-5.055394 -20.534850 13.448517 25.061917 1.329410 1.004380 0.053303 -0.033599 385730.000000 0 0 1
-6.426394 -20.930150 13.259517 25.596572 1.272893 1.026263 0.062515 -0.031746 688315.000000 0 0 1
-7.004794 -21.808050 14.348617 27.028522 1.260003 1.011170 0.061787 -0.031613 398506.000000 0 0 1
-8.422994 -21.685450 14.398617 27.359198 1.200315 1.016576 0.072242 -0.028418 124775.000000 0 0 1
-8.962094 -22.477950 15.442017 28.705979 1.191406 1.002808 0.059684 -0.022695 402625.000000 0 0 1
-10.465794 -22.158250 15.668017 29.086210 1.129537 1.001933 0.077661 -0.022961 402540.000000 0 0 1
-10.675194 -20.752850 15.857117 28.215044 1.095698 0.973983 0.058398 -0.022670 -702632.000000 0 0 1
-12.013794 -20.377850 15.669717 28.374778 1.038095 0.985746 0.055256 -0.013597 -359267.000000 0 0 1
-12.424994 -19.182150 16.502517 28.189864 0.996013 0.945416 0.060153 -0.016186 -524403.000000 0 0 1
-12.618194 -19.582350 17.823517 29.331979 0.998392 0.917701 0.055494 -0.016302 93597.800000 0 0 1
-13.228094 -18.530950 18.587617 29.391803 0.950843 0.886138 0.068492 -0.020878 144101.000000 0 0 1
-13.642294 -18.959250 20.016517 30.760791 0.947064 0.862270 0.066147 -0.018864 245633.000000 0 0 1
-14.749994 -19.848950 20.056917 31.840588 0.931718 0.889350 0.067629 -0.013571 165097.000000 0 0 1
-15.189394 -20.088350 21.379517 33.035484 0.923384 0.866932 0.058481 -0.005735 -364226.000000 0 0 1
-16.512394 -20.849750 21.356717 34.109831 0.900970 0.894234 0.078289 -0.010742 -921416.000000 0 0 1
-16.467994 -22.139650 20.783517 34.544370 0.931260 0.925235 0.067626 -0.010892 114695.000000 0 0 1
-17.733294 -22.551750 20.291617 35.139733 0.904442 0.955188 0.063442 0.005132 456842.000000 0 0 1
-18.734994 -23.081850 21.366817 36.610281 0.888976 0.947606 0.069716 -0.006592 -326929.000000 0 0 1
-19.320894 -22.153950 22.252217 36.868084 0.853600 0.922834 0.070965 -0.006447 27871.900000 0 0 1
-20.290694 -22.796550 23.070707 38.257711 0.843490 0.923497 0.074983 -0.003509 62548.800000 0 0 1
-20.931994 -21.770250 24.000727 38.576250 0.805026 0.899293 0.063407 0.002746 305804.000000 0 0 1
-21.868594 -20.813150 23.444897 38.224152 0.760675 0.910497 0.064453 0.010440 517422.000000 0 0 1
-22.057194 -19.732150 24.396757 38.354652 0.729818 0.881385 0.067368 0.004150 -54452.100000 0 0 1
-23.146994 -18.751150 23.937277 38.214947 0.680863 0.893889 0.059660 0.000352 1659.600000 0 0 1
-22.851794 -18.168150 22.678517 36.967571 0.671711 0.910348 0.070111 0.002710 292987.000000 0 0 1
-23.787594 -17.107050 22.419017 36.893266 0.623469 0.917670 0.057289 0.004893 156132.000000 0 0 1
-23.641594 -16.526150 21.028817 35.696635 0.610074 0.940854 0.057759 0.002109 -271998.000000 0 0 1
-22.475094 -15.735650 20.901617 34.490841 0.610818 0.919768 0.073870 -0.007777 -131178.000000 0 0 1
-22.361194 -15.501750 19.544017 33.500684 0.606177 0.947898 0.068741 -0.002528 361247.000000 0 0 1
-21.457394 -14.281250 19.167817 32.121318 0.587238 0.931374 0.072489 -0.022544 347096.000000 0 0 1
-21.089794 -14.126550 17.784217 30.993825 0.590189 0.959660 0.056246 -0.022746 -85743.600000 0 0 1
-20.310294 -12.991350 17.549417 29.820551 0.569060 0.941593 0.070100 -0.032030 -957321.000000 0 0 1
-19.792094 -13.053950 16.121417 28.671112 0.583062 0.973647 0.079655 -0.035004 260435.000000 0 0 1
-18.861394 -12.146750 15.552817 27.298092 0.572146 0.964607 0.084430 -0.032489 291177.000000 0 0 1
-17.658394 -11.932150 16.269417 26.812106 0.594245 0.918776 0.105159 -0.039801 -763768.000000 0 0 1
-16.780094 -10.995650 15.447417 25.319924 0.580078 0.914623 0.104602 -0.025892 -371054.000000 0 0 1
-17.221894 -9.673050 15.581117 25.158154 0.511760 0.902911 0.103803 -0.024818 411438.000000 0 0 1
-16.569494 -8.772750 14.664317 23.802342 0.486931 0.907031 0.082747 -0.010259 -507342.000000 0 1 0
-16.953894 -7.326350 15.013917 23.801841 0.407897 0.888228 0.102078 -0.005426 62337.400000 0 1 0
-16.447394 -6.792950 16.221517 24.079006 0.391672 0.831621 0.107261 -0.009777 -446938.000000 0 1 0
-15.055594 -6.661450 16.202417 23.099007 0.416563 0.793390 0.103294 -0.010877 -1121800.000000 0 1 0
-14.412894 -6.373350 17.538717 23.578755 0.416347 0.732005 0.099557 -0.011515 -223045.000000 0 1 0
-14.379794 -7.414750 18.554717 24.617768 0.476079 0.717104 0.099320 -0.024661 326722.000000 0 1 0
-13.548094 -8.523450 18.156517 24.204528 0.561560 0.722539 0.102501 -0.026431 -450788.000000 0 1 0
-13.522394 -9.758950 19.086617 25.345437 0.625134 0.718097 0.106814 -0.030431 1065170.000000 0 0 1
-14.789294 -10.415850 19.366717 26.500620 0.613595 0.751300 0.102873 -0.036759 928467.000000 0 0 1
-15.647894 -9.624050 20.160517 27.274995 0.551404 0.738978 0.096415 -0.033699 -421150.000000 0 0 1
-17.024494 -10.285050 20.567017 28.611498 0.543453 0.768668 0.086727 -0.036080 1688060.000000 0 0 1
-18.112994 -10.345750 19.619317 28.636213 0.518957 0.816024 0.088137 -0.032566 898308.000000 0 0 1
-18.525394 -9.105450 19.062217 28.097465 0.456834 0.825170 0.078619 -0.025061 -357336.000000 0 0 1
-19.714094 -9.141850 18.040817 28.243406 0.434206 0.877908 0.100457 -0.021363 -409879.000000 0 0 1
-20.905994 -9.438050 18.652917 29.564653 0.424061 0.888058 0.082950 -0.025941 -1099010.000000 0 0 1
-21.917194 -9.629950 17.682317 29.761782 0.413986 0.934615 0.108335 -0.021829 1069100.000000 0 0 1
-23.341294 -9.909450 18.330517 31.289312 0.401486 0.944881 0.099860 -0.020498 884678.000000 0 0 1
-23.838394 -8.756650 19.001017 31.717292 0.352033 0.928452 0.094538 -0.010408 -652390.000000 0 0 1
-25.203124 -8.915650 19.158417 32.889682 0.340013 0.948989 0.085963 -0.006684 -753666.000000 0 0 1
-25.977304 -7.640250 19.649817 33.456076 0.286047 0.943038 0.116379 -0.007698 118351.000000 0 0 1
-25.826044 -7.697450 21.047817 34.194238 0.289667 0.907729 0.122942 -0.011038 265954.000000 0 0 1
-26.440274 -6.567550 21.615917 34.777416 0.243465 0.900076 0.112308 -0.011446 -757465.000000 0 0 1
-26.426914 -6.574250 23.177877 35.760544 0.243822 0.865656 0.104631 -0.008582 851309.000000 0 0 1
-25.179864 -6.278150 23.813007 35.220733 0.244350 0.828329 0.083468 -0.011218 1715990.000000 0 0 1
-24.005094 -7.127050 23.563987 34.384602 0.288608 0.815772 0.095220 -0.007991 553676.000000 0 0 1
-22.973594 -6.862750 24.649927 34.387531 0.290285 0.771555 0.098672 -0.011580 -615681.000000 0 0 1
-22.479794 -5.578650 24.559767 33.758623 0.243249 0.756109 0.079090 -0.008985 226358.000000 0 0 1
-21.747694 -5.294250 25.775317 34.137344 0.238795 0.715070 0.091398 -0.018884 326033.000000 0 0 1
-21.356894 -3.805250 25.906017 33.789326 0.176324 0.697123 0.073181 -0.013899 -218914.000000 0 0 1
-20.473094 -3.513050 26.952887 34.028624 0.169938 0.656612 0.062741 -0.019016 -399114.000000 0 0 1
-20.951694 -3.444450 28.277807 35.362015 0.162942 0.644057 0.066231 -0.023105 -79729.500000 0 0 1
-21.735194 -2.164850 28.727827 36.088686 0.099274 0.650082 0.074131 -0.032714 1246980.000000 0 0 1
-23.021594 -2.122850 28.068107 36.363703 0.091951 0.689017 0.084405 -0.037389 478516.000000 0 0 1
-23.824194 -1.087950 28.599717 37.238685 0.045634 0.695067 0.063995 -0.035081 291020.000000 0 0 1
-25.122064 -0.806250 27.798017 37.476631 0.032082 0.735131 0.080137 -0.035660 -434013.000000 0 0 1
-24.981394 0.068250 26.676167 36.547128 -0.002732 0.752604 0.072604 -0.038455 250726.000000 0 0 1
-26.149934 0.207150 25.877337 36.789924 -0.007921 0.790653 0.096351 -0.033618 155839.000000 0 0 1
-26.911164 -1.038850 25.316847 36.962585 0.038584 0.816286 0.097672 -0.026076 -243767.000000 0 0 1
-27.720464 -1.789150 26.207237 38.189586 0.064453 0.814489 0.082112 -0.027472 207574.000000 0 0 1
-28.083834 -3.072850 25.767987 38.237852 0.108983 0.831339 0.065094 -0.026264 -28283.400000 0 0 1
-26.968674 -4.116250 25.963197 37.660862 0.151462 0.810143 0.075221 -0.030819 34969.800000 0 0 1
-26.570024 -4.261350 27.290677 38.326314 0.159028 0.778367 0.065399 -0.035672 167361.000000 0 0 1
-25.604034 -5.316150 27.358007 37.845588 0.204721 0.762828 0.092782 -0.031120 279755.000000 0 0 1
-25.391164 -5.818250 28.797967 38.831510 0.225256 0.735324 0.073398 -0.027123 110241.000000 0 0 1
-26.588244 -6.311750 29.376157 40.121459 0.233074 0.749278 0.077755 -0.027877 359926.000000 0 0 1
-26.353584 -6.996250 30.603247 40.988018 0.259491 0.727801 0.082936 -0.024035 1024740.000000 0 0 1
-27.709114 -7.541150 31.232977 42.428325 0.265719 0.743454 0.063704 -0.025114 1186390.000000 0 0 1
-28.522634 -8.403350 30.480357 42.581793 0.286514 0.773017 0.048227 -0.024925 54360.300000 0 0 1
-29.771464 -8.701550 31.063357 43.897485 0.284358 0.784652 0.063498 -0.020207 488497.000000 0 0 1
-30.748964 -9.322950 29.997037 43.957234 0.294386 0.819736 0.051722 -0.026131 144007.000000 0 0 1
-30.408334 -10.662950 29.805467 43.894546 0.337262 0.824363 0.058635 -0.025555 589244.000000 0 0 1
-31.447444 -11.311150 29.078957 44.299770 0.345276 0.854742 0.050137 -0.019570 92108.400000 0 0 1
-30.924914 -12.669950 28.563797 43.963262 0.388841 0.863581 0.066820 -0.027686 -316223.000000 0 0 1
-29.878034 -12.550050 27.663297 42.608200 0.397664 0.864201 0.070746 -0.021825 -936490.000000 0 0 1
-28.910504 -13.536550 27.790797 42.324742 0.437904 0.854483 0.063710 -0.027641 -352158.000000 0 0 1
-27.544604 -13.052450 27.214707 40.862109 0.442523 0.841945 0.088019 -0.034620 -159900.000000 0 0 1
-26.778804 -12.222350 28.051587 40.661797 0.428179 0.809479 0.080895 -0.039437 130627.000000 0 0 1
-27.390534 -11.005350 28.577107 41.085400 0.382052 0.801606 0.082517 -0.036277 -983892.000000 0 0 1
-27.627984 -9.867250 27.491077 40.204819 0.343028 0.817872 0.086225 -0.035736 1173020.000000 0 0 1
-26.394054 -9.241250 26.999367 38.871746 0.336787 0.802966 0.083061 -0.033698 1465030.000000 0 0 1
-25.596334 -10.040850 26.126397 37.928612 0.373831 0.810921 0.074908 -0.032858 -227268.000000 0 0 1
-26.062694 -10.251650 24.655787 37.313110 0.374757 0.848938 0.083982 -0.023188 699789.000000 0 0 1
-27.320544 -10.966550 24.510937 38.307485 0.381715 0.876497 0.086006 -0.028270 493405.000000 0 0 1
-27.791514 -10.747050 23.261097 37.801402 0.368991 0.907966 0.101033 -0.017244 -604500.000000 0 0 1
-29.107684 -11.510650 23.040117 38.866429 0.376578 0.936262 0.113001 -0.026478 326081.000000 0 0 1
-30.329974 -10.967750 23.515977 39.914910 0.346984 0.940786 0.109631 -0.021830 256221.000000 0 0 1
-30.461014 -11.012450 24.976907 40.902241 0.346906 0.913917 0.113621 -0.025840 -941500.000000 0 0 1
-31.884544 -10.635250 25.393157 42.125350 0.321950 0.923791 0.062161 -0.017974 -395399.000000 0 0 1
-32.190884 -9.252450 25.202227 41.916740 0.279880 0.925738 0.074783 -0.030144 467674.000000 0 0 1
-33.540414 -8.856150 25.497827 43.052642 0.258152 0.936951 0.051089 -0.010744 951598.000000 0 0 1
-34.032734 -8.848750 26.986697 44.326168 0.254375 0.916223 0.034240 -0.000884 -67691.900000 0 0 1
-34.362008 -10.155550 27.366347 45.086580 0.287365 0.918550 0.036511 -0.012713 111046.000000 0 0 1
-34.942057 -10.218050 28.702527 46.359367 0.284496 0.903161 0.055999 -0.010410 -948622.000000 0 0 1
-35.514396 -11.637350 28.972607 47.287548 0.316654 0.911337 0.065269 -0.005037 -221994.000000 0 0 1
-36.655944 -12.031350 28.278677 47.834038 0.317145 0.938271 0.051904 -0.005655 343471.000000 0 0 1
36.604565 -11.312150 28.585587 47.801619 -0.299726 0.929787 0.057966 -0.004786 -746675.000000 0 0 1
35.364475 -11.856650 27.911087 46.585996 -0.323493 0.928382 0.061205 -0.001605 -470037.000000 0 0 1
35.223465 -11.456950 26.566877 45.582378 -0.314471 0.948587 0.060906 0.001221 -20071.000000 0 0 1
34.073955 -12.131150 26.068307 44.584256 -0.342031 0.946289 0.074776 -0.001692 190398.000000 0 0 1
33.731505 -11.691550 24.605837 43.358436 -0.333648 0.967332 0.076459 -0.008646 173433.000000 0 0 1
33.279885 -10.305450 24.511567 42.597770 -0.300295 0.957680 0.082721 -0.020083 54844.800000 0 0 1
33.403505 -9.786750 23.227867 41.846248 -0.285009 0.982341 0.075435 -0.019555 -310785.000000 0 0 1
33.031685 -8.306750 23.136547 41.175164 -0.246369 0.974109 0.082090 -0.024323 -911126.000000 0 0 1
31.690585 -8.110250 23.396507 40.217731 -0.250542 0.949923 0.096372 -0.028539 -1103340.000000 0 0 1
31.255265 -6.855950 22.882807 39.338512 -0.215934 0.949992 0.098372 -0.026576 -732458.000000 0 0 1
29.753505 -6.834050 22.720517 38.055186 -0.225773 0.930989 0.098825 -0.013004 -709019.000000 0 0 1
29.298665 -7.585850 21.538917 37.146761 -0.253351 0.952273 0.088034 -0.007181 -218259.000000 0 0 1
27.972965 -7.358750 21.173017 35.845985 -0.257238 0.938912 0.093444 -0.032735 -909482.000000 0 0 1
15.002606 -16.914350 26.740537 35.017563 -0.845224 0.701876 0.083951 -0.014169 -48132.500000 0 0 1
14.268206 -18.099650 26.648527 35.232414 -0.903222 0.713060 0.070730 -0.006037 306184.000000 0 0 1
15.154606 -19.179350 26.424987 35.997076 -0.902089 0.746475 0.073209 0.001530 -172777.000000 0 0 1
14.381306 -20.528650 26.324887 36.348963 -0.959703 0.760884 0.050457 0.001111 -29422.900000 0 0 1
13.818206 -20.933150 27.512947 37.230389 -0.987346 0.739224 0.062274 0.001290 1628930.000000 0 0 1
12.428606 -20.464350 27.629517 36.560225 -1.025005 0.714034 0.075464 0.000853 1083840.000000 0 0 1
11.870806 -20.788750 29.010347 37.612344 -1.051958 0.689917 0.083058 -0.013010 -311659.000000 0 0 1
12.362906 -20.104550 30.154887 38.292970 -1.019471 0.664089 0.082277 -0.012108 -3020.170000 0 0 1
11.622306 -18.935150 30.497967 37.732531 -1.020295 0.629593 0.099854 -0.019773 257386.000000 0 0 1
12.100806 -17.674950 29.740307 36.651320 -0.970460 0.624186 0.110147 -0.023958 395107.000000 0 0 1
13.213206 -16.921050 30.170637 37.029422 -0.907827 0.618456 0.092549 -0.021265 -153418.000000 0 0 1
13.036106 -15.652650 29.644347 35.968498 -0.876351 0.602052 0.088544 -0.018816 396469.000000 0 0 1
14.179106 -14.737550 30.125197 36.411124 -0.804708 0.596401 0.082849 -0.018009 119823.000000 0 0 1
13.847506 -13.458950 29.654247 35.387443 -0.771170 0.577211 0.100784 -0.016558 164116.000000 0 0 1
14.669206 -12.384750 30.092797 35.695155 -0.701157 0.567867 0.100067 -0.018948 38840.700000 0 0 1
14.063606 -11.002550 29.690857 34.646618 -0.663881 0.541449 0.094811 -0.018465 -80086.900000 0 0 1
14.140806 -10.609450 28.326287 33.390139 -0.643675 0.557949 0.116908 -0.021179 644130.000000 0 0 1
15.439806 -10.489950 27.721267 33.419984 -0.596773 0.592617 0.097731 -0.018596 149422.000000 0 0 1
15.488806 -9.226450 26.801287 32.300766 -0.537241 0.592152 0.090966 -0.016536 9945.760000 0 0 1
15.646906 -8.041750 27.522487 32.664701 -0.474746 0.568748 0.084391 -0.016051 979345.000000 0 0 1
16.990506 -7.773350 27.986777 33.650586 -0.429083 0.588656 0.081891 -0.018591 376098.000000 0 0 1
17.355906 -6.330950 27.574637 33.191400 -0.349774 0.590295 0.073718 -0.022333 904883.000000 0 0 1
18.730006 -6.044550 27.938617 34.174787 -0.312168 0.613703 0.066318 -0.023262 946307.000000 0 0 1
19.059606 -4.751250 27.603097 33.878812 -0.244304 0.618481 0.072919 -0.023221 154315.000000 0 0 1
20.582106 -4.605150 27.340537 34.530211 -0.220120 0.657069 0.075717 -0.025213 -881501.000000 0 0 1
20.902606 -5.327450 26.183897 33.924875 -0.249557 0.689098 0.076048 -0.024144 987690.000000 0 0 1
22.263606 -5.241550 25.713377 34.413947 -0.231221 0.726989 0.079173 -0.017760 776841.000000 0 0 1
23.413406 -5.637150 26.624597 35.900337 -0.236269 0.735306 0.086135 -0.024957 -1211390.000000 0 0 1
23.832106 -4.611850 27.538767 36.709973 -0.191151 0.722475 0.083228 -0.022176 -39679.900000 0 0 1
24.858606 -5.007150 28.415407 38.084869 -0.198766 0.728600 0.097048 -0.036338 -122261.000000 0 0 1
25.584506 -3.767750 29.019217 38.870012 -0.146216 0.727904 0.103525 -0.034245 -117896.000000 0 0 1
26.361906 -3.035650 28.077827 38.633271 -0.114648 0.757176 0.091226 -0.023323 276046.000000 0 0 1
26.805006 -1.798950 28.582647 39.226423 -0.067012 0.754436 0.083490 -0.032692 -49829.000000 0 0 1
27.875006 -1.011650 27.745047 39.342433 -0.036276 0.788064 0.087372 -0.034484 399413.000000 0 0 1
29.179806 -1.525550 27.917847 40.412802 -0.052233 0.808178 0.103175 -0.034474 -48026.100000 0 0 1
30.052706 -0.868750 26.982347 40.397610 -0.028899 0.839387 0.095816 -0.023035 88075.000000 0 0 1
31.540406 -1.040650 27.309897 41.733807 -0.032982 0.857430 0.077783 -0.022259 -379220.000000 0 0 1
32.035806 0.086850 28.011347 42.555094 0.002711 0.852322 0.064712 -0.016117 218991.000000 0 0 1
33.450906 0.027550 28.145177 43.716300 0.000824 0.871324 0.070899 -0.023816 286817.000000 0 0 1
33.948806 1.146850 29.055947 44.699941 0.033769 0.863183 0.067389 -0.014599 -398488.000000 0 0 1
34.098206 2.419850 28.474537 44.489803 0.070848 0.876267 0.056006 -0.014636 242570.000000 0 0 1
34.274606 3.397050 29.488467 45.341573 0.098790 0.862735 0.049924 -0.003872 -321971.000000 0 0 1
33.939706 4.813350 28.964597 44.877833 0.140881 0.869237 0.053520 -0.008518 -279408.000000 0 0 1
33.972206 5.855950 29.906427 45.637674 0.170697 0.856215 0.058036 -0.000623 330004.000000 0 0 1
32.721906 6.014850 30.547797 45.167128 0.181788 0.828030 0.072838 -0.006566 -74128.600000 0 0 1
32.731006 7.169150 31.566247 46.034155 0.215627 0.815213 0.074889 -0.009881 16583.500000 0 0 1
33.353906 6.692350 32.767326 47.233127 0.198017 0.804133 0.063932 -0.005356 418292.000000 0 0 1
33.216006 7.603450 33.842407 48.025244 0.225032 0.788825 0.078752 -0.009304 -186365.000000 0 0 1
33.477006 6.860650 -32.628796 47.248458 0.202137 2.333086 0.095304 -0.009539 -361304.000000 0 0 1
32.446806 6.047050 -32.151436 46.076858 0.184254 2.343088 0.078873 -0.010957 -187358.000000 0 0 1
32.500906 4.682050 -32.559566 46.242359 0.143075 2.351961 0.096296 -0.012515 -10017.300000 0 0 1
32.979506 3.739950 -31.412586 45.698858 0.112920 2.328675 0.110042 -0.018361 -74544.500000 0 0 1
32.950006 2.432150 -31.915236 45.936919 0.073680 2.338886 0.110867 -0.020500 320225.000000 0 0 1
33.314606 1.533350 -30.861696 45.438512 0.045994 2.317464 0.106146 -0.018483 10820.800000 0 0 1
33.326206 0.050950 -31.303596 45.722573 0.001529 2.324909 0.097942 -0.024042 -198812.000000 0 0 1
34.426206 -0.309750 -32.134816 47.094649 -0.008997 2.321762 0.103882 -0.021070 210147.000000 0 0 1
34.923806 -1.611150 -31.971576 47.375623 -0.046101 2.311562 0.102975 -0.024819 -158303.000000 0 0 1
35.892406 -1.816450 -30.840196 47.356963 -0.050565 2.279998 0.123894 -0.027647 -661298.000000 0 0 1
35.272806 -1.653550 -29.588376 46.069264 -0.046845 2.268238 0.131792 -0.030113 -74831.600000 0 0 1
36.232606 -1.305550 -28.635836 46.200836 -0.036017 2.239300 0.149002 -0.032533 -73174.400000 0 0 1
35.539706 -1.002850 -27.300466 44.826241 -0.028210 2.225632 0.147158 -0.033633 -4718.670000 0 0 1
34.916906 0.246550 -27.300796 44.323634 0.007061 2.234378 0.141968 -0.029926 285836.000000 0 0 1
33.935206 0.296250 -26.275616 42.919622 0.008730 2.229643 0.128289 -0.028230 411728.000000 0 0 1
33.286006 1.729950 -26.113636 42.342330 0.051926 2.235374 0.116095 -0.024884 489236.000000 0 0 1
32.536806 2.153650 -27.260476 42.501947 0.066095 2.267110 0.122093 -0.038704 479963.000000 0 0 1
31.622706 3.174750 -26.944666 41.666408 0.100059 2.274015 0.104812 -0.026316 349813.000000 0 0 1
30.622406 3.627350 -28.058146 41.691114 0.117905 2.309055 0.105769 -0.026329 178869.000000 0 0 1
29.682506 4.593250 -27.647936 40.823492 0.153528 2.314822 0.088767 -0.025930 229838.000000 0 0 1
28.918406 5.038050 -28.765716 41.098936 0.172485 2.346073 0.066008 -0.027731 -75268.500000 0 0 1
27.665706 5.872650 -28.477166 40.135125 0.209167 2.359631 0.058543 -0.021102 638724.000000 0 0 1
26.508906 5.131650 -28.012266 38.906850 0.191217 2.374574 0.076804 -0.021664 1588490.000000 0 0 1
25.380906 5.942650 -27.683166 38.024507 0.229996 2.386247 0.079437 -0.025597 361287.000000 0 0 1
24.084306 5.166450 -27.401086 36.845156 0.211313 2.409358 0.102632 -0.022956 -175424.000000 0 0 1
23.316306 4.865450 -28.543546 37.176024 0.205720 2.446188 0.101461 -0.024932 760894.000000 0 0 1
22.037606 4.341650 -28.157736 36.018941 0.194520 2.468260 0.082175 -0.015193 517277.000000 0 0 1
21.201006 3.673450 -29.252416 36.313644 0.171564 2.507398 0.072368 -0.011978 -103345.000000 0 0 1
21.845006 2.589150 -29.862946 37.090477 0.117973 2.506704 0.075149 -0.026692 234987.000000 0 0 1
21.108806 2.217150 -31.029146 37.593953 0.104651 2.541664 0.054811 -0.027480 -55465.000000 0 0 1
21.359006 3.098050 -32.337336 38.878121 0.144042 2.553070 0.075004 -0.033294 39910.700000 0 0 1
22.702006 3.186850 -32.771576 39.993915 0.139466 2.531184 0.064857 -0.038657 6697.790000 0 0 1
22.786206 3.798750 33.823347 40.959254 0.165193 0.599212 0.077852 -0.045041 -477303.000000 0 0 1
24.121806 3.647450 33.098725 41.118013 0.150073 0.635173 0.097686 -0.038397 -267323.000000 0 0 1
24.351706 2.310250 32.783504 40.903557 0.094587 0.641025 0.111272 -0.041704 -112252.000000 0 0 1
25.738106 2.118350 32.619698 41.605074 0.082119 0.669662 0.105681 -0.040976 -306176.000000 0 0 1
26.178406 0.653250 32.357158 41.625970 0.024949 0.680384 0.093527 -0.043365 -434352.000000 0 0 1
25.732206 -0.023950 31.191417 40.435770 -0.000931 0.689787 0.101153 -0.041154 127934.000000 0 0 1
24.353506 -0.231050 30.994097 39.418025 -0.009487 0.666011 0.109014 -0.051202 -162112.000000 0 0 1
23.608806 -1.339350 31.793797 39.623416 -0.056670 0.639492 0.094480 -0.053612 -229210.000000 0 0 1
23.880306 -2.698050 31.421957 39.558664 -0.112505 0.652921 0.082880 -0.052156 105746.000000 0 0 1
23.195506 -3.623650 32.262116 39.899956 -0.154969 0.629070 0.091160 -0.047222 -112587.000000 0 0 1
23.060606 -5.101750 31.880906 39.676335 -0.217725 0.637604 0.087505 -0.042583 -101616.000000 0 0 1
24.268206 -5.834350 31.959447 40.551100 -0.235934 0.663035 0.074767 -0.031195 -71720.500000 0 0 1
24.143506 -7.209350 31.716217 40.506815 -0.290176 0.671347 0.078128 -0.031092 -693584.000000 0 0 1
25.446606 -7.918450 31.374337 41.165284 -0.301681 0.704161 0.068503 -0.026064 -352794.000000 0 0 1
25.933906 -7.597950 30.097417 40.449361 -0.284998 0.731645 0.085890 -0.027889 -438978.000000 0 0 1
27.142606 -8.259050 29.832357 41.169194 -0.295382 0.760302 0.065959 -0.016664 -325615.000000 0 0 1
27.549806 -8.033750 28.409727 40.381252 -0.283740 0.790433 0.071293 -0.022164 -195947.000000 0 0 1
26.789706 -8.702450 27.453127 39.333131 -0.314090 0.798245 0.060444 -0.024106 -534847.000000 0 0 1
27.188206 -8.283150 26.184507 38.645020 -0.295726 0.826350 0.082579 -0.027631 389268.000000 0 0 1
26.432406 -8.927050 24.950167 37.428267 -0.325703 0.841141 0.064548 -0.023147 -415121.000000 0 0 1
25.092906 -8.571850 24.792887 36.301760 -0.329176 0.818980 0.065512 -0.019323 -709609.000000 0 0 1
24.462006 -9.425350 23.848377 35.439696 -0.367775 0.832636 0.075129 -0.021908 -776670.000000 0 0 1
23.099406 -8.830850 23.610027 34.190640 -0.365153 0.808560 0.057680 -0.024384 -949810.000000 0 0 1
22.144306 -9.086550 24.610657 34.331037 -0.389383 0.771504 0.043001 -0.021096 276525.000000 0 0 1
20.879606 -8.512150 24.303927 33.152610 -0.387108 0.747939 0.056854 -0.012355 964822.000000 0 0 1
19.819206 -8.323750 25.441867 33.307272 -0.397614 0.701534 0.049960 -0.012170 302347.000000 0 0 1
19.117806 -9.476950 25.876267 33.539295 -0.460212 0.689568 0.064657 -0.015765 305275.000000 0 0 1
19.909906 -10.418650 26.652887 34.861569 -0.482105 0.700477 0.049867 -0.019035 276197.000000 0 0 1
19.094806 -11.411550 27.557727 35.415582 -0.538672 0.679122 0.054330 -0.014873 -115228.000000 0 0 1
18.364106 -12.296250 26.743387 34.693615 -0.590017 0.690630 0.069570 -0.019112 -239452.000000 0 0 1
17.734306 -13.294950 27.568037 35.373125 -0.643292 0.677169 0.074255 -0.019746 -393546.000000 0 0 1
18.509006 -14.441750 28.268807 36.746060 -0.662585 0.693049 0.083618 -0.010933 -694815.000000 0 0 1
17.735906 -15.295350 29.034957 37.303335 -0.711646 0.678767 0.076912 -0.009381 -124721.000000 0 0 1
18.524706 -16.314350 29.651187 38.581286 -0.722038 0.694243 0.074875 -0.008357 -488860.000000 0 0 1
18.704706 -17.591350 28.754467 38.550499 -0.754733 0.728925 0.074549 -0.004180 -68554.600000 0 0 1
19.699906 -17.324950 27.787837 38.215234 -0.721341 0.756649 0.073726 -0.001656 213040.000000 0 0 1
19.752606 -18.353950 26.842977 38.047054 -0.748711 0.787639 0.066339 0.006763 -28179.600000 0 0 1
20.879106 -18.048950 25.833307 37.802929 -0.712824 0.818431 0.078816 -0.001138 594923.000000 0 0 1
22.184806 -18.017650 26.400917 38.907708 -0.682113 0.825006 0.072817 0.003915 -3341.470000 0 0 1
23.189606 -17.653950 25.521387 38.739656 -0.650686 0.851584 0.049375 -0.000398 879738.000000 0 0 1
24.628106 -17.456850 26.168797 39.951110 -0.616620 0.856587 0.036388 0.002025 1123930.000000 0 0 1
25.227206 -18.685850 26.525857 41.099805 -0.637524 0.869248 0.042712 0.004529 -15448.800000 0 0 1
26.589106 -18.662950 26.164217 41.711539 -0.612001 0.892759 0.038869 -0.004095 -62905.900000 0 0 1
27.455806 -19.881750 26.550367 43.058417 -0.626742 0.906364 0.043659 -0.009312 111167.000000 0 0 1
27.766706 -20.050550 27.951637 44.207562 -0.625410 0.886301 0.038169 -0.007560 34173.200000 0 0 1
28.533906 -21.186350 28.180907 45.356463 -0.638682 0.900369 0.039196 -0.010865 56816.700000 0 0 1
27.689406 -22.312850 28.862827 45.799883 -0.678283 0.888993 0.045758 -0.009880 309561.000000 0 0 1
27.388806 -22.034650 30.229887 46.362901 -0.677487 0.860541 0.047270 -0.008509 -212831.000000 0 0 1
26.646906 -23.118550 30.740087 46.791857 -0.714617 0.854025 0.046357 -0.009470 -425604.000000 0 0 1
26.204506 -22.851650 32.187539 47.380499 -0.717157 0.823931 0.038324 -0.008704 -290156.000000 0 0 1
25.543906 -23.959850 32.679848 47.901336 -0.753410 0.819985 0.035528 -0.015093 -202000.000000 0 0 1
25.175106 -23.707950 -33.795466 48.352728 -0.755394 2.344705 0.039949 -0.014770 -267920.000000 0 0 1
25.011406 -25.026270 -32.935986 48.339050 -0.785695 2.320407 0.040600 -0.019852 369457.000000 0 0 1
23.956906 -25.959850 -33.157776 48.448790 -0.825502 2.324560 0.058050 -0.026742 -209115.000000 0 0 1
23.809006 -26.431390 33.380042 48.782316 -0.837548 0.817201 0.052155 -0.024420 132253.000000 0 0 1
22.592606 -27.358020 33.085472 48.513251 -0.880513 0.820318 0.083437 -0.028425 529732.000000 0 0 1
22.788706 -28.658800 33.507812 49.632906 -0.899006 0.829679 0.083492 -0.035621 -372259.000000 0 0 1
21.533606 -29.262700 33.532613 49.441257 -0.936399 0.825443 0.123074 -0.045514 -395854.000000 0 0 1
21.470806 -30.824970 33.791157 50.527384 -0.962397 0.838244 0.089628 -0.045502 -196525.000000 0 0 1
22.125506 -31.182270 -32.901976 50.442165 -0.953687 2.281373 0.086124 -0.043588 -314848.000000 0 0 1
23.377906 -31.796050 -32.999796 51.444162 -0.936805 2.267207 0.047515 -0.029070 -371536.000000 0 0 1
23.886206 -32.437650 -31.651586 51.230604 -0.936074 2.236771 0.031348 -0.029407 -670972.000000 0 0 1
25.191206 -32.938690 -31.721036 52.208986 -0.917896 2.223804 0.029717 -0.016476 -25918.900000 0 0 1
25.755006 -33.592650 -30.587256 52.224196 -0.916702 2.196529 0.025153 -0.021219 -252169.000000 0 0 1
26.316306 -32.603540 -29.566256 51.280622 -0.891704 2.185306 0.024384 -0.022009 -602878.000000 0 0 1
26.762306 -33.225670 -28.382216 51.241744 -0.892728 2.157824 0.040318 -0.026530 38264.000000 0 0 1
27.095306 -32.280920 -27.412856 50.276019 -0.872512 2.147480 0.038133 -0.024181 -716515.000000 0 0 1
27.372106 -32.917590 -26.043886 50.110716 -0.877121 2.117328 0.046675 -0.023874 811361.000000 0 0 1
28.565506 -33.703170 -25.891296 51.207919 -0.867720 2.100887 0.048390 -0.001856 1222290.000000 0 0 1
29.824106 -33.018410 -25.913266 51.489708 -0.836185 2.098176 0.058728 -0.020282 521217.000000 0 0 1
-26.895214 -30.803648 9.041934 41.880471 0.853033 1.353184 0.071898 -0.019528 -177993.000000 0 0 1
-26.843044 -31.905648 9.884934 42.851270 0.871360 1.338020 0.066806 -0.024715 123605.000000 0 0 1
-25.578644 -32.057848 10.506534 42.336272 0.897343 1.320007 0.049522 -0.018343 18625.900000 0 0 1
-25.643884 -33.020848 11.766734 43.433181 0.910489 1.296452 0.042865 -0.015486 -368625.000000 0 0 1
-25.929164 33.647550 11.495734 44.007171 -0.914234 1.306506 0.051620 -0.004674 177453.000000 0 0 1
-27.313764 33.305050 11.490934 44.579251 -0.883914 1.310089 0.031709 -0.017408 130296.000000 0 0 1
-27.555354 31.766150 11.285834 43.540279 -0.856262 1.308598 0.037450 -0.014679 95662.700000 0 0 1
-27.247874 31.425450 9.909434 42.757484 -0.856479 1.336911 0.063940 -0.023801 12494.600000 0 0 1
-27.418774 30.078450 9.550234 41.805613 -0.831623 1.340317 0.081182 -0.024506 -358308.000000 0 0 1
-26.781534 29.764950 8.224734 40.876021 -0.838110 1.368202 0.060233 -0.013160 -997085.000000 0 0 1
-25.392574 29.787950 8.256934 40.003522 -0.864885 1.362897 0.049637 -0.001591 -947597.000000 0 0 1
-25.019094 29.460750 6.978334 39.275794 -0.866747 1.392173 0.057678 0.006184 -175745.000000 0 0 1
-23.592994 28.860250 6.929234 37.915138 -0.885481 1.387007 0.060880 0.004156 -54199.000000 0 0 1
-23.428994 27.469050 7.169534 36.808541 -0.864608 1.374764 0.068406 -0.001820 322988.000000 0 0 1
-23.984294 26.631850 6.136334 36.361469 -0.837657 1.401226 0.045514 -0.009470 -350844.000000 0 0 1
-24.236294 25.142750 6.518834 35.525358 -0.803753 1.386253 0.064780 -0.011135 -41715.300000 0 0 1
-25.341274 24.818450 7.376934 36.229198 -0.774975 1.365744 0.084008 -0.011279 370083.000000 0 0 1
-25.488804 23.402850 7.555934 35.418423 -0.742759 1.355811 0.093687 -0.025054 -112748.000000 0 0 1
-26.100244 22.510450 6.457434 35.066245 -0.711684 1.385590 0.078567 -0.031822 -674840.000000 0 0 1
-27.413444 22.772350 6.050934 36.148176 -0.693182 1.402612 0.077882 -0.031574 -140403.000000 0 0 1
-27.793744 22.039950 4.852734 35.802244 -0.670447 1.434835 0.073048 -0.027321 60055.500000 0 0 1
-27.465324 22.811050 3.542834 35.878123 -0.693087 1.471889 0.055158 -0.025488 -607174.000000 0 0 1
-26.092944 22.774150 3.295434 34.790279 -0.717588 1.475931 0.052027 -0.024257 -352401.000000 0 0 1
-25.839274 23.574350 2.168634 35.044558 -0.739594 1.508875 0.043808 -0.017055 -351559.000000 0 0 1
-24.556494 24.401250 2.171634 34.686574 -0.782227 1.508148 0.057776 -0.009142 -323668.000000 0 0 1
-24.200294 25.185950 1.020534 34.943208 -0.805354 1.541587 0.053185 -0.019457 -202013.000000 0 0 1
-22.959794 25.829250 1.205634 34.579703 -0.844144 1.535924 0.068622 -0.020019 -386769.000000 0 0 1
-22.406794 26.416350 -0.111066 34.639577 -0.867338 1.574003 0.084175 -0.016114 106987.000000 0 0 1
-21.919694 25.569050 -1.144466 33.698058 -0.862094 1.604765 0.081056 -0.020968 255929.000000 0 0 1
-20.795694 24.758350 -0.844766 32.344249 -0.872168 1.596917 0.086534 -0.034041 -43744.100000 0 0 1
-20.449494 23.899550 -2.091066 31.523687 -0.863035 1.637178 0.100501 -0.046260 12168.700000 0 0 1
-21.421094 22.877050 -2.302466 31.424895 -0.818254 1.644131 0.085075 -0.040007 65890.300000 0 0 1
-21.146994 21.841150 -3.195866 30.568689 -0.801544 1.675535 0.090405 -0.037934 -110407.000000 0 0 1
-22.390094 21.418850 -4.021266 31.245064 -0.763232 1.699855 0.095113 -0.030399 64558.800000 0 0 1
-22.825494 22.359450 -4.953666 32.333991 -0.775084 1.724605 0.085598 -0.026503 65499.900000 0 0 1
-24.080394 21.993050 -5.503166 33.073319 -0.740124 1.737967 0.081774 -0.014859 232827.000000 0 0 1
-24.300794 22.706250 -6.855066 33.957242 -0.751490 1.774067 0.085668 -0.011187 -78454.200000 0 0 1
-23.443394 22.165950 -7.818066 33.197051 -0.757397 1.808534 0.079793 -0.014790 -39647.400000 0 0 1
-23.339194 22.937050 -8.975566 33.932094 -0.776708 1.838498 0.080517 -0.018685 -275922.000000 0 0 1
-22.594994 22.279050 -10.189966 33.327545 -0.778358 1.881525 0.080349 -0.014801 2160.780000 0 0 1
-23.326394 21.546350 -11.156966 33.657744 -0.745750 1.908671 0.051348 -0.005263 767255.000000 0 0 1
-22.456194 21.104650 -12.233266 33.156292 -0.754382 1.948684 0.057717 -0.005952 736802.000000 0 0 1
-23.381994 20.739350 -13.404666 34.007695 -0.725575 1.975956 0.048863 -0.015612 279793.000000 0 0 1
-24.120094 19.562250 -13.209866 33.748498 -0.681434 1.972971 0.057909 -0.003447 567745.000000 0 0 1
-25.389664 19.616850 -13.858066 34.949990 -0.657829 1.978510 0.067756 -0.014817 575416.000000 0 0 1
-26.297334 18.393450 -13.775466 34.923233 -0.610351 1.976265 0.109814 -0.016441 101107.000000 0 0 1
-25.784504 17.428850 -14.691666 34.415847 -0.594397 2.011843 0.103181 -0.014162 273054.000000 0 0 1
-26.674934 16.367550 -14.940566 34.679523 -0.550354 2.016195 0.104451 -0.020063 -343899.000000 0 0 1
-26.181904 15.551450 -16.131666 34.461142 -0.535979 2.057949 0.109387 -0.011981 654590.000000 0 0 1
-25.038394 14.721350 -15.899966 33.112660 -0.531513 2.071654 0.121408 -0.014739 487721.000000 0 0 1
-24.455694 14.222450 -17.070466 33.041789 -0.526750 2.113710 0.113457 -0.027348 165372.000000 0 0 1
-23.465894 13.036550 -16.914666 31.728626 -0.507097 2.133062 0.112309 -0.016956 527265.000000 0 0 1
-22.262694 13.373350 -16.223066 30.621265 -0.540939 2.129158 0.109813 -0.022942 455979.000000 0 0 1
-21.367994 12.272250 -16.291066 29.539772 -0.521330 2.154953 0.102224 -0.024307 784659.000000 0 0 1
-20.034494 12.373750 -15.446966 28.162020 -0.553276 2.151370 0.103711 -0.028978 779517.000000 0 0 1
-19.136794 13.259450 -16.106066 28.309632 -0.605930 2.175995 0.092040 -0.020603 814584.000000 0 0 1
-17.946394 13.425650 -15.295466 27.134340 -0.642282 2.169648 0.091758 -0.013872 671393.000000 0 0 1
-17.070094 14.576150 -15.817566 27.459928 -0.706754 2.184652 0.071363 -0.011727 -339482.000000 0 0 1
-16.463294 14.353450 -17.075366 27.724172 -0.717041 2.234326 0.097739 -0.020938 47597.400000 0 0 1
-15.501794 15.381550 -17.231866 27.817888 -0.781505 2.238842 0.080979 -0.015978 -314966.000000 0 0 1
-14.780894 15.214050 -18.566066 28.189376 -0.799838 2.289779 0.091280 -0.021722 -48117.100000 0 0 1
-13.852794 14.126050 -18.512466 27.095324 -0.795164 2.322980 0.093448 -0.021008 -654466.000000 0 0 1
-13.002394 14.337750 -19.590466 27.539420 -0.834202 2.362229 0.109448 -0.025126 -883369.000000 0 0 1
-11.958494 13.230450 -19.598966 26.498488 -0.835852 2.403311 0.104448 -0.031090 -509115.000000 0 0 1
-12.341594 12.059150 -20.266766 26.617284 -0.773823 2.436287 0.124986 -0.022716 -67339.900000 0 0 1
-11.344694 11.073750 -20.102766 25.601781 -0.773313 2.473831 0.099906 -0.010152 -44180.500000 0 0 1
-11.743394 9.748350 -20.815566 25.811343 -0.692835 2.508920 0.115146 -0.022728 66937.000000 0 0 1
-11.458894 9.864650 -22.201266 26.861008 -0.710773 2.543700 0.119306 -0.023073 -43022.300000 0 0 1
-11.539094 8.628750 -22.871066 27.031309 -0.642081 2.579413 0.118085 -0.004262 -1047.980000 0 0 1
-11.325394 8.735850 -24.399066 28.282398 -0.657026 2.611370 0.104342 -0.013152 -268748.000000 0 0 1
-9.934594 8.773750 -24.644166 27.982311 -0.723428 2.648145 0.098782 -0.011131 -281120.000000 0 0 1
-9.570494 8.313450 -25.887466 28.824793 -0.715225 2.686220 0.066973 -0.020045 -518828.000000 0 0 1
-9.538194 9.324750 -27.079286 30.186352 -0.774083 2.683891 0.111061 -0.028382 -422818.000000 0 0 1
-8.372294 10.090350 -27.272336 30.260383 -0.878187 2.693455 0.094995 -0.036050 -184609.000000 0 0 1
-8.141694 11.139050 -26.348146 29.742064 -0.939622 2.659202 0.072168 -0.026865 32785.600000 0 0 1
-6.678294 11.647250 -26.351256 29.574427 -1.050181 2.670372 0.064914 -0.028637 173269.000000 0 0 1
-6.317694 12.215650 -27.598506 30.835254 -1.093499 2.679297 0.073701 -0.037976 900917.000000 0 0 1
-4.905694 12.481850 -27.620736 30.704518 -1.196316 2.689571 0.090789 -0.034450 1037300.000000 0 0 1
-4.226994 12.949950 -28.967166 32.010395 -1.255290 2.702011 0.093985 -0.032802 -422566.000000 0 0 1
-2.840094 12.859550 -28.939706 31.795294 -1.353431 2.714535 0.103946 -0.040603 -515427.000000 0 0 1
-2.366894 12.817950 -30.297136 32.982093 -1.388199 2.735303 0.104528 -0.038542 -9018.560000 0 0 1
-0.849994 12.604550 -30.442266 32.959501 -1.503463 2.748233 0.120130 -0.050224 -320369.000000 0 0 1
-0.472594 11.346250 -29.895246 31.979469 -1.529168 2.778566 0.096929 -0.032376 1718480.000000 0 0 1
0.933406 10.941150 -30.015666 31.961230 1.485691 2.790878 0.106768 -0.041972 1891900.000000 0 0 1
1.483406 10.436050 -31.370356 33.093970 1.429600 2.817429 0.111379 -0.045517 -235841.000000 0 0 1
1.483006 11.489250 -32.296616 34.311420 1.442428 2.797195 0.121418 -0.044296 97429.800000 0 0 1
1.676706 10.981950 -33.615956 35.404054 1.419288 2.822417 0.133513 -0.047114 199669.000000 0 0 1
2.247206 12.026550 33.171181 35.355553 1.386073 0.353355 0.134510 -0.050765 -727534.000000 0 0 1
3.616606 12.233150 33.164494 35.533273 1.283345 0.367200 0.125041 -0.057178 -1022050.000000 0 0 1
4.051606 13.097250 32.135672 34.937872 1.270786 0.403239 0.115499 -0.049775 -171811.000000 0 0 1
5.550006 12.912250 31.889302 34.849051 1.164846 0.415116 0.114206 -0.046901 -363997.000000 0 0 1
5.770006 11.668650 31.258277 33.860453 1.111568 0.394601 0.124880 -0.052685 871589.000000 0 0 1
7.188506 11.382050 31.258827 34.034394 1.007490 0.406657 0.112050 -0.034477 1177960.000000 0 0 1
7.519606 10.168150 30.279707 32.814576 0.934033 0.395636 0.084124 -0.020784 -86764.400000 0 0 1
7.574406 10.660550 28.944867 31.761995 0.953053 0.424354 0.069626 -0.033827 -123071.000000 0 0 1
8.015606 9.659050 27.984497 30.670495 0.878115 0.421628 0.067076 -0.037865 281658.000000 0 0 1
6.973706 8.667850 27.396087 29.568730 0.893288 0.385735 0.052885 -0.026873 96231.800000 0 0 1
6.466606 7.743850 28.318097 30.061584 0.875038 0.342247 0.064888 -0.029183 -269989.000000 0 0 1
5.534506 6.915350 27.657807 29.041472 0.895859 0.309928 0.089349 -0.029558 -75541.600000 0 0 1
5.106206 5.678050 28.483977 29.489838 0.838374 0.261933 0.099960 -0.032456 381155.000000 0 0 1
6.162606 4.717450 28.653697 29.686132 0.653345 0.264506 0.074526 -0.033939 722885.000000 0 0 1
5.765006 3.857850 29.672277 30.472321 0.589743 0.229654 0.086202 -0.034515 -150693.000000 0 0 1
6.854706 2.849750 30.025997 30.930059 0.393998 0.242375 0.117015 -0.018875 -68765.200000 0 0 1
6.679606 1.692650 29.185907 29.988321 0.248181 0.231852 0.114016 -0.016633 189444.000000 0 0 1
7.639206 1.621250 28.140937 29.204422 0.209125 0.270697 0.096444 -0.015033 -120317.000000 0 0 1
7.660806 0.211050 27.477887 28.526598 0.027542 0.271993 0.091102 -0.018560 -36031.600000 0 0 1
8.245306 -0.764650 28.335057 29.520251 -0.092473 0.284324 0.061174 -0.024000 36286.700000 0 0 1
8.041906 -2.057950 27.952307 29.158856 -0.250527 0.288676 0.087100 -0.029326 -594522.000000 0 0 1
8.671706 -3.042050 28.983797 30.405806 -0.337389 0.307040 0.061193 -0.016744 424935.000000 0 0 1
10.037606 -2.779550 29.248787 31.047882 -0.270144 0.342094 0.043643 -0.016686 383570.000000 0 0 1
10.977306 -3.377350 28.348167 30.586375 -0.298475 0.384934 0.066285 -0.011746 -848931.000000 0 0 1
12.396106 -3.404150 28.865237 31.598316 -0.268008 0.418977 0.053565 -0.009913 -666013.000000 0 0 1
13.197606 -4.435350 28.340977 31.576259 -0.324214 0.456636 0.069755 -0.017761 30025.600000 0 0 1
13.369506 -5.571850 29.201947 32.596670 -0.394869 0.460441 0.081035 -0.020793 -248596.000000 0 0 1
12.597906 -6.852050 28.801357 32.174151 -0.498151 0.461982 0.093322 -0.023181 -472879.000000 0 0 1
11.217706 -6.652150 28.805477 31.620303 -0.535260 0.425141 0.091982 -0.023781 -896982.000000 0 0 1
10.542706 -7.878150 28.600467 31.483339 -0.641746 0.431279 0.114855 -0.032955 184909.000000 0 0 1
9.043706 -7.737550 28.256967 30.661286 -0.707721 0.398653 0.136028 -0.034878 -70601.300000 0 0 1
8.263106 -7.236550 29.308167 31.298806 -0.719264 0.358572 0.157725 -0.036076 127546.000000 0 0 1
6.887306 -7.387750 28.949577 30.660917 -0.820441 0.335685 0.147819 -0.035844 295870.000000 0 0 1
5.954606 -6.958750 30.092567 31.455431 -0.863002 0.295443 0.131933 -0.036640 -256078.000000 0 0 1
5.938106 -7.858250 31.207877 32.725293 -0.923687 0.305716 0.128087 -0.037471 -15251.700000 0 0 1
5.330306 -7.292850 32.345206 33.582885 -0.939635 0.272335 0.133390 -0.032657 -529857.000000 0 0 1
6.186006 -6.350850 33.179404 34.343454 -0.798546 0.261104 0.123088 -0.018597 -237997.000000 0 0 1
6.385206 -5.111050 32.505100 33.518282 -0.675016 0.246501 0.127728 -0.018981 -77613.900000 0 0 1
6.887106 -4.055650 33.368035 34.311897 -0.532200 0.235097 0.086819 -0.007895 52105.700000 0 0 1
7.017606 -2.754650 32.641906 33.501178 -0.374054 0.226978 0.083709 -0.020799 -335591.000000 0 0 1
5.819306 -2.258850 32.110050 32.711191 -0.370262 0.192009 0.119138 -0.029465 -413224.000000 0 0 1
6.033206 -1.088350 31.378117 31.971398 -0.178474 0.192947 0.102968 -0.016186 -625940.000000 0 0 1
4.707306 -0.620950 30.833397 31.196838 -0.131155 0.152791 0.132680 -0.026312 -204924.000000 0 0 1
3.790606 -0.107750 31.795087 32.020429 -0.028418 0.118707 0.118032 -0.020626 -694809.000000 0 0 1
2.763706 0.653350 31.321237 31.449719 0.232142 0.090422 0.132810 -0.024645 -908749.000000 0 0 1
1.613606 0.837850 32.289606 32.340754 0.478922 0.056249 0.119702 -0.027420 -89175.100000 0 0 1
2.010906 1.861250 33.254451 33.367147 0.746768 0.082211 0.103115 -0.024595 703750.000000 0 0 1
1.000506 2.005750 -33.577696 33.652425 1.108094 3.074938 0.077853 -0.028543 569111.000000 0 0 1
1.398206 3.118150 -32.552906 32.731781 1.149266 3.036999 0.074690 -0.025652 -462672.000000 0 0 1
2.371106 2.787550 -31.639446 31.850386 0.865951 3.026439 0.045786 -0.009129 -676942.000000 0 0 1
2.691006 3.982750 -30.950036 31.321055 0.976590 2.987520 0.042368 -0.011146 -791364.000000 0 0 1
3.720906 3.752550 -29.891546 30.355086 0.789632 2.966609 0.035138 -0.009857 -715842.000000 0 0 1
3.219406 3.058550 -28.783206 29.123740 0.759781 2.988521 0.040321 -0.020112 119259.000000 0 0 1
4.159406 3.060250 -27.744656 28.221122 0.634313 2.957576 0.055756 -0.026049 45136.700000 0 0 1
3.544706 2.321350 -26.508836 26.845334 0.579797 2.983093 0.037267 -0.029435 45153.200000 0 0 1
3.794506 0.957150 -26.584826 26.871311 0.247092 2.995439 0.063697 -0.031813 159658.000000 0 0 1
3.384706 0.250250 -25.416206 25.641809 0.073801 3.008843 0.065926 -0.034031 -303862.000000 0 0 1
3.852806 -1.237250 -25.324836 25.646095 -0.310727 2.983145 0.075376 -0.034118 504319.000000 0 0 1
5.249406 -1.403450 -25.107186 25.688455 -0.261244 2.928457 0.081894 -0.039840 290465.000000 0 0 1
5.606406 -2.772750 -24.982566 25.753612 -0.459293 2.896277 0.089740 -0.034943 -244767.000000 0 0 1
7.026506 -2.869250 -24.422666 25.574811 -0.387681 2.840288 0.105364 -0.044578 -574179.000000 0 0 1
8.043406 -2.405150 -25.230516 26.590601 -0.290559 2.820373 0.112293 -0.046349 -951439.000000 0 0 1
9.279306 -2.922350 -24.794166 26.634494 -0.305099 2.767677 0.093909 -0.043340 35172.000000 0 0 1
-30.190464 -4.535350 18.052617 35.467316 0.149110 1.036782 0.142599 -0.011850 -27034.100000 0 0 1
-31.520844 -4.615450 17.596117 36.393534 0.145392 1.066152 0.138331 -0.020918 22727.300000 0 0 1
-32.255124 -5.230850 18.684517 37.641280 0.160771 1.051368 0.122866 -0.025545 -230909.000000 0 0 1
-33.709984 -4.865350 18.898817 38.951251 0.143340 1.064214 0.113603 -0.024008 -544028.000000 0 0 1
-34.616950 -5.093450 17.853217 39.281215 0.146089 1.098988 0.102042 -0.024627 96480.400000 0 0 1
-35.943657 -4.902950 18.300317 40.631109 0.135570 1.103581 0.091937 -0.025611 262201.000000 0 0 1
-37.007734 -4.882550 17.173617 41.089473 0.131176 1.139601 0.070140 -0.028886 -271731.000000 0 0 1
36.124245 -4.948750 17.580117 40.478534 -0.136145 1.121527 0.074450 -0.029162 -926835.000000 0 0 1
35.235855 -4.650550 16.526917 39.196073 -0.131225 1.135535 0.064689 -0.030251 823814.000000 0 0 1
33.788205 -5.183950 16.887717 38.127564 -0.152238 1.111936 0.062984 -0.028253 660492.000000 0 0 1
33.207715 -4.464350 17.962817 38.017701 -0.133636 1.078687 0.068026 -0.033830 -19550.100000 0 0 1
32.108175 -5.228050 18.406617 37.377413 -0.161410 1.055890 0.097755 -0.031841 -387299.000000 0 0 1
31.416925 -4.708050 19.654317 37.356139 -0.148750 1.016749 0.084187 -0.020093 -1320.550000 0 0 1
30.461725 -3.665350 19.521517 36.365384 -0.119751 1.004138 0.089980 -0.015084 425555.000000 0 0 1
31.043275 -2.397850 19.182617 36.570581 -0.077089 1.018625 0.087387 -0.022484 184485.000000 0 0 1
30.183485 -1.203450 19.698117 36.062542 -0.039850 0.992950 0.108023 -0.005858 388652.000000 0 0 1
30.706525 0.066150 19.331817 36.285179 0.002154 1.008921 0.101667 -0.014600 60002.900000 0 0 1
29.907675 1.042250 19.966517 35.975230 0.034835 0.982425 0.102227 -0.008646 239692.000000 0 0 1
29.986805 2.424250 19.312417 35.749894 0.080668 1.000111 0.090364 -0.018039 -169325.000000 0 0 1
29.495685 2.335050 18.032417 34.649906 0.079001 1.023457 0.095352 -0.018857 -166353.000000 0 0 1
29.459435 3.610050 17.444817 34.426915 0.121935 1.039420 0.092693 -0.020040 252453.000000 0 0 1
28.679665 3.566350 16.087817 33.076577 0.123716 1.062853 0.102663 -0.024663 157467.000000 0 0 1
28.738265 4.752250 15.341017 32.921400 0.163880 1.086044 0.106387 -0.019553 79913.300000 0 0 1
28.177365 4.559650 14.082917 31.828963 0.160429 1.112461 0.112869 -0.024369 -514433.000000 0 0 1
27.744265 5.816150 13.307117 31.315351 0.206642 1.131902 0.124254 -0.019170 -279830.000000 0 0 1
26.579365 6.457250 13.755817 30.616683 0.238325 1.104824 0.113129 -0.020838 -133327.000000 0 0 1
26.360165 7.660650 13.121817 30.425745 0.282824 1.124893 0.131992 -0.040571 -132414.000000 0 0 1
25.057765 8.295850 13.706217 29.741774 0.319711 1.091854 0.126692 -0.042711 -418747.000000 0 0 1
23.837065 7.758450 13.373317 28.412055 0.314665 1.080722 0.119060 -0.032111 -254743.000000 0 0 1
23.481865 6.447250 13.807717 27.993179 0.267960 1.054971 0.130700 -0.031524 -1412440.000000 0 0 1
22.062565 5.924550 13.619117 26.595816 0.262345 1.033195 0.136839 -0.024946 -675957.000000 0 0 1
21.663565 5.682350 12.301217 25.552282 0.256521 1.068529 0.151771 -0.035944 194780.000000 0 0 1
20.519765 4.892250 12.221817 24.379657 0.234047 1.045682 0.138252 -0.029780 -395080.000000 0 1 0
19.907765 4.533650 10.808617 23.101933 0.223914 1.083921 0.130853 -0.031335 -192015.000000 0 1 0
20.818665 3.761750 10.091317 23.439332 0.178762 1.125717 0.139816 -0.034642 498538.000000 0 1 0
20.390365 3.506450 8.778417 22.474937 0.170300 1.169527 0.142046 -0.036525 1017030.000000 0 1 0
21.649265 2.928650 7.982617 23.259189 0.134461 1.220472 0.138746 -0.032514 212278.000000 0 1 0
21.933765 1.578450 8.255117 23.488902 0.071841 1.211679 0.135890 -0.038879 914009.000000 0 1 0
22.833365 0.967750 7.316917 23.996591 0.042358 1.260947 0.133878 -0.028936 743773.000000 0 1 0
24.343265 1.333750 7.548417 25.521600 0.054735 1.270539 0.133426 -0.027679 142089.000000 0 0 1
25.011465 0.705450 8.654817 26.475969 0.028198 1.237782 0.137242 -0.017880 648192.000000 0 0 1
25.450865 1.784350 9.503817 27.225962 0.069995 1.214216 0.138619 -0.021258 -143870.000000 0 0 1
26.182865 1.397150 10.826017 28.367184 0.053311 1.179228 0.115943 -0.012374 -194767.000000 0 0 1
27.531565 1.007950 10.711317 29.559015 0.036594 1.199986 0.132647 -0.022669 278147.000000 0 0 1
28.064465 0.443150 11.930617 30.498364 0.015789 1.168873 0.127718 -0.017356 -193059.000000 0 0 1
29.582655 0.357850 12.079317 31.955773 0.012096 1.183160 0.147924 -0.024032 -148698.000000 0 0 1
30.234195 1.584950 12.368117 32.704571 0.052374 1.182970 0.133704 -0.017364 -290610.000000 0 0 1
31.521425 1.402750 12.857817 34.071857 0.044472 1.183838 0.126870 -0.023495 -281407.000000 0 0 1
32.307495 2.728650 13.242317 35.022546 0.084259 1.183044 0.111297 -0.025203 131207.000000 0 0 1
32.891125 3.418850 12.183217 35.241246 0.103573 1.217802 0.110873 -0.034209 183080.000000 0 0 1
33.323935 4.722050 12.546217 35.919215 0.140764 1.213983 0.101718 -0.033531 -336532.000000 0 0 1
34.676765 5.052250 11.875417 37.000390 0.144678 1.244060 0.111567 -0.025704 294396.000000 0 0 1
35.668495 4.218150 12.517317 38.035741 0.117713 1.235453 0.110057 -0.024598 749512.000000 0 0 1
36.988955 4.324050 12.012417 39.130275 0.116373 1.258773 0.115020 -0.020054 251610.000000 0 0 1
-36.481784 3.390750 12.742217 38.791518 -0.092677 1.236103 0.142389 -0.012928 -590151.000000 0 0 1
-36.431164 1.997750 12.459117 38.554511 -0.054781 1.241734 0.137836 -0.015807 480594.000000 0 0 1
36.896265 1.189650 12.774017 39.063092 0.032232 1.237659 0.126155 -0.015041 -54700.100000 0 0 1
36.637015 0.905250 14.270617 39.328627 0.024704 1.199466 0.115293 -0.014735 -246267.000000 0 0 1
-37.020204 -0.049650 14.949217 39.924642 0.001341 1.187008 0.108095 -0.018010 238235.000000 0 0 1
37.018745 -0.258550 16.254317 40.430894 -0.006984 1.157067 0.104603 -0.022070 -257552.000000 0 0 1
-36.479374 -1.256050 17.001017 40.266077 0.034418 1.134907 0.109223 -0.018866 636865.000000 0 0 1
-35.246324 -0.510050 17.114817 39.185207 0.014470 1.118794 0.134833 -0.015927 510005.000000 0 0 1
-34.233199 -1.145250 17.872417 38.634787 0.033442 1.089872 0.133059 -0.015265 123250.000000 0 0 1
-34.375291 -1.079350 19.428917 39.500740 0.031389 1.056569 0.120578 -0.020500 -224942.000000 0 0 1
-35.357969 -1.963150 19.949217 40.644940 0.055465 1.057769 0.110745 -0.027737 210683.000000 0 0 1
-35.476624 -1.760350 21.340017 41.437737 0.049579 1.029800 0.105287 -0.030086 199532.000000 0 0 1
-35.836799 -3.104550 22.066217 42.199909 0.086414 1.020550 0.085535 -0.032724 16491.000000 0 0 1
-34.792873 -4.057250 21.879817 41.300505 0.116087 1.012466 0.108131 -0.029546 234862.000000 0 0 1
-34.985575 -5.336750 22.401617 41.884410 0.151375 1.006473 0.100750 -0.034542 -260944.000000 0 0 1
-35.170298 -5.496850 23.937557 42.897224 0.155038 0.978797 0.099879 -0.042699 842304.000000 0 0 1
-34.057805 -4.919250 24.685977 42.350095 0.143446 0.948500 0.113185 -0.037529 474054.000000 0 0 1
-34.218270 -4.931950 26.105347 43.320933 0.143146 0.924037 0.109432 -0.043573 -426187.000000 0 0 1
-33.254724 -4.026050 26.857457 42.934936 0.120481 0.894975 0.110078 -0.036558 -325862.000000 0 0 1
-33.372014 -2.643950 26.725087 42.835874 0.079061 0.897080 0.101824 -0.027059 -192172.000000 0 0 1
-32.808164 -2.219150 25.479517 41.599351 0.067537 0.911580 0.088534 -0.028187 -189879.000000 0 0 1
-32.651554 -0.706050 25.277127 41.298373 0.021620 0.912132 0.092265 -0.022631 365812.000000 0 0 1
-33.862804 0.018550 25.059217 42.126645 -0.000548 0.933712 0.091176 -0.026499 346193.000000 0 0 1
-33.676784 1.399350 24.920697 41.918076 -0.041528 0.934141 0.085806 -0.012664 458243.000000 0 0 1
-35.019112 1.982050 24.387977 42.720489 -0.056539 0.963227 0.077538 -0.012917 600966.000000 0 0 1
-35.450473 1.605950 23.060347 42.321327 -0.045270 0.994542 0.085355 -0.016377 -50470.300000 0 0 1
-36.607984 2.333950 22.704117 43.140106 -0.063669 1.016567 0.064754 -0.002760 -41883.500000 0 0 1
-36.311684 3.597050 21.911717 42.562901 -0.098738 1.030013 0.064458 -0.002895 -285332.000000 0 0 1
-35.661788 3.306250 20.721517 41.377236 -0.092447 1.046279 0.073384 -0.013894 -168966.000000 0 0 1
-36.514454 2.899650 19.649317 41.566922 -0.079245 1.078427 0.082647 -0.021984 96708.800000 0 0 1
-35.754162 2.386150 18.425017 40.293114 -0.066639 1.095868 0.106338 -0.018064 -172022.000000 0 0 1
-35.167623 3.353750 17.578217 39.458878 -0.095077 1.109084 0.123822 -0.018617 6973.260000 0 0 1
-34.822038 2.726650 16.347217 38.564757 -0.078143 1.133060 0.148621 -0.009945 -299520.000000 0 0 1
-33.710554 3.571850 15.691317 37.354745 -0.105563 1.137282 0.149300 -0.013074 34602.500000 0 0 1
-34.244806 4.803750 15.198617 37.772751 -0.139367 1.156692 0.147939 -0.018151 102837.000000 0 0 1
-33.306334 5.461750 14.401017 36.695121 -0.162539 1.167502 0.167463 -0.016264 -112644.000000 0 0 1
-33.933824 6.711150 13.741317 37.220528 -0.195252 1.192663 0.175366 -0.025048 424964.000000 0 0 1
-32.918964 7.363950 12.984517 36.145313 -0.220076 1.203353 0.196908 -0.022678 501544.000000 0 0 1
-33.385514 8.537050 12.420117 36.629675 -0.250347 1.224865 0.173673 -0.025496 -163216.000000 0 0 1
-32.338914 9.202650 11.521517 35.542080 -0.277240 1.240667 0.196119 -0.030460 120368.000000 0 0 1
-32.721124 10.569050 11.258617 36.181946 -0.312425 1.254376 0.168771 -0.015276 609043.000000 0 0 1
-31.680554 11.246950 10.546317 35.233169 -0.341132 1.266807 0.162008 -0.021926 84088.100000 0 0 1
-31.904614 12.776050 10.487117 35.932040 -0.380890 1.274626 0.149905 -0.015671 -155470.000000 0 0 1
-31.080624 13.434350 9.578317 35.188508 -0.407989 1.295118 0.142885 -0.012599 -48022.500000 0 0 1
-31.334114 14.795250 9.635517 35.966225 -0.441143 1.299579 0.122170 -0.016661 -163602.000000 0 0 1
-30.555704 15.576950 8.567917 35.351119 -0.471448 1.325992 0.128678 -0.021013 -380024.000000 0 0 1
-29.167164 15.500250 8.755017 34.170624 -0.488473 1.311692 0.154153 -0.015426 -527169.000000 0 0 1
-28.471714 16.291950 7.825917 33.724044 -0.519739 1.336604 0.124807 -0.032982 -55417.400000 0 0 1
-27.034344 16.448450 8.403117 32.741711 -0.546593 1.311243 0.122348 -0.025192 -124819.000000 0 0 1
-26.763724 16.949950 9.719417 33.137061 -0.564559 1.273109 0.104536 -0.024458 263367.000000 0 0 1
-27.367574 18.254650 9.906317 34.356244 -0.588245 1.278302 0.107008 -0.037566 -175592.000000 0 0 1
-27.287594 18.811750 11.374617 35.041071 -0.603569 1.240199 0.123303 -0.026088 -428984.000000 0 0 1
-26.073674 18.952050 12.070517 34.419676 -0.628530 1.212492 0.114127 -0.021108 -305688.000000 0 0 1
-26.197014 19.225650 13.452317 35.169220 -0.633109 1.178293 0.108764 -0.034096 -104362.000000 0 0 1
-26.537964 18.058950 14.396717 35.180317 -0.597515 1.149190 0.096864 -0.030088 -112842.000000 0 0 1
-25.448794 17.181150 14.532617 33.971017 -0.593836 1.128745 0.088082 -0.025137 -14306.300000 0 0 1
-25.772394 16.055050 15.346617 34.022046 -0.557128 1.102823 0.081900 -0.018138 313577.000000 0 0 1
-24.546394 15.159350 15.702617 32.846667 -0.553245 1.072354 0.076078 -0.009173 382064.000000 0 0 1
-23.762994 15.622750 16.777417 33.018660 -0.581588 1.037797 0.075352 -0.010973 -60982.500000 0 0 1
-22.723894 14.774750 17.221017 32.112802 -0.576506 1.004789 0.064877 -0.014283 64430.200000 0 0 1
-23.159894 13.619950 18.146917 32.422127 -0.531611 0.976763 0.077592 -0.015447 -225041.000000 0 0 1
-23.142294 14.040550 19.510117 33.366862 -0.545335 0.946267 0.084122 -0.016208 37260.000000 0 0 1
-23.195194 12.935450 20.378817 33.475948 -0.508719 0.916300 0.095097 -0.019008 -438963.000000 0 0 1
-22.808994 13.319050 21.865417 34.289120 -0.528526 0.879316 0.097730 -0.013083 528247.000000 0 0 1
-21.450194 13.693250 22.089817 33.698308 -0.568159 0.855929 0.097237 -0.012635 434118.000000 0 0 1
-21.150794 15.045950 21.784117 33.886346 -0.618313 0.872572 0.088186 0.001309 -952962.000000 0 0 1
-19.704394 15.425050 22.028317 33.338297 -0.664179 0.848977 0.086875 -0.013919 -588504.000000 0 0 1
-18.760194 14.898050 21.142017 31.951239 -0.671152 0.847717 0.065956 -0.011270 -146669.000000 0 0 1
-18.114094 15.928350 20.385017 31.581350 -0.721280 0.869149 0.063512 -0.024360 -467138.000000 0 0 1
-16.830294 15.380950 19.702617 30.133462 -0.740434 0.858141 0.061135 -0.014243 565010.000000 0 0 1
-15.793094 14.932250 20.563917 29.921039 -0.757388 0.813068 0.044675 -0.008417 222809.000000 0 0 1
-15.027794 15.942950 21.179917 30.472958 -0.814939 0.802321 0.031296 -0.009065 210160.000000 0 0 1
-13.886194 15.530650 22.219917 30.459025 -0.841242 0.753203 -0.005271 -0.009960 1106060.000000 0 0 1
-12.682794 15.113950 21.562317 29.227013 -0.872638 0.741061 0.020091 -0.006312 181380.000000 0 0 1
-11.721894 14.823350 22.563917 29.432378 -0.901707 0.697211 0.026858 -0.010720 79700.400000 0 0 1
-10.553994 13.969450 22.040917 28.148434 -0.923781 0.671282 0.042513 -0.020246 -1678060.000000 0 0 1
-10.147594 13.036850 22.990567 28.310763 -0.909379 0.623091 0.051474 -0.025614 42591.800000 0 0 1
-9.086194 12.172550 22.637317 27.261292 -0.929571 0.591001 0.063086 -0.008334 692816.000000 0 0 1
-7.675494 12.849550 22.597217 27.104582 -1.032338 0.585013 0.063269 -0.009755 -414573.000000 0 0 1
-7.608994 13.894550 21.649217 26.826180 -1.069779 0.631711 0.051844 -0.007083 -292317.000000 0 0 1
-6.751294 14.968450 22.045417 27.488814 -1.147082 0.640198 0.053838 -0.000431 81163.300000 0 0 1
-7.541794 16.051550 22.785817 28.874286 -1.131560 0.661391 0.065296 -0.026787 -330841.000000 0 0 1
-8.561994 16.723750 22.119417 29.021719 -1.097622 0.704141 0.025413 -0.017307 -589477.000000 0 0 1
-8.205294 17.506550 20.996617 28.542321 -1.132502 0.744199 0.030147 -0.009303 -302590.000000 0 0 1
-9.392694 17.609750 19.970817 28.234014 -1.080802 0.785080 0.029090 0.002727 1078930.000000 0 0 1
-10.462294 18.519850 20.087917 29.256946 -1.056568 0.813990 0.001694 0.007910 -181795.000000 0 0 1
-11.320094 18.208050 21.159217 30.122916 -1.014568 0.791992 0.007956 0.000494 -409639.000000 0 0 1
-12.682094 18.970050 21.065517 31.055665 -0.981503 0.825330 -0.002024 0.000030 182176.000000 0 0 1
-13.461694 18.565050 19.971117 30.409272 -0.943416 0.854303 0.005877 0.000904 152531.000000 0 0 1
-14.691194 19.286450 20.033917 31.450853 -0.919826 0.880207 -0.014726 -0.006275 441510.000000 0 0 1
-15.513094 19.343450 18.725617 31.072076 -0.894848 0.923977 0.024684 -0.007036 -126592.000000 0 0 1
-16.214994 18.150650 18.359217 30.486603 -0.841664 0.924535 0.043813 -0.009339 260620.000000 0 0 1
-16.863194 18.525150 17.137617 30.352042 -0.832327 0.970814 0.057360 -0.021345 -41239.900000 0 0 1
-17.658994 17.347050 16.429417 29.710031 -0.776487 0.984845 0.060299 -0.025388 1574590.000000 0 0 1
-18.824194 16.755150 17.069317 30.437591 -0.727311 0.975448 0.061844 -0.023984 1040470.000000 0 0 1
-19.987994 17.523950 17.235817 31.680943 -0.719805 0.995547 0.070947 -0.025387 -208809.000000 0 0 1
34.911465 -9.849450 11.909934 38.179427 -0.274980 1.253555 0.081094 -0.037887 -759183.000000 0 0 1
33.525195 -10.004150 11.907734 36.956946 -0.289995 1.242738 0.086706 -0.027594 -429012.000000 0 0 1
33.151265 -11.307050 12.330734 37.133580 -0.328701 1.232305 0.108688 -0.030548 788896.000000 0 0 1
31.603215 -11.536150 12.210834 35.790368 -0.350002 1.222628 0.117668 -0.028406 972540.000000 0 0 1
30.717645 -10.621050 12.917634 34.974930 -0.332896 1.192498 0.126515 -0.021924 1253800.000000 0 0 1
29.362565 -11.079050 12.894434 33.928926 -0.360802 1.180954 0.121659 -0.023030 566151.000000 0 0 1
28.915865 -12.007350 14.003534 34.298727 -0.393584 1.150226 0.099347 -0.023595 -1222760.000000 0 0 1
28.979365 -11.404150 15.331034 34.711653 -0.374913 1.113339 0.103906 -0.027506 96564.100000 0 0 1
28.217865 -12.023550 16.358234 34.762127 -0.402800 1.080852 0.102192 -0.031745 746610.000000 0 0 1
26.693665 -11.682350 16.216034 33.346497 -0.412532 1.062959 0.089605 -0.042875 272917.000000 0 0 1
26.538165 -10.284950 16.549434 32.923217 -0.369731 1.044115 0.083083 -0.044726 -138244.000000 0 0 1
25.751865 -9.640550 15.554334 31.591709 -0.358212 1.056003 0.093074 -0.039307 30923.100000 0 0 1
25.693565 -8.135650 15.706934 31.193844 -0.306653 1.043120 0.106456 -0.041358 -240455.000000 0 0 1
26.909465 -7.455550 15.576034 31.973699 -0.270281 1.061971 0.101825 -0.034451 -409969.000000 0 0 1
26.790365 -6.129050 16.059134 31.830563 -0.224908 1.041971 0.086276 -0.034901 334515.000000 0 0 1
28.125765 -5.307850 16.009634 32.795432 -0.186525 1.060809 0.097255 -0.032058 395035.000000 0 0 1
28.301665 -4.844650 14.707334 32.260821 -0.169536 1.097426 0.113269 -0.029467 756028.000000 0 0 1
29.561195 -4.170350 14.601234 33.233299 -0.140150 1.115915 0.116526 -0.027737 460626.000000 0 0 1
29.796675 -3.480850 13.250634 32.795388 -0.116293 1.154868 0.129136 -0.029398 -130403.000000 0 0 1
30.334885 -4.353850 12.269534 33.010646 -0.142553 1.189974 0.117281 -0.030022 314914.000000 0 0 1
30.729075 -3.652550 11.112134 32.880035 -0.118308 1.226048 0.130745 -0.032237 -176403.000000 0 0 1
31.235735 -4.603850 10.039634 33.130965 -0.146337 1.262927 0.144599 -0.027914 259603.000000 0 0 1
32.609035 -4.972050 10.126934 34.505438 -0.151309 1.272923 0.137695 -0.035691 511614.000000 0 0 1
32.980665 -5.743750 8.975934 34.659520 -0.172426 1.308836 0.135965 -0.032548 -254922.000000 0 0 1
34.402915 -6.293350 9.072834 36.131471 -0.180930 1.316973 0.126658 -0.033200 -212598.000000 0 0 1
35.493615 -5.386750 9.016634 37.015044 -0.150617 1.324727 0.130226 -0.032003 136690.000000 0 0 1
36.617375 -6.181350 8.672334 38.134638 -0.167233 1.341375 0.126008 -0.044509 454591.000000 0 0 1
-36.606594 -5.408150 8.117334 37.883795 0.146676 1.354853 0.127610 -0.040672 688324.000000 0 0 1
-36.970744 -4.824750 6.888234 37.915193 0.129768 1.388107 0.120058 -0.033199 427908.000000 0 0 1
-35.948721 -3.868850 6.647334 36.762285 0.107209 1.388977 0.134654 -0.025352 266204.000000 0 0 1
-36.094294 -3.045750 5.362434 36.617350 0.084184 1.423823 0.126668 -0.033098 -326533.000000 0 0 1
-35.618639 -3.804150 4.282434 36.076284 0.106399 1.451811 0.140642 -0.039020 184821.000000 0 0 1
-35.752639 -3.106150 3.049034 36.016607 0.086661 1.486039 0.158547 -0.032159 -334040.000000 0 0 1
-35.021931 -3.883050 2.015434 35.294131 0.110424 1.513661 0.205019 -0.046274 -339067.000000 0 0 1
-35.675596 -5.074250 1.620534 36.071073 0.141285 1.525855 0.171600 -0.027808 -237581.000000 0 0 1
-36.412464 -4.949950 0.425034 36.749832 0.135113 1.559230 0.147115 -0.031943 -664047.000000 0 0 1
-35.737041 -4.912150 -0.928566 36.085004 0.136597 1.596532 0.189734 -0.038401 -1479600.000000 0 0 1
-35.246190 -6.179450 -1.284966 35.806852 0.173559 1.606690 0.167682 -0.029578 243933.000000 0 0 1
-34.282868 -6.133650 -2.327166 34.904905 0.177040 1.637517 0.160963 -0.029034 -793674.000000 0 0 1
-32.895584 -5.783050 -1.820166 33.449605 0.174022 1.625238 0.183998 -0.049613 -1640320.000000 0 0 1
-32.368594 -6.861250 -1.078166 33.105363 0.208881 1.603370 0.164792 -0.039660 268679.000000 0 0 1
-31.173464 -6.413950 -0.422366 31.829263 0.202919 1.584066 0.189274 -0.058360 375128.000000 0 0 1
-30.681804 -7.451750 0.568734 31.578871 0.238259 1.552785 0.156711 -0.046761 -233745.000000 0 0 1
-30.134184 -8.611550 -0.053866 31.340560 0.278354 1.572515 0.168017 -0.037437 822234.000000 0 0 1
-29.456554 -9.495350 0.885834 30.961830 0.311834 1.542182 0.146544 -0.022915 157529.000000 0 0 1
-28.793364 -10.714550 0.257334 30.723372 0.356242 1.562420 0.128507 -0.020521 -421732.000000 0 0 1
-27.772294 -10.458850 -0.671566 29.683983 0.360166 1.593422 0.140055 -0.034943 344587.000000 0 0 1
-27.163874 -11.710150 -1.126766 29.601913 0.407020 1.608869 0.127966 -0.022613 -240717.000000 0 0 1
-27.973654 -12.605350 -2.075266 30.752673 0.423365 1.638330 0.123675 -0.025949 -453061.000000 0 0 1
-28.826494 -13.490850 -1.400466 31.857983 0.437723 1.614770 0.135691 -0.026130 -18424.200000 0 0 1
-29.430714 -14.417650 -2.239466 32.848908 0.455522 1.639024 0.121184 -0.024711 -412990.000000 0 0 1
-30.219284 -15.502750 -1.532466 33.998365 0.474000 1.615886 0.129534 -0.023493 227287.000000 0 0 1
-29.328434 -16.357550 -0.783466 33.590777 0.508764 1.594122 0.113951 -0.014344 992449.000000 0 0 1
-30.030544 -16.937950 0.319534 34.479411 0.513546 1.561529 0.095204 -0.008726 384140.000000 0 0 1
-30.776904 -18.250350 0.053034 35.781223 0.535248 1.569314 0.113765 -0.016575 -260520.000000 0 0 1
-29.892594 -19.341950 0.073434 35.604544 0.574297 1.568734 0.117854 -0.024466 -84206.200000 0 0 1
-30.450214 -20.638450 0.102134 36.785480 0.595655 1.568020 0.116811 -0.028565 356488.000000 0 0 1
-31.434504 -21.026150 1.290434 37.840352 0.589539 1.536688 0.118595 -0.021182 553212.000000 0 0 1
-30.765984 -21.447750 2.506234 37.587670 0.608794 1.504070 0.112442 -0.023776 240098.000000 0 0 1
-31.676924 -21.957950 3.456934 38.697926 0.606137 1.481346 0.105828 -0.027936 7162.260000 0 0 1
-30.995884 -22.216450 4.805434 38.437061 0.621883 1.445447 0.097238 -0.027763 185677.000000 0 0 1
-30.539064 -21.003150 5.413734 37.457646 0.602455 1.425759 0.086975 -0.030292 143402.000000 0 0 1
-29.889874 -21.212250 6.669134 37.253744 0.617193 1.390807 0.076692 -0.029879 329998.000000 0 0 1
-29.631804 -19.874250 7.392034 36.437231 0.590794 1.366508 0.076147 -0.021392 464916.000000 0 0 1
-28.658674 -20.005550 8.431834 35.953267 0.609425 1.334069 0.072537 -0.028675 -94225.900000 0 0 1
-28.200514 -18.728750 8.810834 34.980936 0.586243 1.316179 0.102520 -0.034942 801925.000000 0 0 1
-26.948994 -18.934250 9.765734 34.352928 0.612466 1.282544 0.111949 -0.030050 488485.000000 0 0 1
-27.194374 -19.623550 10.949134 35.277489 0.625078 1.255212 0.108777 -0.030103 -250958.000000 0 0 1
-26.012274 -19.785350 11.694434 34.711068 0.650261 1.227165 0.096109 -0.019594 95225.900000 0 0 1
-25.472434 -18.572650 12.508034 33.915176 0.630008 1.193075 0.097006 -0.018836 -586610.000000 0 0 1
-24.748694 -17.615650 11.747534 32.570132 0.618589 1.201795 0.103207 -0.017603 158794.000000 0 0 1
-24.455694 -16.365950 12.430934 31.944536 0.589760 1.171097 0.093305 -0.016887 -163458.000000 0 0 1
-23.485794 -16.355950 13.574834 31.676107 0.608318 1.127908 0.076117 -0.004645 -433009.000000 0 0 1
-24.090394 -17.032250 14.710334 32.967234 0.615418 1.108270 0.081398 -0.017958 286756.000000 0 0 1
-23.306694 -16.910450 15.881034 32.884229 0.627676 1.066790 0.073524 -0.013166 -214216.000000 0 0 1
-23.880894 -17.603950 17.112534 34.249598 0.635230 1.047611 0.056004 0.020321 479324.000000 0 0 1
-25.071474 -16.986550 17.628434 35.041167 0.595482 1.043640 0.059995 0.000886 461655.000000 0 0 1
-25.867384 -17.951350 18.250334 36.392956 0.606672 1.045488 0.043459 0.017639 124873.000000 0 0 1
-27.062264 -17.399850 19.098834 37.415055 0.571408 1.035078 0.051229 0.009829 124023.000000 0 0 1
-26.662394 -16.745050 20.253734 37.436529 0.560782 0.999152 0.061599 -0.001361 -189026.000000 0 0 1
-27.608514 -15.778150 20.628534 37.904043 0.519197 0.995325 0.064890 -0.009316 -176559.000000 0 0 1
-27.172164 -15.070750 21.963534 38.050635 0.506398 0.955478 0.071433 -0.014183 -650962.000000 0 0 1
-25.983424 -14.375150 21.911734 36.904029 0.505330 0.935086 0.071599 -0.017558 -749213.000000 0 0 1
-25.525194 -14.102250 23.204934 37.267653 0.504748 0.898664 0.053715 -0.019155 166994.000000 0 0 1
-24.112594 -13.474050 23.407234 36.205881 0.509572 0.867804 0.062389 -0.004625 428649.000000 0 0 1
-24.088894 -12.140250 22.919834 35.397447 0.466824 0.866498 0.083974 -0.020117 -411721.000000 0 0 1
-23.028194 -11.909750 22.058634 34.040024 0.477298 0.865814 0.093937 -0.017777 -785604.000000 0 0 1
-22.650394 -10.426250 21.933734 33.208971 0.431396 0.849344 0.100263 -0.017235 463362.000000 0 0 1
-21.883394 -9.887950 23.030134 33.272234 0.424389 0.806301 0.101447 -0.023677 1114760.000000 0 0 1
-20.458494 -10.013550 23.054434 32.408766 0.455178 0.779359 0.086067 -0.024781 758211.000000 0 0 1
-19.819294 -9.992650 24.464334 33.032728 0.466992 0.736820 0.094509 -0.029119 11204.400000 0 0 1
-20.058394 -11.192050 25.158034 34.066521 0.508944 0.739957 0.107581 -0.030117 -185741.000000 0 0 1
-19.281694 -11.361550 26.306834 34.538646 0.532470 0.704919 0.112918 -0.031665 -762419.000000 0 0 1
-19.672094 -12.656250 27.076234 35.781202 0.571694 0.712520 0.100925 -0.048493 536686.000000 0 0 1
-20.891094 -12.576150 27.836434 37.006276 0.541879 0.719389 0.106572 -0.041529 843366.000000 0 0 1
-22.035894 -12.953350 27.054634 37.219929 0.531423 0.757020 0.092461 -0.038088 434417.000000 0 0 1
-23.355994 -13.095050 27.846034 38.631392 0.511000 0.765821 0.084173 -0.037323 169712.000000 0 0 1
-23.555694 -14.216250 28.685134 39.746816 0.543001 0.764546 0.073776 -0.035671 -77833.000000 0 0 1
-22.696594 -14.247250 29.847834 40.112501 0.560557 0.731605 0.075863 -0.026607 -154629.000000 0 0 1
-22.936094 -15.306150 30.876334 41.396747 0.588468 0.728966 0.060147 -0.032623 -1129440.000000 0 0 1
-22.535194 -16.635450 30.519334 41.424666 0.635905 0.742555 0.052104 -0.028693 -133543.000000 0 0 1
-22.826094 -17.608450 31.504534 42.703908 0.657068 0.741075 0.059079 -0.030924 902722.000000 0 0 1
-24.255794 -17.888550 32.143734 44.063175 0.635450 0.753217 0.065741 -0.027573 850338.000000 0 0 1
-24.694594 -16.925150 33.075134 44.612198 0.600845 0.735654 0.082447 -0.033127 -445785.000000 0 0 1
-26.021464 -17.265350 33.397234 45.722906 0.585810 0.751850 0.092388 -0.042793 -539990.000000 0 0 1
-26.686184 -16.104450 -33.706148 45.908715 0.542971 2.395283 0.092717 -0.042002 -227227.000000 0 0 1
-26.273584 -15.849950 -32.386348 44.613873 0.542817 2.383175 0.099569 -0.044133 -225893.000000 0 0 1
-27.064564 -14.811650 -31.886348 44.369075 0.500746 2.372672 0.104186 -0.037807 -181769.000000 0 0 1
-26.549474 -14.210550 -30.576048 42.915137 0.491447 2.363818 0.097001 -0.029735 -251692.000000 0 0 1
-26.812674 -15.055050 -29.485748 42.602621 0.511622 2.335206 0.101485 -0.022492 390067.000000 0 0 1
-26.269184 -14.480950 -28.263548 41.214028 0.503804 2.326464 0.103526 -0.014081 32957.700000 0 0 1
-26.317964 -15.294050 -26.955848 40.659082 0.526426 2.295578 0.092913 -0.009711 791209.000000 0 0 1
-27.588294 -15.353450 -26.256948 41.064215 0.507836 2.264529 0.098631 -0.009477 1017200.000000 0 0 1
-27.814534 -14.265650 -25.380148 40.265481 0.473902 2.252762 0.098646 -0.013362 -237678.000000 0 0 1
-26.909134 -14.145050 -24.123748 38.809009 0.483964 2.241582 0.085735 -0.024939 -185253.000000 0 0 1
-25.606044 -13.704950 -24.451148 37.965165 0.491428 2.270566 0.067991 -0.027777 632330.000000 0 0 1
-24.568194 -14.035550 -23.530648 36.800601 0.519041 2.264526 0.057220 -0.022496 184936.000000 0 0 1
-23.936094 -15.388650 -23.614648 36.978355 0.571372 2.263483 0.056584 -0.018659 -811143.000000 0 0 1
-23.147794 -15.547450 -24.782748 37.305873 0.591452 2.297370 0.054808 -0.014193 194084.000000 0 0 1
-22.778194 -16.898650 -24.970848 37.788275 0.638283 2.292693 0.070202 -0.011665 -559131.000000 0 0 1
-22.051094 -17.282150 -26.267848 38.404730 0.664742 2.323993 0.068275 -0.013924 -186775.000000 0 0 1
-22.743994 -17.197950 -27.480248 39.600793 0.647428 2.337732 0.081373 -0.013352 -304990.000000 0 0 1
-23.884394 -17.992250 -27.659148 40.733448 0.645613 2.317234 0.095432 -0.014599 -493886.000000 0 0 1
-24.442994 -17.913250 -29.134548 42.037678 0.632440 2.336519 0.092665 -0.024501 -234624.000000 0 0 1
-23.674694 -18.619950 -30.048348 42.545234 0.666450 2.355009 0.099568 -0.023628 45879.900000 0 0 1
-24.072694 -18.356450 -31.389248 43.608930 0.651480 2.374295 0.089418 -0.024275 661295.000000 0 0 1
-22.894294 -18.791750 -32.366048 43.872994 0.687299 2.400485 0.086465 -0.030525 90068.400000 0 0 1
-21.766694 -17.942350 -32.321448 42.899801 0.689385 2.424040 0.084021 -0.025867 1128950.000000 0 0 1
-20.498494 -18.538750 -31.950448 42.245765 0.735238 2.428434 0.078910 -0.026237 1476370.000000 0 0 1
-20.005194 -19.728950 -32.873048 43.244382 0.778446 2.434370 0.077079 -0.025989 -1221730.000000 0 0 1
-19.979594 -19.299750 33.582834 43.582924 0.768092 0.691092 0.072091 -0.030746 329991.000000 0 0 1
-19.647494 -20.300550 32.668334 43.189772 0.801744 0.713019 0.069281 -0.023232 677658.000000 0 0 1
-20.969794 -20.907750 32.065634 43.647121 0.783917 0.745636 0.070770 -0.019551 1225040.000000 0 0 1
-21.869994 -21.603850 32.966534 45.075662 0.779276 0.750482 0.076256 -0.024409 1107690.000000 0 0 1
-23.149894 -21.940050 32.414034 45.474751 0.758573 0.777326 0.081479 -0.014442 604683.000000 0 0 1
-23.188094 -23.117950 31.419234 45.379462 0.783883 0.806032 0.085048 -0.006990 -615554.000000 0 0 1
-22.930794 -24.368650 32.014634 46.309710 0.815788 0.807488 0.088862 -0.006729 132333.000000 0 0 1
-22.881694 -25.411940 31.011534 46.163339 0.837743 0.834189 0.099938 0.001558 36644.600000 0 0 1
-22.380994 -26.699440 31.710034 47.109397 0.873159 0.832384 0.121466 -0.002184 379091.000000 0 0 1
-23.315594 -27.329010 32.600134 48.510416 0.864480 0.833859 0.096424 -0.008215 40857.600000 0 0 1
-22.693294 -28.339100 33.377234 49.316629 0.895582 0.827396 0.106530 -0.011089 -613779.000000 0 0 1
-23.650494 -29.234840 -33.658348 50.466881 0.890602 2.300890 0.095113 -0.009526 -768535.000000 0 0 1
-24.474994 -29.934810 33.261134 51.004129 0.885410 0.860411 0.090334 -0.008214 1507800.000000 0 0 1
-25.807794 -29.409280 32.992634 51.180679 0.850530 0.870256 0.074747 -0.003329 1044780.000000 0 0 1
-26.820834 -29.244170 -33.685648 52.050951 0.828595 2.274658 0.051164 -0.007554 -938320.000000 0 0 1
-27.905634 -28.469030 33.751434 52.233795 0.795392 0.868253 0.025398 0.006992 15839.700000 0 0 1
-28.814154 -28.035130 -33.078148 52.061385 0.771696 2.259282 0.027730 0.009299 -60361.100000 0 0 1
-29.911204 -27.122230 -33.570848 52.509974 0.736536 2.264414 0.011885 0.002611 -322333.000000 0 0 1
-30.849694 -27.759490 33.416934 53.282121 0.732721 0.892882 0.001344 -0.001165 391992.000000 0 0 1
-31.924254 -26.903790 33.005034 53.219397 0.700263 0.901838 0.011469 -0.006251 556914.000000 0 0 1
