# x y z rho theta phi s1 s2 stress_xx np intf bulk
-0.664561 -10.845222 -14.368137 18.013990 1.509596 2.494119 0.008494 -0.000212 -432086.000000 1 0 0
2.269439 -13.428522 -12.961937 18.801259 -1.403377 2.331482 -0.002755 0.005942 896354.000000 1 0 0
2.231439 -11.126722 -14.694737 18.566598 -1.372874 2.483992 -0.000053 0.004450 -544333.000000 1 0 0
-5.467161 -6.369422 -16.604337 18.605466 0.861477 2.673530 0.027423 0.000043 -735667.000000 1 0 0
4.690739 -13.993222 -11.407437 18.653228 -1.247353 2.228818 -0.003184 0.002708 -284053.000000 1 0 0
14.123439 -10.448722 -7.846637 19.241024 -0.636950 1.990848 0.046836 -0.017981 274202.000000 1 0 0
7.012439 10.808178 -10.802637 16.813327 0.995259 2.268558 0.031133 -0.015729 846567.000000 1 0 0
5.757839 -4.154222 -12.555937 14.424348 -0.625004 2.626949 0.003849 -0.004326 1210630.000000 1 0 0
13.718739 0.507778 -10.004137 16.986594 0.036997 2.200547 0.023530 -0.002977 1245730.000000 1 0 0
14.105939 5.139278 -10.303137 18.208358 0.349387 2.172256 0.013900 -0.000192 356777.000000 1 0 0
4.019539 4.319678 -13.426837 14.666160 0.821374 2.727540 0.006614 -0.002938 2160540.000000 1 0 0
10.476039 -5.036522 -13.698837 17.965858 -0.448142 2.437954 0.035707 -0.009676 -1167450.000000 1 0 0
2.600539 -7.553922 -11.950437 14.374890 -1.239241 2.552313 -0.001842 0.003769 2693340.000000 1 0 0
-5.604861 -2.028822 -15.093237 16.227642 0.347303 2.765466 0.016571 -0.005347 -701635.000000 1 0 0
10.736139 0.083178 -9.587837 14.394381 0.007747 2.299740 0.014528 -0.000974 809440.000000 1 0 0
-1.583561 -9.581122 -16.890137 19.482871 1.406998 2.619791 0.021308 -0.006983 544852.000000 1 0 0
8.748739 1.646278 -17.904537 19.995577 0.185998 2.680181 0.030060 -0.007380 499138.000000 1 0 0
16.616039 -5.945522 -8.761537 19.702957 -0.343623 2.031615 0.056364 -0.013926 -1111700.000000 1 0 0
10.126639 7.569278 -9.890737 16.052086 0.641875 2.234661 0.020708 -0.002477 1134590.000000 1 0 0
13.966939 -2.242822 -10.598637 17.675880 -0.159221 2.213810 0.042637 -0.007763 1670460.000000 1 0 0
7.314539 -1.847622 -13.671037 15.614526 -0.247420 2.637335 0.016274 -0.009129 326377.000000 1 0 0
-2.793761 6.592878 -13.878737 15.616993 -1.169981 2.665286 0.000591 -0.004854 70165.400000 1 0 0
11.184639 1.842278 -13.845237 17.893594 0.163249 2.455542 0.013791 -0.005237 1698110.000000 1 0 0
-2.381561 10.721778 -12.935637 16.969356 -1.352221 2.437646 0.008964 -0.003977 -714786.000000 1 0 0
2.945539 -0.964822 -15.168637 15.482074 -0.316540 2.940029 0.019260 -0.009111 1288950.000000 1 0 0
-9.001661 0.429978 -15.286437 17.745138 -0.047730 2.608902 0.019311 0.002037 -1020460.000000 1 0 0
2.472339 -1.782622 -17.903237 18.160839 -0.624699 2.972962 0.034068 -0.021684 1478370.000000 1 0 0
0.968139 7.900278 -13.128637 15.352941 1.448859 2.596582 0.003562 -0.006110 -652893.000000 1 0 0
9.423239 -8.992922 -9.804637 16.303404 -0.762036 2.216031 0.025752 -0.008830 -71248.100000 1 0 0
3.888139 7.308878 -13.402337 15.753093 1.081897 2.588254 0.005305 -0.006603 1666660.000000 1 0 0
-2.754461 9.033878 -15.476137 18.130329 -1.274847 2.593663 -0.002439 -0.004725 -463466.000000 1 0 0
5.542339 -7.504922 -15.265737 17.890894 -0.934700 2.593018 0.008921 -0.006700 874123.000000 1 0 0
4.161439 7.238278 -16.269137 18.286472 1.049021 2.667444 0.010588 -0.005019 -2978.560000 1 0 0
-0.268061 5.082678 -13.403237 14.337093 -1.518105 2.778673 0.004942 -0.008500 1286600.000000 1 0 0
8.754939 4.328878 -16.603137 19.262717 0.459198 2.609863 0.017175 -0.005084 -1788800.000000 1 0 0
5.360039 0.365778 -14.326837 15.301048 0.068136 2.782826 0.006840 -0.003420 111113.000000 1 0 0
6.233039 7.981078 -11.518537 15.337049 0.907763 2.420412 0.011356 -0.004540 -1817280.000000 1 0 0
2.846639 -8.317222 -14.950037 17.343100 -1.241035 2.610031 -0.000243 -0.002996 -2441.200000 1 0 0
3.961439 11.343578 -13.806637 18.302813 1.234814 2.425452 0.017986 -0.013336 -763201.000000 1 0 0
0.640439 -4.528122 -13.763037 14.502939 -1.430292 2.820790 0.009837 -0.002626 1462670.000000 1 0 0
8.557239 -0.124322 -11.621937 14.432990 -0.014527 2.506867 0.003661 -0.001576 428997.000000 1 0 0
-0.999261 -5.057522 -16.320637 17.115497 1.375730 2.835635 0.012123 -0.005086 914310.000000 1 0 0
4.497639 0.895778 -11.663537 12.532727 0.196594 2.766971 0.006586 -0.004281 -773862.000000 1 0 0
-2.882961 -7.249022 -15.628037 17.466978 1.192271 2.678598 0.017479 -0.001338 2083060.000000 1 0 0
11.512039 -3.709222 -11.340337 16.579765 -0.311701 2.324010 0.037416 -0.009480 1547150.000000 1 0 0
6.562339 -6.960122 -12.581937 15.805465 -0.814806 2.491536 0.007366 -0.003775 -467803.000000 1 0 0
3.462439 -3.941722 -14.630937 15.543164 -0.850040 2.797287 0.017451 -0.006156 2518050.000000 1 0 0
-0.514361 -1.496022 -18.232937 18.301438 1.239638 3.055045 0.031884 -0.019182 1231930.000000 1 0 0
14.952439 2.884378 -8.471937 17.426094 0.190563 2.078491 0.010415 0.001855 -1076770.000000 1 0 0
6.858239 4.327578 -14.263837 16.407937 0.562905 2.624632 0.004883 -0.001629 3213810.000000 1 0 0
10.184639 -9.608422 -13.914637 19.739953 -0.756294 2.353074 0.040412 -0.013027 -120065.000000 1 0 0
9.213339 -3.221422 -15.517237 18.331607 -0.336361 2.580125 0.030768 -0.014243 942894.000000 1 0 0
-5.311661 -2.223122 -17.980837 18.880320 0.396383 2.831675 0.019906 0.000110 -963072.000000 1 0 0
5.148139 -8.958522 -11.064437 15.138699 -1.049215 2.390394 -0.008930 0.002696 1892840.000000 1 0 0
-2.360961 3.947578 -17.008337 17.619337 -1.031791 2.877471 0.008840 -0.001088 1798800.000000 1 0 0
9.384539 9.356178 -14.484237 19.631626 0.783885 2.400603 0.043453 -0.010363 -215147.000000 1 0 0
9.764039 9.970278 -11.577537 18.132354 0.795849 2.263346 0.028032 -0.010661 365020.000000 1 0 0
12.148639 -5.889022 -9.631637 16.584282 -0.451371 2.190469 0.040721 -0.013107 118988.000000 1 0 0
8.123339 6.896278 -13.568537 17.252608 0.703882 2.475858 0.014622 -0.002839 1223600.000000 1 0 0
4.032839 -4.174222 -17.570037 18.503894 -0.802623 2.822536 0.035002 -0.015347 38573.200000 1 0 0
9.371839 -7.403922 -12.317537 17.157247 -0.668625 2.371607 0.028023 -0.009107 1470170.000000 1 0 0
12.076639 -8.580122 -8.745537 17.203142 -0.617720 2.104086 0.037623 -0.014632 757990.000000 1 0 0
-2.944161 -2.447322 -13.841037 14.360772 0.693505 2.871734 0.012613 -0.007404 -823832.000000 1 0 0
-0.344961 6.057178 -17.566637 18.584809 -1.513907 2.809048 0.004293 -0.003366 -62469.600000 1 0 0
1.107939 -8.416322 -17.343137 19.309231 -1.439907 2.686405 0.012847 -0.011831 1149630.000000 1 0 0
0.025739 8.504878 -15.933137 18.060965 1.567770 2.651281 -0.003704 -0.001565 990599.000000 1 0 0
1.767539 3.381678 -14.864737 15.346672 1.089169 2.890320 0.011194 -0.006059 1114270.000000 1 0 0
-1.943661 -0.442322 -15.758937 15.884507 0.223761 3.015770 0.018890 -0.009776 1808790.000000 1 0 0
14.257139 -4.284322 -8.428237 17.107209 -0.291919 2.085954 0.042588 -0.011427 -1300220.000000 1 0 0
0.519539 0.653578 -14.462837 14.486916 0.899164 3.083928 0.012540 -0.007721 1744050.000000 1 0 0
8.709539 2.728778 -12.411337 15.405959 0.303622 2.507516 0.006515 -0.003378 2071890.000000 1 0 0
6.050839 0.973178 -17.048037 18.116161 0.159468 2.796489 0.023875 -0.008410 298954.000000 1 0 0
15.244339 1.570878 -12.356237 19.685886 0.102684 2.249353 0.028270 -0.007656 -954558.000000 1 0 0
8.883939 -11.173422 -11.783337 18.509909 -0.899053 2.260873 0.026851 -0.005262 92145.100000 1 0 0
-4.629961 0.752778 -15.155137 15.864469 -0.161178 2.841429 0.013845 -0.004454 863635.000000 1 0 0
2.364739 5.042578 -17.235237 18.112784 1.132292 2.829037 0.009047 -0.007132 539547.000000 1 0 0
6.071639 -11.538522 -12.257337 17.895379 -1.086404 2.325323 0.002274 -0.001034 -200406.000000 1 0 0
12.821139 7.251978 -8.630437 17.072118 0.514761 2.100790 0.015354 -0.000732 120123.000000 1 0 0
-4.997261 3.572878 -15.719137 16.876888 -0.620701 2.769037 0.003042 -0.002537 1611710.000000 1 0 0
-0.562961 -4.234622 -19.072337 19.544896 1.438629 2.921246 0.033906 -0.019163 -412967.000000 1 0 0
9.753139 4.437078 -10.178737 14.778973 0.426953 2.330534 0.004012 0.000531 -2373.520000 1 0 0
13.317739 3.740078 -12.703437 18.781045 0.273782 2.313656 0.024727 -0.006784 1462440.000000 1 0 0
-6.067661 5.843478 -17.200537 19.152577 -0.766579 2.686180 0.006794 0.003671 -942560.000000 1 0 0
-10.122261 3.108178 -15.448937 18.729404 -0.297924 2.540732 0.026375 -0.001884 1550970.000000 1 0 0
10.613539 13.677678 -8.233337 19.170652 0.910877 2.014709 0.067088 -0.016398 -1264850.000000 1 0 0
7.336339 13.401378 -12.332337 19.634289 1.069927 2.249908 0.046498 -0.019941 1930890.000000 1 0 0
5.172239 15.114278 -11.278537 19.555021 1.241079 2.185552 0.023918 -0.021240 277539.000000 1 0 0
14.140039 9.565978 -9.724037 19.647023 0.594791 2.088559 0.052747 -0.011923 -69539.900000 1 0 0
8.444839 -17.221422 -2.043937 19.289125 -1.114884 1.676959 0.031957 -0.002732 794285.000000 1 0 0
0.744339 -15.924222 -0.116637 15.942035 -1.524088 1.578113 0.015141 -0.013610 2098280.000000 1 0 0
-9.209761 -11.637622 7.551463 16.651683 0.901335 1.100113 0.026255 -0.008659 -62294.500000 1 0 0
2.163939 -15.882222 -2.608537 16.239830 -1.435381 1.732121 0.006817 -0.004993 1866570.000000 1 0 0
-1.172261 -11.037922 -9.478737 14.596450 1.464990 2.277574 0.010949 0.001408 934670.000000 1 0 0
-4.723261 -12.695222 -12.964637 18.749924 1.214614 2.334291 0.038412 -0.004390 958791.000000 1 0 0
-8.144961 -17.678222 -1.835337 19.550662 1.139052 1.664811 0.031953 -0.028894 -1263090.000000 1 0 0
-11.479461 -7.160922 -8.908637 16.199402 0.557738 2.153084 0.022247 -0.004540 2410540.000000 1 0 0
-13.684661 -11.645822 -4.641337 18.559017 0.705082 1.823565 0.036870 -0.009701 594821.000000 1 0 0
-5.681661 -13.490522 9.729963 17.576907 1.172183 0.984157 0.022516 -0.006006 -13590.500000 1 0 0
0.224939 -13.981722 -3.720637 14.470048 -1.554710 1.830844 0.008628 -0.001978 1161130.000000 1 0 0
-14.772161 -11.558622 1.937063 18.856583 0.663954 1.467889 0.015565 -0.004735 -405346.000000 1 0 0
-3.835061 -16.515822 -7.489637 18.535769 1.342634 1.986752 0.013968 -0.013021 1877510.000000 1 0 0
0.636039 -15.303722 -9.249337 17.892978 -1.529259 2.114052 0.004940 0.006098 -743459.000000 1 0 0
4.692439 -14.220022 -2.557137 15.191016 -1.252059 1.739934 0.004618 0.003272 1052330.000000 1 0 0
-3.477261 -18.047222 -2.460337 18.543107 1.380453 1.703871 0.009588 -0.021113 1521280.000000 1 0 0
-0.920261 -13.472722 0.619163 13.518302 1.502597 1.524978 0.013512 -0.005768 2571680.000000 1 0 0
-8.490761 -11.385122 -10.525337 17.677577 0.930003 2.208567 0.028683 -0.007111 2308560.000000 1 0 0
-3.705961 -14.113422 -0.455937 14.598997 1.314009 1.602032 0.010224 -0.003933 4217530.000000 1 0 0
-1.420561 -14.912822 -7.295237 16.662255 1.475825 2.023980 0.003432 -0.001706 151348.000000 1 0 0
-14.230861 -7.926522 -1.785637 16.387058 0.508198 1.679979 0.016252 -0.008160 2579150.000000 1 0 0
-10.779761 -7.386822 -11.716037 17.550895 0.600757 2.301705 0.030878 -0.005394 137614.000000 1 0 0
-9.523661 -14.664822 6.838963 18.775744 0.994827 1.197975 0.014772 -0.005787 685346.000000 1 0 0
-2.439161 -14.332822 -12.247737 19.010164 1.402231 2.270869 0.036174 -0.004826 -367941.000000 1 0 0
2.384239 -17.827422 -4.788637 18.612700 -1.437845 1.831001 0.013678 -0.002234 -525731.000000 1 0 0
-6.579161 -9.729122 -9.231537 14.938623 0.976200 2.236947 0.027608 -0.007015 449677.000000 1 0 0
-11.096861 -15.466222 0.322963 19.038084 0.948428 1.553831 0.033722 -0.013976 1435270.000000 1 0 0
-12.650161 -11.079622 4.012163 17.288206 0.719310 1.336586 0.024742 -0.007392 1272210.000000 1 0 0
-17.110661 -8.920922 -1.594737 19.362354 0.480594 1.653252 0.024186 -0.012790 517291.000000 1 0 0
-1.295161 -19.333122 -3.968337 19.778644 1.503904 1.772805 0.002299 -0.011044 888450.000000 1 0 0
3.327339 -14.152122 -8.732437 16.959044 -1.339878 2.111703 -0.005350 0.004627 -171604.000000 1 0 0
-4.313461 -8.037422 -13.132037 15.989262 1.078243 2.534488 0.020509 0.002246 1516600.000000 1 0 0
5.510239 -16.672122 1.300063 17.607173 -1.251592 1.496892 0.023575 -0.010726 4678830.000000 1 0 0
-2.726461 -13.758322 -3.245737 14.396521 1.375163 1.798204 0.010373 -0.006267 -218345.000000 1 0 0
-0.467561 -13.992822 3.577063 14.450366 1.537394 1.320654 0.008207 -0.005390 -3461500.000000 1 0 0
1.144739 -16.218722 6.875563 17.653066 -1.500332 1.170726 0.016658 -0.010338 1569930.000000 1 0 0
-5.580761 -10.374322 -14.533637 18.708235 1.077259 2.460456 0.037191 -0.004835 334023.000000 1 0 0
-0.253361 -17.335122 -5.819137 18.287509 1.556182 1.894629 0.007538 -0.004426 -944856.000000 1 0 0
-6.564961 -13.389722 -1.352037 14.973689 1.114940 1.661214 0.015008 -0.005768 3135800.000000 1 0 0
-1.654061 -17.717422 -0.184337 17.795419 1.477708 1.581155 0.011405 -0.018368 2660180.000000 1 0 0
-9.510861 -9.785922 -4.891837 14.496579 0.799651 1.915001 0.023908 -0.007691 2460140.000000 1 0 0
-0.878861 -16.711922 4.728163 17.390120 1.518256 1.295442 0.026032 -0.013806 1517100.000000 1 0 0
-6.770661 -9.911122 -6.371037 13.589051 0.971477 2.058769 0.025499 -0.007618 3687940.000000 1 0 0
-5.972961 -14.640822 -8.601937 18.000646 1.183441 2.069023 0.026985 -0.013602 -904455.000000 1 0 0
-5.695761 -12.260522 -10.300437 16.995914 1.135900 2.221886 0.035802 -0.008845 1629920.000000 1 0 0
-10.632161 -12.371122 -8.782037 18.525973 0.860851 2.064669 0.031330 -0.015550 31458.400000 1 0 0
3.890039 -17.136922 6.454363 18.720719 -1.347581 1.218801 0.027229 -0.013689 140838.000000 1 0 0
-6.700661 -14.410522 -4.223337 16.443801 1.135552 1.830542 0.025750 -0.018993 65785.900000 1 0 0
-2.774261 -12.233422 -7.128637 14.428118 1.347791 2.087572 0.016188 -0.003174 4864140.000000 1 0 0
-7.035661 -12.819122 4.450663 15.285249 1.068843 1.275343 0.005360 -0.002795 2895820.000000 1 0 0
2.533339 -16.414822 2.329063 16.771664 -1.417672 1.431477 0.016706 -0.016419 1613980.000000 1 0 0
-6.256161 -11.993022 7.185963 15.316991 1.089979 1.082468 0.007710 -0.000905 3076850.000000 1 0 0
-11.265861 -12.834122 -1.004237 17.106806 0.850380 1.629534 0.029064 -0.005791 1133070.000000 1 0 0
-14.163161 -8.634022 4.564763 17.204027 0.547457 1.302249 0.012866 -0.011580 -551369.000000 1 0 0
-8.068961 -15.597422 4.371963 18.097010 1.093384 1.326798 0.006563 0.000811 474950.000000 1 0 0
-16.469561 -9.119822 1.193363 18.863767 0.505709 1.507492 0.011200 -0.008901 -498302.000000 1 0 0
-6.676761 -17.028722 2.216863 18.424739 1.197129 1.450184 0.007352 -0.009307 2414220.000000 1 0 0
-11.614361 -14.955822 -4.796937 19.534088 0.910501 1.818901 0.056086 -0.019419 611583.000000 1 0 0
-10.075761 -10.087822 -12.669137 19.073336 0.785996 2.297263 0.020605 0.002682 -1488930.000000 1 0 0
-4.307861 -15.950322 -4.589337 17.147374 1.307010 1.841740 0.014092 -0.016335 -346971.000000 1 0 0
-11.787161 -8.315122 -0.026937 14.424949 0.614367 1.572664 0.000359 -0.002052 3066650.000000 1 0 0
-9.633861 -11.263022 3.451063 15.217647 0.863203 1.342026 0.007224 0.001942 2364080.000000 1 0 0
-14.176261 -12.849722 -0.676237 19.145209 0.736354 1.606125 0.025796 -0.004629 -53736.500000 1 0 0
5.638639 -14.853522 -7.151537 17.423141 -1.207985 1.993757 -0.000599 -0.001356 42291.900000 1 0 0
-7.456961 -10.529622 -1.335437 12.971608 0.954596 1.673930 0.015919 -0.002718 2454740.000000 1 0 0
-11.766461 -8.321022 -6.100437 15.649420 0.615529 1.971231 0.021064 -0.007855 699245.000000 1 0 0
-14.456761 -6.670622 -9.210137 18.393525 0.432309 2.095235 0.031724 -0.012604 2540560.000000 1 0 0
-3.851761 -16.417522 1.389863 16.920485 1.340351 1.488563 0.003952 -0.010409 1967140.000000 1 0 0
-8.065561 -15.437422 0.125163 17.417891 1.089336 1.563610 0.025857 -0.015407 1005220.000000 1 0 0
0.911639 -18.620422 3.554863 18.978626 -1.521876 1.382375 0.021370 -0.020616 1113150.000000 1 0 0
-14.202461 -8.856322 -4.522837 17.337831 0.557575 1.834715 0.022703 -0.012211 486973.000000 1 0 0
-3.259961 -14.517522 11.066163 18.543079 1.349907 0.931312 0.003262 -0.008927 272946.000000 1 0 0
-10.875961 -12.163422 -3.834837 16.761305 0.841221 1.801632 0.035064 -0.017479 1016480.000000 1 0 0
-9.971961 -10.754022 0.528363 14.675427 0.823114 1.534785 0.011221 0.001394 994654.000000 1 0 0
0.034239 -13.226322 -11.118237 17.278656 -1.568208 2.269815 0.010895 -0.002200 631298.000000 1 0 0
-5.881061 -12.654022 -6.380137 15.343314 1.135737 1.999646 0.024215 -0.014924 2071890.000000 1 0 0
1.777439 -16.012522 9.812463 18.863843 -1.460246 1.023743 0.011728 -0.004983 -375949.000000 1 0 0
-8.995661 -15.679222 -5.635337 18.934544 1.049916 1.872997 0.057500 -0.025534 -405022.000000 1 0 0
-3.330561 -15.494522 5.858663 16.896650 1.359067 1.216708 0.005503 -0.005368 -935803.000000 1 0 0
-17.405761 -5.513222 -6.483637 19.375079 0.306749 1.912017 0.017894 -0.014958 988200.000000 1 0 0
18.927439 5.603478 -2.849237 19.944048 0.287829 1.714148 0.018925 0.005304 -1764770.000000 1 0 0
12.871239 -12.406622 -5.929037 18.834716 -0.767020 1.891035 0.042818 -0.009642 -135266.000000 1 0 0
11.108239 -13.536122 -1.505437 17.575150 -0.883598 1.656559 0.035683 -0.006733 2619400.000000 1 0 0
18.566739 -3.029022 4.792263 19.412999 -0.161718 1.321359 0.026531 -0.003661 -617611.000000 1 0 0
8.625539 -17.080522 4.964363 19.768385 -1.103163 1.316953 0.047945 -0.018144 -45652.900000 1 0 0
18.072139 -0.996922 6.729963 19.310320 -0.055108 1.214809 0.041443 -0.011939 -429477.000000 1 0 0
18.147839 -4.027222 -4.972237 19.242809 -0.218373 1.832156 0.050119 -0.015821 -1070190.000000 1 0 0
5.562039 -11.747122 14.834963 19.723268 -1.128588 0.719469 0.004694 0.002682 513971.000000 1 0 0
16.001439 -8.829822 -0.703837 18.289538 -0.504235 1.609289 0.041011 -0.006975 783665.000000 1 0 0
13.974939 -12.615122 -1.369737 18.876345 -0.734303 1.643424 0.047344 -0.005260 285554.000000 1 0 0
11.188539 -2.003022 13.897263 17.953535 -0.177148 0.685554 0.025929 -0.008154 61093.800000 1 0 0
17.004439 -6.051622 -1.388737 18.102532 -0.341908 1.647587 0.030927 -0.007493 -922876.000000 1 0 0
17.851039 3.773978 -0.932337 18.269421 0.208347 1.621851 0.013309 0.005310 882819.000000 1 0 0
9.673539 -11.135222 9.522463 17.556988 -0.855527 0.997535 0.019899 -0.004093 223657.000000 1 0 0
9.061339 -11.149822 4.334963 15.007275 -0.888366 1.277763 0.012085 -0.006348 -112394.000000 1 0 0
14.185639 -10.177922 6.910763 18.777143 -0.622362 1.193895 0.040209 -0.009450 984519.000000 1 0 0
16.206139 -0.455122 -4.769937 16.899656 -0.028076 1.856936 0.014439 -0.004855 -1017270.000000 1 0 0
15.856639 -0.387922 -1.773237 15.960196 -0.024459 1.682130 0.013316 0.002393 -86220.100000 1 0 0
13.013039 -5.056522 -0.161837 13.961869 -0.370617 1.582388 0.006423 -0.001939 2102570.000000 1 0 0
14.339839 -7.445822 1.195363 16.201856 -0.478921 1.496950 0.024865 -0.002247 1435330.000000 1 0 0
15.526539 2.558778 3.713463 16.168196 0.163332 1.339050 0.010523 -0.000189 400193.000000 1 0 0
15.977339 -7.154922 5.073463 18.226582 -0.421037 1.288715 0.036102 -0.006401 -1276410.000000 1 0 0
13.676139 -12.207522 3.286863 18.624281 -0.728720 1.393384 0.033378 -0.003499 832417.000000 1 0 0
14.010139 -0.949822 9.297063 16.841067 -0.067692 0.985979 0.019769 -0.009341 1464520.000000 1 0 0
14.328739 -2.722522 -1.603537 14.672975 -0.187766 1.680300 0.005159 0.001570 -971263.000000 1 0 0
15.060239 1.862078 9.292963 17.794305 0.123018 1.021317 0.027937 -0.008902 -1141180.000000 1 0 0
14.475739 -10.110722 -2.938937 17.900030 -0.609692 1.735729 0.044198 -0.008333 116793.000000 1 0 0
7.318639 -12.643222 6.123663 15.840227 -1.046067 1.173866 0.007856 -0.011215 -238721.000000 1 0 0
12.456039 -4.634822 7.070563 15.054147 -0.356221 1.081873 0.016297 -0.006409 2983410.000000 1 0 0
14.977139 -8.796122 -5.548937 18.233956 -0.531031 1.880020 0.054029 -0.013755 -2444510.000000 1 0 0
14.310439 -4.628922 4.764163 15.776971 -0.312843 1.264038 0.015586 -0.004190 49008.200000 1 0 0
17.131739 -4.203222 0.996063 17.667928 -0.240595 1.514389 0.018126 -0.004721 -1658530.000000 1 0 0
10.246039 -14.459022 1.214863 17.762897 -0.954305 1.502350 0.035277 -0.005432 755963.000000 1 0 0
16.477139 -2.565022 8.704363 18.810672 -0.154432 1.089718 0.038069 -0.013626 2040240.000000 1 0 0
16.014839 -2.636622 3.285363 16.559603 -0.163172 1.371075 0.017525 -0.001592 1577300.000000 1 0 0
7.841239 -15.367722 2.716463 17.465139 -1.098990 1.414626 0.022500 -0.010550 2598320.000000 1 0 0
16.649539 -6.946522 7.937063 19.709345 -0.395263 1.156326 0.042731 -0.015482 -1059930.000000 1 0 0
10.308139 -8.606022 5.170463 14.389407 -0.695648 1.203253 0.012686 -0.004904 1242890.000000 1 0 0
10.923839 -11.889122 2.234263 16.299491 -0.827686 1.433288 0.021618 -0.005320 -254589.000000 1 0 0
12.228439 -7.383322 12.124463 18.736349 -0.543196 0.867010 0.021086 -0.010582 -691377.000000 1 0 0
15.263239 -9.904222 4.305763 18.697585 -0.575597 1.338426 0.033943 -0.008868 634359.000000 1 0 0
7.319439 -10.293722 7.806563 14.848479 -0.952687 1.017202 0.005587 -0.002590 829955.000000 1 0 0
15.287039 -3.232422 -4.363537 16.222902 -0.208379 1.843124 0.028062 -0.005782 1141980.000000 1 0 0
11.789839 -9.051822 9.875263 17.845352 -0.654774 0.984379 0.027775 -0.008353 -1304250.000000 1 0 0
17.006439 -6.576522 2.501563 18.404549 -0.368995 1.434453 0.033423 -0.002680 1487710.000000 1 0 0
17.527239 4.003478 2.085863 18.099247 0.224562 1.455294 0.016111 0.004119 -1216720.000000 1 0 0
14.752039 -4.949722 8.847563 17.899770 -0.323724 1.053786 0.037148 -0.013273 117620.000000 1 0 0
12.919139 -12.773922 6.095263 19.163232 -0.779746 1.247102 0.040477 -0.005692 -729786.000000 1 0 0
18.388939 0.870578 -0.985537 18.435896 0.047307 1.624279 0.027958 0.000043 1219620.000000 1 0 0
11.717539 -2.195222 11.014963 16.231116 -0.185198 0.824897 0.019520 -0.009245 1283160.000000 1 0 0
5.718039 -12.490122 10.554563 17.323335 -1.141471 0.915658 -0.002060 0.000324 -2058510.000000 1 0 0
10.731539 -5.040022 11.103463 16.243603 -0.439071 0.818169 0.017521 -0.005888 614551.000000 1 0 0
17.797339 1.338878 5.096063 18.560919 0.075088 1.292666 0.034691 -0.006196 -1142230.000000 1 0 0
12.253339 -7.772922 7.266863 16.228676 -0.565296 1.106516 0.029493 -0.008540 -62145.300000 1 0 0
10.595339 -7.903722 14.445463 19.580639 -0.640912 0.741077 0.023560 -0.003375 -562736.000000 1 0 0
14.316839 -0.215622 3.795263 14.812913 -0.015060 1.311694 0.000837 0.002731 854784.000000 1 0 0
11.703139 -7.676022 2.626763 14.240248 -0.580508 1.385273 0.011911 -0.001676 368874.000000 1 0 0
9.308739 6.047678 3.500463 11.639599 0.576148 1.265331 0.004216 -0.002823 2295820.000000 1 0 0
-4.159961 14.794278 -9.932737 18.298503 -1.296687 2.144584 0.014482 -0.005461 1389980.000000 1 0 0
8.813439 -6.420322 9.287163 14.323011 -0.629579 0.865304 0.007111 -0.003511 423029.000000 1 0 0
5.893939 -10.456722 -8.419837 14.662032 -1.057533 2.182498 -0.006653 -0.001862 -850498.000000 1 0 0
5.436239 1.125478 0.586963 5.582465 0.204148 1.465457 0.003583 0.000235 2270420.000000 1 0 0
-0.509961 9.916078 10.922563 14.761133 -1.519414 0.737794 0.001059 0.000447 2032740.000000 1 0 0
-6.375661 -5.176922 1.086163 8.284282 0.682004 1.439306 0.011739 -0.003454 3627000.000000 1 0 0
-1.072961 3.961878 -10.781137 11.536058 -1.306319 2.777816 0.008003 -0.007469 1023790.000000 1 0 0
11.015339 5.844778 1.193163 12.526881 0.487830 1.475403 0.005291 -0.001899 1152310.000000 1 0 0
-10.132061 -1.885722 -13.677737 17.125860 0.184009 2.495861 0.012703 0.000634 595764.000000 1 0 0
7.488039 10.950178 -6.151937 14.622703 0.971007 2.005026 0.017296 -0.006840 511978.000000 1 0 0
-12.411561 -2.911122 -9.606737 15.962797 0.230385 2.216575 0.014650 -0.004788 1071020.000000 1 0 0
-3.929161 -8.619122 2.461263 9.787001 1.143075 1.316584 0.012521 -0.002214 -199536.000000 1 0 0
8.109739 -6.636022 -5.888637 12.020012 -0.685787 2.082774 0.001215 -0.004157 1995060.000000 1 0 0
14.382339 3.223178 -4.200837 15.326042 0.220464 1.848448 0.017091 -0.000686 1030120.000000 1 0 0
-2.484361 -4.994322 9.779563 11.258560 1.109201 0.518359 0.007016 -0.002546 1688360.000000 1 0 0
3.606039 -1.880122 -4.498137 6.063960 -0.480606 2.406520 0.003222 -0.001465 -2288150.000000 1 0 0
-3.994761 8.378478 -3.459337 9.905757 -1.125890 1.927540 0.000052 -0.001667 -148542.000000 1 0 0
5.816439 0.139378 11.703863 13.070226 0.023958 0.461333 -0.004077 -0.001672 -395013.000000 1 0 0
7.057339 4.688478 12.352463 14.979026 0.586391 0.601212 -0.001560 0.000221 2630650.000000 1 0 0
1.154339 -14.585822 12.337563 19.138813 -1.491820 0.870250 -0.001799 -0.002635 -1296770.000000 1 0 0
2.967739 8.685478 -9.071137 12.904670 1.241544 2.350311 0.007988 -0.005580 -217924.000000 1 0 0
-4.372761 -8.851022 -4.629637 10.903906 1.111928 2.009300 0.019520 -0.003704 1883140.000000 1 0 0
5.751339 -6.605822 -3.950937 9.608573 -0.854437 1.994554 0.000448 -0.003621 2533720.000000 1 0 0
-3.134461 3.393178 8.643863 9.800759 -0.825011 0.490795 0.009632 -0.002932 2790570.000000 1 0 0
-3.811761 3.218878 -11.101437 12.170973 -0.701269 2.719232 0.003359 -0.009643 -549077.000000 1 0 0
3.120339 -6.166622 8.589663 11.024793 -1.102357 0.677532 -0.002632 -0.000410 857599.000000 1 0 0
-5.147761 -8.697922 10.378763 14.486960 1.036400 0.772137 0.011054 -0.002100 450249.000000 1 0 0
-13.343661 -2.514522 6.502763 15.055300 0.186259 1.124170 0.014689 -0.007960 483576.000000 1 0 0
3.960839 -5.885822 -8.257337 10.886448 -0.978459 2.431800 -0.000995 -0.002531 2693250.000000 1 0 0
3.000839 -0.623622 12.339363 12.714316 -0.204899 0.243461 -0.003159 -0.000154 1570380.000000 1 0 0
1.430639 -1.426322 -7.441737 7.711068 -0.783887 2.876515 0.006626 -0.003239 754931.000000 1 0 0
3.663339 -3.512822 3.382863 6.099486 -0.764427 0.982897 0.001724 -0.003447 1699910.000000 1 0 0
1.622239 0.421278 -11.743237 11.862240 0.254077 2.999826 0.011163 -0.007738 -393838.000000 1 0 0
4.137239 3.549578 -10.562737 11.886448 0.709096 2.665161 0.002790 -0.003043 655728.000000 1 0 0
2.937639 3.312078 3.352963 5.553553 0.845240 0.922598 -0.003224 -0.000419 -863694.000000 1 0 0
-5.362061 0.839978 2.509463 5.979521 -0.155389 1.137708 0.014945 -0.007112 1755370.000000 1 0 0
-9.507161 -9.257222 5.637263 14.417386 0.772079 1.169074 0.013743 -0.004362 -845517.000000 1 0 0
-3.060461 3.762278 -0.640337 4.891952 -0.887902 1.702069 0.009365 -0.008026 1132050.000000 1 0 0
-15.839361 -6.447322 4.971163 17.809149 0.386564 1.287903 0.027048 -0.017464 1569870.000000 1 0 0
0.988839 6.740978 -8.044037 10.541590 1.425144 2.438856 0.008551 -0.004482 749238.000000 1 0 0
-1.645861 6.566278 -9.463537 11.635437 -1.325203 2.520662 0.005896 -0.003856 262396.000000 1 0 0
2.173839 -0.315522 5.285163 5.723468 -0.144139 0.393899 0.003698 -0.001801 2895150.000000 1 0 0
-3.400061 -0.570222 -6.263637 7.149735 0.166163 2.638438 0.012931 -0.006527 264000.000000 1 0 0
1.979639 -1.250222 -2.349637 3.317049 -0.563289 2.357956 0.007252 -0.002028 587596.000000 1 0 0
2.453439 -8.493522 -7.575537 11.642510 -1.289591 2.279275 -0.002102 0.001857 2427820.000000 1 0 0
-2.570161 14.035678 -5.555537 15.312412 -1.389687 1.942081 0.008366 0.003309 2916370.000000 1 0 0
6.941639 -5.076322 -8.126237 11.831784 -0.631416 2.327893 0.004557 -0.005702 4016840.000000 1 0 0
-14.275861 -4.966722 -2.235137 15.279541 0.334812 1.717606 0.009877 -0.005346 323758.000000 1 0 0
-2.847661 6.926978 -6.850837 10.150180 -1.180760 2.311690 0.002735 -0.002770 -1503170.000000 1 0 0
-5.679561 -1.001322 -8.117037 9.957226 0.174509 2.523854 0.012522 -0.007241 -104550.000000 1 0 0
-5.727861 -10.602322 3.428963 12.528983 1.075473 1.293577 0.008813 -0.000245 -2227680.000000 1 0 0
8.121639 -7.643322 6.672063 12.996069 -0.755067 1.031665 0.001659 -0.002421 779834.000000 1 0 0
8.766639 -6.023222 13.188163 16.942869 -0.601990 0.678699 0.012312 -0.004177 1091310.000000 1 0 0
-4.729161 9.443778 -0.780837 10.590544 -1.106533 1.644593 -0.000122 -0.000374 866786.000000 1 0 0
2.760439 6.588278 12.102263 14.053121 1.174025 0.533210 -0.003343 0.001568 -634261.000000 1 0 0
6.055439 -2.733022 10.912163 12.775487 -0.423962 0.546885 -0.000731 -0.002125 -995607.000000 1 0 0
-9.736861 -6.541522 -1.178537 11.789272 0.591569 1.670930 0.010345 -0.002902 -899865.000000 1 0 0
0.805839 -13.386222 6.238763 14.790621 -1.510670 1.135361 0.006337 -0.005235 1741170.000000 1 0 0
-0.488761 -3.153022 8.785263 9.346726 1.417007 0.348373 0.004235 -0.003155 73042.500000 1 0 0
4.289439 0.738978 3.411963 5.530540 0.170604 0.905959 -0.001650 0.001492 1413410.000000 1 0 0
-10.269761 5.553778 8.236763 14.288342 -0.495744 0.956397 0.004493 -0.010081 813122.000000 1 0 0
9.409639 8.041278 -0.030137 12.377575 0.707146 1.573231 0.005669 -0.002532 -446991.000000 1 0 0
4.335439 2.931978 8.095263 9.639804 0.594630 0.573928 -0.006040 -0.001252 3107970.000000 1 0 0
1.367039 2.657578 -9.747337 10.195199 1.095701 2.844089 0.011109 -0.006942 2653270.000000 1 0 0
-1.371361 -10.095622 3.072763 10.641621 1.435785 1.277876 0.012859 -0.002951 -89727.800000 1 0 0
-9.980261 9.507378 9.019163 16.472436 -0.761137 0.991386 0.006778 -0.010250 1935390.000000 1 0 0
9.867039 -1.993022 -7.641437 12.638123 -0.199306 2.220102 0.018885 -0.003349 910838.000000 1 0 0
-5.141061 -1.876822 6.731063 8.675263 0.350032 0.682669 0.011490 -0.005326 2476260.000000 1 0 0
3.173439 -7.753522 -4.846437 9.678624 -1.182307 2.095245 -0.002345 -0.002439 2703560.000000 1 0 0
-5.102561 4.896478 -13.083937 14.872828 -0.764791 2.646071 -0.001091 -0.008816 2427050.000000 1 0 0
-5.702461 9.570578 5.421863 12.389941 -1.033447 1.117866 0.004891 -0.001046 2052430.000000 1 0 0
-0.404161 -1.744322 -9.322837 9.493223 1.343113 2.951844 0.011206 -0.004862 -6160.930000 1 0 0
-16.774661 0.087378 6.389063 17.950405 -0.005209 1.206889 0.024986 -0.012110 -383747.000000 1 0 0
-5.975161 -2.892922 4.083963 7.794248 0.450894 1.019289 0.008070 -0.003872 2724020.000000 1 0 0
1.081139 -5.616922 -5.030637 7.617478 -1.380643 2.292157 0.005837 -0.003779 1696050.000000 1 0 0
-7.015661 1.423278 -8.610937 11.197922 -0.200155 2.448035 0.003386 -0.006303 619366.000000 1 0 0
8.077139 2.000778 4.742763 9.577948 0.242821 1.052760 -0.001843 -0.000145 1838250.000000 1 0 0
0.537439 -8.096022 -0.388037 8.123114 -1.504511 1.618584 0.008418 -0.002509 690590.000000 1 0 0
5.404339 5.480278 -3.415437 8.420542 0.792375 1.988440 0.005880 -0.001554 644087.000000 1 0 0
-0.679161 -0.401022 -1.168937 1.410139 0.533380 2.548027 0.010613 -0.004776 1233170.000000 1 0 0
9.068739 6.422578 -6.308937 12.778662 0.616215 2.087146 0.012740 -0.005652 884054.000000 1 0 0
-14.934761 -7.021122 2.373863 16.672687 0.439459 1.427930 0.004169 -0.010381 1141960.000000 1 0 0
-6.435261 6.738978 8.842663 12.845976 -0.808448 0.811570 0.005720 -0.003711 -405863.000000 1 0 0
-9.417561 -3.265622 -9.667937 13.886099 0.333784 2.340930 0.009005 -0.001668 990374.000000 1 0 0
14.970439 3.520278 -1.222637 15.427289 0.230953 1.650131 0.006833 0.003657 1173990.000000 1 0 0
12.129539 1.672878 -5.731937 13.519590 0.137053 2.008624 0.013904 -0.000071 623241.000000 1 0 0
1.658039 -9.498322 12.734663 15.973067 -1.397976 0.648056 -0.007668 0.001047 1225950.000000 1 0 0
-3.612661 6.291078 7.908863 10.732153 -1.049525 0.742276 0.008349 -0.003214 2070830.000000 1 0 0
-4.216661 13.033478 -12.423037 18.492799 -1.257899 2.307401 0.007544 -0.006216 90786.200000 1 0 0
-10.254461 7.724978 6.396063 14.343601 -0.645628 1.108597 0.002384 -0.007180 143583.000000 1 0 0
8.056339 -9.204622 -7.007437 14.097299 -0.851825 2.091023 0.005007 -0.004878 -886523.000000 1 0 0
5.977139 -3.858122 -0.284337 7.119841 -0.573191 1.610743 0.005390 -0.001806 -825445.000000 1 0 0
-1.610261 -4.409322 4.158063 6.270929 1.220650 0.845884 0.009360 -0.003324 1308960.000000 1 0 0
9.967039 -2.021922 -2.520037 10.477624 -0.200145 1.813694 0.005394 0.001372 -3005420.000000 1 0 0
13.550739 7.199978 1.314863 15.401009 0.488400 1.485317 0.003727 -0.002105 -1081190.000000 1 0 0
5.448439 -3.743122 -3.228737 7.356710 -0.601953 2.025152 0.005297 -0.002305 -1604320.000000 1 0 0
-12.235161 -6.005522 1.882563 13.758979 0.456294 1.433541 0.001077 -0.003785 152842.000000 1 0 0
3.814239 -5.705422 -0.136837 6.864327 -0.981506 1.590732 0.005985 -0.004645 -572997.000000 1 0 0
-5.270461 3.807778 -8.697237 10.859045 -0.625651 2.499628 0.000908 -0.006094 1646760.000000 1 0 0
-1.740261 -9.226122 7.188963 11.825017 1.384363 0.917326 0.004186 -0.000040 2289110.000000 1 0 0
-7.502061 -7.492422 2.459663 10.884266 0.784755 1.342844 0.010671 -0.001593 -3622830.000000 1 0 0
-5.898761 13.072078 -8.559337 16.701403 -1.146904 2.108881 0.006171 -0.001668 2030890.000000 1 0 0
9.285139 -13.889822 -4.076437 17.197625 -0.981536 1.810109 0.025910 -0.001763 -125500.000000 1 0 0
-6.482461 -5.137022 -6.825837 10.723961 0.670120 2.260752 0.020190 -0.004323 2189460.000000 1 0 0
3.426939 0.411678 -6.189237 7.086610 0.119557 2.632877 0.005916 -0.004857 2088770.000000 1 0 0
-3.665061 5.703778 4.994063 8.420595 -0.999664 0.935921 0.009322 -0.001531 1507840.000000 1 0 0
-2.543761 -10.728022 -2.867737 11.392326 1.337982 1.825259 0.017379 -0.001448 2067370.000000 1 0 0
-12.669561 -0.480622 1.706863 12.793051 0.037917 1.436976 0.005270 -0.005428 1692630.000000 1 0 0
8.526139 -11.933622 -6.017237 15.852871 -0.950429 1.960125 0.017078 -0.006475 -756850.000000 1 0 0
6.083739 4.035078 1.022463 7.371510 0.585638 1.431643 0.003533 -0.000433 1198890.000000 1 0 0
3.476139 -4.762522 -10.888437 12.382375 -0.940287 2.645291 0.004870 -0.002237 552512.000000 1 0 0
-7.699561 4.228578 8.553263 12.260605 -0.502227 0.798724 0.006834 -0.006728 1434030.000000 1 0 0
8.253339 8.687978 4.059963 12.652346 0.811048 1.244131 0.003153 -0.001199 541441.000000 1 0 0
0.184739 10.654778 -6.337937 12.398704 1.553459 2.107350 0.006436 0.000118 1695750.000000 1 0 0
5.401639 8.114578 3.279163 10.284794 0.983483 1.246295 0.005422 -0.002374 4119010.000000 1 0 0
8.063139 6.642778 -3.729537 11.092797 0.689113 1.913689 0.009628 -0.004356 795443.000000 1 0 0
10.546539 2.578478 -8.152937 13.577496 0.239782 2.214890 0.006452 -0.001225 568407.000000 1 0 0
3.367839 -12.548122 -0.250337 12.994629 -1.308582 1.590062 0.002933 -0.001471 -1042610.000000 1 0 0
0.742339 2.181878 5.265563 5.747853 1.242852 0.412573 0.004314 -0.000982 1351010.000000 1 0 0
-4.900961 13.379878 1.402263 14.318062 -1.219681 1.472702 -0.001994 0.002151 1217070.000000 1 0 0
8.220239 4.065578 -7.940437 12.130613 0.459303 2.284421 0.003639 -0.001064 -1023080.000000 1 0 0
-13.890461 -0.577122 -3.620837 14.366226 0.041524 1.825582 0.005434 -0.006145 1542890.000000 1 0 0
-8.670861 0.090578 -0.547837 8.688623 -0.010446 1.633890 0.006918 -0.005491 173713.000000 1 0 0
1.847039 -3.862422 -0.995537 4.395560 -1.124734 1.799266 0.008174 -0.002954 -939667.000000 1 0 0
8.165539 -5.758922 -0.158537 9.993315 -0.614255 1.586661 0.005764 -0.002694 2371270.000000 1 0 0
-2.269661 -1.225822 7.406763 7.843095 0.495203 0.335131 0.011510 -0.003317 584206.000000 1 0 0
-5.866061 8.804378 -11.834037 15.873631 -0.983071 2.412104 -0.004465 -0.001967 -1224760.000000 1 0 0
-6.223461 9.145478 -8.939537 14.222748 -0.973281 2.250468 -0.001085 -0.000252 -454248.000000 1 0 0
-1.663961 14.080078 -8.434537 16.497235 -1.453164 2.107458 0.017234 -0.004381 767484.000000 1 0 0
-1.486161 7.270278 9.739363 12.244216 -1.369158 0.651087 0.006397 -0.003206 487708.000000 1 0 0
10.067239 2.348878 -3.930037 11.059462 0.229218 1.934090 0.005908 -0.000061 -1805160.000000 1 0 0
-2.917961 -7.467322 -6.947837 10.608856 1.198277 2.284859 0.014510 -0.001987 1475090.000000 1 0 0
-5.560761 -4.978922 -1.616237 7.637012 0.730250 1.784041 0.015329 -0.003159 269677.000000 1 0 0
5.654739 7.437678 -8.712137 12.774837 0.920747 2.321258 0.005485 -0.002401 -60051.900000 1 0 0
-9.589861 5.109978 -7.591237 13.255346 -0.489583 2.180583 0.003113 -0.002504 -420315.000000 1 0 0
-0.501261 6.201078 -5.300737 8.173276 -1.490137 2.276468 0.008398 -0.003300 1131610.000000 1 0 0
-8.295061 2.733378 -6.383737 10.818109 -0.318313 2.201976 0.002136 -0.001883 1152100.000000 1 0 0
3.687439 1.382478 -1.974037 4.405141 0.358697 2.035459 0.002642 -0.001519 1692260.000000 1 0 0
-6.793061 12.406678 -3.476937 14.565728 -1.069849 1.811830 0.003704 -0.001129 2045450.000000 1 0 0
-6.582761 3.167978 -2.402837 7.690413 -0.448538 1.888563 0.006685 -0.004613 -1114700.000000 1 0 0
12.223039 4.096578 -0.775237 12.914551 0.323387 1.630861 0.007313 -0.000285 605227.000000 1 0 0
2.167439 12.420478 -5.483437 13.748969 1.398031 1.981032 0.012320 -0.006021 -163388.000000 1 0 0
-9.162961 -1.495922 -4.237937 10.205770 0.161830 1.999013 0.008514 -0.002550 -884322.000000 1 0 0
-1.217261 5.703878 3.465263 6.784099 -1.360541 1.034691 0.006560 -0.000992 746643.000000 1 0 0
11.479939 2.611178 12.006463 16.815541 0.223651 0.775587 0.014759 0.000554 -704759.000000 1 0 0
-7.057961 -2.311622 -5.791937 9.418330 0.316509 2.233137 0.014399 -0.005096 -796386.000000 1 0 0
7.479339 -7.354222 10.882563 15.114737 -0.776964 0.766999 0.005084 -0.002280 -1639040.000000 1 0 0
-5.419461 -1.952622 -10.915437 12.342206 0.345820 2.656001 0.011417 -0.003087 -713109.000000 1 0 0
0.883539 -6.164122 4.516063 7.692325 -1.428430 0.943341 0.007080 -0.003035 1516420.000000 1 0 0
-4.834561 -9.354122 7.307163 12.816677 1.093770 0.964133 0.004522 0.000570 1675220.000000 1 0 0
-8.745261 9.203478 1.611563 12.797685 -0.810922 1.444535 0.001776 -0.005068 1114520.000000 1 0 0
-8.157961 7.201078 -9.156137 14.221206 -0.723178 2.270299 -0.000448 -0.001016 -826535.000000 1 0 0
-1.249161 -10.637022 -0.062837 10.710303 1.453897 1.576663 0.013312 -0.003038 -50029.600000 1 0 0
-3.947961 10.300678 7.720163 13.464445 -1.204793 0.960178 0.007115 0.000444 2188250.000000 1 0 0
-7.472461 12.026978 1.875163 14.282931 -1.014856 1.439129 -0.001335 -0.005998 2018500.000000 1 0 0
-8.180661 -8.224022 -2.942037 11.967177 0.788041 1.819185 0.024547 -0.006105 275152.000000 1 0 0
5.441239 4.618878 -7.992637 10.715566 0.703835 2.412667 0.006382 -0.001553 1664420.000000 1 0 0
-8.927561 -0.252222 -10.298437 13.631682 0.028245 2.427180 0.005316 -0.003034 -21735.800000 1 0 0
-15.294361 -2.210122 -1.626637 15.538599 0.143512 1.675672 0.007036 -0.007311 -715197.000000 1 0 0
-7.125661 -5.761222 8.709863 12.642328 0.679913 0.810764 0.012682 -0.002930 -1101820.000000 1 0 0
8.171339 3.508678 -0.879737 8.936192 0.405582 1.669403 0.005274 0.001357 1641400.000000 1 0 0
11.927339 7.252278 -5.864137 15.140840 0.546309 1.968504 0.014180 -0.005553 515618.000000 1 0 0
3.753339 13.312878 -9.427537 16.739137 1.295996 2.169054 0.009884 -0.015270 487922.000000 1 0 0
-9.809461 5.460078 -0.526137 11.238986 -0.507907 1.617627 0.005541 -0.005319 1442760.000000 1 0 0
11.294239 -1.288222 -5.158037 12.482976 -0.113569 1.996768 0.017978 -0.003510 -1266940.000000 1 0 0
10.696539 1.815878 -1.154137 10.910792 0.168160 1.676774 0.006653 0.001164 553793.000000 1 0 0
14.576839 5.107578 4.793763 16.172562 0.337022 1.269861 0.006391 -0.005837 2112110.000000 1 0 0
0.820539 -0.813922 10.363863 10.428107 -0.781350 0.111058 0.003075 -0.001098 3160100.000000 1 0 0
-7.926661 1.337478 -12.595337 14.941998 -0.167157 2.573537 0.002133 -0.006271 -725835.000000 1 0 0
3.215139 -11.393722 -7.717637 14.132089 -1.295763 2.148507 -0.010149 0.002400 1054740.000000 1 0 0
2.847639 5.014878 -6.754737 8.881695 1.054361 2.434915 0.007190 -0.001153 -1452360.000000 1 0 0
6.492239 7.994878 0.551863 10.313670 0.888751 1.517263 0.008222 -0.003948 1303270.000000 1 0 0
-9.039261 -5.384022 6.697363 12.471993 0.537197 1.003929 0.009063 -0.003276 -1735580.000000 1 0 0
-0.257361 -6.854622 -11.834637 13.678841 1.533268 2.616302 0.005410 0.003401 2290420.000000 1 0 0
6.519939 -13.375922 -4.616837 15.580118 -1.117248 1.871643 0.003899 0.001329 2831440.000000 1 0 0
-3.242261 -0.284522 9.971563 10.489294 0.087530 0.315498 0.011516 -0.004363 255622.000000 1 0 0
8.665439 8.504678 6.914463 13.972444 0.776036 1.053118 0.000559 -0.000405 18040.100000 1 0 0
-8.013561 5.664978 -2.696137 10.177342 -0.615358 1.838913 0.005338 -0.005910 192685.000000 1 0 0
-5.476761 5.830078 -6.445637 10.272826 -0.816636 2.249064 0.001869 -0.002767 -1462660.000000 1 0 0
3.291939 -13.675822 2.601263 14.304948 -1.334578 1.387935 0.009893 -0.009710 -867428.000000 1 0 0
-11.283161 -7.021122 6.498963 14.793323 0.556631 1.115958 0.018664 -0.009102 -338668.000000 1 0 0
-12.907561 -3.707422 -6.756537 15.033326 0.279699 2.036932 0.014865 -0.005241 274346.000000 1 0 0
6.111139 0.384078 -7.252237 9.491494 0.062766 2.440406 0.002014 -0.000457 -97068.600000 1 0 0
-1.404361 2.157478 -2.519737 3.602224 -0.993770 2.345487 0.009701 -0.006000 2217590.000000 1 0 0
7.663439 0.995078 -4.954137 9.179430 0.129125 2.140877 0.006061 0.000810 -37204.000000 1 0 0
3.765939 -4.489422 10.914763 12.388271 -0.872813 0.492706 -0.004790 0.000770 54007.400000 1 0 0
6.085539 -2.595322 2.114663 6.945594 -0.403118 1.261424 0.005593 -0.002561 -1427380.000000 1 0 0
-6.248361 7.674778 1.075963 9.954995 -0.887491 1.462502 0.004741 -0.004330 856893.000000 1 0 0
6.060039 -3.499322 7.921763 10.569941 -0.523668 0.723548 0.000209 -0.003775 -75541.800000 1 0 0
6.862839 -2.254322 -7.883737 10.692700 -0.317378 2.399863 0.004050 -0.004716 922054.000000 1 0 0
12.124239 -8.094922 -5.693537 15.650600 -0.588693 1.943130 0.031992 -0.010344 -64370.900000 1 0 0
5.589839 -9.617922 9.991563 14.952661 -1.044323 0.838992 -0.005067 0.001435 -440021.000000 1 0 0
-6.623861 7.534078 -4.434237 10.968150 -0.849600 1.986991 0.000050 -0.002837 -249524.000000 1 0 0
-1.306361 -7.581022 9.713263 12.390559 1.400152 0.669834 0.003234 -0.001133 -853238.000000 1 0 0
10.127139 -9.314622 0.846163 13.785395 -0.743630 1.509377 0.006794 -0.002386 801702.000000 1 0 0
11.092539 6.090678 9.813263 16.013773 0.502136 0.911195 0.001524 0.000242 696043.000000 1 0 0
-15.320961 -4.181222 -5.049537 16.664702 0.266421 1.878644 0.016703 -0.010347 721827.000000 1 0 0
-4.699361 -4.669522 7.769263 10.210283 0.782213 0.706058 0.010287 -0.004347 -423450.000000 1 0 0
2.886239 10.916878 -11.047337 15.797223 1.312327 2.345244 0.006669 -0.005438 -661901.000000 1 0 0
10.023139 -1.358422 1.583763 10.238014 -0.134708 1.415478 0.004511 0.000489 311999.000000 1 0 0
-1.612961 -2.586622 0.749563 3.139125 1.013220 1.329686 0.013324 -0.007135 380980.000000 1 0 0
1.645139 3.082778 0.856963 3.597831 1.080589 1.330296 -0.000317 -0.001837 -1341910.000000 1 0 0
-9.024461 -2.263522 4.246663 10.227345 0.245751 1.142605 0.009280 -0.004587 5043140.000000 1 0 0
9.983739 4.918478 -2.636437 11.437537 0.457749 1.803395 0.007416 0.000074 1641910.000000 1 0 0
2.523239 8.517678 2.506563 9.230408 1.282797 1.295788 0.003205 -0.002094 716750.000000 1 0 0
-8.151861 -0.015322 2.376863 8.491322 0.001880 1.287089 0.010363 -0.006928 -100818.000000 1 0 0
6.799139 2.100478 13.736063 15.469962 0.299632 0.477996 0.000650 -0.000795 -683920.000000 1 0 0
6.809439 4.415878 3.830963 8.974671 0.575316 1.129774 -0.000580 -0.000856 -84215.900000 1 0 0
-0.326361 3.336278 7.728263 8.423973 -1.473285 0.409266 0.003348 -0.001920 2109000.000000 1 0 0
2.750339 -10.258022 9.256563 14.088128 -1.308841 0.853901 -0.004696 0.000465 2158230.000000 1 0 0
1.444139 -4.461022 6.897163 8.340091 -1.257719 0.597066 0.000741 -0.002579 -110544.000000 1 0 0
-0.163761 10.788778 -2.028137 10.978975 -1.555619 1.756593 0.005410 -0.001599 3382300.000000 1 0 0
8.790639 5.573478 8.007063 13.132100 0.565062 0.915074 -0.003669 -0.000365 -1088460.000000 1 0 0
2.663139 11.392778 -2.921737 12.059197 1.341163 1.815514 0.011598 -0.006447 1057260.000000 1 0 0
1.513439 2.488478 -6.712237 7.316908 1.024385 2.732192 0.008862 -0.005085 1565070.000000 1 0 0
-13.710161 -2.262422 3.564463 14.345469 0.163544 1.319693 0.003758 -0.007637 1525060.000000 1 0 0
-0.789161 -10.609722 -5.313137 11.891947 1.496552 2.033964 0.008580 -0.000577 1540440.000000 1 0 0
-5.676061 2.830478 0.325663 6.351010 -0.462583 1.519496 0.013789 -0.008295 1114040.000000 1 0 0
3.705739 7.278778 -5.035737 9.595403 1.099883 2.123285 0.007720 -0.004929 -1645960.000000 1 0 0
2.920039 9.797078 -6.475437 12.101266 1.281128 2.135427 0.009951 -0.004392 1729820.000000 1 0 0
-12.305561 1.695878 -2.572137 12.685375 -0.136951 1.774976 0.005911 -0.004143 873541.000000 1 0 0
-2.601261 9.674278 -5.774137 11.562823 -1.308125 2.093669 0.001233 0.001194 1171770.000000 1 0 0
-1.252461 3.372078 1.692463 3.975425 -1.215167 1.131026 0.004518 -0.003298 620705.000000 1 0 0
12.904039 3.684478 9.790863 16.611761 0.278128 0.940488 0.017831 -0.001991 1350690.000000 1 0 0
-2.555361 -9.626122 11.579563 15.273454 1.311320 0.710326 0.000185 -0.000831 2186970.000000 1 0 0
-0.393661 -8.886022 -7.526437 11.651764 1.526524 2.273061 0.005772 -0.000116 1296350.000000 1 0 0
2.399739 7.705078 -0.491437 8.085078 1.268869 1.631617 0.002586 -0.001927 2123320.000000 1 0 0
-11.784161 -1.305122 -5.569337 13.099134 0.110303 2.009944 0.008940 0.000296 -1569740.000000 1 0 0
-6.166861 -7.286222 -11.008937 14.571064 0.868412 2.427265 0.014923 0.001108 1108080.000000 1 0 0
-4.672161 -2.264022 -1.393037 5.375448 0.451233 1.832936 0.014461 -0.005211 -917709.000000 1 0 0
-10.568361 3.733578 4.499463 12.077874 -0.339593 1.189054 0.003944 -0.007388 2838400.000000 1 0 0
6.808939 9.346778 -3.662437 12.130018 0.941211 1.877515 0.010656 -0.003731 -319383.000000 1 0 0
1.315939 -2.691522 -11.488637 11.872858 -1.116052 2.886495 0.010478 -0.005201 -276231.000000 1 0 0
1.304139 8.756978 7.506863 11.607689 1.422957 0.867527 0.000784 0.004204 481080.000000 1 0 0
10.348239 0.344478 10.421663 14.690670 0.033276 0.782140 0.008186 -0.005560 -355138.000000 1 0 0
-5.272561 -0.889122 -3.901337 6.618978 0.167060 2.201133 0.012907 -0.006823 -258961.000000 1 0 0
11.756239 5.745278 5.446963 14.173453 0.454567 1.176339 -0.002669 0.000916 1948800.000000 1 0 0
9.978339 -3.420422 3.768963 11.201411 -0.330233 1.227628 0.009627 -0.003273 -1159570.000000 1 0 0
7.380039 -1.674822 -3.375837 8.286511 -0.223160 1.990390 0.007503 0.000643 -3091150.000000 1 0 0
2.440139 9.260478 10.448463 14.173254 1.313152 0.741886 -0.000247 0.002040 2893260.000000 1 0 0
2.443139 -10.917522 6.352363 12.865214 -1.350642 1.054385 -0.003158 -0.000983 3136960.000000 1 0 0
5.970839 -7.556822 -1.259437 9.713015 -0.902105 1.700827 0.000962 -0.004523 1136110.000000 1 0 0
-0.169061 -5.584522 -2.137637 5.982053 1.540532 1.936216 0.008825 -0.002070 658979.000000 1 0 0
7.788439 -5.071522 2.793563 9.704850 -0.577190 1.278813 0.003253 -0.004586 1551160.000000 1 0 0
-2.715961 -12.480722 4.526363 13.551119 1.356524 1.230230 0.008657 -0.002333 -562251.000000 1 0 0
4.970239 -10.312322 -1.075837 11.498029 -1.121676 1.664500 0.001517 -0.005545 1349220.000000 1 0 0
1.017239 0.230278 1.108263 1.521858 0.222623 0.755060 0.001676 -0.002188 -1376340.000000 1 0 0
-1.637061 8.527078 2.441363 9.019495 -1.381120 1.296701 0.002431 -0.000367 -142.281000 1 0 0
-7.574261 0.652078 -3.056437 8.193683 -0.085880 1.953062 0.005517 -0.002142 -921827.000000 1 0 0
4.445339 -6.391822 12.923463 15.087489 -0.963115 0.542214 -0.001790 -0.000605 -28411.100000 1 0 0
-5.156261 12.982278 8.418063 16.309211 -1.192726 1.028442 0.008740 -0.003466 524434.000000 1 0 0
0.650639 6.077878 8.267863 10.282096 1.464152 0.636631 0.001339 0.001787 1891340.000000 1 0 0
8.014939 -0.427822 -0.701937 8.056984 -0.053327 1.658028 0.007363 0.000561 4911880.000000 1 0 0
2.510839 -9.183222 -2.317237 9.798238 -1.303903 1.809554 0.000108 -0.002714 978213.000000 1 0 0
-7.205961 12.146678 4.815963 14.921835 -1.035358 1.242167 0.000954 -0.001808 273968.000000 1 0 0
-15.079161 0.217878 0.145763 15.081440 -0.014448 1.561131 0.010368 -0.008799 1308750.000000 1 0 0
6.917639 -0.488822 3.899163 7.955888 -0.070546 1.058594 0.002952 0.000023 81396.900000 1 0 0
-4.210961 -5.010222 5.060463 8.273017 0.871859 0.912610 0.011683 -0.004820 1099520.000000 1 0 0
2.904439 5.167378 6.868063 9.072368 1.058732 0.712039 -0.002673 0.000229 -891228.000000 1 0 0
2.130439 -7.164422 1.883163 7.708049 -1.281760 1.323987 0.004918 -0.004456 2147010.000000 1 0 0
-2.464961 6.404578 -1.766637 7.086301 -1.203396 1.822757 0.003991 -0.002522 1537050.000000 1 0 0
2.728439 -3.725722 -6.509937 7.981520 -0.938704 2.524607 0.002216 -0.003756 -1428560.000000 1 0 0
-5.094761 0.886278 -12.248237 13.295164 -0.172235 2.742091 0.006505 -0.006323 418178.000000 1 0 0
-7.487861 6.358478 -11.952237 15.471078 -0.704013 2.453649 -0.000014 -0.005693 2233530.000000 1 0 0
-1.161361 11.268578 -9.042237 14.494539 -1.468097 2.244440 0.005523 -0.000331 1504010.000000 1 0 0
4.637039 5.967778 -0.694237 7.589365 0.910230 1.662399 0.004740 -0.002821 921681.000000 1 0 0
-2.686461 13.374378 3.498563 14.083004 -1.372568 1.319743 0.002098 0.002890 1614620.000000 1 0 0
1.436039 -7.913722 10.280063 13.052544 -1.391288 0.663907 -0.004480 0.000123 -540118.000000 1 0 0
13.095239 -0.192922 -1.050537 13.138726 -0.014731 1.650839 0.008094 -0.000409 1496410.000000 1 0 0
-1.028161 3.178378 -5.435537 6.379989 -1.257934 2.590526 0.009435 -0.006743 1054770.000000 1 0 0
6.597339 1.075978 7.260963 9.869356 0.161669 0.744085 -0.002178 0.000065 1668450.000000 1 0 0
5.483139 -6.197722 6.881563 10.762550 -0.846498 0.877080 -0.002632 -0.001694 855271.000000 1 0 0
12.250539 -4.873022 2.712863 13.460374 -0.378591 1.367862 0.006461 -0.000614 -1514460.000000 1 0 0
4.429339 -9.248422 13.815863 17.205535 -1.124147 0.638502 -0.000497 0.001087 921804.000000 1 0 0
-2.723861 -4.347922 -1.405937 5.319822 1.011138 1.838256 0.016621 -0.005720 2057390.000000 1 0 0
-9.339061 -5.298922 -7.557137 13.130383 0.516099 2.184068 0.014473 -0.002771 2113070.000000 1 0 0
-10.656061 -3.077022 7.765263 13.539536 0.281111 0.959994 0.009850 -0.005160 27908.900000 1 0 0
12.203939 -0.616522 1.674463 12.333696 -0.050475 1.434612 0.002622 0.002342 312024.000000 1 0 0
-7.690961 4.626578 4.336063 9.967826 -0.541566 1.120751 0.012686 -0.008095 2543750.000000 1 0 0
-1.071761 10.601478 6.944063 12.718491 -1.470043 0.993236 0.002138 0.003895 3014380.000000 1 0 0
7.399939 -9.969222 1.998063 12.575243 -0.932255 1.411231 0.002508 -0.003642 2254710.000000 1 0 0
-4.366361 -1.702822 1.675663 4.977204 0.371844 1.227421 0.010927 -0.003877 1400840.000000 1 0 0
6.758339 -15.061922 -0.809737 16.528530 -1.149021 1.619806 0.018167 -0.002967 -861471.000000 1 0 0
-10.546561 1.639878 2.376263 10.934614 -0.154254 1.351733 0.005780 -0.006286 24959.900000 1 0 0
-3.041761 8.299978 -11.415737 14.438178 -1.219518 2.482688 0.002172 -0.002820 -1294680.000000 1 0 0
-1.236361 -5.162522 -6.823437 8.645202 1.335736 2.480423 0.004778 -0.001863 1064430.000000 1 0 0
12.935639 -0.469122 6.481163 14.476060 -0.036250 1.106587 0.006978 -0.005256 3626130.000000 1 0 0
5.956439 -13.363422 3.720463 15.096425 -1.151501 1.321784 0.007206 -0.008789 1148490.000000 1 0 0
-5.645061 3.516678 -5.018437 8.331773 -0.557135 2.217207 0.005115 -0.004903 2182900.000000 1 0 0
-4.415761 7.983678 3.329363 9.711989 -1.065577 1.220890 0.005678 -0.001242 -1055350.000000 1 0 0
14.021639 6.230978 -3.992037 15.854583 0.418173 1.825326 0.016711 -0.002329 -115148.000000 1 0 0
-6.754461 -8.455222 5.229463 12.019185 0.896756 1.120655 0.011601 -0.001808 288294.000000 1 0 0
1.626839 11.423178 2.669963 11.843323 1.429332 1.343401 0.004418 -0.002739 1324510.000000 1 0 0
-7.396461 7.196778 5.916163 11.895472 -0.771716 1.050260 0.005196 -0.004860 -77062.200000 1 0 0
-17.501961 -4.162822 5.204063 18.727787 0.233510 1.289211 0.033651 -0.018044 -253078.000000 1 0 0
7.554639 -13.002422 -8.506237 17.276910 -1.044451 2.085581 0.020757 -0.003397 -1705030.000000 1 0 0
-2.356261 12.714078 -2.822737 13.235089 -1.387548 1.785724 0.001677 0.002314 1071910.000000 1 0 0
-5.600261 13.865978 -5.792037 16.036707 -1.186945 1.940323 0.007223 0.003866 2264830.000000 1 0 0
-5.722761 2.403178 7.379763 9.642934 -0.397571 0.699285 0.013563 -0.006046 2286150.000000 1 0 0
-7.506361 5.036878 1.379563 9.144331 -0.591007 1.419353 0.010098 -0.006004 2212260.000000 1 0 0
10.828939 -5.651722 -4.987937 13.194218 -0.481021 1.958474 0.015430 -0.004235 3030100.000000 1 0 0
-9.612161 -0.698122 6.800963 11.795513 0.072502 0.956269 0.007489 -0.005791 747916.000000 1 0 0
-11.319661 -4.577922 -2.575537 12.479002 0.384313 1.778680 0.006905 -0.004453 1190250.000000 1 0 0
6.460339 -4.214922 13.536163 15.579771 -0.578082 0.517963 0.002669 -0.006319 -429763.000000 1 0 0
0.173039 10.365678 -11.628637 15.578909 1.554104 2.413484 0.004769 -0.001649 -1372260.000000 1 0 0
-11.842961 -3.178122 1.478063 12.350743 0.262178 1.450835 0.002313 -0.005831 2696150.000000 1 0 0
5.196039 6.049278 5.441863 9.654349 0.861128 0.971975 -0.000506 -0.000064 -4083200.000000 1 0 0
-7.239161 -0.032522 8.093863 10.858966 0.004492 0.729718 0.006774 -0.005799 1157600.000000 1 0 0
1.870939 2.069578 9.594263 9.991669 0.835765 0.282985 0.000011 -0.002374 2721870.000000 1 0 0
10.525839 -4.895422 -1.931137 11.768081 -0.435329 1.735641 0.003497 -0.000193 2513680.000000 1 0 0
-9.690561 -2.445622 -1.638337 10.127793 0.247209 1.733277 0.006597 -0.002290 -719854.000000 1 0 0
-1.916661 -5.226322 -9.879937 11.340246 1.219294 2.628494 0.012854 -0.002472 536775.000000 1 0 0
7.673939 -1.570322 6.552663 10.212377 -0.201844 0.874163 0.000663 -0.002301 1767410.000000 1 0 0
1.580739 -11.859722 -2.529837 12.229138 -1.438291 1.779171 0.001632 0.000300 -3338720.000000 1 0 0
-0.664261 -1.467922 4.816363 5.078720 1.145850 0.322828 0.009423 -0.004210 3292850.000000 1 0 0
7.674139 1.536378 9.877963 12.602659 0.197590 0.670035 -0.002729 -0.001017 2180300.000000 1 0 0
-3.957161 10.738578 -8.045337 13.989411 -1.217737 2.183525 0.005622 0.001677 3091030.000000 1 0 0
-9.593161 12.649578 6.395163 17.115452 -0.921955 1.187857 0.001096 -0.001842 1234520.000000 1 0 0
-2.499661 -2.432422 -11.010437 11.549662 0.771766 2.834818 0.013701 -0.005058 -893414.000000 1 0 0
1.193039 -11.984822 11.006263 16.315549 -1.471577 0.830391 -0.005005 0.002801 1359700.000000 1 0 0
1.405039 3.493278 -1.964837 4.247082 1.188384 2.051758 0.004703 -0.002382 3356990.000000 1 0 0
-1.883561 -9.432322 -12.159437 15.503819 1.373697 2.472342 0.009629 0.002389 1100970.000000 1 0 0
1.334939 -2.647422 1.639763 3.388175 -1.103762 1.065614 0.009921 -0.003654 3435650.000000 1 0 0
-1.094461 -2.276122 -6.568737 7.037533 1.122590 2.774532 0.010769 -0.007453 676143.000000 1 0 0
1.786739 5.889678 4.067963 7.377606 1.276253 0.986763 -0.001460 0.000462 82802.600000 1 0 0
-11.067961 8.492478 3.543763 14.393756 -0.654483 1.322037 -0.004855 -0.004462 1555990.000000 1 0 0
-16.485961 -1.621122 3.987463 17.038627 0.098018 1.334581 0.017141 -0.009436 120143.000000 1 0 0
-12.296061 0.282478 6.664563 13.988900 -0.022969 1.074220 0.003658 -0.006732 553949.000000 1 0 0
-5.187461 2.966778 4.630263 7.559819 -0.519511 0.911598 0.012324 -0.004620 2242050.000000 1 0 0
5.217639 -6.052822 3.989663 8.931843 -0.859367 1.107747 -0.001985 -0.003526 1577040.000000 1 0 0
9.990839 3.490478 6.331463 12.332385 0.336112 1.031653 -0.005246 0.003004 742667.000000 1 0 0
-12.340961 5.775178 3.137063 13.981887 -0.437695 1.344504 -0.000950 -0.005928 1931040.000000 1 0 0
-4.886861 12.212178 -1.253737 13.213272 -1.190149 1.665824 -0.009129 0.003610 941930.000000 1 0 0
-1.673661 -12.187122 10.209663 15.986379 1.434320 0.878057 0.001294 0.000036 1870970.000000 1 0 0
5.194239 6.390478 13.856263 16.118758 0.888294 0.536240 -0.000045 0.002489 564588.000000 1 0 0
13.010539 -3.689422 -5.907537 14.757538 -0.276318 1.982647 0.017314 -0.006513 1577270.000000 1 0 0
3.566239 -2.470322 6.371563 7.708266 -0.605808 0.597778 -0.003190 -0.001242 806775.000000 1 0 0
7.266139 -11.897822 -0.503037 13.950197 -1.022538 1.606864 0.005746 -0.001482 -901174.000000 1 0 0
-6.097361 -6.514822 -4.159237 9.844794 0.818486 2.006977 0.020524 -0.003500 977158.000000 1 0 0
0.360839 -8.879622 5.176863 10.284834 -1.530182 1.043326 0.006740 -0.002951 2108190.000000 1 0 0
-10.373661 2.512278 -0.431737 10.682265 -0.237604 1.611224 0.004921 -0.004716 -1740760.000000 1 0 0
-1.825561 8.910078 -0.380237 9.103117 -1.368706 1.612578 0.003540 -0.001551 763777.000000 1 0 0
-3.512461 2.321178 -6.616637 7.842521 -0.583959 2.574912 0.011635 -0.008398 373044.000000 1 0 0
-12.824061 3.050078 6.306563 14.612743 -0.233502 1.124553 0.001007 -0.005967 -74535.600000 1 0 0
11.409539 1.588678 7.978363 14.012700 0.138352 0.965061 0.006824 -0.005933 -3036890.000000 1 0 0
5.980339 2.630978 -3.103037 7.232934 0.414455 2.014198 0.002782 0.000646 2577960.000000 1 0 0
10.533139 -2.354222 6.486463 12.592203 -0.219892 1.029652 0.008660 -0.002688 4076500.000000 1 0 0
-0.997461 11.003478 4.109563 11.788128 -1.480394 1.214699 0.002886 0.000899 1149960.000000 1 0 0
-1.689361 -12.227022 7.323963 14.352507 1.433499 1.035273 0.002787 0.002715 -864547.000000 1 0 0
8.091539 8.731178 -7.753037 14.206197 0.823402 2.148081 0.013174 -0.004729 4113260.000000 1 0 0
-4.649561 -5.978722 -8.788937 11.602109 0.909811 2.430316 0.018063 -0.002981 1095580.000000 1 0 0
-8.496361 -5.442522 -11.648137 15.410655 0.569718 2.427747 0.010495 0.001432 1645290.000000 1 0 0
6.125039 -0.640322 -9.956037 11.706783 -0.104163 2.587637 0.004206 -0.002576 -1074520.000000 1 0 0
-11.251561 -5.549722 -5.392637 13.655679 0.458225 1.976756 0.009752 -0.006277 -705491.000000 1 0 0
3.912739 8.919578 -2.756037 10.122457 1.157405 1.846547 0.012004 -0.006308 1712050.000000 1 0 0
11.760139 -10.488522 -3.957837 16.247290 -0.728306 1.816872 0.027450 -0.007491 1056740.000000 1 0 0
4.072039 -11.268122 3.892263 12.597690 -1.224022 1.256690 0.000362 -0.005368 528849.000000 1 0 0
-0.859261 0.897878 3.183863 3.417821 -0.807372 0.372150 0.010550 -0.004456 -2401540.000000 1 0 0
-10.589761 -5.068222 4.489963 12.569395 0.446379 1.205513 0.010238 -0.006574 2976680.000000 1 0 0
4.670039 -8.618622 2.783763 10.190154 -1.074228 1.294097 -0.000578 -0.003174 4243400.000000 1 0 0
-3.684061 -5.678522 2.555863 7.235355 0.995285 1.209757 0.011257 -0.002224 3586050.000000 1 0 0
9.935339 5.028778 12.259163 16.561602 0.468556 0.737405 0.007142 0.003047 -1098690.000000 1 0 0
1.746639 -12.273422 -5.225437 13.453357 -1.429435 1.969703 -0.000378 -0.000288 -23558.100000 1 0 0
9.922739 -10.829522 -1.638337 14.779155 -0.829066 1.681879 0.008239 -0.004362 771788.000000 1 0 0
9.673939 -4.457522 -9.249037 14.106710 -0.431779 2.285837 0.021284 -0.008315 1992120.000000 1 0 0
-7.445561 -3.145222 -13.011337 15.317431 0.399691 2.585732 0.011486 -0.000509 3374590.000000 1 0 0
0.456839 6.239778 -2.495237 6.735706 1.497713 1.950289 0.003241 -0.003876 3351720.000000 1 0 0
-5.942461 -9.548022 0.927963 11.284444 1.014086 1.488470 0.014057 -0.001956 1344360.000000 1 0 0
-9.053561 -4.097122 0.614563 9.956459 0.424966 1.509032 0.005867 -0.003182 3044360.000000 1 0 0
2.002239 3.742978 12.041563 12.767854 1.079595 0.338916 -0.001557 -0.002489 923699.000000 1 0 0
6.685239 4.286278 9.534463 12.408489 0.570133 0.694487 -0.007492 0.001384 2269920.000000 1 0 0
-8.233961 9.814378 -3.621237 13.312907 -0.872741 1.846277 0.001834 -0.002540 1107780.000000 1 0 0
16.477839 2.186978 -6.020637 17.679087 0.131951 1.918300 0.017489 0.000445 -1196500.000000 1 0 0
-10.959361 2.605178 -5.047937 12.344076 -0.233381 1.992084 0.004496 -0.000130 1999550.000000 1 0 0
-13.875661 3.873278 1.477363 14.481673 -0.272213 1.468602 0.005107 -0.001041 572475.000000 1 0 0
-17.435061 10.510178 3.300563 20.623747 -0.542489 1.410068 0.038197 -0.009636 66646.000000 1 0 0
-14.420261 2.868278 -1.188737 14.750730 -0.196344 1.651472 0.006467 -0.004124 246337.000000 1 0 0
-14.556061 5.081978 5.053463 16.224762 -0.335901 1.254061 0.000741 -0.002728 306345.000000 1 0 0
-17.514861 7.633978 3.140263 19.362573 -0.411031 1.407895 0.027297 -0.004667 -2842500.000000 1 0 0
-15.265561 12.660478 -3.359137 20.114892 -0.692382 1.738580 0.062706 -0.016605 -997465.000000 1 0 0
-8.691961 12.396878 -9.539437 17.895073 -0.959305 2.133029 0.006814 -0.008462 764210.000000 1 0 0
-12.350561 8.677678 -9.846937 18.022226 -0.612478 2.148829 0.017306 -0.000684 -1470160.000000 1 0 0
-13.788361 -3.576422 -12.184937 18.745196 0.253787 2.278420 0.019973 -0.000577 -1108750.000000 1 0 0
-14.805261 5.759778 -7.628437 17.622822 -0.371019 2.018473 0.043231 0.000960 399435.000000 1 0 0
-11.121461 13.478378 -8.262637 19.329375 -0.880917 2.012483 0.021662 -0.007728 2457140.000000 1 0 0
-11.007261 13.489378 3.886963 17.839047 -0.886378 1.351144 0.001852 -0.005007 88162.600000 1 0 0
-15.413361 3.200778 3.042763 16.033562 -0.204752 1.379864 0.006819 0.001975 612933.000000 1 0 0
-11.141061 9.306878 -12.488237 19.149341 -0.695937 2.281213 0.022812 -0.007344 598787.000000 1 0 0
-13.209461 11.393378 -8.924437 19.594502 -0.711716 2.043681 0.029958 -0.022775 -543386.000000 1 0 0
-8.950661 14.580778 -3.557837 17.474886 -1.020243 1.775827 0.014166 -0.007419 217792.000000 1 0 0
-16.805961 8.221578 -4.147537 19.163422 -0.454975 1.788952 0.052313 -0.006426 516155.000000 1 0 0
-16.824561 6.735278 0.375063 18.126514 -0.380786 1.550103 0.021559 -0.002437 -1686930.000000 1 0 0
-10.507261 2.744878 -12.552737 16.598436 -0.255526 2.428374 0.012623 -0.006792 1105980.000000 1 0 0
-17.075661 0.793078 2.318063 17.250525 -0.046412 1.436012 0.019016 -0.005629 1318180.000000 1 0 0
-12.609161 1.140978 -7.018037 14.475691 -0.090242 2.076948 0.006003 -0.003046 1595210.000000 1 0 0
-12.371061 8.959478 -5.431037 16.211464 -0.626802 1.912414 0.019790 -0.003953 -720981.000000 1 0 0
-9.723061 13.955078 1.249363 17.054121 -0.962262 1.497472 0.016020 -0.007959 1411530.000000 1 0 0
-12.245761 11.076478 2.715663 16.733854 -0.735304 1.407790 0.001439 -0.005046 -316274.000000 1 0 0
-12.602461 6.752778 -3.593637 14.742329 -0.491899 1.817040 0.007020 0.000106 746248.000000 1 0 0
-15.990161 3.649378 -9.269937 18.839717 -0.224383 2.085230 0.053636 -0.007800 -470467.000000 1 0 0
-15.157261 5.845678 -4.669037 16.903089 -0.368091 1.850659 0.030758 0.001382 1817670.000000 1 0 0
-18.005161 5.231578 7.585563 20.226122 -0.282774 1.186359 0.027364 -0.006034 -482248.000000 1 0 0
-15.901061 10.103578 -2.192237 18.966601 -0.566045 1.686639 0.043206 -0.008141 -1672850.000000 1 0 0
-8.825061 9.874478 -8.284437 15.621105 -0.841459 2.129793 -0.001778 -0.002692 1001080.000000 1 0 0
-17.047461 4.210678 -1.165337 17.598402 -0.242151 1.637063 0.016190 -0.000108 -481005.000000 1 0 0
-10.245461 5.435278 -4.679137 12.506240 -0.487753 1.954270 0.003570 -0.000577 -329701.000000 1 0 0
-18.216961 2.744478 6.156963 19.424161 -0.149531 1.248259 0.030310 -0.006212 -1939930.000000 1 0 0
-10.370161 10.051978 -5.657037 15.510789 -0.769819 1.944124 0.008665 -0.008141 2099660.000000 1 0 0
-15.395461 0.371878 -5.957837 16.512248 -0.024150 1.939936 0.017023 -0.003960 1345490.000000 1 0 0
-16.440561 -4.183822 -8.856537 19.137258 0.249192 2.051937 0.038798 -0.017572 -687704.000000 1 0 0
-9.962061 9.625278 -1.111737 13.896928 -0.768206 1.650881 0.004527 -0.003842 1779830.000000 1 0 0
-17.354761 -2.954822 -3.322037 17.915207 0.168643 1.757307 0.019913 -0.011070 -186368.000000 1 0 0
-11.983361 4.990678 -11.572037 17.390223 -0.394621 2.298871 0.021239 -0.003836 -540211.000000 1 0 0
-16.447561 7.053478 5.924363 18.851310 -0.405124 1.251111 0.020583 -0.003190 585783.000000 1 0 0
-12.139961 5.849278 -8.854337 16.124267 -0.448998 2.152121 0.016666 0.001283 1914430.000000 1 0 0
-14.599761 8.403078 -0.119337 16.845741 -0.522257 1.577880 0.021567 -0.004814 1801160.000000 1 0 0
-14.924161 11.907478 3.844563 19.475608 -0.673438 1.372087 0.007868 -0.009819 66043.400000 1 0 0
-17.402361 4.065478 -4.042337 18.322412 -0.229500 1.793249 0.035917 -0.006381 427440.000000 1 0 0
-13.781761 13.274578 -0.859437 19.154373 -0.766655 1.615680 0.027192 -0.016568 -1314090.000000 1 0 0
-10.088461 6.766678 -13.200037 17.938951 -0.590813 2.397689 0.003472 -0.007475 924126.000000 1 0 0
-15.870861 -1.213722 -8.331037 17.965621 0.076326 2.052987 0.022815 -0.011901 -254176.000000 1 0 0
-11.430861 11.891178 -0.107237 16.494733 -0.805133 1.577298 0.018450 -0.013589 441453.000000 1 0 0
-11.987161 7.483078 -0.874637 14.158160 -0.558065 1.632612 0.005355 -0.000295 1107940.000000 1 0 0
-11.540561 0.068078 -11.748537 16.468676 -0.005899 2.365116 0.009709 -0.004753 302368.000000 1 0 0
-19.153861 -1.123122 -4.745237 19.764844 0.058570 1.813249 0.031113 -0.012902 -2082830.000000 1 0 0
-17.923061 1.455178 -5.218637 18.723991 -0.081013 1.853251 0.023534 -0.005822 -1296740.000000 1 0 0
-13.310861 -0.121622 -9.495537 16.351117 0.009137 2.190418 0.012429 -0.006029 -23853.300000 1 0 0
-6.306561 11.188878 -13.309637 18.496219 -1.057537 2.374004 -0.001579 -0.004317 -305673.000000 1 0 0
16.273539 5.885878 7.080763 18.697830 0.347046 1.182411 0.026096 -0.008418 911965.000000 1 0 0
15.006839 10.175278 -5.428937 18.926564 0.595837 1.861725 0.062995 -0.015340 1254670.000000 1 0 0
2.349539 16.924778 4.323363 17.625547 1.432856 1.322978 0.015129 -0.009766 1768640.000000 1 0 0
-4.052761 18.219478 -5.850237 19.560151 -1.351919 1.874535 0.026481 -0.005202 -309816.000000 1 0 0
5.412939 14.539978 5.620863 16.501666 1.214413 1.223216 0.009400 -0.006569 -200383.000000 1 0 0
9.848939 5.999378 15.032163 18.946242 0.547113 0.654403 0.017220 0.000375 -951976.000000 1 0 0
4.669139 12.742478 -1.215737 13.625330 1.219566 1.660141 0.015551 -0.007305 2041570.000000 1 0 0
3.562639 13.846778 12.848663 19.222742 1.318968 0.838728 0.004552 -0.004649 -797620.000000 1 0 0
-0.735461 12.352678 9.195963 15.417370 -1.511328 0.931703 0.002940 0.001098 1379290.000000 1 0 0
-7.783761 13.911478 8.333463 17.987851 -1.060673 1.089100 0.012862 -0.009401 332735.000000 1 0 0
11.527839 12.864278 -4.159637 17.767478 0.840133 1.807105 0.052422 -0.011622 539033.000000 1 0 0
-5.894761 16.055378 0.815963 17.122768 -1.218924 1.523125 0.010580 0.000161 859524.000000 1 0 0
3.231839 10.585278 6.725863 12.951067 1.274471 1.024731 0.002161 0.002423 1166960.000000 1 0 0
-1.307661 15.570978 2.385363 15.806812 -1.487012 1.419310 0.006364 -0.003678 -1776300.000000 1 0 0
9.992739 8.843078 9.451263 16.351796 0.724438 0.954526 0.003728 0.000666 1667710.000000 1 0 0
7.278239 12.337978 6.155863 15.591444 1.037832 1.164921 0.007421 -0.005968 84788.100000 1 0 0
11.913139 14.096178 -1.553337 18.521284 0.869135 1.654763 0.047495 -0.010766 -660100.000000 1 0 0
9.646739 15.899778 -1.182837 18.634957 1.025449 1.634313 0.033879 -0.012380 2081300.000000 1 0 0
10.118039 13.678678 2.996363 17.275970 0.933924 1.396474 0.019187 -0.011548 2011610.000000 1 0 0
-6.047961 14.493678 6.200863 16.884764 -1.175480 1.194750 0.001879 -0.005851 -673904.000000 1 0 0
-1.143061 18.264878 -6.276237 19.346925 -1.508295 1.901179 0.030471 -0.005991 929678.000000 1 0 0
-3.558761 15.693578 5.365163 16.962846 -1.347802 1.248981 0.001111 -0.006196 1932580.000000 1 0 0
7.146839 12.296678 10.684663 17.788975 1.044314 0.926502 0.002066 0.003521 2345320.000000 1 0 0
1.458539 14.623478 6.125263 15.921441 1.471386 1.175894 0.004653 -0.004319 180095.000000 1 0 0
17.605239 7.710178 -1.374037 19.268608 0.412786 1.642166 0.030752 0.002184 1882580.000000 1 0 0
1.959139 16.289578 -3.405237 16.756617 1.451102 1.775439 0.018710 -0.012072 2301100.000000 1 0 0
6.755339 11.122278 0.517363 13.023338 1.024975 1.531060 0.015554 -0.006889 2503370.000000 1 0 0
12.705839 9.420178 3.183963 16.134302 0.637978 1.372151 0.015718 -0.004747 -2155560.000000 1 0 0
6.060839 14.182578 -3.522337 15.820434 1.166942 1.795323 0.018496 -0.010370 1116300.000000 1 0 0
2.931939 16.518778 1.541863 16.847660 1.395134 1.479150 0.017586 -0.013034 312456.000000 1 0 0
2.641039 18.948878 -2.592837 19.306938 1.432311 1.705499 0.027448 -0.016824 -766404.000000 1 0 0
4.040139 11.992678 10.613463 16.516436 1.245854 0.872909 0.001256 -0.002404 2537260.000000 1 0 0
8.136939 11.507578 3.360663 14.488899 0.955325 1.336717 0.008369 -0.004466 663967.000000 1 0 0
0.747839 12.514178 0.118863 12.537067 1.511108 1.561315 0.006433 -0.004083 -1838540.000000 1 0 0
12.078639 9.913278 -4.514337 16.264865 0.687253 1.852041 0.035837 -0.009625 665806.000000 1 0 0
-1.242761 16.403078 9.888163 19.193259 -1.495177 1.029568 -0.000032 -0.007718 -1830930.000000 1 0 0
7.984339 14.770678 -8.139537 18.659439 1.075235 2.022185 0.035216 -0.010348 -141453.000000 1 0 0
14.632739 7.752678 -1.396837 16.618430 0.487216 1.654949 0.018317 0.000459 518989.000000 1 0 0
12.574939 8.375878 5.985863 16.251615 0.587594 1.193590 0.008641 -0.001107 -2968600.000000 1 0 0
-3.016261 14.211278 10.128363 17.709941 -1.361656 0.961973 0.010256 -0.008479 991917.000000 1 0 0
-4.821861 17.080678 -3.101737 18.017233 -1.295657 1.743812 0.027678 -0.001859 353352.000000 1 0 0
-7.248561 16.399578 -1.798937 18.020099 -1.154618 1.670792 0.014892 0.001727 273391.000000 1 0 0
8.376539 11.250478 -1.949437 14.161213 0.930793 1.708895 0.020125 -0.008165 -988465.000000 1 0 0
8.617039 12.926978 -4.267237 16.111158 0.982844 1.838857 0.037293 -0.007310 1560030.000000 1 0 0
2.472239 14.901478 -7.354437 16.800409 1.406388 2.023895 0.007334 -0.012219 -547935.000000 1 0 0
11.305239 11.399378 9.762363 18.789837 0.789544 1.024466 0.013845 -0.003815 744530.000000 1 0 0
8.565839 15.790678 1.523763 18.028892 1.073759 1.486178 0.019990 -0.011225 1594560.000000 1 0 0
6.080139 9.959478 7.642063 13.948492 1.022701 0.990972 0.003292 0.001966 2764400.000000 1 0 0
14.450839 11.502678 2.548263 18.644892 0.672289 1.433694 0.030876 -0.004933 2118360.000000 1 0 0
12.118839 12.670078 1.065663 17.565101 0.807632 1.510090 0.034898 -0.008636 842974.000000 1 0 0
5.286639 15.946278 8.232963 18.708662 1.250671 1.115129 0.016742 -0.004544 -226731.000000 1 0 0
11.519939 14.965478 5.090563 19.559866 0.914764 1.307509 0.033439 -0.014029 -66340.300000 1 0 0
5.839739 16.821478 1.789563 17.896011 1.236654 1.470631 0.017322 -0.018075 1424880.000000 1 0 0
-0.790761 16.194278 -4.194437 16.747335 -1.522005 1.823945 0.011164 -0.005218 1424710.000000 1 0 0
16.011739 6.523878 2.621563 17.487406 0.386907 1.420318 0.010147 -0.003034 -46523.500000 1 0 0
7.568339 16.637678 -3.246937 18.564339 1.143882 1.746602 0.024968 -0.014214 333308.000000 1 0 0
14.834439 8.235578 7.507163 18.553782 0.506801 1.154237 0.029780 -0.006491 -467845.000000 1 0 0
2.110239 12.926878 8.516963 15.623570 1.408979 0.994246 0.003031 -0.002316 2699280.000000 1 0 0
16.037939 7.463378 -5.945637 18.661942 0.435552 1.895045 0.023961 0.000646 -663754.000000 1 0 0
-3.090761 17.014378 0.668463 17.305742 -1.391100 1.532160 0.007725 -0.001833 1092150.000000 1 0 0
-3.015361 18.579978 4.568363 19.369510 -1.409908 1.332700 0.011123 -0.011671 1769720.000000 1 0 0
-0.976661 19.069278 0.942663 19.117527 -1.519625 1.521467 0.014537 -0.010709 -122755.000000 1 0 0
6.895639 16.736978 -6.115337 19.106899 1.179988 1.896588 0.025194 -0.012423 -528235.000000 1 0 0
10.983039 10.143778 0.865563 14.975733 0.745694 1.512966 0.013172 -0.002664 -2771900.000000 1 0 0
9.053239 8.699078 14.231463 18.978136 0.765451 0.722905 0.009968 0.002474 -103077.000000 1 0 0
6.270339 12.328778 -8.427637 16.196943 1.100297 2.118025 0.026665 -0.013332 440056.000000 1 0 0
6.281339 9.005178 13.186763 17.159230 0.961733 0.694312 0.001499 -0.002341 910190.000000 1 0 0
16.635939 9.550178 3.042363 19.422058 0.521134 1.413504 0.032327 -0.007446 -1111150.000000 1 0 0
2.477039 14.751878 -0.813437 14.980497 1.404435 1.625123 0.014381 -0.006608 1052020.000000 1 0 0
9.103339 12.995178 8.382063 17.944481 0.959724 1.084776 0.011910 -0.004790 1167600.000000 1 0 0
7.297539 9.376078 10.453163 15.825092 0.909419 0.849254 0.001881 -0.001845 1370020.000000 1 0 0
4.267239 15.838878 -5.286037 17.234314 1.307629 1.882537 0.018270 -0.010705 1082370.000000 1 0 0
0.096039 16.429478 -8.203737 18.364048 1.564951 2.033901 0.016692 -0.007595 1318130.000000 1 0 0
-2.553761 15.682278 -2.007037 16.015110 -1.409370 1.696448 0.001629 -0.000604 -188837.000000 1 0 0
13.311239 10.523478 7.653763 18.614853 0.668965 1.147065 0.023961 -0.007154 1916050.000000 1 0 0
-1.019461 15.957678 7.009563 17.459117 -1.506998 1.157659 0.004472 -0.005029 2356610.000000 1 0 0
13.337239 13.343678 6.727563 20.029872 0.785640 1.228261 0.034810 -0.015286 -201042.000000 1 0 0
5.268939 17.354078 4.521963 18.691546 1.276027 1.326446 0.020520 -0.015893 -818601.000000 1 0 0
10.845239 9.559378 -1.799337 14.568408 0.722463 1.694622 0.018504 -0.002610 554155.000000 1 0 0
3.143339 12.787378 4.697163 13.980735 1.329760 1.228157 0.005762 0.001106 1528200.000000 1 0 0
-0.266361 18.030178 3.550863 18.378436 -1.556024 1.376365 0.007025 -0.012245 3327780.000000 1 0 0
-7.768461 15.826078 -5.969637 18.613175 -1.114484 1.897287 0.028982 -0.006135 1007210.000000 1 0 0
-12.560161 -9.086822 8.250863 17.561456 0.626301 1.081700 0.036469 -0.009140 -325686.000000 1 0 0
-13.307761 -11.628622 6.870763 18.961243 0.718163 1.199999 0.045966 -0.010589 -626284.000000 1 0 0
-6.529661 -12.296022 12.354363 18.613407 1.082627 0.844995 0.035374 -0.004862 -878044.000000 1 0 0
-1.744261 -10.802722 14.393563 18.080816 1.410713 0.650026 0.002792 -0.005504 1020210.000000 1 0 0
-8.911161 2.810678 10.930363 14.379901 -0.305535 0.707308 0.009801 -0.008644 1382040.000000 1 0 0
0.561339 10.065678 15.040663 18.106754 1.515086 0.590494 0.001030 -0.005983 -1309830.000000 1 0 0
1.022639 -6.845022 16.619063 18.002594 -1.422494 0.394606 0.013283 -0.011849 2665330.000000 1 0 0
5.929239 2.267478 17.778463 18.877794 0.365263 0.342952 0.013558 -0.007145 963072.000000 1 0 0
-5.201461 -3.009222 17.554263 18.554320 0.524486 0.329818 0.022120 -0.016149 524487.000000 1 0 0
-4.274561 8.068978 12.916063 15.817869 -1.083631 0.615389 0.005822 -0.008720 956303.000000 1 0 0
-0.090561 -4.994022 18.519963 19.181697 1.552664 0.263433 0.024169 -0.023812 -944538.000000 1 0 0
-11.697161 2.054278 11.058763 16.227751 -0.173849 0.821024 0.012331 -0.011534 668715.000000 1 0 0
-3.436661 -6.022922 14.306063 15.898103 1.052277 0.451348 0.015278 -0.013455 912469.000000 1 0 0
-7.551161 -2.208822 14.490763 16.488819 0.284575 0.497405 0.013948 -0.007723 500398.000000 1 0 0
-6.139661 -1.074122 10.550863 12.254383 0.173195 0.533589 0.008417 -0.005406 1403070.000000 1 0 0
-3.930861 2.421078 11.175563 12.091588 -0.552040 0.391749 0.008801 -0.002706 354380.000000 1 0 0
-6.421561 6.256778 13.437363 16.153837 -0.772402 0.588387 0.005203 -0.011327 1402080.000000 1 0 0
-9.041461 5.383178 12.454763 16.304839 -0.537021 0.701509 0.012058 -0.016713 550286.000000 1 0 0
-12.235061 -2.072822 15.712663 20.022016 0.167823 0.668472 0.005641 0.002567 746406.000000 1 0 0
-3.527661 -7.605822 16.880663 18.848069 1.136517 0.460979 0.025396 -0.011337 -733672.000000 1 0 0
-0.549561 -5.471122 14.470563 15.480065 1.470684 0.363137 0.009952 -0.004286 2493890.000000 1 0 0
-14.236061 -2.232622 13.501663 19.747024 0.155562 0.817932 0.014615 -0.006166 113589.000000 1 0 0
-6.491861 1.513578 12.131163 13.841976 -0.229058 0.502453 0.013370 -0.005782 2403150.000000 1 0 0
2.238939 -2.288222 14.581163 14.928467 -0.796284 0.216126 0.003678 -0.003458 -454210.000000 1 0 0
-12.601161 3.999578 9.032863 16.011824 -0.307340 0.971409 0.001492 -0.010274 -1256050.000000 1 0 0
-9.152061 -2.942822 12.413763 15.701017 0.311106 0.658952 0.007479 -0.000583 280333.000000 1 0 0
-7.173761 -7.236122 15.237763 18.330678 0.789726 0.589406 0.027914 -0.009074 -1772830.000000 1 0 0
-3.297861 5.938278 19.466963 20.617995 -1.063850 0.335720 0.030978 -0.009785 1743450.000000 1 0 0
0.696839 5.434178 16.083563 16.991083 1.443260 0.328310 0.000665 -0.005216 1153330.000000 1 0 0
3.313139 1.436378 16.806763 17.190328 0.409082 0.211642 -0.002238 -0.006480 1519210.000000 1 0 0
-11.763361 11.434878 7.932463 18.222433 -0.771239 1.120410 0.006150 -0.007344 -432206.000000 1 0 0
0.652839 -9.573222 15.499963 18.229691 -1.502707 0.554319 -0.000178 0.000224 -15846.900000 1 0 0
-2.617161 -3.643722 18.724663 19.254591 0.947916 0.235157 0.033364 -0.026497 1137510.000000 1 0 0
-12.908661 2.332178 13.668363 18.944570 -0.178740 0.764841 0.007571 -0.013797 112090.000000 1 0 0
-5.478861 -0.612922 15.668463 16.610067 0.111407 0.338327 0.019070 -0.005892 -76162.900000 1 0 0
-4.506561 -5.976822 11.574263 13.783870 0.924736 0.574073 0.008386 -0.003316 -619597.000000 1 0 0
2.460039 1.719978 14.011563 14.329481 0.610167 0.211039 -0.003575 -0.001507 -710218.000000 1 0 0
0.145439 3.257378 14.172863 14.543099 1.526177 0.226126 0.001640 -0.003274 -968765.000000 1 0 0
-13.049761 7.043778 12.222563 19.217235 -0.494950 0.881466 0.015714 -0.013882 817632.000000 1 0 0
0.777539 1.561578 18.219863 18.303183 1.108815 0.095453 0.008694 -0.006926 1233330.000000 1 0 0
-1.977761 6.298878 12.366763 14.018710 -1.266558 0.490364 0.004616 -0.003847 792936.000000 1 0 0
-13.462761 -2.652922 10.840163 17.486940 0.194563 0.902180 0.020683 -0.010517 17018.300000 1 0 0
-2.497361 3.538378 13.446563 14.126818 -0.956193 0.311593 0.005879 -0.002046 -185714.000000 1 0 0
3.543639 6.262378 16.288463 17.806987 1.055857 0.415974 0.001164 0.001387 742337.000000 1 0 0
-3.732361 12.401178 12.304363 17.863849 -1.278451 0.810984 0.007165 -0.006799 371597.000000 1 0 0
3.637439 -1.475022 17.177863 17.620603 -0.385248 0.224643 0.009355 -0.007541 1675370.000000 1 0 0
-15.946361 0.471278 9.199163 18.415568 -0.029545 1.047738 0.022018 -0.006857 1155560.000000 1 0 0
-4.654961 4.593478 15.151463 16.502592 -0.778750 0.407470 0.019946 -0.011875 1251710.000000 1 0 0
-7.994961 -8.122822 10.487963 15.488609 0.793331 0.826927 0.022290 -0.008225 3214050.000000 1 0 0
-2.673461 -0.565222 14.731763 14.983048 0.208351 0.183403 0.014037 -0.003652 2412590.000000 1 0 0
-1.920761 0.952178 17.167663 17.301001 -0.460225 0.124232 0.013072 -0.008902 -164868.000000 1 0 0
-0.641661 -2.563722 14.470863 14.710210 1.325549 0.180638 0.011777 -0.004876 215053.000000 1 0 0
5.093739 -8.253122 16.473163 19.116101 -1.017833 0.532101 0.010611 -0.005688 681655.000000 1 0 0
-4.509661 9.957778 10.597063 15.224721 -1.145551 0.800925 0.006089 -0.005001 -1069360.000000 1 0 0
-6.215661 2.129078 15.166563 16.528523 -0.330009 0.408798 0.020702 -0.004574 -117776.000000 1 0 0
-4.915161 6.784178 17.163063 19.098550 -0.943814 0.454096 0.019448 -0.009732 -865042.000000 1 0 0
-4.095461 9.143578 15.635063 18.569680 -1.149685 0.569877 0.011300 -0.008655 -449810.000000 1 0 0
-4.697961 -9.898922 18.323263 21.349508 1.127680 0.538942 0.040917 -0.016521 613798.000000 1 0 0
-6.800261 -4.090222 11.059463 13.611951 0.541507 0.622400 0.010348 -0.001507 842275.000000 1 0 0
-2.458561 -0.841322 19.506763 19.679079 0.329710 0.132432 0.029094 -0.014504 155851.000000 1 0 0
-5.804961 -4.550122 15.239463 16.930518 0.664805 0.450756 0.016311 -0.009645 600313.000000 1 0 0
-13.028161 -0.020422 9.590363 16.177406 0.001568 0.936235 0.007012 -0.006226 -74124.000000 1 0 0
-14.428961 8.894978 10.611963 19.998233 -0.552440 1.011435 0.002951 -0.005867 -930220.000000 1 0 0
-8.437561 10.294378 12.800863 18.466964 -0.884201 0.804910 0.016787 -0.023698 -482368.000000 1 0 0
-10.556861 7.133778 10.694163 16.634399 -0.594263 0.872525 0.011550 -0.012689 767749.000000 1 0 0
-9.862261 -6.499122 14.699563 18.856828 0.582668 0.676873 0.024417 -0.009537 425133.000000 1 0 0
-0.596061 -13.551522 14.375963 19.765307 1.526840 0.756368 -0.000611 -0.008890 1454020.000000 1 0 0
3.824639 -5.682722 16.963563 18.294362 -0.978402 0.383779 0.019440 -0.011944 2746400.000000 1 0 0
-7.326861 9.221678 10.348263 15.678291 -0.899402 0.849927 0.008308 -0.011737 1814650.000000 1 0 0
-10.306361 -6.637222 11.782563 17.003017 0.572141 0.805197 0.023266 -0.012935 2219240.000000 1 0 0
-10.920361 -3.900522 10.550963 15.677729 0.343056 0.832552 0.013893 -0.005520 526482.000000 1 0 0
-10.141761 -10.121122 9.792063 17.354450 0.784380 0.971285 0.036527 -0.013683 229938.000000 1 0 0
-9.859861 -3.640922 15.146163 18.435820 0.353735 0.606651 0.020193 -0.010829 654862.000000 1 0 0
5.598439 -3.313022 16.127763 17.390324 -0.534351 0.383399 0.014492 -0.007398 17310.100000 1 0 0
-11.253261 0.610878 15.313863 19.013771 -0.054231 0.634431 0.016092 -0.006502 337958.000000 1 0 0
-3.163661 3.177578 18.748763 19.277497 -0.787593 0.234750 0.022801 -0.011199 731161.000000 1 0 0
0.492239 7.345078 13.858663 15.692515 1.503880 0.488285 -0.001275 -0.003010 1128190.000000 1 0 0
-13.191761 -7.420422 12.010163 19.321730 0.512393 0.900028 0.031639 -0.020544 1113690.000000 1 0 0
-1.530461 -1.202122 12.128463 12.283608 0.665814 0.159103 0.009810 -0.004310 277915.000000 1 0 0
2.028239 -4.934122 13.115563 14.159001 -1.180789 0.386310 0.000769 -0.003437 1386410.000000 1 0 0
-14.711461 -4.033322 8.587563 17.505457 0.267587 1.058058 0.028494 -0.017570 -1326680.000000 1 0 0
7.976739 0.769878 16.102263 17.986216 0.096217 0.461791 0.018358 -0.008829 950234.000000 1 0 0
-1.252561 11.345678 13.334663 17.552965 -1.460842 0.707973 0.001143 -0.002662 992678.000000 1 0 0
2.837539 -12.282222 -13.858437 18.733950 -1.343752 2.403495 -0.001715 0.008961 -276865.000000 1 0 0
0.886839 -10.680622 -14.041637 17.664363 -1.487954 2.489661 -0.001354 0.005522 -2589670.000000 1 0 0
3.531539 -14.274222 -12.435537 19.257927 -1.328260 2.272783 0.002878 0.004583 -505243.000000 1 0 0
-5.205061 -10.337322 -16.075937 19.808802 1.104336 2.517605 0.034593 -0.010724 5647.800000 1 0 0
-0.920461 -12.283022 -15.087637 19.477080 1.495998 2.456935 0.020386 -0.003914 -91894.300000 1 0 0
5.907739 -14.940722 -11.806037 19.937629 -1.194251 2.204519 0.010309 0.001653 -149745.000000 1 0 0
1.930939 -11.811622 -16.157237 20.107194 -1.408752 2.504040 0.002847 0.003230 -679858.000000 1 0 0
1.422439 -14.422122 -13.899437 20.080221 -1.472485 2.335323 0.022079 0.006955 -8881.860000 1 0 0
-1.085761 -10.723022 -15.903337 19.211408 1.469885 2.545984 0.014318 -0.005850 -438368.000000 1 0 0
-5.763261 -5.432222 -15.280937 17.211369 0.755838 2.663425 0.024803 -0.000128 168270.000000 1 0 0
-6.440161 -7.622222 -16.419837 19.214187 0.869259 2.595516 0.029542 -0.005604 535739.000000 1 0 0
5.013139 -12.439122 -11.425737 17.618478 -1.187694 2.276420 -0.010906 0.004062 98046.600000 1 0 0
-1.918061 -15.559222 -13.152837 20.463760 1.448140 2.268863 0.035308 -0.003010 -2918.620000 1 0 0
15.931739 -7.368022 -8.914237 19.686840 -0.433179 2.040702 0.043346 -0.007149 398406.000000 1 0 0
19.255339 -3.326022 -4.038437 19.953432 -0.171045 1.774597 0.034415 -0.022066 473498.000000 1 0 0
15.090539 -11.458122 -8.637637 20.823585 -0.649421 1.998520 0.056935 -0.021298 337996.000000 1 0 0
18.346339 -3.512422 -6.443337 19.759601 -0.189162 1.902957 0.083671 -0.015749 907399.000000 1 0 0
9.509739 -9.043122 -15.249337 20.118535 -0.760253 2.430999 0.045536 -0.020766 30090.400000 1 0 0
1.117839 1.944778 -15.160037 15.325092 1.049120 2.994694 0.009659 -0.008530 -115556.000000 1 0 0
4.837839 -4.254122 -13.886137 15.307744 -0.721285 2.707213 0.009435 -0.004158 -115552.000000 1 0 0
13.271639 -5.472022 -8.623637 16.746538 -0.391073 2.111746 0.042954 -0.009161 -1737810.000000 1 0 0
3.033539 0.903978 -12.183737 12.588208 0.289616 2.887410 0.005949 -0.006842 -4671410.000000 1 0 0
0.495539 6.386478 -12.870037 14.376039 1.493360 2.679771 0.005542 -0.007634 80138.400000 1 0 0
3.206539 -1.092722 -16.699437 17.039575 -0.328437 2.941451 0.028708 -0.013758 -452206.000000 1 0 0
13.129939 4.584178 -11.408737 17.988031 0.335908 2.257822 0.014049 -0.003714 402322.000000 1 0 0
-3.930361 9.434778 -16.488737 19.399516 -1.176077 2.586698 0.002207 -0.000285 -19664.200000 1 0 0
-0.304861 -5.088122 -17.760037 18.477035 1.510952 2.862099 0.019672 -0.008428 315014.000000 1 0 0
-0.462561 -8.649722 -17.513037 19.538119 1.517370 2.682268 0.019061 -0.007916 -1393600.000000 1 0 0
5.812739 -9.993322 -12.078737 16.719758 -1.043970 2.378096 0.002570 -0.002762 50858.900000 1 0 0
1.864139 -9.690422 -17.983137 20.512740 -1.380749 2.639716 0.022443 -0.008682 -210344.000000 1 0 0
10.907339 8.832078 -14.538737 20.207684 0.680650 2.373829 0.050404 -0.015437 -18611.800000 1 0 0
11.095939 -3.816322 -12.863937 17.411635 -0.331265 2.402103 0.035669 -0.012766 357960.000000 1 0 0
4.851839 7.547778 -12.122137 15.081627 0.999487 2.504399 -0.000075 -0.003981 -684564.000000 1 0 0
9.712939 -5.895122 -12.573437 16.946532 -0.545503 2.406767 0.027662 -0.011920 -889244.000000 1 0 0
-3.308861 0.361078 -15.961837 16.305188 -0.108694 2.936010 0.018225 -0.007077 -1445390.000000 1 0 0
-0.817161 10.887978 -12.763437 16.796462 -1.495885 2.433938 -0.000530 -0.002808 -1456920.000000 1 0 0
6.751739 -5.350822 -12.514237 15.192873 -0.670157 2.538687 0.008237 -0.004423 -593136.000000 1 0 0
18.020739 -6.129522 -8.040837 20.663328 -0.327861 1.970489 0.047260 -0.019463 5037.860000 1 0 0
13.225239 4.820878 -13.888237 19.774502 0.349552 2.349462 0.028945 -0.008247 350541.000000 1 0 0
14.177239 0.820678 -11.491437 18.268025 0.057822 2.251122 0.022394 -0.002949 -803915.000000 1 0 0
15.060339 6.206978 -11.009837 19.661050 0.390928 2.165161 0.027096 -0.007267 -62507.700000 1 0 0
8.269739 1.411078 -11.564137 14.286671 0.169004 2.513986 -0.001716 0.000831 518520.000000 1 0 0
9.990539 1.289678 -8.903537 13.444222 0.128380 2.294624 0.004907 -0.001952 103567.000000 1 0 0
-0.063261 -5.715422 -12.951137 14.156341 1.559728 2.725969 0.004796 0.000030 193526.000000 1 0 0
10.702139 -5.576822 -9.032837 15.074112 -0.480380 2.213333 0.028179 -0.011804 -1585710.000000 1 0 0
10.277239 8.484178 -11.198537 17.407186 0.690116 2.269634 0.028907 -0.009615 826493.000000 1 0 0
8.338139 8.154378 -14.551637 18.648554 0.774257 2.465956 0.031200 -0.009532 522737.000000 1 0 0
8.590639 10.475278 -10.613637 17.209875 0.883927 2.235363 0.039693 -0.012966 358458.000000 1 0 0
7.145639 1.816978 -17.868637 19.330022 0.249001 2.750251 0.029823 -0.005246 -289749.000000 1 0 0
12.119839 2.641678 -12.812037 17.833038 0.214607 2.372359 0.015755 -0.005379 67400.600000 1 0 0
2.738439 -0.928122 -19.229337 19.445510 -0.326773 2.992344 0.041440 -0.022264 -318222.000000 1 0 0
10.459939 -2.196222 -15.378937 18.728198 -0.206959 2.534245 0.037458 -0.013354 464124.000000 1 0 0
8.362339 -0.852322 -13.030337 15.506284 -0.101573 2.568681 0.009955 -0.004641 -1722.830000 1 0 0
0.599739 4.420678 -14.589937 15.256747 1.435953 2.844850 0.004878 -0.005166 -333276.000000 1 0 0
4.016339 -7.563822 -15.757637 17.934478 -1.082663 2.643766 0.007258 -0.006862 -613734.000000 1 0 0
11.554539 -5.881722 -14.430237 19.399323 -0.470853 2.409613 0.050536 -0.013033 -1638470.000000 1 0 0
-5.706561 4.311678 -16.940537 18.388507 -0.647053 2.742096 0.000304 0.000608 -51317.100000 1 0 0
11.435039 7.926578 -9.059137 16.602973 0.606136 2.147941 0.027211 -0.005754 -927136.000000 1 0 0
9.549539 6.132978 -13.322837 17.501574 0.570892 2.436014 0.017555 -0.001932 891449.000000 1 0 0
12.128739 0.608678 -10.093237 15.790827 0.050143 2.264232 0.021826 -0.000235 -2020270.000000 1 0 0
5.497639 -7.149322 -13.766537 16.457654 -0.915262 2.561629 0.007530 -0.004718 -627321.000000 1 0 0
8.633839 -10.094522 -10.637237 17.017442 -0.863234 2.246028 0.016909 -0.006378 -57051.300000 1 0 0
10.055239 4.773778 -15.868637 19.383251 0.443249 2.529901 0.031914 -0.006596 -1222560.000000 1 0 0
9.946939 -0.435822 -10.874337 14.743905 -0.043787 2.400228 0.009941 -0.002057 -150432.000000 1 0 0
-1.702861 5.425978 -13.995137 15.106450 -1.266696 2.755625 0.001611 -0.007826 -444217.000000 1 0 0
1.398039 -0.589022 -14.934437 15.011291 -0.398750 3.040359 0.014463 -0.009396 -148718.000000 1 0 0
11.568339 -10.427722 -14.135737 21.032900 -0.733589 2.307807 0.063535 -0.014316 582488.000000 1 0 0
9.391239 -7.706322 -10.770937 16.235635 -0.687168 2.296168 0.027653 -0.011252 10156.100000 1 0 0
14.157139 -0.983022 -9.667537 17.171260 -0.069325 2.168816 0.031224 -0.003517 942211.000000 1 0 0
3.906239 11.208278 -12.215737 17.032569 1.235446 2.370570 0.015197 -0.010809 -904737.000000 1 0 0
-1.177561 2.890178 -16.657237 16.947074 -1.183896 2.956382 0.010224 -0.009863 -267579.000000 1 0 0
6.076539 -0.606922 -17.468637 18.505295 -0.099549 2.805288 0.018889 -0.010651 111581.000000 1 0 0
6.392039 -6.396122 -16.062937 18.433298 -0.785717 2.628863 0.020520 -0.011918 289153.000000 1 0 0
-1.772761 -5.023722 -19.769137 20.474355 1.231560 2.878368 0.036101 -0.023327 -240887.000000 1 0 0
-0.088261 -4.373122 -15.186937 15.804272 1.550616 2.861170 0.011195 -0.007968 79562.700000 1 0 0
0.539039 0.763678 -12.861337 12.895261 0.956158 3.069041 0.011034 -0.009619 688084.000000 1 0 0
15.619939 0.599678 -13.593737 20.715496 0.038373 2.286583 0.036407 -0.011796 700169.000000 1 0 0
-0.010461 6.971678 -16.352437 17.776574 -1.569296 2.738588 -0.003056 0.001393 -385015.000000 1 0 0
-4.693361 -0.744522 -18.130037 18.742470 0.157322 2.885250 0.013793 -0.009853 -119060.000000 1 0 0
10.522739 -8.366522 -12.985437 18.690861 -0.671740 2.338866 0.034996 -0.016084 1568220.000000 1 0 0
4.096639 8.598578 -17.060337 19.539014 1.126180 2.632408 0.014016 -0.011906 -545598.000000 1 0 0
9.345539 0.495078 -16.949837 19.361848 0.052925 2.637110 0.025273 -0.005767 77193.500000 1 0 0
3.346239 4.838578 -18.482537 19.396219 0.965747 2.833434 0.017413 -0.006839 -446654.000000 1 0 0
1.546439 -8.072122 -15.824737 17.831795 -1.381512 2.662568 0.004191 -0.008193 -230719.000000 1 0 0
4.468339 7.706178 -14.795737 17.270352 1.045333 2.599659 0.009905 -0.004714 343406.000000 1 0 0
-5.679561 -0.429722 -15.289037 16.315536 0.075517 2.784979 0.010678 -0.002721 -646873.000000 1 0 0
2.804239 3.316678 -13.663937 14.337617 0.868923 2.833828 0.006251 -0.005141 -655518.000000 1 0 0
-2.351761 -10.339022 -18.053337 20.936789 1.347137 2.610547 0.034624 -0.008595 85282.800000 1 0 0
6.251739 -8.926922 -15.484237 18.935040 -0.959853 2.528297 0.003980 -0.005931 82480.300000 1 0 0
-1.770061 5.471578 -17.197337 18.133385 -1.257921 2.818884 0.001949 -0.005376 95666.500000 1 0 0
10.192939 -11.998822 -11.382937 19.427789 -0.866596 2.196799 0.051016 -0.013049 107497.000000 1 0 0
10.883939 3.620278 -9.362537 14.806202 0.321114 2.255365 0.008584 -0.002139 -863014.000000 1 0 0
4.877939 -0.506222 -10.944337 11.992875 -0.103408 2.720322 0.007424 -0.004572 204858.000000 1 0 0
6.311339 9.558078 -11.455237 16.199145 0.987204 2.356257 0.024510 -0.010706 1275.140000 1 0 0
10.880239 -9.441722 -9.337237 17.167111 -0.714730 2.145877 0.039363 -0.013828 -1058600.000000 1 0 0
3.291539 -2.344522 -14.415837 14.971552 -0.618925 2.868280 0.016959 -0.007943 -145730.000000 1 0 0
9.396339 -4.613922 -14.772837 18.105694 -0.456449 2.525119 0.035219 -0.012289 7648.640000 1 0 0
-3.952261 -6.819122 -16.760937 18.521603 1.045523 2.702035 0.019251 -0.000350 -621810.000000 1 0 0
5.895939 -7.572922 -11.273137 14.805230 -0.909269 2.436311 0.000834 -0.002730 41841.200000 1 0 0
5.413139 6.323678 -16.762937 18.715956 0.862823 2.680686 0.015555 -0.013224 -902197.000000 1 0 0
9.152639 1.271778 -19.415437 21.502265 0.138068 2.697378 0.039218 -0.015366 485836.000000 1 0 0
13.043139 5.817078 -9.294737 17.039777 0.419512 2.147750 0.002002 -0.001385 1076490.000000 1 0 0
-1.350761 -0.578722 -17.264337 17.326765 0.404782 3.056679 0.022866 -0.011958 -17483.400000 1 0 0
-0.352561 -0.456722 -19.412337 19.420909 0.913402 3.111880 0.034953 -0.021916 -328828.000000 1 0 0
2.862539 6.334778 -16.455037 17.863140 1.146383 2.741880 0.003482 -0.003088 -1087190.000000 1 0 0
7.662639 3.801478 -15.565337 17.760827 0.460527 2.639102 0.014037 -0.002843 414829.000000 1 0 0
3.216239 -9.855322 -14.819337 18.085472 -1.255348 2.531170 0.001595 0.000497 443219.000000 1 0 0
9.110439 -10.563922 -13.210237 19.212155 -0.859141 2.328972 0.031462 -0.005889 -31094.800000 1 0 0
3.833039 0.282378 -14.739537 15.232395 0.073537 2.886516 0.011915 -0.006796 -1898970.000000 1 0 0
-1.239261 -2.797022 -18.839637 19.086409 1.153725 2.980613 0.041518 -0.016160 776694.000000 1 0 0
9.177439 10.025778 -13.022337 18.823466 0.829546 2.334795 0.043192 -0.017455 -152275.000000 1 0 0
4.635339 2.059478 -10.603537 11.754267 0.418103 2.695410 0.003678 -0.002885 -162703.000000 1 0 0
-0.513461 6.931978 -18.871637 20.111057 -1.496860 2.788683 0.003647 -0.000115 -55766.200000 1 0 0
0.902439 -1.848822 -17.580137 17.700106 -1.116701 3.025098 0.033059 -0.017944 -1074030.000000 1 0 0
-4.516461 -2.249622 -13.971737 14.854920 0.462122 2.795031 0.018274 -0.007330 -2627640.000000 1 0 0
10.070339 6.016978 -10.334137 15.633622 0.538576 2.292974 0.012469 0.000695 124769.000000 1 0 0
8.055739 5.430378 -17.526537 20.039047 0.593132 2.635446 0.030620 -0.013234 -394893.000000 1 0 0
11.338239 0.294478 -13.426337 17.575804 0.025966 2.440147 0.021251 -0.003497 158983.000000 1 0 0
6.712239 12.004078 -11.804137 18.124284 1.060945 2.280077 0.036739 -0.020273 -422811.000000 1 0 0
-0.999561 0.487878 -14.890837 14.932319 -0.454076 3.067036 0.016978 -0.009618 -673193.000000 1 0 0
-4.434661 -3.174322 -18.892637 19.664035 0.621250 2.860566 0.028595 -0.004060 -82472.700000 1 0 0
5.975639 -11.884022 -13.830637 19.189183 -1.104888 2.375682 0.004591 -0.001281 168648.000000 1 0 0
2.196739 -4.763622 -14.066937 15.013210 -1.138710 2.784653 0.010879 -0.002701 -202742.000000 1 0 0
11.710439 2.046678 -15.323437 19.394096 0.173026 2.481782 0.029300 -0.008819 254846.000000 1 0 0
9.628439 2.273478 -13.673837 16.877480 0.231874 2.515259 0.011809 -0.007634 1195430.000000 1 0 0
-2.340961 -4.179622 -16.449637 17.133006 1.060240 2.858206 0.015958 -0.006004 -664344.000000 1 0 0
-2.771261 10.062378 -14.312137 17.713514 -1.302051 2.511509 0.004911 -0.007349 332830.000000 1 0 0
3.450339 5.798278 -13.518237 15.108527 1.034015 2.678650 0.005861 -0.005776 -158464.000000 1 0 0
-5.225261 -2.756722 -16.464537 17.492394 0.485464 2.797079 0.025125 -0.003904 459890.000000 1 0 0
-4.273161 6.120178 -13.620637 15.531846 -0.961274 2.640273 0.000073 -0.005399 -1086960.000000 1 0 0
6.035839 -1.093422 -14.210337 15.477745 -0.179211 2.734092 0.012400 -0.001942 -864996.000000 1 0 0
6.722739 -2.878022 -12.626237 14.591096 -0.404496 2.616622 0.008231 -0.006826 976920.000000 1 0 0
2.889139 -3.287222 -18.207937 18.726503 -0.849762 2.905710 0.038196 -0.021421 -567955.000000 1 0 0
7.531739 -11.982922 -11.886437 18.482556 -1.009656 2.269357 0.012516 0.000392 -1940100.000000 1 0 0
-6.077161 -5.700622 -17.904637 19.748544 0.753439 2.706025 0.043280 0.003886 387659.000000 1 0 0
0.463339 8.859178 -11.938237 14.873507 1.518544 2.502523 0.004992 -0.003078 -98241.900000 1 0 0
0.311839 8.545778 -14.398237 16.746247 1.534322 2.605652 -0.004657 -0.002186 -83318.700000 1 0 0
7.852139 -2.530422 -15.006637 17.124785 -0.311751 2.638947 0.022419 -0.014675 490859.000000 1 0 0
14.329739 1.455978 -8.890237 16.926240 0.101258 2.123786 0.014409 0.000012 316135.000000 1 0 0
2.743739 10.612878 -14.533537 18.203982 1.317806 2.495382 0.004360 -0.003504 -460556.000000 1 0 0
6.211239 1.066378 -15.440937 16.677505 0.170028 2.754086 0.017296 -0.006121 322218.000000 1 0 0
16.992539 -5.406622 -10.258137 20.572003 -0.308048 2.092832 0.083243 -0.023043 779571.000000 1 0 0
4.984139 -4.267322 -11.177237 12.960798 -0.708071 2.610764 0.005606 -0.002779 -495096.000000 1 0 0
8.912439 -3.530622 -17.083337 19.589212 -0.377179 2.630231 0.025545 -0.011423 440711.000000 1 0 0
13.402739 -9.471122 -8.875737 18.657820 -0.615179 2.066569 0.055231 -0.014655 151651.000000 1 0 0
2.484339 -7.661422 -13.537437 15.752191 -1.257228 2.604892 -0.000336 0.001276 209454.000000 1 0 0
-6.869661 -2.235722 -18.322737 19.695517 0.314638 2.766026 0.022818 -0.011082 -511584.000000 1 0 0
-1.478061 -6.488822 -15.766037 17.113076 1.346832 2.742171 0.009622 -0.001707 406625.000000 1 0 0
1.574539 -7.233222 -18.322537 19.761428 -1.356459 2.757628 0.022292 -0.012181 -174214.000000 1 0 0
5.318439 10.763678 -14.482837 18.812100 1.111872 2.449431 0.029561 -0.021811 -62281.600000 1 0 0
5.468939 -3.439022 -17.551837 18.703025 -0.561347 2.788909 0.028529 -0.011030 -10984.000000 1 0 0
3.889339 12.904978 -14.141237 19.535608 1.278071 2.380191 0.017500 -0.012105 83706.700000 1 0 0
9.239739 10.468878 -15.630437 20.959025 0.847683 2.412474 0.061551 -0.020182 23183.300000 1 0 0
2.477139 3.783778 -16.248037 16.865701 0.991143 2.870122 0.013435 -0.005480 236126.000000 1 0 0
16.577139 1.769878 -11.479437 20.241330 0.106363 2.173812 0.035510 -0.005266 67602.300000 1 0 0
10.093039 -3.609422 -10.558737 15.046072 -0.343443 2.348662 0.025566 -0.006587 1002140.000000 1 0 0
14.946539 -2.043922 -11.912337 19.221873 -0.135906 2.239193 0.061040 -0.013627 949459.000000 1 0 0
-2.622661 -8.781222 -15.974237 18.416418 1.280563 2.620732 0.022025 -0.003112 -80615.000000 1 0 0
14.037739 8.240578 -8.868837 18.537030 0.530828 2.069672 0.044713 -0.004300 163858.000000 1 0 0
-8.208461 0.211478 -16.673337 18.585578 -0.025758 2.683984 0.007655 -0.000843 -330203.000000 1 0 0
-3.419861 3.869478 -15.816037 16.637768 -0.847002 2.825993 0.005830 -0.006517 -771004.000000 1 0 0
15.006739 3.882478 -9.694537 18.282776 0.253165 2.129698 0.010198 0.000494 1100090.000000 1 0 0
5.393439 1.132578 -12.949537 14.073465 0.206984 2.739230 0.005880 -0.001804 58040.700000 1 0 0
7.921639 -7.693622 -12.895737 16.977756 -0.770797 2.433443 0.020046 -0.007068 -2560890.000000 1 0 0
3.275839 -6.077822 -11.736737 13.616976 -1.076451 2.609840 0.003952 -0.000553 -497538.000000 1 0 0
-3.029161 3.470878 -18.397737 18.965746 -0.853250 2.896236 0.006738 -0.003942 -457881.000000 1 0 0
0.872039 5.101278 -17.770237 18.508506 1.401488 2.858198 0.006717 -0.011286 -1620930.000000 1 0 0
6.283839 7.222978 -10.114537 13.927020 0.854817 2.383651 0.006405 -0.001174 -51599.700000 1 0 0
9.587339 3.811478 -11.641137 15.555079 0.378395 2.416415 0.007094 0.000860 296649.000000 1 0 0
4.650239 1.648378 -17.495537 18.177890 0.340653 2.866730 0.020290 -0.006634 60835.000000 1 0 0
2.540539 8.119778 -13.161837 15.672239 1.267563 2.567745 0.004756 -0.005939 -1280470.000000 1 0 0
14.537239 -3.514622 -9.791837 17.876351 -0.237215 2.150473 0.046898 -0.009936 335638.000000 1 0 0
-1.385861 9.194978 -16.220937 18.697246 -1.421203 2.621066 -0.001122 0.000283 -2080490.000000 1 0 0
-5.293761 2.041978 -15.884437 16.867392 -0.368147 2.798517 0.010539 -0.003990 723202.000000 1 0 0
4.566039 4.210078 -11.930337 13.450145 0.744860 2.661613 0.001953 -0.003607 336556.000000 1 0 0
9.312539 3.099678 -17.488437 20.054346 0.321315 2.630176 0.026046 -0.007482 973848.000000 1 0 0
-4.425561 14.172478 -13.525337 20.084309 -1.268126 2.309633 0.023076 -0.013716 -332006.000000 1 0 0
15.622239 -4.918322 -8.032737 18.241960 -0.305005 2.026778 0.047064 -0.010430 -821883.000000 1 0 0
1.189539 9.322878 -16.769837 19.223904 1.443889 2.630771 -0.003191 0.003689 712936.000000 1 0 0
0.611539 -3.213222 -12.851437 13.261154 -1.382726 2.892368 0.008272 -0.004921 269162.000000 1 0 0
7.419139 3.535278 -12.954137 15.341169 0.444678 2.576247 -0.000082 -0.001822 350534.000000 1 0 0
-3.088161 7.519978 -15.123837 17.170243 -1.181133 2.648381 0.002502 -0.004466 755907.000000 1 0 0
12.280739 -5.039222 -10.954037 17.210497 -0.389384 2.260715 0.047413 -0.013974 -1134180.000000 1 0 0
0.764539 -4.278422 -19.998437 20.465260 -1.393966 2.927594 0.039822 -0.021709 -38234.400000 1 0 0
3.585939 -4.545922 -16.116737 17.125232 -0.902906 2.796697 0.021450 -0.013641 424024.000000 1 0 0
-5.694561 4.048578 -14.338237 15.950048 -0.618041 2.688154 0.001741 -0.005894 946196.000000 1 0 0
12.280339 -7.437722 -9.847037 17.409496 -0.544572 2.171973 0.034642 -0.011346 -47045.400000 1 0 0
-2.094661 -1.830122 -15.046637 15.301576 0.718098 2.958795 0.016340 -0.005813 516054.000000 1 0 0
7.071239 5.898978 -14.161837 16.892542 0.695262 2.565043 0.010552 -0.004969 -362206.000000 1 0 0
4.097739 -5.513622 -18.435437 19.673759 -0.931660 2.784901 0.037613 -0.016873 88553.400000 1 0 0
7.520939 7.386178 -12.142837 16.080069 0.776358 2.426677 0.011630 -0.006532 -1083140.000000 1 0 0
12.422839 -2.408222 -11.092137 16.827417 -0.191479 2.290511 0.037266 -0.004835 702656.000000 1 0 0
7.481939 -0.787022 -10.693337 13.074642 -0.104804 2.528493 0.003596 -0.002719 -2526940.000000 1 0 0
5.267839 4.088578 -14.430637 15.896851 0.660022 2.708726 0.002897 -0.002817 906482.000000 1 0 0
14.730939 2.999578 -12.886237 19.800331 0.200878 2.279446 0.026098 -0.010302 355957.000000 1 0 0
-6.261061 6.675778 -15.862337 18.313400 -0.817444 2.618263 0.002744 0.001448 469859.000000 1 0 0
-11.147461 3.771178 -16.520037 20.282980 -0.326213 2.522625 0.050082 -0.015621 130182.000000 1 0 0
-4.875161 6.502878 -17.981537 19.732974 -0.927492 2.717089 0.004038 0.012287 -872178.000000 1 0 0
-10.108461 1.532978 -15.523837 18.588182 -0.150506 2.559194 0.037939 -0.008162 -591852.000000 1 0 0
-7.501861 5.986578 -17.942837 20.348524 -0.673528 2.650410 0.017272 -0.002743 674053.000000 1 0 0
-8.611861 3.706978 -15.757537 18.335916 -0.406478 2.604854 0.007798 0.004136 998806.000000 1 0 0
8.918939 13.588078 -11.915837 20.153672 0.989949 2.203403 0.070780 -0.028473 1043300.000000 1 0 0
13.803639 9.489278 -11.277837 20.193475 0.602252 2.163360 0.040458 -0.004136 375201.000000 1 0 0
8.341139 15.905878 -9.202237 20.180503 1.087815 2.044288 0.052860 -0.020819 -634879.000000 1 0 0
7.369139 13.439078 -13.931337 20.712198 1.069231 2.308533 0.047069 -0.018965 260845.000000 1 0 0
4.251939 15.977278 -12.264337 20.585586 1.310701 2.209024 0.036928 -0.025286 -32391.900000 1 0 0
10.977339 11.038678 -11.510037 19.360664 0.788184 2.207448 0.060554 -0.014442 275974.000000 1 0 0
15.681439 10.045578 -9.428737 20.873961 0.569741 2.039465 0.060986 -0.008347 992150.000000 1 0 0
13.313339 10.760478 -9.077137 19.375946 0.679750 2.058360 0.078489 -0.012945 -5311.950000 1 0 0
10.648239 12.102678 -8.215737 18.093041 0.849240 2.042139 0.051811 -0.005893 437796.000000 1 0 0
5.432139 16.063478 -10.050437 19.711792 1.244702 2.105829 0.025925 -0.025277 -638167.000000 1 0 0
6.567139 14.729778 -11.954537 20.074975 1.151406 2.208677 0.034970 -0.000914 -692623.000000 1 0 0
10.711439 14.202878 -9.749537 20.285712 0.924629 2.072148 0.078189 -0.013652 -830226.000000 1 0 0
8.454339 -18.668522 -1.270037 20.532962 -1.145562 1.632689 0.057320 -0.003854 -89594.000000 1 0 0
7.514439 -17.371022 -3.382737 19.226599 -1.162519 1.747657 0.038981 -0.002801 258270.000000 1 0 0
4.567939 -17.963522 5.240063 19.261683 -1.321784 1.295278 0.035616 -0.020579 236721.000000 1 0 0
9.985039 -16.983522 -2.504537 19.859852 -1.039303 1.697244 0.048583 -0.007789 350147.000000 1 0 0
-9.648161 -12.382922 -10.059537 18.644518 0.908898 2.140692 0.033966 -0.009380 81748.000000 1 0 0
-5.101561 -7.046222 -12.191337 14.976777 0.944135 2.521829 0.013024 0.001385 362368.000000 1 0 0
-10.857061 -9.532022 -5.701837 15.532101 0.720502 1.946686 0.020434 -0.007476 -725838.000000 1 0 0
-4.562461 -11.477322 -13.962737 18.641432 1.192430 2.417372 0.037110 -0.008049 500831.000000 1 0 0
-2.780761 -15.442622 7.351163 17.327631 1.392635 1.132668 -0.000527 -0.005850 -168035.000000 1 0 0
-4.709961 -12.015322 -11.517037 17.297220 1.197209 2.299404 0.032152 -0.003601 267444.000000 1 0 0
-14.660961 -12.896222 -4.219337 19.976464 0.721446 1.783615 0.059255 -0.012326 1125530.000000 1 0 0
-3.060361 -12.209922 -3.278237 13.007492 1.325210 1.825570 0.015085 -0.004539 812309.000000 1 0 0
-2.356761 -17.408522 -1.552537 17.635797 1.436235 1.658944 0.002779 -0.012211 -1316920.000000 1 0 0
-5.812261 -12.141622 3.634063 13.943019 1.124329 1.307115 0.006580 -0.000482 531807.000000 1 0 0
-8.861461 -10.772122 -11.957237 18.372251 0.882409 2.279475 0.025331 -0.000606 -515637.000000 1 0 0
-9.846361 -12.074622 -7.395637 17.246529 0.886700 2.013981 0.037095 -0.014851 287720.000000 1 0 0
-10.984461 -14.903122 6.181763 19.518597 0.935630 1.248536 0.040892 -0.017932 -60220.900000 1 0 0
-9.529461 -15.597622 0.662663 18.290313 1.022360 1.534558 0.024556 -0.012032 -1488560.000000 1 0 0
-14.699461 -7.493522 -7.866637 18.278704 0.471443 2.015701 0.014428 -0.019428 -607259.000000 1 0 0
-2.434861 -16.545722 5.035263 17.465490 1.424685 1.278348 0.016451 -0.010270 -562387.000000 1 0 0
4.366139 -15.634022 6.233263 17.387909 -1.298463 1.204154 0.021786 -0.010912 -757058.000000 1 0 0
4.199139 -14.523922 -10.001937 18.127764 -1.289352 2.155254 -0.007096 0.002195 -479110.000000 1 0 0
-7.628061 -13.960722 -0.312237 15.911837 1.070725 1.590420 0.014659 -0.004514 766502.000000 1 0 0
2.939739 -14.990122 9.403363 17.937923 -1.377142 1.019001 0.009295 -0.007016 -592386.000000 1 0 0
2.459239 -17.382922 10.304763 20.356866 -1.430255 1.040017 0.030968 -0.008074 -337330.000000 1 0 0
-8.220361 -17.082122 -5.807437 19.826738 1.122280 1.868065 0.050541 -0.024779 -477310.000000 1 0 0
-6.475761 -9.136522 -7.737537 13.611796 0.954204 2.175409 0.024321 -0.006324 276665.000000 1 0 0
-6.124461 -13.081222 -4.862137 15.240334 1.132921 1.895503 0.019557 -0.014910 271832.000000 1 0 0
2.279239 -19.437122 -4.738137 20.135704 -1.454067 1.808334 0.013105 -0.007021 -17052.300000 1 0 0
-5.516161 -12.949422 8.242863 16.311357 1.168098 1.041015 0.013831 -0.001116 930627.000000 1 0 0
2.065339 -17.510022 3.362063 17.949094 -1.453387 1.382372 0.016412 -0.016892 233306.000000 1 0 0
-17.543261 -10.091522 -2.546937 20.398326 0.522012 1.695983 0.035476 -0.015652 520704.000000 1 0 0
-3.554461 -15.474722 2.606863 16.090275 1.345018 1.408064 0.007263 -0.005618 -152941.000000 1 0 0
-10.126161 -10.468122 -14.225437 20.358874 0.802001 2.344423 0.031641 -0.006363 -332526.000000 1 0 0
6.167339 -14.544222 -5.681037 16.788229 -1.169739 1.916006 -0.001295 -0.000911 490160.000000 1 0 0
-7.244961 -12.383322 -10.744737 17.924438 1.041436 2.213605 0.033871 -0.012082 -139461.000000 1 0 0
-7.230261 -14.331822 3.979163 16.538184 1.103563 1.327808 0.003243 -0.001018 772333.000000 1 0 0
3.418639 -15.006922 -3.158837 15.712194 -1.346814 1.773220 0.005208 -0.002285 651791.000000 1 0 0
-7.656161 -11.349022 7.683863 15.699008 0.977315 1.059339 0.017939 -0.007751 -1007770.000000 1 0 0
-12.756761 -12.230722 -1.043737 17.703528 0.764349 1.629787 0.029839 -0.002911 -653694.000000 1 0 0
-1.939261 -13.700822 3.956663 14.391958 1.430187 1.292288 0.007406 -0.002291 -3722030.000000 1 0 0
-3.164961 -13.947922 5.248463 15.235087 1.347662 1.219092 0.001311 -0.002740 69622.700000 1 0 0
-14.552861 -10.375322 -4.257437 18.372775 0.619358 1.804647 0.028731 -0.010301 910415.000000 1 0 0
-6.111761 -8.754722 -10.409637 14.911717 0.961340 2.343515 0.021058 -0.002045 355336.000000 1 0 0
0.768539 -19.496822 2.271063 19.643687 -1.531398 1.454924 0.032919 -0.026027 -57584.000000 1 0 0
6.457139 -14.069622 -8.249037 17.541252 -1.140531 2.060387 0.012156 0.001331 -2641890.000000 1 0 0
-3.813161 -16.710122 -5.909137 18.129707 1.346443 1.902799 0.010448 -0.016317 -236967.000000 1 0 0
-3.517461 -13.651522 -13.154137 19.281284 1.318621 2.321595 0.050444 -0.006754 -2238210.000000 1 0 0
-8.207861 -14.650222 -4.714937 17.442151 1.060114 1.844520 0.036169 -0.020356 -519347.000000 1 0 0
-4.495361 -14.447522 10.111763 18.198542 1.269141 0.981669 0.017090 -0.002128 -1972270.000000 1 0 0
-0.115561 -12.105822 -9.974837 15.686352 1.561251 2.259961 0.012571 0.000540 321909.000000 1 0 0
2.310439 -17.214922 6.433663 18.522518 -1.437382 1.216060 0.016442 -0.016814 -1585810.000000 1 0 0
-2.817661 -19.103822 -3.453637 19.616902 1.424360 1.747773 0.011968 -0.022409 481418.000000 1 0 0
0.822439 -15.316422 -3.160237 15.660660 -1.517151 1.773986 0.004190 -0.004965 -1374030.000000 1 0 0
5.948139 -18.049722 0.561963 19.012854 -1.252462 1.541235 0.028544 -0.011562 -40142.500000 1 0 0
-7.052261 -16.688422 3.725163 18.496342 1.170974 1.368009 0.006625 -0.006307 1161210.000000 1 0 0
-5.243461 -13.610622 -9.521737 17.418564 1.203072 2.149146 0.031904 -0.012171 -385904.000000 1 0 0
5.851639 -15.222722 -2.127737 16.446890 -1.203809 1.700530 0.011091 0.000600 -721871.000000 1 0 0
-8.928861 -10.369222 -0.598337 13.696837 0.859898 1.614495 0.011517 -0.001767 1223040.000000 1 0 0
-7.166561 -17.927722 -3.035837 19.544286 1.190508 1.726759 0.028070 -0.037431 -543068.000000 1 0 0
7.970639 -16.089622 -1.055937 17.986718 -1.110843 1.629537 0.021395 -0.000523 -232749.000000 1 0 0
-8.078561 -10.228122 -9.505137 16.131499 0.902282 2.200900 0.027153 -0.006984 -344055.000000 1 0 0
-9.186261 -15.147322 -7.139037 19.099597 1.025640 1.953877 0.053461 -0.022519 -121805.000000 1 0 0
-11.402761 -10.645922 -11.991337 19.676147 0.751086 2.226144 0.031931 0.003772 -976546.000000 1 0 0
6.581139 -16.373622 2.436163 17.814089 -1.188623 1.433612 0.029951 -0.010926 737014.000000 1 0 0
-2.062761 -11.257822 -6.091437 12.965305 1.389577 2.059890 0.014290 -0.002832 1073480.000000 1 0 0
-12.297561 -15.457722 -3.468537 20.054973 0.898768 1.744622 0.043462 -0.016238 -259419.000000 1 0 0
-0.301061 -19.870122 -2.832337 20.073229 1.555646 1.712369 0.012294 -0.020189 66527.400000 1 0 0
-5.836861 -15.646522 -4.785237 17.371848 1.213740 1.849864 0.017355 -0.016440 -2475610.000000 1 0 0
2.035039 -15.816522 -1.032337 15.980284 -1.442834 1.635442 0.014026 -0.012154 131336.000000 1 0 0
-13.245261 -11.899222 5.277563 18.570975 0.731917 1.282642 0.035013 -0.011462 300003.000000 1 0 0
2.128339 -15.160222 -8.866937 17.691374 -1.431318 2.095783 0.002779 0.005084 -3521630.000000 1 0 0
-11.836961 -16.854822 -0.041737 20.596126 0.958536 1.572823 0.064659 -0.019100 723426.000000 1 0 0
-7.677561 -16.410622 -1.024737 18.146723 1.133205 1.627296 0.033595 -0.021067 284129.000000 1 0 0
-2.970861 -14.409222 -1.825237 14.825086 1.367468 1.694228 0.009113 -0.005461 206132.000000 1 0 0
-1.666661 -10.649922 -13.161637 17.012562 1.415560 2.455366 0.016530 -0.000273 -289796.000000 1 0 0
1.348339 -19.606222 4.711563 20.209423 -1.502133 1.335494 0.039355 -0.026716 -114498.000000 1 0 0
-17.411061 -9.169622 2.495763 19.835722 0.484743 1.444640 0.040841 -0.017224 -335508.000000 1 0 0
-2.531161 -15.735922 -8.074237 17.866710 1.411310 2.039707 0.008169 -0.004892 258828.000000 1 0 0
-10.469961 -12.219622 0.223563 16.093142 0.862359 1.556904 0.014241 0.000296 213687.000000 1 0 0
-6.860561 -11.483322 -6.629237 14.929192 1.032264 2.030905 0.030134 -0.012018 -413526.000000 1 0 0
-2.143161 -13.650122 -6.701437 15.356700 1.415061 2.022374 0.006626 -0.003445 650297.000000 1 0 0
-14.362461 -14.382822 -1.121837 20.356925 0.786106 1.625933 0.056023 -0.010940 200258.000000 1 0 0
-9.644861 -11.299422 -4.343037 15.477799 0.864233 1.855213 0.028046 -0.012357 767257.000000 1 0 0
9.529339 -15.146522 -5.061537 18.596897 -1.009223 1.846445 0.037763 -0.004078 201815.000000 1 0 0
-5.570461 -10.950122 -9.362837 15.446615 1.100203 2.221997 0.029532 -0.008967 -352915.000000 1 0 0
-10.433861 -16.028422 -5.080237 19.788496 0.993747 1.830430 0.064032 -0.023734 -1165730.000000 1 0 0
2.328139 -17.326222 -3.282737 17.787483 -1.437226 1.756414 0.013100 -0.005386 604340.000000 1 0 0
-0.183861 -14.470522 -8.152137 16.609851 1.558091 2.083806 0.007242 0.001451 -811728.000000 1 0 0
-0.462161 -18.379122 -7.065637 19.695912 1.545656 1.937710 0.006844 0.000050 25356.500000 1 0 0
-1.666361 -10.027822 -10.654237 14.725717 1.406127 2.379673 0.009117 0.002170 475066.000000 1 0 0
-5.104461 -17.321322 1.925363 18.160142 1.284216 1.464575 0.008900 -0.013256 1525720.000000 1 0 0
0.338439 -12.835622 -2.614737 13.103609 -1.544435 1.771688 0.006531 -0.001164 -1768090.000000 1 0 0
2.649939 -15.020722 3.125763 15.569671 -1.396174 1.368663 0.014701 -0.008157 -779849.000000 1 0 0
-9.479261 -13.051322 6.810063 17.509151 0.942632 1.171312 0.015839 -0.006786 -418727.000000 1 0 0
-0.741461 -17.906522 -4.424037 18.459832 1.529413 1.812809 0.001074 -0.008958 -1040020.000000 1 0 0
-9.615961 -17.353622 -2.397537 19.984071 1.064797 1.691058 0.051979 -0.035726 -401174.000000 1 0 0
1.285139 -16.235822 1.340163 16.341650 -1.491807 1.488695 0.016982 -0.018412 480634.000000 1 0 0
-0.558461 -18.088922 3.965963 18.527003 1.539933 1.355063 0.030662 -0.023098 483139.000000 1 0 0
-17.458061 -9.211122 -0.070237 19.739139 0.485494 1.574355 0.022167 -0.010500 1118360.000000 1 0 0
-14.906061 -7.403022 -10.597037 19.730499 0.460960 2.137779 0.047131 -0.015190 485437.000000 1 0 0
2.923939 -12.593122 -8.799537 15.638669 -1.342653 2.168418 -0.011438 0.005122 686391.000000 1 0 0
-11.799961 -14.887122 1.642863 19.067367 0.900566 1.484528 0.036576 -0.004672 -39243.200000 1 0 0
-2.241761 -15.570322 10.374363 18.843774 1.427802 0.987778 0.005637 -0.008361 222713.000000 1 0 0
-7.052861 -15.764922 1.336963 17.322329 1.150126 1.493538 0.017299 -0.011491 -431104.000000 1 0 0
-12.714261 -15.220122 -5.949537 20.705109 0.874864 1.862251 0.056454 -0.015063 495074.000000 1 0 0
1.069339 -13.690922 -5.074637 14.640245 -1.492849 1.924764 0.004338 0.001130 328880.000000 1 0 0
5.845239 -16.421622 -7.419637 18.944326 -1.228833 1.973226 0.018762 -0.006575 206059.000000 1 0 0
-6.540961 -12.927722 5.956963 15.665107 1.102389 1.180709 0.010644 -0.001918 -49368.600000 1 0 0
-2.557161 -13.495822 0.500163 13.745052 1.383538 1.534400 0.011982 -0.004936 2073990.000000 1 0 0
-4.221661 -15.505022 0.183463 16.070525 1.304963 1.559380 0.003845 -0.008387 314075.000000 1 0 0
-17.940261 -7.621022 -2.113237 19.606089 0.401701 1.678791 0.030910 -0.013762 1137600.000000 1 0 0
1.323739 -12.719122 -11.884437 17.457611 -1.467095 2.319595 0.003014 0.003338 -164372.000000 1 0 0
1.292739 -17.103322 -5.738437 18.086582 -1.495356 1.893652 0.012246 -0.002239 -2011010.000000 1 0 0
-12.849061 -6.412722 -9.279437 17.097641 0.462912 2.144483 0.029780 -0.004234 901991.000000 1 0 0
-11.394661 -13.763122 -8.746337 19.893724 0.879266 2.026009 0.036489 -0.013892 28053.700000 1 0 0
-4.326861 -9.776122 3.527663 11.257828 1.154118 1.252076 0.010613 -0.000808 -2535400.000000 1 0 0
-7.013161 -14.356622 9.577063 18.628397 1.116394 1.030825 0.026131 -0.007717 -1171850.000000 1 0 0
-5.225061 -15.961122 -8.149137 18.667274 1.254430 2.022553 0.024173 -0.015517 596707.000000 1 0 0
-0.270461 -13.478822 2.083963 13.641653 1.550733 1.417431 0.011699 -0.009868 753271.000000 1 0 0
-11.056561 -13.434022 -4.778337 18.043087 0.882171 1.838823 0.048376 -0.018701 -500752.000000 1 0 0
-9.815861 -10.502122 6.603263 15.819254 0.819161 1.140193 0.023939 -0.006781 -470999.000000 1 0 0
-15.645161 -8.184022 -4.818637 18.302146 0.481958 1.837220 0.035320 -0.015177 748232.000000 1 0 0
-14.501661 -7.265622 5.390563 17.092268 0.464463 1.249939 0.018407 -0.013324 -99531.300000 1 0 0
-1.425461 -19.256622 0.025163 19.309326 1.496907 1.569493 0.021619 -0.025109 -289625.000000 1 0 0
-15.407161 -12.204722 -1.455137 19.709218 0.669934 1.644694 0.036909 -0.000132 281968.000000 1 0 0
-4.386861 -12.117322 -6.777237 14.560391 1.223443 2.054947 0.017713 -0.008993 2795160.000000 1 0 0
-7.544161 -18.321522 1.888263 19.903720 1.180189 1.475784 0.025576 -0.012802 -277470.000000 1 0 0
-2.379461 -11.735522 -8.626837 14.758273 1.370751 2.195112 0.013775 -0.001801 919675.000000 1 0 0
-1.171261 -20.457622 -5.111537 21.119043 1.513606 1.815258 0.005020 -0.005641 -231240.000000 1 0 0
-5.397261 -8.930622 -13.890037 17.372955 1.027181 2.497293 0.028260 0.000566 353372.000000 1 0 0
-8.243561 -18.919422 -0.897137 20.656856 1.159881 1.614240 0.033107 -0.021870 -51805.600000 1 0 0
-17.102261 -7.416422 5.379663 19.401841 0.409176 1.289839 0.046904 -0.025144 152480.000000 1 0 0
-3.591261 -14.520722 -4.341037 15.575401 1.328342 1.853248 0.009999 -0.011927 -2228720.000000 1 0 0
-2.886961 -14.762922 -10.793037 18.513996 1.377679 2.193171 0.027910 -0.010260 -509563.000000 1 0 0
-0.196661 -16.703822 6.183863 17.812819 1.559023 1.216257 0.027648 -0.015152 -1392220.000000 1 0 0
-11.167861 -11.596722 3.733763 16.527132 0.804235 1.342912 0.019155 -0.004961 -806057.000000 1 0 0
-0.200661 -14.634622 -0.183837 14.637152 1.557086 1.583356 0.007929 -0.006448 566743.000000 1 0 0
-7.325861 -9.462922 -2.493737 12.224314 0.912008 1.776236 0.020024 -0.002846 -180047.000000 1 0 0
-11.228261 -14.421922 -0.891337 18.299185 0.909269 1.619525 0.038230 -0.016757 105305.000000 1 0 0
0.419339 -14.653622 -10.639537 18.113647 -1.542187 2.198610 0.006464 0.003337 54236.900000 1 0 0
-1.340761 -14.052422 -3.947837 14.657886 1.475673 1.843496 0.008043 -0.004659 -2158910.000000 1 0 0
-11.634661 -8.114822 -7.671337 16.126534 0.609026 2.066552 0.023936 -0.006164 405269.000000 1 0 0
-0.154261 -17.204622 -0.493037 17.212376 1.561830 1.599445 0.016740 -0.018276 589149.000000 1 0 0
-12.807261 -9.484522 4.395063 16.531748 0.637431 1.301705 0.018855 -0.005493 -438933.000000 1 0 0
3.929039 -16.865022 1.697463 17.399646 -1.341909 1.473084 0.022795 -0.016986 1490990.000000 1 0 0
-3.698461 -17.959922 -8.152237 20.067296 1.367707 1.989137 0.025719 -0.013113 230995.000000 1 0 0
-13.374361 -11.253422 2.593763 17.670333 0.699490 1.423478 0.014999 -0.005520 -969071.000000 1 0 0
-8.521661 -12.167322 4.213663 15.440771 0.959820 1.294398 0.011297 -0.003795 1458620.000000 1 0 0
-8.257861 -9.513622 -5.876637 13.900940 0.855942 2.007275 0.026202 -0.007470 877936.000000 1 0 0
3.854639 -17.446522 -5.292237 18.634568 -1.353349 1.858761 -0.000888 0.004744 -768594.000000 1 0 0
-2.502061 -13.125922 11.211563 17.442743 1.382436 0.872696 -0.000730 -0.000929 604451.000000 1 0 0
0.332139 -16.835622 -9.313937 19.243126 -1.551071 2.076032 0.013722 0.000472 -326980.000000 1 0 0
-7.145861 -10.768122 -14.500037 19.423358 0.984911 2.413621 0.043250 0.001887 -309872.000000 1 0 0
-4.526361 -18.845122 -1.520637 19.440651 1.335074 1.649096 0.023675 -0.024990 -244257.000000 1 0 0
-2.436061 -17.071222 1.074663 17.277613 1.429053 1.508556 0.014363 -0.022410 243810.000000 1 0 0
4.101439 -14.558922 -7.398237 16.837990 -1.296200 2.025702 -0.005789 0.001641 -859081.000000 1 0 0
-0.941361 -15.910322 -6.122137 17.073519 1.511699 1.937537 0.003835 -0.002341 -448753.000000 1 0 0
-9.537961 -15.224522 8.322963 19.799760 1.011129 1.136958 0.026997 -0.008268 -396574.000000 1 0 0
-7.201161 -12.020022 -1.849937 14.133645 1.031041 1.702062 0.016314 -0.004929 975200.000000 1 0 0
-7.284961 -15.150922 -9.374637 19.248504 1.122605 2.079485 0.037789 -0.016588 -57384.500000 1 0 0
-5.034761 -13.222322 -0.753937 14.168523 1.206970 1.624034 0.015134 -0.005163 2943580.000000 1 0 0
-6.402061 -13.892822 -7.303037 16.950848 1.138983 2.016215 0.026531 -0.015925 561641.000000 1 0 0
5.697839 -15.446222 0.301863 16.466398 -1.217400 1.552463 0.017857 -0.005474 1554.930000 1 0 0
-14.443461 -12.699222 0.826663 19.250122 0.721225 1.527840 0.019945 -0.009959 1079330.000000 1 0 0
0.912839 -15.404722 11.010263 18.956915 -1.511608 0.951080 0.012543 -0.005241 -273408.000000 1 0 0
-9.253061 -10.911722 1.959563 14.440385 0.867469 1.434676 0.008861 0.002206 17081.300000 1 0 0
-9.507261 -8.813322 -3.643137 13.466072 0.747539 1.844752 0.017925 -0.005198 168087.000000 1 0 0
-12.294861 -7.331222 -12.261337 18.848098 0.537682 2.279084 0.036948 -0.009614 -88290.300000 1 0 0
-13.338961 -8.311822 -0.522937 15.725385 0.557249 1.604057 0.005396 -0.008163 677030.000000 1 0 0
-11.207261 -9.737422 0.539163 14.856338 0.715336 1.534497 0.003836 0.001999 538250.000000 1 0 0
-15.811861 -12.110922 3.005463 20.142547 0.653624 1.421027 0.045645 -0.008361 -8229.950000 1 0 0
-10.499361 -12.484722 -2.365737 16.483373 0.871564 1.714816 0.036961 -0.013712 681916.000000 1 0 0
-3.401161 -8.957322 -12.213437 15.523194 1.207905 2.476381 0.015627 0.003940 -919815.000000 1 0 0
-0.364861 -15.587322 3.717063 16.028546 1.547393 1.336763 0.020299 -0.010375 -794303.000000 1 0 0
-15.725561 -7.668722 1.139063 17.532828 0.453727 1.505783 0.006681 -0.011575 184669.000000 1 0 0
-6.140161 -13.414822 -13.377537 19.915258 1.141545 2.307328 0.040016 -0.004666 925295.000000 1 0 0
-15.352861 -10.274222 1.237263 18.514881 0.589758 1.503921 0.020361 -0.007066 288299.000000 1 0 0
-9.968761 -8.469822 -12.561037 18.135427 0.704283 2.335917 0.024404 -0.000417 530874.000000 1 0 0
-13.484861 -11.810322 -6.227237 18.976398 0.719295 1.905148 0.047615 -0.010353 135402.000000 1 0 0
-12.302361 -11.451922 -3.848037 17.242448 0.749612 1.795864 0.028533 -0.010049 -776348.000000 1 0 0
-11.762261 -11.241222 -8.948637 18.568628 0.762752 2.073644 0.037584 -0.012696 338207.000000 1 0 0
-13.295761 -8.662422 -5.785337 16.890380 0.577441 1.920397 0.022621 -0.009620 -1216530.000000 1 0 0
-13.471761 -8.314422 -3.178737 16.146899 0.552952 1.768954 0.014564 -0.009714 966945.000000 1 0 0
-4.237861 -16.893622 -3.274337 17.722167 1.325012 1.756623 0.014281 -0.022431 134209.000000 1 0 0
-15.507561 -8.910122 -1.717537 17.967322 0.521508 1.666535 0.022812 -0.008307 -487220.000000 1 0 0
-9.451761 -15.611122 3.597463 18.600663 1.026379 1.376165 0.016264 -0.010773 -1493590.000000 1 0 0
4.508139 -17.630122 7.880563 19.830476 -1.320454 1.162118 0.031965 -0.013131 325104.000000 1 0 0
-8.440461 -15.489722 5.965563 18.621515 1.071872 1.244688 0.012123 0.001642 145615.000000 1 0 0
0.946039 -16.211722 8.473063 18.316870 -1.512507 1.089890 0.008658 -0.004793 -232179.000000 1 0 0
-10.941861 -7.936322 -10.182737 16.923287 0.627516 2.216424 0.023359 -0.003598 1092050.000000 1 0 0
-4.836761 -16.037922 5.946363 17.775501 1.277888 1.229694 0.003674 -0.003808 -467017.000000 1 0 0
-1.241661 -13.294322 -12.062137 17.993773 1.477669 2.305478 0.019515 -0.002629 -784169.000000 1 0 0
-6.521561 -14.368322 -2.628437 15.996503 1.144717 1.735858 0.021507 -0.012141 489793.000000 1 0 0
-17.669061 -6.946322 -7.156237 20.289377 0.374574 1.931260 0.037019 -0.023691 273601.000000 1 0 0
-17.399261 -4.358922 -10.142837 20.606107 0.245471 2.085440 0.062832 -0.015580 831363.000000 1 0 0
-15.288661 -5.306722 -9.016537 18.525723 0.334091 2.079109 0.028564 -0.019592 219438.000000 1 0 0
-15.980061 -5.456722 -5.695637 17.820731 0.329056 1.896111 0.015024 -0.013311 765734.000000 1 0 0
-15.057261 -4.518322 -12.219937 19.911384 0.291526 2.231555 0.048361 -0.014800 -1255420.000000 1 0 0
-18.651461 -5.117822 -5.532837 20.116694 0.267801 1.849425 0.030705 -0.022655 134362.000000 1 0 0
-17.388961 -4.444422 -7.626537 19.501101 0.250232 1.972604 0.031510 -0.018677 671098.000000 1 0 0
12.177539 -7.917622 8.833263 17.000227 -0.576503 1.024417 0.031144 -0.009659 438949.000000 1 0 0
16.002039 -3.424622 1.865363 16.470363 -0.210831 1.457297 0.017663 -0.002489 461234.000000 1 0 0
12.045039 -2.187322 12.588763 17.559735 -0.179638 0.771435 0.024829 -0.007662 230763.000000 1 0 0
9.678739 -10.069022 5.215063 14.908389 -0.805159 1.213431 0.010954 -0.007111 17741.800000 1 0 0
16.880139 -1.817622 7.354763 18.502307 -0.107265 1.162000 0.027555 -0.015270 -93763.400000 1 0 0
5.020339 -12.893522 9.125563 16.574758 -1.199488 0.987750 0.005188 0.001800 -232876.000000 1 0 0
15.158139 -8.963122 -2.060137 17.729943 -0.534003 1.687255 0.032292 -0.006440 354891.000000 1 0 0
11.112239 -8.616422 6.532163 15.504636 -0.659559 1.135914 0.023383 -0.009208 -2045190.000000 1 0 0
19.826739 -3.557022 3.921063 20.521372 -0.177517 1.378542 0.049257 -0.007333 514610.000000 1 0 0
13.591039 -8.643922 6.983963 17.555895 -0.566471 1.161664 0.032120 -0.006892 85706.200000 1 0 0
8.229639 -11.043722 8.888663 16.392043 -0.930383 0.997678 0.007381 -0.003094 -2028280.000000 1 0 0
16.919539 0.202678 -0.773737 16.938434 0.011978 1.616492 0.019277 0.001700 201505.000000 1 0 0
12.400439 -12.382322 2.382363 17.685260 -0.784667 1.435677 0.025888 -0.007537 -2676830.000000 1 0 0
10.380039 -11.663222 3.654763 16.035375 -0.843545 1.340857 0.019039 -0.006693 -650958.000000 1 0 0
16.258439 3.134178 2.449263 16.737945 0.190436 1.423939 0.010173 0.003479 -1022670.000000 1 0 0
18.248339 -3.136922 0.533363 18.523677 -0.170238 1.541999 0.017689 -0.007051 438794.000000 1 0 0
13.558539 -11.674822 -0.157537 17.893023 -0.710885 1.579601 0.041054 -0.003389 -186828.000000 1 0 0
16.960339 -7.556922 -0.830337 18.586275 -0.419159 1.615486 0.036854 -0.005945 137297.000000 1 0 0
10.207439 -5.796222 9.833863 15.313160 -0.516439 0.873453 0.016282 -0.006605 403801.000000 1 0 0
11.427239 -13.369922 6.099763 18.615685 -0.863581 1.236962 0.040075 -0.010156 -197888.000000 1 0 0
13.123639 -1.765522 10.413763 16.846170 -0.133727 0.904386 0.025729 -0.007895 132899.000000 1 0 0
15.685139 -1.941922 -1.431437 15.869582 -0.123180 1.661119 0.011100 0.000154 -1047180.000000 1 0 0
10.434439 -12.447922 8.978363 18.559075 -0.873165 1.065837 0.040787 -0.015243 419875.000000 1 0 0
14.597939 1.302478 3.324063 15.028162 0.088988 1.347763 0.002099 0.002530 946222.000000 1 0 0
14.997339 -5.929222 5.379963 17.000584 -0.376493 1.248804 0.026476 -0.007610 -464159.000000 1 0 0
14.474039 -3.406822 -3.017837 15.172725 -0.231167 1.771030 0.013970 -0.003439 910497.000000 1 0 0
14.077439 0.621378 9.688663 17.100602 0.044111 0.968461 0.022949 -0.007215 514030.000000 1 0 0
15.350839 -3.474022 4.430963 16.350857 -0.222559 1.296372 0.016843 -0.002960 -1265070.000000 1 0 0
18.432139 4.764678 -4.147637 19.484578 0.252961 1.785305 0.000280 -0.003206 557787.000000 1 0 0
18.387339 -5.632122 -4.996637 19.869107 -0.297231 1.825003 0.063719 -0.020808 725049.000000 1 0 0
17.283839 0.153878 5.972363 18.287260 0.008903 1.238107 0.031333 -0.001649 839051.000000 1 0 0
17.071739 -6.690422 4.043363 18.776443 -0.373505 1.353754 0.035681 -0.010181 180916.000000 1 0 0
9.651439 -6.639322 14.332563 18.510895 -0.602566 0.685224 0.014828 -0.002496 -989527.000000 1 0 0
8.604739 -12.431522 5.192463 15.985804 -0.965344 1.239978 0.016545 -0.011660 -1302590.000000 1 0 0
16.898839 -10.148122 -0.592037 19.720691 -0.540803 1.600822 0.053692 -0.005115 -3700.070000 1 0 0
14.938939 -8.718222 0.513363 17.304416 -0.528266 1.541125 0.039223 -0.008733 410234.000000 1 0 0
9.962939 -12.943522 1.549163 16.407157 -0.914791 1.476235 0.021620 -0.007756 -66150.100000 1 0 0
16.939439 -8.234422 8.854663 20.812385 -0.452474 1.131335 0.054591 -0.022532 517246.000000 1 0 0
19.150139 0.078078 -2.142737 19.269801 0.004077 1.682223 0.035946 -0.000839 -434325.000000 1 0 0
13.450339 -1.245222 7.801863 15.599079 -0.092316 1.047026 0.011690 -0.007943 102214.000000 1 0 0
12.896339 -9.925722 -2.954737 16.539830 -0.655962 1.750404 0.026911 -0.003321 -1145570.000000 1 0 0
8.908639 -15.328622 1.562763 17.798110 -1.044332 1.482878 0.030880 -0.004142 -57398.100000 1 0 0
11.375139 -8.387022 11.238963 18.056861 -0.635331 0.898965 0.026973 -0.008197 -439.251000 1 0 0
14.089939 -3.836222 -0.466837 14.610301 -0.265823 1.602754 0.006450 -0.002197 91812.900000 1 0 0
7.030239 -13.390122 10.600563 18.468664 -1.087324 0.959444 0.016773 0.000420 -821723.000000 1 0 0
15.469539 -6.680222 2.001363 16.968720 -0.407642 1.452577 0.023523 -0.005149 -679103.000000 1 0 0
15.888739 -6.036322 -2.544737 17.186183 -0.363070 1.719412 0.035506 -0.006633 196669.000000 1 0 0
11.222139 -8.554222 3.849663 14.626381 -0.651303 1.304459 0.017233 -0.007453 366448.000000 1 0 0
10.756239 -14.540422 -0.328237 18.089452 -0.933889 1.588943 0.042099 -0.005382 764946.000000 1 0 0
13.512739 -13.003522 4.632963 19.317092 -0.766197 1.328598 0.033810 -0.001960 623376.000000 1 0 0
13.002039 -11.235322 6.527563 18.381908 -0.712635 1.207767 0.036166 -0.006858 611800.000000 1 0 0
10.975039 -10.518722 1.438763 15.269742 -0.764171 1.476433 0.013701 -0.005271 415986.000000 1 0 0
13.793939 -7.723922 11.947563 19.816054 -0.510451 0.923636 0.030348 -0.019494 -278075.000000 1 0 0
15.296639 -1.741922 -4.944737 16.170092 -0.113388 1.881570 0.018345 -0.005430 -538047.000000 1 0 0
13.012839 -11.245122 -6.978737 18.560428 -0.712655 1.956273 0.048836 -0.012593 682203.000000 1 0 0
17.727839 -5.223122 2.014763 18.590765 -0.286521 1.462209 0.035234 -0.006223 421565.000000 1 0 0
10.627739 -9.917522 9.210563 17.208735 -0.750844 1.006021 0.021729 -0.005501 -673263.000000 1 0 0
16.521639 1.674078 9.914963 19.340982 0.100982 1.032539 0.045859 -0.011812 -70660.500000 1 0 0
18.059339 3.613078 0.670263 18.429414 0.197460 1.534419 0.004816 0.005663 438981.000000 1 0 0
13.303339 -4.016722 5.810863 15.062503 -0.293230 1.174740 0.016466 -0.008998 -994492.000000 1 0 0
12.057139 -6.215122 6.857563 15.199622 -0.475949 1.102724 0.021729 -0.007989 147266.000000 1 0 0
16.620939 -10.276622 3.512063 19.854449 -0.553762 1.392970 0.031233 -0.006926 175518.000000 1 0 0
16.186839 -7.792922 -5.425037 18.766310 -0.448686 1.864066 0.049917 -0.017865 -460730.000000 1 0 0
14.125339 -0.376622 5.370663 15.116582 -0.026657 1.207580 0.005184 -0.001228 1066820.000000 1 0 0
18.011439 -4.292222 5.584363 19.339602 -0.233942 1.277872 0.026873 -0.001290 -31350.300000 1 0 0
13.825139 -13.689022 7.049263 20.693378 -0.780451 1.223185 0.061650 -0.009863 -9147.780000 1 0 0
14.979939 -13.706622 -0.795837 20.320025 -0.741040 1.609971 0.045366 -0.002225 -26866.400000 1 0 0
17.889839 -5.949122 8.147063 20.538087 -0.321038 1.162898 0.057846 -0.012126 -223623.000000 1 0 0
14.444139 3.322278 9.497663 17.603303 0.226077 1.000907 0.023664 -0.005183 209502.000000 1 0 0
18.740739 3.705178 3.056963 19.346541 0.195190 1.412120 0.037755 -0.004020 -567547.000000 1 0 0
14.913939 -10.690622 8.236863 20.113699 -0.621926 1.148874 0.040834 -0.016309 -379926.000000 1 0 0
14.862139 -4.882522 10.453763 18.814977 -0.317413 0.981702 0.038515 -0.017541 329701.000000 1 0 0
17.820839 -7.831622 1.940563 19.562269 -0.414058 1.471434 0.056960 -0.010936 -146244.000000 1 0 0
18.491339 -5.809022 -1.937437 19.478912 -0.304386 1.670424 0.040975 -0.010678 183795.000000 1 0 0
14.331039 -13.082022 -5.732537 20.233140 -0.739867 1.858055 0.054569 -0.011605 385026.000000 1 0 0
15.474339 -1.575122 9.486963 18.219183 -0.101440 1.023111 0.036629 -0.014771 9288.990000 1 0 0
13.015239 -10.039222 10.190463 19.339803 -0.657022 1.015828 0.026429 -0.018389 -1112490.000000 1 0 0
16.536739 2.272978 4.889263 17.393535 0.136594 1.285860 0.021469 -0.001234 -1434860.000000 1 0 0
15.091339 2.466778 0.019863 15.291628 0.162024 1.569497 0.008376 0.004218 -1169170.000000 1 0 0
15.085739 -9.601822 -6.879937 19.160063 -0.566814 1.938075 0.052891 -0.017620 1121260.000000 1 0 0
16.171739 0.052378 -3.289637 16.503017 0.003239 1.771476 0.010213 -0.000945 260495.000000 1 0 0
11.767539 2.476878 13.577063 18.136883 0.207456 0.724866 0.019188 -0.001907 -117076.000000 1 0 0
17.736139 -3.096722 9.621963 20.414272 -0.172857 1.079992 0.042147 -0.017454 1011740.000000 1 0 0
7.759339 -18.377622 4.500663 20.449946 -1.171286 1.348898 0.058108 -0.017285 -2203.940000 1 0 0
6.888139 -11.236022 6.610763 14.744383 -1.020843 1.105869 0.005831 -0.006378 -499175.000000 1 0 0
18.103439 2.324178 -1.562137 18.318749 0.127685 1.656175 0.019446 0.003857 565189.000000 1 0 0
17.560639 -2.449922 3.703363 18.113339 -0.138617 1.364889 0.022423 -0.003638 -492698.000000 1 0 0
12.674739 -13.378022 -1.896337 18.526105 -0.812386 1.673336 0.043136 -0.005759 331681.000000 1 0 0
15.129139 -8.341822 4.399063 17.827748 -0.503898 1.321467 0.029328 -0.004646 -32046.900000 1 0 0
11.786839 -3.103822 14.942763 19.283398 -0.257484 0.684235 0.030635 -0.010546 502560.000000 1 0 0
11.904039 -13.495222 -6.576237 19.159176 -0.847963 1.921163 0.027805 -0.011384 -301541.000000 1 0 0
10.700839 -12.063522 -1.088637 16.162353 -0.845187 1.638204 0.022783 -0.006961 -1221420.000000 1 0 0
13.201539 -7.966322 2.226563 15.578848 -0.542944 1.427383 0.021077 -0.002064 -1142060.000000 1 0 0
8.666039 -7.867722 9.961163 15.369647 -0.737152 0.865701 0.006744 -0.003375 -1311240.000000 1 0 0
15.739939 -3.875422 8.210863 18.170934 -0.241414 1.101938 0.038900 -0.016223 -680468.000000 1 0 0
10.141139 -17.497422 5.361663 20.922474 -1.045528 1.311642 0.056849 -0.016641 155616.000000 1 0 0
15.218139 -6.383322 8.340463 18.490589 -0.397164 1.102838 0.037100 -0.009778 -285799.000000 1 0 0
16.604339 -4.949922 -0.328637 17.329564 -0.289722 1.589761 0.020115 -0.004763 -969694.000000 1 0 0
14.044039 -10.639322 3.518163 17.966849 -0.648327 1.373709 0.036913 -0.007405 841254.000000 1 0 0
15.062039 -9.908722 -4.405537 18.559540 -0.581881 1.810457 0.054100 -0.015611 471214.000000 1 0 0
13.763439 -6.446322 0.111763 15.198678 -0.438021 1.563443 0.015192 -0.003155 -157990.000000 1 0 0
17.752439 -0.857422 -4.922537 18.442224 -0.048261 1.840989 0.021930 -0.012347 -395913.000000 1 0 0
14.497839 0.370978 -1.525937 14.582642 0.025583 1.675629 0.006074 0.002117 -2282360.000000 1 0 0
4.818539 -12.843322 11.797863 18.093060 -1.211869 0.860490 -0.000464 0.003314 -956091.000000 1 0 0
11.889939 -7.509922 13.636363 19.588772 -0.563346 0.800801 0.017006 -0.009102 -607107.000000 1 0 0
12.001139 -5.875322 11.638663 17.720193 -0.455264 0.854226 0.020099 -0.007458 729843.000000 1 0 0
13.329239 -4.434722 8.386963 16.360823 -0.321186 1.032557 0.027679 -0.012808 -1423050.000000 1 0 0
15.518239 -1.120722 3.263163 15.897169 -0.072094 1.364060 0.013820 0.004484 37816.200000 1 0 0
15.260139 -10.452122 5.761063 19.372882 -0.600540 1.268851 0.039324 -0.009291 127756.000000 1 0 0
13.694339 -7.940522 -5.481537 16.752136 -0.525464 1.904150 0.043856 -0.011441 -2962160.000000 1 0 0
9.608739 -2.197022 13.591963 16.789766 -0.224784 0.627431 0.015103 -0.008716 79780.100000 1 0 0
9.816139 -9.192522 13.874663 19.322663 -0.752603 0.769798 0.028432 0.000010 -64802.200000 1 0 0
20.342339 6.260078 -3.134537 21.513360 0.298539 1.717019 0.067074 -0.009403 -722947.000000 1 0 0
11.307939 -3.666322 10.552263 15.895334 -0.313531 0.844829 0.022399 -0.008051 737364.000000 1 0 0
10.280139 -14.006922 -2.817437 17.601507 -0.937658 1.731556 0.031515 -0.004107 823404.000000 1 0 0
14.925339 -12.924822 2.532163 19.905492 -0.713690 1.443241 0.037784 0.002434 681964.000000 1 0 0
11.425139 -0.542222 14.513963 18.479257 -0.047423 0.667423 0.040406 -0.005337 308153.000000 1 0 0
19.017339 -1.910422 5.835863 19.984148 -0.100121 1.274453 0.059339 -0.006912 916859.000000 1 0 0
19.018939 -0.419222 7.894663 20.596638 -0.022039 1.177431 0.062222 -0.015082 434925.000000 1 0 0
19.259539 0.929278 0.350763 19.285135 0.048213 1.552607 0.047404 -0.004180 19314.100000 1 0 0
18.350639 0.815578 3.677963 18.733353 0.044415 1.373180 0.029029 -0.006007 113030.000000 1 0 0
16.784439 -3.740422 -4.251837 17.714013 -0.219268 1.813190 0.032136 -0.011084 -2010820.000000 1 0 0
11.030539 -8.022222 15.988963 21.016084 -0.628797 0.706257 0.036595 -0.006550 427882.000000 1 0 0
16.722239 -7.550222 6.420863 19.438791 -0.424107 1.234162 0.043842 -0.010068 780565.000000 1 0 0
18.856239 2.248178 5.883363 19.880292 0.118667 1.270357 0.049572 -0.009943 -263680.000000 1 0 0
15.234339 1.762478 7.723763 17.171136 0.115179 1.104243 0.015155 -0.005293 162807.000000 1 0 0
8.666339 -15.865922 3.976863 18.510763 -1.070857 1.354268 0.033717 -0.013331 517091.000000 1 0 0
11.385839 -15.050022 2.179563 18.997131 -0.923127 1.455812 0.039403 -0.003881 -90407.500000 1 0 0
7.945139 -16.386822 6.185463 19.233126 -1.119343 1.243373 0.042068 -0.013312 -384073.000000 1 0 0
14.722639 -11.635222 -2.467837 18.926825 -0.668795 1.701557 0.045155 -0.008892 1018620.000000 1 0 0
13.670539 -5.012422 3.394163 14.950864 -0.351438 1.341778 0.010699 -0.001660 -2022530.000000 1 0 0
-1.183961 10.374078 -5.594337 11.845668 -1.457161 2.062659 0.003725 -0.000121 -1034580.000000 1 0 0
8.357039 -1.698722 -8.028337 11.712384 -0.200536 2.326028 0.004335 -0.004172 -2828980.000000 1 0 0
2.900339 -10.122722 7.659363 13.021033 -1.291754 0.941928 -0.002215 -0.000940 620912.000000 1 0 0
-6.385061 1.271278 8.237463 10.499569 -0.196532 0.668822 0.008505 -0.004728 -518704.000000 1 0 0
7.307139 -6.228422 -7.157637 11.975779 -0.705871 2.211396 0.001397 -0.003592 -71268.800000 1 0 0
-11.362261 -4.524522 -4.164537 12.919584 0.378959 1.899000 0.008544 -0.004249 110900.000000 1 0 0
2.119639 -3.223022 2.937763 4.848834 -0.989058 0.919937 0.005110 -0.002137 1512390.000000 1 0 0
-3.551861 -4.318522 8.823663 10.446166 0.882503 0.564830 0.009366 -0.004047 -1626660.000000 1 0 0
-4.792661 -1.053322 -2.392737 5.459329 0.216339 2.024485 0.012843 -0.004035 59566.600000 1 0 0
5.009539 -5.280822 -3.493137 8.073696 -0.811755 2.018234 0.004852 -0.004042 -205572.000000 1 0 0
2.731039 14.316478 -8.807537 17.029175 1.382299 2.114376 0.013437 -0.014702 -476858.000000 1 0 0
5.431039 -5.407622 13.741263 15.734067 -0.783238 0.508769 0.003022 -0.003656 -845776.000000 1 0 0
-4.745861 -0.790022 9.834563 10.948332 0.164953 0.454978 0.014108 -0.004170 -2268720.000000 1 0 0
-0.985661 11.986778 -2.681637 12.322563 -1.488752 1.790172 0.003056 0.000117 -1199930.000000 1 0 0
3.013639 9.413178 -10.506537 14.424883 1.260956 2.386725 0.009197 -0.004667 -455671.000000 1 0 0
-10.740561 2.622178 1.106263 11.111224 -0.239454 1.471068 0.004339 -0.005631 83522.900000 1 0 0
5.697439 -8.979822 -0.651137 10.654670 -1.005415 1.631947 -0.000862 -0.004614 399996.000000 1 0 0
-6.962661 5.314378 9.378463 12.832648 -0.651939 0.751261 0.007130 -0.006776 -48997.900000 1 0 0
-5.451561 -1.891122 5.159663 7.740671 0.333906 0.841205 0.013076 -0.005363 644731.000000 1 0 0
6.798639 -3.743822 -7.307137 10.659828 -0.503359 2.326064 0.003070 -0.004399 475693.000000 1 0 0
6.148339 4.690178 10.975463 13.426118 0.651666 0.613790 -0.004375 0.001903 1031120.000000 1 0 0
3.839639 -9.824622 3.318563 11.057978 -1.198230 1.265993 -0.000888 -0.002694 929464.000000 1 0 0
-6.665861 6.644878 -5.774737 11.042450 -0.783822 2.121114 -0.001464 -0.003732 -460616.000000 1 0 0
-11.105561 8.312378 5.151763 14.797628 -0.642533 1.215202 -0.002213 -0.005938 361370.000000 1 0 0
-9.124861 -5.435222 5.088563 11.777020 0.537215 1.124003 0.008834 -0.003972 -196829.000000 1 0 0
3.214039 9.777478 -7.995837 13.033132 1.253205 2.231282 0.009112 -0.006074 746478.000000 1 0 0
-8.134261 -8.524522 5.986163 13.216196 0.808821 1.100734 0.010333 -0.002935 -1948730.000000 1 0 0
-7.782861 -5.721522 -7.577537 12.277125 0.633925 2.235985 0.013641 -0.003401 364386.000000 1 0 0
9.218139 -1.597422 7.068363 11.725511 -0.171587 0.923766 0.002692 -0.004614 1991520.000000 1 0 0
-4.142361 -0.373522 -4.861937 6.398211 0.089928 2.433940 0.014326 -0.007191 -978413.000000 1 0 0
9.133139 1.180278 -4.462637 10.233397 0.128518 2.022041 0.004133 0.001065 -3431510.000000 1 0 0
-1.790561 -10.689722 10.670963 15.210053 1.404834 0.793194 -0.006880 0.000750 28612.100000 1 0 0
-12.950761 0.294778 -2.649837 13.222358 -0.022758 1.772568 0.007432 -0.005402 -494195.000000 1 0 0
-9.829961 -5.293822 -6.025937 12.687183 0.494002 2.065718 0.012337 -0.003291 -762799.000000 1 0 0
-5.573761 8.219578 -0.270537 9.934861 -0.974915 1.598031 0.002545 -0.002376 260099.000000 1 0 0
6.315439 9.606578 0.398463 11.503473 0.989231 1.536151 0.012974 -0.005601 568992.000000 1 0 0
-0.540161 -12.082722 -0.025337 12.094817 1.526121 1.572891 0.011684 -0.002467 -444123.000000 1 0 0
6.197139 4.753578 2.422863 8.177487 0.654330 1.269996 0.002957 -0.002630 240310.000000 1 0 0
3.570239 -7.455322 -8.208237 11.649188 -1.124183 2.352682 -0.001595 -0.001798 1161640.000000 1 0 0
-6.534861 -9.858522 4.573163 12.681037 0.985431 1.201853 0.009376 -0.000891 -2106240.000000 1 0 0
-0.111861 6.544778 -9.149837 11.250162 -1.553706 2.520610 0.007927 -0.003505 -2361130.000000 1 0 0
-17.457861 -2.769722 4.464463 18.231284 0.157340 1.323401 0.034543 -0.018292 -18083.600000 1 0 0
-8.347461 0.805078 -9.253637 12.488317 -0.096148 2.405330 0.004727 -0.004577 980667.000000 1 0 0
-9.977561 -6.001722 -11.874037 16.630248 0.541538 2.365995 0.015506 0.004194 -273272.000000 1 0 0
2.214839 9.391078 6.368563 11.560989 1.339184 0.987394 0.002080 0.003269 -10884.800000 1 0 0
-11.444161 1.653078 -1.218537 11.626965 -0.143455 1.675792 0.004398 -0.005038 -1702580.000000 1 0 0
-5.969161 -5.358522 -3.084837 8.594234 0.731543 1.937931 0.022508 -0.003691 528307.000000 1 0 0
-6.950161 -8.375222 1.260263 10.956156 0.878118 1.455513 0.012806 -0.002186 -244235.000000 1 0 0
-0.096061 11.132078 -7.818937 13.603976 -1.562167 2.183100 0.008648 -0.001969 1499570.000000 1 0 0
-2.919761 9.198178 -4.267337 10.551855 -1.263428 1.987136 0.001459 -0.001705 -352057.000000 1 0 0
3.519639 -4.828622 9.379763 11.121304 -0.940929 0.567207 -0.001418 -0.001453 -1097620.000000 1 0 0
-9.052961 1.633778 -0.505837 9.213100 -0.178547 1.625728 0.006396 -0.005056 -1991860.000000 1 0 0
2.561039 3.549878 -10.365737 11.252069 0.945823 2.742025 0.005592 -0.005180 -559145.000000 1 0 0
-13.765561 0.490078 1.036363 13.813215 -0.035587 1.495699 0.003745 -0.005843 512315.000000 1 0 0
9.535839 -12.596622 -4.984737 16.566674 -0.922820 1.876421 0.030967 -0.006055 -2409160.000000 1 0 0
-4.746361 9.382678 -8.440537 13.483518 -1.102468 2.247196 0.001742 -0.002012 -1135000.000000 1 0 0
-2.336161 7.212278 8.311563 11.249742 -1.257547 0.739475 0.007834 -0.000522 577673.000000 1 0 0
-10.689861 -1.270622 -4.441137 11.645227 0.118307 1.962074 0.005708 -0.002656 -3507030.000000 1 0 0
2.708539 -7.161222 9.763063 12.407123 -1.209203 0.665040 -0.005042 -0.001163 -1566280.000000 1 0 0
-16.022861 -6.353622 3.360263 17.561092 0.377516 1.378262 0.016935 -0.014328 -49936.900000 1 0 0
-10.825061 0.012878 6.068463 12.410011 -0.001190 1.059856 0.004838 -0.006963 -1017310.000000 1 0 0
-8.420761 9.773078 9.364263 15.940882 -0.859590 0.942908 0.005631 -0.009692 190426.000000 1 0 0
0.337539 -5.969822 -3.654337 7.007630 -1.514316 2.119380 0.005542 -0.001977 361767.000000 1 0 0
4.875039 1.467278 -2.974437 5.896285 0.292354 2.099552 0.002871 0.000705 -505124.000000 1 0 0
0.311739 5.390578 3.775063 6.588370 1.513030 0.960648 0.002838 0.000721 -1398020.000000 1 0 0
6.133939 -11.311422 -1.465737 12.950747 -1.073901 1.684217 -0.000870 -0.003785 -2030690.000000 1 0 0
6.290239 -13.503022 5.263563 15.798855 -1.134849 1.231142 0.009521 -0.011928 -548291.000000 1 0 0
8.327539 -8.183022 -5.851337 13.059399 -0.776645 2.035386 0.002478 -0.004760 639572.000000 1 0 0
-13.033761 -1.328822 -4.710737 13.922490 0.101601 1.915964 0.004772 -0.002248 -4146200.000000 1 0 0
-6.789961 -1.392522 -7.081037 9.908772 0.202281 2.366881 0.012032 -0.006397 -793664.000000 1 0 0
-5.683161 12.905378 -4.514037 14.806202 -1.155978 1.880603 0.000251 0.001767 371769.000000 1 0 0
-4.404461 6.938578 -6.676237 10.588450 -1.005196 2.253020 0.003852 -0.001911 -3289140.000000 1 0 0
-9.473261 -3.808822 -8.176037 13.080420 0.382281 2.246004 0.008524 -0.002415 739668.000000 1 0 0
-2.195461 -6.400322 9.172163 11.397928 1.240350 0.635589 0.004695 -0.001047 -778248.000000 1 0 0
7.468439 -5.971622 10.055263 13.876101 -0.674485 0.760275 0.002180 -0.001661 35161.600000 1 0 0
9.630839 -5.021822 12.228863 16.355942 -0.480645 0.726248 0.013897 -0.004679 -611858.000000 1 0 0
-6.558361 2.881878 -9.113037 11.591581 -0.414021 2.475395 -0.000546 -0.005769 911239.000000 1 0 0
7.460239 5.543578 8.884563 12.857756 0.639060 0.807940 -0.005482 0.000021 -362588.000000 1 0 0
12.674439 3.381078 11.329763 17.333108 0.260693 0.858401 0.016920 0.000730 -1062760.000000 1 0 0
-7.406961 -7.395522 -4.021237 11.212813 0.784625 1.937595 0.024236 -0.006235 -1368960.000000 1 0 0
2.290139 1.461478 -5.803837 6.408211 0.568008 2.703795 0.007981 -0.002328 213133.000000 1 0 0
12.850839 6.895178 -7.103337 16.221742 0.492462 2.024047 0.012157 -0.001307 210791.000000 1 0 0
0.830539 -7.811322 1.157863 7.940226 -1.464869 1.424452 0.006905 -0.003795 1427110.000000 1 0 0
-10.239961 -6.206422 -8.551237 14.713943 0.544891 2.190957 0.014120 -0.001185 636224.000000 1 0 0
-6.771261 0.301278 3.064063 7.438362 -0.044464 1.146228 0.013896 -0.006679 -1198140.000000 1 0 0
10.908339 -7.966622 1.271463 13.567444 -0.630789 1.476944 0.005151 -0.002973 57186.000000 1 0 0
6.290839 1.093278 10.561663 12.341744 0.172070 0.543764 -0.003395 -0.001983 -226207.000000 1 0 0
-13.131861 5.213778 1.841763 14.248556 -0.377946 1.441174 0.003000 -0.003354 96187.400000 1 0 0
2.007439 7.420178 3.636363 8.503646 1.306583 1.128934 -0.000147 -0.000469 332529.000000 1 0 0
10.085539 -9.507022 -0.726037 13.879074 -0.755879 1.623132 0.003101 -0.003195 705784.000000 1 0 0
6.898239 -11.608922 -8.897137 16.171327 -1.034639 2.153376 -0.000599 -0.003263 -440926.000000 1 0 0
10.197339 3.505778 11.823563 16.002276 0.331135 0.739408 0.005416 -0.000559 -1683260.000000 1 0 0
-11.079061 -3.161422 -1.913737 11.679151 0.277964 1.735398 0.004498 -0.001941 -583411.000000 1 0 0
12.378139 1.004378 6.855763 14.185506 0.080964 1.066383 0.005369 -0.002270 -191320.000000 1 0 0
-9.634461 9.019178 2.942463 13.521335 -0.752425 1.351425 -0.000455 -0.004556 1331170.000000 1 0 0
-6.669661 7.658578 -8.902337 13.505177 -0.854308 2.290524 -0.003536 -0.002523 -1632650.000000 1 0 0
8.451539 5.470278 12.112363 15.749978 0.574441 0.693458 0.000860 0.002862 -2523910.000000 1 0 0
1.375539 4.914578 -2.727737 5.786686 1.297890 2.061653 0.003788 -0.003376 846567.000000 1 0 0
1.470239 0.514478 9.566763 9.692742 0.336611 0.161403 0.002301 -0.002169 1237430.000000 1 0 0
2.564139 12.597678 -3.945937 13.447926 1.369999 1.868602 0.011425 -0.006198 422436.000000 1 0 0
2.128839 0.561678 12.980163 13.165564 0.257964 0.168020 -0.003395 -0.001323 269623.000000 1 0 0
-12.281861 -1.791522 0.783863 12.436563 0.144846 1.507726 0.002355 -0.006412 38529.600000 1 0 0
3.299839 8.824278 -1.254537 9.504245 1.212947 1.703180 0.009648 -0.003360 353095.000000 1 0 0
3.806639 -2.889822 -5.763737 7.487471 -0.649333 2.449299 0.003054 -0.001980 -1072500.000000 1 0 0
-7.754461 -7.145022 9.253763 14.029082 0.744518 0.850493 0.012354 -0.003663 -20431.300000 1 0 0
-7.028961 10.837078 -3.615437 13.413424 -0.995404 1.843710 0.006526 -0.000590 -175363.000000 1 0 0
0.522639 0.636878 2.575463 2.704030 0.883604 0.309606 0.002325 -0.002512 -3914440.000000 1 0 0
-7.145761 4.567078 -1.969137 8.706182 -0.568697 1.798947 0.008113 -0.005177 -675551.000000 1 0 0
-6.848061 -3.891422 -5.935337 9.862420 0.516748 2.216566 0.014912 -0.004103 227910.000000 1 0 0
2.941639 -6.206322 13.396363 15.054376 -1.128185 0.473747 -0.002207 -0.001738 -1469820.000000 1 0 0
-5.427361 -0.577922 -11.733437 12.940780 0.106083 2.706195 0.011688 -0.006081 -1083360.000000 1 0 0
11.986639 2.536578 -0.629437 12.268249 0.208541 1.622125 0.001797 0.001455 -1764810.000000 1 0 0
6.081739 -10.915622 10.746063 16.480784 -1.062473 0.860530 0.000925 0.001116 95158.500000 1 0 0
-8.105361 6.367878 -10.505337 14.717637 -0.665922 2.365695 0.001128 -0.004891 341334.000000 1 0 0
2.856839 7.918778 11.208463 14.017782 1.224561 0.644186 -0.001800 0.002213 610576.000000 1 0 0
-6.209761 -10.243822 -0.433337 11.986860 1.025834 1.606955 0.019845 -0.002240 -184756.000000 1 0 0
11.365539 4.329178 6.122063 13.616053 0.363937 1.104455 -0.000986 -0.000766 975651.000000 1 0 0
-7.940061 10.562278 1.445663 13.292714 -0.926184 1.461825 -0.000322 -0.004042 581156.000000 1 0 0
4.426739 -2.613622 -3.434137 6.182259 -0.533343 2.159739 0.006018 -0.001586 -6075270.000000 1 0 0
6.401739 6.442878 6.330863 11.071259 0.788601 0.962063 -0.000246 0.000490 -4899310.000000 1 0 0
-0.404561 10.466978 -10.153937 14.588479 -1.532164 2.340642 0.005583 -0.002054 -294828.000000 1 0 0
14.199439 6.645578 -2.483037 15.873035 0.437735 1.727873 0.014000 0.001354 993167.000000 1 0 0
1.335439 9.546978 -6.202837 11.463131 1.431817 2.142555 0.009660 -0.004589 729292.000000 1 0 0
0.620839 7.362978 7.278563 10.371903 1.486676 0.792934 -0.000771 0.002098 -179326.000000 1 0 0
12.258539 6.514378 1.862763 14.006384 0.488463 1.437407 0.002724 -0.001536 -2337140.000000 1 0 0
-6.866661 6.646478 -3.102437 10.047478 -0.769106 1.884704 0.000107 -0.004939 63893.900000 1 0 0
1.114339 9.868378 11.147163 14.929363 1.458352 0.727769 0.001367 -0.000176 1822440.000000 1 0 0
-3.732061 13.710078 -11.040537 17.994109 -1.305023 2.231362 0.011274 -0.001312 -1100.240000 1 0 0
-10.126061 -5.579322 -2.327537 11.793362 0.503600 1.769460 0.008546 -0.003673 -405045.000000 1 0 0
-4.043461 3.856278 -12.510737 13.701788 -0.761708 2.721554 0.001244 -0.008860 -453206.000000 1 0 0
-3.214161 8.421778 2.444663 9.339891 -1.206209 1.305967 0.004352 0.000563 -3322680.000000 1 0 0
7.116639 8.944478 6.966163 13.385726 0.898716 1.023457 0.003419 0.000003 -171684.000000 1 0 0
-1.325461 -2.333122 -8.150837 8.581168 1.054158 2.823557 0.010387 -0.006221 -1223250.000000 1 0 0
0.954039 -1.308722 4.946663 5.205038 -0.940881 0.316403 0.006776 -0.002916 165889.000000 1 0 0
2.640839 -8.651722 -6.032337 10.872691 -1.274541 2.158937 -0.004641 0.000007 -125728.000000 1 0 0
5.469639 3.950578 8.537663 10.881898 0.625519 0.668786 -0.005777 -0.001464 -274637.000000 1 0 0
6.218339 -7.567122 -2.844037 10.198903 -0.882929 1.853400 0.000217 -0.004505 667112.000000 1 0 0
1.858639 2.284278 -8.247637 8.757624 0.887778 2.798642 0.008515 -0.005385 222131.000000 1 0 0
-5.400061 10.860678 -0.608837 12.144368 -1.109381 1.620951 -0.004894 0.000400 374229.000000 1 0 0
-5.416461 3.302378 -3.447437 7.220012 -0.547516 2.068585 0.006348 -0.003402 299380.000000 1 0 0
1.952639 13.798578 -6.308737 15.297507 1.430220 1.995886 0.008502 -0.008078 554120.000000 1 0 0
-5.330761 -2.568122 2.597963 6.462328 0.448946 1.157078 0.007200 -0.004980 213506.000000 1 0 0
10.451939 -3.328222 -1.714237 11.102193 -0.308279 1.725822 0.001174 0.002166 125554.000000 1 0 0
2.371339 -3.207822 7.079963 8.126454 -0.934220 0.513106 -0.000841 -0.002638 -2058270.000000 1 0 0
-2.952261 9.847778 -11.737637 15.603419 -1.279533 2.422263 0.004352 -0.003152 -2362320.000000 1 0 0
0.479039 -2.007722 9.324063 9.549795 -1.336577 0.217858 0.003337 -0.003691 -184432.000000 1 0 0
9.525039 2.712278 4.997763 11.093262 0.277410 1.103446 -0.001499 -0.000696 837790.000000 1 0 0
13.534939 2.151578 -5.061837 14.609793 0.157646 1.924600 0.013693 -0.000284 -1436550.000000 1 0 0
-6.575261 3.760578 7.541863 10.689046 -0.519523 0.787570 0.009809 -0.006525 -1387.220000 1 0 0
10.770339 0.062278 1.843563 10.927159 0.005782 1.401272 0.001101 0.003159 1074020.000000 1 0 0
15.338139 6.713978 -4.723437 17.396748 0.412604 1.845761 0.013698 -0.001581 -217057.000000 1 0 0
8.127239 -4.969022 -9.222037 13.258550 -0.548762 2.339987 0.010259 -0.004781 1714030.000000 1 0 0
4.373439 5.697978 -2.236237 7.522943 0.916162 1.872613 0.006008 -0.003158 -59718.500000 1 0 0
-1.619261 -10.466322 1.512363 10.698278 1.417302 1.428956 0.013828 -0.003214 -817113.000000 1 0 0
-3.030461 12.168178 -12.946137 18.023615 -1.326714 2.372134 0.008914 -0.005342 -1257710.000000 1 0 0
8.347639 4.112478 -9.527237 13.317800 0.457752 2.367959 0.003309 -0.001067 -1891570.000000 1 0 0
4.091139 7.596778 -8.946237 12.429143 1.076797 2.374280 0.009009 -0.005392 -1968480.000000 1 0 0
-1.657361 -5.069622 -2.325837 5.818714 1.254829 1.982004 0.012469 -0.003921 -1104700.000000 1 0 0
-3.317061 -8.999422 7.089863 11.927223 1.217661 0.934243 0.006333 0.000699 -1808470.000000 1 0 0
1.052039 7.266278 -1.368437 7.468480 1.427012 1.755066 0.003473 -0.002961 2158250.000000 1 0 0
0.426239 -1.015522 -2.161437 2.425855 -1.173403 2.670339 0.009713 -0.001358 -1349890.000000 1 0 0
4.263639 -6.837722 7.650663 11.111512 -1.013243 0.811330 -0.004956 -0.001357 -547182.000000 1 0 0
-14.106061 3.823478 5.847563 15.741472 -0.264692 1.190199 0.000229 -0.000548 -1054440.000000 1 0 0
4.201439 6.276578 12.602663 14.692673 0.980915 0.539917 -0.000033 0.002402 -2768380.000000 1 0 0
8.390239 10.226578 -7.269637 15.093927 0.883719 2.073306 0.025727 -0.008624 279816.000000 1 0 0
12.432339 5.221378 9.591563 16.547626 0.397614 0.952517 0.006478 0.002592 616561.000000 1 0 0
7.612539 4.109578 0.474263 8.663966 0.495012 1.516029 0.006284 -0.000317 685157.000000 1 0 0
-10.910161 -7.563422 -1.137137 13.324040 0.606178 1.656245 0.009465 -0.004547 -1676160.000000 1 0 0
10.418139 6.831878 0.134363 12.459142 0.580419 1.560012 0.007129 -0.002541 -816973.000000 1 0 0
14.543839 3.634578 4.275463 15.588874 0.244889 1.292972 0.006678 -0.002717 -48080.800000 1 0 0
2.206739 5.608778 8.217163 10.190675 1.195955 0.632856 -0.003924 0.001265 492126.000000 1 0 0
4.287839 -0.061522 11.564763 12.334225 -0.014347 0.355088 -0.002554 -0.001532 -2836850.000000 1 0 0
-1.548761 -1.483322 -0.432837 2.187751 0.763819 1.769956 0.016445 -0.008086 -920796.000000 1 0 0
3.145239 -5.147722 -9.406837 11.174978 -1.022331 2.571362 -0.000232 -0.002232 322033.000000 1 0 0
-4.006061 -5.307922 -1.403137 6.796422 0.924273 1.778744 0.015641 -0.005420 -549133.000000 1 0 0
-1.229461 -8.657722 8.559963 12.236858 1.429732 0.796067 0.001045 0.001778 -155643.000000 1 0 0
3.868039 8.591678 -5.962437 11.150305 1.147770 2.134988 0.011921 -0.005108 268033.000000 1 0 0
-14.237561 -1.826122 -2.719337 14.609506 0.127564 1.758023 0.003693 -0.006100 -967724.000000 1 0 0
8.905339 -10.468122 -6.536337 15.218749 -0.865890 2.014727 0.004575 -0.004372 572642.000000 1 0 0
14.772539 6.283178 1.649163 16.137719 0.402149 1.468425 0.004012 0.001016 -1391040.000000 1 0 0
-5.724061 0.504078 -8.591437 10.335945 -0.087836 2.552094 0.008626 -0.006817 -445447.000000 1 0 0
-7.969861 -4.671222 -12.947237 15.905029 0.530144 2.521861 0.013817 -0.002642 834338.000000 1 0 0
0.876839 -10.720422 11.991963 16.109112 -1.489187 0.731129 -0.004207 0.001863 -449998.000000 1 0 0
0.232739 11.748378 3.397763 12.232062 1.550989 1.289319 0.003723 -0.000784 -631598.000000 1 0 0
5.236739 -13.190022 -3.680937 14.661153 -1.192859 1.824579 0.000001 0.001085 374204.000000 1 0 0
-7.561161 1.543578 -7.112637 10.494922 -0.201379 2.315456 0.001928 -0.003574 629342.000000 1 0 0
1.609539 2.760478 4.052363 5.160669 1.042922 0.667713 0.002858 -0.001579 -1473560.000000 1 0 0
17.152339 5.518478 2.194463 18.151363 0.311274 1.449602 0.009900 -0.004227 -122905.000000 1 0 0
2.522639 -8.129822 -3.437737 9.180182 -1.269922 1.954625 0.000483 -0.001525 400226.000000 1 0 0
-0.274361 -9.454422 -0.523537 9.472880 1.541785 1.626091 0.014425 -0.001173 -1271130.000000 1 0 0
0.675839 11.930978 -5.530837 13.167959 1.514211 2.004266 0.007341 -0.003642 -1386350.000000 1 0 0
6.009339 -5.069422 7.854563 11.113296 -0.700761 0.785872 -0.003325 -0.002179 -1649360.000000 1 0 0
-5.888561 -1.840722 -9.427637 11.266931 0.302969 2.562122 0.014181 -0.005022 -276925.000000 1 0 0
2.029439 -1.342322 11.311463 11.570205 -0.584365 0.211880 -0.003092 -0.000875 69249.800000 1 0 0
18.063739 2.141678 -5.821937 19.099225 0.118011 1.880552 0.016614 -0.002762 -767786.000000 1 0 0
-8.908361 4.879778 7.680663 12.734352 -0.501133 0.923358 0.007032 -0.010725 -85910.900000 1 0 0
11.425939 -7.078622 -4.725537 14.247444 -0.554650 1.908876 0.022073 -0.006521 -147331.000000 1 0 0
10.876239 0.490578 8.958763 14.099386 0.045075 0.882269 0.006232 -0.005182 -410882.000000 1 0 0
-8.445461 -7.327022 -1.661937 11.303676 0.714606 1.718357 0.017425 -0.003974 -638009.000000 1 0 0
10.355639 -10.565422 -3.149837 15.125768 -0.795425 1.780575 0.013528 -0.004456 979443.000000 1 0 0
7.769439 -13.838022 -3.680237 16.291076 -1.059200 1.798668 0.014732 -0.003550 -2095250.000000 1 0 0
1.834739 -1.168122 -11.601137 11.803268 -0.566947 2.956260 0.009977 -0.007099 289581.000000 1 0 0
-11.773861 -2.615622 -6.427037 13.666458 0.218605 2.060402 0.011228 -0.004222 412969.000000 1 0 0
2.908539 -12.047722 -6.255737 13.883135 -1.333911 2.038233 -0.002816 0.000136 162040.000000 1 0 0
-5.548561 1.407878 0.996763 5.810524 -0.248493 1.398399 0.012486 -0.006066 401401.000000 1 0 0
0.001639 6.896178 -3.910837 7.927920 1.570559 2.086675 0.008094 -0.004427 1167920.000000 1 0 0
5.530439 -11.823522 3.548163 13.526673 -1.133281 1.305382 -0.001769 -0.009147 -3176350.000000 1 0 0
-4.358961 -9.209822 1.029663 10.241170 1.128740 1.470085 0.016501 -0.001657 728770.000000 1 0 0
7.141639 -6.234222 -4.711137 10.585997 -0.717662 2.032009 0.003267 -0.003326 913760.000000 1 0 0
-7.097061 -6.022522 2.157163 9.554706 0.703677 1.343063 0.010502 -0.002219 109859.000000 1 0 0
-6.215061 -0.743622 7.117363 9.478229 0.119082 0.721347 0.011127 -0.005963 514480.000000 1 0 0
4.164439 -5.058322 3.272763 7.323944 -0.882018 1.107546 -0.001393 -0.002089 -634424.000000 1 0 0
-2.571161 10.573078 -8.835137 14.016436 -1.332247 2.252789 0.003960 -0.000857 -762227.000000 1 0 0
-2.280061 -4.843622 2.775063 6.029953 1.130834 1.092561 0.009830 -0.002680 1142170.000000 1 0 0
14.987939 5.175878 6.373163 17.089331 0.332514 1.188629 0.010024 -0.009259 749113.000000 1 0 0
6.847239 0.440278 0.146663 6.862946 0.064212 1.549424 0.004811 0.000444 3422890.000000 1 0 0
-9.674261 9.078678 0.358763 13.271866 -0.753649 1.543761 0.003303 -0.005884 -1904230.000000 1 0 0
7.195439 10.488378 -2.655337 12.993507 0.969502 1.776605 0.013350 -0.004709 -579311.000000 1 0 0
1.680339 -4.173722 -5.398637 7.027714 -1.188051 2.446809 0.004742 -0.003579 -786367.000000 1 0 0
0.925939 -8.061122 -7.845937 11.287062 -1.456433 2.339392 0.000687 0.001073 -121175.000000 1 0 0
-10.444761 0.134778 -10.599137 14.881294 -0.012903 2.363489 0.004828 -0.003333 -2717280.000000 1 0 0
6.112439 -2.531822 0.545063 6.638458 -0.392694 1.488597 0.006762 -0.000554 -101601.000000 1 0 0
-3.384261 5.233878 -1.149737 6.337870 -0.996810 1.753214 0.007659 -0.006442 1379030.000000 1 0 0
-0.374361 4.599178 -5.121837 6.893895 -1.489578 2.408267 0.007723 -0.003968 -1207840.000000 1 0 0
4.041239 -9.675322 10.052863 14.525961 -1.175138 0.806455 -0.007500 0.001152 -2823560.000000 1 0 0
7.325039 -13.534322 -0.533637 15.398663 -1.074719 1.605458 0.012080 -0.001373 446567.000000 1 0 0
13.180839 -0.069122 0.530663 13.191698 -0.005244 1.530558 0.000617 0.002313 855041.000000 1 0 0
9.387239 2.538978 -0.576437 9.741609 0.264151 1.630004 0.005553 0.000709 -80021.200000 1 0 0
-0.698861 -5.754622 4.506563 7.342561 1.449945 0.909983 0.006473 -0.001981 1787040.000000 1 0 0
11.496739 -3.752622 3.478363 12.583965 -0.315504 1.290737 0.007830 -0.002784 -1926800.000000 1 0 0
1.643839 -8.221922 11.800463 14.475951 -1.373465 0.617761 -0.005805 0.001009 269310.000000 1 0 0
9.492239 -5.799822 -5.869337 12.577346 -0.548473 2.056306 0.004399 -0.004971 234147.000000 1 0 0
3.238339 6.445478 -0.117237 7.214206 1.105214 1.587048 0.000524 -0.000288 -1213480.000000 1 0 0
6.459739 -1.250322 11.411963 13.172868 -0.191192 0.523002 -0.002277 -0.003941 -35974.500000 1 0 0
-4.831261 -7.515722 -3.933937 9.762327 0.999485 1.985557 0.023323 -0.003098 968365.000000 1 0 0
-3.333661 -8.526222 -5.817437 10.846766 1.198082 2.136878 0.019859 -0.001835 -59369.300000 1 0 0
9.907339 5.335278 2.240363 11.473438 0.493985 1.374268 0.001678 -0.002423 197435.000000 1 0 0
8.931439 -1.321222 0.326763 9.034545 -0.146864 1.534620 0.006000 0.001099 1704670.000000 1 0 0
-3.953861 9.600178 9.149263 13.838550 -1.180114 0.848455 0.004949 -0.002060 7337.920000 1 0 0
-14.358361 -3.490322 -6.113437 15.991216 0.238461 1.963080 0.013470 -0.005531 -432326.000000 1 0 0
10.632039 6.316178 -5.959637 13.727768 0.536048 2.019869 0.007452 -0.004146 -524578.000000 1 0 0
-1.796461 4.596078 2.551163 5.555145 -1.198187 1.093653 0.006986 -0.001247 174287.000000 1 0 0
6.915339 -3.753422 2.755763 8.336925 -0.497274 1.233911 0.004324 -0.002729 -1846820.000000 1 0 0
8.421739 -11.328722 -1.469737 14.192454 -0.931535 1.674540 0.008826 -0.005466 -1579780.000000 1 0 0
4.635139 0.486478 1.839963 5.010652 0.104572 1.194788 0.002207 -0.000226 34261.600000 1 0 0
-10.800161 2.333278 3.768363 11.674255 -0.212771 1.242118 0.003176 -0.007660 314689.000000 1 0 0
-0.836861 -3.037822 4.401363 5.413012 1.301983 0.621325 0.009572 -0.003934 147674.000000 1 0 0
8.636939 -8.670122 -8.397337 14.841933 -0.787315 2.172181 0.013864 -0.008000 -34122.200000 1 0 0
12.199739 -4.661622 1.153263 13.110849 -0.364988 1.482720 0.003967 0.001215 319990.000000 1 0 0
2.953339 4.923478 3.457463 6.702007 1.030489 1.028756 -0.003096 -0.002264 104530.000000 1 0 0
6.045739 7.457978 1.994063 9.805543 0.889601 1.366007 0.004707 -0.004151 62044.900000 1 0 0
-1.633061 -1.311722 -10.200837 10.413672 0.676707 2.939068 0.011744 -0.005090 891144.000000 1 0 0
-0.983061 -8.546222 5.976963 10.475133 1.456271 0.963577 0.002216 -0.002218 -100072.000000 1 0 0
-4.226061 -0.280122 2.348563 4.842914 0.066188 1.064492 0.012657 -0.006230 1270370.000000 1 0 0
-8.496761 6.151978 -8.046037 13.220457 -0.626677 2.225098 -0.001177 -0.003505 -903125.000000 1 0 0
6.281139 11.091278 -9.438137 15.860251 1.055515 2.208163 0.021170 -0.012512 -176917.000000 1 0 0
-11.118561 -5.810922 3.124863 12.928805 0.481589 1.326681 0.005452 -0.003881 1713350.000000 1 0 0
1.594139 -6.316522 3.150363 7.236333 -1.323583 1.120365 0.003629 -0.004678 -93698.900000 1 0 0
10.227739 2.228978 7.268963 12.744128 0.214579 0.963831 0.000202 -0.001458 -2568180.000000 1 0 0
-4.009061 -2.545222 -10.557837 11.576642 0.565663 2.718917 0.010869 -0.003366 -2568100.000000 1 0 0
-8.371861 11.753378 5.854063 15.572412 -0.951867 1.185401 0.003221 -0.000821 362931.000000 1 0 0
6.865739 5.960678 -2.991337 9.571632 0.714953 1.888642 0.009891 -0.002739 -2727630.000000 1 0 0
3.980839 -9.865622 -2.247937 10.873398 -1.187271 1.779035 -0.004040 -0.004636 -671076.000000 1 0 0
8.558739 -12.837022 -7.315437 17.075033 -0.982755 2.013550 0.019623 -0.004964 139313.000000 1 0 0
-1.205661 9.463978 3.659163 10.218120 -1.444084 1.204558 0.000717 0.000052 144746.000000 1 0 0
0.512739 -13.242122 4.641863 14.041495 -1.532095 1.233876 0.007497 -0.006614 -803765.000000 1 0 0
-11.350861 -7.093422 -5.148637 14.341100 0.558544 1.938006 0.013036 -0.007799 219893.000000 1 0 0
3.714639 10.330978 -3.450037 11.507841 1.225628 1.875278 0.017391 -0.007222 -298835.000000 1 0 0
11.721439 -8.002022 -7.292237 15.956227 -0.599009 2.045433 0.036755 -0.010726 418017.000000 1 0 0
11.840439 -4.775022 -5.897437 14.063306 -0.383331 2.003525 0.018215 -0.006003 54321.000000 1 0 0
1.423939 -10.256622 -2.549837 10.664313 -1.432847 1.812235 -0.000775 0.000454 -1826170.000000 1 0 0
2.466539 -12.009822 -3.839437 12.847603 -1.368236 1.874278 -0.001445 0.001701 -1745660.000000 1 0 0
-7.604361 -5.703222 7.248563 11.953858 0.643497 0.919298 0.011056 -0.002061 -2454920.000000 1 0 0
-7.297661 -0.889122 9.445263 11.969102 0.121239 0.661393 0.006215 -0.005042 344825.000000 1 0 0
16.243239 2.669578 -7.552537 18.111054 0.162894 2.000952 0.015600 0.000759 -348547.000000 1 0 0
-2.116261 6.332578 -5.589037 8.707321 -1.248278 2.267741 0.003054 -0.001677 1253380.000000 1 0 0
7.737539 1.187278 8.323963 11.426614 0.152256 0.754708 -0.001778 -0.002462 -685276.000000 1 0 0
7.913939 8.257578 -3.777237 12.045146 0.806645 1.889768 0.012282 -0.003426 -770179.000000 1 0 0
8.069539 0.657378 3.901063 8.987096 0.081285 1.121786 0.002254 -0.001944 1063510.000000 1 0 0
-7.009061 5.770178 5.283163 10.503985 -0.688755 1.043768 0.011181 -0.007497 136132.000000 1 0 0
-6.058361 -2.064522 -4.597237 7.880392 0.328431 2.193676 0.012762 -0.005939 -1211160.000000 1 0 0
-15.267761 -2.319622 3.183363 15.767656 0.150776 1.367507 0.010400 -0.009443 -93204.200000 1 0 0
1.138839 1.279378 -10.503637 10.642375 0.843450 2.979946 0.010305 -0.009817 483590.000000 1 0 0
1.484039 -9.306422 9.459963 13.353006 -1.412664 0.783494 -0.002222 -0.000181 -528741.000000 1 0 0
-0.140261 -6.768522 -1.038837 6.849215 1.550077 1.723056 0.009906 -0.002254 533164.000000 1 0 0
-0.360061 -10.184222 -8.413137 13.214722 1.535456 2.260941 0.004552 0.002170 -130830.000000 1 0 0
-4.417561 6.477778 3.810763 8.717705 -0.972283 1.118392 0.008352 -0.001910 -273603.000000 1 0 0
10.868339 -1.063222 -8.491237 13.833016 -0.097517 2.231710 0.020764 -0.003330 533861.000000 1 0 0
3.188839 -0.954322 6.358263 7.176833 -0.290786 0.482274 -0.002448 -0.000647 639467.000000 1 0 0
1.883339 -12.327822 6.758663 14.184558 -1.419197 1.074149 0.001282 -0.002647 55674.000000 1 0 0
2.941639 -4.986422 -1.213937 5.915343 -1.037814 1.777483 0.009711 -0.002473 -1563670.000000 1 0 0
-1.063161 9.505778 -1.684037 9.712163 -1.459416 1.745072 0.002609 -0.003289 392896.000000 1 0 0
4.575539 -2.581022 2.548863 5.839001 -0.513598 1.119065 0.003020 -0.001909 -2383140.000000 1 0 0
17.839339 6.706878 -2.582737 19.232648 0.359612 1.705492 0.015597 0.003927 -62221.000000 1 0 0
-7.200561 3.503178 -5.471237 9.698184 -0.452801 2.170201 0.001657 -0.004921 156072.000000 1 0 0
-13.778661 -5.966722 2.156363 15.169152 0.408661 1.428159 -0.005812 -0.008890 -1587960.000000 1 0 0
6.766739 -6.082722 3.514163 9.753851 -0.732215 1.202223 -0.000299 -0.004435 1061780.000000 1 0 0
-4.683061 1.896878 3.522763 6.159470 -0.384853 0.961944 0.014237 -0.007932 958035.000000 1 0 0
7.050439 -12.044622 -5.377437 14.956551 -1.041211 1.938568 0.004055 -0.001211 -115046.000000 1 0 0
2.968239 -12.314922 3.361063 13.105895 -1.334280 1.311444 0.004130 -0.007083 -439548.000000 1 0 0
3.181339 11.350878 -6.161937 13.301609 1.297535 2.052452 0.009862 -0.004711 -803629.000000 1 0 0
-5.587961 -8.330922 6.316663 11.854527 0.979973 1.008833 0.010219 0.000562 -349549.000000 1 0 0
-4.036461 6.417778 6.362063 9.897310 -1.009362 0.872639 0.010525 -0.002467 341221.000000 1 0 0
4.238139 4.300378 -7.019537 9.258994 0.792687 2.431240 0.006612 -0.000692 -1728170.000000 1 0 0
-0.287161 -2.551522 1.667563 3.061616 1.458723 0.994804 0.010188 -0.005778 524998.000000 1 0 0
-13.237961 -0.924322 6.457163 14.757810 0.069710 1.117933 0.005561 -0.008120 -793875.000000 1 0 0
-0.382061 -9.192822 -5.949237 10.956613 1.529259 2.144780 0.005098 0.001491 109894.000000 1 0 0
2.157739 -1.723722 -3.880737 4.763105 -0.674043 2.523093 0.005069 -0.002051 -1224530.000000 1 0 0
11.448939 -1.927522 1.100863 11.662137 -0.166794 1.476259 0.002608 -0.000115 843378.000000 1 0 0
0.524939 -4.233722 -1.808737 4.633734 -1.447436 1.971798 0.009192 -0.004164 -1385650.000000 1 0 0
1.142939 -7.387822 -11.308137 13.555817 -1.417307 2.557460 -0.001052 0.002537 -1007090.000000 1 0 0
-4.528961 4.193878 -10.003337 11.754439 -0.747003 2.588733 0.000673 -0.007508 -137850.000000 1 0 0
-1.044361 5.791978 -2.064337 6.236921 -1.392402 1.908145 0.005281 -0.003476 -517885.000000 1 0 0
-11.341961 1.688778 -3.828537 12.089241 -0.147811 1.893034 0.003646 -0.002100 -137673.000000 1 0 0
-1.683761 -11.289922 4.141363 12.142828 1.422749 1.222758 0.014056 -0.002705 -87362.600000 1 0 0
-3.460661 -5.506022 -9.698537 11.677074 1.009668 2.550913 0.011237 -0.000401 -1813290.000000 1 0 0
-12.963161 -3.739622 -8.342337 15.862626 0.280855 2.124583 0.017967 -0.003533 97999.600000 1 0 0
11.591839 4.509678 0.616163 12.453416 0.371022 1.521299 0.009122 0.000974 202526.000000 1 0 0
-8.893361 -2.456422 -2.987237 9.697910 0.269489 1.883917 0.009634 -0.003074 -201412.000000 1 0 0
-2.519761 -6.054222 -6.322837 9.109394 1.176404 2.337966 0.010899 -0.001770 1009160.000000 1 0 0
-0.068561 2.815278 -1.870837 3.380905 -1.546448 2.157182 0.005964 -0.004657 693046.000000 1 0 0
8.135539 5.950378 -5.157437 11.322241 0.631494 2.043746 0.011146 -0.003359 -588100.000000 1 0 0
-9.831461 -0.969922 -1.002237 9.929897 0.098337 1.671900 0.005820 -0.003510 258851.000000 1 0 0
6.228439 0.537978 -8.823837 10.814017 0.086161 2.525189 0.001558 -0.002347 291753.000000 1 0 0
-4.215561 2.460978 7.923363 9.306291 -0.528411 0.552150 0.009733 -0.001945 -408004.000000 1 0 0
-10.219461 -3.263722 1.428563 10.822664 0.309125 1.438413 0.005825 -0.003970 1496290.000000 1 0 0
-1.750061 -8.092122 -7.836837 11.400051 1.357809 2.328753 0.008416 -0.000689 -602140.000000 1 0 0
-9.456361 -9.882522 4.166963 14.298622 0.807431 1.275081 0.008773 -0.001270 -168289.000000 1 0 0
-1.216361 -10.736622 7.168463 12.966937 1.457986 0.985044 0.003045 -0.000472 -264987.000000 1 0 0
9.476039 3.817978 -3.661637 10.852642 0.383011 1.914945 0.007275 -0.000460 -626968.000000 1 0 0
13.016839 -0.798122 3.058763 13.395190 -0.061238 1.340416 0.000503 0.003326 72509.500000 1 0 0
6.457439 11.933078 -6.878037 15.211977 1.074783 2.039966 0.019860 -0.006690 278999.000000 1 0 0
-11.773461 -0.108822 -6.519037 13.458234 0.009243 2.076462 0.008487 -0.001596 449457.000000 1 0 0
-7.619761 -6.770122 -11.380537 15.277825 0.726422 2.411190 0.016772 -0.002315 -1439550.000000 1 0 0
4.100239 6.097778 6.590263 9.870483 0.978825 0.839717 -0.001625 0.000127 -2985950.000000 1 0 0
-4.283861 -1.325122 -7.373137 8.629633 0.299993 2.595187 0.011104 -0.007242 -258923.000000 1 0 0
9.675239 9.294178 0.889663 13.445575 0.765313 1.504580 0.008210 -0.003881 -2553000.000000 1 0 0
-9.020761 3.879478 4.874463 10.962886 -0.406150 1.110032 0.011630 -0.009001 338074.000000 1 0 0
-6.913361 7.764678 -12.300837 16.105756 -0.843333 2.439905 -0.005251 -0.004596 -1434690.000000 1 0 0
11.191339 -3.603722 7.266763 13.821676 -0.311525 1.017198 0.014426 -0.005678 886118.000000 1 0 0
11.898639 6.988178 6.410563 15.215372 0.531036 1.135894 0.001114 -0.000867 48000.500000 1 0 0
-9.802261 -0.880322 -14.853337 17.817994 0.089568 2.556416 0.007658 0.002986 384252.000000 1 0 0
1.681839 -13.149422 11.920763 17.828081 -1.443585 0.838403 -0.005086 0.001425 -378913.000000 1 0 0
3.004339 2.882078 12.989063 13.639948 0.764631 0.310172 -0.005803 0.000323 -772293.000000 1 0 0
-2.547661 -1.367422 10.902163 11.279077 0.492603 0.259248 0.014917 -0.003806 -258596.000000 1 0 0
2.693539 -9.959022 -8.137437 13.139830 -1.306654 2.238641 -0.011212 0.004257 -1118470.000000 1 0 0
13.973239 3.601078 -7.454137 16.241407 0.252224 2.047619 0.014043 -0.001676 -2866880.000000 1 0 0
7.485939 -1.487622 4.981863 9.114344 -0.196167 0.992503 0.000261 -0.001681 172411.000000 1 0 0
-1.300961 8.800378 10.108863 13.465819 -1.424029 0.721667 0.004107 -0.001379 -87744.800000 1 0 0
-12.270361 -4.635922 0.925963 13.149561 0.361236 1.500320 0.003266 -0.004681 50014.500000 1 0 0
-4.945761 4.879678 -5.312637 8.746195 -0.778673 2.223608 0.004588 -0.005071 -442619.000000 1 0 0
-11.336261 0.283578 2.127263 11.537612 -0.025010 1.385359 0.005747 -0.002832 -1659770.000000 1 0 0
-1.308661 2.270978 -4.085737 4.854192 -1.048020 2.571206 0.009232 -0.006986 902734.000000 1 0 0
3.178039 -9.917322 13.085963 16.724104 -1.260682 0.672188 -0.003766 0.002818 -757177.000000 1 0 0
8.918739 4.751078 -1.460237 10.210237 0.489470 1.714305 0.005988 -0.001777 -288793.000000 1 0 0
4.116339 2.319478 3.737563 6.024417 0.513134 0.901541 -0.003509 0.000812 -592512.000000 1 0 0
-5.506561 -3.300622 7.419863 9.811763 0.539977 0.713278 0.009102 -0.006260 217483.000000 1 0 0
1.859439 -5.739622 7.724863 9.801749 -1.257501 0.663063 -0.001237 -0.002324 -555856.000000 1 0 0
-5.814861 -6.347922 -9.812837 13.053754 0.829197 2.421471 0.018358 -0.002405 -170640.000000 1 0 0
-11.661961 -5.730322 5.547963 14.128617 0.456719 1.167257 0.009634 -0.007406 -2363480.000000 1 0 0
10.470439 6.210378 4.605063 13.015586 0.535356 1.209153 -0.003349 0.000330 -94805.400000 1 0 0
1.459239 -3.758122 0.513163 4.064012 -1.200426 1.444188 0.013643 -0.003707 -657649.000000 1 0 0
8.868339 4.343178 7.017163 12.114091 0.455406 0.952980 -0.002507 0.003038 -830892.000000 1 0 0
-7.962961 12.126178 3.394863 14.898928 -0.989743 1.340917 0.000107 -0.004253 362585.000000 1 0 0
-6.297961 13.101078 -7.008137 16.137427 -1.122691 2.020033 0.008829 -0.002054 379047.000000 1 0 0
4.594439 -6.850222 -0.903737 8.297659 -0.980007 1.679927 0.005330 -0.005854 -181952.000000 1 0 0
-1.884961 -8.218322 11.108963 13.946432 1.345335 0.649237 0.003466 -0.001944 119291.000000 1 0 0
11.630039 8.824878 -5.657137 15.656930 0.649110 1.940478 0.024520 -0.008961 786370.000000 1 0 0
-3.297261 -2.921322 -1.923637 4.806915 0.725017 1.982511 0.016418 -0.005373 -1211280.000000 1 0 0
-2.056661 5.860578 4.783163 7.839316 -1.233292 0.914546 0.006508 -0.001750 501580.000000 1 0 0
0.625339 -11.272022 -5.563537 12.585804 -1.515376 2.028678 0.000709 0.000518 -1723410.000000 1 0 0
-8.974761 6.269778 -1.602137 11.064506 -0.609786 1.716107 0.006997 -0.005402 -1063960.000000 1 0 0
2.974539 -0.031622 3.913963 4.916095 -0.010630 0.649886 -0.000870 -0.000619 -315517.000000 1 0 0
-10.239061 4.007478 -1.066837 11.047008 -0.373063 1.667520 0.005624 -0.005461 34223.900000 1 0 0
6.481739 5.527678 13.582463 16.032825 0.706122 0.560168 0.003958 0.000956 -1185280.000000 1 0 0
-8.885661 -1.514322 5.636763 10.631145 0.168801 1.011945 0.007870 -0.006689 -46234.700000 1 0 0
13.094339 -1.716522 -1.581737 13.300754 -0.130346 1.689999 0.009165 -0.001739 -1796750.000000 1 0 0
5.121839 -5.593322 5.491963 9.363768 -0.829371 0.944051 -0.000482 -0.004290 226936.000000 1 0 0
-8.957161 -1.195722 3.096063 9.552282 0.132709 1.240717 0.009280 -0.005565 184130.000000 1 0 0
1.958539 5.468178 5.582663 8.056238 1.226862 0.805208 0.001387 -0.001176 -811108.000000 1 0 0
9.277939 3.101678 -7.322937 12.219900 0.322626 2.213377 0.004777 -0.001688 -1260410.000000 1 0 0
2.365839 -2.484622 -1.465537 3.730729 -0.809882 1.974502 0.006492 -0.000724 -254143.000000 1 0 0
-6.269461 0.331178 -3.880637 7.380729 -0.052775 2.124428 0.005497 -0.002973 -2094700.000000 1 0 0
-4.084661 4.117278 4.988363 7.649850 -0.789375 0.860463 0.011420 -0.003991 906409.000000 1 0 0
-6.446361 1.757378 -12.332337 14.026064 -0.266148 2.645070 0.004918 -0.007661 -2440200.000000 1 0 0
-0.072761 3.179478 6.195863 6.964417 -1.547916 0.474228 0.003989 -0.002232 1394950.000000 1 0 0
-8.716561 9.394778 -2.151537 12.994976 -0.822828 1.737129 0.001569 -0.001897 1414610.000000 1 0 0
-1.304961 -3.747322 -6.131437 7.303414 1.235692 2.567214 0.006508 -0.002998 388328.000000 1 0 0
-3.348761 6.992978 -3.024837 8.322595 -1.124191 1.942763 0.004880 -0.001339 1429090.000000 1 0 0
7.124639 -0.386322 -4.331737 8.347075 -0.054170 2.116422 0.006412 0.001360 -21369.100000 1 0 0
-5.166561 -10.826822 6.902363 13.840378 1.125554 1.048684 0.003440 0.000124 706121.000000 1 0 0
9.747639 8.455178 -1.512137 12.992038 0.714514 1.687450 0.010723 -0.002837 163439.000000 1 0 0
13.691739 4.698378 -4.288337 15.097294 0.330563 1.858808 0.007291 -0.003490 1173260.000000 1 0 0
4.707639 1.037278 -6.874537 8.396253 0.216874 2.530049 0.001891 -0.001385 -770978.000000 1 0 0
9.058739 -4.716822 3.663263 10.850284 -0.480065 1.226410 0.004959 -0.004033 -831755.000000 1 0 0
-8.722861 -3.284222 -0.714337 9.347978 0.360092 1.647287 0.007512 -0.002052 683781.000000 1 0 0
-8.500361 -4.358922 -10.403137 14.123795 0.473829 2.398778 0.009308 -0.000344 -92577.000000 1 0 0
10.466139 -1.213422 10.741563 15.046383 -0.115423 0.775749 0.012607 -0.006040 1013180.000000 1 0 0
2.327639 -11.647222 9.912863 15.470635 -1.373550 0.875317 -0.004956 0.001845 32115.200000 1 0 0
-6.415861 -10.540522 2.037263 12.506651 1.024015 1.407173 0.014632 -0.001444 -1024870.000000 1 0 0
-3.607161 -1.437222 6.667663 7.715890 0.379157 0.527343 0.014867 -0.004544 -2387670.000000 1 0 0
4.734239 -7.588722 3.976363 9.788421 -1.013023 1.152470 -0.003122 -0.003238 234532.000000 1 0 0
11.602539 -9.459222 -5.103237 15.815777 -0.683984 1.899343 0.026473 -0.009398 453033.000000 1 0 0
11.299339 1.121078 11.449563 16.125271 0.098893 0.781243 0.013019 -0.005221 10502.300000 1 0 0
-10.261161 -3.412322 4.291163 11.633979 0.321043 1.193028 0.009066 -0.004468 1252510.000000 1 0 0
2.068339 8.725678 8.962763 12.678589 1.338052 0.785661 -0.001763 0.001798 34424.000000 1 0 0
6.651139 8.758878 4.078663 11.729923 0.921332 1.215664 0.004593 -0.000863 266925.000000 1 0 0
-4.241661 3.466178 0.431963 5.494786 -0.685126 1.492102 0.013065 -0.007060 -802991.000000 1 0 0
4.870739 7.016678 4.278463 9.553173 0.963997 1.106428 0.003244 -0.001906 -979974.000000 1 0 0
-8.333861 13.118978 1.000463 15.574394 -1.004858 1.506514 0.001039 -0.004710 1904910.000000 1 0 0
8.833739 8.112578 -9.069137 15.036559 0.742868 2.218227 0.013361 -0.006032 -95741.100000 1 0 0
7.118339 1.942278 6.050463 9.542080 0.266371 0.883975 -0.002599 0.000536 27990.700000 1 0 0
11.512539 -6.191722 3.037363 13.420192 -0.493447 1.342490 0.010200 -0.001609 -368197.000000 1 0 0
11.466139 4.781678 -2.041837 12.589912 0.395097 1.733696 0.007623 -0.000906 254270.000000 1 0 0
-4.078661 14.263178 -6.099837 16.040004 -1.292272 1.960905 0.007545 0.001954 -237393.000000 1 0 0
7.179339 -3.032222 6.900163 10.409108 -0.399627 0.846115 0.001481 -0.003838 -638518.000000 1 0 0
-8.000061 -0.371722 0.820963 8.050661 0.046431 1.468644 0.010270 -0.004262 307083.000000 1 0 0
-3.222861 1.102278 10.735163 11.262575 -0.329547 0.307242 0.011288 -0.003300 -4188.250000 1 0 0
7.172039 -1.242722 -1.819637 7.502904 -0.171570 1.815763 0.009127 0.000788 -1501800.000000 1 0 0
-7.826661 5.379178 2.944263 9.942880 -0.602144 1.270171 0.012140 -0.006236 835539.000000 1 0 0
9.543439 -2.183022 2.881063 10.205064 -0.224877 1.284588 0.005530 -0.002422 -1170180.000000 1 0 0
0.326939 3.557978 1.596463 3.913412 1.479165 1.150592 0.001774 -0.001881 -2753150.000000 1 0 0
-7.584561 -3.021822 4.037263 9.108044 0.379141 1.111560 0.010029 -0.004298 1683310.000000 1 0 0
-2.368361 8.453578 -6.762637 11.081758 -1.297639 2.227172 0.001536 -0.002077 -259894.000000 1 0 0
4.529839 9.865378 7.287363 13.074815 1.140347 0.979595 0.000678 0.004048 -649893.000000 1 0 0
-11.902261 -3.153122 6.783763 14.057932 0.258969 1.067224 0.011945 -0.007304 -692909.000000 1 0 0
-4.812861 2.329678 -5.695137 7.811889 -0.450808 2.387707 0.007753 -0.006503 -647.199000 1 0 0
-2.738561 2.741478 -1.886537 4.309807 -0.785930 2.023870 0.010835 -0.004310 279201.000000 1 0 0
2.443939 5.170678 11.440263 12.790167 1.129264 0.463579 -0.002328 -0.002198 60455.400000 1 0 0
-0.581061 1.734678 4.516863 4.873274 -1.247575 0.384825 0.007109 -0.003016 267059.000000 1 0 0
5.113139 1.621778 7.583563 9.288960 0.307141 0.615637 -0.005704 0.001112 947263.000000 1 0 0
3.364239 -8.219722 1.952263 9.093584 -1.182308 1.354426 0.002599 -0.004435 1953950.000000 1 0 0
5.005839 6.471978 -4.597537 9.385215 0.912447 2.082737 0.010560 -0.004824 -1884630.000000 1 0 0
-4.079361 3.014878 -7.960937 9.439660 -0.636460 2.574283 0.009374 -0.011668 1087050.000000 1 0 0
-8.820961 -2.265022 -12.873737 15.769362 0.251347 2.525905 0.013111 -0.001339 281882.000000 1 0 0
-7.762161 8.016578 1.266663 11.230365 -0.801521 1.457767 0.004645 -0.005654 -2324250.000000 1 0 0
7.384139 0.963278 -6.508537 9.890119 0.129720 2.289069 0.003449 0.000215 -60707.900000 1 0 0
9.019039 8.876778 5.425963 13.768853 0.777449 1.165735 -0.001028 0.000850 248213.000000 1 0 0
9.463439 -1.046722 -1.315237 9.611563 -0.110159 1.708066 0.004800 0.002488 1797970.000000 1 0 0
5.503939 0.109578 4.253563 6.956878 0.019906 0.912944 -0.001189 0.000965 -1770540.000000 1 0 0
-4.128161 -7.261022 -7.995437 11.562489 1.053833 2.334357 0.021302 -0.003631 189939.000000 1 0 0
-2.172461 7.364378 -0.523637 7.695963 -1.283937 1.638889 0.005183 -0.003720 419982.000000 1 0 0
13.518139 -3.378822 -7.376437 15.766050 -0.244929 2.057674 0.028607 -0.006889 967451.000000 1 0 0
-4.836561 -4.966922 1.622363 7.120021 0.798695 1.340918 0.011338 -0.002961 2474990.000000 1 0 0
-9.006861 1.303578 2.416263 9.416007 -0.143734 1.311281 0.010993 -0.007533 -1879960.000000 1 0 0
-1.029861 11.179178 10.155063 15.138030 -1.478932 0.835467 0.004476 -0.001414 722489.000000 1 0 0
-8.623961 0.421478 7.394063 11.367609 -0.048834 0.862619 0.005902 -0.007260 286592.000000 1 0 0
-6.153061 12.775778 -2.056237 14.328600 -1.121961 1.714799 -0.001579 0.000103 752092.000000 1 0 0
-13.213561 -0.812022 3.204363 13.620776 0.061376 1.333315 0.001495 -0.008102 347600.000000 1 0 0
-6.708661 12.741678 8.601963 16.773499 -1.086164 1.032318 0.012850 -0.006556 -925336.000000 1 0 0
-8.051861 0.911278 -14.105837 16.267683 -0.112697 2.620163 0.009326 -0.003001 -442642.000000 1 0 0
7.263039 2.913078 3.802163 8.700241 0.381439 1.118516 0.001461 0.000836 -549446.000000 1 0 0
-1.522061 0.619878 -2.133337 2.692962 -0.386751 2.485185 0.010455 -0.006340 1085720.000000 1 0 0
-6.280061 9.575078 -10.486937 15.527303 -0.990302 2.312286 -0.004048 0.000714 -107044.000000 1 0 0
-10.228661 13.612678 5.264963 17.822748 -0.926395 1.270915 -0.003562 -0.003698 634461.000000 1 0 0
-5.645561 8.286678 2.398863 10.309992 -0.972744 1.335970 0.005064 -0.002323 -1675300.000000 1 0 0
-2.374361 -10.681122 -1.276237 11.016022 1.352058 1.686910 0.015275 -0.000891 630277.000000 1 0 0
-2.342761 -12.328822 8.747763 15.297442 1.383012 0.962043 0.001046 0.002621 351730.000000 1 0 0
-14.801361 -6.396822 -1.720037 16.215985 0.407935 1.677067 0.014678 -0.009202 853546.000000 1 0 0
-2.711361 -9.232522 3.306363 10.174624 1.285152 1.239825 0.011390 -0.002782 547938.000000 1 0 0
4.720539 -2.740422 7.474963 9.255727 -0.525982 0.630718 -0.003077 -0.000319 -1144380.000000 1 0 0
-15.061861 -1.289822 -0.328337 15.120553 0.085427 1.592513 0.004226 -0.010205 -86284.900000 1 0 0
5.527939 8.826178 -2.865437 10.801400 1.011254 1.839295 0.010469 -0.003698 -176202.000000 1 0 0
-5.572261 -5.727122 8.500463 11.666529 0.799103 0.754492 0.010290 -0.002206 -3504630.000000 1 0 0
3.479339 3.683078 6.940863 8.593396 0.813836 0.630560 -0.003317 -0.000614 75104.500000 1 0 0
3.428539 2.380978 9.322963 10.214773 0.606997 0.420967 -0.001032 -0.003686 455718.000000 1 0 0
9.961439 -3.162022 5.275563 11.707272 -0.307367 1.103333 0.008896 -0.002566 -722161.000000 1 0 0
6.628339 10.022178 -5.132037 13.065861 0.986472 1.974451 0.010717 -0.005295 540819.000000 1 0 0
-4.664061 12.062178 -8.646537 15.556741 -1.201835 2.160129 0.005444 0.001506 -388452.000000 1 0 0
-3.313861 -7.180922 2.085663 8.179078 1.138436 1.312949 0.012923 -0.003162 1390180.000000 1 0 0
-7.496961 -3.991022 1.085063 8.562129 0.489193 1.443726 0.009975 -0.002309 2941360.000000 1 0 0
-1.940361 -3.977922 -10.887637 11.752851 1.116970 2.755487 0.013411 -0.002004 -472731.000000 1 0 0
-5.277361 8.290078 -4.386137 10.761697 -1.003908 1.990587 0.001786 -0.002744 -2603650.000000 1 0 0
-10.947861 -3.331622 -10.133837 15.285615 0.295413 2.295569 0.012171 0.000811 38777.200000 1 0 0
4.811739 -11.235822 -7.626937 14.407175 -1.166176 2.128671 -0.007026 -0.001387 -1905470.000000 1 0 0
-9.409861 -3.938122 7.291863 12.538962 0.396361 0.950180 0.008080 -0.004818 -350574.000000 1 0 0
-5.684961 -9.646422 -5.152337 12.325535 1.038257 2.002062 0.025055 -0.006564 1495960.000000 1 0 0
4.938639 4.396778 -9.496137 11.571448 0.727420 2.533348 0.004560 -0.000273 429821.000000 1 0 0
-3.408861 -7.114422 -14.128037 16.181371 1.123969 2.632332 0.015285 0.003129 229353.000000 1 0 0
0.649839 -0.761422 -8.689637 8.747105 -0.864300 3.026900 0.010438 -0.008134 -190429.000000 1 0 0
-7.767161 2.188678 -2.866337 8.563585 -0.274664 1.912096 0.006267 -0.004620 -320289.000000 1 0 0
-2.380661 7.471578 -12.613737 14.852555 -1.262338 2.585386 0.000834 -0.006554 -64340.100000 1 0 0
-9.916761 8.878978 7.504363 15.280506 -0.730240 1.057436 0.003820 -0.007941 -125954.000000 1 0 0
-10.672961 -3.212922 -14.412637 18.219744 0.292405 2.483312 0.019697 0.006081 -117700.000000 1 0 0
-3.178361 4.788878 7.991063 9.843395 -0.984853 0.623534 0.009219 -0.003671 -648343.000000 1 0 0
8.799939 -2.322822 -3.477437 9.743048 -0.258073 1.935759 0.005402 0.001236 -5410240.000000 1 0 0
1.970739 -8.384822 -1.033537 8.675094 -1.339950 1.690218 0.003705 -0.001636 -225477.000000 1 0 0
-13.660561 -2.954622 5.025163 14.852373 0.213007 1.225643 0.014147 -0.011219 290623.000000 1 0 0
7.012439 2.856878 -1.837637 7.791852 0.386871 1.808880 0.006171 0.000171 2019250.000000 1 0 0
-11.123761 4.327278 8.717363 14.780251 -0.370998 0.939988 0.004800 -0.011073 -3801210.000000 1 0 0
-1.707661 -2.528122 8.063163 8.621027 0.976726 0.361718 0.009599 -0.005197 -1990680.000000 1 0 0
2.966139 11.914378 -9.828737 15.727506 1.326802 2.245850 0.008848 -0.012711 1187860.000000 1 0 0
3.607639 -4.971922 -6.988237 9.304328 -0.943093 2.420483 -0.000030 -0.004932 164034.000000 1 0 0
8.335539 -13.679122 -9.748437 18.751843 -1.023521 2.117490 0.027842 0.001514 128590.000000 1 0 0
-6.306361 -5.710722 -0.392637 8.516848 0.735873 1.616914 0.016066 -0.003170 41913.800000 1 0 0
-1.153361 -4.087922 9.917863 10.789132 1.295805 0.404636 0.003284 -0.002594 963168.000000 1 0 0
2.859639 3.242678 1.787163 4.678295 0.848085 1.178824 -0.001897 -0.001145 -1739170.000000 1 0 0
-9.119861 13.364578 7.727163 17.930222 -0.971987 1.125243 0.007600 -0.011663 -1312860.000000 1 0 0
4.145139 -11.145322 0.068663 11.891387 -1.214731 1.565022 0.000040 -0.003819 309936.000000 1 0 0
-12.485161 -1.415022 -9.077737 15.501188 0.112855 2.196436 0.010109 -0.004808 102500.000000 1 0 0
-4.259861 0.958278 -13.627537 14.309943 -0.221272 2.831523 0.007104 -0.006849 569091.000000 1 0 0
3.951139 -3.000422 4.890363 6.966325 -0.649478 0.792594 -0.000446 -0.001006 77520.200000 1 0 0
1.851439 -1.199522 1.074163 2.453672 -0.574888 1.117671 0.003059 -0.001602 1036950.000000 1 0 0
8.172939 -9.030722 7.389163 14.246073 -0.835217 1.025489 0.008848 -0.004613 -1057110.000000 1 0 0
-0.067461 2.321678 -6.450337 6.855770 -1.541747 2.795963 0.009203 -0.006872 506921.000000 1 0 0
-3.705161 -9.713822 -3.420337 10.944645 1.206399 1.888633 0.021249 -0.002663 1348570.000000 1 0 0
-9.445261 2.181978 -5.442037 11.117093 -0.227030 2.082335 0.003291 -0.001201 -52332.100000 1 0 0
9.034539 -7.611622 5.328763 12.959761 -0.700125 1.147051 0.006015 -0.004076 1417970.000000 1 0 0
-5.568961 -4.282622 4.685863 8.444613 0.655561 0.982561 0.008872 -0.003937 -510005.000000 1 0 0
-0.106861 -12.527622 10.234563 16.177114 1.562266 0.885817 0.002259 0.001369 -589785.000000 1 0 0
-14.163561 -8.249922 3.038163 16.670276 0.527434 1.387522 0.000435 -0.009378 -1244120.000000 1 0 0
10.874639 -1.269022 -3.602137 11.525779 -0.116170 1.888650 0.010721 0.000281 -490165.000000 1 0 0
-13.848261 2.880078 2.735863 14.406739 -0.205051 1.379734 0.000269 -0.003995 -35845.900000 1 0 0
-6.333761 6.083578 1.036263 8.843093 -0.765253 1.453343 0.008670 -0.005190 992449.000000 1 0 0
7.275239 -7.028322 -0.487137 10.127374 -0.768137 1.618916 0.004191 -0.005737 148631.000000 1 0 0
-6.892761 7.728078 9.972763 14.376695 -0.842468 0.804217 0.007569 -0.006203 299733.000000 1 0 0
-12.708961 -5.035522 -1.922937 13.804777 0.377242 1.710546 0.000851 -0.005353 -970905.000000 1 0 0
-9.470161 -5.597822 0.164963 11.002126 0.533850 1.555802 0.007813 -0.002436 -1128470.000000 1 0 0
-1.667761 1.895578 2.196263 3.346374 -0.849245 0.854877 0.011575 -0.004368 91658.700000 1 0 0
-7.081861 7.359878 7.500263 12.671800 -0.804647 0.937399 0.004955 -0.006044 88604.700000 1 0 0
5.680939 7.198478 -0.560237 9.187220 0.902684 1.631814 0.009064 -0.005120 -1063650.000000 1 0 0
0.057039 -4.037922 7.529463 8.544056 -1.556672 0.492292 0.004016 -0.003494 -998743.000000 1 0 0
6.191939 0.731878 13.131463 14.536543 0.117653 0.443299 -0.001255 -0.001330 575381.000000 1 0 0
5.774339 6.147978 -7.765637 11.464979 0.816727 2.314931 0.004794 -0.001819 -218183.000000 1 0 0
9.977039 5.389878 9.017663 14.488283 0.495310 0.898977 -0.000383 -0.001055 -3080440.000000 1 0 0
-1.185061 -4.987622 -8.449537 9.883087 1.337521 2.596249 0.009852 -0.001542 741527.000000 1 0 0
10.043739 -3.560122 -7.978837 13.312137 -0.340644 2.213505 0.020594 -0.009351 615177.000000 1 0 0
8.359739 -5.681222 1.428563 10.207953 -0.596898 1.430389 0.004175 -0.003935 1224960.000000 1 0 0
15.782739 3.190178 -4.973937 16.852659 0.199444 1.870401 0.014030 0.000345 -438428.000000 1 0 0
-6.942961 3.538178 1.080963 7.867140 -0.471303 1.432958 0.012570 -0.008561 1602130.000000 1 0 0
-1.724061 3.780278 0.246463 4.162167 -1.142908 1.511546 0.009978 -0.007208 -324976.000000 1 0 0
-2.595961 10.040578 6.866563 12.437922 -1.317790 0.985955 0.003469 0.003009 1267650.000000 1 0 0
5.505439 -5.625422 -8.642937 11.689978 -0.796177 2.402895 0.001735 -0.005112 333742.000000 1 0 0
-1.254361 -0.902622 6.209463 6.398874 0.623751 0.243917 0.010934 -0.004284 432393.000000 1 0 0
-5.769061 5.047278 -7.832337 10.959132 -0.718766 2.366971 0.000041 -0.003546 -213215.000000 1 0 0
6.802739 -1.272022 2.546363 7.374229 -0.184852 1.218232 0.002477 -0.000286 -1179690.000000 1 0 0
8.858439 7.503778 3.186863 12.038884 0.702795 1.302889 0.003969 -0.002080 -59153.300000 1 0 0
-5.207061 -4.822722 -7.803737 10.548480 0.747097 2.403565 0.020173 -0.005614 1916630.000000 1 0 0
-2.198461 7.923478 -10.164437 13.074039 -1.300143 2.461401 0.003343 -0.005150 123976.000000 1 0 0
-2.836461 -2.178722 1.685863 3.954046 0.654993 1.130327 0.009809 -0.003322 -25543.900000 1 0 0
6.041739 -2.067822 -9.275937 11.261505 -0.329759 2.538676 0.002516 -0.003784 1376530.000000 1 0 0
1.237839 -7.539222 5.274763 9.284139 -1.408062 0.966543 0.001508 -0.002463 698602.000000 1 0 0
1.757939 11.827878 1.116563 12.009819 1.423250 1.477691 0.007175 -0.003549 12382.500000 1 0 0
-1.089061 7.045978 2.552563 7.572809 -1.417445 1.226994 0.002970 -0.000444 642417.000000 1 0 0
8.725439 7.925878 -6.585137 13.502476 0.737417 2.080248 0.016328 -0.006061 -119377.000000 1 0 0
3.780839 -11.125822 5.421963 12.941265 -1.243214 1.138489 0.002042 -0.003848 1810350.000000 1 0 0
7.990739 -7.194522 12.379763 16.397304 -0.733013 0.715161 0.010253 -0.004589 191798.000000 1 0 0
-8.706461 0.012778 -3.934637 9.554266 -0.001468 1.995247 0.006604 -0.003839 -1335810.000000 1 0 0
-3.275361 -5.056222 11.144763 12.668825 0.995977 0.495566 0.008661 -0.004973 141831.000000 1 0 0
-8.120261 0.058378 -11.662537 14.211151 -0.007189 2.533363 0.005935 -0.005506 -1553730.000000 1 0 0
1.440539 -4.900622 5.345663 7.393738 -1.284899 0.762663 0.002367 -0.004119 -599974.000000 1 0 0
6.738239 3.756478 -7.615437 10.840197 0.508573 2.349726 0.002205 -0.001711 -1834860.000000 1 0 0
16.358339 4.311178 -1.238037 16.962141 0.257687 1.643850 0.009866 0.006081 -228949.000000 1 0 0
7.949939 7.494578 0.110863 10.926231 0.755923 1.560650 0.007641 -0.004489 -2008080.000000 1 0 0
5.542039 -10.395222 13.950263 18.258825 -1.080995 0.701262 0.000954 0.000047 154312.000000 1 0 0
-5.283661 -9.153522 8.857963 13.790125 1.047290 0.873247 0.006579 -0.002439 415442.000000 1 0 0
-12.623761 -3.225922 2.910163 13.350467 0.250189 1.351050 0.004501 -0.006367 -482570.000000 1 0 0
-2.158461 -1.410622 -5.794637 6.342446 0.578854 2.722917 0.012103 -0.006917 -1403030.000000 1 0 0
-2.573161 12.959278 -4.389937 13.922485 -1.374788 1.891582 0.005279 0.004465 247303.000000 1 0 0
4.042339 -0.420922 -4.943637 6.399783 -0.103754 2.453517 0.002207 -0.000999 97961.100000 1 0 0
-8.960561 3.655578 -7.433537 12.202966 -0.387352 2.225795 0.001839 -0.004099 -455754.000000 1 0 0
-4.576461 7.958878 -11.356437 14.603301 -1.048952 2.461735 -0.001362 -0.002676 -2104690.000000 1 0 0
-10.095561 -6.387122 7.361463 14.032349 0.564093 1.018543 0.009669 -0.003931 -1269350.000000 1 0 0
8.119939 5.253978 4.175263 10.534254 0.574296 1.163257 -0.000039 -0.000753 -1431650.000000 1 0 0
-6.788661 -7.582422 3.900663 10.899276 0.840575 1.204797 0.009849 -0.000581 -489401.000000 1 0 0
-4.187061 11.797178 8.064663 14.891061 -1.229745 0.998484 0.008657 -0.000377 -56961.000000 1 0 0
-7.232261 9.970578 -8.024837 14.700885 -0.943252 2.148229 -0.002092 -0.001296 -693703.000000 1 0 0
13.072139 5.604978 4.597063 14.947561 0.405062 1.258183 -0.001299 -0.003219 -1080290.000000 1 0 0
5.328639 3.976178 -3.765137 7.640722 0.641058 2.086069 0.006495 0.000356 771519.000000 1 0 0
-2.850261 -4.133822 5.103863 7.159741 0.967154 0.777234 0.011485 -0.003712 -431608.000000 1 0 0
12.382739 -2.406822 -5.225937 13.654136 -0.191975 1.963553 0.016310 -0.005760 -1831290.000000 1 0 0
-5.258861 9.830878 6.934063 13.129471 -1.079594 1.014400 0.003802 0.000980 -29400.700000 1 0 0
1.819339 3.901578 -0.496537 4.333457 1.134463 1.685631 0.000289 -0.000688 541030.000000 1 0 0
0.010539 9.648878 7.679463 12.331874 1.569704 0.898566 0.002278 0.002564 -248893.000000 1 0 0
-5.656261 2.025678 5.837063 8.376633 -0.343899 0.799832 0.014353 -0.005394 664682.000000 1 0 0
8.888339 0.828778 10.686163 13.924206 0.092974 0.695939 0.005782 -0.001942 -1851620.000000 1 0 0
0.462239 -2.838722 -10.145437 10.545231 -1.409380 2.865352 0.009052 -0.004147 -2096600.000000 1 0 0
1.261439 10.634778 -2.783237 11.065086 1.452733 1.825060 0.009015 -0.003991 24294.300000 1 0 0
2.338039 -4.394122 11.642263 12.661636 -1.081813 0.404012 -0.001787 0.000065 -33613.400000 1 0 0
6.519439 -3.111522 9.386963 11.844819 -0.445298 0.655907 -0.000002 -0.002704 138546.000000 1 0 0
-10.677661 -8.191522 5.593163 14.573845 0.654396 1.176909 0.012233 -0.005862 -1139870.000000 1 0 0
-2.993761 0.824078 -6.882537 7.550564 -0.268613 2.717776 0.013515 -0.007321 450187.000000 1 0 0
11.113839 2.647978 -5.028537 12.482603 0.233899 1.985418 0.007008 -0.001127 -2532760.000000 1 0 0
-2.041061 -3.989522 0.031663 4.481431 1.097908 1.563731 0.010805 -0.005120 1230390.000000 1 0 0
-1.219961 -6.439022 -10.592137 12.455628 1.383552 2.587522 0.008395 0.000802 785434.000000 1 0 0
0.271139 6.854878 -6.564537 9.495052 1.531263 2.334171 0.008221 -0.002353 -1719840.000000 1 0 0
2.016039 3.870478 -6.126137 7.521606 1.090588 2.522615 0.007241 -0.002824 -2273730.000000 1 0 0
1.537039 -14.781822 6.387263 16.175966 -1.467187 1.164879 0.008682 -0.006422 -509022.000000 1 0 0
-1.757661 5.386678 -10.485537 11.918563 -1.255391 2.646164 0.004113 -0.005493 -191234.000000 1 0 0
13.773839 4.461178 -0.742037 14.497288 0.313226 1.622003 0.004280 -0.000493 -653603.000000 1 0 0
-2.434261 3.354078 -6.134837 7.403492 -0.942989 2.547472 0.010407 -0.006574 -1669930.000000 1 0 0
5.647339 7.831078 14.058263 17.054413 0.946020 0.601799 0.005412 0.000237 214431.000000 1 0 0
15.849439 0.749978 -5.764737 16.881924 0.047284 1.919281 0.008682 -0.004964 -226292.000000 1 0 0
6.209539 -8.294622 10.607263 14.828121 -0.928178 0.773675 -0.003007 0.002511 -126278.000000 1 0 0
0.103339 -5.848722 -6.284037 8.585298 -1.553130 2.391981 0.005287 -0.002448 -245010.000000 1 0 0
8.653439 5.543478 -7.501537 12.723412 0.569746 2.201342 0.008086 -0.001731 -311581.000000 1 0 0
-16.013861 -0.746522 5.270663 16.875454 0.046584 1.253155 0.015595 -0.014465 -572862.000000 1 0 0
-0.457561 4.000978 -12.260537 12.904958 -1.456929 2.824237 0.006388 -0.008214 640170.000000 1 0 0
-11.486561 3.745478 5.804563 13.403830 -0.315204 1.122920 0.004292 -0.006463 -745510.000000 1 0 0
5.307539 -9.511322 -9.569937 14.498928 -1.061814 2.291674 -0.012255 0.001961 19941.500000 1 0 0
1.430939 11.271778 -11.597437 16.235797 1.444523 2.366438 0.003824 -0.002149 -2604590.000000 1 0 0
5.906739 2.475678 1.255563 6.526483 0.396886 1.377210 0.002570 0.000830 -301173.000000 1 0 0
5.675039 4.626578 4.896063 8.808106 0.683971 0.981401 -0.003092 -0.000302 -643798.000000 1 0 0
0.330839 -1.564722 -6.256037 6.457229 -1.362429 2.891310 0.008074 -0.004627 371149.000000 1 0 0
12.656139 6.801478 -4.534737 15.066578 0.493122 1.876516 0.009883 -0.006399 -341392.000000 1 0 0
7.392039 3.159378 12.702063 15.032176 0.403904 0.564247 0.001943 -0.000258 -488166.000000 1 0 0
-2.498761 -0.130922 8.553463 8.911941 0.052347 0.284594 0.010954 -0.004066 863092.000000 1 0 0
2.315939 -15.322522 13.236663 20.380199 -1.420786 0.863887 0.006605 -0.004353 771156.000000 1 0 0
18.986739 4.728978 -1.486537 19.623182 0.244101 1.646623 0.019277 0.001557 461365.000000 1 0 0
-0.467361 -13.231322 7.207963 15.074516 1.535489 1.072243 0.003815 -0.004001 -1436890.000000 1 0 0
4.388339 1.600978 -0.560037 4.704709 0.349821 1.690117 0.003818 -0.000499 458374.000000 1 0 0
2.734339 -0.494422 -7.299937 7.810898 -0.178887 2.777883 0.004949 -0.002547 776977.000000 1 0 0
7.273639 -11.252822 0.984863 13.435095 -0.996968 1.497425 0.001952 -0.002151 152395.000000 1 0 0
-11.828661 -7.382222 1.234663 13.997815 0.557949 1.482478 0.005350 -0.001768 116117.000000 1 0 0
0.145239 -7.041022 10.004163 12.234393 -1.550172 0.613378 -0.001979 -0.000879 -2344550.000000 1 0 0
-4.642461 -7.189322 10.560763 13.592959 0.997419 0.681023 0.008871 -0.001197 -1273680.000000 1 0 0
11.976539 0.890478 -1.667337 12.124786 0.074215 1.708748 0.003069 0.002488 2400180.000000 1 0 0
6.549539 -9.517322 -7.299437 13.665930 -0.968054 2.134279 -0.006997 -0.004666 -1518730.000000 1 0 0
-11.067961 4.958478 3.592163 12.648712 -0.421192 1.282839 0.001946 -0.006720 211763.000000 1 0 0
6.068939 -9.067022 2.054463 11.102420 -0.980944 1.384677 -0.001040 -0.004142 1702830.000000 1 0 0
11.677939 -1.347922 5.879763 13.143925 -0.114916 1.107011 0.008600 -0.006495 1828150.000000 1 0 0
-6.537261 3.586678 4.024863 8.473463 -0.501807 1.075837 0.012768 -0.007591 -444360.000000 1 0 0
9.539539 6.332878 -3.163137 11.879124 0.586054 1.840325 0.012134 -0.003113 827084.000000 1 0 0
-2.306861 6.543478 10.864763 12.891152 -1.231857 0.568317 0.004451 -0.004237 -367249.000000 1 0 0
1.889139 9.877278 2.930063 10.474480 1.381818 1.287280 0.002539 -0.001730 -237895.000000 1 0 0
2.788539 6.100478 -5.601837 8.739128 1.142052 2.266605 0.006277 -0.001636 -1840620.000000 1 0 0
11.924839 0.076478 -5.712637 13.222777 0.006413 2.017539 0.013932 -0.001204 325255.000000 1 0 0
-2.678861 -12.547922 6.126763 14.218434 1.360463 1.125303 0.005437 0.001046 -278818.000000 1 0 0
10.875739 1.836878 -2.717237 11.359542 0.167318 1.812341 0.004424 0.000834 259129.000000 1 0 0
-8.973561 5.280078 0.791163 10.441742 -0.531849 1.494954 0.010231 -0.007501 -241848.000000 1 0 0
1.221339 -10.143022 5.635263 11.667423 -1.450962 1.066729 0.000304 -0.002110 107061.000000 1 0 0
9.563739 -5.781422 -0.985637 11.218798 -0.543733 1.658766 0.005697 -0.002133 832743.000000 1 0 0
-7.849161 8.549178 -4.489537 12.444023 -0.828061 1.939899 0.001882 -0.004110 -488886.000000 1 0 0
-7.528961 -0.087322 -1.624537 7.702727 0.011598 1.783296 0.007162 -0.003523 -1539290.000000 1 0 0
4.071639 8.891378 2.760363 10.161420 1.141366 1.295688 0.004544 -0.003243 889410.000000 1 0 0
-1.210161 -10.515222 -3.767937 11.235289 1.456214 1.912790 0.014231 0.000215 -42391.400000 1 0 0
3.172939 7.875078 -3.677937 9.252654 1.187785 1.979588 0.010210 -0.005671 -419902.000000 1 0 0
-4.335861 1.693378 -11.131037 12.065123 -0.372335 2.745511 0.005152 -0.008748 -351494.000000 1 0 0
1.405439 2.762078 10.947563 11.377762 1.100107 0.275867 -0.000539 -0.002071 462767.000000 1 0 0
2.053039 5.540078 -8.030937 9.970124 1.215907 2.507315 0.007582 -0.001741 144742.000000 1 0 0
15.543439 6.162578 4.056563 17.205568 0.377464 1.332785 0.014221 -0.007175 79117.600000 1 0 0
-4.498761 8.958278 4.550563 11.008961 -1.105398 1.144665 0.005238 0.001579 38646.500000 1 0 0
-0.926661 -8.184522 -12.500337 14.970087 1.458055 2.558967 0.005150 0.003060 324596.000000 1 0 0
14.345339 -4.261522 -5.202237 15.843376 -0.288763 1.905357 0.026617 -0.004951 1670970.000000 1 0 0
-5.969461 -6.132822 -5.722537 10.295310 0.798896 2.160168 0.021852 -0.004907 562168.000000 1 0 0
-8.937361 2.509078 -12.262137 15.379593 -0.273695 2.493604 0.008443 -0.006090 -118667.000000 1 0 0
10.441939 5.380978 13.727163 18.067209 0.475831 0.707817 0.013843 0.002028 640779.000000 1 0 0
-0.487361 11.003078 5.567763 12.341201 -1.526532 1.102740 0.002135 0.003437 569983.000000 1 0 0
0.347739 11.218578 -0.609037 11.240478 1.539810 1.625005 0.006273 -0.003548 126495.000000 1 0 0
-1.412561 -0.514222 3.709763 4.002761 0.349123 0.384993 0.011065 -0.004085 785255.000000 1 0 0
-4.869461 6.595778 8.855463 12.067940 -0.934845 0.746897 0.008449 -0.004776 -1591260.000000 1 0 0
3.549839 -8.780722 -11.327337 14.765195 -1.186609 2.445206 -0.009891 0.003107 2087750.000000 1 0 0
6.707239 -3.691522 12.030863 14.260297 -0.503134 0.566729 0.005042 -0.002359 -307001.000000 1 0 0
-2.475361 -1.843222 -12.488237 12.863939 0.640054 2.899315 0.009591 -0.008010 729343.000000 1 0 0
-16.109461 -4.928322 5.501163 17.721905 0.296886 1.255166 0.021160 -0.016284 625800.000000 1 0 0
-8.967561 7.197578 5.720363 12.843085 -0.676339 1.109171 0.001245 -0.003204 -3950030.000000 1 0 0
-12.998761 1.502178 5.931263 14.366775 -0.115053 1.145220 0.003255 -0.007313 469232.000000 1 0 0
-3.456461 3.518378 10.179363 11.311302 -0.794275 0.451191 0.009019 -0.001675 383608.000000 1 0 0
2.083639 -12.280122 -1.106437 12.504685 -1.402721 1.659394 0.003039 -0.000597 -2847520.000000 1 0 0
10.344739 -5.109422 -3.533037 12.066572 -0.458768 1.867945 0.010948 -0.001477 748487.000000 1 0 0
3.125139 -13.520922 0.995163 13.913022 -1.343652 1.499208 0.005920 -0.006545 422146.000000 1 0 0
10.078939 -1.742422 -6.082837 11.900502 -0.171186 2.107308 0.015663 -0.001421 -49242.100000 1 0 0
12.041339 -5.249822 -1.454837 13.216316 -0.411137 1.681099 0.009887 -0.002752 822391.000000 1 0 0
1.616739 1.044978 5.949663 6.253345 0.573805 0.312926 0.001788 -0.002357 427195.000000 1 0 0
-10.810361 11.711878 6.717363 17.296097 -0.825405 1.171929 0.001583 -0.004417 -1030040.000000 1 0 0
4.736039 -14.143322 3.148163 15.243837 -1.247672 1.362779 0.007317 -0.009744 -2794890.000000 1 0 0
5.403739 -3.509722 -1.652837 6.652098 -0.576023 1.821895 0.006068 -0.000334 -1473490.000000 1 0 0
2.123839 -2.832722 -7.693737 8.469273 -0.927454 2.710308 0.002861 -0.002792 -86067.400000 1 0 0
-3.023361 14.873678 -8.811537 17.550219 -1.370259 2.096793 0.012746 -0.005634 -508133.000000 1 0 0
-2.483061 6.203378 -8.180237 10.562375 -1.190052 2.456672 0.007892 -0.004004 -194941.000000 1 0 0
2.688839 -3.492222 -11.336137 12.162790 -0.914649 2.770783 0.006637 -0.002758 -1239780.000000 1 0 0
14.663339 2.928278 -2.676037 15.190441 0.197108 1.747886 0.008541 0.001510 544305.000000 1 0 0
-3.560261 13.113178 2.197563 13.764454 -1.305685 1.410455 -0.002869 0.003099 -1005990.000000 1 0 0
7.784739 -4.998422 13.944663 16.734396 -0.570787 0.585758 0.011575 -0.006025 -916679.000000 1 0 0
-11.624661 7.196078 2.798663 13.955243 -0.554299 1.368881 -0.004042 -0.003416 1357440.000000 1 0 0
-2.313161 11.907078 4.062963 12.792064 -1.378919 1.247582 -0.000207 0.002019 -53297.200000 1 0 0
1.776539 1.505978 0.700563 2.432046 0.703159 1.278601 0.001340 -0.001123 -1611930.000000 1 0 0
-6.882661 8.492578 5.174263 12.094127 -0.889726 1.128703 0.002444 -0.002792 -779805.000000 1 0 0
-1.051761 9.055078 1.036563 9.174699 -1.455163 1.457574 0.001844 -0.000548 704461.000000 1 0 0
4.845139 12.980278 -8.324537 16.163567 1.213544 2.111826 0.014457 -0.021174 -2665630.000000 1 0 0
8.955439 6.933378 7.187063 13.413631 0.658815 1.005338 -0.004199 0.000038 -1393180.000000 1 0 0
7.289739 -13.860922 2.924363 15.931646 -1.086628 1.386193 0.017897 -0.011942 874417.000000 1 0 0
4.296139 -13.397722 -1.253737 14.125425 -1.260493 1.659671 0.000033 0.004032 -2600780.000000 1 0 0
12.215939 -11.899622 -4.555337 17.651664 -0.772282 1.831819 0.033489 -0.007459 -585665.000000 1 0 0
2.895039 -0.001222 -1.849437 3.435355 -0.000422 2.139279 0.005213 -0.002334 1025410.000000 1 0 0
-13.543761 -3.039922 -10.727937 17.543182 0.220793 2.228772 0.020418 -0.008878 280065.000000 1 0 0
-6.681461 13.628178 4.965963 15.969657 -1.114964 1.254591 0.006206 -0.002977 346055.000000 1 0 0
7.400339 -4.479322 -0.653737 8.675063 -0.544297 1.646226 0.004958 -0.000897 -1053610.000000 1 0 0
11.799139 2.079378 -7.276037 14.017282 0.174440 2.116566 0.016290 -0.001686 -929275.000000 1 0 0
-7.426861 -4.521122 9.683663 13.014306 0.546830 0.731642 0.014685 -0.003408 146044.000000 1 0 0
1.012839 2.808778 8.453463 8.965273 1.224712 0.339528 0.001511 -0.002035 -173837.000000 1 0 0
1.580739 8.035678 -8.714837 11.959065 1.376561 2.387251 0.009102 -0.004333 -1305410.000000 1 0 0
-8.602461 -2.180222 -5.542937 10.463262 0.248215 2.129105 0.012556 -0.004142 -1601080.000000 1 0 0
6.642739 -0.521122 7.184063 9.798383 -0.078290 0.747797 -0.001335 -0.000832 241360.000000 1 0 0
-10.964561 6.457778 7.140163 14.591314 -0.532268 1.059460 0.004609 -0.006658 488502.000000 1 0 0
-6.095461 11.042678 4.868263 13.520184 -1.066426 1.202449 0.000160 -0.001135 -723307.000000 1 0 0
6.166939 -1.199222 -6.901637 9.332837 -0.192063 2.403124 0.002044 -0.000513 -109735.000000 1 0 0
4.552639 -5.788522 11.444163 13.608908 -0.904345 0.571794 -0.002982 -0.001755 -1631460.000000 1 0 0
-9.061961 -7.469422 2.659763 12.041003 0.689360 1.348067 0.009882 -0.001704 -2744640.000000 1 0 0
-1.411861 12.825378 -9.371537 15.947080 -1.461154 2.198966 0.015256 -0.004137 495515.000000 1 0 0
-4.520361 9.263778 -2.345637 10.571341 -1.116826 1.794545 -0.000637 -0.002841 266218.000000 1 0 0
-3.233761 9.647678 -0.222337 10.177639 -1.247380 1.592644 0.002173 -0.002566 -648137.000000 1 0 0
-3.615361 10.705478 -6.466937 13.019192 -1.245111 2.090616 0.006791 0.000850 439758.000000 1 0 0
5.006939 -4.863622 0.419563 6.992874 -0.770880 1.510762 0.003883 -0.003914 -1752790.000000 1 0 0
-2.289161 3.020678 -10.811637 11.456712 -0.922303 2.804422 0.009426 -0.009348 -3071580.000000 1 0 0
-3.622861 11.923778 -2.181437 12.651493 -1.275825 1.744088 -0.003116 0.003952 -101600.000000 1 0 0
-0.130461 0.381878 0.045563 0.406112 -1.241597 1.458365 0.004870 -0.003159 -2058420.000000 1 0 0
-4.801961 -1.698522 0.111863 5.094735 0.339980 1.548838 0.011186 -0.003886 142632.000000 1 0 0
2.637939 2.556878 -2.436837 4.408460 0.769795 2.156473 -0.001231 -0.001852 1762510.000000 1 0 0
5.964739 -9.796322 8.452963 14.247759 -1.023876 0.935664 -0.003351 0.000397 -848459.000000 1 0 0
-4.152161 -5.515422 6.539463 9.509201 0.925488 0.812482 0.011710 -0.004439 351610.000000 1 0 0
-6.288461 5.247478 -12.036537 14.558811 -0.695404 2.544107 -0.001679 -0.006390 1230720.000000 1 0 0
-13.125961 3.103178 7.870063 15.615968 -0.232153 1.042601 0.002607 -0.006797 727670.000000 1 0 0
4.769539 -7.469822 -4.833437 10.094991 -1.002543 2.070079 -0.001480 -0.002999 346510.000000 1 0 0
-5.935361 2.450678 -1.180637 6.529030 -0.391573 1.752625 0.009096 -0.006658 -1010170.000000 1 0 0
-6.878561 -2.666722 -14.459137 16.232456 0.369846 2.669799 0.013451 -0.003380 -1377620.000000 1 0 0
2.807339 -6.077222 1.018263 6.771310 -1.138054 1.419845 0.005532 -0.003635 -216147.000000 1 0 0
4.902839 -7.944822 13.015363 16.017419 -1.017890 0.622239 0.000874 0.000185 -189958.000000 1 0 0
-10.089261 -1.655022 7.973363 12.965601 0.162590 0.908457 0.009562 -0.003947 -611038.000000 1 0 0
-4.476861 13.229678 -0.113537 13.967088 -1.244497 1.578925 -0.005762 0.005147 453964.000000 1 0 0
6.911339 2.263978 -4.359037 8.478998 0.316559 2.110752 0.003703 0.001677 -1099880.000000 1 0 0
5.060739 4.607378 -0.029237 6.843965 0.738540 1.575068 0.000038 -0.000918 -877151.000000 1 0 0
-5.887761 12.231178 1.871063 13.702858 -1.122161 1.433823 -0.002232 0.000490 -719688.000000 1 0 0
6.578939 -7.304522 6.521163 11.796781 -0.837613 0.985086 -0.003203 -0.001984 -1447010.000000 1 0 0
-0.346761 4.919978 7.767963 9.201504 -1.500432 0.565715 0.001741 -0.001796 -600829.000000 1 0 0
-5.783361 -3.402822 -1.630437 6.905417 0.531833 1.809157 0.013498 -0.004318 -365024.000000 1 0 0
2.472439 -6.374522 -4.984737 8.461388 -1.200797 2.200760 0.001176 -0.001659 -822017.000000 1 0 0
-14.406361 -4.735422 -3.844737 15.644471 0.317578 1.819097 0.012016 -0.012005 -155498.000000 1 0 0
-12.427061 -5.142222 -6.364637 14.878941 0.392339 2.012811 0.017131 -0.011213 -1143700.000000 1 0 0
-14.914161 -3.762422 -1.413837 15.446260 0.247116 1.662457 0.008485 -0.008181 -209053.000000 1 0 0
11.947939 2.873578 8.816463 15.124177 0.236026 0.948456 0.009187 -0.005316 -1037470.000000 1 0 0
8.726839 -6.560622 7.697263 13.358418 -0.644636 0.956712 0.007548 -0.005108 79134.900000 1 0 0
-8.764961 -1.788722 -9.865037 13.317020 0.201312 2.405033 0.005072 -0.002031 133307.000000 1 0 0
-8.895461 5.142478 -3.920537 10.997496 -0.524162 1.935309 0.004161 -0.003712 -1403600.000000 1 0 0
-4.104461 -6.200822 4.034463 8.460124 0.986086 1.073695 0.011313 -0.002264 -843677.000000 1 0 0
-0.140561 -9.228422 3.673263 9.933599 1.555566 1.192022 0.007894 -0.003269 868672.000000 1 0 0
7.858039 -10.504022 3.443163 13.562397 -0.928514 1.314111 0.004710 -0.004056 191315.000000 1 0 0
-0.055361 6.543578 9.636263 11.648135 -1.562336 0.596549 0.000920 -0.003084 155504.000000 1 0 0
0.030439 3.558178 -9.680737 10.313982 1.562242 2.789355 0.010300 -0.006178 445738.000000 1 0 0
4.538139 -3.094622 11.034863 12.326378 -0.598485 0.461864 -0.000186 -0.001396 -3046610.000000 1 0 0
8.704039 -9.124522 1.541763 12.704103 -0.808979 1.449137 0.003064 -0.002001 -19875.900000 1 0 0
-0.311961 -0.468622 11.475163 11.488964 0.983464 0.049020 0.008071 -0.001731 -2001040.000000 1 0 0
10.778939 6.063578 11.405063 16.823435 0.512419 0.825857 0.005472 0.004433 11738.900000 1 0 0
-6.397561 -2.939922 -11.758837 13.705553 0.430757 2.602085 0.012216 -0.003312 908668.000000 1 0 0
-1.696961 2.710978 8.338963 8.931259 -1.011508 0.366233 0.009204 -0.002114 1130570.000000 1 0 0
-1.715261 13.662878 -6.843537 15.376942 -1.445908 2.032028 0.014348 -0.000626 393004.000000 1 0 0
7.746239 3.091778 9.727063 12.813238 0.379759 0.708803 -0.002469 -0.000568 436411.000000 1 0 0
6.446539 8.499078 -7.848337 13.243435 0.921878 2.205105 0.012537 -0.005381 2340410.000000 1 0 0
6.764039 -3.093522 -3.842637 8.371855 -0.428948 2.047660 0.005659 -0.000284 -1390710.000000 1 0 0
2.034939 8.220578 0.981063 8.525337 1.328132 1.455465 0.002823 -0.001537 720566.000000 1 0 0
-17.787361 6.275778 6.381063 19.912147 -0.339187 1.244580 0.035525 -0.001915 719772.000000 1 0 0
-14.794961 2.783078 -9.900937 18.018461 -0.185937 2.152548 0.048032 -0.010317 -573613.000000 1 0 0
-18.249461 0.177778 -4.364437 18.764934 -0.009741 1.805531 0.035104 -0.012481 512475.000000 1 0 0
-13.035161 8.098178 0.155763 15.346667 -0.555903 1.560646 0.004333 -0.001643 -23369.100000 1 0 0
-12.583461 -4.506822 -12.737237 18.463265 0.343921 2.332105 0.027841 0.003610 -60535.200000 1 0 0
-17.333861 -0.708322 -8.703137 19.408994 0.040841 2.035779 0.044634 -0.018071 -719119.000000 1 0 0
-16.764461 -2.036622 -2.164737 17.025894 0.120892 1.698285 0.019523 -0.010087 -1214500.000000 1 0 0
-15.503361 3.976478 1.632963 16.088293 -0.251079 1.469121 0.007387 0.000158 152450.000000 1 0 0
-13.369161 5.919578 4.378163 15.262509 -0.416832 1.279852 -0.004391 -0.003437 78570.700000 1 0 0
-10.083661 14.225178 2.796263 17.659417 -0.954149 1.411783 0.014514 -0.005242 136419.000000 1 0 0
-11.806061 2.416678 -6.391937 13.641124 -0.201909 2.058477 0.004062 -0.000255 422886.000000 1 0 0
-15.936761 10.700878 3.845463 19.577455 -0.591313 1.373088 0.013867 -0.006775 -730984.000000 1 0 0
-12.713461 1.120878 -8.608537 15.394654 -0.087937 2.164205 0.010971 -0.002980 770648.000000 1 0 0
-12.422361 14.265478 4.087563 19.352703 -0.854351 1.357979 0.013350 -0.012177 255083.000000 1 0 0
-10.273761 11.154178 -0.931837 15.193228 -0.826462 1.632167 0.009670 -0.008220 206262.000000 1 0 0
-17.151361 5.738278 8.862163 20.140382 -0.322860 1.115176 0.016539 -0.006527 396882.000000 1 0 0
-11.967761 12.374478 -9.098737 19.471570 -0.802105 2.057012 0.024035 -0.010370 -94773.300000 1 0 0
-17.277161 -0.622922 3.027263 17.551429 0.036039 1.397450 0.016917 -0.009815 603763.000000 1 0 0
-13.082461 14.728678 -0.825537 19.717156 -0.844522 1.612678 0.031997 -0.022792 -94985.200000 1 0 0
-16.313061 4.654678 -10.490837 19.945918 -0.277948 2.124645 0.061020 -0.007043 619381.000000 1 0 0
-11.785561 7.345978 -9.090037 16.597940 -0.557378 2.150362 0.012830 -0.000747 -251285.000000 1 0 0
-14.846661 13.320378 -1.983137 20.044666 -0.731264 1.669894 0.046841 -0.025265 -458282.000000 1 0 0
-11.933461 10.502378 -5.388937 16.785353 -0.721699 1.897634 0.024246 -0.010821 2357180.000000 1 0 0
-17.655061 2.767778 -0.669937 17.883249 -0.155504 1.608267 0.016657 -0.005604 -597402.000000 1 0 0
-9.420161 15.396878 0.619663 18.060655 -1.021729 1.536479 0.016196 -0.005427 -89526.100000 1 0 0
-8.181761 13.201978 -3.621837 15.948390 -1.015990 1.799892 0.004808 -0.004275 -435306.000000 1 0 0
-17.716161 11.603678 2.186163 21.290538 -0.579866 1.467933 0.061762 -0.009063 -336419.000000 1 0 0
-8.173461 15.480178 -7.479037 19.036212 -1.085004 1.974563 0.043684 -0.015416 -353693.000000 1 0 0
-6.360461 15.217578 -5.568537 17.408008 -1.174897 1.896403 0.011817 0.002502 -1506380.000000 1 0 0
-17.343561 5.291678 -0.076937 18.133033 -0.296137 1.575039 0.024491 -0.000148 512053.000000 1 0 0
-5.550161 12.180078 -12.311737 18.186188 -1.143233 2.314452 -0.002663 -0.006543 -710229.000000 1 0 0
-11.115261 3.642478 -11.405237 16.336955 -0.316673 2.343572 0.009234 -0.006084 303718.000000 1 0 0
-11.918761 11.043678 1.143063 16.288839 -0.747307 1.500564 0.006625 -0.008616 442175.000000 1 0 0
-12.973461 0.191478 -11.065237 17.052473 -0.014758 2.276925 0.017428 -0.005792 220184.000000 1 0 0
-14.070561 -2.314722 -13.168937 19.410294 0.163048 2.316449 0.038679 -0.002267 -30174.900000 1 0 0
-18.755561 -2.281122 -3.711537 19.254872 0.121029 1.764769 0.023338 -0.011664 685439.000000 1 0 0
-18.459261 4.733078 -5.071937 19.719810 -0.250999 1.830920 0.061682 -0.009720 428209.000000 1 0 0
-8.494061 15.594678 -2.410137 17.920709 -1.072049 1.705694 0.023566 -0.000201 115330.000000 1 0 0
-16.169861 9.182778 -5.304937 19.337274 -0.516478 1.848697 0.052483 -0.005055 504086.000000 1 0 0
-18.522461 1.508578 2.133463 18.705856 -0.081266 1.456494 0.042090 -0.004780 553722.000000 1 0 0
-15.726061 -2.728122 -8.790137 18.221365 0.171768 2.074198 0.017972 -0.008030 85079.400000 1 0 0
-9.661761 10.485978 -7.038137 15.900966 -0.826284 2.029318 0.009441 -0.007165 703832.000000 1 0 0
-14.033161 11.693778 -7.602637 19.785706 -0.694716 1.965191 0.046981 -0.025907 126427.000000 1 0 0
-11.055961 6.459778 -3.809937 13.359589 -0.528781 1.859994 0.003930 -0.003019 -1361020.000000 1 0 0
-13.025161 4.723278 -12.735637 18.819156 -0.347879 2.314119 0.048163 -0.011524 -1048520.000000 1 0 0
-17.730161 9.116178 2.669263 20.114380 -0.474913 1.437699 0.034304 -0.011693 710008.000000 1 0 0
-13.354061 8.627478 -6.588737 17.209758 -0.573598 1.963674 0.022400 -0.003486 -1289360.000000 1 0 0
-15.827361 6.969278 -3.830237 17.712902 -0.414784 1.788758 0.030329 0.000638 -635229.000000 1 0 0
-14.878361 -0.372822 -9.297737 17.548576 0.025053 2.129195 0.025970 -0.011847 145250.000000 1 0 0
-10.003961 5.753178 -6.189837 13.095510 -0.521902 2.063113 0.003403 -0.001988 280472.000000 1 0 0
-12.683061 12.117978 -1.041837 17.572446 -0.762617 1.630119 0.023308 -0.016143 -323082.000000 1 0 0
-10.576061 3.489378 -13.979637 17.873418 -0.318686 2.468900 0.014834 -0.005997 50732.900000 1 0 0
-10.993061 6.154878 -12.006437 17.403575 -0.510403 2.332124 0.008822 -0.004435 -256076.000000 1 0 0
-5.972361 11.674078 -14.836237 19.800685 -1.097918 2.417769 0.011528 -0.007474 -139015.000000 1 0 0
-15.513461 13.347978 3.386463 20.743773 -0.710508 1.406810 0.012682 -0.013015 165201.000000 1 0 0
-15.204261 11.085178 -3.212237 19.088457 -0.629980 1.739882 0.051006 -0.011346 580240.000000 1 0 0
-18.269561 7.623578 -4.529237 20.307875 -0.395316 1.795717 0.055322 -0.007750 824106.000000 1 0 0
-4.274561 16.201978 -10.657437 19.858422 -1.312845 2.137283 0.036021 -0.011394 39562.100000 1 0 0
-15.896561 4.490178 -4.465737 17.111551 -0.275290 1.834831 0.032450 0.000712 292319.000000 1 0 0
-18.881561 -1.650622 -6.254737 19.958949 0.087198 1.889547 0.045718 -0.016240 639045.000000 1 0 0
-10.845761 8.503978 -5.792137 14.949817 -0.664960 1.968648 0.010282 -0.002797 1210020.000000 1 0 0
-11.598961 13.613478 -6.725437 19.107438 -0.865130 1.930482 0.026246 -0.004457 459640.000000 1 0 0
-9.493661 10.423678 -4.369937 14.760725 -0.832058 1.871353 0.000358 -0.007046 -547991.000000 1 0 0
-11.101861 6.367678 -0.203037 12.799995 -0.520758 1.586659 0.002688 -0.004047 -686980.000000 1 0 0
-14.782861 9.304078 -1.417737 17.524521 -0.561745 1.651785 0.029204 -0.004223 -223080.000000 1 0 0
-18.737461 3.486078 4.799763 19.654082 -0.183945 1.324089 0.035051 -0.003001 818439.000000 1 0 0
-14.634661 13.036778 0.479363 19.605119 -0.727717 1.546343 0.016944 -0.014916 336117.000000 1 0 0
-17.272161 2.716078 -8.931137 19.633386 -0.155974 2.043051 0.071830 -0.010285 582203.000000 1 0 0
-9.194061 8.402678 -8.852737 15.280926 -0.740455 2.188706 0.006555 -0.001308 -2187720.000000 1 0 0
-17.707961 4.619878 -2.559937 18.478865 -0.255204 1.709777 0.029512 -0.001269 874766.000000 1 0 0
-13.575061 5.699978 -4.353437 15.353320 -0.397531 1.858291 0.014097 0.003065 508448.000000 1 0 0
-12.155761 9.579178 3.328263 15.830367 -0.667403 1.358970 -0.004636 -0.002651 -232790.000000 1 0 0
-17.513961 2.478578 -4.036037 18.143092 -0.140587 1.795129 0.030018 -0.006134 885901.000000 1 0 0
-11.301361 1.353778 -12.667337 17.029824 -0.119221 2.409583 0.015516 -0.002023 280604.000000 1 0 0
-11.186261 11.956978 3.479063 16.739344 -0.818688 1.361433 0.001197 -0.007240 -317643.000000 1 0 0
-16.761461 13.167578 -3.596537 21.616354 -0.665890 1.737954 0.073937 -0.018566 44538.800000 1 0 0
-11.057861 4.074578 -4.533837 12.626724 -0.353040 1.938064 0.002335 -0.000652 -64746.200000 1 0 0
-11.464161 14.909078 -8.876737 20.796732 -0.915284 2.011784 0.042719 -0.013493 346602.000000 1 0 0
-15.410161 7.032278 -0.243737 16.940644 -0.428114 1.585185 0.016827 0.001602 -1556510.000000 1 0 0
-12.854561 8.266478 -4.015537 15.801865 -0.571493 1.827732 0.013097 -0.004509 790950.000000 1 0 0
-19.238861 1.977078 -5.957837 20.237056 -0.102405 1.869626 0.053937 -0.012581 188722.000000 1 0 0
-12.541361 9.926978 -8.875037 18.291990 -0.669561 2.077373 0.020291 -0.010839 935183.000000 1 0 0
-16.729061 10.903378 -1.057237 19.996572 -0.577613 1.623692 0.043447 -0.009389 541913.000000 1 0 0
-10.627161 6.550978 -14.675337 19.267002 -0.552418 2.436702 0.019545 -0.010083 -339213.000000 1 0 0
-14.200861 13.061878 -4.484237 19.808723 -0.743644 1.799153 0.053660 -0.010761 197577.000000 1 0 0
-17.875361 7.770478 -0.221437 19.492509 -0.410061 1.582157 0.036455 -0.006117 -528776.000000 1 0 0
-12.775161 6.616578 -1.994337 14.524504 -0.477885 1.708540 0.003529 0.001217 373454.000000 1 0 0
-13.726461 8.313678 -10.564037 19.212804 -0.544577 2.152973 0.029104 -0.008383 -1034620.000000 1 0 0
-15.114461 1.423778 -0.926137 15.209596 -0.093923 1.631726 0.011843 -0.005749 -697650.000000 1 0 0
-13.479461 2.774278 -2.462137 13.980508 -0.202981 1.747832 0.004846 -0.001721 -10479.400000 1 0 0
-11.264161 9.185678 -10.901837 18.168876 -0.684108 2.214333 0.012843 -0.006976 8852.650000 1 0 0
-15.532361 4.375278 -7.914137 17.973059 -0.274573 2.026766 0.045599 -0.005401 715079.000000 1 0 0
-18.455861 10.687078 4.522663 21.801077 -0.524881 1.361827 0.072037 -0.020548 331560.000000 1 0 0
-15.326761 6.253478 -6.221937 17.684120 -0.387393 1.930330 0.035792 0.002350 815785.000000 1 0 0
-7.873761 11.284178 -12.977937 18.914429 -0.961569 2.326965 -0.001293 -0.002437 -714051.000000 1 0 0
-16.957761 9.152778 -2.861137 19.481404 -0.494932 1.718194 0.053244 -0.008696 479498.000000 1 0 0
-20.669261 -0.881422 -4.448137 21.160841 0.042618 1.782582 0.050126 -0.018982 -1248400.000000 1 0 0
-15.616661 4.413678 4.069563 16.730870 -0.275442 1.325095 0.007067 -0.000853 -212529.000000 1 0 0
-7.122461 12.573378 -9.460637 17.272028 -1.055395 2.150461 0.006302 -0.003166 -1144320.000000 1 0 0
-17.141561 1.621878 5.904763 18.202468 -0.094336 1.240426 0.022827 -0.013315 -79604.700000 1 0 0
-10.446761 14.179178 -3.188337 17.898307 -0.935818 1.749888 0.028592 -0.017001 -700460.000000 1 0 0
-9.987261 8.290178 -12.906937 18.304684 -0.692812 2.353384 -0.000042 -0.010277 54672.700000 1 0 0
-13.736361 11.569078 2.874563 18.187751 -0.699962 1.412081 0.010545 -0.009910 -1731870.000000 1 0 0
-16.773361 6.841378 1.973563 18.222103 -0.387274 1.462277 0.013563 0.000188 578062.000000 1 0 0
-9.523161 13.197178 -8.452237 18.338386 -0.945716 2.049810 0.020399 -0.008256 842666.000000 1 0 0
-5.675661 9.756878 -13.081237 17.277979 -1.043935 2.429666 0.000007 -0.004784 -226287.000000 1 0 0
-16.173161 1.802678 3.183563 16.581793 -0.111003 1.377605 0.012621 -0.001512 -248146.000000 1 0 0
-18.670261 -5.026322 4.452663 19.841088 0.262980 1.344452 0.049403 -0.021568 858684.000000 1 0 0
-5.529661 14.476578 -9.165837 18.004472 -1.205926 2.104920 0.016635 -0.002721 -298832.000000 1 0 0
-15.389861 -0.934822 -6.836537 16.865941 0.060668 1.988153 0.014919 -0.007022 593755.000000 1 0 0
-9.087761 10.845578 -9.511037 17.049158 -0.873355 2.162601 -0.000523 -0.006600 436210.000000 1 0 0
-16.725761 1.206378 -6.201437 17.879157 -0.072002 1.925010 0.023853 -0.007470 -1126820.000000 1 0 0
-11.204561 8.740878 -1.515337 14.291305 -0.662500 1.677028 0.005356 -0.003643 -1258570.000000 1 0 0
-10.794261 10.867978 -12.848237 19.992654 -0.788801 2.268746 0.025045 -0.005195 -510468.000000 1 0 0
-14.231161 11.472778 -10.127737 20.897886 -0.678494 2.076736 0.057256 -0.023413 -440960.000000 1 0 0
-13.203561 5.617278 -7.687037 16.278156 -0.402240 2.062615 0.021678 0.003995 143287.000000 1 0 0
-8.944461 15.184978 -5.010937 18.322020 -1.038479 1.847819 0.024273 -0.014157 1433810.000000 1 0 0
-8.660661 6.098378 -12.991037 16.761990 -0.613504 2.457558 0.005974 -0.006869 -764479.000000 1 0 0
-16.573561 7.492378 4.404163 18.714041 -0.424572 1.333228 0.024852 0.000098 64718.000000 1 0 0
-12.737361 5.214278 -10.218837 17.142161 -0.388557 2.209460 0.024779 -0.001430 268170.000000 1 0 0
-12.550461 8.990078 -13.247337 20.342751 -0.621592 2.279970 0.049039 -0.016785 184130.000000 1 0 0
-10.784261 5.018178 -8.588837 14.671418 -0.435524 2.196185 0.004346 0.000667 -1133390.000000 1 0 0
-17.596161 -4.411722 -2.635837 18.331280 0.245657 1.715085 0.005394 -0.011933 -437264.000000 1 0 0
-9.118961 12.971878 -10.981337 19.287686 -0.958074 2.176505 0.025131 -0.015600 12019.000000 1 0 0
-15.194961 6.085178 6.064863 17.455624 -0.380914 1.215952 0.007102 -0.004487 -953226.000000 1 0 0
-16.356161 -3.113422 -4.575137 17.267000 0.188101 1.838963 0.013487 -0.010404 -1377110.000000 1 0 0
-11.226261 -1.213422 -12.687237 16.984325 0.107670 2.414330 0.010795 0.002530 422798.000000 1 0 0
-15.309661 6.875978 -8.672237 18.891069 -0.422127 2.047739 0.036919 0.003959 21102.200000 1 0 0
-15.056361 9.260278 1.170163 17.714854 -0.551406 1.504693 0.019796 -0.009040 -467925.000000 1 0 0
-19.559561 5.283278 7.966263 21.770412 -0.263816 1.196173 0.057653 -0.007699 -184898.000000 1 0 0
-16.453961 0.481378 0.870163 16.483985 -0.029248 1.517983 0.016313 -0.006127 -430687.000000 1 0 0
-17.533461 3.762078 7.128063 19.297274 -0.211361 1.192453 0.021008 -0.001215 714270.000000 1 0 0
-15.479161 4.031878 -1.371237 16.054307 -0.254810 1.656313 0.013790 -0.001283 -1716540.000000 1 0 0
-10.855861 13.296778 0.364363 17.169356 -0.886118 1.549573 0.020813 -0.016534 -1641070.000000 1 0 0
-13.508261 3.314278 0.051263 13.908997 -0.240599 1.567111 0.006576 -0.002570 -631673.000000 1 0 0
-15.112661 0.143078 -4.405537 15.742355 -0.009467 1.854437 0.013044 -0.004742 143569.000000 1 0 0
-18.893461 6.897578 3.313563 20.384287 -0.350043 1.407517 0.040054 -0.005852 -945967.000000 1 0 0
-14.080861 1.199978 -6.405837 15.515971 -0.085015 1.996382 0.015010 -0.001960 96938.200000 1 0 0
-14.334061 12.049878 5.364463 19.479280 -0.699039 1.291798 0.007876 -0.011702 161848.000000 1 0 0
17.627739 5.526278 6.265763 19.507350 0.303795 1.243800 0.030914 -0.012791 264100.000000 1 0 0
18.690039 7.567078 -0.180737 20.164595 0.384700 1.579760 0.045755 -0.001425 523300.000000 1 0 0
16.527639 5.213678 8.523763 19.313203 0.305572 1.113701 0.034172 -0.006922 396770.000000 1 0 0
11.737339 12.246878 11.075963 20.259025 0.806640 0.992357 0.018151 -0.002307 812732.000000 1 0 0
-2.328161 16.321178 -0.574637 16.496405 -1.429106 1.605637 0.001185 -0.001794 -44686.000000 1 0 0
15.117439 12.725478 3.380063 20.047433 0.699699 1.401384 0.049097 -0.011730 618016.000000 1 0 0
13.570839 11.754778 6.647663 19.145075 0.713812 1.216185 0.028797 -0.006768 826340.000000 1 0 0
-0.687061 15.724878 8.555263 17.914697 -1.527131 1.072926 0.002802 -0.007642 -333267.000000 1 0 0
0.747039 12.911378 9.374763 15.973351 1.513002 0.943571 0.001365 -0.000634 -103862.000000 1 0 0
0.643139 15.516878 -3.947837 16.024124 1.529372 1.819728 0.012860 -0.006906 667992.000000 1 0 0
5.359839 10.274078 13.400763 17.716236 1.089951 0.712987 0.005590 -0.005292 -112412.000000 1 0 0
-1.485861 16.521078 -2.858437 16.832245 -1.481100 1.741442 0.006353 0.000856 -258037.000000 1 0 0
8.604939 10.019578 3.282063 13.609146 0.861208 1.327229 0.005975 -0.004517 46776.800000 1 0 0
12.766139 13.563378 -4.866837 19.251639 0.815668 1.826371 0.077561 -0.025555 439278.000000 1 0 0
2.455239 11.586478 7.691963 14.122357 1.361980 0.994806 0.005311 0.000867 177664.000000 1 0 0
-0.456361 15.046978 -8.713337 17.393736 -1.540477 2.095489 0.016707 -0.005481 -1405090.000000 1 0 0
2.248739 15.955978 0.220963 16.115176 1.430785 1.557084 0.016081 -0.009974 -894984.000000 1 0 0
1.739639 13.361178 5.175063 14.433596 1.441324 1.204090 0.008104 0.001722 -21774.500000 1 0 0
17.820039 9.160078 -2.034337 20.139497 0.474810 1.671981 0.035888 -0.001401 545354.000000 1 0 0
-7.249261 14.860778 7.169063 18.021931 -1.116947 1.161682 0.011954 -0.011028 -1147790.000000 1 0 0
8.480939 15.897878 -0.071737 18.018712 1.080738 1.574778 0.024521 -0.015684 420701.000000 1 0 0
15.636139 10.478378 2.199763 18.950573 0.590402 1.454455 0.033331 -0.006580 -498084.000000 1 0 0
14.189839 7.530978 8.807563 18.320489 0.487929 1.069287 0.023195 -0.003395 -889278.000000 1 0 0
3.947639 18.484578 -1.783137 18.985338 1.360393 1.664857 0.027544 -0.021904 -597336.000000 1 0 0
-0.558261 17.607378 -4.978137 18.306099 -1.539101 1.846203 0.020636 -0.004248 283150.000000 1 0 0
1.258039 13.696078 -0.835037 13.779060 1.479199 1.631435 0.007940 -0.004713 -26024.300000 1 0 0
10.179239 14.569878 4.299663 18.286207 0.960977 1.333442 0.018904 -0.017119 572419.000000 1 0 0
-1.838261 15.358078 -5.105937 16.288657 -1.451670 1.889637 0.014924 -0.003619 562452.000000 1 0 0
15.323839 8.859078 -6.240637 18.768294 0.524179 1.909760 0.048128 -0.008104 701261.000000 1 0 0
-2.441561 18.429478 1.041863 18.619677 -1.439082 1.514812 0.013445 -0.007854 -278838.000000 1 0 0
-3.812061 19.496678 3.467463 20.166199 -1.377709 1.397993 0.015784 -0.009747 219477.000000 1 0 0
1.647739 17.725178 -2.763637 18.014846 1.478102 1.724813 0.019091 -0.010608 -557827.000000 1 0 0
2.827339 12.296578 3.223563 13.022712 1.344795 1.320662 0.006607 0.000911 265843.000000 1 0 0
-2.721961 16.107378 1.922163 16.448447 -1.403389 1.453669 0.006175 -0.004744 -1172130.000000 1 0 0
12.001339 12.908778 -2.609137 17.817864 0.821811 1.717759 0.044178 -0.004789 918182.000000 1 0 0
7.295739 11.673678 4.716963 14.551711 1.012216 1.240681 0.005213 -0.002898 98915.500000 1 0 0
7.051739 15.812478 2.044163 17.433877 1.151307 1.453274 0.019952 -0.011978 -466924.000000 1 0 0
5.599839 12.175478 10.282563 16.891760 1.139717 0.916334 0.003850 0.003191 -458453.000000 1 0 0
-1.382361 14.169678 3.036963 14.557261 -1.473546 1.360631 0.002199 -0.001388 -257402.000000 1 0 0
4.489739 16.034978 1.443263 16.714104 1.297791 1.484339 0.014284 -0.014845 276582.000000 1 0 0
7.339439 13.093778 12.077363 19.265957 1.059906 0.893259 0.010121 0.002366 464566.000000 1 0 0
0.657439 17.295678 -9.441937 19.716056 1.532803 2.070193 0.019249 -0.007267 164054.000000 1 0 0
9.773139 9.566678 15.313263 20.531235 0.774723 0.728983 0.019820 -0.006503 -624031.000000 1 0 0
13.572739 7.636178 -0.229237 15.575076 0.512474 1.585515 0.001211 -0.000447 -177438.000000 1 0 0
12.414239 13.706178 -0.109537 18.492827 0.834819 1.576720 0.041656 -0.012988 573165.000000 1 0 0
9.531839 12.282278 3.382863 15.910816 0.910822 1.356547 0.014002 -0.004797 93335.800000 1 0 0
-0.711761 12.899878 0.618863 12.934313 -1.515676 1.522931 0.004712 -0.003811 -348093.000000 1 0 0
16.100339 7.505278 -0.800337 17.781750 0.436208 1.615820 0.021999 0.003119 245008.000000 1 0 0
-4.674661 18.422578 -2.233337 19.137179 -1.322295 1.687764 0.037370 0.000745 -20980.100000 1 0 0
11.765139 9.314078 -3.065437 15.315595 0.669639 1.772309 0.028169 -0.007163 150011.000000 1 0 0
14.749439 9.809978 7.783863 19.348647 0.586923 1.156774 0.029974 -0.006116 235800.000000 1 0 0
4.362239 13.818578 4.630563 15.212638 1.265018 1.261499 0.010192 0.001174 55527.200000 1 0 0
2.115139 15.958078 5.560063 17.030807 1.439021 1.238229 0.007738 -0.004982 -73838.600000 1 0 0
6.023939 18.382578 5.493663 20.109385 1.254126 1.294090 0.030102 -0.020599 -95971.800000 1 0 0
10.677239 17.094278 -0.829837 20.171921 1.012478 1.611946 0.053504 -0.022620 -704007.000000 1 0 0
10.083439 13.553078 -4.409437 17.458659 0.931149 1.826126 0.048177 -0.011520 951997.000000 1 0 0
16.626439 8.012978 2.494163 18.624369 0.449097 1.436473 0.021359 -0.003144 570034.000000 1 0 0
3.915339 14.041978 -0.662337 14.592660 1.298872 1.616200 0.013957 -0.006985 1053430.000000 1 0 0
5.545839 13.009378 -2.522637 14.365373 1.167829 1.747317 0.017442 -0.009224 -247568.000000 1 0 0
-6.361361 16.692578 -3.096637 18.130037 -1.206698 1.742439 0.020646 -0.003620 -1782700.000000 1 0 0
18.124839 10.126378 2.811963 20.951383 0.509499 1.436176 0.054910 -0.015190 264235.000000 1 0 0
7.993839 13.082978 9.533363 18.054107 1.022320 1.014501 0.011662 0.003042 578509.000000 1 0 0
-2.565961 15.755778 6.620963 17.281952 -1.409355 1.177631 0.004748 -0.005375 20091.400000 1 0 0
11.245339 16.027678 6.223263 20.544418 0.958984 1.263044 0.034628 -0.011616 79314.900000 1 0 0
13.519539 11.997478 1.299663 18.121990 0.725820 1.499017 0.038778 -0.009118 -440014.000000 1 0 0
17.583439 7.678778 -5.541837 19.971302 0.411743 1.851977 0.018638 0.009315 307665.000000 1 0 0
9.540639 9.322278 8.020063 15.564385 0.773822 1.029458 0.002394 0.000134 -94717.700000 1 0 0
-2.212961 14.097078 -2.021737 14.412225 -1.415087 1.711540 0.001932 0.000920 436238.000000 1 0 0
10.897739 11.712478 0.722163 16.014505 0.821417 1.525687 0.018550 -0.001962 -133024.000000 1 0 0
11.776739 9.811478 -0.499737 15.336441 0.694614 1.603387 0.013707 -0.001080 -1145420.000000 1 0 0
-0.267061 15.947678 11.055063 19.406550 -1.554052 0.964709 0.005119 -0.012208 -922243.000000 1 0 0
2.034539 20.162578 -1.702537 20.336360 1.470230 1.654613 0.039504 -0.021519 -404995.000000 1 0 0
9.219239 14.387778 1.897363 17.193095 1.000938 1.460215 0.018445 -0.012282 -198121.000000 1 0 0
8.525139 11.711878 -5.252537 15.408933 0.941586 1.918645 0.029621 -0.006347 -607734.000000 1 0 0
10.645339 10.070378 10.221463 17.866563 0.757650 0.961732 0.003245 -0.001145 -176485.000000 1 0 0
-5.112161 15.688978 5.786763 17.486133 -1.255801 1.233503 0.002630 -0.008430 272310.000000 1 0 0
14.555239 9.220578 -2.034437 17.349725 0.564680 1.688327 0.029268 -0.001659 -333076.000000 1 0 0
12.152439 9.628078 6.949563 16.990529 0.670013 1.149410 0.008465 -0.003952 -688426.000000 1 0 0
3.310839 12.996578 9.603763 16.495604 1.321355 0.949363 0.004096 -0.000906 250087.000000 1 0 0
8.627239 12.577878 -2.751837 15.498544 0.969592 1.749297 0.028257 -0.007553 -476776.000000 1 0 0
9.393839 16.984178 2.200263 19.533245 1.065581 1.457915 0.022113 -0.017505 -165369.000000 1 0 0
9.311739 14.155478 -7.519637 18.537286 0.988944 1.988485 0.062929 -0.026930 -2054720.000000 1 0 0
6.479539 11.469578 7.264863 15.043732 1.056561 1.066814 0.002122 -0.000353 -564549.000000 1 0 0
5.392839 16.876878 -5.635737 18.592290 1.261511 1.878764 0.030047 -0.012128 -2039960.000000 1 0 0
-4.225461 17.239678 -4.618337 18.340939 -1.330434 1.825341 0.018488 0.001554 390551.000000 1 0 0
-0.300561 18.753778 -0.446837 18.761508 -1.554771 1.594615 0.010423 -0.002219 -267507.000000 1 0 0
6.492239 15.502578 -2.765737 17.033156 1.174202 1.733892 0.024740 -0.013292 872053.000000 1 0 0
-1.140561 20.686478 1.152263 20.749915 -1.515716 1.515237 0.019321 -0.009794 -9757.240000 1 0 0
-1.420961 18.839678 4.413763 19.401905 -1.495515 1.341296 0.006263 -0.011080 1234620.000000 1 0 0
7.305839 13.769378 -4.459337 16.212857 1.082980 1.849437 0.027744 -0.004204 -503072.000000 1 0 0
-0.925361 11.978878 7.672763 14.255564 -1.493700 1.002462 0.004802 0.003879 595387.000000 1 0 0
7.741239 10.830478 10.923963 17.220889 0.950230 0.883637 0.001845 -0.000325 175596.000000 1 0 0
1.374939 16.032478 -7.295637 17.667969 1.485246 1.996465 0.011029 -0.014241 295226.000000 1 0 0
8.835639 7.242378 14.815863 18.709098 0.686625 0.656871 0.010275 0.006263 919764.000000 1 0 0
11.468939 11.376778 -4.754537 16.839633 0.781364 1.857031 0.050086 -0.010938 38414.000000 1 0 0
-3.449961 17.049178 4.473963 17.960876 -1.371139 1.319051 0.006061 -0.006339 -325602.000000 1 0 0
3.848939 15.366078 -6.734637 17.212961 1.325363 1.972790 0.019162 -0.015278 -848455.000000 1 0 0
-4.389861 14.023978 9.369463 17.427842 -1.267433 1.003191 0.010672 -0.009977 -826435.000000 1 0 0
6.060039 17.748678 0.529463 18.762195 1.241771 1.542573 0.020318 -0.020031 -299263.000000 1 0 0
9.866939 10.753178 -2.096537 14.743907 0.828351 1.713477 0.022271 -0.004646 -839033.000000 1 0 0
7.125839 18.062178 -2.768237 19.613337 1.195025 1.712410 0.032316 -0.013093 184192.000000 1 0 0
3.584739 10.425678 10.334663 15.111267 1.239622 0.817695 0.000348 0.001301 1048320.000000 1 0 0
-0.011061 18.491078 2.029163 18.602086 -1.570198 1.461496 0.013197 -0.016093 -212005.000000 1 0 0
-1.035661 17.266478 -7.477237 18.844440 -1.510887 1.978811 0.027720 -0.007403 -320060.000000 1 0 0
9.940239 8.690778 12.898963 18.458636 0.718435 0.797073 0.007825 0.001685 -72789.100000 1 0 0
3.681039 11.477878 5.474663 13.238719 1.260452 1.144464 0.003392 0.001216 976801.000000 1 0 0
12.899839 13.841878 8.183863 20.615020 0.820611 1.162566 0.031074 -0.014842 -187850.000000 1 0 0
-0.445961 17.402778 6.746763 18.670147 -1.545176 1.201063 0.000842 -0.009267 -508339.000000 1 0 0
12.141339 13.684878 5.710263 19.164945 0.845094 1.268248 0.028109 -0.012981 -146803.000000 1 0 0
4.887639 14.564378 -4.522637 16.014505 1.247017 1.857100 0.020652 -0.009707 -283510.000000 1 0 0
3.741639 17.625478 4.729163 18.628535 1.361616 1.314121 0.015905 -0.011976 -2022720.000000 1 0 0
7.168339 11.568278 2.044763 13.761947 1.016050 1.421663 0.015426 -0.005529 1118030.000000 1 0 0
6.476939 8.701978 11.641963 15.912588 0.930949 0.750101 0.000530 0.000216 558091.000000 1 0 0
-5.558461 14.814878 1.781663 15.923298 -1.211855 1.458671 0.005395 0.002140 351480.000000 1 0 0
6.799739 13.797878 5.830463 16.450294 1.112917 1.208493 0.007558 -0.004667 -369854.000000 1 0 0
5.791739 15.894978 4.865063 17.602937 1.221373 1.290773 0.010152 -0.011549 741538.000000 1 0 0
1.164139 17.980978 4.285363 18.521208 1.506144 1.337304 0.010676 -0.012218 -148866.000000 1 0 0
7.242639 18.087078 -6.919937 20.675680 1.189918 1.912072 0.029947 -0.015131 414289.000000 1 0 0
-2.584461 18.812478 -5.938937 19.896224 -1.434271 1.873912 0.038100 -0.006025 -2346140.000000 1 0 0
13.663239 10.027678 -4.549537 17.548125 0.633128 1.833053 0.037923 -0.011809 -573578.000000 1 0 0
-1.347361 17.983978 9.816163 20.532801 -1.496016 1.072338 0.008310 -0.014423 -327651.000000 1 0 0
3.408339 11.819978 -1.596737 12.404766 1.290058 1.699874 0.013079 -0.006675 1552.790000 1 0 0
4.358139 13.833678 -10.803237 18.085186 1.265601 2.210993 0.013099 -0.027537 -481328.000000 1 0 0
11.579739 13.477578 2.338463 17.922161 0.860994 1.439944 0.031089 -0.011185 524973.000000 1 0 0
15.934939 6.459078 -7.172637 18.630316 0.385102 1.966002 0.012665 0.004044 -128277.000000 1 0 0
2.357039 16.089978 2.958363 16.528610 1.425340 1.390842 0.015451 -0.008612 -386978.000000 1 0 0
13.408139 10.790378 3.531163 17.569279 0.677639 1.368433 0.019876 -0.001540 -479017.000000 1 0 0
-5.063361 19.413578 -5.763637 20.874486 -1.315665 1.850540 0.025371 -0.008108 -742206.000000 1 0 0
5.476439 11.944778 -0.050937 13.140460 1.140913 1.574673 0.016910 -0.006637 1082700.000000 1 0 0
4.961939 15.347878 9.688163 18.815916 1.258105 1.029915 0.014237 -0.002069 -266966.000000 1 0 0
7.683139 9.409778 13.856163 18.427366 0.886072 0.719805 0.004730 -0.001110 -1054980.000000 1 0 0
-5.033161 13.576178 6.951863 16.061561 -1.215770 1.123171 0.003634 -0.000645 -1503810.000000 1 0 0
-4.656061 16.996378 0.491363 17.629442 -1.303412 1.542921 0.017124 -0.005612 -1850060.000000 1 0 0
-0.722661 16.505478 3.472563 16.882291 -1.527041 1.363625 0.007501 -0.008467 -1310990.000000 1 0 0
7.818139 16.671378 -4.822537 19.034574 1.132291 1.826945 0.029754 -0.015168 386135.000000 1 0 0
3.024139 16.537678 -4.595337 17.428635 1.389931 1.837617 0.015887 -0.009645 174707.000000 1 0 0
9.591739 14.535978 8.097063 19.205690 0.987519 1.135590 0.019909 -0.005333 576449.000000 1 0 0
12.739939 10.958178 9.129063 19.124003 0.710354 1.073147 0.021817 -0.011342 1480500.000000 1 0 0
3.685039 12.414578 12.126963 17.741604 1.282249 0.818205 0.003056 -0.002581 528241.000000 1 0 0
-3.417761 19.159078 6.039563 20.377136 -1.394265 1.269887 0.012024 -0.015713 197212.000000 1 0 0
-2.649261 15.755078 10.095663 18.898770 -1.404202 1.007239 0.011887 -0.012032 -1675570.000000 1 0 0
2.004139 14.273178 7.577663 16.283770 1.431295 1.086766 0.005600 -0.002854 27139.000000 1 0 0
4.469339 17.310978 8.024363 19.596820 1.318134 1.148920 0.019139 -0.010949 -91623.800000 1 0 0
-1.951161 13.384978 9.282963 16.405428 -1.426043 0.969336 0.006921 -0.003159 -920844.000000 1 0 0
5.662339 17.712878 3.049163 18.844244 1.261390 1.408273 0.011135 -0.020213 332454.000000 1 0 0
7.079739 15.402678 -7.031637 18.352360 1.139952 1.963996 0.025482 -0.009893 -559690.000000 1 0 0
11.095339 7.646378 9.314763 16.381040 0.603408 0.965956 0.002045 -0.004130 844221.000000 1 0 0
9.000139 16.334378 -2.587337 18.828402 1.067191 1.708649 0.042444 -0.011441 299071.000000 1 0 0
14.841039 11.427878 -6.410437 19.797639 0.656190 1.900537 0.090841 -0.012299 592493.000000 1 0 0
11.124739 6.241678 15.974963 20.443038 0.511297 0.673830 0.038714 -0.008572 21501.800000 1 0 0
8.589539 8.480478 10.146263 15.768492 0.779009 0.871797 0.003362 -0.000827 -88723.900000 1 0 0
16.320539 9.427878 4.596163 19.400247 0.523838 1.331610 0.035359 -0.005578 30579.500000 1 0 0
-3.471461 14.304378 4.556563 15.408717 -1.332714 1.270594 0.000857 0.000785 -1248160.000000 1 0 0
4.871439 14.742578 12.813563 20.131118 1.251658 0.880838 0.009892 0.005197 -1562080.000000 1 0 0
16.311739 10.474878 -4.517137 19.904784 0.570850 1.799728 0.066919 -0.023059 860489.000000 1 0 0
14.656539 14.072678 6.188463 21.240327 0.765078 1.275154 0.042311 -0.011849 -512608.000000 1 0 0
6.225639 9.538678 9.222563 14.656078 0.992544 0.890189 0.000364 -0.000341 1430130.000000 1 0 0
10.432839 12.169178 8.702163 18.238988 0.862070 1.073423 0.016505 -0.004435 -182087.000000 1 0 0
8.031339 11.487678 -0.431337 14.023380 0.960657 1.601560 0.016007 -0.006908 737732.000000 1 0 0
7.223439 13.552878 -8.810437 17.705433 1.081113 2.091640 0.034460 -0.012280 -815734.000000 1 0 0
2.643839 15.380278 -2.247437 15.766858 1.400562 1.713825 0.017579 -0.010682 1018020.000000 1 0 0
11.903539 14.306278 -7.530337 20.076598 0.876816 1.955280 0.058631 -0.019128 -115938.000000 1 0 0
-7.998861 14.784478 9.696263 19.405672 -1.074865 1.047589 0.021736 -0.014738 63612.900000 1 0 0
11.430439 9.771578 2.374063 15.224153 0.707317 1.414217 0.016092 -0.003436 -2601350.000000 1 0 0
12.223739 8.643578 4.459163 15.620991 0.615485 1.281310 0.009508 -0.002836 411889.000000 1 0 0
14.064539 8.059078 6.155863 17.339396 0.520335 1.207859 0.010019 -0.002527 -5124510.000000 1 0 0
16.223239 7.498778 7.275263 19.296492 0.432973 1.184214 0.042160 -0.010002 -444536.000000 1 0 0
13.616839 8.493678 2.264563 16.207687 0.557709 1.430616 0.011649 -0.003656 -1867160.000000 1 0 0
-4.361561 17.336678 -7.166637 19.259914 -1.324331 1.952068 0.027879 -0.009042 133860.000000 1 0 0
3.043939 19.631378 -3.966137 20.258006 1.416967 1.767850 0.033941 -0.014395 283646.000000 1 0 0
-0.107961 14.922378 6.164763 16.146000 -1.563562 1.179039 0.004858 -0.002041 -225034.000000 1 0 0
6.870939 16.281878 8.141063 19.457293 1.171470 1.139106 0.028306 -0.004618 -80335.800000 1 0 0
12.861539 15.291378 -2.100437 20.091223 0.871493 1.675533 0.078062 -0.020524 123405.000000 1 0 0
12.615339 15.631078 4.110963 20.503107 0.891761 1.368924 0.044846 -0.019031 -73103.900000 1 0 0
2.906839 18.082378 1.241763 18.356581 1.411405 1.503098 0.023038 -0.016900 -640814.000000 1 0 0
10.419739 14.529778 -1.350837 17.930704 0.948666 1.646204 0.037279 -0.009126 -1845100.000000 1 0 0
-6.525661 15.607978 -0.593437 16.927652 -1.174786 1.605861 0.008330 0.000588 -158189.000000 1 0 0
-4.058861 15.900178 -2.405637 16.585449 -1.320862 1.716355 0.014705 0.001660 -2089960.000000 1 0 0
-6.961861 16.913378 1.671563 18.366382 -1.180314 1.479658 0.016682 -0.004431 71118.800000 1 0 0
-0.185561 19.560078 -6.553237 20.629493 -1.561310 1.894061 0.040475 -0.010290 224352.000000 1 0 0
4.884739 14.905678 7.089863 17.213543 1.254115 1.146283 0.014630 -0.004787 -125028.000000 1 0 0
8.653639 12.425078 6.925363 16.650186 0.962446 1.141828 0.009771 -0.006202 -1258500.000000 1 0 0
-7.759061 17.461778 -5.714537 19.944239 -1.152655 1.861395 0.041213 -0.007882 175866.000000 1 0 0
-7.893761 17.769178 -1.284837 19.486045 -1.152744 1.636780 0.035882 0.000815 331707.000000 1 0 0
-13.991561 -9.088522 8.923163 18.920567 0.576074 1.079679 0.052583 -0.027256 -671620.000000 1 0 0
-12.628161 -12.815522 7.684063 19.564071 0.792762 1.167161 0.047549 -0.012007 -158565.000000 1 0 0
-3.859261 -15.050222 12.498763 19.940466 1.319779 0.893352 0.016318 -0.013517 703505.000000 1 0 0
-1.966161 -14.170722 14.964063 20.702617 1.432928 0.762936 0.028185 -0.009290 -346108.000000 1 0 0
-7.181461 -13.724222 12.797763 20.092546 1.088707 0.880273 0.048569 -0.009970 382020.000000 1 0 0
-9.969961 -11.482922 8.928863 17.634688 0.855806 1.039880 0.034808 -0.010442 284090.000000 1 0 0
-10.517061 -10.631222 11.239763 18.707318 0.790796 0.926268 0.052734 -0.015916 344170.000000 1 0 0
-5.986161 -12.327622 10.842563 17.474712 1.118744 0.901452 0.028185 -0.002720 781907.000000 1 0 0
-12.527661 -10.315022 7.210363 17.757571 0.688835 1.152675 0.029141 -0.008809 -887243.000000 1 0 0
-7.627961 -11.169522 12.526363 18.435124 0.971621 0.823738 0.038396 -0.008276 -545326.000000 1 0 0
-14.880061 -11.427822 7.209463 20.099445 0.654919 1.203933 0.064612 -0.014199 269158.000000 1 0 0
-11.317161 -9.221622 9.242463 17.278298 0.683722 1.006386 0.039981 -0.005291 -473548.000000 1 0 0
-5.297961 -11.976122 13.325263 18.683108 1.154300 0.776708 0.032533 -0.007326 -484227.000000 1 0 0
4.094339 -12.436222 14.801663 19.761388 -1.252746 0.724216 -0.000711 -0.003898 69.763100 1 0 0
6.632639 -12.744222 14.204163 20.203102 -1.090929 0.791093 0.018286 0.000279 -215109.000000 1 0 0
6.629039 -8.499222 16.075163 19.354374 -0.908396 0.590666 0.010411 -0.005256 -461312.000000 1 0 0
0.760139 -1.831822 14.423763 14.559476 -1.177458 0.136644 0.008822 -0.006333 -3324700.000000 1 0 0
-0.175461 -6.502122 15.588163 16.890803 1.543818 0.395306 0.014776 -0.010260 256319.000000 1 0 0
-1.613861 -4.807822 18.233063 18.925229 1.246941 0.271289 0.028132 -0.027387 -2486230.000000 1 0 0
-5.176461 12.733878 12.897063 18.848916 -1.184690 0.817244 0.016879 -0.010492 -274483.000000 1 0 0
-4.015961 8.781078 11.526363 15.036367 -1.141853 0.697320 0.004734 -0.003686 -299223.000000 1 0 0
-0.634461 -4.023522 15.089963 15.630044 1.414396 0.263647 0.011515 -0.005908 150322.000000 1 0 0
-4.436061 9.164778 14.077863 17.374062 -1.120003 0.626166 0.010671 -0.011545 127463.000000 1 0 0
-13.390661 -2.333622 16.783963 21.597616 0.172540 0.680718 0.013509 0.004513 -630734.000000 1 0 0
-0.353561 0.890378 17.250963 17.277544 -1.192800 0.055477 0.009676 -0.006983 -1206570.000000 1 0 0
-3.354861 -7.235022 15.340263 17.289428 1.136610 0.479420 0.016341 -0.011354 283580.000000 1 0 0
-7.455361 5.470478 12.577963 15.611333 -0.633029 0.633949 0.008345 -0.011088 -1476110.000000 1 0 0
-9.913861 9.880878 13.348363 19.341541 -0.783732 0.809114 0.022910 -0.024112 938821.000000 1 0 0
-5.522061 2.294478 11.134863 12.638947 -0.393806 0.492833 0.009635 -0.004124 -851413.000000 1 0 0
-7.260061 -7.403122 16.841363 19.777417 0.795154 0.551871 0.025111 -0.010507 -195010.000000 1 0 0
-4.772761 2.972978 18.543163 19.376965 -0.557092 0.294424 0.026032 -0.008720 841307.000000 1 0 0
1.032339 -8.475522 16.588463 18.656830 -1.449591 0.475342 0.014052 -0.004030 652632.000000 1 0 0
-14.847161 -3.665122 13.841463 20.626619 0.242018 0.835174 0.028167 -0.009133 -50812.900000 1 0 0
-14.322261 2.045378 12.981663 19.437961 -0.141852 0.839478 0.003229 -0.006588 -788023.000000 1 0 0
-5.577961 0.959978 16.049663 17.018428 -0.170432 0.339037 0.022618 -0.004976 514908.000000 1 0 0
4.700339 5.848878 15.251663 16.997523 0.893845 0.457211 0.004185 0.003652 128379.000000 1 0 0
-0.892161 -12.035222 13.888463 18.399237 1.496802 0.715388 -0.003808 -0.004055 -252573.000000 1 0 0
-6.041861 -4.137222 16.785163 18.312903 0.600424 0.411365 0.018962 -0.011340 286222.000000 1 0 0
-12.989461 -1.569422 9.778263 16.334125 0.120240 0.928994 0.010414 -0.006330 -961058.000000 1 0 0
-14.604161 10.437578 10.568263 20.830573 -0.620523 1.038697 0.011757 0.005569 374128.000000 1 0 0
-3.649961 -3.345022 17.576863 18.260819 0.741832 0.274558 0.025229 -0.018664 -1904520.000000 1 0 0
-8.076961 9.170178 11.751363 16.953584 -0.848699 0.804947 0.012550 -0.018644 -172357.000000 1 0 0
-4.241161 10.658178 16.115763 19.781356 -1.192080 0.618594 0.010940 -0.011050 244895.000000 1 0 0
-12.384561 12.827178 8.391863 19.706274 -0.802952 1.130898 0.005947 -0.009123 -394919.000000 1 0 0
-12.623361 3.169678 10.387463 16.652192 -0.246010 0.897214 0.005927 -0.010098 397724.000000 1 0 0
-10.086161 -3.544722 13.565863 17.272184 0.337961 0.667427 0.013730 -0.006005 -1626590.000000 1 0 0
-4.295761 -6.428122 17.638263 19.258314 0.981680 0.413107 0.024067 -0.015176 -727153.000000 1 0 0
0.616839 -3.800922 17.751263 18.164109 -1.409912 0.213613 0.019666 -0.022971 -1009190.000000 1 0 0
-5.981761 1.877878 13.639263 15.011242 -0.304191 0.430869 0.017319 -0.003699 -755287.000000 1 0 0
-10.632661 8.619578 10.180663 17.058620 -0.681213 0.931283 0.009252 -0.018255 -177714.000000 1 0 0
4.464639 2.440578 17.190563 17.927769 0.500265 0.287770 0.004300 -0.007547 -1769000.000000 1 0 0
0.518139 -5.434922 13.252163 14.332714 -1.475749 0.390787 0.004633 -0.002239 -364320.000000 1 0 0
-4.388161 5.599878 20.643263 21.834810 -0.906125 0.331887 0.044853 -0.013006 552318.000000 1 0 0
-10.781961 10.861178 9.074363 17.792132 -0.789058 1.035587 0.011041 -0.010309 425268.000000 1 0 0
0.754339 4.123478 12.983363 13.643307 1.389860 0.312302 0.002920 -0.002162 -1810710.000000 1 0 0
-3.080761 7.000578 13.234963 15.286054 -1.156229 0.524010 0.006933 -0.006013 -204881.000000 1 0 0
0.752739 8.889378 13.994463 16.596164 1.486319 0.567523 -0.000564 -0.002288 277315.000000 1 0 0
-4.216761 -6.590022 13.004363 15.176394 1.001575 0.541608 0.014624 -0.005709 228494.000000 1 0 0
-5.071561 8.252678 16.573063 19.196194 -1.019758 0.528922 0.021331 -0.002795 345011.000000 1 0 0
1.639239 -10.827522 15.829063 19.247898 -1.420542 0.605217 0.004755 0.000068 145118.000000 1 0 0
-15.183061 -1.132122 14.188363 20.811456 0.074427 0.820634 0.023852 -0.002761 431566.000000 1 0 0
-13.861161 -5.344822 8.251163 16.993546 0.368029 1.063808 0.039053 -0.016393 -84296.400000 1 0 0
-14.263761 -1.876522 11.988763 18.727164 0.130807 0.876063 0.022763 -0.008666 714503.000000 1 0 0
9.311239 1.111578 16.915363 19.340742 0.118818 0.506191 0.031440 -0.009484 -528183.000000 1 0 0
4.994739 -6.699722 16.691263 18.666332 -0.930172 0.464176 0.015332 -0.015335 -200263.000000 1 0 0
-6.124561 -2.617022 11.025563 12.881075 0.403817 0.543410 0.007756 -0.004461 160949.000000 1 0 0
0.540639 -6.365522 18.062363 19.158840 -1.486067 0.339956 0.025336 -0.018031 -137439.000000 1 0 0
-8.530161 11.739378 12.125263 18.910279 -0.942422 0.874736 0.017687 -0.017960 -135644.000000 1 0 0
-6.590861 -5.849522 14.780763 17.208351 0.725877 0.537620 0.019111 -0.010079 -1517040.000000 1 0 0
-4.351061 -8.966122 17.043363 19.743336 1.118996 0.529130 0.028518 -0.013985 241021.000000 1 0 0
2.424439 -6.121622 16.252263 17.535342 -1.193704 0.384919 0.009796 -0.010756 680986.000000 1 0 0
2.285739 5.352278 15.977963 17.004905 1.167183 0.349310 0.002963 -0.004626 -1574520.000000 1 0 0
0.976739 -8.980822 14.055363 16.708154 -1.462464 0.571246 -0.000179 -0.001973 -573164.000000 1 0 0
-9.985461 -2.676322 11.077863 15.152267 0.261867 0.750860 0.006925 -0.003228 10001.900000 1 0 0
-1.263861 10.162678 12.301963 16.006738 -1.447069 0.694226 0.002102 -0.001344 -190723.000000 1 0 0
-12.330361 -3.630022 11.302863 17.116354 0.286309 0.849505 0.015573 -0.004932 -1384100.000000 1 0 0
-1.971061 6.618278 20.132763 21.284145 -1.281340 0.330426 0.020667 -0.003944 447865.000000 1 0 0
0.469539 -13.557522 15.608463 20.679724 -1.536177 0.715491 0.000667 -0.011104 -21977.100000 1 0 0
4.080339 -8.794722 15.301263 18.114220 -1.136400 0.564773 0.007006 -0.003810 143720.000000 1 0 0
4.381139 -4.351522 16.245963 17.379915 -0.782007 0.363227 0.010583 -0.006157 -258548.000000 1 0 0
7.909439 1.740578 14.800763 16.871616 0.216611 0.500676 0.003188 -0.000841 -101452.000000 1 0 0
-6.311061 -0.057822 11.833963 13.411768 0.009162 0.489949 0.008902 -0.003914 196352.000000 1 0 0
-3.477861 -10.947822 18.492263 21.769569 1.263203 0.555845 0.038346 -0.015945 147556.000000 1 0 0
3.280639 -1.594122 13.566263 14.048036 -0.452319 0.262650 -0.000321 -0.001618 527746.000000 1 0 0
-2.575361 8.648678 15.751863 18.153603 -1.281382 0.520242 0.011440 -0.010376 -1002290.000000 1 0 0
-3.241961 3.935178 14.818063 15.670703 -0.881686 0.331393 0.013891 -0.006246 -117507.000000 1 0 0
-4.987761 -9.049422 19.660663 22.210617 1.067056 0.483889 0.047280 -0.013620 -111211.000000 1 0 0
-5.819961 -3.022422 19.024363 20.122957 0.478984 0.331958 0.025033 -0.018882 -1112530.000000 1 0 0
-6.587861 -8.652722 11.000763 15.468882 0.920063 0.779657 0.022165 -0.008046 -1982280.000000 1 0 0
-11.710661 2.284078 12.600963 17.353411 -0.192624 0.758109 0.012827 -0.017631 -66076.900000 1 0 0
-11.655561 -7.439422 11.487363 17.976558 0.568087 0.877574 0.030669 -0.015530 370017.000000 1 0 0
-11.076361 -7.201422 15.457663 20.334346 0.576489 0.707214 0.042994 -0.026015 -196894.000000 1 0 0
0.237239 5.520178 17.614563 18.460810 1.527846 0.303956 0.002929 -0.006595 -148150.000000 1 0 0
-2.252361 -0.265622 13.218763 13.411912 0.117388 0.169918 0.010182 -0.001796 156298.000000 1 0 0
-6.024861 -10.794122 17.988663 21.826682 1.061709 0.602080 0.060334 -0.017477 557484.000000 1 0 0
0.249239 2.754078 19.183863 19.382149 1.480544 0.143163 0.012656 -0.007465 -1460380.000000 1 0 0
-0.727961 10.893578 14.764163 18.362475 -1.504071 0.636737 0.006013 -0.003906 -1153820.000000 1 0 0
-12.782861 -2.128522 14.206763 19.229256 0.165000 0.739494 0.009821 -0.002629 84278.100000 1 0 0
-13.675661 8.470278 11.954963 20.042217 -0.554540 0.931677 0.009079 -0.005932 210847.000000 1 0 0
-18.047361 -0.810322 6.760463 19.289057 0.044870 1.212711 0.050397 -0.018357 -411282.000000 1 0 0
-2.116861 -7.880622 17.607063 19.406030 1.308375 0.433982 0.018848 -0.013266 -1198410.000000 1 0 0
5.595839 2.755678 14.525963 15.808567 0.457590 0.405598 0.003356 -0.003412 -2312900.000000 1 0 0
-14.085461 -6.466622 11.046763 19.032824 0.430395 0.951569 0.035356 -0.023117 431715.000000 1 0 0
3.086239 7.807478 16.213163 18.257827 1.194355 0.477794 0.001727 -0.010051 -205042.000000 1 0 0
1.065339 2.071578 14.621363 14.805764 1.095802 0.157991 0.000559 -0.004745 -3150600.000000 1 0 0
-14.455161 0.585178 9.736063 17.438035 -0.040460 0.978433 0.009739 -0.005755 -2668520.000000 1 0 0
-9.462161 -5.129822 15.436663 18.818559 0.496789 0.608880 0.014941 -0.007295 -635890.000000 1 0 0
-2.578761 -0.137722 18.098963 18.282272 0.053356 0.141728 0.022630 -0.013123 71690.200000 1 0 0
6.703239 3.671978 17.603563 19.191203 0.501146 0.409619 0.021271 -0.004314 -199298.000000 1 0 0
-4.236661 -0.933022 14.725963 15.351672 0.216766 0.286490 0.019650 -0.004333 -452685.000000 1 0 0
4.805639 -8.896722 17.916063 20.572583 -1.075540 0.513825 0.017360 -0.000204 -444685.000000 1 0 0
1.935339 6.870078 13.410663 15.191754 1.296207 0.489093 0.001210 0.000603 -1799420.000000 1 0 0
-3.925961 -0.836322 20.198063 20.593066 0.209886 0.196178 0.034864 -0.015545 -214047.000000 1 0 0
-10.600561 1.651678 16.306763 19.519490 -0.154568 0.581919 0.022259 -0.008435 -391569.000000 1 0 0
-3.949261 7.001078 18.420363 20.097800 -1.057197 0.411464 0.029872 -0.008533 270189.000000 1 0 0
-12.666361 1.263878 14.792963 19.515785 -0.099453 0.710555 0.013671 -0.007047 1578650.000000 1 0 0
-16.260161 -4.368422 8.509063 18.864785 0.262461 1.102849 0.047962 -0.018858 -1635300.000000 1 0 0
-2.286761 0.650678 15.661963 15.841394 -0.277215 0.150653 0.018735 -0.004578 259741.000000 1 0 0
-13.747161 -8.916522 11.949563 20.280061 0.575396 0.940694 0.047492 -0.034139 523125.000000 1 0 0
6.087139 -3.081722 14.605063 16.120116 -0.468649 0.437025 0.007876 -0.004287 633198.000000 1 0 0
-15.763661 0.212678 7.639963 17.518770 -0.013491 1.119534 0.020061 -0.011001 533726.000000 1 0 0
-14.245661 5.981078 12.321063 19.761598 -0.397503 0.897604 0.023158 -0.016710 -443066.000000 1 0 0
0.417439 9.526978 16.539763 19.091918 1.527008 0.523004 0.003523 -0.009235 -26432.400000 1 0 0
-10.317461 -5.389522 10.779763 15.865064 0.481382 0.823762 0.015787 -0.009093 36507.900000 1 0 0
-3.075361 -11.261322 15.207063 19.171072 1.304206 0.654702 0.023587 -0.004047 -271839.000000 1 0 0
-3.457361 2.601378 12.685563 13.403135 -0.645046 0.328701 0.008503 -0.001266 -2021150.000000 1 0 0
-12.395961 -7.724522 7.422963 16.383787 0.557267 1.100593 0.031960 -0.012657 242670.000000 1 0 0
-8.276461 -1.826222 13.104563 15.606552 0.217173 0.574096 0.011643 -0.004136 -519894.000000 1 0 0
-9.904661 6.332178 9.543363 15.141816 -0.568826 0.888901 0.007099 -0.010623 -580735.000000 1 0 0
-18.199661 -3.950722 6.602763 19.759361 0.213760 1.230084 0.059060 -0.021049 221430.000000 1 0 0
-1.440061 -0.078422 20.470463 20.521204 0.054404 0.070336 0.023271 -0.012857 -945574.000000 1 0 0
-2.615561 2.644078 20.172063 20.512056 -0.790820 0.182325 0.025160 -0.009687 -749777.000000 1 0 0
-3.932361 11.361478 11.124863 16.380148 -1.237588 0.824169 0.008416 -0.004723 -145120.000000 1 0 0
-4.283161 -4.766722 14.851563 16.175168 0.838780 0.407358 0.015483 -0.012089 -581610.000000 1 0 0
-0.126061 -14.454722 13.169563 19.554853 1.562075 0.831906 -0.001291 -0.008264 -2285260.000000 1 0 0
-12.261261 0.391578 8.263063 14.790878 -0.031925 0.978028 0.007565 -0.007032 -674994.000000 1 0 0
-7.790561 2.272278 15.435963 17.439182 -0.283798 0.484021 0.016386 -0.002767 -664878.000000 1 0 0
3.281639 -2.155922 18.564563 18.975251 -0.581256 0.208432 0.014394 -0.006452 -185779.000000 1 0 0
-2.089861 4.747478 12.532563 13.563599 -1.156118 0.392423 0.003897 -0.000435 -545241.000000 1 0 0
-10.460061 -6.167722 13.259663 17.979776 0.532771 0.741470 0.018162 -0.010481 75334.400000 1 0 0
2.436039 -3.824522 14.168463 14.876378 -1.003648 0.309738 -0.000058 -0.005311 -225747.000000 1 0 0
6.661039 1.075278 16.968663 18.260920 0.160047 0.378463 0.008373 -0.006801 -394226.000000 1 0 0
-1.961661 -5.747922 13.837663 15.111838 1.241909 0.413591 0.008775 -0.005546 -2518330.000000 1 0 0
-13.058161 3.833878 14.296563 19.738438 -0.285575 0.760777 0.010437 -0.011893 208514.000000 1 0 0
-13.384361 -6.837022 13.513063 20.211108 0.472267 0.838477 0.038346 -0.012831 -263802.000000 1 0 0
-9.499461 6.808878 11.853263 16.646334 -0.621889 0.778362 0.009094 -0.013697 -100332.000000 1 0 0
-1.076261 -2.553122 12.913963 13.207847 1.171854 0.211347 0.007255 -0.002755 455554.000000 1 0 0
0.111439 6.678978 15.243163 16.642572 1.554113 0.413017 -0.000938 -0.004596 586995.000000 1 0 0
-16.766461 -0.794022 9.790563 19.431928 0.047322 1.042759 0.044843 -0.008745 5005.370000 1 0 0
-1.209261 2.672578 13.729163 14.039050 -1.145890 0.210499 0.004919 -0.001679 -3148510.000000 1 0 0
-11.184061 -3.259122 15.942463 19.745056 0.283555 0.631038 0.013012 -0.009607 -506132.000000 1 0 0
-5.258461 -1.539122 16.956063 17.819327 0.284741 0.312543 0.027887 -0.011272 402694.000000 1 0 0
-12.011761 6.509078 11.086363 17.594259 -0.496597 0.889098 0.015444 -0.013607 453618.000000 1 0 0
-2.743261 4.680978 18.664963 19.437538 -1.040701 0.282887 0.022033 -0.006027 399379.000000 1 0 0
5.094239 -1.899822 16.625863 17.492282 -0.356959 0.316056 0.012332 -0.004162 172949.000000 1 0 0
-8.069661 -4.026522 12.003863 15.014162 0.462824 0.644329 0.015347 -0.003830 -2183260.000000 1 0 0
-11.543361 -0.728222 16.131363 19.849443 0.063002 0.622049 0.018646 -0.002830 17355.600000 1 0 0
1.992139 2.141178 17.396663 17.640781 0.821441 0.166555 0.000165 -0.008679 -1314650.000000 1 0 0
-8.962061 -7.491922 11.623563 16.478916 0.696286 0.787866 0.025668 -0.010061 689749.000000 1 0 0
-7.166261 6.950578 14.693763 17.764361 -0.770121 0.596782 0.007788 -0.015435 46896.600000 1 0 0
-5.606761 3.469178 15.748163 17.072657 -0.554092 0.396495 0.020041 -0.007496 -173708.000000 1 0 0
-9.435261 4.175578 11.500363 15.450501 -0.416642 0.731256 0.008686 -0.012276 -285829.000000 1 0 0
-10.242661 0.208778 14.184763 17.497520 -0.020380 0.625496 0.011987 -0.004112 -920095.000000 1 0 0
7.948739 -0.779922 15.693863 17.609318 -0.097806 0.470758 0.010149 -0.006528 -202307.000000 1 0 0
-8.605061 -7.485822 14.682663 18.592074 0.715953 0.660432 0.027394 -0.007905 -2328840.000000 1 0 0
0.024839 4.136378 15.467363 16.010920 1.564791 0.261316 0.001104 -0.007378 80688.100000 1 0 0
-8.149461 3.087078 9.600263 12.965679 -0.362105 0.737077 0.006637 -0.006876 -930155.000000 1 0 0
-2.145661 -9.865822 13.128063 16.561532 1.356647 0.655597 0.001848 0.000217 659085.000000 1 0 0
-6.062061 10.228978 10.467363 15.841284 -1.035809 0.848959 0.011681 -0.011732 -1302800.000000 1 0 0
-8.665361 -2.660722 15.540563 17.991027 0.297914 0.528042 0.018755 -0.012146 -692817.000000 1 0 0
4.016139 5.828378 17.787363 19.143920 0.967446 0.378719 0.002250 -0.004426 365501.000000 1 0 0
-6.810161 -0.932922 14.993363 16.493926 0.136142 0.429862 0.015970 -0.007320 -2490950.000000 1 0 0
-0.853461 -10.057722 15.480263 18.480388 1.486143 0.577813 0.000041 -0.001423 -1196510.000000 1 0 0
-4.255461 5.783878 16.091663 17.621119 -0.936481 0.419720 0.015685 -0.012918 360601.000000 1 0 0
3.620039 0.073778 17.523063 17.893235 0.020378 0.203762 0.005227 -0.004825 -884129.000000 1 0 0
1.165539 0.363578 19.230563 19.269282 0.302375 0.063404 0.008052 -0.009822 -643313.000000 1 0 0
-6.351861 6.370378 17.709563 19.863446 -0.786854 0.470006 0.022658 -0.017416 -940092.000000 1 0 0
-12.241261 0.580478 10.825663 16.351771 -0.047384 0.847248 0.009461 -0.008327 -384765.000000 1 0 0
-5.340461 5.133978 13.842163 15.699801 -0.765688 0.491390 0.015126 -0.008078 -573104.000000 1 0 0
-8.790661 -9.323922 9.848863 16.162034 0.814828 0.915515 0.033583 -0.010806 -1145820.000000 1 0 0
6.841039 -3.657722 17.068063 18.748267 -0.491000 0.426593 0.018120 -0.005983 -612425.000000 1 0 0
-16.719161 1.858578 9.504763 19.321625 -0.110710 1.056499 0.030039 -0.005562 311442.000000 1 0 0
-4.141461 -9.597322 11.231263 15.342802 1.163414 0.749512 0.009105 -0.000285 842271.000000 1 0 0
-11.168761 -3.832122 9.037863 14.869747 0.330524 0.917506 0.015688 -0.006049 -294079.000000 1 0 0
3.760739 -5.403222 18.564963 19.697610 -0.962748 0.340768 0.021233 -0.012716 66084.700000 1 0 0
2.487239 -1.904522 16.103563 16.405436 -0.653485 0.192132 0.007514 -0.008273 215533.000000 1 0 0
-3.348361 -4.340322 19.984363 20.722565 0.913705 0.267719 0.031961 -0.026013 -1289550.000000 1 0 0
-6.460361 -3.378522 14.337563 16.084664 0.481848 0.470413 0.017619 -0.004229 90991.700000 1 0 0
-9.749861 5.063078 13.861063 17.686821 -0.478966 0.670205 0.020065 -0.018940 442386.000000 1 0 0
-5.873561 -5.217922 11.734463 14.121723 0.726355 0.589981 0.011209 -0.001395 -1026490.000000 1 0 0
5.943139 1.892078 19.353563 20.333747 0.308218 0.311760 0.027634 -0.013799 118667.000000 1 0 0
-2.705661 11.975678 13.432963 18.198406 -1.348597 0.740488 0.007062 -0.007707 -1194960.000000 1 0 0
3.373739 1.297778 15.220263 15.643617 0.367222 0.233175 -0.001097 -0.004304 -1199130.000000 1 0 0
-5.665661 7.372578 12.618763 15.674432 -0.915574 0.635030 0.003852 -0.014775 -982871.000000 1 0 0
-1.771361 -1.768722 15.255563 15.459570 0.784653 0.162636 0.013911 -0.003692 80431.700000 1 0 0
-7.333461 10.219378 13.942663 18.777998 -0.948353 0.734001 0.025506 -0.024350 -187335.000000 1 0 0
-10.206061 2.018078 10.482063 14.768547 -0.195215 0.781645 0.006936 -0.008409 -1175520.000000 1 0 0
-13.558961 5.303078 8.964263 17.097546 -0.372821 1.018902 0.005759 -0.011009 39085.700000 1 0 0
0.109439 -4.806122 20.105163 20.671923 -1.548030 0.234704 0.030202 -0.026519 -521159.000000 1 0 0
-14.514261 -2.829322 7.544063 16.600655 0.192520 1.099049 0.021018 -0.014896 550883.000000 1 0 0
-2.401361 2.435778 17.579263 17.908938 -0.792513 0.192172 0.013916 -0.007568 -229519.000000 1 0 0
-6.230961 -8.398422 14.639863 17.991219 0.932486 0.620268 0.023045 -0.003477 -232254.000000 1 0 0
-8.047061 1.934578 12.021963 14.595389 -0.235931 0.602922 0.008899 -0.005974 1021790.000000 1 0 0
-14.604061 -3.540222 10.107163 18.109846 0.237826 0.978698 0.023328 -0.013095 1007990.000000 1 0 0
-0.512061 6.867878 12.684963 14.433927 -1.496375 0.497393 0.002898 -0.002930 -300493.000000 1 0 0
-1.903261 -2.317022 19.221963 19.454431 0.883127 0.154746 0.032879 -0.021877 -69993.400000 1 0 0
-12.809661 10.377778 7.365763 18.056582 -0.680901 1.150614 0.005110 -0.012095 -461653.000000 1 0 0
-19.509261 2.067978 6.785363 20.758829 -0.105605 1.237810 0.048535 -0.015763 115400.000000 1 0 0
-16.251861 8.289178 6.915463 19.510436 -0.471651 1.208471 0.019862 -0.001911 332177.000000 1 0 0
-12.401761 7.113378 13.640963 19.760560 -0.520765 0.808875 0.026734 -0.020979 -277411.000000 1 0 0
-15.927661 8.298178 10.604563 20.856819 -0.480300 1.037417 0.015944 0.001513 -47764.100000 1 0 0
1.889839 10.972978 14.982663 18.667028 1.400243 0.639110 0.002591 -0.007156 -262279.000000 1 0 0
2.378739 14.786478 12.255363 19.351803 1.411290 0.884995 0.001901 -0.000739 -340741.000000 1 0 0
-3.075061 13.717878 11.663863 18.266962 -1.350277 0.878220 -0.000154 -0.007261 251075.000000 1 0 0
9.038539 4.800378 15.687163 18.730347 0.488218 0.578056 0.020178 -0.001408 -149271.000000 1 0 0
-0.308361 12.603978 12.870563 18.016846 -1.546336 0.775083 0.001453 -0.001765 181237.000000 1 0 0
3.310339 13.564978 14.397663 20.056413 1.331439 0.770075 -0.002540 -0.003199 -108311.000000 1 0 0
-2.894361 -4.089422 -13.700737 14.588039 0.954876 2.791020 0.006841 -0.005294 40275.000000 1 0 0
5.989739 -11.427522 16.375563 20.847645 -1.088016 0.667313 0.009243 0.000036 229431.000000 1 0 0
7.659339 -13.652222 7.318363 17.280251 -1.059522 1.133480 0.004750 -0.008329 -248596.000000 1 0 0
-0.225561 15.618478 1.223463 15.667948 -1.556355 1.492630 0.006245 -0.005550 -2847470.000000 1 0 0
-13.689161 8.364078 9.300863 18.543382 -0.548469 1.045380 0.001731 0.001668 169934.000000 1 0 0
-15.338361 -9.673122 4.863163 18.774583 0.562651 1.308779 0.029407 -0.013316 -1904390.000000 1 0 0
9.510239 -11.285422 11.132363 18.486073 -0.870555 0.924539 0.024206 -0.001609 81479.200000 1 0 0
-4.622361 -11.035022 -16.352137 20.261547 1.174120 2.509940 0.035109 -0.019105 145820.000000 1 0 0
-1.150661 -12.948822 -14.450337 19.437290 1.482167 2.408986 0.036192 -0.008347 -9996.010000 1 0 0
5.676539 -15.861922 -11.785637 20.560275 -1.227126 2.181231 0.025467 -0.001076 121899.000000 1 0 0
2.668139 -11.798722 -16.756237 20.666404 -1.348399 2.516307 0.017877 0.004810 242259.000000 1 0 0
2.022739 -14.864622 -14.487937 20.855425 -1.435550 2.338777 0.077093 0.025147 408329.000000 1 0 0
-6.390361 -5.842022 -14.696837 17.057636 0.740601 2.609207 0.021098 0.000748 21845.100000 1 0 0
-6.239761 -8.296522 -17.058337 19.968819 0.925957 2.594900 0.028544 -0.009191 42910.900000 1 0 0
-2.396061 -16.372822 -13.043137 21.069737 1.425484 2.238324 0.041930 -0.009662 108760.000000 1 0 0
16.584239 -8.034822 -8.734937 20.393491 -0.451159 2.013429 0.064066 -0.016911 2908.200000 1 0 0
18.888439 -2.656322 -3.473337 19.387966 -0.139716 1.750918 0.022652 -0.019707 -12975.500000 1 0 0
15.989139 -11.154322 -8.690137 21.344553 -0.609126 1.990113 0.061914 -0.024351 183401.000000 1 0 0
18.969039 -2.795122 -6.457737 20.232140 -0.146299 1.895663 0.169338 -0.012961 -292807.000000 1 0 0
8.783739 -9.529122 -15.622437 20.298245 -0.826078 2.449081 0.043607 -0.011781 213358.000000 1 0 0
-4.489961 10.123578 -16.149937 19.582314 -1.153348 2.540504 0.000677 0.004267 368714.000000 1 0 0
2.727739 -9.497022 -18.328637 20.822413 -1.291105 2.647155 0.027820 -0.004583 192402.000000 1 0 0
11.060939 7.959878 -14.882537 20.179047 0.623785 2.400193 0.057243 -0.035953 446608.000000 1 0 0
18.620139 -5.425322 -8.258237 21.079425 -0.283519 1.973348 0.047086 -0.021608 137257.000000 1 0 0
12.383339 5.218278 -14.077137 19.461328 0.398813 2.379422 0.027750 0.000231 58645.600000 1 0 0
15.960139 6.298478 -10.719237 20.231137 0.375875 2.129207 0.024650 -0.008273 358515.000000 1 0 0
3.466239 -0.325122 -19.133737 19.447889 -0.093523 2.961608 0.042937 -0.019166 223257.000000 1 0 0
10.528639 -1.815622 -14.511237 18.020119 -0.170767 2.506943 0.028598 -0.013945 197488.000000 1 0 0
12.394539 -6.076622 -14.031437 19.683270 -0.455830 2.364366 0.052830 -0.005219 432370.000000 1 0 0
10.347039 6.528778 -12.991637 17.845693 0.562888 2.386194 0.031762 -0.001952 680740.000000 1 0 0
10.728539 5.067178 -16.471137 20.299660 0.441250 2.517339 0.040342 -0.012356 375891.000000 1 0 0
12.037939 -9.929922 -14.794737 21.503478 -0.689732 2.329548 0.072531 -0.022188 322296.000000 1 0 0
-1.104261 2.131878 -17.224837 17.391357 -1.092872 3.003099 0.017327 -0.013660 361123.000000 1 0 0
6.811039 -1.051222 -17.061837 18.401130 -0.153133 2.757708 0.029100 -0.001444 52959.500000 1 0 0
6.983439 -5.809822 -15.605637 18.057086 -0.693917 2.614432 0.011959 -0.015392 321620.000000 1 0 0
-2.293761 -4.485622 -20.353537 20.967799 1.098103 2.898942 0.047440 -0.029045 286404.000000 1 0 0
16.023639 -0.188322 -13.249337 20.792724 -0.011752 2.261669 0.038533 -0.011045 29439.300000 1 0 0
-3.962861 -0.643622 -18.728837 19.154316 0.161008 2.930425 0.017025 -0.003785 203928.000000 1 0 0
3.529839 8.700378 -17.815837 20.138530 1.185376 2.656570 0.011272 -0.015470 118727.000000 1 0 0
9.751939 -0.248022 -17.380237 19.930741 -0.025428 2.630134 0.035936 -0.002878 8409.070000 1 0 0
4.180139 4.455178 -18.237637 19.233657 0.817238 2.818364 0.018507 -0.009860 412303.000000 1 0 0
-1.986761 -11.206522 -18.182537 21.450827 1.395333 2.582314 0.045292 -0.011232 187719.000000 1 0 0
5.924139 -9.484322 -16.180237 19.668448 -1.012467 2.536852 0.010564 -0.006701 46946.700000 1 0 0
10.149939 -12.924022 -11.171737 19.871067 -0.905050 2.167853 0.032334 0.022649 73055.900000 1 0 0
6.173439 6.889478 -16.828437 19.203451 0.840158 2.638973 0.031673 -0.017600 250897.000000 1 0 0
9.441539 2.033678 -19.903837 22.123318 0.212155 2.689825 0.073793 -0.024018 -1291.440000 1 0 0
-1.097161 -0.393522 -19.999037 20.032975 0.344380 3.083376 0.039291 -0.022309 63431.200000 1 0 0
-1.262361 6.749778 -19.427037 20.604922 -1.385910 2.801833 -0.000692 -0.006702 -349038.000000 1 0 0
8.572439 5.951878 -18.129537 20.918691 0.606893 2.619278 0.046117 -0.023502 -50918.800000 1 0 0
12.114139 0.139578 -12.900637 17.697408 0.011521 2.387592 0.013034 -0.006638 -69147.000000 1 0 0
-4.447861 -2.936722 -19.812337 20.516737 0.583551 2.878795 0.030213 -0.009639 340840.000000 1 0 0
5.329639 -11.384822 -14.316437 19.052023 -1.132964 2.421037 -0.013145 -0.001241 -152451.000000 1 0 0
11.053539 2.486778 -15.849937 19.482948 0.221291 2.520991 0.022324 -0.007546 -337153.000000 1 0 0
-3.019761 -4.483522 -17.040637 17.877478 0.978061 2.834413 0.021166 -0.009593 278849.000000 1 0 0
-6.707361 -5.037822 -17.647937 19.540164 0.644197 2.697876 0.031122 -0.004868 44029.400000 1 0 0
3.034839 10.310978 -15.385937 18.768419 1.284549 2.531820 -0.000191 -0.006832 282348.000000 1 0 0
17.356339 -6.089622 -10.809237 21.334610 -0.337440 2.102094 0.082083 -0.023395 18.089600 1 0 0
9.681239 -3.455922 -17.636437 20.413566 -0.342872 2.613871 0.023007 -0.015339 125864.000000 1 0 0
-7.425461 -1.470122 -18.236737 19.745311 0.195456 2.748159 0.029812 -0.014295 668805.000000 1 0 0
1.449739 -7.351522 -19.256937 20.663403 -1.376092 2.770508 0.025055 -0.016014 231880.000000 1 0 0
6.072039 10.834778 -13.908837 18.647193 1.059987 2.412673 0.031864 -0.010010 451328.000000 1 0 0
5.933839 -3.560222 -18.371337 19.631394 -0.540409 2.781358 0.028760 -0.013400 501643.000000 1 0 0
4.624539 13.254178 -14.631137 20.276335 1.235091 2.376888 0.019168 -0.017063 147002.000000 1 0 0
9.730139 11.276578 -15.532637 21.519749 0.858882 2.377175 0.087121 -0.022229 71991.200000 1 0 0
17.370539 1.357778 -11.800637 21.043626 0.078007 2.166112 0.061069 0.002230 186712.000000 1 0 0
15.380839 -2.811622 -12.265237 19.872379 -0.180804 2.235976 0.064745 -0.014768 240908.000000 1 0 0
-8.778261 0.231978 -17.433237 19.519975 -0.026420 2.674980 0.026224 -0.007783 416152.000000 1 0 0
-3.080561 4.197378 -19.007737 19.707914 -0.937663 2.874235 0.012169 -0.003933 43054.500000 1 0 0
4.435939 2.467878 -17.065537 17.804508 0.507696 2.852473 0.018248 -0.007445 378176.000000 1 0 0
-5.198861 14.182478 -14.077137 20.647920 -1.219437 2.320976 0.024936 -0.013128 186253.000000 1 0 0
0.961239 9.517178 -17.671337 20.094198 1.470137 2.645449 0.000907 0.001497 240158.000000 1 0 0
1.372539 -4.936522 -19.682637 20.338616 -1.299608 2.886925 0.037209 -0.015810 373110.000000 1 0 0
3.826539 -6.257222 -17.910037 19.353672 -1.021935 2.752906 0.029877 -0.026653 74863.100000 1 0 0
-6.266461 7.620878 -15.958337 18.762058 -0.882620 2.587854 0.003313 -0.001489 117349.000000 1 0 0
-11.659661 3.036378 -16.836537 20.703532 -0.254759 2.520461 0.060731 -0.023416 216688.000000 1 0 0
-4.306861 6.989778 -17.396337 19.236387 -1.018575 2.700640 -0.001802 0.014765 262445.000000 1 0 0
-8.285961 5.805178 -17.438037 20.160416 -0.611131 2.615875 0.022315 -0.010152 458354.000000 1 0 0
-8.366761 4.149178 -14.953237 17.630021 -0.460372 2.583315 -0.004043 -0.019240 375398.000000 1 0 0
9.493439 13.638778 -12.670737 20.897110 0.962718 2.222245 0.076883 -0.036593 397751.000000 1 0 0
14.510239 9.965978 -11.697337 21.135170 0.601828 2.157301 0.086466 -0.017745 186359.000000 1 0 0
8.535339 15.525378 -10.050737 20.369258 1.068132 2.086821 0.051061 -0.028895 52529.600000 1 0 0
7.936339 14.136378 -14.238837 21.577004 1.059233 2.291493 0.059200 -0.028371 148453.000000 1 0 0
3.470639 15.586478 -12.637737 20.364086 1.351701 2.240290 0.035489 -0.029338 397805.000000 1 0 0
11.024639 11.335078 -10.608737 19.041322 0.799281 2.161738 0.068565 -0.040975 309068.000000 1 0 0
15.903139 10.096378 -8.506437 20.668965 0.565663 1.994957 0.069863 -0.054878 348884.000000 1 0 0
13.871139 11.512378 -8.916037 20.110670 0.692739 2.030127 0.111396 -0.019321 -206325.000000 1 0 0
11.060939 11.656178 -7.485737 17.727016 0.811594 2.006754 0.054337 -0.013507 95098.900000 1 0 0
4.635839 16.492878 -9.760637 19.717405 1.296785 2.088662 0.026621 -0.026896 -40627.700000 1 0 0
11.535839 14.231478 -10.220637 20.977892 0.889634 2.079688 0.106583 -0.032439 -43521.700000 1 0 0
8.116139 -19.408822 -1.760037 21.110940 -1.174727 1.654264 0.044786 -0.008167 134699.000000 1 0 0
7.788139 -16.765422 -4.061537 18.926980 -1.135920 1.787068 0.041158 -0.010843 347265.000000 1 0 0
4.295339 -17.598522 4.406463 18.643359 -1.331403 1.332183 0.044082 -0.059041 8233.530000 1 0 0
10.390339 -17.782822 -2.819637 20.787935 -1.042008 1.706854 0.049686 -0.005083 618793.000000 1 0 0
-3.405961 -15.597422 8.049563 17.879475 1.355804 1.103793 0.020419 -0.011854 84055.600000 1 0 0
-15.561561 -12.595122 -4.192837 20.454319 0.680431 1.777245 0.060722 -0.014321 118860.000000 1 0 0
-9.264961 -12.729322 -7.027037 17.241067 0.941626 1.990594 0.037454 -0.017002 112412.000000 1 0 0
-11.632961 -15.275122 6.767863 20.358269 0.919936 1.231909 0.045343 -0.010328 299645.000000 1 0 0
-14.569261 -6.906822 -7.130937 17.630026 0.442688 1.987203 0.037743 -0.036891 -221140.000000 1 0 0
5.266539 -15.566622 6.528563 17.682712 -1.244562 1.192642 0.033675 -0.015470 300255.000000 1 0 0
2.580839 -14.170622 9.083863 17.028912 -1.390645 1.008137 0.001723 -0.004074 450540.000000 1 0 0
3.353239 -17.550422 10.030463 20.490772 -1.382008 1.059267 0.029577 -0.005879 170030.000000 1 0 0
-7.325261 -16.919722 -6.081437 19.414436 1.162218 1.889402 -0.001804 -0.023649 -202681.000000 1 0 0
2.127039 -19.744922 -3.852337 20.229353 -1.463484 1.762400 0.025829 -0.012009 84686.900000 1 0 0
-17.102961 -10.052622 -3.387737 20.125686 0.531379 1.739931 -0.046354 -0.033032 -185313.000000 1 0 0
-4.116261 -14.715722 2.710863 15.519177 1.298049 1.395217 0.005339 -0.005030 104307.000000 1 0 0
-10.985361 -10.267022 -14.577537 20.942647 0.751611 2.340705 0.051467 -0.005157 301652.000000 1 0 0
0.119239 -20.172922 2.425163 20.318524 -1.564886 1.451154 0.032606 -0.033389 330825.000000 1 0 0
5.457839 -18.756822 0.964663 19.558552 -1.287636 1.521454 0.022745 -0.002420 245702.000000 1 0 0
-7.509761 -18.642122 -3.559737 20.410707 1.187846 1.746098 0.031406 -0.038214 71582.600000 1 0 0
-9.481361 -15.716722 -7.839937 19.959363 1.027979 1.974465 0.061635 -0.020520 35085.000000 1 0 0
-11.527061 -11.514222 -12.356337 20.448215 0.784841 2.219651 0.008882 0.008928 425149.000000 1 0 0
-13.113161 -15.017122 -3.261037 20.201567 0.852979 1.732931 0.043642 -0.023571 194383.000000 1 0 0
-0.237461 -20.817922 -2.825837 21.010179 1.559390 1.705704 0.019322 -0.019185 358863.000000 1 0 0
-11.707461 -17.125122 -0.943237 20.765937 0.971133 1.616234 0.050597 -0.009288 55152.500000 1 0 0
1.014539 -19.394022 5.575263 20.204973 -1.518532 1.291234 0.051653 -0.047772 144912.000000 1 0 0
-18.243561 -9.621522 2.423763 20.767182 0.485321 1.453818 0.056527 -0.010524 204506.000000 1 0 0
-14.972461 -14.896222 -0.605337 21.129090 0.782846 1.599450 0.058607 -0.015370 25808.600000 1 0 0
10.460639 -15.240622 -5.223737 19.209085 -0.969280 1.846206 0.046291 -0.007450 -32122.800000 1 0 0
0.176639 -19.056722 -7.253437 20.391228 -1.561527 1.934474 0.010186 0.001175 112214.000000 1 0 0
-9.892261 -18.038622 -2.995037 20.789876 1.069187 1.715362 0.050813 0.008908 489293.000000 1 0 0
-14.528661 -7.021022 -11.380737 19.745833 0.450161 2.185065 0.039143 -0.015163 -165848.000000 1 0 0
-12.738261 -14.769722 1.551663 19.565675 0.859114 1.491408 0.052824 -0.027457 223503.000000 1 0 0
-2.533661 -16.462622 10.229263 19.546744 1.418091 1.020050 0.007475 -0.014499 250030.000000 1 0 0
-12.635261 -14.651722 -6.706637 20.476859 0.859162 1.904477 0.051574 -0.012568 230072.000000 1 0 0
5.052039 -16.924822 -7.277737 19.103354 -1.280717 1.961638 0.011763 -0.005521 277.135000 1 0 0
-17.677661 -7.132122 -2.884337 19.279167 0.383480 1.720969 0.013603 -0.016519 -109652.000000 1 0 0
-12.232261 -13.702822 -9.190437 20.539223 0.842039 2.034717 0.051960 -0.024974 73243.900000 1 0 0
-7.779261 -14.022122 10.028263 18.913035 1.064287 1.011924 0.035585 -0.006096 616369.000000 1 0 0
-15.972861 -8.345922 -5.695437 18.900389 0.481490 1.876894 0.046932 -0.008501 310200.000000 1 0 0
-0.560261 -19.569922 -0.210937 19.579076 1.542175 1.581570 0.023412 -0.029812 147640.000000 1 0 0
-15.213461 -11.282922 -1.578637 19.006468 0.638130 1.653950 0.035601 -0.007049 234335.000000 1 0 0
-7.236661 -18.962322 1.257963 20.335225 1.206223 1.508896 0.026096 -0.021204 84418.800000 1 0 0
-2.055561 -20.755022 -5.290537 21.517111 1.472079 1.819219 0.012785 -0.006702 194287.000000 1 0 0
-9.077461 -19.374522 -0.899337 21.414509 1.132644 1.612805 0.039148 -0.024130 56801.400000 1 0 0
-17.775261 -7.383522 4.709963 19.815652 0.393696 1.330810 0.054790 -0.021026 64413.000000 1 0 0
-2.428961 -15.535622 -10.483737 18.898787 1.415704 2.158836 0.028976 -0.011618 -110810.000000 1 0 0
-2.816561 -18.148522 -8.451037 20.216871 1.416830 2.002060 0.016121 -0.006090 219956.000000 1 0 0
4.446239 -18.187322 -5.233237 19.440537 -1.331030 1.843350 0.013308 0.023388 529680.000000 1 0 0
0.965239 -17.357922 -8.835537 19.501176 -1.515246 2.041010 0.020362 -0.001600 23357.000000 1 0 0
-7.683161 -10.206722 -15.046537 19.738450 0.925534 2.437649 0.033599 0.003108 486614.000000 1 0 0
-5.276561 -19.320322 -1.858037 20.113907 1.304189 1.663304 0.030957 -0.029454 414584.000000 1 0 0
-9.343261 -16.151722 8.392663 20.459996 1.046359 1.148124 0.016662 -0.004908 314808.000000 1 0 0
-7.071161 -15.205922 -10.298637 19.679515 1.135517 2.121536 0.024739 -0.017959 299190.000000 1 0 0
-12.692661 -8.189722 -12.346137 19.509031 0.573017 2.256015 0.040770 -0.013181 348266.000000 1 0 0
-15.675661 -13.034422 3.181663 20.633601 0.693659 1.415980 0.054138 -0.010432 146715.000000 1 0 0
-6.204661 -14.313922 -13.077537 20.357017 1.161773 2.268434 0.027241 -0.003151 503459.000000 1 0 0
-13.947561 -11.151922 -6.732137 19.084588 0.674473 1.931307 0.041727 -0.026679 110703.000000 1 0 0
-11.828461 -10.729122 -8.151237 17.929563 0.736702 2.042748 0.034945 -0.004323 267710.000000 1 0 0
-9.888161 -14.769422 3.656863 18.146190 0.980833 1.367884 0.011748 -0.007497 578682.000000 1 0 0
5.221139 -18.255922 7.831063 20.539341 -1.292235 1.179625 0.052805 -0.030433 271115.000000 1 0 0
-4.938661 -16.701022 5.273763 18.196898 1.283280 1.276761 0.003729 0.000494 320964.000000 1 0 0
-18.479961 -7.362422 -6.888237 21.051414 0.379127 1.904146 0.043547 -0.024302 153492.000000 1 0 0
-17.017361 -4.887622 -10.833537 20.756805 0.279686 2.119905 0.068474 -0.005982 -258896.000000 1 0 0
-15.688561 -4.284922 -12.890337 20.752163 0.266621 2.241014 0.058031 -0.017946 350294.000000 1 0 0
-19.452861 -4.960122 -6.017837 20.957838 0.249662 1.862036 0.054656 -0.021471 -62788.900000 1 0 0
5.354739 -13.708922 8.770763 17.132836 -1.198417 1.033370 0.019178 -0.002103 307555.000000 1 0 0
19.640539 -3.671522 2.996563 20.204213 -0.184803 1.421933 0.022979 -0.002934 -146859.000000 1 0 0
17.899539 -2.476522 -0.053737 18.070128 -0.137484 1.573770 0.018449 -0.007869 178170.000000 1 0 0
14.370139 -11.464622 0.289163 18.385376 -0.673403 1.555068 0.046404 0.002448 210356.000000 1 0 0
10.987239 -13.635022 5.300663 18.295635 -0.892523 1.276859 0.030789 -0.010246 529611.000000 1 0 0
10.014239 -12.750922 8.182063 18.160869 -0.905038 1.103434 0.036015 -0.029389 36890.100000 1 0 0
17.664739 5.108678 -4.589537 18.952716 0.281521 1.815385 -0.005272 0.002815 -2386.800000 1 0 0
19.228339 -6.053822 -4.864637 20.737465 -0.305014 1.807585 0.068368 -0.020977 -144946.000000 1 0 0
17.808839 -10.040022 -0.341637 20.446846 -0.513351 1.587506 0.068985 -0.006493 519176.000000 1 0 0
17.757139 -8.690422 8.693663 21.596740 -0.455135 1.156501 0.093800 -0.026690 12179.800000 1 0 0
20.079439 -0.017022 -1.970037 20.175857 -0.000848 1.668595 0.061464 -0.006174 -189288.000000 1 0 0
7.357539 -13.603922 11.466463 19.253048 -1.075013 0.932826 0.018428 0.004926 402548.000000 1 0 0
16.279839 -6.230922 -3.388437 17.757788 -0.365538 1.762788 0.043205 -0.007555 383602.000000 1 0 0
14.244339 -7.041122 11.464563 19.593744 -0.459085 0.945776 0.032364 -0.044504 312308.000000 1 0 0
17.138839 1.224678 9.349563 19.561543 0.071335 1.072470 0.090807 -0.028524 380601.000000 1 0 0
16.574539 -9.806022 2.688163 19.444784 -0.534244 1.432106 0.024869 -0.014180 276045.000000 1 0 0
16.037139 -6.868422 -5.583837 18.317867 -0.404647 1.880556 0.043840 -0.018082 217557.000000 1 0 0
18.668839 -4.953222 5.767063 20.157355 -0.259345 1.280640 0.127920 -0.014587 -181607.000000 1 0 0
13.655739 -13.592522 7.979063 20.854287 -0.783078 1.178176 0.064991 -0.016114 168191.000000 1 0 0
15.341439 -14.301222 -1.442637 21.022985 -0.750321 1.639472 0.054525 -0.006331 110707.000000 1 0 0
18.722639 -6.405522 8.172163 21.409161 -0.329644 1.179147 0.073112 -0.025036 234544.000000 1 0 0
19.375939 3.109278 2.677663 19.805668 0.159115 1.435184 0.049450 -0.007833 164492.000000 1 0 0
15.775739 -11.042922 8.047863 20.870749 -0.610722 1.174933 0.063294 -0.027760 157656.000000 1 0 0
14.197439 -4.327022 10.843763 18.381447 -0.295832 0.939824 0.034920 -0.013983 -34308.900000 1 0 0
18.749439 -7.636722 1.892863 20.333320 -0.386787 1.477570 0.063957 -0.012617 187718.000000 1 0 0
19.057139 -5.130322 -1.588337 19.799433 -0.262973 1.651104 0.047701 -0.011812 260740.000000 1 0 0
14.798439 -13.405722 -6.493637 20.997011 -0.736058 1.885216 0.066655 -0.016648 419420.000000 1 0 0
13.862539 -9.616722 10.112363 19.670059 -0.606499 1.030839 0.029883 -0.023458 457034.000000 1 0 0
14.386439 2.530878 0.653463 14.621969 0.174139 1.526091 -0.000664 0.003166 -113321.000000 1 0 0
12.704439 2.328878 13.629963 18.777709 0.181299 0.758514 0.009700 -0.004787 295760.000000 1 0 0
18.392439 -3.598822 9.153263 20.857026 -0.193227 1.116469 0.057086 -0.020879 215931.000000 1 0 0
7.025439 -18.604222 5.059863 20.520138 -1.209725 1.321646 0.049016 -0.029615 336996.000000 1 0 0
12.731739 -3.074122 15.036663 19.941129 -0.236919 0.716586 0.030281 -0.001794 360608.000000 1 0 0
11.202839 -13.133522 -7.105337 18.667587 -0.864566 1.961268 0.032423 -0.017009 -413.251000 1 0 0
10.560439 -17.674022 4.527663 21.080646 -1.032208 1.354332 0.041488 -0.018204 442258.000000 1 0 0
18.263639 -0.228022 -5.417537 19.051567 -0.012484 1.859137 0.029869 -0.015085 78821.100000 1 0 0
4.024939 -13.294122 11.534463 18.054851 -1.276809 0.877785 -0.003930 -0.008260 -328489.000000 1 0 0
9.190339 -2.817522 14.177163 17.128710 -0.297477 0.595828 0.014790 -0.008104 424215.000000 1 0 0
8.940639 -9.260722 14.237063 19.193488 -0.802982 0.735098 0.016456 -0.001889 406585.000000 1 0 0
20.851139 5.497878 -3.385037 21.827852 0.257805 1.726504 0.069310 -0.010637 241481.000000 1 0 0
14.779039 -13.759322 2.102463 20.301706 -0.749682 1.467049 0.040460 0.003142 223162.000000 1 0 0
10.850839 0.148078 14.203963 17.874988 0.013646 0.652402 0.025710 -0.026037 58376.000000 1 0 0
19.439539 0.432278 7.871163 20.977077 0.022233 1.186155 0.071768 -0.021735 18478.800000 1 0 0
20.137739 1.286178 0.287863 20.180824 0.063782 1.556532 0.067904 -0.004604 408989.000000 1 0 0
18.122939 -0.089922 3.502663 18.458539 -0.004962 1.379880 0.034165 -0.001248 -561.785000 1 0 0
10.329939 -8.184322 16.609763 21.203184 -0.670023 0.670740 0.030966 0.002208 127966.000000 1 0 0
19.018439 3.125778 5.557563 20.058864 0.162899 1.290061 0.046855 -0.005386 170982.000000 1 0 0
15.297139 2.566378 7.221463 17.109596 0.166221 1.135068 0.019135 -0.006910 29546.400000 1 0 0
11.613439 -15.948422 1.971063 19.826982 -0.941402 1.471219 0.030601 -0.001482 282452.000000 1 0 0
8.345239 -16.542622 7.032863 19.818237 -1.103580 1.208023 0.040657 -0.003512 225119.000000 1 0 0
6.142539 6.954278 7.088363 11.676372 0.847299 0.918429 0.000296 -0.000498 -771233.000000 1 0 0
18.548339 2.589678 -6.505237 19.825877 0.138721 1.905107 0.023137 -0.003730 213858.000000 1 0 0
14.345939 4.425078 -7.163337 16.634322 0.299196 2.015994 0.018798 -0.003898 283598.000000 1 0 0
-10.445461 -4.024422 -13.974337 17.904908 0.367752 2.466222 0.018844 -0.000471 -125810.000000 1 0 0
7.831339 -14.175422 -10.382537 19.237191 -1.066067 2.140891 0.016447 0.008189 -288431.000000 1 0 0
1.983839 -15.981022 13.835463 21.230844 -1.447291 0.861015 0.001926 -0.008532 383383.000000 1 0 0
-9.579561 -8.096522 2.168363 12.728844 0.701693 1.399611 0.009990 -0.001625 378578.000000 1 0 0
-13.913961 3.089578 -9.720937 17.252258 -0.218504 2.169363 0.034278 -0.003922 337713.000000 1 0 0
-12.865661 -5.223022 -13.293937 19.223266 0.385639 2.334435 0.034636 0.004019 133331.000000 1 0 0
-18.003161 -1.382522 -8.692137 20.039422 0.076643 2.019449 0.081028 -0.029379 463418.000000 1 0 0
-12.414061 14.992878 4.698563 20.024280 -0.879216 1.333945 0.017247 -0.017220 300260.000000 1 0 0
-17.447761 6.594178 9.148663 20.775120 -0.361344 1.114790 0.022002 -0.005551 191629.000000 1 0 0
-13.579161 15.335678 -0.289437 20.485615 -0.846072 1.584926 0.039496 -0.026019 144960.000000 1 0 0
-16.904561 5.355478 -10.242737 20.478257 -0.306804 2.094599 0.108943 -0.017008 -81999.700000 1 0 0
-18.228261 2.861678 0.081763 18.451704 -0.155720 1.566365 0.038418 -0.006546 -29540.900000 1 0 0
-9.842761 15.555078 -0.216337 18.408889 -1.006630 1.582548 0.016254 -0.005636 -84731.800000 1 0 0
-18.519061 12.104878 2.267463 22.240168 -0.578933 1.468665 0.113714 -0.031037 -79893.600000 1 0 0
-8.720861 16.174078 -7.827437 19.973056 -1.076292 1.973492 0.060805 -0.023054 129197.000000 1 0 0
-14.926561 -1.939222 -12.999337 19.888327 0.129194 2.283149 0.050756 -0.019525 101049.000000 1 0 0
-19.116361 5.252778 -4.623937 20.357007 -0.268161 1.799939 0.068269 -0.010692 -15157.000000 1 0 0
-16.774861 9.837478 -5.633537 20.246202 -0.530390 1.852770 0.059587 0.009192 117121.000000 1 0 0
-19.185661 1.199578 2.739363 19.417330 -0.062443 1.429246 0.046500 -0.014199 523607.000000 1 0 0
-14.116661 12.593078 -7.308137 20.279906 -0.728418 1.939454 0.047394 0.005758 24096.900000 1 0 0
-13.825361 5.193278 -12.532637 19.369505 -0.359327 2.274478 0.084742 -0.027147 -54525.700000 1 0 0
-13.987561 9.331678 -6.660837 18.085874 -0.588331 1.947965 0.031857 -0.008668 158631.000000 1 0 0
-6.718961 11.577278 -15.415537 20.416086 -1.044945 2.426554 0.021294 -0.021928 -327702.000000 1 0 0
-14.839061 13.963778 3.124863 20.614306 -0.755019 1.418623 0.013465 -0.019021 -60335.300000 1 0 0
-18.584261 8.104378 -5.285837 20.952226 -0.411225 1.825833 0.060880 -0.011736 235486.000000 1 0 0
-4.762861 16.144278 -11.470237 20.368821 -1.283916 2.168961 0.030569 -0.005549 112525.000000 1 0 0
-19.636161 -2.067522 -6.653837 20.835715 0.104905 1.895837 0.060985 -0.018932 -136681.000000 1 0 0
-10.925461 13.346378 -6.110937 18.298499 -0.884811 1.911296 0.028747 -0.028449 131896.000000 1 0 0
-19.201961 2.845578 4.273963 19.876604 -0.147121 1.354079 0.037200 -0.007697 25673.100000 1 0 0
-14.939761 12.158878 0.676263 19.274131 -0.683135 1.535703 0.014159 -0.017146 6682.080000 1 0 0
-16.998961 1.829678 -8.726237 19.195302 -0.107222 2.042722 0.018198 -0.011561 352916.000000 1 0 0
-16.996461 14.053278 -3.345837 22.306253 -0.690891 1.721360 0.066448 0.027536 323915.000000 1 0 0
-10.969061 15.630178 -8.506137 20.903998 -0.958872 1.989870 0.046656 -0.011967 36527.700000 1 0 0
-19.095761 2.504678 -6.734737 20.402897 -0.130420 1.907192 0.060124 -0.017661 254252.000000 1 0 0
-17.148061 10.371678 -0.390737 20.044460 -0.543964 1.590291 0.044532 -0.008784 -33385.300000 1 0 0
-11.465661 6.108378 -14.614637 19.554060 -0.489506 2.414931 0.029523 -0.022348 195029.000000 1 0 0
-13.687861 12.359878 -4.866937 19.073836 -0.734460 1.828813 0.046111 -0.020079 257556.000000 1 0 0
-18.731361 7.388978 -0.065937 20.136167 -0.375731 1.574071 0.041342 -0.012599 -22271.400000 1 0 0
-14.468061 8.906778 -10.592437 20.021369 -0.551823 2.128285 0.038263 0.001918 621385.000000 1 0 0
-18.084661 11.385978 5.048363 21.958630 -0.561895 1.338818 0.041329 -0.026027 251924.000000 1 0 0
-8.372961 11.823578 -13.579937 19.857446 -0.954616 2.323852 0.004645 -0.007176 452716.000000 1 0 0
-21.075961 -0.417122 -5.170337 21.704896 0.019789 1.811319 0.058440 -0.019208 133908.000000 1 0 0
-10.561561 13.304278 -2.836437 17.221956 -0.899818 1.736249 0.019965 -0.012830 369623.000000 1 0 0
-18.825061 -4.664622 3.587963 19.723466 0.242896 1.387864 0.046907 -0.026326 -93785.300000 1 0 0
-10.965461 11.090878 -13.755737 20.795894 -0.791084 2.293566 0.030285 -0.010467 295395.000000 1 0 0
-14.925061 10.839978 -9.984037 20.974832 -0.628156 2.066898 0.058752 -0.033075 215747.000000 1 0 0
-12.760261 9.364178 -14.095037 21.193918 -0.633088 2.298358 0.065772 -0.018528 250733.000000 1 0 0
-18.489061 -4.702322 -2.779437 19.279069 0.249050 1.715469 0.019020 -0.016259 -238058.000000 1 0 0
-9.860461 12.476678 -11.309037 19.513854 -0.901991 2.188959 0.027860 -0.016208 185422.000000 1 0 0
-15.669661 7.671378 -8.297737 19.319440 -0.455268 2.014737 0.036091 0.000498 -8402.850000 1 0 0
-14.670461 8.875078 1.948163 17.256442 -0.544060 1.457660 0.017209 -0.006010 19855.700000 1 0 0
-20.062961 6.021078 7.642763 22.297705 -0.291557 1.220943 0.076574 -0.010965 318482.000000 1 0 0
-18.829661 6.007278 3.638663 20.096851 -0.308825 1.388736 0.026593 -0.000888 225719.000000 1 0 0
-14.153761 12.931578 5.668663 19.992209 -0.740305 1.283309 0.006068 -0.015945 128393.000000 1 0 0
17.762439 6.221578 5.632563 19.645306 0.336912 1.280002 0.023681 -0.016810 143849.000000 1 0 0
18.390139 7.158078 0.622463 19.743929 0.371192 1.539264 0.044388 -0.009279 -68692.200000 1 0 0
15.968339 5.607078 9.183363 19.255164 0.337688 1.073638 0.009381 0.012834 74468.000000 1 0 0
12.072239 13.104778 10.843163 20.857813 0.826386 1.024108 0.028608 -0.006958 105979.000000 1 0 0
14.573239 13.224178 3.978063 20.076931 0.736904 1.371335 0.027600 0.002656 -54419.900000 1 0 0
5.360139 10.484378 14.327163 18.545104 1.098189 0.687937 0.007000 0.002257 216953.000000 1 0 0
12.508039 14.456078 -5.064337 19.775660 0.857518 1.829771 0.051859 0.013242 316813.000000 1 0 0
18.635739 9.206178 -2.519037 20.937765 0.458841 1.691399 0.080139 -0.011433 -135349.000000 1 0 0
14.608339 7.889478 9.581363 19.168984 0.495185 1.047386 0.033356 -0.001694 179926.000000 1 0 0
4.672339 19.080378 -1.932737 19.738973 1.330645 1.668868 0.027674 -0.018533 458778.000000 1 0 0
-4.656561 19.099178 3.290463 19.932118 -1.331652 1.404954 0.015735 -0.017643 222931.000000 1 0 0
6.631439 12.901478 12.680963 19.267354 1.096007 0.852427 0.008734 0.005769 -187858.000000 1 0 0
0.131339 17.331578 -10.232037 20.126982 1.563218 2.104092 0.018790 0.006189 -52971.900000 1 0 0
10.648139 9.248678 15.502263 20.958079 0.715178 0.738202 0.029954 -0.011488 13187.300000 1 0 0
-1.233661 12.269278 1.100863 12.380186 -1.470584 1.481757 -0.000291 -0.000965 498942.000000 1 0 0
-5.212061 19.117778 -2.594537 19.984660 -1.304636 1.700990 0.033788 0.010028 -12209.700000 1 0 0
5.498539 18.636778 6.243263 20.409355 1.283899 1.259911 0.028241 -0.015218 257908.000000 1 0 0
11.232039 17.406778 -1.534837 20.772827 0.997755 1.644750 0.060949 -0.016793 510922.000000 1 0 0
18.514339 10.475778 3.604863 21.575859 0.514908 1.402931 0.059306 -0.015352 226359.000000 1 0 0
11.593139 16.889978 6.028263 21.354442 0.969262 1.284610 0.039782 -0.004393 -332203.000000 1 0 0
17.844739 8.441878 -5.039837 20.374002 0.441876 1.820757 0.002453 0.024649 208469.000000 1 0 0
0.623039 16.151178 10.792763 19.435341 1.532240 0.982053 -0.001354 0.010164 292424.000000 1 0 0
1.144639 20.420978 -1.911937 20.542202 1.514803 1.664005 0.037028 -0.010429 299766.000000 1 0 0
14.335839 9.919678 -1.429837 17.491733 0.605303 1.652631 0.028665 -0.006774 -21166.000000 1 0 0
10.324639 16.822578 2.300163 19.871790 1.020337 1.454786 0.054257 -0.035253 281462.000000 1 0 0
-0.112661 17.831878 -0.578937 17.841629 -1.564478 1.603251 0.011133 -0.004897 74335.800000 1 0 0
-0.295161 20.970578 1.479263 21.024759 -1.556722 1.500380 0.026749 -0.011894 397507.000000 1 0 0
5.737939 17.415778 -0.299937 18.339117 1.252529 1.587152 0.022029 -0.023460 -61465.000000 1 0 0
7.581439 18.427678 -2.018937 20.028321 1.180488 1.671772 0.035713 -0.018021 36386.100000 1 0 0
10.280039 9.539778 12.641563 18.881093 0.748066 0.837213 0.012162 0.000017 154696.000000 1 0 0
12.417939 14.658878 8.131363 20.861615 0.867972 1.170408 0.029555 -0.017889 262276.000000 1 0 0
0.306939 17.621878 7.283163 19.070114 1.553380 1.178929 0.001793 -0.006339 238849.000000 1 0 0
7.764439 17.960078 -7.703637 21.028479 1.162745 1.945872 0.047303 -0.021377 87707.900000 1 0 0
-1.241261 18.330278 8.937963 20.431031 -1.503183 1.118013 0.028146 -0.028646 95462.400000 1 0 0
16.078839 6.900978 -8.001237 19.239863 0.405420 1.999693 0.038450 0.006122 -218816.000000 1 0 0
-5.131361 19.886578 -6.584737 21.567698 -1.318273 1.881056 0.018672 -0.004923 254990.000000 1 0 0
4.125439 15.596578 10.063463 19.014357 1.312209 1.013073 0.008844 -0.001888 208371.000000 1 0 0
8.924839 14.946978 7.559663 18.979289 1.032512 1.161121 0.014620 -0.004273 60246.500000 1 0 0
-2.860761 19.888378 6.284963 21.053083 -1.427935 1.267645 0.016562 -0.009763 178061.000000 1 0 0
4.879439 18.091878 8.377163 20.525639 1.307361 1.150390 0.023316 -0.011917 254960.000000 1 0 0
14.693739 12.227778 -5.919437 20.011603 0.694055 1.871089 0.051705 -0.010544 -17562.200000 1 0 0
11.743539 6.841878 15.575763 20.671875 0.527533 0.717463 0.035091 -0.005540 241554.000000 1 0 0
16.983039 9.920678 5.065863 20.310254 0.528685 1.318711 0.042847 -0.012109 101705.000000 1 0 0
5.133639 14.858778 11.907863 19.721428 1.238140 0.922533 0.001557 -0.019155 421075.000000 1 0 0
16.226139 10.830478 -3.640337 19.845374 0.588559 1.755276 0.073489 -0.019121 140837.000000 1 0 0
15.387239 13.959078 6.784863 21.855373 0.736771 1.255137 0.053641 0.000686 370052.000000 1 0 0
12.623939 14.451078 -8.132437 20.840682 0.852780 1.971666 0.107689 -0.037631 185199.000000 1 0 0
-8.422161 15.591978 9.429463 20.073798 -1.075539 1.081800 0.033242 -0.016168 191013.000000 1 0 0
-4.684661 17.814878 -7.921337 20.051521 -1.313654 1.976918 0.017594 0.044635 120588.000000 1 0 0
2.387139 20.170578 -4.390737 20.780501 1.452997 1.783692 0.034032 -0.009885 100210.000000 1 0 0
7.195439 15.891278 8.943963 19.603610 1.145623 1.097030 0.029649 -0.028211 331564.000000 1 0 0
13.737839 15.194578 -1.746637 20.558554 0.835705 1.655858 0.103065 -0.032117 75037.400000 1 0 0
13.223039 16.153778 4.620863 21.380965 0.884833 1.352957 0.067199 -0.030053 172741.000000 1 0 0
2.409339 18.433778 0.512763 18.597635 1.440831 1.543221 0.019145 -0.019123 42819.300000 1 0 0
-7.534161 17.521578 1.218563 19.111624 -1.164704 1.506993 0.011473 0.007908 319360.000000 1 0 0
0.667739 19.435678 -6.154637 20.397819 1.536453 1.877303 0.047449 -0.022175 243276.000000 1 0 0
-7.313461 17.937478 -6.405637 20.402745 -1.183653 1.890157 0.046752 -0.014187 85243.400000 1 0 0
-7.502461 18.560778 -1.635237 20.086399 -1.186665 1.652297 0.037796 0.001083 60455.400000 1 0 0
-14.737261 -9.170722 8.340363 19.257484 0.556642 1.122870 0.058456 -0.031141 467540.000000 1 0 0
-13.226161 -13.468922 8.027363 20.512966 0.794492 1.168719 0.056739 -0.008941 138192.000000 1 0 0
-3.812061 -15.987622 12.645563 20.737554 1.336729 0.915000 0.031353 -0.008687 -13090.600000 1 0 0
-1.835961 -15.041522 15.320763 21.548641 1.449338 0.779898 0.019918 -0.009004 440524.000000 1 0 0
-7.294861 -13.764522 13.740063 20.771770 1.083457 0.848009 0.037774 -0.006035 235322.000000 1 0 0
-9.975061 -11.335022 11.576463 19.026273 0.849129 0.916695 0.058819 -0.006409 -33702.200000 1 0 0
-7.222161 -10.376722 12.857063 18.031640 0.962762 0.776989 0.034660 -0.011255 436779.000000 1 0 0
-15.397061 -12.205022 7.032563 20.868373 0.670265 1.227072 0.073716 -0.016161 388333.000000 1 0 0
-4.552861 -12.551722 13.198663 18.774424 1.222828 0.791171 0.033137 -0.010773 399742.000000 1 0 0
3.663339 -12.555422 13.963463 19.132093 -1.286904 0.752701 -0.001107 0.003395 643690.000000 1 0 0
6.670039 -13.502722 14.774863 21.097618 -1.111978 0.794965 0.022856 0.001876 322859.000000 1 0 0
7.006739 -9.181122 16.618163 20.237360 -0.918921 0.607351 0.008236 -0.001661 491861.000000 1 0 0
-5.211961 13.581278 13.324863 19.727332 -1.204367 0.829219 0.012057 -0.009716 574898.000000 1 0 0
-13.686861 -1.493922 17.115163 21.965673 0.108720 0.677443 0.031379 -0.015959 162602.000000 1 0 0
-10.014861 8.946578 13.487563 19.032947 -0.729118 0.783223 0.011695 -0.022068 445226.000000 1 0 0
-7.376061 -8.316022 17.077263 20.376345 0.845227 0.577019 0.041190 -0.013094 197944.000000 1 0 0
-5.036261 2.163978 18.120563 18.931496 -0.405828 0.293750 0.032043 -0.010168 550201.000000 1 0 0
-15.792761 -3.580322 13.875363 21.325002 0.222938 0.862341 0.051588 -0.019720 -1539.760000 1 0 0
-14.637461 2.859578 12.607163 19.528774 -0.192930 0.869029 0.015433 -0.000004 200116.000000 1 0 0
-14.146161 10.706578 9.780563 20.258433 -0.647873 1.066959 -0.030279 0.011969 -127272.000000 1 0 0
-4.711561 11.197978 15.491363 19.686946 -1.172530 0.665051 0.029258 -0.010177 251218.000000 1 0 0
-13.308361 12.920178 8.191063 20.276514 -0.770599 1.154946 0.016906 -0.023918 216802.000000 1 0 0
-3.966461 -6.335622 18.524563 19.975795 1.011437 0.383527 0.031854 -0.016572 250120.000000 1 0 0
1.146639 -3.279022 18.342463 18.668496 -1.234398 0.187165 0.023670 -0.012256 82326.200000 1 0 0
-4.512061 6.375478 21.177563 22.571987 -0.954907 0.353337 0.037515 -0.006814 428971.000000 1 0 0
2.269239 -10.682822 16.525163 19.807906 -1.361488 0.583987 0.012037 -0.005434 299337.000000 1 0 0
-15.073361 -0.319322 13.708863 20.377466 0.021181 0.832882 0.004980 -0.002058 60713.100000 1 0 0
-14.323561 -5.857322 7.598463 17.239759 0.388180 1.114360 0.037086 -0.015529 128965.000000 1 0 0
10.053639 0.626778 16.574263 19.395224 0.062263 0.546105 0.030562 0.004032 604043.000000 1 0 0
-7.819561 12.022278 11.561863 18.421656 -0.994124 0.892300 0.024684 -0.025761 143105.000000 1 0 0
-1.615361 7.465878 19.892963 21.309123 -1.357715 0.366626 0.018923 -0.018464 475455.000000 1 0 0
1.196839 -14.162622 15.695363 21.174435 -1.486490 0.735879 -0.012127 0.007600 613247.000000 1 0 0
-3.037261 -11.289422 17.723063 21.231650 1.307983 0.583123 0.036533 -0.028865 533249.000000 1 0 0
-2.241161 8.522978 16.632163 18.822668 -1.313662 0.487249 0.015558 -0.018553 525831.000000 1 0 0
-5.930461 -9.039622 19.778263 22.540294 0.990178 0.500250 0.096377 -0.036411 121772.000000 1 0 0
-6.749861 -2.841122 19.094763 20.450980 0.398406 0.366229 0.025927 -0.017434 336401.000000 1 0 0
-10.836361 -8.080422 15.726563 20.737520 0.640728 0.709999 0.065197 -0.021802 308246.000000 1 0 0
-0.556961 6.033078 17.707763 18.715585 -1.478739 0.329666 0.014189 -0.015466 102972.000000 1 0 0
-6.282061 -11.357822 18.708863 22.770287 1.065573 0.606523 0.079084 -0.026577 450527.000000 1 0 0
0.447239 3.622078 18.852663 19.202666 1.447942 0.191219 0.011060 -0.005102 -31965.600000 1 0 0
-17.815561 -1.484822 7.387963 19.343757 0.083152 1.178912 0.016386 -0.005943 144564.000000 1 0 0
-1.530361 -8.582822 17.351163 19.418283 1.394346 0.465610 0.015072 -0.012983 272884.000000 1 0 0
5.926939 3.471778 15.055063 16.548014 0.529885 0.428041 0.003419 -0.004930 574637.000000 1 0 0
-14.203461 -6.909522 10.214663 18.810081 0.452763 0.996741 0.057275 -0.013115 68536.000000 1 0 0
3.772539 8.427478 16.430163 18.846875 1.149901 0.511990 0.008155 -0.011896 147916.000000 1 0 0
6.197939 4.455378 17.786363 19.355091 0.623264 0.405386 0.024005 -0.018953 282314.000000 1 0 0
4.327039 -9.716622 17.883463 20.807553 -1.151838 0.536565 -0.003914 -0.002002 463189.000000 1 0 0
-4.593361 -0.538922 19.590963 20.129462 0.116792 0.231827 0.031246 -0.019382 689971.000000 1 0 0
-11.102261 1.796878 17.100263 20.467242 -0.160457 0.581765 0.039543 -0.009564 151907.000000 1 0 0
-16.827061 -3.722822 8.914463 19.403017 0.217733 1.093435 0.045906 -0.019975 464722.000000 1 0 0
-12.991961 -9.484022 11.849063 19.978439 0.630572 0.935902 0.042001 -0.035387 191558.000000 1 0 0
-14.776461 6.003878 13.108663 20.645276 -0.385937 0.882856 0.020672 -0.013782 284166.000000 1 0 0
1.177139 9.124078 16.943663 19.280098 1.442491 0.497421 0.007435 -0.017881 -7323.190000 1 0 0
-3.732661 -10.580422 15.124463 18.831556 1.231639 0.638242 0.029365 -0.006354 576367.000000 1 0 0
-18.216161 -4.753922 7.109763 20.124041 0.255279 1.209703 0.083017 -0.010183 -269498.000000 1 0 0
-0.743361 -0.608622 20.839263 20.861398 0.686066 0.046069 0.028752 -0.022129 373113.000000 1 0 0
-1.675661 2.560078 20.281163 20.510666 -0.991239 0.149736 0.025874 -0.014300 -684236.000000 1 0 0
-8.020861 2.239278 16.357063 18.354893 -0.272250 0.470911 0.016403 0.001150 585543.000000 1 0 0
2.728339 -1.640522 19.139663 19.402625 -0.541367 0.164825 0.011295 -0.001688 88281.300000 1 0 0
-12.579161 4.474478 13.783863 19.189871 -0.341749 0.769457 0.005462 -0.021593 197916.000000 1 0 0
-13.437261 -5.892322 13.598063 20.004669 0.413255 0.823382 0.037204 -0.007397 85967.500000 1 0 0
-17.624861 -0.430322 9.972963 20.255392 0.024411 1.055996 0.056969 -0.016423 -12114.000000 1 0 0
-7.426561 7.858178 14.588663 18.158576 -0.813629 0.637807 0.016326 -0.016660 13211.000000 1 0 0
-9.514461 0.806378 14.061863 16.997389 -0.084551 0.596520 0.015381 -0.005847 230554.000000 1 0 0
7.430539 -0.885122 14.904563 16.677600 -0.118561 0.465299 0.011118 -0.006556 185252.000000 1 0 0
3.749439 6.426678 18.475463 19.917410 1.042659 0.382850 0.004474 -0.001330 79880.800000 1 0 0
1.197539 0.634178 20.140663 20.186198 0.487021 0.067180 0.005796 -0.003602 88373.400000 1 0 0
-6.845261 7.179878 17.771163 20.352457 -0.809252 0.509127 0.012398 -0.011467 380120.000000 1 0 0
7.541039 -3.040722 16.889563 18.744882 -0.383282 0.448675 0.013143 0.002997 386420.000000 1 0 0
-16.208661 2.647078 9.362663 18.904687 -0.161883 1.052667 0.019449 -0.007893 126827.000000 1 0 0
4.565439 -5.667922 18.994863 20.341421 -0.892718 0.365900 0.045760 -0.022345 186264.000000 1 0 0
-3.945661 -3.768222 20.451763 21.167011 0.762400 0.260702 0.030179 -0.020815 326093.000000 1 0 0
-9.856861 5.787478 14.466263 18.437066 -0.530919 0.668698 0.021947 -0.020454 108072.000000 1 0 0
6.351439 2.625078 19.799163 20.958022 0.391923 0.334100 0.046564 -0.018409 49867.500000 1 0 0
-7.228861 10.981978 14.499463 19.572806 -0.988645 0.736541 0.016472 -0.024548 242287.000000 1 0 0
-14.500661 5.179978 8.988363 17.829527 -0.343096 1.042424 0.011920 -0.012944 371770.000000 1 0 0
0.699639 -5.457622 20.465263 21.192030 -1.443297 0.262649 0.034856 -0.020991 254974.000000 1 0 0
-5.939361 -8.048622 13.806063 17.048863 0.935062 0.626996 0.015478 -0.004711 127567.000000 1 0 0
-12.832661 10.265978 6.422663 17.644209 -0.674734 1.198227 -0.008277 -0.012850 183853.000000 1 0 0
-19.462361 1.968878 7.728963 21.033232 -0.100820 1.194515 0.024640 -0.010512 -96460.000000 1 0 0
-15.539461 8.834278 6.602563 19.055529 -0.516940 1.216969 -0.001228 -0.009940 125982.000000 1 0 0
-12.977761 7.436178 14.323963 20.709779 -0.520325 0.807022 0.029894 -0.021016 157274.000000 1 0 0
-16.580561 8.985578 10.545063 21.606804 -0.496630 1.060949 0.028485 -0.012839 220513.000000 1 0 0
2.572439 10.377178 14.697163 18.174429 1.327801 0.628904 0.003323 -0.036095 149219.000000 1 0 0
1.571939 14.737078 12.754563 19.553295 1.464533 0.860185 0.003175 -0.020566 574015.000000 1 0 0
8.862439 4.978578 16.603463 19.468027 0.511828 0.549362 0.026532 -0.007654 206778.000000 1 0 0
-0.248461 13.309078 13.504363 18.962097 -1.552130 0.778202 0.000473 0.010166 249195.000000 1 0 0
3.686539 12.736878 14.672063 19.775947 1.289057 0.734875 0.003907 -0.001553 115483.000000 1 0 0
-3.751061 -4.471722 -13.849937 15.029554 0.872817 2.742756 0.012791 -0.004552 70874.000000 1 0 0
5.718239 -12.179622 16.888363 21.593014 -1.131851 0.672733 -0.016091 0.019969 276518.000000 1 0 0
8.525139 -14.042322 7.292363 17.973407 -1.025170 1.153018 0.021816 -0.006198 225117.000000 1 0 0
-0.522761 15.332378 0.367663 15.345692 -1.536714 1.546835 0.005002 -0.004554 -621941.000000 1 0 0
-14.248061 7.826278 8.752363 18.462441 -0.502296 1.076897 0.009401 -0.001537 112490.000000 1 0 0
-16.233061 -9.435622 4.649463 19.343235 0.526526 1.328053 0.051528 -0.012423 206643.000000 1 0 0
8.918739 -10.614422 11.452363 17.982394 -0.871992 0.880371 0.007666 0.002256 216031.000000 1 0 0
-25.735881 5.997878 31.274888 40.944215 -0.228968 0.701552 0.049721 -0.027990 -416796.000000 0 0 1
-24.513961 5.506978 30.809128 39.755044 -0.220978 0.684122 0.039413 -0.026748 -342802.000000 0 0 1
-23.722761 5.050178 31.860708 40.042208 -0.209752 0.650670 0.031698 -0.012866 446002.000000 0 0 1
-22.418761 4.317078 31.365618 38.794845 -0.190237 0.629198 0.023260 -0.010874 182438.000000 0 0 1
-22.673661 3.027178 30.824468 38.384978 -0.132726 0.638426 0.036132 -0.024653 -50084.600000 0 0 1
-21.668661 2.332778 30.076698 37.142705 -0.107244 0.627052 0.027397 -0.028088 41031.300000 0 0 1
-20.813961 1.355278 30.896318 37.277879 -0.065022 0.593817 0.023605 -0.026866 -206911.000000 0 0 1
-21.556061 0.274478 31.371808 38.064806 -0.012733 0.602064 0.032786 -0.010112 -158152.000000 0 0 1
-21.000761 -0.290622 32.520649 38.713164 0.013838 0.573437 0.034154 -0.013401 20459.900000 0 0 1
-21.561061 -1.731322 32.840044 39.323598 0.080127 0.582440 0.057877 -0.027827 -23112.100000 0 0 1
-21.178661 -2.757022 31.954448 38.434667 0.129451 0.589180 0.069630 -0.035271 68087.100000 0 0 1
-21.347661 -4.082322 32.408700 39.021941 0.188949 0.590747 0.074391 -0.039144 44649.000000 0 0 1
-22.722161 -4.713122 32.016568 39.542013 0.204524 0.627181 0.060472 -0.025210 722130.000000 0 0 1
-23.876561 -4.401122 32.789699 40.799809 0.182282 0.637354 0.051326 -0.015598 569399.000000 0 0 1
-24.005561 -4.924022 -33.971707 41.887824 0.202314 2.516683 0.043703 -0.016157 -277602.000000 0 0 1
-25.421191 -4.662822 -33.398187 42.230531 0.181406 2.483000 0.034329 -0.006982 241440.000000 0 0 1
-25.376601 -5.103122 -32.059407 41.204603 0.198449 2.462358 0.038733 -0.010300 247208.000000 0 0 1
-26.570171 -4.775522 -31.389527 41.401473 0.177834 2.431305 0.045217 -0.013379 -309990.000000 0 0 1
-26.528861 -5.253722 -29.964037 40.363666 0.195508 2.407370 0.036653 -0.006368 -506271.000000 0 0 1
-26.773221 -6.643422 -29.963207 40.727560 0.243224 2.397494 0.036495 -0.014301 615569.000000 0 0 1
-26.343831 -7.201922 -28.733047 39.641558 0.266861 2.381571 0.027862 -0.005602 -295675.000000 0 0 1
-26.630101 -8.676422 -28.603737 40.032691 0.314967 2.366719 0.031726 -0.011789 -484631.000000 0 0 1
-27.961651 -8.949722 -28.247137 40.741284 0.309768 2.336896 0.041694 -0.020020 -218960.000000 0 0 1
-28.074921 -10.337122 -28.054817 41.013779 0.352794 2.324075 0.050699 -0.014570 -938579.000000 0 0 1
-29.467231 -10.525022 -27.528447 41.676242 0.343054 2.292322 0.100458 -0.018216 -921147.000000 0 0 1
-29.669141 -11.818522 -26.913517 41.764492 0.379078 2.271050 0.110248 -0.019868 408862.000000 0 0 1
-30.989201 -11.811422 -26.348627 42.356704 0.364148 2.242174 0.104154 -0.020108 555633.000000 0 0 1
-31.182061 -12.598822 -25.049827 41.935010 0.383985 2.210987 0.094298 -0.017820 -416702.000000 0 0 1
-30.411941 -12.021622 -24.064437 40.601757 0.376442 2.205196 0.091353 -0.017548 -252291.000000 0 0 1
-30.613261 -12.481222 -22.765237 40.139864 0.387132 2.173835 0.092266 -0.015027 -170232.000000 0 0 1
-30.132321 -11.617022 -21.542837 38.820173 0.367973 2.159086 0.094238 -0.015415 37700.100000 0 0 1
-30.160151 -12.102922 -20.180637 38.254066 0.381617 2.126501 0.097217 -0.010768 -13980.500000 0 0 1
-29.069441 -12.957122 -19.964537 37.569963 0.419297 2.131044 0.090558 -0.011753 -275483.000000 0 0 1
-28.717841 -13.285722 -18.462037 36.634296 0.433307 2.098968 0.081888 -0.020664 168453.000000 0 0 1
-28.208661 -12.074222 -17.859237 35.503067 0.404436 2.097902 0.068189 -0.024932 377193.000000 0 0 1
-27.692831 -12.393122 -16.565437 34.567269 0.420790 2.070566 0.079261 -0.037319 91652.500000 0 0 1
-27.266731 -11.276322 -15.584537 33.369265 0.392138 2.056728 0.071514 -0.030558 -280521.000000 0 0 1
-26.043471 -10.713722 -15.987337 32.382729 0.390277 2.087135 0.060307 -0.030885 57391.100000 0 0 1
-25.699081 -9.521722 -15.303537 31.389556 0.354827 2.080062 0.059091 -0.038727 -359426.000000 0 0 1
-24.262461 -8.982922 -15.456737 30.137528 0.354591 2.109325 0.063151 -0.035077 -346618.000000 0 0 1
-23.357061 -9.736422 -14.681237 29.255580 0.394948 2.096506 0.070096 -0.034265 -624424.000000 0 0 1
-22.268761 -8.873222 -14.518337 28.025237 0.379179 2.115360 0.098213 -0.044380 -540762.000000 0 0 1
-21.279561 -9.413422 -13.437037 26.869801 0.416490 2.094487 0.080837 -0.033288 520600.000000 0 0 1
-20.398461 -10.469022 -13.908937 26.817087 0.474172 2.116079 0.074393 -0.023844 1207150.000000 0 0 1
-19.183461 -10.577322 -13.153437 25.551865 0.503900 2.111540 0.086311 -0.022414 697496.000000 0 0 1
-18.272261 -11.626622 -13.836037 25.699996 0.566683 2.139295 0.084550 -0.013725 -52508.900000 0 0 1
-17.673961 -11.275822 -15.112337 25.843680 0.567886 2.195380 0.094242 -0.022505 320383.000000 0 0 1
-18.498761 -11.295222 -16.260337 27.095844 0.548172 2.214428 0.087605 -0.028728 -356791.000000 0 0 1
-17.760461 -10.783122 -17.494937 27.162152 0.545654 2.270633 0.100886 -0.039911 -576032.000000 0 0 1
-18.515161 -10.983422 -18.648637 28.481896 0.535414 2.284653 0.062970 -0.028142 -206690.000000 0 0 1
-18.057361 -10.471622 -19.841437 28.799406 0.525516 2.330840 0.069828 -0.034992 -115998.000000 0 0 1
-19.047561 -10.749222 -21.013537 30.330250 0.513783 2.336195 0.085846 -0.028246 1013310.000000 0 0 1
-20.293561 -10.053022 -21.012837 30.893870 0.459945 2.318780 0.063965 -0.035528 1150610.000000 0 0 1
-21.330261 -10.547222 -21.878037 32.324486 0.459216 2.314238 0.079289 -0.019526 1003850.000000 0 0 1
-22.315361 -9.413522 -22.261137 32.896017 0.399191 2.314084 0.062961 -0.019628 -145172.000000 0 0 1
-21.723761 -8.535422 -23.214537 32.919446 0.374377 2.353491 0.070848 -0.038102 563950.000000 0 0 1
-22.528261 -8.351722 -24.406337 34.248257 0.355015 2.364036 0.065329 -0.029190 -146913.000000 0 0 1
-21.850961 -7.654422 -25.560767 34.487787 0.336943 2.405584 0.063669 -0.034396 -1237060.000000 0 0 1
-20.867061 -8.412522 -26.116567 34.471435 0.383218 2.430469 0.063273 -0.039956 -832729.000000 0 0 1
-20.128661 -7.621522 -27.013577 34.539599 0.361958 2.468832 0.059331 -0.047657 -147671.000000 0 0 1
-18.941461 -8.392022 -27.619777 34.526179 0.417060 2.498035 0.057578 -0.041816 130537.000000 0 0 1
-19.489861 -9.519222 -28.338227 35.686487 0.454340 2.488303 0.054627 -0.032479 925619.000000 0 0 1
-18.371061 -10.242222 -28.809427 35.670465 0.508598 2.510961 0.035862 -0.023023 395267.000000 0 0 1
-18.836461 -11.400522 -29.764007 37.022699 0.544261 2.504686 0.033811 -0.015810 -95325.100000 0 0 1
-19.387161 -11.020222 -30.985587 38.176091 0.516882 2.517766 0.035960 -0.013770 233930.000000 0 0 1
-19.431961 -12.082022 -31.873857 39.236706 0.556266 2.518963 0.029576 -0.015802 -91359.000000 0 0 1
-20.076461 -11.832722 -33.248837 40.602497 0.532576 2.530265 0.030321 -0.014821 -289008.000000 0 0 1
-19.387361 -10.936522 33.961764 40.606388 0.513608 0.580178 0.029290 -0.015288 -18867.700000 0 0 1
-19.775261 -10.899722 32.573221 39.634324 0.503748 0.606157 0.032566 -0.020706 -405433.000000 0 0 1
-19.357361 -12.094122 31.752808 39.105192 0.558442 0.623252 0.047659 -0.019222 231552.000000 0 0 1
-17.939961 -12.033022 31.584438 38.265031 0.590816 0.599864 0.049633 -0.022739 696279.000000 0 0 1
-17.330561 -12.910322 30.636128 37.491294 0.640258 0.614342 0.058781 -0.020183 141141.000000 0 0 1
-17.484061 -14.475322 30.829768 38.284487 0.691532 0.634647 0.055003 -0.014672 -822323.000000 0 0 1
-18.771261 -15.009822 30.721658 39.006093 0.674507 0.663873 0.045331 -0.012216 -477703.000000 0 0 1
-18.694561 -16.433622 30.810948 39.608902 0.721124 0.679512 0.055260 -0.016545 136675.000000 0 0 1
-18.898561 -16.992122 32.221078 41.037613 0.732330 0.667842 0.029067 -0.018077 -524191.000000 0 0 1
-17.853461 -16.695122 33.092254 41.140861 0.751883 0.636191 0.043922 -0.022040 -651057.000000 0 0 1
-18.311461 -16.365322 -33.678317 41.681679 0.729335 2.511526 0.033936 -0.021888 267024.000000 0 0 1
-17.187861 -15.790822 -32.780297 40.240781 0.743062 2.522842 0.043858 -0.021264 432084.000000 0 0 1
-16.630161 -14.557822 -33.226607 39.906138 0.719049 2.554616 0.034375 -0.019646 335023.000000 0 0 1
-15.455261 -14.109122 -32.518357 38.670091 0.739897 2.569773 0.041448 -0.018925 374509.000000 0 0 1
-15.590261 -13.465622 -31.120867 37.321409 0.712406 2.556862 0.054426 -0.017053 -231316.000000 0 0 1
-15.911661 -14.517622 -30.195957 37.090944 0.739618 2.521984 0.047726 -0.020468 -159365.000000 0 0 1
-16.285661 -14.113222 -28.915407 36.062536 0.714055 2.501119 0.033009 -0.015583 -277714.000000 0 0 1
-16.389661 -15.337422 -27.893667 35.803829 0.752245 2.463976 0.056265 -0.015902 -425329.000000 0 0 1
-15.217361 -15.943922 -27.455357 35.207575 0.808710 2.465165 0.079583 -0.027140 -418088.000000 0 0 1
-14.554561 -16.758522 -28.429737 36.068452 0.855667 2.478701 0.076076 -0.027908 -484922.000000 0 0 1
-13.142161 -17.225222 -28.056167 35.448176 0.919052 2.484007 0.102826 -0.025376 -465930.000000 0 0 1
-12.235861 -16.191122 -28.327027 34.846652 0.923648 2.519920 0.089610 -0.022783 -101954.000000 0 0 1
-10.940761 -16.497322 -27.818667 34.142936 0.985209 2.523130 0.097548 -0.025015 886660.000000 0 0 1
-9.732861 -15.798422 -28.524857 34.029196 1.018648 2.564856 0.076181 -0.035167 335486.000000 0 0 1
-9.630061 -14.423022 -28.296307 33.187989 0.982088 2.591750 0.082500 -0.025766 324870.000000 0 0 1
-8.508661 -14.081722 -27.464937 32.015855 1.027269 2.601876 0.096743 -0.027567 480230.000000 0 0 1
-8.258661 -12.528822 -27.590137 31.406886 0.988000 2.643455 0.076018 -0.026961 -205656.000000 0 0 1
-7.738461 -12.122322 -28.847907 32.234084 1.002644 2.679116 0.095149 -0.031075 218425.000000 0 0 1
-7.840361 -10.764822 -29.056357 31.962862 0.941308 2.711834 0.099111 -0.030685 236667.000000 0 0 1
-6.820061 -10.314322 -30.165107 32.601106 0.986572 2.752566 0.101616 -0.025107 155949.000000 0 0 1
-5.463661 -10.384022 -29.743327 31.974130 1.086440 2.765838 0.104749 -0.031481 891165.000000 0 0 1
-4.489161 -10.139722 -30.771437 32.708529 1.154004 2.795712 0.103746 -0.034400 453088.000000 0 0 1
-4.457761 -8.741922 -31.479667 32.973660 1.099237 2.839417 0.090449 -0.033630 -1155890.000000 0 0 1
-3.214861 -8.526222 -32.073297 33.342588 1.210225 2.864782 0.085064 -0.041456 -368038.000000 0 0 1
-3.189061 -7.152622 -32.457667 33.389074 1.151391 2.904839 0.076461 -0.043846 -655234.000000 0 0 1
-1.819561 -6.617822 -32.792907 33.503449 1.302478 2.935275 0.081434 -0.045356 -643681.000000 0 0 1
-1.215261 -7.137622 -33.955517 34.718865 1.402152 2.931509 0.082613 -0.043569 -581305.000000 0 0 1
-0.043761 -6.476822 33.738888 34.354966 1.564040 0.189666 0.074010 -0.033995 -319034.000000 0 0 1
0.487639 -7.061122 32.406457 33.170404 -1.501846 0.215035 0.059763 -0.027813 -389047.000000 0 0 1
-0.351361 -6.858322 31.334378 32.078081 1.519610 0.215751 0.051264 -0.021034 -353098.000000 0 0 1
0.136239 -7.575922 30.247128 31.181756 -1.552815 0.245457 0.042441 -0.024082 40046.400000 0 0 1
-0.296161 -7.046522 28.846878 29.696524 1.528792 0.239785 0.037425 -0.015214 106379.000000 0 0 1
0.397739 -5.850722 28.543808 29.139975 -1.502920 0.202627 0.041265 -0.015907 141564.000000 0 0 1
0.025239 -5.342422 27.257748 27.776374 -1.566072 0.193545 0.048052 -0.010216 494435.000000 0 0 1
-1.234361 -4.441522 27.002808 27.393474 1.299723 0.169088 0.033413 0.003316 566215.000000 0 0 1
-2.457761 -5.127222 27.029408 27.620969 1.123800 0.207335 0.030275 0.003628 -388185.000000 0 0 1
-3.497461 -4.303422 26.476658 27.051157 0.888349 0.206461 0.017612 -0.006631 1302830.000000 0 0 1
-4.918561 -4.715022 27.052118 27.896967 0.764273 0.246734 0.015120 -0.002014 899936.000000 0 0 1
-5.284161 -5.870422 26.316598 27.476309 0.837908 0.291575 0.014286 0.007932 -1066970.000000 0 0 1
-6.494161 -6.351122 26.771558 28.270607 0.774263 0.327110 0.007257 0.008947 -414788.000000 0 0 1
-6.770061 -7.810822 26.559588 28.500077 0.856656 0.371145 0.017769 0.011749 -89423.600000 0 0 1
-5.902761 -8.527722 27.375188 29.273974 0.965335 0.362150 0.024103 0.004232 -207694.000000 0 0 1
-6.155861 -9.940422 27.388658 29.779947 1.016324 0.403477 0.028237 -0.001014 114413.000000 0 0 1
-5.298761 -10.535122 28.521288 30.863077 1.104782 0.392062 0.036144 -0.011375 73030.500000 0 0 1
-5.421561 -11.929922 28.660118 31.513787 1.144247 0.428844 0.060286 -0.016676 18139.900000 0 0 1
-4.787861 -12.400922 29.834478 32.661944 1.202339 0.419157 0.072292 -0.025296 -37103.800000 0 0 1
-4.872561 -13.918122 30.024628 33.450475 1.234044 0.456537 0.083949 -0.030822 30513.300000 0 0 1
-6.205261 -14.395222 29.968248 33.820461 1.163801 0.481938 0.106865 -0.037320 -15707.100000 0 0 1
-6.239461 -15.791522 29.947098 34.425742 1.194509 0.515788 0.093359 -0.038369 90538.400000 0 0 1
-6.346061 -16.432422 31.339208 35.950563 1.202250 0.512073 0.100630 -0.039508 -677401.000000 0 0 1
-7.624061 -16.442322 31.876368 36.668503 1.136620 0.516988 0.101843 -0.043586 -792859.000000 0 0 1
-7.674361 -16.826522 33.192310 37.996804 1.142892 0.508337 0.106426 -0.039719 -425649.000000 0 0 1
-9.114361 -17.099522 33.639212 38.820894 1.081084 0.522602 0.118035 -0.041241 -152684.000000 0 0 1
-9.661161 -18.329222 33.253771 39.180502 1.085712 0.557212 0.108075 -0.041122 73242.800000 0 0 1
-10.479661 -18.192122 32.093395 38.350523 1.048170 0.579304 0.103451 -0.047956 -193417.000000 0 0 1
-11.122061 -19.547122 31.641948 38.820138 1.053493 0.617910 0.110413 -0.049827 235768.000000 0 0 1
-12.274361 -19.878622 32.413565 39.955710 1.017634 0.624531 0.117710 -0.050030 185734.000000 0 0 1
-12.766161 -21.143522 32.138268 40.532600 1.027598 0.655244 0.109468 -0.043859 -507338.000000 0 0 1
-12.171961 -22.208322 33.082056 41.662797 1.069428 0.653365 0.116333 -0.043143 1037560.000000 0 0 1
-10.725061 -22.329822 32.988063 41.253608 1.123031 0.644100 0.091320 -0.042199 1262840.000000 0 0 1
-10.167361 -23.081922 -33.990967 42.326542 1.155879 2.503217 0.080826 -0.047938 129788.000000 0 0 1
-10.473961 -24.566922 -34.024273 43.253770 1.167788 2.476112 0.096705 -0.038057 -302726.000000 0 0 1
-9.801861 -25.357122 33.058515 42.800999 1.201936 0.688221 0.085629 -0.034072 -20396.300000 0 0 1
-9.816261 -26.713362 33.432322 43.905385 1.218647 0.705229 0.079555 -0.031527 -1105840.000000 0 0 1
-9.129361 -27.591872 32.368043 43.501113 1.251263 0.731649 0.065479 -0.021127 373677.000000 0 0 1
-7.726161 -27.402782 32.376559 43.114355 1.295982 0.721303 0.068136 -0.030941 80687.800000 0 0 1
-6.976861 -27.944722 33.448524 44.140547 1.326132 0.710903 0.066439 -0.030976 -582226.000000 0 0 1
-5.456361 -27.677642 33.351865 43.682613 1.376153 0.702074 0.080749 -0.037365 173660.000000 0 0 1
-4.983561 -26.502782 33.901498 43.319106 1.384928 0.671966 0.082298 -0.031974 -79642.800000 0 0 1
-4.830461 -25.445252 32.974074 41.929510 1.383191 0.665810 0.086288 -0.022617 -173769.000000 0 0 1
-4.502761 -24.159422 33.687595 41.699000 1.386533 0.630258 0.076080 -0.025768 -386018.000000 0 0 1
-3.282661 -24.256122 -33.692877 41.645471 1.436280 2.513314 0.061231 -0.025211 -440368.000000 0 0 1
-2.912561 -22.988222 -33.267677 40.542319 1.444770 2.533198 0.052406 -0.020979 -8802.750000 0 0 1
34.612888 -15.604022 2.467663 38.047692 -0.423532 1.505894 0.119079 -0.052898 -375929.000000 0 0 1
35.472098 -15.701722 3.550663 38.954089 -0.416725 1.479520 0.115551 -0.053274 -271941.000000 0 0 1
34.917058 -16.490722 4.578563 38.885834 -0.441229 1.452779 0.115297 -0.059673 292261.000000 0 0 1
35.795508 -16.660622 5.893963 39.920340 -0.435618 1.422611 0.100039 -0.039841 680134.000000 0 0 1
-36.766981 -17.484322 5.658263 41.103873 0.443892 1.432700 0.106227 -0.034411 147379.000000 0 0 1
-35.833630 -17.389622 6.715963 40.392477 0.451809 1.403753 0.090973 -0.026652 109504.000000 0 0 1
-34.507928 -18.132022 6.523063 39.523635 0.483796 1.404996 0.073828 -0.024203 17439.000000 0 0 1
-34.710457 -19.530222 6.691563 40.385919 0.512512 1.404338 0.081909 -0.028322 968086.000000 0 0 1
-33.412501 -20.124922 6.917463 39.613874 0.542122 1.395274 0.059995 -0.013778 1046150.000000 0 0 1
-33.410901 -21.645522 7.010963 40.422402 0.574868 1.396472 0.044438 -0.012609 -183488.000000 0 0 1
-33.710881 -22.288722 5.802963 40.827503 0.584190 1.428180 0.060848 -0.012811 93601.400000 0 0 1
-34.077021 -23.640122 6.094163 41.919418 0.606503 1.424901 0.067183 -0.020453 -312264.000000 0 0 1
-33.827901 -24.682022 5.005763 42.173295 0.630340 1.451821 0.066313 -0.016820 -296299.000000 0 0 1
-34.443175 -24.446022 3.813163 42.408496 0.617239 1.480760 0.070077 -0.019203 -431068.000000 0 0 1
-33.743591 -25.072062 2.783863 42.130608 0.639017 1.504671 0.080814 -0.017266 -311726.000000 0 0 1
-34.292540 -24.869222 1.374763 42.383328 0.627444 1.538354 0.074341 -0.019310 -518068.000000 0 0 1
-35.421948 -25.645012 0.997563 43.742156 0.626644 1.547989 0.072064 -0.019271 138421.000000 0 0 1
-35.848706 -25.220802 -0.264037 43.832503 0.613094 1.576820 0.077705 -0.019359 -130484.000000 0 0 1
-36.843261 -24.026022 -0.215437 43.985475 0.577860 1.575694 0.089816 -0.024046 -308299.000000 0 0 1
35.532098 -24.439322 0.135263 43.125732 -0.602498 1.567660 0.059631 -0.009282 52908.500000 0 0 1
34.831948 -23.356622 0.662763 41.943243 -0.590687 1.554994 0.079485 -0.013937 -268293.000000 0 0 1
33.298278 -23.443322 0.563263 40.726919 -0.613432 1.556966 0.050669 -0.010092 29291.000000 0 0 1
33.024958 -23.393422 -0.834037 40.479571 -0.616312 1.591402 0.054121 -0.018207 45451.500000 0 0 1
31.615668 -23.344622 -0.979337 39.312605 -0.636028 1.595710 0.049065 -0.011783 312774.000000 0 0 1
31.089048 -23.180122 -2.422937 38.855084 -0.640682 1.633195 0.045313 -0.010306 -122455.000000 0 0 1
31.393138 -21.921122 -2.923137 38.400644 -0.609569 1.646992 0.068197 -0.019453 120366.000000 0 0 1
30.895408 -21.765322 -4.241437 38.029532 -0.613729 1.682559 0.065268 -0.035040 72463.400000 0 0 1
30.939328 -20.322922 -4.783637 37.324876 -0.581185 1.699312 0.069708 -0.035493 350066.000000 0 0 1
29.943058 -19.672522 -4.015437 36.051610 -0.581279 1.682408 0.074371 -0.033233 137766.000000 0 0 1
29.896208 -18.239522 -4.297837 35.283634 -0.547809 1.692908 0.076396 -0.035978 -54152.600000 0 0 1
29.084188 -17.516322 -3.195337 34.101638 -0.542082 1.664634 0.084517 -0.033854 -29019.500000 0 0 1
29.659438 -17.373722 -1.885537 34.425045 -0.529893 1.625596 0.090939 -0.030519 22256.400000 0 0 1
30.017788 -18.541822 -1.134637 35.300909 -0.553329 1.602944 0.081816 -0.026034 323489.000000 0 0 1
28.880348 -19.600222 -0.895537 34.914828 -0.596267 1.596448 0.065510 -0.014931 3907.680000 0 0 1
27.881558 -19.268922 0.010963 33.892075 -0.604727 1.570473 0.067829 -0.002726 -668502.000000 0 0 1
27.168758 -20.419822 0.318263 33.988407 -0.644519 1.561432 0.050878 -0.002481 -416406.000000 0 0 1
26.107158 -20.029022 1.368263 32.933533 -0.654409 1.529238 0.058967 0.003662 -451232.000000 0 0 1
25.342658 -21.082322 1.991963 33.025483 -0.693886 1.510444 0.052582 0.014835 255391.000000 0 0 1
24.414658 -20.683822 2.978763 32.136724 -0.702860 1.477973 0.043924 0.013708 444203.000000 0 0 1
23.103258 -20.047622 2.425663 30.684712 -0.714703 1.491663 0.018094 0.016942 -631023.000000 0 0 1
23.108858 -18.717322 1.900163 29.798793 -0.680787 1.506987 0.055994 -0.006159 74965.800000 0 0 1
23.365058 -17.693222 2.892463 29.450677 -0.648126 1.472424 0.068250 -0.005907 -90057.800000 0 0 1
23.263958 -16.262722 2.334363 28.480469 -0.610090 1.488741 0.066605 -0.003887 -464634.000000 0 0 1
21.950858 -15.998022 1.922963 27.230032 -0.629802 1.500118 0.056414 -0.002805 -457835.000000 0 0 1
21.887458 -14.748022 1.333163 26.426167 -0.592933 1.520326 0.077784 -0.011962 -441994.000000 0 0 1
20.548958 -14.646922 0.623863 25.242449 -0.619253 1.546079 0.073297 -0.010008 43854.700000 0 0 1
19.428358 -14.668022 1.518563 24.390941 -0.646681 1.508497 0.060348 -0.013534 622619.000000 0 1 0
18.425658 -13.665322 1.439763 22.985187 -0.638133 1.508117 0.068753 -0.015927 241943.000000 0 1 0
18.789858 -12.251722 2.043663 22.524210 -0.577807 1.479940 0.086457 -0.020791 -686186.000000 0 1 0
19.807458 -11.620122 1.338363 23.003344 -0.530548 1.512582 0.092232 -0.022629 -208452.000000 0 1 0
20.153758 -10.415522 1.937863 22.768671 -0.476999 1.485582 0.083562 -0.024400 248710.000000 0 1 0
21.188058 -9.682622 1.031963 23.318489 -0.428647 1.526527 0.102010 -0.025883 355725.000000 0 1 0
20.492658 -9.188422 -0.082137 22.458470 -0.421503 1.574454 0.098348 -0.022165 1089650.000000 0 1 0
21.437258 -8.700422 -1.033537 23.158618 -0.385544 1.615440 0.101230 -0.016678 232124.000000 0 1 0
20.718858 -8.370722 -2.379637 22.472266 -0.383962 1.676887 0.103108 -0.018717 135186.000000 0 1 0
21.435158 -7.781522 -3.485137 23.068686 -0.348232 1.722454 0.097357 -0.020951 654039.000000 0 1 0
22.506358 -8.499722 -4.109837 24.406396 -0.361100 1.739994 0.089482 -0.019961 -149095.000000 0 1 0
22.130258 -9.760322 -4.962737 24.690909 -0.415378 1.773169 0.074192 -0.018303 -310271.000000 0 1 0
21.515958 -9.459522 -6.183537 24.303398 -0.414215 1.828056 0.066477 -0.018317 -670754.000000 0 1 0
20.158558 -9.215922 -6.108037 22.991494 -0.428802 1.839690 0.067693 -0.016083 -1179710.000000 0 1 0
19.385058 -9.232722 -7.481837 22.737667 -0.444492 1.906094 0.066554 -0.011431 -66524.300000 0 1 0
19.330858 -10.440622 -8.201937 23.451235 -0.495212 1.928095 0.063358 -0.009251 1711260.000000 0 1 0
20.608058 -10.811622 -8.794337 24.878175 -0.483158 1.932102 0.055417 -0.005713 846186.000000 0 1 0
20.536658 -12.151022 -9.510937 25.687732 -0.534276 1.950077 0.042763 -0.007073 -295070.000000 0 0 1
19.572758 -12.219122 -10.531337 25.363534 -0.558090 1.998976 0.062053 -0.009141 268329.000000 0 0 1
19.643058 -13.545522 -11.065737 26.301738 -0.603701 2.005038 0.057298 -0.005163 -435502.000000 0 0 1
18.419458 -13.903022 -11.907737 25.968532 -0.646567 2.047153 0.071431 -0.014437 -312372.000000 0 0 1
18.303258 -15.283222 -12.205937 26.787516 -0.695721 2.043907 0.065377 -0.016294 666290.000000 0 0 1
17.139958 -15.501922 -13.000737 26.516163 -0.735258 2.083224 0.074239 -0.014472 182951.000000 0 0 1
17.188958 -16.992322 -13.455137 27.662971 -0.779645 2.078756 0.064346 -0.013998 -386250.000000 0 0 1
16.841958 -17.928122 -12.474837 27.580621 -0.816626 2.040144 0.059548 -0.015503 296708.000000 0 0 1
16.916058 -19.259322 -12.899837 28.696346 -0.850083 2.037034 0.065988 -0.018974 -303722.000000 0 0 1
15.899058 -20.153122 -12.127437 28.390194 -0.902852 2.012157 0.070994 -0.016276 888120.000000 0 0 1
14.551358 -19.799822 -12.467337 27.553756 -0.937014 2.040333 0.074931 -0.024640 221849.000000 0 0 1
13.619758 -20.530922 -11.747537 27.295076 -0.985074 2.015721 0.070468 -0.027164 497304.000000 0 0 1
12.113658 -20.171322 -11.993037 26.409390 -1.029981 2.042181 0.084674 -0.027706 1199490.000000 0 0 1
11.217158 -21.102122 -11.344137 26.453991 -1.082216 2.013988 0.083972 -0.029015 -312320.000000 0 0 1
9.950558 -21.083322 -11.948937 26.197274 -1.129828 2.044420 0.078668 -0.030255 -154080.000000 0 0 1
8.906858 -21.355322 -10.837937 25.550788 -1.175654 2.008844 0.059929 -0.027112 -232284.000000 0 0 1
8.824158 -22.738022 -10.526037 26.564654 -1.200608 1.978217 0.081430 -0.030076 -472848.000000 0 0 1
7.798158 -22.957022 -9.613137 26.081574 -1.243340 1.948277 0.064814 -0.026814 -322241.000000 0 0 1
7.528758 -24.431122 -9.486337 27.268159 -1.271868 1.926117 0.057985 -0.024194 133117.000000 0 0 1
8.662758 -25.026922 -8.904937 27.940796 -1.237567 1.895162 0.057401 -0.015119 -294822.000000 0 0 1
8.770858 -26.314172 -9.408537 29.289660 -1.249064 1.897818 0.036936 -0.010106 671489.000000 0 0 1
10.243358 -26.839812 -9.369437 30.217350 -1.206210 1.886061 0.037875 -0.003200 546595.000000 0 0 1
10.722458 -27.137892 -8.086037 30.279040 -1.194512 1.841128 0.045015 -0.006986 -31145.300000 0 0 1
12.045558 -27.649902 -8.171537 31.247185 -1.159943 1.835385 0.060672 0.005770 -278804.000000 0 0 1
12.541358 -27.876922 -6.703237 31.294438 -1.148040 1.786668 0.062765 -0.004490 -104813.000000 0 0 1
12.005258 -28.928092 -5.913037 31.873574 -1.177423 1.757393 0.066738 -0.006101 -485948.000000 0 0 1
10.615058 -29.049812 -5.890337 31.484395 -1.220461 1.758993 0.056103 -0.002845 -656311.000000 0 0 1
10.068458 -30.069602 -4.815937 32.074103 -1.247692 1.721517 0.058641 -0.005748 77581.300000 0 0 1
10.313858 -31.508712 -4.947937 33.520989 -1.254455 1.718945 0.080330 -0.011766 -245421.000000 0 0 1
9.434458 -32.115822 -5.859837 33.981947 -1.285071 1.744102 0.082469 -0.015326 -23059.400000 0 0 1
9.651458 -33.633652 -6.057137 35.511436 -1.291347 1.742203 0.078163 -0.010678 -100501.000000 0 0 1
9.404058 33.804496 -4.893737 35.427799 1.299467 1.709372 0.072861 -0.017830 -114762.000000 0 0 1
9.627558 32.406689 -4.988237 34.172590 1.282016 1.717292 0.076316 -0.016008 -229668.000000 0 0 1
9.104458 31.675412 -3.787537 33.174815 1.290911 1.685215 0.052727 -0.008045 -276721.000000 0 0 1
7.777558 31.267912 -3.966237 32.463884 1.327005 1.693276 0.053507 -0.009136 -844785.000000 0 0 1
7.476958 30.179892 -3.116937 31.248138 1.327940 1.670710 0.039163 -0.010703 -321539.000000 0 0 1
6.120158 29.536012 -3.376837 30.351860 1.366478 1.682283 0.046437 -0.012981 -239414.000000 0 0 1
5.946758 29.024932 -4.728337 30.002797 1.368709 1.729053 0.051664 -0.024797 -76767.300000 0 0 1
5.444458 29.865762 -5.749937 30.897697 1.390479 1.757984 0.063125 -0.024024 -153211.000000 0 0 1
5.481358 29.171352 -7.093737 30.517768 1.385060 1.805388 0.075021 -0.030295 428509.000000 0 0 1
4.562658 28.109082 -7.423737 29.428731 1.409880 1.825813 0.079682 -0.025641 330967.000000 0 0 1
4.911158 26.889142 -6.772137 28.160385 1.390143 1.813661 0.074531 -0.022941 -304775.000000 0 0 1
4.169558 25.641782 -7.300537 26.984886 1.409599 1.844752 0.068326 -0.026429 538798.000000 0 0 1
2.794558 25.612082 -6.892437 26.670096 1.462115 1.832196 0.077328 -0.029525 691248.000000 0 0 1
1.840158 26.230942 -7.762037 27.417107 1.500759 1.857831 0.084238 -0.030051 208554.000000 0 0 1
1.377358 25.526102 -9.058537 27.120769 1.516890 1.911348 0.088167 -0.025982 -460757.000000 0 0 1
2.399358 25.336822 -10.025837 27.353773 1.476379 1.946067 0.073467 -0.023267 -14847.300000 0 0 1
2.119658 24.545692 -11.154037 27.044343 1.484654 1.995922 0.076891 -0.017815 -473732.000000 0 0 1
1.995758 23.031212 -10.944637 25.577429 1.484358 2.012967 0.078573 -0.025362 -109921.000000 0 0 1
0.880158 22.683312 -10.145037 24.864213 1.532014 1.991078 0.088858 -0.024395 53844.800000 0 1 0
0.835658 21.234912 -10.127637 23.541216 1.531464 2.015520 0.055750 -0.025554 -447594.000000 0 1 0
-0.425142 20.690712 -9.436337 22.744907 -1.550252 1.998604 0.060829 -0.020630 -35466.100000 0 1 0
-1.628442 20.677912 -10.161537 23.097288 -1.492206 2.026334 0.076822 -0.028121 -345178.000000 0 1 0
-2.665242 20.088212 -9.431537 22.351592 -1.438890 2.006405 0.065904 -0.015949 1029010.000000 0 1 0
-4.098942 20.157612 -10.115337 22.922711 -1.370187 2.027821 0.075077 -0.021397 1421810.000000 0 1 0
-5.132842 19.404912 -9.472537 22.195172 -1.312206 2.011730 0.070499 -0.022103 190744.000000 0 1 0
-6.135142 19.237012 -10.461637 22.740898 -1.262070 2.048832 0.075887 -0.018669 -514431.000000 0 1 0
-7.133042 18.114112 -10.104637 21.934107 -1.195660 2.049559 0.071453 -0.012105 -49212.900000 0 1 0
-8.061042 18.504312 -9.098437 22.139818 -1.159956 1.994296 0.078903 -0.012144 -233375.000000 0 1 0
-9.342042 18.586012 -9.690237 22.948078 -1.105040 2.006742 0.079555 -0.019563 -479552.000000 0 1 0
-10.383242 18.765712 -8.583437 23.100629 -1.065416 1.951493 0.091953 -0.029118 -241162.000000 0 1 0
-10.625242 17.590712 -7.777637 21.973178 -1.027422 1.932599 0.075383 -0.031552 -420313.000000 0 1 0
-11.415442 17.986212 -6.678537 22.325300 -1.005268 1.874594 0.088809 -0.024782 -3187.460000 0 1 0
-12.118942 16.803212 -5.983137 21.564198 -0.945965 1.851942 0.073534 -0.030332 88195.100000 0 1 0
-12.667242 17.078612 -4.683137 21.773144 -0.932627 1.787578 0.072044 -0.025058 -16292.600000 0 1 0
-13.457642 16.027412 -4.229237 21.351171 -0.872334 1.770195 0.073315 -0.025756 325918.000000 0 1 0
-14.620242 16.506312 -3.258337 22.289607 -0.845918 1.717504 0.060590 -0.026391 1243320.000000 0 1 0
-15.856742 16.696212 -3.977437 23.367066 -0.811180 1.741845 0.098216 -0.040267 1357940.000000 0 1 0
-16.891442 17.215312 -3.101137 24.316760 -0.794894 1.698675 0.097991 -0.030955 418433.000000 0 1 0
-18.309642 17.338712 -3.645337 25.478666 -0.758169 1.714363 0.100477 -0.039746 -352032.000000 0 0 1
-18.346342 18.240812 -4.720137 26.298197 -0.782514 1.751259 0.087811 -0.037573 -180259.000000 0 0 1
-19.665542 18.453512 -5.156037 27.456336 -0.753613 1.759708 0.072324 -0.038283 -63910.100000 0 0 1
-19.760342 19.270512 -6.441137 28.342759 -0.772849 1.800058 0.062252 -0.020655 -30.541000 0 0 1
-19.419342 20.610412 -6.330037 29.016707 -0.815144 1.790716 0.066390 -0.023625 33034.700000 0 0 1
-19.517542 21.258212 -7.552737 29.831022 -0.828061 1.826766 0.060747 -0.013004 -2152.030000 0 0 1
-19.467442 22.775912 -7.424237 30.868151 -0.863558 1.813692 0.055556 -0.010645 -50149.400000 0 0 1
-18.193442 23.318892 -7.173937 30.434149 -0.908245 1.808756 0.071889 -0.011919 -35252.000000 0 0 1
-18.190142 23.947202 -5.947837 30.654959 -0.921184 1.766060 0.054925 -0.012673 676299.000000 0 0 1
-16.786342 24.527682 -5.533737 30.232610 -0.970628 1.754873 0.060738 -0.010884 127317.000000 0 0 1
-16.788642 25.170392 -4.325037 30.563264 -0.982563 1.712784 0.052952 -0.015120 -445182.000000 0 0 1
-15.553442 25.691712 -3.945337 30.290912 -1.026425 1.701416 0.062648 -0.016741 -296366.000000 0 0 1
-14.948942 26.835742 -4.726137 31.079966 -1.062554 1.723452 0.067282 -0.013925 -573679.000000 0 0 1
-15.469642 28.061702 -4.271237 32.326652 -1.066977 1.703311 0.073109 -0.014324 66603.900000 0 0 1
-14.886442 29.223902 -4.843737 33.152744 -1.099663 1.717425 0.060552 -0.017287 -618079.000000 0 0 1
-15.675842 30.419242 -4.374137 34.499209 -1.094963 1.697928 0.065114 -0.017229 -160132.000000 0 0 1
-16.963742 30.630272 -4.905337 35.355968 -1.065023 1.709987 0.074904 -0.022435 -169000.000000 0 0 1
-17.497042 31.784512 -4.334237 36.540215 -1.067577 1.689692 0.091517 -0.022791 -62586.400000 0 0 1
13.110139 -8.366522 18.996798 24.551024 -0.568015 0.686028 0.082279 -0.011423 25908.100000 0 1 0
13.541939 -9.598322 19.553298 25.648457 -0.616598 0.703848 0.077669 -0.012472 66479.400000 0 0 1
13.622939 -10.582722 18.579598 25.353105 -0.660453 0.748320 0.075300 -0.017904 -259250.000000 0 0 1
14.070139 -11.917222 19.128098 26.568273 -0.702742 0.767051 0.102752 -0.025633 -1441160.000000 0 0 1
15.362339 -11.923122 19.585998 27.600247 -0.660014 0.781822 0.086654 -0.030069 -760497.000000 0 0 1
15.811739 -13.131122 20.256598 28.857706 -0.693044 0.792668 0.093776 -0.030534 51674.500000 0 0 1
16.258939 -14.288522 19.285598 28.990503 -0.720984 0.842983 0.087146 -0.029115 -827685.000000 0 0 1
15.265039 -14.707222 18.411198 28.076610 -0.766789 0.855623 0.098668 -0.034350 -100641.000000 0 0 1
15.571039 -15.993222 17.917898 28.623268 -0.798773 0.894395 0.107685 -0.037021 -334747.000000 0 0 1
15.125839 -16.216922 16.463498 27.619311 -0.820195 0.932178 0.090191 -0.034610 -313756.000000 0 0 1
13.717739 -16.200722 16.331998 26.783837 -0.868200 0.915025 0.119323 -0.029515 148619.000000 0 0 1
13.277539 -16.098122 14.962098 25.676973 -0.881122 0.948743 0.135513 -0.037022 -107480.000000 0 0 1
12.831339 -17.458622 14.356198 25.991290 -0.936992 0.985620 0.102772 -0.026252 289512.000000 0 0 1
13.915739 -18.337222 14.069698 26.978842 -0.921637 1.022178 0.102375 -0.025183 779855.000000 0 0 1
13.318039 -19.527422 13.592498 27.266213 -0.972242 1.048916 0.096143 -0.027700 224566.000000 0 0 1
14.356039 -20.424222 12.879898 28.091573 -0.958132 1.094493 0.103257 -0.026215 -127962.000000 0 0 1
15.162839 -21.113522 13.809298 29.434490 -0.947988 1.082464 0.078164 -0.025130 -156738.000000 0 0 1
15.458139 -22.405122 13.452598 30.363069 -0.966856 1.111790 0.061509 -0.030233 -509708.000000 0 0 1
16.203139 -23.106422 14.600198 31.774427 -0.959239 1.093370 0.055643 -0.034602 -755532.000000 0 0 1
17.433239 -22.496922 14.768898 32.064773 -0.911538 1.092130 0.046335 -0.028295 -773969.000000 0 0 1
18.143439 -23.031622 15.885798 33.346642 -0.903562 1.074259 0.047632 -0.026076 386100.000000 0 0 1
19.577839 -22.433122 16.073298 33.836188 -0.853259 1.075795 0.050159 -0.017990 866602.000000 0 0 1
20.431939 -23.030322 15.069698 34.277626 -0.845112 1.115602 0.041659 -0.027948 -105362.000000 0 0 1
21.690739 -22.365422 15.031498 34.592574 -0.800711 1.121280 0.046435 -0.018010 667988.000000 0 0 1
22.661739 -23.278122 14.173498 35.444512 -0.798815 1.159412 0.036003 -0.019097 201431.000000 0 0 1
23.249439 -24.218322 14.995698 36.768662 -0.805807 1.150710 0.032794 -0.018305 -984810.000000 0 0 1
24.266939 -24.875822 14.355298 37.600072 -0.797788 1.179065 0.034342 -0.024436 -487809.000000 0 0 1
24.795339 -26.111902 15.165798 39.072262 -0.811254 1.172176 0.045435 -0.015155 -371499.000000 0 0 1
25.631039 -25.872402 16.251798 39.880475 -0.790084 1.151068 0.048807 -0.014646 -159541.000000 0 0 1
25.881139 -26.980572 17.078698 41.103121 -0.806193 1.142294 0.049874 -0.001784 258011.000000 0 0 1
26.552939 -26.789082 18.481498 42.003324 -0.789825 1.115197 0.037045 0.005801 482579.000000 0 0 1
25.550639 -26.327082 19.391898 41.496941 -0.800364 1.084552 0.044835 0.008534 371047.000000 0 0 1
26.099539 -25.942442 20.598898 42.172394 -0.782380 1.060489 0.041669 0.006697 413858.000000 0 0 1
24.962739 -25.673252 21.648898 41.844103 -0.799429 1.027021 0.034517 0.001509 608005.000000 0 0 1
24.332039 -26.822112 22.133398 42.442445 -0.834038 1.022198 0.040335 0.006861 -712370.000000 0 0 1
23.283139 -26.619062 23.017198 42.195621 -0.852148 0.993825 0.046530 0.007318 -456449.000000 0 0 1
22.623139 -28.001642 23.169708 42.810440 -0.891244 0.998913 0.087901 0.005012 -241699.000000 0 0 1
23.434839 -28.972532 23.819648 44.226405 -0.890674 1.002040 0.048751 0.006843 130288.000000 0 0 1
23.078039 -30.279372 23.495058 44.737613 -0.919552 1.017876 0.054580 0.000193 -133802.000000 0 0 1
24.042439 -31.356372 24.055408 46.259308 -0.916662 1.023931 0.019557 -0.002361 19996.900000 0 0 1
23.889439 -31.553032 25.467398 47.062591 -0.922754 0.999005 0.018796 -0.006673 275885.000000 0 0 1
25.081439 -31.919182 26.142158 48.283798 -0.904787 0.998663 0.022879 -0.003902 -443254.000000 0 0 1
24.745639 -32.504732 27.598978 49.301195 -0.920107 0.976648 0.017006 -0.015199 524551.000000 0 0 1
23.998039 -33.717102 27.663548 49.779722 -0.952230 0.981569 0.003284 -0.009553 340657.000000 0 0 1
22.709039 -33.775502 27.085268 48.888616 -0.978868 0.983611 0.011782 -0.011039 -560745.000000 0 0 1
21.950539 33.098766 27.496318 48.305300 0.985209 0.965240 0.048515 -0.028346 -524491.000000 0 0 1
21.416739 33.282494 28.806028 48.950877 0.999016 0.941634 0.048947 -0.016878 252699.000000 0 0 1
20.969739 32.028822 29.307678 48.213229 0.991114 0.917413 0.065959 -0.029492 -366347.000000 0 0 1
20.596839 32.184250 30.814398 49.087502 1.001507 0.892144 0.053656 -0.029680 -107171.000000 0 0 1
21.729739 32.342438 31.656768 50.203245 0.979204 0.888506 0.042184 -0.016359 -66249.300000 0 0 1
21.514639 32.712675 32.960372 51.179927 0.989038 0.871068 0.037577 -0.014786 -224421.000000 0 0 1
22.852739 32.621638 33.719124 52.186189 0.959709 0.868292 0.015700 -0.000875 148288.000000 0 0 1
23.081939 31.305042 -33.956907 51.631900 0.935458 2.288522 0.014398 -0.001599 -6752.780000 0 0 1
24.368939 31.061212 -33.427827 51.730684 0.905550 2.273377 0.002743 0.009301 16645.000000 0 0 1
24.666639 29.531312 -33.221507 50.835125 0.874916 2.283015 0.015089 0.007408 -146899.000000 0 0 1
24.855439 28.858572 33.643099 50.817991 0.859787 0.847271 0.028616 0.004234 296965.000000 0 0 1
24.429239 27.527982 33.858501 50.009755 0.844968 0.827066 0.036987 -0.010826 -64203.800000 0 0 1
24.674239 26.629052 32.589515 48.785254 0.823483 0.839252 0.062792 -0.020630 820436.000000 0 0 1
26.050139 26.304642 32.344317 49.159931 0.790259 0.852715 0.059289 -0.027419 1099100.000000 0 0 1
26.033839 25.632482 31.076658 47.963982 0.777630 0.865950 0.085437 -0.040144 681546.000000 0 0 1
27.279139 24.662502 30.971818 48.079559 0.735064 0.870848 0.063628 -0.033700 520660.000000 0 0 1
27.219439 23.796062 32.032358 48.303441 0.718394 0.845779 0.081840 -0.042044 679353.000000 0 0 1
28.370939 23.880352 32.871803 49.555392 0.699667 0.845530 0.090349 -0.046687 -466089.000000 0 0 1
28.345539 22.941612 -33.978097 49.842735 0.680419 2.320888 0.075375 -0.048278 72430.400000 0 0 1
27.492139 23.329242 -32.854527 48.780028 0.703668 2.309763 0.084979 -0.038072 1397210.000000 0 0 1
26.080539 23.272812 -33.057617 48.110543 0.728569 2.328311 0.077111 -0.036256 323472.000000 0 0 1
25.428439 21.837612 -33.094287 47.103276 0.709573 2.349827 0.068368 -0.034990 -511845.000000 0 0 1
25.401139 21.223312 -31.842407 45.930226 0.696031 2.336824 0.056406 -0.032538 371184.000000 0 0 1
25.032539 19.872112 -32.010767 45.235141 0.670980 2.356967 0.056318 -0.022849 -143989.000000 0 0 1
24.794539 19.096912 -30.652057 43.806504 0.656308 2.345794 0.056417 -0.014647 -242783.000000 0 0 1
23.690939 19.618712 -29.953407 42.934380 0.691648 2.342916 0.046799 -0.017562 168074.000000 0 0 1
23.404139 18.868712 -28.767237 41.609325 0.678518 2.334173 0.052992 -0.016862 -285180.000000 0 0 1
22.462039 19.506012 -27.783107 40.705389 0.715079 2.322030 0.076526 -0.022326 -225178.000000 0 0 1
22.165639 18.837412 -26.554047 39.386305 0.704406 2.310670 0.075325 -0.017933 19068.000000 0 0 1
23.145939 19.183712 -25.603027 39.487520 0.692066 2.276255 0.069616 -0.015424 84293.200000 0 0 1
23.161439 18.345112 -24.300337 38.255741 0.669877 2.259074 0.084077 -0.012361 -417832.000000 0 0 1
23.913639 17.195812 -24.451237 38.280818 0.623417 2.263647 0.081165 -0.022386 -115175.000000 0 0 1
23.944539 16.342112 -23.335237 37.214766 0.598883 2.248547 0.092555 -0.021646 -435296.000000 0 0 1
24.910739 15.166412 -23.317837 37.340146 0.546887 2.245250 0.107436 -0.027181 -53575.800000 0 0 1
26.304939 15.465112 -23.276437 38.378536 0.531487 2.222443 0.115629 -0.030374 888044.000000 0 0 1
27.175239 14.327812 -23.244537 38.523866 0.485200 2.218529 0.120426 -0.035460 251801.000000 0 0 1
27.240939 13.494412 -21.983937 37.516148 0.459939 2.196893 0.111189 -0.037836 -50374.700000 0 0 1
26.040239 12.715312 -21.911937 36.330513 0.454240 2.218213 0.107052 -0.034230 547368.000000 0 0 1
25.793939 12.418512 -20.536237 35.231857 0.448698 2.193075 0.085325 -0.033298 -1184810.000000 0 0 1
24.415039 11.867512 -20.382937 33.946960 0.452445 2.214841 0.089006 -0.031150 -1111740.000000 0 0 1
23.378539 12.817012 -20.380937 33.559119 0.501490 2.223472 0.105803 -0.034712 -189211.000000 0 0 1
22.166239 12.271912 -20.882237 32.833059 0.505626 2.260116 0.097843 -0.040808 48484.900000 0 0 1
21.071639 13.327312 -20.765237 32.447284 0.563957 2.265253 0.098867 -0.038074 -723102.000000 0 0 1
21.440539 14.477512 -21.535937 33.661426 0.593915 2.265009 0.094130 -0.029340 215051.000000 0 0 1
20.532039 15.543212 -21.503237 33.549147 0.647980 2.266528 0.084776 -0.027391 -607935.000000 0 0 1
19.249539 15.545212 -22.320937 33.323004 0.679335 2.304784 0.088457 -0.016020 -266154.000000 0 0 1
18.201139 14.801312 -21.724837 31.973877 0.682743 2.317817 0.083303 -0.030791 781043.000000 0 0 1
16.937039 15.151912 -22.291137 31.832978 0.729825 2.346548 0.092137 -0.043683 1210250.000000 0 0 1
15.734139 14.174712 -22.074537 30.590370 0.733306 2.376932 0.073309 -0.034257 924187.000000 0 0 1
14.494939 14.455712 -22.692137 30.561478 0.784043 2.407603 0.059673 -0.033717 517130.000000 0 0 1
13.417739 13.653412 -22.188737 29.305143 0.794104 2.429754 0.070837 -0.030974 1006090.000000 0 0 1
12.119839 13.734512 -23.069037 29.456880 0.847770 2.470505 0.060594 -0.026008 337414.000000 0 0 1
11.559639 15.037712 -22.946237 29.770586 0.915428 2.450843 0.036733 -0.027235 123245.000000 0 0 1
10.916339 15.455512 -24.140137 30.672227 0.955850 2.476785 0.055909 -0.029950 -895423.000000 0 0 1
10.961239 17.046312 -24.178737 31.548959 0.999339 2.443995 0.048682 -0.025546 1374540.000000 0 0 1
12.257539 17.754712 -24.151437 32.384703 0.966554 2.412481 0.056767 -0.028889 1537700.000000 0 0 1
13.287339 17.260912 -24.996437 33.155909 0.914747 2.424784 0.065735 -0.036553 -496805.000000 0 0 1
13.097339 17.364812 -26.514767 34.294458 0.924583 2.454590 0.066146 -0.036457 -704941.000000 0 0 1
14.226839 17.103012 -27.323067 35.234443 0.876945 2.458247 0.043292 -0.035653 -104759.000000 0 0 1
13.883339 16.831612 -28.655057 36.016143 0.881093 2.490822 0.058025 -0.041877 -903218.000000 0 0 1
14.934439 17.233312 -29.634827 37.393147 0.856742 2.485727 0.051527 -0.026530 358249.000000 0 0 1
16.165539 16.466812 -29.581317 37.517127 0.794630 2.479122 0.023024 -0.020932 1004270.000000 0 0 1
17.105339 17.046612 -30.483557 38.889932 0.783679 2.471625 0.025631 -0.012571 216657.000000 0 0 1
18.364539 16.190912 -30.761177 39.314780 0.722578 2.469359 0.049407 -0.010914 -437322.000000 0 0 1
19.248739 16.101512 -29.687597 38.873205 0.696602 2.439827 0.062243 -0.008064 264717.000000 0 0 1
20.436939 15.354112 -29.924857 39.356248 0.644328 2.434661 0.073678 -0.004122 871894.000000 0 0 1
21.630139 16.090212 -30.595017 40.777603 0.639572 2.419297 0.073125 -0.012215 -372496.000000 0 0 1
21.511539 16.265612 -32.003467 41.851384 0.647416 2.441361 0.079066 -0.012022 -14798.300000 0 0 1
22.727139 16.631712 -32.593717 43.075365 0.631751 2.428997 0.085915 -0.012827 -149642.000000 0 0 1
22.409639 17.207512 -33.990747 44.200240 0.654835 2.448099 0.070705 -0.010378 -485264.000000 0 0 1
23.486739 17.859612 33.478295 44.624981 0.650132 0.722410 0.073827 -0.023792 -169859.000000 0 0 1
23.218639 18.159612 32.137959 43.608774 0.663739 0.742233 0.092568 -0.033957 -271593.000000 0 0 1
23.998739 19.437712 31.754018 44.295392 0.680777 0.771494 0.098053 -0.034434 -90594.100000 0 0 1
25.393739 19.340712 31.831478 45.079354 0.650905 0.786791 0.082961 -0.033957 -166608.000000 0 0 1
26.114739 20.538912 31.602978 45.853841 0.666447 0.810397 0.075282 -0.039426 756622.000000 0 0 1
27.602539 20.252012 31.198468 46.318339 0.632988 0.831773 0.048700 -0.040496 614032.000000 0 0 1
28.385939 19.684812 32.223217 47.239698 0.606330 0.820136 0.050594 -0.041644 -631587.000000 0 0 1
29.738539 19.870012 31.940388 47.951918 0.589034 0.841839 0.041243 -0.038866 -488687.000000 0 0 1
30.699939 19.408412 33.082164 49.128427 0.563758 0.832023 0.036877 -0.034999 427.277000 0 0 1
30.528639 20.003612 -33.707377 49.682286 0.580051 2.316459 0.028654 -0.032495 -114606.000000 0 0 1
29.477939 19.547812 -32.909417 48.312478 0.585553 2.320167 0.032094 -0.034288 -569726.000000 0 0 1
29.774239 19.970112 -31.500287 47.723985 0.590802 2.291684 0.045384 -0.028612 -181388.000000 0 0 1
30.756539 19.134812 -30.942017 47.639418 0.556539 2.277729 0.049737 -0.038381 -135442.000000 0 0 1
31.098039 19.551012 -29.689967 47.231602 0.561248 2.250553 0.029301 -0.023281 -738320.000000 0 0 1
32.391139 18.967912 -29.137917 47.518268 0.529756 2.230894 0.079598 -0.012245 417649.000000 0 0 1
33.550739 19.642212 -29.698577 48.923144 0.529651 2.223134 0.032859 -0.014652 -367363.000000 0 0 1
34.687239 19.298612 -29.027327 49.175468 0.507713 2.202203 0.058871 -0.011539 -1826310.000000 0 0 1
35.920239 19.994112 -29.488557 50.592520 0.507916 2.193045 0.050044 -0.008311 -1104210.000000 0 0 1
36.582039 19.557612 -30.656317 51.580573 0.490961 2.207239 0.033670 -0.010953 -125017.000000 0 0 1
-36.087381 20.510112 -30.852747 51.719007 -0.516819 2.209986 0.036119 -0.016808 -458173.000000 0 0 1
-35.051981 20.127412 -31.886157 51.482823 -0.521245 2.238718 0.029617 -0.023928 -804399.000000 0 0 1
-34.293381 19.000412 -31.603327 50.356945 -0.505951 2.249245 0.052042 -0.018045 137933.000000 0 0 1
-33.335081 18.905812 -32.671387 50.359476 -0.515911 2.276755 0.049526 -0.003406 1209820.000000 0 0 1
-32.280281 17.696412 -32.465547 49.083513 -0.501469 2.293527 0.030860 0.005590 928799.000000 0 0 1
-32.938781 16.455012 -32.669597 49.224316 -0.463298 2.296535 0.030709 0.002149 253394.000000 0 0 1
-32.061181 15.368512 -32.754957 48.342504 -0.446991 2.315237 0.032452 0.004453 -150494.000000 0 0 1
-32.920581 14.116212 -33.117057 48.782902 -0.405081 2.317014 0.033275 0.004989 103227.000000 0 0 1
-32.405581 12.819712 -33.198567 48.131191 -0.376709 2.331942 0.048192 -0.004683 -63627.300000 0 0 1
-33.488581 11.966612 -33.550117 48.890645 -0.343194 2.327087 0.067332 -0.008427 160985.000000 0 0 1
-33.148881 10.499012 -33.721417 48.437707 -0.306728 2.340860 0.071397 -0.018054 -268609.000000 0 0 1
-32.396181 10.134412 33.203838 47.483826 -0.303183 0.796426 0.059337 -0.020707 -53095.000000 0 0 1
-32.618081 8.807812 32.897358 47.156685 -0.263738 0.798729 0.102020 -0.030403 -405638.000000 0 0 1
-31.581781 8.149912 31.991628 45.686915 -0.252548 0.795068 0.118480 -0.025518 133257.000000 0 0 1
-30.375281 7.894812 32.706509 45.328815 -0.254283 0.764774 0.066655 -0.021347 400151.000000 0 0 1
-29.424281 7.164612 31.932248 44.008959 -0.238845 0.758912 0.072100 -0.019927 126537.000000 0 0 1
21.023939 -4.509022 -31.491557 38.132079 -0.211270 2.542513 0.066393 -0.027502 675961.000000 0 0 1
22.397339 -4.548122 -31.927627 39.264482 -0.200341 2.520327 0.058162 -0.030454 1355940.000000 0 0 1
23.256239 -3.539322 -31.337057 39.184060 -0.151029 2.497658 0.052831 -0.027502 535370.000000 0 0 1
23.103239 -2.099922 -31.930787 39.468271 -0.090644 2.513286 0.045905 -0.023686 -428593.000000 0 0 1
23.984039 -1.217722 -31.245627 39.408199 -0.050729 2.486303 0.044724 -0.022425 393092.000000 0 0 1
23.968639 0.106378 -31.743697 39.776491 0.004438 2.494851 0.036778 -0.022379 -272189.000000 0 0 1
25.105739 0.998578 -31.246427 40.095317 0.039754 2.464350 0.033118 -0.014867 -289391.000000 0 0 1
26.361439 0.880378 -31.846567 41.350989 0.033384 2.449876 0.044673 -0.019514 20700.400000 0 0 1
27.368939 1.688778 -31.233057 41.562178 0.061626 2.421096 0.047805 -0.013422 222809.000000 0 0 1
28.737839 1.638978 -31.916347 42.979097 0.056970 2.407743 0.034871 -0.019055 -469700.000000 0 0 1
28.760839 2.279778 -33.202617 43.986327 0.079101 2.426206 0.039853 -0.023497 72803.000000 0 0 1
29.071739 1.314378 33.848249 44.638521 0.045181 0.710134 0.033438 -0.025064 -365254.000000 0 0 1
30.018539 1.918478 32.754431 44.470732 0.063823 0.742857 0.037020 -0.021204 324977.000000 0 0 1
29.370939 2.879578 31.886468 43.447565 0.097729 0.746740 0.048564 -0.008685 377718.000000 0 0 1
29.211539 4.193278 32.506562 43.904147 0.142575 0.737133 0.043898 -0.006682 -54591.800000 0 0 1
28.269339 5.089678 31.695828 42.774827 0.178134 0.736249 0.035903 -0.003903 -64958.900000 0 0 1
28.526939 6.445078 32.050848 43.388733 0.222199 0.739671 0.056452 -0.005591 4100.820000 0 0 1
27.688739 7.323678 31.352788 42.465278 0.258579 0.740226 0.050399 -0.006135 -260114.000000 0 0 1
28.072439 8.814678 31.505788 43.108874 0.304249 0.751241 0.050011 0.002508 911368.000000 0 0 1
29.381739 9.082378 30.955688 43.635201 0.299799 0.782121 0.053324 0.004819 911030.000000 0 0 1
29.740739 10.471278 31.146548 44.320048 0.338531 0.791521 0.049437 0.006263 -650604.000000 0 0 1
31.120839 10.803378 30.612668 44.970602 0.334127 0.822043 0.064212 0.003456 -955223.000000 0 0 1
32.115239 10.424178 31.536858 46.202007 0.313858 0.819501 0.082491 -0.008626 -264812.000000 0 0 1
33.452739 10.631778 31.187898 46.955356 0.307720 0.844369 0.093348 -0.012372 -92269.200000 0 0 1
34.028039 12.076378 31.054378 47.624791 0.341029 0.860494 0.094535 -0.011377 -639018.000000 0 0 1
34.336339 12.556778 32.341288 48.812045 0.350592 0.846554 0.104822 -0.003711 225756.000000 0 0 1
34.904639 13.896778 32.370952 49.591660 0.378898 0.859588 0.103493 -0.002510 582489.000000 0 0 1
33.936539 15.136378 32.164792 49.146439 0.419539 0.857317 0.083710 -0.015425 202690.000000 0 0 1
33.335539 15.328678 30.876788 47.954171 0.430998 0.871236 0.083034 -0.023591 174225.000000 0 0 1
32.414439 16.387178 30.908018 47.692148 0.468079 0.865744 0.073124 -0.026028 57539.900000 0 0 1
30.924839 15.997278 31.054158 46.654253 0.477388 0.842468 0.064480 -0.022600 -211367.000000 0 0 1
30.456939 15.246978 29.948728 45.354402 0.464134 0.849542 0.055028 -0.016030 -231007.000000 0 0 1
29.210139 14.685978 30.271208 44.556214 0.465861 0.823860 0.044438 -0.021866 -26078.000000 0 0 1
28.425439 14.199878 28.999708 43.018893 0.463286 0.831030 0.052456 -0.011437 287735.000000 0 0 1
28.929939 12.959178 28.514108 42.637261 0.421148 0.838256 0.046567 -0.005035 255162.000000 0 0 1
27.934139 12.386178 27.696258 41.240953 0.417357 0.834468 0.057553 -0.011497 59451.800000 0 0 1
27.818439 10.853578 27.769528 40.777597 0.371993 0.821669 0.053220 0.002126 -1183820.000000 0 0 1
28.940839 10.265778 27.270518 41.068717 0.340870 0.844612 0.063854 0.003448 -1057640.000000 0 0 1
28.798539 8.823178 27.337048 40.675773 0.297296 0.833793 0.071343 0.011392 -623117.000000 0 0 1
29.990239 8.081378 26.792018 41.018719 0.263215 0.859039 0.057639 0.005379 -966321.000000 0 0 1
30.132339 8.172178 25.364998 40.225930 0.264839 0.888517 0.064621 0.006731 673046.000000 0 0 1
31.187339 7.252578 24.978688 40.610157 0.228488 0.908303 0.077461 0.004026 885606.000000 0 0 1
31.728939 7.410578 23.503878 40.175546 0.229446 0.945880 0.085591 0.007395 50895.200000 0 0 1
32.387139 8.662878 23.301028 40.827811 0.261361 0.963420 0.076750 -0.001865 412841.000000 0 0 1
31.543539 9.838878 23.265258 40.411268 0.302351 0.957321 0.076626 -0.008203 32229.700000 0 0 1
30.945139 9.964578 21.838698 39.164054 0.311523 0.979279 0.071190 0.013117 -51364.000000 0 0 1
31.868639 10.371678 20.847998 39.469239 0.314640 1.014307 0.083223 -0.005038 313672.000000 0 0 1
31.280239 10.282978 19.553198 38.295176 0.317608 1.034924 0.079589 -0.005644 -578833.000000 0 0 1
32.158839 10.941378 18.445298 38.654025 0.327944 1.073342 0.096091 -0.033646 459221.000000 0 0 1
33.326839 10.262778 18.037798 39.260221 0.298728 1.093429 0.092516 -0.023974 399033.000000 0 0 1
34.390139 10.244178 18.968898 40.588717 0.289512 1.084512 0.109527 -0.022165 -1360600.000000 0 0 1
35.694939 9.624778 18.531098 41.354161 0.263376 1.106149 0.145973 -0.036825 -684710.000000 0 0 1
35.658039 8.253178 18.367298 40.950804 0.227448 1.105686 0.127349 -0.022409 392329.000000 0 0 1
36.757539 7.831178 17.573898 41.488383 0.209911 1.133396 0.150160 -0.023323 -108587.000000 0 0 1
36.664739 6.329078 17.263698 41.017016 0.170936 1.136369 0.155841 -0.027280 -768864.000000 0 0 1
35.576739 5.974178 16.482198 39.661795 0.166371 1.142228 0.110193 -0.024353 -492768.000000 0 0 1
35.692339 4.714878 15.873498 39.346424 0.131337 1.155535 0.125025 -0.028816 -466854.000000 0 0 1
34.413839 3.835278 15.860698 38.086525 0.110988 1.141272 0.079084 -0.019349 -33907.500000 0 0 1
34.080339 3.320178 17.142998 38.293282 0.097116 1.106631 0.082377 -0.011310 257001.000000 0 0 1
33.034739 2.353578 17.088298 37.267187 0.071125 1.094451 0.055117 -0.001073 157976.000000 0 0 1
32.897239 1.558078 18.375098 37.713395 0.047327 1.061881 0.047368 -0.008154 116481.000000 0 0 1
33.845339 0.515178 18.505598 38.577578 0.015220 1.070486 0.053878 -0.010662 96107.700000 0 0 1
33.545839 -0.176022 19.727398 38.916892 -0.005247 1.039199 0.058725 -0.010855 -1805.870000 0 0 1
34.180039 -1.574722 19.842398 39.553452 -0.046039 1.045279 0.066129 -0.010268 -116883.000000 0 0 1
33.893539 -2.362522 20.984998 39.933991 -0.069592 1.017503 0.072745 -0.001876 -67052.800000 0 0 1
34.358239 -3.679522 20.846898 40.356172 -0.106686 1.027953 0.069213 -0.007173 -212855.000000 0 0 1
34.018739 -4.564422 22.067298 40.805320 -0.133377 0.999415 0.069937 -0.003045 -110118.000000 0 0 1
34.623439 -4.156922 23.259988 41.917652 -0.119489 0.982557 0.089283 -0.009900 -70379.600000 0 0 1
34.259839 -4.985922 24.348018 42.325193 -0.144518 0.957874 0.094673 -0.017040 -170388.000000 0 0 1
34.739339 -4.567822 25.727598 43.469483 -0.130738 0.937439 0.098899 -0.015452 72905.700000 0 0 1
33.828539 -4.846222 26.789698 43.422849 -0.142290 0.905936 0.091541 -0.020871 34816.900000 0 0 1
34.091439 -4.003522 27.900888 44.234759 -0.116899 0.888282 0.088323 -0.020688 -165224.000000 0 0 1
33.209639 -4.311322 29.105948 44.369176 -0.129099 0.855296 0.089601 -0.022522 -243143.000000 0 0 1
33.464139 -5.527322 29.695968 45.080488 -0.163694 0.851664 0.100280 -0.031556 121675.000000 0 0 1
32.506539 -5.800322 30.713328 45.095757 -0.176577 0.821575 0.107693 -0.040526 182006.000000 0 0 1
32.517239 -7.282622 31.216978 45.660783 -0.220326 0.818015 0.105774 -0.035349 442510.000000 0 0 1
33.693639 -7.637622 31.937508 47.048900 -0.222911 0.824648 0.099624 -0.031663 116230.000000 0 0 1
34.425339 -8.714422 31.356458 47.373754 -0.247932 0.847452 0.089479 -0.023004 151115.000000 0 0 1
35.657339 -9.044122 32.227754 48.906749 -0.248401 0.851357 0.084179 -0.016228 -42360.900000 0 0 1
35.395339 -9.630122 33.485469 49.667352 -0.265643 0.830922 0.060645 -0.022259 -464428.000000 0 0 1
36.571539 -9.823522 -33.842067 50.786460 -0.262417 2.300113 0.044192 -0.021170 -301223.000000 0 0 1
36.371539 -10.011022 -32.292877 49.658225 -0.268592 2.278779 0.065299 -0.024806 -188200.000000 0 0 1
35.878939 -8.932822 -31.486517 48.564331 -0.244010 2.276207 0.060246 -0.028958 -89850.800000 0 0 1
36.701739 -7.833422 -31.361747 48.907456 -0.210279 2.266918 0.057581 -0.019531 -500343.000000 0 0 1
36.071839 -6.642422 -30.597207 47.764928 -0.182104 2.266048 0.068532 -0.024758 -277287.000000 0 0 1
36.051539 -6.879422 -29.211257 46.907754 -0.188555 2.243034 0.059609 -0.011914 196593.000000 0 0 1
35.331439 -5.915222 -28.453917 45.748506 -0.165882 2.242044 0.068412 -0.015674 -141374.000000 0 0 1
35.818439 -5.712122 -27.008627 45.222282 -0.158143 2.210854 0.065983 -0.021015 -438956.000000 0 0 1
-36.652081 -5.046522 -27.001597 45.803151 0.136827 2.201253 0.066972 -0.019689 -720009.000000 0 0 1
-36.089781 -5.191522 -25.724787 44.622739 0.142870 2.185229 0.058245 -0.013699 242568.000000 0 0 1
-34.660881 -4.618622 -25.543217 43.303167 0.132471 2.201694 0.097072 -0.011810 -494498.000000 0 0 1
-34.284381 -4.513722 -24.159737 42.183946 0.130902 2.180621 0.106053 -0.010652 244155.000000 0 0 1
-32.924381 -4.404422 -23.808937 40.869050 0.132984 2.192679 0.113044 -0.010365 -354622.000000 0 0 1
-31.991981 -3.426422 -24.443837 40.407033 0.106696 2.220487 0.121626 -0.006608 -1057120.000000 0 0 1
-31.627381 -3.831522 -25.774197 40.979031 0.120558 2.251012 0.118012 -0.006621 337768.000000 0 0 1
-30.622081 -2.976822 -26.355857 40.511782 0.096907 2.279135 0.116952 -0.014473 631043.000000 0 0 1
-29.983681 -3.685122 -27.577677 40.903905 0.122291 2.310686 0.110027 -0.000965 -84074.800000 0 0 1
-30.953381 -4.017022 -28.541437 42.294939 0.129055 2.311516 0.116416 -0.000420 -59982.900000 0 0 1
-30.405681 -4.685122 -29.681497 42.748649 0.152885 2.338279 0.095892 0.003744 -410489.000000 0 0 1
-31.430981 -5.072822 -30.794307 44.293672 0.160016 2.339537 0.080295 -0.004241 -339357.000000 0 0 1
-32.515581 -5.950422 -30.538397 45.002935 0.180999 2.316633 0.073904 -0.008767 861795.000000 0 0 1
-33.582081 -5.389322 -29.764277 45.196384 0.159125 2.289692 0.089317 -0.007909 -384368.000000 0 0 1
-34.578581 -4.477822 -30.473987 46.307591 0.128780 2.289059 0.111470 -0.007466 -1211870.000000 0 0 1
-34.093981 -3.344822 -31.100977 46.269408 0.097793 2.307934 0.131311 -0.004040 -238413.000000 0 0 1
-33.585981 -2.331722 -30.260177 45.267354 0.069314 2.302955 0.134923 0.000022 -190083.000000 0 0 1
-33.496181 -0.936522 -30.961717 45.623449 0.027952 2.316700 0.136809 -0.001273 177865.000000 0 0 1
-34.734881 -0.312922 -31.263567 46.733505 0.009009 2.303626 0.147682 -0.009831 106394.000000 0 0 1
-34.590181 1.002078 -31.810467 47.004155 -0.028962 2.314147 0.159589 -0.006880 385006.000000 0 0 1
-35.966881 1.676578 -32.098037 48.235997 -0.046581 2.298876 0.125129 -0.010854 311145.000000 0 0 1
-36.406281 1.413478 -33.412267 49.434752 -0.038806 2.312963 0.125473 -0.012735 -435570.000000 0 0 1
36.001639 1.965478 -33.451417 49.183111 0.054540 2.318750 0.085368 -0.007911 -568142.000000 0 0 1
35.145139 1.646878 33.346975 48.475909 0.046825 0.812193 0.059068 -0.009365 -152961.000000 0 0 1
35.495739 2.208378 32.080751 47.895710 0.062135 0.836851 0.089112 -0.017808 1227290.000000 0 0 1
36.758439 1.657278 31.607568 48.507399 0.045055 0.861101 0.094506 -0.015653 874529.000000 0 0 1
-36.830181 1.742378 30.109628 47.603443 -0.047273 0.886007 0.104092 -0.017710 -317812.000000 0 0 1
-36.444981 3.001478 29.609318 47.052707 -0.082171 0.890170 0.122605 -0.021462 63295.900000 0 0 1
-35.999881 2.982978 28.283378 45.878525 -0.082672 0.906527 0.127704 -0.024031 211771.000000 0 0 1
-35.243781 4.263578 27.855238 45.124455 -0.120389 0.905493 0.120766 -0.019763 397665.000000 0 0 1
-34.580581 4.296078 26.566518 43.818406 -0.123601 0.919413 0.115252 -0.014395 814141.000000 0 0 1
-33.843181 5.528778 26.420738 43.289533 -0.161934 0.914324 0.116571 -0.014923 -127009.000000 0 0 1
-33.139381 5.751078 25.111288 41.974638 -0.171831 0.929482 0.118272 -0.012198 -44748.800000 0 0 1
-32.128381 4.782278 24.858818 40.903103 -0.147764 0.917573 0.102710 -0.009379 414958.000000 0 0 1
-31.347581 5.048978 23.697948 39.620143 -0.159693 0.929632 0.096458 -0.012330 117220.000000 0 0 1
-31.750481 4.366578 22.401098 39.102036 -0.136671 0.960771 0.129798 -0.024372 -46275.700000 0 0 1
-31.605981 2.974778 22.398998 38.852316 -0.093844 0.956337 0.133280 -0.024529 -208880.000000 0 0 1
-32.308981 2.502778 21.287798 38.772471 -0.077309 0.989576 0.165180 -0.026736 -808634.000000 0 0 1
-32.082981 1.004178 20.996998 38.356224 -0.031289 0.991517 0.158542 -0.033873 -602965.000000 0 0 1
-30.850081 0.725078 20.420398 37.003323 -0.023499 0.986212 0.153663 -0.033938 -401427.000000 0 0 1
-30.607081 1.385778 19.184598 36.149171 -0.045245 1.011362 0.172207 -0.036729 -847309.000000 0 0 1
-29.452081 0.858678 18.321598 34.696446 -0.029147 1.014489 0.167338 -0.042249 -84638.800000 0 0 1
-29.792081 -0.397022 17.709398 34.660474 0.013326 1.034519 0.176288 -0.036216 337564.000000 0 0 1
-28.702581 -1.011022 17.033398 33.391570 0.035210 1.035483 0.184526 -0.038565 72788.400000 0 0 1
-28.329481 -0.448622 15.648698 32.367306 0.015835 1.066179 0.187642 -0.043739 16631.600000 0 0 1
-27.574081 0.752278 15.602998 31.691472 -0.027275 1.056020 0.211492 -0.040104 252306.000000 0 0 1
-27.811381 1.406078 14.373698 31.337727 -0.050515 1.094298 0.198092 -0.039744 65004.600000 0 0 1
-26.922781 2.635078 14.113898 30.511996 -0.097565 1.089906 0.185273 -0.034289 -258164.000000 0 0 1
-25.545181 2.467378 13.907998 29.190352 -0.096290 1.074174 0.167237 -0.033274 -30281.700000 0 0 1
-24.990381 3.518678 13.116498 28.441919 -0.139882 1.091485 0.155923 -0.028883 -297865.000000 0 0 1
-23.475581 3.437878 12.908898 27.010397 -0.145411 1.072507 0.115226 -0.022468 -613918.000000 0 0 1
-22.765681 3.826278 14.043498 27.021037 -0.166516 1.024268 0.086572 -0.013055 -671761.000000 0 0 1
-21.415081 3.987478 13.729598 25.748933 -0.184091 1.008405 0.041787 -0.011020 -664279.000000 0 0 1
-20.667081 4.628178 14.910998 25.901470 -0.220305 0.957359 0.023710 -0.012695 -490168.000000 0 0 1
-21.026881 5.960478 15.112698 26.571614 -0.276223 0.965807 0.022794 -0.004323 377201.000000 0 0 1
-20.826081 6.345678 16.451398 27.288125 -0.295762 0.923693 0.009308 0.007791 -374512.000000 0 0 1
-20.949181 7.851578 16.630198 27.876136 -0.358588 0.931570 0.020034 0.004195 -427397.000000 0 0 1
-19.877581 8.629278 16.085898 26.987752 -0.409571 0.932231 0.024703 -0.004197 653157.000000 0 0 1
-20.084281 10.019278 16.032498 27.582699 -0.462737 0.950530 0.037835 -0.001797 -297762.000000 0 0 1
-19.742581 10.740078 17.365298 28.401978 -0.498229 0.912953 0.041739 -0.003321 12417.700000 0 0 1
-20.669581 10.400778 18.386698 29.554668 -0.466198 0.899342 0.053153 -0.013617 488579.000000 0 0 1
-20.156181 10.736778 19.631998 30.115866 -0.489448 0.860732 0.065623 -0.020082 -177499.000000 0 0 1
-12.387461 -33.470156 -20.114437 40.966952 1.216324 2.084024 0.096454 -0.035556 -859996.000000 0 0 1
-13.525061 33.999078 -19.750237 41.580481 -1.192182 2.065747 0.117402 -0.032359 3689.110000 0 0 1
-14.655161 -33.222756 -19.647737 41.286303 1.155353 2.066772 0.107284 -0.041254 -32051.700000 0 0 1
-15.855361 -33.768156 -18.952937 41.843693 1.131816 2.040863 0.103424 -0.037197 -2029610.000000 0 0 1
-16.577161 33.499278 -19.765337 42.280876 -1.111276 2.057231 0.090633 -0.037716 -202318.000000 0 0 1
-17.202561 32.452478 -19.084337 41.392069 -1.083372 2.049989 0.094708 -0.030889 -110365.000000 0 0 1
-18.438161 32.743178 -18.195637 41.751200 -1.057940 2.021736 0.081797 -0.035695 -809583.000000 0 0 1
-18.288061 33.595578 -17.055937 41.881034 -1.072294 1.990234 0.091964 -0.029116 -252532.000000 0 0 1
-19.527361 34.038378 -16.569537 42.596697 -1.049950 1.970327 0.055659 -0.018120 89049.500000 0 0 1
-20.025561 33.258778 -15.243137 41.707585 -1.028824 1.944941 0.055454 -0.020005 7596.550000 0 0 1
-20.076561 31.878078 -15.350537 40.680697 -1.008758 1.957721 0.060142 -0.020448 138775.000000 0 0 1
-20.517161 31.439778 -14.091337 40.099617 -0.992605 1.929871 0.065837 -0.012501 -606846.000000 0 0 1
-20.501861 29.897578 -14.036837 38.874468 -0.969707 1.940223 0.054339 -0.013904 465222.000000 0 0 1
-19.215261 29.340778 -13.782637 37.683797 -0.990985 1.945229 0.056595 -0.020710 352204.000000 0 0 1
-19.324661 27.928578 -13.717737 36.628190 -0.965506 1.954668 0.065792 -0.027433 -198335.000000 0 0 1
-18.005761 27.316378 -13.236837 35.293141 -0.988011 1.955251 0.081757 -0.024280 179003.000000 0 0 1
-16.917861 27.737378 -14.046237 35.395945 -1.023107 1.978859 0.097133 -0.031023 -1008280.000000 0 0 1
-15.727161 27.097178 -13.787037 34.229856 -1.044914 1.985346 0.108618 -0.036803 -591525.000000 0 0 1
-14.571061 27.826378 -14.500337 34.595995 -1.088414 2.003287 0.101789 -0.036878 -169216.000000 0 0 1
-14.649261 27.658878 -15.894637 35.103474 -1.083718 2.040693 0.088203 -0.033432 -755897.000000 0 0 1
-13.551761 28.221178 -16.491737 35.384495 -1.123115 2.055643 0.100961 -0.044095 -826387.000000 0 0 1
-13.670061 28.166078 -18.055737 36.141502 -1.118947 2.093915 0.120409 -0.059015 -16851.000000 0 0 1
-13.674461 26.801578 -18.510737 35.326518 -1.099013 2.122325 0.094760 -0.057008 207011.000000 0 0 1
-14.123961 26.696678 -19.844637 36.138740 -1.084177 2.152112 0.083546 -0.061073 -410205.000000 0 0 1
-13.363261 25.632978 -20.570637 35.479253 -1.090230 2.189271 0.057934 -0.046548 -1155110.000000 0 0 1
-12.092961 26.016478 -20.967637 35.535034 -1.135687 2.201924 0.049025 -0.047842 -1116540.000000 0 0 1
-11.335161 24.861378 -21.196037 34.581006 -1.143018 2.230571 0.047906 -0.040501 -1140040.000000 0 0 1
-10.073761 25.224978 -21.899237 34.890640 -1.190845 2.249332 0.065266 -0.043349 -1174720.000000 0 0 1
-10.350561 25.718278 -23.165537 36.127635 -1.188172 2.266875 0.067682 -0.041478 -511083.000000 0 0 1
-9.211661 26.242978 -23.747037 36.571442 -1.233218 2.277503 0.056586 -0.041659 -469905.000000 0 0 1
-9.480561 26.913578 -25.138897 38.028750 -1.232110 2.293013 0.069001 -0.034801 3250.830000 0 0 1
-10.143861 26.014178 -26.021837 38.167674 -1.198996 2.320985 0.063334 -0.033445 106677.000000 0 0 1
-10.635361 26.780678 -27.161957 39.599085 -1.192768 2.326669 0.081085 -0.028286 -99596.800000 0 0 1
-11.927661 26.162778 -27.699117 39.924944 -1.143045 2.337520 0.065560 -0.027553 -465015.000000 0 0 1
-12.340161 26.624278 -28.938647 41.213797 -1.136779 2.349222 0.077839 -0.023963 -509565.000000 0 0 1
-13.632661 26.215578 -29.275707 41.595348 -1.091260 2.351559 0.072746 -0.026454 -566599.000000 0 0 1
-14.135261 26.638078 -30.654037 43.000730 -1.082937 2.364382 0.072109 -0.032451 111324.000000 0 0 1
-13.293961 26.154878 -31.719887 43.208312 -1.100548 2.395159 0.077577 -0.031441 422342.000000 0 0 1
-13.239861 24.739878 -31.999297 42.559493 -1.079416 2.421693 0.066808 -0.036156 -215119.000000 0 0 1
-12.412961 24.467978 -33.247747 43.106568 -1.101314 2.451665 0.065412 -0.027298 50859.200000 0 0 1
-13.072961 24.714278 33.576417 43.692947 -1.084247 0.694360 0.065518 -0.020662 -516793.000000 0 0 1
-12.258461 24.230278 32.601154 42.428899 -1.102428 0.694504 0.057668 -0.020089 -860381.000000 0 0 1
-12.930161 24.109578 31.207848 41.501694 -1.078526 0.719757 0.058630 -0.009753 299459.000000 0 0 1
-14.102361 23.267878 31.217108 41.409885 -1.025913 0.716884 0.067468 -0.015824 712738.000000 0 0 1
-14.630961 23.217278 29.899818 40.584556 -1.008484 0.742576 0.066115 -0.010208 139018.000000 0 0 1
-15.845261 22.255478 29.752458 40.392912 -0.952081 0.742802 0.057720 -0.010745 235970.000000 0 0 1
-15.616361 20.894378 29.899318 39.678899 -0.928964 0.717378 0.042072 -0.012743 -501846.000000 0 0 1
-16.824761 20.196278 29.969798 39.864157 -0.876218 0.720012 0.048426 -0.017347 -166121.000000 0 0 1
-16.566561 18.673378 30.194148 39.176939 -0.845112 0.690838 0.036012 -0.015881 5118.980000 0 0 1
-16.054461 18.066178 28.980408 37.735879 -0.844289 0.695115 0.042446 -0.014954 111743.000000 0 0 1
-15.620461 16.764078 29.197378 37.114957 -0.820697 0.665393 0.025627 -0.026415 -81952.500000 0 0 1
-15.264061 16.071778 27.861078 35.602434 -0.811169 0.672027 0.019868 -0.022768 -43599.400000 0 0 1
-14.063561 16.564978 27.316008 34.904821 -0.866887 0.671988 0.018045 -0.012188 -397660.000000 0 0 1
-13.665961 15.757178 26.266738 33.540851 -0.856353 0.671118 0.016463 -0.011999 245798.000000 0 0 1
-12.432461 16.324778 25.508078 32.737235 -0.919931 0.677446 0.015053 -0.014417 -57306.200000 0 0 1
-12.723061 17.320778 24.543928 32.623459 -0.937254 0.719190 0.020447 -0.017976 -184021.000000 0 0 1
-13.146961 18.610078 24.949358 33.788283 -0.955759 0.740098 0.020632 -0.014914 -117559.000000 0 0 1
-12.100561 19.532178 25.627298 34.419297 -1.016148 0.730918 0.029150 -0.009382 124156.000000 0 0 1
-11.797961 19.147578 27.036898 35.168388 -1.018580 0.693859 0.030807 -0.013591 336159.000000 0 0 1
-12.784961 19.658878 27.941848 36.478399 -0.994182 0.698227 0.039681 -0.007679 391002.000000 0 0 1
-12.421461 19.398178 29.437668 37.378581 -1.001241 0.663966 0.033562 -0.010529 526716.000000 0 0 1
-11.296061 20.194978 29.823718 37.747746 -1.060803 0.659858 0.040813 -0.014815 295294.000000 0 0 1
-11.269061 20.338578 31.246958 38.948965 -1.064831 0.639735 0.034700 -0.010489 10973.700000 0 0 1
-9.972861 21.007778 31.760478 39.363850 -1.127575 0.632006 0.033954 -0.008752 -69102.000000 0 0 1
-8.877261 20.124878 31.806928 38.671658 -1.155361 0.605027 0.041810 -0.012100 -435188.000000 0 0 1
-7.750861 20.896978 32.180895 39.145492 -1.215618 0.605734 0.042298 -0.009812 -293137.000000 0 0 1
-6.599661 20.033278 32.712519 38.922958 -1.252558 0.572697 0.046509 -0.008419 -656347.000000 0 0 1
-6.816661 19.263778 33.893887 39.577211 -1.230688 0.542542 0.037942 -0.012961 648617.000000 0 0 1
-5.591461 18.694778 -33.648297 38.896877 -1.280173 2.616075 0.033487 -0.015915 1241150.000000 0 0 1
-4.868961 17.604478 33.517433 38.171229 -1.300966 0.498959 0.029142 -0.017672 112071.000000 0 0 1
-5.341961 16.259078 33.722612 37.816779 -1.253355 0.469628 0.036849 -0.013517 -42788.000000 0 0 1
-5.143361 15.530178 32.477554 36.365260 -1.250981 0.466622 0.044973 -0.010293 -127747.000000 0 0 1
-5.735161 14.105178 32.443628 35.839045 -1.184614 0.438807 0.049595 -0.019219 198097.000000 0 0 1
-5.014861 13.134578 33.241172 36.092125 -1.206072 0.400133 0.059556 -0.019340 164458.000000 0 0 1
-5.502761 11.802378 33.043075 35.516493 -1.134518 0.375407 0.058767 -0.016037 48723.400000 0 0 1
-4.680661 10.771878 33.797403 35.779972 -1.160885 0.334453 0.080147 -0.029896 -203551.000000 0 0 1
-4.703161 10.760778 -32.787827 34.827513 -1.158751 2.797656 0.103065 -0.041642 -777838.000000 0 0 1
-3.702761 9.996878 -32.220867 33.938654 -1.216072 2.822070 0.122629 -0.039983 -393616.000000 0 0 1
-3.860661 9.698778 -30.673057 32.400731 -1.191967 2.813560 0.124895 -0.047225 -268777.000000 0 0 1
-4.820261 8.714278 -30.449477 32.036607 -1.065542 2.825505 0.131974 -0.042809 -267201.000000 0 0 1
-5.514261 8.977678 -29.232417 31.073139 -1.019987 2.795666 0.145933 -0.045774 -25891.200000 0 0 1
-6.658661 7.979278 -29.034867 30.838776 -0.875373 2.797865 0.130174 -0.044089 165947.000000 0 0 1
-6.098561 6.743278 -28.496297 29.911589 -0.835560 2.832744 0.117304 -0.030521 659042.000000 0 0 1
-7.174961 5.862278 -28.235327 29.716663 -0.685049 2.824517 0.127481 -0.047827 -334895.000000 0 0 1
-7.074061 5.233678 -26.821907 28.228503 -0.636967 2.824580 0.113715 -0.045114 -103276.000000 0 0 1
-7.016861 6.096978 -25.713297 27.341966 -0.715367 2.794699 0.077443 -0.025374 293584.000000 0 0 1
-5.888261 6.942878 -25.547667 27.121181 -0.867406 2.799284 0.080409 -0.027589 44730.600000 0 0 1
-6.253561 8.095178 -24.550437 26.596294 -0.913047 2.746803 0.044356 0.002341 218094.000000 0 0 1
-6.199061 7.694878 -23.190137 25.207577 -0.892645 2.738792 0.032158 0.008551 -373276.000000 0 0 1
-7.463161 7.764278 -22.589037 25.024935 -0.805170 2.696710 0.047596 0.002096 -232468.000000 0 0 1
-7.472461 7.708178 -21.074437 23.651333 -0.800924 2.670442 0.037852 -0.001306 34481.100000 0 1 0
-6.908261 8.922278 -20.544137 23.439127 -0.911942 2.639316 0.032168 -0.000717 229245.000000 0 1 0
-6.881261 8.938978 -19.121537 22.201132 -0.914741 2.608593 0.025502 -0.008280 -31518.700000 0 1 0
-8.184961 9.424178 -18.449937 22.275747 -0.855656 2.546778 0.034195 -0.000425 -260449.000000 0 1 0
-8.013761 9.510178 -17.051537 21.104946 -0.870584 2.511445 0.028698 0.001429 769196.000000 0 1 0
-9.216561 9.773978 -16.298937 21.121813 -0.814742 2.452249 0.031661 -0.001654 415499.000000 0 1 0
-9.759961 11.207578 -16.413037 22.141690 -0.854330 2.405761 0.050957 -0.017743 237161.000000 0 1 0
-8.785161 12.136178 -15.888337 21.838157 -0.944221 2.385539 0.032690 -0.018419 461525.000000 0 1 0
-9.057561 13.393378 -16.445437 23.062402 -0.976174 2.364684 0.057410 -0.020620 829364.000000 0 1 0
-7.866661 14.392978 -16.127537 23.003035 -1.070596 2.347742 0.054256 -0.021485 619485.000000 0 1 0
-7.388461 14.472278 -14.765937 21.956071 -1.098764 2.308407 0.055026 -0.016901 62603.800000 0 1 0
-8.328461 15.055578 -13.914737 22.128118 -1.065514 2.250839 0.049334 -0.028102 -373986.000000 0 1 0
-7.582961 15.901578 -12.830037 21.793837 -1.125825 2.200246 0.040293 -0.022456 420263.000000 0 1 0
-7.128761 17.238878 -13.076937 22.781669 -1.178682 2.182193 0.051856 -0.026257 -4780.270000 0 1 0
-6.244861 17.439078 -14.148337 23.308693 -1.226927 2.223074 0.070163 -0.022046 -202150.000000 0 1 0
-6.082361 18.976678 -14.550537 24.674431 -1.260624 2.201485 0.087738 -0.018492 296065.000000 0 1 0
-5.436661 19.792178 -13.587337 24.615103 -1.302721 2.155547 0.088604 -0.025208 -5506.580000 0 1 0
-5.758761 21.139478 -13.867937 25.929916 -1.304833 2.135096 0.094386 -0.024167 137012.000000 0 0 1
-5.140161 22.122378 -12.828937 26.084526 -1.342496 2.084977 0.095109 -0.023302 -797757.000000 0 0 1
-5.392361 23.473378 -13.145537 27.438698 -1.344992 2.070411 0.074288 -0.025481 413086.000000 0 0 1
-6.685861 24.053678 -12.961637 28.129774 -1.299684 2.049670 0.083197 -0.021211 742999.000000 0 0 1
-7.436961 23.760878 -11.612037 27.472297 -1.267463 2.007199 0.069355 -0.027981 -466516.000000 0 0 1
-7.798461 22.437178 -11.323637 26.314781 -1.236289 2.015638 0.073840 -0.022129 -176561.000000 0 0 1
-8.460461 22.254478 -10.058537 25.845993 -1.207502 1.970529 0.069735 -0.020942 -46681.800000 0 0 1
-7.768061 22.645578 -8.736137 25.484997 -1.240346 1.920687 0.070492 -0.015992 -177465.000000 0 0 1
-7.584361 24.074378 -8.673037 26.689320 -1.265600 1.901769 0.062138 -0.009685 -91466.300000 0 0 1
-7.075861 24.527478 -7.446037 26.591511 -1.289935 1.854607 0.070933 -0.013187 -32465.900000 0 0 1
-7.261461 26.074978 -7.359937 28.049990 -1.299194 1.836291 0.073735 -0.014500 260457.000000 0 0 1
-6.354761 26.970478 -7.996437 28.839776 -1.339398 1.851749 0.063925 -0.017327 -88866.700000 0 0 1
-6.159861 26.841178 -9.385437 29.094315 -1.345210 1.899257 0.059312 -0.011861 -22907.800000 0 0 1
-5.562361 28.141278 -9.991337 30.375948 -1.375653 1.905959 0.057230 -0.009826 541073.000000 0 0 1
-6.471661 29.247378 -9.913637 31.552682 -1.353032 1.890403 0.055200 -0.010216 172994.000000 0 0 1
-7.313461 29.338478 -11.026237 32.184016 -1.326497 1.920479 0.061048 -0.010564 -328950.000000 0 0 1
-8.444761 30.372478 -11.023437 33.396371 -1.299606 1.907183 0.071830 -0.015542 -803717.000000 0 0 1
-9.462061 30.019878 -10.175337 33.079618 -1.265460 1.883467 0.081189 -0.018059 -887112.000000 0 0 1
-10.408161 31.059578 -10.092537 34.276617 -1.247454 1.869670 0.073634 -0.028609 40777.100000 0 0 1
-11.630361 30.850978 -9.189337 34.227066 -1.210286 1.842613 0.080868 -0.023916 604659.000000 0 0 1
-12.575461 29.867578 -9.664537 33.817417 -1.172284 1.860623 0.087684 -0.027051 174463.000000 0 0 1
-13.616461 29.671978 -8.740937 33.797016 -1.140566 1.832400 0.088573 -0.019075 146836.000000 0 0 1
-14.733061 28.692278 -9.115437 33.517176 -1.096419 1.846229 0.091681 -0.024507 262279.000000 0 0 1
-14.262861 27.389478 -8.898037 32.137016 -1.090693 1.851340 0.083272 -0.018668 -311089.000000 0 0 1
-15.268761 26.520578 -9.311837 31.987285 -1.048412 1.866184 0.107796 -0.015974 -226029.000000 0 0 1
-15.390861 25.105978 -8.700437 30.706454 -1.020847 1.858074 0.092872 -0.016808 -597551.000000 0 0 1
-14.530161 24.164778 -9.218237 29.665434 -1.029425 1.886768 0.091777 -0.013665 -547169.000000 0 0 1
-15.052661 22.878978 -9.038637 28.839681 -0.988870 1.889578 0.099624 -0.018008 -84289.200000 0 0 1
-14.144261 21.685878 -9.394737 27.542667 -0.992852 1.918881 0.106878 -0.017332 -266332.000000 0 0 1
-14.208361 21.245978 -10.766837 27.734345 -0.981349 1.969488 0.103254 -0.010523 98921.800000 0 0 1
-13.273761 20.253778 -11.159137 26.663357 -0.990654 2.002611 0.096231 -0.011352 -8246.810000 0 0 1
-13.465961 19.804978 -12.604937 27.063882 -0.973669 2.055276 0.093787 -0.009503 106521.000000 0 0 1
-14.656461 19.056278 -12.739837 27.207665 -0.915174 2.058099 0.107279 -0.012164 -139441.000000 0 0 1
-14.787561 18.438978 -14.006237 27.474398 -0.894854 2.105740 0.108791 -0.014664 -132058.000000 0 0 1
-16.286061 18.302878 -14.301337 28.368281 -0.843640 2.099172 0.091626 -0.003426 -176958.000000 0 0 1
-16.871161 19.541278 -14.569837 29.644186 -0.858597 2.084597 0.068865 -0.009858 19917.300000 0 0 1
-18.255861 19.391978 -14.861837 30.499172 -0.815566 2.079776 0.062360 -0.012884 242290.000000 0 0 1
-18.904261 20.586078 -15.570937 31.993933 -0.827960 2.079086 0.057734 -0.011578 -75003.200000 0 0 1
-19.292661 21.693378 -14.767737 32.571390 -0.843905 2.041368 0.062517 -0.025838 239205.000000 0 0 1
-19.847361 22.714878 -15.610637 33.964326 -0.852669 2.048362 0.071445 -0.026311 57182.800000 0 0 1
-20.473961 23.884778 -14.783437 34.759397 -0.862139 2.010098 0.072034 -0.012215 264615.000000 0 0 1
-21.809461 23.682078 -14.350637 35.248180 -0.826539 1.990107 0.093863 -0.013503 261654.000000 0 0 1
-22.180361 24.677278 -13.418437 35.790933 -0.838635 1.955098 0.087926 -0.018890 51474.000000 0 0 1
-26.178841 -0.718022 3.682463 26.446320 0.027421 1.431099 0.159072 -0.044694 -180709.000000 0 0 1
-26.550831 -0.040622 4.841063 26.988594 0.001530 1.390446 0.162859 -0.040530 1224860.000000 0 0 1
-27.970131 -0.215122 5.073663 28.427391 0.007691 1.391357 0.150898 -0.035731 1063950.000000 0 0 1
-28.292421 0.485178 6.425163 29.016878 -0.017147 1.347517 0.150894 -0.022396 -321932.000000 0 0 1
-28.415011 1.868878 6.424963 29.192220 -0.065676 1.348888 0.163388 -0.022257 12573.100000 0 0 1
-28.601811 2.460878 7.700463 29.722326 -0.085828 1.308727 0.173032 -0.016220 -974102.000000 0 0 1
-27.467731 2.610478 8.673663 28.922712 -0.094753 1.266218 0.176995 -0.016201 -982892.000000 0 0 1
-27.177761 1.354378 9.293363 28.754681 -0.049793 1.241693 0.181374 -0.031023 382597.000000 0 0 1
-26.144661 1.535978 10.253463 28.125363 -0.058682 1.197633 0.188717 -0.042494 -188270.000000 0 0 1
-25.605671 0.160978 10.756263 27.773612 -0.006287 1.173113 0.174084 -0.041128 -368563.000000 0 0 1
-24.572861 -0.304022 9.906463 26.496339 0.012372 1.187607 0.158829 -0.042821 338326.000000 0 0 1
-24.999361 -1.207422 8.898363 26.563260 0.048261 1.229204 0.138908 -0.041270 576147.000000 0 0 1
-23.777461 -1.701222 8.010463 25.148148 0.071426 1.246617 0.122536 -0.043629 836467.000000 0 0 1
-22.809061 -2.504222 8.673563 24.530697 0.109353 1.209401 0.128733 -0.043036 -193592.000000 0 1 0
-21.600061 -2.294322 8.022063 23.155562 0.105822 1.217021 0.140032 -0.052354 -230331.000000 0 1 0
-20.281661 -2.565222 8.813563 22.262189 0.125812 1.163750 0.098353 -0.046921 26685.800000 0 1 0
-19.788361 -1.435822 9.505863 22.000052 0.072432 1.123994 0.087658 -0.037246 638030.000000 0 1 0
-20.611861 -0.875022 10.555763 23.174094 0.042427 1.097864 0.106106 -0.037413 -390945.000000 0 1 0
-20.244961 0.572078 10.955363 23.026196 -0.028250 1.074948 0.075907 -0.017378 -334356.000000 0 1 0
-20.445961 1.553678 9.930863 22.783180 -0.075844 1.119774 0.069324 -0.014153 1584860.000000 0 1 0
-21.838661 1.712178 9.584763 23.910800 -0.078241 1.158346 0.094065 -0.010178 524236.000000 0 1 0
-22.267361 3.078678 8.978963 24.206103 -0.137389 1.190777 0.093192 -0.025728 -124522.000000 0 1 0
-22.091861 4.185678 9.855163 24.549837 -0.187247 1.157713 0.080770 -0.022324 697225.000000 0 1 0
-22.761361 5.304378 9.276263 25.144881 -0.228957 1.192958 0.091929 -0.014768 23029.400000 0 0 1
-22.663061 6.437378 10.291063 25.709146 -0.276758 1.158965 0.081689 -0.015164 -296549.000000 0 0 1
-23.426961 6.231078 11.409263 26.792166 -0.259960 1.130903 0.078207 -0.014688 -235034.000000 0 0 1
-23.182961 7.313878 12.330763 27.257847 -0.305602 1.101370 0.076929 -0.008433 236107.000000 0 0 1
-24.148761 7.317778 13.546063 28.639280 -0.294233 1.078116 0.107044 -0.019949 1740730.000000 0 0 1
-25.579671 7.359878 13.274363 29.743842 -0.280156 1.108182 0.135877 -0.021832 1393770.000000 0 0 1
-26.288931 6.970878 14.400063 30.774387 -0.259199 1.083856 0.152508 -0.027447 -254923.000000 0 0 1
-27.815051 6.825478 14.335063 32.027461 -0.240633 1.106732 0.174997 -0.030617 -111449.000000 0 0 1
-28.171321 5.634478 13.681363 31.820597 -0.197403 1.126356 0.197878 -0.031694 214080.000000 0 0 1
-29.572471 5.562178 13.452263 32.961072 -0.185914 1.150396 0.205226 -0.035385 190697.000000 0 0 1
-29.908451 4.394178 12.538963 32.726898 -0.145877 1.177604 0.206655 -0.025655 191467.000000 0 0 1
-31.124391 3.705378 12.832263 33.869227 -0.118493 1.182214 0.194549 -0.039448 600015.000000 0 0 1
-31.466331 2.792578 11.815063 33.727203 -0.088516 1.212892 0.193479 -0.019189 77347.200000 0 0 1
-32.690011 1.959778 12.256063 34.966965 -0.059879 1.212687 0.158567 -0.015317 159754.000000 0 0 1
-32.323011 0.988778 13.208563 34.931660 -0.030581 1.183025 0.164067 -0.020607 -60088.700000 0 0 1
-33.460411 0.245978 13.548763 36.100258 -0.007351 1.186066 0.137986 -0.017056 -140388.000000 0 0 1
-33.290441 -0.794822 14.655263 36.382166 0.023871 1.156207 0.114044 -0.028896 -90569.100000 0 0 1
-32.902871 -2.086622 14.188563 35.892454 0.063333 1.164394 0.107031 -0.023024 154247.000000 0 0 1
-32.927401 -2.921422 15.330563 36.438642 0.088491 1.136555 0.107385 -0.020367 -98941.600000 0 0 1
-32.691771 -4.366822 14.921363 36.200389 0.132790 1.145942 0.093257 -0.018888 -345644.000000 0 0 1
-33.668081 -4.794822 14.011763 36.781239 0.141463 1.179974 0.060267 -0.013631 40834.500000 0 0 1
-33.671521 -6.204422 13.903563 36.953691 0.182219 1.185058 0.063420 -0.014301 -963768.000000 0 0 1
-34.747364 -6.760022 12.953963 37.694594 0.192148 1.219989 0.061084 -0.023065 -193089.000000 0 0 1
-36.049123 -6.835722 13.474263 39.087366 0.187397 1.218854 0.063447 -0.023016 106739.000000 0 0 1
-36.712741 -5.540922 13.436763 39.485109 0.149796 1.223561 0.073645 -0.020460 -1240090.000000 0 0 1
35.582438 -5.544822 12.873363 38.243672 -0.154587 1.227477 0.106629 -0.022316 -338015.000000 0 0 1
34.579588 -6.260922 13.618763 37.688430 -0.179118 1.201080 0.090297 -0.023662 108153.000000 0 0 1
33.348248 -6.023522 12.979863 36.288639 -0.178698 1.205010 0.108362 -0.025128 237541.000000 0 0 1
32.212738 -6.995322 13.452363 35.602824 -0.213840 1.183328 0.088152 -0.017601 366171.000000 0 0 1
31.794428 -6.937422 14.832263 35.763243 -0.214829 1.143145 0.078278 -0.014959 68562.700000 0 0 1
30.815548 -7.922622 15.048863 35.197077 -0.251648 1.129004 0.067513 -0.015510 -267868.000000 0 0 1
30.273068 -8.027822 16.491663 35.396038 -0.259214 1.086124 0.062514 -0.016632 481768.000000 0 0 1
31.236798 -8.434822 17.496963 36.783522 -0.263738 1.075066 0.034907 -0.008704 625440.000000 0 0 1
30.590128 -8.485822 18.765263 36.876825 -0.270600 1.036932 0.043360 -0.016024 442174.000000 0 0 1
31.530348 -9.119122 19.884063 38.375737 -0.281535 1.026120 0.042714 -0.013221 805893.000000 0 0 1
32.639618 -8.364222 20.312363 39.343322 -0.250862 1.028289 0.045992 -0.012007 -274238.000000 0 0 1
33.817548 -8.654422 19.593063 40.030160 -0.250538 1.059329 0.018202 0.001833 398926.000000 0 0 1
35.117498 -8.060922 20.256863 41.334703 -0.225633 1.058627 0.016319 -0.006369 687041.000000 0 0 1
35.415048 -8.606022 21.512963 42.321352 -0.238384 1.037559 0.023273 -0.009429 -476897.000000 0 0 1
36.598488 -8.116622 22.071163 43.502473 -0.218243 1.038685 0.040715 -0.011806 -405469.000000 0 0 1
-36.829411 -8.482722 23.565463 44.538671 0.226377 1.013255 0.049920 -0.008146 -249226.000000 0 0 1
36.222668 -7.819822 24.630263 44.495856 -0.212619 0.984187 0.055118 -0.010563 -72962.300000 0 0 1
36.100758 -8.722822 25.712363 45.171650 -0.237080 0.965246 0.050965 -0.010822 -217447.000000 0 0 1
35.851038 -8.012722 27.044163 45.616745 -0.219887 0.936196 0.060450 -0.007679 689986.000000 0 0 1
-36.671541 -7.470122 27.690363 46.554923 0.200954 0.933793 0.052644 -0.021342 553906.000000 0 0 1
36.695128 -6.755322 28.888063 47.187785 -0.182055 0.911964 0.055229 -0.027007 33413.600000 0 0 1
-35.707666 -6.533322 29.671563 46.884149 0.180965 0.885542 0.069639 -0.023619 158012.000000 0 0 1
-35.354842 -7.471222 30.654963 47.386821 0.208257 0.867272 0.060101 -0.013742 716085.000000 0 0 1
-33.997091 -7.307722 31.114463 46.661706 0.211730 0.840877 0.065574 -0.022502 1050750.000000 0 0 1
-33.699001 -8.036022 32.463963 47.477461 0.234093 0.817871 0.050624 -0.018318 -19214.900000 0 0 1
-33.545311 -9.441422 32.330163 47.535963 0.274355 0.822870 0.049967 -0.018561 345960.000000 0 0 1
-33.128041 -10.144422 33.506563 48.198197 0.297152 0.802122 0.038178 -0.016493 -80603.800000 0 0 1
-33.250031 -11.696122 33.319563 48.503166 0.338244 0.813504 0.045777 -0.013031 169285.000000 0 0 1
-34.642616 -11.944722 33.223563 49.463041 0.332033 0.834316 0.038059 -0.014159 103381.000000 0 0 1
-34.882341 -13.318822 33.374963 50.080505 0.364738 0.841391 0.036697 -0.021640 1111200.000000 0 0 1
-36.424791 -13.643522 33.322263 51.218008 0.358391 0.862427 0.039809 -0.017483 1034610.000000 0 0 1
-36.644191 -14.991322 33.665463 51.970183 0.388331 0.866124 0.040425 -0.024309 110188.000000 0 0 1
35.648648 -15.201222 33.539363 51.252241 -0.403071 0.857410 0.040142 -0.021998 323596.000000 0 0 1
35.360698 -16.673822 33.884163 51.735209 -0.440618 0.856675 0.031009 -0.023288 -373030.000000 0 0 1
35.563508 -17.010322 -32.838271 51.307565 -0.446144 2.265331 0.036298 -0.019747 156453.000000 0 0 1
35.784028 -18.413822 -32.781671 51.905717 -0.475245 2.254362 0.030891 -0.030606 -346327.000000 0 0 1
36.239218 -18.873322 -31.355471 51.503872 -0.480147 2.225341 0.031006 -0.020118 217073.000000 0 0 1
35.246228 -18.788722 -30.332171 50.153298 -0.489753 2.220297 0.026523 -0.013793 154802.000000 0 0 1
35.566028 -19.787322 -29.346371 50.176588 -0.507709 2.195506 0.022410 -0.008439 -629433.000000 0 0 1
34.400838 -20.051522 -28.343271 48.875579 -0.527735 2.189410 0.017213 -0.010359 848274.000000 0 0 1
33.289638 -20.708022 -28.992871 48.760730 -0.556480 2.207558 0.024633 -0.006926 831511.000000 0 0 1
32.417058 -19.753522 -29.663071 48.176396 -0.547270 2.234093 0.016048 -0.001664 -702752.000000 0 0 1
31.046108 -20.432722 -29.876071 47.685811 -0.582077 2.247875 0.015929 0.002010 -98912.100000 0 0 1
30.080398 -19.572122 -30.463671 47.073704 -0.576839 2.274634 0.008478 0.006173 463854.000000 0 0 1
28.792298 -20.186222 -30.375871 46.466908 -0.611462 2.283273 0.018388 0.004232 81271.000000 0 0 1
27.872258 -19.700222 -31.464671 46.421838 -0.615278 2.315561 0.022085 0.007008 -385993.000000 0 0 1
28.370858 -19.960022 -32.760671 47.713412 -0.613098 2.327617 0.010285 0.003433 936367.000000 0 0 1
27.286758 -20.040722 -33.729971 47.790257 -0.633474 2.354337 0.062423 -0.001584 1042640.000000 0 0 1
27.831058 -19.875022 32.881063 47.442055 -0.620147 0.805046 0.069454 -0.001502 -5809.610000 0 0 1
28.508058 -18.691322 32.603163 47.170342 -0.580337 0.807677 0.042759 -0.004836 -37385.400000 0 0 1
28.972978 -18.547722 31.289463 46.502494 -0.569436 0.832734 0.044404 -0.007061 -407748.000000 0 0 1
28.002458 -17.914522 30.279263 44.965560 -0.569135 0.832014 0.054753 -0.004981 -235143.000000 0 0 1
27.832958 -16.546822 30.568163 44.529580 -0.536369 0.814175 0.074206 -0.008396 386386.000000 0 0 1
26.927058 -15.856922 29.713463 43.120741 -0.532206 0.810583 0.090289 -0.008430 200968.000000 0 0 1
26.639258 -14.393222 30.121763 42.709900 -0.495366 0.788001 0.113693 -0.021611 -794140.000000 0 0 1
27.807858 -13.685922 30.156363 43.243354 -0.457356 0.799083 0.115853 -0.010495 -558600.000000 0 0 1
27.503258 -12.358322 30.537363 42.914891 -0.422305 0.779052 0.135705 -0.023791 840603.000000 0 0 1
28.828708 -11.567122 30.855963 43.783367 -0.381572 0.788737 0.133509 -0.026157 884617.000000 0 0 1
29.567758 -11.249122 29.697063 43.390214 -0.363542 0.816991 0.132295 -0.025461 -1077150.000000 0 0 1
30.818168 -10.728422 29.865063 44.235512 -0.334999 0.829645 0.110686 -0.023985 -879350.000000 0 0 1
31.315288 -9.973022 28.593763 43.562733 -0.308316 0.854784 0.113843 -0.027015 98006.900000 0 0 1
30.880068 -8.620022 28.545663 42.927128 -0.272216 0.843330 0.122629 -0.030185 5669.670000 0 0 1
31.383998 -8.059322 27.372563 42.416568 -0.251366 0.869345 0.121332 -0.026031 180626.000000 0 0 1
30.992318 -6.546822 27.085363 41.677351 -0.208180 0.863367 0.113309 -0.035416 1044280.000000 0 0 1
29.637358 -6.287222 26.669863 40.363149 -0.209039 0.848982 0.129360 -0.029956 573016.000000 0 0 1
29.205968 -4.945022 26.836163 39.970257 -0.167725 0.834696 0.120403 -0.020956 1872070.000000 0 0 1
27.689858 -4.729822 26.357063 38.520050 -0.169181 0.817232 0.102427 -0.014028 1457110.000000 0 0 1
27.383058 -5.046122 25.028563 37.439607 -0.182235 0.838600 0.109642 -0.018810 -351547.000000 0 0 1
25.997958 -4.857322 24.902963 36.326918 -0.184705 0.815474 0.105500 -0.013859 -358351.000000 0 0 1
25.368658 -5.149522 23.544163 34.991628 -0.200267 0.832740 0.099058 -0.012563 -332371.000000 0 0 1
25.853358 -4.337522 22.529363 34.565625 -0.166226 0.860860 0.105609 -0.000455 -3145.860000 0 0 1
25.494058 -4.781122 21.244063 33.527844 -0.185385 0.884567 0.104693 0.001972 84433.100000 0 0 1
25.805458 -3.708222 20.129363 32.937271 -0.142722 0.913293 0.113360 -0.001694 106643.000000 0 0 1
24.894958 -2.659422 20.244563 32.197419 -0.106422 0.890834 0.095340 0.003269 -204937.000000 0 0 1
25.209258 -1.689822 19.289963 31.787810 -0.066932 0.918724 0.105011 -0.003553 -55032.600000 0 0 1
24.007158 -0.835022 18.857263 30.539111 -0.034768 0.905262 0.081869 -0.007532 10163.700000 0 0 1
23.094658 -1.531422 18.025063 29.336179 -0.066214 0.909132 0.095424 -0.011848 301656.000000 0 0 1
21.914558 -0.775422 17.743163 28.207605 -0.035369 0.890504 0.098244 -0.011804 1257000.000000 0 0 1
20.788058 -1.654022 17.042163 26.931663 -0.079399 0.885642 0.075515 -0.018314 503390.000000 0 0 1
21.049758 -2.032822 15.663763 26.316880 -0.096274 0.933284 0.097663 -0.028967 62725.100000 0 0 1
19.997258 -2.837122 15.198663 25.277242 -0.140935 0.925696 0.098153 -0.034410 -313694.000000 0 0 1
20.329558 -3.519422 13.856463 24.853146 -0.171419 0.979385 0.111377 -0.046983 403631.000000 0 1 0
19.227958 -4.297522 13.301963 23.772364 -0.219890 0.976947 0.096363 -0.046540 1118420.000000 0 1 0
19.520358 -4.953622 12.100863 23.494971 -0.248521 1.029741 0.088755 -0.042072 -208133.000000 0 1 0
18.461458 -6.010822 11.662463 22.648807 -0.314763 1.029875 0.062675 -0.040591 41416.100000 0 1 0
18.514358 -7.121822 12.548263 23.472552 -0.367217 1.006770 0.095640 -0.045372 1018560.000000 0 1 0
17.400858 -7.985222 12.312463 22.762917 -0.430229 0.999289 0.059171 -0.026564 391413.000000 0 1 0
17.800758 -9.435022 12.827263 23.883578 -0.487386 1.003831 0.103997 -0.045439 38266.400000 0 1 0
18.695658 -10.064622 11.907563 24.343671 -0.493847 1.059688 0.095684 -0.054465 418722.000000 0 1 0
18.465758 -11.466822 11.804263 24.734851 -0.555702 1.073294 0.106925 -0.043300 30974.000000 0 1 0
19.024358 -12.023222 10.455663 24.815418 -0.563611 1.135877 0.106504 -0.046206 155538.000000 0 1 0
18.457958 -11.362122 9.342763 23.602569 -0.551788 1.163818 0.096917 -0.041013 208140.000000 0 1 0
19.060958 -11.826322 8.181963 23.877323 -0.555319 1.221042 0.098226 -0.044860 -231229.000000 0 1 0
18.666958 -10.986522 6.977863 22.756308 -0.531961 1.259141 0.083885 -0.034359 133080.000000 0 1 0
19.419758 -9.750322 6.963763 22.818628 -0.465312 1.260670 0.106771 -0.027982 931926.000000 0 1 0
19.579358 -9.399622 5.601963 22.429582 -0.447583 1.318366 0.063365 -0.030014 -335880.000000 0 1 0
20.251258 -8.032222 5.461463 22.460134 -0.377596 1.325171 0.099911 -0.023374 -249189.000000 0 1 0
20.670458 -7.804722 4.121263 22.475906 -0.361029 1.386389 0.090007 -0.021353 723435.000000 0 1 0
21.139958 -6.474122 3.928263 22.455363 -0.297181 1.394955 0.105551 -0.020930 -192481.000000 0 1 0
21.737658 -6.187122 2.498763 22.738735 -0.277294 1.460684 0.106578 -0.018189 -121008.000000 0 1 0
20.759458 -6.082422 1.494463 21.683735 -0.285018 1.501821 0.070385 -0.025779 427825.000000 0 1 0
21.174358 -5.332122 0.371563 21.838567 -0.246691 1.553781 0.064071 -0.020402 -115903.000000 0 1 0
-26.179391 -15.437722 0.260863 30.393286 0.532804 1.562213 0.100026 -0.020789 -160119.000000 0 0 1
-25.220731 -14.793922 -0.615637 29.245930 0.530492 1.591848 0.089585 -0.015648 1834700.000000 0 0 1
-23.858861 -15.271122 -0.401637 28.330438 0.569356 1.584974 0.091493 -0.012529 1660590.000000 0 0 1
-23.147961 -14.799222 0.915963 27.489708 0.568839 1.537470 0.115082 -0.023745 -718599.000000 0 0 1
-23.578561 -15.404022 2.108363 28.243188 0.578696 1.496076 0.096351 -0.007676 55426.700000 0 0 1
-22.774161 -15.025322 3.212763 27.472615 0.583201 1.453584 0.108629 -0.004129 295722.000000 0 0 1
-23.279861 -15.725922 4.495663 28.451143 0.594104 1.412118 0.115273 -0.001783 -164992.000000 0 0 1
-23.221161 -17.102022 4.414563 29.175158 0.634795 1.418900 0.134945 -0.014748 388431.000000 0 0 1
-23.838361 -17.742922 5.560363 30.232373 0.639844 1.385822 0.135090 -0.013325 104649.000000 0 0 1
-23.930561 -19.249322 5.286663 31.163392 0.677407 1.400329 0.111579 -0.010172 -37380.400000 0 0 1
-24.392361 -19.905822 6.436963 32.135083 0.684462 1.369122 0.096950 -0.009603 6746.970000 0 0 1
-24.472861 -21.326222 6.201763 33.048306 0.716801 1.382020 0.106131 -0.016251 212853.000000 0 0 1
-25.164741 -22.074622 7.397863 34.282379 0.720077 1.353293 0.102271 -0.012915 1214470.000000 0 0 1
-24.221061 -22.287122 8.495463 33.993360 0.743839 1.318203 0.110976 -0.014318 1201560.000000 0 0 1
-24.940361 -23.066822 9.457463 35.263912 0.746392 1.299282 0.113412 -0.015781 533802.000000 0 0 1
-23.993861 -23.395822 10.613363 35.152715 0.772779 1.264089 0.103046 -0.017943 -6136.320000 0 0 1
-24.042361 -22.409622 11.650363 34.870579 0.750264 1.230143 0.103338 -0.014109 657240.000000 0 0 1
-23.008761 -22.614522 12.630263 34.645970 0.776757 1.197645 0.104827 -0.015311 432100.000000 0 0 1
-23.386561 -21.876522 13.935363 34.924316 0.752049 1.160353 0.083424 -0.007294 1691730.000000 0 0 1
-24.616861 -22.429222 14.545863 36.340638 0.738932 1.158991 0.070643 -0.007670 1392780.000000 0 0 1
-25.061261 -21.736522 15.687363 36.696547 0.714473 1.129083 0.074906 -0.004266 14207.700000 0 0 1
-26.527431 -22.063922 16.079163 38.066531 0.693797 1.134709 0.032793 0.002542 870148.000000 0 0 1
-27.497271 -21.713522 15.038563 38.127882 0.668405 1.165355 0.038980 0.003644 701679.000000 0 0 1
-27.730601 -22.789722 14.081563 38.557076 0.687908 1.196934 0.040358 -0.003509 -385347.000000 0 0 1
-28.807971 -23.856122 14.426863 40.089252 0.691647 1.202669 0.037125 -0.004633 -164994.000000 0 0 1
-28.543121 -24.681922 15.573063 40.821898 0.712980 1.179391 0.037483 -0.002272 -130602.000000 0 0 1
-29.601261 -25.550192 15.922163 42.220401 0.712076 1.184111 0.041959 -0.003966 -5188.060000 0 0 1
-29.546101 -26.833062 15.057063 42.657947 0.737314 1.210051 0.058783 -0.001772 172554.000000 0 0 1
-30.111301 -26.697342 13.736663 42.522164 0.725375 1.241849 0.072513 -0.015448 284377.000000 0 0 1
-31.412951 -27.280702 13.717563 43.808467 0.715110 1.252314 0.081735 -0.018472 239111.000000 0 0 1
-31.904951 -27.657402 12.346963 43.992105 0.714206 1.286311 0.094252 -0.024531 -228315.000000 0 0 1
-31.212691 -28.747352 11.821163 44.049770 0.744305 1.299107 0.101070 -0.033873 -26147.800000 0 0 1
-31.760911 -29.112962 10.580663 44.365194 0.741927 1.329985 0.085682 -0.022765 303392.000000 0 0 1
-31.085211 -30.424212 10.064763 44.645520 0.774652 1.343405 0.083264 -0.038191 250889.000000 0 0 1
-31.382871 -31.545182 10.882663 45.808465 0.787977 1.330934 0.073869 -0.028873 123393.000000 0 0 1
-30.701821 -32.652542 10.319763 45.992259 0.816179 1.344489 0.078214 -0.031507 20377.500000 0 0 1
-30.886531 -34.010722 11.108363 47.266296 0.833502 1.333561 0.069068 -0.029997 -1094880.000000 0 0 1
-32.202821 33.720999 11.119063 47.934967 -0.808423 1.336703 0.061452 -0.027081 -960257.000000 0 0 1
-32.257191 32.448823 11.703263 47.227311 -0.788360 1.320380 0.074209 -0.033375 -462606.000000 0 0 1
-33.600171 32.129080 12.399863 48.114509 -0.763021 1.310139 0.079331 -0.026259 1115890.000000 0 0 1
-34.764996 31.870902 11.568463 48.561185 -0.741994 1.330259 0.043705 -0.023586 1168490.000000 0 0 1
-35.303315 33.048593 10.983963 49.590130 -0.752423 1.347449 0.067013 -0.023116 -442590.000000 0 0 1
-36.694551 32.962366 10.298763 50.389207 -0.731870 1.364962 0.064141 -0.005133 317991.000000 0 0 1
-36.699981 32.380860 9.050163 49.772625 -0.722957 1.387949 0.054744 -0.005854 574868.000000 0 0 1
35.648078 32.294620 8.585063 48.861348 0.736081 1.394177 0.044820 0.001924 466596.000000 0 0 1
35.563058 31.802212 7.190763 48.247476 0.729628 1.421200 0.043007 -0.005730 -128410.000000 0 0 1
35.696638 30.393732 6.996363 47.402300 0.705332 1.422660 0.072194 -0.009321 154190.000000 0 0 1
35.429548 29.927782 5.651263 46.721107 0.701416 1.449542 0.098589 -0.018133 -29169.900000 0 0 1
35.689138 28.410392 5.382963 45.933009 0.672329 1.453335 0.118913 -0.021882 51821.100000 0 0 1
34.793558 27.440092 5.925263 44.706365 0.667785 1.437868 0.106128 -0.018203 151661.000000 0 0 1
35.011048 27.170202 7.303163 44.914692 0.659964 1.407470 0.088215 -0.012060 22159.300000 0 0 1
34.020258 26.173182 7.942363 43.651971 0.655765 1.387830 0.087822 -0.008766 -109822.000000 0 0 1
34.260018 24.843432 7.519463 42.982407 0.627402 1.394949 0.087125 -0.014542 300192.000000 0 0 1
33.174688 24.007512 7.887963 41.703004 0.626436 1.380504 0.074115 -0.013924 -353157.000000 0 0 1
33.153678 22.544612 7.239463 40.741082 0.597179 1.392153 0.069138 -0.013833 817334.000000 0 0 1
34.245888 21.681412 7.602863 41.239157 0.564410 1.385375 0.090550 -0.012284 578010.000000 0 0 1
35.549818 22.022012 7.167263 42.427918 0.554612 1.401054 0.089996 -0.017032 58037.400000 0 0 1
36.446708 20.740912 7.180463 42.545353 0.517370 1.401213 0.077559 -0.008599 -82619.100000 0 0 1
36.155208 19.804612 6.167263 41.682813 0.501127 1.422294 0.088421 -0.019509 188710.000000 0 0 1
-36.661941 18.693512 6.222663 41.620510 -0.471527 1.420724 0.093839 -0.023345 8552.250000 0 0 1
36.482988 17.539312 5.318463 40.827956 0.448132 1.440160 0.094458 -0.024730 131368.000000 0 0 1
36.748848 17.690712 3.910663 40.972337 0.448653 1.475204 0.108609 -0.025336 282823.000000 0 0 1
36.157708 16.561412 3.190463 39.897861 0.429514 1.490745 0.087843 -0.025866 -406110.000000 0 0 1
-36.669891 15.896912 2.070063 40.020968 -0.409060 1.519049 0.101715 -0.012494 461103.000000 0 0 1
-35.473927 15.174412 2.377463 38.656366 -0.404208 1.509255 0.105269 -0.028979 1170900.000000 0 0 1
-34.384300 16.088312 2.657063 38.054880 -0.437637 1.500918 0.112633 -0.031627 -277732.000000 0 0 1
-33.040871 15.392412 2.879663 36.563889 -0.435964 1.491958 0.106026 -0.034199 -338869.000000 0 0 1
-32.884401 14.707412 4.148063 36.261526 -0.420561 1.456152 0.119199 -0.044557 367304.000000 0 0 1
-31.514281 14.346212 4.252463 34.886203 -0.427194 1.448597 0.110083 -0.046631 185863.000000 0 0 1
-31.041001 13.619112 5.581563 34.353716 -0.413456 1.407600 0.123884 -0.043238 -65414.400000 0 0 1
-31.382711 12.264612 5.563663 34.150397 -0.372557 1.407150 0.127808 -0.035208 205304.000000 0 0 1
-31.131231 11.661712 6.834663 33.939088 -0.358419 1.368029 0.125337 -0.022451 24500.000000 0 0 1
-31.208301 10.122712 6.867963 33.520088 -0.313653 1.364444 0.136889 -0.012951 1716230.000000 0 0 1
-32.602171 9.699912 6.928263 34.712976 -0.289183 1.369860 0.133053 -0.008771 1384040.000000 0 0 1
-32.475591 8.283112 7.013563 34.241262 -0.249732 1.364509 0.144808 -0.005946 551087.000000 0 0 1
-33.799911 7.471412 6.868563 35.290695 -0.217550 1.374918 0.140076 -0.003428 315110.000000 0 0 1
-34.640151 7.456312 8.007963 36.327182 -0.212016 1.348531 0.136475 -0.008578 480324.000000 0 0 1
-35.875657 6.822012 7.642563 37.309669 -0.187914 1.364495 0.102340 -0.006906 1045100.000000 0 0 1
-36.639811 6.229112 8.910263 38.218718 -0.168399 1.335492 0.098399 -0.011769 185353.000000 0 0 1
36.308828 6.998412 9.804363 38.254860 0.190412 1.311614 0.101581 -0.012621 188805.000000 0 0 1
-36.587841 7.853812 10.639563 38.904406 -0.211448 1.293788 0.121145 -0.019023 129690.000000 0 0 1
36.351408 8.738312 11.656263 39.161862 0.235908 1.268573 0.115235 -0.025798 50762.900000 0 0 1
35.549658 8.084612 12.655563 38.591481 0.223614 1.236678 0.103075 -0.023339 603672.000000 0 0 1
35.165788 8.946812 13.679863 38.779076 0.249133 1.210273 0.123122 -0.026098 -152756.000000 0 0 1
34.260548 8.325112 14.784663 38.231910 0.238374 1.173735 0.095769 -0.021644 -421288.000000 0 0 1
32.881958 8.252812 14.532863 36.885447 0.245904 1.165817 0.085823 -0.019182 -233737.000000 0 0 1
32.405068 7.704412 15.731463 36.836468 0.233420 1.129555 0.079908 -0.013130 729258.000000 0 0 1
30.907938 7.224312 15.876263 35.490098 0.229614 1.107004 0.058908 0.003188 464020.000000 0 0 1
29.989738 8.303812 15.869963 34.931267 0.270121 1.099188 0.055483 0.002596 -158870.000000 0 0 1
28.644008 7.935212 15.969663 33.741324 0.270251 1.077767 0.056287 0.006426 64092.400000 0 0 1
28.109858 7.293312 17.289363 33.797613 0.253860 1.033802 0.056499 0.004757 -675188.000000 0 0 1
28.376058 8.180712 18.414363 34.802493 0.280685 1.013244 0.076954 -0.003813 79169.800000 0 0 1
27.606858 7.981412 19.569463 34.767880 0.281436 0.972954 0.073807 0.008074 -321349.000000 0 0 1
27.901858 6.747112 20.457863 35.249984 0.237261 0.951619 0.064902 0.010250 95358.000000 0 0 1
27.106958 6.658912 21.616463 35.304388 0.240883 0.911845 0.055102 0.020726 135270.000000 0 0 1
27.610758 5.554212 22.399063 35.985015 0.198512 0.898920 0.051069 0.020092 165525.000000 0 0 1
26.741058 5.293412 23.650963 36.089784 0.195424 0.856168 0.071408 0.023802 514718.000000 0 0 1
25.396258 4.898812 23.458463 34.918015 0.190555 0.834139 0.030604 0.018973 -36296.100000 0 0 1
24.455758 5.928712 23.567463 34.476935 0.237838 0.818151 0.058393 0.026024 -353443.000000 0 0 1
23.006258 5.549512 23.240563 33.169395 0.236696 0.794470 0.063636 0.008907 -225651.000000 0 0 1
22.968058 5.064012 21.864863 32.113053 0.217009 0.821844 0.059828 0.004906 169999.000000 0 0 1
21.635458 4.906312 21.439863 30.851786 0.223000 0.802472 0.065700 -0.005325 -1268430.000000 0 0 1
20.913258 3.578512 21.715363 30.359959 0.169471 0.773796 0.081349 -0.011742 882649.000000 0 0 1
19.649858 3.520512 20.999163 28.973709 0.177281 0.760101 0.080589 -0.018539 1493090.000000 0 0 1
18.561358 4.258412 21.541763 28.752490 0.225521 0.723922 0.090404 -0.020809 -606621.000000 0 0 1
17.228658 4.083412 20.811463 27.324310 0.232719 0.704946 0.113623 -0.023905 -400596.000000 0 0 1
16.484258 2.925312 21.009963 26.864601 0.175633 0.672818 0.091893 -0.021839 -141063.000000 0 0 1
15.380558 2.811812 20.156663 25.509977 0.180819 0.659746 0.102690 -0.031490 -433467.000000 0 0 1
14.323758 1.797912 20.614163 25.166372 0.124867 0.610929 0.098682 -0.029184 -320555.000000 0 0 1
14.800258 0.449912 20.660863 25.418917 0.030390 0.621829 0.072899 -0.030716 289994.000000 0 0 1
13.966258 -0.321688 21.494863 25.635698 -0.023029 0.576320 0.081311 -0.026638 -111626.000000 0 0 1
14.215758 -1.851088 21.563063 25.893629 -0.129485 0.586730 0.050275 -0.020149 -205230.000000 0 0 1
13.959558 -2.426088 20.328263 24.778891 -0.172075 0.608710 0.058929 -0.012504 178508.000000 0 1 0
14.058858 -3.813588 20.535063 25.177048 -0.264885 0.616985 0.037452 -0.001573 -205270.000000 0 0 1
13.674858 -4.639788 19.270663 24.080860 -0.327105 0.643087 0.038475 -0.002730 144378.000000 0 1 0
12.285858 -4.767688 19.038563 23.154698 -0.370174 0.605472 0.042424 -0.007141 31160.200000 0 1 0
12.022858 -5.120888 17.671563 21.978552 -0.402658 0.636743 0.041282 -0.005036 579533.000000 0 1 0
10.477758 -5.076488 17.458063 20.984235 -0.451172 0.588164 0.042052 -0.003280 652592.000000 0 1 0
9.887958 -6.214188 18.079163 21.523104 -0.561084 0.573534 0.040251 -0.003913 -391904.000000 0 1 0
8.481258 -6.189388 18.108563 20.932280 -0.630429 0.525442 0.032360 -0.008978 119124.000000 0 1 0
7.786358 -7.245488 19.040963 21.810152 -0.749432 0.509411 0.030818 -0.014102 -206873.000000 0 1 0
7.980658 -8.646988 18.846263 22.218077 -0.825450 0.558143 0.024031 -0.011623 -648684.000000 0 1 0
9.114958 -9.086988 19.518963 23.380456 -0.783861 0.582952 0.049175 -0.013885 -238225.000000 0 1 0
9.523858 -10.538088 19.120963 23.819454 -0.835910 0.638911 0.061162 -0.018096 102794.000000 0 1 0
9.809558 -10.535388 17.752363 22.855376 -0.821059 0.681346 0.063216 -0.006282 24900.500000 0 1 0
10.105258 -11.795388 17.178763 23.159389 -0.862418 0.735102 0.062634 -0.017315 161996.000000 0 1 0
10.135858 -11.828288 15.637263 22.071883 -0.862300 0.783469 0.065365 -0.018428 297077.000000 0 1 0
10.754658 -12.915588 14.985463 22.517531 -0.876439 0.842630 0.071967 -0.022736 23470.000000 0 1 0
10.296958 -13.009288 13.652663 21.486371 -0.901255 0.882256 0.059048 -0.017537 747.417000 0 1 0
10.912658 -14.255288 12.901863 22.107859 -0.917438 0.947657 0.075529 -0.022132 58531.800000 0 1 0
12.253358 -14.155388 12.505963 22.514860 -0.857297 0.981888 0.066031 -0.022628 -265120.000000 0 1 0
12.424258 -13.345588 11.309063 21.456044 -0.821135 1.015635 0.038814 -0.019223 -235662.000000 0 1 0
13.914858 -13.168588 10.908263 22.045979 -0.757851 1.053196 0.068133 -0.032616 493617.000000 0 1 0
14.507358 -14.260188 10.252163 22.779887 -0.776806 1.103971 0.084120 -0.035647 609658.000000 0 1 0
15.899558 -14.070888 9.975663 23.458467 -0.724458 1.131561 0.075924 -0.036979 559285.000000 0 1 0
16.636358 -15.351388 9.591463 24.585152 -0.745249 1.170021 0.074467 -0.035473 44437.300000 0 1 0
17.163258 -16.181388 10.639063 25.876715 -0.755961 1.147087 0.075433 -0.032189 618696.000000 0 0 1
16.200058 -17.036588 11.279063 26.074978 -0.810562 1.123463 0.107889 -0.025931 791451.000000 0 0 1
16.954858 -17.794888 12.439163 27.547378 -0.809567 1.102289 0.095381 -0.029405 476535.000000 0 0 1
17.921558 -18.696488 11.896963 28.500502 -0.806558 1.140181 0.115448 -0.031033 -147097.000000 0 0 1
18.430558 -19.388988 12.986863 29.736794 -0.810735 1.118839 0.102585 -0.026710 -754080.000000 0 0 1
19.807258 -19.996088 12.785663 30.913495 -0.790142 1.144397 0.067528 -0.029967 435736.000000 0 0 1
20.846158 -18.967988 12.719563 30.921419 -0.738260 1.146860 0.070682 -0.038263 546866.000000 0 0 1
22.150758 -19.499088 12.553063 32.069454 -0.721818 1.168607 0.059463 -0.036056 573517.000000 0 0 1
23.015558 -18.588388 11.663463 31.800636 -0.679385 1.195264 0.059213 -0.032494 -272551.000000 0 0 1
22.746958 -18.803188 10.305363 31.259950 -0.690766 1.234846 0.046246 -0.021988 172082.000000 0 0 1
21.551658 -18.214288 9.777463 29.863574 -0.701669 1.237241 0.064873 -0.025492 566268.000000 0 0 1
21.245958 -16.683388 9.808963 28.739205 -0.665682 1.222487 0.117177 -0.050446 -316744.000000 0 0 1
22.181458 -15.854188 9.176863 28.767815 -0.620557 1.246125 0.106016 -0.031506 -379637.000000 0 0 1
21.724858 -14.527088 9.065763 27.662137 -0.589399 1.236894 0.122310 -0.041645 -23359.900000 0 0 1
-35.677066 24.736278 8.524163 44.242489 -0.606241 1.376915 0.102492 -0.010358 -1021320.000000 0 0 1
-34.654842 24.123578 9.144763 43.203377 -0.608110 1.357515 0.098167 -0.017797 -1751190.000000 0 0 1
-33.604551 24.999378 9.278063 42.898919 -0.639604 1.352796 0.100193 -0.017832 -754136.000000 0 0 1
-32.374241 24.473278 10.058763 41.811620 -0.647298 1.327840 0.117259 -0.019963 -41756.400000 0 0 1
-31.708521 23.493578 9.292563 40.542943 -0.637667 1.339538 0.127487 -0.022080 259594.000000 0 0 1
-30.910671 22.605778 10.102063 39.604829 -0.631442 1.312875 0.124099 -0.022960 330542.000000 0 0 1
-30.046431 21.629778 9.291963 38.170354 -0.623943 1.324891 0.108963 -0.023832 -219686.000000 0 0 1
-30.813681 20.648078 8.673963 38.092830 -0.590372 1.341075 0.118621 -0.028232 -218346.000000 0 0 1
-30.044441 19.809378 7.829063 36.828985 -0.582910 1.356583 0.111982 -0.031192 -330084.000000 0 0 1
-30.767301 19.076578 6.702863 36.816722 -0.555016 1.387715 0.112594 -0.030434 -521588.000000 0 0 1
-31.557601 17.996378 7.115263 37.018628 -0.518273 1.377385 0.119034 -0.031358 190826.000000 0 0 1
-32.610671 17.755878 6.208663 37.646708 -0.498596 1.405120 0.090948 -0.027815 -362529.000000 0 0 1
-33.409091 16.498378 6.532063 37.828980 -0.458699 1.397253 0.101354 -0.024265 -201216.000000 0 0 1
-34.267733 16.755278 7.666063 38.907395 -0.454770 1.372465 0.091036 -0.026751 289426.000000 0 0 1
-34.932590 15.591778 8.024163 39.086783 -0.419805 1.364035 0.096866 -0.032666 -221647.000000 0 0 1
-36.020135 15.803578 9.103663 40.374248 -0.413453 1.343359 0.101700 -0.032787 1039930.000000 0 0 1
36.456758 16.456078 8.662063 40.925897 0.424006 1.357531 0.112356 -0.030247 906674.000000 0 0 1
35.654718 16.887878 9.715063 40.630553 0.442347 1.329350 0.128535 -0.026658 -18567.800000 0 0 1
34.713398 18.057078 9.359763 40.232863 0.479658 1.336005 0.100051 -0.019828 837686.000000 0 0 1
33.385698 17.736278 8.854663 38.827638 0.488337 1.340721 0.094167 -0.027124 1050670.000000 0 0 1
32.722898 18.980878 8.665563 38.809197 0.525620 1.345612 0.084743 -0.022079 295197.000000 0 0 1
31.175958 18.865278 8.621763 37.445612 0.544178 1.338464 0.078694 -0.017249 154275.000000 0 0 1
30.573888 20.153578 8.621263 37.619882 0.582799 1.339574 0.073153 -0.011103 764534.000000 0 0 1
29.229318 20.272778 8.116063 36.485738 0.606402 1.346475 0.064389 -0.015422 950474.000000 0 0 1
28.934788 19.995678 6.584363 35.782719 0.604701 1.385732 0.048204 -0.006521 -570427.000000 0 0 1
29.198018 18.668678 6.080763 35.185501 0.568874 1.397104 0.046457 -0.008967 247987.000000 0 0 1
29.000658 18.511978 4.637363 34.716518 0.568127 1.436818 0.046016 -0.011574 1178490.000000 0 0 1
27.557458 18.896478 4.066863 33.660507 0.601072 1.449680 0.057965 -0.012723 827078.000000 0 0 1
26.487558 18.108578 4.632463 32.418684 0.599678 1.427411 0.056353 -0.020777 1415890.000000 0 0 1
25.141458 18.382878 4.241263 31.432649 0.631346 1.435452 0.078243 -0.026296 620540.000000 0 0 1
24.622658 19.836378 4.457363 31.931572 0.678155 1.430748 0.087659 -0.026888 -1127280.000000 0 0 1
25.181558 20.827278 3.623063 32.878762 0.691039 1.460377 0.076606 -0.022070 313216.000000 0 0 1
24.711058 22.100778 4.042563 33.397951 0.729695 1.449457 0.079785 -0.014499 207883.000000 0 0 1
25.794158 23.210578 3.841963 34.911749 0.732726 1.460525 0.061306 -0.004166 363698.000000 0 0 1
26.808958 23.228078 4.817563 35.797664 0.713955 1.435809 0.055201 -0.002801 121381.000000 0 0 1
27.757558 24.265178 4.689763 37.165505 0.718367 1.444273 0.043552 -0.007856 -12539.800000 0 0 1
29.052568 24.053278 5.550763 38.123784 0.691537 1.424678 0.046829 -0.009645 298897.000000 0 0 1
29.969388 23.018378 5.168763 38.140871 0.654962 1.434860 0.043050 -0.009816 754636.000000 0 0 1
30.584268 23.053478 3.875563 38.495198 0.645909 1.469949 0.055374 -0.020220 -417646.000000 0 0 1
31.360678 24.343978 3.493963 39.853848 0.660096 1.483014 0.075626 -0.030680 -1061130.000000 0 0 1
30.639708 25.459778 3.033463 39.952396 0.693325 1.494796 0.054625 -0.032654 -221312.000000 0 0 1
31.486898 26.526678 2.605363 41.253816 0.700105 1.507600 0.102532 -0.027553 -373327.000000 0 0 1
30.754068 27.898178 2.613363 41.604696 0.736745 1.507941 0.078810 -0.021127 659616.000000 0 0 1
29.596578 28.103578 1.807163 40.853817 0.759529 1.526547 0.102358 -0.024324 -95970.800000 0 0 1
28.457358 27.524378 2.358863 39.660772 0.768734 1.511285 0.081641 -0.020538 -319002.000000 0 0 1
27.118858 28.231678 1.910663 39.193249 0.805500 1.522027 0.040617 -0.015216 610129.000000 0 0 1
27.003858 29.543878 2.402863 40.097666 0.830286 1.510835 0.031310 -0.012434 428918.000000 0 0 1
25.684158 30.000278 2.133063 39.550507 0.862754 1.516838 0.034844 -0.007557 380139.000000 0 0 1
25.455358 31.437278 2.751963 40.544433 0.890157 1.502869 0.038951 -0.008852 -320629.000000 0 0 1
25.407258 31.637478 4.138463 40.787077 0.894183 1.469156 0.026450 -0.014186 -45712.700000 0 0 1
26.633558 31.474478 4.814663 41.511085 0.868515 1.454550 0.026078 -0.016259 -222700.000000 0 0 1
26.557058 31.358878 6.375463 41.584890 0.868119 1.416877 0.032628 -0.011798 -187970.000000 0 0 1
25.987958 30.251578 6.966163 40.485298 0.861065 1.397869 0.044028 -0.020555 -267278.000000 0 0 1
26.721458 29.094378 6.702263 40.067936 0.827886 1.402734 0.046698 -0.027586 -246059.000000 0 0 1
25.987458 27.784778 7.033463 38.688648 0.818810 1.387983 0.071363 -0.028682 -281363.000000 0 0 1
24.809158 27.464778 6.350763 37.551838 0.836157 1.400860 0.048173 -0.032075 -166324.000000 0 0 1
24.455058 26.153078 6.671463 36.421721 0.818938 1.386584 0.063129 -0.026629 -656551.000000 0 0 1
23.222658 25.655678 5.910663 35.106148 0.835134 1.401625 0.074313 -0.014218 -437760.000000 0 0 1
23.216758 25.422978 4.506463 34.722527 0.830725 1.440644 0.058360 -0.020151 -85575.900000 0 0 1
23.407858 26.618478 3.748763 35.644416 0.849489 1.465430 0.056539 -0.020660 -259377.000000 0 0 1
23.527458 26.506078 2.228663 35.511694 0.844860 1.507996 0.063141 -0.011230 1017470.000000 0 0 1
24.696958 25.744578 1.783263 35.719785 0.806164 1.520852 0.040256 -0.002369 1064600.000000 0 0 1
24.596458 25.427978 0.421763 35.380018 0.802019 1.558875 0.061718 -0.008025 702933.000000 0 0 1
25.872058 24.727678 -0.235137 35.789338 0.762786 1.577366 0.072179 -0.017600 503428.000000 0 0 1
26.990358 25.635678 -0.174337 37.224962 0.759662 1.575480 0.064368 -0.011416 498047.000000 0 0 1
28.140658 25.217478 -0.872737 37.796554 0.730669 1.593889 0.057637 -0.010208 761434.000000 0 0 1
29.016578 24.041678 -0.239537 37.683172 0.691909 1.577153 0.050320 -0.018471 -226033.000000 0 0 1
28.214558 22.884178 -0.181137 36.328772 0.681459 1.575782 0.047126 -0.017500 178742.000000 0 0 1
28.832658 21.760078 0.434663 36.124951 0.646504 1.558764 0.048516 -0.016799 28892.500000 0 0 1
27.748858 20.821178 1.004563 34.706336 0.643721 1.541848 0.053366 -0.016904 117351.000000 0 0 1
27.036558 20.074678 0.048763 33.674479 0.638685 1.569348 0.069153 -0.035379 1154710.000000 0 0 1
25.962658 19.333278 0.707663 32.378018 0.640073 1.548938 0.069401 -0.026257 560784.000000 0 0 1
25.215558 18.396778 -0.245737 31.214199 0.630304 1.578669 0.068799 -0.028402 56984.000000 0 0 1
23.983558 17.902078 0.285063 29.929529 0.641213 1.561272 0.068437 -0.027566 279226.000000 0 0 1
23.426258 16.976478 -0.604037 28.937091 0.627097 1.591672 0.088463 -0.046717 535250.000000 0 0 1
22.098058 16.404978 0.014463 27.521767 0.638601 1.570271 0.097104 -0.034231 88975.400000 0 0 1
21.521658 15.422978 -0.793537 26.489238 0.621797 1.600758 0.102907 -0.038227 1340100.000000 0 0 1
20.154058 15.023878 -0.511137 25.142876 0.640584 1.591127 0.117942 -0.038840 1536870.000000 0 0 1
19.039958 15.962178 -1.078937 24.869162 0.697693 1.614194 0.131083 -0.046026 -279664.000000 0 1 0
19.062758 17.193878 -0.467837 25.675612 0.733898 1.589018 0.106855 -0.036965 168989.000000 0 0 1
18.304058 18.155678 -1.211337 25.809582 0.781328 1.617747 0.096259 -0.036851 291226.000000 0 0 1
18.354558 19.565478 -0.529737 26.832412 0.817321 1.590540 0.090647 -0.028046 168994.000000 0 0 1
17.550258 19.630678 0.658763 26.340255 0.841294 1.545784 0.078885 -0.021446 289014.000000 0 0 1
17.743658 20.877278 1.264163 27.428019 0.866359 1.524690 0.087461 -0.019558 -56444.200000 0 0 1
16.850058 22.046278 0.770463 27.758899 0.918203 1.543037 0.080972 -0.026339 -301608.000000 0 0 1
15.535058 21.916778 1.243963 26.892948 0.954175 1.524524 0.059854 -0.023197 -277902.000000 0 0 1
14.722258 22.965278 0.724563 27.288713 1.000727 1.544241 0.040674 -0.021748 12248.200000 0 0 1
13.265158 22.929078 1.204863 26.517140 1.046313 1.525344 0.023787 -0.028445 -131588.000000 0 0 1
13.096258 23.107378 2.604563 26.687949 1.055179 1.473048 0.029214 -0.009620 -100748.000000 0 0 1
11.730658 23.276178 2.934163 26.229718 1.103972 1.458698 0.021600 -0.014676 342709.000000 0 0 1
11.546958 23.679578 4.421263 26.713334 1.117091 1.404524 0.047138 -0.020691 -17439.400000 0 0 1
11.985958 22.693978 5.336463 26.213692 1.084879 1.365788 0.048516 -0.037971 -25466.100000 0 0 1
11.361358 22.725578 6.598563 26.250207 1.107199 1.316699 0.055464 -0.018233 -431459.000000 0 0 1
11.893158 21.608078 7.503663 25.781024 1.067644 1.275468 0.049728 -0.025202 370124.000000 0 0 1
13.115758 21.958078 8.116863 26.834004 1.032358 1.263498 0.061739 -0.019584 449550.000000 0 0 1
14.321758 21.488778 7.529563 26.899343 0.982926 1.287089 0.045605 -0.022378 -100680.000000 0 0 1
15.598758 21.557978 8.334663 27.884302 0.944425 1.267255 0.059196 -0.025653 -724198.000000 0 0 1
15.720658 20.659878 9.450263 27.627471 0.920339 1.221688 0.069222 -0.026874 -357724.000000 0 0 1
16.994758 20.631478 10.026763 28.548479 0.881753 1.211924 0.069558 -0.027528 -167043.000000 0 0 1
17.285058 21.655878 11.138163 29.863171 0.897173 1.188585 0.051468 -0.017680 -471715.000000 0 0 1
16.537058 21.328778 12.252163 29.639612 0.911274 1.144643 0.062633 -0.019152 -13264.900000 0 0 1
17.064258 21.994778 13.404163 30.897100 0.910967 1.122054 0.061750 -0.024206 32801.100000 0 0 1
18.126758 21.178078 14.204263 31.286602 0.862875 1.099542 0.049304 -0.014024 1445630.000000 0 0 1
19.457658 21.612078 13.776563 32.178814 0.837808 1.128379 0.062646 -0.014366 1058410.000000 0 0 1
20.389158 21.072278 14.723363 32.810610 0.801873 1.105444 0.064794 -0.012496 -421746.000000 0 0 1
21.847558 21.427378 14.506963 33.865917 0.775689 1.128114 0.073021 -0.018651 -557596.000000 0 0 1
22.323758 20.903278 13.264263 33.335235 0.752549 1.161564 0.073472 -0.019972 -289739.000000 0 0 1
23.672358 21.203678 13.045263 34.353390 0.730442 1.181284 0.080633 -0.019846 -462619.000000 0 0 1
24.407858 20.676378 11.842863 34.110256 0.702820 1.216219 0.083300 -0.008907 -415071.000000 0 0 1
23.981658 21.232178 10.662363 33.758129 0.724662 1.249448 0.087120 -0.009100 326143.000000 0 0 1
24.716558 20.802978 9.495163 33.672396 0.699633 1.284932 0.102169 -0.019937 -270138.000000 0 0 1
24.379658 21.558878 8.177663 33.556328 0.724072 1.324618 0.095078 -0.022195 -41478.500000 0 0 1
24.787458 22.910778 8.134763 34.720256 0.746074 1.334304 0.086279 -0.015531 983357.000000 0 0 1
26.212658 23.096378 8.051963 35.852200 0.722283 1.344276 0.078522 -0.020519 317333.000000 0 0 1
26.652658 24.138878 9.096163 37.091641 0.735946 1.323034 0.097790 -0.033947 827570.000000 0 0 1
27.998558 24.590378 8.798663 38.288672 0.720681 1.338926 0.084792 -0.023893 1274240.000000 0 0 1
28.441758 25.601578 9.721163 39.482596 0.732893 1.322024 0.098059 -0.017229 -407688.000000 0 0 1
29.631568 26.350478 9.167263 40.699094 0.726855 1.343602 0.090127 -0.023871 -515072.000000 0 0 1
29.422618 27.233778 8.042163 40.890653 0.746784 1.372831 0.082920 -0.024949 -110452.000000 0 0 1
30.660648 27.586578 7.475363 41.916294 0.732671 1.391497 0.090490 -0.020290 -273418.000000 0 0 1
30.597308 28.513878 6.256963 42.289314 0.750167 1.422295 0.121409 -0.012235 -71140.200000 0 0 1
30.508248 29.896878 6.507763 43.207956 0.775277 1.419606 0.108901 -0.014124 112281.000000 0 0 1
30.670858 30.670078 5.317663 43.699345 0.785385 1.448807 0.104888 -0.015418 39850.400000 0 0 1
30.875698 32.169278 5.462263 44.922238 0.805914 1.448901 0.055195 -0.007876 85281.800000 0 0 1
29.719998 32.744478 6.027163 44.629652 0.833780 1.435334 0.050002 -0.012653 -67824.900000 0 0 1
29.819568 -33.987756 6.268963 45.647280 -0.850630 1.433026 0.030946 -0.004302 971743.000000 0 0 1
28.451758 -33.403756 6.829263 44.406670 -0.865285 1.416394 0.056928 -0.014389 1023560.000000 0 0 1
27.419658 -33.426156 5.881963 43.631904 -0.883796 1.435576 0.042666 -0.010392 -242965.000000 0 0 1
26.232858 -32.792256 6.351463 42.471591 -0.896073 1.420687 0.042634 -0.016416 234403.000000 0 0 1
25.079158 -32.899256 5.359863 41.713947 -0.919469 1.441949 0.050540 -0.009932 -405938.000000 0 0 1
25.350658 -32.187656 4.167763 41.183387 -0.903669 1.469423 0.024438 0.004478 -647455.000000 0 0 1
24.264358 -32.094856 3.299763 40.369881 -0.923453 1.488967 0.034527 -0.007944 -426190.000000 0 0 1
24.603858 -31.434256 1.921863 39.964433 -0.906688 1.522688 0.030637 0.008826 -154795.000000 0 0 1
24.620158 -30.027556 1.888963 38.876400 -0.884027 1.522188 0.037092 0.015241 160393.000000 0 0 1
25.250758 -29.511856 0.728163 38.846888 -0.863052 1.552051 0.028241 0.020179 -460360.000000 0 0 1
25.567358 -28.026456 0.792263 37.944693 -0.831250 1.549915 0.042607 0.009927 -1921.950000 0 0 1
24.516358 -27.055256 0.896763 36.521814 -0.834589 1.546240 0.030701 0.016504 35464.600000 0 0 1
23.838758 -26.845756 -0.320737 35.903815 -0.844656 1.579730 0.043908 0.005577 -483846.000000 0 0 1
22.734658 -25.786556 -0.200837 34.378067 -0.848214 1.576638 0.038866 0.015922 -572046.000000 0 0 1
23.047258 -24.441456 0.142163 33.594361 -0.814748 1.566565 0.049757 0.002361 -235566.000000 0 0 1
23.383158 -24.220956 1.544463 33.701813 -0.802996 1.524953 0.031323 0.013154 -166193.000000 0 0 1
22.155258 -24.099356 2.447963 32.827229 -0.827404 1.496156 0.030376 0.011575 -222219.000000 0 0 1
22.212958 -23.178356 3.503763 32.294397 -0.806663 1.462088 0.033007 0.004137 -708046.000000 0 0 1
21.156558 -23.271456 4.399163 31.757098 -0.832965 1.431824 0.045376 -0.000799 -534677.000000 0 0 1
21.406958 -22.328556 5.638763 31.442295 -0.806467 1.390484 0.041106 -0.004474 93043.700000 0 0 1
21.221258 -20.899256 5.506463 30.289303 -0.777754 1.387984 0.060258 -0.004576 359872.000000 0 0 1
19.873858 -20.487456 5.297563 29.030506 -0.800600 1.387285 0.046073 0.001576 -173732.000000 0 0 1
19.746958 -18.948156 5.500463 27.914693 -0.764758 1.372453 0.050493 -0.005456 252599.000000 0 0 1
19.458358 -18.483156 6.834663 27.694176 -0.759701 1.321429 0.076888 -0.012892 174597.000000 0 0 1
18.093358 -18.516456 7.232763 26.880135 -0.796955 1.298364 0.054407 -0.000131 406766.000000 0 0 1
19.048539 -26.334042 -11.873937 34.602297 -0.944575 1.921070 0.097887 -0.016643 -34342.900000 0 0 1
19.397039 -25.057822 -12.345537 34.008114 -0.912054 1.942300 0.087548 -0.017418 262764.000000 0 0 1
18.359039 -24.558822 -13.178237 33.374481 -0.928863 1.976711 0.088438 -0.021495 427386.000000 0 0 1
18.727339 -23.110222 -13.483637 32.658904 -0.889777 1.996391 0.078909 -0.030263 197824.000000 0 0 1
18.688439 -22.216422 -12.364937 31.555012 -0.871434 1.973441 0.077179 -0.027998 -822279.000000 0 0 1
19.859339 -22.084322 -11.630237 31.896285 -0.838395 1.944028 0.068447 -0.027998 -1184150.000000 0 0 1
19.920639 -22.659422 -10.147437 31.831615 -0.849630 1.895243 0.069776 -0.018609 640567.000000 0 0 1
18.900139 -22.256522 -9.181437 30.608280 -0.866769 1.875453 0.060479 -0.016736 728575.000000 0 0 1
17.613739 -22.781822 -9.433437 30.302556 -0.912644 1.887366 0.076059 -0.018263 -23714.600000 0 0 1
16.492139 -22.094822 -8.615337 28.885910 -0.929587 1.873659 0.065803 -0.015569 -469818.000000 0 0 1
16.454139 -20.669822 -8.777037 27.839120 -0.898471 1.891545 0.056430 -0.025301 431194.000000 0 0 1
15.642839 -19.998322 -7.782737 26.555645 -0.906999 1.868235 0.057067 -0.025530 -704176.000000 0 0 1
14.201339 -19.912922 -8.197337 25.795325 -0.951285 1.894188 0.073696 -0.022065 -1043760.000000 0 0 1
13.434739 -21.103422 -8.017637 26.270309 -1.003889 1.880942 0.065367 -0.021683 163688.000000 0 0 1
12.058139 -20.886222 -8.298037 25.504713 -1.047216 1.902181 0.070653 -0.025589 448735.000000 0 0 1
11.233539 -22.180122 -8.023337 26.125163 -1.101987 1.882953 0.064489 -0.022346 -61103.700000 0 0 1
11.483839 -22.641222 -6.694337 26.254859 -1.101398 1.828618 0.058212 -0.018851 318901.000000 0 0 1
10.603839 -23.684122 -6.332337 26.711000 -1.149841 1.810144 0.042089 -0.017080 48509.400000 0 0 1
11.070039 -24.306022 -4.980537 27.168625 -1.143424 1.755158 0.053968 -0.012892 -131231.000000 0 0 1
10.229739 -25.247692 -4.391937 27.593162 -1.185837 1.730644 0.053215 -0.015137 -423970.000000 0 0 1
10.907839 -25.812692 -3.338837 28.220982 -1.170980 1.689385 0.045017 -0.011122 -235172.000000 0 0 1
10.053739 -26.839752 -2.519037 28.771435 -1.212391 1.658462 0.050507 -0.013374 580078.000000 0 0 1
9.128339 -26.131752 -1.681137 27.731232 -1.234728 1.631456 0.034710 -0.011226 -163248.000000 0 0 1
8.471139 -27.022632 -0.827737 28.331396 -1.267016 1.600017 0.037449 -0.018340 22899.200000 0 0 1
7.965339 -26.281132 0.445663 27.465308 -1.276514 1.554569 0.057343 -0.019494 -17099.000000 0 0 1
6.738939 -25.640362 0.255063 26.512384 -1.313784 1.561176 0.050875 -0.032090 -444644.000000 0 0 1
6.078439 -25.187632 1.434063 25.950352 -1.333998 1.515506 0.062181 -0.029982 441720.000000 0 0 1
4.647139 -24.667322 1.186863 25.129292 -1.384586 1.523548 0.062400 -0.040392 363819.000000 0 0 1
3.648039 -25.622702 0.933163 25.897912 -1.429372 1.534756 0.070542 -0.040756 188155.000000 0 0 1
2.361639 -25.046622 0.750663 25.168911 -1.476785 1.540967 0.062600 -0.044716 813303.000000 0 0 1
1.219939 -25.942442 0.159163 25.971598 -1.523806 1.564668 0.064773 -0.040839 365910.000000 0 0 1
0.770639 -26.888062 1.061763 26.920050 -1.542143 1.531345 0.066074 -0.036297 -386790.000000 0 0 1
1.331539 -28.164352 0.880363 28.209551 -1.523554 1.539583 0.056568 -0.037504 -587375.000000 0 0 1
0.659439 -29.287332 1.589163 29.337827 -1.548284 1.516602 0.079403 -0.026654 -199715.000000 0 0 1
0.967739 -29.222942 2.978263 29.390252 -1.537693 1.469287 0.071400 -0.019639 282724.000000 0 0 1
0.387039 -30.350002 3.676063 30.574268 -1.558045 1.450271 0.084880 -0.013195 190938.000000 0 0 1
0.596939 -30.323792 5.229363 30.777182 -1.551113 1.400058 0.072967 -0.013288 -34818.000000 0 0 1
1.882439 -30.770642 5.604963 31.333554 -1.509696 1.390948 0.044750 -0.001163 -54897.800000 0 0 1
2.195839 -30.519232 6.983163 31.384866 -1.498971 1.346417 0.046005 -0.005367 -479238.000000 0 0 1
3.573039 -30.965182 7.448563 32.048248 -1.455915 1.336234 0.037613 0.000276 -352884.000000 0 0 1
3.751539 -32.293032 7.070663 33.270231 -1.455143 1.356641 0.035382 -0.002898 -914716.000000 0 0 1
4.961439 -32.714512 7.604963 33.951298 -1.420285 1.344883 0.034856 -0.003133 -445380.000000 0 0 1
5.192639 33.927014 7.617763 35.157305 1.418922 1.352387 0.030623 0.002296 -215929.000000 0 0 1
5.409039 33.419709 6.321863 34.439812 1.410336 1.386187 0.020987 0.004130 -10825.700000 0 0 1
5.332739 31.976372 6.431063 33.049736 1.405546 1.374959 0.019662 -0.004860 -415591.000000 0 0 1
5.483939 31.413582 5.005963 32.279195 1.397966 1.415085 0.030199 -0.008462 2160910.000000 0 0 1
6.817439 31.793542 4.459063 32.820574 1.359567 1.434513 0.028921 -0.003511 1849460.000000 0 0 1
7.719939 30.726092 4.531863 32.003562 1.324641 1.428714 0.031093 -0.007605 409010.000000 0 0 1
9.145739 30.952772 3.912463 32.511937 1.283497 1.450165 0.014379 -0.001794 617288.000000 0 0 1
10.090039 31.326522 4.857663 33.267954 1.259196 1.424256 0.021777 -0.005095 -65590.000000 0 0 1
11.374639 31.638372 4.329963 33.898637 1.225665 1.442714 0.032880 -0.007688 511488.000000 0 0 1
12.463639 32.063072 5.320263 34.809311 1.200050 1.417355 0.040346 -0.025885 -18648.500000 0 0 1
12.671039 31.009552 6.250563 34.076636 1.182883 1.386325 0.034623 -0.013675 -688636.000000 0 0 1
13.856439 31.263282 6.916063 34.888761 1.153597 1.371243 0.054393 -0.018543 -658219.000000 0 0 1
14.518539 30.069972 7.602963 34.246113 1.120983 1.346921 0.037644 -0.009376 -563698.000000 0 0 1
13.813139 29.551842 8.691363 33.758762 1.133550 1.310409 0.038261 -0.007802 -56660.300000 0 0 1
14.593039 28.648822 9.444363 33.509817 1.099676 1.285086 0.031744 -0.008715 66071.300000 0 0 1
14.275139 28.682522 10.982963 33.868749 1.108995 1.240546 0.034465 -0.010277 -48041.300000 0 0 1
14.948139 29.675782 11.709163 35.230717 1.104181 1.231995 0.035190 -0.012391 -1233.930000 0 0 1
14.556639 29.746732 13.049263 35.595605 1.115703 1.195447 0.036287 -0.008629 -72736.500000 0 0 1
15.292939 30.890332 13.831163 37.140109 1.111099 1.189197 0.037299 -0.005733 258570.000000 0 0 1
16.619339 30.528612 14.156663 37.531450 1.072274 1.184031 0.032191 -0.008609 35380.600000 0 0 1
17.188139 31.637512 14.900163 38.966385 1.073124 1.178420 0.038590 -0.007026 -1704.590000 0 0 1
18.405139 31.205582 15.746963 39.503220 1.037909 1.160779 0.058784 -0.013911 474843.000000 0 0 1
19.591139 30.775352 15.084863 39.477692 1.003909 1.178717 0.032736 -0.009569 345368.000000 0 0 1
19.711039 29.411632 14.832763 38.387238 0.980367 1.174073 0.029777 -0.010057 207898.000000 0 0 1
21.036939 28.911552 14.139563 38.449420 0.941766 1.194214 0.054880 -0.016223 709894.000000 0 0 1
22.121339 29.136562 15.035563 39.552005 0.921414 1.180841 0.075423 -0.022780 -705099.000000 0 0 1
23.319939 28.898652 14.369963 39.817678 0.891828 1.201570 0.080233 -0.017914 -701787.000000 0 0 1
24.500539 28.995532 15.348763 40.946329 0.869226 1.186561 0.091947 -0.026757 -407197.000000 0 0 1
24.809439 27.871502 16.111563 40.643713 0.843458 1.163193 0.086653 -0.022103 423780.000000 0 0 1
26.003539 28.076972 16.871863 41.822962 0.823719 1.155554 0.082640 -0.021556 159770.000000 0 0 1
26.923539 26.898542 17.112263 41.728145 0.784934 1.148244 0.062957 -0.012142 -331125.000000 0 0 1
26.412439 25.758132 17.841863 40.980854 0.772857 1.120346 0.068453 -0.020340 38257.700000 0 0 1
25.962739 26.002672 19.189363 41.454004 0.786167 1.089524 0.071410 -0.014648 -112273.000000 0 0 1
25.332639 24.792732 19.867863 40.634396 0.774627 1.059920 0.069023 -0.014711 -564350.000000 0 0 1
26.197639 23.693932 20.070163 40.626717 0.735257 1.054096 0.061637 -0.012127 -163129.000000 0 0 1
25.573839 22.424112 20.364063 39.642870 0.719870 1.031319 0.060429 -0.009759 -87730.700000 0 0 1
26.469639 21.175712 20.271063 39.496438 0.674741 1.031843 0.040487 -0.013841 -234943.000000 0 0 1
25.707839 19.968312 20.203763 38.312120 0.660396 1.015322 0.029827 0.002536 257633.000000 0 0 1
26.448539 18.744212 20.096663 38.141140 0.616544 1.015844 0.039868 -0.013297 70004.900000 0 0 1
27.180839 18.259312 21.344063 39.086692 0.591528 0.993131 0.055924 -0.006553 255925.000000 0 0 1
26.242639 17.878512 22.366063 38.840161 0.598050 0.957154 0.030708 0.004347 425623.000000 0 0 1
26.843239 17.660512 23.598763 39.866713 0.581918 0.937331 0.057600 0.003118 -698956.000000 0 0 1
25.898439 16.964212 24.569963 39.524635 0.579902 0.899966 0.040142 0.006372 -277071.000000 0 0 1
25.646039 15.662512 24.168763 38.563749 0.548264 0.893456 0.045122 -0.001757 983653.000000 0 0 1
24.477039 15.247812 24.914463 38.109732 0.557119 0.858259 0.049115 -0.006481 541951.000000 0 0 1
23.987439 13.883912 24.384563 36.915677 0.524685 0.849248 0.058670 -0.004337 176877.000000 0 0 1
22.792839 13.473112 25.054663 36.452358 0.533858 0.812995 0.042866 -0.007352 493717.000000 0 0 1
22.371939 12.201512 24.566163 35.396002 0.499300 0.803714 0.059571 -0.005401 -921755.000000 0 0 1
21.035139 11.713412 25.031763 34.731402 0.508087 0.765950 0.065557 -0.010973 -887311.000000 0 0 1
19.954039 12.573412 24.795463 34.220891 0.562272 0.760385 0.083346 -0.022860 -684060.000000 0 0 1
18.790039 11.891012 24.495963 33.083439 0.564214 0.737087 0.090435 -0.023256 -784015.000000 0 0 1
17.492439 12.681212 24.697463 32.814071 0.627278 0.718721 0.083879 -0.032274 -383439.000000 0 0 1
17.140839 12.796112 26.027963 33.689816 0.641275 0.687907 0.099985 -0.025306 359597.000000 0 0 1
16.109439 13.777112 26.127263 33.644565 0.707517 0.681598 0.099798 -0.028432 51975.100000 0 0 1
15.757139 14.114512 27.625563 34.794808 0.730464 0.653507 0.082854 -0.021410 -220918.000000 0 0 1
15.222439 13.029312 28.338163 34.706442 0.707926 0.615456 0.082622 -0.016327 -14888.100000 0 0 1
15.345939 13.128912 29.767263 35.971602 0.707696 0.596118 0.067996 -0.013894 1066450.000000 0 0 1
16.821239 12.971412 30.364663 37.057042 0.656890 0.610427 0.069747 -0.000874 936056.000000 0 0 1
17.660539 14.003012 29.996363 37.520139 0.670396 0.644378 0.092020 -0.017643 15947.400000 0 0 1
19.028239 13.612412 29.952863 38.007179 0.620973 0.663106 0.081670 -0.006965 341478.000000 0 0 1
20.014339 14.775512 29.666563 38.716850 0.635936 0.697821 0.088758 -0.014770 -256156.000000 0 0 1
19.823039 15.395612 28.464263 37.949862 0.660342 0.722660 0.097817 -0.027378 219937.000000 0 0 1
20.226339 14.726312 27.303563 37.033142 0.629321 0.741770 0.088112 -0.021705 -404327.000000 0 0 1
19.944039 15.492812 25.976363 36.229316 0.660443 0.771310 0.067401 -0.022391 -272914.000000 0 0 1
20.892039 16.498512 25.727663 37.021492 0.668431 0.802462 0.058394 -0.015109 266029.000000 0 0 1
20.772939 16.988312 24.404463 36.272518 0.685507 0.832798 0.047188 -0.012801 -311147.000000 0 0 1
21.947039 17.929812 24.143363 37.229728 0.684996 0.865188 0.038418 -0.010089 -474689.000000 0 0 1
21.963139 18.416712 22.841663 36.651007 0.697796 0.897942 0.040689 -0.012181 206507.000000 0 0 1
23.159039 19.081712 22.456063 37.479696 0.689170 0.928354 0.045594 -0.007481 62030.600000 0 0 1
23.305039 20.525912 22.916863 38.595603 0.722077 0.935062 0.050625 -0.012847 117329.000000 0 0 1
22.298939 21.411512 22.408763 38.181779 0.765099 0.943576 0.051752 -0.004810 441357.000000 0 0 1
22.228439 22.561412 23.290163 39.313516 0.792832 0.936735 0.065168 -0.011037 485873.000000 0 0 1
21.233539 23.670652 22.824863 39.142526 0.839619 0.948230 0.082510 -0.021920 488524.000000 0 0 1
21.793939 24.158122 21.577563 39.040772 0.836802 0.985204 0.086034 -0.019728 276762.000000 0 0 1
21.241939 25.364012 21.252063 39.321791 0.873614 0.999806 0.083774 -0.024717 -321320.000000 0 0 1
21.991739 26.121262 20.096463 39.621014 0.871018 1.038843 0.080988 -0.027142 -378119.000000 0 0 1
21.900439 25.594452 18.808063 38.580416 0.863019 1.061569 0.082654 -0.027647 116545.000000 0 0 1
22.059139 26.542762 17.796563 38.830935 0.877390 1.094705 0.074679 -0.030843 -277150.000000 0 0 1
22.017539 25.945262 16.329263 37.743523 0.867107 1.123380 0.059114 -0.015059 691924.000000 0 0 1
20.690939 25.533492 15.938863 36.525629 0.889779 1.119231 0.050928 -0.012713 826104.000000 0 0 1
20.741839 25.189012 14.580563 35.739377 0.881921 1.150568 0.059666 -0.008607 -771761.000000 0 0 1
19.386539 24.724602 14.080663 34.429768 0.905827 1.149474 0.051020 -0.014927 -14338.100000 0 0 1
18.395139 25.748782 13.981563 34.595737 0.950466 1.154757 0.041001 -0.008886 125560.000000 0 0 1
17.613539 26.100972 15.111963 34.926622 0.977168 1.123336 0.045129 -0.011546 331572.000000 0 0 1
16.139039 26.511652 14.670463 34.330144 1.023966 1.129254 0.052310 -0.010330 888628.000000 0 0 1
15.336839 25.377612 14.275463 32.909432 1.027188 1.122112 0.060802 -0.018717 272096.000000 0 0 1
14.894939 24.492552 15.264663 32.476981 1.024412 1.081489 0.083929 -0.027607 -56938.100000 0 0 1
13.864639 25.027472 16.317063 32.937048 1.064905 1.052499 0.095269 -0.035276 -49802.100000 0 0 1
14.507539 26.040792 17.052163 34.341925 1.062512 1.051187 0.091036 -0.033624 -229194.000000 0 0 1
13.768439 26.464142 18.127363 34.907335 1.091066 1.024765 0.091564 -0.038058 -429770.000000 0 0 1
14.295939 27.797642 18.761963 36.456742 1.095785 1.030213 0.097944 -0.041465 -104884.000000 0 0 1
14.188039 28.953852 17.904263 36.880736 1.115163 1.063903 0.084453 -0.040004 85077.100000 0 0 1
15.008539 29.956842 18.413763 38.232647 1.106345 1.068289 0.065248 -0.041665 -349120.000000 0 0 1
14.730439 31.299242 17.698663 38.857060 1.130918 1.097884 0.054194 -0.030661 344797.000000 0 0 1
13.393739 31.760602 17.918063 38.848232 1.171716 1.091413 0.060730 -0.035752 674045.000000 0 0 1
13.206939 33.005657 17.171863 39.479989 1.190168 1.120812 0.052456 -0.023031 -578877.000000 0 0 1
11.788039 33.451686 17.516063 39.557372 1.231994 1.112076 0.065885 -0.029608 -734076.000000 0 0 1
11.492639 -33.280492 17.129963 39.154917 -1.238291 1.117989 0.066494 -0.021918 76023.200000 0 0 1
12.219439 -32.127042 17.638163 38.633746 -1.207346 1.096685 0.063722 -0.025789 -62014.300000 0 0 1
12.261139 -32.009572 19.155363 39.266731 -1.204990 1.061198 0.074678 -0.036430 -557069.000000 0 0 1
13.000939 -33.014332 19.791763 40.628616 -1.195649 1.061986 0.084677 -0.031692 -149002.000000 0 0 1
13.192339 -32.698782 21.172563 41.128160 -1.187319 1.030028 0.078610 -0.031261 23073.900000 0 0 1
14.358239 -33.556592 21.751163 42.489022 -1.166488 1.033373 0.084669 -0.035499 -334256.000000 0 0 1
15.577139 -32.956462 21.483963 42.312366 -1.129261 1.038229 0.098266 -0.034443 -693112.000000 0 0 1
16.583639 -33.308102 22.434563 43.448318 -1.108841 1.028212 0.110678 -0.035320 367385.000000 0 0 1
17.994939 -32.798092 22.110763 43.455938 -1.068984 1.036996 0.111308 -0.032208 -83614.700000 0 0 1
18.037339 -31.412892 22.281063 42.527181 -1.049562 1.019344 0.126615 -0.020862 60174.900000 0 0 1
19.174839 -30.773012 21.729663 42.270924 -1.013560 1.030888 0.116467 -0.016345 -219154.000000 0 0 1
-4.747161 13.158078 18.087398 22.865357 -1.224551 0.658290 0.018137 -0.005992 -513806.000000 0 1 0
-4.427561 14.504778 17.827398 23.405299 -1.274531 0.704891 0.018063 -0.007752 489547.000000 0 1 0
-5.611561 15.183078 17.397598 23.763247 -1.216774 0.749364 0.014622 -0.010093 523383.000000 0 1 0
-5.409761 16.719878 17.464598 24.775634 -1.257874 0.788500 0.022905 -0.010100 -20772.000000 0 1 0
-5.181661 17.251078 18.759798 26.007294 -1.279003 0.765078 0.021087 -0.005644 159712.000000 0 0 1
-4.929661 18.603278 18.517798 26.707534 -1.311761 0.804662 0.039059 -0.009794 -474085.000000 0 0 1
-4.351661 19.268878 19.749698 27.933442 -1.348684 0.785511 0.041930 -0.013587 -272651.000000 0 0 1
-5.273261 19.459678 20.780998 28.954037 -1.306168 0.770269 0.035563 -0.012808 -255611.000000 0 0 1
-4.629761 20.185978 21.771598 30.048476 -1.345340 0.760416 0.030357 -0.006089 352696.000000 0 0 1
-5.611661 20.417578 22.971698 31.242073 -1.302575 0.744715 0.031190 -0.005945 479035.000000 0 0 1
-5.973661 19.234478 23.698108 31.100645 -1.269670 0.704429 0.019775 -0.012498 311172.000000 0 0 1
-6.756861 19.453078 24.916778 32.325273 -1.236492 0.690678 0.014621 -0.012320 469536.000000 0 0 1
-6.042961 20.119778 26.114588 33.515587 -1.279019 0.677444 0.017223 -0.012942 -310896.000000 0 0 1
-5.604961 21.394778 25.751078 33.945105 -1.314576 0.709620 0.021154 -0.011450 345878.000000 0 0 1
-4.514961 21.900478 26.531228 34.697577 -1.367487 0.700311 0.034948 -0.004252 1060920.000000 0 0 1
-3.064361 21.607278 26.038638 33.974630 -1.429915 0.697556 0.036622 -0.003496 148489.000000 0 0 1
-2.619361 20.377978 26.551278 33.572212 -1.442958 0.658566 0.043712 -0.002834 785333.000000 0 0 1
-1.313261 20.084078 25.992008 32.873688 -1.505501 0.658905 0.043012 -0.000636 895412.000000 0 0 1
-0.637861 18.901578 26.685118 32.707370 -1.537063 0.616556 0.037304 0.003435 -360558.000000 0 0 1
-1.125661 17.615778 26.291538 31.667455 -1.506982 0.591261 0.049194 -0.003766 72700.100000 0 0 1
-0.453361 16.494478 26.928328 31.581770 -1.543318 0.549752 0.045237 -0.002628 -124225.000000 0 0 1
0.967039 16.256978 26.389378 31.010059 1.511382 0.552921 0.041759 0.000184 -665562.000000 0 0 1
1.078539 15.962678 25.011608 29.690923 1.503333 0.569076 0.034176 0.000352 -174699.000000 0 0 1
0.693439 14.618178 24.691178 28.702374 1.523395 0.535039 0.043965 -0.000472 -365172.000000 0 0 1
0.982039 14.262078 23.217358 27.265674 1.502048 0.551912 0.034055 -0.006785 354768.000000 0 0 1
2.334639 14.357378 22.784598 27.031884 1.409598 0.568186 0.028546 -0.011968 44177.000000 0 0 1
2.528939 13.683678 21.579798 25.677349 1.388044 0.572736 0.023449 -0.014710 -354804.000000 0 0 1
3.980839 13.559878 21.125198 25.416360 1.285245 0.589596 0.022473 -0.012848 -333897.000000 0 0 1
4.381539 14.748678 20.532898 25.657773 1.282020 0.643067 0.017833 -0.000544 -316293.000000 0 0 1
5.759239 14.694178 20.231598 25.659409 1.197257 0.662484 0.025291 -0.000937 39389.300000 0 0 1
6.282639 15.786878 19.288198 25.704701 1.192045 0.722165 0.041574 -0.012862 -84468.500000 0 0 1
5.952439 15.558678 17.907898 24.458062 1.205397 0.749268 0.037565 -0.022119 87051.200000 0 1 0
6.444839 16.584078 17.053598 24.645340 1.200142 0.806595 0.036633 -0.009853 -113878.000000 0 1 0
6.508639 15.993478 15.614298 23.280035 1.184308 0.835622 0.028895 -0.008028 47523.900000 0 1 0
7.585439 15.158978 15.244498 22.797549 1.106835 0.838350 0.027341 -0.004860 -94613.900000 0 1 0
7.783539 13.986478 16.038598 22.659251 1.062973 0.784394 0.028470 -0.007385 -350591.000000 0 1 0
8.873639 13.111378 15.383398 22.074842 0.975819 0.799766 0.028021 -0.007877 -806823.000000 0 1 0
10.115339 13.718278 15.354798 22.940816 0.935433 0.837500 0.031197 -0.010416 -1202480.000000 0 1 0
10.896239 13.032078 14.410498 22.276120 0.874422 0.867280 0.024476 -0.001611 354010.000000 0 1 0
12.350939 13.606578 14.495798 23.405401 0.833733 0.902900 0.024844 0.005761 79395.900000 0 1 0
13.118839 13.311678 15.671198 24.390391 0.792694 0.873020 0.029668 -0.005621 1427570.000000 0 1 0
14.464539 13.838778 15.724198 25.455551 0.763293 0.904966 0.035061 -0.003276 1036340.000000 0 0 1
15.477639 13.163178 14.792998 25.132834 0.704764 0.941480 0.036429 -0.005561 -2063420.000000 0 0 1
16.770239 13.514378 15.087098 26.296385 0.678301 0.959740 0.046357 -0.014664 -789937.000000 0 0 1
17.652739 13.112878 14.057098 26.099210 0.638893 1.002019 0.052217 -0.008101 -1048760.000000 0 0 1
19.069139 13.551678 14.242598 27.388531 0.617845 1.023921 0.059195 -0.013687 -908811.000000 0 0 1
19.855139 13.018178 15.304198 28.247442 0.580342 0.998230 0.048994 -0.016585 56631.200000 0 0 1
21.175839 13.475178 15.159498 29.322465 0.566717 1.027462 0.074864 -0.017918 -192210.000000 0 0 1
22.057539 13.170278 16.406598 30.482252 0.538275 1.002455 0.083603 -0.011535 -17623.500000 0 0 1
22.348539 11.780678 16.538498 30.195421 0.485119 0.991165 0.082923 -0.009002 271592.000000 0 0 1
23.318839 11.567278 17.536598 31.386342 0.460482 0.977939 0.061792 -0.009313 -221555.000000 0 0 1
23.638639 10.049478 17.760398 31.228336 0.401980 0.965839 0.079272 -0.003981 339252.000000 0 0 1
22.563739 9.202178 18.225198 30.429595 0.387238 0.928632 0.063617 -0.004821 781088.000000 0 0 1
22.738739 7.832978 17.856598 29.954363 0.331746 0.932128 0.053373 0.005827 -113730.000000 0 0 1
21.472439 7.016678 18.184098 28.999324 0.315837 0.893033 0.088563 0.006524 -61792.600000 0 0 1
21.329739 5.717178 17.621898 28.251994 0.261882 0.897278 0.096473 -0.011286 1098550.000000 0 0 1
20.040839 5.270878 18.097898 27.512748 0.257182 0.852902 0.093975 -0.008620 491327.000000 0 0 1
19.734639 3.886378 17.583498 26.715900 0.194444 0.852416 0.110585 -0.001882 -377347.000000 0 0 1
18.859139 3.811178 16.443398 25.309633 0.199401 0.863621 0.100405 -0.012661 615336.000000 0 0 1
18.635339 2.545178 15.837698 24.588340 0.135738 0.870932 0.073480 -0.022627 -282206.000000 0 1 0
17.779439 1.593478 16.691998 24.439117 0.089386 0.818930 0.086038 -0.018267 -289304.000000 0 1 0
18.551739 0.998878 17.686098 25.650786 0.053791 0.810004 0.101652 -0.025377 26694.400000 0 0 1
17.677539 0.255078 18.465698 25.564476 0.014428 0.763647 0.091111 -0.025213 -210912.000000 0 0 1
18.327739 -0.345922 19.715598 26.920819 -0.018872 0.749022 0.091102 -0.024601 -331627.000000 0 0 1
18.762839 -1.675022 19.581698 27.171542 -0.089037 0.766029 0.088494 -0.015841 347347.000000 0 0 1
17.748439 -2.611422 19.964498 26.840413 -0.146087 0.732025 0.058601 -0.018552 211293.000000 0 0 1
17.829939 -4.047322 19.327298 26.605112 -0.223213 0.757654 0.045264 -0.005398 -205917.000000 0 0 1
17.661039 -3.995122 17.906098 25.465695 -0.222467 0.790984 0.054851 -0.012714 304205.000000 0 0 1
17.434239 -5.268822 17.396598 25.186401 -0.293484 0.808320 0.073756 -0.020960 -218617.000000 0 0 1
17.134439 -5.208622 15.881298 23.936047 -0.295109 0.845324 0.047198 -0.018038 41959.100000 0 1 0
15.792439 -4.822622 15.608198 22.721678 -0.296381 0.813540 0.044059 -0.019487 425986.000000 0 1 0
15.477739 -4.788722 14.220798 21.557443 -0.300053 0.850417 0.042461 -0.021348 378936.000000 0 1 0
16.109539 -3.623122 13.417898 21.276378 -0.221224 0.888409 0.048386 -0.019323 68298.300000 0 1 0
15.202539 -2.514822 13.496998 20.484396 -0.163937 0.851452 0.038825 -0.017068 574901.000000 0 1 0
15.657439 -1.377322 12.845398 20.299179 -0.087740 0.885627 0.041691 -0.014893 -16874.000000 0 1 0
14.659239 -0.192022 13.009498 19.600439 -0.013098 0.844995 0.042427 -0.010198 -236568.000000 0 1 0
15.123739 1.091578 12.600598 19.715326 0.072052 0.877434 0.046314 -0.007903 208653.000000 0 1 0
15.971439 1.652278 13.584598 21.032313 0.103085 0.868605 0.062768 -0.015597 -303442.000000 0 1 0
16.182639 3.094878 13.278298 21.160559 0.188965 0.892455 0.061901 -0.010636 286974.000000 0 1 0
15.002939 3.899978 13.431698 20.511180 0.254319 0.856815 0.045660 -0.007163 601432.000000 0 1 0
15.127139 5.170278 12.788898 20.472372 0.329341 0.896061 0.053938 -0.010757 -759535.000000 0 1 0
14.023239 6.184478 12.937698 20.056994 0.415358 0.869712 0.032884 -0.007522 -899143.000000 0 1 0
14.294339 7.357078 12.243098 20.207627 0.475326 0.919943 0.032338 -0.013429 300742.000000 0 1 0
13.394039 8.459478 12.399598 20.117482 0.563321 0.906685 0.022501 -0.005063 -163694.000000 0 1 0
13.663239 9.417978 13.539598 21.417356 0.603504 0.886434 0.038923 -0.010110 -62427.200000 0 1 0
13.103339 9.019078 14.767198 21.705101 0.602833 0.822548 0.030947 -0.005906 451831.000000 0 1 0
13.541839 9.890278 15.801898 23.041245 0.630806 0.815081 0.046263 -0.013533 -129897.000000 0 1 0
13.107239 9.426678 17.223798 23.607651 0.623494 0.753081 0.051656 -0.014018 -79411.300000 0 1 0
11.742839 9.659678 17.496198 23.180177 0.688371 0.715460 0.031459 -0.022360 -354357.000000 0 1 0
11.196939 8.967578 18.572898 23.467881 0.675287 0.657671 0.054178 -0.013921 -247151.000000 0 1 0
11.665039 9.166678 20.012498 24.911869 0.666038 0.637927 0.086793 -0.021427 -75016.800000 0 1 0
12.972439 8.632478 20.224798 25.531281 0.587158 0.656460 0.111557 -0.024223 330019.000000 0 0 1
13.507539 9.058378 21.456798 26.924004 0.590732 0.648585 0.115520 -0.013332 -87909.100000 0 0 1
15.021839 8.777178 21.502698 27.659727 0.528791 0.680273 0.114488 -0.018528 333848.000000 0 0 1
15.840939 9.615978 20.669998 27.760605 0.545575 0.730891 0.099227 -0.013828 69195.200000 0 0 1
17.099239 9.050278 20.428598 28.135727 0.486796 0.758202 0.088511 -0.016306 -444627.000000 0 0 1
18.058039 9.882078 19.600198 28.423863 0.500722 0.809903 0.090632 -0.009281 -632496.000000 0 0 1
18.846639 10.796178 20.255398 29.699064 0.520212 0.820273 0.092526 -0.018656 -190648.000000 0 0 1
19.610039 11.599278 19.376998 29.909278 0.534144 0.866026 0.090849 -0.013767 -957.995000 0 0 1
20.636739 12.416778 20.210098 31.440411 0.541656 0.872640 0.079128 -0.012271 -501493.000000 0 0 1
20.128339 13.595478 20.868398 32.023071 0.594052 0.861015 0.065101 -0.010538 443349.000000 0 0 1
21.013939 14.290578 21.744798 33.446113 0.597212 0.863022 0.044819 -0.006958 626382.000000 0 0 1
22.275739 14.970178 21.100898 34.140338 0.591713 0.904519 0.038383 -0.004833 1016090.000000 0 0 1
23.388039 14.124278 20.758698 34.313542 0.543290 0.921067 0.019126 0.007304 374824.000000 0 0 1
24.515639 14.931778 20.509898 35.279321 0.547063 0.950400 0.023681 -0.000940 283294.000000 0 0 1
25.869139 14.173378 20.687598 36.028790 0.501220 0.959174 0.030415 -0.000486 289710.000000 0 0 1
26.011739 13.309378 19.558598 35.160900 0.472938 0.980918 0.033271 -0.006953 -169800.000000 0 0 1
27.278339 12.714178 19.607698 35.919631 0.436154 0.993361 0.063296 -0.016711 -246607.000000 0 0 1
27.664039 12.069678 18.309998 35.302014 0.411398 1.025505 0.082982 -0.022750 -93062.600000 0 0 1
28.089639 12.868278 17.181898 35.353048 0.429582 1.063279 0.093882 -0.037346 155190.000000 0 0 1
28.381439 12.076578 16.057398 34.773407 0.402302 1.090804 0.116812 -0.040885 -668676.000000 0 0 1
27.215839 11.545978 15.239998 33.260623 0.401225 1.094828 0.103189 -0.032886 -477193.000000 0 0 1
26.582839 12.580978 14.520498 32.798982 0.442039 1.112176 0.114045 -0.032932 235204.000000 0 0 1
25.587539 12.045078 13.649298 31.402379 0.439967 1.121138 0.104139 -0.026929 249089.000000 0 0 1
24.893839 13.016978 12.675998 30.819245 0.481799 1.146915 0.098771 -0.030757 17415.000000 0 0 1
24.034539 13.977978 13.243498 30.796642 0.526764 1.126270 0.077711 -0.022871 368898.000000 0 0 1
23.951739 15.034978 12.363198 30.863976 0.560553 1.158657 0.064626 -0.023791 -62687.500000 0 0 1
23.168639 16.273978 12.892698 31.110285 0.612344 1.143492 0.061650 -0.015826 963156.000000 0 0 1
21.733939 16.183878 12.894498 30.009167 0.640059 1.126652 0.069679 -0.025824 1023940.000000 0 0 1
21.073739 17.366978 13.293998 30.371776 0.689267 1.117747 0.061326 -0.020786 -469911.000000 0 0 1
20.411439 18.170378 12.165798 29.913143 0.727377 1.151953 0.072589 -0.019326 1043130.000000 0 0 1
19.198339 17.659978 11.536298 28.522574 0.743685 1.154406 0.072275 -0.019738 1049390.000000 0 0 1
18.040239 17.845078 12.311198 28.203947 0.779960 1.119085 0.061740 -0.019782 -1280040.000000 0 0 1
16.755739 17.316578 11.741298 26.804416 0.801857 1.117384 0.062377 -0.003935 -860347.000000 0 0 1
16.726039 15.878778 11.671598 25.848059 0.759418 1.102299 0.056709 0.001022 399025.000000 0 0 1
15.449939 15.454978 11.217498 24.563982 0.785561 1.096554 0.051137 0.000289 305377.000000 0 1 0
15.505039 14.032278 10.556498 23.425429 0.735578 1.103311 0.056158 -0.008608 -12626.700000 0 1 0
15.869839 12.905778 11.282798 23.360488 0.682754 1.066734 0.057785 0.001001 250311.000000 0 1 0
16.498639 11.926678 10.494598 22.903871 0.625923 1.094825 0.068127 0.007501 -101759.000000 0 1 0
16.665739 10.628078 11.350598 22.793397 0.567694 1.049531 0.066064 -0.000820 -899636.000000 0 1 0
17.107139 9.607778 10.484098 22.245896 0.511724 1.080052 0.056931 -0.003837 404473.000000 0 1 0
17.427339 8.405178 11.193498 22.352932 0.449386 1.046317 0.039954 -0.005065 1093740.000000 0 1 0
18.743939 8.476678 12.082198 23.857259 0.424712 1.039749 0.059291 -0.013813 581953.000000 0 1 0
18.424039 9.116978 13.268998 24.466933 0.459512 0.997596 0.064181 -0.014465 649442.000000 0 1 0
19.626339 9.291078 14.022398 25.848500 0.442141 0.997405 0.077351 -0.010499 -76560.500000 0 0 1
19.366939 9.709378 15.488898 26.631866 0.464717 0.950111 0.073256 0.000445 97559.200000 0 0 1
18.768539 8.710578 16.303098 26.342423 0.434522 0.903466 0.083140 -0.000848 593196.000000 0 0 1
17.370339 8.563078 16.104698 25.187621 0.458009 0.877092 0.077613 -0.017406 -220299.000000 0 0 1
16.750639 7.246378 16.613098 24.679727 0.408293 0.832339 0.076416 -0.004726 -979338.000000 0 1 0
15.953739 7.424378 17.737998 24.985591 0.435561 0.781399 0.088478 -0.006793 -122082.000000 0 1 0
15.493839 6.178878 18.210998 24.695709 0.379468 0.741560 0.086484 0.009387 200528.000000 0 1 0
14.186139 5.710978 17.508298 23.246555 0.382724 0.717949 0.072770 -0.016275 -518246.000000 0 1 0
13.758039 4.351478 17.813698 22.924808 0.306331 0.680833 0.075578 -0.010186 375113.000000 0 1 0
13.225039 3.681878 16.685698 21.607184 0.271526 0.688454 0.062830 -0.011289 -33281.600000 0 1 0
12.998139 2.182278 16.748598 21.312660 0.166340 0.666724 0.056157 -0.013380 -798500.000000 0 1 0
14.202539 1.519978 16.684298 21.963339 0.106616 0.708032 0.056056 -0.013436 -566290.000000 0 1 0
14.089839 0.103178 16.563198 21.745660 0.007323 0.704897 0.048957 -0.016158 -262872.000000 0 1 0
13.444839 -0.800322 17.671398 22.218968 -0.059456 0.651246 0.054769 -0.013949 -300970.000000 0 1 0
12.070939 -0.579622 17.704398 21.435700 -0.047981 0.598946 0.054663 -0.005527 -628109.000000 0 1 0
11.364039 -1.257622 18.715498 21.931549 -0.110218 0.548400 0.048359 -0.013234 45202.500000 0 1 0
-26.129261 13.883278 28.673638 41.202685 -0.488397 0.801101 0.051374 -0.006371 -413099.000000 0 0 1
-25.135051 13.914078 29.690218 41.314422 -0.505582 0.768951 0.053638 -0.007000 292533.000000 0 0 1
-24.725261 12.627878 29.981258 40.861690 -0.472193 0.747008 0.049308 -0.013321 141400.000000 0 0 1
-23.454461 12.626878 30.899608 40.796269 -0.493860 0.711455 0.039810 -0.011174 419950.000000 0 0 1
-23.801561 13.025478 32.220843 42.123154 -0.500732 0.699879 0.036921 -0.013136 16511.000000 0 0 1
-22.694461 12.981578 33.081391 42.165606 -0.519588 0.668812 0.028502 -0.012594 -455410.000000 0 0 1
-23.110761 13.281578 -33.520097 42.826446 -0.521603 2.469782 0.047015 -0.017073 125268.000000 0 0 1
-23.728061 12.147478 -32.895837 42.340503 -0.473158 2.460580 0.023940 -0.005830 128303.000000 0 0 1
-24.269561 12.553978 -31.655627 41.817373 -0.477370 2.429501 0.024869 -0.009128 307014.000000 0 0 1
-25.273811 11.527778 -31.000317 41.625411 -0.427928 2.410949 0.018095 -0.016981 264009.000000 0 0 1
-24.711061 10.342378 -30.428327 40.539911 -0.396380 2.419731 0.043329 -0.027445 140281.000000 0 0 1
-24.066161 9.452278 -31.302847 40.600417 -0.374251 2.451203 0.035799 -0.028175 -80380.500000 0 0 1
-23.177161 8.416678 -30.552277 39.261468 -0.348337 2.462550 0.040396 -0.007503 -275326.000000 0 0 1
-23.873961 7.493078 -29.749537 38.873476 -0.304123 2.442290 0.049698 -0.012062 -130040.000000 0 0 1
-23.055661 6.686878 -28.982177 37.633023 -0.282287 2.449835 0.045012 -0.008989 -465902.000000 0 0 1
-23.880661 6.022378 -27.838777 37.169241 -0.247035 2.417308 0.054278 -0.010521 372406.000000 0 0 1
-24.687561 4.957978 -28.385577 37.944673 -0.198193 2.415957 0.077427 -0.025841 461500.000000 0 0 1
-24.891661 3.972378 -27.360477 37.201751 -0.158252 2.397145 0.114684 -0.021215 -504706.000000 0 0 1
-25.698681 2.707178 -27.762587 37.927724 -0.104956 2.392030 0.122567 -0.020022 1058270.000000 0 0 1
-27.068081 2.724478 -28.192577 39.178121 -0.100315 2.374022 0.129400 -0.024663 1020950.000000 0 0 1
-27.442681 3.691078 -29.154577 40.208384 -0.133699 2.381957 0.121146 -0.028321 -794695.000000 0 0 1
-28.726161 3.296678 -29.914537 41.604566 -0.114262 2.373188 0.135195 -0.031077 -1300510.000000 0 0 1
-29.929981 3.266678 -29.208737 41.947887 -0.108714 2.341040 0.118046 -0.039261 -143660.000000 0 0 1
-31.037411 2.973478 -30.034067 43.292120 -0.095512 2.337484 0.113271 -0.032281 141407.000000 0 0 1
-31.541401 4.193178 -30.828507 44.303945 -0.132167 2.340387 0.115714 -0.034729 -955227.000000 0 0 1
-30.582921 4.635278 -31.785637 44.352312 -0.150419 2.369801 0.123095 -0.040654 212984.000000 0 0 1
-30.925761 5.807578 -32.448567 45.200002 -0.185629 2.371561 0.114496 -0.033879 -690624.000000 0 0 1
-30.702951 7.199978 -31.674507 44.696591 -0.230342 2.358388 0.070052 -0.023809 632490.000000 0 0 1
-29.317161 7.548378 -31.485397 43.678417 -0.252000 2.375818 0.056160 -0.026004 1214720.000000 0 0 1
-28.698051 7.202678 -30.236597 42.304946 -0.245902 2.367034 0.038331 -0.028467 -97472.000000 0 0 1
-28.908341 8.230578 -29.035127 41.790827 -0.277374 2.338900 0.027188 -0.018344 231934.000000 0 0 1
-30.239081 8.338078 -28.546177 42.412378 -0.269053 2.309138 0.039835 -0.029923 547221.000000 0 0 1
-30.565891 7.335078 -27.597537 41.829429 -0.235522 2.291301 0.050241 -0.017373 -409556.000000 0 0 1
-31.813371 7.647578 -26.742767 42.258154 -0.235913 2.256016 0.034423 -0.019084 -93248.700000 0 0 1
-31.651001 8.591678 -25.707497 41.671071 -0.265063 2.235613 -0.007087 -0.007907 94499.400000 0 0 1
-31.682041 7.851578 -24.505037 40.815387 -0.242930 2.214782 0.000930 -0.006645 -226943.000000 0 0 1
-31.196511 8.480878 -23.185937 39.783605 -0.265439 2.192968 -0.007812 -0.006742 -423119.000000 0 0 1
-32.125431 9.397578 -22.655237 40.418035 -0.284587 2.165813 -0.000117 -0.005232 693915.000000 0 0 1
-31.350301 10.438378 -21.999737 39.696216 -0.321414 2.158201 0.001102 -0.005892 418982.000000 0 0 1
-32.187541 11.281478 -21.012337 40.060303 -0.337113 2.122945 -0.001813 0.002721 -31505.700000 0 0 1
-32.608721 10.632778 -19.837337 39.622022 -0.315201 2.095162 -0.006284 -0.006934 130335.000000 0 0 1
-33.265261 11.494578 -18.885937 39.942227 -0.332699 2.063298 0.010418 0.003818 -128387.000000 0 0 1
-32.398041 12.496878 -18.108037 39.162559 -0.368144 2.051475 0.003303 -0.002534 -544204.000000 0 0 1
-31.660951 11.985178 -17.025737 37.893747 -0.361877 2.036780 0.019519 -0.008090 -1642.950000 0 0 1
-32.313851 11.564178 -15.824837 37.793394 -0.343669 2.002831 0.015084 -0.009586 -185328.000000 0 0 1
-32.965671 12.722878 -15.001437 38.388152 -0.368330 1.972278 0.026653 -0.005685 672015.000000 0 0 1
-33.989641 13.451578 -15.730337 39.795529 -0.376842 1.977168 0.014765 0.000723 624018.000000 0 0 1
-34.440902 14.463578 -14.872137 40.206359 -0.397588 1.949692 0.018041 -0.002012 -260932.000000 0 0 1
-35.261710 15.594678 -15.440937 41.533176 -0.416395 1.951715 0.008345 0.006753 301931.000000 0 0 1
-36.510671 15.285078 -16.059737 42.715078 -0.396477 1.956243 0.013480 0.000886 642918.000000 0 0 1
36.589408 16.456378 -16.563437 43.404431 0.422653 1.962331 0.013910 -0.004068 -435758.000000 0 0 1
36.254048 16.384478 -18.078637 43.699476 0.424462 1.997315 0.014397 0.000709 271677.000000 0 0 1
35.236648 15.426178 -18.403637 42.641320 0.412652 2.017053 0.057392 -0.011676 707139.000000 0 0 1
33.970998 16.064278 -18.511237 41.889803 0.441719 2.028515 0.097184 -0.019421 -262498.000000 0 0 1
32.816038 15.077478 -18.769237 40.700208 0.430688 2.050096 0.108302 -0.026131 -271981.000000 0 0 1
32.656998 14.591678 -20.093337 41.026074 0.420203 2.082622 0.101816 -0.021848 275224.000000 0 0 1
31.639038 13.615378 -20.236037 39.948773 0.406381 2.101975 0.071872 -0.019139 18424.100000 0 0 1
31.994838 12.215278 -19.754737 39.536468 0.364709 2.094001 0.072424 -0.004159 -154004.000000 0 0 1
31.910658 11.939678 -18.361237 38.703760 0.358034 2.065084 0.085692 -0.013162 205586.000000 0 0 1
32.780218 10.864478 -18.017137 38.951210 0.320040 2.051673 0.094020 -0.016874 136089.000000 0 0 1
32.777268 10.653378 -16.497337 38.210023 0.314253 2.017233 0.080415 -0.017083 394970.000000 0 0 1
31.555378 10.179978 -15.928837 36.784530 0.312066 2.018649 0.095432 -0.020433 396644.000000 0 0 1
31.710528 10.169078 -14.535337 36.335159 0.310324 1.982351 0.084945 -0.019505 44296.700000 0 0 1
30.997508 11.296678 -13.760537 35.746508 0.349479 1.965948 0.107654 -0.027527 -86789.800000 0 0 1
29.592168 11.151478 -13.672137 34.452564 0.360382 1.978867 0.101954 -0.020914 53810.700000 0 0 1
29.020718 12.283178 -13.062637 34.113209 0.400392 1.963752 0.120941 -0.020118 163432.000000 0 0 1
27.479158 12.125978 -13.046337 32.746761 0.415578 1.980569 0.114528 -0.018239 -325796.000000 0 0 1
26.954558 11.067678 -12.256337 31.611066 0.389615 1.968956 0.104301 -0.028145 411550.000000 0 0 1
25.575458 10.755378 -12.389837 30.385692 0.398083 1.990787 0.102027 -0.016055 163569.000000 0 0 1
25.232658 10.091878 -13.748937 30.455973 0.380466 2.039171 0.081002 -0.023839 -855398.000000 0 0 1
25.710458 8.786578 -13.865337 30.503757 0.329307 2.042658 0.079413 -0.020059 351712.000000 0 0 1
27.080358 8.608678 -14.165437 31.750822 0.307791 2.033248 0.087782 -0.030612 -1895.520000 0 0 1
27.886558 7.751178 -13.131637 31.783341 0.271110 1.996719 0.097931 -0.032465 -165038.000000 0 0 1
27.600558 6.324878 -13.074837 31.188880 0.225268 2.003376 0.088276 -0.038902 909367.000000 0 0 1
26.312058 5.996178 -12.547837 29.761162 0.224061 2.006025 0.112098 -0.037798 206969.000000 0 0 1
25.969558 4.456778 -12.581737 29.198988 0.169960 2.016282 0.106660 -0.039463 -249031.000000 0 0 1
25.039958 4.072678 -11.589237 27.890798 0.161235 1.999313 0.117147 -0.044654 242101.000000 0 0 1
24.890358 2.712878 -11.606337 27.597041 0.108565 2.004864 0.096171 -0.042664 202179.000000 0 0 1
23.889758 2.294678 -10.489937 26.192076 0.095759 1.982859 0.084041 -0.039924 532964.000000 0 0 1
24.672358 2.279778 -9.291937 26.462478 0.092140 1.929581 0.091016 -0.032555 874259.000000 0 0 1
23.850558 2.064678 -8.174537 25.296938 0.086352 1.899845 0.100332 -0.024596 -449433.000000 0 0 1
24.559558 1.498678 -6.868637 25.545961 0.060947 1.843020 0.115212 -0.026457 -192377.000000 0 0 1
24.748358 0.090478 -6.821337 25.671386 0.003656 1.839744 0.089889 -0.031933 107206.000000 0 0 1
25.702758 -0.433122 -7.688937 26.831681 -0.016850 1.861433 0.095062 -0.029922 -868706.000000 0 0 1
25.952758 -1.891822 -7.392937 27.051435 -0.072766 1.847610 0.100952 -0.042726 -335205.000000 0 0 1
27.017758 -2.091022 -6.491737 27.865288 -0.077240 1.805925 0.117923 -0.042390 254810.000000 0 0 1
26.971058 -3.417122 -6.067437 27.855493 -0.126024 1.790375 0.132654 -0.043682 150570.000000 0 0 1
28.166458 -3.840722 -5.134637 28.887108 -0.135522 1.749494 0.127999 -0.039636 204291.000000 0 0 1
29.351148 -3.920922 -5.875537 30.189161 -0.132800 1.766670 0.136113 -0.030913 672770.000000 0 0 1
30.509908 -4.360222 -5.120737 31.242407 -0.141950 1.735443 0.173572 -0.038845 921159.000000 0 0 1
31.686788 -4.694122 -6.070837 32.602797 -0.147072 1.758096 0.165653 -0.035626 -316290.000000 0 0 1
31.437538 -5.811022 -6.841237 32.693872 -0.182780 1.781606 0.127503 -0.028074 184632.000000 0 0 1
32.220968 -5.892522 -8.029037 33.725036 -0.180880 1.811178 0.123817 -0.038163 -708022.000000 0 0 1
31.553658 -6.805822 -9.079237 33.531852 -0.212436 1.844983 0.102408 -0.033073 687108.000000 0 0 1
30.261658 -6.472822 -9.582037 32.395691 -0.210720 1.871070 0.095858 -0.025901 994079.000000 0 0 1
29.198068 -6.656322 -8.610937 31.160585 -0.224141 1.850781 0.112202 -0.014661 -427675.000000 0 0 1
28.070758 -5.665722 -8.989537 30.014657 -0.199161 1.874970 0.096306 -0.018370 -764347.000000 0 0 1
27.287958 -6.102822 -10.066337 29.718819 -0.220025 1.916352 0.066683 -0.013548 -166703.000000 0 0 1
26.108058 -5.350222 -10.129937 28.510896 -0.202128 1.934032 0.058650 -0.014301 -304407.000000 0 0 1
24.841258 -6.103722 -9.711137 27.361464 -0.240936 1.933625 0.071009 -0.010836 -1217080.000000 0 0 1
24.893258 -6.401922 -8.346637 27.024530 -0.251720 1.884784 0.074364 -0.019549 1026460.000000 0 0 1
23.687558 -7.053922 -7.896437 25.946328 -0.289428 1.880039 0.069154 -0.019943 102555.000000 0 0 1
22.760458 -6.016222 -7.274237 24.640371 -0.258418 1.870478 0.086692 -0.022229 -760507.000000 0 1 0
22.391258 -5.047822 -8.247537 24.389973 -0.221731 1.915750 0.086111 -0.021020 204852.000000 0 1 0
21.940758 -3.838822 -7.699737 23.567337 -0.173210 1.903619 0.073691 -0.024380 -148905.000000 0 1 0
21.828558 -2.711322 -8.730437 23.665539 -0.123577 1.948632 0.077534 -0.021425 -351303.000000 0 1 0
23.115858 -2.397022 -9.198237 24.993923 -0.103327 1.947674 0.066218 -0.018409 366254.000000 0 1 0
23.047658 -1.919022 -10.484337 25.392883 -0.083072 1.996416 0.079653 -0.027846 419066.000000 0 0 1
24.337058 -2.051022 -11.393337 26.950087 -0.084077 2.007282 0.064084 -0.028268 623595.000000 0 0 1
25.305058 -1.059422 -11.090737 27.649101 -0.041842 1.983541 0.067382 -0.033693 909996.000000 0 0 1
26.496058 -1.247922 -11.859037 29.055725 -0.047064 1.991221 0.064872 -0.026658 800769.000000 0 0 1
27.698658 -0.335722 -11.426537 29.964881 -0.012120 1.962032 0.057613 -0.023782 -879938.000000 0 0 1
28.903128 -0.625722 -12.030337 31.313118 -0.021646 1.965132 0.076386 -0.025377 -392378.000000 0 0 1
29.941178 0.273178 -11.685937 32.142027 0.009124 1.942896 0.091534 -0.023036 43336.400000 0 0 1
29.867628 1.585078 -12.416637 32.384573 0.053020 1.964284 0.095927 -0.027260 -881508.000000 0 0 1
30.274988 1.367278 -13.720937 33.267228 0.045131 1.995934 0.091190 -0.031598 333657.000000 0 0 1
30.107678 2.577778 -14.441437 33.491377 0.085410 2.016617 0.087430 -0.029837 28539.300000 0 0 1
30.348118 2.485878 -15.947637 34.373172 0.081730 2.053252 0.097425 -0.031489 1033840.000000 0 0 1
29.222788 1.808778 -16.580237 33.647396 0.061817 2.086060 0.069762 -0.020022 1088220.000000 0 0 1
29.506888 1.749878 -17.992737 34.604293 0.059235 2.117597 0.052647 -0.019544 563683.000000 0 0 1
28.367758 1.135278 -18.890237 34.100727 0.039999 2.157902 0.028450 -0.009779 364440.000000 0 0 1
28.088658 -0.248822 -18.720937 33.756601 -0.008858 2.158662 0.049805 -0.017656 160856.000000 0 0 1
28.129358 -0.949422 -19.955737 34.502081 -0.033739 2.187553 0.036065 -0.011740 -33406.400000 0 0 1
27.782958 -2.471222 -19.852537 34.236281 -0.088714 2.189363 0.037060 -0.015286 739210.000000 0 0 1
26.417658 -2.846922 -19.583437 33.007705 -0.107352 2.205947 0.040416 -0.012212 871565.000000 0 0 1
26.142558 -4.246122 -19.492437 32.884920 -0.161016 2.205262 0.046186 -0.018160 -315554.000000 0 0 1
26.801658 -4.996222 -18.301937 32.836748 -0.184299 2.162001 0.044213 -0.021275 -942543.000000 0 0 1
28.166058 -5.191422 -18.435737 34.061035 -0.182269 2.142726 0.051107 -0.023568 -658452.000000 0 0 1
28.768708 -5.461022 -17.180237 33.950285 -0.187593 2.101385 0.049654 -0.027288 78756.200000 0 0 1
30.288528 -5.189622 -17.068637 35.152034 -0.169692 2.077807 0.084940 -0.025655 56598.800000 0 0 1
31.019558 -6.040722 -17.904337 36.321737 -0.192332 2.086259 0.060919 -0.025175 23950.600000 0 0 1
32.381978 -5.656322 -18.006437 37.480905 -0.172930 2.071926 0.079907 -0.020396 127268.000000 0 0 1
33.222518 -6.686722 -18.814037 38.761010 -0.198617 2.077600 0.072643 -0.018638 -10527.800000 0 0 1
33.770158 -7.725522 -17.991437 39.035869 -0.224898 2.049800 0.082439 -0.023711 130971.000000 0 0 1
34.476138 -8.618422 -18.846037 40.225047 -0.244962 2.058405 0.069834 -0.017239 -464379.000000 0 0 1
35.481308 -9.418222 -18.048937 40.907093 -0.259458 2.027752 0.072790 -0.015160 -1003000.000000 0 0 1
34.882348 -10.229722 -17.045137 40.149248 -0.285265 2.009255 0.064637 -0.016817 490387.000000 0 0 1
35.738338 -10.932622 -16.110837 40.697790 -0.296868 1.977806 0.080218 -0.013945 -168509.000000 0 0 1
36.720088 -10.123922 -15.213237 41.015866 -0.269022 1.950786 0.088948 -0.022560 -190213.000000 0 0 1
-36.438561 -10.812022 -14.087137 40.535367 0.288444 1.925729 0.079663 -0.027518 399334.000000 0 0 1
-35.889396 -12.133222 -14.149037 40.440810 0.326010 1.928229 0.065416 -0.018102 38644.600000 0 0 1
-34.467144 -12.181722 -14.805837 39.440984 0.339727 1.955616 0.068491 -0.025241 -29922.800000 0 0 1
-34.378191 -11.950922 -16.189937 39.834641 0.334563 1.989338 0.074843 -0.018047 226883.000000 0 0 1
-33.078081 -12.074122 -16.761337 38.998542 0.349991 2.015061 0.090696 -0.018877 224327.000000 0 0 1
-32.921141 -11.216522 -18.020337 39.170709 0.328374 2.048844 0.127383 -0.020419 170296.000000 0 0 1
-32.884181 -9.818522 -17.920937 38.716053 0.290153 2.052039 0.123689 -0.022145 140310.000000 0 0 1
-34.192044 -9.300622 -17.825837 39.665576 0.265586 2.036893 0.109929 -0.027533 -289075.000000 0 0 1
-34.260272 -7.821822 -17.519037 39.266574 0.224459 2.033262 0.120691 -0.028461 70920.300000 0 0 1
-35.585814 -7.312022 -17.549137 40.345855 0.202655 2.020799 0.124641 -0.032068 327479.000000 0 0 1
-35.713676 -5.963822 -17.142637 40.061251 0.165463 2.012976 0.124239 -0.034694 -235461.000000 0 0 1
24.654239 27.428278 -27.179217 45.813227 0.838610 2.205900 0.036360 -0.000843 24064.300000 0 0 1
25.434239 26.729778 -26.208217 45.257620 0.810229 2.188408 0.027107 -0.011757 -202506.000000 0 0 1
26.631339 26.297378 -26.801297 46.033572 0.779089 2.192243 0.027220 -0.009521 -213794.000000 0 0 1
27.376639 25.247078 -25.943837 45.386980 0.744953 2.179268 0.024388 -0.008922 -359979.000000 0 0 1
27.825039 25.744978 -24.676737 45.232488 0.746589 2.147846 0.026969 -0.010809 249225.000000 0 0 1
28.238039 24.752178 -23.763637 44.438357 0.719710 2.135014 0.033711 -0.006629 -227099.000000 0 0 1
28.880639 25.332878 -22.500637 44.521058 0.720051 2.100634 0.026829 -0.001668 -275473.000000 0 0 1
28.007339 26.086878 -21.694937 43.995528 0.749911 2.086465 0.026318 0.001377 -19713.000000 0 0 1
28.692939 26.540978 -20.560537 44.163830 0.746457 2.055054 0.012644 0.007450 236433.000000 0 0 1
27.883839 27.585178 -19.712937 43.898182 0.780014 2.036510 0.018309 0.005131 538212.000000 0 0 1
26.868739 27.029478 -18.867337 42.526441 0.788380 2.030476 0.032660 -0.000441 447333.000000 0 0 1
25.983339 28.046678 -18.453737 42.453391 0.823568 2.020482 0.035538 -0.003721 157310.000000 0 0 1
24.923039 27.696878 -17.381237 41.114259 0.838064 2.007279 0.045066 -0.005349 208053.000000 0 0 1
23.962839 26.825978 -17.929737 40.191121 0.841712 2.033213 0.052659 -0.005303 41543.000000 0 0 1
22.858139 26.599078 -17.076237 39.007734 0.860894 2.023908 0.048279 -0.001153 692612.000000 0 0 1
21.743039 25.638378 -17.643137 37.965332 0.867426 2.054111 0.044372 -0.001229 71385.600000 0 0 1
21.209339 26.124978 -18.850137 38.570431 0.888877 2.081418 0.046237 -0.005854 -472251.000000 0 0 1
20.432839 25.123578 -19.417537 37.758917 0.888002 2.110930 0.046826 0.004592 -412217.000000 0 0 1
19.609939 25.532578 -20.643537 38.244187 0.915852 2.140975 0.044601 0.003073 159190.000000 0 0 1
18.660239 26.504778 -20.273437 38.232447 0.957369 2.129713 0.033168 0.003398 -644858.000000 0 0 1
17.648939 26.652178 -21.222137 38.369294 0.985896 2.156879 0.038575 -0.004570 -335273.000000 0 0 1
16.552239 27.654478 -20.846637 38.383968 1.031453 2.144930 0.041165 -0.002406 -410395.000000 0 0 1
15.786939 27.276778 -19.755037 37.195585 1.046135 2.130709 0.048233 0.001709 -648427.000000 0 0 1
14.818439 28.255078 -19.532637 37.409350 1.087779 2.120146 0.043264 -0.009691 -292241.000000 0 0 1
14.361339 28.409678 -18.060137 36.599541 1.102751 2.086851 0.049322 -0.008656 645614.000000 0 0 1
13.410639 27.352978 -17.768737 35.266962 1.114954 2.098829 0.052754 -0.011751 146826.000000 0 0 1
12.922739 27.393578 -16.474437 34.479158 1.130008 2.068955 0.075894 -0.012113 -275152.000000 0 0 1
11.991339 26.210678 -16.245437 33.086342 1.141724 2.084035 0.092781 -0.017326 -344326.000000 0 0 1
12.699139 25.026678 -16.249037 32.428906 1.101227 2.095627 0.067368 -0.011940 -384028.000000 0 0 1
11.853439 23.907278 -16.206337 31.220303 1.110507 2.116589 0.106951 -0.011712 209793.000000 0 0 1
12.686239 22.609178 -16.271437 30.608418 1.059463 2.131285 0.081272 -0.017278 128131.000000 0 0 1
13.393239 22.342278 -17.458237 31.358352 1.030776 2.161244 0.075487 -0.012576 -485422.000000 0 0 1
14.197839 21.193878 -17.313737 30.830578 0.980557 2.167087 0.078131 -0.007941 -236546.000000 0 0 1
13.523339 19.851078 -17.740637 29.860947 0.972773 2.206953 0.087550 -0.014729 238694.000000 0 0 1
12.697239 19.347278 -16.685337 28.529590 0.990019 2.195483 0.084038 -0.025462 68875.900000 0 0 1
12.148139 18.032978 -16.944637 27.566035 0.977966 2.232792 0.078784 -0.032086 -12144.300000 0 0 1
13.117839 16.839578 -16.957137 27.261577 0.908999 2.242111 0.077704 -0.034105 -114544.000000 0 0 1
13.768939 16.690078 -15.688737 26.725995 0.881010 2.198171 0.086114 -0.041004 195070.000000 0 0 1
14.814839 15.725778 -15.733437 26.726776 0.815216 2.200217 0.086296 -0.040818 -900134.000000 0 0 1
15.364039 15.525078 -14.336837 26.127124 0.790612 2.151645 0.114811 -0.039144 -989562.000000 0 0 1
16.481139 16.237378 -13.873537 26.976942 0.777948 2.110957 0.099208 -0.028432 1503830.000000 0 0 1
17.782839 16.016578 -14.505837 27.985343 0.733189 2.115701 0.077985 -0.019336 451933.000000 0 0 1
18.290639 14.568778 -14.644837 27.591085 0.672613 2.130319 0.067893 -0.024003 -1138360.000000 0 0 1
18.921239 13.949978 -13.501937 27.109361 0.635301 2.092150 0.082023 -0.037156 828580.000000 0 0 1
20.104639 14.604778 -13.046337 28.066046 0.628250 2.054255 0.085109 -0.027244 -442432.000000 0 0 1
21.111539 13.676178 -12.357537 28.025767 0.574831 2.027436 0.100966 -0.035282 -520953.000000 0 0 1
20.581839 13.085578 -11.174637 26.827541 0.566316 2.000428 0.164765 -0.035672 328672.000000 0 0 1
21.395039 12.060278 -10.635637 26.764057 0.513297 1.979462 0.178396 -0.017906 -233128.000000 0 0 1
21.266839 10.650178 -11.243837 26.308337 0.464278 2.012397 0.129819 -0.023264 -236737.000000 0 0 1
21.770439 10.618778 -12.568137 27.288615 0.453809 2.049426 0.101545 -0.012239 424081.000000 0 0 1
21.347539 9.453478 -13.303537 26.871355 0.416881 2.088726 0.099612 -0.016961 -147710.000000 0 0 1
22.089239 8.140178 -12.945537 26.866036 0.353072 2.073567 0.096526 -0.001757 -206498.000000 0 0 1
21.686539 7.748078 -11.588037 25.780250 0.343142 2.036994 0.103657 -0.019824 503330.000000 0 0 1
22.217739 6.563378 -11.045037 25.665126 0.287242 2.015679 0.104796 -0.004850 -856784.000000 0 0 1
22.079339 5.234578 -11.927937 25.635399 0.232783 2.054760 0.102542 -0.011974 -354298.000000 0 0 1
20.846639 4.556678 -11.994837 24.479007 0.215196 2.082892 0.067838 -0.019496 208702.000000 0 1 0
19.806739 5.241078 -12.651737 24.079914 0.258682 2.123989 0.019281 -0.026615 -453124.000000 0 1 0
18.701839 4.272978 -13.132537 23.248239 0.224623 2.171088 0.008068 -0.030458 -167130.000000 0 1 0
19.198039 3.538178 -14.198137 24.138568 0.182254 2.199619 0.015189 -0.027507 118117.000000 0 1 0
18.967939 2.122278 -14.136937 23.751626 0.111424 2.208309 0.041317 -0.021148 -646508.000000 0 1 0
20.053439 1.141678 -14.621037 24.843883 0.056870 2.200019 0.067261 -0.019172 -769597.000000 0 1 0
21.088639 0.886178 -13.716637 25.172646 0.041997 2.147069 0.071690 -0.019000 399145.000000 0 0 1
22.356539 0.664178 -14.325337 26.560708 0.029700 2.140453 0.057594 -0.021734 224788.000000 0 0 1
22.672239 -0.753822 -14.877537 27.128209 -0.033236 2.151265 0.056590 -0.016632 -1333550.000000 0 0 1
21.781239 -1.169722 -15.847437 26.961674 -0.053652 2.199104 0.051887 -0.011073 -185360.000000 0 0 1
22.277739 -2.353122 -16.424737 27.777811 -0.105236 2.203454 0.045860 -0.015441 -318890.000000 0 0 1
21.264939 -3.101722 -17.310237 27.594612 -0.144839 2.248884 0.045403 -0.010254 -86352.800000 0 0 1
20.339339 -3.869022 -16.568137 26.517186 -0.187978 2.245681 0.060708 -0.016387 497766.000000 0 0 1
19.438339 -4.625322 -17.367237 26.473827 -0.233604 2.286323 0.055808 -0.015720 507957.000000 0 0 1
18.583139 -5.687522 -16.599637 25.558343 -0.297005 2.277697 0.071542 -0.021498 370939.000000 0 0 1
19.475439 -6.698422 -16.086437 26.133025 -0.331268 2.233892 0.073869 -0.014549 713172.000000 0 0 1
18.844739 -7.771122 -15.500937 25.608466 -0.391130 2.220945 0.087696 -0.015900 -860140.000000 0 0 1
19.823439 -8.823322 -15.011637 26.385014 -0.418768 2.176019 0.102930 -0.019984 -481963.000000 0 0 1
20.261439 -9.490422 -16.137937 27.586718 -0.438048 2.195663 0.100053 -0.021335 515307.000000 0 0 1
21.225339 -10.470322 -15.708837 28.406165 -0.458268 2.156767 0.097878 -0.026950 219092.000000 0 0 1
21.739539 -11.559022 -16.714137 29.758711 -0.488689 2.167181 0.089481 -0.020190 -228844.000000 0 0 1
22.790839 -11.086422 -17.520337 30.810603 -0.452743 2.175656 0.086470 -0.017918 125740.000000 0 0 1
23.358539 -12.039322 -18.423537 32.093509 -0.475903 2.182250 0.087069 -0.020752 -186721.000000 0 0 1
22.696039 -12.186822 -19.833937 32.511749 -0.492775 2.226926 0.103568 -0.022810 119453.000000 0 0 1
21.317439 -12.477422 -19.809237 31.662677 -0.529552 2.246740 0.106690 -0.029062 -39165.600000 0 0 1
21.027439 -13.882922 -19.683237 31.973716 -0.583532 2.233952 0.087406 -0.015446 -1283890.000000 0 0 1
19.558439 -14.186822 -19.525737 31.065299 -0.627541 2.250469 0.087769 -0.017015 -1157780.000000 0 0 1
18.874739 -13.778022 -20.659637 31.191509 -0.630559 2.294745 0.086385 -0.009641 -592192.000000 0 0 1
17.482039 -13.865622 -20.426937 30.251230 -0.670541 2.312091 0.071155 -0.001168 -172124.000000 0 0 1
16.798039 -13.313222 -21.666437 30.477048 -0.670179 2.361588 0.060789 -0.006846 -520851.000000 0 0 1
17.070439 -14.104522 -22.815137 31.794148 -0.690546 2.371131 0.057674 -0.005348 395794.000000 0 0 1
16.569839 -13.426322 -23.967837 32.082439 -0.680982 2.414440 0.065007 -0.010548 2111.480000 0 0 1
16.666839 -14.262922 -25.257337 33.453662 -0.707832 2.426442 0.058143 -0.015924 -410886.000000 0 0 1
15.567139 -15.121722 -25.420967 33.424958 -0.770885 2.434938 0.054872 -0.013998 62958.000000 0 0 1
15.616439 -15.840722 -26.673187 34.731261 -0.792528 2.446490 0.060234 -0.018127 59448.700000 0 0 1
16.530039 -17.120522 -26.731987 35.790412 -0.802944 2.414189 0.063423 -0.018793 145727.000000 0 0 1
17.899939 -16.802222 -26.638747 36.226307 -0.753776 2.396968 0.068797 -0.013774 -294712.000000 0 0 1
18.651539 -17.998422 -26.670317 37.190441 -0.767580 2.370469 0.077022 -0.017692 613583.000000 0 0 1
20.180639 -17.716422 -26.887057 38.000574 -0.720466 2.356812 0.082286 -0.013550 749154.000000 0 0 1
20.716039 -17.194222 -25.669677 37.198492 -0.692765 2.332386 0.088922 -0.015110 126937.000000 0 0 1
22.097339 -16.885122 -25.737197 37.891991 -0.652480 2.317503 0.087129 -0.012360 40150.000000 0 0 1
22.661339 -16.279222 -24.441837 37.093837 -0.622949 2.290177 0.084915 -0.011875 -85879.900000 0 0 1
22.393039 -14.894322 -24.103037 36.114338 -0.586939 2.301520 0.094043 -0.017952 458524.000000 0 0 1
21.003039 -14.578822 -23.971137 35.046898 -0.606775 2.323991 0.110517 -0.015995 535893.000000 0 0 1
20.763539 -13.195422 -23.401537 33.954022 -0.566121 2.331198 0.104226 -0.009068 -40717.800000 0 0 1
21.183639 -12.181322 -24.284737 34.451119 -0.521860 2.353084 0.111400 -0.018740 220110.000000 0 0 1
21.230039 -10.965922 -23.543037 33.544606 -0.476783 2.348777 0.107443 -0.014967 35729.900000 0 0 1
21.172139 -9.747422 -24.467137 33.792195 -0.431460 2.380448 0.111226 -0.020193 -339112.000000 0 0 1
20.737439 -8.713622 -23.689137 32.667166 -0.397788 2.382073 0.110980 -0.015760 -98202.200000 0 0 1
20.489839 -7.625022 -24.548037 32.872185 -0.356258 2.413992 0.088339 -0.016353 194929.000000 0 0 1
19.704839 -6.443322 -23.816337 31.575544 -0.316032 2.425331 0.092324 -0.015551 266197.000000 0 0 1
18.455339 -6.810722 -23.278537 30.477463 -0.353534 2.439969 0.102721 -0.015112 203968.000000 0 0 1
17.943639 -5.870322 -22.261537 29.189225 -0.316178 2.438216 0.086101 -0.010378 189019.000000 0 0 1
18.657639 -6.003722 -20.870437 28.630880 -0.311320 2.387581 0.081774 -0.014774 -288050.000000 0 0 1
18.319339 -6.995122 -19.914137 27.948215 -0.364757 2.363904 0.088063 -0.017387 140154.000000 0 0 1
18.647439 -8.308022 -20.223737 28.735861 -0.419132 2.351501 0.098444 -0.007235 -125226.000000 0 0 1
18.106539 -9.334622 -19.145737 27.956057 -0.476001 2.325196 0.087271 -0.013240 -713234.000000 0 0 1
16.729739 -9.415222 -19.139237 27.107950 -0.512605 2.354684 0.074240 -0.014230 -1151270.000000 0 0 1
16.200139 -10.629522 -18.643737 26.889034 -0.580678 2.336936 0.079026 -0.013446 589420.000000 0 0 1
14.663039 -10.515922 -18.364637 25.745858 -0.622158 2.364998 0.071809 -0.012567 578440.000000 0 0 1
14.156939 -9.770922 -17.250737 24.361399 -0.604109 2.357625 0.074841 -0.016152 283092.000000 0 1 0
14.211639 -8.330722 -17.461137 24.005476 -0.530203 2.385295 0.076466 -0.033286 10961.500000 0 1 0
12.956439 -7.549322 -16.960437 22.638860 -0.527579 2.417610 0.079815 -0.022305 223349.000000 0 1 0
11.834639 -7.649722 -17.785837 22.691692 -0.573829 2.471564 0.066876 -0.026903 -381278.000000 0 1 0
10.812639 -6.775422 -17.471637 21.635101 -0.559764 2.510799 0.047928 -0.021626 13933.400000 0 1 0
9.379939 -6.829122 -18.052837 21.459848 -0.629308 2.570365 0.037740 -0.016154 456746.000000 0 1 0
9.170239 -6.202322 -19.322737 22.269491 -0.594679 2.621308 0.037337 -0.021876 62609.800000 0 1 0
7.768839 -6.110922 -19.466137 21.831828 -0.666513 2.671752 0.036142 -0.025714 -23317.800000 0 1 0
7.308439 -5.980122 -20.940937 22.971677 -0.685770 2.717951 0.039641 -0.029697 44255.200000 0 1 0
7.494639 -7.119222 -21.780037 24.108565 -0.759715 2.698465 0.042049 -0.021099 336615.000000 0 1 0
6.713439 -6.936822 -22.971037 24.917028 -0.801761 2.743756 0.049637 -0.023557 104896.000000 0 1 0
6.970939 -8.013622 -24.032537 26.274987 -0.854870 2.725449 0.043309 -0.015794 -236134.000000 0 0 1
6.277339 -9.203422 -23.738237 26.222354 -0.972208 2.702805 0.056130 -0.015352 32082.800000 0 0 1
6.245939 -10.117522 -24.817337 27.518652 -1.017725 2.694799 0.057841 -0.005077 204198.000000 0 0 1
5.430239 -11.440422 -24.550237 27.623991 -1.127631 2.665361 0.066977 -0.011701 377806.000000 0 0 1
6.150939 -12.301222 -23.742137 27.437988 -1.107127 2.616548 0.057058 -0.010607 86474.600000 0 0 1
5.406339 -13.518422 -23.612637 27.740455 -1.190356 2.589061 0.079504 -0.018954 453136.000000 0 0 1
6.022239 -14.490422 -22.510437 27.440106 -1.176913 2.532816 0.080438 -0.019363 504038.000000 0 0 1
7.156039 -15.306322 -22.777737 28.360495 -1.133467 2.503360 0.062006 -0.014757 710497.000000 0 0 1
8.480439 -14.780522 -22.866537 28.517717 -1.049896 2.501158 0.073754 -0.013238 848252.000000 0 0 1
9.046939 -14.013322 -21.669037 27.345337 -0.997524 2.485565 0.062473 -0.008289 -864671.000000 0 0 1
9.518439 -14.873122 -20.644837 27.166518 -1.001500 2.434012 0.057734 -0.001526 322435.000000 0 0 1
8.556839 -15.223922 -19.630237 26.274198 -1.058737 2.414530 0.051480 -0.000376 173451.000000 0 0 1
9.133639 -15.806122 -18.339537 25.876542 -1.046819 2.358496 0.057783 0.004322 -124212.000000 0 0 1
9.722039 -17.048122 -18.589937 27.032244 -1.052524 2.329106 0.069418 0.006710 -566872.000000 0 0 1
10.341639 -17.557522 -17.426337 26.812185 -1.038493 2.278303 0.075716 0.001615 -1017730.000000 0 0 1
9.451339 -18.247722 -16.370837 26.273779 -1.092895 2.243479 0.079115 -0.014526 -517057.000000 0 0 1
9.007439 -19.528422 -16.834237 27.310890 -1.138628 2.234950 0.079061 -0.018998 697966.000000 0 0 1
8.084939 -19.566422 -17.937437 27.748202 -1.178959 2.273700 0.081267 -0.013292 386128.000000 0 0 1
6.568739 -19.225722 -17.740637 26.972336 -1.241567 2.288604 0.074118 -0.003419 452977.000000 0 0 1
6.297739 -17.871822 -17.574637 25.844369 -1.232000 2.318584 0.065433 -0.001930 -207461.000000 0 0 1
4.936939 -17.570322 -17.377237 25.200356 -1.296878 2.331682 0.052867 -0.009829 -21116.200000 0 0 1
4.525339 -16.141422 -17.233937 24.042312 -1.297458 2.370023 0.038388 -0.004135 -32170.100000 0 1 0
4.948039 -15.592522 -16.014437 22.892619 -1.263514 2.345558 0.025935 -0.010727 73524.000000 0 1 0
4.713539 -14.240122 -16.034337 21.956741 -1.251144 2.389513 0.012702 -0.000793 -205351.000000 0 1 0
10.632139 29.667678 -17.954937 36.271108 1.226681 2.088655 0.094978 -0.041316 -844016.000000 0 0 1
9.712239 29.134578 -18.824437 36.020975 1.249024 2.120690 0.117653 -0.045378 -1218520.000000 0 0 1
8.734839 28.484278 -18.118237 34.870073 1.273246 2.117171 0.111879 -0.038964 -206161.000000 0 0 1
7.672439 27.727778 -18.994337 34.474350 1.300845 2.154323 0.113238 -0.041060 1023420.000000 0 0 1
6.670539 28.620778 -19.554037 35.298801 1.341818 2.157907 0.127338 -0.053156 432630.000000 0 0 1
5.786539 27.840778 -20.341437 34.962365 1.365870 2.191748 0.111409 -0.058297 219599.000000 0 0 1
4.852839 28.706478 -21.235137 36.035301 1.403329 2.200972 0.101659 -0.052033 305614.000000 0 0 1
4.075939 29.653678 -20.535937 36.299843 1.434201 2.172115 0.080816 -0.037158 -8937.460000 0 0 1
3.154239 30.375178 -21.308037 37.237523 1.467325 2.180006 0.072090 -0.039766 -464258.000000 0 0 1
1.719639 30.498478 -20.721637 36.912065 1.514472 2.166847 0.084640 -0.034726 317263.000000 0 0 1
1.000139 29.289778 -20.868337 35.977477 1.536663 2.189573 0.088319 -0.050698 120440.000000 0 0 1
0.369639 29.145078 -22.173037 36.622613 1.558114 2.221123 0.116715 -0.071347 -450752.000000 0 0 1
-0.291761 27.768978 -22.383837 35.668437 -1.560290 2.249203 0.119492 -0.063546 207445.000000 0 0 1
-1.425961 27.640978 -21.528837 35.064909 -1.519253 2.231878 0.123037 -0.065965 -121756.000000 0 0 1
-2.009761 26.436578 -21.903737 34.390485 -1.494920 2.261283 0.136511 -0.075494 412912.000000 0 0 1
-3.185661 26.028078 -20.899937 33.532322 -1.449009 2.243723 0.095158 -0.067192 851521.000000 0 0 1
-4.339061 26.833178 -21.112937 34.418062 -1.410479 2.231188 0.090769 -0.065396 449670.000000 0 0 1
-5.389061 26.371178 -20.265037 33.692028 -1.369218 2.216147 0.081105 -0.063582 655737.000000 0 0 1
-6.813661 26.997778 -20.413037 34.525325 -1.323580 2.203402 0.084165 -0.075388 97612.800000 0 0 1
-7.623661 26.499778 -19.423037 33.728516 -1.290673 2.184457 0.080778 -0.057272 -966726.000000 0 0 1
-8.331361 27.434878 -18.663637 34.211335 -1.275969 2.147829 0.082251 -0.068979 133130.000000 0 0 1
-9.591561 26.701278 -18.098137 33.652620 -1.225934 2.138613 0.083198 -0.048128 220287.000000 0 0 1
-9.366461 25.688978 -17.186437 32.295941 -1.221166 2.131940 0.087605 -0.056385 213556.000000 0 0 1
-10.627861 25.197078 -16.683937 32.034324 -1.171648 2.118601 0.054869 -0.038686 791930.000000 0 0 1
-10.506361 24.414578 -15.381437 30.709019 -1.164419 2.095408 0.069953 -0.024093 -84858.100000 0 0 1
-10.054461 23.086078 -15.425337 29.529649 -1.160049 2.120422 0.075914 -0.030012 -211349.000000 0 0 1
-10.206661 22.551178 -14.129637 28.502249 -1.145782 2.089480 0.087567 -0.021023 -327605.000000 0 0 1
-9.754661 21.050978 -14.023837 27.110239 -1.136869 2.114477 0.111775 -0.017242 -176927.000000 0 0 1
-10.454661 19.954578 -14.572137 26.829690 -1.088194 2.144962 0.082108 -0.014140 -447736.000000 0 0 1
-10.668061 19.991278 -15.976837 27.725765 -1.080604 2.184923 0.094632 -0.013250 371591.000000 0 0 1
-9.374661 19.917578 -16.854337 27.724770 -1.130885 2.224230 0.098649 -0.022589 474944.000000 0 0 1
-8.797661 18.603378 -16.910937 26.635771 -1.129057 2.258670 0.089583 -0.022854 -178648.000000 0 0 1
-7.914761 18.575078 -17.999737 27.049353 -1.167998 2.298880 0.092185 -0.026936 -166164.000000 0 0 1
-7.130861 17.258678 -18.182737 26.063827 -1.178984 2.342871 0.077846 -0.021835 18900.700000 0 0 1
-7.896161 16.213178 -18.783237 26.038942 -1.117586 2.376548 0.081419 -0.031989 -63553.100000 0 0 1
-7.388261 15.598078 -19.989937 26.409923 -1.128438 2.429368 0.077314 -0.031782 933082.000000 0 0 1
-6.075061 14.763078 -19.677037 25.338520 -1.180412 2.459993 0.063230 -0.019300 373257.000000 0 0 1
-6.359961 13.454978 -19.041637 24.167529 -1.129239 2.478190 0.048994 -0.019914 416839.000000 0 1 0
-5.223261 12.813178 -18.469337 23.077616 -1.183715 2.498615 0.048779 -0.014176 779294.000000 0 1 0
-4.503361 13.490578 -17.210937 22.326941 -1.248612 2.450986 0.035666 -0.000715 26942.600000 0 1 0
-3.923161 14.749078 -17.486037 23.209653 -1.310822 2.424006 0.049864 -0.014636 -690980.000000 0 1 0
-3.364361 15.212878 -16.311137 22.556679 -1.353147 2.379102 0.042185 -0.010131 -41318.600000 0 1 0
-2.503661 16.515578 -16.394437 23.405345 -1.420348 2.346834 0.064311 -0.010567 63372.300000 0 1 0
-3.227861 17.657778 -16.729837 24.537800 -1.389992 2.321015 0.070789 -0.024235 -220279.000000 0 1 0
-2.404661 18.791878 -16.973137 25.436282 -1.443525 2.301348 0.083420 -0.021728 -242504.000000 0 0 1
-3.251661 20.019478 -17.254437 26.628338 -1.409778 2.275716 0.086136 -0.026835 -110682.000000 0 0 1
-3.821661 19.842278 -18.514637 27.406438 -1.380524 2.312517 0.098128 -0.035200 -348508.000000 0 0 1
-4.427361 20.972478 -19.137237 28.734651 -1.362748 2.299628 0.115311 -0.037726 278647.000000 0 0 1
-3.471861 22.187978 -19.488337 29.734752 -1.415580 2.285516 0.101663 -0.047902 -711492.000000 0 0 1
-2.497961 21.816178 -20.366837 29.949849 -1.456792 2.318602 0.119615 -0.047503 -466004.000000 0 0 1
-1.341761 22.664678 -20.324837 30.472724 -1.511665 2.300951 0.099563 -0.049949 907172.000000 0 0 1
-0.166861 22.063478 -19.519837 29.459276 -1.563234 2.295087 0.110245 -0.043653 -169234.000000 0 0 1
-0.564461 21.942578 -18.215537 28.523694 -1.545078 2.263488 0.101546 -0.033188 -167148.000000 0 0 1
0.602039 21.786378 -17.439137 27.912940 1.543170 2.245632 0.099850 -0.026539 263921.000000 0 0 1
0.291239 21.871078 -15.945537 27.068229 1.557481 2.200725 0.101261 -0.023263 -58834.200000 0 0 1
-0.489261 20.808778 -15.398937 25.891540 -1.547288 2.207748 0.097931 -0.021139 -41403.500000 0 0 1
-0.516761 20.867478 -13.989737 25.128299 -1.546037 2.161243 0.091723 -0.018781 -25297.000000 0 0 1
-1.373961 19.766878 -13.340037 23.886687 -1.501400 2.163338 0.078614 -0.019480 57068.500000 0 1 0
-0.896761 18.437078 -13.400037 22.809888 -1.522196 2.198720 0.061123 -0.021070 -327313.000000 0 1 0
-1.743361 17.624778 -12.666837 21.774316 -1.472202 2.191654 0.045569 -0.020296 -230275.000000 0 1 0
-1.360961 16.166778 -12.737837 20.626910 -1.486812 2.236401 0.027094 -0.016157 729246.000000 0 1 0
-0.145861 15.810778 -12.011537 19.856460 -1.561571 2.220460 0.031928 -0.013307 1273960.000000 0 1 0
0.168739 14.404378 -12.116637 18.823588 1.559082 2.270112 0.028966 -0.010760 437814.000000 0 1 0
0.761839 13.835978 -13.444737 19.307398 1.515790 2.341098 0.011324 -0.007191 -673762.000000 0 1 0
-0.237161 13.699378 -14.379637 19.862103 -1.553486 2.380342 0.013669 -0.013028 -417166.000000 0 1 0
0.248439 12.849578 -15.401737 20.059583 1.551464 2.446196 0.012577 -0.007099 189784.000000 0 1 0
-0.512861 12.843578 -16.766437 21.126616 -1.530886 2.487527 0.010662 0.001437 -49147.900000 0 1 0
-0.275861 14.032078 -17.533937 22.459168 -1.551140 2.466586 0.020346 -0.002892 79137.800000 0 1 0
-0.811961 13.961078 -18.839137 23.462396 -1.512703 2.503025 0.025708 -0.002498 22012.600000 0 1 0
-1.260961 15.332678 -19.459137 24.806028 -1.488741 2.472608 0.049824 -0.015789 371443.000000 0 1 0
-0.141361 16.167178 -19.649837 25.446291 -1.562053 2.453106 0.045359 -0.018643 247314.000000 0 0 1
-0.681261 17.434678 -19.964637 26.514502 -1.531741 2.423361 0.099830 -0.030852 356585.000000 0 0 1
0.413939 18.515078 -20.154437 27.371167 1.548443 2.398439 0.122218 -0.039319 -37079.600000 0 0 1
0.999139 18.382878 -21.399637 28.228938 1.516498 2.431152 0.118524 -0.051330 -913395.000000 0 0 1
1.955039 19.369878 -21.540137 29.034322 1.470205 2.406674 0.129775 -0.053433 -803442.000000 0 0 1
2.513339 19.278778 -22.907137 30.045383 1.441159 2.437838 0.151751 -0.063566 -113031.000000 0 0 1
3.487739 18.240978 -23.068737 29.615270 1.381873 2.463782 0.107805 -0.054193 152171.000000 0 0 1
3.791939 18.075578 -24.427437 30.623602 1.364013 2.494213 0.111767 -0.063560 193266.000000 0 0 1
4.693439 16.856978 -24.741837 30.304200 1.299247 2.526031 0.070687 -0.045281 -344435.000000 0 0 1
6.017039 17.030778 -24.310737 30.286368 1.231181 2.502598 0.051092 -0.033046 -64020.000000 0 0 1
6.903839 15.988978 -24.762037 30.273237 1.163191 2.528637 0.039166 -0.029080 573955.000000 0 0 1
7.459539 16.095778 -26.234617 31.669763 1.136816 2.547007 0.036426 -0.036371 -1060470.000000 0 0 1
8.454939 17.092278 -26.358347 32.532974 1.111426 2.515296 0.023134 -0.027057 151424.000000 0 0 1
9.009139 17.184578 -27.659457 33.786385 1.087932 2.529865 0.048539 -0.036547 292799.000000 0 0 1
9.632539 15.923878 -28.346767 33.910100 1.026773 2.560637 0.050960 -0.034934 -595573.000000 0 0 1
10.839439 15.456578 -27.784967 33.591719 0.959210 2.544791 0.062147 -0.031835 -194158.000000 0 0 1
11.338939 14.308978 -28.294607 33.673478 0.900685 2.568566 0.061208 -0.024337 -335662.000000 0 0 1
10.842939 13.086678 -27.473177 32.304890 0.878889 2.587606 0.053964 -0.029022 400875.000000 0 0 1
9.442239 12.827278 -27.518707 31.795820 0.936247 2.616908 0.048609 -0.034234 385585.000000 0 0 1
8.985539 12.324878 -26.238437 30.349598 0.940834 2.615030 0.040845 -0.030749 351229.000000 0 0 1
7.529539 11.797578 -26.324137 29.813369 1.002742 2.652936 0.056991 -0.038684 -593306.000000 0 0 1
6.551539 12.720478 -26.515357 30.129676 1.095190 2.646745 0.070851 -0.040854 -1890950.000000 0 0 1
5.351039 12.075878 -26.363027 29.486770 1.153680 2.677131 0.082155 -0.042611 18030.100000 0 0 1
4.014139 12.917578 -26.462587 29.719449 1.269506 2.669048 0.108377 -0.047193 475007.000000 0 0 1
3.566639 13.350178 -27.738027 30.989454 1.309733 2.679406 0.113494 -0.052912 334912.000000 0 0 1
4.330039 14.387578 -28.333627 32.070953 1.278462 2.654008 0.133008 -0.053052 -98440.000000 0 0 1
4.288439 14.282778 -29.895097 33.408161 1.279108 2.678878 0.147044 -0.054327 -581071.000000 0 0 1
5.005539 13.232978 -30.373587 33.507042 1.209168 2.705677 0.135522 -0.055355 -530141.000000 0 0 1
4.984839 13.279178 -31.751807 34.775888 1.211686 2.721475 0.129532 -0.053673 -388170.000000 0 0 1
6.119039 12.456778 -32.451177 35.294374 1.114196 2.737459 0.120657 -0.045612 1450110.000000 0 0 1
7.485639 12.907878 -32.307627 35.586948 1.045266 2.708925 0.129639 -0.040662 1142310.000000 0 0 1
8.080839 12.920178 -31.010847 34.552910 1.011878 2.684838 0.109040 -0.037431 -618352.000000 0 0 1
8.027639 11.706378 -30.037747 33.222710 0.969699 2.700142 0.109210 -0.039470 -445905.000000 0 0 1
9.041439 10.758878 -30.285497 33.387309 0.871920 2.707129 0.083232 -0.026851 -29173.400000 0 0 1
8.929639 9.654178 -29.428837 32.233492 0.824366 2.721349 0.080542 -0.030819 -366027.000000 0 0 1
9.878039 8.480978 -29.612987 32.348595 0.709448 2.727380 0.063620 -0.029209 -216211.000000 0 0 1
11.243539 8.745578 -29.399667 32.668681 0.661077 2.690415 0.050527 -0.028803 -283153.000000 0 0 1
11.949939 7.517478 -29.451207 32.660176 0.561529 2.694590 0.031491 -0.015567 1069610.000000 0 0 1
13.380839 7.670778 -28.749357 32.625346 0.520530 2.649185 0.030771 -0.012972 1753940.000000 0 0 1
14.091939 6.438378 -28.494777 32.434360 0.428564 2.643586 0.063641 -0.019092 415270.000000 0 0 1
14.896039 5.941978 -29.554757 33.625626 0.379555 2.644422 0.060648 -0.011930 -124659.000000 0 0 1
15.723939 4.683078 -29.156807 33.455834 0.289466 2.629052 0.065756 -0.017643 556173.000000 0 0 1
16.603339 4.925478 -28.033697 32.951773 0.288386 2.588206 0.053884 -0.022520 606196.000000 0 0 1
17.368439 3.769978 -27.740527 32.945595 0.213743 2.571795 0.055342 -0.014417 143732.000000 0 0 1
18.085539 3.891378 -26.340297 32.187587 0.211934 2.529308 0.058010 -0.022311 -48097.300000 0 0 1
19.122039 4.841478 -26.327327 32.897118 0.247977 2.498580 0.076291 -0.034037 5284.430000 0 0 1
19.676139 4.987978 -25.028797 32.225316 0.248274 2.460176 0.083313 -0.033436 131907.000000 0 0 1
20.896039 5.942378 -25.049167 33.157458 0.277064 2.427154 0.073738 -0.029115 -166550.000000 0 0 1
20.476639 7.280078 -25.346017 33.387315 0.341594 2.432804 0.086673 -0.027199 454288.000000 0 0 1
21.451239 8.221778 -25.814077 34.556039 0.366008 2.414366 0.094822 -0.033601 -225396.000000 0 0 1
21.647739 8.136478 -27.362097 35.826124 0.359523 2.439894 0.085728 -0.024995 658497.000000 0 0 1
20.480639 8.475178 -28.116907 35.802872 0.392358 2.474018 0.081085 -0.011936 483280.000000 0 0 1
19.464139 7.537978 -28.316147 35.177805 0.369489 2.506377 0.073838 -0.016141 -343000.000000 0 0 1
18.128739 8.039278 -28.866537 35.022251 0.417398 2.539645 0.070545 -0.008485 -300118.000000 0 0 1
18.104339 8.247278 -30.280267 36.230915 0.427453 2.560308 0.058730 -0.001541 465591.000000 0 0 1
16.968539 9.031278 -30.634167 36.165556 0.489103 2.581214 0.032754 0.000939 277030.000000 0 0 1
16.435739 8.859778 -32.135777 37.166346 0.494402 2.615244 0.023659 0.011407 -77174.200000 0 0 1
15.786139 7.638278 -32.267877 36.725486 0.450652 2.643768 0.040313 0.003984 -165698.000000 0 0 1
14.526839 7.827678 -32.876357 36.785274 0.494237 2.676404 0.032661 0.004551 -168570.000000 0 0 1
13.822639 6.547278 -33.287807 36.633458 0.442357 2.710889 0.037732 -0.000995 -310898.000000 0 0 1
13.314639 5.778978 -32.250327 35.366082 0.409496 2.718686 0.048706 -0.004790 24252.700000 0 0 1
12.741139 4.617078 -32.865857 35.550226 0.347657 2.750494 0.063575 -0.010729 56312.900000 0 0 1
12.268139 3.463578 -31.943547 34.393223 0.275162 2.761889 0.067539 -0.008826 193198.000000 0 0 1
13.270739 2.612978 -31.392297 34.182107 0.194411 2.734773 0.079861 -0.013296 369408.000000 0 0 1
12.716139 1.668978 -30.493707 33.080989 0.130503 2.743467 0.078927 -0.007580 -231478.000000 0 0 1
12.201339 0.315578 -31.095317 33.404954 0.025858 2.767554 0.079578 -0.000215 -291901.000000 0 0 1
13.033639 -0.694322 -31.560087 34.152553 -0.053221 2.749448 0.077767 0.001776 -164460.000000 0 0 1
13.968939 -1.345922 -30.707597 33.762394 -0.096055 2.712926 0.072359 -0.003164 191226.000000 0 0 1
14.363939 -2.685122 -31.318617 34.559924 -0.184802 2.705034 0.066679 -0.006825 -37214.500000 0 0 1
13.413539 -3.733822 -31.281487 34.240266 -0.271489 2.722818 0.069571 -0.006826 48707.000000 0 0 1
13.823639 -4.792622 -32.056267 35.237288 -0.333730 2.713419 0.089485 -0.009996 87813.700000 0 0 1
13.074839 -6.115522 -31.694227 34.826355 -0.437502 2.714236 0.077884 -0.015146 -25543.000000 0 0 1
13.500039 -6.710722 -30.498517 34.021234 -0.461316 2.682501 0.076043 -0.002695 249006.000000 0 0 1
13.008339 -8.054422 -30.412347 34.044110 -0.554399 2.675479 0.072838 -0.013932 -7359.070000 0 0 1
13.338739 -8.701122 -29.100217 33.173093 -0.578004 2.640844 0.053587 -0.008411 595776.000000 0 0 1
14.735239 -8.941022 -28.859667 33.614721 -0.545389 2.603217 0.078095 -0.011650 851481.000000 0 0 1
15.066039 -9.746422 -27.691397 32.996844 -0.574202 2.566632 0.086029 -0.019587 36683.700000 0 0 1
14.835039 -11.279722 -27.738937 33.417946 -0.650088 2.550014 0.066618 -0.011260 -157505.000000 0 0 1
13.483339 -11.612822 -27.953047 33.136549 -0.711002 2.574696 0.044350 -0.012534 -112997.000000 0 0 1
13.198439 -12.867722 -28.482567 33.926887 -0.772711 2.567210 0.041391 -0.016346 135140.000000 0 0 1
-10.802961 -3.377122 -17.794237 21.088949 0.302986 2.575067 0.053808 0.004430 16150.500000 0 1 0
-11.450361 -2.786822 -18.889437 22.264051 0.238741 2.583804 0.066887 -0.003877 65835.300000 0 1 0
-12.492761 -3.656222 -19.330037 23.304235 0.284716 2.548945 0.068449 -0.003956 -161032.000000 0 1 0
-13.211861 -2.874322 -20.440837 24.508015 0.214218 2.557199 0.064665 -0.026461 -519844.000000 0 1 0
-14.097461 -1.922022 -19.946337 24.500794 0.135503 2.521991 0.059205 -0.020523 -52416.800000 0 1 0
-14.946861 -1.426022 -20.978937 25.798410 0.095118 2.520404 0.068585 -0.020051 286278.000000 0 0 1
-15.632761 -0.089422 -20.661337 25.909111 0.005720 2.493861 0.073753 -0.012882 390286.000000 0 0 1
-14.772461 1.063078 -20.810537 25.542791 -0.071840 2.523064 0.075324 -0.018685 237039.000000 0 0 1
-15.427261 2.293678 -20.576337 25.819508 -0.147596 2.492992 0.076800 -0.000832 -1632.410000 0 0 1
-14.887161 3.510178 -21.392937 26.298415 -0.231556 2.520888 0.096892 -0.028630 551923.000000 0 0 1
-13.611561 3.983578 -20.957437 25.305289 -0.284711 2.546656 0.096157 -0.029239 567421.000000 0 0 1
-13.386661 5.236578 -21.531037 25.888414 -0.372879 2.552934 0.114497 -0.044124 222734.000000 0 0 1
-12.030261 5.848878 -21.068237 24.956105 -0.452531 2.575889 0.085840 -0.034533 62566.300000 0 1 0
-12.088961 6.225078 -19.741337 23.971127 -0.475527 2.538431 0.091421 -0.040706 1280450.000000 0 1 0
-10.806561 6.402778 -19.077637 22.841487 -0.534879 2.559327 0.070359 -0.032318 973467.000000 0 1 0
-11.079461 7.087778 -17.718637 22.066743 -0.569116 2.503036 0.064876 -0.028463 -150152.000000 0 1 0
-11.599261 8.417178 -17.772337 22.830850 -0.627744 2.462965 0.070097 -0.033111 483146.000000 0 1 0
-12.781961 8.350678 -16.948437 22.811441 -0.578704 2.408308 0.105217 -0.025481 -122482.000000 0 1 0
-13.626761 9.578378 -17.019037 23.813474 -0.612676 2.366964 0.115918 -0.029359 -829603.000000 0 1 0
-13.139561 10.704478 -16.264537 23.489765 -0.683626 2.335620 0.082168 -0.018000 471667.000000 0 1 0
-13.896361 11.892578 -16.442537 24.594700 -0.707855 2.303040 0.087266 -0.023772 -134906.000000 0 1 0
-13.114561 13.072278 -15.869437 24.386783 -0.783783 2.279354 0.083687 -0.014740 -159072.000000 0 1 0
-12.900661 12.893078 -14.449537 23.269027 -0.785104 2.240785 0.095268 -0.017215 297365.000000 0 1 0
-12.422161 14.146578 -13.917337 23.412134 -0.850211 2.207377 0.083902 -0.014135 -711240.000000 0 1 0
-12.704261 14.295978 -12.408737 22.798026 -0.844282 2.146339 0.069251 -0.017260 1679760.000000 0 1 0
-14.068061 14.572378 -11.970037 23.527565 -0.803005 2.104548 0.054768 -0.020335 1931590.000000 0 1 0
-15.111261 13.641778 -12.349637 23.810961 -0.734336 2.116072 0.061374 -0.016915 55444.900000 0 1 0
-16.390661 14.015478 -11.557037 24.467376 -0.707441 2.062745 0.035784 -0.011114 64237.100000 0 1 0
-17.492261 13.178078 -11.844837 24.898616 -0.645652 2.066582 0.044758 -0.013433 -55515.500000 0 1 0
-18.632561 13.568878 -11.122337 25.592834 -0.629425 2.020377 0.098693 -0.013110 451303.000000 0 0 1
-20.024961 13.272978 -11.767437 26.751516 -0.585336 2.026261 0.078013 -0.025050 253283.000000 0 0 1
-20.329461 11.918978 -11.809537 26.359328 -0.530278 2.035347 0.091081 -0.027317 -57459.900000 0 0 1
-21.421661 11.624878 -12.643837 27.457093 -0.497198 2.049348 0.112099 -0.019733 -478803.000000 0 0 1
-22.268161 10.522378 -12.076637 27.430578 -0.441431 2.026687 0.095074 -0.024232 -429248.000000 0 0 1
-21.568661 9.263678 -12.122837 26.419426 -0.405674 2.047509 0.097332 -0.023142 467562.000000 0 0 1
-22.250561 8.147178 -11.558937 26.364237 -0.350995 2.024650 0.095014 -0.019985 -196514.000000 0 0 1
-21.353361 6.900278 -11.400137 25.170280 -0.312555 2.040835 0.125030 -0.026640 -133237.000000 0 0 1
-21.153061 6.073778 -12.508037 25.313904 -0.279612 2.087615 0.128601 -0.018608 394364.000000 0 0 1
-20.051061 5.198878 -12.425937 24.155275 -0.253695 2.111127 0.140158 -0.025623 -94642.700000 0 1 0
-20.109961 4.056778 -13.479237 24.547053 -0.199058 2.152105 0.154663 -0.036800 -299023.000000 0 1 0
-21.037761 3.041478 -13.230237 25.037515 -0.143578 2.127531 0.146606 -0.034943 43947.500000 0 0 1
-20.815461 1.954978 -14.044237 25.186225 -0.093645 2.162307 0.138897 -0.037577 -308029.000000 0 0 1
-21.669261 0.712178 -13.792137 25.696052 -0.032854 2.137367 0.150975 -0.033786 -743285.000000 0 0 1
-22.971261 0.809178 -14.286437 27.063553 -0.035211 2.126904 0.116826 -0.029340 -437752.000000 0 0 1
-23.461361 -0.507922 -14.154437 27.405137 0.021646 2.113541 0.098515 -0.040842 -893334.000000 0 0 1
-24.796461 -0.592522 -14.886237 28.927765 0.023891 2.111338 0.089868 -0.026884 -1165910.000000 0 0 1
-25.834611 -0.077822 -14.131437 29.447083 0.003012 2.071329 0.112071 -0.034837 -795187.000000 0 0 1
-27.054271 -0.233722 -14.808337 30.842747 0.008639 2.071592 0.084008 -0.015607 -236365.000000 0 0 1
-28.272891 0.300978 -14.045637 31.570982 -0.010645 2.031849 0.075707 -0.013791 -383778.000000 0 0 1
-28.675641 -0.541622 -12.964337 31.474748 0.018886 1.995331 0.093813 -0.018175 -33905.700000 0 0 1
-29.746521 -0.063022 -12.190037 32.147418 0.002119 1.959719 0.124216 -0.025953 41841.700000 0 0 1
-29.789891 -0.798822 -10.827737 31.706713 0.026809 1.919305 0.126688 -0.035917 -271434.000000 0 0 1
-30.126951 -2.203622 -10.778237 32.072722 0.073015 1.913523 0.133529 -0.036853 378944.000000 0 0 1
-29.194891 -3.023622 -11.441437 31.502229 0.103199 1.942491 0.132032 -0.035048 -212192.000000 0 0 1
-29.374141 -4.484622 -10.953237 31.668998 0.151503 1.923958 0.133264 -0.035669 207032.000000 0 0 1
-30.555451 -5.131322 -11.418537 33.020434 0.166382 1.923890 0.121204 -0.036672 432496.000000 0 0 1
-30.740961 -6.409622 -10.850237 33.223750 0.205559 1.903480 0.136298 -0.041245 -138649.000000 0 0 1
-29.896901 -7.566622 -11.421137 32.886484 0.247885 1.925476 0.137611 -0.042340 -143153.000000 0 0 1
-28.521881 -7.522922 -11.141937 31.531489 0.257886 1.931956 0.089659 -0.034737 -126889.000000 0 0 1
-27.884011 -8.716322 -11.647037 31.450689 0.302969 1.950157 0.095500 -0.031682 560639.000000 0 0 1
-26.389191 -8.826022 -11.211137 29.999628 0.322761 1.953801 0.100650 -0.046777 -283531.000000 0 0 1
-25.566531 -7.874522 -11.851837 29.259557 0.298781 1.987839 0.072667 -0.036116 1073130.000000 0 0 1
-24.189461 -7.776822 -11.427037 27.860118 0.311060 1.993423 0.083801 -0.038731 884911.000000 0 0 1
-23.904361 -7.410422 -9.966137 26.938016 0.300608 1.949768 0.087483 -0.039814 -1013060.000000 0 0 1
-24.255761 -6.159622 -9.449737 26.750335 0.248688 1.931846 0.090838 -0.027644 660773.000000 0 0 1
-25.633511 -6.018022 -9.126937 27.867444 0.230596 1.904466 0.098751 -0.037894 -42868.000000 0 0 1
-25.983211 -4.653822 -8.545637 27.745508 0.177230 1.883887 0.104050 -0.039864 -536511.000000 0 0 1
-25.503581 -4.394722 -7.245537 26.874598 0.170642 1.843780 0.092275 -0.034417 406730.000000 0 0 1
-25.806301 -3.094022 -6.819337 26.870830 0.119324 1.827385 0.134688 -0.037219 -143051.000000 0 0 1
-25.619801 -2.863122 -5.275937 26.313631 0.111292 1.772667 0.127961 -0.035846 -611691.000000 0 0 1
-24.300161 -2.986322 -4.866737 24.961993 0.122280 1.767019 0.085761 -0.026427 -469732.000000 0 1 0
-24.178261 -2.695822 -3.500437 24.578626 0.111039 1.713700 0.071490 -0.021743 260095.000000 0 1 0
-22.849361 -3.280622 -2.942337 23.270435 0.142602 1.697577 0.064662 -0.013547 173074.000000 0 1 0
-22.732461 -4.689822 -3.069637 23.413285 0.203451 1.702281 0.079870 -0.015388 397817.000000 0 1 0
-21.555461 -5.172722 -2.472437 22.304885 0.235519 1.681872 0.063213 -0.015262 -263510.000000 0 1 0
-21.675361 -6.733322 -2.368337 22.820340 0.301193 1.674765 0.084394 -0.016856 71126.700000 0 1 0
-22.616061 -7.172722 -1.396837 23.767316 0.307117 1.629602 0.105652 -0.010025 613399.000000 0 1 0
-22.902961 -8.549422 -1.719937 24.507069 0.357270 1.641035 0.097800 -0.013503 -91221.800000 0 1 0
-23.207761 -9.425222 -0.487037 25.053387 0.385774 1.590238 0.107673 -0.023918 364750.000000 0 0 1
-22.070261 -9.701222 0.330963 24.110572 0.414139 1.557069 0.085029 -0.022105 580859.000000 0 1 0
-22.439661 -10.650022 1.301163 24.872764 0.443128 1.518460 0.072688 -0.022321 -231809.000000 0 1 0
-21.259961 -11.265722 2.055563 24.148039 0.487283 1.485570 0.075479 -0.017508 -249935.000000 0 1 0
-20.677161 -12.251322 1.233063 24.065750 0.534890 1.519537 0.084041 -0.019082 244279.000000 0 1 0
-19.398661 -12.669722 1.650363 23.228293 0.578568 1.499687 0.066581 -0.016760 -66275.000000 0 1 0
-18.835161 -13.933322 0.929663 23.447069 0.636909 1.531136 0.077686 -0.005967 -354717.000000 0 1 0
-19.614061 -15.122222 0.972663 24.785864 0.656799 1.531544 0.083889 -0.002235 22571.100000 0 1 0
-18.995761 -16.298322 0.547163 25.035448 0.709119 1.548939 0.077296 -0.004977 -186149.000000 0 0 1
-17.774061 -16.801322 1.336363 24.494643 0.757272 1.516212 0.079403 -0.008668 -37146.400000 0 1 0
-16.572161 -16.058622 1.220963 23.108583 0.769662 1.517936 0.080786 -0.011590 392143.000000 0 1 0
-15.414161 -16.687322 1.745863 22.784010 0.825038 1.494094 0.083472 -0.019422 505412.000000 0 1 0
-15.224861 -16.700722 3.289863 22.837113 0.831593 1.426236 0.078708 -0.019381 -325936.000000 0 1 0
-15.006461 -15.358722 3.685763 21.786901 0.796998 1.400805 0.065506 -0.016985 -138196.000000 0 1 0
-14.122261 -15.151322 4.753263 21.250749 0.820537 1.345213 0.037218 -0.018887 -185478.000000 0 1 0
-14.658861 -15.499522 6.186963 22.212517 0.813266 1.288528 0.093169 -0.020029 -579413.000000 0 1 0
-15.570061 -14.560522 6.745663 22.359329 0.751905 1.264328 0.083287 -0.018037 392430.000000 0 1 0
-15.976061 -14.762222 8.101563 23.211916 0.745929 1.214265 0.094712 -0.016916 71936.200000 0 1 0
-16.857161 -15.989622 8.421163 24.713314 0.758993 1.223077 0.089849 -0.011649 -81372.600000 0 1 0
-16.107961 -17.181122 8.192663 24.935459 0.817625 1.236023 0.088446 -0.010801 -128970.000000 0 1 0
-16.789861 -18.308022 8.639363 26.300603 0.828626 1.236097 0.080222 -0.009626 -414466.000000 0 0 1
-16.604161 -18.765822 10.134463 27.028903 0.846438 1.186454 0.100415 -0.016726 1215990.000000 0 0 1
-15.281861 -19.314222 10.383863 26.728245 0.901430 1.171796 0.075609 -0.016780 1014400.000000 0 0 1
-14.978361 -19.728622 11.692663 27.391389 0.921421 1.129764 0.079514 -0.015643 152779.000000 0 0 1
-13.639361 -20.516722 11.780263 27.308289 0.984092 1.124774 0.073764 -0.011875 822204.000000 0 0 1
-12.541161 -19.598322 11.693863 26.040764 1.001547 1.105083 0.067377 -0.012806 -216673.000000 0 0 1
-11.348461 -20.152922 12.175763 26.137656 1.057938 1.086221 0.063276 -0.012919 270584.000000 0 0 1
-10.212661 -19.146522 12.541663 25.063541 1.080791 1.046742 0.074732 -0.022396 372814.000000 0 0 1
-9.491761 -18.634822 11.466863 23.850348 1.099692 1.069248 0.062570 -0.023074 -668819.000000 0 1 0
-8.283361 -18.106422 11.916963 23.204969 1.141738 1.031477 0.059130 -0.018950 -110827.000000 0 1 0
-7.390161 -17.365822 10.859263 21.774064 1.168453 1.048670 0.040826 -0.018707 496767.000000 0 1 0
-6.679861 -18.326122 10.063263 21.948498 1.221263 1.094496 0.032007 -0.017858 -46626.200000 0 1 0
-6.027461 -17.657022 9.001763 20.715513 1.241836 1.121266 0.027158 -0.006653 -470992.000000 0 1 0
-4.931461 -18.430322 8.241463 20.782632 1.309348 1.163035 0.018864 -0.012851 502782.000000 0 1 0
-3.708061 -18.503022 8.967663 20.893313 1.373013 1.127176 0.023301 -0.009527 692100.000000 0 1 0
-2.591461 -18.961322 8.184163 20.814128 1.434967 1.166684 0.033694 -0.018728 278997.000000 0 1 0
-1.351661 -19.245822 9.013863 21.295032 1.500680 1.133728 0.034319 -0.016437 -651853.000000 0 1 0
-0.316761 -19.712922 8.190363 21.349044 1.554729 1.177061 0.042675 -0.013680 -673466.000000 0 1 0
0.837239 -19.910822 8.964663 21.851933 -1.528772 1.148073 0.051587 -0.018069 -955824.000000 0 1 0
2.008439 -20.432022 8.207463 22.110265 -1.472813 1.190489 0.061886 -0.031571 -757606.000000 0 1 0
1.846139 -21.780322 7.814663 23.213350 -1.486237 1.227444 0.072421 -0.030079 -195253.000000 0 1 0
2.398839 -22.689122 8.750463 24.436065 -1.465461 1.204568 0.079784 -0.028361 -61480.300000 0 1 0
2.022339 -24.146722 8.371563 25.636636 -1.487239 1.238148 0.085845 -0.025251 122008.000000 0 0 1
2.276739 -25.091632 9.354863 26.875398 -1.480307 1.215271 0.077601 -0.021102 -277872.000000 0 0 1
1.793839 -26.294162 8.916363 27.822695 -1.502680 1.244570 0.084228 -0.022434 -1022810.000000 0 0 1
1.890939 -27.437342 9.911563 29.233927 -1.501987 1.224897 0.071119 -0.017208 193896.000000 0 0 1
1.147939 -27.379622 11.131163 29.578104 -1.528894 1.184963 0.066869 -0.022171 -474880.000000 0 0 1
-0.234861 -27.278862 10.932263 29.388873 1.562187 1.189648 0.065754 -0.017185 -860118.000000 0 0 1
-0.946361 -27.340962 12.286063 29.989517 1.536197 1.148695 0.058938 -0.022221 -5732.990000 0 0 1
-0.645461 -28.567132 12.999963 31.392622 1.548206 1.143833 0.066915 -0.024600 -215232.000000 0 0 1
-1.038761 -28.462562 14.306163 31.872602 1.534317 1.105313 0.069259 -0.029999 -320162.000000 0 0 1
-0.534661 -29.547882 15.196963 33.231173 1.552704 1.095828 0.056661 -0.018406 -91985.200000 0 0 1
-0.866261 -29.281612 16.506063 33.624594 1.541221 1.057682 0.057799 -0.016269 33685.100000 0 0 1
-0.394761 -30.379832 17.314463 34.969711 1.557803 1.052815 0.048632 -0.011145 99326.400000 0 0 1
-0.922761 -30.141932 18.746763 35.508150 1.540192 1.014604 0.044954 -0.013441 747847.000000 0 0 1
-2.345461 -30.271892 18.809963 35.716990 1.493471 1.016154 0.043448 -0.014211 415888.000000 0 0 1
-2.717261 -30.158612 20.158863 36.377262 1.480940 0.983441 0.052357 -0.015911 122496.000000 0 0 1
-4.240061 -30.236462 20.435363 36.739976 1.431475 0.980971 0.069398 -0.021035 -7255.630000 0 0 1
-4.954761 -29.086122 20.015163 35.653316 1.402068 0.974740 0.065771 -0.027953 185655.000000 0 0 1
-6.140661 -28.940492 20.779663 36.153205 1.361715 0.958477 0.068130 -0.030869 190720.000000 0 0 1
-6.009461 -27.785272 21.806663 35.828278 1.357795 0.916446 0.080861 -0.035055 -73561.400000 0 0 1
-5.008161 -28.071982 22.777363 36.495563 1.394249 0.896800 0.082986 -0.032757 284723.000000 0 0 1
-4.833361 -27.013682 23.720163 36.273221 1.393747 0.858028 0.084573 -0.032411 -17005.300000 0 0 1
-3.736161 -27.317462 24.779663 37.070667 1.434871 0.838682 0.091018 -0.026450 160144.000000 0 0 1
-4.054361 -28.402312 25.591663 38.445577 1.429007 0.842419 0.085578 -0.023323 66009.200000 0 0 1
-3.479961 -29.608762 25.135663 38.994750 1.453802 0.870308 0.075248 -0.022346 -125374.000000 0 0 1
-3.920461 -30.854182 25.941363 40.500678 1.444409 0.875625 0.076200 -0.018972 96999.900000 0 0 1
-3.480161 -30.771632 27.293563 41.278850 1.458178 0.848380 0.087341 -0.022736 146560.000000 0 0 1
-3.789961 -31.920272 28.039163 42.655155 1.452617 0.853506 0.091486 -0.027127 75609.500000 0 0 1
-3.241761 -31.820132 29.526163 43.529578 1.469269 0.825348 0.113768 -0.024902 988411.000000 0 0 1
-1.813661 -31.862012 29.676363 43.579396 1.513935 0.821707 0.100984 -0.024266 881328.000000 0 0 1
-1.372361 -31.586992 30.979163 44.264320 1.527377 0.795584 0.102281 -0.034618 -11362.500000 0 0 1
-28.848361 3.189178 -9.353737 30.494117 -0.110103 1.882561 0.123375 -0.031963 -353351.000000 0 0 1
-29.755471 3.064878 -10.401937 31.669888 -0.102640 1.905457 0.106190 -0.032506 -388006.000000 0 0 1
-30.654311 4.126078 -10.478937 32.657609 -0.133796 1.897447 0.079494 -0.028115 -605759.000000 0 0 1
-31.587651 4.087678 -11.706837 33.934331 -0.128692 1.923019 0.087275 -0.033699 63090.300000 0 0 1
-32.466211 2.948478 -11.557637 34.587966 -0.090568 1.911502 0.128417 -0.039822 647715.000000 0 0 1
-33.249061 2.780178 -12.763137 35.722922 -0.083423 1.936152 0.132965 -0.031151 717815.000000 0 0 1
-34.549640 1.931778 -12.528437 36.801782 -0.055855 1.918171 0.143619 -0.024262 396924.000000 0 0 1
-34.340895 0.574178 -12.176137 36.440157 -0.016718 1.911490 0.140110 -0.023960 -181866.000000 0 0 1
-35.467493 -0.241522 -12.363237 37.561297 0.006810 1.906198 0.132789 -0.022783 -37915.400000 0 0 1
-35.104094 -1.748122 -12.104637 37.173587 0.049757 1.902469 0.134909 -0.029914 136331.000000 0 0 1
-34.259865 -2.303122 -13.108037 36.754093 0.067124 1.935467 0.126237 -0.025603 92012.300000 0 0 1
-33.754211 -3.506722 -12.671137 36.224323 0.103519 1.928150 0.133994 -0.037091 84740.900000 0 0 1
-34.343191 -4.720922 -13.495637 37.200458 0.136607 1.942047 0.130902 -0.039086 301763.000000 0 0 1
-33.893901 -5.959122 -13.028837 36.797531 0.174038 1.932714 0.128018 -0.043775 -63988.800000 0 0 1
-34.537152 -6.965022 -13.712337 37.806806 0.198998 1.941954 0.125362 -0.042427 -413969.000000 0 0 1
-34.097066 -8.309922 -13.094037 37.458224 0.239053 1.927902 0.102597 -0.037522 958721.000000 0 0 1
-32.704601 -8.682222 -13.087437 36.280200 0.259489 1.939849 0.099071 -0.038201 1098750.000000 0 0 1
-32.203481 -9.127522 -14.342537 36.415439 0.276189 1.975622 0.097599 -0.033796 -522369.000000 0 0 1
-31.055901 -10.126622 -14.106237 35.580941 0.315206 1.978448 0.089626 -0.039639 -416766.000000 0 0 1
-31.436701 -11.276922 -13.462137 36.009225 0.344421 1.953956 0.084284 -0.040898 -624852.000000 0 0 1
-30.363041 -12.115722 -13.366737 35.318191 0.379669 1.958935 0.085688 -0.036892 -987222.000000 0 0 1
-30.670221 -13.591322 -13.725937 36.246211 0.417138 1.959173 0.091094 -0.032314 -232217.000000 0 0 1
-30.736691 -13.767822 -15.128637 36.921170 0.421129 1.992982 0.082900 -0.032665 128841.000000 0 0 1
-31.034611 -15.094822 -15.614037 37.878739 0.452698 1.995676 0.080801 -0.030235 -956312.000000 0 0 1
-29.951011 -16.122922 -15.509437 37.383878 0.493824 1.998596 0.063029 -0.022748 -1409610.000000 0 0 1
-28.809131 -15.752922 -16.165437 36.598387 0.500385 2.028287 0.068615 -0.033687 -1331130.000000 0 0 1
-27.768921 -16.684422 -16.033537 36.146331 0.541030 2.030378 0.074293 -0.038431 1240020.000000 0 0 1
-26.332731 -16.082222 -16.352637 34.920758 0.548273 2.058138 0.073846 -0.041275 1248310.000000 0 0 1
-26.325681 -15.769622 -17.739037 35.445675 0.539699 2.094923 0.065008 -0.037564 1589420.000000 0 0 1
-24.938961 -15.722122 -18.215137 34.654410 0.562490 2.124243 0.043003 -0.027687 1168810.000000 0 0 1
-24.932861 -15.357422 -19.777037 35.335947 0.552066 2.164803 0.045393 -0.013955 63280.900000 0 0 1
-25.554051 -16.349322 -20.563537 36.649269 0.569167 2.166498 0.041898 -0.020032 257933.000000 0 0 1
-26.968201 -16.275922 -20.586737 37.629819 0.543006 2.149675 0.063125 -0.022786 -447394.000000 0 0 1
-27.526281 -17.447222 -21.330637 38.949939 0.564930 2.150340 0.072099 -0.028949 -559530.000000 0 0 1
-27.123411 -17.473922 -22.674737 39.435531 0.572314 2.183379 0.067093 -0.017476 215497.000000 0 0 1
-27.727171 -18.533722 -23.422837 40.754437 0.589224 2.183072 0.055522 -0.016676 -429.524000 0 0 1
-27.090901 -18.775322 -24.857337 41.283372 0.606046 2.216944 0.067597 -0.022135 833353.000000 0 0 1
-25.791651 -19.382022 -24.817037 40.703284 0.644450 2.226486 0.074556 -0.022733 592341.000000 0 0 1
-25.697441 -20.783422 -24.697837 41.258845 0.680068 2.212557 0.061913 -0.024718 -844857.000000 0 0 1
-24.298961 -21.183022 -24.253937 40.341212 0.716996 2.215823 0.048572 -0.013628 -7459.590000 0 0 1
-23.359261 -21.044522 -25.315097 40.365593 0.733316 2.248679 0.056087 -0.020976 -491538.000000 0 0 1
-22.093461 -21.567622 -25.094807 39.787343 0.773355 2.253281 0.063002 -0.023508 -262417.000000 0 0 1
-21.148761 -21.422022 -26.312387 39.981431 0.791817 2.289109 0.063089 -0.032018 -205938.000000 0 0 1
-21.371961 -22.376122 -27.315327 41.274431 0.808347 2.294011 0.089943 -0.028685 -114994.000000 0 0 1
-21.511361 -21.773922 -28.608587 41.896224 0.791464 2.322445 0.081151 -0.032532 168737.000000 0 0 1
-20.274361 -21.969122 -29.536767 42.025143 0.825496 2.350172 0.076080 -0.037066 250585.000000 0 0 1
-20.079061 -23.273222 -30.102347 43.022818 0.858944 2.345750 0.082178 -0.038702 -157758.000000 0 0 1
-19.600261 -23.285722 -31.431387 43.753025 0.871124 2.372270 0.075330 -0.042995 -114145.000000 0 0 1
-19.391161 -24.735022 -31.977737 44.837641 0.905915 2.364834 0.082652 -0.035851 -315903.000000 0 0 1
-18.901161 -24.963022 -33.252877 45.674502 0.922724 2.386255 0.090204 -0.032774 87137.700000 0 0 1
-19.789361 -24.762122 33.679029 46.249957 0.896556 0.755110 0.070325 -0.018902 321002.000000 0 0 1
-19.014561 -24.620622 32.308434 44.850457 0.913174 0.766476 0.075882 -0.011511 213435.000000 0 0 1
-18.298661 -23.421322 32.074181 43.728165 0.907573 0.747354 0.073087 -0.019117 -74964.800000 0 0 1
-17.525961 -23.560122 30.878518 42.611284 0.931222 0.760261 0.077339 -0.006827 270965.000000 0 0 1
-16.474261 -22.447222 30.760968 41.491158 0.937672 0.735663 0.069570 -0.003988 159631.000000 0 0 1
-17.041061 -21.223622 30.212588 40.664977 0.894272 0.733309 0.069806 -0.011339 111533.000000 0 0 1
-16.115561 -20.165722 30.016508 39.589878 0.896570 0.710269 0.075130 -0.015416 14573.200000 0 0 1
-15.763861 -19.383722 31.332888 40.074654 0.888027 0.673148 0.082307 -0.024486 62810.800000 0 0 1
-15.222861 -18.086922 31.086478 39.054339 0.871170 0.650171 0.085007 -0.030755 -97130.800000 0 0 1
-14.615361 -17.530822 32.243681 39.504348 0.875845 0.615983 0.084216 -0.033839 6538.320000 0 0 1
-14.120261 -16.089922 31.994098 38.495320 0.850505 0.589684 0.085253 -0.035823 353068.000000 0 0 1
-12.998961 -16.132322 31.108898 37.376307 0.892546 0.587523 0.093304 -0.042180 120060.000000 0 0 1
-12.609461 -14.882322 30.629018 36.312791 0.867885 0.567072 0.081256 -0.036769 79766.500000 0 0 1
-11.073661 -14.747522 30.529438 35.667380 0.926730 0.543414 0.099086 -0.040550 156152.000000 0 0 1
-10.704461 -13.403522 30.408928 34.913361 0.896891 0.513598 0.099572 -0.037588 -1097850.000000 0 0 1
-9.349861 -13.206622 30.609238 34.623117 0.954743 0.486297 0.095813 -0.032090 -781594.000000 0 0 1
-9.078261 -11.695622 30.496488 33.900416 0.910731 0.451966 0.094767 -0.026753 -147290.000000 0 0 1
-9.729661 -10.918922 31.479898 34.711283 0.842930 0.434913 0.089391 -0.027361 92535.400000 0 0 1
-9.341661 -9.548122 31.441508 34.161407 0.796327 0.401743 0.071353 -0.022061 -275374.000000 0 0 1
-10.175761 -8.673822 32.391923 35.043088 0.705886 0.391479 0.054258 -0.023025 -746795.000000 0 0 1
-11.429761 -8.363822 31.870958 34.876223 0.631724 0.418178 0.051517 -0.023222 -554951.000000 0 0 1
-12.279861 -7.766022 32.852967 35.922466 0.563917 0.416397 0.039903 -0.025141 129003.000000 0 0 1
-12.041361 -6.315422 33.278050 35.948680 0.483037 0.387888 0.025490 -0.017264 -480655.000000 0 0 1
-12.397061 -5.427622 32.256157 34.980078 0.412675 0.397248 0.039925 -0.015906 166722.000000 0 0 1
-12.353561 -4.118322 32.791836 35.282794 0.321785 0.378012 0.032696 -0.021971 -214405.000000 0 0 1
-11.934661 -2.962922 31.849988 34.141423 0.243342 0.368458 0.025769 -0.010438 -111359.000000 0 0 1
-10.561961 -2.676222 31.733438 33.551875 0.248160 0.330740 0.030239 -0.016167 -47935.200000 0 0 1
-10.313461 -1.587822 30.878968 32.594468 0.152757 0.325883 0.023986 -0.013048 -879480.000000 0 0 1
-8.850561 -1.207922 30.925788 32.189997 0.135642 0.281187 0.035476 -0.008511 -733501.000000 0 0 1
-8.369861 -0.803122 32.209101 33.288523 0.095661 0.255355 0.048983 -0.023903 834855.000000 0 0 1
-7.064961 -0.189322 32.139952 32.907842 0.026791 0.216453 0.057218 -0.023969 765697.000000 0 0 1
-6.592661 0.578978 33.381414 34.031121 -0.087597 0.195717 0.099878 -0.042600 -61999.400000 0 0 1
-7.390261 1.698578 33.717302 34.559479 -0.225916 0.221217 0.092983 -0.040687 133093.000000 0 0 1
-6.936461 2.897678 33.067094 33.910821 -0.395710 0.223538 0.104998 -0.031399 12308.400000 0 0 1
-7.763861 4.174078 33.372359 34.516877 -0.493296 0.258237 0.122193 -0.032587 682026.000000 0 0 1
-9.009661 4.082778 32.681323 34.145453 -0.425475 0.293902 0.088403 -0.017895 12509.900000 0 0 1
-9.913961 5.098378 32.928626 34.764558 -0.474992 0.326441 0.066971 -0.010165 18352.200000 0 0 1
-11.082861 5.090778 31.891368 34.143890 -0.430592 0.365267 0.050370 0.000230 50430.800000 0 0 1
-11.917361 6.189078 32.095372 34.791394 -0.478994 0.396265 0.047195 -0.000637 -712408.000000 0 0 1
-13.119461 6.035478 31.404228 34.565486 -0.431172 0.431013 0.012484 0.002545 -462672.000000 0 0 1
-14.077561 7.200278 31.626378 35.358868 -0.472783 0.463619 0.025027 0.000746 -249718.000000 0 0 1
-14.433161 7.445378 32.976836 36.758965 -0.476249 0.457612 0.030456 -0.007509 788170.000000 0 0 1
-15.555761 8.354578 33.009617 37.435484 -0.492864 0.491187 0.034590 -0.002579 602996.000000 0 0 1
-16.148561 8.529678 -33.608777 38.250246 -0.485953 2.643835 0.030606 -0.000187 -53573.800000 0 0 1
-15.324661 9.193878 -32.690917 37.256794 -0.540375 2.641313 0.026137 -0.002347 -751859.000000 0 0 1
-16.072561 9.794678 -31.744677 36.905114 -0.547305 2.606399 0.037668 -0.002092 -1316650.000000 0 0 1
-15.314361 10.068378 -30.425507 35.519197 -0.581592 2.599427 0.053970 -0.012043 646585.000000 0 0 1
-14.472961 11.268378 -30.435297 35.535197 -0.661544 2.599214 0.057247 -0.013281 408688.000000 0 0 1
-13.199961 11.070178 -31.012047 35.475835 -0.697869 2.634528 0.058213 -0.022181 -637381.000000 0 0 1
-12.327561 12.279778 -31.008377 35.556731 -0.783456 2.630237 0.065976 -0.019409 -369386.000000 0 0 1
-12.883861 13.299378 -31.835307 36.828713 -0.801266 2.614783 0.060856 -0.018943 -6749.870000 0 0 1
-11.996861 14.373478 -32.021967 37.093502 -0.875280 2.612523 0.063575 -0.020781 -99849.900000 0 0 1
-12.119161 15.618178 -31.055867 36.813970 -0.910884 2.574729 0.065919 -0.020701 -266292.000000 0 0 1
-13.367961 16.248378 -31.119917 37.565428 -0.882351 2.547076 0.074000 -0.025946 -177155.000000 0 0 1
-13.456861 17.358178 -30.285127 37.410992 -0.911332 2.514139 0.067314 -0.021018 -48828.500000 0 0 1
-14.892861 17.922678 -30.364347 38.275491 -0.877466 2.487024 0.053747 -0.028254 -203677.000000 0 0 1
-15.364561 18.601478 -31.535657 39.706201 -0.880410 2.488527 0.057861 -0.031327 533240.000000 0 0 1
-16.733561 18.996478 -31.449257 40.372441 -0.848647 2.463831 0.060433 -0.032332 753234.000000 0 0 1
-17.109061 20.159678 -30.445407 40.324377 -0.867071 2.426469 0.038461 -0.041998 -643549.000000 0 0 1
-16.473561 21.329478 -30.881427 40.987649 -0.913152 2.424063 0.046237 -0.039194 8042.580000 0 0 1
-16.966861 22.553778 -30.383677 41.469448 -0.925835 2.393042 0.029150 -0.036634 -343342.000000 0 0 1
-18.298861 23.059778 -30.928347 42.698528 -0.900007 2.380876 0.036317 -0.040569 -394403.000000 0 0 1
-19.468061 22.474678 -30.413107 42.533206 -0.856960 2.367483 0.039188 -0.042975 520582.000000 0 0 1
-20.518561 22.535278 -31.404627 43.761863 -0.832206 2.371183 0.062869 -0.041681 -377565.000000 0 0 1
-21.805961 21.827878 -31.032897 43.760677 -0.785900 2.359089 0.071806 -0.048604 133696.000000 0 0 1
-22.823861 22.525278 -30.222117 44.064647 -0.778814 2.326579 0.088993 -0.038035 1177380.000000 0 0 1
-23.604961 23.452478 -30.929207 45.429382 -0.782158 2.319677 0.094321 -0.033339 -678836.000000 0 0 1
-24.856261 22.790578 -31.545007 46.177176 -0.742071 2.322836 0.097980 -0.043380 -704504.000000 0 0 1
-24.651561 21.869678 -32.610627 46.362002 -0.725671 2.350954 0.115780 -0.045667 928909.000000 0 0 1
-25.979271 21.503378 -33.038167 47.210574 -0.691412 2.345920 0.124090 -0.041044 993474.000000 0 0 1
-26.066271 20.490378 33.929319 47.439486 -0.666200 0.773868 0.128781 -0.032532 -81998.600000 0 0 1
-25.594281 19.212678 -33.774557 46.528646 -0.643925 2.383120 0.115028 -0.032851 176395.000000 0 0 1
-25.407031 18.412778 33.131645 45.631717 -0.627119 0.758213 0.098390 -0.040563 -276725.000000 0 0 1
-25.006861 16.928378 33.466642 45.076926 -0.595088 0.734100 0.070981 -0.027363 -153306.000000 0 0 1
-26.025461 15.978878 33.699442 45.478584 -0.550629 0.736244 0.057369 -0.018210 83790.600000 0 0 1
-26.231931 15.102678 32.675439 44.540874 -0.522388 0.747184 0.068180 -0.022552 41260.600000 0 0 1
-27.071771 13.858678 33.125919 44.969659 -0.473141 0.742725 0.036683 -0.012077 607294.000000 0 0 1
-28.424981 14.072278 33.515028 46.143967 -0.459694 0.757852 0.047956 -0.010744 627343.000000 0 0 1
-29.348411 12.984678 33.379842 46.304913 -0.416543 0.765739 0.041671 -0.002760 350151.000000 0 0 1
-29.094261 11.672778 -33.879537 46.157911 -0.381545 2.394978 0.031766 -0.006896 -664316.000000 0 0 1
-27.870341 11.056478 33.914600 45.268109 -0.377668 0.723952 0.038890 -0.019602 -612651.000000 0 0 1
-28.059841 9.667078 -33.988867 45.122612 -0.331781 2.423794 0.047141 -0.013647 -586171.000000 0 0 1
-26.785731 8.831678 -33.726217 43.965118 -0.318491 2.445125 0.041708 -0.018527 96891.400000 0 0 1
-25.853531 8.608178 33.294816 43.023838 -0.321414 0.685869 0.028114 -0.015198 298375.000000 0 0 1
-25.098481 9.748578 32.930974 42.537250 -0.370478 0.685397 0.020657 -0.016840 -777861.000000 0 0 1
-23.824961 9.466578 32.109527 41.088522 -0.378210 0.673775 0.016778 -0.009724 -269167.000000 0 0 1
-24.085061 9.213978 30.745808 40.128447 -0.365382 0.697913 0.011208 -0.006980 352379.000000 0 0 1
-22.868761 9.091078 30.018858 38.817004 -0.378377 0.686699 0.018377 -0.003972 277421.000000 0 0 1
-22.932261 9.057678 28.490478 37.678077 -0.376167 0.713379 0.037208 -0.018302 -87452.100000 0 0 1
-23.476961 10.305378 28.016318 37.977396 -0.413633 0.741124 0.031867 -0.014684 393575.000000 0 0 1
-23.356761 10.445778 26.604748 36.911586 -0.420546 0.765884 0.038784 -0.023657 -1242970.000000 0 0 1
-23.819161 11.822478 26.105928 37.264499 -0.460718 0.794618 0.042224 -0.026061 15793.400000 0 0 1
-25.179711 12.161778 26.209108 38.325501 -0.449955 0.817762 0.048977 -0.020952 206936.000000 0 0 1
-26.017051 11.334078 25.371978 38.066856 -0.410849 0.841278 0.056862 -0.020669 -933923.000000 0 0 1
-27.502751 11.670278 25.316518 39.160220 -0.401304 0.867827 0.058110 -0.019903 -513359.000000 0 0 1
-27.676911 12.913578 24.655018 39.251011 -0.436559 0.891640 0.067922 -0.024190 -219659.000000 0 0 1
-28.703551 13.660078 25.265088 40.605619 -0.444184 0.899238 0.066520 -0.022351 -29670.400000 0 0 1
-28.748221 15.181378 24.833308 40.909995 -0.485859 0.918487 0.082288 -0.019486 107519.000000 0 0 1
-27.721931 16.045578 25.290348 40.811368 -0.524689 0.902450 0.090953 -0.015438 -149084.000000 0 0 1
-27.931941 17.335378 24.843998 41.205982 -0.555450 0.923638 0.070039 -0.011021 -377697.000000 0 0 1
-22.899261 -9.023922 31.958888 40.338293 0.375384 0.656273 0.051575 -0.020461 -246263.000000 0 0 1
-22.104461 -8.717922 30.847318 38.937982 0.375666 0.656363 0.045999 -0.029107 34500.500000 0 0 1
-22.767261 -8.971622 29.601388 38.406775 0.375374 0.690805 0.046982 -0.025981 594648.000000 0 0 1
-21.795561 -8.797422 28.348318 36.824832 0.383635 0.692245 0.065324 -0.028192 704005.000000 0 0 1
-21.233961 -7.507822 28.220338 36.105900 0.339857 0.673571 0.067272 -0.029308 1320430.000000 0 0 1
-19.997761 -7.172422 28.932078 35.894557 0.344370 0.633383 0.059325 -0.028370 1559140.000000 0 0 1
-18.630761 -7.518622 28.244728 34.661212 0.383571 0.618274 0.066632 -0.023613 285773.000000 0 0 1
-18.174861 -8.919222 28.300078 34.796157 0.456216 0.620977 0.064796 -0.026270 238519.000000 0 0 1
-17.801761 -9.358122 29.591238 35.778744 0.483984 0.596936 0.067442 -0.026762 -431325.000000 0 0 1
-16.409161 -8.923822 30.132008 35.451842 0.498095 0.554921 0.064643 -0.024697 508026.000000 0 0 1
-15.355261 -9.622322 29.389588 34.527106 0.559782 0.552522 0.064864 -0.024915 251680.000000 0 0 1
-14.171161 -9.348822 30.117468 34.572882 0.583169 0.513298 0.065342 -0.025890 -391309.000000 0 0 1
-12.961761 -10.103222 29.597968 33.854425 0.662093 0.506863 0.069978 -0.027552 -490149.000000 0 0 1
-12.557261 -9.852822 28.275318 32.469317 0.665299 0.513904 0.086485 -0.017918 375897.000000 0 0 1
-11.448161 -10.687822 27.914088 32.007597 0.751063 0.511302 0.094475 -0.020503 484929.000000 0 0 1
-10.772561 -10.389522 26.545568 30.473881 0.767300 0.513374 0.081512 -0.015591 -192278.000000 0 0 1
-11.540961 -10.816122 25.480738 29.990837 0.752989 0.555537 0.083176 -0.017296 2223.610000 0 0 1
-10.877361 -10.675922 24.196688 28.596713 0.776052 0.562105 0.061041 -0.007374 765027.000000 0 0 1
-11.900961 -10.961022 23.042298 28.155362 0.744308 0.612178 0.067515 -0.014442 93279.700000 0 0 1
-12.201161 -12.383022 22.971598 28.808018 0.792795 0.647817 0.080168 -0.016632 527300.000000 0 0 1
-13.393761 -12.745722 22.263498 28.939758 0.760612 0.693044 0.083708 -0.016851 964418.000000 0 0 1
-14.707161 -12.462622 23.070618 30.064447 0.702974 0.696064 0.082291 -0.015666 551154.000000 0 0 1
-15.899661 -12.975622 22.436998 30.406987 0.684478 0.740858 0.054430 -0.007840 505062.000000 0 0 1
-16.996661 -12.718022 23.266978 31.495823 0.642390 0.739609 0.048156 -0.006084 75603.600000 0 0 1
-18.330161 -13.462922 22.987098 32.336539 0.633486 0.780061 0.062924 -0.009788 44618.400000 0 0 1
-18.232061 -14.860522 23.039198 32.924882 0.683866 0.795748 0.050796 -0.007027 403053.000000 0 0 1
-19.492761 -15.515622 22.970098 33.886984 0.672278 0.825970 0.062749 -0.005094 753249.000000 0 0 1
-20.483461 -15.543522 24.189618 35.303129 0.649130 0.815921 0.055582 -0.005843 127207.000000 0 0 1
-19.995761 -16.431722 25.203178 36.125229 0.687869 0.798668 0.064043 -0.000945 -73570.800000 0 0 1
-20.658361 -16.313022 26.409258 37.287149 0.668402 0.783756 0.051932 0.004467 -352398.000000 0 0 1
-20.123161 -17.324322 27.418558 38.168719 0.710796 0.769366 0.059236 0.005295 -93048.800000 0 0 1
-20.536561 -18.622522 27.209608 38.844709 0.736558 0.794739 0.070539 0.013167 80437.600000 0 0 1
-20.106161 -19.435722 28.313568 39.795265 0.768445 0.779193 0.062488 0.006064 -45243.400000 0 0 1
-20.038461 -20.954322 27.988688 40.298762 0.807736 0.803030 0.069990 0.010644 365958.000000 0 0 1
-21.305161 -21.607322 27.964288 41.264848 0.792439 0.826196 0.067937 0.012915 140055.000000 0 0 1
-21.177161 -22.985222 27.497218 41.627991 0.826317 0.849250 0.078216 0.013647 101875.000000 0 0 1
-22.498461 -23.671722 27.108438 42.442886 0.810804 0.877984 0.071708 0.011185 105697.000000 0 0 1
-23.285961 -24.282022 28.121848 43.848500 0.806335 0.874551 0.060046 0.015172 -395384.000000 0 0 1
-24.485561 -24.706122 27.556878 44.376984 0.789882 0.900814 0.048180 0.008585 -305906.000000 0 0 1
-25.413191 -25.533962 28.482588 45.924627 0.787769 0.901795 0.031639 0.004002 -124327.000000 0 0 1
-25.963941 -24.799722 29.560318 46.507686 0.762468 0.882010 0.025109 0.003367 -68973.300000 0 0 1
-26.546931 -25.707042 30.496528 47.912731 0.769326 0.880843 0.017830 0.005073 687682.000000 0 0 1
-27.715981 -25.045122 31.341838 48.762122 0.734820 0.872714 0.027223 0.000947 388877.000000 0 0 1
-28.779211 -24.639622 30.537708 48.661130 0.708060 0.892383 0.034279 -0.005521 -90929.800000 0 0 1
-29.744541 -23.897222 31.278208 49.337017 0.676820 0.884120 0.046969 -0.016640 -56074.300000 0 0 1
-31.006531 -23.422422 30.543248 49.425751 0.646950 0.904648 0.059316 -0.021493 -167619.000000 0 0 1
-31.926421 -24.466622 30.309568 50.364490 0.653879 0.925038 0.066824 -0.022130 -224372.000000 0 0 1
-32.942011 -24.143722 29.400218 50.323635 0.632477 0.946874 0.064591 -0.028035 -220711.000000 0 0 1
-34.238177 -24.898222 29.743678 51.738386 0.628753 0.958331 0.064445 -0.020962 -237133.000000 0 0 1
-34.069011 -26.324782 29.568378 52.230074 0.657865 0.969008 0.067570 -0.026518 -272299.000000 0 0 1
-35.173765 -26.983042 30.128878 53.600631 0.654378 0.973874 0.063596 -0.021384 -95352.200000 0 0 1
-34.899657 -28.404712 30.690428 54.467569 0.683157 0.972225 0.064047 -0.027481 51651.900000 0 0 1
-34.099532 -28.359252 31.868498 54.613427 0.693751 0.947729 0.071645 -0.028245 -21454.500000 0 0 1
-33.608111 -29.654172 32.053266 55.102513 0.722979 0.949976 0.082868 -0.037129 -26554.600000 0 0 1
-32.603161 -29.976732 33.150304 55.321906 0.743454 0.928263 0.069903 -0.031896 260921.000000 0 0 1
-33.292421 -30.009352 -33.664117 56.055502 0.733581 2.214985 0.056175 -0.021874 482202.000000 0 0 1
-32.322101 -30.146512 -32.633077 54.940405 0.750585 2.206784 0.056869 -0.021036 263449.000000 0 0 1
-32.887021 -29.972912 -31.232717 54.363721 0.739073 2.182807 0.052276 -0.021547 -183569.000000 0 0 1
-33.069831 -28.613502 -30.846237 53.514826 0.713278 2.185119 0.041293 -0.015638 798348.000000 0 0 1
-31.829321 -27.879352 -30.655457 52.250560 0.719340 2.197775 0.048348 -0.009218 808903.000000 0 0 1
-32.016291 -26.351152 -30.706367 51.597549 0.688641 2.208202 0.035259 -0.002172 -261946.000000 0 0 1
-32.871901 -25.944362 -29.667507 51.320880 0.668156 2.187168 0.025613 -0.009264 -126963.000000 0 0 1
-32.763041 -24.560722 -29.363437 50.387075 0.643275 2.192914 0.032916 -0.011983 237140.000000 0 0 1
-31.485541 -24.133622 -28.587927 48.898268 0.653977 2.195234 0.031661 -0.014708 114039.000000 0 0 1
-31.560531 -22.740122 -28.293467 48.100941 0.624368 2.199640 0.031460 -0.012152 357016.000000 0 0 1
-30.354741 -22.276222 -27.695167 46.740375 0.633093 2.204995 0.058885 -0.014830 252490.000000 0 0 1
-30.054511 -20.758622 -27.896827 45.961146 0.604456 2.223033 0.082540 -0.024353 -33030.000000 0 0 1
-29.691161 -20.427822 -29.243927 46.411940 0.602634 2.252472 0.081409 -0.016518 349119.000000 0 0 1
-29.571591 -19.043522 -29.398387 45.841028 0.572132 2.267003 0.080109 -0.023908 -289143.000000 0 0 1
-28.992521 -18.661722 -30.787717 46.224557 0.571915 2.299693 0.099423 -0.018635 298783.000000 0 0 1
-29.913761 -18.478922 -31.872727 47.457079 0.553361 2.307178 0.087972 -0.022769 486305.000000 0 0 1
-30.679531 -17.287222 -31.664007 47.357059 0.513132 2.303151 0.082971 -0.025134 -841926.000000 0 0 1
-31.091851 -16.521022 -32.925847 48.205381 0.488421 2.322703 0.082441 -0.027073 760428.000000 0 0 1
-32.117621 -17.105922 -33.762137 49.639058 0.489388 2.318767 0.080284 -0.028550 1712610.000000 0 0 1
-33.433541 -17.185122 -33.172227 50.135085 0.474791 2.293823 0.079567 -0.025999 1442870.000000 0 0 1
-34.589204 -17.794022 33.966653 51.640815 0.475132 0.852971 0.081130 -0.029963 589327.000000 0 0 1
-34.415338 -19.148622 33.861164 51.939038 0.507742 0.860656 0.055312 -0.029436 249769.000000 0 0 1
-35.343098 -19.652522 32.918297 52.143748 0.507476 0.887569 0.063562 -0.033275 -435614.000000 0 0 1
-35.711974 -21.142322 33.079808 53.071806 0.534534 0.897837 0.058310 -0.033091 -492499.000000 0 0 1
-34.623095 -21.948022 32.833544 52.521577 0.564983 0.895480 0.061237 -0.032197 -527393.000000 0 0 1
-35.026595 -23.288022 33.102552 53.525445 0.586756 0.904034 0.060471 -0.031852 534096.000000 0 0 1
-33.796561 -24.217822 33.471511 53.376517 0.621765 0.892993 0.061417 -0.024251 1110030.000000 0 0 1
-33.012011 -23.877122 -33.404877 52.685820 0.626184 2.257562 0.032107 -0.021176 853746.000000 0 0 1
-32.253981 -22.638022 -33.445347 51.685497 0.611978 2.274562 0.045254 -0.021249 -440893.000000 0 0 1
-30.931951 -22.594722 -32.652077 50.333539 0.630881 2.276690 0.044117 -0.011491 -698041.000000 0 0 1
-29.960601 -23.431522 -33.217827 50.498494 0.663717 2.288688 0.038773 -0.012506 -500038.000000 0 0 1
-28.716001 -23.343722 -32.571297 49.299366 0.682568 2.292526 0.042489 -0.011993 -49543.100000 0 0 1
-28.541801 -23.938922 -31.167747 48.570926 0.697916 2.267503 0.053154 0.002385 -782207.000000 0 0 1
-28.508421 -25.339112 -31.077737 49.199862 0.726609 2.254493 0.037380 -0.010281 75824.500000 0 0 1
-28.257701 -25.625462 -29.728627 48.362726 0.736586 2.232803 0.034334 -0.007482 -140043.000000 0 0 1
-27.734731 -27.027262 -29.352917 48.593023 0.772480 2.219377 0.029129 -0.008893 -40016.000000 0 0 1
-28.746411 -27.984432 -29.581147 49.845048 0.771967 2.206150 0.025318 0.002247 193060.000000 0 0 1
-28.364901 -29.275682 -29.177507 50.129433 0.801198 2.192036 0.026180 0.000743 87762.100000 0 0 1
-29.072921 -30.480302 -29.904347 51.658044 0.809026 2.188164 0.028996 0.010886 85244.100000 0 0 1
-28.526781 -30.692182 -31.198077 52.240858 0.821948 2.210798 0.037642 -0.011732 447871.000000 0 0 1
-28.942391 -31.973652 -31.579017 53.452883 0.835118 2.202824 0.053314 -0.002374 70972.500000 0 0 1
-28.344141 -32.289772 -32.978177 54.162532 0.850380 2.225437 0.061186 -0.020428 -41738.300000 0 0 1
-26.941131 -32.269042 -33.057687 53.478278 0.875140 2.237185 0.043389 -0.023518 -370418.000000 0 0 1
-26.548801 -32.771082 33.751623 54.018096 0.889910 0.895894 0.073383 -0.032177 -189544.000000 0 0 1
-25.048161 -33.051572 33.570191 53.355173 0.922290 0.890294 0.055816 -0.027107 -164452.000000 0 0 1
-24.878161 -33.918372 32.473029 53.140159 0.937958 0.913369 0.064426 -0.027012 119156.000000 0 0 1
-23.847461 33.282665 32.753074 52.432825 -0.949074 0.896091 0.044488 -0.016379 -314891.000000 0 0 1
-23.699361 32.231531 31.641788 51.007197 -0.936780 0.901621 0.046792 -0.025256 591363.000000 0 0 1
-24.887761 31.425882 31.519728 50.994902 -0.900983 0.904478 0.097060 -0.047147 637640.000000 0 0 1
-24.773461 30.611632 30.359498 49.724195 -0.890421 0.914032 0.089771 -0.036460 59416.900000 0 0 1
-26.084181 29.993412 29.786598 49.671226 -0.854997 0.927701 0.116989 -0.033696 60073.400000 0 0 1
-26.714541 29.185372 30.767668 50.120875 -0.829570 0.909843 0.105242 -0.033215 171312.000000 0 0 1
-28.011881 28.795452 30.354238 50.351001 -0.799191 0.923725 0.102632 -0.034185 289120.000000 0 0 1
-28.624901 27.770192 31.376788 50.745161 -0.770244 0.904192 0.077407 -0.048386 -110879.000000 0 0 1
-27.857181 26.584622 31.565078 49.790751 -0.762028 0.884140 0.085655 -0.052089 507377.000000 0 0 1
-28.645001 25.440412 31.967478 49.896597 -0.726217 0.875420 0.073662 -0.030502 129481.000000 0 0 1
-29.710961 24.902792 31.051258 49.669618 -0.697585 0.895465 0.073332 -0.026064 -90013.700000 0 0 1
-29.116651 24.542892 29.804098 48.357184 -0.700367 0.906720 0.064586 -0.015579 426404.000000 0 0 1
-30.105621 23.963442 28.922468 48.136308 -0.672284 0.926238 0.068596 -0.011042 845019.000000 0 0 1
-29.484071 23.584702 27.530758 46.727843 -0.674688 0.940762 0.072289 -0.020779 317022.000000 0 0 1
-28.426851 22.653512 27.605948 45.643793 -0.672851 0.921266 0.062790 -0.012874 -155834.000000 0 0 1
-27.910481 22.282212 26.340178 44.376761 -0.673731 0.935324 0.061865 -0.012706 -14465.200000 0 0 1
-26.502131 21.653012 26.374318 43.206719 -0.685039 0.914203 0.070104 -0.010413 -110206.000000 0 0 1
-26.475291 20.449312 27.130828 43.072001 -0.657679 0.889379 0.074284 -0.012077 607883.000000 0 0 1
-25.222851 19.748212 27.150448 41.992034 -0.664257 0.867727 0.075777 -0.006886 556451.000000 0 0 1
-25.256591 18.724412 28.311098 42.308596 -0.637953 0.837722 0.080287 -0.006980 -410274.000000 0 0 1
-24.084261 17.969112 28.365788 41.322616 -0.640996 0.814205 0.085178 -0.015847 -193859.000000 0 0 1
-23.956061 17.042912 29.429928 41.598971 -0.618352 0.784888 0.074235 -0.019828 -537593.000000 0 0 1
-22.724761 16.135412 29.470418 40.561951 -0.617430 0.757504 0.067890 -0.025238 -885217.000000 0 0 1
-21.644061 16.760312 30.051248 40.650350 -0.658911 0.738823 0.102243 -0.024577 -686890.000000 0 0 1
-20.441761 16.029912 29.916498 39.620961 -0.665017 0.715039 0.085176 -0.025705 -172932.000000 0 0 1
-19.344861 16.585912 30.817168 39.987673 -0.708763 0.690910 0.066676 -0.026226 -906352.000000 0 0 1
-19.460061 16.386512 32.224089 41.056104 -0.699866 0.668295 0.055926 -0.023151 743649.000000 0 0 1
-18.329561 16.872912 32.989154 41.339476 -0.744043 0.646817 0.058964 -0.024195 15485.300000 0 0 1
-18.566261 16.764412 -33.539987 41.841155 -0.734443 2.500768 0.052098 -0.033938 818693.000000 0 0 1
-19.638761 17.541512 -32.943037 42.173798 -0.729050 2.467263 0.064693 -0.035628 1878280.000000 0 0 1
-20.984561 17.134312 -33.317407 42.941659 -0.684733 2.458899 0.069296 -0.036124 690602.000000 0 0 1
-22.006761 17.963112 -32.493447 43.160109 -0.684574 2.423190 0.075758 -0.037773 -151296.000000 0 0 1
-22.208261 17.366812 -31.238207 42.078957 -0.663667 2.407399 0.072626 -0.031869 7946.270000 0 0 1
-23.139061 18.019712 -30.417507 42.253413 -0.661653 2.374430 0.062084 -0.029390 -446807.000000 0 0 1
-23.137161 17.433912 -28.978607 40.975958 -0.645739 2.356340 0.066148 -0.034208 -131478.000000 0 0 1
-23.630061 16.115912 -28.867947 40.638169 -0.598549 2.360813 0.073108 -0.040169 -518748.000000 0 0 1
-24.987761 15.908912 -29.123817 41.541286 -0.566946 2.347709 0.077225 -0.035871 -639499.000000 0 0 1
-25.724801 15.020712 -28.092677 40.946131 -0.528497 2.326895 0.078331 -0.032753 77714.400000 0 0 1
-25.529241 13.639312 -28.415577 40.561287 -0.490680 2.346977 0.053722 -0.027843 -87.306100 0 0 1
-26.295381 12.859312 -27.530767 40.183978 -0.454836 2.325562 0.033701 -0.017906 -11985.100000 0 0 1
-25.891161 11.349212 -27.409007 39.375252 -0.413118 2.340743 0.041299 -0.021897 262303.000000 0 0 1
-24.791361 11.029412 -26.556637 37.967282 -0.418596 2.345439 0.052281 -0.023763 249988.000000 0 0 1
-24.061261 9.985312 -27.199777 37.662695 -0.393366 2.377766 0.047633 -0.015677 200807.000000 0 0 1
-22.853561 9.498912 -26.385277 36.175923 -0.393918 2.388183 0.075477 -0.021719 -35837.500000 0 0 1
-23.412761 8.672512 -25.369347 35.594573 -0.354748 2.364180 0.100536 -0.021754 409213.000000 0 0 1
-22.502261 7.970412 -24.527837 34.227095 -0.340416 2.369741 0.113943 -0.021030 -139690.000000 0 0 1
-23.239161 6.911712 -23.597437 33.832963 -0.289085 2.342656 0.112026 -0.015374 307553.000000 0 0 1
-23.535161 5.759612 -24.293037 34.310765 -0.240007 2.357500 0.115882 -0.030543 207119.000000 0 0 1
-23.929561 4.680512 -23.523137 33.880216 -0.193157 2.338247 0.101234 -0.022902 -198093.000000 0 0 1
35.610148 24.322778 -10.354037 44.349591 0.599245 1.806435 0.037622 -0.003751 290329.000000 0 0 1
36.322538 23.672778 -9.294637 44.340923 0.577596 1.781980 0.045914 -0.011639 124540.000000 0 0 1
-36.293091 22.893078 -9.786637 44.012041 -0.562747 1.795034 0.059111 -0.010720 35963.000000 0 0 1
-35.382325 22.463678 -8.634437 42.791112 -0.565675 1.773972 0.048064 -0.006804 -261868.000000 0 0 1
-35.925356 21.421578 -7.867237 42.560647 -0.537680 1.756713 0.050761 -0.010111 -285889.000000 0 0 1
-35.056116 21.052678 -6.850637 41.461762 -0.540818 1.736785 0.066399 -0.011780 -539718.000000 0 0 1
-35.636147 20.143278 -5.769937 41.339797 -0.514475 1.710827 0.060944 -0.002716 -227506.000000 0 0 1
-35.940120 18.816678 -6.299137 41.054095 -0.482315 1.724840 0.052394 -0.000353 470021.000000 0 0 1
-36.432311 17.890378 -5.330137 40.936405 -0.456468 1.701372 0.055693 -0.013982 6105.960000 0 0 1
36.509168 16.691178 -6.000037 40.589595 0.428807 1.719162 0.049619 -0.002130 16998.600000 0 0 1
35.266668 17.082278 -6.533737 39.726966 0.451069 1.736013 0.048484 -0.010252 -329106.000000 0 0 1
34.812768 16.096778 -7.407637 39.062875 0.433102 1.761585 0.059777 -0.008429 -426583.000000 0 0 1
33.832088 16.567578 -8.442037 38.605217 0.455374 1.791254 0.047200 -0.021824 -522963.000000 0 0 1
33.393398 15.489178 -9.255437 37.956512 0.434303 1.817123 0.067775 -0.029243 223288.000000 0 0 1
32.620948 15.933278 -10.372437 37.756894 0.454354 1.849091 0.076618 -0.022572 -95743.900000 0 0 1
31.869238 14.694278 -11.021137 36.783632 0.432030 1.875091 0.083215 -0.026486 321537.000000 0 0 1
30.627178 14.284378 -10.478537 35.381736 0.436404 1.871463 0.082894 -0.019476 473178.000000 0 0 1
30.730258 13.583678 -9.242237 34.846578 0.416206 1.839235 0.076409 -0.024993 -626615.000000 0 0 1
29.569558 12.604178 -9.049737 33.393440 0.402933 1.845232 0.096188 -0.019191 -134334.000000 0 0 1
29.920978 11.405478 -9.699937 33.458013 0.364184 1.864933 0.106488 -0.023456 620433.000000 0 0 1
28.917878 10.398278 -9.580037 32.189206 0.345183 1.872991 0.114187 -0.023772 -113418.000000 0 0 1
29.440948 9.006578 -9.926637 32.348508 0.296879 1.882694 0.123489 -0.022803 -485857.000000 0 0 1
30.525508 8.595478 -9.152837 33.007019 0.274476 1.851779 0.114321 -0.027009 -108340.000000 0 0 1
30.601788 7.188478 -9.043237 32.709689 0.230721 1.850915 0.126070 -0.030645 -298933.000000 0 0 1
31.727908 6.705878 -8.103037 33.425861 0.208290 1.815654 0.134051 -0.026940 1129020.000000 0 0 1
33.013428 7.035778 -8.686437 34.854595 0.209977 1.822670 0.124681 -0.024030 1475490.000000 0 0 1
34.132918 6.725578 -7.849237 35.663707 0.194549 1.792703 0.124630 -0.022399 1138010.000000 0 0 1
35.574828 7.100978 -8.322837 37.219107 0.197017 1.796321 0.126168 -0.024366 711226.000000 0 0 1
35.873328 6.353078 -9.488537 37.646907 0.175280 1.825584 0.131064 -0.026600 -1023510.000000 0 0 1
-36.497431 6.509778 -9.798137 38.346358 -0.176507 1.829178 0.133007 -0.033380 -2172150.000000 0 0 1
-36.118011 5.642878 -11.054037 38.190896 -0.154982 1.864440 0.133607 -0.029934 -428683.000000 0 0 1
-34.763738 5.550878 -11.399737 37.003834 -0.158338 1.883959 0.131247 -0.030970 -201503.000000 0 0 1
-34.173149 6.656878 -11.942437 36.806792 -0.192389 1.901240 0.102598 -0.026688 -649201.000000 0 0 1
-33.210901 7.462578 -11.003137 35.773217 -0.221031 1.883445 0.089987 -0.025633 -707261.000000 0 0 1
-33.836491 8.322378 -10.059137 36.267842 -0.241171 1.851838 0.101616 -0.028318 367934.000000 0 0 1
-34.465778 9.436078 -10.769737 37.321799 -0.267233 1.863523 0.108691 -0.031010 135497.000000 0 0 1
-35.323251 10.274578 -9.773937 38.063485 -0.283062 1.830485 0.113778 -0.025148 249858.000000 0 0 1
-34.617608 10.857678 -8.687937 37.306142 -0.303929 1.805837 0.080212 -0.019153 171893.000000 0 0 1
-35.488211 11.806278 -8.071237 38.261550 -0.321164 1.783342 0.088581 -0.018737 8092.430000 0 0 1
-34.889376 12.828078 -7.086437 37.842380 -0.352337 1.759170 0.094690 -0.012946 -9415.380000 0 0 1
-34.004941 13.701378 -7.760637 37.473875 -0.383024 1.779401 0.072086 -0.016913 -473267.000000 0 0 1
-33.341661 14.547978 -6.924137 37.030443 -0.411428 1.758888 0.073378 -0.015522 -280741.000000 0 0 1
-32.558221 15.582678 -7.776637 36.923349 -0.446389 1.783001 0.046124 -0.012591 -255064.000000 0 0 1
-33.336231 16.485678 -8.497737 38.148308 -0.459260 1.795436 0.028457 -0.008870 -409904.000000 0 0 1
-32.790191 17.780078 -8.538737 38.265361 -0.496864 1.795836 0.029227 -0.005139 122852.000000 0 0 1
-33.576621 18.676978 -9.498037 39.578172 -0.507629 1.813143 0.013173 -0.003123 314201.000000 0 0 1
-33.108621 18.433678 -10.769937 39.395086 -0.508021 1.847704 0.003974 -0.006491 -162145.000000 0 0 1
-34.177901 18.695378 -11.611537 40.650632 -0.500539 1.860473 0.003373 -0.011874 -544324.000000 0 0 1
-33.692551 18.705978 -13.046037 40.685387 -0.506824 1.897219 -0.000236 0.005666 350754.000000 0 0 1
-32.710541 19.721378 -13.254837 40.430223 -0.542553 1.904818 0.000990 0.001169 447607.000000 0 0 1
-32.741331 19.955078 -14.614837 41.034051 -0.547359 1.934955 -0.014863 0.004813 -312437.000000 0 0 1
-31.767511 21.107878 -15.048937 41.002290 -0.586465 1.946607 0.008674 0.007107 -1284540.000000 0 0 1
-30.446391 20.765978 -14.877437 39.743511 -0.598578 1.954477 0.014015 0.005398 -768341.000000 0 0 1
-29.626491 21.905278 -14.637437 39.646245 -0.636671 1.948946 0.016867 -0.000261 -16639.900000 0 0 1
-29.087631 22.691478 -15.848037 40.151634 -0.662493 1.976543 0.025182 -0.005681 -1335660.000000 0 0 1
-30.029641 23.429378 -16.557437 41.531480 -0.662556 1.980865 0.023848 0.002233 -110356.000000 0 0 1
-29.479741 24.104778 -17.679237 41.983936 -0.685424 2.005449 0.029226 -0.000339 75576.500000 0 0 1
-28.548471 25.330578 -17.517837 41.994381 -0.725745 2.001100 0.037550 -0.002418 69290.100000 0 0 1
-29.146771 26.552278 -17.083337 42.969735 -0.738851 1.979660 0.053408 -0.004900 -474832.000000 0 0 1
-28.337151 27.665878 -17.179937 43.168799 -0.773412 1.980101 0.061964 -0.006617 -273342.000000 0 0 1
-29.090471 28.897378 -16.634137 44.249390 -0.782068 1.956183 0.057111 -0.010045 62577.000000 0 0 1
-29.287571 28.978878 -15.226337 43.924692 -0.780100 1.924790 0.056230 -0.008752 611489.000000 0 0 1
-28.091341 29.267478 -14.506437 43.083006 -0.805900 1.914216 0.056282 -0.007192 271816.000000 0 0 1
-28.442591 30.070878 -13.224137 43.452462 -0.813219 1.880037 0.060213 -0.008822 40357.800000 0 0 1
-28.688991 31.441078 -13.486437 44.648444 -0.831135 1.877647 0.071939 -0.009170 104422.000000 0 0 1
-28.922631 32.178978 -12.308837 44.983471 -0.838642 1.847962 0.069659 -0.013647 23979.700000 0 0 1
-28.110111 33.467978 -12.096237 45.349783 -0.872189 1.840797 0.048583 -0.010303 210453.000000 0 0 1
-28.545561 -33.726856 -13.015237 46.062417 0.868411 1.857255 0.038073 -0.016127 -20992.000000 0 0 1
-27.477981 -32.840556 -13.226037 44.815953 0.874069 1.870376 0.047321 -0.016117 -31837.800000 0 0 1
-27.599491 -32.024556 -14.503037 44.694991 0.859478 1.901268 0.045131 -0.016377 -113761.000000 0 0 1
-27.470811 -32.843156 -15.651437 45.588221 0.874237 1.921248 0.041349 -0.017815 -105170.000000 0 0 1
-27.789691 -32.159356 -16.826937 45.712547 0.858159 1.947765 0.047432 -0.009288 -146122.000000 0 0 1
-26.969481 -32.644456 -18.027837 46.021912 0.880308 1.973300 0.040017 -0.015093 -283679.000000 0 0 1
-27.195521 -33.953256 -18.582737 47.304737 0.895465 1.974504 0.040166 -0.009002 -86501.200000 0 0 1
-26.463711 33.117478 -17.988937 46.051028 -0.896613 1.972113 0.039592 -0.020262 -462806.000000 0 0 1
-26.531231 31.747778 -18.837537 45.460757 -0.874670 1.998046 0.041629 -0.020304 945142.000000 0 0 1
-27.833821 31.118378 -18.917237 45.835978 -0.841056 1.996230 0.061010 -0.018712 1611280.000000 0 0 1
-28.750241 31.814578 -19.814437 47.237227 -0.835951 2.003654 0.057292 -0.010603 952128.000000 0 0 1
-30.255191 31.384478 -19.826337 47.889933 -0.803717 1.997638 0.062470 -0.022353 756118.000000 0 0 1
-30.542441 30.105678 -20.362537 47.474472 -0.778197 2.014088 0.064023 -0.025261 -364048.000000 0 0 1
-31.921741 29.891478 -20.333637 48.228154 -0.752565 2.006020 0.073552 -0.025680 -266277.000000 0 0 1
-32.428771 28.671278 -21.265037 48.227266 -0.723978 2.027435 0.083048 -0.024380 -308182.000000 0 0 1
-33.747201 28.272078 -21.021237 48.786026 -0.697345 2.016271 0.077402 -0.028265 -255582.000000 0 0 1
-34.068161 27.155878 -21.865237 48.745973 -0.672973 2.035944 0.075429 -0.015317 -609530.000000 0 0 1
-35.510052 26.674878 -21.906837 49.521939 -0.644264 2.029032 0.072397 -0.011521 -434235.000000 0 0 1
-36.394541 27.420178 -22.724437 50.919827 -0.645683 2.033399 0.068814 -0.010169 143737.000000 0 0 1
36.365638 26.481678 -23.267337 50.646894 0.629406 2.048119 0.066430 -0.008552 304020.000000 0 0 1
35.552118 26.931078 -24.514237 50.893849 0.648290 2.073360 0.067695 -0.019842 -56687.100000 0 0 1
36.236698 26.935878 -25.719067 51.962585 0.639220 2.088578 0.081265 -0.016923 -393357.000000 0 0 1
35.389188 27.375878 -26.768747 52.138269 0.658414 2.109960 0.093719 -0.017569 -28843.600000 0 0 1
36.230908 27.900778 -27.910147 53.573393 0.656230 2.118784 0.100866 -0.013586 19019.900000 0 0 1
-36.693861 26.832278 -28.427027 53.614424 -0.631391 2.129647 0.067884 0.009571 -369137.000000 0 0 1
-36.062368 27.159778 -29.653467 54.013665 -0.645504 2.151963 0.038615 0.010575 -291859.000000 0 0 1
-35.606609 25.826378 -30.381237 53.458881 -0.627521 2.175247 0.025058 0.012050 1040620.000000 0 0 1
-34.553446 25.152278 -29.662207 52.023305 -0.629222 2.177511 0.027669 0.012023 312963.000000 0 0 1
-33.229881 25.607178 -29.803337 51.460581 -0.656560 2.188481 0.029588 0.023881 162950.000000 0 0 1
-32.252451 24.793578 -28.856827 49.876433 -0.655384 2.187766 0.028494 0.008352 -54220.800000 0 0 1
-32.069211 23.414978 -29.204817 49.291143 -0.630668 2.204950 0.037758 0.004779 330088.000000 0 0 1
-32.803551 22.507878 -28.353567 48.852864 -0.601364 2.190000 0.029227 -0.000617 179417.000000 0 0 1
-32.636101 21.084178 -28.885597 48.415239 -0.573585 2.210082 0.025363 -0.007193 292453.000000 0 0 1
-31.309281 20.597778 -28.742977 47.230268 -0.581895 2.225055 0.066229 -0.014013 254921.000000 0 0 1
-31.310771 19.260878 -29.218147 46.957916 -0.551486 2.242371 0.053810 -0.020453 -415976.000000 0 0 1
-29.882571 18.781378 -29.423087 45.950258 -0.561117 2.265717 0.083456 -0.031232 -824305.000000 0 0 1
-29.207191 19.291178 -30.525567 46.443727 -0.583717 2.287973 0.097664 -0.035027 -236756.000000 0 0 1
-27.858021 18.953778 -30.681767 45.570669 -0.597430 2.309431 0.099080 -0.039181 -84216.000000 0 0 1
-27.581061 17.557978 -31.350867 45.297620 -0.566894 2.335202 0.098778 -0.035012 -387482.000000 0 0 1
-27.994481 16.481278 -30.548917 44.593271 -0.532094 2.325478 0.072929 -0.027581 67496.900000 0 0 1
-27.978211 15.296178 -31.341237 44.710474 -0.500320 2.347570 0.044613 -0.017260 -22198.300000 0 0 1
-28.473411 13.966178 -30.597327 44.067967 -0.456018 2.338273 0.032932 -0.012737 247079.000000 0 0 1
-29.888551 13.953678 -30.456777 44.895945 -0.436783 2.316360 0.020931 -0.016478 291818.000000 0 0 1
-30.422281 12.642578 -30.375567 44.810992 -0.393856 2.315644 0.015866 -0.011249 -97222.500000 0 0 1
-30.292601 11.828478 -29.045927 43.602987 -0.372268 2.299825 0.010535 -0.018221 -418849.000000 0 0 1
-30.844921 12.399178 -27.864007 43.376856 -0.382216 2.268383 0.002198 -0.016673 243247.000000 0 0 1
-30.859771 11.431678 -26.791997 42.436068 -0.354766 2.254089 0.004944 -0.002355 -172462.000000 0 0 1
-30.551351 11.996278 -25.450937 41.533672 -0.374162 2.230368 -0.005342 -0.015924 256726.000000 0 0 1
-29.200761 12.450778 -25.373317 40.638793 -0.403044 2.245111 0.010021 -0.018646 305030.000000 0 0 1
-28.956121 13.057378 -24.119137 39.883390 -0.423633 2.220237 0.010668 -0.011988 -45472.300000 0 0 1
-27.461251 13.236178 -23.801637 38.676021 -0.449140 2.233703 0.029559 -0.010810 -370345.000000 0 0 1
-26.703341 14.062378 -24.740637 39.024582 -0.484712 2.257480 0.044899 -0.019996 1028080.000000 0 0 1
-25.325691 14.219078 -24.388037 37.925574 -0.511591 2.269270 0.049654 -0.020217 643042.000000 0 0 1
-24.943861 14.812578 -23.002037 37.022998 -0.535875 2.241185 0.045278 -0.013497 -1080190.000000 0 0 1
-25.396671 16.141678 -22.699237 37.693501 -0.566173 2.217057 0.057551 -0.020487 154585.000000 0 0 1
-25.339601 16.426778 -21.310037 36.960142 -0.575155 2.185318 0.048530 -0.009539 53459.200000 0 0 1
-26.689651 16.641778 -20.565037 37.579343 -0.557541 2.149863 0.040095 -0.011452 512702.000000 0 0 1
-27.558591 15.490478 -20.566337 37.714786 -0.512080 2.147558 0.037979 -0.009388 724987.000000 0 0 1
-28.836851 15.848078 -20.049937 38.532136 -0.502519 2.118049 0.029080 -0.005220 -269846.000000 0 0 1
-29.884191 14.720078 -20.147837 38.931747 -0.457687 2.114743 0.002939 -0.008374 132155.000000 0 0 1
-30.538541 14.420178 -21.390137 39.976018 -0.441158 2.135392 -0.004977 -0.005428 223756.000000 0 0 1
-31.424581 15.434078 -21.774037 41.228919 -0.456540 2.127188 0.001430 0.003151 -626904.000000 0 0 1
-31.877281 15.408278 -23.293437 42.381131 -0.450249 2.152703 0.010111 0.001031 -119281.000000 0 0 1
-32.793901 14.414678 -23.685337 42.944360 -0.414133 2.155000 0.009815 -0.003888 153528.000000 0 0 1
-33.237051 14.695678 -25.022487 44.122436 -0.416305 2.173795 0.023919 -0.014681 539493.000000 0 0 1
-34.574751 13.976378 -25.455867 45.152560 -0.384153 2.169745 0.005225 -0.011012 685406.000000 0 0 1
-34.570114 12.617978 -25.747857 44.913899 -0.349972 2.181289 0.023719 -0.014882 26196.700000 0 0 1
-34.527857 11.743078 -24.645437 44.016705 -0.327832 2.165075 0.014123 -0.014230 -232695.000000 0 0 1
-34.756761 10.271378 -25.040217 44.051630 -0.287343 2.175391 0.018061 -0.016471 -416490.000000 0 0 1
-36.063235 10.001578 -25.449737 45.257901 -0.270535 2.167993 0.040134 -0.019135 -310380.000000 0 0 1
-36.051462 8.873978 -26.268787 45.480815 -0.241350 2.186557 0.025735 0.001837 -721130.000000 0 0 1
36.268398 8.327678 -26.597147 45.740082 0.225700 2.191348 0.054376 -0.007881 -490374.000000 0 0 1
35.583808 7.698678 -25.495987 44.446849 0.213069 2.181725 0.042662 0.000333 -311106.000000 0 0 1
34.454888 7.039878 -25.974407 43.719206 0.201547 2.206966 0.051632 0.001740 -566915.000000 0 0 1
33.529448 6.584278 -24.862337 42.257690 0.193906 2.199814 0.053644 -0.007389 -111176.000000 0 0 1
34.221618 5.588378 -24.130937 42.245132 0.161871 2.178778 0.046090 -0.014799 487346.000000 0 0 1
33.390448 4.968978 -23.142037 40.928799 0.147730 2.171741 0.039516 -0.013132 298400.000000 0 0 1
34.128918 3.866078 -22.302537 40.952811 0.112798 2.146698 0.034692 -0.016493 251088.000000 0 0 1
34.434578 2.645778 -22.974237 41.479584 0.076684 2.157800 0.038847 -0.022000 1324580.000000 0 0 1
35.860628 2.357778 -22.926637 42.628329 0.065654 2.138653 0.073367 -0.010390 1516070.000000 0 0 1
36.330138 1.040578 -23.618537 43.345092 0.028634 2.147061 0.089597 -0.010582 136120.000000 0 0 1
35.855008 -0.116722 -22.964237 42.578767 -0.003255 2.140444 0.054255 -0.009935 265330.000000 0 0 1
36.699618 -1.156322 -23.432737 43.557918 -0.031497 2.138820 0.073536 -0.021018 542332.000000 0 0 1
-23.454361 29.339778 27.291388 46.430050 -0.896418 0.942465 0.062044 -0.025772 -938151.000000 0 0 1
-24.798261 29.543478 26.931458 47.043324 -0.872499 0.961266 0.064159 -0.024670 292073.000000 0 0 1
-24.956561 29.136978 25.592798 46.117077 -0.862526 0.982490 0.058700 -0.016568 -286763.000000 0 0 1
-25.267391 27.583978 25.426648 45.230867 -0.829202 0.973810 0.065766 -0.018181 215755.000000 0 0 1
-26.558631 27.113778 25.837768 45.914139 -0.795741 0.973098 0.067911 -0.015054 707654.000000 0 0 1
-26.730241 26.806778 27.223618 46.628688 -0.786828 0.947348 0.072949 -0.020660 -860556.000000 0 0 1
-26.032741 25.536278 27.783248 45.844454 -0.775771 0.919733 0.069022 -0.018235 452871.000000 0 0 1
-24.616561 25.544378 27.905088 45.135178 -0.803893 0.904275 0.070353 -0.021941 210344.000000 0 0 1
-24.288361 26.194978 29.106088 46.078908 -0.823147 0.887107 0.059585 -0.025839 -986856.000000 0 0 1
-22.877561 25.971878 29.619988 45.555076 -0.848658 0.862946 0.060277 -0.022764 -1893860.000000 0 0 1
-21.843661 26.452178 28.855198 44.827288 -0.880533 0.871477 0.066083 -0.025869 578003.000000 0 0 1
-20.615561 26.389578 29.662978 44.735930 -0.907624 0.845886 0.068891 -0.030118 1254010.000000 0 0 1
-19.832661 25.069378 29.478788 43.483412 -0.901499 0.825851 0.080332 -0.022635 -719766.000000 0 0 1
-19.215861 24.879778 28.222378 42.246364 -0.913145 0.839221 0.084082 -0.019686 306012.000000 0 0 1
-20.026461 24.138178 27.300778 41.581766 -0.878230 0.854552 0.093803 -0.023873 100802.000000 0 0 1
-19.882561 22.604778 27.392038 40.701548 -0.849382 0.832542 0.081636 -0.013414 19522.200000 0 0 1
-20.497861 22.061278 28.528728 41.481931 -0.822117 0.812427 0.074516 -0.014536 -66435.200000 0 0 1
-20.610161 20.642678 28.523538 40.798176 -0.786186 0.796606 0.078708 -0.019607 97887.800000 0 0 1
-21.197661 20.162078 29.876438 41.814493 -0.760365 0.774888 0.086189 -0.027953 -87458.700000 0 0 1
-20.285761 20.277078 30.925528 42.178908 -0.785184 0.747782 0.074443 -0.029349 33032.700000 0 0 1
-20.919261 19.938978 32.151964 43.231090 -0.761410 0.732174 0.067575 -0.026076 66062.100000 0 0 1
-20.060261 20.341378 33.381032 43.937217 -0.792356 0.707877 0.067438 -0.029766 -336160.000000 0 0 1
-20.052261 21.780478 33.678922 44.841412 -0.826687 0.721119 0.050028 -0.030503 95606.400000 0 0 1
-19.128261 22.539378 32.906444 44.235145 -0.867081 0.731912 0.069990 -0.023782 759677.000000 0 0 1
-17.647761 22.457578 33.423055 43.964610 -0.904758 0.707135 0.060810 -0.021590 384558.000000 0 0 1
-16.949861 21.236978 33.409682 43.064067 -0.897197 0.682793 0.063350 -0.023449 -739958.000000 0 0 1
-15.636061 21.531378 33.778644 43.000970 -0.942703 0.667241 0.058587 -0.024889 -753513.000000 0 0 1
-14.624061 20.386978 33.460735 41.822396 -0.948538 0.643389 0.052712 -0.023464 743589.000000 0 0 1
-13.241161 20.620778 33.740055 41.700554 -0.999976 0.628172 0.047576 -0.019277 624081.000000 0 0 1
-12.929561 20.549978 -32.942677 40.923039 -1.009199 2.506457 0.061089 -0.032792 1206120.000000 0 0 1
-11.352661 20.504478 -32.677387 40.213532 -1.065142 2.519390 0.047536 -0.020417 1790140.000000 0 0 1
-10.649161 21.727878 -32.865377 40.812232 -1.115088 2.506948 0.050217 -0.030560 868800.000000 0 0 1
-9.266461 21.444278 -32.554757 40.069147 -1.162912 2.519163 0.042025 -0.018683 870321.000000 0 0 1
-8.297561 22.647778 -32.453757 40.435352 -1.219609 2.502452 0.052186 -0.019866 63150.100000 0 0 1
-8.354161 23.439878 -31.289207 39.977923 -1.228424 2.469728 0.056769 -0.018915 -126528.000000 0 0 1
-7.767361 22.822778 -30.188517 38.633633 -1.242759 2.467711 0.044335 -0.020148 -419475.000000 0 0 1
-7.198761 23.780778 -29.125987 38.284078 -1.276852 2.435319 0.060697 -0.021755 436202.000000 0 0 1
-6.201761 24.632478 -29.723917 39.099003 -1.324151 2.434451 0.063495 -0.022984 323582.000000 0 0 1
-5.927461 25.693078 -28.834727 39.073143 -1.344061 2.400851 0.086272 -0.017766 -618541.000000 0 0 1
-4.559161 26.323778 -29.011717 39.438648 -1.399302 2.397373 0.058773 -0.024204 -784531.000000 0 0 1
-3.478061 25.512378 -28.555367 38.449802 -1.435303 2.407839 0.073008 -0.019617 603427.000000 0 0 1
-2.190161 25.765078 -29.079437 38.913361 -1.485995 2.414766 0.094993 -0.022685 275173.000000 0 0 1
-1.496361 27.111478 -28.759097 39.551953 -1.515659 2.384917 0.097887 -0.037232 -772148.000000 0 0 1
-0.843161 27.213678 -27.510277 38.705433 -1.539823 2.361374 0.104931 -0.049180 313108.000000 0 0 1
-0.141361 28.440778 -27.428367 39.512190 -1.565826 2.338069 0.113840 -0.046326 -952938.000000 0 0 1
0.437639 28.621978 -26.050427 38.704443 1.555507 2.309135 0.118369 -0.057326 14273.600000 0 0 1
1.498339 27.842978 -25.546767 37.816844 1.517034 2.312492 0.141175 -0.068008 956204.000000 0 0 1
2.722739 27.875978 -26.309197 38.427299 1.473432 2.324918 0.135253 -0.068974 958510.000000 0 0 1
4.012339 28.034678 -25.394587 38.038494 1.428641 2.301780 0.139117 -0.071094 706210.000000 0 0 1
4.444839 26.828778 -24.759837 36.777567 1.406613 2.309367 0.142757 -0.066681 167865.000000 0 0 1
5.784439 27.045278 -24.355237 36.852196 1.360091 2.292800 0.099098 -0.059143 -204621.000000 0 0 1
6.314039 25.723078 -23.721337 35.556232 1.330093 2.301172 0.104514 -0.055851 -171476.000000 0 0 1
7.365239 26.021978 -22.837237 35.396744 1.294972 2.272054 0.102395 -0.053029 -501374.000000 0 0 1
8.084739 24.933078 -22.379137 34.465158 1.257236 2.277495 0.094353 -0.043235 25968.300000 0 0 1
9.575239 25.214678 -22.109837 34.875637 1.207869 2.257462 0.082612 -0.025417 -660033.000000 0 0 1
9.794439 25.859378 -20.815737 34.611174 1.208735 2.216069 0.094520 -0.026883 -160766.000000 0 0 1
11.156439 26.140778 -20.594437 35.098963 1.167416 2.197840 0.112919 -0.032562 47389.600000 0 0 1
11.916939 24.900778 -20.044837 34.115358 1.124434 2.198837 0.074396 -0.013054 -531137.000000 0 0 1
12.223439 23.971678 -21.076437 34.179965 1.099251 2.235253 0.070266 -0.015211 -37683.900000 0 0 1
12.491639 22.699378 -20.601737 33.101878 1.067717 2.242568 0.051179 -0.002609 -274251.000000 0 0 1
12.722639 21.735878 -21.739337 33.270297 1.041234 2.282884 0.057350 -0.009870 64138.800000 0 0 1
11.525239 21.448578 -22.439537 33.112013 1.077723 2.315407 0.063157 -0.022104 346846.000000 0 0 1
11.847039 20.753778 -23.661037 33.629099 1.052096 2.351231 0.042815 -0.031565 162080.000000 0 0 1
10.885539 21.005878 -24.861937 34.319932 1.092684 2.380984 0.061926 -0.029985 913058.000000 0 0 1
9.574639 20.432978 -24.650337 33.418848 1.132593 2.400332 0.054538 -0.034516 312538.000000 0 0 1
8.844939 20.743178 -25.770887 34.243992 1.167739 2.422747 0.056449 -0.037063 29627.000000 0 0 1
7.387839 20.142478 -25.825157 33.574370 1.219252 2.448373 0.072814 -0.045450 1801220.000000 0 0 1
6.229139 20.951278 -25.511107 33.594267 1.281804 2.433169 0.109874 -0.050676 694892.000000 0 0 1
6.238639 21.620278 -24.222337 33.061740 1.289872 2.392988 0.110207 -0.057370 314847.000000 0 0 1
4.837439 21.915478 -23.528737 32.516003 1.353548 2.379807 0.135245 -0.061085 872291.000000 0 0 1
4.222839 23.085778 -23.974437 33.549354 1.389877 2.366851 0.140503 -0.063863 1338440.000000 0 0 1
2.826539 23.215078 -23.570837 33.204119 1.449638 2.360120 0.148042 -0.065293 1533290.000000 0 0 1
2.039039 24.196278 -24.494137 34.490292 1.486724 2.360543 0.140606 -0.056427 191539.000000 0 0 1
0.631439 24.045678 -24.383937 34.251565 1.544542 2.363007 0.146586 -0.074027 190.424000 0 0 1
0.084839 24.850878 -25.374077 35.516434 1.567382 2.366608 0.128484 -0.061703 -848035.000000 0 0 1
-1.391761 24.570278 -25.587357 35.501386 -1.514213 2.375669 0.137261 -0.055931 -636809.000000 0 0 1
-1.734961 23.381278 -26.251367 35.196996 -1.496729 2.412593 0.152843 -0.060946 -781038.000000 0 0 1
-3.078661 23.318878 -26.589767 35.500196 -1.439531 2.417353 0.142284 -0.044417 -638289.000000 0 0 1
-3.537761 21.949878 -27.117227 35.066464 -1.410996 2.454841 0.105251 -0.043545 -319859.000000 0 0 1
-2.936761 21.659078 -28.371757 35.814757 -1.436028 2.485170 0.132228 -0.054368 21751.200000 0 0 1
-3.303161 20.431678 -29.001297 35.629195 -1.410515 2.521760 0.093359 -0.042994 -270304.000000 0 0 1
-4.554461 20.494578 -29.880337 36.518562 -1.352122 2.529110 0.065921 -0.033409 -315552.000000 0 0 1
-4.295761 20.965378 -31.218057 37.849276 -1.368696 2.540643 0.063863 -0.034510 -38681.300000 0 0 1
-3.861861 22.280278 -31.328877 38.637071 -1.399171 2.516400 0.080191 -0.031926 -27490.300000 0 0 1
-3.159861 22.515278 -32.735947 39.856802 -1.431364 2.534551 0.064317 -0.026588 -98096.700000 0 0 1
-2.097061 21.635478 -33.004397 39.519385 -1.474171 2.559192 0.069554 -0.025163 -96049.700000 0 0 1
-1.745761 21.737578 33.738520 40.172848 -1.490658 0.573819 0.066349 -0.012416 -222321.000000 0 0 1
-0.691661 20.744978 33.221601 39.172788 -1.537468 0.558448 0.078938 -0.009967 -135467.000000 0 0 1
-1.140361 19.417578 33.074287 38.369926 -1.512135 0.531625 0.067058 0.006864 -430068.000000 0 0 1
-0.198461 18.605278 32.473724 37.426441 -1.560130 0.520304 0.077551 -0.004736 -573616.000000 0 0 1
-0.806561 17.286878 32.010418 36.388921 -1.524173 0.495618 0.054365 0.000789 214902.000000 0 0 1
-1.784261 17.538778 31.005598 35.667064 -1.469413 0.517000 0.055877 0.000349 311637.000000 0 0 1
-2.171661 16.339678 30.367358 34.552534 -1.438663 0.497298 0.041159 -0.002779 -484623.000000 0 0 1
-3.188461 16.497478 29.260878 33.742141 -1.379881 0.521263 0.057920 -0.002096 187654.000000 0 0 1
-4.549161 16.750478 29.621458 34.332261 -1.305609 0.530038 0.052116 -0.003632 532729.000000 0 0 1
-5.012061 17.991778 29.130188 34.603363 -1.299109 0.570129 0.062300 -0.005105 -757112.000000 0 0 1
-6.486161 18.267578 29.324408 35.152462 -1.229617 0.584104 0.044446 -0.009551 -402848.000000 0 0 1
-7.279361 17.457078 28.458768 34.170750 -1.175733 0.586577 0.033021 -0.008273 1259730.000000 0 0 1
-8.683861 17.859978 28.488848 34.727550 -1.118234 0.608768 0.026554 0.004215 1736340.000000 0 0 1
-9.610161 16.942778 27.583708 33.767942 -1.054834 0.614849 0.024511 -0.001611 -35029.000000 0 0 1
-9.764961 15.624978 28.064358 33.572349 -1.012227 0.580959 0.026037 -0.009035 86396.200000 0 0 1
-10.724861 15.490378 29.102008 34.668449 -0.965219 0.574548 0.028526 -0.006121 -453731.000000 0 0 1
-11.128361 13.999478 29.375608 34.391164 -0.899165 0.546860 0.042885 -0.010177 163024.000000 0 0 1
-10.067061 13.118978 29.743068 34.030918 -0.916273 0.507420 0.052508 -0.010312 102925.000000 0 0 1
-9.432661 13.363778 30.954578 35.010735 -0.956163 0.486135 0.057353 -0.012086 -574243.000000 0 0 1
-10.053561 12.807878 32.196921 36.079878 -0.905299 0.468207 0.075910 -0.014640 -464583.000000 0 0 1
-10.179861 11.377478 32.236061 35.668477 -0.840896 0.442302 0.075154 -0.018084 398035.000000 0 0 1
-10.678261 10.965278 33.533517 36.861353 -0.798658 0.428187 0.087130 -0.024961 -296209.000000 0 0 1
-10.867861 9.459978 33.752556 36.699273 -0.716250 0.403464 0.076293 -0.017336 -560581.000000 0 0 1
-9.688861 8.758378 -34.015271 36.436546 -0.735001 2.774984 0.094110 -0.027282 -216004.000000 0 0 1
-9.660261 8.169878 -32.728897 35.089147 -0.702004 2.772723 0.120769 -0.038279 -145877.000000 0 0 1
-8.936661 9.044778 -31.687837 34.143680 -0.791411 2.760001 0.108812 -0.040814 -210100.000000 0 0 1
-9.587361 10.281478 -31.312487 34.323434 -0.820319 2.719606 0.090243 -0.035068 513334.000000 0 0 1
-8.724261 11.031078 -30.474307 33.563087 -0.901641 2.709212 0.086523 -0.038221 587296.000000 0 0 1
-7.590461 11.856178 -31.170117 34.201758 -1.001333 2.717373 0.069896 -0.037111 242566.000000 0 0 1
-8.180061 13.011578 -31.673187 35.205189 -1.009558 2.689818 0.061613 -0.026999 -213213.000000 0 0 1
-7.297161 13.938278 -32.240867 35.874749 -1.088499 2.687607 0.043621 -0.021579 -270172.000000 0 0 1
-7.877061 15.378178 -32.510777 36.816940 -1.097418 2.653094 0.036531 -0.011983 -73283.700000 0 0 1
-8.797961 15.440778 -33.572347 37.985842 -1.052888 2.654745 0.040948 -0.011128 4377.000000 0 0 1
-9.116061 16.777678 -33.919167 38.924323 -1.073077 2.628872 0.048136 -0.008739 -557752.000000 0 0 1
-9.725461 16.871878 32.698898 38.058676 -1.047888 0.537150 0.040765 -0.008470 319658.000000 0 0 1
-10.899661 16.202378 32.313491 37.755548 -0.978615 0.543584 0.038573 -0.012109 608656.000000 0 0 1
-12.101361 16.558878 33.035746 38.884443 -0.939692 0.555593 0.048951 -0.020352 -93787.600000 0 0 1
-13.304761 15.862878 32.408222 38.456995 -0.872878 0.568493 0.046763 -0.024281 -586507.000000 0 0 1
-13.221661 14.415678 32.363911 37.815960 -0.828574 0.543649 0.045103 -0.023921 310883.000000 0 0 1
-14.213361 13.781478 33.167991 38.627250 -0.769972 0.538131 0.038013 -0.014149 62482.500000 0 0 1
-14.273061 12.214478 33.008740 37.980135 -0.707835 0.517406 0.044142 -0.017251 -16683.100000 0 0 1
-14.511961 11.744978 31.674208 36.766792 -0.680405 0.532600 0.025875 -0.011548 372164.000000 0 0 1
-13.365961 11.064378 31.170438 35.674439 -0.691465 0.507942 0.038054 -0.015756 -149553.000000 0 0 1
-13.454661 10.643878 29.694968 34.294477 -0.669286 0.523886 0.032552 -0.013259 -18246.300000 0 0 1
-14.146161 9.406878 29.599078 34.127828 -0.586832 0.521043 0.021092 -0.007257 65285.700000 0 0 1
-14.171661 8.978378 28.265908 32.869573 -0.564720 0.535641 0.006234 -0.005566 273632.000000 0 0 1
-15.127561 7.767578 27.949048 32.715863 -0.474367 0.546600 0.027235 -0.000415 303764.000000 0 0 1
-14.822861 6.522078 28.510518 32.788784 -0.414508 0.516566 0.018030 0.002195 40459.200000 0 0 1
-15.635861 5.531478 27.897078 32.454959 -0.340028 0.536383 0.026180 0.005574 -12505.400000 0 0 1
-14.885161 4.181978 27.779248 31.792194 -0.273889 0.507884 0.032436 0.008637 -27045.500000 0 0 1
-13.765361 4.069778 26.923058 30.510643 -0.287464 0.489825 0.027826 0.005138 -38825.300000 0 0 1
-14.009861 4.059078 25.553238 29.423125 -0.282008 0.518679 0.024779 0.000458 106492.000000 0 0 1
-12.732761 3.883678 24.636318 28.002756 -0.296051 0.495393 0.020408 0.001174 417331.000000 0 0 1
-12.181461 2.617478 24.873478 27.819581 -0.211656 0.464379 0.023749 0.001007 -104565.000000 0 0 1
-11.404261 2.205078 23.766798 26.453360 -0.190999 0.454589 0.028227 -0.007077 -577772.000000 0 0 1
-10.478061 1.038278 24.084928 26.285957 -0.098768 0.412139 0.034330 -0.005255 -271987.000000 0 0 1
-9.197161 1.579578 24.369888 26.095484 -0.170087 0.365700 0.034867 -0.008377 -8240.820000 0 0 1
-8.335361 0.564178 24.891348 26.255966 -0.067582 0.323822 0.030937 -0.003774 462764.000000 0 0 1
-6.854861 0.978678 24.654088 25.608026 -0.141813 0.273807 0.044791 -0.011276 -361203.000000 0 0 1
-6.551161 1.257678 23.286748 24.223379 -0.189670 0.278992 0.044162 -0.010894 1419980.000000 0 1 0
-5.178461 1.557378 22.888098 23.518225 -0.292137 0.232007 0.041485 -0.011272 1468240.000000 0 1 0
-4.596061 2.884278 23.491568 24.110094 -0.560434 0.227001 0.051685 -0.011503 -474707.000000 0 1 0
-4.373961 2.770078 24.851778 25.385345 -0.564553 0.205391 0.054846 -0.008084 -116742.000000 0 0 1
-4.041361 4.004978 25.443378 26.071784 -0.780876 0.220002 0.055781 -0.007349 1741.000000 0 0 1
4.744239 -23.654822 12.537263 27.188994 -1.372861 1.091545 0.083713 -0.024320 184657.000000 0 0 1
4.337039 -24.841222 13.236563 28.479867 -1.397948 1.087422 0.095121 -0.033995 -1305140.000000 0 0 1
2.966439 -24.984822 13.120563 28.375875 -1.452620 1.090114 0.074020 -0.030230 -924763.000000 0 0 1
2.406539 -26.152392 13.852063 29.692065 -1.479035 1.085439 0.057464 -0.026721 -366934.000000 0 0 1
2.432239 -26.039532 15.273063 30.285962 -1.477661 1.042231 0.066320 -0.030077 14494.900000 0 0 1
2.488839 -27.314772 15.862763 31.684671 -1.479930 1.046453 0.054916 -0.026294 -351050.000000 0 0 1
2.096839 -27.263172 17.344463 32.380668 -1.494036 1.005528 0.052839 -0.022551 -111987.000000 0 0 1
3.125639 -26.710662 18.120963 32.428358 -1.454308 0.977858 0.063995 -0.030874 138395.000000 0 0 1
3.017239 -27.070442 19.455363 33.472731 -1.459796 0.950557 0.061783 -0.026338 -32489.100000 0 0 1
3.858339 -26.176572 20.372963 33.393972 -1.424453 0.914636 0.059359 -0.025192 -13261.700000 0 0 1
3.153839 -25.032122 20.793963 32.694690 -1.445465 0.881487 0.064160 -0.022546 313748.000000 0 0 1
3.998639 -24.262322 21.615463 32.739542 -1.407456 0.849678 0.067579 -0.024645 3551.260000 0 0 1
3.258739 -23.055422 22.186763 32.162468 -1.430383 0.809537 0.077598 -0.028674 274417.000000 0 0 1
2.594239 -22.101622 21.338963 30.831204 -1.453953 0.806371 0.089528 -0.030364 838534.000000 0 0 1
3.537839 -21.310122 20.605963 29.853699 -1.406280 0.808987 0.082688 -0.021333 639360.000000 0 0 1
2.797639 -20.212522 19.740063 28.390895 -1.433259 0.801965 0.063329 -0.028712 143979.000000 0 0 1
2.208839 -19.264522 20.583863 28.278900 -1.456636 0.755560 0.047943 -0.025859 -163086.000000 0 0 1
1.410739 -18.364722 19.856563 27.083875 -1.494129 0.747853 0.039966 -0.036598 -22533.400000 0 0 1
1.189339 -17.039322 20.603363 26.762877 -1.501110 0.692192 0.043441 -0.031194 66403.800000 0 0 1
2.354339 -16.248522 20.529763 26.287422 -1.426902 0.674574 0.012106 -0.017848 33321.100000 0 0 1
1.988739 -14.939222 20.995763 25.844874 -1.438452 0.622581 0.023547 -0.013389 652895.000000 0 0 1
3.096939 -13.849822 20.821263 25.197889 -1.350807 0.598272 -0.008999 -0.004487 -214128.000000 0 0 1
3.361839 -13.487722 19.487863 23.937365 -1.326522 0.619586 -0.027446 -0.003697 -100549.000000 0 1 0
2.295139 -13.041522 18.656063 22.877886 -1.396593 0.617268 -0.006167 -0.000834 387413.000000 0 1 0
1.414439 -11.838022 19.091863 22.508635 -1.451877 0.558215 -0.001357 -0.003588 -487865.000000 0 1 0
2.088839 -10.637422 19.048763 21.917422 -1.376896 0.517386 0.008873 0.001295 -180179.000000 0 1 0
1.510639 -9.685022 19.967663 22.243859 -1.416066 0.456341 0.016113 -0.012582 1203790.000000 0 1 0
0.011939 -9.242422 19.791063 21.842818 -1.569505 0.436901 0.018502 -0.017989 720685.000000 0 1 0
-0.297961 -8.313622 20.837163 22.436409 1.534972 0.379848 0.027460 -0.028078 -1486750.000000 0 1 0
-1.629761 -7.998322 20.852263 22.392994 1.369785 0.373116 0.034425 -0.024852 -1011530.000000 0 1 0
-2.144061 -7.235322 22.102863 23.355587 1.282708 0.329009 0.035460 -0.022979 -30014.600000 0 1 0
-2.134161 -8.098422 23.286663 24.746874 1.313126 0.345240 0.029379 -0.007837 38603.800000 0 1 0
-2.317861 -7.355522 24.458263 25.645328 1.265528 0.305448 0.023424 -0.002848 -45949.500000 0 0 1
-2.390261 -8.273522 25.692563 27.097460 1.289549 0.323420 0.024126 0.000256 539170.000000 0 0 1
-1.127461 -8.851922 26.013163 27.501134 1.444109 0.330457 0.028816 -0.009478 276889.000000 0 0 1
-1.303461 -9.941122 26.908263 28.715493 1.440422 0.356671 0.039937 -0.010167 701997.000000 0 0 1
-0.011461 -10.825222 26.879463 28.977424 1.569738 0.382860 0.040432 -0.014084 398177.000000 0 0 1
1.162839 -10.363522 27.465263 29.378487 -1.459059 0.362885 0.040580 -0.012566 -589162.000000 0 0 1
1.970639 -11.426422 27.839663 30.157808 -1.400013 0.394646 0.043958 -0.020146 72191.500000 0 0 1
3.093939 -11.032522 28.838663 31.031557 -1.297381 0.378193 0.055784 -0.024573 590742.000000 0 0 1
2.474039 -10.845322 30.103763 32.093277 -1.346514 0.353957 0.055228 -0.034610 255425.000000 0 0 1
3.453439 -10.300922 30.955363 32.806551 -1.247317 0.337539 0.064054 -0.024921 -74549.600000 0 0 1
2.968339 -9.934122 32.377363 33.996933 -1.280439 0.309909 0.059981 -0.031496 -106306.000000 0 0 1
2.593239 -11.026022 33.215063 35.093283 -1.339802 0.328649 0.059821 -0.036735 79056.100000 0 0 1
2.258639 -10.684422 -33.517771 35.251941 -1.362468 2.826625 0.059559 -0.044016 -1194580.000000 0 0 1
3.360839 -10.720422 -32.500171 34.387262 -1.267002 2.808765 0.051811 -0.025340 -686871.000000 0 0 1
4.350239 -9.723822 -32.669271 34.362168 -1.150124 2.826390 0.038444 -0.036912 115892.000000 0 0 1
4.597139 -8.875422 -31.560871 33.105821 -1.092882 2.834886 0.053674 -0.028525 -521846.000000 0 0 1
3.556539 -7.789122 -31.199371 32.353055 -1.142465 2.873738 0.040742 -0.019595 -195718.000000 0 0 1
3.568139 -6.684722 -32.065571 32.948718 -1.080495 2.909540 0.058270 -0.023738 -110938.000000 0 0 1
2.885739 -5.592322 -31.528071 32.149974 -1.094417 2.944583 0.049978 -0.013146 -188316.000000 0 0 1
2.979739 -4.289222 -32.369571 32.788190 -0.963634 2.981626 0.056325 -0.017689 -80646.300000 0 0 1
2.313839 -4.300222 -33.603371 33.956330 -1.077155 2.997284 0.058392 -0.027922 -394817.000000 0 0 1
2.498239 -3.121522 33.720163 33.956362 -0.895856 0.118017 0.069810 -0.011342 83662.800000 0 0 1
1.902239 -3.170022 32.273963 32.485016 -1.030325 0.114052 0.075129 -0.016895 273800.000000 0 0 1
0.491939 -3.159122 32.245163 32.403281 -1.416317 0.098830 0.068337 -0.020248 -328044.000000 0 0 1
0.073339 -3.370422 30.895963 31.079345 -1.549040 0.108685 0.062297 -0.010327 168362.000000 0 0 1
-1.427961 -3.630722 30.636563 30.883980 1.196080 0.126664 0.053813 -0.019208 139714.000000 0 0 1
-2.249161 -2.475922 30.663063 30.844973 0.833352 0.108659 0.050027 -0.017493 -231007.000000 0 0 1
-3.561261 -2.965522 30.458163 30.808710 0.694374 0.150995 0.026030 -0.015462 -141816.000000 0 0 1
-4.591261 -1.895222 30.091363 30.498552 0.391482 0.163590 0.038800 -0.015891 -410939.000000 0 0 1
-4.545161 -1.675322 28.662863 29.069313 0.353143 0.167420 0.030243 -0.016060 -104558.000000 0 0 1
-5.545161 -0.869322 28.087263 28.642606 0.155506 0.197239 0.023709 -0.016208 -34468.800000 0 0 1
-5.729561 0.661278 28.468863 29.047226 -0.114907 0.199888 0.046532 -0.014186 -557491.000000 0 0 1
-6.973361 0.860178 29.051963 29.889534 -0.122732 0.237293 0.035410 -0.010079 -584718.000000 0 0 1
-7.407761 2.239178 28.933763 29.950818 -0.293542 0.261348 0.047791 -0.015633 -329007.000000 0 0 1
-8.840361 2.423778 29.435563 30.829841 -0.267596 0.301894 0.046253 -0.015586 -575857.000000 0 0 1
-9.751561 1.863878 28.513363 30.192365 -0.188858 0.335062 0.030908 -0.004942 -765154.000000 0 0 1
-11.040961 2.165878 28.944363 31.054308 -0.193708 0.370749 0.014810 -0.003261 -229730.000000 0 0 1
-12.160461 1.503778 28.071063 30.628790 -0.123037 0.411573 0.013576 0.003413 131845.000000 0 0 1
-12.378161 0.142778 28.348363 30.933299 -0.011534 0.411717 0.020881 0.007083 200831.000000 0 0 1
-12.284661 -0.612222 27.201663 29.853278 0.049795 0.424661 0.026151 0.007055 -1054700.000000 0 0 1
-12.169361 -2.139122 27.520463 30.166954 0.174002 0.421999 0.036920 -0.001491 397589.000000 0 0 1
-10.884261 -2.519022 28.048463 30.191537 0.227433 0.379048 0.034253 -0.005756 1654660.000000 0 0 1
-9.706461 -2.316322 27.246863 29.016759 0.234256 0.351073 0.040689 -0.011272 -39862.800000 0 0 1
-9.699761 -3.000622 25.808463 27.733840 0.300013 0.374812 0.028601 -0.004316 -472491.000000 0 0 1
-10.655461 -2.414122 24.896363 27.188155 0.222801 0.413534 0.020247 -0.002311 739490.000000 0 0 1
-10.593061 -3.037822 23.621863 26.065950 0.279280 0.436506 0.026286 -0.001206 147731.000000 0 0 1
-9.519261 -2.372522 22.707963 24.736548 0.244257 0.407808 0.026286 -0.010536 1318760.000000 0 1 0
-8.138161 -2.574822 23.049063 24.578826 0.306424 0.354671 0.024735 -0.010201 88461.000000 0 1 0
-7.298461 -2.010122 22.095463 23.356319 0.268754 0.330080 0.019898 -0.012151 643390.000000 0 1 0
-5.795661 -2.307422 22.499063 23.347842 0.378893 0.270466 0.021585 -0.011259 946622.000000 0 1 0
-5.332161 -3.672722 22.362363 23.280810 0.603161 0.281826 0.021547 -0.016288 -30812.200000 0 1 0
-5.924661 -4.579322 23.267263 24.442532 0.658013 0.311362 0.017354 -0.008541 -387816.000000 0 1 0
-5.721361 -6.089922 22.897863 24.374849 0.816592 0.349905 0.022963 -0.005660 -545407.000000 0 1 0
-6.487461 -6.545422 21.813063 23.679937 0.789845 0.399740 0.021650 -0.014278 -119252.000000 0 1 0
-6.096261 -6.025822 20.557763 22.273225 0.779587 0.395040 0.025798 -0.023778 -197746.000000 0 1 0
-7.326661 -5.971722 19.630263 21.787351 0.683861 0.448742 0.027252 -0.017889 101839.000000 0 1 0
-8.406961 -5.208522 20.083263 22.386227 0.554670 0.457576 0.035136 -0.013594 67405.400000 0 1 0
-9.392161 -4.943422 19.061363 21.817096 0.484493 0.508061 0.037766 -0.014067 796321.000000 0 1 0
-10.032261 -3.563422 19.239863 21.989011 0.341297 0.505409 0.031749 -0.013001 455459.000000 0 1 0
-9.095561 -2.585122 18.816263 21.058582 0.276916 0.465672 0.024875 -0.013799 230798.000000 0 1 0
-9.719861 -1.362622 18.764063 21.175989 0.139282 0.481932 0.025477 -0.011797 200.733000 0 1 0
-8.714361 -0.251722 18.285063 20.257023 0.028878 0.444902 0.025360 -0.007675 56377.100000 0 1 0
-7.688761 -0.028922 19.214463 20.695736 0.003762 0.380642 0.027217 -0.000626 -38852.400000 0 1 0
-7.970261 0.899378 20.272863 21.801902 -0.112366 0.376746 0.044267 -0.002650 -286737.000000 0 1 0
-7.969161 2.387978 19.911663 21.579720 -0.291138 0.395763 0.045133 -0.016418 74481.000000 0 1 0
-8.997661 2.786578 19.028363 21.232088 -0.300332 0.459650 0.034737 -0.020483 199617.000000 0 1 0
-8.773961 4.102578 18.549563 20.926057 -0.437381 0.481214 0.036413 -0.024561 -356254.000000 0 1 0
-9.763561 4.498578 17.486963 20.527012 -0.431759 0.551193 0.033348 -0.020884 -482658.000000 0 1 0
-11.098061 4.625378 17.947063 21.602272 -0.394882 0.590261 0.033637 -0.013464 -408949.000000 0 1 0
-11.899561 5.193878 16.992063 21.384718 -0.411551 0.652466 0.026203 -0.002482 -643395.000000 0 1 0
-12.005361 6.740478 16.959363 21.844513 -0.511596 0.681915 0.036571 -0.006029 233234.000000 0 1 0
-10.756361 7.361378 16.573363 21.084724 -0.600162 0.666425 0.033794 -0.012878 1043200.000000 0 1 0
-10.900661 8.706478 16.781963 21.823416 -0.673954 0.693538 0.034312 -0.014043 -393571.000000 0 1 0
-9.626261 9.495378 16.522963 21.350303 -0.778553 0.685823 0.029740 -0.015966 -611468.000000 0 1 0
-8.662561 9.340378 17.552363 21.687971 -0.823031 0.627814 0.027305 -0.014005 176300.000000 0 1 0
-7.585861 10.292478 17.519263 21.688822 -0.935648 0.630462 0.022722 -0.020762 246698.000000 0 1 0
-7.828661 11.848778 17.395663 22.456415 -0.986926 0.684649 0.005697 -0.013849 -984840.000000 0 1 0
-8.233261 12.156778 16.073863 21.770230 -0.975498 0.740188 0.014157 -0.024697 -63457.000000 0 1 0
-9.084761 13.273478 15.919763 22.630885 -0.970597 0.790552 0.029550 -0.029024 137619.000000 0 1 0
-8.793861 14.059778 14.602563 22.096249 -1.011865 0.848830 0.027444 -0.021884 690025.000000 0 1 0
-7.548461 14.759778 14.613763 22.099602 -1.098054 0.848288 0.027742 -0.011994 340068.000000 0 1 0
-7.495961 15.518878 13.424263 21.845729 -1.120823 0.909041 0.024014 -0.015197 -623472.000000 0 1 0
-6.493261 16.701078 13.492663 22.430792 -1.199988 0.925389 0.001150 -0.001157 -310028.000000 0 1 0
-5.205861 16.167878 13.688563 21.814629 -1.259291 0.892465 0.004026 -0.013208 -1298940.000000 0 1 0
-4.339661 17.237278 13.562163 22.358191 -1.324162 0.919037 0.010985 -0.017808 -926660.000000 0 1 0
-2.864261 16.874678 13.660963 21.899330 -1.402662 0.897192 0.014655 -0.022333 -730261.000000 0 1 0
-2.272061 16.487978 14.833063 22.294292 -1.433858 0.842860 0.018708 -0.018020 -394611.000000 0 1 0
-2.518761 15.097778 15.161063 21.544022 -1.405489 0.790170 0.015763 -0.013962 -990134.000000 0 1 0
-1.607561 14.508678 16.205163 21.810395 -1.460446 0.733252 0.012771 -0.003527 379894.000000 0 1 0
-0.346061 14.192478 15.548363 21.054638 -1.546418 0.739988 0.004224 -0.014807 586264.000000 0 1 0
0.646639 13.732778 16.441363 21.431887 1.523744 0.696418 0.007397 0.000197 106289.000000 0 1 0
1.656139 14.739278 16.997463 22.558876 1.458903 0.717471 0.010807 -0.007929 -542032.000000 0 1 0
1.101039 15.596178 17.922863 23.784072 1.500317 0.717327 0.008443 -0.006939 -443370.000000 0 1 0
2.010639 16.573678 18.358163 24.814343 1.450071 0.737993 0.020672 -0.010596 -376611.000000 0 1 0
1.241739 17.712578 19.125563 26.097213 1.500806 0.748283 0.020739 -0.009971 454096.000000 0 0 1
0.504639 18.600778 18.309063 26.104892 1.543673 0.793485 0.016657 -0.009011 -118650.000000 0 0 1
-0.730661 18.054578 17.894463 25.430562 -1.530349 0.790261 0.026582 -0.013203 -641458.000000 0 0 1
-1.454961 18.932878 16.849863 25.386782 -1.494099 0.845007 0.019684 -0.010314 -94018.900000 0 0 1
-1.918161 20.161578 17.390863 26.694769 -1.475942 0.861275 0.027247 -0.006232 -164783.000000 0 0 1
-2.750961 20.839978 16.508863 26.728544 -1.439551 0.905046 0.041144 -0.015982 -394549.000000 0 0 1
-3.469261 22.083578 17.077063 28.130878 -1.414973 0.918444 0.038837 -0.013707 432019.000000 0 0 1
-4.485661 21.802778 18.070863 28.671212 -1.367890 0.888884 0.044255 -0.012704 331580.000000 0 0 1
-4.902161 23.038078 18.600163 30.012502 -1.361138 0.902376 0.042372 -0.004598 -120777.000000 0 0 1
-5.989461 22.701778 19.676363 30.633375 -1.312842 0.873278 0.030683 -0.005984 459460.000000 0 0 1
-7.282661 22.431378 19.142863 30.375205 -1.256868 0.888968 0.022608 -0.010175 -36000.700000 0 0 1
-8.176461 22.160878 20.185463 31.071079 -1.217332 0.863667 0.011922 -0.008562 -234477.000000 0 0 1
-9.658061 22.214478 19.792663 31.281156 -1.160684 0.885717 0.006979 -0.007014 -275049.000000 0 0 1
-10.140961 23.512578 19.747563 32.336461 -1.163602 0.913864 0.014727 -0.007803 -412982.000000 0 0 1
-11.411161 23.645278 19.161763 32.503645 -1.121167 0.940324 0.010532 -0.006774 -65806.800000 0 0 1
-11.885061 25.114678 19.297963 33.829176 -1.128792 0.963739 0.021367 -0.007081 -204921.000000 0 0 1
-12.473961 25.407178 20.523663 34.962053 -1.114405 0.943415 0.019850 -0.007227 -8763.280000 0 0 1
-12.987061 26.728878 20.453263 36.075375 -1.118507 0.967987 0.027458 -0.005041 -407115.000000 0 0 1
-13.715761 27.085178 21.766963 37.356789 -1.102047 0.948777 0.041682 -0.009950 -721956.000000 0 0 1
-14.819361 26.253578 21.975963 37.306927 -1.056912 0.940903 0.054002 -0.011564 -91193.600000 0 0 1
-15.518461 26.518678 23.184863 38.491568 -1.041338 0.924372 0.057034 -0.005755 -177306.000000 0 0 1
-17.023561 26.275178 23.049363 38.877497 -0.995902 0.936176 0.072568 -0.010096 -130182.000000 0 0 1
-17.539661 24.929078 23.070763 38.227723 -0.957670 0.922902 0.073146 -0.014623 64192.100000 0 0 1
-18.950361 24.980378 23.163463 38.983093 -0.921808 0.934535 0.089442 -0.016529 194140.000000 0 0 1
28.057039 24.433978 23.467008 43.987693 0.716485 1.008074 0.071986 -0.017655 73353.400000 0 0 1
27.955839 23.385878 24.384318 43.852288 0.696621 0.981164 0.077309 -0.024169 -323331.000000 0 0 1
26.992239 22.463778 24.031668 42.552595 0.694087 0.970663 0.073077 -0.014862 -729557.000000 0 0 1
26.692739 21.440578 25.157928 42.486728 0.676711 0.937089 0.092364 -0.021679 143425.000000 0 0 1
25.663039 21.741078 26.084908 42.563934 0.702852 0.911146 0.081712 -0.022474 397220.000000 0 0 1
25.927339 20.881478 27.221628 43.003256 0.678016 0.885357 0.101024 -0.030658 284082.000000 0 0 1
24.674839 20.794778 28.124698 42.805013 0.700271 0.853908 0.094310 -0.030020 129688.000000 0 0 1
24.405639 22.068978 28.713948 43.671110 0.735162 0.853295 0.095514 -0.038885 301107.000000 0 0 1
23.108539 22.075478 29.287708 43.348600 0.762539 0.828974 0.122561 -0.046339 143116.000000 0 0 1
22.627439 23.418278 29.864118 44.184639 0.802572 0.828620 0.112828 -0.048038 -244476.000000 0 0 1
22.045839 24.282078 28.933118 43.735153 0.833631 0.847909 0.110301 -0.040747 -106859.000000 0 0 1
21.788339 25.559778 29.408258 44.641680 0.864884 0.851624 0.110639 -0.042032 713994.000000 0 0 1
20.418339 25.874678 30.138968 44.662791 0.902722 0.830087 0.125180 -0.040345 442550.000000 0 0 1
19.400339 26.253978 29.203208 43.800364 0.934406 0.840978 0.126391 -0.043960 1021380.000000 0 0 1
18.147239 26.670378 29.762488 43.891195 0.973328 0.825626 0.111720 -0.035937 914242.000000 0 0 1
17.242739 25.599378 30.416308 43.333497 0.978036 0.792718 0.093190 -0.027440 -603814.000000 0 0 1
17.644339 25.155678 31.687088 44.138446 0.959127 0.770012 0.090292 -0.032912 -2991.480000 0 0 1
16.613139 24.430378 32.291900 43.767643 0.973606 0.740986 0.069159 -0.029277 260808.000000 0 0 1
17.194539 23.966778 33.675202 44.766928 0.948466 0.719350 0.087060 -0.027953 282761.000000 0 0 1
17.377339 25.086478 -33.560907 45.361192 0.964988 2.403658 0.091204 -0.031416 -7169.270000 0 0 1
17.782239 24.701378 -32.277057 44.364112 0.946847 2.385539 0.056045 -0.016018 -120383.000000 0 0 1
18.046639 25.798778 -31.242877 44.355106 0.960396 2.352346 0.062490 -0.000714 362333.000000 0 0 1
16.933439 26.669878 -30.982587 44.248666 1.005090 2.346464 0.076153 -0.016248 426963.000000 0 0 1
17.346439 27.848678 -30.302017 44.661617 1.013722 2.316488 0.084326 -0.020184 -198136.000000 0 0 1
16.954339 28.028578 -28.850077 43.650632 1.026786 2.292856 0.103465 -0.025369 -262709.000000 0 0 1
17.347339 27.042678 -27.926367 42.568986 1.000434 2.286338 0.076719 -0.017181 83004.400000 0 0 1
17.085539 27.552678 -26.636637 41.959220 1.015725 2.258574 0.060810 -0.005978 -274153.000000 0 0 1
17.906639 26.967278 -25.483117 41.197949 0.984633 2.237696 0.049530 -0.011842 -78145.700000 0 0 1
19.295439 27.006378 -25.725697 41.993688 0.950420 2.230153 0.058525 -0.013436 -378569.000000 0 0 1
20.013739 26.669078 -24.546937 41.404608 0.927009 2.205396 0.053301 -0.011506 843803.000000 0 0 1
21.569039 26.642478 -24.748737 42.279369 0.890245 2.196123 0.053017 -0.015955 575494.000000 0 0 1
22.196139 26.444578 -23.507237 41.768103 0.872520 2.168570 0.038727 -0.010823 -13625.100000 0 0 1
23.601739 26.361378 -23.740637 42.609649 0.840576 2.161765 0.039400 -0.004828 297326.000000 0 0 1
24.409339 26.185378 -22.466837 42.264034 0.820487 2.131265 0.047667 -0.003823 -32339.800000 0 0 1
24.060739 24.943678 -21.791437 40.938648 0.803414 2.132106 0.058948 -0.006523 116603.000000 0 0 1
24.522439 24.979178 -20.477737 40.554248 0.794625 2.100117 0.052054 -0.000655 -336256.000000 0 0 1
23.915839 23.905878 -19.610037 39.089793 0.785190 2.096320 0.056458 -0.001358 -787477.000000 0 0 1
24.424939 22.585078 -19.821337 38.724008 0.746280 2.108147 0.055553 0.002082 460343.000000 0 0 1
23.932939 21.752678 -18.788237 37.402706 0.737711 2.097079 0.061753 -0.002725 -475163.000000 0 0 1
24.232139 20.186478 -18.993837 36.816522 0.694568 2.112860 0.077960 -0.003717 391257.000000 0 0 1
23.496539 19.524378 -20.040637 36.536499 0.693328 2.151378 0.067949 -0.006097 508139.000000 0 0 1
22.090839 19.550078 -19.883237 35.574623 0.724458 2.163875 0.060419 -0.004199 -205179.000000 0 0 1
21.349439 19.401778 -21.263637 35.838105 0.737641 2.205979 0.075954 -0.011495 30082.300000 0 0 1
21.584639 20.472178 -22.200437 37.119619 0.758953 2.211897 0.067812 -0.009991 -39482.400000 0 0 1
21.264539 21.794678 -21.818037 37.459516 0.797709 2.192527 0.058983 -0.000342 -100564.000000 0 0 1
20.838539 22.674178 -22.999937 38.436443 0.827559 2.212285 0.055155 -0.010113 -95934.500000 0 0 1
19.548539 22.357378 -23.437037 37.832425 0.852325 2.238897 0.077150 -0.012788 -691410.000000 0 0 1
19.162239 23.038278 -24.584837 38.760390 0.876989 2.257870 0.058067 -0.015112 -811203.000000 0 0 1
17.682539 23.028678 -24.904537 38.252165 0.915970 2.279779 0.057644 -0.013691 -551894.000000 0 0 1
16.983439 23.928478 -24.041637 37.934279 0.953551 2.257215 0.053548 -0.018665 466327.000000 0 0 1
15.566239 23.820078 -24.112137 37.297440 0.991970 2.273761 0.055539 -0.017906 646798.000000 0 0 1
14.779139 24.891078 -23.310737 37.166909 1.034983 2.248737 0.046411 -0.019221 133733.000000 0 0 1
14.790839 26.130378 -23.975937 38.424095 1.055722 2.244624 0.036072 -0.011601 -133787.000000 0 0 1
13.744939 26.950178 -23.537437 38.330749 1.099171 2.231993 0.061958 -0.018768 -65721.200000 0 0 1
13.656939 28.318078 -24.203137 39.676408 1.121434 2.226874 0.068684 -0.020158 -51239.900000 0 0 1
13.399039 28.350678 -25.588217 40.472855 1.129293 2.255226 0.071225 -0.028737 18376.500000 0 0 1
12.940139 29.657878 -26.059447 41.546741 1.159382 2.248790 0.109447 -0.037384 58488.700000 0 0 1
13.886839 30.884678 -25.968387 42.673935 1.148246 2.225004 0.122581 -0.035967 -244377.000000 0 0 1
15.013239 30.857578 -26.780237 43.528939 1.117980 2.233472 0.100012 -0.019778 -64567.700000 0 0 1
15.922339 31.934578 -26.533257 44.467425 1.108275 2.210166 0.099941 -0.030778 1165160.000000 0 0 1
17.255839 31.947378 -27.392487 45.483483 1.075560 2.217115 0.081664 -0.008640 1118240.000000 0 0 1
18.172239 30.972078 -26.854047 44.840157 1.040192 2.212903 0.042105 -0.006854 -658049.000000 0 0 1
19.427839 31.265478 -27.341527 45.853354 1.014802 2.209658 0.052711 -0.002166 -614645.000000 0 0 1
20.632839 30.550478 -26.627147 45.475825 0.976793 2.196322 0.032559 0.006648 -504561.000000 0 0 1
20.948739 30.995478 -25.292937 45.158631 0.976453 2.165292 0.037320 0.004080 161188.000000 0 0 1
21.947939 32.008378 -25.164247 46.254595 0.969737 2.146038 0.035430 -0.000772 60384.700000 0 0 1
23.333039 31.289478 -25.262607 46.493671 0.930043 2.145226 0.018525 0.003398 -617573.000000 0 0 1
23.661539 30.945078 -26.613697 47.177909 0.917998 2.170156 0.020326 0.003047 47363.000000 0 0 1
24.577639 31.876978 -27.184287 48.571468 0.913981 2.164791 -0.007908 0.016891 -438366.000000 0 0 1
24.918539 31.303678 -28.619807 49.192958 0.898483 2.191720 0.005423 0.015126 267883.000000 0 0 1
24.021439 31.724378 -29.653357 49.626477 0.922708 2.211215 0.028305 0.005318 607114.000000 0 0 1
22.713739 31.167078 -29.641447 48.640683 0.941019 2.226095 0.019922 -0.002083 57069.300000 0 0 1
21.770039 31.842278 -30.659017 49.273122 0.971105 2.242379 0.034245 0.003847 -1003760.000000 0 0 1
21.408539 33.126078 -30.296147 49.734486 0.997045 2.225794 0.066959 -0.001182 338273.000000 0 0 1
20.352639 33.620778 -31.120717 50.130685 1.026446 2.240549 0.074084 -0.013714 1960340.000000 0 0 1
18.863339 33.191678 -30.649127 48.957962 1.054000 2.247247 0.072773 -0.020198 1133600.000000 0 0 1
18.474739 31.782678 -30.757897 47.932273 1.044253 2.267502 0.104995 -0.030781 285736.000000 0 0 1
18.475439 31.210378 -32.092917 48.429173 1.036306 2.295184 0.113360 -0.027068 -11366.000000 0 0 1
17.621339 31.950178 -33.226377 49.348937 1.066783 2.309452 0.128459 -0.036621 -193977.000000 0 0 1
18.208239 33.122678 -33.639497 50.599086 1.068167 2.298055 0.108362 -0.031977 -145568.000000 0 0 1
17.730939 33.565078 33.159425 50.403850 1.084801 0.852803 0.092555 -0.025254 -230923.000000 0 0 1
16.308839 34.066578 32.869000 50.068764 1.124306 0.854657 0.107834 -0.034195 -449092.000000 0 0 1
15.331239 33.036178 32.786437 49.003943 1.136300 0.837857 0.112276 -0.031825 772936.000000 0 0 1
13.967939 33.492878 32.807261 48.920268 1.175685 0.835742 0.083196 -0.031181 969537.000000 0 0 1
13.445939 -34.055056 31.478278 48.284802 -1.194755 0.860670 0.077547 -0.030837 -911644.000000 0 0 1
14.025039 -32.847756 31.046728 47.324160 -1.167257 0.855231 0.091106 -0.022494 -181962.000000 0 0 1
13.379039 -32.359056 29.922208 46.059155 -1.178744 0.863676 0.087259 -0.024318 -35924.200000 0 0 1
13.843039 -30.886656 29.648018 44.995780 -1.149450 0.851432 0.080387 -0.018374 92658.500000 0 0 1
13.442539 -29.937456 30.632058 44.891827 -1.148757 0.819820 0.076484 -0.021287 386599.000000 0 0 1
13.930839 -28.591156 30.385198 43.986166 -1.117406 0.808215 0.084026 -0.029597 -89457.400000 0 0 1
13.300839 -27.583656 31.400668 43.860830 -1.121490 0.772861 0.075553 -0.033694 994101.000000 0 0 1
11.954339 -27.142756 31.108918 42.981394 -1.155934 0.761537 0.054920 -0.034493 934360.000000 0 0 1
11.773639 -26.082956 30.160148 41.576120 -1.146785 0.759152 0.048105 -0.029904 -377879.000000 0 0 1
12.098739 -24.763656 30.822968 41.348199 -1.116336 0.729588 0.050917 -0.027980 -590803.000000 0 0 1
11.149539 -24.335556 31.739348 41.520088 -1.141179 0.700634 0.046453 -0.030516 -358988.000000 0 0 1
11.364339 -23.040056 32.281341 41.256241 -1.112569 0.672190 0.041023 -0.028306 -6157.710000 0 0 1
10.450939 -22.683356 33.510150 41.793384 -1.139054 0.640486 0.051302 -0.029278 -262299.000000 0 0 1
10.427139 -23.487756 -33.379767 42.126105 -1.152994 2.485492 0.057683 -0.028346 1167760.000000 0 0 1
11.729739 -23.805656 -32.823977 42.210301 -1.112982 2.461683 0.060445 -0.027923 1407870.000000 0 0 1
12.550239 -22.701656 -32.064587 41.243320 -1.065780 2.461396 0.058794 -0.031710 18283.000000 0 0 1
12.868439 -21.605356 -32.886737 41.399584 -1.033609 2.488772 0.040627 -0.024808 121077.000000 0 0 1
13.563739 -20.630256 -32.121517 40.513878 -0.989189 2.486271 0.047602 -0.027113 -60044.400000 0 0 1
14.134439 -19.441356 -32.879897 40.728814 -0.942159 2.510339 0.027576 -0.019617 -66426.100000 0 0 1
15.118839 -19.750156 -33.870217 42.021893 -0.917446 2.508182 0.044837 -0.010809 511436.000000 0 0 1
14.809739 -19.151656 32.925532 40.868141 -0.912557 0.634020 0.020890 -0.005498 -182449.000000 0 0 1
15.308539 -17.668056 32.743392 40.232342 -0.856828 0.620036 0.047556 -0.012027 -557024.000000 0 0 1
14.777539 -16.627756 33.563427 40.266134 -0.844244 0.585312 0.032091 -0.002804 317160.000000 0 0 1
15.360539 -15.323556 33.432381 39.855760 -0.784193 0.575658 0.066526 -0.010122 -814593.000000 0 0 1
16.813239 -15.057956 33.813457 40.654359 -0.730379 0.588579 0.082215 -0.004371 -162774.000000 0 0 1
17.758139 -15.821956 33.062811 40.728802 -0.727803 0.623603 0.090416 -0.008795 72439.100000 0 0 1
19.079839 -15.505456 33.423964 41.492419 -0.682414 0.634204 0.124716 -0.008958 -538096.000000 0 0 1
20.131339 -16.245356 32.623864 41.635309 -0.678976 0.670417 0.151199 -0.019139 -586308.000000 0 0 1
20.169439 -15.897756 31.250978 40.449580 -0.667511 0.687884 0.127866 -0.012917 268455.000000 0 0 1
21.173539 -16.545956 30.490888 40.642117 -0.663324 0.722388 0.116377 -0.015860 -269492.000000 0 0 1
21.309039 -15.769156 29.171498 39.417226 -0.637085 0.737622 0.114683 -0.006660 -758364.000000 0 0 1
22.149839 -14.654356 29.298598 39.544574 -0.584487 0.736386 0.110098 -0.017776 357055.000000 0 0 1
22.404439 -14.033756 28.035628 38.534421 -0.559593 0.756056 0.083284 -0.019912 -236884.000000 0 0 1
23.214339 -12.747956 28.113758 38.623818 -0.502184 0.755562 0.068530 -0.013636 -365694.000000 0 0 1
22.492639 -11.590056 28.462368 38.083521 -0.475798 0.726706 0.073968 -0.019854 -6672.650000 0 0 1
23.292439 -10.460856 28.698898 38.413461 -0.422113 0.727100 0.079934 -0.022424 88293.900000 0 0 1
22.397939 -9.194856 28.637558 37.500970 -0.389544 0.701851 0.074529 -0.025303 1151300.000000 0 0 1
21.359239 -9.169356 29.670658 37.691407 -0.405501 0.664542 0.072844 -0.034024 287924.000000 0 0 1
20.558839 -8.060556 29.527348 36.871435 -0.373654 0.642135 0.052247 -0.032333 853354.000000 0 0 1
19.305039 -7.976556 30.531498 36.993004 -0.391821 0.600007 0.038328 -0.015850 1125560.000000 0 0 1
19.669739 -7.586656 31.857418 38.201454 -0.368120 0.584601 0.041808 -0.019124 340254.000000 0 0 1
20.136239 -8.699056 32.625101 39.313343 -0.407793 0.591915 0.051580 -0.027180 -431025.000000 0 0 1
20.376639 -8.444956 -33.925207 40.465347 -0.392895 2.565095 0.067995 -0.032194 150866.000000 0 0 1
19.126839 -8.277656 -33.271017 39.259599 -0.408439 2.581982 0.051557 -0.029097 237533.000000 0 0 1
19.165039 -7.528856 -32.109187 38.144230 -0.374322 2.571375 0.057542 -0.029841 -289684.000000 0 0 1
17.863139 -7.426356 -31.304247 36.799434 -0.393998 2.588059 0.067411 -0.025095 -31579.900000 0 0 1
18.052039 -6.538856 -30.230107 35.811899 -0.347522 2.575748 0.073832 -0.022284 -154884.000000 0 0 1
16.835539 -6.335856 -29.576897 34.617499 -0.359943 2.595175 0.085417 -0.010309 -355346.000000 0 0 1
16.782939 -5.156856 -28.608697 33.566616 -0.298111 2.591156 0.079931 -0.010753 -88941.700000 0 0 1
17.409439 -5.320256 -27.301177 32.813837 -0.296583 2.553503 0.073143 -0.012565 207459.000000 0 0 1
16.813739 -6.102156 -26.276327 31.786530 -0.348144 2.543924 0.095539 -0.022081 119807.000000 0 0 1
15.402639 -5.771756 -25.706387 30.518400 -0.358530 2.572377 0.085316 -0.017072 416650.000000 0 0 1
15.312239 -4.547856 -25.005167 29.671636 -0.288710 2.573130 0.083181 -0.005653 305467.000000 0 0 1
14.070739 -4.443756 -24.296137 28.425955 -0.305902 2.595801 0.050274 -0.013040 632978.000000 0 0 1
13.899939 -3.168556 -23.475237 27.465156 -0.224125 2.595823 0.060859 -0.006472 20918.100000 0 0 1
13.878239 -2.000556 -24.280937 28.038752 -0.143164 2.617899 0.041714 -0.007927 152445.000000 0 0 1
13.472639 -0.900556 -23.459437 27.067844 -0.066744 2.619325 0.040920 -0.015298 2214.060000 0 0 1
13.947239 0.487444 -23.917537 27.691364 0.034935 2.613398 0.045010 -0.015058 -316046.000000 0 0 1
13.410639 0.918444 -25.157217 28.523224 0.068379 2.650866 0.048038 -0.017289 165643.000000 0 0 1
14.045939 2.077444 -25.628027 29.298463 0.146839 2.635659 0.052211 -0.009161 -232166.000000 0 0 1
13.274339 2.740444 -26.763787 30.000306 0.203587 2.672806 0.063900 -0.016720 536291.000000 0 0 1
12.064539 3.457444 -26.449277 29.275779 0.279099 2.698552 0.060533 -0.029155 527485.000000 0 0 1
11.574839 4.091444 -27.574597 30.184022 0.339769 2.722723 0.051926 -0.019145 43425.500000 0 0 1
10.226839 4.792444 -27.245397 29.493514 0.438225 2.748623 0.046144 -0.021883 174565.000000 0 0 1
10.292439 6.113444 -26.747477 29.304197 0.535977 2.720768 0.038128 -0.038511 -1053840.000000 0 0 1
9.048039 6.509444 -26.336617 28.598203 0.623649 2.741227 0.047666 -0.042275 -1063930.000000 0 0 1
7.423239 5.171278 -30.545167 31.856770 0.608463 2.853643 0.049726 -0.013642 -264677.000000 0 0 1
7.763239 4.076278 -29.722057 30.988459 0.483505 2.854719 0.053868 -0.005714 282589.000000 0 0 1
7.934839 2.888478 -30.444897 31.594251 0.349114 2.871033 0.043883 0.001659 -233209.000000 0 0 1
8.100939 1.673378 -29.485457 30.623807 0.203701 2.868080 0.044134 0.002800 -516188.000000 0 0 1
9.299339 1.637678 -28.771957 30.281763 0.174320 2.824485 0.046114 -0.008016 -87177.300000 0 0 1
9.068539 0.713678 -27.724047 29.178254 0.078536 2.824549 0.040254 -0.003012 -91852.300000 0 0 1
10.319239 0.185478 -27.003247 28.908414 0.017972 2.776516 0.042363 -0.014635 -254860.000000 0 0 1
10.987939 -0.754622 -27.810067 29.911604 -0.068570 2.764507 0.060732 -0.002062 -55289.700000 0 0 1
12.015039 -1.382822 -27.068407 29.647462 -0.114587 2.721397 0.057214 -0.007138 30524.200000 0 0 1
12.516039 -2.672122 -27.749097 30.558204 -0.210338 2.709457 0.061965 -0.005248 419275.000000 0 0 1
11.539239 -3.728022 -27.716077 30.252819 -0.312488 2.729160 0.062106 0.000910 949235.000000 0 0 1
12.205839 -5.007022 -27.946767 30.904280 -0.389282 2.700535 0.063398 0.004058 341450.000000 0 0 1
11.387139 -6.069922 -27.206297 30.111351 -0.489737 2.698717 0.032876 -0.009775 -34909.300000 0 0 1
11.314539 -5.807522 -25.798807 28.763249 -0.474215 2.683588 0.039709 -0.010540 153911.000000 0 0 1
10.677739 -6.875422 -25.107237 28.136433 -0.572077 2.673297 0.041894 -0.017225 -95222.700000 0 0 1
10.614239 -6.700222 -23.584737 26.716939 -0.563080 2.652508 0.039511 -0.015485 11051.400000 0 0 1
11.867639 -6.707722 -22.919337 26.667028 -0.514447 2.605016 0.040187 -0.015669 237297.000000 0 0 1
11.648339 -6.643622 -21.524137 25.359613 -0.518332 2.584426 0.045154 -0.020016 -428520.000000 0 0 1
12.954739 -6.647522 -20.749937 25.349057 -0.474100 2.529711 0.058822 -0.024397 -223184.000000 0 0 1
13.673239 -5.412922 -20.816537 25.486965 -0.376947 2.526556 0.055317 -0.022036 -567575.000000 0 0 1
14.855039 -5.541622 -20.097637 25.598765 -0.357057 2.473657 0.068198 -0.019591 -667026.000000 0 0 1
15.378939 -4.167122 -19.661637 25.307244 -0.264609 2.460551 0.071373 -0.019327 32532.300000 0 0 1
16.055239 -3.352722 -20.668137 26.385286 -0.205866 2.470786 0.063497 -0.010384 570220.000000 0 0 1
16.451339 -2.119322 -20.076837 26.042608 -0.128118 2.451085 0.057389 -0.001132 -188633.000000 0 0 1
17.567039 -1.410622 -20.847137 27.298238 -0.080127 2.439792 0.036407 -0.000177 417720.000000 0 0 1
18.845239 -2.072022 -20.799837 28.143729 -0.109509 2.402467 0.047611 -0.006821 452839.000000 0 0 1
19.707639 -1.287622 -21.612037 29.276768 -0.065243 2.401191 0.045837 -0.001790 -133963.000000 0 0 1
21.051239 -2.034222 -21.765437 30.348426 -0.096333 2.370551 0.046873 -0.007052 -1977300.000000 0 0 1
21.806239 -2.104322 -20.653837 30.108490 -0.096203 2.326747 0.029222 -0.002813 177795.000000 0 0 1
23.113139 -2.676322 -20.799037 31.208649 -0.115279 2.300235 0.028740 -0.007648 937387.000000 0 0 1
24.133539 -1.900922 -21.668437 32.489419 -0.078605 2.300888 0.034860 -0.010088 -1408520.000000 0 0 1
23.853139 -2.027522 -23.062337 33.240855 -0.084796 2.337542 0.033638 -0.011628 267905.000000 0 0 1
24.715339 -1.198622 -23.857737 34.372609 -0.048459 2.337953 0.035286 -0.008224 745383.000000 0 0 1
25.972939 -1.978122 -24.383437 35.679945 -0.076014 2.323197 0.046738 -0.023230 -501507.000000 0 0 1
26.821739 -2.404622 -23.322237 35.624635 -0.089413 2.284537 0.035102 -0.011442 1138560.000000 0 0 1
28.152839 -2.837822 -23.676337 36.894505 -0.100461 2.267549 0.025798 -0.010526 1487570.000000 0 0 1
29.103539 -1.801822 -24.353137 37.991286 -0.061832 2.266622 0.026092 -0.020558 -869879.000000 0 0 1
28.705939 -1.498822 -25.667787 38.537159 -0.052166 2.299701 0.031963 -0.020373 22306.600000 0 0 1
29.482839 -0.478922 -26.219707 39.458081 -0.016243 2.297614 0.024574 -0.018042 -671820.000000 0 0 1
29.154839 -0.421122 -27.737477 40.243628 -0.014443 2.331234 0.043823 -0.017766 1993720.000000 0 0 1
27.755539 -0.005822 -27.932697 39.377728 -0.000210 2.359376 0.033514 -0.009569 1829590.000000 0 0 1
27.416139 1.353478 -27.713127 39.006332 0.049328 2.360973 0.025207 -0.008086 114234.000000 0 0 1
25.887139 1.664178 -27.873777 38.077038 0.064198 2.392103 0.028113 -0.008737 385783.000000 0 0 1
25.118339 1.158778 -26.802417 36.751098 0.046100 2.388088 0.036854 -0.008880 -177756.000000 0 0 1
23.782139 1.260378 -27.216277 36.164961 0.052947 2.422736 0.028310 -0.012289 455687.000000 0 0 1
22.642439 1.215278 -26.088707 34.565554 0.053621 2.426085 0.033875 -0.017584 861376.000000 0 0 1
22.724139 2.127678 -25.008247 33.857435 0.093359 2.401838 0.039423 -0.021737 575050.000000 0 0 1
21.707739 1.728278 -24.079237 32.465713 0.079448 2.406371 0.042819 -0.021703 242167.000000 0 0 1
21.868839 2.272478 -22.672537 31.582498 0.103542 2.371553 0.039555 -0.014988 -387321.000000 0 0 1
21.636439 3.708078 -22.560137 31.477692 0.169732 2.369858 0.054781 -0.024482 461299.000000 0 0 1
21.767739 4.205278 -21.235237 30.699415 0.190838 2.334657 0.049568 -0.021989 -306169.000000 0 0 1
21.436039 5.658378 -20.955737 30.506784 0.258079 2.328039 0.069341 -0.021188 -162644.000000 0 0 1
22.467839 6.522078 -21.383937 31.695647 0.282520 2.311307 0.052603 -0.019973 351583.000000 0 0 1
22.218439 7.897978 -21.026637 31.593615 0.341539 2.299006 0.044087 -0.022482 -360035.000000 0 0 1
22.465139 8.380778 -19.577437 30.954740 0.357066 2.255513 0.054910 -0.022667 -841219.000000 0 0 1
23.817539 8.431378 -19.228737 31.750710 0.340233 2.221336 0.037624 -0.014724 -158851.000000 0 0 1
24.029239 8.654178 -17.775237 31.116847 0.345690 2.178814 0.063307 -0.025536 -7711.070000 0 0 1
23.765439 10.066678 -17.177637 31.003311 0.400671 2.158027 0.063656 -0.036389 -168142.000000 0 0 1
22.388039 10.332378 -17.063237 29.985602 0.432387 2.176144 0.072853 -0.052267 -40201.100000 0 0 1
22.020439 11.725578 -16.760737 30.055136 0.489298 2.162368 0.051368 -0.044622 -216374.000000 0 0 1
20.496039 11.934978 -16.595937 28.947477 0.527308 2.181339 0.056744 -0.049800 56018.000000 0 0 1
19.774539 11.744378 -17.774037 29.066805 0.535933 2.228738 0.062156 -0.052976 -179876.000000 0 0 1
19.257239 10.441478 -17.796037 28.223476 0.496843 2.253045 0.068914 -0.050655 -723022.000000 0 0 1
18.493839 10.105578 -19.073037 28.424030 0.500098 2.306377 0.091320 -0.036125 -47368.500000 0 0 1
19.325339 9.970478 -20.223037 29.695965 0.476308 2.319928 0.098163 -0.038402 683780.000000 0 0 1
18.545839 9.699778 -21.402637 29.935041 0.481891 2.367377 0.086242 -0.040438 268652.000000 0 0 1
19.396939 9.875578 -22.690137 31.442178 0.470926 2.376974 0.095856 -0.038741 -147103.000000 0 0 1
19.595339 11.253978 -22.985437 32.232896 0.521322 2.364714 0.092921 -0.042831 299673.000000 0 0 1
20.427439 11.481378 -24.101037 33.614911 0.512053 2.370249 0.094989 -0.036813 -126805.000000 0 0 1
20.307239 12.988178 -24.557537 34.411471 0.569018 2.365483 0.112816 -0.033008 476870.000000 0 0 1
21.287439 13.453678 -25.513007 35.847873 0.563618 2.362715 0.093021 -0.031141 617617.000000 0 0 1
21.172739 14.893278 -25.672107 36.457532 0.613016 2.352042 0.104122 -0.026631 184372.000000 0 0 1
19.925539 15.477978 -26.404607 36.521201 0.660428 2.378923 0.088609 -0.021421 158736.000000 0 0 1
18.732539 15.295278 -25.669817 35.267450 0.684726 2.385994 0.088892 -0.029710 -793473.000000 0 0 1
17.688839 15.585178 -26.549867 35.506171 0.722260 2.415469 0.074802 -0.026896 -859862.000000 0 0 1
16.324139 15.162778 -26.026317 34.260130 0.748531 2.433598 0.072912 -0.031756 -711631.000000 0 0 1
16.110239 13.781178 -26.001117 33.548751 0.707638 2.457551 0.071525 -0.021674 704615.000000 0 0 1
14.732939 13.487278 -25.732007 32.574565 0.741286 2.481510 0.057529 -0.028805 530996.000000 0 0 1
14.533539 11.978378 -25.585257 31.769650 0.689317 2.507039 0.059868 -0.033891 332308.000000 0 0 1
13.184339 11.615678 -25.288297 30.793647 0.722230 2.534339 0.052725 -0.026395 450690.000000 0 0 1
12.942239 10.193378 -25.316657 30.204960 0.667137 2.564701 0.070170 -0.031830 1332780.000000 0 0 1
11.423539 9.734478 -25.185607 29.318460 0.705736 2.604180 0.061885 -0.041192 1293240.000000 0 0 1
10.844939 9.912478 -23.895737 28.051313 0.740507 2.590319 0.074333 -0.044733 -325310.000000 0 0 1
9.579439 9.316078 -23.866737 27.352807 0.771461 2.631198 0.063090 -0.045096 -260164.000000 0 0 1
8.653039 9.895978 -22.758137 26.281899 0.852307 2.617792 0.049130 -0.041849 -43763.300000 0 0 1
8.187239 11.189678 -23.145137 26.980310 0.939125 2.601873 0.049238 -0.040906 -250609.000000 0 0 1
7.655139 11.983878 -22.112937 26.290615 1.002345 2.570103 0.043544 -0.026257 179563.000000 0 0 1
8.628539 12.802978 -21.187937 26.216342 0.977770 2.511878 0.046276 -0.025538 91554.300000 0 0 1
9.236139 11.887778 -20.292137 25.266506 0.910273 2.503316 0.055314 -0.037007 -367581.000000 0 0 1
10.154739 12.635378 -19.515237 25.369587 0.893818 2.448443 0.072428 -0.037583 -243440.000000 0 0 1
11.192239 11.700078 -18.797337 24.809230 0.807578 2.430540 0.094678 -0.042412 20713.300000 0 1 0
12.321339 11.331078 -19.535837 25.726594 0.743555 2.433131 0.104895 -0.044982 -151810.000000 0 0 1
12.024839 10.500778 -20.661337 26.110418 0.717842 2.483739 0.101637 -0.042634 -916487.000000 0 0 1
13.274339 9.889878 -21.296637 26.973403 0.640317 2.480859 0.100013 -0.046789 -175328.000000 0 0 1
13.896039 8.861178 -20.545837 26.339168 0.567663 2.465540 0.120845 -0.053774 17667.900000 0 0 1
14.840739 8.263678 -21.415037 27.333856 0.508067 2.471014 0.111075 -0.052059 -323135.000000 0 0 1
15.484439 7.055078 -20.725437 26.815773 0.427521 2.454167 0.127385 -0.053711 -90184.800000 0 0 1
16.439339 7.397278 -19.737037 26.730548 0.422832 2.401447 0.107874 -0.045199 153267.000000 0 0 1
16.972139 6.186478 -19.207637 26.367770 0.349541 2.386855 0.084680 -0.045380 106946.000000 0 0 1
17.930239 6.332678 -18.002037 26.185293 0.339509 2.328819 0.106718 -0.038440 -637947.000000 0 0 1
19.250439 6.615378 -18.357937 27.410882 0.331005 2.304644 0.089370 -0.053479 -206318.000000 0 0 1
20.094839 6.948678 -17.261737 27.387118 0.332923 2.252719 0.082068 -0.051384 95724.500000 0 0 1
20.693339 5.786278 -16.446637 27.058957 0.272657 2.224093 0.068671 -0.045413 -1178680.000000 0 0 1
21.751239 5.081578 -16.982337 28.059554 0.229506 2.220844 0.062586 -0.041876 -218155.000000 0 0 1
22.478539 4.440178 -15.944737 27.914772 0.195019 2.178755 0.091037 -0.047875 -58897.700000 0 0 1
23.767939 3.769378 -16.446337 29.147986 0.157281 2.170304 0.033261 -0.007661 -305840.000000 0 0 1
24.322139 2.870178 -15.537337 29.003675 0.117464 2.136136 0.035384 -0.008032 875555.000000 0 0 1
25.597239 2.361178 -15.992637 30.274712 0.091983 2.127335 0.040660 -0.012983 1006340.000000 0 0 1
26.134739 1.187378 -15.162237 30.237855 0.045402 2.096050 0.071151 -0.029054 452691.000000 0 0 1
25.523539 -0.090622 -15.603137 29.915165 -0.003551 2.119497 0.066652 -0.027303 -14279.900000 0 0 1
26.551739 -0.993422 -15.817837 30.922252 -0.037397 2.107767 0.059164 -0.014817 -397771.000000 0 0 1
26.003339 -2.409622 -15.881137 30.564528 -0.092402 2.117172 0.039201 -0.017895 -240255.000000 0 0 1
25.636939 -3.016322 -14.611637 29.662278 -0.117117 2.085871 0.042734 -0.013952 488415.000000 0 0 1
25.466839 -4.398722 -14.851537 29.807327 -0.171036 2.092377 0.042443 -0.012753 -1055690.000000 0 0 1
24.911839 -5.168022 -13.619637 28.858320 -0.204551 2.062296 0.044115 -0.014889 1687460.000000 0 0 1
23.525739 -4.995422 -13.182937 27.426346 -0.209231 2.072211 0.048666 -0.007684 1948070.000000 0 0 1
22.536539 -5.317722 -14.169637 27.146866 -0.231722 2.119946 0.055414 -0.011278 -100579.000000 0 0 1
21.075339 -5.147422 -13.691837 25.654088 -0.239549 2.133778 0.076399 -0.018165 -137851.000000 0 0 1
20.590439 -6.037922 -12.690837 24.929501 -0.285243 2.104899 0.083221 -0.025328 532898.000000 0 1 0
21.063639 -5.767922 -11.346137 24.610579 -0.267281 2.049948 0.104012 -0.021017 -345843.000000 0 1 0
20.795239 -7.059122 -10.430937 24.312087 -0.327253 2.014230 0.100672 -0.021222 335994.000000 0 1 0
19.435839 -7.496522 -10.449237 23.305283 -0.368124 2.035730 0.098430 -0.024660 919162.000000 0 1 0
19.245739 -8.576422 -11.312737 23.915089 -0.419211 2.063532 0.097090 -0.027083 -700278.000000 0 1 0
17.868639 -9.231022 -11.292837 23.065736 -0.476843 2.082420 0.108934 -0.028375 -638005.000000 0 1 0
16.808139 -8.413822 -11.653937 22.116061 -0.464112 2.125798 0.098742 -0.025329 -133544.000000 0 1 0
15.554639 -9.063522 -11.808437 21.529826 -0.527594 2.151328 0.095329 -0.027740 523837.000000 0 1 0
14.378039 -8.117122 -12.133637 20.490017 -0.513945 2.204549 0.067421 -0.020211 -300969.000000 0 1 0
14.406339 -7.407822 -13.386637 21.014768 -0.474948 2.261411 0.068759 -0.020139 1159290.000000 0 1 0
15.496639 -6.428022 -13.450937 21.503325 -0.393200 2.246605 0.072885 -0.020784 731625.000000 0 1 0
15.387439 -5.271322 -14.435437 21.747228 -0.330043 2.296662 0.060835 -0.020282 162339.000000 0 1 0
14.272739 -4.410722 -14.178737 20.596167 -0.299722 2.330100 0.064949 -0.022787 535384.000000 0 1 0
13.917839 -3.420922 -15.138837 20.846902 -0.241016 2.383562 0.053709 -0.025589 -29153.300000 0 1 0
14.935439 -2.241922 -15.328137 21.518488 -0.148995 2.363600 0.058667 -0.023848 -413495.000000 0 1 0
16.078639 -2.670722 -16.005637 22.843725 -0.164601 2.347115 0.052075 -0.020301 -430964.000000 0 1 0
17.088639 -1.705522 -16.097137 23.538228 -0.099475 2.323853 0.054808 -0.013260 25157.100000 0 1 0
18.272739 -1.905722 -15.119737 23.793512 -0.103917 2.259396 0.067251 -0.013253 -469755.000000 0 1 0
17.945339 -1.847722 -13.739437 22.676450 -0.102602 2.221681 0.068035 -0.011805 472349.000000 0 1 0
19.120039 -2.178022 -13.024037 23.236721 -0.113424 2.165778 0.069030 -0.007272 109337.000000 0 1 0
18.772139 -2.676922 -11.586537 22.221767 -0.141646 2.119293 0.074777 -0.008348 -121346.000000 0 1 0
18.247939 -1.648922 -10.791337 21.264034 -0.090117 2.103068 0.062589 -0.014354 605495.000000 0 1 0
18.044939 -1.987022 -9.449337 20.466021 -0.109673 2.050717 0.072824 -0.013831 -630924.000000 0 1 0
17.942039 -0.719822 -8.577337 19.899889 -0.040098 2.016424 0.063130 -0.014361 1350120.000000 0 1 0
19.252939 -0.259722 -8.089337 20.884934 -0.013489 1.968529 0.067968 -0.007194 1720320.000000 0 1 0
20.062539 0.434078 -8.986637 21.987576 0.021633 1.991841 0.061205 -0.004982 -767290.000000 0 1 0
19.615939 1.720178 -9.661137 21.933573 0.087469 2.026921 0.057529 -0.009915 -723450.000000 0 1 0
19.333539 2.802278 -8.794837 21.423997 0.143941 1.993813 0.043043 -0.007148 565234.000000 0 1 0
18.784339 3.892078 -9.507937 21.410290 0.204307 2.030946 0.040727 -0.014457 -237893.000000 0 1 0
18.847339 5.239978 -8.712737 21.414745 0.271174 1.989807 0.051660 -0.004475 -313027.000000 0 1 0
18.412039 6.282178 -9.559137 21.675932 0.328813 2.027511 0.063675 -0.003306 473776.000000 0 1 0
18.625039 7.565178 -9.050737 22.046311 0.385825 1.993835 0.072328 -0.005136 -346236.000000 0 1 0
-26.805851 -29.334392 5.690863 40.142822 0.830407 1.428552 0.083463 -0.020044 -52248.900000 0 0 1
-26.882331 -28.421202 6.695363 39.689449 0.813217 1.401292 0.095790 -0.014825 -575180.000000 0 0 1
-25.882581 -27.464642 6.585863 38.309113 0.815045 1.398024 0.093051 -0.013205 -706207.000000 0 0 1
-26.103521 -26.196672 7.526263 37.739953 0.787179 1.370026 0.094993 -0.008827 -248590.000000 0 0 1
-27.246591 -25.380742 7.294663 37.944313 0.749959 1.377345 0.087176 -0.013261 762101.000000 0 0 1
-28.508971 -25.887042 7.751163 39.280796 0.737235 1.372166 0.083209 -0.012776 654280.000000 0 0 1
-28.714051 -25.657192 9.242063 39.600555 0.729235 1.335242 0.061430 -0.011590 -996954.000000 0 0 1
-27.834281 -26.476242 9.920463 39.675612 0.760398 1.318075 0.065853 -0.017805 -772106.000000 0 0 1
-28.153521 -26.721612 11.201763 40.399812 0.759310 1.289842 0.052460 -0.013998 -480269.000000 0 0 1
-27.119471 -27.544272 11.981163 40.468518 0.793169 1.270230 0.044540 -0.019319 -418400.000000 0 0 1
-25.924431 -26.932492 12.330163 39.363285 0.804467 1.252193 0.065499 -0.015421 -712696.000000 0 0 1
-25.929381 -26.085922 13.489363 39.176154 0.788408 1.219276 0.068820 -0.009034 -942762.000000 0 0 1
-24.520961 -25.686152 13.914663 38.140186 0.808602 1.197347 0.083254 -0.013026 -308925.000000 0 0 1
-23.844761 -26.791202 14.516363 38.691937 0.843521 1.186208 0.082808 -0.019848 -33456.300000 0 0 1
-22.665661 -26.354112 15.174563 37.928074 0.860501 1.159184 0.103218 -0.022294 433890.000000 0 0 1
-21.975061 -27.544492 15.982863 38.691786 0.897397 1.144961 0.094515 -0.025820 68450.000000 0 0 1
-22.755161 -28.068782 17.035263 39.948142 0.889569 1.130249 0.102686 -0.021824 336093.000000 0 0 1
-22.158161 -29.287842 17.570863 40.712370 0.923107 1.124547 0.090590 -0.012137 -48186.200000 0 0 1
-23.089361 -30.059942 18.503763 42.179473 0.915805 1.116655 0.098568 -0.027658 42594.400000 0 0 1
-24.232861 -30.554472 17.807063 42.870722 0.900275 1.142451 0.067293 -0.015376 340259.000000 0 0 1
-24.779061 -31.625332 18.540563 44.248345 0.906186 1.138440 0.079057 -0.016815 -930728.000000 0 0 1
-25.904641 -32.305242 17.803163 45.073626 0.894915 1.164751 0.071643 -0.027151 -704538.000000 0 0 1
-25.458671 -33.027542 16.712063 44.924999 0.914096 1.189634 0.081287 -0.033626 -5866.490000 0 0 1
-26.128061 33.884267 16.588163 45.891027 -0.913929 1.200954 0.071670 -0.034338 -849821.000000 0 0 1
-25.716631 33.018569 15.379063 44.587965 -0.909083 1.218648 0.070068 -0.039246 831228.000000 0 0 1
-24.362361 32.531633 15.373563 43.453173 -0.928011 1.209170 0.059510 -0.039347 919046.000000 0 0 1
-23.399361 33.447032 14.943563 43.468887 -0.960343 1.219861 0.066103 -0.040012 -661562.000000 0 0 1
-21.957361 32.902785 14.886963 42.265124 -0.982327 1.210846 0.078068 -0.038039 109680.000000 0 0 1
-21.688161 32.058562 13.789763 41.088750 -0.976005 1.228544 0.065679 -0.028713 482895.000000 0 0 1
-20.461461 31.357082 14.053163 39.992867 -0.992644 1.211739 0.070202 -0.023749 570534.000000 0 0 1
-20.166661 30.308842 12.907763 38.625516 -0.983690 1.230064 0.061864 -0.024928 -55368.700000 0 0 1
-19.661061 30.821332 11.727063 38.393175 -1.002971 1.260389 0.051444 -0.020889 -120658.000000 0 0 1
-20.315161 30.255762 10.593363 37.951763 -0.979491 1.287911 0.063697 -0.022758 243434.000000 0 0 1
-19.714461 30.710072 9.224363 37.641166 -1.000098 1.323214 0.048574 -0.017040 1434470.000000 0 0 1
-18.302561 30.471902 8.990763 36.665439 -1.029908 1.323059 0.053337 -0.028054 882569.000000 0 0 1
-17.941061 31.047942 7.775863 36.692240 -1.046823 1.357256 0.073787 -0.026907 190062.000000 0 0 1
-17.204361 30.099842 6.801063 35.330511 -1.051539 1.377089 0.071519 -0.021763 323436.000000 0 0 1
-18.074361 29.108702 6.211063 34.822068 -1.015132 1.391471 0.061483 -0.013918 337012.000000 0 0 1
-18.263961 27.960332 7.014563 34.125600 -0.992168 1.363769 0.042499 -0.012096 -329473.000000 0 0 1
-19.471261 27.158492 6.568863 34.056772 -0.948785 1.376700 0.032060 -0.005651 -314572.000000 0 0 1
-19.112361 26.411812 5.457163 33.055209 -0.944387 1.404945 0.045100 -0.009674 548850.000000 0 0 1
-20.226561 25.655762 4.984463 33.048098 -0.903179 1.419394 0.038457 -0.005408 -454102.000000 0 0 1
-19.950261 24.797322 3.724463 32.043591 -0.893298 1.454302 0.045914 -0.011004 -1085530.000000 0 0 1
-19.703161 25.514432 2.527663 32.335583 -0.913215 1.492547 0.046161 -0.008687 1678310.000000 0 0 1
-18.466061 26.315612 2.398263 32.237533 -0.958920 1.496334 0.058041 -0.008041 1752990.000000 0 0 1
-17.093861 25.581352 2.623563 30.878613 -0.981722 1.485730 0.059763 -0.014854 -120158.000000 0 0 1
-16.669061 24.515922 1.850263 29.703729 -0.973669 1.508465 0.076134 -0.019001 93216.100000 0 0 1
-16.348061 24.837372 0.472563 29.738485 -0.988675 1.554905 0.074153 -0.012791 -48630.800000 0 0 1
-15.986061 23.506572 -0.239537 28.428339 -0.973573 1.579222 0.074718 -0.009855 1233260.000000 0 0 1
-17.162861 22.687112 -0.552137 28.453009 -0.923146 1.590203 0.076705 -0.021258 1290520.000000 0 0 1
-16.927361 21.705312 -1.596637 27.571823 -0.908450 1.628737 0.078765 -0.018119 373926.000000 0 0 1
-16.025161 20.439312 -1.266837 26.003388 -0.905865 1.619534 0.084482 -0.020762 550617.000000 0 0 1
-16.564461 19.521612 -0.304537 25.604052 -0.867163 1.582691 0.101785 -0.026442 -472796.000000 0 0 1
-15.581061 18.643212 0.125363 24.297213 -0.874634 1.565637 0.113747 -0.035812 -530679.000000 0 1 0
-15.937261 17.384012 0.968663 23.603781 -0.828789 1.529746 0.091220 -0.039147 -304896.000000 0 1 0
-16.669361 16.447112 0.230563 23.418545 -0.778687 1.560951 0.090700 -0.034828 224223.000000 0 1 0
-17.136161 15.459412 1.141063 23.107217 -0.734002 1.521395 0.103085 -0.055402 -151868.000000 0 1 0
-17.878861 14.307712 0.448563 22.903395 -0.674899 1.551210 0.105059 -0.050717 423321.000000 0 1 0
-19.052461 14.736512 -0.279937 24.088160 -0.658354 1.582418 0.135382 -0.051569 495178.000000 0 1 0
-19.774661 13.564512 -0.525137 23.985600 -0.601237 1.592692 0.142421 -0.044850 468111.000000 0 1 0
-21.087761 13.923812 -1.345937 25.305687 -0.583568 1.624009 0.152932 -0.034753 465696.000000 0 0 1
-21.934361 12.882012 -1.870437 25.506097 -0.531028 1.644195 0.131245 -0.034656 1005000.000000 0 0 1
-22.950961 12.421412 -0.997737 26.115773 -0.496074 1.609010 0.141777 -0.036042 -256664.000000 0 0 1
-24.174461 13.331412 -0.778237 27.617690 -0.503969 1.598979 0.126343 -0.035322 -1057700.000000 0 0 1
-23.948961 14.509212 -0.092837 28.001404 -0.544702 1.574112 0.136484 -0.039699 308934.000000 0 0 1
-25.150131 15.260912 0.027163 29.418112 -0.545399 1.569873 0.133444 -0.027368 186261.000000 0 0 1
-25.046061 16.406312 0.995663 29.957697 -0.579914 1.537555 0.129144 -0.035424 -38572.900000 0 0 1
-24.893561 15.993512 2.317463 29.679159 -0.571068 1.492633 0.145364 -0.039777 -36209.300000 0 0 1
-24.674861 17.050212 3.215163 30.164479 -0.604657 1.464006 0.114375 -0.034377 -391257.000000 0 0 1
-25.872761 17.874412 3.676163 31.660837 -0.604564 1.454423 0.116540 -0.033665 -857634.000000 0 0 1
-26.906971 17.105012 4.281863 32.169876 -0.566263 1.437299 0.124891 -0.033356 1192380.000000 0 0 1
-28.134351 17.871212 4.425463 33.623008 -0.565907 1.438793 0.120419 -0.035624 1176510.000000 0 0 1
-28.997451 18.153012 3.166063 34.357066 -0.559333 1.478514 0.081657 -0.035519 -872901.000000 0 0 1
-30.204581 18.824912 3.359563 35.748856 -0.557338 1.476681 0.065134 -0.032732 -93794.100000 0 0 1
-30.821221 19.195012 2.149863 36.373316 -0.557005 1.511656 0.064134 -0.029737 316218.000000 0 0 1
-32.211551 19.878312 2.296963 37.921068 -0.552911 1.510187 0.079461 -0.035338 -258686.000000 0 0 1
-33.204161 19.118912 2.949163 38.428462 -0.522434 1.493977 0.086172 -0.026811 290307.000000 0 0 1
-34.460413 19.783912 2.827063 39.836109 -0.521162 1.499769 0.101415 -0.028362 345158.000000 0 0 1
-34.784965 20.661512 4.058863 40.661607 -0.535980 1.470809 0.102794 -0.031032 -660185.000000 0 0 1
-33.731301 21.566312 4.334163 40.270231 -0.568856 1.462960 0.103317 -0.036486 297821.000000 0 0 1
-33.723941 22.001112 5.704663 40.668124 -0.578052 1.430059 0.100915 -0.029636 -775911.000000 0 0 1
-32.456411 22.769312 6.003863 40.098711 -0.611756 1.420504 0.101080 -0.028425 -754764.000000 0 0 1
-32.246221 24.054462 5.385763 40.588698 -0.640912 1.437713 0.101683 -0.030554 277891.000000 0 0 1
-31.220341 24.835472 5.957663 40.336140 -0.671985 1.422554 0.089284 -0.032614 -186001.000000 0 0 1
-31.513001 26.370662 5.781363 41.495846 -0.696792 1.431018 0.082296 -0.027434 -161738.000000 0 0 1
-32.540521 26.792242 6.651863 42.672674 -0.688818 1.414277 0.088415 -0.019194 94800.800000 0 0 1
-33.103771 28.017802 6.217763 43.812299 -0.702379 1.428397 0.083827 -0.017158 315540.000000 0 0 1
-34.233158 28.536442 7.164563 45.139436 -0.694890 1.411402 0.089084 -0.016349 -566762.000000 0 0 1
-33.730061 29.020462 8.366063 45.275769 -0.710486 1.384948 0.086659 -0.016570 -379164.000000 0 0 1
-34.613540 29.554512 9.281563 46.451198 -0.706721 1.369629 0.089226 -0.016365 -784257.000000 0 0 1
-35.850304 28.749222 9.701463 46.966802 -0.675913 1.362738 0.086901 -0.012848 -431758.000000 0 0 1
-35.513825 27.707692 10.625763 46.280178 -0.662547 1.339133 0.091403 -0.014355 243954.000000 0 0 1
-36.641731 27.216302 11.319363 47.026286 -0.638856 1.327706 0.084771 -0.017980 -129693.000000 0 0 1
-36.277271 25.945082 12.024263 46.192755 -0.620847 1.307457 0.103818 -0.012533 -564821.000000 0 0 1
-35.166082 26.048272 12.860463 45.613127 -0.637536 1.284974 0.099066 -0.022881 -198215.000000 0 0 1
-35.132626 25.022742 13.900863 45.317470 -0.618891 1.259026 0.116747 -0.019012 -786732.000000 0 0 1
-33.914551 25.184872 14.758063 44.746788 -0.638747 1.234691 0.115402 -0.019019 -744274.000000 0 0 1
-34.011911 26.411652 15.497763 45.766431 -0.660272 1.225339 0.115285 -0.018833 335850.000000 0 0 1
-32.762771 26.775052 16.078063 45.263746 -0.685165 1.207659 0.131769 -0.016338 420996.000000 0 0 1
-32.940531 28.039122 16.908963 46.445495 -0.705193 1.198173 0.141139 -0.021189 -64624.000000 0 0 1
-33.018041 29.254802 16.197163 46.993432 -0.725040 1.218911 0.144438 -0.022282 -674.789000 0 0 1
-33.533511 30.246202 16.988263 48.248629 -0.733902 1.210984 0.132887 -0.019775 -158580.000000 0 0 1
-33.125781 31.664932 16.444563 48.686846 -0.762855 1.226258 0.113298 -0.022237 -309124.000000 0 0 1
-31.743341 31.853462 16.389263 47.863250 -0.787130 1.221306 0.104590 -0.015598 -592563.000000 0 0 1
-31.335221 32.987062 15.706563 48.132509 -0.811073 1.238389 0.088733 -0.015777 425561.000000 0 0 1
-29.893811 32.923991 15.072663 46.955451 -0.833598 1.244012 0.106951 -0.022259 713722.000000 0 0 1
-29.678081 32.028672 13.943263 45.837092 -0.823473 1.261707 0.092072 -0.026952 -45443.700000 0 0 1
-29.450381 30.692552 14.443063 44.921708 -0.806049 1.243466 0.102094 -0.027675 -174357.000000 0 0 1
-30.397831 29.584392 13.911163 44.640619 -0.771838 1.253893 0.117677 -0.028304 174096.000000 0 0 1
-30.342001 29.427782 12.478663 44.072083 -0.770104 1.283728 0.121136 -0.034384 922059.000000 0 0 1
-31.401531 28.498432 12.079963 44.092429 -0.736970 1.293279 0.126336 -0.036231 1123440.000000 0 0 1
-31.279351 28.073142 10.604463 43.346901 -0.731431 1.323646 0.111141 -0.024596 216206.000000 0 0 1
-30.054421 27.395642 10.359863 41.965655 -0.739151 1.321352 0.103163 -0.023397 80070.200000 0 0 1
-29.960501 27.230012 8.975363 41.468812 -0.737691 1.352633 0.091474 -0.025865 25433.000000 0 0 1
-28.645161 26.657422 8.399663 40.021467 -0.749471 1.359345 0.097148 -0.023472 78913.800000 0 0 1
-28.486121 26.969732 7.059463 39.858018 -0.758061 1.392742 0.080840 -0.029917 -156277.000000 0 0 1
-27.463681 26.184392 6.448863 38.489791 -0.761557 1.402455 0.065197 -0.023036 -443722.000000 0 0 1
-27.232341 26.519492 5.002863 38.339438 -0.772137 1.439934 0.055683 -0.021278 -260660.000000 0 0 1
-26.484051 27.706472 4.792163 38.626654 -0.807952 1.446412 0.024071 -0.011013 232819.000000 0 0 1
-26.252191 28.062772 3.441863 38.581643 -0.818721 1.481468 0.015571 -0.007303 -456692.000000 0 0 1
-25.377721 29.307252 3.114063 38.892688 -0.857132 1.490642 0.013663 -0.005936 226974.000000 0 0 1
-24.029361 28.922582 3.312163 37.747800 -0.877545 1.482939 0.007334 -0.002413 -100682.000000 0 0 1
-23.133061 30.004712 3.093963 38.013075 -0.914002 1.489314 0.004181 -0.001140 326128.000000 0 0 1
-21.656361 29.619792 3.333363 36.843472 -0.939472 1.480199 0.020858 -0.005180 -52104.700000 0 0 1
-20.755661 30.553892 2.812563 37.043870 -0.974089 1.494798 0.043541 -0.010260 -30524.800000 0 0 1
-19.444561 30.217612 3.282263 36.082798 -0.999015 1.479706 0.063997 -0.016408 999309.000000 0 0 1
-18.298961 31.212642 2.909963 36.298057 -1.040535 1.490542 0.074433 -0.018964 340346.000000 0 0 1
-18.417161 32.491676 3.573163 37.518907 -1.055126 1.475415 0.077439 -0.022423 13351.400000 0 0 1
-17.287861 33.341557 3.396363 37.710276 -1.092452 1.480609 0.098651 -0.025574 218572.000000 0 0 1
-17.231361 -33.474732 4.267363 37.890472 1.095413 1.457933 0.095911 -0.019995 171913.000000 0 0 1
-18.084061 -32.402412 3.829363 37.304338 1.061749 1.467963 0.096057 -0.020762 183884.000000 0 0 1
-18.122061 -31.402402 4.805363 36.573371 1.047392 1.439026 0.078210 -0.032816 43335.500000 0 0 1
-19.386761 -30.541842 4.618863 36.468953 1.005209 1.443803 0.082309 -0.024780 -18016.400000 0 0 1
-19.338961 -29.726902 3.449063 35.631168 0.994032 1.473845 0.087990 -0.033146 454383.000000 0 0 1
-20.429561 -28.795262 3.502463 35.479590 0.953739 1.471918 0.088280 -0.039419 368881.000000 0 0 1
-20.690861 -27.896162 2.329063 34.809943 0.932622 1.503838 0.099125 -0.036453 -444143.000000 0 0 1
-19.618761 -27.022882 2.256663 33.469755 0.942829 1.503321 0.092843 -0.031359 -503607.000000 0 0 1
-19.734361 -25.980892 1.316163 32.652474 0.921197 1.530477 0.083835 -0.032814 132365.000000 0 0 1
-18.615061 -24.942722 1.555463 31.162146 0.929659 1.520860 0.076010 -0.029611 970662.000000 0 0 1
-17.349561 -25.241012 0.968063 30.643973 0.968607 1.539200 0.076717 -0.032660 55494.300000 0 0 1
-16.353961 -24.247522 1.155563 29.269945 0.977418 1.531307 0.077363 -0.025555 727225.000000 0 0 1
-15.021061 -24.708222 0.459363 28.919535 1.024561 1.554911 0.089313 -0.026311 104394.000000 0 0 1
-14.952461 -24.809922 -0.936537 28.982502 1.028408 1.603116 0.082964 -0.023437 -122010.000000 0 0 1
-14.814961 -23.550522 -1.552837 27.866135 1.009275 1.626550 0.079785 -0.027812 -234636.000000 0 0 1
-15.082361 -23.556722 -3.084737 28.140938 1.001301 1.680634 0.063386 -0.015816 -49187.500000 0 0 1
-14.054461 -24.157622 -3.827237 28.209330 1.043880 1.706889 0.075206 -0.017807 -82280.500000 0 0 1
-14.399861 -24.161622 -5.202437 28.604289 1.033337 1.753690 0.064380 -0.015309 805317.000000 0 0 1
-13.224461 -24.772322 -6.059437 28.727532 1.080444 1.783320 0.086454 -0.018723 736053.000000 0 0 1
-13.141161 -26.171722 -5.944437 29.882863 1.105460 1.771057 0.059667 -0.021705 -298759.000000 0 0 1
-11.987461 -26.685122 -6.553537 29.979056 1.148592 1.791180 0.082853 -0.015235 -154368.000000 0 0 1
23.756839 13.358578 28.176528 39.201476 0.512241 0.768776 0.062884 -0.010563 -241695.000000 0 0 1
24.762339 12.395878 28.394208 39.661849 0.464123 0.772874 0.055169 -0.013719 239450.000000 0 0 1
24.296139 11.226778 29.117068 39.549293 0.432855 0.743325 0.058816 -0.015587 -177023.000000 0 0 1
24.271739 11.452078 30.602378 40.703476 0.440857 0.719953 0.081208 -0.018413 342264.000000 0 0 1
23.099139 12.095278 31.097848 40.582535 0.482368 0.697755 0.079942 -0.014758 357484.000000 0 0 1
23.141139 12.449778 32.475547 41.775237 0.493578 0.680295 0.078305 -0.015363 -568062.000000 0 0 1
22.105439 13.461378 32.931136 41.884590 0.546983 0.666104 0.066994 -0.009232 141229.000000 0 0 1
20.751239 13.034078 32.963413 41.074173 0.560833 0.639266 0.055850 0.001674 429582.000000 0 0 1
19.983939 13.825278 33.831806 41.654378 0.605215 0.622878 0.061062 0.001396 270541.000000 0 0 1
18.759439 13.150978 -33.534797 40.613389 0.611419 2.542252 0.054445 0.010967 703714.000000 0 0 1
17.679839 12.814878 33.645110 40.109740 0.627197 0.575672 0.042761 0.009701 910421.000000 0 0 1
16.534039 12.450678 -33.606957 39.469246 0.645439 2.589582 0.036971 0.008343 3523.130000 0 0 1
15.331339 12.104378 33.616451 38.879708 0.668317 0.526389 0.039517 0.008695 -802473.000000 0 0 1
15.403339 10.964378 32.788705 37.849434 0.618614 0.523063 0.037797 0.018241 -666224.000000 0 0 1
14.180839 10.638978 32.210772 36.767076 0.643652 0.503132 0.040332 0.010056 -588221.000000 0 0 1
14.405939 9.434978 31.280078 35.707047 0.579838 0.503250 0.046803 0.008924 46501.000000 0 0 1
14.825939 8.247878 31.936398 36.163096 0.507678 0.488322 0.028909 0.006110 -393907.000000 0 0 1
15.643039 7.512678 31.119888 35.631341 0.447729 0.508686 0.034834 -0.008319 -469940.000000 0 0 1
15.952039 6.099278 31.606358 35.925348 0.365200 0.495400 0.057177 -0.016456 23928.300000 0 0 1
14.847239 5.183378 31.691638 35.378918 0.335885 0.460619 0.061512 -0.013453 158212.000000 0 0 1
15.252839 3.876478 31.967128 35.631074 0.248879 0.457477 0.074814 -0.021630 609281.000000 0 0 1
14.057939 2.844278 32.103671 35.161929 0.199631 0.420160 0.057853 -0.012786 799084.000000 0 0 1
14.500539 1.513278 32.457790 35.581790 0.103984 0.422169 0.069729 -0.019123 366840.000000 0 0 1
13.423939 0.750278 33.017612 35.650073 0.055833 0.386701 0.068415 -0.015347 491811.000000 0 0 1
13.816939 -0.731222 33.298603 36.058833 -0.052873 0.393815 0.053343 -0.012149 15265.000000 0 0 1
13.845539 -1.609022 32.158146 35.049027 -0.115693 0.409000 0.026922 -0.012311 62911.200000 0 0 1
14.371639 -2.846422 32.582400 35.724766 -0.195528 0.422566 0.065976 -0.018320 -554151.000000 0 0 1
14.679239 -3.843722 31.473228 34.940211 -0.256098 0.449248 0.062855 -0.016808 -614454.000000 0 0 1
15.244639 -5.154222 31.840378 35.675968 -0.326035 0.467965 0.066269 -0.013218 86032.300000 0 0 1
16.358239 -5.309622 32.682546 36.931462 -0.313856 0.484407 0.042858 -0.017379 -598519.000000 0 0 1
17.645439 -4.768422 32.060684 36.905106 -0.263931 0.518158 0.048196 -0.022308 -1268480.000000 0 0 1
17.716139 -3.359022 32.031698 36.758323 -0.187378 0.512720 0.057516 -0.021095 -266611.000000 0 0 1
18.882539 -3.026422 31.333598 36.708362 -0.158925 0.547973 0.081813 -0.032185 -167227.000000 0 0 1
18.943639 -1.509322 31.244568 36.569968 -0.079506 0.546444 0.088537 -0.036120 -455062.000000 0 0 1
19.024239 -0.771222 32.486532 37.654896 -0.040517 0.530125 0.083696 -0.027412 200790.000000 0 0 1
19.191439 0.638478 32.403752 37.665928 0.033257 0.534951 0.073751 -0.017561 62181.100000 0 0 1
20.544739 1.128678 31.826018 37.897963 0.054882 0.573915 0.073058 -0.020054 -213277.000000 0 0 1
20.622739 0.991078 30.417488 36.762796 0.048021 0.596336 0.079282 -0.027798 303535.000000 0 0 1
21.583639 1.914178 29.853838 36.888605 0.088455 0.627842 0.066133 -0.021140 443206.000000 0 0 1
21.098039 3.368778 29.604548 36.508974 0.158336 0.625135 0.055896 -0.008023 -224394.000000 0 0 1
20.945239 4.052578 30.819078 37.482556 0.191123 0.605488 0.058430 -0.018936 337462.000000 0 0 1
20.231639 5.259578 30.699778 37.141065 0.254338 0.597806 0.054019 -0.014364 -327995.000000 0 0 1
19.888639 5.876078 32.048768 38.173417 0.287276 0.574329 0.061041 -0.009785 -247307.000000 0 0 1
18.927539 5.087978 32.721577 38.142376 0.262606 0.539667 0.062373 -0.008810 168908.000000 0 0 1
18.659239 5.638678 34.021575 39.210068 0.293467 0.520291 0.061615 -0.005509 -198216.000000 0 0 1
17.514139 4.869878 -33.320547 37.956812 0.271203 2.642160 0.070469 -0.010036 -132630.000000 0 0 1
17.851639 3.570278 -32.905517 37.605863 0.197393 2.636253 0.067564 -0.011600 178055.000000 0 0 1
16.785239 2.901678 -32.272827 36.492456 0.171179 2.655939 0.067403 -0.010356 33813.400000 0 0 1
17.044239 1.391378 -32.402007 36.637850 0.081453 2.655974 0.077546 -0.015330 -259664.000000 0 0 1
18.118739 0.911078 -31.658447 36.488025 0.050241 2.621231 0.051235 -0.012176 -273410.000000 0 0 1
18.288139 -0.457922 -32.028147 36.884521 -0.025034 2.622633 0.075058 -0.013849 -1031190.000000 0 0 1
19.404639 -1.048322 -31.223187 36.776710 -0.053972 2.584874 0.098642 -0.015212 -1087600.000000 0 0 1
19.340439 -1.194722 -29.834907 35.575295 -0.061695 2.565580 0.105402 -0.015165 29936.200000 0 0 1
19.368639 0.018178 -29.078457 34.938534 0.000939 2.553995 0.100320 -0.007494 -357985.000000 0 0 1
18.899639 -0.178322 -27.635457 33.480541 -0.009435 2.541739 0.070250 -0.011745 -409158.000000 0 0 1
17.510439 -0.397222 -27.541117 32.638725 -0.022681 2.575153 0.066473 -0.014180 -21706.600000 0 0 1
17.036339 -0.686022 -26.238637 31.291748 -0.040246 2.565351 0.070199 -0.012298 -67317.000000 0 0 1
17.591139 -1.934022 -25.497497 31.037251 -0.109503 2.534855 0.075510 -0.005389 -61272.100000 0 0 1
18.937139 -1.692422 -25.109397 31.495417 -0.089134 2.493505 0.062040 -0.009369 223549.000000 0 0 1
19.699339 -2.858422 -24.882037 31.864561 -0.144097 2.466851 0.066899 -0.007400 567195.000000 0 0 1
20.501639 -3.547322 -26.080377 33.362954 -0.171330 2.468210 0.072532 -0.018032 699820.000000 0 0 1
21.646239 -2.747622 -26.403177 34.252545 -0.126258 2.450953 0.061579 -0.007669 173820.000000 0 0 1
22.041039 -2.832022 -27.751867 35.552691 -0.127788 2.466396 0.060213 -0.017060 1078990.000000 0 0 1
23.487039 -2.217922 -27.967267 36.588634 -0.094153 2.440861 0.038806 -0.019493 1900380.000000 0 0 1
24.558539 -3.177722 -27.885657 37.293828 -0.128679 2.415431 0.039886 -0.022215 272887.000000 0 0 1
25.848339 -2.689722 -28.142147 38.306026 -0.103685 2.395971 0.018597 -0.019015 675604.000000 0 0 1
26.958139 -3.744222 -27.692907 38.828566 -0.138007 2.364863 0.034357 -0.018864 440715.000000 0 0 1
27.061739 -4.869022 -28.564357 39.648046 -0.178018 2.375244 0.058348 -0.029499 601963.000000 0 0 1
28.233039 -5.653122 -28.350727 40.408241 -0.197617 2.348447 0.055841 -0.027788 313429.000000 0 0 1
28.038339 -6.741622 -27.252537 39.677433 -0.235964 2.327946 0.050855 -0.019918 -68342.400000 0 0 1
27.885839 -6.195522 -25.967337 38.604495 -0.218623 2.308581 0.039803 -0.007873 277071.000000 0 0 1
27.714839 -7.192222 -24.978937 37.997205 -0.253907 2.288145 0.018184 0.001176 -124798.000000 0 0 1
27.647739 -6.676422 -23.537637 36.918727 -0.236945 2.262114 -0.000887 0.007057 -320966.000000 0 0 1
28.893839 -6.248222 -23.062137 37.493417 -0.212968 2.233307 -0.000655 0.008232 -181652.000000 0 0 1
28.871239 -5.791422 -21.712537 36.585834 -0.197967 2.206158 0.004698 -0.005835 -189920.000000 0 0 1
30.255539 -5.363322 -21.175337 37.316990 -0.175445 2.174196 0.031466 -0.012799 -104295.000000 0 0 1
30.816939 -4.263122 -21.826537 38.003363 -0.137465 2.182584 0.037132 -0.017619 -152590.000000 0 0 1
32.099339 -3.972822 -21.324137 38.741059 -0.123140 2.153672 0.049954 -0.015888 60368.300000 0 0 1
32.758239 -2.728822 -21.960837 39.532607 -0.083110 2.159775 0.059125 -0.027515 81073.100000 0 0 1
31.965039 -1.586522 -21.687137 38.660220 -0.049592 2.166351 0.047273 -0.024985 156354.000000 0 0 1
32.491939 -0.435722 -22.285337 39.402439 -0.013409 2.171936 0.037296 -0.021356 90387.700000 0 0 1
31.588039 0.847378 -22.129537 38.577696 0.026819 2.181734 0.038906 -0.017681 -700135.000000 0 0 1
30.442439 0.657178 -22.846637 38.067608 0.021584 2.214497 0.021093 -0.012542 -222092.000000 0 0 1
29.471439 1.725478 -22.747537 37.269202 0.058481 2.227308 0.015720 -0.007567 849382.000000 0 0 1
28.141839 1.637678 -23.539837 36.725590 0.058128 2.266552 0.012541 -0.001398 194245.000000 0 0 1
27.182639 2.572678 -23.089837 35.758287 0.094363 2.272762 0.020959 -0.003170 -608623.000000 0 0 1
26.112639 2.604178 -23.963337 35.537208 0.099400 2.310835 0.030818 -0.010281 -400269.000000 0 0 1
25.188539 3.796878 -23.540137 34.684533 0.149612 2.316777 0.036462 -0.008032 -1953.590000 0 0 1
25.816339 5.015478 -23.792237 35.464192 0.191885 2.306192 0.025828 -0.004719 276053.000000 0 0 1
24.852639 6.019278 -23.537237 34.754667 0.237623 2.314801 0.045618 -0.019000 21410.100000 0 0 1
25.392639 7.240078 -22.786137 34.877111 0.277755 2.282766 0.062571 -0.017010 -554164.000000 0 0 1
26.058039 8.116578 -23.643837 36.109988 0.301956 2.284678 0.049495 -0.013742 -50305.400000 0 0 1
26.290639 9.320378 -23.003937 36.155888 0.340690 2.260415 0.065755 -0.017437 -731605.000000 0 0 1
27.148039 10.299278 -23.770837 37.525242 0.362600 2.256816 0.086197 -0.016525 -527287.000000 0 0 1
26.716939 10.652578 -25.082807 38.163064 0.379402 2.287965 0.086617 -0.024617 804926.000000 0 0 1
25.451739 11.314878 -25.222857 37.576721 0.418323 2.306672 0.093879 -0.029738 645209.000000 0 0 1
24.847339 11.433678 -26.655107 38.191805 0.431268 2.343296 0.083943 -0.028953 5887.210000 0 0 1
24.631739 10.161178 -27.333937 38.172191 0.391256 2.368951 0.077820 -0.020246 481728.000000 0 0 1
25.768839 9.377078 -27.680247 38.963556 0.348997 2.360882 0.066566 -0.029505 -70516.600000 0 0 1
26.564539 9.738878 -28.927977 40.464161 0.351397 2.367283 0.068031 -0.017261 -590936.000000 0 0 1
27.455939 10.829778 -28.700407 41.168264 0.375706 2.342209 0.059804 -0.014619 1356590.000000 0 0 1
28.315339 11.313678 -29.785677 42.625629 0.380127 2.344478 0.057898 -0.006784 1101160.000000 0 0 1
29.394839 10.307878 -30.321997 43.471052 0.337271 2.342729 0.045452 -0.006929 -619116.000000 0 0 1
28.827439 9.270078 -31.040777 43.364564 0.311128 2.368579 0.049712 -0.006572 317536.000000 0 0 1
29.726039 8.203078 -31.315427 43.949787 0.269255 2.363890 0.043964 -0.003855 -31034.500000 0 0 1
29.033639 7.162278 -32.244467 43.976767 0.241860 2.393836 0.043440 -0.009318 -9811.130000 0 0 1
27.906339 6.619378 -31.601807 42.676154 0.232896 2.404614 0.053423 -0.013041 -173260.000000 0 0 1
27.324839 5.660178 -32.497027 42.833879 0.204255 2.432074 0.062341 -0.012081 -450066.000000 0 0 1
25.900139 5.365178 -32.026617 41.536809 0.204260 2.451272 0.057494 -0.012201 -490819.000000 0 0 1
24.941539 6.334478 -32.377437 41.358244 0.248714 2.470035 0.074093 -0.015025 155012.000000 0 0 1
24.274639 6.863178 -31.236877 40.151012 0.275539 2.462248 0.074075 -0.012271 -65785.600000 0 0 1
22.758639 7.067478 -31.392927 39.413459 0.301099 2.492285 0.076053 -0.016448 -236350.000000 0 0 1
22.318139 8.014678 -32.305107 40.074360 0.344768 2.508377 0.079772 -0.011176 55600.300000 0 0 1
20.905439 7.988878 -32.416227 39.391259 0.365019 2.537344 0.070174 -0.011614 191809.000000 0 0 1
20.330539 9.073978 -33.377307 40.121222 0.419792 2.553340 0.066638 -0.002428 -126624.000000 0 0 1
20.608539 8.809978 33.310590 40.148761 0.403979 0.592264 0.058453 -0.001198 134277.000000 0 0 1
20.116239 9.925078 32.526063 39.510948 0.458343 0.603743 0.056082 0.003559 315821.000000 0 0 1
19.051139 9.557378 31.432238 37.977295 0.464982 0.595873 0.050692 0.001503 110879.000000 0 0 1
19.340639 8.589378 30.431248 37.066138 0.417945 0.607638 0.058270 -0.007808 587353.000000 0 0 1
20.454839 8.793078 29.515908 36.971712 0.405995 0.646267 0.070067 -0.011455 352374.000000 0 0 1
20.220639 9.935878 28.465198 36.302388 0.456722 0.669530 0.079317 -0.014195 65525.600000 0 0 1
19.206439 9.529778 27.546108 34.906905 0.460584 0.661404 0.065098 -0.003582 -187590.000000 0 0 1
17.995339 10.140278 27.878938 34.697156 0.513145 0.637656 0.066189 -0.020337 271281.000000 0 0 1
16.736739 9.390878 27.230018 33.313374 0.511321 0.613931 0.092577 -0.017762 794089.000000 0 0 1
16.550739 9.574578 25.784738 32.100658 0.524460 0.638071 0.100964 -0.017956 211675.000000 0 0 1
15.243939 9.330078 25.311608 30.985570 0.549234 0.614809 0.115337 -0.018276 225233.000000 0 0 1
14.927839 7.866678 24.904288 30.082363 0.484998 0.595497 0.116003 -0.014889 5162.160000 0 0 1
15.063239 7.023378 26.010538 30.867088 0.436293 0.568587 0.093036 -0.015218 23632.200000 0 0 1
14.698039 5.724578 25.721708 30.172991 0.371404 0.550096 0.099207 -0.013651 -61471.800000 0 0 1
14.743239 4.723578 26.877408 31.017259 0.310056 0.522587 0.083242 -0.012865 -347169.000000 0 0 1
16.052739 4.309078 27.141468 31.826371 0.262250 0.549476 0.065748 -0.009269 -223186.000000 0 0 1
16.070939 3.785478 28.460958 32.903359 0.231331 0.525673 0.054763 -0.014314 -29389.600000 0 0 1
17.116239 2.727278 28.884078 33.685214 0.158010 0.540463 0.079934 -0.018636 -248115.000000 0 0 1
16.847439 1.401778 28.679448 33.291319 0.083013 0.532640 0.072295 -0.025453 707022.000000 0 0 1
15.952139 0.815078 29.699248 33.722106 0.051051 0.493446 0.054469 -0.020985 675752.000000 0 0 1
15.726039 -0.651022 29.597138 33.521974 -0.041374 0.488756 0.066848 -0.024138 -56114.000000 0 0 1
14.825339 -1.147722 28.576588 32.213806 -0.077262 0.479791 0.052936 -0.021780 668405.000000 0 0 1
15.319139 -1.158322 27.213608 31.250571 -0.075469 0.513929 0.059185 -0.023192 -134107.000000 0 0 1
16.440039 -2.222922 26.886608 31.592815 -0.134399 0.552842 0.056853 -0.027039 949619.000000 0 0 1
17.729839 -2.048522 27.441658 32.735122 -0.115031 0.576650 0.059361 -0.031345 653311.000000 0 0 1
18.491039 -0.881722 27.062968 32.788721 -0.047648 0.599931 0.065829 -0.024466 325459.000000 0 0 1
19.985539 -0.795622 27.561078 34.053896 -0.039789 0.627774 0.090939 -0.021945 636031.000000 0 0 1
20.747839 -1.594022 26.715258 33.863236 -0.076678 0.661753 0.069647 -0.018723 -1225090.000000 0 0 1
22.040039 -1.666122 27.225638 35.068143 -0.075452 0.681920 0.066365 -0.019752 -353409.000000 0 0 1
23.102639 -2.235622 26.252588 35.041808 -0.096469 0.723975 0.067705 -0.013011 26422.900000 0 0 1
23.366239 -1.558722 25.027108 34.274872 -0.066610 0.752199 0.071341 0.000335 431411.000000 0 0 1
22.606339 -2.213522 23.990308 33.037571 -0.097605 0.758087 0.082638 -0.001134 224891.000000 0 0 1
22.514839 -1.610522 22.627698 31.961296 -0.071410 0.784174 0.079605 -0.015837 3989.150000 0 0 1
21.643739 -0.495622 22.667398 31.344984 -0.022895 0.762432 0.065761 -0.008209 106688.000000 0 0 1
21.507439 0.115178 21.365498 30.316129 0.005355 0.788716 0.059401 -0.004170 -256952.000000 0 0 1
-30.897221 -27.559656 -10.320437 42.669478 0.728366 1.815088 0.025037 0.001849 -58745.800000 0 0 1
-30.846991 -26.415856 -9.542937 41.718125 0.708170 1.801588 0.028954 0.004273 -31058.100000 0 0 1
-31.346291 -26.598856 -8.209237 41.922318 0.703651 1.767890 0.054313 -0.009643 -372282.000000 0 0 1
-31.720901 -25.200756 -7.586437 41.217080 0.671349 1.755912 0.082933 -0.018091 19241.000000 0 0 1
-30.687791 -24.402156 -7.045537 39.835228 0.671792 1.748599 0.062060 -0.018501 -465916.000000 0 0 1
-30.110251 -24.906756 -5.852037 39.512278 0.691099 1.719450 0.055763 -0.017203 460457.000000 0 0 1
-28.785891 -24.148856 -5.504437 37.974908 0.698022 1.716258 0.061426 -0.016221 176394.000000 0 0 1
-28.800131 -23.053556 -4.521137 37.166580 0.675026 1.692744 0.076253 -0.022889 -77207.900000 0 0 1
-29.461781 -21.867056 -4.927137 37.019473 0.638502 1.704288 0.087411 -0.027811 -77469.100000 0 0 1
-29.321341 -20.671456 -3.933637 36.090493 0.614072 1.680007 0.088637 -0.028041 -270584.000000 0 0 1
-28.024361 -20.152756 -4.009337 34.750154 0.623440 1.686430 0.090354 -0.031141 -81615.400000 0 0 1
-27.964151 -19.045156 -3.097137 33.975050 0.597898 1.662082 0.114963 -0.024016 -487743.000000 0 0 1
-26.918091 -18.007356 -3.394037 32.563292 0.589595 1.675215 0.115417 -0.024792 -375874.000000 0 0 1
-27.350071 -17.104756 -4.407137 32.557978 0.558887 1.706576 0.116274 -0.032587 210105.000000 0 0 1
-26.511321 -15.978456 -4.479837 31.276671 0.542405 1.714523 0.121216 -0.037657 14566.400000 0 0 1
-27.048121 -14.918056 -5.522637 31.379114 0.504023 1.747715 0.114784 -0.048900 634502.000000 0 0 1
-28.350901 -14.409356 -5.242637 32.231792 0.470226 1.734176 0.103306 -0.040536 459218.000000 0 0 1
-28.573421 -13.143956 -5.884637 31.997390 0.431144 1.755759 0.127580 -0.052254 43493.800000 0 0 1
-29.933971 -12.428256 -5.696937 32.908347 0.393531 1.744788 0.133249 -0.037654 -121313.000000 0 0 1
-31.007721 -13.178356 -6.197437 34.257205 0.401873 1.752707 0.126113 -0.036483 -306737.000000 0 0 1
-32.231201 -12.517956 -5.945137 35.084102 0.370449 1.741072 0.099525 -0.041400 -239526.000000 0 0 1
-33.376711 -13.254556 -6.657937 36.524187 0.378021 1.754110 0.055047 -0.033310 -368534.000000 0 0 1
-33.778221 -14.476456 -6.050537 37.244396 0.404894 1.733974 0.060134 -0.031952 158048.000000 0 0 1
-33.930031 -15.475356 -7.053937 37.953810 0.427912 1.757739 0.063424 -0.034839 -966704.000000 0 0 1
-34.871691 -16.606056 -6.659737 39.193725 0.444431 1.741543 0.052171 -0.023260 -645007.000000 0 0 1
-36.247241 -16.408856 -6.633837 40.337586 0.425091 1.736005 0.054764 -0.022662 -622089.000000 0 0 1
-36.681761 -15.785656 -5.467637 40.306744 0.406386 1.706866 0.078149 -0.026367 -1085770.000000 0 0 1
35.492198 -15.853456 -5.356237 39.239234 -0.420085 1.707726 0.100452 -0.029312 -785687.000000 0 0 1
34.812378 -15.081956 -6.368937 38.469864 -0.408825 1.737119 0.101696 -0.032243 1113550.000000 0 0 1
33.375338 -15.182956 -6.262137 37.197442 -0.426934 1.739950 0.097198 -0.031998 1351370.000000 0 0 1
32.608908 -14.425456 -5.125237 36.023641 -0.416497 1.713555 0.114438 -0.037254 -444089.000000 0 0 1
32.786418 -14.944356 -3.859137 36.237769 -0.427674 1.677494 0.102526 -0.036295 463252.000000 0 0 1
31.950128 -14.212456 -2.976637 35.095085 -0.418548 1.655715 0.109636 -0.040388 -708477.000000 0 0 1
31.858618 -14.979956 -1.616637 35.241796 -0.439526 1.616685 0.113522 -0.042919 -309198.000000 0 0 1
33.000138 -15.041756 -0.774337 36.274828 -0.427674 1.592144 0.131919 -0.039458 525326.000000 0 0 1
34.169508 -15.707256 -1.239837 37.627256 -0.430880 1.603753 0.115194 -0.037387 -180521.000000 0 0 1
34.009738 -17.186156 -1.689237 38.142886 -0.467903 1.615098 0.106174 -0.036512 -1002460.000000 0 0 1
34.044158 -18.114256 -0.589337 38.567840 -0.488982 1.586077 0.117997 -0.030472 166840.000000 0 0 1
33.786728 -19.516856 -0.932337 39.029731 -0.523822 1.594686 0.099175 -0.033096 476837.000000 0 0 1
34.856458 -20.214656 -1.877137 40.337683 -0.525539 1.617349 0.095092 -0.042041 564233.000000 0 0 1
34.967698 -19.645956 -3.170837 40.233788 -0.511882 1.649688 0.080775 -0.033969 -199436.000000 0 0 1
35.811658 -20.391856 -4.001837 41.404316 -0.517630 1.667600 0.092881 -0.030460 21775.900000 0 0 1
36.009238 -19.636456 -5.333237 41.360598 -0.499241 1.700101 0.101701 -0.029743 508539.000000 0 0 1
34.813638 -19.715056 -6.119237 40.473669 -0.515273 1.722569 0.093110 -0.034858 576615.000000 0 0 1
34.921508 -19.038056 -7.356137 40.448388 -0.499125 1.753679 0.097501 -0.028123 -196797.000000 0 0 1
33.843118 -19.395556 -8.391437 39.899379 -0.520407 1.782693 0.100032 -0.031073 -95149.100000 0 0 1
33.991498 -20.650456 -9.072337 40.794247 -0.545929 1.795064 0.100856 -0.033549 202813.000000 0 0 1
33.015818 -20.681356 -10.087337 40.243224 -0.559611 1.824158 0.105195 -0.041312 -115382.000000 0 0 1
32.838948 -22.061756 -10.747737 40.995505 -0.591560 1.836065 0.105836 -0.037153 -109561.000000 0 0 1
32.434208 -23.010856 -9.779437 40.952591 -0.617048 1.811925 0.096657 -0.035739 -39532.200000 0 0 1
32.244098 -24.276656 -10.310337 41.657424 -0.645356 1.820899 0.075348 -0.022844 -478481.000000 0 0 1
31.444138 -25.281856 -9.473437 41.444566 -0.677190 1.801416 0.070094 -0.021237 377037.000000 0 0 1
30.093278 -24.898156 -9.239537 40.135927 -0.691206 1.803086 0.058321 -0.025799 -343281.000000 0 0 1
29.282568 -25.926356 -8.918137 40.114560 -0.724682 1.794986 0.034225 -0.022072 -860814.000000 0 0 1
27.850158 -25.456656 -8.694937 38.720467 -0.740528 1.797284 0.035705 -0.022853 -247085.000000 0 0 1
27.070058 -24.957456 -9.761637 38.091367 -0.744815 1.829957 0.031058 -0.011896 -224246.000000 0 0 1
25.826158 -24.478556 -9.324637 36.785038 -0.758616 1.827083 0.041042 -0.022108 -276876.000000 0 0 1
24.868758 -24.085156 -10.492337 36.175116 -0.769393 1.865068 0.059429 -0.021290 -259011.000000 0 0 1
24.301458 -25.220556 -11.073737 36.732342 -0.803955 1.877031 0.061676 -0.010805 -7935.110000 0 0 1
23.809758 -24.906056 -12.355237 36.604209 -0.807898 1.915094 0.071307 -0.004657 4600.560000 0 0 1
23.119658 -26.079056 -13.025437 37.206152 -0.845478 1.928462 0.075033 -0.008651 458832.000000 0 0 1
24.132458 -26.956056 -13.533637 38.628536 -0.840611 1.928745 0.057746 -0.005346 804932.000000 0 0 1
23.634658 -28.270356 -13.574537 39.269303 -0.874473 1.923758 0.088715 -0.013608 -316883.000000 0 0 1
24.391958 -29.281856 -14.471437 40.765392 -0.876251 1.933703 0.091854 -0.014936 -259664.000000 0 0 1
24.285358 -29.069356 -15.850137 41.061331 -0.874823 1.967100 0.084909 -0.013896 260851.000000 0 0 1
24.634858 -30.249556 -16.534037 42.370819 -0.887344 1.971669 0.078557 -0.019215 -267361.000000 0 0 1
24.434358 -30.284756 -18.094437 42.914018 -0.891910 2.006054 0.072209 -0.016506 -779223.000000 0 0 1
23.099158 -30.128856 -18.425337 42.199670 -0.916706 2.022638 0.084819 -0.015909 -737948.000000 0 0 1
22.933258 -30.149856 -19.855237 42.768897 -0.920519 2.053578 0.066853 -0.009623 363103.000000 0 0 1
21.507858 -29.712056 -20.308737 41.926591 -0.944225 2.076460 0.058872 -0.001773 154444.000000 0 0 1
21.264258 -29.867656 -21.655637 42.581829 -0.952096 2.104314 0.026080 -0.000155 342783.000000 0 0 1
19.918058 -29.700456 -22.056737 42.016018 -0.980054 2.123465 0.036207 -0.007767 -144116.000000 0 0 1
19.846058 -29.690256 -23.585337 42.797727 -0.981569 2.154464 0.036381 -0.011082 -289435.000000 0 0 1
20.564258 -28.711256 -24.306637 42.872340 -0.949252 2.173600 0.049165 -0.017568 357443.000000 0 0 1
20.459158 -29.041656 -25.639397 43.810656 -0.957072 2.195962 0.053981 -0.020185 17827.000000 0 0 1
21.067658 -27.986856 -26.629277 44.002599 -0.925525 2.220782 0.067169 -0.028518 418976.000000 0 0 1
20.276758 -26.787056 -26.743497 42.940749 -0.922855 2.243113 0.083749 -0.040655 -329968.000000 0 0 1
19.387858 -26.853456 -27.786237 43.232767 -0.945466 2.268830 0.103793 -0.047992 -986959.000000 0 0 1
18.491058 -25.628156 -27.922817 42.171143 -0.945777 2.294455 0.097595 -0.041220 -319296.000000 0 0 1
17.485358 -25.577756 -26.929487 41.050659 -0.971151 2.286311 0.076918 -0.026768 -67323.800000 0 0 1
16.926158 -24.276356 -26.868427 39.971848 -0.961933 2.307951 0.069693 -0.023254 -257413.000000 0 0 1
15.749158 -24.048256 -25.921097 38.707336 -0.990985 2.304559 0.077250 -0.019978 -540975.000000 0 0 1
14.524758 -24.676456 -26.259857 38.851978 -1.038795 2.312975 0.106186 -0.029677 218103.000000 0 0 1
13.382958 -24.304356 -25.502887 37.685575 -1.067462 2.314106 0.078063 -0.020696 409705.000000 0 0 1
13.379058 -24.684456 -24.018137 36.948511 -1.074113 2.278438 0.077108 -0.021949 -1121310.000000 0 0 1
14.382958 -23.994856 -23.355737 36.443285 -1.030805 2.266439 0.058434 -0.018789 -581845.000000 0 0 1
14.523958 -24.426856 -22.018537 35.950419 -1.034364 2.229977 0.060901 -0.027851 624502.000000 0 0 1
15.781958 -23.727956 -21.378337 35.624702 -0.983865 2.214421 0.045664 -0.031598 494215.000000 0 0 1
15.641058 -22.404656 -20.918737 34.412278 -0.961336 2.224192 0.046263 -0.030916 -514555.000000 0 0 1
16.843658 -21.918056 -20.440237 34.378966 -0.915571 2.207510 0.055128 -0.028162 -829975.000000 0 0 1
16.603758 -20.599756 -19.696337 32.984548 -0.892397 2.210725 0.065160 -0.012540 1490.990000 0 0 1
15.877358 -20.604756 -18.495837 31.917745 -0.914261 2.188892 0.065978 -0.023054 1330200.000000 0 0 1
14.472058 -20.315056 -18.687237 31.166565 -0.951809 2.213788 0.055827 -0.021039 877772.000000 0 0 1
13.608158 -20.189756 -17.442537 29.950798 -0.977725 2.192441 0.068384 -0.023398 -290789.000000 0 0 1
14.065358 -19.136456 -16.639937 28.998720 -0.936962 2.181954 0.072084 -0.019077 344161.000000 0 0 1
13.284658 -19.034256 -15.447137 27.881877 -0.961458 2.157982 0.081300 -0.022385 -117704.000000 0 0 1
13.332658 -17.729456 -14.612637 26.563557 -0.926013 2.153281 0.086386 -0.019306 -509441.000000 0 0 1
12.412658 -16.728456 -14.968737 25.651090 -0.932429 2.193892 0.080584 -0.020830 50560.700000 0 0 1
12.526958 -15.515456 -14.203037 24.482245 -0.891568 2.189692 0.074541 -0.019494 -351050.000000 0 1 0
11.203358 -14.801056 -13.917537 23.200955 -0.922875 2.214134 0.077394 -0.016672 -60362.400000 0 1 0
10.453858 -14.378456 -15.055937 23.296016 -0.942146 2.273506 0.080713 -0.009350 1026460.000000 0 1 0
9.218958 -13.709156 -14.709637 22.120207 -0.978789 2.298272 0.070391 -0.014285 1198460.000000 0 1 0
8.390758 -13.109556 -15.895637 22.247170 -1.001448 2.366708 0.050903 -0.006664 142375.000000 0 1 0
8.918258 -11.940356 -16.521937 22.250434 -0.929282 2.407658 0.048374 -0.003376 -390603.000000 0 1 0
10.062758 -12.091156 -17.299237 23.382018 -0.876703 2.403647 0.064538 -0.005931 -375611.000000 0 1 0
10.396558 -10.937256 -18.268237 23.694735 -0.810737 2.451179 0.062248 -0.008117 232924.000000 0 1 0
9.652358 -10.970156 -19.503937 24.370390 -0.849212 2.498613 0.062674 -0.005796 519138.000000 0 1 0
9.522858 -9.701356 -20.103137 24.268029 -0.794683 2.547005 0.052892 -0.016768 39952.200000 0 1 0
9.191758 -9.891056 -21.609537 25.481238 -0.822027 2.583104 0.046899 -0.012627 397049.000000 0 0 1
10.323258 -10.413156 -22.302137 26.690612 -0.789733 2.559984 0.039388 -0.006080 130257.000000 0 0 1
9.966758 -10.691056 -23.620937 27.777394 -0.820446 2.587476 0.046130 -0.003725 -350184.000000 0 0 1
11.131458 -11.222856 -24.416237 29.086328 -0.789487 2.567049 0.057183 -0.006166 -558548.000000 0 0 1
11.236658 -12.611356 -24.234537 29.540169 -0.842979 2.532894 0.058451 -0.007186 124881.000000 0 0 1
12.447758 -13.230456 -24.662937 30.630901 -0.815870 2.506750 0.045480 -0.011670 324839.000000 0 0 1
12.389858 -14.811056 -24.490037 31.187143 -0.874176 2.473913 0.041153 -0.009543 448265.000000 0 0 1
11.313358 -15.471756 -25.170707 31.637506 -0.939419 2.490789 0.047309 -0.013300 224838.000000 0 0 1
11.406858 -16.849956 -24.775637 32.060406 -0.975697 2.454006 0.050946 -0.013827 -167767.000000 0 0 1
10.205858 -17.667756 -25.242577 32.457616 -1.046969 2.461809 0.056411 -0.014565 -94798.200000 0 0 1
10.242158 -18.148156 -26.553977 33.754571 -1.056992 2.476206 0.062766 -0.020327 -349758.000000 0 0 1
9.064458 -18.899156 -26.723947 33.963390 -1.123583 2.476477 0.065452 -0.018233 -94253.700000 0 0 1
9.060658 -19.852656 -27.921117 35.437441 -1.142637 2.478186 0.072974 -0.023836 -613212.000000 0 0 1
9.898458 -20.942556 -27.781227 36.171352 -1.129269 2.446579 0.068678 -0.028119 -345066.000000 0 0 1
9.718658 -21.948456 -28.782607 37.478334 -1.153951 2.446477 0.074097 -0.023778 -94149.700000 0 0 1
10.480358 -23.256256 -28.550717 38.286222 -1.147405 2.412408 0.072976 -0.021243 -75772.400000 0 0 1
10.435258 -24.203456 -29.572357 39.613460 -1.163730 2.413617 0.069794 -0.022518 -267226.000000 0 0 1
10.978858 -25.479156 -29.293807 40.346621 -1.163943 2.383362 0.085359 -0.023446 26714.600000 0 0 1
10.340858 -26.459856 -28.304027 40.102061 -1.198235 2.354348 0.084876 -0.022137 340011.000000 0 0 1
11.166058 -26.358356 -27.137757 39.444919 -1.170091 2.329514 0.093122 -0.022233 275245.000000 0 0 1
10.533058 -26.837156 -25.924597 38.771936 -1.196789 2.303179 0.081047 -0.018441 786003.000000 0 0 1
9.475458 -25.848656 -25.292927 37.385418 -1.219433 2.313857 0.065824 -0.017551 516537.000000 0 0 1
9.977658 -24.549056 -24.888537 36.354492 -1.184753 2.324861 0.073238 -0.017515 -294481.000000 0 0 1
9.004658 -23.572156 -24.586137 35.230790 -1.205899 2.343201 0.063886 -0.015802 -482467.000000 0 0 1
9.664958 -22.201056 -24.407737 34.380749 -1.160202 2.360187 0.067833 -0.016669 328154.000000 0 0 1
10.488458 -22.055456 -23.253737 33.722206 -1.126900 2.331688 0.062122 -0.014024 -48267.400000 0 0 1
11.412858 -21.021756 -23.438337 33.489150 -1.073415 2.346024 0.052406 -0.009746 -541379.000000 0 0 1
12.160558 -20.751756 -22.157137 32.702496 -1.040734 2.315204 0.042548 -0.008377 -193618.000000 0 0 1
11.364158 -20.197256 -21.107437 31.346405 -1.058286 2.309541 0.053856 -0.010404 342908.000000 0 0 1
10.844558 -18.863156 -21.278337 30.433382 -1.049032 2.345043 0.066147 -0.010623 242572.000000 0 0 1
11.877958 -17.717456 -20.997437 29.931363 -0.980207 2.348324 0.052199 -0.006828 -134471.000000 0 0 1
12.740858 -17.503356 -22.053537 30.903971 -0.941584 2.365441 0.046770 -0.003420 -84825.600000 0 0 1
14.059158 -17.418356 -21.481637 31.024503 -0.891713 2.335619 0.041652 -0.005165 442468.000000 0 0 1
15.188358 -17.377956 -22.540037 32.260391 -0.852532 2.344362 0.039298 0.001376 195463.000000 0 0 1
16.449758 -17.680556 -21.962037 32.642421 -0.821444 2.308792 0.048491 0.000377 -84187.400000 0 0 1
17.496458 -17.326356 -22.787237 33.549766 -0.780513 2.317478 0.056570 -0.005824 -576603.000000 0 0 1
18.894758 -17.541256 -22.179637 34.009467 -0.748268 2.281227 0.064775 -0.007055 -216747.000000 0 0 1
19.252058 -18.888656 -22.174537 34.916087 -0.775871 2.258909 0.072094 -0.014165 1625290.000000 0 0 1
20.695458 -18.980956 -21.977737 35.659495 -0.742213 2.234860 0.060199 -0.020098 1629370.000000 0 0 1
21.187158 -20.410456 -21.571437 36.480259 -0.766729 2.203489 0.067051 -0.023911 -131.638000 0 0 1
20.798658 -20.798056 -20.265237 35.718667 -0.785384 2.174089 0.070173 -0.027247 331241.000000 0 0 1
21.422558 -22.017656 -19.959037 36.634223 -0.799097 2.146970 0.075246 -0.022173 -52535.400000 0 0 1
-16.435361 12.674778 28.389068 35.166892 -0.656925 0.631290 0.045671 -0.024723 -218410.000000 0 0 1
-17.613261 13.418878 28.224268 35.873424 -0.651050 0.665232 0.058115 -0.026250 -398166.000000 0 0 1
-17.955561 13.332478 26.864578 34.955153 -0.638701 0.694234 0.056877 -0.027491 -382879.000000 0 0 1
-19.292561 14.007178 26.559968 35.690837 -0.627990 0.731508 0.076769 -0.030128 -267652.000000 0 0 1
-19.225861 15.381378 26.752838 36.358422 -0.674763 0.743936 0.071981 -0.031880 193403.000000 0 0 1
-20.275061 15.976778 25.992788 36.632780 -0.667382 0.781937 0.073775 -0.029651 -162140.000000 0 0 1
-20.515661 17.482478 26.275178 37.641923 -0.705743 0.798154 0.073332 -0.021715 786377.000000 0 0 1
-19.461861 18.392278 25.891138 37.247698 -0.757150 0.802227 0.065650 -0.022848 870867.000000 0 0 1
-18.237761 18.309078 26.634018 37.110769 -0.787350 0.770317 0.055173 -0.009888 427154.000000 0 0 1
-17.094961 19.095878 25.924988 36.455387 -0.840630 0.779674 0.057833 -0.009360 81666.800000 0 0 1
-17.164661 20.469278 26.018498 37.290470 -0.872983 0.798579 0.072493 -0.012766 296998.000000 0 0 1
-16.124161 21.112578 25.275458 36.668492 -0.918570 0.810279 0.090490 -0.015017 406483.000000 0 0 1
-16.320361 22.622678 25.270558 37.639618 -0.945841 0.834724 0.084497 -0.017651 48551.800000 0 0 1
-15.919761 23.318978 26.416858 38.666057 -0.971779 0.818653 0.081462 -0.010588 -118754.000000 0 0 1
-16.252761 24.660578 26.286018 39.537970 -0.988079 0.843530 0.077021 -0.018978 -196972.000000 0 0 1
-15.701461 25.491878 27.471868 40.633426 -1.018739 0.828353 0.051203 -0.007517 337181.000000 0 0 1
-14.306261 25.708678 27.301808 40.137189 -1.062995 0.822744 0.063970 -0.012309 162708.000000 0 0 1
-13.831061 26.516278 28.337188 41.199605 -1.090013 0.812339 0.067230 -0.012723 -189214.000000 0 0 1
-12.312261 26.628778 28.505648 40.905447 -1.137706 0.799777 0.080625 -0.015751 31992.200000 0 0 1
-11.601261 27.365178 27.549478 40.526732 -1.169822 0.823326 0.078011 -0.014522 -365512.000000 0 0 1
-10.224861 27.164178 27.501528 39.984677 -1.210790 0.812340 0.069682 -0.003288 -357516.000000 0 0 1
-9.369061 27.944078 26.484958 39.624536 -1.247296 0.838743 0.066203 -0.014781 1562500.000000 0 0 1
-7.933261 27.703478 26.520508 39.163206 -1.291897 0.826874 0.073271 -0.015192 1809330.000000 0 0 1
-7.271461 28.224878 25.366188 38.638859 -1.318653 0.854635 0.078409 -0.014438 343591.000000 0 0 1
-5.723461 28.205978 25.454318 38.422097 -1.370598 0.846656 0.057747 -0.015960 -621819.000000 0 0 1
-5.184461 29.031478 26.441318 39.608694 -1.394078 0.839865 0.073280 -0.017455 485309.000000 0 0 1
-3.759261 29.101578 26.398608 39.470500 -1.442331 0.838178 0.049393 -0.013721 594997.000000 0 0 1
-3.186961 29.981878 25.268128 39.338887 -1.464898 0.873276 0.030364 -0.004785 -953332.000000 0 0 1
-3.301961 29.416678 23.964488 38.085963 -1.459016 0.890246 0.031788 0.008539 -279173.000000 0 0 1
-2.756861 30.244278 22.981098 38.084741 -1.479894 0.923013 0.027303 -0.000053 -251244.000000 0 0 1
-3.027161 29.819578 21.528698 36.903330 -1.469627 0.947911 0.033258 0.005145 125619.000000 0 0 1
-4.382561 29.819178 21.123998 36.805075 -1.424870 0.959484 0.023456 0.009879 -270216.000000 0 0 1
-4.916761 28.525378 21.250598 35.909047 -1.400109 0.937519 0.022593 0.008432 26741.500000 0 0 1
-6.463761 28.500778 21.093098 36.041550 -1.347776 0.945615 0.031530 0.005469 160447.000000 0 0 1
-6.683461 28.605778 19.692698 35.366107 -1.341273 0.980239 0.015534 0.006220 214485.000000 0 0 1
-7.725961 27.796278 19.152798 34.628792 -1.299690 0.984729 0.014675 0.002145 -602219.000000 0 0 1
-7.260261 26.425978 18.667398 33.158942 -1.302672 0.972825 0.012793 0.003336 406224.000000 0 0 1
-6.306261 26.375978 17.601898 32.330913 -1.336111 0.995088 0.018412 0.001830 679834.000000 0 0 1
-4.973761 26.728378 17.961798 32.584823 -1.386815 0.986956 0.024619 0.003255 -107683.000000 0 0 1
-4.033661 26.962078 16.755898 31.999753 -1.422293 1.019695 0.024560 -0.001942 -118727.000000 0 0 1
-3.655561 25.752578 16.188498 30.637002 -1.429789 1.014085 0.037973 -0.000553 -4074.210000 0 0 1
-2.972561 25.974178 14.935698 30.109286 -1.456849 1.051753 0.047030 -0.014474 -62416.900000 0 0 1
-2.339861 24.732778 14.327398 28.678556 -1.476471 1.047676 0.040319 -0.015693 337081.000000 0 0 1
-1.172561 24.367778 15.068098 28.674223 -1.522714 1.017502 0.047224 -0.018157 645434.000000 0 0 1
-0.496861 23.201078 14.549598 27.390285 -1.549384 1.010785 0.033385 -0.022320 280713.000000 0 0 1
0.810239 22.715078 15.204798 27.346246 1.535142 0.981218 0.029007 -0.021339 1073020.000000 0 0 1
1.912939 23.637178 15.114098 28.121371 1.490043 1.003375 0.036721 -0.027460 1172290.000000 0 0 1
3.227839 23.088778 15.186698 27.823487 1.431895 0.993425 0.042274 -0.018303 523240.000000 0 0 1
4.303439 24.178878 15.461698 29.020714 1.394657 1.008912 0.050415 -0.030403 -637784.000000 0 0 1
5.552639 23.573778 15.338198 28.667318 1.339470 1.006240 0.056023 -0.026506 -1599160.000000 0 0 1
6.525839 24.517078 15.540098 29.751779 1.310653 1.021221 0.070038 -0.029900 -1000340.000000 0 0 1
7.940539 23.903678 15.687598 29.673873 1.250076 1.013767 0.088406 -0.025582 -19320.600000 0 0 1
8.460339 23.277478 14.557298 28.728614 1.222185 1.039423 0.077898 -0.019872 12113.300000 0 0 1
8.978939 24.186678 13.582298 29.156398 1.215331 1.086209 0.088503 -0.028185 -371653.000000 0 0 1
9.640639 23.483378 12.349898 28.229965 1.181245 1.118008 0.083281 -0.023196 1137110.000000 0 0 1
10.781539 22.595678 12.553198 28.006946 1.125595 1.106026 0.082107 -0.019221 1335540.000000 0 0 1
11.592439 22.449578 11.356198 27.700748 1.094133 1.148386 0.091481 -0.012987 974191.000000 0 0 1
12.812639 21.478978 11.626598 27.580573 1.032940 1.135642 0.068603 -0.022324 621589.000000 0 0 1
12.492139 20.151278 12.076198 26.607557 1.015860 1.099700 0.072920 -0.004779 385062.000000 0 0 1
13.671739 19.422778 12.475098 26.828880 0.957456 1.087176 0.061918 -0.012225 612442.000000 0 0 1
14.055839 19.465578 13.957598 27.772106 0.945400 1.044220 0.068059 -0.011920 -279780.000000 0 0 1
15.054039 18.545278 14.305898 27.842596 0.888935 1.031172 0.061464 -0.011487 -54336.000000 0 0 1
15.289239 18.473678 15.689498 28.656552 0.879438 0.991421 0.053914 -0.016216 745202.000000 0 0 1
16.321739 17.240878 15.739598 28.484768 0.812777 0.985361 0.032238 -0.017752 805854.000000 0 0 1
16.956039 17.056478 17.010398 29.458179 0.788351 0.955204 0.048806 -0.023363 558831.000000 0 0 1
17.977639 16.062078 16.861598 29.419370 0.729183 0.960456 0.034004 -0.018337 326354.000000 0 0 1
18.611439 15.506078 18.139898 30.263510 0.694629 0.928047 0.046808 -0.017940 -50682.000000 0 0 1
19.261539 16.537478 18.908198 31.654621 0.709451 0.930631 0.055360 -0.016897 439005.000000 0 0 1
18.421439 17.449678 19.575698 32.047599 0.758314 0.913685 0.044777 -0.012266 -239870.000000 0 0 1
19.213339 18.314378 20.606798 33.603705 0.761448 0.910653 0.034732 -0.018721 -164100.000000 0 0 1
18.365439 19.205478 21.246998 34.023149 0.807753 0.896322 0.056952 -0.017157 6697.520000 0 0 1
19.091839 20.255378 21.898298 35.416297 0.814961 0.904204 0.059125 -0.017581 -403885.000000 0 0 1
18.229839 21.333078 22.436098 35.927785 0.863676 0.896334 0.077205 -0.018305 -529109.000000 0 0 1
17.319639 20.956078 23.438368 35.895462 0.880120 0.859308 0.070704 -0.020117 18613.900000 0 0 1
16.816339 22.086178 24.117058 36.772558 0.920041 0.855496 0.066971 -0.029341 286885.000000 0 0 1
16.019339 21.762778 25.447538 37.118929 0.936258 0.815413 0.083061 -0.030338 573581.000000 0 0 1
14.840539 21.009978 25.202018 36.011144 0.955817 0.795624 0.082648 -0.032047 -10766.300000 0 0 1
14.217439 20.732878 26.461358 36.499195 0.969703 0.759784 0.081922 -0.029639 179718.000000 0 0 1
12.967539 19.816878 26.388328 35.457151 0.991356 0.731413 0.106681 -0.027603 -17693.900000 0 0 1
13.076739 18.402678 26.181338 34.570538 0.952999 0.711580 0.099607 -0.037690 120829.000000 0 0 1
13.785839 17.941378 25.022928 33.735580 0.915634 0.735140 0.102921 -0.038657 -166994.000000 0 0 1
12.941339 17.962478 23.728818 32.452822 0.946467 0.750748 0.113941 -0.036281 -415205.000000 0 0 1
12.955339 19.076078 22.893398 32.493772 0.974208 0.789011 0.113007 -0.031024 170934.000000 0 0 1
14.161839 19.432578 22.218498 32.739035 0.941023 0.824867 0.100773 -0.027719 216031.000000 0 0 1
14.624939 18.472078 21.111598 31.635519 0.901117 0.840167 0.096055 -0.030031 -1139390.000000 0 0 1
13.719339 18.234778 20.123098 30.424767 0.925779 0.848106 0.096997 -0.021841 -518635.000000 0 0 1
14.156939 17.138278 19.261998 29.413671 0.880377 0.856792 0.074989 -0.019995 -49625.700000 0 0 1
13.031339 16.453578 18.481298 27.965951 0.900949 0.848846 0.063817 -0.013958 -53865.700000 0 0 1
12.294939 17.265378 17.561698 27.525843 0.951986 0.878888 0.069503 -0.015128 619436.000000 0 0 1
11.433539 16.527378 16.679498 26.116770 0.965599 0.878053 0.055838 -0.012551 361211.000000 0 0 1
11.022339 17.185778 15.385498 25.564751 1.000516 0.925012 0.052274 -0.005115 81916.200000 0 0 1
10.150039 18.280478 15.619298 26.099074 1.063940 0.929217 0.059660 -0.009804 176929.000000 0 0 1
9.781139 18.835378 14.340098 25.614069 1.091831 0.976589 0.048574 0.001198 -492635.000000 0 0 1
8.687239 19.876578 14.357498 26.013155 1.158756 0.986117 0.060135 -0.001847 -669782.000000 0 0 1
7.413239 19.402278 14.686898 25.438347 1.205832 0.955314 0.035797 -0.005558 -1217150.000000 0 0 1
6.564839 20.439378 14.875598 26.117977 1.260018 0.964833 0.041937 -0.009006 -412594.000000 0 0 1
5.243139 20.046678 15.575798 25.922293 1.314980 0.926214 0.034305 -0.010113 296649.000000 0 0 1
4.213339 19.479078 14.786598 24.815926 1.357777 0.932471 0.026588 -0.013775 -1386.420000 0 1 0
3.065739 19.262578 15.586198 24.967484 1.412965 0.896613 0.018883 -0.012381 471464.000000 0 1 0
1.819739 18.671378 14.869698 23.938248 1.473642 0.900563 0.015992 -0.014399 -47856.500000 0 1 0
1.187939 19.655878 14.137198 24.240980 1.510433 0.948141 0.018353 -0.023984 -229534.000000 0 1 0
0.118639 19.018778 13.428398 23.281964 1.564558 0.956024 0.014009 -0.025488 239073.000000 0 1 0
-0.672761 19.978578 12.516698 23.585248 -1.537135 1.011370 0.019883 -0.033154 1050520.000000 0 1 0
-1.805861 20.675878 13.097798 24.541911 -1.483676 1.007837 0.033912 -0.027041 625833.000000 0 1 0
-2.924461 20.756078 12.235298 24.270760 -1.430821 1.042437 0.034063 -0.037658 1325700.000000 0 1 0
-4.159361 21.322078 13.095998 25.366049 -1.378143 1.028294 0.034084 -0.030308 695946.000000 0 0 1
-4.918961 20.390878 13.775298 25.094679 -1.334085 0.989709 0.031715 -0.034093 305719.000000 0 0 1
-5.984961 21.106478 14.468498 26.280042 -1.294489 0.987772 0.032371 -0.027226 702621.000000 0 0 1
-6.665761 20.239078 15.561798 26.386023 -1.252634 0.940017 0.027210 -0.025303 -762508.000000 0 0 1
-7.561561 19.245778 15.092398 25.599954 -1.196430 0.940297 0.029408 -0.022322 533998.000000 0 0 1
-8.444161 18.679878 16.071098 26.048453 -1.146242 0.905910 0.014658 -0.010875 475431.000000 0 0 1
-9.428761 19.649578 16.779298 27.505496 -1.123402 0.914692 0.017833 -0.006591 -215158.000000 0 0 1
-10.532361 20.229378 16.064598 27.896768 -1.090768 0.957142 0.012823 -0.008881 760162.000000 0 0 1
-11.722661 19.582978 16.505698 28.166503 -1.031396 0.944677 0.004776 -0.005373 333933.000000 0 0 1
-12.955761 19.694578 15.557798 28.244880 -0.988934 0.987452 0.009458 -0.010893 -27280.000000 0 0 1
-13.579761 20.961878 15.472298 29.380304 -0.995947 1.016175 0.001639 -0.006680 -822.647000 0 0 1
-14.537261 20.876578 14.452898 29.258328 -0.962529 1.054140 0.002989 -0.010579 -604946.000000 0 0 1
-15.672561 21.917078 14.315698 30.511091 -0.950018 1.082416 0.011507 -0.007302 -140937.000000 0 0 1
-16.679061 21.548278 15.256098 31.229280 -0.912091 1.060405 0.014840 -0.013300 -129609.000000 0 0 1
-17.720561 22.499778 15.113798 32.383409 -0.903669 1.085224 0.025584 -0.019123 -63858.900000 0 0 1
-19.024761 22.199278 15.871298 33.266313 -0.862253 1.073446 0.047442 -0.019795 -1393440.000000 0 0 1
-19.817861 21.182878 15.347398 32.817748 -0.818678 1.084160 0.052167 -0.012742 -787424.000000 0 0 1
-21.020961 21.163978 16.024598 33.861225 -0.788788 1.077827 0.065070 -0.017002 -152894.000000 0 0 1
-22.104061 22.287878 15.913498 35.193443 -0.789539 1.101597 0.056430 -0.016985 -779314.000000 0 0 1
-22.749061 22.420078 14.664498 35.145799 -0.778115 1.140382 0.070268 -0.011211 26600.300000 0 0 1
-23.560961 23.555678 14.597898 36.374270 -0.785286 1.157833 0.081408 -0.017224 -314820.000000 0 0 1
-22.985561 24.796278 13.860798 36.541937 -0.823276 1.181744 0.062559 -0.012359 -48879.600000 0 0 1
-21.814961 25.287578 14.518798 36.416338 -0.858990 1.160709 0.035090 -0.006748 467008.000000 0 0 1
-21.390061 26.500978 13.854098 36.766460 -0.891715 1.184443 0.033390 -0.006835 1126170.000000 0 0 1
-19.862061 26.855878 14.030098 36.229592 -0.933998 1.173144 0.024490 -0.004266 2147010.000000 0 0 1
-18.843361 26.121578 13.285498 34.841262 -0.945871 1.179578 0.025351 -0.000882 1325640.000000 0 0 1
-17.501661 26.507578 13.586198 34.547715 -0.987248 1.166623 0.007810 -0.004685 691212.000000 0 0 1
-16.501461 25.899978 12.567698 33.182136 -1.003527 1.182352 0.018124 -0.010678 170994.000000 0 0 1
-15.154361 26.104478 12.918798 32.832816 -1.044818 1.166391 0.017089 -0.008994 -158395.000000 0 0 1
-14.229261 25.732178 11.929898 31.732307 -1.065672 1.185370 0.019119 -0.012471 835152.000000 0 0 1
-12.820061 26.423578 12.142898 31.780645 -1.119079 1.178745 0.014331 -0.011024 213967.000000 0 0 1
-11.767861 25.626678 11.636598 30.506058 -1.140315 1.179430 0.015276 -0.011048 419043.000000 0 0 1
-10.500861 26.270878 11.809598 30.657686 -1.190536 1.175363 0.026797 -0.012483 499150.000000 0 0 1
-10.090061 27.598578 11.099698 31.411688 -1.220291 1.209634 0.031873 -0.022446 -312656.000000 0 0 1
-8.901261 28.193778 11.620498 31.767240 -1.264983 1.196303 0.048416 -0.028610 503014.000000 0 0 1
-8.581661 29.411778 10.939598 32.532636 -1.286901 1.227848 0.054321 -0.023573 -49733.100000 0 0 1
-7.296361 30.065978 11.516798 33.012673 -1.332720 1.214442 0.047870 -0.025091 -451173.000000 0 0 1
-6.148861 29.392278 11.132398 32.025690 -1.364571 1.215777 0.055200 -0.024708 -656177.000000 0 0 1
-5.055561 29.888578 11.938498 32.579342 -1.403235 1.195612 0.073081 -0.037045 366112.000000 0 0 1
-3.761561 29.334678 11.290598 31.656757 -1.443263 1.206109 0.068152 -0.038188 -283127.000000 0 0 1
-3.508061 29.827478 10.027498 31.662844 -1.453722 1.248552 0.078189 -0.040180 79486.600000 0 0 1
-2.250861 29.343678 9.598698 30.955659 -1.494239 1.255520 0.083506 -0.041527 298120.000000 0 0 1
-1.675661 30.093978 8.348998 31.275568 -1.515173 1.300570 0.083955 -0.037285 80950.300000 0 0 1
-2.413661 29.829478 7.180998 30.776456 -1.490057 1.335298 0.084174 -0.028578 131146.000000 0 0 1
-2.099261 30.788678 6.198998 31.476613 -1.502719 1.372561 0.093158 -0.025939 69644.100000 0 0 1
11.271939 -33.891956 -26.146957 44.264937 -1.249720 2.202713 0.148169 -0.049482 -193579.000000 0 0 1
12.293839 -33.908856 -25.194037 43.996460 -1.222980 2.180516 0.136286 -0.043777 -210506.000000 0 0 1
13.257539 -32.931556 -25.363437 43.629734 -1.188069 2.191163 0.130149 -0.031172 -326875.000000 0 0 1
14.196939 -32.735756 -24.156337 43.089574 -1.161594 2.165916 0.112674 -0.022749 -451019.000000 0 0 1
13.580839 -32.015856 -23.042037 41.717978 -1.169611 2.155951 0.119721 -0.031528 572891.000000 0 0 1
14.133439 -32.069856 -21.705237 41.223138 -1.155697 2.125311 0.089796 -0.021923 1049590.000000 0 0 1
15.698139 -31.937056 -21.488037 41.570938 -1.113945 2.114023 0.057211 -0.006677 1131530.000000 0 0 1
16.477039 -32.972856 -22.057737 42.956324 -1.107377 2.110046 0.063266 -0.006567 372564.000000 0 0 1
17.786539 -32.912456 -21.488337 43.143242 -1.075338 2.092167 0.042698 -0.011460 258816.000000 0 0 1
18.703739 34.048678 -21.870837 44.581115 1.068473 2.083558 0.021709 0.006639 -137347.000000 0 0 1
20.032739 -33.853156 -21.455337 44.807123 -1.036462 2.070127 0.024228 0.023259 306222.000000 0 0 1
20.894739 33.236078 -21.843337 44.926143 1.009558 2.078538 0.022168 0.020544 674419.000000 0 0 1
22.412039 33.410778 -21.482237 45.607741 0.979936 2.061245 0.035341 0.021648 515840.000000 0 0 1
23.128139 -33.960856 -22.420037 46.807143 -0.972920 2.070297 0.034411 0.017207 53999.800000 0 0 1
24.471339 -33.852156 -22.003737 47.212068 -0.944873 2.055631 0.030106 0.012912 80989.900000 0 0 1
25.448239 -33.020856 -22.850937 47.541089 -0.914196 2.072200 0.047795 -0.000570 -26269.600000 0 0 1
25.266839 -31.619356 -22.842337 46.475469 -0.896608 2.084599 0.056989 -0.010147 -276325.000000 0 0 1
24.088839 -31.166056 -23.482237 45.858594 -0.912788 2.108375 0.040038 -0.002365 82431.700000 0 0 1
23.986039 -29.669956 -23.576037 44.849369 -0.890937 2.124301 0.053317 -0.023752 -376341.000000 0 0 1
24.945639 -29.119156 -24.437337 45.468600 -0.862440 2.138213 0.059951 -0.025094 -159264.000000 0 0 1
25.002839 -27.720856 -24.095137 44.431559 -0.836905 2.143966 0.073922 -0.022582 83539.400000 0 0 1
25.569439 -26.915856 -25.276637 44.912892 -0.811046 2.168557 0.062276 -0.026009 188479.000000 0 0 1
24.680239 -26.716756 -26.355107 44.916488 -0.825001 2.197846 0.059930 -0.029656 -293730.000000 0 0 1
25.315639 -25.947656 -27.333427 45.401307 -0.797726 2.216851 0.047259 -0.022468 -559923.000000 0 0 1
24.347239 -25.572456 -28.485817 45.367172 -0.809937 2.249642 0.046701 -0.017275 154502.000000 0 0 1
23.639539 -24.378356 -28.172817 44.123006 -0.800783 2.263352 0.064450 -0.018214 -1010810.000000 0 0 1
22.399439 -24.710456 -27.635397 43.313470 -0.834415 2.262737 0.065200 -0.023027 -1450450.000000 0 0 1
21.560739 -23.405956 -27.492097 42.053771 -0.826410 2.283308 0.066932 -0.022305 -277384.000000 0 0 1
21.242939 -22.826756 -28.733617 42.402169 -0.821322 2.315352 0.080296 -0.028679 373896.000000 0 0 1
20.632839 -21.548156 -28.457607 41.229509 -0.807095 2.332595 0.073517 -0.014458 -289401.000000 0 0 1
19.486839 -21.092856 -29.353537 41.064286 -0.824954 2.367162 0.096806 -0.028415 -148557.000000 0 0 1
18.413239 -22.013356 -29.361077 41.057375 -0.874217 2.367597 0.084466 -0.034332 -95681.500000 0 0 1
17.287139 -21.510356 -30.033647 40.786769 -0.893824 2.398467 0.073065 -0.037309 -94536.400000 0 0 1
16.083839 -22.470356 -29.833827 40.665268 -0.949558 2.394465 0.072470 -0.039445 -218619.000000 0 0 1
16.098139 -23.654256 -30.611237 41.901333 -0.973237 2.389931 0.070183 -0.032687 400528.000000 0 0 1
15.155139 -24.611556 -30.115977 41.741813 -1.018859 2.376737 0.083708 -0.042671 203858.000000 0 0 1
15.100239 -25.878456 -30.978067 43.097011 -1.042593 2.372869 0.113976 -0.042188 191201.000000 0 0 1
14.223739 -26.824056 -30.372067 42.945398 -1.083234 2.356362 0.125999 -0.037993 109349.000000 0 0 1
14.560839 -28.103756 -30.783687 44.152854 -1.092766 2.342291 0.176577 -0.042804 298004.000000 0 0 1
14.023239 -29.168056 -29.770957 43.974272 -1.122648 2.314487 0.151216 -0.050168 124112.000000 0 0 1
14.712839 -29.239756 -28.529387 43.420696 -1.104609 2.287690 0.170605 -0.055852 60518.800000 0 0 1
14.416439 -28.142256 -27.650817 42.004618 -1.097381 2.289328 0.139457 -0.049023 -396348.000000 0 0 1
15.368639 -28.143256 -26.497077 41.597272 -1.070963 2.261385 0.102377 -0.033065 -481268.000000 0 0 1
15.256239 -29.246056 -25.587607 41.746979 -1.089978 2.230549 0.109336 -0.037057 256741.000000 0 0 1
16.045239 -29.137256 -24.392937 41.248573 -1.067433 2.203546 0.103639 -0.034555 -770530.000000 0 0 1
15.575339 -28.056856 -23.359337 39.691775 -1.064019 2.200021 0.083405 -0.031938 445588.000000 0 0 1
14.545439 -28.441656 -22.466837 39.054530 -1.098060 2.183729 0.086257 -0.033317 836681.000000 0 0 1
13.251339 -28.705756 -23.037237 39.119467 -1.138316 2.200487 0.103828 -0.030951 29904.000000 0 0 1
12.118039 -28.527256 -22.006337 38.012236 -1.169105 2.188209 0.085999 -0.023254 -131998.000000 0 0 1
11.922539 -27.103356 -21.851037 36.799547 -1.156380 2.206552 0.071775 -0.022259 857220.000000 0 0 1
10.597339 -26.785056 -21.380237 35.872794 -1.194051 2.209309 0.064573 -0.023058 567031.000000 0 0 1
10.398939 -25.289256 -21.256737 34.634279 -1.180672 2.231596 0.069637 -0.023339 94402.400000 0 0 1
10.965739 -24.678856 -20.078337 33.651642 -1.152661 2.210120 0.063486 -0.021902 162213.000000 0 0 1
10.556439 -23.358156 -20.051737 32.544032 -1.146332 2.234631 0.060839 -0.024374 -43890.900000 0 0 1
10.992739 -22.649556 -18.800737 31.421496 -1.118945 2.212224 0.061150 -0.026105 522002.000000 0 0 1
10.124139 -23.157256 -17.753337 30.885881 -1.158645 2.183161 0.066622 -0.028737 716590.000000 0 0 1
10.203439 -22.353656 -16.646437 29.679959 -1.142587 2.166226 0.074920 -0.030036 -176653.000000 0 0 1
9.351839 -22.794256 -15.435937 29.074098 -1.181467 2.130479 0.078739 -0.028022 1050.470000 0 0 1
9.717939 -24.047656 -14.876237 29.900343 -1.186750 2.091542 0.063505 -0.025506 -126573.000000 0 0 1
9.018439 -24.335356 -13.707937 29.350457 -1.215898 2.056740 0.057972 -0.022812 -176544.000000 0 0 1
9.242839 -25.800256 -13.265937 30.447797 -1.226794 2.021606 0.056351 -0.013944 73005.400000 0 0 1
10.586439 -26.092256 -12.971237 31.002121 -1.185359 2.002478 0.046289 -0.014383 -210583.000000 0 0 1
10.896239 -27.494156 -13.136437 32.360819 -1.193474 1.988800 0.038129 -0.017630 -556981.000000 0 0 1
12.227339 -28.003856 -12.550537 33.033918 -1.159116 1.960516 0.051229 -0.015067 366983.000000 0 0 1
13.454939 -27.602456 -13.132437 33.397483 -1.117235 1.974923 0.066336 -0.016097 286394.000000 0 0 1
13.657939 -27.960856 -14.509637 34.334798 -1.116418 2.007100 0.070597 -0.021314 -1131910.000000 0 0 1
14.959839 -27.464856 -15.155237 34.753364 -1.072039 2.022034 0.059414 -0.020876 13156.200000 0 0 1
16.079839 -28.245356 -14.764237 35.697956 -1.053263 1.997187 0.100267 -0.016443 247604.000000 0 0 1
17.279639 -27.631256 -15.240037 35.976811 -1.011934 2.008220 0.106889 -0.018112 332419.000000 0 0 1
18.524539 -28.452456 -14.887237 37.071965 -0.993669 1.984034 0.095894 -0.021149 -145835.000000 0 0 1
18.847139 -29.483456 -15.771437 38.382640 -1.002019 1.994238 0.091175 -0.011809 309513.000000 0 0 1
20.128839 -30.069756 -15.544337 39.382570 -0.980901 1.976539 0.095930 -0.007948 601021.000000 0 0 1
20.524539 -31.007456 -16.670437 40.750736 -0.986085 1.992245 0.077498 -0.015166 -120879.000000 0 0 1
19.979139 -32.310356 -16.553737 41.438524 -1.016993 1.981743 0.069976 -0.003865 68115.200000 0 0 1
20.500139 -33.211456 -17.495337 42.770823 -1.017781 1.992207 0.060395 -0.002545 -46741.700000 0 0 1
20.299339 33.415878 -17.106837 42.677019 1.024898 1.983234 0.044027 0.004937 247415.000000 0 0 1
21.145539 32.855778 -16.073237 42.249082 0.998943 1.961068 0.061701 -0.006301 438205.000000 0 0 1
20.742639 31.546278 -15.705037 40.890988 0.989145 1.964998 0.048184 -0.008664 -568386.000000 0 0 1
21.730339 30.815078 -14.755337 40.490698 0.956599 1.943799 0.051267 -0.015223 -185850.000000 0 0 1
22.974739 30.585878 -15.420337 41.244652 0.926556 1.953980 0.052329 -0.012132 1024100.000000 0 0 1
24.095939 30.386578 -14.529137 41.413213 0.900351 1.929257 0.061010 -0.020805 833954.000000 0 0 1
24.000539 29.171078 -13.570137 40.138837 0.882336 1.915672 0.057965 -0.019528 -1293850.000000 0 0 1
24.037939 27.904078 -14.212337 39.477216 0.859693 1.939079 0.063417 -0.014251 162905.000000 0 0 1
23.662939 26.746478 -13.411237 38.146691 0.846492 1.930044 0.030870 -0.007357 879944.000000 0 0 1
22.150739 26.638478 -12.981437 36.997046 0.877122 1.929305 0.030189 -0.007977 658962.000000 0 0 1
21.343339 26.164978 -14.092937 36.589002 0.886542 1.966187 0.034118 -0.007360 2378640.000000 0 0 1
19.903339 26.083478 -13.754237 35.576252 0.918987 1.967752 0.037137 -0.005441 2436870.000000 0 0 1
19.089039 27.439978 -13.812837 36.168194 0.962986 1.962654 0.031721 -0.009743 -113187.000000 0 0 1
19.059239 28.201778 -15.022137 37.205637 0.976486 1.986419 0.037322 -0.009308 53927.700000 0 0 1
18.741139 27.533078 -16.247737 37.057922 0.973157 2.024660 0.034007 -0.006189 -86101.500000 0 0 1
18.867539 28.546578 -17.427737 38.400744 0.986770 2.041865 0.036637 -0.004210 -9517.950000 0 0 1
17.902639 29.565078 -17.465037 38.725002 1.026318 2.038684 0.037244 -0.007631 -34064.100000 0 0 1
18.082639 30.301278 -18.668737 39.920809 1.032761 2.057420 0.032071 0.000937 448525.000000 0 0 1
16.979639 31.449178 -18.846237 40.404697 1.075735 2.056055 0.026733 0.005617 703357.000000 0 0 1
17.137539 32.622678 -18.052637 41.034523 1.087094 2.026326 0.043037 -0.016800 116622.000000 0 0 1
16.371339 33.737178 -18.499337 41.814392 1.119009 2.029087 0.045202 -0.014586 -45448.900000 0 0 1
16.198339 -33.195556 -17.617537 40.923205 -1.116821 2.015846 0.051328 -0.009727 -137327.000000 0 0 1
15.111039 -32.417556 -18.015737 40.047574 -1.134604 2.037403 0.048847 -0.010217 -197336.000000 0 0 1
14.564839 -31.629856 -16.974237 38.738960 -1.139264 2.024358 0.056852 -0.016375 394125.000000 0 0 1
13.429839 -30.654056 -17.512137 37.771771 -1.157874 2.052884 0.052570 -0.022978 386451.000000 0 0 1
12.206039 -31.337056 -17.573537 37.945061 -1.199367 2.052321 0.054703 -0.021046 -364354.000000 0 0 1
11.141439 -30.455856 -17.861837 37.023453 -1.220096 2.074242 0.040174 -0.012724 738628.000000 0 0 1
9.752139 -31.120956 -18.130237 37.313853 -1.267126 2.078172 0.050080 -0.018926 -287353.000000 0 0 1
9.041439 -31.716356 -17.077337 37.139067 -1.293091 2.048590 0.051560 -0.016665 526227.000000 0 0 1
7.988839 -32.613556 -17.465937 37.848706 -1.330572 2.050445 0.061123 -0.010382 1632940.000000 0 0 1
6.655239 -31.918156 -18.046237 37.265635 -1.365232 2.076313 0.064297 -0.000367 379593.000000 0 0 1
6.727739 -31.254256 -19.256237 37.321491 -1.358773 2.112919 0.058000 -0.003405 -147230.000000 0 0 1
6.799539 -32.157656 -20.331037 38.648411 -1.362422 2.124747 0.073396 -0.010925 -1283670.000000 0 0 1
7.053639 -31.575356 -21.799037 39.012241 -1.351014 2.163703 0.079239 -0.009065 187755.000000 0 0 1
8.364839 -31.316356 -22.302037 39.345464 -1.309782 2.173444 0.082290 -0.012510 524914.000000 0 0 1
9.408439 -32.242756 -22.102737 40.207524 -1.286879 2.152821 0.089585 -0.021255 -323774.000000 0 0 1
9.337539 -33.541556 -22.910737 41.678861 -1.299284 2.152798 0.111898 -0.034177 145058.000000 0 0 1
8.274939 33.675278 -22.544437 41.361221 1.329843 2.147260 0.110647 -0.038644 602957.000000 0 0 1
8.099239 32.681878 -23.504637 41.063010 1.327870 2.180231 0.115756 -0.054032 142501.000000 0 0 1
6.715239 31.984178 -23.367737 40.176276 1.363847 2.191528 0.114406 -0.061904 749686.000000 0 0 1
5.553539 32.741778 -23.652637 40.771473 1.402779 2.189681 0.111246 -0.057850 305988.000000 0 0 1
4.906239 33.354778 -22.569637 40.570937 1.424751 2.160724 0.082930 -0.045093 -196459.000000 0 0 1
3.573939 34.066978 -22.918537 41.213970 1.466270 2.160466 0.078009 -0.038171 539785.000000 0 0 1
2.462039 33.159578 -22.995837 40.428056 1.496684 2.175853 0.078181 -0.045025 540350.000000 0 0 1
1.302439 33.904978 -23.275437 41.145958 1.532401 2.172054 0.072947 -0.036264 543464.000000 0 0 1
-0.098461 33.402978 -22.794537 40.439579 -1.567849 2.169617 0.062597 -0.039011 511283.000000 0 0 1
-0.331161 33.671078 -21.398937 39.896938 -1.560961 2.136909 0.040727 -0.034860 -117530.000000 0 0 1
-1.621361 33.457978 -20.868937 39.466158 -1.522375 2.127959 0.046698 -0.043697 26921.500000 0 0 1
-1.834261 33.814078 -19.393237 39.023762 -1.516604 2.090888 0.049772 -0.034578 227388.000000 0 0 1
-1.195361 32.937278 -18.440737 37.767101 -1.534520 2.080908 0.047832 -0.034827 -93194.000000 0 0 1
-1.792861 32.976578 -17.193537 37.232872 -1.516482 2.050802 0.025798 -0.017371 23143.300000 0 0 1
-1.132361 31.967778 -16.185637 35.849629 -1.535389 2.039227 0.028059 0.000371 954041.000000 0 0 1
0.175339 32.305778 -15.719537 35.927676 1.565369 2.023649 0.008661 -0.001073 533868.000000 0 0 1
0.831039 31.221978 -15.045037 34.667790 1.544186 2.019699 0.015235 0.009155 717847.000000 0 0 1
1.911739 31.633678 -14.014237 34.651741 1.510436 1.987153 0.037275 -0.004114 487843.000000 0 0 1
3.065539 32.301378 -14.510437 35.543344 1.476175 1.991328 0.052512 -0.016688 362593.000000 0 0 1
3.944539 32.547278 -13.420937 35.426067 1.450190 1.959343 0.068627 -0.022642 750542.000000 0 0 1
5.421039 32.940778 -13.798437 36.123114 1.407689 1.962738 0.079859 -0.030466 953434.000000 0 0 1
6.162539 31.803378 -14.214937 35.376492 1.379398 1.984298 0.090810 -0.030407 -485757.000000 0 0 1
7.238439 32.154078 -15.035037 36.226124 1.349370 1.998775 0.087629 -0.030421 -54892.400000 0 0 1
8.346939 31.081278 -15.238937 35.608179 1.308435 2.013033 0.083628 -0.040080 118451.000000 0 0 1
9.086039 30.934778 -14.031037 35.162289 1.285115 1.981262 0.077186 -0.042614 -322456.000000 0 0 1
10.098839 29.963978 -14.173037 34.651140 1.245720 1.992177 0.085802 -0.039918 82146.800000 0 0 1
9.627939 28.515478 -13.920637 33.160425 1.245176 2.004018 0.104213 -0.036982 -163489.000000 0 0 1
8.801839 27.923178 -14.894037 32.848266 1.265439 2.041394 0.109736 -0.040455 20791.600000 0 0 1
8.569839 26.614978 -14.486637 31.490663 1.259286 2.048825 0.100500 -0.025142 105272.000000 0 0 1
7.804139 25.634878 -15.488137 30.950508 1.275276 2.094876 0.108522 -0.026503 427915.000000 0 0 1
8.529939 25.150878 -16.612737 31.325861 1.243819 2.129775 0.109773 -0.023965 -339703.000000 0 0 1
7.747139 24.339878 -17.401337 30.907189 1.262645 2.168831 0.094528 -0.017571 -631656.000000 0 0 1
8.564039 23.729978 -18.501437 31.285105 1.224448 2.203567 0.100214 -0.017257 -575252.000000 0 0 1
7.916139 22.772778 -19.252337 30.853154 1.236249 2.244646 0.103869 -0.022793 116615.000000 0 0 1
8.868239 22.025278 -20.035137 31.067108 1.188017 2.271687 0.080772 -0.019908 550934.000000 0 0 1
8.140739 21.005278 -20.957537 30.768680 1.201063 2.320104 0.060144 -0.028968 328138.000000 0 0 1
7.405639 19.987678 -20.314137 29.445117 1.215968 2.332145 0.065762 -0.026468 225211.000000 0 0 1
6.646439 19.241778 -21.293837 29.459271 1.238210 2.378675 0.057185 -0.028156 292118.000000 0 0 1
25.520839 -12.263822 -9.525837 29.874004 -0.447960 1.895330 0.068550 -0.005045 4318.680000 0 0 1
26.042539 -11.638622 -8.380137 29.730423 -0.420280 1.856540 0.076144 -0.010560 527076.000000 0 0 1
25.071339 -11.797222 -7.349137 28.666292 -0.439808 1.830060 0.059516 -0.004271 -108793.000000 0 0 1
25.455839 -11.431022 -5.884237 28.518279 -0.422066 1.778621 0.041612 -0.005292 -540441.000000 0 0 1
25.559039 -10.033522 -5.448137 27.993182 -0.374078 1.766670 0.049068 -0.011254 542519.000000 0 0 1
26.501439 -9.230922 -6.134637 28.725771 -0.335175 1.786013 0.042641 -0.016076 -1224520.000000 0 0 1
26.642539 -7.803122 -5.574037 28.315781 -0.284914 1.768943 0.078848 -0.021932 -492784.000000 0 0 1
27.417839 -7.680022 -4.444337 28.817924 -0.273111 1.725636 0.110776 -0.035155 559417.000000 0 0 1
28.815139 -7.901222 -4.636737 30.236416 -0.267626 1.724753 0.125996 -0.036501 114242.000000 0 0 1
29.664239 -7.886722 -3.303837 30.872039 -0.259855 1.678019 0.142271 -0.039341 -25612.100000 0 0 1
29.625639 -6.651922 -2.588037 30.473340 -0.220870 1.655827 0.161077 -0.039220 306919.000000 0 0 1
30.241239 -6.747422 -1.320237 31.012953 -0.219524 1.613380 0.161289 -0.035449 -29051.800000 0 0 1
30.555039 -5.414422 -0.567237 31.036239 -0.175382 1.589074 0.164271 -0.044967 -564108.000000 0 0 1
29.381539 -4.737022 -0.234137 29.761872 -0.159849 1.578663 0.157655 -0.041582 -378265.000000 0 0 1
29.462839 -3.380422 0.105963 29.656321 -0.114236 1.567223 0.159358 -0.030901 -95361.800000 0 0 1
30.097639 -3.075522 1.493663 30.291215 -0.101831 1.521466 0.149587 -0.022818 617361.000000 0 0 1
29.114439 -3.421522 2.482763 29.419746 -0.116983 1.486305 0.148472 -0.028931 1044580.000000 0 0 1
29.644939 -2.997922 3.695363 30.024417 -0.100785 1.447405 0.145807 -0.024981 52995.600000 0 0 1
29.489539 -3.999522 4.840863 30.150672 -0.134803 1.409543 0.146388 -0.036134 54841.300000 0 0 1
30.269739 -5.190522 4.662063 31.063378 -0.169824 1.420145 0.133721 -0.043000 408689.000000 0 0 1
30.086639 -6.087922 5.735063 31.227545 -0.199651 1.386094 0.124985 -0.042888 -318719.000000 0 0 1
30.720139 -7.472822 5.576763 32.104054 -0.238620 1.396202 0.103347 -0.041972 -1650430.000000 0 0 1
32.074539 -7.363522 5.679763 33.395467 -0.225665 1.399890 0.111241 -0.034342 -1783290.000000 0 0 1
32.727839 -8.589122 5.499263 34.280116 -0.256653 1.409679 0.097868 -0.028024 33972.200000 0 0 1
34.257639 -8.419422 5.622063 35.722263 -0.240991 1.412757 0.111222 -0.028922 -146120.000000 0 0 1
34.914439 -7.887622 4.503363 36.076487 -0.222183 1.445642 0.115982 -0.032027 -39311.400000 0 0 1
36.234339 -7.542422 4.915663 37.336031 -0.205226 1.438753 0.133049 -0.026262 691691.000000 0 0 1
-36.481781 -7.395722 3.704263 37.407734 0.200013 1.471610 0.133036 -0.024587 163678.000000 0 0 1
-36.257581 -8.540822 2.898363 37.362525 0.231342 1.493144 0.134341 -0.024993 15443.600000 0 0 1
-35.340681 -8.257322 1.864863 36.340402 0.229531 1.519457 0.166793 -0.033236 -156560.000000 0 0 1
-35.043381 -9.494122 1.054663 36.322021 0.264574 1.541756 0.147407 -0.029242 -405097.000000 0 0 1
-34.373781 -10.454422 1.829663 35.974983 0.295250 1.519915 0.141132 -0.031835 107586.000000 0 0 1
-34.338181 -11.701022 1.246463 36.298461 0.328418 1.536450 0.121420 -0.038227 -996674.000000 0 0 1
-33.956381 -12.805222 2.242063 36.359818 0.360617 1.509094 0.121790 -0.052473 671045.000000 0 0 1
-32.572181 -12.917222 2.559963 35.133389 0.377548 1.497868 0.113885 -0.039175 461285.000000 0 0 1
-31.789381 -13.588822 1.567363 34.607477 0.403956 1.525491 0.106412 -0.027823 580057.000000 0 0 1
-30.366881 -13.916822 2.165663 33.474102 0.429726 1.506054 0.109495 -0.022275 759320.000000 0 0 1
-29.576681 -12.779422 2.488763 32.315439 0.407850 1.493705 0.112465 -0.023859 -331573.000000 0 0 1
-28.301481 -13.206222 2.849663 31.360783 0.436594 1.479804 0.108725 -0.016378 -842317.000000 0 0 1
-27.384681 -12.071322 3.261263 30.104375 0.415182 1.462251 0.111231 -0.013454 -743951.000000 0 0 1
-26.122381 -12.449122 3.734463 29.177142 0.444728 1.442451 0.104640 -0.003792 -138190.000000 0 0 1
-25.613981 -11.343622 4.455763 28.365606 0.416907 1.413060 0.103985 -0.002381 -32905.900000 0 0 1
-24.147981 -11.472522 4.932463 27.185896 0.443524 1.388351 0.106751 0.002077 93744.600000 0 0 1
-23.974481 -12.424222 5.921063 27.644095 0.478123 1.354935 0.095230 0.009786 -78518.000000 0 0 1
-22.615981 -12.512622 6.289663 26.600905 0.505346 1.332090 0.101376 0.007729 30204.700000 0 0 1
-22.267981 -12.151522 7.721963 26.516998 0.499532 1.275307 0.115952 -0.005559 -458755.000000 0 0 1
-22.087481 -10.786822 8.018363 25.855492 0.454299 1.255475 0.114146 -0.002648 -451990.000000 0 0 1
-23.196981 -10.053122 8.377463 26.633570 0.408948 1.250819 0.110368 -0.009910 -1359640.000000 0 0 1
-23.428281 -10.132222 9.897063 27.376963 0.408188 1.200909 0.102566 -0.000543 -83782.500000 0 0 1
-24.045281 -11.286022 10.474063 28.552685 0.438841 1.195194 0.080795 -0.004231 1216910.000000 0 0 1
-25.410081 -11.545622 10.097463 29.680505 0.426483 1.223661 0.063118 0.000462 1109560.000000 0 0 1
-26.576781 -11.039722 10.998163 30.808446 0.393703 1.205758 0.058485 -0.004474 -121218.000000 0 0 1
-26.593781 -11.832322 12.174063 31.550608 0.418628 1.174658 0.071732 -0.006857 213088.000000 0 0 1
-27.631981 -11.427322 13.056063 32.627762 0.392136 1.159114 0.059281 -0.008414 36431.300000 0 0 1
-27.592081 -12.030422 14.485063 33.404656 0.411159 1.122286 0.061867 -0.006987 -309484.000000 0 0 1
-27.627081 -13.456022 14.444663 33.955389 0.453241 1.131391 0.044041 -0.007225 331402.000000 0 0 1
-27.807081 -13.997322 15.761963 34.894101 0.466342 1.102117 0.063277 -0.016525 -649938.000000 0 0 1
-27.497181 -15.534522 15.903263 35.360007 0.514248 1.104308 0.048152 0.007484 -466253.000000 0 0 1
-28.501681 -16.431522 15.569763 36.397229 0.522969 1.128768 0.034474 0.008921 -339007.000000 0 0 1
-28.053581 -17.763522 15.845363 36.791597 0.564474 1.125551 0.026541 0.005945 -80442.000000 0 0 1
-29.144881 -18.652422 16.464663 38.319996 0.569306 1.126677 0.009842 0.016198 -56013.100000 0 0 1
-29.332981 -18.471122 17.856863 38.993252 0.561975 1.095111 0.029904 0.012345 -335675.000000 0 0 1
-29.985481 -19.566322 18.459063 40.282838 0.578149 1.094786 0.040448 0.010000 -465220.000000 0 0 1
-29.176781 -20.815822 18.685863 40.419605 0.619688 1.090212 0.027908 0.008358 -664750.000000 0 0 1
-28.021381 -20.733422 19.457063 39.920545 0.637015 1.061693 0.049172 0.002022 -308411.000000 0 0 1
-27.387381 -21.986122 19.633363 40.235894 0.676436 1.061049 0.054518 -0.002676 -1141720.000000 0 0 1
-26.040481 -21.917522 20.267563 39.613868 0.699639 1.033718 0.070395 0.001390 204350.000000 0 0 1
-24.964281 -21.525722 19.327763 38.211706 0.711569 1.040479 0.060565 0.000010 1518710.000000 0 0 1
-23.703581 -21.417122 19.978163 37.678639 0.734767 1.011930 0.066811 0.001248 822199.000000 0 0 1
-22.472381 -20.996022 19.123863 36.215508 0.751447 1.014485 0.074393 -0.002345 344031.000000 0 0 1
-22.103081 -22.022922 18.231063 36.137611 0.783582 1.042005 0.077191 -0.006258 490043.000000 0 0 1
-20.823981 -21.728022 17.672263 34.900630 0.806641 1.039839 0.087897 -0.007110 444342.000000 0 0 1
-20.432081 -22.573622 16.438263 34.601370 0.835154 1.075746 0.093970 -0.002464 -636022.000000 0 0 1
-20.426781 -23.982122 16.663263 35.637900 0.865287 1.084255 0.089468 -0.011253 90468.500000 0 0 1
-19.305681 -24.628722 17.255963 35.735858 0.905969 1.066861 0.090861 -0.012098 794399.000000 0 0 1
-18.003381 -24.601722 16.353463 34.594829 0.939050 1.078428 0.076511 -0.011877 275295.000000 0 0 1
-17.301281 -23.387622 16.402263 33.396847 0.933880 1.057407 0.080636 -0.012635 -89870.900000 0 0 1
-16.063581 -23.530222 15.714863 32.537162 0.971790 1.066739 0.087518 -0.016571 306064.000000 0 0 1
-15.225581 -22.202722 15.613763 31.121838 0.969696 1.045236 0.086791 -0.010261 13444.900000 0 0 1
-15.743981 -21.085322 14.852463 30.216873 0.929424 1.056952 0.094173 -0.006875 79190.200000 0 0 1
-16.828681 -20.401522 15.460363 30.634122 0.881071 1.041788 0.104245 -0.009380 24812.700000 0 0 1
-16.407281 -19.230122 16.287763 30.071377 0.864443 0.998413 0.084581 -0.009844 -384255.000000 0 0 1
-15.891081 -18.121522 15.567563 28.692595 0.850881 0.997310 0.072051 -0.010340 -37340.500000 0 0 1
-15.702481 -16.966222 16.421263 28.356278 0.824062 0.953166 0.057745 -0.008037 -254641.000000 0 0 1
-15.107381 -15.790622 15.539363 26.815080 0.807507 0.952680 0.063215 -0.006974 188329.000000 0 0 1
-15.942781 -15.248322 14.531763 26.416959 0.763137 0.988322 0.075492 -0.022610 67474.600000 0 0 1
-16.027981 -16.002822 13.340663 26.286114 0.784613 1.038495 0.106934 -0.021024 -165030.000000 0 0 1
-17.005381 -15.286322 12.412563 26.017808 0.732213 1.073468 0.090638 -0.012928 1270860.000000 0 0 1
-18.421681 -15.452122 12.688563 27.186872 0.697956 1.085222 0.082348 -0.013216 1275510.000000 0 0 1
-19.208881 -14.456422 12.037163 26.886103 0.645157 1.106594 0.110829 -0.015524 449479.000000 0 0 1
-20.732681 -14.740322 12.250863 28.234815 0.618051 1.121988 0.085648 -0.017996 646987.000000 0 0 1
-21.300981 -15.859022 11.513863 28.944938 0.639985 1.161695 0.088797 -0.018779 144557.000000 0 0 1
-21.231381 -15.870522 10.046363 28.347388 0.641901 1.208522 0.104231 -0.013571 -345402.000000 0 0 1
-22.069881 -16.990522 9.417163 29.401368 0.656085 1.244754 0.099225 0.000472 268289.000000 0 0 1
-21.410781 -18.267822 9.510963 29.708471 0.706353 1.244916 0.108006 0.006510 -45277.800000 0 0 1
-22.066981 -19.188622 8.716463 30.514449 0.715742 1.281111 0.110391 -0.005586 12918.400000 0 0 1
-21.491881 -20.682522 8.833363 31.107812 0.766210 1.282875 0.118800 -0.002775 1142830.000000 0 0 1
-20.162881 -20.710222 8.260263 30.061387 0.798789 1.292436 0.132254 -0.004869 591651.000000 0 0 1
-19.659181 -22.007722 8.435963 30.691834 0.841703 1.292352 0.132604 -0.014731 190913.000000 0 0 1
-18.368881 -22.256822 7.595063 29.840692 0.880809 1.313445 0.121982 -0.022258 295872.000000 0 0 1
-17.255781 -21.477922 7.966063 28.679632 0.893974 1.289334 0.099278 -0.025507 -932289.000000 0 0 1
-16.122681 -21.920722 7.305763 28.175043 0.936640 1.308500 0.103758 -0.022540 -107111.000000 0 0 1
-14.860981 -21.671022 8.224663 27.534107 0.969696 1.267458 0.050828 -0.010671 809565.000000 0 0 1
-13.649681 -21.942322 7.504263 26.908981 1.014306 1.288173 0.045645 -0.005622 201107.000000 0 0 1
-12.539781 -21.623322 8.309963 26.341406 1.045273 1.249843 0.047199 -0.007529 672513.000000 0 0 1
-11.178281 -22.151022 7.727263 25.987157 1.103444 1.268881 0.033950 -0.004687 778964.000000 0 0 1
-11.065281 -23.574122 7.741563 27.168207 1.131941 1.281843 0.032321 0.000891 -955289.000000 0 0 1
-9.765781 -23.873222 7.330163 26.814781 1.182497 1.293909 0.046893 -0.003459 -180312.000000 0 0 1
-9.504881 -25.385402 7.507263 28.126863 1.212532 1.300614 0.052404 0.006106 -189495.000000 0 0 1
-10.049981 -26.087062 6.436863 28.687456 1.203072 1.344491 0.047639 -0.001691 -319156.000000 0 0 1
-10.152181 -27.469642 6.723963 30.047624 1.216787 1.345108 0.076485 -0.006765 -190692.000000 0 0 1
-9.161681 -28.323482 5.917763 30.350881 1.257953 1.374561 0.081711 -0.007647 -420980.000000 0 0 1
-7.836881 -28.019972 6.309363 29.771523 1.298076 1.357251 0.081501 -0.007415 -115218.000000 0 0 1
-6.828881 -28.903372 5.828763 30.265707 1.338785 1.376999 0.090263 -0.006119 557263.000000 0 0 1
-6.828881 -30.305752 6.468763 31.731957 1.349165 1.365501 0.103446 -0.013904 -528776.000000 0 0 1
-6.690881 -30.244732 7.830263 31.950348 1.353078 1.323198 0.103215 -0.021529 28467.200000 0 0 1
-6.918881 -31.532682 8.347563 33.344606 1.354800 1.317763 0.139120 -0.030172 -336037.000000 0 0 1
-7.094881 -31.530622 9.900663 33.801488 1.349467 1.273531 0.115636 -0.031019 -805339.000000 0 0 1
-6.106881 -30.915142 10.631663 33.257665 1.375770 1.245409 0.101077 -0.024262 -301464.000000 0 0 1
-6.387881 -31.168832 11.979263 33.997115 1.368651 1.210703 0.085716 -0.027953 -704677.000000 0 0 1
-5.435881 -30.411472 12.882363 33.471805 1.393920 1.175727 0.079355 -0.025979 -291231.000000 0 0 1
-5.609881 -29.027902 12.892063 32.253607 1.379892 1.159597 0.080579 -0.017313 -120854.000000 0 0 1
-4.847881 -28.499262 13.928663 32.089212 1.402304 1.121801 0.064159 -0.020026 -357831.000000 0 0 1
-5.681881 -27.796162 15.046163 32.113820 1.369162 1.083175 0.070314 -0.019022 -78727.900000 0 0 1
-6.454881 -28.688752 15.839363 33.400530 1.349485 1.076713 0.060956 -0.025200 107319.000000 0 0 1
-5.713881 -29.403612 16.779563 34.333287 1.378863 1.060168 0.037777 -0.024183 62137.000000 0 0 1
-6.437881 -30.767252 16.994563 35.733532 1.364528 1.075160 0.037467 -0.025054 -6667.480000 0 0 1
-6.268881 -31.689382 15.918263 36.012594 1.375495 1.112948 0.050884 -0.022215 59130.200000 0 0 1
-7.084881 -32.832272 16.048263 37.224997 1.358265 1.125068 0.048532 -0.023974 -263275.000000 0 0 1
-6.513881 33.989203 15.478163 37.911346 -1.381447 1.150235 0.042622 -0.025804 -441005.000000 0 0 1
-6.598881 33.923140 14.070363 37.313534 -1.378671 1.184150 0.053155 -0.034338 1173460.000000 0 0 1
-5.606881 32.967198 13.522063 36.071034 -1.402334 1.186536 0.063989 -0.034223 1073880.000000 0 0 1
-4.403881 33.720581 12.909063 36.374657 -1.440932 1.207998 0.087419 -0.046827 -115938.000000 0 0 1
-4.561881 33.830281 11.470563 36.012116 -1.436759 1.246629 0.099388 -0.043980 107230.000000 0 0 1
-3.496881 -33.601102 10.875663 35.490031 1.467099 1.259343 0.110736 -0.045349 -504986.000000 0 0 1
-3.671881 -33.325422 9.363863 34.810177 1.461056 1.298444 0.107775 -0.042873 -773668.000000 0 0 1
-3.686881 33.721177 8.408663 34.948770 -1.461895 1.327813 0.125733 -0.046364 123340.000000 0 0 1
-4.506881 32.595908 8.603563 34.012153 -1.433402 1.315062 0.115291 -0.048475 277274.000000 0 0 1
-6.015881 32.724895 8.960663 34.458716 -1.388994 1.307732 0.116639 -0.042507 397843.000000 0 0 1
-6.896881 33.207483 7.928963 34.830624 -1.366017 1.341139 0.126668 -0.035877 -623273.000000 0 0 1
-8.183881 33.283555 8.439663 35.298709 -1.329696 1.329365 0.095257 -0.030472 -542753.000000 0 0 1
-9.296181 33.603435 7.433363 35.649190 -1.300903 1.360741 0.099515 -0.037465 -50541.700000 0 0 1
-9.234781 -33.211762 6.879363 35.151500 1.299590 1.373819 0.139502 -0.032483 231646.000000 0 0 1
-10.090581 -33.201242 5.712663 35.167838 1.275745 1.407633 0.122595 -0.020141 550407.000000 0 0 1
-10.475481 -31.808532 5.125263 33.879001 1.252654 1.418932 0.111917 -0.018453 417719.000000 0 0 1
-11.399581 -31.104742 5.939063 33.656023 1.219507 1.393404 0.118878 -0.021268 308915.000000 0 0 1
-12.307881 -30.276212 5.219263 33.096430 1.184682 1.412437 0.125241 -0.017824 407336.000000 0 0 1
-13.464181 -29.570512 5.957863 33.033248 1.143523 1.389444 0.115895 -0.025566 -9684.850000 0 0 1
-14.552281 -30.383582 6.321763 34.276750 1.124128 1.385301 0.115068 -0.023109 -359967.000000 0 0 1
-15.450181 -29.673602 7.104463 34.200938 1.090749 1.361545 0.107932 -0.027186 -301372.000000 0 0 1
34.360418 -12.646522 -12.906237 38.821950 -0.352668 1.909693 0.092251 -0.018159 -118873.000000 0 0 1
33.323648 -12.696122 -11.925137 37.601408 -0.364016 1.893515 0.092611 -0.015288 486742.000000 0 0 1
33.031528 -14.074522 -11.685537 37.758784 -0.402797 1.885441 0.086762 -0.020755 -194616.000000 0 0 1
33.749508 -14.692422 -10.452237 38.264158 -0.410594 1.847473 0.074223 -0.012053 406781.000000 0 0 1
35.148388 -14.762222 -10.734537 39.605084 -0.397626 1.845269 0.094440 -0.017850 128906.000000 0 0 1
35.785208 -15.244922 -9.542437 40.050554 -0.402727 1.811370 0.081575 -0.014119 -350066.000000 0 0 1
-36.414651 -15.440822 -9.828037 40.755811 0.401047 1.814341 0.048839 -0.016249 -531473.000000 0 0 1
-35.784698 -14.218422 -10.103437 39.809391 0.378205 1.827398 0.041839 -0.009824 1247550.000000 0 0 1
-34.407276 -14.404022 -10.559537 38.766485 0.396465 1.846671 0.036747 -0.020852 1336040.000000 0 0 1
-33.740401 -13.084822 -10.864637 37.784489 0.369953 1.862456 0.048627 -0.029116 -427575.000000 0 0 1
-33.421341 -12.167122 -9.829337 36.900417 0.349138 1.840426 0.055384 -0.029464 368557.000000 0 0 1
-32.810811 -10.998722 -10.332437 36.114823 0.323444 1.860950 0.073768 -0.035132 -88896.200000 0 0 1
-33.261691 -9.730422 -9.511037 35.937182 0.284600 1.838645 0.073283 -0.036203 116825.000000 0 0 1
-32.694861 -9.660122 -8.230237 35.071480 0.287289 1.807676 0.090928 -0.036377 377549.000000 0 0 1
-33.440411 -8.744622 -7.477237 35.364369 0.255771 1.783838 0.128574 -0.042491 -96407.300000 0 0 1
-32.932981 -8.739922 -6.002637 34.597675 0.259406 1.745177 0.116300 -0.031943 -559080.000000 0 0 1
-31.853001 -7.856822 -5.843537 33.324019 0.241832 1.747063 0.133173 -0.042101 163165.000000 0 0 1
-31.335181 -7.902322 -4.483637 32.625807 0.247036 1.708659 0.131601 -0.033693 93180.000000 0 0 1
-30.500721 -9.124622 -4.011437 32.088072 0.290687 1.696138 0.123644 -0.025996 -786347.000000 0 0 1
-31.231301 -10.241422 -3.640237 33.068599 0.316872 1.681101 0.123118 -0.027261 111124.000000 0 0 1
-31.954321 -10.160622 -2.406537 33.617084 0.307863 1.642444 0.114749 -0.033162 63024.500000 0 0 1
-32.522051 -11.528722 -2.068337 34.566939 0.340669 1.630668 0.116435 -0.029284 18370.800000 0 0 1
-33.623181 -11.960822 -2.863437 35.801939 0.341772 1.650862 0.110314 -0.039418 616223.000000 0 0 1
-34.055171 -13.274222 -2.400237 36.629507 0.371670 1.636371 0.112603 -0.042911 -226529.000000 0 0 1
-35.575075 -13.354122 -2.189537 38.061958 0.359103 1.628354 0.084262 -0.037133 -318503.000000 0 0 1
-36.015649 -12.640722 -1.074437 38.184673 0.337546 1.598938 0.085902 -0.037994 -572744.000000 0 0 1
36.283098 -12.658422 -1.008637 38.441074 -0.335676 1.597038 0.114510 -0.039861 -519732.000000 0 0 1
35.820738 -11.702122 0.093563 37.683865 -0.315756 1.568313 0.098578 -0.042412 -458479.000000 0 0 1
35.735308 -12.226522 1.429263 37.796070 -0.329657 1.532972 0.116634 -0.040035 41687.800000 0 0 1
35.552758 -11.153022 2.320863 37.333295 -0.303981 1.508590 0.113641 -0.037199 -143289.000000 0 0 1
36.002998 -11.450722 3.762263 37.966953 -0.307932 1.471540 0.115923 -0.044760 -393554.000000 0 0 1
34.948648 -11.972322 4.477263 37.212772 -0.330039 1.450189 0.104651 -0.044351 -453115.000000 0 0 1
35.398488 -12.380722 5.774263 37.943080 -0.336455 1.418020 0.102033 -0.038360 -577934.000000 0 0 1
34.256268 -12.693622 6.718163 37.145036 -0.354863 1.388932 0.097145 -0.035928 -552056.000000 0 0 1
33.461628 -11.573422 6.981263 36.088263 -0.332992 1.376119 0.081918 -0.031977 -257090.000000 0 0 1
33.357008 -11.342722 8.403163 36.220995 -0.327774 1.336666 0.069641 -0.021920 -440784.000000 0 0 1
32.588768 -10.098322 8.829463 35.241500 -0.300488 1.317557 0.064968 -0.029969 809107.000000 0 0 1
31.162098 -10.109522 8.642963 33.881848 -0.313705 1.312854 0.090807 -0.031088 1148000.000000 0 0 1
30.450248 -9.029122 9.241763 33.077981 -0.288262 1.287634 0.100762 -0.021466 1187820.000000 0 0 1
28.887368 -9.034522 9.018763 31.582285 -0.303113 1.281201 0.098154 -0.026403 1040760.000000 0 0 1
28.615298 -8.611322 7.664663 30.850239 -0.292314 1.319719 0.116205 -0.030718 46932.500000 0 0 1
27.893958 -9.641522 7.018263 30.336247 -0.332794 1.337332 0.133281 -0.043383 -540336.000000 0 0 1
26.923158 -9.127722 5.941563 29.042623 -0.326868 1.364761 0.143992 -0.043581 275205.000000 0 0 1
25.710458 -8.700622 6.610463 27.936118 -0.326311 1.331903 0.152247 -0.043990 973719.000000 0 0 1
24.695858 -8.221422 5.746963 26.655295 -0.321367 1.353487 0.152352 -0.041536 9499.890000 0 0 1
24.814558 -6.789522 5.255763 26.258007 -0.267074 1.369277 0.138564 -0.036415 -197795.000000 0 0 1
25.711558 -6.715222 4.128063 26.892738 -0.255469 1.416686 0.131782 -0.038915 721446.000000 0 0 1
25.642358 -5.429822 3.535563 26.448321 -0.208670 1.436717 0.123765 -0.036684 218221.000000 0 0 1
26.405858 -5.329822 2.167763 27.025461 -0.199166 1.490498 0.141991 -0.044183 663936.000000 0 0 1
25.602458 -5.758722 1.044663 26.262903 -0.221246 1.531009 0.138793 -0.039264 539771.000000 0 0 1
26.320258 -5.499722 -0.150237 26.889133 -0.205990 1.576384 0.146179 -0.041317 336757.000000 0 0 1
25.481058 -5.791322 -1.503537 26.174116 -0.223483 1.628272 0.126406 -0.034215 598634.000000 0 0 1
24.423458 -4.860022 -1.628337 24.955492 -0.196424 1.636092 0.118240 -0.032794 -323302.000000 0 1 0
23.767258 -5.121722 -2.804237 24.474034 -0.212249 1.685629 0.097037 -0.030726 46140.500000 0 1 0
22.475258 -4.255022 -3.008437 23.071479 -0.187106 1.701565 0.075541 -0.030861 179784.000000 0 1 0
22.656658 -2.861622 -3.100637 23.046192 -0.125639 1.705746 0.072863 -0.029676 405939.000000 0 1 0
23.315658 -2.273022 -4.231237 23.805250 -0.097182 1.749490 0.089682 -0.031818 -249067.000000 0 1 0
22.320558 -1.546222 -5.113437 22.950934 -0.069163 1.795481 0.066095 -0.025117 -220389.000000 0 1 0
21.869158 -0.330122 -4.522137 22.334251 -0.015094 1.774681 0.049418 -0.017624 196864.000000 0 1 0
21.113758 0.485578 -5.373837 21.792308 0.022994 1.819960 0.060081 -0.011443 -718642.000000 0 1 0
21.088458 1.974878 -4.944237 21.750142 0.093375 1.800121 0.072123 -0.002178 -531913.000000 0 1 0
22.288558 2.742478 -5.004837 23.007594 0.122429 1.790079 0.105303 -0.008362 330100.000000 0 1 0
22.847358 2.739378 -3.696737 23.306047 0.119329 1.730086 0.121645 -0.009949 -700823.000000 0 1 0
24.002058 3.701978 -3.540137 24.542535 0.153030 1.715546 0.141328 -0.022582 -529309.000000 0 1 0
23.615358 5.064478 -3.621837 24.422362 0.211257 1.719645 0.114770 -0.009942 614831.000000 0 1 0
24.668458 5.921878 -3.197137 25.569966 0.235600 1.696159 0.117079 -0.016970 128334.000000 0 0 1
24.259758 7.416978 -3.074737 25.553893 0.296707 1.691412 0.108815 -0.024662 99471.700000 0 0 1
23.341958 7.616078 -1.997737 24.634176 0.315392 1.651982 0.132079 -0.028964 779425.000000 0 1 0
22.656058 8.855078 -2.130637 24.418210 0.372592 1.658163 0.115554 -0.022116 -215087.000000 0 1 0
21.627158 9.106578 -1.018237 23.488306 0.398538 1.614161 0.096570 -0.019587 -208984.000000 0 1 0
22.223358 9.470478 0.251763 24.158456 0.402844 1.560375 0.084648 -0.027882 1690530.000000 0 1 0
21.179058 9.959178 1.138963 23.431495 0.439555 1.522169 0.064048 -0.025159 888950.000000 0 1 0
21.851258 10.342678 2.528063 24.307192 0.442078 1.466603 0.094936 -0.020527 -301468.000000 0 1 0
22.699858 11.450478 2.481363 25.545140 0.467185 1.473507 0.098919 -0.035773 -119940.000000 0 0 1
22.285958 12.661178 1.892263 25.701168 0.516651 1.497104 0.099676 -0.026233 -495104.000000 0 0 1
21.135858 13.429378 2.667863 25.183133 0.566031 1.464659 0.082142 -0.018511 -988257.000000 0 0 1
19.924558 12.818378 2.429863 23.816025 0.571683 1.468592 0.139318 -0.020906 13742.900000 0 1 0
18.834358 13.426678 3.191963 23.349462 0.619319 1.433663 0.117506 -0.024658 740019.000000 0 1 0
18.867658 13.318778 4.733363 23.575052 0.614678 1.368644 0.103614 -0.022107 -811907.000000 0 1 0
18.629958 12.032978 5.205863 22.780889 0.573483 1.340240 0.103313 -0.016560 371597.000000 0 1 0
18.832558 12.053878 6.589763 23.310646 0.569352 1.284196 0.101277 -0.021694 -124769.000000 0 1 0
18.653258 10.721278 7.370763 22.742427 0.521659 1.240739 0.067188 -0.016900 82111.600000 0 1 0
19.583258 9.752078 6.902163 22.940072 0.462031 1.265183 0.053456 -0.028201 537498.000000 0 1 0
19.588658 8.574078 7.640663 22.707049 0.412584 1.227611 0.055200 -0.014679 27938.900000 0 1 0
20.432158 7.496078 6.920663 22.837685 0.351630 1.262918 0.065797 -0.021841 9603.120000 0 1 0
19.928058 7.218778 5.636963 21.932023 0.347539 1.310859 0.045119 -0.029207 704817.000000 0 1 0
20.852958 6.446078 4.851363 22.359193 0.299803 1.352083 0.061339 -0.038433 157712.000000 0 1 0
20.474058 6.353878 3.352963 21.697953 0.300914 1.415646 0.055761 -0.027569 -501550.000000 0 1 0
21.546258 5.852478 2.597163 22.477500 0.265225 1.454993 0.064037 -0.028831 194470.000000 0 1 0
21.336858 5.835478 1.231563 22.154708 0.266964 1.515178 0.070653 -0.012927 -802397.000000 0 1 0
22.550058 5.335078 0.463163 23.177202 0.232317 1.550811 0.115126 -0.012584 -412652.000000 0 1 0
22.681358 3.914978 0.651663 23.025979 0.170924 1.542491 0.119132 -0.015063 76605.300000 0 1 0
23.812658 3.305278 0.105063 24.041185 0.137922 1.566426 0.142355 -0.023590 -203687.000000 0 1 0
23.612058 1.745978 0.200263 23.677370 0.073810 1.562338 0.150212 -0.023449 99364.700000 0 1 0
22.666258 1.330578 -0.791937 22.719086 0.058636 1.605661 0.114010 -0.017237 889853.000000 0 1 0
22.857258 0.031178 -1.287937 22.893536 0.001364 1.627084 0.119744 -0.019360 -931471.000000 0 1 0
22.634758 -1.199722 -0.310937 22.668663 -0.052954 1.584513 0.122814 -0.009435 -496542.000000 0 1 0
23.439058 -1.333022 0.836363 23.491826 -0.056811 1.535186 0.128840 -0.015427 -700959.000000 0 1 0
24.671358 -1.836422 0.435363 24.743442 -0.074298 1.553200 0.148028 -0.025656 -940398.000000 0 1 0
25.669258 -1.594222 1.629563 25.770290 -0.062027 1.507520 0.160717 -0.026664 -216348.000000 0 0 1
25.946158 -0.251822 1.820663 26.011177 -0.009705 1.500744 0.162519 -0.028790 480721.000000 0 0 1
26.609458 -0.017022 3.075063 26.786556 -0.000640 1.455744 0.154205 -0.033565 -249693.000000 0 0 1
26.396058 1.468178 3.599163 26.680731 0.055564 1.435486 0.156832 -0.037152 -178910.000000 0 0 1
26.914958 2.556278 2.934363 27.194853 0.094692 1.462684 0.185053 -0.037277 -696000.000000 0 0 1
28.275758 2.534878 2.652263 28.512780 0.089409 1.477641 0.179296 -0.037331 -683879.000000 0 0 1
28.672138 3.640578 1.625563 28.948018 0.126297 1.514612 0.203303 -0.046010 -424740.000000 0 0 1
27.965658 3.540178 0.387263 28.191503 0.125920 1.557059 0.211516 -0.034826 263803.000000 0 0 1
28.387058 4.379578 -0.689737 28.731194 0.153074 1.594805 0.202731 -0.033781 -289403.000000 0 0 1
29.751748 4.034778 -1.306037 30.052482 0.134792 1.614269 0.173221 -0.030507 -248800.000000 0 0 1
30.809458 3.952578 -0.371437 31.064184 0.127594 1.582754 0.159150 -0.032352 -425961.000000 0 0 1
32.030628 3.725878 -1.045337 32.263540 0.115802 1.603202 0.141485 -0.027027 911174.000000 0 0 1
33.327688 3.990978 -0.171837 33.566236 0.119182 1.575916 0.092238 -0.028666 788823.000000 0 0 1
33.512378 3.102078 0.911763 33.667992 0.092302 1.543712 0.099038 -0.035041 140912.000000 0 0 1
33.052578 3.700178 2.117163 33.326365 0.111484 1.507225 0.099025 -0.023936 9431.020000 0 0 1
33.057898 2.702478 3.317163 33.333640 0.081568 1.471117 0.103382 -0.018563 396836.000000 0 0 1
32.015038 1.685778 3.315963 32.230422 0.052607 1.467731 0.129903 -0.025470 697384.000000 0 0 1
32.119708 0.559278 4.158163 32.392573 0.017411 1.442073 0.133646 -0.024238 -94943.700000 0 0 1
33.392858 -0.315822 3.992763 33.632200 -0.009457 1.451797 0.114960 -0.016962 140305.000000 0 0 1
34.536668 0.266178 4.564863 34.838058 0.007707 1.439388 0.110886 -0.016621 -686728.000000 0 0 1
35.645588 -0.552522 4.471863 35.929247 -0.015499 1.446010 0.108731 -0.020209 203710.000000 0 0 1
-36.675781 0.205878 4.767563 36.984929 -0.005613 1.441531 0.123570 -0.028698 1038410.000000 0 0 1
-36.362621 1.281678 3.936163 36.597490 -0.035233 1.463035 0.100539 -0.027580 203190.000000 0 0 1
-35.879277 0.912378 2.646463 35.988314 -0.025424 1.497193 0.128410 -0.028944 -259045.000000 0 0 1
-35.782475 2.044778 1.584963 35.875880 -0.057083 1.526603 0.109273 -0.032060 443164.000000 0 0 1
-34.798810 3.050978 1.859563 34.981762 -0.087451 1.517613 0.134108 -0.034825 705217.000000 0 0 1
-33.828831 3.169678 0.809863 33.986653 -0.093425 1.546965 0.169328 -0.021453 334845.000000 0 0 1
-32.537401 3.880278 1.314163 32.794299 -0.118695 1.530713 0.173571 -0.027327 -212490.000000 0 0 1
-31.846881 3.078778 2.260463 32.075106 -0.096375 1.500264 0.160961 -0.038549 643575.000000 0 0 1
-30.923431 3.917578 3.003963 31.315009 -0.126015 1.474721 0.164221 -0.023304 388080.000000 0 0 1
-31.312691 3.899278 4.562663 31.882705 -0.123889 1.427196 0.164146 -0.020721 856398.000000 0 0 1
-32.531221 4.610278 4.880463 33.216772 -0.140781 1.423335 0.160502 0.005297 1770380.000000 0 0 1
-33.738911 3.818378 5.019263 34.323274 -0.112695 1.424035 0.147407 0.000323 756265.000000 0 0 1
-33.869081 2.969778 6.325663 34.582485 -0.087460 1.386845 0.126276 -0.000713 -711387.000000 0 0 1
-34.040431 3.740778 7.504663 35.058014 -0.109453 1.355063 0.131745 0.001464 267624.000000 0 0 1
-34.004311 3.154878 8.765463 35.257337 -0.092514 1.319547 0.128302 -0.005314 -256528.000000 0 0 1
-35.019241 2.034778 9.069763 36.231867 -0.058039 1.317780 0.116211 -0.012094 -352643.000000 0 0 1
-34.679425 0.802378 8.490563 35.712687 -0.023133 1.330751 0.115553 -0.016482 -367763.000000 0 0 1
-35.637938 -0.183422 8.642963 36.671475 0.005147 1.332872 0.106935 -0.017458 -499728.000000 0 0 1
-35.458021 -1.128822 9.865163 36.822099 0.031825 1.299569 0.120583 -0.014777 787386.000000 0 0 1
-34.172683 -1.776822 9.937463 35.632605 0.051949 1.288162 0.098813 -0.017707 579710.000000 0 0 1
-34.068411 -2.569322 11.104063 35.924341 0.075274 1.256554 0.081271 -0.011879 -282561.000000 0 0 1
-32.883641 -3.533622 11.030763 34.863994 0.107048 1.248870 0.092043 -0.005509 -431660.000000 0 0 1
-32.877171 -4.452922 9.960063 34.640147 0.134622 1.279150 0.082144 -0.009054 -283929.000000 0 0 1
-31.711601 -5.226122 9.950663 33.644520 0.163333 1.270547 0.058732 -0.015117 -346587.000000 0 0 1
-31.702921 -6.278622 8.851163 33.508796 0.195516 1.303480 0.077535 -0.009757 613694.000000 0 0 1
-32.715101 -7.268622 9.119863 34.731580 0.218628 1.305100 0.081440 -0.012991 434874.000000 0 0 1
-32.824871 -8.182922 8.057963 34.775899 0.244311 1.336960 0.104606 -0.015834 -185999.000000 0 0 1
-33.859891 -9.297522 8.267763 36.073426 0.267983 1.339548 0.106465 -0.020209 277806.000000 0 0 1
-35.168035 -8.743122 8.206563 37.156165 0.243670 1.348093 0.118389 -0.026231 260816.000000 0 0 1
-36.185281 -9.717222 8.381163 38.393266 0.262351 1.350727 0.111964 -0.032910 273764.000000 0 0 1
8.102639 -24.183822 10.873163 27.726083 -1.247507 1.167814 0.110710 -0.032833 -146708.000000 0 0 1
7.624639 -24.587522 9.616363 27.480098 -1.270098 1.213290 0.113144 -0.030347 -1349760.000000 0 0 1
6.336239 -25.020522 9.791363 27.605167 -1.322769 1.208210 0.103101 -0.035129 -925440.000000 0 0 1
5.849839 -25.959952 8.661363 27.984977 -1.349157 1.256129 0.079615 -0.019884 83706.500000 0 0 1
5.275239 -25.335422 7.513063 26.947317 -1.365513 1.288246 0.087313 -0.019895 -222724.000000 0 0 1
5.206339 -26.266222 6.420763 27.536278 -1.375118 1.335455 0.079029 -0.015864 -292903.000000 0 0 1
4.393239 -25.711282 5.254663 26.607932 -1.401563 1.372005 0.081582 -0.023707 554052.000000 0 0 1
2.984239 -25.592582 5.391363 26.323995 -1.454715 1.364529 0.081656 -0.030687 268132.000000 0 0 1
2.220339 -26.703792 4.935463 27.246673 -1.487840 1.388651 0.075406 -0.024625 -486094.000000 0 0 1
0.711239 -26.519562 5.013163 26.998608 -1.543983 1.384030 0.084057 -0.029268 -829866.000000 0 0 1
0.280039 -26.386732 6.351663 27.141880 -1.560184 1.334589 0.075732 -0.023503 317169.000000 0 0 1
-1.151461 -26.265682 6.370563 27.051728 1.526985 1.333068 0.071726 -0.019373 1185270.000000 0 0 1
-1.946761 -27.585172 6.514863 28.410826 1.500340 1.339428 0.073059 -0.012484 -248948.000000 0 0 1
-1.469761 -28.341762 7.613563 29.383363 1.518984 1.308694 0.065452 -0.016775 -98456.200000 0 0 1
-1.963361 -29.640882 7.694363 30.686152 1.504655 1.317348 0.076233 -0.014982 -178360.000000 0 0 1
-1.719961 -30.275342 9.052363 31.646483 1.514047 1.280698 0.075623 -0.018313 380442.000000 0 0 1
-0.381361 -30.681282 9.305863 32.063774 1.558367 1.276329 0.069652 -0.014756 292655.000000 0 0 1
-0.249461 -31.049662 10.725863 32.850995 1.562762 1.238198 0.068810 -0.013377 -1224430.000000 0 0 1
1.190739 -31.221062 11.068963 33.146561 -1.532676 1.230316 0.038821 -0.010758 -1368930.000000 0 0 1
1.676639 -32.502472 10.619963 34.234565 -1.519257 1.255381 0.044212 -0.013046 911889.000000 0 0 1
3.032239 -32.761732 11.040363 34.704685 -1.478505 1.247047 0.030926 -0.007339 830641.000000 0 0 1
3.354039 -33.342552 12.418963 35.738019 -1.470540 1.215893 0.038906 -0.012358 -394182.000000 0 0 1
2.874339 -32.573662 13.485263 35.371706 -1.482783 1.179654 0.027395 -0.009189 402139.000000 0 0 1
3.482839 -33.082972 14.668963 36.356453 -1.465907 1.155483 0.040013 -0.012261 -113987.000000 0 0 1
2.953739 -32.188562 15.866763 36.008086 -1.479289 1.114480 0.044795 -0.014701 68461.600000 0 0 1
3.368339 -30.839122 15.890163 34.855336 -1.462005 1.097426 0.041601 -0.017822 1616060.000000 0 0 1
4.789339 -30.686772 16.206063 35.032160 -1.415974 1.089865 0.033220 -0.010482 1432510.000000 0 0 1
5.364239 -29.383162 15.500863 33.651479 -1.390223 1.092092 0.041265 -0.016045 -369182.000000 0 0 1
5.550839 -29.406262 14.070963 33.068596 -1.384228 1.131273 0.045107 -0.011687 -83711.700000 0 0 1
4.408739 -29.455252 13.240163 32.593723 -1.422223 1.152485 0.037108 -0.004925 -526475.000000 0 0 1
4.795439 -29.394092 11.735263 32.011331 -1.409078 1.195447 0.033859 -0.005160 295042.000000 0 0 1
5.382439 -30.498922 11.021063 32.872766 -1.396115 1.228911 0.040604 -0.007412 1078560.000000 0 0 1
6.726539 -30.794442 11.474763 33.544212 -1.355741 1.221668 0.045754 -0.004858 535550.000000 0 0 1
7.211639 -32.111422 10.857763 34.656055 -1.349880 1.252130 0.041620 -0.000237 -95979.800000 0 0 1
6.785039 -33.220242 11.632463 35.845996 -1.369323 1.240300 0.028524 -0.012633 224924.000000 0 0 1
6.958939 33.704808 10.976563 36.123758 1.367190 1.262055 0.043961 -0.014419 -106039.000000 0 0 1
6.642039 32.445519 11.847763 35.173824 1.368873 1.227243 0.051882 -0.020280 -1085080.000000 0 0 1
5.312239 32.253189 12.098063 34.854716 1.407558 1.216320 0.048696 -0.024118 -1374700.000000 0 0 1
4.969039 31.011162 12.622663 33.848415 1.411913 1.188645 0.061404 -0.022187 230380.000000 0 0 1
3.732639 30.985692 13.551263 34.024733 1.450911 1.161159 0.074525 -0.031900 216262.000000 0 0 1
3.997639 31.622702 14.803863 35.144428 1.445047 1.135996 0.079464 -0.032792 85442.400000 0 0 1
3.025639 31.297032 15.766063 35.174245 1.474421 1.106015 0.077223 -0.032505 25019.600000 0 0 1
3.562339 31.531592 17.200063 36.093957 1.458297 1.074086 0.072282 -0.034717 157727.000000 0 0 1
3.772839 32.902615 17.520163 37.466953 1.456628 1.084204 0.070102 -0.028148 300626.000000 0 0 1
4.497139 33.061702 18.744663 38.270913 1.435603 1.058949 0.070781 -0.026698 188355.000000 0 0 1
4.684539 -33.624942 19.253263 39.029089 -1.432370 1.054911 0.061250 -0.024936 -22562.900000 0 0 1
3.495039 -33.035802 19.715563 38.630078 -1.465393 1.035183 0.059107 -0.021349 -348171.000000 0 0 1
3.708839 -32.021682 20.680463 38.299154 -1.455487 1.000393 0.054184 -0.023497 1995950.000000 0 0 1
2.306439 -31.390552 21.200563 37.949312 -1.497453 0.978033 0.052987 -0.023198 2265010.000000 0 0 1
1.372039 -32.298352 21.808563 38.995890 -1.528342 0.977312 0.058640 -0.019244 499074.000000 0 0 1
0.485239 -31.540452 22.647963 38.832536 -1.555413 0.948108 0.047331 -0.009892 -159727.000000 0 0 1
-0.796861 -32.242292 23.102863 39.672946 1.546087 0.949201 0.046408 -0.012283 -644429.000000 0 0 1
-1.482461 -32.678712 21.918863 39.376801 1.525463 0.980456 0.047511 -0.012779 595257.000000 0 0 1
-2.472261 -33.693142 22.210063 40.430518 1.497552 0.989223 0.048124 -0.008670 1048570.000000 0 0 1
-3.852561 -33.357082 22.834863 40.607489 1.455811 0.973594 0.062500 -0.004762 608591.000000 0 0 1
-4.885961 -32.898422 21.964063 39.857231 1.423357 0.987152 0.053391 -0.009263 -120662.000000 0 0 1
-6.074761 -32.669252 22.669363 40.225400 1.386949 0.972109 0.060056 -0.007881 -15907.400000 0 0 1
-7.353261 -32.337722 21.853663 39.716260 1.347209 0.988139 0.054298 -0.008199 108193.000000 0 0 1
-7.830961 -33.519942 21.270063 40.463886 1.341292 1.017311 0.036369 0.003027 -863337.000000 0 0 1
-8.981961 -33.144622 20.612163 40.051253 1.306159 1.030203 0.045446 -0.012671 -1257040.000000 0 0 1
-10.092161 33.969269 20.464263 40.921254 -1.282005 1.047095 0.051817 -0.014984 -97861.900000 0 0 1
-10.779661 33.821837 21.706063 41.608544 -1.262256 1.021985 0.066169 -0.018293 -1145280.000000 0 0 1
-12.145361 33.687070 21.585063 41.812002 -1.224767 1.028340 0.047090 -0.015719 -673459.000000 0 0 1
-12.890961 33.522278 22.986463 42.641500 -1.203680 1.001472 0.052364 -0.013032 105729.000000 0 0 1
-12.817061 -33.505142 23.856163 43.081181 1.205432 0.983936 0.050776 -0.016201 -107390.000000 0 0 1
-11.576761 -33.131702 24.436463 42.765311 1.234641 0.962575 0.054077 -0.013463 -2677.870000 0 0 1
-11.623561 -31.851182 25.332263 42.324089 1.220880 0.929131 0.049409 -0.018960 -296972.000000 0 0 1
-12.202261 -32.063462 26.588963 43.404306 1.207155 0.911465 0.053604 -0.011905 -135812.000000 0 0 1
-12.805561 -30.832432 26.859763 42.849366 1.177147 0.893303 0.056005 -0.015987 -499736.000000 0 0 1
-13.418461 -30.769172 28.213663 43.849833 1.159561 0.871845 0.047267 -0.013888 -174234.000000 0 0 1
-12.569461 -30.426682 29.293863 44.067049 1.179043 0.843628 0.047430 -0.004023 29830.000000 0 0 1
-13.427061 -30.022312 30.328463 44.737466 1.150243 0.825866 0.049518 -0.007428 -277956.000000 0 0 1
-12.841161 -29.400622 31.578463 45.016567 1.159003 0.793317 0.052063 -0.012221 -694531.000000 0 0 1
-13.755861 -28.749922 32.444463 45.479940 1.124524 0.776487 0.060792 -0.016518 86074.700000 0 0 1
-13.329061 -28.565722 33.781763 46.204674 1.134215 0.750815 0.059596 -0.012575 -364770.000000 0 0 1
-12.830761 -29.833392 -33.455871 46.625691 1.164630 2.371063 0.068126 -0.008826 -109343.000000 0 0 1
-11.467461 -30.088222 -33.748471 46.645076 1.206664 2.379679 0.056576 -0.009006 -185590.000000 0 0 1
-11.053761 -31.167432 -32.983271 46.706430 1.229978 2.354888 0.059684 -0.002924 269289.000000 0 0 1
-9.599861 -31.512972 -33.432871 46.935931 1.275095 2.363578 0.055290 -0.009991 648467.000000 0 0 1
-8.636261 -30.570632 -32.964171 45.779746 1.295469 2.374685 0.065873 -0.021242 -105938.000000 0 0 1
-7.420561 -31.194742 -32.652971 45.764541 1.337258 2.365276 0.085589 -0.029667 -134312.000000 0 0 1
-6.493961 -30.376122 -31.728771 44.402649 1.360182 2.366805 0.093911 -0.033731 -55345.000000 0 0 1
-6.863061 -30.345062 -30.374171 43.480049 1.348371 2.344203 0.110097 -0.042449 487364.000000 0 0 1
-5.923561 -29.578892 -29.568471 42.240903 1.373148 2.346188 0.100360 -0.041659 416747.000000 0 0 1
-6.194061 -29.651492 -28.040471 41.277662 1.364862 2.317623 0.090004 -0.042650 -250287.000000 0 0 1
-5.938261 -30.863172 -27.379271 41.682404 1.380713 2.287436 0.092153 -0.040469 19846.400000 0 0 1
-6.879161 -31.068372 -26.363571 41.323171 1.352892 2.262675 0.097146 -0.031517 -126662.000000 0 0 1
-6.757761 -32.384072 -25.704071 41.893851 1.365073 2.231348 0.089514 -0.039305 912771.000000 0 0 1
-5.611061 -32.460882 -24.827971 41.250709 1.399632 2.216649 0.057821 -0.039598 732463.000000 0 0 1
-5.591761 -33.649282 -24.085571 41.757116 1.406123 2.185604 0.065687 -0.045497 -113872.000000 0 0 1
-4.679161 -33.517872 -22.862371 40.841527 1.432091 2.164920 0.083439 -0.054825 -148579.000000 0 0 1
-5.199061 -32.880112 -21.697471 39.735529 1.413973 2.148435 0.086013 -0.044348 115648.000000 0 0 1
-5.253161 -31.455192 -21.769471 38.612623 1.405319 2.169766 0.062165 -0.023873 -273991.000000 0 0 1
-5.681861 -30.858852 -20.435271 37.445328 1.388712 2.148064 0.089661 -0.027367 622884.000000 0 0 1
-7.105961 -30.893492 -20.170771 37.573429 1.344714 2.137479 0.102697 -0.039399 1281910.000000 0 0 1
-7.622561 -29.560832 -20.027671 36.511010 1.318434 2.151411 0.103932 -0.024848 -35672.400000 0 0 1
-7.703661 -28.652912 -21.289471 36.518178 1.308146 2.193191 0.118068 -0.032363 -712157.000000 0 0 1
-6.432261 -28.458712 -21.846771 36.449330 1.348510 2.213515 0.111725 -0.009906 -381791.000000 0 0 1
-6.483461 -28.060172 -23.215171 36.991252 1.343726 2.249244 0.142703 -0.021204 -670690.000000 0 0 1
-5.198261 -28.300272 -24.002771 37.470793 1.389139 2.266040 0.141666 -0.020234 -204873.000000 0 0 1
-4.124061 -27.395552 -23.829371 36.542620 1.421381 2.281145 0.121505 -0.014370 413287.000000 0 0 1
-3.269161 -27.649852 -22.720371 35.936291 1.453108 2.255238 0.073740 -0.016927 280072.000000 0 0 1
-1.867461 -26.930342 -22.811871 35.342782 1.501563 2.272404 0.075382 -0.019788 416396.000000 0 0 1
-1.846961 -25.541132 -22.924871 34.370197 1.498609 2.300969 0.080666 -0.012979 7749.840000 0 0 1
-2.167261 -24.750322 -21.826271 33.070555 1.483454 2.291603 0.090624 -0.011627 -838665.000000 0 0 1
-2.066861 -23.257522 -22.284771 32.276854 1.482161 2.332874 0.085022 -0.012530 -179652.000000 0 0 1
-2.921761 -22.832322 -23.340771 32.781751 1.443522 2.363146 0.096669 -0.017761 242606.000000 0 0 1
-4.300461 -22.931522 -23.037071 32.788036 1.385415 2.349850 0.106912 -0.014917 -430814.000000 0 0 1
-5.216961 -23.048022 -24.273571 33.876751 1.348196 2.369606 0.088072 -0.013482 -146771.000000 0 0 1
-5.350661 -21.863922 -25.057971 33.683269 1.330788 2.409728 0.093312 -0.016074 -300283.000000 0 0 1
-6.058261 -22.050422 -26.201371 34.776939 1.302666 2.424032 0.096311 -0.017491 -429439.000000 0 0 1
-5.828461 -20.845922 -27.228871 34.784118 1.298161 2.469943 0.098361 -0.022504 -2461.610000 0 0 1
-6.150361 -21.161722 -28.534571 36.053671 1.287952 2.483969 0.100607 -0.024821 70465.600000 0 0 1
-5.074061 -21.759222 -29.218671 36.782341 1.341699 2.488761 0.087233 -0.022185 64216.700000 0 0 1
-5.513861 -22.140922 -30.653071 38.213007 1.326726 2.501706 0.094548 -0.032646 -4755.790000 0 0 1
-5.821361 -21.172822 -31.598271 38.478921 1.302481 2.534279 0.107059 -0.037691 -282564.000000 0 0 1
-6.755561 -21.577922 -32.551571 39.633939 1.267385 2.534492 0.102424 -0.039314 -260519.000000 0 0 1
-6.777261 -20.598322 -33.709071 40.081462 1.252933 2.569951 0.088600 -0.028534 -220989.000000 0 0 1
-5.665861 -20.734322 33.520463 39.820040 1.304048 0.570189 0.079957 -0.022894 -636949.000000 0 0 1
-5.724061 -19.962322 32.397263 38.481708 1.291546 0.570025 0.079020 -0.013482 890469.000000 0 0 1
-4.461061 -20.406122 31.562163 37.848131 1.355569 0.584631 0.063235 -0.009352 -890446.000000 0 0 1
-4.439761 -21.819022 31.157063 38.295480 1.370056 0.620485 0.070833 -0.015153 1115100.000000 0 0 1
-3.229861 -22.202922 30.433763 37.810259 1.426340 0.635277 0.065951 -0.017148 1654510.000000 0 0 1
-1.841061 -21.932422 31.086763 38.089467 1.487050 0.616078 0.046942 -0.020287 -614156.000000 0 0 1
-1.546061 -20.562022 31.071063 37.290723 1.495747 0.585906 0.044214 -0.017785 -517406.000000 0 0 1
-0.573961 -20.202522 32.051163 37.891271 1.542394 0.562599 0.051985 -0.013067 41985.400000 0 0 1
-1.118161 -19.789422 33.436763 38.870151 1.514353 0.535101 0.040650 -0.011710 352477.000000 0 0 1
-1.892961 -18.567122 33.411563 38.270797 1.469195 0.509414 0.037637 -0.015778 135786.000000 0 0 1
-1.919661 -18.049022 -33.321271 37.944162 1.464836 2.642811 0.043240 -0.021375 135766.000000 0 0 1
-2.956361 -16.918322 -33.170471 37.353044 1.397800 2.663830 0.047013 -0.022989 331159.000000 0 0 1
-2.594461 -15.702022 -33.808971 37.367516 1.407045 2.701633 0.060475 -0.025937 -358625.000000 0 0 1
-3.576961 -14.807822 -33.419971 36.728201 1.333778 2.713904 0.075597 -0.031460 -138290.000000 0 0 1
-3.147461 -13.327522 -33.532771 36.221211 1.338883 2.753883 0.077968 -0.045291 -872783.000000 0 0 1
-2.143461 -12.930522 -32.660571 35.192410 1.406523 2.759958 0.079563 -0.038045 -427826.000000 0 0 1
-1.810261 -11.552122 -32.872271 34.890039 1.415357 2.799837 0.089207 -0.040498 82220.000000 0 0 1
-1.187061 -11.116022 33.804963 35.605486 1.464411 0.319377 0.085417 -0.039929 -953587.000000 0 0 1
-2.105661 -11.170422 32.750363 34.666965 1.384479 0.334075 0.083718 -0.036257 -26095.400000 0 0 1
-1.526661 -10.711622 31.523963 33.329114 1.429226 0.330628 0.081674 -0.029802 238462.000000 0 0 1
-0.507461 -11.621022 30.818263 32.940416 1.527157 0.360910 0.062024 -0.033719 8938.410000 0 0 1
-1.144761 -12.794422 30.399563 33.002139 1.481560 0.399799 0.067701 -0.028364 73199.200000 0 0 1
-0.189361 -13.616922 29.785663 32.751216 1.556891 0.428832 0.048066 -0.034285 37633.600000 0 0 1
-0.425561 -15.089122 30.193963 33.757046 1.542601 0.463598 0.051964 -0.027026 1106030.000000 0 0 1
-1.546661 -15.700822 29.485663 33.441177 1.472605 0.491306 0.049884 -0.030150 835393.000000 0 0 1
-2.055961 -16.689622 30.286663 34.641773 1.448226 0.506843 0.053560 -0.024393 -265898.000000 0 0 1
-2.477461 -17.958322 29.523363 34.644886 1.433705 0.550676 0.054938 -0.011363 96602.800000 0 0 1
-3.628261 -17.885122 28.694463 34.006089 1.370648 0.566464 0.073375 -0.018492 227841.000000 0 0 1
-3.944761 -19.131622 28.047063 34.179202 1.367455 0.608356 0.081669 -0.025574 1082240.000000 0 0 1
-4.981961 -18.868422 26.842963 33.187075 1.312651 0.628623 0.062954 -0.033533 963308.000000 0 0 1
-5.598561 -19.984122 26.195763 33.420458 1.297648 0.669996 0.080688 -0.033379 77436.300000 0 0 1
-4.682261 -20.774922 25.460363 33.192636 1.349120 0.696568 0.077012 -0.030453 -26037.800000 0 0 1
-29.755861 -33.248756 -0.907637 44.628633 0.840780 1.591135 0.038325 -0.012906 -168097.000000 0 0 1
-29.194111 -32.148956 -0.243437 43.427074 0.833530 1.576402 0.052667 -0.027890 -290916.000000 0 0 1
-29.693061 -31.964956 1.091963 43.642052 0.822228 1.545773 0.029404 -0.018742 -44668.900000 0 0 1
-29.030811 -30.726656 1.720863 42.306935 0.813769 1.530109 0.053969 -0.022191 -403018.000000 0 0 1
-27.661381 -30.927956 1.865263 41.535162 0.841094 1.525873 0.053851 -0.028417 -1154560.000000 0 0 1
-27.044791 -29.668056 1.976963 40.193565 0.831620 1.521590 0.065652 -0.021734 -295401.000000 0 0 1
-25.538481 -29.750956 2.213463 39.271273 0.861441 1.514403 0.065920 -0.022678 -586100.000000 0 0 1
-25.098861 -30.520956 3.275463 39.651107 0.882576 1.488095 0.058846 -0.016678 130718.000000 0 0 1
-23.697061 -30.397656 3.489163 38.700678 0.908638 1.480516 0.059699 -0.013603 181722.000000 0 0 1
-23.419361 -31.185956 4.785163 39.292851 0.926682 1.448711 0.064344 -0.018935 -209615.000000 0 0 1
-23.816361 -30.561056 6.031263 39.211903 0.908803 1.416371 0.059914 -0.012722 -36106.500000 0 0 1
-23.274761 -31.162956 7.207863 39.557523 0.929300 1.387560 0.058491 -0.013749 -261099.000000 0 0 1
-23.704161 -30.409156 8.465263 39.474862 0.908676 1.354671 0.059130 -0.006942 -419618.000000 0 0 1
-23.167561 -29.132856 8.651663 38.214009 0.898966 1.342416 0.085191 -0.012624 -226625.000000 0 0 1
-23.624161 -28.587656 9.853363 38.372436 0.880178 1.311105 0.070502 -0.013657 -358340.000000 0 0 1
-22.883061 -27.353056 10.277163 37.113936 0.874144 1.290221 0.092412 -0.019256 -668527.000000 0 0 1
-21.634861 -27.663456 10.794463 36.740366 0.907082 1.272592 0.083338 -0.019303 -1083300.000000 0 0 1
-20.984661 -26.546356 11.310563 35.679040 0.901880 1.248223 0.095039 -0.020426 20978.500000 0 0 1
-19.617761 -26.800156 11.972063 35.304890 0.938914 1.224831 0.089610 -0.019519 -155099.000000 0 0 1
-19.526561 -27.653356 13.048763 36.280366 0.955975 1.202888 0.092326 -0.011170 -900372.000000 0 0 1
-18.231661 -27.719056 13.550463 35.837894 0.989006 1.183049 0.101843 -0.020943 -650083.000000 0 0 1
-18.113461 -28.729056 14.703463 37.008756 1.008257 1.162227 0.112017 -0.031780 -527091.000000 0 0 1
-18.185161 -30.036356 14.237063 37.889006 1.026388 1.185583 0.120017 -0.033350 -19737.200000 0 0 1
-18.246561 -30.952656 15.296563 39.051105 1.038134 1.168311 0.119729 -0.035511 62942.300000 0 0 1
-17.815461 -32.337056 14.777363 39.767403 1.067239 1.190070 0.110554 -0.046576 97793.000000 0 0 1
-17.828561 -33.390556 15.719563 40.986480 1.080367 1.177180 0.113385 -0.038105 224040.000000 0 0 1
-17.278161 33.537278 15.201863 40.674077 -1.095069 1.187750 0.092090 -0.037149 -216892.000000 0 0 1
-17.431661 32.500478 16.324563 40.331567 -1.078493 1.154081 0.095827 -0.027826 -529028.000000 0 0 1
-18.719661 32.324478 16.828363 40.969396 -1.045873 1.147515 0.095426 -0.035095 -195309.000000 0 0 1
-18.668161 31.165278 17.641063 40.385417 -1.031109 1.118738 0.064829 -0.020401 155249.000000 0 0 1
-19.433861 31.351078 18.964263 41.475394 -1.015888 1.095906 0.072157 -0.034601 -218907.000000 0 0 1
-18.656661 32.075878 19.887563 42.100453 -1.043985 1.078803 0.070394 -0.025902 -64660.000000 0 0 1
-19.228561 32.215778 21.157663 43.072505 -1.032683 1.057317 0.069253 -0.027807 -149468.000000 0 0 1
-18.695061 33.432678 21.903963 44.125196 -1.060928 1.051344 0.051246 -0.005600 -319845.000000 0 0 1
-17.448061 33.331778 22.524863 43.849877 -1.088552 1.031326 0.044811 -0.013255 -623699.000000 0 0 1
-17.420861 33.833778 23.823063 44.897097 -1.095303 1.011471 0.040891 -0.013042 -39819.100000 0 0 1
-18.117961 33.054278 24.982463 45.221337 -1.069392 0.985497 0.027999 -0.022918 -548553.000000 0 0 1
-19.483061 32.971378 24.741763 45.594477 -1.037089 0.997210 0.010127 -0.020794 -930822.000000 0 0 1
-20.123861 31.993078 25.509763 45.599066 -1.009321 0.977091 0.021112 -0.015234 -663882.000000 0 0 1
-21.643961 32.059478 25.431163 46.292713 -0.976965 0.989203 0.083706 -0.026207 -683742.000000 0 0 1
-21.982461 31.736678 24.093763 45.507744 -0.965019 1.012852 0.072891 -0.014307 -868535.000000 0 0 1
-23.357561 31.860278 23.985863 46.216606 -0.938183 1.025130 0.061693 -0.017959 -914788.000000 0 0 1
-23.932461 31.462378 22.577663 45.523563 -0.920502 1.051861 0.050365 -0.019224 -156542.000000 0 0 1
-23.585061 32.398678 21.606963 45.527907 -0.941548 1.076301 0.045393 -0.023528 74168.200000 0 0 1
-23.460461 31.803578 20.291163 44.425130 -0.935235 1.096458 0.032320 -0.013315 21452.600000 0 0 1
-23.260861 32.825878 19.136963 44.551423 -0.954313 1.126804 0.053995 -0.013776 -1082680.000000 0 0 1
-22.102561 33.534978 19.241863 44.535012 -0.988058 1.124019 0.061368 -0.022482 -1136750.000000 0 0 1
-21.807061 -33.712556 18.187263 44.077896 0.996637 1.145472 0.082267 -0.020763 591742.000000 0 0 1
-20.380361 -33.055656 18.259563 42.912087 1.018299 1.131270 0.087923 -0.025034 697244.000000 0 0 1
-20.343261 -32.191656 19.383863 42.730378 1.007221 1.099960 0.089242 -0.037897 -162932.000000 0 0 1
-19.080061 -31.696756 19.708063 41.918264 1.028940 1.081330 0.087655 -0.040198 -554016.000000 0 0 1
-19.203061 -30.661256 20.895463 41.779069 1.011265 1.047034 0.080701 -0.029093 127851.000000 0 0 1
-19.931361 -29.525456 20.505563 41.103405 0.977008 1.048493 0.114479 -0.035917 540024.000000 0 0 1
-20.555461 -28.733556 21.542363 41.378952 0.949821 1.023229 0.109154 -0.025790 233958.000000 0 0 1
-21.330361 -27.470756 21.033463 40.645213 0.910565 1.026882 0.102233 -0.028355 -150622.000000 0 0 1
-20.570661 -26.384556 20.487363 39.230460 0.908589 1.021331 0.099088 -0.016306 279395.000000 0 0 1
-21.291661 -25.173756 20.338963 38.739209 0.868753 1.018055 0.099032 -0.009417 14986.000000 0 0 1
-22.458861 -25.052356 19.320163 38.798063 0.839931 1.049543 0.099541 -0.014898 -173160.000000 0 0 1
-23.719361 -25.436756 19.808763 40.025289 0.820322 1.053069 0.091850 -0.017710 110497.000000 0 0 1
-24.625761 -25.458956 18.691463 40.049437 0.802032 1.085229 0.076778 -0.008257 470319.000000 0 0 1
-26.142691 -25.603956 19.062663 41.260005 0.774988 1.090533 0.054127 -0.014695 650183.000000 0 0 1
-26.550571 -26.900656 19.379263 42.475099 0.791948 1.097020 0.043480 -0.014013 -189705.000000 0 0 1
-26.779671 -27.628756 18.182963 42.557245 0.801003 1.129337 0.050036 -0.020215 -613182.000000 0 0 1
-27.785321 -28.777656 18.405163 44.033256 0.802940 1.139572 0.063357 -0.024943 131957.000000 0 0 1
-29.065871 -28.259256 18.691563 44.640620 0.771328 1.138770 0.057784 -0.025356 -692618.000000 0 0 1
-30.083121 -29.106256 18.253163 45.665592 0.768896 1.159592 0.060112 -0.012634 662188.000000 0 0 1
-31.534491 -28.557856 18.503563 46.393503 0.735904 1.160545 0.066806 -0.011008 816171.000000 0 0 1
-31.838741 -27.413656 17.742063 45.606960 0.710855 1.171228 0.075558 0.003868 503936.000000 0 0 1
-33.224951 -27.103256 17.983363 46.496078 0.684271 1.173668 0.070737 0.014057 680539.000000 0 0 1
-33.762351 -25.850956 17.306963 45.909686 0.653457 1.184264 0.067256 0.004465 -207865.000000 0 0 1
-33.987891 -26.054656 15.870863 45.671722 0.654032 1.215894 0.082636 -0.012586 106213.000000 0 0 1
-34.408839 -24.844456 15.199963 45.080529 0.625363 1.226883 0.072345 -0.012962 -119113.000000 0 0 1
-33.386681 -23.704356 14.999063 43.606638 0.617402 1.219662 0.061179 -0.004198 -84595.300000 0 0 1
-32.982981 -23.087756 16.238663 43.412161 0.610719 1.187416 0.055424 -0.003797 23367.300000 0 0 1
-32.585891 -21.727856 16.043763 42.324253 0.588086 1.182008 0.050554 0.000286 -343895.000000 0 0 1
-33.683851 -20.694256 16.239163 42.738326 0.550917 1.181035 0.054000 -0.007347 -206110.000000 0 0 1
-33.730761 -20.279356 17.615263 43.119764 0.541311 1.149965 0.063389 -0.000403 367003.000000 0 0 1
-34.988412 -19.681356 17.854063 43.935320 0.512398 1.152317 0.081478 -0.005334 -168484.000000 0 0 1
-35.339282 -19.427956 19.342463 44.726293 0.502655 1.123574 0.062197 -0.011787 -594881.000000 0 0 1
-36.599741 -19.894656 19.724463 46.091137 0.497896 1.128579 0.067292 -0.007178 -322902.000000 0 0 1
-36.809211 -19.602056 21.087463 46.731571 0.489333 1.102635 0.087171 -0.000256 238361.000000 0 0 1
35.440578 -19.935656 21.567463 46.028474 -0.512397 1.083127 0.084647 -0.000899 275406.000000 0 0 1
35.093668 -21.320956 21.801463 46.491424 -0.545948 1.082712 0.074293 -0.010140 -111884.000000 0 0 1
35.833148 -21.971856 22.796863 47.817089 -0.550048 1.073841 0.060422 0.002423 -436338.000000 0 0 1
35.201798 -23.321956 23.207863 48.183868 -0.585128 1.068257 0.075795 0.004614 417383.000000 0 0 1
34.044408 -23.085356 24.013563 47.629892 -0.595873 1.042376 0.080272 -0.010520 298980.000000 0 0 1
33.825918 -24.211056 24.810763 48.434925 -0.621221 1.032994 0.081080 -0.022286 247536.000000 0 0 1
32.639618 -24.010056 25.810563 48.041780 -0.634228 1.003620 0.091628 -0.023819 833574.000000 0 0 1
31.318348 -24.339756 25.403363 47.101948 -0.660666 1.001158 0.073569 -0.010062 158749.000000 0 0 1
30.478388 -24.145056 26.514063 47.062846 -0.669968 0.972330 0.040896 -0.007294 -332978.000000 0 0 1
29.052368 -24.685156 26.321563 46.327333 -0.704307 0.966522 0.036127 -0.009306 408538.000000 0 0 1
28.242058 -23.793956 25.496563 44.875839 -0.700124 0.966531 0.037407 -0.005129 -137293.000000 0 0 1
26.933958 -24.263856 25.337563 44.228554 -0.733293 0.960784 0.034650 -0.004905 96829.300000 0 0 1
26.004758 -23.216356 24.605563 42.669432 -0.728808 0.956167 0.020765 0.004250 -41051.800000 0 0 1
26.224558 -22.929356 23.180363 41.842706 -0.718460 0.983649 0.033373 0.003645 391760.000000 0 0 1
27.398258 -22.161456 22.886463 42.018864 -0.680122 0.994799 0.030570 0.010266 263933.000000 0 0 1
27.312058 -21.312256 21.589863 40.820130 -0.662628 1.013490 0.035357 0.000806 187465.000000 0 0 1
26.335258 -20.283456 21.579663 39.631380 -0.656305 0.994992 0.030952 -0.003020 110082.000000 0 0 1
26.182158 -19.697156 20.303063 38.544750 -0.644979 1.016035 0.025896 -0.005082 532186.000000 0 0 1
25.309358 -18.337256 20.259563 37.246053 -0.626997 0.995673 0.046098 -0.002565 517706.000000 0 0 1
25.840658 -17.188456 20.897463 37.415059 -0.586966 0.978183 0.057354 -0.019950 55564.900000 0 0 1
25.685758 -17.336556 22.273963 38.163383 -0.593714 0.947583 0.056564 -0.006793 -113807.000000 0 0 1
26.002358 -16.010356 22.949863 38.198827 -0.551903 0.926295 0.073474 -0.005887 477423.000000 0 0 1
24.765158 -15.290056 22.919263 37.045803 -0.553117 0.903743 0.039532 -0.010420 517787.000000 0 0 1
24.857258 -14.075056 23.633363 37.074605 -0.515222 0.879607 0.048057 -0.010388 919054.000000 0 0 1
23.533658 -13.206656 23.634063 35.872243 -0.511387 0.851521 0.031462 -0.012072 1143240.000000 0 0 1
22.436358 -13.851156 24.278663 35.842687 -0.553082 0.826618 0.051984 -0.012201 -152242.000000 0 0 1
21.316758 -13.005456 24.313763 34.852621 -0.547816 0.798731 0.056766 -0.018709 150401.000000 0 0 1
20.046458 -13.775056 24.798763 34.736023 -0.602054 0.775715 0.062275 -0.015472 -8194.320000 0 0 1
19.566058 -14.729856 23.879963 34.206022 -0.645308 0.798026 0.060286 -0.017511 205984.000000 0 0 1
18.382458 -15.361256 24.350463 34.158865 -0.696103 0.777229 0.069587 -0.014419 -37443.000000 0 0 1
17.892258 -16.301156 23.271063 33.576822 -0.738899 0.805058 0.078212 -0.013666 -161402.000000 0 0 1
18.547158 -17.572756 23.161963 34.485872 -0.758428 0.834381 0.063017 -0.003402 85490.000000 0 0 1
18.053758 -18.384356 22.120663 33.959483 -0.794471 0.861389 0.080857 -0.001782 -69686.300000 0 0 1
18.537258 -19.855956 22.375463 35.193043 -0.819732 0.881762 0.059753 0.004381 252339.000000 0 0 1
17.843358 -20.425556 23.508163 35.891817 -0.852771 0.856650 0.070800 0.000645 447809.000000 0 0 1
18.267458 -21.737956 23.870963 37.095305 -0.871932 0.871730 0.081917 -0.003362 -304458.000000 0 0 1
17.843358 -23.001856 23.023063 37.115122 -0.911027 0.901652 0.081627 -0.002947 180163.000000 0 0 1
18.533958 -23.309956 21.802463 36.908117 -0.899045 0.938842 0.077572 0.002652 571847.000000 0 0 1
19.808158 -23.948156 21.954163 38.050790 -0.879732 0.955782 0.067207 0.003488 76851.800000 0 0 1
20.607958 -24.103556 20.676863 37.857655 -0.863421 0.993006 0.058135 0.002123 -584786.000000 0 0 1
19.977558 -24.692856 19.579463 37.312134 -0.890566 1.018377 0.064687 -0.010899 202706.000000 0 0 1
20.907558 -25.078556 18.559463 37.556806 -0.875852 1.053916 0.058720 0.003452 343339.000000 0 0 1
20.179058 -25.856556 17.482963 37.167323 -0.908107 1.081069 0.064669 -0.007611 304849.000000 0 0 1
19.657058 -27.130556 17.937063 38.002701 -0.943793 1.079245 0.079107 -0.019838 229328.000000 0 0 1
18.807958 -27.789056 17.030363 37.629832 -0.975803 1.101144 0.087986 -0.022381 -201783.000000 0 0 1
18.030458 -28.970556 17.584063 38.387366 -1.014089 1.094975 0.072957 -0.012542 153213.000000 0 0 1
17.073958 -28.587756 18.571163 38.126998 -1.032403 1.062045 0.104476 -0.021630 17573.200000 0 0 1
16.188258 -29.647856 18.850663 38.683363 -1.071016 1.061793 0.114084 -0.025216 -181924.000000 0 0 1
14.958558 -29.304456 19.687563 38.342011 -1.098821 1.031570 0.103615 -0.023242 -72108.600000 0 0 1
13.974958 -28.599556 18.956763 37.048522 -1.116276 1.033664 0.098290 -0.026969 -48932.600000 0 0 1
12.776658 -28.348956 19.659363 36.788543 -1.147367 1.007013 0.068975 -0.023923 361373.000000 0 0 1
11.609958 -27.868056 18.763763 35.545724 -1.176058 1.014698 0.075501 -0.031514 51515.100000 0 0 1
11.146458 -28.777056 17.808363 35.630048 -1.201253 1.047413 0.083333 -0.038533 75254.500000 0 0 1
10.598758 -28.124556 16.662063 34.364934 -1.210404 1.064597 0.079698 -0.033666 1644.820000 0 0 1
10.451858 -29.119556 15.511763 34.609315 -1.226189 1.106050 0.081003 -0.032157 -156469.000000 0 0 1
9.364258 -30.007256 15.631063 35.106337 -1.268306 1.109344 0.067186 -0.027362 -72659.700000 0 0 1
9.293658 -31.001456 14.620463 35.513664 -1.279540 1.146493 0.064840 -0.021690 -42985.100000 0 0 1
8.032158 -31.887056 14.717363 36.026389 -1.324036 1.149968 0.053176 -0.017847 -215953.000000 0 0 1
8.131358 -33.029656 15.538663 37.396888 -1.329413 1.142296 0.064435 -0.027877 -110676.000000 0 0 1
7.147458 -33.968156 15.170763 37.882369 -1.363405 1.158766 0.041147 -0.019252 -122404.000000 0 0 1
7.177658 32.940678 16.121763 37.370019 1.356253 1.124742 0.077509 -0.031137 782500.000000 0 0 1
8.446958 32.259578 16.182963 37.066424 1.314702 1.118987 0.073304 -0.037781 741604.000000 0 0 1
8.394958 31.283878 17.211363 36.679523 1.308625 1.082371 0.093822 -0.041489 -364739.000000 0 0 1
9.689558 30.482678 17.285763 36.357651 1.263026 1.075336 0.070755 -0.044677 -452811.000000 0 0 1
9.843958 29.480578 16.309863 35.100137 1.248524 1.087538 0.074879 -0.036179 -203370.000000 0 0 1
11.126558 28.912378 16.473663 35.087141 1.203429 1.082064 0.084274 -0.041370 1379.300000 0 0 1
11.660058 28.241278 15.169963 34.112381 1.179242 1.109951 0.079557 -0.032222 -173028.000000 0 0 1
10.808558 27.318878 14.521463 32.772228 1.194051 1.111740 0.094402 -0.035988 -403051.000000 0 0 1
11.424258 26.768378 13.442463 32.058689 1.167417 1.138113 0.079599 -0.031963 -369342.000000 0 0 1
-9.453161 -9.192522 19.200198 23.291894 0.771421 0.601779 0.065968 -0.017510 68414.900000 0 1 0
-9.450661 -9.275822 17.793398 22.180191 0.776062 0.639792 0.053010 -0.023464 -64568.600000 0 1 0
-9.401961 -10.585822 17.362898 22.403721 0.844558 0.684080 0.069130 -0.033422 -116622.000000 0 1 0
-9.880361 -10.718722 15.919598 21.585786 0.826075 0.741430 0.075275 -0.031269 996563.000000 0 1 0
-11.301961 -10.380122 15.864098 22.071495 0.742908 0.768780 0.085853 -0.034040 1350070.000000 0 1 0
-11.820961 -10.728022 14.578198 21.618266 0.736967 0.830717 0.104646 -0.032348 200124.000000 0 1 0
-12.078661 -12.245722 14.378398 22.418521 0.792266 0.874524 0.094655 -0.033982 185357.000000 0 1 0
-10.877361 -12.939922 13.947798 21.915740 0.871782 0.880937 0.115093 -0.033221 905313.000000 0 1 0
-10.889361 -14.380022 14.155598 22.929112 0.922667 0.905409 0.129497 -0.034245 264891.000000 0 1 0
-10.466461 -14.821622 15.623298 23.943992 0.955947 0.859926 0.132447 -0.037912 706752.000000 0 1 0
-11.496561 -14.435422 16.542898 24.783458 0.898246 0.839953 0.112022 -0.029820 351252.000000 0 1 0
-11.055261 -14.673522 17.891298 25.644290 0.925113 0.798654 0.141245 -0.032527 226167.000000 0 0 1
-12.181061 -14.500722 18.972998 26.807160 0.872118 0.784476 0.087353 -0.028928 348211.000000 0 0 1
-12.868361 -13.283122 19.102398 26.588299 0.801257 0.769223 0.089995 -0.021571 -39036.500000 0 0 1
-13.818561 -13.041422 18.086898 26.232941 0.756473 0.810035 0.109962 -0.025351 -434027.000000 0 0 1
-15.292161 -13.295222 18.450398 27.404932 0.715658 0.832200 0.066398 -0.017513 -181857.000000 0 0 1
-15.533761 -14.687622 18.654198 28.372576 0.757407 0.853336 0.065179 -0.015343 -141693.000000 0 0 1
-16.307261 -14.908522 19.817298 29.680231 0.740619 0.839690 0.061210 -0.011585 19963.800000 0 0 1
-16.836061 -16.345522 20.087498 30.889102 0.770616 0.862804 0.048272 -0.015403 -304589.000000 0 0 1
-17.987561 -16.618322 19.353998 31.213751 0.745852 0.901993 0.052901 -0.008946 -436391.000000 0 0 1
-18.592861 -17.835122 19.757598 32.467657 0.764600 0.916587 0.061299 -0.009549 56806.200000 0 0 1
-19.826761 -18.318022 18.989298 33.003694 0.745866 0.957741 0.066800 -0.009002 -269466.000000 0 0 1
-19.587361 -18.567222 17.594298 32.217476 0.758668 0.993082 0.075760 -0.013421 203356.000000 0 0 1
-19.910061 -17.363122 16.804098 31.309204 0.717173 1.004258 0.071048 -0.017057 -213988.000000 0 0 1
-19.643561 -17.535922 15.317198 30.463004 0.728771 1.043946 0.084678 -0.019117 61130.100000 0 0 1
-20.448961 -18.430622 14.555498 31.140173 0.733532 1.084428 0.093340 -0.011484 345609.000000 0 0 1
-19.895761 -18.461722 13.232098 30.195445 0.748029 1.117184 0.101874 -0.018351 436385.000000 0 0 1
-20.195261 -19.835422 12.517298 30.951176 0.776409 1.154451 0.102204 -0.012700 469653.000000 0 0 1
-19.266361 -20.841722 12.948798 31.196818 0.824656 1.142779 0.098288 -0.009571 436138.000000 0 0 1
-19.102261 -21.942922 12.084998 31.502943 0.854496 1.177089 0.097307 -0.009415 385290.000000 0 0 1
-18.201961 -23.113522 12.731198 32.056664 0.903722 1.162391 0.095638 -0.010648 724148.000000 0 0 1
-17.835761 -24.215622 11.885598 32.338494 0.935966 1.194437 0.095624 -0.023503 191049.000000 0 0 1
-16.931961 -24.028222 10.807298 31.318436 0.956943 1.218475 0.088660 -0.021461 -203537.000000 0 0 1
-16.899361 -25.131852 9.712898 31.804698 0.978816 1.260446 0.081440 -0.026812 281058.000000 0 0 1
-18.211861 -25.373952 9.202598 32.560669 0.948264 1.284262 0.089875 -0.022208 390964.000000 0 0 1
-18.070161 -26.290122 8.118598 32.918276 0.968620 1.321596 0.104048 -0.026705 900201.000000 0 0 1
-19.373261 -26.379342 7.235898 33.519415 0.937347 1.353212 0.093643 -0.029105 869949.000000 0 0 1
-19.552361 -25.172262 6.480998 32.526004 0.910399 1.370198 0.102309 -0.031243 224804.000000 0 0 1
-20.653461 -25.262932 5.581198 33.104848 0.885451 1.401396 0.109953 -0.030064 257544.000000 0 0 1
-20.791161 -24.028422 4.657698 32.114352 0.857502 1.425248 0.120463 -0.029536 -182229.000000 0 0 1
-21.710161 -24.109622 3.603298 32.643357 0.837718 1.460187 0.106083 -0.035241 -134931.000000 0 0 1
-21.856661 -22.786322 3.070498 31.723147 0.806219 1.473854 0.107824 -0.030251 29513.900000 0 0 1
-22.654061 -22.723522 1.765698 32.135380 0.786929 1.515823 0.079162 -0.020491 -189628.000000 0 0 1
-22.021561 -23.505322 0.749298 32.218175 0.817978 1.547537 0.076558 -0.033029 -20936.200000 0 0 1
-22.428061 -23.351922 -0.553802 32.382663 0.805576 1.587899 0.068738 -0.033231 -458914.000000 0 0 1
-21.610961 -24.230222 -1.550202 32.504468 0.842474 1.618506 0.070660 -0.034607 504602.000000 0 0 1
-20.205761 -23.947522 -1.518702 31.369779 0.869941 1.619228 0.077768 -0.033114 558388.000000 0 0 1
-19.464761 -24.380722 -2.652202 31.310233 0.897052 1.655605 0.070763 -0.020715 268132.000000 0 0 1
-19.196161 -25.926352 -2.800002 32.380679 0.933460 1.657376 0.077816 -0.029639 -307215.000000 0 0 1
-20.329761 -26.728462 -3.089202 33.723183 0.920543 1.662530 0.119023 -0.043767 -96696.400000 0 0 1
-19.902861 -27.902452 -3.731602 34.476014 0.951199 1.679246 0.115705 -0.033487 406701.000000 0 0 1
-21.078161 -28.710412 -4.378602 35.885217 0.937507 1.693118 0.121941 -0.030300 310543.000000 0 0 1
-21.601961 -28.151912 -5.545402 35.915545 0.916293 1.725818 0.106164 -0.025324 27010.400000 0 0 1
-22.496161 -29.052522 -6.186302 37.261195 0.911907 1.737594 0.099877 -0.040455 -394454.000000 0 0 1
-23.157761 -28.401942 -7.387402 37.383498 0.886760 1.769717 0.092049 -0.011334 27168.800000 0 0 1
-22.292961 -28.109872 -8.511402 36.872551 0.900298 1.803730 0.108420 -0.013564 407875.000000 0 0 1
-22.982061 -28.179062 -9.732902 37.642583 0.886632 1.832329 0.108852 -0.004549 370337.000000 0 0 1
-23.910861 -26.929482 -10.009802 37.378101 0.844703 1.841904 0.084887 0.002711 298636.000000 0 0 1
-23.264561 -25.688012 -10.323202 36.161890 0.834864 1.860295 0.076992 0.000515 240580.000000 0 0 1
-22.805661 -24.918822 -9.219302 35.014874 0.829648 1.837234 0.074441 -0.005186 149840.000000 0 0 1
-22.328761 -23.501722 -9.588902 33.806088 0.810986 1.858389 0.070684 -0.014376 318200.000000 0 0 1
-23.400961 -22.688722 -10.029002 34.102258 0.769946 1.869296 0.065698 -0.019633 460193.000000 0 0 1
-22.887461 -21.377522 -10.305502 32.970255 0.751300 1.888693 0.086258 -0.015303 996234.000000 0 0 1
-24.019661 -20.271022 -10.515902 33.142762 0.700962 1.893668 0.091812 -0.016974 877409.000000 0 0 1
-24.856361 -20.655522 -11.647202 34.353262 0.693357 1.916695 0.069778 -0.008535 1043500.000000 0 0 1
-26.143081 -20.038822 -11.697302 34.954856 0.653981 1.912020 0.059618 -0.013678 445609.000000 0 0 1
-26.250161 -18.448222 -11.828502 34.195341 0.612593 1.924005 0.068166 -0.024796 -1659790.000000 0 0 1
-25.851321 -17.869422 -13.043002 34.025387 0.604821 1.964197 0.073134 -0.017297 376483.000000 0 0 1
-25.445341 -16.527222 -12.923202 32.979139 0.576037 1.973449 0.097220 -0.036053 -305802.000000 0 0 1
-24.136761 -16.302022 -12.154402 31.560555 0.594026 1.966127 0.085787 -0.031334 -1321470.000000 0 0 1
-24.243461 -16.517422 -10.761102 31.246951 0.598075 1.922384 0.118524 -0.035134 14741.700000 0 0 1
-23.044661 -16.777322 -10.058002 30.227444 0.629295 1.910008 0.104565 -0.031278 -173581.000000 0 0 1
-23.349561 -16.960822 -8.561902 30.102785 0.628217 1.859200 0.083516 -0.037932 139450.000000 0 0 1
-24.228461 -18.056822 -8.379202 31.357267 0.640469 1.841300 0.094213 -0.028941 68235.600000 0 0 1
-24.845861 -18.036622 -7.117702 31.516634 0.627925 1.798601 0.103288 -0.021378 -58354.500000 0 0 1
-25.488991 -19.445522 -6.890302 32.791665 0.651705 1.782498 0.096805 -0.014872 -688819.000000 0 0 1
-26.605131 -19.531722 -7.708502 33.893099 0.633269 1.800240 0.070061 -0.020684 -757675.000000 0 0 1
-27.252671 -20.770922 -7.604702 35.099441 0.651239 1.789190 0.061021 -0.007688 -334823.000000 0 0 1
-26.719271 -22.023922 -8.372702 35.624075 0.689366 1.808045 0.044310 -0.008025 28008.000000 0 0 1
-27.560811 -23.155222 -8.267202 36.933850 0.698748 1.796547 0.042638 -0.000407 -61262.000000 0 0 1
-27.044741 -24.125822 -9.135602 37.375561 0.728417 1.817725 0.035453 0.003041 288364.000000 0 0 1
-27.444211 -25.545472 -8.723102 38.494784 0.749581 1.799387 0.025921 0.002401 162480.000000 0 0 1
-26.891001 -26.014892 -7.480702 38.155753 0.768840 1.768132 0.049485 -0.017851 97116.900000 0 0 1
-27.381701 -27.289622 -7.156502 39.315348 0.783714 1.753845 0.056139 -0.025630 -154638.000000 0 0 1
-26.858071 -27.784382 -5.803702 39.076986 0.802349 1.719868 0.072057 -0.036040 -329518.000000 0 0 1
-27.322841 -27.143302 -4.657602 38.794197 0.782102 1.691146 0.058526 -0.029721 -176580.000000 0 0 1
-26.912531 -27.586782 -3.400102 38.689476 0.797769 1.658792 0.066488 -0.038994 -387671.000000 0 0 1
-27.337021 -28.956702 -2.847902 39.923851 0.814162 1.642190 0.063911 -0.033553 -303857.000000 0 0 1
-26.807531 -30.068932 -3.534402 40.438551 0.842677 1.658310 0.086589 -0.035121 -72746.600000 0 0 1
-27.101961 -31.288112 -2.858102 41.492542 0.856969 1.639733 0.081475 -0.038664 7175.100000 0 0 1
-26.384941 -31.595802 -1.458902 41.189662 0.875030 1.606223 0.072866 -0.042260 70867.500000 0 0 1
-24.999961 -31.622682 -1.733502 40.348446 0.901832 1.613773 0.089930 -0.050861 -188041.000000 0 0 1
-24.138861 -31.981522 -0.673802 40.074386 0.924246 1.587611 0.129424 -0.037876 24211.000000 0 0 1
-22.938561 -31.076412 -0.425202 38.627733 0.934933 1.581804 0.121661 -0.041791 -270395.000000 0 0 1
-23.249961 -29.761312 -0.092202 37.766452 0.907616 1.573238 0.092498 -0.041477 -348408.000000 0 0 1
-23.257461 -28.915812 -1.206202 37.128003 0.893429 1.603290 0.101248 -0.044384 -98957.200000 0 0 1
-23.806161 -27.531572 -0.854802 36.406750 0.857838 1.594278 0.072304 -0.038250 358883.000000 0 0 1
-25.171801 -27.567972 -0.443102 37.333751 0.830801 1.582665 0.077824 -0.040925 81109.300000 0 0 1
-25.670501 -26.306832 -0.110502 36.756445 0.797640 1.573803 0.088163 -0.040217 -203693.000000 0 0 1
-25.139071 -25.482162 1.104998 35.812491 0.792176 1.539936 0.094348 -0.032158 -292796.000000 0 0 1
-25.474581 -26.037912 2.371798 36.504145 0.796334 1.505777 0.076939 -0.027942 243688.000000 0 0 1
-24.869561 -25.323542 3.462098 35.661786 0.794443 1.473562 0.095024 -0.026524 576554.000000 0 0 1
-25.870781 -24.213822 3.974598 35.656752 0.752327 1.459096 0.106122 -0.023719 509223.000000 0 0 1
-26.001711 -23.176522 3.074898 34.967058 0.728013 1.482746 0.095689 -0.023446 644754.000000 0 0 1
-27.045081 -22.238222 3.403298 35.178934 0.688170 1.473902 0.080687 -0.017772 180731.000000 0 0 1
-27.048551 -21.084422 2.362498 34.376713 0.662117 1.502018 0.067371 -0.011617 266946.000000 0 0 1
-25.892151 -20.298222 2.595598 33.002401 0.664879 1.492066 0.068953 -0.008174 170891.000000 0 0 1
-25.717551 -19.334522 1.568398 32.212980 0.644654 1.522089 0.055148 -0.013625 -544734.000000 0 0 1
-24.410761 -18.545322 1.592398 30.697719 0.649692 1.518900 0.078878 -0.014698 -787417.000000 0 0 1
-23.338361 -19.405622 1.229898 30.377128 0.693650 1.530298 0.078323 -0.016871 -308677.000000 0 0 1
-22.203961 -18.675522 1.662898 29.061250 0.699298 1.513545 0.087194 -0.013354 -125192.000000 0 0 1
-20.842661 -19.387822 1.465998 28.503567 0.749251 1.519342 0.085641 -0.026552 -68199.400000 0 0 1
-20.488361 -19.673622 0.137598 28.404987 0.765115 1.565952 0.058927 -0.016120 -142873.000000 0 0 1
-19.501561 -20.685422 0.170498 28.429327 0.814848 1.564799 0.084625 -0.014678 -148722.000000 0 0 1
-19.068261 -21.015222 -1.247402 28.404122 0.833933 1.614727 0.088529 -0.022479 -226145.000000 0 0 1
-18.349961 -20.013022 -1.896702 27.218369 0.828722 1.640537 0.085557 -0.024913 -122130.000000 0 0 1
-18.157361 -20.319722 -3.258202 27.444430 0.841538 1.689797 0.081900 -0.022475 270033.000000 0 0 1
-17.409361 -19.275722 -4.146902 26.302778 0.836230 1.729117 0.089942 -0.013431 -129941.000000 0 0 1
-16.013461 -19.255522 -4.129202 25.382206 0.877064 1.734204 0.119690 -0.026166 -428448.000000 0 0 1
-15.514061 -18.467322 -5.172302 24.667403 0.872089 1.782046 0.127473 -0.021670 215046.000000 0 1 0
-14.015561 -18.081822 -5.006802 23.419144 0.911412 1.786250 0.148964 -0.044019 563101.000000 0 1 0
-13.097361 -19.164922 -5.185902 23.785052 0.971296 1.790594 0.116905 -0.042906 1016600.000000 0 1 0
-11.814761 -18.750522 -5.703402 22.884481 1.008536 1.822677 0.103511 -0.050771 357032.000000 0 1 0
-10.795261 -19.858722 -5.702802 23.311552 1.072878 1.817939 0.100130 -0.053626 -455317.000000 0 1 0
-11.068461 -20.939622 -6.587502 24.584015 1.084540 1.842070 0.093219 -0.045663 -57114.800000 0 1 0
-9.907561 -21.709422 -6.836902 24.823416 1.142657 1.849824 0.096854 -0.031471 277861.000000 0 1 0
-10.199761 -23.030122 -7.607002 26.311369 1.153873 1.864098 0.102611 -0.016690 -71668.000000 0 0 1
-10.813861 -22.795622 -8.860702 26.741204 1.127851 1.908531 0.089416 -0.019666 37507.400000 0 0 1
-10.916661 -23.957822 -9.767802 28.081323 1.143244 1.926062 0.098648 -0.016129 703519.000000 0 0 1
-11.778361 -23.741922 -11.093302 28.730994 1.110274 1.967206 0.103669 -0.022693 783106.000000 0 0 1
-11.028061 -22.927822 -11.937102 28.103337 1.122472 2.009490 0.093337 -0.011620 563575.000000 0 0 1
-11.956461 -22.497022 -12.924902 28.567920 1.082292 2.040281 0.103403 -0.022155 259248.000000 0 0 1
-11.436961 -21.397222 -13.895102 27.959239 1.079926 2.090908 0.084013 -0.008561 62611.300000 0 0 1
-10.890361 -20.255422 -13.206602 26.519736 1.077483 2.092077 0.080563 -0.011292 711.737000 0 0 1
-10.701861 -19.065522 -14.020402 25.972979 1.059304 2.141004 0.076142 -0.000904 -44940.200000 0 0 1
-10.352161 -17.802322 -13.160602 24.439545 1.044086 2.139448 0.082009 0.000272 -378643.000000 0 1 0
-11.407161 -17.333522 -12.341402 24.143001 0.988749 2.107353 0.084557 -0.012645 -145888.000000 0 1 0
-11.239861 -16.177922 -11.508302 22.814483 0.963592 2.099518 0.094291 -0.022309 -177319.000000 0 1 0
-11.016961 -14.834422 -12.162502 22.121482 0.932008 2.152927 0.097167 -0.012283 149213.000000 0 1 0
-12.131361 -14.302422 -12.856102 22.737822 0.867346 2.171722 0.087984 0.008670 -103016.000000 0 1 0
-11.809461 -13.983122 -14.202102 23.166587 0.869474 2.230702 0.091459 -0.008392 278838.000000 0 1 0
-12.996661 -13.317622 -14.985402 23.892144 0.797595 2.248763 0.082943 -0.001102 372877.000000 0 1 0
-13.070661 -11.925222 -14.486002 22.866949 0.739605 2.256853 0.071136 0.007335 -43343.600000 0 1 0
-14.112561 -11.197122 -15.090902 23.500537 0.670713 2.268098 0.075375 -0.013241 -65308.100000 0 1 0
-14.267361 -9.729522 -14.496302 22.546928 0.598504 2.269126 0.063193 -0.016847 183303.000000 0 1 0
-13.124961 -8.917022 -14.692502 21.625159 0.596762 2.317764 0.053028 -0.009150 263329.000000 0 1 0
-13.185461 -8.301722 -15.937602 22.288610 0.561909 2.367500 0.060817 -0.007930 -299600.000000 0 1 0
-12.130661 -7.205622 -16.054702 21.373521 0.535997 2.420597 0.050969 0.002583 -711192.000000 0 1 0
-10.830061 -7.692222 -16.092102 20.866630 0.617583 2.451502 0.045773 -0.004292 -722160.000000 0 1 0
-9.881461 -6.673222 -15.983902 19.941421 0.593975 2.500667 0.031209 0.005030 -84883.700000 0 1 0
11.338539 22.050978 15.882798 29.446076 1.095856 1.001089 0.100128 -0.015301 33378.400000 0 0 1
12.232039 22.136578 16.989398 30.467860 1.065981 0.979284 0.108228 -0.027157 65998.300000 0 0 1
12.604439 20.857778 17.488098 29.995872 1.027218 0.948359 0.091510 -0.020368 440455.000000 0 0 1
13.813039 20.975578 18.494498 31.190085 0.988448 0.936065 0.092253 -0.028785 630648.000000 0 0 1
15.049639 21.183478 17.825998 31.511864 0.953096 0.969525 0.079391 -0.022106 1285190.000000 0 0 1
16.157839 20.733478 18.708698 32.264040 0.908798 0.952237 0.080983 -0.027386 924345.000000 0 0 1
17.558639 21.042078 18.209998 32.904086 0.875397 0.984324 0.061894 -0.013343 -1003790.000000 0 0 1
17.753739 22.469078 18.208998 33.935561 0.902096 1.004422 0.068423 -0.022646 724802.000000 0 0 1
18.961839 22.968578 17.581298 34.586254 0.880666 1.037550 0.067863 -0.018082 801915.000000 0 0 1
20.273339 22.749678 18.344198 35.567762 0.842893 1.028909 0.060087 -0.019575 -754654.000000 0 0 1
20.722539 21.466278 18.059798 34.876654 0.803025 1.026497 0.064012 -0.015594 426180.000000 0 0 1
22.072539 21.340478 18.523798 35.857274 0.768537 1.027923 0.076539 -0.015560 533555.000000 0 0 1
22.504439 19.885678 18.402098 35.221118 0.723699 1.021047 0.066709 -0.012349 -227725.000000 0 0 1
22.328839 19.388478 17.040498 34.130173 0.715032 1.048029 0.046149 -0.009717 109094.000000 0 0 1
22.014439 18.010178 16.929698 33.100101 0.685685 1.033902 0.050514 -0.002557 -168883.000000 0 0 1
23.106139 17.000978 17.357698 33.529339 0.634336 1.026651 0.042747 -0.010182 30680.700000 0 0 1
24.167939 16.940878 16.426198 33.777250 0.611373 1.062935 0.055717 -0.017489 243732.000000 0 0 1
24.958239 15.764978 16.599798 33.867411 0.563370 1.058545 0.045342 -0.008482 510664.000000 0 0 1
26.294339 15.734378 15.744698 34.450812 0.539238 1.096155 0.151033 -0.038943 -114694.000000 0 0 1
27.200339 16.722078 16.146898 35.780003 0.551212 1.102594 0.130611 -0.040123 144807.000000 0 0 1
28.187339 16.444978 17.146098 36.863967 0.528137 1.087028 0.130537 -0.050690 -359197.000000 0 0 1
29.301239 15.593678 16.535598 37.083034 0.489063 1.108609 0.120398 -0.060653 -1791140.000000 0 0 1
30.052539 16.400078 15.674898 37.653952 0.499546 1.141437 0.165668 -0.054628 -245674.000000 0 0 1
30.887139 15.657378 14.826298 37.669456 0.469170 1.166263 0.169397 -0.050580 -347655.000000 0 0 1
30.131439 15.146278 13.611198 36.367266 0.465784 1.187186 0.141402 -0.043786 -375960.000000 0 0 1
29.939739 16.021778 12.513098 36.189266 0.491358 1.217739 0.153234 -0.032727 -135517.000000 0 0 1
28.987639 15.575478 11.586498 34.887328 0.493052 1.232255 0.131942 -0.026068 1037590.000000 0 0 1
27.560339 16.259378 11.707098 34.073388 0.533001 1.220065 0.120974 -0.030321 636757.000000 0 0 1
27.562839 17.713178 11.409198 34.693466 0.571189 1.235703 0.103416 -0.018908 154979.000000 0 0 1
28.376939 18.545278 12.215198 36.033166 0.578855 1.224944 0.106920 -0.025677 -175495.000000 0 0 1
27.847339 18.739378 13.669598 36.242192 0.592328 1.184054 0.109634 -0.024793 318508.000000 0 0 1
26.555839 19.340878 13.738998 35.609580 0.629474 1.174697 0.099987 -0.011528 206286.000000 0 0 1
26.089339 19.286978 15.065898 35.771810 0.636596 1.136065 0.093252 -0.018502 -78688.900000 0 0 1
26.766839 20.249878 16.133398 37.239868 0.647666 1.122724 0.091718 -0.030956 -6443.600000 0 0 1
26.614039 21.670378 15.985298 37.860825 0.683367 1.134912 0.072232 -0.022125 902363.000000 0 0 1
25.293439 22.153978 16.303298 37.367825 0.719327 1.119322 0.070127 -0.017020 643458.000000 0 0 1
25.060839 23.591478 15.919598 37.921459 0.755206 1.137566 0.073139 -0.014113 -143331.000000 0 0 1
24.865639 23.834378 14.539498 37.386823 0.764226 1.171366 0.090390 -0.024341 67491.900000 0 0 1
24.895639 25.215378 14.211198 38.178086 0.791779 1.189381 0.094063 -0.028514 -328643.000000 0 0 1
24.698839 25.642078 12.761398 37.820657 0.804133 1.226623 0.098757 -0.029537 237281.000000 0 0 1
23.334539 25.938578 12.474398 37.052950 0.838198 1.227424 0.082146 -0.018410 377472.000000 0 0 1
23.120739 25.929478 11.067098 36.460760 0.842598 1.262396 0.071375 -0.030461 -197577.000000 0 0 1
22.639239 24.534478 10.512698 34.999894 0.825552 1.265722 0.078737 -0.027271 141207.000000 0 0 1
21.237739 24.349678 10.779398 34.060884 0.853556 1.248786 0.082871 -0.025390 681365.000000 0 0 1
20.869239 22.995978 10.621998 32.820222 0.833844 1.241220 0.085123 -0.019389 -62331.500000 0 0 1
20.533039 22.669778 9.128198 31.919407 0.834816 1.280771 0.091028 -0.016021 -1336570.000000 0 0 1
19.330739 22.986678 8.543798 31.225972 0.871577 1.293650 0.077284 -0.023306 -838392.000000 0 0 1
19.486639 23.373578 7.194498 31.270018 0.875840 1.338640 0.069963 -0.028097 -558570.000000 0 0 1
18.169039 23.799278 6.567198 30.653673 0.918756 1.354884 0.054790 -0.019184 -1777360.000000 0 0 1
17.528839 22.685978 6.035198 29.297396 0.912942 1.363313 0.076556 -0.011264 -140654.000000 0 0 1
16.787639 22.902178 4.869198 28.810478 0.938255 1.400973 0.097146 -0.023214 -411939.000000 0 0 1
15.534839 23.760378 4.962298 28.818591 0.991745 1.397743 0.051525 -0.016490 -1164660.000000 0 0 1
15.881739 25.138878 5.062598 30.163268 1.007351 1.402158 0.068872 -0.023828 501307.000000 0 0 1
14.789739 25.869278 5.615198 30.323034 1.051438 1.384542 0.054252 -0.022471 189221.000000 0 0 1
14.712639 27.363578 5.232998 31.505736 1.077467 1.403926 0.053060 -0.025365 -386687.000000 0 0 1
14.436739 27.486178 3.829298 31.282150 1.087164 1.448077 0.045879 -0.015361 287467.000000 0 0 1
14.121839 28.763478 3.414298 32.224547 1.114403 1.464644 0.049594 -0.016445 -365057.000000 0 0 1
13.412239 28.792378 2.053498 31.829327 1.134860 1.506236 0.058043 -0.013797 -46203.200000 0 0 1
14.191339 28.360778 0.904098 31.726097 1.106840 1.542295 0.088896 -0.018322 317676.000000 0 0 1
14.153639 27.007678 0.573898 30.497041 1.088087 1.551977 0.061679 -0.010844 -78853.300000 0 0 1
15.186739 26.656878 -0.516902 30.683764 1.052945 1.587643 0.069836 -0.018577 285249.000000 0 0 1
14.799339 27.059878 -1.827802 30.896574 1.070328 1.629990 0.064796 -0.014476 -518072.000000 0 0 1
15.863139 26.729678 -2.665202 31.196445 1.035196 1.656333 0.079507 -0.008459 -171326.000000 0 0 1
15.662339 27.292178 -4.099402 31.732900 1.049807 1.700343 0.097387 -0.017155 -504673.000000 0 0 1
14.766239 26.516378 -4.803702 30.728418 1.062692 1.727768 0.096765 -0.015378 -849528.000000 0 0 1
14.443139 27.077178 -6.076302 31.284170 1.080782 1.766268 0.077522 -0.008997 888112.000000 0 0 1
13.172339 26.395078 -6.717002 30.254401 1.107913 1.794679 0.067094 -0.019635 788578.000000 0 0 1
13.269139 25.088678 -7.279002 29.300097 1.084305 1.821855 0.092999 -0.021051 -186210.000000 0 0 1
12.040639 24.830278 -7.932302 28.713082 1.119287 1.850698 0.087642 -0.016420 202308.000000 0 0 1
11.819439 23.356778 -8.358402 27.479103 1.102329 1.879867 0.094413 -0.022618 -1753.050000 0 0 1
12.604139 22.930278 -9.450902 27.820523 1.068205 1.917405 0.088815 -0.020512 113347.000000 0 0 1
12.438739 21.557578 -9.743902 26.728169 1.047460 1.943952 0.090661 -0.027126 -253870.000000 0 0 1
12.885439 21.222278 -11.185502 27.231141 1.025125 1.994085 0.090840 -0.022392 33589.100000 0 0 1
12.213139 20.081278 -11.716602 26.262088 1.024380 2.033245 0.099489 -0.032942 -227750.000000 0 0 1
12.296039 19.848078 -13.089902 26.767224 1.016156 2.081771 0.101604 -0.031772 -367163.000000 0 0 1
13.586039 19.268878 -13.683602 27.260064 0.956671 2.096666 0.099386 -0.039064 -234679.000000 0 0 1
14.679339 20.098978 -13.381002 28.257797 0.939989 2.064094 0.084317 -0.025220 -729877.000000 0 0 1
15.894339 19.523478 -13.797402 28.708265 0.887508 2.072143 0.072762 -0.020244 958099.000000 0 0 1
17.213939 20.341378 -13.508002 29.875700 0.868482 2.039960 0.072654 -0.007381 739154.000000 0 0 1
17.381639 21.475378 -14.356902 31.135733 0.890365 2.050039 0.066532 -0.003875 242135.000000 0 0 1
16.401539 22.527378 -14.225402 31.286663 0.941478 2.042809 0.062787 -0.007431 298578.000000 0 0 1
16.827339 23.965578 -14.735902 32.781932 0.958631 2.037016 0.053735 -0.006052 -104031.000000 0 0 1
17.041439 24.015378 -16.089002 33.555998 0.953653 2.070844 0.048567 -0.005925 295690.000000 0 0 1
15.898839 24.405278 -16.863002 33.656374 0.993402 2.095590 0.058387 -0.005983 260452.000000 0 0 1
16.200939 24.372678 -18.352202 34.544191 0.984145 2.130892 0.052257 -0.003141 172214.000000 0 0 1
16.384739 23.040178 -18.790602 33.946961 0.952634 2.157391 0.065650 0.001912 -89041.600000 0 0 1
16.505439 22.999278 -20.217302 34.787003 0.948322 2.190967 0.066547 -0.000850 -113200.000000 0 0 1
16.842639 21.646478 -20.821602 34.435209 0.909566 2.220136 0.071321 -0.000061 9271.770000 0 0 1
15.729139 20.783678 -20.934602 33.430893 0.922956 2.247473 0.079632 -0.002247 63984.100000 0 0 1
16.103739 19.550878 -21.479902 33.210742 0.881780 2.274146 0.081377 -0.013045 341136.000000 0 0 1
14.891239 18.575278 -21.616602 32.156919 0.895038 2.308003 0.084626 -0.012140 -610087.000000 0 0 1
14.540239 17.940578 -20.411402 30.820581 0.889706 2.294634 0.088911 -0.019494 696137.000000 0 0 1
13.536439 16.930378 -20.705002 29.976157 0.896339 2.333275 0.077897 -0.024279 254098.000000 0 0 1
12.112739 17.471678 -20.816602 29.754141 0.964596 2.345662 0.058469 -0.021277 -1112670.000000 0 0 1
11.179339 16.934178 -19.886402 28.411494 0.987309 2.346113 0.065279 -0.020080 646910.000000 0 0 1
9.848639 17.261078 -20.293502 28.403639 1.052298 2.366660 0.038537 -0.019044 484183.000000 0 0 1
8.742639 16.962178 -19.282802 27.128871 1.094889 2.361410 0.046595 -0.025005 -482429.000000 0 0 1
8.524339 15.589278 -19.069902 26.064364 1.070407 2.391531 0.061433 -0.030550 330895.000000 0 0 1
7.309939 15.221478 -18.404302 24.976928 1.123083 2.399199 0.050156 -0.028955 420482.000000 0 1 0
7.200739 15.492678 -16.845702 23.992736 1.135717 2.349162 0.063060 -0.032016 6782.420000 0 1 0
7.050439 16.820378 -16.619802 24.674919 1.173882 2.309798 0.073207 -0.028402 -622154.000000 0 1 0
6.347139 17.017778 -15.456902 23.849670 1.213806 2.275879 0.057477 -0.030025 -615134.000000 0 1 0
6.141339 18.511178 -15.062602 24.642681 1.250459 2.228423 0.061954 -0.028906 -267344.000000 0 1 0
7.306939 19.266478 -14.812802 25.377305 1.208299 2.194078 0.060938 -0.024278 -105213.000000 0 0 1
7.867439 19.827578 -15.992402 26.660577 1.193058 2.214113 0.085740 -0.023027 219342.000000 0 0 1
9.026839 20.818278 -15.637602 27.557560 1.161663 2.174205 0.082526 -0.015450 348939.000000 0 0 1
8.645439 22.023478 -14.965702 27.995525 1.196724 2.134801 0.081362 -0.018407 28547.600000 0 0 1
8.652939 21.869878 -13.588002 27.162450 1.194041 2.094683 0.070276 -0.015228 -246487.000000 0 0 1
8.231239 23.123278 -12.799902 27.681704 1.228811 2.051492 0.079236 -0.017443 -709181.000000 0 0 1
6.836339 23.153678 -12.779402 27.315590 1.283694 2.057645 0.070158 -0.011131 -548894.000000 0 0 1
6.314139 24.196278 -11.961602 27.720176 1.315534 2.016965 0.062331 -0.012553 77741.000000 0 0 1
5.982839 23.841578 -10.439902 26.705931 1.324932 1.972428 0.054537 -0.018737 -780052.000000 0 0 1
7.032439 24.007278 -9.568202 26.783485 1.285839 1.936110 0.052160 -0.017408 -689989.000000 0 0 1
6.732739 23.307578 -8.398302 25.673029 1.289586 1.904056 0.045208 -0.022939 -542158.000000 0 0 1
7.773339 23.188278 -7.304102 25.523929 1.247342 1.861020 0.048198 -0.023300 -559430.000000 0 0 1
7.752339 24.365278 -6.533902 26.390479 1.262753 1.820984 0.042087 -0.021868 -6821.380000 0 0 1
8.762439 24.468878 -5.560402 26.578645 1.226919 1.781559 0.049076 -0.021071 -115436.000000 0 0 1
8.895839 25.899578 -4.963302 27.830890 1.239947 1.750093 0.035307 -0.011157 11492.900000 0 0 1
9.503339 26.738978 -5.916402 28.987760 1.229309 1.776341 0.047590 -0.016106 -166243.000000 0 0 1
9.475339 28.115978 -5.595102 30.192639 1.245741 1.757187 0.037053 -0.022808 159927.000000 0 0 1
9.826839 28.990678 -6.831802 31.363987 1.243985 1.790380 0.045049 -0.013818 -436032.000000 0 0 1
11.157339 29.039178 -7.220102 31.935716 1.203970 1.798850 0.057055 -0.018015 -946770.000000 0 0 1
11.403139 30.052678 -8.147102 33.159769 1.208140 1.819030 0.062846 -0.020064 202791.000000 0 0 1
12.823039 30.120278 -8.757002 33.887262 1.168309 1.832178 0.074023 -0.023618 45062.500000 0 0 1
13.840539 30.117478 -7.804002 34.051805 1.140028 1.802032 0.059180 -0.009564 -742907.000000 0 0 1
15.063939 30.486078 -8.416702 35.030902 1.111860 1.813435 0.064239 -0.010311 -550707.000000 0 0 1
16.129439 30.762178 -7.404702 35.514786 1.087877 1.780834 0.064793 -0.014146 -937895.000000 0 0 1
16.958539 29.648878 -7.197102 34.906250 1.051235 1.778470 0.066538 -0.011828 -1360390.000000 0 0 1
18.009539 29.983678 -6.405202 35.558277 1.029903 1.751917 0.072044 -0.011639 -384670.000000 0 0 1
19.046439 28.815578 -6.192602 35.092060 0.986743 1.748193 0.075789 -0.011177 155872.000000 0 0 1
18.604439 27.797678 -5.314302 33.868538 0.980986 1.728357 0.085767 -0.017016 415962.000000 0 0 1
19.605339 26.824478 -4.897702 33.584363 0.939648 1.717151 0.088763 -0.013627 545913.000000 0 0 1
19.774239 25.725578 -5.928502 32.984436 0.915459 1.751515 0.087402 -0.001562 -341906.000000 0 0 1
20.423439 26.163878 -7.080802 33.938225 0.907999 1.780978 0.075366 0.002386 54128.700000 0 0 1
20.388539 25.218078 -8.096702 33.424550 0.890901 1.815468 0.065349 -0.010415 -778603.000000 0 0 1
21.008239 25.659978 -9.490002 34.494068 0.884747 1.849511 0.063533 -0.009974 -439218.000000 0 0 1
22.390039 25.768678 -9.538502 35.444627 0.855440 1.843265 0.051475 -0.010512 -596891.000000 0 0 1
23.107439 24.532578 -9.479702 35.009511 0.815304 1.844994 0.052173 -0.009834 -1587550.000000 0 0 1
24.587039 24.737178 -9.353102 36.109984 0.788442 1.832801 0.026526 -0.007736 -1192230.000000 0 0 1
25.260639 24.863078 -10.594302 36.993401 0.777467 1.861246 0.034762 -0.007809 -346214.000000 0 0 1
26.639739 24.988478 -10.365102 37.967553 0.753425 1.847305 0.028818 -0.003717 -168931.000000 0 0 1
27.465839 25.276878 -11.670902 39.108858 0.743919 1.873834 0.041128 -0.010116 133102.000000 0 0 1
27.363939 26.554578 -12.215002 40.039194 0.770388 1.880815 0.047760 -0.013075 -70375.600000 0 0 1
28.185739 26.581678 -13.364702 40.983371 0.756118 1.902972 0.056207 -0.015296 123113.000000 0 0 1
27.760539 27.671478 -14.379402 41.750753 0.783791 1.922407 0.052128 -0.017270 93889.200000 0 0 1
28.128539 29.004678 -13.991002 42.757855 0.800732 1.904151 0.058562 -0.022612 61085.000000 0 0 1
28.161539 29.821978 -15.127802 43.718109 0.814027 1.924133 0.053070 -0.012529 -297034.000000 0 0 1
28.583239 31.254978 -14.937702 44.911136 0.830018 1.909862 0.053161 -0.015976 15460.200000 0 0 1
29.853339 31.402678 -14.333102 45.637570 0.810686 1.890267 0.060402 -0.022571 34837.700000 0 0 1
30.252139 32.759678 -14.338702 46.840012 0.825172 1.881912 0.052664 -0.029241 -169668.000000 0 0 1
16.097239 -32.284956 -27.967847 45.646905 -1.108270 2.230268 0.116048 -0.041700 -262379.000000 0 0 1
17.297639 -32.778756 -27.440797 46.115643 -1.085228 2.208116 0.095132 -0.027608 -145129.000000 0 0 1
17.695939 -32.177456 -26.219137 45.121814 -1.067993 2.190845 0.087469 -0.031271 -267133.000000 0 0 1
19.003539 -32.811656 -25.662407 45.785351 -1.045834 2.165778 0.026746 -0.016057 736961.000000 0 0 1
20.279939 -32.520756 -26.205537 46.428500 -1.013204 2.170536 0.049748 -0.023541 642593.000000 0 0 1
20.427439 -32.950456 -27.528607 47.548260 -1.015841 2.188251 0.059734 -0.015138 -1145640.000000 0 0 1
21.850539 -32.724356 -28.062367 48.330383 -0.982068 2.190306 0.068810 -0.012569 -167926.000000 0 0 1
22.227839 -31.372956 -28.176107 47.667937 -0.954386 2.203208 0.073432 -0.027130 809254.000000 0 0 1
23.552139 -31.055956 -27.717487 47.827134 -0.921955 2.188954 0.038667 -0.014095 578356.000000 0 0 1
24.126839 -29.766556 -28.387037 47.686225 -0.889664 2.208420 0.025933 -0.007730 127338.000000 0 0 1
24.604539 -29.948356 -29.713227 48.838133 -0.883043 2.224842 0.026657 -0.010292 144197.000000 0 0 1
25.169339 -28.811156 -30.426537 48.881003 -0.852762 2.242680 0.029673 -0.024105 422758.000000 0 0 1
25.523539 -29.143156 -31.907967 50.188574 -0.851514 2.259791 0.038809 -0.015831 -467320.000000 0 0 1
26.710939 -29.862156 -31.963687 51.253292 -0.841042 2.244189 0.044763 -0.029892 -749951.000000 0 0 1
26.804039 -30.397756 -33.259687 52.427920 -0.848141 2.258014 0.031453 -0.028300 -81120.900000 0 0 1
28.039739 -31.260556 -33.626867 53.797913 -0.839659 2.246003 0.013438 -0.027718 -41490.900000 0 0 1
29.203639 -30.478356 -33.581167 53.939572 -0.806753 2.242819 0.022362 -0.029507 -417526.000000 0 0 1
30.351839 -31.301356 -33.875387 55.213683 -0.800798 2.231323 0.024549 -0.021497 -44411.600000 0 0 1
31.545539 -30.361556 -33.932147 55.392560 -0.766275 2.230112 0.045231 -0.030759 -1065420.000000 0 0 1
31.512339 -29.296756 33.190337 54.340831 -0.748979 0.913750 0.053897 -0.028941 273284.000000 0 0 1
32.791139 -28.741156 32.873608 54.607572 -0.719674 0.924796 0.073595 -0.031060 378565.000000 0 0 1
32.682539 -27.398456 32.148135 53.407175 -0.697675 0.924863 0.064002 -0.033796 -63141.900000 0 0 1
33.681039 -27.466756 31.154798 53.473886 -0.684119 0.948851 0.075132 -0.036388 292924.000000 0 0 1
33.546739 -26.346756 30.288798 52.315835 -0.665759 0.953343 0.074902 -0.029486 269661.000000 0 0 1
34.457739 -26.470556 29.003958 52.242279 -0.655050 0.982215 0.085730 -0.022664 378707.000000 0 0 1
34.104939 -27.501156 28.074888 52.035178 -0.678612 1.000910 0.090873 -0.028802 -10857.600000 0 0 1
32.928139 -27.247156 27.359908 50.746768 -0.691270 1.001374 0.080353 -0.027703 -291910.000000 0 0 1
32.289739 -28.390556 26.539558 50.527211 -0.721229 1.017784 0.063663 -0.018351 252936.000000 0 0 1
30.926639 -28.092156 26.286818 49.362162 -0.737408 1.009210 0.037356 -0.003648 152666.000000 0 0 1
30.280139 -29.088756 25.551768 49.152166 -0.765333 1.024121 0.020392 0.004872 -461789.000000 0 0 1
29.000539 -28.585156 24.899848 47.729916 -0.778185 1.021975 0.011172 0.011502 -575947.000000 0 0 1
27.944539 -28.437356 25.795158 47.486531 -0.794139 0.996541 0.016507 0.007359 -237680.000000 0 0 1
26.731139 -28.049556 25.179328 46.209631 -0.809461 0.994534 0.020922 0.010750 354748.000000 0 0 1
25.478039 -28.009956 26.062148 45.966550 -0.832699 0.967960 0.025451 0.010063 -192113.000000 0 0 1
25.439239 -26.932356 26.986578 45.834289 -0.813901 0.941241 0.021688 -0.001041 -39913.400000 0 0 1
24.339139 -26.970656 27.873378 45.790121 -0.836640 0.916350 0.034632 -0.011406 -256251.000000 0 0 1
24.073839 -25.590656 28.534288 45.261871 -0.815930 0.888694 0.039233 0.001259 -599980.000000 0 0 1
22.881839 -25.534556 29.262898 45.076705 -0.840133 0.864290 0.066356 -0.000203 -97489.200000 0 0 1
22.675439 -24.334456 30.066178 44.836552 -0.820674 0.835815 0.070376 -0.001518 -97409.600000 0 0 1
22.234739 -23.061656 29.273228 43.395224 -0.803652 0.830411 0.071914 -0.001705 -239518.000000 0 0 1
23.232639 -22.580356 28.373168 43.065818 -0.771161 0.851530 0.081162 -0.001550 382965.000000 0 0 1
23.007439 -21.255556 27.886988 41.938348 -0.745840 0.843367 0.100209 0.008488 -185459.000000 0 0 1
23.780239 -20.233856 28.708708 42.415783 -0.704998 0.827335 0.101477 0.005581 -733951.000000 0 0 1
23.404939 -20.098456 30.053168 43.068922 -0.709539 0.798485 0.124245 0.005895 108028.000000 0 0 1
24.434439 -19.496956 30.802218 43.885644 -0.673477 0.792770 0.115000 0.001470 -87607.600000 0 0 1
23.919839 -19.008256 32.180788 44.374268 -0.671479 0.759453 0.155538 -0.007031 -6533.370000 0 0 1
23.867339 -20.063156 33.118089 45.486129 -0.699018 0.755262 0.107828 -0.006011 280647.000000 0 0 1
23.301639 -19.519456 -33.756967 45.425855 -0.697302 2.408521 0.112388 -0.015503 -19675.200000 0 0 1
23.089839 -20.678356 -32.790897 45.121813 -0.730357 2.384330 0.082518 -0.011216 331165.000000 0 0 1
24.264739 -21.160656 -32.145277 45.495821 -0.717171 2.355414 0.065893 -0.001013 212421.000000 0 0 1
23.965939 -22.256856 -31.316167 45.281742 -0.748440 2.334477 0.056188 -0.002467 452756.000000 0 0 1
25.044439 -22.530356 -30.206527 45.246824 -0.732602 2.301769 0.043228 -0.005364 349695.000000 0 0 1
26.247239 -23.123256 -30.611377 46.482888 -0.722206 2.289689 0.036490 0.000263 -701208.000000 0 0 1
27.070239 -23.399456 -29.519877 46.387019 -0.712794 2.260595 0.031188 -0.003786 -1080120.000000 0 0 1
28.310439 -24.112356 -29.952837 47.749964 -0.705487 2.248858 0.024478 -0.002952 -802808.000000 0 0 1
29.279139 -23.462556 -30.773807 48.526144 -0.675558 2.257730 0.024479 -0.002125 411688.000000 0 0 1
29.159439 -23.595156 -32.194097 49.431408 -0.680312 2.280077 0.022541 -0.008391 -350403.000000 0 0 1
29.652139 -24.861656 -32.888027 50.783596 -0.697747 2.275242 0.023806 -0.021019 127930.000000 0 0 1
28.784239 -25.986256 -32.637487 50.685535 -0.734357 2.270409 0.049146 -0.021848 449452.000000 0 0 1
29.209039 -27.143656 -33.304897 51.953461 -0.748764 2.266665 0.042151 -0.028775 77970.100000 0 0 1
28.743339 -27.274456 33.240515 51.720473 -0.759182 0.872785 0.042823 -0.022529 224710.000000 0 0 1
29.385639 -26.342656 32.373649 51.044142 -0.730848 0.883786 0.023253 -0.024243 180117.000000 0 0 1
28.790439 -26.475056 31.133678 49.991238 -0.743527 0.898502 0.024162 -0.015366 -155193.000000 0 0 1
29.684239 -25.816756 30.055338 49.507396 -0.715828 0.918406 0.035090 -0.022121 -48100.800000 0 0 1
29.823039 -24.375656 29.964138 48.799957 -0.685227 0.909653 0.027835 -0.022070 141947.000000 0 0 1
30.136039 -23.632256 31.135148 49.356477 -0.665024 0.888184 0.028604 -0.016204 -1543180.000000 0 0 1
30.634639 -22.234856 30.826158 48.817230 -0.627837 0.887361 0.024644 -0.010125 636422.000000 0 0 1
31.949839 -22.006456 30.331898 49.245308 -0.603157 0.907224 0.039887 -0.012140 1341620.000000 0 0 1
33.021939 -22.581956 31.120378 50.684032 -0.599803 0.909668 0.042244 -0.018583 772603.000000 0 0 1
34.491139 -22.017856 30.984838 51.327233 -0.568151 0.922697 0.056453 -0.030636 973475.000000 0 0 1
34.979739 -22.377756 29.704778 51.056047 -0.569125 0.949847 0.068531 -0.037594 -521614.000000 0 0 1
36.323339 -22.041256 29.577328 51.768912 -0.545410 0.962666 0.067244 -0.038295 -735537.000000 0 0 1
-36.773781 -22.357656 28.225398 51.466969 0.546265 0.990325 0.083985 -0.037647 -305761.000000 0 0 1
-36.740281 -23.728356 27.888008 51.871226 0.573445 1.003162 0.085802 -0.034205 165484.000000 0 0 1
-36.432281 -23.825556 26.526958 50.976933 0.579160 1.023510 0.086861 -0.026926 -139993.000000 0 0 1
-36.179681 -25.232556 26.010648 51.207470 0.608995 1.037997 0.078406 -0.033222 -252458.000000 0 0 1
36.352039 -26.036056 25.993808 51.720644 -0.621529 1.044215 0.081250 -0.026724 -118465.000000 0 0 1
36.418239 -27.333956 25.440248 52.159750 -0.643857 1.061301 0.085543 -0.020072 -159579.000000 0 0 1
-36.361881 -28.257056 26.270968 53.017086 0.660625 1.052364 0.086901 -0.027684 -566959.000000 0 0 1
-36.103881 -29.571256 25.750858 53.301558 0.686256 1.066586 0.080432 -0.025514 429376.000000 0 0 1
-34.987081 -30.259256 26.296228 53.209116 0.713063 1.053876 0.085809 -0.032425 334503.000000 0 0 1
-33.570181 -29.679856 26.241908 51.927725 0.723968 1.041004 0.103002 -0.026459 -1156550.000000 0 0 1
-32.996081 -29.677456 25.017148 50.944582 0.732497 1.057483 0.099385 -0.021975 -356487.000000 0 0 1
-31.722381 -29.071856 25.002278 49.765412 0.741827 1.044421 0.080200 -0.021697 163412.000000 0 0 1
-31.005981 -29.095956 23.628018 48.643897 0.753629 1.063593 0.083215 -0.017622 -49819.500000 0 0 1
-30.660781 -30.333256 23.135308 48.943155 0.780028 1.078447 0.094785 -0.012796 269181.000000 0 0 1
-29.936281 -30.290356 21.926298 47.900409 0.791277 1.095336 0.083577 -0.008522 -494728.000000 0 0 1
-29.944781 -31.657656 21.139998 48.433425 0.813196 1.119119 0.097826 -0.007454 351829.000000 0 0 1
-29.115881 -32.740456 21.600198 48.849161 0.843928 1.112767 0.089218 -0.015046 665051.000000 0 0 1
-27.720981 -32.478256 21.410698 47.767226 0.864260 1.106012 0.107619 -0.012124 265028.000000 0 0 1
-26.895581 -33.815056 21.276798 48.161524 0.898883 1.113215 0.098999 -0.002176 -290305.000000 0 0 1
-27.085381 33.545178 20.078598 47.560981 -0.891541 1.134964 0.089596 -0.001483 197441.000000 0 0 1
-28.281781 32.772278 20.080198 47.718924 -0.858815 1.136468 0.099202 -0.001029 372309.000000 0 0 1
-28.546281 31.700478 21.179298 47.627441 -0.837705 1.109972 0.103149 -0.001546 -350451.000000 0 0 1
-27.642981 30.642578 21.033598 46.319696 -0.836817 1.099439 0.084319 -0.005542 -164006.000000 0 0 1
-27.660681 29.727178 22.095098 46.227824 -0.821392 1.072464 0.083237 -0.008914 127256.000000 0 0 1
-26.730281 28.488278 21.878898 44.774726 -0.817224 1.060262 0.074273 -0.007212 153476.000000 0 0 1
-25.372581 28.855278 21.764698 44.159903 -0.849533 1.055421 0.072028 -0.010388 -392616.000000 0 0 1
-24.694881 27.837278 21.098598 42.777354 -0.845146 1.055010 0.059203 -0.012894 -471071.000000 0 0 1
-23.165681 27.976778 21.183498 42.048656 -0.879195 1.042821 0.048679 -0.000021 -388857.000000 0 0 1
-22.714381 27.823378 22.510898 42.388961 -0.886149 1.010950 0.051476 -0.007934 -207101.000000 0 0 1
-21.392481 28.274778 22.579198 42.034765 -0.923089 1.003735 0.068363 -0.019763 -565008.000000 0 0 1
-21.074581 28.494778 24.057208 42.835028 -0.933988 0.974448 0.056511 -0.017031 -522949.000000 0 0 1
-20.524781 27.377578 24.686548 42.192702 -0.927492 0.945805 0.062820 -0.020830 275339.000000 0 0 1
-20.375981 27.626878 26.071918 43.106495 -0.935316 0.921249 0.066120 -0.023766 -1069280.000000 0 0 1
-18.938181 27.793678 26.494948 42.815015 -0.972674 0.903552 0.061927 -0.006394 -1748630.000000 0 0 1
-18.454081 29.049278 26.152318 43.224500 -1.004847 0.920987 0.029200 -0.011287 548606.000000 0 0 1
-17.138281 29.269178 26.677258 43.151843 -1.041077 0.904322 0.030330 -0.005726 438991.000000 0 0 1
-17.039581 29.460678 28.180658 44.186291 -1.046423 0.879198 0.016707 -0.002024 -904794.000000 0 0 1
-16.914481 28.237778 28.986948 43.860175 -1.031111 0.848786 0.024800 -0.010289 345640.000000 0 0 1
-17.065281 28.574978 30.298868 45.008606 -1.032430 0.832296 0.022556 -0.003177 -310496.000000 0 0 1
-17.154381 27.340278 31.265768 44.936754 -1.010444 0.801301 0.029730 -0.006991 423281.000000 0 0 1
-15.852481 26.860878 31.637288 44.426635 -1.037636 0.778277 0.040039 0.000467 736874.000000 0 0 1
-15.796181 25.779378 32.603219 44.464205 -1.021058 0.747712 0.056418 -0.001614 -729926.000000 0 0 1
-16.266481 26.067978 -33.992507 45.821702 -1.012915 2.406611 0.037956 -0.004507 867881.000000 0 0 1
-17.663481 25.750978 -33.821107 46.032365 -0.969573 2.396057 0.036161 -0.011496 481462.000000 0 0 1
-18.159881 26.636678 -32.866607 46.038112 -0.972416 2.365848 0.038377 -0.014528 514398.000000 0 0 1
-19.633181 26.306278 -32.451517 46.158238 -0.929648 2.350473 0.024827 -0.014409 413941.000000 0 0 1
-20.568481 26.506678 -33.457077 47.381878 -0.910878 2.354794 0.031288 -0.010648 -1464510.000000 0 0 1
-21.783881 25.952178 -33.173247 47.418533 -0.872497 2.345611 0.062283 -0.019890 -609854.000000 0 0 1
-22.817881 26.041478 33.690640 48.310180 -0.851280 0.799058 0.059286 -0.037682 178706.000000 0 0 1
-22.693281 25.075278 32.591416 46.967595 -0.835222 0.803887 0.066368 -0.025113 -101258.000000 0 0 1
-22.829181 23.705178 32.924266 46.552274 -0.804221 0.785190 0.073059 -0.027993 -266108.000000 0 0 1
-23.262381 22.813778 31.762458 45.502314 -0.775662 0.798139 0.076896 -0.038668 -503934.000000 0 0 1
-24.643281 22.653378 31.715218 46.112058 -0.743350 0.812362 0.086700 -0.032520 -1055580.000000 0 0 1
-25.148781 22.454978 30.424388 45.412890 -0.728870 0.836654 0.098106 -0.029224 234761.000000 0 0 1
-26.635481 22.045178 30.355448 46.009694 -0.691382 0.850294 0.085818 -0.019183 109009.000000 0 0 1
-26.830181 20.789878 30.941708 45.928933 -0.659228 0.831610 0.091781 -0.026368 -309239.000000 0 0 1
-28.067681 20.315678 30.473748 46.142939 -0.626528 0.849418 0.078235 -0.017592 -195361.000000 0 0 1
-28.510781 18.903478 31.028938 46.184425 -0.585480 0.834095 0.095743 -0.026637 -468283.000000 0 0 1
-29.140081 19.019978 32.282341 47.466340 -0.578277 0.822883 0.090180 -0.018605 110890.000000 0 0 1
-29.522281 17.839578 32.977760 47.721570 -0.543557 0.807862 0.067764 -0.003720 222223.000000 0 0 1
-30.260681 16.666678 32.255805 47.264404 -0.503434 0.819681 0.050976 -0.007874 -1098950.000000 0 0 1
-31.573881 16.924478 31.942188 47.996367 -0.492053 0.842616 0.055728 -0.011405 -1188840.000000 0 0 1
-32.218781 15.760478 31.504268 47.738469 -0.454947 0.850065 0.058985 -0.006544 624001.000000 0 0 1
-33.777881 15.918078 31.491548 48.847191 -0.440390 0.870172 0.060501 -0.005761 537958.000000 0 0 1
-34.325681 16.199178 32.757802 50.137205 -0.440937 0.858778 0.062932 -0.002894 391080.000000 0 0 1
-35.745681 16.250678 32.711126 51.106321 -0.426689 0.876220 0.071979 -0.009069 171791.000000 0 0 1
-36.257781 16.976778 33.982145 52.513083 -0.437906 0.866999 0.071421 0.000747 -634306.000000 0 0 1
36.048439 17.088178 33.942841 52.379502 0.442660 0.865818 0.062785 -0.008013 -882738.000000 0 0 1
35.562239 17.459878 -32.883597 51.486417 0.456395 2.263584 0.049927 -0.018687 -133859.000000 0 0 1
34.061039 17.666178 -32.625147 50.365151 0.478466 2.275453 0.047628 -0.025364 323329.000000 0 0 1
33.302539 16.465378 -32.835817 49.581837 0.459172 2.294621 0.058536 -0.014003 306330.000000 0 0 1
31.995939 16.566278 -32.294217 48.384895 0.477756 2.301568 0.036131 -0.010065 307678.000000 0 0 1
31.141739 15.268578 -32.415117 47.472910 0.455852 2.322402 0.029632 -0.000204 -21638.000000 0 0 1
30.711339 14.972078 -33.736567 48.015678 0.453606 2.349863 0.053783 -0.016767 -315172.000000 0 0 1
30.359939 13.624478 -33.955977 47.543250 0.421826 2.366294 0.047445 -0.011814 -329560.000000 0 0 1
31.379639 12.485578 -33.807097 47.785889 0.378684 2.356709 0.050652 -0.001335 -266634.000000 0 0 1
31.517339 12.170978 -32.434867 46.834773 0.368525 2.335798 0.054528 0.005828 303781.000000 0 0 1
32.471439 11.123478 -32.275827 47.115338 0.330033 2.325453 0.077596 -0.004171 -145342.000000 0 0 1
17.929139 -21.334322 9.584763 29.469900 -0.871908 1.239532 0.059017 -0.033978 -45417.600000 0 0 1
17.627239 -22.318222 10.533263 30.327747 -0.902297 1.216091 0.062494 -0.036340 42680.000000 0 0 1
18.778339 -23.039722 10.923563 31.666686 -0.886951 1.218606 0.045891 -0.037149 -673671.000000 0 0 1
18.489339 -24.306022 11.782663 32.733309 -0.920489 1.202572 0.051139 -0.033576 -192300.000000 0 0 1
17.770639 -25.288402 11.072163 32.831261 -0.958248 1.226808 0.044983 -0.031344 -83528.600000 0 0 1
16.384339 -25.015922 11.144463 31.913038 -0.990945 1.214065 0.060958 -0.032419 -818434.000000 0 0 1
15.609239 -26.045902 10.309763 32.067563 -1.030894 1.243482 0.057645 -0.024517 -225565.000000 0 0 1
15.794139 -25.842522 8.931363 31.576257 -1.022205 1.284032 0.063458 -0.029008 -307368.000000 0 0 1
14.786939 -26.486292 8.231763 31.431499 -1.061613 1.305811 0.064373 -0.023530 -529118.000000 0 0 1
14.666139 -25.933702 6.820863 30.564304 -1.056112 1.345737 0.070911 -0.020524 67044.100000 0 0 1
14.022939 -24.630522 6.926063 29.176631 -1.053232 1.331124 0.079423 -0.030237 470142.000000 0 0 1
13.486739 -24.187322 5.659463 28.265672 -1.062140 1.369210 0.074778 -0.015260 1741.260000 0 0 1
12.855139 -22.793822 5.822663 26.808885 -1.057287 1.351860 0.088771 -0.027360 106806.000000 0 0 1
12.230039 -22.323422 4.605463 25.867341 -1.069600 1.391800 0.091824 -0.018322 4407.030000 0 0 1
11.336439 -21.294922 4.939163 24.624863 -1.081602 1.368850 0.101325 -0.020419 -286447.000000 0 1 0
10.610039 -20.624722 3.770263 23.498233 -1.095669 1.409651 0.089206 -0.021781 -173977.000000 0 1 0
11.357839 -19.860522 2.810663 23.050828 -1.051310 1.448559 0.070412 -0.016349 304434.000000 0 1 0
10.454039 -19.217622 1.916963 21.960844 -1.072585 1.483395 0.050558 -0.013144 337845.000000 0 1 0
11.172639 -18.927322 0.600663 21.987091 -1.037546 1.543474 0.046973 -0.004580 30981.600000 0 1 0
12.020539 -17.817522 0.719563 21.505237 -0.977289 1.537330 0.048656 -0.006557 -168551.000000 0 1 0
12.754139 -17.525322 -0.448037 21.679615 -0.941685 1.591464 0.057181 -0.005658 -367224.000000 0 1 0
13.987839 -16.654222 -0.323437 21.751491 -0.872197 1.585667 0.058371 -0.004936 -439432.000000 0 1 0
15.039739 -17.185522 0.408263 22.840810 -0.851887 1.552921 0.060489 -0.003934 -724606.000000 0 1 0
16.275739 -16.560322 0.258463 23.220912 -0.794065 1.559665 0.060767 -0.009029 -141596.000000 0 1 0
17.334739 -17.009522 1.283263 24.320028 -0.775929 1.518006 0.042331 -0.002302 -134724.000000 0 1 0
17.764939 -18.298122 0.968763 25.521615 -0.800182 1.532829 0.044763 0.000317 -747387.000000 0 0 1
18.964739 -18.653322 1.569363 26.647151 -0.777120 1.511868 0.035651 0.005565 -221393.000000 0 0 1
19.513339 -20.007322 1.083363 27.968500 -0.797897 1.532052 0.020922 0.001508 458619.000000 0 0 1
18.514439 -21.020922 1.207663 28.037868 -0.848712 1.527710 0.024639 0.011388 375973.000000 0 0 1
18.998439 -22.129822 0.518763 29.170855 -0.861389 1.553012 0.038521 0.005606 441760.000000 0 0 1
17.965239 -23.295922 0.392763 29.421150 -0.913880 1.557446 0.035124 0.009547 271298.000000 0 0 1
17.813139 -23.951722 1.604263 29.892584 -0.931333 1.517103 0.024619 0.013095 -432806.000000 0 0 1
16.688539 -24.775322 1.648863 29.917263 -0.978012 1.515654 0.028900 0.008519 -540407.000000 0 0 1
16.505639 -25.486952 3.034263 30.516022 -0.996102 1.471200 0.030773 0.002065 -216161.000000 0 0 1
17.404539 -26.525552 3.280163 31.894864 -0.990115 1.467771 0.049034 0.000523 466070.000000 0 0 1
18.682039 -26.096752 3.780963 32.316478 -0.949495 1.453530 0.030678 0.006052 80572.700000 0 0 1
19.767239 -27.145592 3.849963 33.800135 -0.941398 1.456645 0.033939 0.010483 -438436.000000 0 0 1
20.276339 -27.647102 2.632563 34.386372 -0.938005 1.494163 0.042803 0.014313 -167067.000000 0 0 1
21.332639 -28.568832 2.774063 35.762481 -0.929404 1.493149 0.057014 0.016184 -59682.300000 0 0 1
21.005639 -30.023892 3.018063 36.766556 -0.960318 1.488617 0.058225 0.008459 -262816.000000 0 0 1
20.767639 -30.336542 4.377863 37.023861 -0.970498 1.452275 0.088119 0.000590 253640.000000 0 0 1
20.137839 -31.646862 4.439663 37.772570 -1.004091 1.452987 0.077060 -0.011352 -117013.000000 0 0 1
19.851639 -32.153912 5.903463 38.246732 -1.017685 1.415825 0.086063 -0.018884 -60614.200000 0 0 1
20.979439 -32.671902 6.577463 39.380872 -0.999977 1.402988 0.074413 -0.028815 23772.300000 0 0 1
20.614139 -33.388642 7.719863 39.991754 -1.017681 1.376541 0.066144 -0.025438 7185.950000 0 0 1
21.843739 34.066501 8.350463 41.320766 1.000626 1.367306 0.072570 -0.029550 67013.900000 0 0 1
22.702739 -33.233752 9.070863 41.257450 -0.971487 1.349125 0.083456 -0.030431 -576666.000000 0 0 1
23.709939 -33.954772 9.682963 42.530548 -0.961226 1.341111 0.100594 -0.032939 -899480.000000 0 0 1
24.722439 -33.114172 10.435863 42.622231 -0.929486 1.323436 0.104079 -0.029917 -924409.000000 0 0 1
25.635939 -32.534392 9.578263 42.513894 -0.903437 1.343548 0.088328 -0.020380 -638616.000000 0 0 1
26.486139 -31.665262 10.266363 42.539424 -0.874227 1.327052 0.074025 -0.016435 -422266.000000 0 0 1
27.357139 -30.839252 9.349363 42.271540 -0.845161 1.347778 0.068319 -0.018797 -593740.000000 0 0 1
26.613639 -29.823642 8.716363 40.911006 -0.842214 1.356094 0.050018 -0.019252 -103236.000000 0 0 1
27.347539 -29.027412 7.833763 40.642913 -0.815188 1.376836 0.060040 -0.020306 -154896.000000 0 0 1
26.924939 -27.548852 7.902463 39.323536 -0.796851 1.368458 0.050256 -0.025693 26286.000000 0 0 1
27.265639 -26.943912 9.158963 39.411623 -0.779463 1.336260 0.042542 -0.028916 26897.200000 0 0 1
26.736539 -25.662202 9.266363 38.200217 -0.764898 1.325779 0.041252 -0.031081 -404672.000000 0 0 1
27.333939 -24.895022 10.452963 38.420968 -0.738735 1.295259 0.042194 -0.032676 181897.000000 0 0 1
28.696139 -24.612522 10.223563 39.163323 -0.708944 1.306687 0.044521 -0.031096 -604484.000000 0 0 1
29.383939 -23.995822 11.257963 39.572175 -0.684800 1.282320 0.028355 -0.031711 -534353.000000 0 0 1
30.816839 -23.756322 10.782863 40.377104 -0.656736 1.300462 0.028621 -0.032259 -342104.000000 0 0 1
30.887739 -22.914922 9.638463 39.649036 -0.638282 1.325242 0.031338 -0.028095 546097.000000 0 0 1
32.247639 -22.609522 9.277363 40.461959 -0.611478 1.339452 0.041467 -0.037190 894134.000000 0 0 1
32.332439 -22.121422 7.805363 39.945808 -0.600034 1.374132 0.051449 -0.022246 -195540.000000 0 0 1
31.698739 -20.887422 7.581563 38.711426 -0.582631 1.373674 0.056468 -0.009310 -94643.000000 0 0 1
32.163639 -20.198122 6.383463 38.512497 -0.560739 1.404277 0.061428 -0.015345 80803.900000 0 0 1
31.676739 -18.758822 6.135363 37.322270 -0.534661 1.405658 0.075428 -0.013369 125284.000000 0 0 1
32.092339 -17.997622 7.288563 37.509409 -0.511103 1.375239 0.079440 -0.014152 180786.000000 0 0 1
31.697539 -16.654722 7.109163 36.505533 -0.483781 1.374802 0.079846 -0.013158 -84835.300000 0 0 1
32.096039 -15.712022 8.274163 36.680855 -0.455238 1.343266 0.076820 -0.039456 -315232.000000 0 0 1
33.489439 -15.561022 8.321563 37.854145 -0.434974 1.349154 0.086373 -0.031033 -568521.000000 0 0 1
33.890539 -15.008422 9.541763 38.273576 -0.416892 1.318835 0.077400 -0.035361 587128.000000 0 0 1
35.429439 -14.864922 9.725863 39.633363 -0.397257 1.322868 0.061816 -0.035595 726728.000000 0 0 1
36.121839 -13.902122 8.915463 39.718279 -0.367393 1.344400 0.084725 -0.025571 233708.000000 0 0 1
-36.175381 -14.020122 9.154863 39.862683 0.369736 1.339068 0.080712 -0.028947 401733.000000 0 0 1
-35.351581 -13.095122 8.264463 38.594272 0.354754 1.354988 0.083579 -0.031607 -230296.000000 0 0 1
-35.486581 -13.314922 6.863563 38.518736 0.358955 1.391652 0.103747 -0.043140 -454206.000000 0 0 1
-34.402781 -12.807822 6.133963 37.218505 0.356393 1.405231 0.109840 -0.035189 657651.000000 0 0 1
-33.362681 -13.860122 5.548363 36.550729 0.393744 1.418408 0.091853 -0.024788 540299.000000 0 0 1
-32.644081 -14.511722 6.551863 36.320146 0.418307 1.389411 0.093365 -0.019890 -383114.000000 0 0 1
-31.597281 -15.281122 6.024363 35.611709 0.450459 1.400811 0.080638 -0.006427 243050.000000 0 0 1
-30.718381 -15.873722 7.180663 35.315094 0.476958 1.366037 0.053893 -0.011307 305740.000000 0 0 1
-31.430781 -16.922822 7.795863 36.538355 0.493906 1.355782 0.080492 -0.024586 201935.000000 0 0 1
-30.945681 -17.165222 9.119663 36.543786 0.506436 1.318576 0.038455 -0.019427 199726.000000 0 0 1
-32.102381 -17.835722 9.903663 38.036277 0.507124 1.307387 0.027277 -0.024716 -255130.000000 0 0 1
-33.176581 -16.891322 10.006463 38.550377 0.470928 1.308221 0.046778 -0.023776 447719.000000 0 0 1
-34.308681 -17.274922 10.771163 39.893940 0.466455 1.297409 0.053301 -0.031864 546403.000000 0 0 1
-35.116181 -18.577222 10.324463 41.046971 0.486595 1.316538 0.067067 -0.037107 -984063.000000 0 0 1
-34.513081 -19.830222 10.455063 41.154572 0.521512 1.313937 0.064426 -0.029379 -641661.000000 0 0 1
-34.191081 -20.292422 11.763563 41.463162 0.535627 1.283134 0.064238 -0.033565 -603086.000000 0 0 1
-35.363981 -20.707622 12.668263 42.894075 0.529732 1.270987 0.050818 -0.033611 -32851.400000 0 0 1
-35.904781 -22.000122 12.346563 43.881617 0.549731 1.285585 0.058640 -0.033556 -62711.500000 0 0 1
36.779339 -21.966022 11.369163 44.322497 -0.538386 1.311387 0.070100 -0.039525 -655089.000000 0 0 1
36.341239 -23.375822 10.993163 44.586594 -0.571602 1.321670 0.062326 -0.025001 98644.500000 0 0 1
35.676239 -23.930122 12.134563 44.639583 -0.590830 1.295498 0.116989 -0.017320 230276.000000 0 0 1
35.128639 -25.234392 11.862763 44.849983 -0.622931 1.303112 0.063973 -0.001284 158861.000000 0 0 1
34.465739 -25.863452 13.129563 45.046540 -0.643764 1.275037 0.066880 -0.026663 401355.000000 0 0 1
33.305439 -25.111002 13.480763 43.835438 -0.646031 1.258199 0.060514 -0.024995 60742.900000 0 0 1
33.064339 -25.351832 14.866263 44.237672 -0.654130 1.228072 0.055807 -0.012467 -237451.000000 0 0 1
32.727939 -24.051422 15.662763 43.530576 -0.633760 1.202731 0.053960 -0.017513 308895.000000 0 0 1
33.766439 -23.083022 15.915963 43.889819 -0.599640 1.199703 0.062841 -0.019943 198256.000000 0 0 1
34.291339 -22.528322 14.725563 43.592011 -0.581258 1.226213 0.067588 -0.020814 155788.000000 0 0 1
35.528039 -21.597622 14.927863 44.176237 -0.546211 1.226094 0.068431 -0.029907 119854.000000 0 0 1
35.327039 -20.343722 15.555263 43.632934 -0.522487 1.206274 0.074745 -0.011378 -78784.200000 0 0 1
34.921639 -20.451922 16.916763 43.863183 -0.529803 1.174861 0.059493 -0.013814 -151837.000000 0 0 1
34.968839 -19.064722 17.634363 43.557480 -0.499144 1.153979 0.050774 -0.003056 -251743.000000 0 0 1
34.168939 -18.007722 17.071963 42.228502 -0.485029 1.154609 0.053776 -0.007935 288673.000000 0 0 1
34.186239 -16.826922 17.895963 42.096434 -0.457399 1.131704 0.041399 -0.002579 -116328.000000 0 0 1
35.525839 -16.125122 18.212063 43.055592 -0.426091 1.134054 0.046881 -0.010572 -122467.000000 0 0 1
36.233439 -16.612822 19.317863 44.294783 -0.429895 1.119513 0.059245 0.002908 412413.000000 0 0 1
-36.431681 -15.712822 19.741863 44.315926 0.407191 1.109086 0.044796 0.003641 287822.000000 0 0 1
-36.129981 -15.744822 21.282463 44.790827 0.410968 1.075659 0.047656 0.011738 43837.100000 0 0 1
-35.274581 -16.845422 21.628963 44.675232 0.445528 1.065419 0.061428 0.006806 323258.000000 0 0 1
-34.840481 -16.727522 22.936763 44.941787 0.447615 1.035186 0.057826 0.007676 27185.800000 0 0 1
-33.878981 -17.868322 23.398463 44.883743 0.485339 1.022408 0.059691 0.001597 -489127.000000 0 0 1
-34.390981 -19.178622 23.524163 45.868784 0.508708 1.032286 0.061724 0.000674 80087.000000 0 0 1
-33.442781 -20.174022 23.861663 45.768873 0.542798 1.022363 0.050499 -0.000374 428055.000000 0 0 1
-32.343881 -20.582422 22.796863 44.603360 0.566728 1.034330 0.053775 -0.000680 954725.000000 0 0 1
-31.188481 -19.737322 22.884163 43.427735 0.564217 1.015791 0.058651 0.007693 166022.000000 0 0 1
-30.032581 -20.464922 22.581063 42.786369 0.598150 1.014832 0.060291 0.008214 -75533.200000 0 0 1
-28.712181 -19.666722 22.476463 41.428984 0.600561 0.997350 0.065707 0.010840 156771.000000 0 0 1
-28.352781 -19.144122 23.757163 41.650695 0.593895 0.963815 0.054363 0.009656 582525.000000 0 0 1
-27.279581 -18.182922 23.683063 40.443562 0.587915 0.945197 0.068315 0.008183 611888.000000 0 0 1
-26.829081 -17.642022 25.049063 40.724637 0.581679 0.908304 0.062292 0.002371 -292838.000000 0 0 1
-25.682381 -16.773522 25.059363 39.609436 0.578561 0.885811 0.059926 0.001263 628881.000000 0 0 1
-25.298581 -16.387122 26.357163 40.040680 0.574791 0.852292 0.052008 -0.002031 -215250.000000 0 0 1
-24.336281 -17.436422 26.914163 40.257367 0.621700 0.838536 0.042440 0.003512 -1082490.000000 0 0 1
-24.834181 -18.689622 27.266963 41.346412 0.645148 0.850675 0.044231 0.004680 11827.800000 0 0 1
-23.817481 -19.356222 28.016163 41.555278 0.682431 0.830929 0.043418 0.008753 124176.000000 0 0 1
-24.322681 -20.672322 28.622263 42.873904 0.704447 0.839827 0.037781 0.009449 -201492.000000 0 0 1
-25.344381 -20.419122 29.553863 43.962587 0.678187 0.833552 0.037551 0.002003 69756.000000 0 0 1
-26.001881 -21.619022 30.006663 45.209288 0.693620 0.845005 0.026527 -0.000027 -492642.000000 0 0 1
-27.141081 -21.364822 30.997263 46.410389 0.666873 0.839420 0.034806 -0.004525 -1018640.000000 0 0 1
-26.857781 -20.660322 32.128963 46.695391 0.655707 0.811992 0.044576 -0.014642 -193673.000000 0 0 1
-27.884081 -20.792522 33.087163 48.006367 0.640729 0.810378 0.058713 -0.014803 236537.000000 0 0 1
-29.085981 -19.823322 32.939063 48.207264 0.598230 0.818551 0.047753 -0.018765 -28323.800000 0 0 1
-29.960481 -20.179722 31.879063 48.178068 0.592749 0.847723 0.055226 -0.024807 236457.000000 0 0 1
-31.124981 -19.371222 31.898463 48.595480 0.556705 0.854749 0.068634 -0.035519 14963.900000 0 0 1
-32.381881 -19.952722 31.242963 49.222150 0.552224 0.883132 0.069827 -0.012896 -776664.000000 0 0 1
-32.595581 -19.451122 29.911063 48.326905 0.538020 0.903414 0.061778 -0.025757 604141.000000 0 0 1
-33.838381 -19.866222 29.346163 48.998981 0.530874 0.928652 0.072750 -0.028199 137017.000000 0 0 1
-34.172981 -19.050522 28.119963 48.181400 0.508563 0.947608 0.071172 -0.021339 -81815.500000 0 0 1
-35.346181 -19.578122 27.527563 48.891943 0.505830 0.972750 0.066240 -0.022844 73280.400000 0 0 1
-35.945581 -18.608422 26.681163 48.479301 0.477694 0.987999 0.066941 -0.009752 -429161.000000 0 0 1
36.515439 -19.197722 26.018363 48.773815 -0.484029 1.008123 0.057231 -0.004385 -691499.000000 0 0 1
35.390239 -19.358122 26.829363 48.446059 -0.500530 0.983877 0.069188 -0.011206 -355526.000000 0 0 1
34.373239 -19.976722 26.074863 47.544584 -0.526459 0.990311 0.087934 -0.013042 -52535.300000 0 0 1
33.114839 -20.377322 26.869963 47.263334 -0.551632 0.966095 0.073150 -0.016913 -75041.700000 0 0 1
32.195939 -19.351822 27.126963 46.335123 -0.541202 0.945360 0.060252 -0.016667 -49835.500000 0 0 1
31.160839 -19.784222 27.967563 46.309804 -0.565691 0.922382 0.044698 -0.007135 -288306.000000 0 0 1
-30.152961 -5.772222 -33.967097 45.785186 0.189143 2.406666 0.053388 -0.018257 -101049.000000 0 0 1
-30.853931 -5.733122 32.863463 45.440521 0.183720 0.762344 0.056841 -0.007008 272478.000000 0 0 1
-30.630111 -4.526822 32.152624 44.637283 0.146728 0.766549 0.067026 -0.010529 -41398.000000 0 0 1
-31.402231 -4.399322 30.798268 44.203931 0.139190 0.799966 0.065922 -0.012837 189056.000000 0 0 1
-31.049251 -5.341322 29.821088 43.380676 0.170360 0.812855 0.059952 -0.014940 -324895.000000 0 0 1
-29.736721 -5.230022 29.325288 42.090358 0.174097 0.799978 0.053473 -0.019134 -309274.000000 0 0 1
-29.387921 -6.251922 28.287648 41.266542 0.209613 0.815525 0.042907 -0.024597 -715545.000000 0 0 1
-30.016301 -6.031522 27.085158 40.877419 0.198301 0.846519 0.068228 -0.026931 -463488.000000 0 0 1
-29.491171 -6.796822 26.008328 39.904375 0.226514 0.860885 0.086254 -0.025957 -21504.500000 0 0 1
-30.073321 -6.556822 24.618378 39.413971 0.214668 0.896164 0.081205 -0.026647 74933.600000 0 0 1
-29.650031 -5.291722 24.093258 38.569570 0.176613 0.896087 0.091354 -0.027637 167753.000000 0 0 1
-30.308471 -5.127322 22.846498 38.299548 0.167585 0.931636 0.094268 -0.026097 119179.000000 0 0 1
-29.995841 -3.808922 22.133698 37.472109 0.126306 0.938906 0.106743 -0.030540 -549368.000000 0 0 1
-28.699501 -3.740322 21.641698 36.138822 0.129597 0.928733 0.119508 -0.027756 -575924.000000 0 0 1
-28.553211 -2.511222 20.932298 35.493002 0.087723 0.940037 0.131678 -0.024387 -675187.000000 0 0 1
-27.170411 -2.433922 20.341298 34.028277 0.089341 0.930072 0.132507 -0.022208 -832576.000000 0 0 1
-27.058971 -3.135322 19.117498 33.279076 0.115356 0.958852 0.147774 -0.028452 -1277690.000000 0 0 1
-25.845331 -2.873422 18.563398 31.950547 0.110723 0.950835 0.123720 -0.020804 -1455390.000000 0 0 1
-25.642951 -3.689122 17.232498 31.114781 0.142885 0.983832 0.129155 -0.032093 -4305.830000 0 0 1
-26.683341 -3.408922 16.325598 31.466595 0.127066 1.025323 0.143058 -0.031531 -9964.760000 0 0 1
-26.475521 -4.128322 15.137198 30.775494 0.154684 1.056573 0.149687 -0.035972 -61970.300000 0 0 1
-27.749831 -4.296522 14.290498 31.507643 0.153611 1.100044 0.159471 -0.039046 97642.000000 0 0 1
-28.149451 -3.084222 13.656298 31.438806 0.109131 1.121450 0.156550 -0.042116 -1097630.000000 0 0 1
-29.469381 -3.085022 13.287198 32.473242 0.104306 1.149248 0.135236 -0.040683 -1155170.000000 0 0 1
-29.827131 -1.841722 12.503398 32.394207 0.061668 1.174530 0.130225 -0.025849 -397390.000000 0 0 1
-29.004101 -1.783422 11.390198 31.211458 0.061411 1.197232 0.136566 -0.030575 33135.500000 0 0 1
-29.345371 -0.674822 10.572498 31.199101 0.022992 1.225079 0.138598 -0.026414 360439.000000 0 0 1
-30.617341 -0.724922 9.653898 32.111444 0.023672 1.265436 0.134137 -0.015585 731369.000000 0 0 1
-30.343851 -1.438122 8.466598 31.535707 0.047359 1.298985 0.112791 -0.021008 -186810.000000 0 0 1
-31.537281 -1.836922 7.847398 32.550823 0.058180 1.327316 0.105811 -0.018800 -333713.000000 0 0 1
-31.403401 -2.651222 6.543898 32.187345 0.084225 1.366063 0.121409 -0.025081 -389153.000000 0 0 1
-31.037631 -1.863722 5.418198 31.562080 0.059975 1.398274 0.143342 -0.034815 338778.000000 0 0 1
-32.062771 -0.994622 4.986598 32.463468 0.031011 1.416579 0.137882 -0.026101 -201264.000000 0 0 1
-31.724441 -0.310322 3.616798 31.931453 0.009781 1.457285 0.135766 -0.024376 -114206.000000 0 0 1
-31.745401 -1.294622 2.551798 31.874100 0.040759 1.490652 0.149988 -0.042836 314252.000000 0 0 1
-31.511431 -0.724122 1.306198 31.546803 0.022976 1.529379 0.144928 -0.049993 -121926.000000 0 0 1
-32.272331 -1.508922 0.189598 32.308144 0.046722 1.564928 0.140642 -0.052763 -87286.500000 0 0 1
-33.605001 -1.076922 0.111898 33.622439 0.032036 1.567468 0.125519 -0.043629 -376665.000000 0 0 1
-34.208205 -1.381222 -1.096102 34.253621 0.040355 1.602801 0.128484 -0.046135 -813439.000000 0 0 1
-35.695654 -1.070822 -1.115002 35.729115 0.029990 1.602008 0.131777 -0.040595 -528812.000000 0 0 1
-36.490941 -1.928022 -0.281002 36.542920 0.052787 1.578486 0.134762 -0.031708 648143.000000 0 0 1
35.835608 -1.525122 -0.304402 35.869339 -0.042533 1.579283 0.134168 -0.030352 186677.000000 0 0 1
34.910568 -2.676022 0.103298 35.013134 -0.076504 1.567846 0.140408 -0.026219 -588349.000000 0 0 1
34.859168 -2.945322 1.496898 35.015386 -0.084292 1.528034 0.131906 -0.026758 710264.000000 0 0 1
33.837908 -3.931722 1.792298 34.112678 -0.115674 1.518232 0.139766 -0.022961 577966.000000 0 0 1
33.861338 -4.431822 3.262798 34.305643 -0.130142 1.475543 0.136605 -0.027155 107367.000000 0 0 1
33.480308 -3.484122 4.214898 33.923967 -0.103692 1.446229 0.139429 -0.030027 17009.800000 0 0 1
33.418568 -3.996422 5.545298 34.110444 -0.119022 1.407503 0.141705 -0.034954 -38103.100000 0 0 1
33.080298 -2.909122 6.614998 33.860409 -0.087716 1.374171 0.146838 -0.032483 -938871.000000 0 0 1
31.742558 -2.614922 6.767198 32.561062 -0.082193 1.361439 0.154260 -0.033383 -887048.000000 0 0 1
31.404448 -1.507022 7.602698 32.346739 -0.047951 1.333539 0.158306 -0.033111 -253607.000000 0 0 1
29.979058 -1.444722 8.180898 31.108813 -0.048154 1.304690 0.157380 -0.031374 -40537.900000 0 0 1
29.028818 -1.164622 7.154498 29.920152 -0.040098 1.329337 0.168014 -0.032895 1013050.000000 0 0 1
27.668258 -1.101922 7.623098 28.720348 -0.039805 1.302152 0.150574 -0.025297 946387.000000 0 0 1
26.808358 -2.334922 7.325898 27.889222 -0.086878 1.304999 0.165943 -0.039068 -436169.000000 0 0 1
27.125658 -3.420722 8.170798 28.535322 -0.125444 1.280392 0.148599 -0.044650 307187.000000 0 0 1
26.553958 -4.584722 7.727598 28.032983 -0.170971 1.291519 0.151810 -0.056783 -394764.000000 0 0 1
26.809058 -5.728722 8.780398 28.786095 -0.210520 1.260835 0.144483 -0.046425 -284263.000000 0 0 1
26.224258 -5.491522 10.041898 28.613078 -0.206423 1.212206 0.146206 -0.045972 399692.000000 0 0 1
26.545158 -6.408322 11.051598 29.459291 -0.236880 1.186240 0.143187 -0.038857 -369423.000000 0 0 1
25.626458 -6.207322 12.268698 29.082076 -0.237646 1.135295 0.137488 -0.037643 -159859.000000 0 0 1
24.302958 -6.563422 11.930198 27.857529 -0.263774 1.128233 0.155925 -0.047735 -762732.000000 0 0 1
23.490658 -6.297122 13.024498 27.588083 -0.261911 1.079118 0.150438 -0.047403 -46933.100000 0 0 1
22.280958 -7.279122 12.932398 26.770761 -0.315766 1.066628 0.137020 -0.057082 -48217.600000 0 0 1
22.576958 -8.591522 13.358098 27.603842 -0.363622 1.065666 0.125143 -0.050234 189984.000000 0 0 1
21.431158 -9.420222 13.513398 27.030484 -0.414136 1.047276 0.156292 -0.079016 -151065.000000 0 0 1
21.753758 -10.739922 14.246898 28.134428 -0.458598 1.039807 0.150820 -0.070201 -165708.000000 0 0 1
21.924758 -10.522522 15.644798 28.916746 -0.447469 0.999136 0.115521 -0.062966 384868.000000 0 0 1
22.573658 -11.608222 16.297798 30.165197 -0.474973 1.000021 0.113791 -0.057698 -177191.000000 0 0 1
22.506258 -11.444422 17.794998 30.889617 -0.470424 0.956867 0.113783 -0.053507 234076.000000 0 0 1
21.229258 -11.800922 18.307098 30.415342 -0.507346 0.924914 0.104312 -0.050166 -19024.900000 0 0 1
21.201258 -12.169822 19.680298 31.383308 -0.521093 0.892979 0.131651 -0.036172 -100058.000000 0 0 1
21.518658 -11.166822 20.801298 31.944398 -0.478682 0.861669 0.104289 -0.037631 41082.100000 0 0 1
20.560758 -10.170622 21.149398 31.200695 -0.459368 0.825962 0.097158 -0.040203 -135680.000000 0 0 1
20.502058 -9.004422 20.287498 30.215833 -0.413833 0.834674 0.098727 -0.027820 -1204150.000000 0 0 1
21.318758 -7.809822 20.824498 30.808156 -0.351153 0.828555 0.090566 -0.011990 -315110.000000 0 0 1
22.683658 -8.029522 20.986598 31.928966 -0.340215 0.853579 0.109131 -0.027289 -349749.000000 0 0 1
23.439258 -8.088522 19.767398 31.710772 -0.332289 0.897757 0.110299 -0.036376 -730989.000000 0 0 1
24.891458 -8.541922 20.010598 33.060145 -0.330574 0.920681 0.110541 -0.031386 -294138.000000 0 0 1
24.960858 -9.869922 20.539198 33.798202 -0.376548 0.917634 0.089345 -0.035421 -240901.000000 0 0 1
26.190358 -10.461622 20.209998 34.696173 -0.380028 0.949014 0.082155 -0.041984 -56853.700000 0 0 1
26.142358 -11.989422 20.395398 35.258210 -0.430000 0.953959 0.048587 -0.039797 -42327.600000 0 0 1
25.215458 -12.628622 19.537998 34.307941 -0.464310 0.964912 0.084850 -0.049992 52832.900000 0 0 1
25.307358 -14.033622 19.607798 34.955267 -0.506312 0.975276 0.058011 -0.043113 -187411.000000 0 0 1
24.229658 -14.789922 18.806398 34.051413 -0.548036 0.985683 0.086585 -0.039753 -334424.000000 0 0 1
24.250058 -14.553522 17.412798 33.212586 -0.540525 1.018923 0.072915 -0.035781 -80147.700000 0 0 1
23.265858 -15.139422 16.595098 32.340370 -0.576877 1.031959 0.068526 -0.022632 -318568.000000 0 0 1
23.045758 -16.672422 16.621398 32.944613 -0.626291 1.041964 0.060228 -0.023570 24918.100000 0 0 1
24.240058 -17.383822 16.315798 33.999749 -0.622145 1.070278 0.074515 -0.025534 181475.000000 0 0 1
23.985858 -18.788022 16.299898 34.554274 -0.664472 1.079557 0.062370 -0.009433 -39276.100000 0 0 1
25.190858 -19.704922 15.998998 35.760750 -0.663808 1.106952 0.043786 -0.006016 -40937.800000 0 0 1
25.652358 -19.851322 14.635998 35.585543 -0.658597 1.146927 0.052428 -0.019573 -326510.000000 0 0 1
26.478958 -20.955722 14.636398 36.803555 -0.669481 1.161799 0.034788 -0.020366 -383687.000000 0 0 1
27.243558 -21.150822 13.323598 36.974140 -0.660159 1.202154 0.042477 -0.033291 -32429.900000 0 0 1
26.365558 -21.548522 12.288198 36.200570 -0.685200 1.224467 0.038176 -0.026277 159504.000000 0 0 1
27.000958 -21.336322 11.035598 36.139657 -0.668740 1.260480 0.044281 -0.030823 -1333560.000000 0 0 1
26.134358 -20.953222 9.824098 34.907808 -0.675807 1.285512 0.035386 -0.028353 148760.000000 0 0 1
25.276558 -21.959922 9.252698 34.738379 -0.715300 1.301188 0.026123 -0.028438 692186.000000 0 0 1
24.183158 -22.342022 10.107298 34.440508 -0.745846 1.272940 0.027373 -0.019639 76355.000000 0 0 1
23.140258 -23.312922 9.469298 34.185252 -0.789115 1.290126 0.035506 -0.020778 120100.000000 0 0 1
23.654458 -24.596922 9.269898 35.362027 -0.804928 1.305554 0.035779 -0.019529 -95027.300000 0 0 1
23.160758 -25.351162 8.127798 35.286871 -0.830519 1.338374 0.047043 -0.009453 -288285.000000 0 0 1
21.790358 -26.037822 8.086998 34.902542 -0.873973 1.336969 0.054701 0.000818 -281753.000000 0 0 1
20.750158 -25.120572 7.905498 33.527736 -0.880388 1.332765 0.044839 0.001187 -456123.000000 0 0 1
19.503358 -25.787912 7.752198 33.248969 -0.923276 1.335474 0.060367 -0.020253 -10785.000000 0 0 1
18.362758 -24.803122 7.612398 31.785757 -0.933506 1.328955 0.058403 -0.033465 -814632.000000 0 0 1
18.395958 -24.025722 6.416598 30.932496 -0.917337 1.361840 0.062923 -0.021072 355916.000000 0 0 1
17.258058 -23.154422 6.389098 29.576822 -0.930280 1.353063 0.075416 -0.022016 332326.000000 0 0 1
16.982958 -22.382022 5.063698 28.548499 -0.921702 1.392481 0.071587 -0.006410 -691000.000000 0 0 1
16.013758 -21.379322 5.158498 27.205256 -0.927916 1.380027 0.102632 -0.015489 -126709.000000 0 0 1
15.946158 -20.686522 3.919798 26.411682 -0.914086 1.421835 0.108220 -0.010916 467311.000000 0 0 1
15.011858 -19.433122 4.072198 24.891463 -0.913057 1.406459 0.121532 -0.002359 255452.000000 0 1 0
15.703858 -18.360822 4.583798 24.591506 -0.863238 1.383302 0.094329 -0.007729 -156160.000000 0 1 0
14.938058 -17.162722 4.499398 23.193732 -0.854590 1.375567 0.073186 0.006551 61824.600000 0 1 0
15.693258 -15.828322 4.675598 22.774445 -0.789683 1.364026 0.049815 -0.000376 -1197850.000000 0 1 0
16.143758 -15.541222 5.965398 23.189146 -0.766384 1.310621 0.070029 -0.014769 -183575.000000 0 1 0
16.991458 -14.432022 6.090198 23.110245 -0.704128 1.304119 0.057132 -0.015937 -801873.000000 0 1 0
18.394558 -14.728222 5.605998 24.222046 -0.675158 1.337237 0.068635 -0.031866 -2127560.000000 0 1 0
19.314058 -13.705422 5.793598 24.381083 -0.617146 1.330874 0.094796 -0.033084 -854108.000000 0 1 0
20.561158 -14.251822 5.473798 25.609337 -0.606109 1.355392 0.112568 -0.036446 -499666.000000 0 0 1
21.652858 -13.161722 5.360798 25.900103 -0.546173 1.362309 0.117306 -0.037160 -86873.200000 0 0 1
21.861258 -12.492822 6.602898 26.030434 -0.519169 1.314333 0.132855 -0.044154 626041.000000 0 0 1
23.037058 -11.670822 6.579098 26.649553 -0.468922 1.321343 0.136528 -0.044037 486897.000000 0 0 1
23.203058 -10.835622 7.872198 26.791120 -0.436894 1.272559 0.152115 -0.051803 -56812.000000 0 0 1
23.679058 -11.605622 8.953498 27.848759 -0.455714 1.243479 0.146792 -0.043879 133270.000000 0 0 1
23.763758 -10.870022 10.121998 28.023712 -0.429007 1.201248 0.167894 -0.058853 -43444.100000 0 0 1
24.369558 -11.647322 11.250098 29.259190 -0.445849 1.176132 0.136121 -0.048848 8090.080000 0 0 1
23.419458 -12.631522 11.650898 29.047716 -0.494638 1.158084 0.136967 -0.051981 710034.000000 0 0 1
23.937158 -13.630222 12.532498 30.262749 -0.517628 1.143817 0.119176 -0.046142 -44599.800000 0 0 1
22.855358 -14.672122 12.796798 30.023268 -0.570699 1.130476 0.101798 -0.047802 -904362.000000 0 0 1
21.790358 -14.309422 13.549498 29.379724 -0.581061 1.091466 0.101696 -0.056727 -974043.000000 0 0 1
20.794858 -15.314422 13.685098 29.227377 -0.634774 1.083511 0.083489 -0.053381 940092.000000 0 0 1
19.494858 -14.617922 14.272098 28.238731 -0.643395 1.040941 0.074027 -0.048354 -226551.000000 0 0 1
19.629358 -14.284722 15.602498 28.858325 -0.629090 0.999577 0.081852 -0.046536 89864.900000 0 0 1
19.100858 -13.005922 15.890998 28.044975 -0.597797 0.968392 0.088875 -0.059491 282479.000000 0 0 1
17.548758 -12.848422 15.895398 26.938904 -0.631983 0.939671 0.090630 -0.049577 78480.000000 0 0 1
17.048358 -12.886122 14.515198 25.833885 -0.647239 0.974156 0.090663 -0.060032 -607559.000000 0 0 1
15.674758 -13.168122 14.584198 25.135559 -0.698709 0.951795 0.124250 -0.044853 -665609.000000 0 0 1
14.839058 -11.978322 14.194598 23.773188 -0.679125 0.930935 0.090547 -0.040023 -701361.000000 0 1 0
14.830558 -11.009622 15.172498 23.903178 -0.638594 0.883114 0.074269 -0.032245 14875.700000 0 1 0
14.465758 -9.701622 14.750198 22.824285 -0.590763 0.868136 0.057262 -0.032051 -702731.000000 0 1 0
14.846958 -8.515822 15.698498 23.224862 -0.520762 0.828564 0.057722 -0.032657 1058670.000000 0 1 0
16.258158 -8.220322 15.847498 24.146316 -0.468127 0.854877 0.057732 -0.042207 1086460.000000 0 1 0
16.773358 -9.084122 16.882398 25.473166 -0.496356 0.846308 0.079791 -0.037384 202076.000000 0 0 1
18.333158 -9.131122 16.725098 26.442598 -0.462099 0.886012 0.093803 -0.041654 882154.000000 0 0 1
19.018158 -7.927622 17.092098 26.770830 -0.394943 0.878301 0.077649 -0.032714 -448103.000000 0 0 1
20.319458 -7.985122 16.624398 27.441085 -0.374439 0.919998 0.070636 -0.026395 -770798.000000 0 0 1
21.218758 -6.737722 16.558898 27.745805 -0.307466 0.931280 0.069521 -0.007190 52140.900000 0 0 1
21.547758 -6.259722 17.867898 28.683650 -0.282723 0.898314 0.096077 -0.017789 352168.000000 0 0 1
22.133058 -4.950222 17.856998 28.866059 -0.220036 0.903817 0.102070 -0.016103 173741.000000 0 0 1
-5.813261 -33.202656 -6.441137 34.317614 1.397469 1.759608 0.065621 -0.030794 -79323.500000 0 0 1
-6.383761 -31.920756 -6.544837 33.204246 1.373413 1.769204 0.062298 -0.034579 -13265.100000 0 0 1
-6.015861 -31.116756 -5.473437 32.162115 1.379821 1.741811 0.081135 -0.040699 -462403.000000 0 0 1
-6.786061 -29.743656 -5.519337 31.003206 1.346484 1.749775 0.087641 -0.038786 1638570.000000 0 0 1
-8.194061 -29.761556 -5.187137 31.301745 1.302129 1.737278 0.084115 -0.037240 1424930.000000 0 0 1
-9.049561 -30.373456 -6.164837 32.286942 1.281228 1.762915 0.073184 -0.034237 -614002.000000 0 0 1
-10.527861 -30.074656 -5.905537 32.406731 1.234070 1.754052 0.055764 -0.029659 -437314.000000 0 0 1
-11.453761 -30.741256 -6.730137 33.488927 1.214144 1.773140 0.046296 -0.034718 -767427.000000 0 0 1
-12.732761 -30.430756 -6.267637 33.577335 1.174514 1.758560 0.046387 -0.028064 -353940.000000 0 0 1
-13.882461 -30.759556 -7.249737 34.517122 1.146844 1.782405 0.060275 -0.032825 116601.000000 0 0 1
-13.853661 -29.984956 -8.384337 34.078126 1.137991 1.819381 0.076662 -0.038635 190978.000000 0 0 1
-14.815461 -30.411356 -9.345737 35.095460 1.117466 1.840343 0.085909 -0.035920 259825.000000 0 0 1
-14.989661 -29.513456 -10.595237 34.756195 1.100855 1.880572 0.112735 -0.033523 -409688.000000 0 0 1
-15.532861 -28.221256 -10.391437 33.848058 1.067649 1.882838 0.119535 -0.036330 244813.000000 0 0 1
-14.667461 -27.313556 -9.702637 32.485473 1.077986 1.874102 0.108285 -0.032739 -55169.400000 0 0 1
-15.238561 -25.933156 -9.314637 31.488169 1.039538 1.871104 0.106749 -0.026231 -179661.000000 0 0 1
-15.490361 -25.138956 -10.455137 31.324564 1.018558 1.911094 0.118105 -0.031901 94061.400000 0 0 1
-15.817861 -23.846356 -10.004337 30.314026 0.985111 1.907125 0.100380 -0.021307 -332176.000000 0 0 1
-16.483361 -23.009756 -11.081437 30.396518 0.949172 1.943959 0.110505 -0.022751 449489.000000 0 0 1
-17.851861 -23.367856 -11.321837 31.510786 0.918427 1.938314 0.109831 -0.027795 552641.000000 0 0 1
-18.305661 -22.765756 -12.554637 31.796160 0.893568 1.976698 0.117115 -0.030010 403839.000000 0 0 1
-19.765361 -23.283956 -12.769937 33.104130 0.866951 1.966818 0.102111 -0.020383 367099.000000 0 0 1
-20.018561 -24.595056 -13.194437 34.347529 0.887621 1.965078 0.119477 -0.018876 -8719.460000 0 0 1
-20.023761 -25.575356 -12.174237 34.688066 0.906550 1.929396 0.134257 -0.025081 -1056720.000000 0 0 1
-20.124561 -26.943956 -12.842437 35.998652 0.929279 1.935581 0.126358 -0.022460 769560.000000 0 0 1
-19.063361 -27.460356 -13.691637 36.124006 0.963964 1.959531 0.133360 -0.026872 804261.000000 0 0 1
-17.729761 -27.292156 -13.254637 35.141025 0.994682 1.957550 0.137807 -0.032754 -515079.000000 0 0 1
-16.840361 -28.449956 -13.732637 35.799205 1.036332 1.964490 0.122592 -0.029382 -267775.000000 0 0 1
-16.660461 -28.630256 -15.173337 36.434773 1.043779 2.000336 0.116237 -0.032176 105679.000000 0 0 1
-15.832461 -29.744356 -15.513437 37.095287 1.081656 2.002265 0.123481 -0.030423 186673.000000 0 0 1
-16.530861 -31.141556 -15.433137 38.486980 1.082790 1.983400 0.116879 -0.036209 133710.000000 0 0 1
-16.905061 -31.562656 -14.109037 38.484377 1.079073 1.946167 0.120625 -0.034902 228739.000000 0 0 1
-17.013761 -32.947356 -13.947137 39.617155 1.094121 1.930555 0.074902 -0.025702 -677328.000000 0 0 1
-17.519861 -33.243256 -12.488437 39.598241 1.085767 1.891652 0.087554 -0.021931 292666.000000 0 0 1
-18.889961 -33.106856 -12.128237 39.999859 1.052294 1.878853 0.095202 -0.018430 381175.000000 0 0 1
-19.453261 -31.799556 -12.087337 39.188581 1.021785 1.884349 0.105131 -0.027186 -350516.000000 0 0 1
-18.869961 -30.620956 -11.263337 37.690598 1.018519 1.874270 0.115713 -0.028772 -544044.000000 0 0 1
-19.089761 -30.711556 -9.875437 37.485236 1.014658 1.837392 0.104882 -0.030534 125374.000000 0 0 1
-18.736661 -29.572856 -9.133037 36.180501 1.006054 1.825987 0.113959 -0.029475 -18557.400000 0 0 1
-18.900561 -29.857756 -7.610537 36.147436 1.006450 1.782925 0.118360 -0.033024 305789.000000 0 0 1
-17.890361 -30.677756 -7.042737 36.204833 1.042843 1.766569 0.100459 -0.036436 251091.000000 0 0 1
-18.225561 -30.918356 -5.689637 36.338517 1.038153 1.728016 0.120599 -0.045358 -125904.000000 0 0 1
-17.563261 -32.173956 -5.043737 37.000958 1.071118 1.707536 0.111552 -0.037207 1031040.000000 0 0 1
-16.153361 -32.043156 -4.783637 36.201908 1.103864 1.703322 0.102655 -0.035643 903126.000000 0 0 1
-16.008361 -31.878356 -3.412937 35.834974 1.105414 1.666181 0.093754 -0.035774 -625593.000000 0 0 1
-14.758261 -31.149356 -2.972237 34.596573 1.128336 1.656814 0.096815 -0.030979 -558325.000000 0 0 1
-13.552561 -31.875056 -3.113837 34.776244 1.168775 1.660456 0.053400 -0.029528 -957175.000000 0 0 1
-12.487061 -31.117856 -2.699337 33.638283 1.189185 1.651129 0.059296 -0.019848 -582791.000000 0 0 1
-11.125061 -31.821656 -2.878837 33.833009 1.234472 1.655989 0.063695 -0.031162 -462810.000000 0 0 1
-11.118361 -32.899256 -2.007937 34.785210 1.244895 1.628552 0.074152 -0.020079 466466.000000 0 0 1
-9.827861 -33.516756 -1.903837 34.979771 1.285569 1.625250 0.075050 -0.027278 973292.000000 0 0 1
-8.766261 -32.748156 -1.072937 33.918141 1.309241 1.602435 0.084074 -0.021377 -529156.000000 0 0 1
-9.186161 -32.619456 0.285063 33.889464 1.296290 1.562385 0.092860 -0.018405 -405900.000000 0 0 1
-8.297461 -32.071456 1.243063 33.150737 1.317630 1.533290 0.084941 -0.012883 915957.000000 0 0 1
-7.246961 -33.132856 1.806363 33.964210 1.355463 1.517587 0.092648 -0.016101 671651.000000 0 0 1
-7.943561 34.035478 2.594763 35.046351 -1.341510 1.496690 0.110249 -0.024785 -222575.000000 0 0 1
-7.172961 33.024678 3.194163 33.945300 -1.356918 1.476560 0.103001 -0.020586 -159713.000000 0 0 1
-6.379661 33.317078 4.500263 34.219587 -1.381603 1.438903 0.109906 -0.026621 -238941.000000 0 0 1
-5.311761 -33.954756 4.333863 34.639900 1.415618 1.445356 0.112927 -0.024624 -812303.000000 0 0 1
-4.697961 -33.640356 5.560363 34.418920 1.432041 1.408536 0.111189 -0.024152 -67079.200000 0 0 1
-3.449761 -32.737656 5.472163 33.370639 1.465808 1.406071 0.104488 -0.018219 28551.700000 0 0 1
-3.622161 -31.506856 4.741863 32.066919 1.456335 1.422378 0.100204 -0.015987 -90677.500000 0 0 1
-3.449161 -31.748556 3.351663 32.110764 1.462581 1.466228 0.101598 -0.019431 -299111.000000 0 0 1
-3.744861 -30.452656 2.530763 30.786247 1.448437 1.488499 0.094635 -0.018853 392893.000000 0 0 1
-2.977261 -29.324056 2.980163 29.625086 1.469613 1.470030 0.084790 -0.024752 12762.000000 0 0 1
-3.475061 -28.178156 2.395163 28.492479 1.448091 1.486634 0.086918 -0.030306 148254.000000 0 0 1
-2.868761 -26.801456 2.826763 27.102370 1.464165 1.466307 0.080325 -0.036938 65818.100000 0 0 1
-3.318161 -25.861756 1.884563 26.141772 1.443190 1.498644 0.085456 -0.040354 -332553.000000 0 0 1
-3.152061 -24.484756 2.326563 24.796203 1.442765 1.476831 0.069721 -0.037662 668487.000000 0 1 0
-4.218561 -23.852956 3.334863 24.451607 1.395749 1.433984 0.052761 -0.025524 469957.000000 0 1 0
-4.144561 -24.503256 4.576663 25.269207 1.403239 1.388675 0.070371 -0.027464 355156.000000 0 0 1
-5.101061 -24.041956 5.551963 25.196444 1.361724 1.348626 0.049504 -0.012529 108565.000000 0 0 1
-5.651161 -25.088156 6.513363 26.528760 1.349242 1.322739 0.061970 -0.009384 -70768.700000 0 0 1
-4.814261 -25.681256 7.511163 27.186791 1.385485 1.290875 0.057094 -0.015617 92378.700000 0 0 1
-5.602561 -26.490956 8.358463 28.337667 1.362378 1.271383 0.065985 -0.014696 332736.000000 0 0 1
-4.799761 -27.002956 9.583863 29.052501 1.394884 1.234619 0.059752 -0.012890 74380.800000 0 0 1
-4.529961 -25.996656 10.565263 28.424839 1.398277 1.189966 0.059409 -0.020815 531030.000000 0 0 1
-5.626461 -25.551856 11.399763 28.539605 1.354057 1.159894 0.057681 -0.022197 637557.000000 0 0 1
-5.108961 -24.499156 12.462063 27.957346 1.365207 1.108781 0.051448 -0.021875 361654.000000 0 0 1
-4.464061 -25.101656 13.555863 28.875291 1.394797 1.082115 0.063014 -0.021265 -536310.000000 0 0 1
-3.556261 -24.216956 14.149163 28.272014 1.424988 1.046660 0.048021 -0.024330 -457184.000000 0 0 1
-2.549161 -25.020056 14.955463 29.260337 1.469262 1.034312 0.063712 -0.027047 -599940.000000 0 0 1
-3.125061 -25.410756 16.168863 30.280434 1.448429 1.007506 0.054235 -0.024059 -283005.000000 0 0 1
-2.274161 -26.199156 16.957063 31.290727 1.484211 0.998077 0.058846 -0.018202 -186405.000000 0 0 1
-2.686861 -26.557156 18.430063 32.437155 1.469967 0.966507 0.070978 -0.030819 -23408.700000 0 0 1
-2.860961 -25.397956 19.190763 31.961331 1.458624 0.926749 0.075473 -0.027792 -58335.500000 0 0 1
-3.278361 -25.733356 20.505863 33.067261 1.444082 0.901893 0.101253 -0.030245 -106667.000000 0 0 1
-3.146961 -24.567156 21.461663 32.772725 1.443394 0.856794 0.094227 -0.031224 -294899.000000 0 0 1
-2.578661 -24.834956 22.728463 33.763999 1.467335 0.832327 0.070939 -0.030439 -90775.400000 0 0 1
-2.453861 -23.673556 23.618163 33.530230 1.467511 0.789241 0.067476 -0.034225 714580.000000 0 0 1
-1.480161 -22.534156 23.080063 32.290376 1.505205 0.774507 0.070289 -0.040836 240823.000000 0 0 1
-2.119561 -21.674456 22.168563 31.076033 1.473316 0.776508 0.088895 -0.034525 -518136.000000 0 0 1
-1.287561 -20.714456 21.544663 29.915197 1.508719 0.766718 0.087655 -0.032374 -573972.000000 0 0 1
-2.017261 -19.533556 20.875163 28.660105 1.467890 0.754856 0.082384 -0.014168 -836644.000000 0 0 1
-2.822861 -18.729756 21.728763 28.825535 1.421207 0.716966 0.088932 -0.037102 287009.000000 0 0 1
-4.103361 -19.281456 22.007863 29.545866 1.361111 0.730455 0.103472 -0.039570 -497825.000000 0 0 1
-5.131961 -19.097556 20.867763 28.749213 1.308275 0.758520 0.090519 -0.052527 -1030390.000000 0 0 1
-5.123961 -20.000956 19.806663 28.611137 1.320004 0.806165 0.101648 -0.053357 -198673.000000 0 0 1
-5.673061 -21.304856 20.063763 29.809984 1.310555 0.832464 0.094547 -0.034592 137067.000000 0 0 1
-5.492061 -22.294256 18.824363 29.690963 1.329261 0.884069 0.074184 -0.029999 -108892.000000 0 0 1
-6.091261 -23.488256 19.079063 30.867658 1.317054 0.904483 0.061514 -0.024406 -490884.000000 0 0 1
-6.041861 -24.233156 17.872063 30.710920 1.326456 0.949678 0.056884 -0.026139 91339.100000 0 0 1
-6.711061 -25.626156 17.917563 31.980890 1.314665 0.976099 0.050457 -0.026425 229151.000000 0 0 1
-8.041061 -25.545456 18.388163 32.486206 1.265841 0.969114 0.069200 -0.023179 -489584.000000 0 0 1
-8.725061 -26.764956 18.181063 33.511799 1.255671 0.997354 0.069870 -0.024615 710928.000000 0 0 1
-10.279461 -26.629956 18.207563 33.857603 1.202407 1.003008 0.077936 -0.024606 -42534.600000 0 0 1
-10.756161 -26.066456 16.995063 32.923963 1.179438 1.028398 0.084377 -0.025437 -180105.000000 0 0 1
-12.154561 -25.932556 16.887363 33.247765 1.132502 1.038022 0.074857 -0.022742 438280.000000 0 0 1
-12.922761 -24.991056 17.862263 33.325833 1.093566 1.005118 0.078564 -0.015251 -533451.000000 0 0 1
-12.721961 -23.606556 17.571163 32.060312 1.076502 0.990746 0.076209 -0.017852 -205854.000000 0 0 1
-13.038161 -22.763956 18.636463 32.179328 1.050651 0.953118 0.073661 -0.005117 242845.000000 0 0 1
-11.898661 -22.104756 19.527063 31.804160 1.076992 0.909705 0.056312 -0.008434 844895.000000 0 0 1
-11.190861 -23.045656 20.339463 32.711335 1.118739 0.899775 0.064468 -0.012195 1032200.000000 0 0 1
-9.811361 -23.196856 19.910763 32.106003 1.170654 0.901853 0.070698 -0.022294 1218320.000000 0 0 1
-8.986961 -23.993656 20.940263 33.090114 1.212415 0.885600 0.066163 -0.022187 7942.320000 0 0 1
-8.736961 -23.399956 22.192363 33.412474 1.213451 0.844381 0.067649 -0.023507 62379.400000 0 0 1
-7.816261 -24.186456 22.931763 34.233673 1.258223 0.836776 0.064864 -0.025212 258241.000000 0 0 1
-7.803961 -23.795356 24.439863 34.991824 1.253888 0.797574 0.065650 -0.027345 69915.800000 0 0 1
-6.802561 -24.474656 25.156563 35.751033 1.299696 0.790261 0.076202 -0.029190 -85614.700000 0 0 1
-6.739761 -23.923256 26.467463 36.308032 1.296189 0.753980 0.078304 -0.027613 256999.000000 0 0 1
-5.534061 -24.563856 27.235763 37.091720 1.349203 0.746189 0.078587 -0.023507 1134140.000000 0 0 1
-4.317561 -24.027856 26.660663 36.149277 1.393004 0.741412 0.075039 -0.018280 1152110.000000 0 0 1
-3.165061 -24.368956 27.476663 36.862321 1.441638 0.729682 0.064020 -0.011373 1486840.000000 0 0 1
-1.865761 -23.592656 27.090063 35.971739 1.491878 0.718046 0.060913 -0.018810 50028.600000 0 0 1
-2.081661 -22.199756 27.100563 35.094202 1.477300 0.688463 0.068192 -0.017319 -376157.000000 0 0 1
-0.964661 -21.383356 26.871363 34.354747 1.525714 0.672650 0.079298 -0.020020 238005.000000 0 0 1
0.126739 -21.218156 27.982663 35.117740 -1.564823 0.648776 0.078929 -0.015748 197920.000000 0 0 1
0.875439 -22.397756 28.169963 35.999621 -1.531730 0.672114 0.075576 -0.022478 58970.500000 0 0 1
1.654139 -22.280956 29.371563 36.903468 -1.496692 0.650299 0.060834 -0.024206 291594.000000 0 0 1
2.321039 -23.648856 29.813263 38.124615 -1.472964 0.672936 0.079485 -0.034559 33021.800000 0 0 1
3.444039 -24.001856 28.993963 37.796831 -1.428279 0.696487 0.074438 -0.041689 361037.000000 0 0 1
4.011339 -25.204756 29.472163 38.986908 -1.412970 0.713692 0.067860 -0.031389 -484587.000000 0 0 1
5.166239 -24.913856 30.479163 39.703522 -1.366330 0.695601 0.056024 -0.031149 293130.000000 0 0 1
6.470339 -24.629256 29.966263 39.324833 -1.313892 0.704371 0.054600 -0.034358 670059.000000 0 0 1
7.133439 -25.717856 29.309363 39.640041 -1.300225 0.738636 0.054750 -0.034194 -654184.000000 0 0 1
8.357239 -25.202856 28.537563 38.979737 -1.250608 0.749378 0.050316 -0.033126 -238222.000000 0 0 1
8.063839 -24.256656 27.470963 37.524188 -1.249852 0.749416 0.056528 -0.030762 -253652.000000 0 0 1
9.205339 -23.928956 26.721463 37.032011 -1.203554 0.764718 0.032537 -0.017065 -225761.000000 0 0 1
9.012139 -22.744756 25.801963 35.556770 -1.193545 0.758810 0.046174 -0.012428 -146403.000000 0 0 1
8.254739 -23.080856 24.673463 34.779972 -1.227328 0.782127 0.053727 -0.013026 -148291.000000 0 0 1
8.046939 -21.958356 23.870763 33.417600 -1.219531 0.775149 0.039722 -0.009462 -87106.000000 0 0 1
7.344639 -22.116656 22.516563 32.405028 -1.250169 0.802588 0.047088 -0.007061 154622.000000 0 0 1
8.111439 -22.766256 21.473263 32.329536 -1.228527 0.844374 0.047827 -0.004024 478025.000000 0 0 1
7.468239 -22.704556 20.184863 31.284184 -1.253013 0.869498 0.058889 -0.009521 76637.000000 0 0 1
8.153839 -23.625656 19.190063 31.510558 -1.238470 0.915992 0.069389 -0.022218 -1653540.000000 0 0 1
9.405339 -23.282256 18.831763 31.387245 -1.186872 0.927318 0.067250 -0.024895 -1952460.000000 0 0 1
9.973039 -24.414656 18.177663 32.030679 -1.182996 0.967320 0.073707 -0.031385 -898518.000000 0 0 1
11.296039 -24.119456 17.548963 31.895372 -1.132798 0.988188 0.076626 -0.032853 -1028390.000000 0 0 1
11.179439 -23.098656 16.562063 30.542261 -1.120041 0.997663 0.088093 -0.021390 167409.000000 0 0 1
12.402939 -22.783956 15.884763 30.418206 -1.072285 1.021353 0.082047 -0.032250 499150.000000 0 0 1
-12.745161 22.462678 11.829163 28.406692 -1.054698 1.141290 0.019332 -0.014350 -270839.000000 0 0 1
-13.749661 21.675778 11.262763 28.031097 -1.005514 1.157320 0.008683 -0.016699 316414.000000 0 0 1
-13.098661 20.519778 10.684163 26.585477 -1.002659 1.157228 0.032305 -0.022226 162544.000000 0 0 1
-13.986261 19.759078 9.698263 26.078592 -0.954828 1.189756 0.045065 -0.023061 -435258.000000 0 0 1
-14.105061 20.446378 8.465563 26.242578 -0.966911 1.242333 0.049400 -0.025039 -1309.610000 0 0 1
-14.696061 19.704078 7.402563 25.671440 -0.929964 1.278285 0.041980 -0.023704 1041590.000000 0 0 1
-16.264161 19.550778 7.396663 26.485213 -0.876909 1.287757 0.043632 -0.019519 670828.000000 0 0 1
-16.726361 18.509878 8.213863 26.265078 -0.835971 1.252731 0.039461 -0.024459 -200553.000000 0 0 1
-18.053061 18.743278 8.625363 27.415696 -0.804154 1.250746 0.041883 -0.012430 -151150.000000 0 0 1
-18.545961 17.745678 9.692263 27.437233 -0.763350 1.209751 0.040983 -0.012555 -65059.800000 0 0 1
-18.851061 16.394578 9.209763 26.626386 -0.715815 1.217611 0.052255 -0.014561 56246.800000 0 0 1
-19.250161 15.552578 10.205063 26.769287 -0.679551 1.179678 0.059780 -0.021505 205280.000000 0 0 1
-18.089161 15.160178 11.226863 26.136014 -0.697534 1.126796 0.049219 -0.012280 427350.000000 0 0 1
-17.365961 14.192178 10.543063 24.782064 -0.685166 1.131358 0.039121 -0.003666 -376792.000000 0 1 0
-16.572561 13.287078 11.292563 24.056563 -0.675808 1.082166 0.025046 -0.008181 462482.000000 0 1 0
-17.403361 12.179678 12.042163 24.417929 -0.610623 1.055068 0.038279 -0.010069 -146885.000000 0 1 0
-18.140961 11.376578 11.218063 24.173662 -0.560123 1.088222 0.028343 -0.005350 -690342.000000 0 1 0
-19.151161 10.728478 11.925863 24.981862 -0.510640 1.073125 0.054368 -0.004712 337148.000000 0 1 0
-20.271061 10.052978 11.046563 25.179453 -0.460384 1.116630 0.068069 -0.006016 339622.000000 0 0 1
-19.838861 8.858478 10.398063 24.086776 -0.419957 1.124429 0.067124 -0.006998 438572.000000 0 1 0
-19.108661 9.059178 9.188463 23.057266 -0.442704 1.160909 0.063024 -0.003188 -425066.000000 0 1 0
-19.899161 9.473778 7.935963 23.424530 -0.444337 1.225167 0.070783 -0.009713 -201463.000000 0 1 0
-20.434861 8.367278 7.217663 23.231220 -0.388636 1.254879 0.059596 -0.018209 115146.000000 0 1 0
-21.166661 8.886678 6.170463 23.771311 -0.397495 1.308213 0.066921 -0.017803 -323057.000000 0 1 0
-21.520061 7.818278 5.152463 23.468839 -0.348476 1.349448 0.071941 -0.016865 -25826.500000 0 1 0
-22.241061 6.707678 5.689563 23.917125 -0.292915 1.330607 0.085918 -0.013174 469435.000000 0 1 0
-22.279861 5.573778 4.884063 23.480062 -0.245140 1.361257 0.102188 -0.003164 42127.000000 0 1 0
-23.195361 4.478978 5.486063 24.252483 -0.190750 1.342615 0.105237 -0.009411 713516.000000 0 1 0
-24.604561 4.741378 5.439863 25.640929 -0.190370 1.357016 0.148835 -0.000422 959327.000000 0 0 1
-25.295421 3.491378 5.503563 26.121586 -0.137158 1.358515 0.157520 -0.014650 -42836.700000 0 0 1
-26.364541 3.325078 4.399663 26.935148 -0.125457 1.406718 0.152704 -0.016528 -302812.000000 0 0 1
-25.851491 3.182578 3.100463 26.230541 -0.122494 1.452319 0.149355 -0.017804 131235.000000 0 0 1
-26.892051 3.233578 2.174063 27.172873 -0.119668 1.490702 0.142302 -0.022618 -379064.000000 0 0 1
-26.441611 3.030178 0.699763 26.623870 -0.114101 1.544510 0.147874 -0.032020 -160331.000000 0 0 1
-25.731721 4.164378 0.202963 26.067311 -0.160447 1.563010 0.140851 -0.036662 341375.000000 0 0 1
-25.798421 4.301578 -1.185637 26.181441 -0.165218 1.616097 0.147626 -0.036538 -348380.000000 0 0 1
-27.101671 4.909278 -1.746537 27.598043 -0.179200 1.634123 0.148538 -0.048857 420510.000000 0 0 1
-28.164001 3.947178 -1.650337 28.487099 -0.139243 1.628762 0.138860 -0.048709 259593.000000 0 0 1
-29.431361 4.554878 -1.756737 29.833506 -0.153545 1.629715 0.120138 -0.029086 -765305.000000 0 0 1
-30.595611 3.602478 -1.708137 30.854287 -0.117205 1.626186 0.109909 -0.023584 -1004460.000000 0 0 1
-30.718221 2.959878 -2.966037 31.002699 -0.096059 1.666613 0.117652 -0.033345 45927.200000 0 0 1
-31.570781 1.870878 -2.998837 31.768025 -0.059191 1.665335 0.133778 -0.038242 -615923.000000 0 0 1
-31.851841 1.294978 -4.407737 32.181437 -0.040634 1.708193 0.129806 -0.053317 -215332.000000 0 0 1
-30.656001 1.002678 -5.108137 31.094836 -0.032696 1.735820 0.148046 -0.050146 346207.000000 0 0 1
-30.823121 0.145178 -6.213137 31.443425 -0.004710 1.769703 0.147151 -0.049463 -135813.000000 0 0 1
-31.289641 0.908478 -7.513837 32.191998 -0.029026 1.806376 0.143797 -0.045010 649222.000000 0 0 1
-32.646871 1.370278 -7.433237 33.510429 -0.041948 1.794475 0.143271 -0.051674 1045360.000000 0 0 1
-33.134781 2.130178 -8.549237 34.286161 -0.064200 1.822805 0.153490 -0.038767 257704.000000 0 0 1
-34.684336 2.244378 -8.588537 35.802282 -0.064619 1.813047 0.169491 -0.032342 308378.000000 0 0 1
-35.181656 2.868778 -7.436137 36.073188 -0.081362 1.778425 0.144057 -0.026632 1628550.000000 0 0 1
-36.631621 3.025278 -7.414337 37.496671 -0.082400 1.769841 0.139649 -0.015608 1409100.000000 0 0 1
36.606138 3.896378 -6.249837 37.339678 0.106041 1.738966 0.159922 -0.027859 894549.000000 0 0 1
35.182008 3.712778 -6.070037 35.894342 0.105141 1.740721 0.161204 -0.030666 1343630.000000 0 0 1
34.617328 4.490278 -5.017937 35.266155 0.128992 1.713568 0.152585 -0.026628 -585324.000000 0 0 1
33.272738 3.941278 -4.584237 33.817510 0.117904 1.706773 0.156808 -0.031973 -775874.000000 0 0 1
33.282818 2.700778 -4.011037 33.632255 0.080969 1.690342 0.159434 -0.037380 283154.000000 0 0 1
32.164628 1.895878 -4.403737 32.520002 0.058875 1.706630 0.184200 -0.042610 468517.000000 0 0 1
32.149098 0.572178 -3.627437 32.358155 0.017796 1.683135 0.205052 -0.035656 -660273.000000 0 0 1
33.202588 -0.217222 -3.993637 33.442610 -0.006542 1.690500 0.161517 -0.039325 -680384.000000 0 0 1
33.010518 -1.518122 -3.466337 33.226713 -0.045957 1.675310 0.166376 -0.033366 -360715.000000 0 0 1
34.181918 -2.444922 -3.742937 34.473044 -0.071405 1.679587 0.150318 -0.038199 -376076.000000 0 0 1
33.947588 -3.797722 -3.511637 34.339380 -0.111407 1.673238 0.137579 -0.040466 263261.000000 0 0 1
35.203658 -4.468322 -3.464837 35.654853 -0.126253 1.668127 0.141717 -0.037005 478671.000000 0 0 1
35.151528 -5.907922 -3.104337 35.779469 -0.166514 1.657669 0.134141 -0.031496 35152.400000 0 0 1
34.780208 -6.047122 -1.735237 35.344612 -0.172146 1.619911 0.153108 -0.020103 17457.500000 0 0 1
34.579978 -7.375022 -1.345237 35.383266 -0.210126 1.608824 0.142591 -0.029438 22427.800000 0 0 1
34.258658 -7.381222 0.170363 35.045215 -0.212212 1.565935 0.134511 -0.022562 -564218.000000 0 0 1
32.955608 -7.094522 0.581463 33.715611 -0.212039 1.553549 0.112189 -0.031613 -520464.000000 0 0 1
32.571178 -7.677522 1.847063 33.514738 -0.231490 1.515656 0.102493 -0.030203 -343109.000000 0 0 1
32.235568 -9.204422 1.848563 33.574848 -0.278135 1.515710 0.112857 -0.034577 -410424.000000 0 0 1
30.969988 -9.564222 1.392763 32.443093 -0.299531 1.527854 0.102698 -0.044082 355660.000000 0 0 1
29.825968 -9.350122 2.229863 31.336647 -0.303786 1.499578 0.092438 -0.048989 219320.000000 0 0 1
28.657058 -10.341522 1.939263 30.527607 -0.346327 1.507229 0.112886 -0.044272 -273367.000000 0 0 1
27.440458 -10.125522 2.610663 29.365294 -0.353500 1.481776 0.144893 -0.048863 641071.000000 0 0 1
26.554458 -9.126022 2.123563 28.159067 -0.331026 1.495312 0.144250 -0.044893 -45103.900000 0 0 1
25.835658 -9.255222 0.767363 27.454129 -0.343992 1.542842 0.128848 -0.040053 -445794.000000 0 0 1
26.817858 -9.178322 -0.250437 28.346108 -0.329751 1.579631 0.118000 -0.042840 432820.000000 0 0 1
26.361758 -9.320222 -1.577437 28.005305 -0.339835 1.627153 0.108395 -0.033746 -392093.000000 0 0 1
25.768858 -10.677122 -2.040137 27.967788 -0.392809 1.643807 0.098280 -0.028341 -919248.000000 0 0 1
24.450758 -10.846722 -1.647737 26.799365 -0.417531 1.632319 0.116463 -0.026680 -712279.000000 0 0 1
23.961758 -12.083522 -2.024237 26.912356 -0.467069 1.646083 0.097007 -0.019351 -170939.000000 0 0 1
22.530358 -12.425322 -1.570037 25.777329 -0.503988 1.631742 0.112515 -0.020987 -339574.000000 0 0 1
21.543658 -11.945522 -2.430137 24.753389 -0.506276 1.669129 0.098200 -0.017035 361419.000000 0 1 0
20.268658 -12.442022 -2.020637 23.868502 -0.550545 1.655555 0.115798 -0.016420 605837.000000 0 1 0
18.961058 -11.951522 -2.681237 22.573206 -0.562415 1.689857 0.095966 -0.015474 280161.000000 0 1 0
18.912058 -12.423222 -4.013837 22.980715 -0.581207 1.746358 0.084589 -0.023228 302960.000000 0 1 0
17.789458 -11.865722 -4.651937 21.883800 -0.588239 1.785005 0.071317 -0.025997 -270838.000000 0 1 0
17.817758 -12.226722 -6.132237 22.462626 -0.601411 1.847304 0.072292 -0.032963 -302741.000000 0 1 0
17.557258 -13.572022 -6.483137 23.119000 -0.658069 1.855033 0.089136 -0.029852 398875.000000 0 1 0
17.457558 -13.727022 -7.881737 23.565212 -0.666336 1.911834 0.070032 -0.031606 -443712.000000 0 1 0
16.942158 -15.151122 -8.243337 24.177382 -0.729649 1.918726 0.078414 -0.027474 284581.000000 0 1 0
15.545558 -15.302722 -7.964937 23.222358 -0.777526 1.920890 0.087457 -0.025914 1059570.000000 0 1 0
14.828758 -16.298422 -8.695537 23.688457 -0.832578 1.946663 0.083242 -0.025171 88735.300000 0 1 0
14.679558 -16.064722 -10.274237 24.065009 -0.830422 2.011899 0.083589 -0.028060 -291183.000000 0 1 0
13.657458 -15.186522 -10.757137 23.084033 -0.838360 2.055560 0.082632 -0.019497 729867.000000 0 1 0
13.799458 -13.840822 -10.293037 22.089364 -0.786895 2.055530 0.078879 -0.024137 -342463.000000 0 1 0
13.654558 -12.885922 -11.488237 22.010759 -0.756445 2.119917 0.084873 -0.009912 -357054.000000 0 1 0
14.727158 -12.833222 -12.399637 23.137238 -0.716787 2.136390 0.083599 -0.012731 -78831.500000 0 1 0
14.446058 -12.240822 -13.648237 23.340966 -0.702952 2.195347 0.099369 -0.018634 -222982.000000 0 1 0
15.659958 -11.881622 -14.540937 24.450891 -0.649063 2.207688 0.090167 -0.025755 261104.000000 0 1 0
16.432058 -12.970722 -15.027937 25.769964 -0.668216 2.193406 0.087713 -0.019310 -52842.700000 0 0 1
17.530958 -12.528822 -15.753937 26.692553 -0.620503 2.202103 0.088118 -0.021269 -638635.000000 0 0 1
18.604158 -13.564422 -16.097637 28.093454 -0.629995 2.180962 0.081039 -0.017680 -776018.000000 0 0 1
19.547258 -13.702322 -15.084437 28.238080 -0.611386 2.134343 0.070324 -0.023879 -683700.000000 0 0 1
20.531858 -14.629622 -15.420137 29.552727 -0.619088 2.119737 0.069480 -0.025285 -950753.000000 0 0 1
21.587458 -14.623322 -14.337237 29.755945 -0.595396 2.073536 0.062726 -0.030200 -991514.000000 0 0 1
22.421058 -13.511622 -14.408437 29.880944 -0.542352 2.073955 0.063219 -0.022592 -448809.000000 0 0 1
23.224458 -13.454922 -13.257937 29.936320 -0.525092 2.029595 0.052909 -0.017966 -34423.100000 0 0 1
24.179658 -12.261422 -13.277437 30.187558 -0.469309 2.026207 0.066347 -0.016227 -557905.000000 0 0 1
23.446458 -11.081522 -13.061537 29.036878 -0.441514 2.037367 0.061430 -0.007884 56211.700000 0 0 1
24.103558 -9.841222 -13.037837 29.117286 -0.387632 2.035066 0.074867 -0.014384 -244271.000000 0 0 1
25.076858 -9.395422 -11.905837 29.306513 -0.358477 1.989145 0.068569 -0.012136 1248130.000000 0 0 1
26.402158 -9.934322 -12.125537 30.704940 -0.359883 1.976761 0.078054 -0.011324 689598.000000 0 0 1
27.289658 -9.525222 -11.144137 30.978171 -0.335821 1.938787 0.084259 -0.008589 -117475.000000 0 0 1
28.712038 -10.150422 -11.313437 32.487013 -0.339812 1.926494 0.096701 -0.010399 301523.000000 0 0 1
29.399688 -9.538822 -12.354537 33.286114 -0.313737 1.951056 0.085989 -0.014799 -1221470.000000 0 0 1
30.681628 -9.993622 -12.526337 34.614215 -0.314883 1.941085 0.081132 -0.015403 -962520.000000 0 0 1
31.315098 -9.618122 -13.863237 35.571519 -0.297994 1.971133 0.070967 -0.009389 -114598.000000 0 0 1
30.769898 -10.345122 -14.957537 35.742637 -0.324337 2.002566 0.065206 -0.013200 607947.000000 0 0 1
31.557688 -10.058422 -16.119337 36.836022 -0.308552 2.023721 0.053601 -0.016020 69190.400000 0 0 1
31.065888 -10.821622 -17.367637 37.199889 -0.335199 2.056548 0.024486 -0.004629 189783.000000 0 0 1
29.791328 -10.448522 -17.854437 36.269488 -0.337319 2.085494 0.030579 -0.009368 352321.000000 0 0 1
29.843928 -9.306122 -18.629037 36.391001 -0.302271 2.108207 0.013899 -0.003260 -262207.000000 0 0 1
28.417558 -8.888022 -19.047837 35.346494 -0.303126 2.139914 -0.013496 -0.004295 232715.000000 0 0 1
27.838058 -9.689922 -20.082537 35.667357 -0.334965 2.168869 -0.014442 0.013093 1484550.000000 0 0 1
26.415758 -9.505222 -20.274137 34.629209 -0.345406 2.196248 0.031941 0.014099 1217350.000000 0 0 1
25.953558 -9.815622 -21.715437 35.234838 -0.361573 2.234839 0.054541 -0.003832 -128244.000000 0 0 1
25.903758 -11.201822 -21.866637 35.702035 -0.408156 2.229985 0.055557 -0.007108 346641.000000 0 0 1
25.427258 -11.525522 -23.194137 36.295331 -0.425573 2.264045 0.069905 -0.016795 -595954.000000 0 0 1
25.507058 -13.033622 -23.643337 37.141522 -0.472394 2.260844 0.073871 -0.012826 735472.000000 0 0 1
26.722958 -13.558622 -24.200237 38.517583 -0.469532 2.250150 0.063104 -0.008860 1203850.000000 0 0 1
27.847658 -13.536722 -23.287637 38.743373 -0.452465 2.215641 0.036976 -0.000407 604276.000000 0 0 1
29.211838 -13.909622 -23.926437 40.240321 -0.444398 2.207550 0.024104 0.001198 109042.000000 0 0 1
29.622908 -13.224622 -25.053377 40.988767 -0.419883 2.228404 0.021739 -0.013439 -215988.000000 0 0 1
30.909218 -13.715122 -25.356687 42.266368 -0.417621 2.214205 -0.009936 -0.004976 91957.900000 0 0 1
31.532458 -13.019822 -26.677857 43.307271 -0.391579 2.234468 0.009258 -0.010313 169991.000000 0 0 1
31.063018 -13.381922 -27.980867 43.896649 -0.406772 2.261949 0.014076 -0.013302 593345.000000 0 0 1
32.083248 -13.182622 -28.994527 45.208394 -0.389857 2.267056 0.015688 -0.016273 451601.000000 0 0 1
31.960448 -13.996422 -30.310037 46.217620 -0.412771 2.286053 0.024898 -0.018878 -107371.000000 0 0 1
32.366518 -15.321422 -30.179047 46.830677 -0.442120 2.271073 0.021004 -0.023050 -97052.300000 0 0 1
32.527818 -16.117322 -31.368807 47.977381 -0.460036 2.283425 0.016515 -0.016795 -437622.000000 0 0 1
31.240088 -16.669822 -31.943967 47.689025 -0.490168 2.304788 0.013073 -0.015634 -492752.000000 0 0 1
30.534118 -15.817822 -32.806387 47.526780 -0.477973 2.332661 0.011266 -0.017319 313008.000000 0 0 1
29.309998 -16.466522 -33.204577 47.252156 -0.511862 2.349996 0.019072 -0.015089 561354.000000 0 0 1
28.539258 -15.593722 33.853578 46.943777 -0.500072 0.765333 0.058915 -0.016648 -347931.000000 0 0 1
27.899958 -14.432622 -33.692037 46.063669 -0.477391 2.391203 0.072897 -0.024717 300267.000000 0 0 1
28.766278 -13.340622 -33.369257 46.032361 -0.434237 2.381698 0.071253 -0.025710 -233182.000000 0 0 1
27.965358 -12.103922 -33.170027 45.042389 -0.408474 2.398557 0.088881 -0.032473 -138810.000000 0 0 1
27.270758 -11.598922 33.761145 44.922646 -0.402145 0.720404 0.120148 -0.041423 -64033.800000 0 0 1
26.512058 -10.496522 -33.861407 44.268059 -0.376980 2.441709 0.080115 -0.036331 -79605.300000 0 0 1
21.019439 -29.895656 8.773263 37.583736 -0.957997 1.335190 0.061736 -0.025363 182809.000000 0 0 1
21.807839 -29.132456 7.827963 37.223096 -0.928208 1.358916 0.072156 -0.021105 1084190.000000 0 0 1
23.097839 -29.759156 7.633063 38.436717 -0.910763 1.370880 0.076708 -0.016766 1173310.000000 0 0 1
23.683639 -29.440356 6.206063 38.290528 -0.893341 1.408000 0.064193 -0.011224 201514.000000 0 0 1
24.085439 -28.103756 5.998763 37.495528 -0.862242 1.410120 0.063449 -0.003074 223753.000000 0 0 1
24.778439 -27.862056 4.774763 37.590738 -0.843910 1.443433 0.041451 0.005386 141279.000000 0 0 1
24.856939 -26.385356 4.432763 36.519910 -0.815217 1.449117 0.036453 0.003282 583390.000000 0 0 1
25.834239 -25.694456 5.237063 36.810865 -0.782685 1.428042 0.035928 -0.001546 585105.000000 0 0 1
25.591639 -24.333156 5.089263 35.678216 -0.760196 1.427665 0.034310 0.003161 -96024.600000 0 0 1
26.420539 -23.435956 5.981163 35.819872 -0.725606 1.403032 0.035887 -0.004038 -341379.000000 0 0 1
27.801439 -23.342256 5.710963 36.747735 -0.698429 1.414754 0.021335 0.001275 -145321.000000 0 0 1
28.485439 -22.446156 6.565863 36.855945 -0.667373 1.391691 0.038967 -0.013455 216115.000000 0 0 1
28.079839 -20.922656 6.533563 35.621936 -0.640366 1.386338 0.037889 -0.012586 -318527.000000 0 0 1
28.249539 -20.236156 5.307863 35.152694 -0.621606 1.419222 0.039226 -0.001729 -984.863000 0 0 1
27.683339 -18.960256 5.480163 33.998393 -0.600518 1.408901 0.053859 -0.004955 -58455.100000 0 0 1
27.591839 -18.143056 4.177563 33.285614 -0.581666 1.444958 0.061342 -0.003228 -1060200.000000 0 0 1
28.806639 -17.775556 3.673763 34.048339 -0.552873 1.462687 0.081444 -0.009278 -732781.000000 0 0 1
28.601439 -17.080356 2.470363 33.404843 -0.538347 1.496777 0.079373 -0.002324 343447.000000 0 0 1
29.842239 -16.145856 2.385563 34.013803 -0.495938 1.500604 0.093133 -0.023490 390237.000000 0 0 1
29.773439 -15.021156 3.138263 33.495395 -0.467253 1.476966 0.100361 -0.032261 -97756.100000 0 0 1
31.059939 -14.691256 3.596263 34.546866 -0.441813 1.466509 0.095489 -0.034279 -53867.300000 0 0 1
31.022339 -13.487656 4.571163 34.134995 -0.410119 1.436479 0.112179 -0.035147 175326.000000 0 0 1
30.440339 -13.771156 5.816763 33.913032 -0.424847 1.398424 0.090348 -0.027289 -105144.000000 0 0 1
30.261039 -12.648156 6.587863 33.453046 -0.395900 1.372572 0.082599 -0.027035 -162033.000000 0 0 1
30.005639 -12.806856 8.108163 33.616904 -0.403407 1.327201 0.097249 -0.019198 924069.000000 0 0 1
28.603039 -13.039956 8.438563 32.548174 -0.427745 1.308536 0.081338 -0.011152 1280610.000000 0 0 1
28.361439 -13.022056 9.852463 32.726384 -0.430434 1.264997 0.095833 -0.005804 73417.900000 0 0 1
28.647839 -14.294756 10.579763 33.718987 -0.462833 1.251643 0.087653 -0.008238 -545201.000000 0 0 1
29.862939 -14.248956 11.280763 34.958311 -0.445197 1.242224 0.067223 0.000285 -290856.000000 0 0 1
30.089739 -15.419456 11.968963 35.866532 -0.473557 1.230562 0.066903 -0.007844 -86932.100000 0 0 1
30.971339 -15.197956 13.206363 36.940624 -0.456188 1.205204 0.066305 -0.004285 281940.000000 0 0 1
32.350539 -15.009656 12.948963 37.941044 -0.434410 1.222506 0.048782 -0.002439 109101.000000 0 0 1
33.085639 -14.834856 14.136663 38.917576 -0.421504 1.199047 0.038001 -0.003145 -49542.900000 0 0 1
34.604739 -14.696556 13.935863 40.095947 -0.401615 1.215826 0.050371 -0.004387 -194737.000000 0 0 1
35.063939 -13.392256 13.586763 39.917821 -0.364840 1.223488 0.057940 -0.007541 -34035.000000 0 0 1
36.406039 -13.486456 13.173463 40.997857 -0.354772 1.243672 0.056586 -0.004303 -440813.000000 0 0 1
-36.693181 -12.095056 13.104863 40.797271 0.318411 1.243780 0.065711 -0.011701 -763738.000000 0 0 1
-35.507281 -12.011456 12.378163 39.474815 0.326197 1.251845 0.075914 -0.011073 -718102.000000 0 0 1
-34.819781 -10.808856 12.577363 38.567325 0.300991 1.238606 0.068941 -0.016091 294461.000000 0 0 1
-33.498581 -10.721656 11.740963 37.080440 0.309760 1.248617 0.069572 -0.011767 252295.000000 0 0 1
-32.475181 -11.653556 12.036163 36.541921 0.344533 1.235150 0.061765 -0.011676 213766.000000 0 0 1
-32.741181 -12.971956 11.579563 37.072130 0.377224 1.253128 0.058379 -0.015040 -443064.000000 0 0 1
-31.703681 -14.026756 12.076463 36.711228 0.416543 1.235596 0.034667 -0.014069 168435.000000 0 0 1
-30.419381 -13.920256 11.536563 35.386502 0.429166 1.238710 0.043039 -0.011994 -272239.000000 0 0 1
-29.586081 -15.024956 11.934963 35.263704 0.469899 1.225528 0.043462 -0.001078 952097.000000 0 0 1
-28.135581 -14.943656 11.352763 33.820245 0.488241 1.228470 0.036359 0.009318 523946.000000 0 0 1
-28.113581 -15.065856 9.926963 33.405060 0.491948 1.269070 0.040326 0.007634 497727.000000 0 0 1
-26.765181 -15.041456 9.455763 32.125251 0.511993 1.272031 0.041409 0.008755 555314.000000 0 0 1
-26.682381 -14.791656 7.939063 31.524138 0.506185 1.316214 0.071417 0.009231 -20528.600000 0 0 1
-27.085881 -15.789556 7.029963 32.130599 0.527784 1.350219 0.073653 0.008619 158216.000000 0 0 1
-26.839281 -15.364756 5.695063 31.446088 0.519933 1.388686 0.084419 -0.001153 -261273.000000 0 0 1
-27.261381 -16.317256 4.509663 32.090073 0.539351 1.429798 0.075053 -0.006075 -106075.000000 0 0 1
-28.643881 -16.577256 4.529463 33.403493 0.524638 1.434779 0.057084 -0.011008 -77001.800000 0 0 1
-29.117781 -17.426556 3.480563 34.112232 0.539305 1.468586 0.054042 -0.011108 202001.000000 0 0 1
-30.559881 -17.951656 3.643863 35.629286 0.531122 1.468346 0.075030 -0.014957 684041.000000 0 0 1
-31.624081 -17.104856 3.185063 36.094366 0.495815 1.482439 0.086585 -0.018699 910465.000000 0 0 1
-32.916081 -17.644856 3.454563 37.506577 0.492075 1.478560 0.093088 -0.019435 -260441.000000 0 0 1
-34.037281 -16.873556 2.843863 38.096469 0.460232 1.496078 0.098500 -0.031698 -729190.000000 0 0 1
-34.167281 -16.881856 1.379063 38.135311 0.458912 1.534626 0.107593 -0.026141 159325.000000 0 0 1
-35.232181 -16.033556 0.958563 38.720800 0.427073 1.546038 0.120202 -0.033653 603427.000000 0 0 1
-35.912581 -16.543056 -0.369737 39.541407 0.431673 1.580147 0.114468 -0.035739 130463.000000 0 0 1
-34.935381 -16.575356 -1.386637 38.692971 0.443006 1.606641 0.121186 -0.033010 311173.000000 0 0 1
-35.298881 -17.575756 -2.293537 39.499095 0.461976 1.628895 0.114383 -0.021188 -502343.000000 0 0 1
-34.153581 -18.036056 -3.158437 38.752318 0.485864 1.652390 0.095180 -0.022213 -531641.000000 0 0 1
-34.516981 -19.057956 -4.114837 39.642900 0.504479 1.674781 0.094099 -0.028582 116838.000000 0 0 1
-33.381381 -19.576256 -4.759037 38.989676 0.530391 1.693160 0.075555 -0.020176 -155961.000000 0 0 1
-33.827881 -20.684956 -5.711037 40.060066 0.548815 1.713846 0.092394 -0.022333 111660.000000 0 0 1
-34.411781 -21.799056 -5.028737 41.044582 0.564672 1.693624 0.111145 -0.029347 59365.200000 0 0 1
-34.538781 -22.838056 -5.983437 41.836655 0.584229 1.714307 0.098689 -0.024498 -93810.400000 0 0 1
-35.331181 -24.061656 -5.567637 43.107473 0.597882 1.700315 0.108109 -0.028858 -65444.000000 0 0 1
-34.666681 -24.853456 -4.585637 42.901062 0.621996 1.677890 0.109885 -0.031881 -177947.000000 0 0 1
-35.051281 -26.191056 -4.723837 44.009980 0.641720 1.678339 0.095918 -0.016185 198486.000000 0 0 1
-34.067381 -27.190956 -4.046437 43.775657 0.673613 1.663364 0.085107 -0.023878 -56992.600000 0 0 1
-32.933181 -27.411056 -4.845137 43.121175 0.694142 1.683395 0.084530 -0.026517 731940.000000 0 0 1
-32.024981 -28.504156 -4.510337 43.109505 0.727296 1.675613 0.080793 -0.021101 1345440.000000 0 0 1
-31.021681 -28.389456 -3.302037 42.180675 0.741122 1.649160 0.078817 -0.023769 -205853.000000 0 0 1
-31.676381 -28.427256 -2.090837 42.613068 0.731392 1.619882 0.072439 -0.023012 200042.000000 0 0 1
-30.789581 -28.130756 -1.018737 41.717809 0.740303 1.595218 0.065678 -0.028383 364465.000000 0 0 1
-31.646281 -28.002256 0.274963 42.257414 0.724382 1.564289 0.065025 -0.025429 474317.000000 0 0 1
-32.162581 -29.255656 0.714263 43.483735 0.738103 1.554370 0.061123 -0.017760 -366309.000000 0 0 1
-33.116381 -29.079556 1.704463 44.104654 0.720584 1.532141 0.070812 -0.016321 -577177.000000 0 0 1
-33.504981 -30.365056 2.453863 45.284013 0.736277 1.516581 0.050308 -0.008622 -371890.000000 0 0 1
-34.587081 -30.168456 3.339363 46.016880 0.717268 1.498164 0.041508 -0.008937 214202.000000 0 0 1
-34.982181 -31.464256 3.978563 47.218443 0.732504 1.486438 0.038062 -0.003518 399672.000000 0 0 1
-36.141481 -32.181756 3.209463 48.499203 0.727507 1.504572 0.024701 -0.000323 161361.000000 0 0 1
-36.796781 -33.232956 3.910163 49.736524 0.734552 1.492098 0.050426 -0.008373 -219894.000000 0 0 1
36.006039 -33.890556 3.061263 49.541659 -0.755142 1.508965 0.050479 -0.006231 -906473.000000 0 0 1
34.967239 33.412778 3.844963 48.517062 0.762669 1.491463 0.052052 -0.003881 171909.000000 0 0 1
34.009439 34.060178 4.705963 48.362007 0.786144 1.473335 0.050503 -0.002229 837715.000000 0 0 1
33.369139 -32.840356 4.355663 47.020849 -0.777412 1.478031 0.043113 -0.000293 261477.000000 0 0 1
32.319139 -32.967956 3.145463 46.274257 -0.795336 1.502770 0.046801 0.005976 83960.600000 0 0 1
32.829739 -33.474356 1.895063 46.924573 -0.795120 1.530400 0.053392 0.000492 162613.000000 0 0 1
31.906639 -33.275456 0.800263 46.107809 -0.806395 1.553439 0.050012 0.003296 -305402.000000 0 0 1
32.351639 -34.031356 -0.526537 46.957843 -0.810696 1.582010 0.055310 0.001399 783538.000000 0 0 1
33.438939 -33.554356 -1.324637 47.390000 -0.787121 1.598752 0.045259 0.013422 527807.000000 0 0 1
34.699539 -33.462256 -0.654937 48.210056 -0.767248 1.584382 0.045908 0.007290 357221.000000 0 0 1
35.879639 -33.175756 -1.640537 48.894485 -0.746263 1.604355 0.033170 0.013509 397067.000000 0 0 1
36.350139 33.857278 -2.425437 49.734602 0.749906 1.619583 0.036919 0.002062 135246.000000 0 0 1
-36.496681 -33.867256 -3.480837 49.911071 0.748047 1.640594 0.042593 0.000585 -142400.000000 0 0 1
-35.632281 33.115978 -4.055537 48.813674 -0.748813 1.653974 0.044775 -0.006110 94709.100000 0 0 1
-34.497381 32.692478 -3.334637 47.644383 -0.758542 1.640844 0.060020 -0.007610 -93119.000000 0 0 1
-33.800281 31.667478 -4.044037 46.493466 -0.752832 1.657887 0.072729 -0.018152 -111170.000000 0 0 1
-32.509481 31.162878 -3.403737 45.161673 -0.764252 1.646236 0.086073 -0.022039 -723062.000000 0 0 1
-31.477081 32.110878 -3.384337 45.092891 -0.795365 1.645920 0.053867 -0.022228 -609930.000000 0 0 1
-30.245581 31.605578 -2.937737 43.844475 -0.807383 1.637850 0.070098 -0.021433 173493.000000 0 0 1
-29.888381 31.290678 -1.480137 43.296797 -0.808315 1.604989 0.043020 -0.012778 -665661.000000 0 0 1
-30.815181 30.426578 -0.915137 43.315003 -0.779053 1.591925 0.040146 -0.008532 -653722.000000 0 0 1
-30.551981 30.096378 0.416263 42.888096 -0.777886 1.561090 0.038761 -0.006781 -232622.000000 0 0 1
-31.655481 29.296778 1.138063 43.147026 -0.746720 1.544417 0.050139 -0.011055 -328714.000000 0 0 1
-31.883881 27.999178 0.579763 42.436682 -0.720617 1.557134 0.056387 -0.021586 184351.000000 0 0 1
-33.016881 27.956678 -0.275537 43.263913 -0.702598 1.577165 0.075736 -0.021968 33736.200000 0 0 1
-33.347281 26.590978 -0.860237 42.659832 -0.673151 1.590963 0.100099 -0.024565 32018.800000 0 0 1
-33.617381 25.570478 0.105263 42.237291 -0.650271 1.568304 0.106926 -0.028991 -14524.700000 0 0 1
-33.939581 24.275678 -0.464837 41.730322 -0.620895 1.581936 0.102551 -0.024109 -377771.000000 0 0 1
-33.846881 23.161578 0.569963 41.017007 -0.600114 1.556900 0.111066 -0.028098 -266351.000000 0 0 1
-32.578881 22.861078 1.091163 39.814608 -0.611876 1.543387 0.130397 -0.034735 -171242.000000 0 0 1
-32.113281 23.844978 2.053763 40.050764 -0.638701 1.519495 0.113552 -0.034588 -296957.000000 0 0 1
-30.602981 23.670878 2.425063 38.765111 -0.658361 1.508198 0.095084 -0.038548 770846.000000 0 0 1
-29.706581 24.453878 1.644163 38.512029 -0.688716 1.528091 0.096923 -0.035224 -12163.100000 0 0 1
-29.624981 25.834378 1.971663 39.356601 -0.717155 1.520678 0.066130 -0.029356 -124824.000000 0 0 1
-28.809181 26.727778 0.968363 39.310059 -0.747938 1.546160 0.025878 -0.020079 -355362.000000 0 0 1
-27.475981 26.383778 0.777263 38.100360 -0.765122 1.550394 0.016095 -0.016477 -736805.000000 0 0 1
-26.882281 27.229778 -0.207837 38.264357 -0.791820 1.576228 0.010419 -0.004215 429184.000000 0 0 1
-25.716981 26.566178 -0.970537 36.987388 -0.801639 1.597039 0.017188 -0.007343 124803.000000 0 0 1
-26.225581 25.416778 -1.746337 36.562869 -0.769738 1.618577 0.044339 -0.019697 847314.000000 0 0 1
-25.113281 24.775878 -2.378937 35.357889 -0.778635 1.638129 0.032465 -0.007969 972438.000000 0 0 1
-24.295181 23.653078 -1.626537 33.946569 -0.772007 1.618729 0.011768 -0.000591 552215.000000 0 0 1
-25.016081 22.412378 -1.394537 33.616420 -0.730556 1.612292 0.041081 -0.008761 -190166.000000 0 0 1
-24.140881 21.504778 -0.833137 32.340868 -0.727711 1.596560 0.026044 -0.013436 -1041290.000000 0 0 1
-24.733681 20.120778 -0.437437 31.887176 -0.682917 1.584515 0.045364 -0.012299 -65841.100000 0 0 1
-25.623381 20.068978 0.696663 32.554675 -0.664431 1.549395 0.051776 -0.019017 1253560.000000 0 0 1
-26.890281 20.741978 0.562763 33.965181 -0.657029 1.554227 0.043225 -0.022390 431648.000000 0 0 1
-27.899181 20.323478 -0.529037 34.520833 -0.629573 1.586122 0.051151 -0.029645 -876145.000000 0 0 1
-28.274081 19.011378 -0.237737 34.072168 -0.591959 1.577774 0.058428 -0.032802 -81058.300000 0 0 1
-29.024681 18.484078 -1.296837 34.435084 -0.567068 1.608466 0.075612 -0.027035 -219220.000000 0 0 1
-29.446381 17.023478 -1.087537 34.030440 -0.524174 1.602760 0.062656 -0.023099 -232225.000000 0 0 1
-30.383181 16.811578 -0.065437 34.724215 -0.505387 1.572681 0.071170 -0.028332 208283.000000 0 0 1
-30.620081 15.414378 0.102663 34.281233 -0.466370 1.567802 0.081893 -0.031521 -168950.000000 0 0 1
-29.470981 14.614878 0.760363 32.904582 -0.460368 1.547686 0.105976 -0.035736 -495551.000000 0 0 1
-29.272681 14.820878 2.123263 32.879424 -0.468678 1.506174 0.117124 -0.035850 162524.000000 0 0 1
-28.028781 14.283778 2.555563 31.562157 -0.471307 1.489738 0.132852 -0.032438 209477.000000 0 0 1
-27.786481 12.723178 2.469563 30.660504 -0.429397 1.490164 0.152217 -0.039311 -431329.000000 0 0 1
-27.494781 12.314578 1.148363 30.148475 -0.421096 1.532697 0.132048 -0.042364 335812.000000 0 0 1
-26.771681 11.100078 1.094663 29.002291 -0.393046 1.533043 0.159930 -0.037486 -51850.500000 0 0 1
-26.733881 10.458378 -0.310337 28.708437 -0.372900 1.581606 0.140547 -0.031285 -31565.700000 0 0 1
-27.838181 9.632278 -0.637337 29.464407 -0.333115 1.592429 0.127341 -0.033008 304869.000000 0 0 1
-27.606681 9.019878 -1.899737 29.104914 -0.315794 1.636115 0.126765 -0.039957 296810.000000 0 0 1
-28.951381 8.702078 -2.609637 30.343349 -0.291985 1.656906 0.123319 -0.047639 85027.300000 0 0 1
-28.787181 8.405378 -3.977837 30.251865 -0.284086 1.702669 0.116626 -0.040127 -883419.000000 0 0 1
-29.984981 8.144378 -4.572637 31.406034 -0.265217 1.716913 0.106919 -0.041692 -1186380.000000 0 0 1
-11.261461 17.524178 -19.417737 28.477462 -0.999624 2.321103 0.120058 -0.034158 75088.300000 0 0 1
-11.645761 16.726078 -20.569537 28.956714 -0.962582 2.360798 0.122105 -0.034555 -284976.000000 0 0 1
-10.825761 16.849878 -21.698437 29.528590 -0.999724 2.396209 0.110203 -0.030046 -206836.000000 0 0 1
-10.892361 15.588578 -22.529037 29.482279 -0.960917 2.440527 0.098386 -0.019530 195689.000000 0 0 1
-10.083461 14.460178 -22.124337 28.288853 -0.961867 2.468804 0.125547 -0.027177 323357.000000 0 0 1
-10.070961 13.445078 -23.079137 28.545419 -0.927907 2.512405 0.106948 -0.031872 -400412.000000 0 0 1
-9.217561 12.275178 -22.605137 27.324634 -0.926713 2.545046 0.108895 -0.031774 569361.000000 0 0 1
-7.822961 12.488078 -22.900037 27.231645 -1.011166 2.569805 0.091946 -0.026307 411196.000000 0 0 1
-7.087661 11.396278 -22.472737 26.175064 -1.014409 2.603241 0.075354 -0.022212 -813108.000000 0 0 1
-5.580661 11.558478 -22.515637 25.917100 -1.120987 2.623481 0.057205 -0.014095 -310371.000000 0 0 1
-5.003261 11.300978 -23.836437 26.849962 -1.154006 2.663261 0.045714 -0.018526 213476.000000 0 0 1
-3.598961 11.150078 -23.731837 26.466523 -1.258579 2.682994 0.027637 -0.015938 253247.000000 0 0 1
-2.875261 10.882478 -25.070137 27.481034 -1.312489 2.719590 0.055608 -0.030414 -218554.000000 0 0 1
-3.017961 9.565378 -25.561397 27.458870 -1.265173 2.767659 0.060708 -0.038303 -1101.940000 0 0 1
-2.469961 9.568878 -26.859397 28.619771 -1.318186 2.789030 0.069633 -0.040951 -228084.000000 0 0 1
-2.177461 8.092278 -27.309097 28.565942 -1.307943 2.843853 0.068593 -0.018299 656999.000000 0 0 1
-1.144061 7.378078 -26.573937 27.602881 -1.416959 2.867693 0.073688 -0.032790 893975.000000 0 0 1
-1.548761 6.950978 -25.245427 26.230637 -1.351565 2.866649 0.078226 -0.039814 -260159.000000 0 0 1
-0.637361 5.860978 -24.653537 25.348652 -1.462475 2.906865 -0.005227 -0.024610 799013.000000 0 0 1
0.703839 6.395278 -24.495437 25.326298 1.461181 2.884738 0.025820 -0.008507 960968.000000 0 0 1
1.570739 5.525678 -23.798237 24.481757 1.293840 2.904736 0.014248 0.012740 57371.300000 0 1 0
1.696239 5.961578 -22.276237 23.122464 1.293593 2.870214 0.010413 0.001334 -241154.000000 0 1 0
2.378639 7.185578 -22.105637 23.365565 1.251121 2.811701 0.001277 -0.008572 116502.000000 0 1 0
2.188339 7.722678 -20.816037 22.309997 1.294670 2.773558 0.009936 -0.007003 -21117.900000 0 1 0
2.820939 9.098378 -20.678837 22.767355 1.270146 2.709919 0.011910 -0.019355 -441710.000000 0 1 0
2.403939 9.812378 -19.565437 22.019718 1.330538 2.664953 0.019414 -0.025715 23601.600000 0 1 0
2.910339 11.169078 -19.602637 22.748225 1.315893 2.609449 0.016461 -0.015790 -44577.000000 0 1 0
4.119739 11.489878 -18.692437 22.324801 1.226522 2.563113 0.020179 -0.020356 -15440.200000 0 1 0
5.286439 10.854678 -19.143237 22.632587 1.117587 2.578909 0.032835 -0.017219 -570295.000000 0 1 0
6.218439 10.736878 -18.088837 21.935258 1.045837 2.540374 0.033796 -0.019653 63553.500000 0 1 0
7.440339 9.826978 -18.378237 22.128889 0.922745 2.550817 0.066489 -0.032043 -12484.100000 0 1 0
7.240739 8.425378 -18.459237 21.544343 0.860872 2.599832 0.058505 -0.033146 87087.100000 0 1 0
6.836139 8.052278 -19.779137 22.422895 0.866901 2.651089 0.048138 -0.030658 209334.000000 0 1 0
6.474339 6.577878 -20.070237 22.090721 0.793331 2.710565 0.054165 -0.026993 150016.000000 0 1 0
7.681039 5.866078 -20.252637 22.440555 0.652217 2.696339 0.060684 -0.021257 410045.000000 0 1 0
7.351539 4.550278 -20.662837 22.398727 0.554241 2.745305 0.055375 -0.016454 -178346.000000 0 1 0
7.406739 4.380578 -22.190237 23.800333 0.534095 2.771655 0.071003 -0.023451 -172033.000000 0 1 0
6.410939 5.089278 -22.925437 24.342895 0.670975 2.798656 0.068505 -0.025548 119513.000000 0 1 0
6.531839 4.796878 -24.260037 25.577809 0.633432 2.819199 0.063518 -0.032714 1116.650000 0 0 1
5.420039 5.479578 -25.115277 26.271272 0.790861 2.843838 0.044100 -0.033748 113635.000000 0 0 1
5.519539 6.879678 -25.301697 26.794983 0.894657 2.806166 0.050705 -0.043307 128976.000000 0 0 1
5.224739 7.618978 -24.114937 25.823960 0.969696 2.775743 0.054868 -0.043903 -972052.000000 0 0 1
4.991839 9.125378 -24.336837 26.466443 1.070238 2.737694 0.056066 -0.045257 462397.000000 0 0 1
3.900739 9.476878 -25.187467 27.192562 1.180325 2.755170 0.063877 -0.044390 762197.000000 0 0 1
2.612939 9.301778 -24.599937 26.429291 1.296946 2.767345 0.045275 -0.030022 -257069.000000 0 0 1
1.443539 9.818178 -25.455697 27.321656 1.424815 2.769873 0.063007 -0.026185 -181528.000000 0 0 1
1.359639 11.271978 -25.406287 27.827783 1.450755 2.721332 0.094951 -0.047105 603906.000000 0 0 1
0.435539 11.755178 -26.406497 28.908078 1.533762 2.722514 0.119671 -0.051504 -5430.930000 0 0 1
0.345239 13.272878 -26.525327 29.662795 1.544791 2.677502 0.122028 -0.055774 -225380.000000 0 0 1
-0.051861 13.876578 -25.326687 28.879113 -1.567059 2.640358 0.103013 -0.047952 107563.000000 0 0 1
-0.490561 15.196878 -25.726447 29.883705 -1.538527 2.607804 0.108359 -0.051093 -216095.000000 0 0 1
-1.048361 15.894978 -24.456637 29.186923 -1.504936 2.564278 0.115962 -0.042282 477009.000000 0 0 1
-2.334661 15.354178 -24.155637 28.717524 -1.419898 2.570195 0.093630 -0.033693 -88698.600000 0 0 1
-2.746261 15.742378 -22.928437 27.947766 -1.398084 2.532912 0.087246 -0.042022 -1261820.000000 0 0 1
-3.959461 15.023278 -22.395237 27.256611 -1.313101 2.535086 0.079734 -0.036061 47176.500000 0 0 1
-5.236761 15.493378 -22.848237 28.098227 -1.244852 2.520350 0.090476 -0.034808 370184.000000 0 0 1
-5.545961 15.026778 -24.155737 28.983812 -1.217233 2.556067 0.080922 -0.036359 -1699290.000000 0 0 1
-7.003561 15.034578 -24.524637 29.606523 -1.134856 2.546957 0.067750 -0.033546 -1144380.000000 0 0 1
-7.483561 16.320978 -24.830337 30.641861 -1.140876 2.515529 0.063332 -0.032872 -1007210.000000 0 0 1
-8.786561 16.194878 -25.261717 31.267108 -1.073689 2.511432 0.063993 -0.028151 -1363370.000000 0 0 1
-9.492761 17.430678 -25.739777 32.503494 -1.072108 2.484724 0.059413 -0.024940 -194210.000000 0 0 1
-9.914161 18.250978 -24.614037 32.206204 -1.073179 2.440695 0.061867 -0.030264 1054030.000000 0 0 1
-11.025261 19.127978 -24.975737 33.335017 -1.047915 2.417701 0.068414 -0.019735 986516.000000 0 0 1
-11.446261 20.058778 -23.868037 33.212266 -1.052248 2.372657 0.063097 -0.026782 -108539.000000 0 0 1
-10.660961 21.191678 -23.619937 33.476032 -1.104693 2.354034 0.069281 -0.026469 -56654.100000 0 0 1
-11.408161 22.328278 -23.940637 34.667740 -1.098444 2.333079 0.067829 -0.031631 -54693.900000 0 0 1
-11.086861 22.971478 -25.281997 35.913600 -1.121136 2.351764 0.058913 -0.026403 -278781.000000 0 0 1
-11.414961 22.185978 -26.378587 36.309073 -1.095606 2.384013 0.059313 -0.030449 -22632.800000 0 0 1
-10.872261 22.709478 -27.557767 37.327697 -1.124289 2.401292 0.053572 -0.024267 -269767.000000 0 0 1
-11.508761 22.112978 -28.844197 38.123786 -1.090921 2.428884 0.046537 -0.022452 -187567.000000 0 0 1
-10.994661 20.930178 -29.418337 37.741137 -1.087113 2.464626 0.041721 -0.021762 -151974.000000 0 0 1
-11.009361 19.705978 -28.678537 36.496439 -1.061312 2.474769 0.051725 -0.021594 -682889.000000 0 0 1
-10.038861 18.728578 -29.309747 36.202205 -1.078751 2.514287 0.039641 -0.021613 -1378020.000000 0 0 1
-8.751461 19.136478 -28.935407 35.777795 -1.141873 2.512825 0.038095 -0.023939 -62300.900000 0 0 1
-7.654561 18.424478 -29.543797 35.649539 -1.177037 2.547629 0.043384 -0.020659 653207.000000 0 0 1
-7.465461 16.995078 -29.036417 34.462723 -1.156900 2.572788 0.050081 -0.026803 -1590470.000000 0 0 1
-8.443161 16.073778 -29.361487 34.521735 -1.087133 2.587773 0.035354 -0.021883 -369234.000000 0 0 1
-8.257461 14.836478 -28.691517 33.339314 -1.062927 2.607225 0.037682 -0.031084 269553.000000 0 0 1
-9.636561 14.099578 -28.630297 33.336996 -0.971254 2.603747 0.038834 -0.017249 931095.000000 0 0 1
-10.477361 14.589178 -27.550827 32.888710 -0.947986 2.563852 0.054437 -0.019138 -110165.000000 0 0 1
-11.688361 13.889378 -27.475447 32.930727 -0.871239 2.557732 0.090785 -0.020434 -375139.000000 0 0 1
-12.641461 14.484578 -26.465637 32.711458 -0.853240 2.513353 0.096249 -0.022071 -449293.000000 0 0 1
-13.064561 15.749078 -26.765257 33.691174 -0.878298 2.488864 0.081418 -0.018421 -858201.000000 0 0 1
-14.104861 15.986778 -25.867217 33.520696 -0.847856 2.452273 0.078172 -0.021710 -377579.000000 0 0 1
-14.994961 17.142378 -26.316097 34.802973 -0.852119 2.428198 0.061539 -0.015760 -495169.000000 0 0 1
-14.373261 18.388778 -26.348657 35.199283 -0.907356 2.416679 0.060511 -0.015168 -223012.000000 0 0 1
-15.274661 19.425478 -26.628207 36.328031 -0.904452 2.393508 0.050186 -0.020244 -138074.000000 0 0 1
-14.540861 20.787778 -26.741367 36.860128 -0.960412 2.382531 0.043807 -0.021552 -337395.000000 0 0 1
-15.409361 21.836578 -27.073917 38.043153 -0.956277 2.362659 0.032035 -0.029280 -410753.000000 0 0 1
-15.012961 23.184678 -27.063507 38.669777 -0.996154 2.346001 0.035693 -0.026590 -355254.000000 0 0 1
-14.719361 23.911278 -25.730187 38.084791 -1.018998 2.312578 0.019811 -0.023554 -54695.900000 0 0 1
-14.475261 25.269578 -25.876277 38.957239 -1.050592 2.297250 0.039594 -0.029986 -49993.500000 0 0 1
-14.175961 25.890778 -24.642937 38.452108 -1.069852 2.266432 0.053218 -0.038660 -176178.000000 0 0 1
-13.846361 27.354678 -24.812737 39.442008 -1.102218 2.251184 0.072406 -0.043837 -588451.000000 0 0 1
-15.024861 28.007878 -25.093407 40.495268 -1.078415 2.239109 0.074787 -0.048519 -706247.000000 0 0 1
-15.714461 28.527978 -23.989937 40.451290 -1.067305 2.205647 0.068064 -0.046336 196005.000000 0 0 1
-17.152561 29.012478 -24.347137 41.577846 -1.036863 2.196391 0.066390 -0.047507 450616.000000 0 0 1
-18.067161 27.966278 -24.483537 41.327698 -0.997214 2.204861 0.052570 -0.044522 -938358.000000 0 0 1
-19.224761 28.257978 -25.190837 42.458015 -0.973394 2.205963 0.042544 -0.034210 -369985.000000 0 0 1
-20.366361 27.245078 -25.018817 42.225870 -0.928881 2.204955 0.035792 -0.031644 -196451.000000 0 0 1
-20.925161 27.210778 -23.749537 41.741218 -0.915244 2.176050 0.038348 -0.036603 -83236.700000 0 0 1
-21.894661 26.166278 -23.610137 41.490828 -0.874044 2.176140 0.051024 -0.040144 108994.000000 0 0 1
-22.468561 26.259378 -22.190437 41.070752 -0.863037 2.141587 0.039340 -0.033170 -56167.800000 0 0 1
-23.384161 27.350878 -22.117637 42.238364 -0.863424 2.121913 0.038929 -0.025524 -55346.300000 0 0 1
-23.644761 27.769778 -20.807637 41.990392 -0.865457 2.089245 0.028468 -0.018679 -730456.000000 0 0 1
-24.997961 28.460678 -20.760837 43.196303 -0.850082 2.072153 0.021724 -0.013366 -587100.000000 0 0 1
-26.066771 27.546678 -20.859737 43.283076 -0.812994 2.073661 0.025586 -0.010433 -574822.000000 0 0 1
-27.262681 28.273078 -20.897937 44.489825 -0.803590 2.059774 0.034959 -0.005648 542894.000000 0 0 1
-28.573781 27.453078 -21.197337 44.938397 -0.765398 2.062011 0.038914 -0.011305 783934.000000 0 0 1
-28.559471 26.881478 -22.501037 45.216744 -0.755141 2.091656 0.035351 -0.003470 157326.000000 0 0 1
-29.900451 26.632978 -22.915437 46.135342 -0.727665 2.090589 0.036718 -0.002726 498798.000000 0 0 1
-30.104231 26.106178 -24.376637 46.712072 -0.714391 2.119813 0.030660 0.008333 85690.600000 0 0 1
-29.556071 24.817278 -24.588237 45.760682 -0.698465 2.138055 0.043605 0.003360 -29974.700000 0 0 1
-29.614181 24.618078 -25.958277 46.442240 -0.693533 2.163899 0.051975 -0.001582 -120394.000000 0 0 1
-29.725821 23.159278 -26.337027 45.974075 -0.661864 2.180796 0.057183 -0.007460 543218.000000 0 0 1
-28.546651 22.395478 -26.007657 44.641538 -0.665232 2.192706 0.060864 -0.005410 566138.000000 0 0 1
-28.670931 21.116978 -26.601077 44.447343 -0.634824 2.212405 0.083011 -0.017359 -194073.000000 0 0 1
-27.459781 20.185678 -26.471137 43.153473 -0.633897 2.231178 0.084875 -0.020089 -236866.000000 0 0 1
-27.282561 19.619678 -25.174427 41.988352 -0.623449 2.213744 0.084736 -0.012691 -8585.640000 0 0 1
-26.848691 18.304978 -25.147507 41.089190 -0.598395 2.229412 0.060366 -0.018656 547491.000000 0 0 1
-27.985461 17.190478 -25.165057 41.376064 -0.550842 2.224591 0.060094 -0.014940 777697.000000 0 0 1
-28.719771 16.974678 -26.356277 42.516094 -0.533809 2.239428 0.064892 -0.019614 -73843.900000 0 0 1
-29.683461 15.980778 -26.180577 42.683905 -0.493873 2.231103 0.031249 -0.018259 -422380.000000 0 0 1
-30.308791 15.639478 -27.556737 43.847347 -0.476369 2.250381 0.030510 -0.025119 638672.000000 0 0 1
-31.595331 16.252378 -27.767117 45.093431 -0.475095 2.234157 0.026354 -0.028793 292552.000000 0 0 1
-32.268181 15.503778 -28.731207 45.902994 -0.447899 2.247096 0.034446 -0.024597 251229.000000 0 0 1
-33.613361 16.190778 -29.136287 47.338383 -0.448882 2.233803 0.043819 -0.027953 264002.000000 0 0 1
-34.557363 16.272178 -28.083107 47.409451 -0.440077 2.204772 0.031410 -0.023073 -778331.000000 0 0 1
-35.770748 16.695878 -28.587487 48.739544 -0.436693 2.197571 0.034172 -0.020627 -636727.000000 0 0 1
36.694898 16.236978 -27.777287 48.802998 0.416588 2.176294 0.034029 -0.015159 -114652.000000 0 0 1
36.375998 17.135778 -26.733247 48.285760 0.440240 2.157533 0.031339 -0.012684 -1054620.000000 0 0 1
35.138258 16.778278 -26.248817 46.959644 0.445481 2.163934 0.043638 -0.009399 -829075.000000 0 0 1
34.629538 17.934578 -25.341597 46.508607 0.477863 2.147042 0.051037 -0.004028 152963.000000 0 0 1
33.949548 19.006178 -26.006777 46.799135 0.510363 2.160014 0.050058 -0.015606 172822.000000 0 0 1
33.877408 20.123878 -25.190267 46.767497 0.536011 2.139604 0.056795 -0.011417 -1030620.000000 0 0 1
33.067448 21.230978 -25.811647 47.015441 0.570767 2.151968 0.057361 -0.016991 553948.000000 0 0 1
31.700478 20.903778 -26.082527 46.067195 0.582966 2.172666 0.057778 -0.015729 496016.000000 0 0 1
30.819898 21.061378 -24.986237 44.919481 0.599477 2.160657 0.070909 -0.006698 -688085.000000 0 0 1
29.343408 20.988978 -25.387217 44.114437 0.620913 2.183994 0.034958 -0.012540 -302455.000000 0 0 1
29.013368 19.696178 -25.789327 43.529350 0.596401 2.204903 0.040368 -0.015211 -504120.000000 0 0 1
27.814858 19.780078 -26.527937 43.227876 0.618159 2.231505 0.035388 -0.016109 -420596.000000 0 0 1
27.191258 18.405078 -26.720087 42.332900 0.595037 2.253882 0.066060 -0.013793 124145.000000 0 0 1
27.941058 17.450478 -27.512407 42.920327 0.558273 2.266611 0.058760 -0.012610 1165240.000000 0 0 1
29.126948 16.895678 -26.890677 43.092360 0.525636 2.244678 0.054703 -0.008955 912896.000000 0 0 1
29.821618 15.743978 -27.732967 43.661415 0.485748 2.259041 0.042092 -0.003948 298668.000000 0 0 1
28.980278 14.623978 -28.024227 42.884432 0.467335 2.282972 0.053805 -0.006262 263664.000000 0 0 1
28.491758 13.810078 -26.962457 41.586928 0.451336 2.276198 0.068939 -0.011240 -124238.000000 0 0 1
29.512458 13.085478 -26.030497 41.470492 0.417342 2.249375 0.058820 -0.007460 11984.500000 0 0 1
30.042868 13.948878 -25.042567 41.524394 0.434681 2.218154 0.059669 -0.016215 -96915.300000 0 0 1
30.992348 13.235178 -24.284937 41.538581 0.403603 2.195227 0.049884 -0.012668 -329540.000000 0 0 1
-14.831861 -31.467656 -23.762737 42.129149 1.130341 2.170073 0.094049 -0.008206 132954.000000 0 0 1
-14.150561 -30.351656 -24.313437 41.383628 1.134536 2.198779 0.100143 -0.019485 209020.000000 0 0 1
-14.510061 -30.219356 -25.700167 42.240383 1.123148 2.224873 0.077824 -0.015158 -17457.700000 0 0 1
-13.817061 -29.031556 -26.329417 41.556956 1.126587 2.256961 0.100133 -0.025223 -36993.100000 0 0 1
-14.319761 -27.788056 -25.885267 40.586681 1.094967 2.262405 0.102363 -0.012813 285866.000000 0 0 1
-13.467761 -26.756056 -26.370917 39.908550 1.104469 2.292659 0.087823 -0.018933 -60178.500000 0 0 1
-13.945961 -25.319856 -26.039087 38.905257 1.067346 2.304056 0.070949 -0.010546 -77889.900000 0 0 1
-13.454961 -24.784556 -24.795937 37.551947 1.073438 2.292028 0.085924 -0.019510 145153.000000 0 0 1
-13.813461 -23.445156 -24.637137 36.707977 1.038369 2.306577 0.091428 -0.018193 -222578.000000 0 0 1
-13.410461 -22.884556 -23.283637 35.294066 1.040731 2.291221 0.080668 -0.005172 54297.800000 0 0 1
-12.016961 -22.683756 -23.219937 34.613951 1.083625 2.306118 0.097122 -0.014307 -148511.000000 0 0 1
-11.641661 -22.088656 -21.966437 33.255997 1.085749 2.292315 0.087672 -0.006550 949073.000000 0 0 1
-10.169761 -21.608956 -21.674137 32.251190 1.130922 2.307758 0.088955 -0.004511 844836.000000 0 0 1
-9.843461 -20.539056 -22.565037 32.061308 1.123881 2.351542 0.097991 -0.009057 -724053.000000 0 0 1
-8.470861 -20.414856 -22.734637 31.707815 1.177481 2.370291 0.105328 -0.007412 -577013.000000 0 0 1
-8.008261 -19.176556 -23.600637 31.446186 1.175204 2.419628 0.106078 -0.009311 -20973.700000 0 0 1
-8.111761 -17.935256 -22.966037 30.247528 1.146048 2.432987 0.099422 -0.009102 -203748.000000 0 0 1
-8.324461 -16.850156 -23.840137 30.357479 1.111937 2.473999 0.098797 -0.009807 63587.600000 0 0 1
-7.109361 -16.299656 -24.636537 30.383890 1.159506 2.516386 0.097566 -0.013228 -41618.700000 0 0 1
-6.718461 -17.205256 -25.636467 31.597262 1.198516 2.517256 0.102098 -0.017537 865756.000000 0 0 1
-5.666061 -16.715256 -26.525547 31.860770 1.243977 2.554484 0.082981 -0.017903 781970.000000 0 0 1
-5.551961 -17.427456 -27.855357 33.323586 1.262386 2.560576 0.072476 -0.016853 -259118.000000 0 0 1
-6.544961 -16.997956 -28.775797 34.056035 1.203249 2.577276 0.090966 -0.020093 239588.000000 0 0 1
-6.602261 -17.908056 -29.853537 35.433346 1.217582 2.572753 0.083316 -0.027121 22175.900000 0 0 1
-7.390861 -17.348856 -31.090497 36.362434 1.168067 2.596380 0.096569 -0.026734 21406.900000 0 0 1
-6.845361 -16.269256 -31.794507 36.365345 1.172527 2.634804 0.094568 -0.037770 -170864.000000 0 0 1
-6.707861 -15.010856 -31.077317 35.158510 1.150551 2.654976 0.091198 -0.034396 -11288.300000 0 0 1
-7.380861 -13.832256 -31.825437 35.477695 1.080633 2.683856 0.093589 -0.038658 -27468.400000 0 0 1
-6.908161 -13.581256 -33.121327 36.458133 1.100249 2.710419 0.103720 -0.044466 -202646.000000 0 0 1
-7.809161 -12.866756 -33.942147 37.129580 1.025300 2.724212 0.108872 -0.044976 -784376.000000 0 0 1
-8.032461 -11.376156 -33.586357 36.359053 0.956002 2.748532 0.092414 -0.043827 903003.000000 0 0 1
-6.913861 -10.434256 -33.713627 35.962255 0.985606 2.786093 0.082456 -0.040385 824194.000000 0 0 1
-6.241161 -10.510156 33.099063 35.284040 1.034932 0.353766 0.065278 -0.037760 -468845.000000 0 0 1
-5.061961 -9.503356 33.074382 34.782927 1.081371 0.314731 0.070996 -0.031515 49383.100000 0 0 1
-4.862961 -8.971456 31.792818 33.390398 1.074079 0.310586 0.056677 -0.025213 156467.000000 0 0 1
-3.859961 -7.956156 31.926548 33.128601 1.119096 0.270207 0.058231 -0.033649 -525995.000000 0 0 1
-3.807061 -6.991856 30.691348 31.707075 1.072186 0.253800 0.046793 -0.024218 618336.000000 0 0 1
-4.936861 -6.107856 30.625558 31.616504 0.891027 0.251029 0.037115 -0.021272 214309.000000 0 0 1
-6.155161 -6.735456 30.307168 31.650858 0.830385 0.292429 0.039319 -0.017840 -1759480.000000 0 0 1
-7.301861 -5.803256 30.457528 31.853665 0.671540 0.297166 0.028689 -0.011724 -876805.000000 0 0 1
-8.547461 -6.409856 30.168038 32.003998 0.643446 0.340363 0.030342 -0.002095 -1071000.000000 0 0 1
-9.557061 -5.508856 30.012038 31.975105 0.522899 0.352228 0.035814 -0.009008 -501306.000000 0 0 1
-10.691061 -6.168456 29.158528 31.663361 0.523316 0.400434 0.047891 -0.009870 -39160.800000 0 0 1
-10.405461 -6.203556 27.749068 30.278186 0.537608 0.411628 0.034597 -0.002156 193563.000000 0 0 1
-11.293061 -6.913156 26.915328 29.995997 0.549312 0.457188 0.048078 -0.008644 -151220.000000 0 0 1
-10.982061 -6.563556 25.452888 28.487461 0.538698 0.465768 0.044158 -0.008077 -93347.800000 0 0 1
-9.862961 -7.192756 24.878668 27.712125 0.630101 0.456153 0.041996 0.000655 -88621.400000 0 0 1
-9.351761 -6.534356 23.695908 26.299227 0.609873 0.448700 0.033237 -0.003336 -584877.000000 0 0 1
-10.142261 -6.558356 22.409098 25.456732 0.574007 0.494340 0.036936 -0.005460 -305157.000000 0 0 1
-11.374561 -5.885456 22.488098 25.879216 0.477488 0.517692 0.039256 -0.006749 -262050.000000 0 0 1
-12.248261 -6.034156 21.400698 25.385445 0.457754 0.567904 0.044812 -0.008853 -511039.000000 0 0 1
-13.345461 -5.013256 21.488498 25.787393 0.359343 0.585755 0.049733 -0.001642 -584618.000000 0 0 1
-12.969661 -3.821556 20.934098 24.920932 0.286545 0.573475 0.032325 -0.003463 -489980.000000 0 1 0
-14.092261 -3.000556 20.909998 25.393369 0.209789 0.603343 0.039321 -0.005838 -212323.000000 0 0 1
-13.893761 -1.622556 20.240298 24.603637 0.116256 0.604732 0.032446 -0.005341 -245832.000000 0 1 0
-13.253561 -0.743556 21.112898 24.939211 0.056044 0.561280 0.034907 -0.006487 -235540.000000 0 1 0
-13.308661 0.556444 20.713898 24.627133 -0.041786 0.571481 0.035100 -0.014879 -169712.000000 0 1 0
-12.632661 1.109444 19.409098 23.184652 -0.087599 0.578739 0.039969 -0.021200 -47100.700000 0 1 0
-13.310261 0.817444 18.189198 22.553895 -0.061338 0.632627 0.040976 -0.016189 57898.200000 0 1 0
-14.557561 1.477444 18.089398 23.266537 -0.101143 0.680139 0.028511 -0.016391 -75472.200000 0 1 0
-15.559561 0.690444 17.218398 23.217448 -0.044345 0.735322 0.031381 -0.005686 -221263.000000 0 1 0
-15.837661 -0.562556 17.782898 23.819728 0.035505 0.727917 0.020032 -0.001646 299955.000000 0 1 0
-16.912561 -1.215556 17.129098 24.102247 0.071750 0.780325 0.031063 -0.001831 144160.000000 0 1 0
-16.908661 -2.780556 17.419998 24.435439 0.162987 0.777173 0.040575 -0.002895 188065.000000 0 1 0
-17.469861 -3.124556 18.710698 25.788547 0.176983 0.758973 0.046480 -0.003518 316201.000000 0 0 1
-17.386661 -4.514556 18.871698 26.054140 0.254046 0.760740 0.059203 -0.002685 -314555.000000 0 0 1
-18.138161 -4.989956 20.119098 27.543977 0.268467 0.751837 0.055370 0.005424 -74666.800000 0 0 1
-17.547861 -4.634156 21.382798 28.046870 0.258192 0.703790 0.055211 0.004479 621939.000000 0 0 1
-18.421761 -4.886056 22.504098 29.490155 0.259263 0.702692 0.053073 -0.001830 26363.600000 0 0 1
-18.589461 -6.372756 22.984598 30.240236 0.330260 0.707380 0.070010 -0.010395 -335463.000000 0 0 1
-17.477261 -6.917956 23.603268 30.173284 0.376903 0.672515 0.057447 -0.013971 -172561.000000 0 0 1
-16.410461 -7.343756 22.767498 29.010222 0.420777 0.668408 0.072276 -0.007491 -135884.000000 0 0 1
-15.175361 -7.775656 23.582178 29.101058 0.473508 0.626039 0.083352 -0.010955 -198744.000000 0 0 1
-15.396561 -9.027056 24.223838 30.088805 0.530288 0.634989 0.079837 -0.016102 533976.000000 0 0 1
-14.895661 -9.070456 25.616038 30.989277 0.546962 0.597740 0.086752 -0.012287 612565.000000 0 0 1
-15.830561 -10.052556 26.381098 32.367003 0.565765 0.617961 0.074096 -0.014815 -10322.400000 0 0 1
-15.818061 -11.472056 26.096758 32.601533 0.627472 0.642707 0.076331 -0.020653 -305754.000000 0 0 1
-14.960161 -12.118956 26.986708 33.150535 0.680858 0.619678 0.070738 -0.020618 -250560.000000 0 0 1
-15.021261 -13.646256 26.896968 33.694295 0.737471 0.646388 0.053437 -0.022306 118323.000000 0 0 1
-16.225361 -14.240256 27.348728 34.842505 0.720331 0.668222 0.063213 -0.023866 35473.300000 0 0 1
-16.246961 -15.644556 27.088058 35.248813 0.766511 0.694332 0.071661 -0.014843 75484.900000 0 0 1
-15.350061 -16.659356 27.890568 35.931078 0.826279 0.682142 0.062426 -0.017142 394062.000000 0 0 1
-13.981661 -16.492756 27.564078 35.032503 0.867613 0.665166 0.068157 -0.017034 59423.500000 0 0 1
-13.190061 -17.485156 28.210118 35.714411 0.924512 0.660182 0.085313 -0.021251 67590.300000 0 0 1
-11.811361 -17.580256 27.506018 34.715338 0.979211 0.656177 0.079541 -0.024659 -469004.000000 0 0 1
-11.008461 -18.487956 28.173888 35.450793 1.033737 0.652230 0.090755 -0.037451 303085.000000 0 0 1
-9.888461 -18.860556 27.316878 34.636889 1.087904 0.662163 0.080461 -0.032406 1070520.000000 0 0 1
-8.684261 -19.440656 28.108068 35.262147 1.150685 0.648290 0.095877 -0.040243 384771.000000 0 0 1
-9.038961 -20.665856 28.771928 36.559599 1.158481 0.664886 0.085081 -0.031769 -488616.000000 0 0 1
-7.925661 -21.073156 29.478348 37.092682 1.211060 0.652248 0.090611 -0.031519 -375074.000000 0 0 1
-8.066561 -22.370856 30.304658 38.521383 1.224724 0.665356 0.092336 -0.027399 161873.000000 0 0 1
-8.369761 -23.468256 29.459058 38.583002 1.228217 0.702043 0.091675 -0.028415 41551.100000 0 0 1
-8.537661 -24.664856 30.172238 39.894997 1.237558 0.713171 0.080199 -0.026228 -163820.000000 0 0 1
-8.734061 -25.866756 29.189658 39.967600 1.245161 0.751987 0.072405 -0.019436 128952.000000 0 0 1
-9.999261 -25.905056 28.542618 39.821329 1.202420 0.771641 0.072792 -0.021495 220990.000000 0 0 1
-10.116761 -27.064556 27.761228 40.069001 1.213077 0.805382 0.070336 -0.019707 38506.300000 0 0 1
-11.510361 -27.296756 27.108568 40.155645 1.171745 0.829713 0.060359 -0.018275 293815.000000 0 0 1
-11.857461 -26.607856 25.904528 38.982329 1.151576 0.843945 0.065659 -0.022534 170524.000000 0 0 1
-11.847261 -25.234456 25.896488 38.049487 1.131855 0.822215 0.058946 -0.013344 -397534.000000 0 0 1
-11.955061 -24.725356 24.479388 36.790042 1.120424 0.842792 0.064449 -0.022831 1169820.000000 0 0 1
-13.248161 -25.053256 23.896478 37.070488 1.084375 0.870267 0.047734 -0.012752 1173350.000000 0 0 1
-13.282661 -24.569456 22.575398 35.912893 1.075186 0.891025 0.056929 -0.015407 13609.900000 0 0 1
-14.666461 -24.618356 21.893298 36.062239 1.033505 0.918393 0.056821 -0.012983 -97057.400000 0 0 1
-14.907661 -25.971556 21.466398 36.845167 1.049714 0.948859 0.063343 -0.017324 648514.000000 0 0 1
-16.147661 -26.021556 20.742098 36.987876 1.015404 0.975468 0.068739 -0.015030 788908.000000 0 0 1
-16.563161 -27.452256 20.206598 37.898170 1.027921 1.008440 0.075551 -0.025059 452763.000000 0 0 1
-15.712261 -27.827556 19.125898 37.243094 1.056791 1.031489 0.069946 -0.020134 161951.000000 0 0 1
-15.854561 -29.193456 18.787698 38.165464 1.073277 1.056101 0.088341 -0.011137 153116.000000 0 0 1
-15.050761 -29.602256 17.530098 37.551609 1.100425 1.085097 0.081882 -0.020697 301338.000000 0 0 1
-15.464461 -28.980056 16.342698 36.688922 1.080613 1.109131 0.084256 -0.031839 -221912.000000 0 0 1
-14.465961 -29.298556 15.403198 36.123787 1.112167 1.130287 0.081904 -0.030359 32424.000000 0 0 1
-14.559861 -28.614056 14.076698 35.055773 1.100105 1.157586 0.071801 -0.027083 -524103.000000 0 0 1
-14.598561 -27.184156 14.177698 33.957377 1.077970 1.140088 0.072250 -0.022708 -132885.000000 0 0 1
-14.736861 -26.529856 12.893198 32.973367 1.063754 1.169058 0.076777 -0.028376 54232.300000 0 0 1
-13.772361 -26.855756 11.708498 32.372805 1.096940 1.200730 0.059286 -0.020976 264706.000000 0 0 1
-14.045261 -26.130356 10.522398 31.476749 1.077595 1.229943 0.053320 -0.022598 -35977.800000 0 0 1
-13.044361 -26.423956 9.541398 30.974491 1.112236 1.257664 0.059825 -0.022370 349277.000000 0 0 1
-13.212261 -25.649756 8.198598 29.994847 1.095140 1.293939 0.067214 -0.019832 -726694.000000 0 0 1
-14.162161 -26.260856 7.377898 30.734879 1.076215 1.328379 0.084635 -0.027922 -262809.000000 0 0 1
-14.442761 -25.406356 6.315098 29.899110 1.053883 1.357980 0.070089 -0.023664 -127467.000000 0 0 1
-15.566461 -25.823156 5.359098 30.624664 1.028313 1.394898 0.070399 -0.019480 -139698.000000 0 0 1
-15.196161 -27.014456 4.675698 31.345914 1.058392 1.421073 0.076788 -0.025206 355348.000000 0 0 1
-16.194161 -27.455156 3.747798 32.094898 1.037881 1.453757 0.104531 -0.018980 301411.000000 0 0 1
-15.787561 -28.659856 2.890798 32.848001 1.067293 1.482677 0.103997 -0.017489 -251006.000000 0 0 1
-14.736361 -28.377356 2.009798 32.038633 1.091828 1.508025 0.107999 -0.004261 -385141.000000 0 0 1
-14.426261 -29.623356 1.355698 32.977237 1.117611 1.529675 0.106877 -0.007744 -314448.000000 0 0 1
-13.055761 -29.587856 0.658398 32.346988 1.155239 1.550441 0.072194 -0.006016 -70610.700000 0 0 1
-13.017061 -28.824956 -0.519002 31.632125 1.146621 1.587204 0.078905 -0.000566 -38208.100000 0 0 1
-12.722761 -27.433556 -0.259502 30.241296 1.136553 1.579377 0.072900 -0.004396 -300433.000000 0 0 1
-12.372261 -26.551456 -1.522002 29.332050 1.134739 1.622708 0.074642 -0.012622 -265931.000000 0 0 1
-11.216961 -27.014556 -2.165102 29.330771 1.177239 1.644680 0.086803 -0.013225 -483753.000000 0 0 1
-10.743061 -26.150556 -3.219002 28.453944 1.181001 1.684169 0.110821 -0.021114 1123880.000000 0 0 1
-9.255661 -26.514056 -3.580902 28.310516 1.234937 1.697623 0.101054 -0.023860 942644.000000 0 0 1
-8.607661 -25.614856 -4.465802 27.388977 1.246610 1.734579 0.106978 -0.026667 -2147710.000000 0 0 1
-7.406061 -26.065156 -4.816802 27.521695 1.293956 1.746721 0.107307 -0.019482 -1679490.000000 0 0 1
-6.556761 -25.061756 -5.616102 26.507043 1.314908 1.784286 0.089172 -0.019816 190197.000000 0 0 1
-7.105761 -24.839256 -6.889802 26.738547 1.292168 1.831409 0.097246 -0.011147 6577.130000 0 0 1
-6.370761 -23.757556 -7.401702 25.686441 1.308803 1.863097 0.078900 -0.008408 -164904.000000 0 0 1
-6.512261 -23.561556 -8.955902 26.033914 1.301135 1.921980 0.080157 -0.007885 -217759.000000 0 0 1
-5.734061 -24.484456 -9.677602 26.944833 1.340750 1.938168 0.061556 -0.008697 -109883.000000 0 0 1
-6.004561 -24.522256 -11.085902 27.573412 1.330660 1.984551 0.054186 -0.001340 -396331.000000 0 0 1
-7.329961 -25.070356 -11.602602 28.580963 1.286349 1.988821 0.061709 -0.010314 -412305.000000 0 0 1
-7.481561 -25.190156 -13.021702 29.327162 1.282091 2.030871 0.079303 -0.005123 340842.000000 0 0 1
-8.633861 -25.992356 -13.312202 30.452600 1.250094 2.023218 0.092625 -0.010434 -102628.000000 0 0 1
-8.897161 -25.988756 -14.882102 31.241829 1.240956 2.067297 0.094621 -0.015188 -647772.000000 0 0 1
-8.070861 -26.742156 -15.708002 32.047200 1.277686 2.083061 0.091286 -0.013754 -582831.000000 0 0 1
-6.853861 -26.032956 -15.821402 31.225102 1.313362 2.102136 0.083618 -0.012210 -573829.000000 0 0 1
-5.791061 -26.857656 -16.582002 32.091009 1.358427 2.113809 0.074055 -0.002799 -278515.000000 0 0 1
-5.997361 -26.853356 -17.979802 32.868592 1.351065 2.149597 0.104116 -0.003011 475503.000000 0 0 1
-4.832061 -27.351756 -18.632002 33.445760 1.395937 2.161663 0.092102 -0.007955 314339.000000 0 0 1
-25.144871 14.335178 -5.757337 29.511164 -0.518147 1.767146 0.081054 -0.034442 -150265.000000 0 0 1
-25.152841 13.250778 -4.893837 28.847845 -0.484865 1.741264 0.075998 -0.027081 89017.700000 0 0 1
-23.948461 12.513478 -4.902437 27.461788 -0.481499 1.750277 0.093889 -0.034172 -482567.000000 0 0 1
-24.069861 11.094878 -4.284837 26.847986 -0.431918 1.731078 0.103815 -0.040089 -125872.000000 0 0 1
-24.692961 10.133578 -5.082337 27.170975 -0.389425 1.758955 0.088997 -0.036858 200851.000000 0 0 1
-26.106251 10.189878 -5.180237 28.499207 -0.372137 1.753580 0.091731 -0.036534 -161809.000000 0 0 1
-26.496601 9.422678 -6.452037 28.852825 -0.341671 1.796322 0.103175 -0.039049 -198903.000000 0 0 1
-26.131381 10.200978 -7.579537 29.057846 -0.372180 1.834692 0.122395 -0.037657 109223.000000 0 0 1
-26.430871 9.511178 -8.753337 29.422345 -0.345424 1.872876 0.114515 -0.045609 -458740.000000 0 0 1
-27.187791 10.327078 -9.800937 30.690111 -0.363009 1.895842 0.089806 -0.040254 -662105.000000 0 0 1
-26.393681 11.311078 -10.389937 30.537152 -0.404876 1.917968 0.097243 -0.026726 -212836.000000 0 0 1
-26.822691 11.907378 -11.581237 31.549445 -0.417794 1.946667 0.081632 -0.025597 -203012.000000 0 0 1
-25.840941 12.983978 -12.147737 31.367267 -0.465612 1.968470 0.068093 -0.019354 47502.300000 0 0 1
-25.666811 14.076478 -11.339037 31.392773 -0.501638 1.940350 0.079546 -0.021275 702833.000000 0 0 1
-24.801861 14.978078 -12.082137 31.391928 -0.543289 1.965875 0.064746 -0.020584 412841.000000 0 0 1
-24.722861 16.435078 -11.514337 31.841979 -0.586690 1.940789 0.084540 -0.010155 -404942.000000 0 0 1
-23.894161 16.626078 -10.414737 30.916406 -0.607916 1.914384 0.081745 -0.006028 -146087.000000 0 0 1
-23.914061 17.934078 -9.954937 31.505781 -0.643462 1.892277 0.053235 -0.003522 39278.700000 0 0 1
-22.777161 18.217678 -8.933937 30.504067 -0.674632 1.868031 0.049756 -0.012162 -183116.000000 0 0 1
-22.898061 17.757678 -7.602937 29.957653 -0.659629 1.827392 0.060352 -0.022055 176460.000000 0 0 1
-23.973561 18.390178 -6.931437 30.999598 -0.654357 1.796300 0.046362 -0.018880 -80463.400000 0 0 1
-24.149961 17.831978 -5.497837 30.519277 -0.636026 1.751928 0.047396 -0.017020 -174144.000000 0 0 1
-23.090061 17.985778 -4.590537 29.626207 -0.661767 1.726372 0.056947 -0.027053 -196580.000000 0 0 1
-23.382961 17.312878 -3.426137 29.295683 -0.637332 1.688015 0.058899 -0.024212 262003.000000 0 0 1
-22.198861 17.175478 -2.412237 28.171002 -0.658504 1.656530 0.074914 -0.034704 -83977.000000 0 0 1
-21.629461 18.316678 -1.899737 28.406747 -0.702656 1.637723 0.066983 -0.028115 -336144.000000 0 0 1
-20.769061 17.965778 -0.867537 27.475001 -0.713153 1.602377 0.137928 -0.047175 -434292.000000 0 0 1
-20.077261 19.183778 -0.257637 27.770130 -0.762645 1.580074 0.108113 -0.030665 -10078.700000 0 0 1
-21.005561 20.123178 0.238263 29.090079 -0.763947 1.562606 0.094103 -0.019308 233942.000000 0 0 1
-20.341261 21.319778 0.512163 29.471379 -0.808881 1.553417 0.089057 -0.020694 365227.000000 0 0 1
-21.159761 22.088178 1.600763 30.629815 -0.806862 1.518511 0.070554 -0.009406 344040.000000 0 0 1
-20.993161 21.512378 2.860863 30.194035 -0.797613 1.475905 0.080200 -0.012941 864698.000000 0 0 1
-22.258161 21.503478 3.545563 31.151185 -0.768155 1.456731 0.061517 -0.014495 793658.000000 0 0 1
-22.063461 21.079878 5.024763 30.925812 -0.762604 1.407595 0.069510 -0.005309 -49046.300000 0 0 1
-21.450161 22.130178 5.762263 31.353754 -0.801001 1.385963 0.071389 -0.007377 -39212.400000 0 0 1
-20.666761 21.628778 6.806763 30.679816 -0.808139 1.347070 0.063177 -0.001806 -154286.000000 0 0 1
-21.326661 21.627078 8.216563 31.465360 -0.792392 1.306603 0.060807 -0.007167 205698.000000 0 0 1
-22.361861 20.653778 8.414463 31.582188 -0.745711 1.301108 0.073180 -0.006589 651171.000000 0 0 1
-22.724461 20.352978 9.721663 32.018051 -0.730402 1.262295 0.078777 -0.008416 59080.200000 0 0 1
-23.266461 21.487178 10.713263 33.433532 -0.745662 1.244608 0.088391 -0.002646 54865.900000 0 0 1
-24.516861 21.969978 10.209763 34.467313 -0.730666 1.270068 0.091864 -0.005801 640324.000000 0 0 1
-25.177661 22.696578 11.246763 35.714688 -0.733619 1.250439 0.099727 -0.006429 318619.000000 0 0 1
-26.563501 23.282178 10.869363 36.957036 -0.719663 1.272274 0.102507 -0.015945 331305.000000 0 0 1
-27.286061 23.958078 11.895763 38.210311 -0.720546 1.254211 0.105096 -0.017634 266655.000000 0 0 1
-26.990831 25.319778 12.000763 38.905198 -0.753464 1.257221 0.095774 -0.020447 251769.000000 0 0 1
-27.673481 25.931478 13.277963 40.181680 -0.752913 1.234018 0.115212 -0.024113 467588.000000 0 0 1
-26.851771 25.687278 14.410263 39.856111 -0.763237 1.200859 0.088584 -0.020841 207297.000000 0 0 1
-27.371891 26.237178 15.606063 41.001941 -0.764235 1.180332 0.099066 -0.020263 53751.400000 0 0 1
-26.352461 26.240578 16.766063 40.793640 -0.783271 1.147249 0.079474 -0.021286 48223.700000 0 0 1
-25.905031 24.985078 17.239363 39.906396 -0.767323 1.124093 0.083105 -0.012660 -12123.000000 0 0 1
-24.867561 25.153678 18.173863 39.766725 -0.791118 1.096164 0.060174 -0.007478 -144532.000000 0 0 1
-24.253561 23.828578 18.679863 38.793990 -0.776560 1.068415 0.058338 -0.006523 -509429.000000 0 0 1
-23.194461 24.003978 19.589763 38.703137 -0.802548 1.040076 0.071681 -0.016777 198500.000000 0 0 1
-22.857961 22.730478 20.141863 38.011257 -0.782602 1.012323 0.072108 -0.020074 -982723.000000 0 0 1
-21.404061 22.476578 20.462163 37.175671 -0.809835 0.987931 0.078862 -0.022797 -1173930.000000 0 0 1
-20.498661 22.575678 19.383363 36.132688 -0.833580 1.004572 0.076231 -0.025673 -946090.000000 0 0 1
-19.193961 22.219778 19.581063 35.292276 -0.858332 0.982643 0.072498 -0.024542 -946511.000000 0 0 1
-18.894861 20.658878 19.654863 34.206998 -0.829967 0.958698 0.081524 -0.018896 -503367.000000 0 0 1
-19.492361 20.041778 20.748663 34.815687 -0.799295 0.932339 0.081529 -0.021553 -35661.300000 0 0 1
-18.844161 20.326278 21.983663 35.377132 -0.823218 0.900257 0.080175 -0.024308 -36608.700000 0 0 1
-19.793361 19.989478 23.155263 36.435184 -0.790328 0.882115 0.080525 -0.016811 -397697.000000 0 0 1
-20.819561 20.928778 23.251063 37.577651 -0.788014 0.903649 0.084374 -0.017368 -392830.000000 0 0 1
-21.591861 20.644078 24.398563 38.570407 -0.762962 0.885927 0.076056 -0.013599 -82125.300000 0 0 1
-22.728161 21.644678 24.647963 39.907186 -0.760985 0.905068 0.078092 -0.017325 -458284.000000 0 0 1
-22.254861 22.919278 25.085263 40.618254 -0.800105 0.905127 0.095884 -0.026242 219494.000000 0 0 1
-23.233761 23.946078 25.249963 41.842359 -0.800495 0.922970 0.087980 -0.025815 221282.000000 0 0 1
-23.956661 24.496478 23.968263 41.814791 -0.796539 0.960390 0.071041 -0.026094 718856.000000 0 0 1
-24.960461 23.644978 23.375363 41.575440 -0.758340 0.973705 0.056019 -0.022212 544547.000000 0 0 1
-25.561381 24.320978 22.283863 41.730861 -0.760537 1.007484 0.052599 -0.018135 -233508.000000 0 0 1
-26.586751 23.506978 21.504963 41.495744 -0.723995 1.025999 0.054188 -0.020693 46114.100000 0 0 1
-27.813491 23.314278 22.197563 42.542657 -0.697625 1.021870 0.063881 -0.015954 -326194.000000 0 0 1
-28.558851 22.248378 21.788263 42.253127 -0.661827 1.029018 0.064157 -0.009953 -412919.000000 0 0 1
-29.943401 22.257678 22.467863 43.552456 -0.639215 1.028761 0.069852 -0.004451 -992524.000000 0 0 1
-30.675961 23.339978 22.025963 44.394957 -0.650413 1.051653 0.087770 -0.003534 58808.600000 0 0 1
-32.027541 23.379578 22.483963 45.583952 -0.630567 1.054982 0.092664 -0.005545 535100.000000 0 0 1
-32.993271 22.641578 21.516063 45.432785 -0.601437 1.077445 0.086220 -0.011486 -1196360.000000 0 0 1
-32.904971 21.183278 21.598963 44.698810 -0.571984 1.066478 0.071728 -0.006015 642058.000000 0 0 1
-33.732751 20.554078 20.609963 44.554901 -0.547245 1.089899 0.094887 -0.015621 599284.000000 0 0 1
-35.278109 20.628678 20.777463 45.845287 -0.529127 1.100435 0.124595 -0.018989 -50269.700000 0 0 1
-35.864708 19.884778 19.744063 45.513841 -0.506245 1.122086 0.116691 -0.019808 371266.000000 0 0 1
36.407618 19.789178 19.787163 45.920127 0.497874 1.125302 0.135969 -0.031395 517113.000000 0 0 1
35.851888 18.993178 18.617063 44.639598 0.487177 1.140596 0.137018 -0.042785 -114816.000000 0 0 1
36.317958 17.662878 18.606863 44.465568 0.452660 1.139052 0.140510 -0.046467 127293.000000 0 0 1
35.519838 16.902978 17.769963 43.164119 0.444161 1.146496 0.158908 -0.060879 -513261.000000 0 0 1
35.972658 15.412078 17.629063 42.922583 0.404780 1.147555 0.168171 -0.066982 177663.000000 0 0 1
34.999968 14.669178 16.892763 41.539716 0.396880 1.151995 0.197364 -0.064970 67748.100000 0 0 1
35.472158 13.463478 16.519263 41.381461 0.362754 1.160158 0.178591 -0.052520 -104554.000000 0 0 1
34.469718 12.585178 15.699163 39.912553 0.350070 1.166536 0.160428 -0.053230 131042.000000 0 0 1
34.377708 12.943378 14.385863 39.450107 0.360089 1.197529 0.154260 -0.051395 187873.000000 0 0 1
33.483788 12.133578 13.632563 38.134428 0.347654 1.205221 0.152814 -0.037075 -56610.600000 0 0 1
33.484268 12.478478 12.122663 37.734170 0.356724 1.243731 0.168932 -0.043436 -250904.000000 0 0 1
34.741518 12.222578 11.546763 38.596531 0.338291 1.266978 0.153426 -0.038219 42803.400000 0 0 1
34.638748 12.274978 10.115963 38.116278 0.340564 1.302180 0.134718 -0.034645 -281019.000000 0 0 1
35.969758 12.403278 9.340163 39.177844 0.332057 1.330074 0.109323 -0.024569 -596676.000000 0 0 1
36.655338 11.197878 9.417063 39.467548 0.296487 1.329870 0.119716 -0.028053 -172460.000000 0 0 1
-35.668737 11.312678 9.094163 38.508951 -0.307124 1.332387 0.116534 -0.022814 178128.000000 0 0 1
-35.302452 11.229478 7.604863 37.817962 -0.307973 1.368324 0.115632 -0.033545 -515916.000000 0 0 1
-35.687245 12.375778 6.820063 38.382973 -0.333807 1.392163 0.109440 -0.039700 236923.000000 0 0 1
-35.209120 12.274678 5.504563 37.691512 -0.335447 1.424230 0.121249 -0.038398 232136.000000 0 0 1
-36.343331 12.810178 4.596763 38.808100 -0.338880 1.452069 0.109684 -0.043119 207944.000000 0 0 1
36.201998 11.946178 4.529363 38.390246 0.318736 1.452539 0.113657 -0.042761 1059600.000000 0 0 1
34.961068 12.690078 4.481763 37.461988 0.348189 1.450874 0.096872 -0.037585 939105.000000 0 0 1
34.558308 13.325678 5.838163 37.495793 0.368031 1.414458 0.110624 -0.037609 -1735320.000000 0 0 1
33.972638 14.583178 5.519863 37.380183 0.405475 1.422586 0.100395 -0.022803 27517.500000 0 0 1
33.455278 15.286678 6.619563 37.373209 0.428601 1.392736 0.092522 -0.022004 388679.000000 0 0 1
32.157438 14.711078 7.263663 36.100934 0.429049 1.368209 0.119347 -0.035734 -279769.000000 0 0 1
32.384398 13.508678 8.044263 35.999219 0.395190 1.345437 0.137149 -0.031675 -648559.000000 0 0 1
31.249268 12.726078 8.159763 34.713853 0.386736 1.333518 0.148387 -0.035403 -751794.000000 0 0 1
31.257948 11.524378 7.260163 34.096636 0.353224 1.356225 0.146211 -0.039388 -324973.000000 0 0 1
31.038278 11.816578 5.897763 33.731140 0.363767 1.395047 0.128635 -0.043280 202140.000000 0 0 1
31.243698 10.685878 5.106963 33.413137 0.329545 1.417352 0.137385 -0.052373 -278634.000000 0 0 1
30.716698 10.886878 3.671163 32.795077 0.340615 1.458619 0.108462 -0.054833 -326520.000000 0 0 1
29.331588 10.678578 3.621663 31.424362 0.349149 1.455289 0.099326 -0.049828 -268466.000000 0 0 1
28.778178 11.101978 2.378063 30.936914 0.368186 1.493852 0.109532 -0.052622 -401248.000000 0 0 1
27.280958 10.850978 2.240163 29.445080 0.378564 1.494643 0.129137 -0.037345 -453903.000000 0 0 1
27.037058 9.578478 1.629463 28.729861 0.340476 1.514049 0.106745 -0.046008 -690762.000000 0 0 1
25.693658 9.231778 1.673563 27.353073 0.344937 1.509574 0.119787 -0.039075 -963751.000000 0 0 1
25.512058 7.723878 1.619563 26.704801 0.293981 1.510112 0.130858 -0.036728 248612.000000 0 0 1
26.034158 7.061878 2.796463 27.119508 0.264881 1.467496 0.149745 -0.036847 1321720.000000 0 0 1
27.469558 6.922778 2.837263 28.470187 0.246876 1.470973 0.177303 -0.044741 552290.000000 0 0 1
28.025458 6.246078 4.119863 29.007121 0.219288 1.428285 0.179352 -0.053050 -967572.000000 0 0 1
29.404178 6.153178 4.000963 30.306352 0.206285 1.438392 0.193061 -0.049077 -819583.000000 0 0 1
29.804868 5.448778 5.134863 30.730867 0.180818 1.402917 0.176093 -0.041627 -961247.000000 0 0 1
31.285918 5.276178 5.408863 32.185440 0.167072 1.401942 0.164050 -0.045037 -728216.000000 0 0 1
31.842498 6.506478 5.836063 33.020275 0.201559 1.393121 0.151925 -0.043785 -791677.000000 0 0 1
33.073388 6.357578 6.462963 34.293406 0.189910 1.381202 0.112997 -0.033360 -609103.000000 0 0 1
33.513088 7.589978 7.206763 35.109433 0.222721 1.364061 0.110534 -0.038663 -5103.740000 0 0 1
32.806508 7.886278 8.419463 34.775677 0.235911 1.326259 0.120477 -0.040646 135311.000000 0 0 1
33.293708 8.989078 9.160763 35.681846 0.263706 1.311154 0.132445 -0.040159 -350391.000000 0 0 1
32.721958 8.986478 10.536863 35.531800 0.268024 1.269721 0.136438 -0.031457 -795865.000000 0 0 1
31.445948 9.537178 10.643163 34.541024 0.294471 1.257568 0.134120 -0.034256 -312210.000000 0 0 1
30.925608 9.246578 11.936863 34.414839 0.290534 1.216583 0.113562 -0.026271 873951.000000 0 0 1
29.401778 9.609378 12.186963 33.246455 0.315886 1.195483 0.108322 -0.029849 819293.000000 0 0 1
29.152618 10.961378 12.462663 33.546161 0.359647 1.190164 0.134275 -0.042705 232537.000000 0 0 1
29.133838 11.919578 11.397363 33.477705 0.388354 1.223405 0.143864 -0.052369 -549687.000000 0 0 1
28.081258 11.684878 10.318863 32.118100 0.394316 1.243717 0.116632 -0.044716 -492115.000000 0 0 1
28.105158 12.555578 9.235463 32.137770 0.420136 1.279315 0.100758 -0.030091 85460.200000 0 0 1
26.937058 12.355978 8.462563 30.820290 0.430064 1.292646 0.087763 -0.029691 -26330.000000 0 0 1
26.683958 13.484378 7.448063 30.811292 0.467908 1.326646 0.073301 -0.028284 -129796.000000 0 0 1
26.397658 14.652878 8.119063 31.264395 0.506737 1.308095 0.072122 -0.017613 234410.000000 0 0 1
26.706758 15.900878 7.453163 31.963080 0.537021 1.335449 0.070252 -0.014109 -599653.000000 0 0 1
26.312258 17.220178 8.216063 32.501895 0.579500 1.315236 0.087734 -0.018227 1099660.000000 0 0 1
24.954158 17.683378 8.319363 31.695799 0.616497 1.305210 0.094549 -0.017798 1144720.000000 0 0 1
23.957458 16.806278 8.848263 30.572905 0.611735 1.277180 0.082742 -0.008753 -167538.000000 0 0 1
22.667558 17.599978 9.134763 30.116795 0.660209 1.262631 0.082591 -0.015203 26507.600000 0 0 1
21.953058 17.922578 7.910763 29.423388 0.684664 1.298587 0.088165 -0.024126 124217.000000 0 0 1
20.915358 18.830478 8.184263 29.309065 0.732991 1.287794 0.118775 -0.028035 -164801.000000 0 0 1
20.335758 19.349978 6.820163 28.887356 0.760564 1.332451 0.109212 -0.028051 -30691.900000 0 0 1
21.161958 20.263778 6.121663 29.931988 0.763720 1.364824 0.083573 -0.013069 104805.000000 0 0 1
20.651058 20.549478 4.831463 29.531175 0.782933 1.406452 0.093073 -0.021686 108950.000000 0 0 1
17.775039 16.877478 32.884315 41.014381 0.759502 0.640537 0.090259 -0.018761 243531.000000 0 0 1
16.953339 17.601078 31.958128 40.231028 0.804141 0.652835 0.081054 -0.024947 587719.000000 0 0 1
16.633239 16.768278 30.854678 38.856800 0.789441 0.653335 0.080316 -0.029510 -214383.000000 0 0 1
16.219839 17.489778 29.595668 38.011565 0.823053 0.678370 0.084743 -0.037032 -372498.000000 0 0 1
17.283139 18.024878 28.863148 38.166536 0.806403 0.713246 0.096042 -0.037734 -157998.000000 0 0 1
16.926439 18.373078 27.508988 37.159370 0.826357 0.737284 0.103044 -0.041360 372965.000000 0 0 1
18.215539 18.780078 26.728958 37.402331 0.800657 0.774696 0.089012 -0.029574 277752.000000 0 0 1
18.597839 20.112078 27.032368 38.485377 0.824496 0.792024 0.094147 -0.032692 519833.000000 0 0 1
19.838539 20.405378 26.379558 38.805002 0.799482 0.823309 0.067122 -0.018191 379465.000000 0 0 1
20.270339 21.894878 26.665388 40.016437 0.823907 0.841479 0.080971 -0.026719 15012.400000 0 0 1
19.624839 22.889478 25.849128 39.714480 0.862037 0.862061 0.094019 -0.034360 251632.000000 0 0 1
19.856839 24.127478 26.387688 40.899136 0.882189 0.869525 0.083307 -0.029339 -862536.000000 0 0 1
18.922439 25.190278 25.937638 40.808943 0.926540 0.882028 0.108446 -0.033797 -751435.000000 0 0 1
19.004739 25.610378 24.580238 40.264869 0.932389 0.914151 0.114957 -0.031209 -70447.600000 0 0 1
18.270739 26.773178 24.387758 40.563354 0.971962 0.925761 0.125610 -0.042391 -365873.000000 0 0 1
18.716639 27.467378 23.062698 40.455623 0.972654 0.964200 0.099920 -0.042556 294808.000000 0 0 1
19.958739 28.138878 23.259318 41.607014 0.953860 0.977588 0.101641 -0.039483 186878.000000 0 0 1
20.149039 29.168878 22.288798 41.875980 0.966291 1.009532 0.079377 -0.041574 -820116.000000 0 0 1
21.542739 29.741478 22.225298 42.925622 0.943925 1.026562 0.084971 -0.033680 -1184370.000000 0 0 1
22.395839 29.065378 21.368898 42.461743 0.914283 1.043440 0.096511 -0.036869 -188615.000000 0 0 1
23.612939 29.784378 21.167798 43.505813 0.900463 1.062659 0.080643 -0.041404 496429.000000 0 0 1
23.956239 30.092978 19.680998 43.206833 0.898454 1.097855 0.070842 -0.033532 296710.000000 0 0 1
23.003339 31.047378 19.227298 43.159961 0.933138 1.109076 0.064394 -0.025507 424492.000000 0 0 1
22.932639 31.036778 17.818998 42.505343 0.934446 1.138213 0.073310 -0.014687 59249.100000 0 0 1
21.991939 32.086478 17.198598 42.532096 0.969939 1.154509 0.089203 -0.021126 -8895.770000 0 0 1
22.645339 33.373278 17.282098 43.877762 0.974614 1.165959 0.086517 -0.020066 433571.000000 0 0 1
22.613539 -33.903156 16.161098 43.840361 -0.982560 1.193256 0.085363 -0.018121 288588.000000 0 0 1
23.548739 33.884178 14.920298 43.878194 0.963449 1.223838 0.075145 -0.016513 354566.000000 0 0 1
23.138439 32.716278 14.288498 42.542959 0.955224 1.228278 0.100776 -0.021492 -49402.600000 0 0 1
22.291739 32.969878 13.197898 41.929929 0.976275 1.250592 0.076711 -0.014205 -152902.000000 0 0 1
21.990439 31.751778 12.292998 40.532365 0.965072 1.262655 0.075753 -0.022317 -120319.000000 0 0 1
23.116239 31.400578 11.513998 40.656229 0.936204 1.283663 0.103412 -0.036285 -114617.000000 0 0 1
22.826739 30.252678 10.704098 39.380988 0.924398 1.295524 0.084553 -0.032444 -458573.000000 0 0 1
23.978239 29.576178 9.853898 39.329449 0.889548 1.317550 0.087168 -0.030934 753107.000000 0 0 1
25.014839 28.968678 10.611498 39.718136 0.858509 1.300341 0.099716 -0.030590 -467872.000000 0 0 1
25.879639 29.884378 11.188198 41.085369 0.857091 1.294997 0.103603 -0.034353 -1112930.000000 0 0 1
27.288539 29.221578 11.262898 41.538149 0.819592 1.296213 0.118164 -0.035765 255280.000000 0 0 1
27.461639 28.157978 12.240298 41.192696 0.797917 1.269093 0.115623 -0.035016 499777.000000 0 0 1
28.740239 28.218678 12.903998 42.294306 0.776242 1.260753 0.107515 -0.021650 868133.000000 0 0 1
29.024239 27.005278 13.797298 41.976862 0.749380 1.235882 0.093786 -0.030842 275561.000000 0 0 1
30.195739 27.056278 14.598698 43.092306 0.730617 1.225179 0.073754 -0.031734 245640.000000 0 0 1
30.379239 25.861478 15.330598 42.740396 0.705241 1.203931 0.077383 -0.031742 -184235.000000 0 0 1
31.561839 25.953978 16.298498 43.993178 0.688204 1.191273 0.063123 -0.035542 108752.000000 0 0 1
32.842539 25.967478 15.661298 44.701438 0.669023 1.212848 0.061456 -0.028980 434984.000000 0 0 1
33.837739 26.090278 16.674798 45.866590 0.656832 1.198721 0.042842 -0.031664 874947.000000 0 0 1
35.280239 26.398278 16.157298 46.932106 0.642377 1.219336 0.063864 -0.031505 655055.000000 0 0 1
35.539739 27.681378 15.565298 47.661412 0.661733 1.238113 0.064604 -0.022277 -1175530.000000 0 0 1
-36.813281 27.939378 15.386398 48.709011 -0.649203 1.249408 0.087066 -0.021539 -915338.000000 0 0 1
-36.453881 29.199578 14.570498 48.926477 -0.675351 1.268405 0.064095 -0.023479 -29495.200000 0 0 1
36.750339 30.402178 15.118398 50.034446 0.691145 1.263839 0.058078 -0.028174 35036.900000 0 0 1
36.620939 31.386078 14.100598 50.249437 0.708574 1.286365 0.050443 -0.008530 29462.500000 0 0 1
35.598839 32.459778 14.559498 50.327860 0.739308 1.277308 0.033105 -0.009080 -1089620.000000 0 0 1
35.519239 33.553578 13.641898 50.730270 0.756948 1.298535 0.006389 -0.014034 -244334.000000 0 0 1
34.460239 -33.688156 13.778398 50.122292 -0.774069 1.292315 0.001184 -0.005092 376566.000000 0 0 1
33.032539 33.910078 13.387098 49.196101 0.798506 1.295204 0.043548 -0.001640 277286.000000 0 0 1
32.701439 32.826878 14.296298 48.490949 0.787312 1.271525 0.037202 -0.010976 -761080.000000 0 0 1
31.745139 31.954278 13.768498 47.099907 0.788681 1.274139 0.069071 -0.001579 -292847.000000 0 0 1
31.309839 30.771078 14.683398 46.290036 0.776720 1.248016 0.093887 -0.017628 -326338.000000 0 0 1
30.460739 31.191978 15.701998 46.339495 0.797258 1.225105 0.080557 -0.024296 -159809.000000 0 0 1
30.061339 30.193878 16.610798 45.730438 0.787598 1.199061 0.081957 -0.021429 -239608.000000 0 0 1
28.944639 30.658278 17.542898 45.667006 0.814141 1.176511 0.066948 -0.020073 -57320.900000 0 0 1
28.472039 29.682778 18.498398 45.098947 0.806214 1.148152 0.053739 -0.016386 365854.000000 0 0 1
29.333839 29.666178 19.634198 46.109196 0.791031 1.130929 0.046831 -0.021696 101453.000000 0 0 1
28.973539 28.626678 20.677598 45.678394 0.779376 1.101030 0.036201 -0.025802 -554987.000000 0 0 1
27.714739 28.701478 21.266698 45.212322 0.802887 1.081082 0.041500 -0.028024 -446857.000000 0 0 1
27.708239 27.909978 22.435398 45.277593 0.789025 1.052377 0.031967 -0.027758 -370148.000000 0 0 1
26.383939 27.910278 23.182998 44.861423 0.813503 1.027724 0.051909 -0.031558 -705155.000000 0 0 1
25.376939 27.089578 22.654098 43.486118 0.818029 1.022833 0.072477 -0.035836 475874.000000 0 0 1
24.181839 27.071078 23.455368 43.217576 0.841711 0.997115 0.080878 -0.040764 675374.000000 0 0 1
24.195539 25.878378 24.471338 43.057647 0.818993 0.966311 0.085006 -0.037471 -1011700.000000 0 0 1
25.085939 25.964478 25.491508 44.195876 0.802606 0.956009 0.050871 -0.035416 -689771.000000 0 0 1
24.762039 24.930378 26.444938 43.977461 0.788786 0.925632 0.069307 -0.037928 -686570.000000 0 0 1
26.010739 24.617678 27.259068 45.007171 0.757890 0.920201 0.075613 -0.043499 -142375.000000 0 0 1
26.621439 25.661278 27.985138 46.372084 0.767035 0.922924 0.097737 -0.043596 7563.250000 0 0 1
27.276239 26.624378 27.276318 46.870548 0.773305 0.949672 0.054548 -0.024114 -1424880.000000 0 0 1
27.525239 27.863778 28.197848 48.261243 0.791510 0.946810 0.028975 -0.021033 -335472.000000 0 0 1
28.358239 27.704178 29.336588 49.318826 0.773732 0.933735 0.048396 -0.014698 190207.000000 0 0 1
28.477039 28.918078 30.035398 50.490812 0.793082 0.933694 0.057244 -0.014315 737584.000000 0 0 1
30.016739 29.158278 30.168488 51.588249 0.770892 0.946170 0.045740 -0.012600 712452.000000 0 0 1
30.716139 29.240278 28.943258 51.343814 0.760788 0.971920 0.024122 -0.008412 -7626.510000 0 0 1
32.095639 29.466578 29.144848 52.419762 0.742718 0.981243 0.056513 -0.012350 283910.000000 0 0 1
32.942539 29.937778 27.960518 52.566834 0.737649 1.009949 0.051260 -0.011827 -249013.000000 0 0 1
32.590439 31.273578 27.666188 52.967833 0.764781 1.021226 0.050295 -0.014549 230128.000000 0 0 1
33.238839 31.657978 26.495328 53.000475 0.761043 1.047305 0.050381 -0.016859 -374636.000000 0 0 1
32.935539 33.077578 26.100898 53.480209 0.787550 1.060945 0.051020 -0.017440 -230030.000000 0 0 1
33.602339 34.007678 26.919638 54.866258 0.791393 1.057971 0.068192 -0.017784 126803.000000 0 0 1
33.271439 -32.789256 26.615338 53.763372 -0.778099 1.052909 0.068350 -0.014434 -463572.000000 0 0 1
34.211239 -31.716456 27.148738 53.975888 -0.747575 1.043754 0.076344 -0.017707 -304277.000000 0 0 1
34.194039 -31.591356 28.595248 54.634552 -0.745856 1.019970 0.084681 -0.024025 562431.000000 0 0 1
35.177539 -30.654556 29.036138 54.956877 -0.716801 1.014147 0.083954 -0.028806 193919.000000 0 0 1
35.109339 -30.347956 30.574068 55.573715 -0.712786 0.988248 0.080503 -0.028299 -165277.000000 0 0 1
35.161139 -31.443956 31.528248 56.736747 -0.729647 0.981599 0.082546 -0.027474 587506.000000 0 0 1
33.960239 -32.213056 31.579008 56.464259 -0.759001 0.977286 0.076077 -0.024957 111111.000000 0 0 1
33.960539 -33.135556 32.805137 57.684143 -0.773103 0.965868 0.083741 -0.026125 -503905.000000 0 0 1
33.628239 -32.540956 -33.999587 57.842408 -0.768968 2.199129 0.068105 -0.033191 -21959.500000 0 0 1
33.756839 -33.400156 -32.860487 57.748647 -0.780087 2.176117 0.072665 -0.030316 53316.900000 0 0 1
32.870939 33.461278 -32.762667 57.214929 0.794298 2.180500 0.062294 -0.028511 -203084.000000 0 0 1
33.250839 32.519278 -33.728287 57.451885 0.774276 2.198231 0.084045 -0.031536 106541.000000 0 0 1
32.438639 31.361378 -33.775397 56.361146 0.768515 2.213382 0.088114 -0.021862 13784.600000 0 0 1
32.852539 30.477578 33.063998 55.690215 0.747914 0.935131 0.071524 -0.009775 797604.000000 0 0 1
34.057639 29.737078 33.345072 56.179270 0.717775 0.935337 0.082675 -0.016055 698767.000000 0 0 1
34.366739 29.021178 32.153226 55.291333 0.701266 0.950196 0.066140 -0.015127 150597.000000 0 0 1
35.724639 28.256878 32.139373 55.746213 0.669206 0.956321 0.058431 -0.009185 309164.000000 0 0 1
35.678639 26.993778 32.736451 55.437393 0.647700 0.939103 0.059010 -0.001669 152075.000000 0 0 1
-36.734581 26.409178 32.713766 55.830678 -0.623311 0.944749 0.032319 0.002395 82966.000000 0 0 1
-36.717981 25.100778 33.482990 55.671984 -0.599641 0.925502 0.022134 0.013547 193150.000000 0 0 1
36.337939 24.049078 32.774846 54.525173 0.584638 0.925925 0.018768 0.010653 271336.000000 0 0 1
36.161039 22.836678 33.504673 54.329529 0.563279 0.906261 0.022684 0.000680 -290807.000000 0 0 1
35.807039 21.567678 32.698245 53.070557 0.542131 0.906979 0.018579 -0.015781 -284771.000000 0 0 1
-36.785281 21.064778 31.987728 53.104581 -0.520060 0.924350 0.027192 -0.010219 69810.600000 0 0 1
36.580939 19.870178 31.282998 52.073170 0.497595 0.926356 0.037259 -0.013268 423171.000000 0 0 1
-35.898881 19.294578 30.488188 50.897348 -0.493173 0.928528 0.037798 -0.019205 444751.000000 0 0 1
-35.495381 20.015578 29.338308 50.212366 -0.513447 0.946798 0.030643 -0.009764 349261.000000 0 0 1
-34.447881 19.464178 28.534488 48.782453 -0.514311 0.945998 0.040887 -0.000961 389593.000000 0 0 1
-34.927581 18.386478 27.523078 48.119833 -0.484557 0.961891 0.071592 -0.001742 26154.900000 0 0 1
-35.570181 17.225778 28.015538 48.444149 -0.450989 0.954146 0.071445 -0.001658 279285.000000 0 0 1
-36.100681 16.380178 26.970298 47.947538 -0.425956 0.973395 0.093111 -0.006222 6576.000000 0 0 1
-36.579281 15.042078 27.571558 48.213055 -0.390140 0.962014 0.098827 -0.036259 227129.000000 0 0 1
-35.561681 14.398378 28.343168 47.699912 -0.384710 0.934529 0.090870 -0.029496 273254.000000 0 0 1
-36.024281 13.248578 29.031138 48.125675 -0.352415 0.923244 0.094950 -0.033543 64423.800000 0 0 1
-34.932281 12.166878 29.202658 47.128467 -0.335159 0.902513 0.098364 -0.022560 312415.000000 0 0 1
-33.846581 12.538578 30.033208 46.955304 -0.354779 0.876802 0.098627 -0.013660 -30336.200000 0 0 1
-32.990381 11.528178 30.442568 46.346673 -0.336176 0.854170 0.082838 -0.020793 -575564.000000 0 0 1
-31.537081 11.992578 30.510878 45.489813 -0.363382 0.835619 0.083185 -0.009771 -1414040.000000 0 0 1
-30.846181 12.257778 29.310628 44.281519 -0.378249 0.847425 0.068808 -0.012388 59126.000000 0 0 1
-29.497181 12.617778 29.470028 43.563454 -0.404208 0.827817 0.041296 -0.015402 168680.000000 0 0 1
-28.514381 11.517778 29.971888 42.942324 -0.383889 0.798256 0.045563 -0.014017 -965818.000000 0 0 1
-28.345781 10.524278 29.044188 41.926228 -0.355507 0.805508 0.056276 -0.022169 -81408.400000 0 0 1
-27.215181 9.762678 29.396858 41.232890 -0.344424 0.777105 0.052172 -0.018243 -406862.000000 0 0 1
-26.900381 8.559578 28.530488 40.135840 -0.308065 0.780093 0.044377 -0.021509 362873.000000 0 0 1
-27.876881 7.515278 28.503608 40.571610 -0.263328 0.791821 0.058611 -0.025147 -324876.000000 0 0 1
-29.043381 7.769878 27.808178 40.953434 -0.261405 0.824370 0.072935 -0.026832 -743874.000000 0 0 1
-30.112381 6.650678 27.865968 41.563195 -0.217372 0.835984 0.086386 -0.020683 -67408.800000 0 0 1
-30.545581 6.265678 29.119648 42.664331 -0.202319 0.819579 0.090876 -0.023130 25220.500000 0 0 1
-31.232081 5.029378 29.103298 42.985340 -0.159662 0.827047 0.114473 -0.023588 -62883.700000 0 0 1
-31.889081 4.675678 30.491268 44.367701 -0.145586 0.813113 0.109978 -0.029385 -351476.000000 0 0 1
-33.113481 5.345778 30.597428 45.401350 -0.160057 0.831278 0.119416 -0.031963 -62818.100000 0 0 1
-33.856781 4.808478 31.730558 46.650095 -0.141081 0.822785 0.126566 -0.031424 203054.000000 0 0 1
-35.318481 5.240078 31.876288 47.863882 -0.147292 0.841992 0.123901 -0.021896 -197777.000000 0 0 1
-35.467881 6.598678 32.310418 48.430117 -0.183944 0.840413 0.120898 -0.023629 -270910.000000 0 0 1
-36.835681 6.886378 32.186636 49.399080 -0.184815 0.861153 0.110072 -0.018464 -191611.000000 0 0 1
36.582339 8.319078 32.626912 49.719111 0.223604 0.854992 0.096379 -0.006520 -38434.500000 0 0 1
36.546839 8.427078 -34.025034 50.639806 0.226622 2.307571 0.094550 -0.002659 92720.000000 0 0 1
36.219039 9.725378 -33.654677 50.388878 0.262328 2.302178 0.094429 -0.007348 15955.400000 0 0 1
36.170239 9.877978 -32.090167 49.352198 0.266596 2.278680 0.085186 -0.006013 -1043600.000000 0 0 1
35.038239 9.324778 -31.574497 48.078878 0.260103 2.287261 0.093869 -0.005717 -931463.000000 0 0 1
35.099039 9.484678 -30.192477 47.259785 0.263923 2.263814 0.077135 -0.005223 8736.240000 0 0 1
33.840939 8.878578 -29.539537 45.788891 0.256579 2.271983 0.066173 -0.000192 -118951.000000 0 0 1
33.851839 7.464978 -29.488437 45.510886 0.217045 2.275676 0.051391 0.000723 339969.000000 0 0 1
32.559439 6.928078 -29.212367 44.288573 0.209656 2.291071 0.051618 0.002712 114070.000000 0 0 1
35.446838 5.471578 -18.884437 40.534411 0.153151 2.055433 0.074270 -0.021725 -694488.000000 0 0 1
34.980308 6.673878 -18.261237 40.020437 0.188524 2.044626 0.072200 -0.018988 429368.000000 0 0 1
35.649318 7.884978 -18.662837 41.004246 0.217677 2.043330 0.055607 -0.015794 -365811.000000 0 0 1
-36.595261 8.021878 -18.144937 41.626943 -0.215792 2.021828 0.069473 -0.030429 -381144.000000 0 0 1
-35.607974 7.415478 -18.912537 40.995136 -0.205319 2.050297 0.072983 -0.036347 -91360.700000 0 0 1
-35.141400 8.245778 -19.992837 41.262869 -0.230476 2.076615 0.062880 -0.024964 59792.000000 0 0 1
-34.010211 7.777378 -20.965137 40.702814 -0.224812 2.111895 0.026601 -0.009536 65488.100000 0 0 1
-34.494424 6.720178 -21.789137 41.349638 -0.192409 2.125803 0.027424 -0.007589 624639.000000 0 0 1
-35.256575 7.112378 -22.942537 42.661130 -0.199060 2.138605 0.024423 -0.000526 251921.000000 0 0 1
-35.394864 5.901678 -23.904137 43.116516 -0.165218 2.158448 0.053316 -0.010253 -282632.000000 0 0 1
-34.190063 5.531278 -24.497837 42.422865 -0.160391 2.186420 0.049922 -0.017828 -178072.000000 0 0 1
-34.384526 4.370378 -25.260437 42.889224 -0.126425 2.200579 0.073420 -0.015348 54583.500000 0 0 1
-33.170881 4.078078 -26.192207 42.461392 -0.122328 2.235528 0.091516 -0.011687 122834.000000 0 0 1
-32.038601 3.796878 -25.416827 41.071929 -0.117959 2.238058 0.080961 -0.019405 690508.000000 0 0 1
-30.871841 3.506578 -26.241447 40.669155 -0.113100 2.272136 0.094902 -0.018977 1075670.000000 0 0 1
-29.466961 3.767778 -25.676667 39.265623 -0.127174 2.283554 0.095813 -0.034860 -112310.000000 0 0 1
-29.141211 5.102078 -25.456087 39.028883 -0.173324 2.281328 0.065401 -0.017164 -242027.000000 0 0 1
-27.852051 5.405878 -25.012507 37.823085 -0.191709 2.293350 0.065660 -0.019207 -330911.000000 0 0 1
-27.500271 6.910978 -25.202157 37.936463 -0.246207 2.297387 0.055261 -0.020226 149851.000000 0 0 1
-28.306471 7.833078 -24.438637 38.208119 -0.269968 2.264799 0.051472 -0.024977 101052.000000 0 0 1
-27.942131 9.230378 -24.586337 38.346454 -0.319053 2.266809 0.023780 -0.018584 -343699.000000 0 0 1
-26.577191 9.654378 -24.018637 37.100526 -0.348437 2.274956 0.072704 -0.015672 -32746.600000 0 0 1
-26.603991 10.020678 -22.639437 36.341855 -0.360226 2.243314 0.030094 -0.014266 60631.300000 0 0 1
-25.283971 10.242178 -22.192437 35.166542 -0.384883 2.253724 0.077827 -0.022219 -329377.000000 0 0 1
-25.157741 10.702078 -20.727837 34.308740 -0.402209 2.219503 0.096231 -0.040088 -760820.000000 0 0 1
-25.570071 12.021378 -20.465137 34.887876 -0.439471 2.197647 0.068409 -0.036666 893275.000000 0 0 1
-26.970171 12.226478 -20.255637 35.877120 -0.425622 2.170725 0.061640 -0.015161 704052.000000 0 0 1
-27.726361 11.484678 -19.093037 35.569551 -0.392700 2.137413 0.031734 -0.012749 -313515.000000 0 0 1
-27.217911 11.974878 -17.897637 34.706452 -0.414476 2.112605 0.036513 -0.022223 297529.000000 0 0 1
-27.984541 11.396978 -16.873537 34.608408 -0.386749 2.080085 0.017174 -0.025931 -672547.000000 0 0 1
-27.393811 11.488178 -15.475137 33.494462 -0.397093 2.051069 0.048316 -0.027879 118259.000000 0 0 1
-26.391631 10.548778 -15.099437 32.183659 -0.380249 2.059141 0.062859 -0.032364 1138240.000000 0 0 1
-25.077561 10.877678 -15.571337 31.459092 -0.409268 2.088598 0.075301 -0.018522 -453595.000000 0 0 1
-24.236161 9.642378 -15.552737 30.368645 -0.378652 2.108461 0.070327 -0.008626 -987771.000000 0 0 1
-22.844961 9.761278 -15.636537 29.354320 -0.403803 2.132564 0.093417 -0.008576 64368.200000 0 0 1
-22.215961 8.488078 -15.561137 28.420862 -0.364956 2.150200 0.103477 -0.013376 945662.000000 0 0 1
-20.641161 8.533678 -15.514637 27.195315 -0.392030 2.177898 0.133444 -0.023316 917463.000000 0 0 1
-20.029061 8.893678 -16.731837 27.572000 -0.417885 2.222877 0.139645 -0.035935 677557.000000 0 0 1
-18.613261 8.975278 -16.571537 26.488204 -0.449305 2.246722 0.143303 -0.038961 34306.300000 0 0 1
-17.814161 9.586278 -17.747437 26.911198 -0.493682 2.290925 0.112168 -0.029093 -58676.100000 0 0 1
-17.593561 8.758978 -18.893637 27.262109 -0.461927 2.336489 0.150923 -0.050545 767752.000000 0 0 1
-16.612461 7.747078 -18.564737 26.089088 -0.436360 2.362555 0.154197 -0.047959 -285621.000000 0 0 1
-16.305761 6.728578 -19.754637 26.483906 -0.391364 2.412698 0.139447 -0.052060 118821.000000 0 0 1
-17.315261 5.817978 -20.178137 27.218088 -0.324151 2.405876 0.136310 -0.047040 -92757.100000 0 0 1
-18.235261 6.392678 -21.071537 28.590221 -0.337180 2.399445 0.133995 -0.048713 -501124.000000 0 0 1
-19.152161 5.335178 -21.687537 29.421398 -0.271680 2.399617 0.122589 -0.039173 -111131.000000 0 0 1
-19.993761 4.747578 -20.677537 29.152196 -0.233135 2.359295 0.152369 -0.038619 529357.000000 0 0 1
-20.794561 3.733278 -21.264737 29.975660 -0.177639 2.359443 0.108907 -0.017189 -411725.000000 0 0 1
-21.861861 3.145378 -20.350537 30.032961 -0.142895 2.315300 0.115666 -0.023313 -658077.000000 0 0 1
-22.506361 2.045978 -20.934037 30.805133 -0.090657 2.317963 0.114160 -0.020286 29333.100000 0 0 1
-23.358561 1.538078 -19.928237 30.742848 -0.065752 2.276045 0.106968 -0.022913 -503728.000000 0 0 1
-24.021061 0.271778 -20.440537 31.542048 -0.011314 2.275806 0.094612 -0.012779 -214856.000000 0 0 1
-23.072761 -0.755322 -20.614637 30.949735 0.032725 2.299721 0.105302 -0.023716 508145.000000 0 0 1
-23.706461 -2.056522 -20.590637 31.467442 0.086533 2.284116 0.094085 -0.024515 398688.000000 0 0 1
-24.448261 -2.510222 -21.901237 32.919339 0.102316 2.298692 0.109267 -0.025598 517410.000000 0 0 1
-23.547061 -2.573022 -23.008637 33.022445 0.108840 2.341663 0.087975 -0.026120 490451.000000 0 0 1
-22.697661 -3.728022 -23.024637 32.545597 0.162793 2.356691 0.082343 -0.036450 471691.000000 0 0 1
-21.532961 -3.582322 -24.030737 32.465024 0.164855 2.404170 0.079270 -0.029235 12423.800000 0 0 1
-22.074161 -3.645322 -25.320027 33.788470 0.163663 2.417905 0.080216 -0.030038 -10372.000000 0 0 1
-21.126161 -3.998322 -26.306467 33.975454 0.187047 2.456371 0.078052 -0.030996 -303943.000000 0 0 1
-21.590961 -4.150022 -27.807177 35.448997 0.189895 2.472569 0.072700 -0.037624 -230447.000000 0 0 1
-22.243161 -5.382722 -27.915777 36.097403 0.237430 2.454898 0.073393 -0.034765 95384.300000 0 0 1
-22.942661 -5.465822 -29.140007 37.488410 0.233879 2.461170 0.046765 -0.025443 -448062.000000 0 0 1
-22.561961 -6.713522 -29.942597 38.087696 0.289216 2.475349 0.055033 -0.028596 565843.000000 0 0 1
-21.232561 -6.535722 -30.458427 37.699510 0.298612 2.511421 0.046567 -0.036523 719262.000000 0 0 1
-20.683861 -7.704722 -31.002137 38.056765 0.356576 2.522885 0.040587 -0.031612 -123909.000000 0 0 1
-19.274161 -7.503222 -31.610587 37.775929 0.371239 2.562193 0.050027 -0.028795 -237278.000000 0 0 1
-19.226461 -6.829822 -32.845447 38.666868 0.341327 2.585732 0.054566 -0.033084 325993.000000 0 0 1
-19.474961 -7.752422 -33.910357 39.865856 0.378843 2.587944 0.049738 -0.029521 -521520.000000 0 0 1
-19.261561 -7.137022 32.722029 38.635166 0.354848 0.560575 0.047882 -0.028610 -786333.000000 0 0 1
-17.947361 -6.974922 32.324606 37.624958 0.370668 0.537236 0.058008 -0.026700 -629585.000000 0 0 1
-17.325061 -5.737222 32.667805 37.420034 0.319786 0.509470 0.050074 -0.029263 -713361.000000 0 0 1
-15.969661 -5.600122 32.029318 36.225249 0.337274 0.486080 0.052310 -0.029926 -1152700.000000 0 0 1
-16.141161 -5.485922 30.642978 35.066003 0.327623 0.507698 0.052482 -0.024589 597977.000000 0 0 1
-15.026661 -5.221322 29.760478 33.745352 0.334420 0.490891 0.054209 -0.017929 429286.000000 0 0 1
-15.479561 -5.393222 28.322728 32.724312 0.335257 0.524659 0.065599 -0.012297 83983.900000 0 0 1
-16.334861 -4.326222 27.952448 32.663179 0.258902 0.543742 0.056433 -0.016920 35191.000000 0 0 1
-16.948161 -4.471922 26.679498 31.922310 0.257979 0.581275 0.076224 -0.010428 -194951.000000 0 0 1
-16.051561 -4.142522 25.487448 30.404327 0.252565 0.576669 0.075970 -0.012820 -158766.000000 0 0 1
-15.884861 -2.760122 25.293478 29.995118 0.172040 0.567489 0.074360 -0.007480 93325.600000 0 0 1
-14.839861 -2.510722 24.379398 28.651008 0.167601 0.553083 0.053109 -0.003448 18562.100000 0 0 1
-14.666161 -0.972822 24.274688 28.377864 0.066234 0.544456 0.049394 -0.006301 131963.000000 0 0 1
-15.741361 -0.265822 23.664908 28.423388 0.016885 0.587037 0.043554 -0.014307 20293.800000 0 0 1
-15.710461 1.113478 24.031168 28.732481 -0.070757 0.580157 0.023826 -0.007342 -252310.000000 0 0 1
-16.447861 2.195378 23.267148 28.578174 -0.132691 0.619519 0.029388 -0.012198 -420599.000000 0 0 1
-15.714961 2.731678 22.184998 27.323913 -0.172107 0.623352 0.025311 -0.009109 179753.000000 0 0 1
-16.456561 3.647178 21.452298 27.282255 -0.218099 0.665983 0.017949 -0.006505 -2694.690000 0 0 1
-15.506361 4.350478 20.382398 25.977222 -0.273529 0.668704 0.014350 -0.005146 338028.000000 0 0 1
-14.769861 5.418278 20.916898 26.172947 -0.351604 0.644866 0.027113 -0.010049 -79358.900000 0 0 1
-13.533661 5.401478 20.235898 24.936470 -0.379743 0.624085 0.021950 -0.008557 -43425.700000 0 1 0
-12.443661 6.391378 20.673498 24.961730 -0.474488 0.594894 0.025109 -0.008702 116430.000000 0 1 0
-12.754861 7.729278 20.337498 25.219874 -0.544810 0.632744 0.030782 -0.010971 337808.000000 0 0 1
-11.596861 8.533778 20.414898 24.981606 -0.634396 0.614265 0.026182 -0.013650 152570.000000 0 1 0
-12.016361 9.984078 20.454298 25.738164 -0.693285 0.652272 0.020785 -0.009712 6538.370000 0 0 1
-12.551261 10.616578 19.342798 25.384833 -0.702084 0.704427 0.034612 -0.010545 224587.000000 0 0 1
-13.092261 11.872678 19.700398 26.466459 -0.736585 0.731230 0.029263 -0.001848 -235351.000000 0 0 1
-13.544561 12.747878 18.507898 26.239395 -0.755107 0.787883 0.030405 -0.000259 -428800.000000 0 0 1
-12.484261 13.143578 17.685698 25.325764 -0.811119 0.797737 0.026784 -0.003473 251568.000000 0 0 1
-11.904661 14.470978 17.953998 25.951420 -0.882392 0.806774 0.021948 -0.004078 -269364.000000 0 0 1
-12.837961 15.682978 17.734898 26.931314 -0.884821 0.851941 0.021085 -0.003395 -116109.000000 0 0 1
-13.055861 16.154078 16.424898 26.479936 -0.891070 0.901700 0.013025 -0.009968 62063.600000 0 0 1
-13.916361 15.319478 15.675098 25.962670 -0.833354 0.922593 0.034227 -0.007607 -512875.000000 0 0 1
-14.172461 15.814578 14.226398 25.560711 -0.840104 0.980541 0.021442 -0.012586 -154244.000000 0 0 1
-14.934661 16.974278 14.097898 26.644342 -0.849231 1.013240 0.022200 -0.017424 -320706.000000 0 0 1
-15.298661 17.198878 12.811498 26.343594 -0.843804 1.062920 -0.000622 -0.013778 -427688.000000 0 0 1
-16.378661 18.291778 12.714498 27.649741 -0.840522 1.092980 0.030342 -0.015907 -114727.000000 0 0 1
-17.612461 17.742778 13.139898 28.242909 -0.789084 1.086884 0.042711 -0.016298 198986.000000 0 0 1
-18.644861 18.724678 13.349698 29.605048 -0.787534 1.102993 0.055678 -0.020485 1104820.000000 0 0 1
-19.998161 18.048578 13.770798 30.254132 -0.734201 1.098232 0.063193 -0.014192 420168.000000 0 0 1
-20.704061 17.521578 12.696598 29.947745 -0.702335 1.132985 0.061774 -0.013024 -226412.000000 0 0 1
-21.991961 17.089778 13.101098 30.778981 -0.660616 1.131115 0.113368 -0.025361 472830.000000 0 0 1
-22.808861 16.544078 11.883698 30.580598 -0.627528 1.171682 0.108596 -0.021112 118688.000000 0 0 1
-22.379361 15.274578 11.460098 29.419082 -0.598904 1.170657 0.109307 -0.013020 148329.000000 0 0 1
-23.235161 14.791078 10.424998 29.450455 -0.566884 1.208969 0.122903 -0.017562 402357.000000 0 0 1
-22.631961 13.505678 9.762398 28.105399 -0.538028 1.216053 0.129379 -0.013028 -350849.000000 0 0 1
-22.681961 12.220378 10.413198 27.789273 -0.494181 1.186702 0.121230 -0.020502 408988.000000 0 0 1
-23.964761 11.634178 10.653298 28.690707 -0.451956 1.190371 0.132663 -0.023633 779774.000000 0 0 1
-24.808361 11.184678 9.414898 28.795696 -0.423555 1.237717 0.146705 -0.017587 -54061.300000 0 0 1
-25.249031 12.238178 8.594298 29.345333 -0.451332 1.273572 0.158981 -0.026647 73457.500000 0 0 1
-26.254871 11.750878 7.723398 29.783423 -0.420831 1.308480 0.172714 -0.029557 -214238.000000 0 0 1
-26.716461 12.770178 6.655698 30.350372 -0.445884 1.349704 0.153408 -0.030921 -611923.000000 0 0 1
-25.938951 12.876878 5.525098 29.481687 -0.460788 1.382274 0.160023 -0.033699 -24056.100000 0 0 1
-24.665661 13.486578 5.617498 28.667733 -0.500364 1.373568 0.161552 -0.034220 -166658.000000 0 0 1
-24.551161 15.006578 6.014498 29.396107 -0.548641 1.364739 0.156963 -0.028911 -212655.000000 0 0 1
-23.187061 15.343978 6.248998 28.497850 -0.584589 1.349720 0.128972 -0.027366 650666.000000 0 0 1
-23.061061 16.694778 6.743398 29.257505 -0.626612 1.338221 0.121103 -0.023710 20149.900000 0 0 1
-21.545061 16.981378 6.677998 28.233890 -0.667492 1.332009 0.095556 -0.014102 -64154.300000 0 0 1
-21.141761 17.389178 5.406098 27.903109 -0.688313 1.375818 0.107163 -0.030399 96386.900000 0 0 1
-19.798961 17.810878 5.455498 27.184347 -0.732587 1.368739 0.096088 -0.024667 -282038.000000 0 0 1
-19.304961 18.565978 4.198798 27.111012 -0.765887 1.415296 0.096881 -0.023041 1095610.000000 0 0 1
-17.889761 18.890578 4.321798 26.373764 -0.812602 1.406187 0.079897 -0.023192 1520720.000000 0 0 1
-17.497261 19.961278 3.461398 26.769162 -0.851083 1.441128 0.079964 -0.017709 -44301.900000 0 0 1
-17.793461 21.417078 3.964598 28.125016 -0.877551 1.429362 0.075312 -0.015721 -219441.000000 0 0 1
-17.170561 21.757878 5.188198 28.198419 -0.902697 1.385753 0.079207 -0.023554 93190.200000 0 0 1
-17.278261 23.144078 5.468398 29.395408 -0.929505 1.383677 0.056814 -0.018090 -336128.000000 0 0 1
-16.572661 23.569678 6.786598 29.601364 -0.957970 1.339472 0.046772 -0.007587 -18488.700000 0 0 1
-17.092261 22.996078 7.999798 29.748307 -0.931617 1.298529 0.040697 -0.009744 -182479.000000 0 0 1
-16.334961 23.251578 9.135198 29.848261 -0.958374 1.259750 0.038855 -0.013531 -247735.000000 0 0 1
-16.953361 22.634178 10.426798 30.140348 -0.927925 1.217554 0.027479 -0.012207 1299740.000000 0 0 1
-18.283861 23.184478 10.592498 31.369103 -0.903030 1.226353 0.020812 -0.007304 676654.000000 0 0 1
-19.050661 22.489278 11.574198 31.664766 -0.867988 1.196602 0.020800 -0.001302 522024.000000 0 0 1
-20.205961 23.390578 12.153598 33.213099 -0.858316 1.196167 0.025180 -0.000315 -227221.000000 0 0 1
-21.185461 23.759878 11.252598 33.763539 -0.842614 1.231020 0.033798 0.004827 -330946.000000 0 0 1
-20.727561 24.827278 10.415998 33.978207 -0.875152 1.259231 0.026097 -0.004171 -573309.000000 0 0 1
-21.866261 25.653478 9.782598 35.098911 -0.864928 1.288340 0.035039 -0.008107 57922.900000 0 0 1
-22.521861 26.448478 10.757498 36.365918 -0.865411 1.270490 0.039898 -0.013624 56536.800000 0 0 1
-23.535461 27.234078 10.163498 37.402000 -0.858121 1.295599 0.059358 -0.018779 -156760.000000 0 0 1
-24.233761 28.162378 11.141398 38.788213 -0.860237 1.279456 0.060707 -0.013299 -253921.000000 0 0 1
-23.368961 29.189478 11.639098 39.161238 -0.895692 1.269027 0.072006 -0.026880 126593.000000 0 0 1
-24.043261 30.105778 12.383098 40.469463 -0.896894 1.259822 0.073714 -0.029635 -630019.000000 0 0 1
8.957239 -32.061156 27.771938 43.352398 -1.298363 0.875505 0.046430 -0.032731 115012.000000 0 0 1
10.364839 -32.203556 27.729208 43.742518 -1.259413 0.884186 0.052428 -0.031477 593497.000000 0 0 1
10.906339 -32.033156 26.424538 42.933991 -1.242636 0.907816 0.068867 -0.034232 1480250.000000 0 0 1
12.472839 -32.249756 26.224008 43.397202 -1.201758 0.921936 0.039062 -0.027516 1252230.000000 0 0 1
12.889239 -33.572856 26.132378 44.454138 -1.204230 0.942397 0.050129 -0.024814 -343803.000000 0 0 1
14.272739 -33.633156 25.909388 44.790587 -1.169464 0.953962 0.071268 -0.024347 -357582.000000 0 0 1
14.782339 33.063478 25.747618 44.437045 1.150365 0.952782 0.098993 -0.026288 -281206.000000 0 0 1
14.731739 32.535878 24.434178 43.273971 1.145629 0.970800 0.087866 -0.033799 246515.000000 0 0 1
15.540439 31.381678 24.320728 42.635816 1.110990 0.963768 0.105522 -0.036995 -53633.100000 0 0 1
15.770239 30.834778 22.863898 41.499901 1.098036 0.987308 0.109871 -0.049148 2120.440000 0 0 1
14.694439 30.094878 22.323398 40.248755 1.116576 0.982871 0.099535 -0.045647 -64978.100000 0 0 1
14.931939 28.690278 22.352698 39.315874 1.090921 0.966065 0.105096 -0.038621 -290599.000000 0 0 1
14.592239 27.933978 23.609768 39.378442 1.089403 0.927844 0.115982 -0.033971 -299942.000000 0 0 1
15.312239 28.208678 24.821408 40.574579 1.073482 0.912528 0.115614 -0.031020 -94562.500000 0 0 1
14.571839 27.961878 25.961728 40.843805 1.090386 0.881966 0.110306 -0.031265 -297014.000000 0 0 1
15.322639 28.375378 27.283778 42.241566 1.075665 0.868596 0.109016 -0.035368 287819.000000 0 0 1
15.623439 29.754078 27.415528 43.370591 1.087282 0.886507 0.111675 -0.031197 283232.000000 0 0 1
16.251939 30.081778 28.644588 44.604387 1.075463 0.873442 0.128196 -0.036105 28994.900000 0 0 1
16.344439 31.583178 28.903608 45.826372 1.093243 0.888316 0.127778 -0.040809 -185914.000000 0 0 1
17.164739 32.348378 28.079818 46.146744 1.082953 0.916640 0.106012 -0.034910 -205349.000000 0 0 1
17.120139 33.692278 28.497298 47.332491 1.100664 0.924710 0.115726 -0.022345 -439176.000000 0 0 1
17.972639 -33.567956 27.600558 47.027803 -1.079223 0.943573 0.098307 -0.021855 -797897.000000 0 0 1
17.423739 -33.103956 26.383198 45.776978 -1.086304 0.956551 0.101156 -0.017798 -264142.000000 0 0 1
17.836839 -31.823256 25.842168 44.706712 -1.059930 0.954474 0.100879 -0.023186 -588789.000000 0 0 1
19.298739 -31.402056 25.691048 44.928392 -1.019733 0.962071 0.085503 -0.014904 -210407.000000 0 0 1
19.994839 -31.098856 26.889948 45.716537 -0.999397 0.941979 0.073807 -0.013795 283090.000000 0 0 1
21.015539 -30.118256 26.740828 45.429441 -0.961570 0.941442 0.075363 -0.012484 287532.000000 0 0 1
21.240139 -29.301756 28.050578 45.788332 -0.943569 0.911433 0.078678 -0.008270 -465306.000000 0 0 1
20.078039 -28.565756 28.238178 44.905732 -0.958146 0.890746 0.086858 -0.006620 -292067.000000 0 0 1
20.217339 -27.827956 29.481098 45.301999 -0.942498 0.862201 0.099053 -0.014037 123323.000000 0 0 1
18.873839 -27.253856 29.965948 44.687275 -0.965108 0.835819 0.093816 -0.012133 -63098.000000 0 0 1
18.229539 -26.333956 29.144208 43.303328 -0.965294 0.832506 0.106721 -0.009808 -1074850.000000 0 0 1
16.964739 -26.049856 29.607318 42.930067 -0.993549 0.809771 0.087776 -0.008347 -891629.000000 0 0 1
16.130439 -25.364456 28.487468 41.413555 -1.004364 0.812235 0.074879 -0.004390 -515080.000000 0 0 1
15.508139 -26.245656 27.577758 41.108023 -1.037107 0.835427 0.074531 -0.002762 200296.000000 0 0 1
14.878139 -25.528956 26.491558 39.684875 -1.043124 0.839886 0.075180 -0.014325 795756.000000 0 0 1
13.436639 -24.927256 26.705938 38.924523 -1.076411 0.814688 0.043173 -0.010221 1251180.000000 0 0 1
12.301939 -25.771356 26.912658 39.240179 -1.125433 0.815033 0.042125 -0.016012 679362.000000 0 0 1
11.927639 -26.575756 25.829828 38.932241 -1.148927 0.845368 0.044279 -0.022230 -893280.000000 0 0 1
11.030839 -27.783556 26.000108 39.618317 -1.192855 0.854939 0.062496 -0.031474 -671070.000000 0 0 1
9.724239 -27.425856 26.332778 39.244791 -1.230061 0.835256 0.043034 -0.037822 -460436.000000 0 0 1
8.880439 -28.569356 26.458078 39.938706 -1.269426 0.846689 0.043582 -0.036957 -232659.000000 0 0 1
7.424539 -28.297456 26.891298 39.736781 -1.314205 0.827477 0.040360 -0.038360 -333396.000000 0 0 1
6.503539 -28.125156 25.858458 38.755391 -1.343555 0.840323 0.048904 -0.041609 -294233.000000 0 0 1
6.585539 -26.853056 25.311068 37.484745 -1.330299 0.829511 0.053632 -0.042310 -687446.000000 0 0 1
5.310739 -26.485756 24.503788 36.471014 -1.372908 0.834065 0.072595 -0.040308 -106598.000000 0 0 1
5.103439 -27.320656 23.342538 36.295143 -1.386127 0.872216 0.062539 -0.033223 -79871.300000 0 0 1
4.560339 -28.608556 23.585128 37.356451 -1.412722 0.887499 0.061780 -0.033637 671727.000000 0 0 1
2.985639 -28.627556 23.735778 37.307348 -1.466880 0.881204 0.052929 -0.032870 864167.000000 0 0 1
2.266939 -28.213756 22.548098 36.188006 -1.490620 0.898119 0.056069 -0.027803 186290.000000 0 0 1
0.962139 -27.761256 22.851098 35.969233 -1.536153 0.882405 0.062349 -0.025900 76737.800000 0 0 1
0.736839 -26.321356 23.399398 35.226248 -1.542810 0.844293 0.068509 -0.025877 -34085.900000 0 0 1
1.367539 -26.060456 24.676368 35.915744 -1.518369 0.813358 0.063439 -0.026070 135398.000000 0 0 1
1.387939 -24.686756 24.922618 35.106968 -1.514633 0.781433 0.071054 -0.028853 -426178.000000 0 0 1
2.454639 -24.167056 25.906068 35.513325 -1.469574 0.753243 0.075152 -0.025581 222758.000000 0 0 1
3.741839 -24.087056 25.255698 35.100398 -1.416682 0.767675 0.069867 -0.025283 920728.000000 0 0 1
4.755639 -23.343556 25.956328 35.231643 -1.369823 0.742570 0.062374 -0.021702 639269.000000 0 0 1
4.543639 -21.869756 26.225698 34.448776 -1.365951 0.705488 0.061798 -0.012425 -622184.000000 0 0 1
4.382439 -21.015456 25.087698 33.018900 -1.365209 0.707794 0.057644 -0.012408 214404.000000 0 0 1
3.631839 -19.862756 25.384828 32.436227 -1.389947 0.671953 0.067921 -0.020368 1916.570000 0 0 1
3.589339 -19.071556 24.087208 30.932204 -1.384769 0.678190 0.073286 -0.022253 220217.000000 0 0 1
4.833439 -18.474256 23.788418 30.504903 -1.314901 0.676414 0.068545 -0.012543 36955.700000 0 0 1
4.709139 -18.032756 22.446998 29.175744 -1.315357 0.692939 0.070678 -0.012271 520782.000000 0 0 1
5.971739 -17.292156 21.894598 28.531627 -1.238276 0.696051 0.048703 -0.003704 342307.000000 0 0 1
6.996839 -18.156956 21.483098 28.985416 -1.202980 0.735986 0.029917 -0.004077 -1065900.000000 0 0 1
8.214839 -17.551456 21.236098 28.749071 -1.133039 0.739700 0.024283 -0.002364 -771652.000000 0 0 1
9.233339 -17.837856 22.316098 30.024189 -1.093148 0.732850 0.042614 0.004468 -703923.000000 0 0 1
9.248639 -17.053956 23.485428 30.462109 -1.073871 0.690431 0.051024 0.009561 512901.000000 0 0 1
10.477239 -17.248756 24.205238 31.514849 -1.024939 0.694993 0.063419 0.010707 751277.000000 0 0 1
10.480039 -16.429456 25.514408 32.105191 -1.002988 0.652262 0.081904 -0.009700 -197496.000000 0 0 1
10.861339 -15.099256 25.292208 31.395095 -0.947215 0.634092 0.094376 -0.011010 181129.000000 0 0 1
10.797139 -14.367056 26.515318 32.032056 -0.926323 0.595667 0.088304 -0.015417 -169292.000000 0 0 1
10.975639 -12.792256 26.544968 31.444265 -0.861681 0.565742 0.091693 -0.022042 -158742.000000 0 0 1
9.898739 -11.981056 26.188148 30.452419 -0.880283 0.535587 0.096777 -0.016419 -205632.000000 0 0 1
10.407339 -10.678056 26.078908 30.040690 -0.798237 0.519395 0.092093 -0.019818 20375.600000 0 0 1
9.519039 -9.824356 25.157848 28.636470 -0.801181 0.498031 0.084526 -0.015430 14374.700000 0 0 1
8.256939 -9.593056 25.763978 28.705162 -0.860111 0.456642 0.067821 -0.019805 -33718.500000 0 0 1
7.338639 -9.150756 24.773958 27.410599 -0.894855 0.442207 0.060547 -0.009054 903673.000000 0 0 1
5.835439 -9.364256 25.192288 27.502600 -1.013521 0.412811 0.047916 -0.012786 -83351.200000 0 0 1
5.350139 -8.318956 26.009958 27.827090 -0.999268 0.363385 0.059624 -0.012745 -617297.000000 0 0 1
4.041939 -8.578056 26.414578 28.065108 -1.130457 0.344663 0.048826 -0.013647 139005.000000 0 0 1
2.886339 -8.418856 25.383928 26.898920 -1.240512 0.337219 0.040450 -0.015168 -474333.000000 0 0 1
2.661839 -7.103356 24.884138 26.014676 -1.212263 0.295892 0.055774 -0.013736 -34056.300000 0 0 1
1.550339 -7.106356 24.008178 25.085782 -1.356000 0.294170 0.051407 -0.019622 304023.000000 0 0 1
1.475139 -5.766456 23.299648 24.047903 -1.320353 0.250112 0.049800 -0.025141 124179.000000 0 1 0
1.414139 -4.625256 24.145118 24.624774 -1.274079 0.197698 0.052507 -0.018688 180504.000000 0 1 0
2.109339 -3.522856 23.590108 23.944791 -1.031291 0.172333 0.055437 -0.015307 -230204.000000 0 1 0
1.309939 -2.906556 22.351898 22.578117 -1.147374 0.141677 0.049745 -0.025935 622171.000000 0 1 0
0.249839 -2.023556 22.629498 22.721166 -1.447953 0.089858 0.044894 -0.024449 837542.000000 0 1 0
-0.932661 -2.664556 23.182278 23.353538 1.234099 0.121180 0.041634 -0.022102 167355.000000 0 1 0
-1.991961 -1.673556 23.689418 23.831853 0.698751 0.109386 0.036500 -0.033130 -163160.000000 0 1 0
-1.603961 -0.923556 24.844288 24.913135 0.522433 0.074361 0.041561 -0.026553 -245721.000000 0 1 0
-2.435361 0.146444 25.118778 25.236986 -0.060060 0.096825 0.049749 -0.026073 -582964.000000 0 0 1
-1.944461 1.040444 26.325978 26.418187 -0.491317 0.083575 0.063014 -0.023496 -291391.000000 0 0 1
-2.096961 0.534444 27.609488 27.694164 -0.249553 0.078219 0.074451 -0.020415 4093.000000 0 0 1
-1.386661 -0.643556 27.941898 27.983686 0.434522 0.054656 0.071269 -0.022985 33663.400000 0 0 1
0.013439 -0.296556 28.623628 28.625168 -1.525511 0.010371 0.084666 -0.020554 839244.000000 0 0 1
1.021539 0.212444 27.771828 27.791422 0.205042 0.037553 0.063879 -0.015740 -1837.380000 0 0 1
1.540839 -0.728556 26.866608 26.920617 -0.441677 0.063354 0.057694 -0.017391 -600203.000000 0 0 1
2.709939 -1.640556 27.295118 27.478331 -0.544370 0.115542 0.069237 -0.016454 -199823.000000 0 0 1
2.195439 -2.665556 28.155968 28.366947 -0.881811 0.122039 0.069224 -0.017328 765979.000000 0 0 1
3.221439 -3.531056 28.686458 29.081934 -0.831218 0.165104 0.075176 -0.010867 775466.000000 0 0 1
3.871239 -4.599556 27.707468 28.352182 -0.871167 0.213664 0.073655 -0.014254 950332.000000 0 0 1
5.026439 -4.133256 26.992658 27.766031 -0.688193 0.236573 0.078693 -0.014268 88045.900000 0 0 1
5.391139 -4.994456 25.962808 26.982891 -0.747221 0.275846 0.070731 -0.013688 107030.000000 0 0 1
6.599739 -4.460256 25.103658 26.337124 -0.594315 0.307259 0.070754 -0.012195 -124551.000000 0 0 1
7.760239 -4.338356 25.897308 27.380891 -0.509764 0.330695 0.064711 -0.012707 197365.000000 0 0 1
8.626539 -5.510756 25.794338 27.751279 -0.568472 0.377788 0.063507 -0.009132 32934.300000 0 0 1
9.495239 -5.638856 24.556098 26.925048 -0.535894 0.422621 0.055873 -0.016407 -1091390.000000 0 0 1
8.796039 -5.811356 23.335788 25.606663 -0.583846 0.424324 0.056331 -0.013597 -270754.000000 0 0 1
9.584639 -5.654156 22.167698 24.804065 -0.532974 0.465244 0.065156 -0.013811 93317.300000 0 1 0
9.546239 -4.210156 21.694998 24.073409 -0.415368 0.448262 0.064260 -0.012883 212583.000000 0 1 0
8.287739 -3.833256 21.174298 23.059301 -0.433218 0.407148 0.058529 -0.018513 -202863.000000 0 1 0
8.318739 -2.757556 20.260198 22.074446 -0.320088 0.408262 0.049803 -0.023027 967808.000000 0 1 0
6.869139 -2.160556 20.024998 21.280358 -0.304734 0.345198 0.037874 -0.018180 1164600.000000 0 1 0
6.554739 -1.268556 21.099698 22.130773 -0.191169 0.306452 0.044467 -0.015946 -995154.000000 0 1 0
5.252539 -0.854556 20.948698 21.614055 -0.161281 0.248768 0.030138 -0.011469 -1190350.000000 0 1 0
4.617139 -0.376556 22.258298 22.735250 -0.081376 0.205194 0.031070 -0.014955 -11018.800000 0 1 0
3.337139 0.206444 22.059398 22.311346 0.061784 0.150424 0.023409 -0.015185 67672.200000 0 1 0
2.759639 0.451444 23.332858 23.499823 0.162152 0.119276 0.033033 -0.016011 230225.000000 0 1 0
1.310539 0.996444 23.386698 23.444574 0.650080 0.070280 0.027003 -0.018227 133333.000000 0 1 0
1.070239 2.333444 22.936798 23.080015 1.140771 0.111460 0.021842 -0.017344 -206235.000000 0 1 0
-0.288661 2.663444 23.002798 23.158281 -1.462839 0.115943 0.018841 -0.012853 -273937.000000 0 1 0
-0.725161 4.075444 22.549698 22.926491 -1.394705 0.181549 0.030878 -0.014869 -244649.000000 0 1 0
-0.439361 5.124444 23.457278 24.014514 -1.485267 0.215844 0.039548 -0.010973 47484.800000 0 1 0
-1.434961 6.121444 23.308898 24.141995 -1.340538 0.263471 0.033299 -0.009780 116886.000000 0 1 0
-1.236161 7.395444 24.116508 25.255230 -1.405176 0.301435 0.046226 -0.006480 -58757.000000 0 0 1
-0.228661 8.220444 23.560698 24.954648 -1.542987 0.335819 0.035409 -0.009073 2496.860000 0 1 0
-0.233161 9.503444 24.133228 25.938051 -1.546267 0.375245 0.048059 -0.003860 -1185650.000000 0 0 1
0.678239 10.530444 23.428438 25.695174 1.506478 0.423190 0.043577 -0.010152 1450810.000000 0 0 1
2.106039 10.299444 23.544668 25.784983 1.369096 0.419935 0.035031 -0.009412 712850.000000 0 0 1
2.637039 10.319444 24.835108 27.022722 1.320610 0.405145 0.047772 -0.010675 -202668.000000 0 0 1
3.949439 11.253444 24.821238 27.537827 1.233272 0.447918 0.042726 -0.010219 1193660.000000 0 0 1
5.150939 10.872444 24.204718 27.029809 1.128359 0.461283 0.042279 -0.008888 -114469.000000 0 0 1
5.036639 10.329444 22.871198 25.596032 1.117118 0.465617 0.048250 -0.014776 -1453540.000000 0 0 1
6.352039 10.115444 22.118698 25.137768 1.010075 0.495147 0.041460 -0.008952 -531332.000000 0 0 1
6.944239 11.272444 21.660898 25.386708 1.018669 0.548634 0.043405 -0.015522 -52637.300000 0 0 1
8.189539 10.865444 21.110898 25.115661 0.924917 0.572504 0.055297 -0.014038 121609.000000 0 0 1
9.196139 11.991444 20.880298 25.774998 0.916572 0.626476 0.049307 -0.021684 -549053.000000 0 0 1
8.829839 12.723444 19.694398 25.054369 0.964121 0.666377 0.040159 -0.018927 356626.000000 0 0 1
9.690739 13.800444 19.318998 25.643447 0.958592 0.717625 0.057725 -0.012722 1141220.000000 0 0 1
11.158139 13.426444 18.850798 25.692918 0.877403 0.747050 0.050153 -0.013314 899139.000000 0 0 1
12.056539 13.104444 19.905498 26.707966 0.827022 0.729809 0.061660 -0.022380 627233.000000 0 0 1
13.325739 12.680444 19.374998 26.716278 0.760590 0.759452 0.066588 -0.024862 247565.000000 0 0 1
14.420339 12.576444 20.401498 27.970238 0.717204 0.753352 0.082706 -0.024984 -520890.000000 0 0 1
14.907039 13.828444 20.857098 29.128409 0.747880 0.772684 0.087696 -0.028777 32071.800000 0 0 1
16.236139 13.700444 21.320598 30.097878 0.700898 0.783602 0.093541 -0.028606 267188.000000 0 0 1
16.793639 15.077444 21.722098 31.324194 0.731602 0.804515 0.095652 -0.026662 -88075.800000 0 0 1
16.219039 15.475444 22.954298 32.084987 0.761941 0.773569 0.096851 -0.029420 179219.000000 0 0 1
16.770839 16.676444 23.435528 33.295477 0.782576 0.789972 0.086117 -0.023281 -431532.000000 0 0 1
-21.226661 12.455878 -24.624737 34.815194 -0.530660 2.356466 0.036294 -0.007076 -20031.400000 0 0 1
-21.240761 12.389778 -26.025037 35.804735 -0.528051 2.384535 0.043537 -0.024593 153048.000000 0 0 1
-22.166961 13.296778 -26.612797 37.100127 -0.540307 2.370750 0.057406 -0.030283 61588.800000 0 0 1
-22.049761 13.374578 -28.176487 38.196671 -0.545232 2.400407 0.051732 -0.028196 238945.000000 0 0 1
-20.756361 13.859178 -28.519477 37.898072 -0.588723 2.422693 0.053749 -0.019411 181442.000000 0 0 1
-20.700661 14.471278 -29.821767 39.080341 -0.610104 2.438875 0.063386 -0.030443 -290751.000000 0 0 1
-19.293161 15.017678 -30.048467 38.738444 -0.661427 2.458581 0.048593 -0.023467 -225084.000000 0 0 1
-18.319161 14.081978 -30.520577 38.280535 -0.655363 2.493584 0.042995 -0.013718 1114550.000000 0 0 1
-17.044261 14.798578 -30.654317 38.068253 -0.714991 2.506887 0.045441 -0.011749 1416210.000000 0 0 1
-15.984761 14.220978 -29.675057 36.583573 -0.727072 2.516926 0.074572 -0.003176 -145603.000000 0 0 1
-16.299661 14.437478 -28.288157 35.697893 -0.724888 2.485582 0.081551 -0.005644 -1674.180000 0 0 1
-16.941461 13.304078 -27.689457 35.081585 -0.665711 2.480444 0.089021 -0.004378 186350.000000 0 0 1
-17.761261 13.638178 -26.426567 34.638501 -0.654834 2.438621 0.076317 -0.018697 330305.000000 0 0 1
-16.938961 14.051778 -25.348607 33.569819 -0.692504 2.426605 0.103575 -0.019847 802341.000000 0 0 1
-17.810261 14.228178 -24.227337 33.265753 -0.674055 2.386629 0.099780 -0.016908 545431.000000 0 0 1
-16.967161 14.751478 -23.055737 32.203380 -0.715657 2.368768 0.118272 -0.024383 143004.000000 0 0 1
-16.557961 16.076378 -23.186937 32.714676 -0.770642 2.358539 0.090473 -0.025287 -52416.000000 0 0 1
-15.960561 16.574878 -21.981937 31.822502 -0.804277 2.333346 0.097260 -0.021254 -215114.000000 0 0 1
-15.532261 18.070478 -22.088637 32.491556 -0.860791 2.318323 0.083677 -0.022292 56340.900000 0 0 1
-16.542861 19.043378 -22.265037 33.645926 -0.855549 2.293941 0.052657 -0.019131 304357.000000 0 0 1
-17.335861 18.962378 -23.479337 34.804929 -0.830178 2.311216 0.032340 -0.015466 218461.000000 0 0 1
-18.677261 19.714078 -23.433937 35.869686 -0.812398 2.282741 0.026872 -0.014107 -84226.200000 0 0 1
-18.508361 21.109578 -23.281137 36.471702 -0.850962 2.263129 0.026311 -0.020274 616973.000000 0 0 1
-19.730861 21.845678 -23.491637 37.661619 -0.836220 2.244334 0.038201 -0.028618 429902.000000 0 0 1
-19.466661 23.268178 -23.918937 38.632558 -0.874121 2.238443 0.029575 -0.034094 64523.000000 0 0 1
-18.868561 23.953378 -22.843237 38.099874 -0.903588 2.213750 0.030914 -0.034677 -146256.000000 0 0 1
-18.036461 25.040178 -23.194337 38.604426 -0.946575 2.215324 0.032655 -0.030386 -191825.000000 0 0 1
-16.849861 25.175478 -22.214037 37.565755 -0.980975 2.203513 0.035958 -0.036867 -515994.000000 0 0 1
-15.807161 24.251378 -22.328937 36.559227 -0.993153 2.227817 0.053115 -0.045693 -318280.000000 0 0 1
-16.097561 22.909778 -21.872037 35.529922 -0.958294 2.233937 0.054334 -0.031132 -200535.000000 0 0 1
-14.816261 22.020578 -21.728837 34.301163 -0.978534 2.256829 0.080984 -0.028713 409599.000000 0 0 1
-13.912361 22.473678 -20.764437 33.612227 -1.016486 2.236693 0.085499 -0.029644 -582202.000000 0 0 1
-12.998661 21.451278 -20.480737 32.381833 -1.026004 2.255542 0.087049 -0.030856 -249962.000000 0 0 1
-12.175261 21.623978 -19.179937 31.364046 -1.057993 2.228784 0.082110 -0.031833 24431.800000 0 0 1
-12.852361 21.504278 -17.937637 30.811945 -1.032095 2.192185 0.094491 -0.028726 449595.000000 0 0 1
-13.725761 22.627778 -17.644537 31.807900 -1.025546 2.158825 0.087681 -0.033356 775025.000000 0 0 1
-14.449661 22.651578 -16.235537 31.392345 -1.002967 2.114351 0.096057 -0.028736 248872.000000 0 0 1
-13.583861 23.109378 -15.244137 30.837450 -1.039390 2.087870 0.095986 -0.032851 -277715.000000 0 0 1
-14.290561 23.351678 -14.048137 30.771272 -1.021621 2.044892 0.098391 -0.028265 -218514.000000 0 0 1
-13.436361 23.717878 -12.828437 30.127103 -1.055368 2.010654 0.124121 -0.024294 -419401.000000 0 0 1
-12.906661 25.016978 -12.885637 30.959178 -1.094497 2.000074 0.117853 -0.032147 -116863.000000 0 0 1
-12.370361 25.397578 -11.666337 30.564133 -1.117547 1.962431 0.082729 -0.020165 -311452.000000 0 0 1
-11.828161 26.829478 -11.730337 31.580486 -1.155566 1.951359 0.096030 -0.022012 191530.000000 0 0 1
-10.893561 26.928378 -12.805237 31.745571 -1.186384 1.985994 0.100407 -0.032084 194424.000000 0 0 1
-10.733861 28.251378 -13.165237 32.964824 -1.207701 1.981628 0.074652 -0.012667 -923399.000000 0 0 1
-10.148761 28.689578 -14.531137 33.723036 -1.230790 2.016282 0.115333 -0.038079 543622.000000 0 0 1
-8.732561 28.725278 -14.632237 33.399125 -1.275671 2.024283 0.094152 -0.043265 261707.000000 0 0 1
-8.092561 27.453478 -14.554737 32.109552 -1.284141 2.041242 0.097511 -0.038563 -1179080.000000 0 0 1
-6.635861 27.412878 -14.999837 31.945197 -1.333294 2.059576 0.089155 -0.042927 78096.400000 0 0 1
-5.844061 28.229478 -14.097937 32.090626 -1.366660 2.025634 0.067037 -0.035769 450751.000000 0 0 1
-4.450061 28.050178 -14.366237 31.827728 -1.413461 2.039102 0.075927 -0.039279 725497.000000 0 0 1
-3.539861 29.123778 -13.721237 32.388229 -1.449844 2.008266 0.045207 -0.019658 -37635.600000 0 0 1
-3.668061 30.460978 -14.149837 33.786739 -1.450955 2.002918 0.035035 -0.013693 127065.000000 0 0 1
-4.742961 31.256178 -13.610437 34.419302 -1.420200 1.977333 0.034143 -0.013071 522812.000000 0 0 1
-4.592861 32.767878 -13.908837 35.892673 -1.431540 1.968727 0.036678 -0.016109 137338.000000 0 0 1
-3.729061 33.426078 -13.011637 36.062602 -1.459694 1.939929 0.008202 -0.015305 -39949.000000 0 0 1
-3.352861 -33.362856 -13.395237 36.107537 1.470636 1.950862 0.005560 -0.014045 19483.200000 0 0 1
-2.601061 -32.642156 -12.275437 34.970877 1.491280 1.929455 0.029126 -0.022370 308600.000000 0 0 1
-3.340961 -32.161256 -11.136837 34.198502 1.467286 1.902498 0.041714 -0.021792 903123.000000 0 0 1
-2.314661 -31.625756 -10.287437 33.337329 1.497737 1.884503 0.038979 -0.023001 907935.000000 0 0 1
-2.796361 -31.553656 -8.782537 32.872265 1.482405 1.841253 0.046160 -0.017526 -76107.400000 0 0 1
-1.729561 -31.057056 -8.030937 32.125194 1.515164 1.823465 0.044253 -0.022180 -22675.300000 0 0 1
-2.108561 -31.164756 -6.656437 31.937380 1.503241 1.780757 0.042044 -0.027159 -355115.000000 0 0 1
-0.992861 -30.732256 -5.737637 31.279032 1.538501 1.755275 0.052983 -0.026921 -583807.000000 0 0 1
-1.084961 -30.917456 -4.313437 31.235749 1.535719 1.709332 0.061002 -0.033320 -150206.000000 0 0 1
-0.090561 -30.191656 -3.615437 30.407494 1.567797 1.689978 0.051725 -0.027062 -219459.000000 0 0 1
-0.084361 -30.602856 -2.089937 30.674253 1.568040 1.638982 0.061624 -0.017980 -265918.000000 0 0 1
0.229339 -31.963156 -1.765837 32.012718 -1.563621 1.625985 0.064555 -0.023724 1467650.000000 0 0 1
1.536539 -32.436356 -2.214237 32.548134 -1.523461 1.638879 0.055220 -0.021833 1271040.000000 0 0 1
2.851139 -31.879056 -1.634337 32.048000 -1.481598 1.621815 0.044776 -0.017971 -1050010.000000 0 0 1
3.006039 -32.302356 -0.305337 32.443362 -1.478004 1.580208 0.052086 -0.016010 1102470.000000 0 0 1
4.276639 -31.999956 0.335563 32.286211 -1.437938 1.560403 0.042997 -0.015187 1040680.000000 0 0 1
4.547439 -30.491956 0.508163 30.833372 -1.422752 1.554315 0.040696 -0.018974 -728992.000000 0 0 1
4.853039 -29.861456 -0.676537 30.260804 -1.409686 1.593155 0.031568 -0.025885 -8388.760000 0 0 1
4.715339 -28.441556 -0.587337 28.835768 -1.406500 1.591166 0.051986 -0.027257 -316810.000000 0 0 1
4.200139 -27.855256 -1.940737 28.236907 -1.421139 1.639581 0.044355 -0.023817 -310686.000000 0 0 1
2.875639 -28.258256 -2.212637 28.490246 -1.469383 1.648538 0.045375 -0.022463 -178498.000000 0 0 1
2.271639 -27.347756 -3.108137 27.617397 -1.487922 1.683578 0.042165 -0.022159 -395003.000000 0 0 1
2.781139 -27.170756 -4.562937 27.691246 -1.468794 1.736330 0.022617 -0.019362 -505219.000000 0 0 1
2.502639 -28.340456 -5.312137 28.942416 -1.482719 1.755384 0.016353 -0.019985 -75232.700000 0 0 1
2.850739 -28.180956 -6.643537 29.093463 -1.469981 1.801180 0.032008 -0.020463 -289904.000000 0 0 1
2.205739 -29.093256 -7.718137 30.180333 -1.495125 1.829403 0.030695 -0.014507 -78783.900000 0 0 1
0.837539 -28.847156 -7.953437 29.935214 -1.541771 1.839714 0.036640 -0.012917 -220286.000000 0 0 1
0.655839 -28.729056 -9.352537 30.220171 -1.547972 1.885442 0.036756 -0.008635 403607.000000 0 0 1
-0.761761 -28.133956 -9.606637 29.738649 1.543727 1.899731 0.035508 -0.013320 21813.500000 0 0 1
-0.912661 -26.796856 -9.196737 28.345801 1.536751 1.901224 0.029917 -0.011017 947803.000000 0 0 1
-2.312761 -26.473056 -9.017337 28.062144 1.483655 1.897935 0.055112 -0.015504 1438210.000000 0 0 1
-2.968161 -26.982456 -7.683837 28.211776 1.461233 1.846644 0.060035 -0.007896 -293660.000000 0 0 1
-2.482461 -26.424956 -6.486637 27.322470 1.477127 1.810495 0.061997 -0.019433 108894.000000 0 0 1
-1.445761 -27.262756 -5.959537 27.943947 1.517815 1.785715 0.041768 -0.024045 403108.000000 0 0 1
-1.022761 -26.735656 -4.567937 27.142355 1.532560 1.739897 0.061271 -0.026262 -734419.000000 0 0 1
-1.977461 -27.023056 -3.607737 27.334442 1.497750 1.703168 0.081772 -0.038127 -313069.000000 0 0 1
-1.660161 -26.412856 -2.360237 26.570018 1.508025 1.659744 0.085164 -0.040002 -468138.000000 0 0 1
-2.744261 -26.549256 -1.291237 26.721925 1.467797 1.619136 0.069295 -0.033026 28603.500000 0 0 1
-3.898961 -25.791556 -1.637837 26.135967 1.420760 1.633503 0.077061 -0.030604 -670003.000000 0 0 1
-4.900161 -26.010556 -0.684937 26.476967 1.384588 1.596668 0.094546 -0.031826 -372508.000000 0 0 1
-6.127761 -25.167256 -1.099637 25.925845 1.331962 1.613224 0.092807 -0.015031 -165773.000000 0 0 1
-5.891661 -23.786056 -0.772437 24.517031 1.327989 1.602308 0.077076 -0.026133 34742.600000 0 1 0
-6.774161 -23.212456 0.177563 24.181376 1.286849 1.563453 0.077251 -0.019695 -47926.700000 0 1 0
-6.309461 -21.839256 0.508963 22.738106 1.289550 1.548411 0.049327 -0.022939 201075.000000 0 1 0
-5.113261 -21.825356 1.267263 22.452117 1.340666 1.514323 0.043816 -0.026179 -220466.000000 0 1 0
-4.640861 -20.532556 1.380963 21.095747 1.348507 1.505288 0.015360 -0.018717 -178516.000000 0 1 0
-3.427161 -20.400956 2.290663 20.813255 1.404360 1.460515 0.019141 -0.019120 -468063.000000 0 1 0
-3.882961 -20.381056 3.654363 21.067017 1.382534 1.396451 0.013744 -0.008496 329583.000000 0 1 0
-2.914061 -20.161456 4.686063 20.902997 1.427254 1.344693 0.030860 -0.018481 451273.000000 0 1 0
-1.972761 -21.347856 5.115363 22.040638 1.478648 1.336573 0.038206 -0.028650 453034.000000 0 1 0
-1.254061 -21.821956 4.003963 22.221660 1.513392 1.389624 0.056014 -0.031044 -1045930.000000 0 1 0
-0.315461 -22.724256 4.460363 23.160013 1.556915 1.376996 0.071860 -0.034650 -1651700.000000 0 1 0
0.732239 -23.149756 3.421263 23.412656 -1.539176 1.424142 0.074951 -0.043599 -561249.000000 0 1 0
1.841739 -22.341656 3.264363 22.653867 -1.488547 1.426196 0.054733 -0.045299 -1165210.000000 0 1 0
2.755739 -22.624556 4.268363 23.188005 -1.449590 1.385664 0.078899 -0.047749 -1843280.000000 0 1 0
3.903939 -21.617456 4.272663 22.378803 -1.392130 1.378692 0.077130 -0.043836 -339460.000000 0 1 0
4.804839 -21.693956 3.194663 22.448165 -1.352832 1.427999 0.053162 -0.030294 -2648.460000 0 1 0
6.097639 -21.281856 3.646763 22.436521 -1.291754 1.407535 0.067687 -0.020830 717872.000000 0 1 0
7.069839 -20.912156 2.526263 22.218976 -1.244786 1.456851 0.077212 -0.013473 15351.800000 0 1 0
7.633039 -21.958356 1.696063 23.308997 -1.236248 1.497968 0.075999 -0.010412 80397.000000 0 1 0
7.289939 -21.736056 0.392763 22.929318 -1.247201 1.553666 0.063181 -0.021997 -87504.100000 0 1 0
8.242539 -22.511556 -0.511937 23.978567 -1.219810 1.592148 0.057389 -0.015152 -181411.000000 0 1 0
9.457339 -21.861556 -0.743237 23.831100 -1.162505 1.601989 0.055325 -0.005910 -647653.000000 0 1 0
10.336739 -22.669156 -1.494837 24.959434 -1.142978 1.630723 0.047394 -0.005367 -222385.000000 0 1 0
11.642039 -22.049756 -1.941637 25.009974 -1.085009 1.648509 0.048976 -0.000668 -437546.000000 0 0 1
11.485739 -21.154656 -3.033137 24.261937 -1.073389 1.696141 0.052801 0.006988 637565.000000 0 1 0
12.769639 -20.770756 -3.574637 24.642768 -1.019573 1.716368 0.054915 0.001659 849218.000000 0 1 0
12.834239 -19.586456 -4.453737 23.836584 -0.990732 1.758746 0.056891 -0.015261 -319223.000000 0 1 0
12.785839 -18.318956 -3.758237 22.653613 -0.961443 1.737467 0.071484 -0.013128 171228.000000 0 1 0
13.036839 -17.299856 -4.714637 22.169168 -0.925007 1.785099 0.076505 -0.021610 -710567.000000 0 1 0
13.543239 -15.975156 -4.099337 21.340794 -0.867599 1.764087 0.093841 -0.019155 110069.000000 0 1 0
14.848639 -15.958156 -3.590837 22.091603 -0.821398 1.734064 0.076832 -0.016104 713389.000000 0 1 0
15.912239 -16.016556 -4.584537 23.037956 -0.788665 1.771133 0.077308 -0.015728 188277.000000 0 1 0
17.306739 -15.600256 -4.090537 23.656367 -0.733587 1.744585 0.072895 -0.016794 129256.000000 0 1 0
18.063239 -16.675456 -3.524637 24.834945 -0.745470 1.713200 0.078187 -0.016445 279686.000000 0 1 0
19.327639 -16.195556 -3.132037 25.409906 -0.697456 1.694371 0.052636 -0.012559 -520413.000000 0 0 1
20.103339 -17.137056 -2.253037 26.512244 -0.705914 1.655880 0.049689 -0.015038 -700973.000000 0 0 1
21.425339 -16.687656 -2.122937 27.240225 -0.661726 1.648809 0.040567 -0.009737 -237321.000000 0 0 1
22.073739 -17.560256 -1.202137 28.232210 -0.672008 1.613390 0.036701 -0.005308 -273062.000000 0 0 1
23.595439 -17.720156 -1.244737 29.534692 -0.644140 1.612954 0.042420 -0.007898 -170709.000000 0 0 1
24.293439 -16.511356 -0.991537 29.390121 -0.596946 1.604540 0.048056 -0.010312 1015770.000000 0 0 1
25.625939 -16.769256 -0.475437 30.628789 -0.579452 1.586319 0.070226 -0.013712 1028160.000000 0 0 1
26.304239 -15.456456 -0.066437 30.509334 -0.531254 1.572974 0.064624 -0.016846 -86775.300000 0 0 1
25.584839 -14.721356 0.935263 29.532643 -0.522130 1.539122 0.064802 -0.013938 -386547.000000 0 0 1
26.308939 -13.744156 1.490963 29.720112 -0.481418 1.520608 0.063992 -0.020689 -457619.000000 0 0 1
25.417639 -13.017556 2.516463 28.667852 -0.473318 1.482903 0.078545 -0.033670 228829.000000 0 0 1
25.000039 -13.722556 3.720563 28.760269 -0.501999 1.441068 0.100763 -0.024266 170571.000000 0 0 1
26.029839 -13.952556 4.664263 29.899527 -0.492048 1.414159 0.105793 -0.017201 230097.000000 0 0 1
25.456839 -14.589356 5.945163 29.937350 -0.520406 1.370881 0.097532 -0.010565 229368.000000 0 0 1
25.073639 -15.944056 5.785963 30.271730 -0.566391 1.378479 0.099130 -0.019876 -133696.000000 0 0 1
24.250139 -16.343056 6.842763 30.033117 -0.593019 1.340937 0.084399 -0.013124 -328602.000000 0 0 1
23.705539 -17.755156 6.740363 30.374836 -0.642853 1.347027 0.072879 -0.011756 -330575.000000 0 0 1
24.692339 -18.669756 7.051063 31.748841 -0.647391 1.346840 0.068252 -0.009119 -447825.000000 0 0 1
24.142239 -19.940056 6.929363 32.069762 -0.690359 1.353007 0.037639 0.000511 83732.600000 0 0 1
1.556039 23.834078 -2.944437 24.065624 1.505603 1.693454 0.063053 -0.018473 -88425.800000 0 1 0
2.442639 24.839778 -2.564337 25.090972 1.472776 1.673177 0.068303 -0.023248 -220814.000000 0 0 1
3.442939 25.094778 -3.538937 25.575883 1.434450 1.709612 0.079010 -0.028127 400163.000000 0 0 1
4.525839 26.098978 -3.012137 26.659198 1.399093 1.684025 0.066012 -0.029343 188465.000000 0 0 1
5.493839 25.440678 -2.207937 26.120592 1.358115 1.655426 0.052189 -0.028874 47595.300000 0 0 1
6.279439 26.243778 -1.319837 27.016832 1.335938 1.619668 0.047568 -0.025693 -102311.000000 0 0 1
7.266039 25.355378 -0.540737 26.381488 1.291708 1.591295 0.034139 -0.032163 -93065.100000 0 0 1
8.350039 25.139478 -1.419437 26.527934 1.250113 1.624329 0.022357 -0.034409 -1015550.000000 0 0 1
9.329739 24.315478 -0.915737 26.060028 1.204424 1.605943 0.018284 -0.028156 285038.000000 0 0 1
10.456839 24.050478 -2.006837 26.302060 1.160665 1.647170 0.032276 -0.023432 77856.100000 0 0 1
11.264439 25.196378 -2.263337 27.692377 1.150385 1.652619 0.031551 -0.016649 479338.000000 0 0 1
12.205639 25.127778 -3.357137 28.136333 1.118619 1.690398 0.059770 -0.016067 945162.000000 0 0 1
13.374439 24.075378 -3.206837 27.726941 1.063722 1.686714 0.054817 -0.021027 -427491.000000 0 0 1
13.059539 22.678878 -3.334037 26.381790 1.048327 1.697512 0.077263 -0.024749 -221891.000000 0 0 1
12.888939 22.290278 -4.680437 26.170360 1.046537 1.750609 0.097273 -0.030618 431635.000000 0 0 1
11.870639 21.113278 -4.980037 24.728189 1.058608 1.773574 0.092865 -0.031809 638944.000000 0 1 0
10.508039 21.401178 -4.738537 24.308086 1.114372 1.766989 0.072440 -0.026333 -114512.000000 0 1 0
9.734139 20.192178 -4.827737 22.929992 1.121591 1.782926 0.055094 -0.023414 -39314.000000 0 1 0
8.250139 20.581978 -4.761937 22.679476 1.189564 1.782337 0.041442 -0.015174 -405237.000000 0 1 0
7.913739 20.918478 -3.431137 22.627034 1.209124 1.723022 0.046421 -0.025614 1506970.000000 0 1 0
6.501239 21.314878 -3.513237 22.559543 1.274750 1.727165 0.044313 -0.019673 1865610.000000 0 1 0
5.956039 22.078378 -2.263137 22.979359 1.307301 1.669442 0.042592 -0.023048 6200.950000 0 1 0
5.498539 21.220478 -1.265137 21.957759 1.317258 1.628445 0.035427 -0.029089 -38058.900000 0 1 0
5.025839 22.016278 -0.169337 22.583273 1.346364 1.578295 0.047872 -0.018653 30858.000000 0 1 0
4.375039 21.123278 0.868363 21.589069 1.366565 1.530563 0.026713 -0.017988 -81483.500000 0 1 0
3.559639 21.788078 1.842363 22.153683 1.408852 1.487537 0.028924 -0.015231 476523.000000 0 1 0
3.270939 20.895678 2.878463 21.345115 1.415520 1.435531 0.032326 -0.021806 -101095.000000 0 1 0
2.314939 21.429078 3.961963 21.914869 1.463186 1.389008 0.022657 -0.020062 -839921.000000 0 1 0
0.995039 21.572278 3.576863 21.889432 1.524703 1.406654 0.016370 -0.016248 -1101230.000000 0 1 0
0.214739 21.913578 4.695363 22.411993 1.560997 1.359730 0.022077 -0.027082 -341950.000000 0 1 0
-1.168461 22.343078 4.211663 22.766566 -1.518548 1.384731 0.030444 -0.014420 -383190.000000 0 1 0
-2.139061 22.566278 5.218363 23.260348 -1.476289 1.344525 0.033932 -0.023868 757531.000000 0 1 0
-3.432861 22.522878 4.570663 23.236943 -1.419544 1.372807 0.040683 -0.026981 570309.000000 0 1 0
-4.672561 22.569278 5.429663 23.678817 -1.366649 1.339433 0.046818 -0.038942 -430495.000000 0 1 0
-4.995361 23.811978 6.061363 25.073972 -1.364011 1.326638 0.063254 -0.028372 994779.000000 0 0 1
-6.309761 23.792078 6.683963 25.505910 -1.311560 1.305645 0.071280 -0.029144 1132100.000000 0 0 1
-6.687661 25.226378 7.118463 27.051201 -1.311652 1.304513 0.076855 -0.023676 -176475.000000 0 0 1
-5.827161 25.829378 8.070763 27.681217 -1.348909 1.274938 0.064444 -0.031712 -142302.000000 0 0 1
-6.210761 27.134278 8.603263 29.135180 -1.345783 1.271040 0.085541 -0.024084 -172983.000000 0 0 1
-6.312361 28.396478 7.674963 30.085062 -1.352059 1.312836 0.102615 -0.022718 548470.000000 0 0 1
-7.443661 28.563978 6.809263 30.293151 -1.315870 1.344080 0.079992 -0.031163 24379.600000 0 0 1
-7.425861 29.794778 6.135363 31.313175 -1.326539 1.373585 0.107301 -0.032906 402935.000000 0 0 1
-8.830461 30.187178 5.547363 31.937689 -1.286213 1.396218 0.087477 -0.032258 729209.000000 0 0 1
-9.874561 30.571378 6.369163 32.751830 -1.258374 1.375082 0.092459 -0.022925 -215803.000000 0 0 1
-10.492561 29.532378 7.191063 32.155351 -1.229417 1.345254 0.075483 -0.023235 401883.000000 0 0 1
-11.566261 30.110378 8.219663 33.286275 -1.204047 1.321277 0.057566 -0.023445 301136.000000 0 0 1
-11.065261 30.841978 9.314263 34.064984 -1.226328 1.293843 0.066413 -0.025544 128255.000000 0 0 1
-12.089661 31.171478 10.226463 34.962859 -1.200813 1.273961 0.073944 -0.022108 359238.000000 0 0 1
-11.370261 31.788478 11.511063 35.669241 -1.227292 1.242198 0.057674 -0.027214 -80070.300000 0 0 1
-10.839361 33.062278 11.212763 36.555876 -1.253992 1.259041 0.062662 -0.030231 188893.000000 0 0 1
-9.802461 33.331478 12.136963 36.801923 -1.284770 1.234714 0.057865 -0.041017 265712.000000 0 0 1
-9.392061 -33.286956 12.256263 36.693981 1.295791 1.230239 0.067911 -0.035968 434162.000000 0 0 1
-10.395861 -32.525256 12.947763 36.518637 1.261434 1.208361 0.065103 -0.026165 614058.000000 0 0 1
-9.929861 -31.204556 13.163563 35.293142 1.262710 1.188580 0.066395 -0.022205 182017.000000 0 0 1
-10.945561 -30.355656 13.976963 35.165703 1.224730 1.162049 0.050974 -0.017972 -30177.000000 0 0 1
-11.116161 -30.558356 15.349663 35.958231 1.221909 1.129762 0.041157 -0.028021 403926.000000 0 0 1
-10.012161 -30.216256 16.193563 35.714101 1.250832 1.100195 0.056955 -0.028945 175349.000000 0 0 1
-10.270361 -30.617356 17.634263 36.794974 1.247149 1.070988 0.053895 -0.032863 151738.000000 0 0 1
-10.965961 -29.728756 18.530663 36.707448 1.217413 1.041623 0.059610 -0.027734 404795.000000 0 0 1
-11.514461 -30.474756 19.600563 38.019412 1.209542 1.029157 0.050495 -0.029468 48327.100000 0 0 1
-11.816161 -29.599956 20.869163 38.095946 1.190984 0.991058 0.062668 -0.027050 791466.000000 0 0 1
-10.631461 -29.290956 21.638663 37.937051 1.222622 0.963824 0.061231 -0.025199 768295.000000 0 0 1
-10.884561 -28.361156 22.657363 37.897031 1.204347 0.929960 0.055622 -0.025155 -314142.000000 0 0 1
-9.661361 -28.190956 23.537363 37.974721 1.240629 0.902287 0.061741 -0.030903 -223014.000000 0 0 1
-9.491561 -29.356256 24.321163 39.286111 1.258082 0.903228 0.065536 -0.020586 181406.000000 0 0 1
-8.177761 -29.423056 24.861263 39.378604 1.299701 0.887517 0.076245 -0.017271 441016.000000 0 0 1
-7.933761 -30.616556 25.807763 40.821058 1.317241 0.886385 0.086988 -0.018575 -158135.000000 0 0 1
-7.732961 -31.868256 25.239563 41.381397 1.332743 0.914830 0.100853 -0.010280 219334.000000 0 0 1
-7.805261 -32.946556 26.169863 42.793217 1.338178 0.912788 0.101906 -0.011558 -268381.000000 0 0 1
-7.730661 33.804978 25.507963 43.048761 -1.345978 0.936592 0.093216 -0.013361 -342017.000000 0 0 1
-6.450261 33.440278 25.050163 42.277284 -1.380248 0.936612 0.100998 -0.006685 -78286.500000 0 0 1
-6.290661 32.073078 24.705463 40.970900 -1.377120 0.923540 0.090159 -0.004201 -249347.000000 0 0 1
-7.146161 31.479578 23.564763 39.966605 -1.347570 0.940219 0.081676 -0.006177 -3102.970000 0 0 1
-8.471961 31.182778 23.922763 40.204955 -1.305513 0.933505 0.074608 -0.004451 516499.000000 0 0 1
-9.374261 31.013878 22.803663 39.620001 -1.277267 0.957508 0.050350 0.005813 640525.000000 0 0 1
-10.296361 29.808978 22.820163 38.927498 -1.238215 0.944408 0.051051 -0.009241 43294.200000 0 0 1
-9.591561 28.650478 22.362863 37.589169 -1.247746 0.933620 0.047080 -0.005060 277750.000000 0 0 1
-10.148761 27.430478 22.817763 37.095536 -1.216433 0.908273 0.042041 -0.007702 -676772.000000 0 0 1
-9.423361 26.170978 22.380363 35.701548 -1.225180 0.893262 0.037176 -0.008743 -74841.600000 0 0 1
-8.125661 26.070478 22.937963 35.662955 -1.268658 0.872143 0.022703 -0.013144 212849.000000 0 0 1
-7.688961 24.706078 23.031163 34.640221 -1.269080 0.843480 0.022262 -0.014364 -132577.000000 0 0 1
-6.314061 24.460178 23.688763 34.631275 -1.318175 0.817526 0.022696 -0.012167 -125301.000000 0 0 1
-5.351661 25.094378 22.865363 34.368487 -1.360683 0.842900 0.012779 -0.008857 -743488.000000 0 0 1
-4.142561 25.121778 23.587663 34.707959 -1.407368 0.823574 0.035152 -0.011197 179834.000000 0 0 1
-2.951861 25.530978 22.646263 34.254891 -1.455689 0.848499 0.031601 -0.001184 237916.000000 0 0 1
-2.568061 24.508378 21.758663 32.873925 -1.466394 0.847470 0.034020 -0.000911 -43453.700000 0 0 1
-1.904461 25.036978 20.625063 32.494161 -1.494877 0.883135 0.045584 0.001604 66071.200000 0 0 1
-1.461761 23.896078 19.658363 30.977581 -1.509701 0.883306 0.039220 0.004492 -903658.000000 0 0 1
-0.299061 23.279278 20.061163 30.732141 -1.557950 0.859555 0.041821 -0.009484 -692750.000000 0 0 1
0.081139 22.314278 19.064763 29.349596 1.567160 0.863771 0.035767 -0.007735 -464515.000000 0 0 1
1.283039 21.466978 19.433063 28.984846 1.511099 0.835973 0.027138 -0.003195 120316.000000 0 0 1
2.518039 22.170778 19.308663 29.507768 1.457706 0.857462 0.035975 -0.008588 49735.000000 0 0 1
3.640939 21.450578 19.741263 29.378584 1.402663 0.833943 0.033284 -0.003316 -514861.000000 0 0 1
4.941539 22.010378 19.167663 29.601940 1.349949 0.866479 0.039466 -0.002530 -370629.000000 0 0 1
5.799239 20.884478 18.995363 28.820417 1.299939 0.851183 0.048699 -0.007332 5440.740000 0 0 1
7.121739 21.322978 18.693163 29.237355 1.248452 0.877132 0.068412 -0.010346 216698.000000 0 0 1
8.161939 20.217978 18.567563 28.638057 1.187107 0.865377 0.064816 -0.006034 -308438.000000 0 0 1
8.627039 19.636178 19.777463 29.174532 1.156839 0.825892 0.067758 -0.012480 -293987.000000 0 0 1
9.477539 18.575078 19.458163 28.521525 1.098999 0.819992 0.065663 -0.013752 -136639.000000 0 0 1
10.100239 17.863078 20.638663 29.104275 1.056187 0.782535 0.089434 -0.018734 -265597.000000 0 0 1
9.160239 17.055178 21.263763 28.756507 1.077915 0.738555 0.077221 -0.014570 -447747.000000 0 0 1
9.736439 16.286778 22.265863 29.254505 1.031987 0.705775 0.084019 -0.017400 414607.000000 0 0 1
8.770339 15.217578 22.946363 28.896870 1.047963 0.653307 0.066664 -0.011690 764498.000000 0 0 1
7.603239 15.793478 23.519463 29.332718 1.122126 0.640467 0.059387 -0.004548 614966.000000 0 0 1
6.571739 14.880978 23.975463 28.973334 1.154933 0.596154 0.051110 -0.004007 776905.000000 0 0 1
6.825139 13.831978 25.053263 29.420607 1.112417 0.551852 0.064143 -0.010448 -635947.000000 0 0 1
7.000339 14.396078 26.367463 30.846311 1.118195 0.545629 0.071238 -0.016614 -72786.200000 0 0 1
7.315739 13.383478 27.324963 31.293628 1.070548 0.509108 0.080320 -0.022765 -1058190.000000 0 0 1
8.347839 13.761878 28.393163 32.638128 1.025544 0.515719 0.066409 -0.022327 -387237.000000 0 0 1
9.670539 13.922578 27.961563 32.698724 0.963708 0.545000 0.104236 -0.024059 -124586.000000 0 0 1
9.891839 15.100378 27.118963 32.577723 0.990864 0.587302 0.091993 -0.019713 -1576450.000000 0 0 1
11.226639 15.051378 26.396063 32.393418 0.929932 0.618311 0.115862 -0.031859 -385859.000000 0 0 1
11.189839 14.232478 25.258763 31.077018 0.904515 0.621889 0.103249 -0.033227 784742.000000 0 0 1
12.504139 13.878678 24.786663 31.037878 0.837451 0.645841 0.125367 -0.043764 530913.000000 0 0 1
12.429039 12.706278 23.748363 29.663366 0.796428 0.642508 0.101571 -0.032921 -39067.400000 0 0 1
12.144539 11.403878 24.195863 29.376488 0.753956 0.602984 0.106509 -0.024129 267658.000000 0 0 1
10.786039 11.194178 24.555763 29.062584 0.803965 0.564368 0.100773 -0.023286 65005.000000 0 0 1
10.514139 9.761478 24.939463 28.771694 0.748294 0.522036 0.093003 -0.020035 -136454.000000 0 0 1
10.471739 8.916578 23.846663 27.528640 0.705358 0.523151 0.101442 -0.015933 169297.000000 0 0 1
10.365639 7.560478 24.255863 27.440011 0.630172 0.486532 0.102036 -0.018938 -21897.400000 0 0 1
10.777939 6.533978 23.172963 26.378837 0.544992 0.498150 0.097719 -0.025698 -1660450.000000 0 0 1
12.109539 6.428778 22.906063 26.695652 0.488050 0.539346 0.111727 -0.028943 -1010240.000000 0 0 1
12.517339 5.281078 22.081463 25.926137 0.399243 0.551563 0.112944 -0.031687 21464.600000 0 0 1
12.184939 3.899878 22.723463 26.077530 0.309755 0.512786 0.096602 -0.030956 -505801.000000 0 0 1
13.041139 3.485778 23.758863 27.325913 0.261185 0.516683 0.106865 -0.020316 -105356.000000 0 0 1
12.691739 2.214078 24.174563 27.393282 0.172712 0.489645 0.090643 -0.022614 -757996.000000 0 0 1
13.710439 1.484278 25.064063 28.607455 0.107839 0.503006 0.067577 -0.014521 -908578.000000 0 0 1
14.690739 0.800478 24.393563 28.486918 0.054435 0.542719 0.080775 -0.016524 -382772.000000 0 0 1
15.936039 1.477378 24.505963 29.269134 0.092442 0.578538 0.068875 -0.016017 -755441.000000 0 0 1
17.058139 0.942978 23.668763 29.190404 0.055224 0.625209 0.065867 -0.024288 -681461.000000 0 0 1
17.369339 -0.397422 24.055663 29.673672 -0.022877 0.625495 0.061142 -0.027131 470617.000000 0 0 1
18.300639 -1.108422 23.224663 29.589305 -0.060493 0.668261 0.063575 -0.012692 354341.000000 0 0 1
18.625539 -2.634522 23.561363 30.149448 -0.140515 0.673753 0.050578 -0.009579 449976.000000 0 0 1
17.530739 -3.541422 23.355663 29.416925 -0.199330 0.653512 0.045538 -0.004770 732022.000000 0 0 1
17.947239 -4.850822 23.648363 30.081206 -0.263975 0.666240 0.052490 -0.007866 463620.000000 0 0 1
16.881039 -5.931422 23.220063 29.314204 -0.337891 0.656539 0.052183 -0.014433 352783.000000 0 0 1
16.649539 -5.885522 21.844363 28.089548 -0.339785 0.679847 0.051617 -0.011752 302193.000000 0 0 1
15.961239 -7.041722 21.315963 27.544823 -0.415492 0.685876 0.063678 -0.016907 174816.000000 0 0 1
16.852439 -8.329022 21.230763 28.357056 -0.459023 0.724706 0.073770 -0.021627 110107.000000 0 0 1
16.864539 -9.108922 22.448763 29.518335 -0.495228 0.706710 0.067190 -0.017199 17768.700000 0 0 1
17.518439 -10.320422 22.176363 30.086507 -0.532379 0.742047 0.057175 -0.024830 -229327.000000 0 0 1
17.379839 -11.311922 23.324363 31.209683 -0.576983 0.726741 0.061480 -0.020970 -934067.000000 0 0 1
16.056039 -11.707322 23.349363 30.660244 -0.630026 0.705092 0.094151 -0.025339 -666334.000000 0 0 1
15.737939 -12.585522 24.448063 31.682580 -0.674554 0.689355 0.097638 -0.021832 190176.000000 0 0 1
14.481339 -13.472522 24.295663 31.328857 -0.749325 0.683283 0.109464 -0.020055 -272113.000000 0 0 1
14.691339 -14.436622 23.228363 31.045263 -0.776654 0.725437 0.110297 -0.025862 137743.000000 0 0 1
13.690339 -15.424022 23.157563 31.009653 -0.844875 0.727581 0.107022 -0.024867 -255677.000000 0 0 1
13.748339 -16.290722 21.861663 30.534190 -0.869833 0.772779 0.098401 -0.026104 253063.000000 0 0 1
14.796639 -17.253522 21.917463 31.575303 -0.861906 0.803581 0.120063 -0.026303 354455.000000 0 0 1
14.686539 -18.092622 20.783563 31.224892 -0.888937 0.842487 0.105685 -0.016920 -27602.000000 0 0 1
-24.498761 -32.561556 26.181778 48.434799 0.925772 0.999697 0.063272 -0.033907 -492611.000000 0 0 1
-24.317861 -33.949056 26.123718 49.257948 0.949211 1.011789 0.085040 -0.026038 581637.000000 0 0 1
-25.447471 33.500078 26.669068 49.810322 -0.921164 1.005800 0.089219 -0.036743 441458.000000 0 0 1
-25.764991 33.527278 28.205268 50.827653 -0.915574 0.982530 0.092372 -0.030916 -626654.000000 0 0 1
-26.444421 -33.501556 28.589818 51.371582 0.902584 0.980593 0.123894 -0.038235 -533148.000000 0 0 1
-26.782491 -33.589756 29.926258 52.356036 0.897679 0.962352 0.095272 -0.041919 653075.000000 0 0 1
-28.116891 -32.778956 30.224278 52.711731 0.861807 0.960161 0.081304 -0.049128 667411.000000 0 0 1
-27.961781 -31.413456 30.097718 51.715946 0.843466 0.949633 0.069488 -0.043483 61882.000000 0 0 1
-28.638781 -30.728056 31.125048 52.279651 0.820576 0.933087 0.050743 -0.021034 -217219.000000 0 0 1
-28.986581 -29.240756 30.821098 51.431351 0.789763 0.928211 0.051793 -0.023330 -142530.000000 0 0 1
-29.890771 -29.026156 29.766278 51.205540 0.770724 0.950459 0.066260 -0.020041 130083.000000 0 0 1
-30.276151 -27.670256 29.762068 50.676120 0.740458 0.943078 0.068564 -0.015804 270176.000000 0 0 1
-31.054541 -27.176056 28.491108 50.146444 0.718891 0.966530 0.066970 -0.023376 438914.000000 0 0 1
-30.238491 -27.279156 27.311358 49.034977 0.733993 0.980055 0.067544 -0.020471 570777.000000 0 0 1
-29.376421 -26.179456 27.079828 47.766674 0.727917 0.968036 0.061049 -0.023549 82184.300000 0 0 1
-28.414451 -26.220556 25.868868 46.519856 0.745264 0.981132 0.046282 -0.012225 -96710.900000 0 0 1
-28.982951 -26.195156 24.576448 46.154084 0.734918 1.009260 0.046534 -0.021241 -668881.000000 0 0 1
-28.023641 -26.167256 23.595178 45.019798 0.751155 1.019130 0.052857 -0.004631 -958970.000000 0 0 1
-28.591481 -26.379656 22.162898 44.772236 0.745184 1.052945 0.044594 -0.004056 -31886.300000 0 0 1
-29.352381 -25.259056 21.755698 44.417256 0.710584 1.058933 0.037773 -0.007455 -122418.000000 0 0 1
-29.818721 -25.631956 20.501898 44.345024 0.710037 1.090179 0.035838 -0.000495 -420002.000000 0 0 1
-30.622051 -24.527756 19.853398 43.971335 0.675340 1.102342 0.038916 -0.002803 -568468.000000 0 0 1
-31.935761 -24.330856 20.297698 44.987554 0.651054 1.102704 0.058603 -0.005356 -178738.000000 0 0 1
-32.586041 -23.379556 19.477798 44.585181 0.622356 1.118683 0.061787 0.001787 -808633.000000 0 0 1
-33.939281 -22.872256 19.927598 45.520590 0.593005 1.117678 0.071907 0.005117 -878320.000000 0 0 1
-34.956215 -23.735756 19.495198 46.533707 0.596502 1.138510 0.056445 0.004737 -358046.000000 0 0 1
-36.221721 -23.121556 19.674798 47.262217 0.568130 1.141435 0.055030 -0.008506 456233.000000 0 0 1
36.327848 -23.782956 18.834198 47.329363 -0.579655 1.161527 0.055129 -0.010239 386853.000000 0 0 1
36.038058 -25.030956 19.355398 47.957500 -0.607072 1.155354 0.051521 -0.005112 -84001.300000 0 0 1
35.330178 -25.846556 18.419398 47.492528 -0.631602 1.172512 0.051408 0.006362 348217.000000 0 0 1
34.829048 -27.224556 18.916598 48.084059 -0.663459 1.166462 0.046239 0.003474 312485.000000 0 0 1
33.781858 -27.412056 19.865898 47.825607 -0.681680 1.142434 0.041099 -0.002095 116203.000000 0 0 1
34.104868 -27.049956 21.196998 48.416473 -0.670544 1.117640 0.052694 -0.011541 -469860.000000 0 0 1
32.869308 -27.014156 22.099298 47.943040 -0.687932 1.091732 0.042713 -0.012359 -122297.000000 0 0 1
31.815688 -26.291956 21.493898 46.534854 -0.690623 1.090673 0.033863 -0.005191 -778464.000000 0 0 1
30.910308 -25.857256 22.439498 46.125654 -0.696619 1.062733 0.031429 -0.000026 -185187.000000 0 0 1
29.861338 -24.847056 21.853298 44.571766 -0.693999 1.058369 0.047773 0.006015 113017.000000 0 0 1
30.398648 -23.694656 21.220098 43.997808 -0.662093 1.067519 0.041987 0.006445 -265611.000000 0 0 1
30.977188 -22.812856 22.184598 44.409109 -0.634766 1.047716 0.058389 -0.003700 -280533.000000 0 0 1
31.781038 -21.818456 21.363798 44.073703 -0.601625 1.064743 0.058238 -0.006565 -222477.000000 0 0 1
30.984748 -20.757556 20.915798 42.759810 -0.590257 1.059686 0.052378 -0.009936 361159.000000 0 0 1
31.847588 -19.712056 20.471698 42.684007 -0.554237 1.070586 0.053945 -0.007395 122760.000000 0 0 1
31.081088 -18.357656 20.419598 41.472853 -0.533507 1.055997 0.032474 0.004400 221873.000000 0 0 1
30.734398 -17.698256 21.669898 41.562194 -0.522469 1.022323 0.053387 -0.000718 -212044.000000 0 0 1
29.508208 -18.171056 22.143798 41.125046 -0.551954 1.002199 0.063032 -0.010177 -688743.000000 0 0 1
29.340128 -18.043156 23.669778 41.793026 -0.551351 0.968717 0.052350 -0.006429 -141972.000000 0 0 1
29.189478 -16.720056 24.027128 41.338708 -0.520188 0.950562 0.064096 -0.002721 154998.000000 0 0 1
29.746718 -16.471156 25.329778 42.400046 -0.505690 0.930542 0.068115 -0.002629 37035.600000 0 0 1
29.633638 -15.028056 25.755748 42.039904 -0.469334 0.911387 0.084258 -0.011714 501488.000000 0 0 1
28.280358 -14.566756 25.848368 40.989111 -0.475642 0.888450 0.096263 -0.016753 542727.000000 0 0 1
28.131558 -13.228156 26.346588 40.749373 -0.439545 0.867740 0.089517 -0.022354 208786.000000 0 0 1
28.846868 -12.022056 25.631108 40.418131 -0.394866 0.883889 0.101308 -0.031478 -45245.600000 0 0 1
28.258458 -11.761856 24.354908 39.115768 -0.394414 0.898689 0.091196 -0.022989 -91924.500000 0 0 1
28.902738 -10.897456 23.463898 38.790171 -0.360557 0.921165 0.085988 -0.018925 -447521.000000 0 0 1
29.818138 -11.529756 22.418698 39.046827 -0.368962 0.959232 0.072846 -0.024960 -17307.800000 0 0 1
29.172378 -12.446956 21.491698 38.312497 -0.403284 0.975254 0.072770 -0.028842 78175.100000 0 0 1
29.198348 -13.793356 21.974398 39.059882 -0.441326 0.973290 0.078164 -0.030384 -327590.000000 0 0 1
28.757248 -14.794856 20.878098 38.493663 -0.475160 0.997532 0.074686 -0.033937 -230915.000000 0 0 1
29.511808 -14.848556 19.683698 38.456136 -0.466156 1.033462 0.062667 -0.025264 -368642.000000 0 0 1
28.991648 -15.873956 18.912998 38.081487 -0.500949 1.051067 0.063629 -0.033664 -507112.000000 0 0 1
29.423108 -15.938256 17.405498 37.718678 -0.496442 1.091161 0.069507 -0.033478 -276937.000000 0 0 1
28.830678 -16.864756 16.519398 37.262830 -0.529286 1.111496 0.061906 -0.032269 273578.000000 0 0 1
27.416358 -16.705356 16.376398 36.040422 -0.547245 1.099109 0.070416 -0.031350 297802.000000 0 0 1
26.988458 -15.617656 15.308698 34.736786 -0.524595 1.114412 0.068337 -0.024252 -353421.000000 0 0 1
27.315958 -15.964056 13.951098 34.578112 -0.528887 1.155494 0.071506 -0.028419 -163238.000000 0 0 1
26.442058 -16.905656 13.429798 34.137123 -0.568850 1.166461 0.073034 -0.035154 -435163.000000 0 0 1
26.756958 -17.395356 11.973998 34.086799 -0.576463 1.211859 0.067656 -0.027738 -267581.000000 0 0 1
26.521358 -16.410856 10.977298 33.063571 -0.554113 1.232367 0.069548 -0.024955 -244023.000000 0 0 1
26.312958 -16.891156 9.649698 32.723074 -0.570683 1.271456 0.069352 -0.029101 75546.800000 0 0 1
27.615158 -17.415756 8.996998 33.865196 -0.562659 1.301897 0.068083 -0.017322 374425.000000 0 0 1
28.148458 -18.623256 9.469698 35.054765 -0.584493 1.297258 0.055537 -0.012581 -651548.000000 0 0 1
29.537058 -18.752156 9.259498 36.191428 -0.565665 1.312072 0.053634 -0.008831 -160543.000000 0 0 1
30.082428 -19.816456 10.197898 37.438504 -0.582494 1.294920 0.057800 -0.029210 -625394.000000 0 0 1
30.269438 -19.285656 11.524998 37.696167 -0.567277 1.260087 0.065082 -0.032253 149379.000000 0 0 1
30.856148 -20.148256 12.481598 38.908153 -0.578463 1.244226 0.027960 -0.029331 23018.200000 0 0 1
30.835758 -19.537856 13.951998 39.079791 -0.564767 1.205728 0.053676 -0.024357 131100.000000 0 0 1
30.686698 -20.527056 14.945798 39.829767 -0.589563 1.186139 0.065227 -0.025836 -36343.500000 0 0 1
30.422878 -19.906756 16.209298 39.806680 -0.579417 1.151410 0.075660 -0.024374 147444.000000 0 0 1
30.103408 -21.002756 17.234298 40.550610 -0.609172 1.131827 0.068723 -0.025408 -358958.000000 0 0 1
28.862628 -21.614956 17.104198 39.910039 -0.642791 1.127888 0.033139 -0.015171 -662617.000000 0 0 1
28.603158 -22.450056 18.196798 40.660413 -0.665453 1.106794 0.042596 -0.015591 287090.000000 0 0 1
27.296058 -23.286156 18.068498 40.172011 -0.706289 1.104279 0.046046 -0.010366 570899.000000 0 0 1
26.155158 -22.477856 18.315298 39.048642 -0.709928 1.082595 0.058193 -0.004243 -86602.800000 0 0 1
24.917458 -23.124456 18.208598 38.563885 -0.748094 1.079049 0.050437 -0.006158 358861.000000 0 0 1
23.732258 -22.462356 18.961898 37.780036 -0.757915 1.044999 0.052745 -0.003280 2073.330000 0 0 1
23.282558 -21.219856 18.493598 36.529070 -0.739081 1.039942 0.050629 -0.008612 223691.000000 0 0 1
22.044158 -20.789856 19.053698 35.793944 -0.756124 1.009462 0.052500 -0.006866 513933.000000 0 0 1
21.971958 -20.328956 20.542798 36.304820 -0.746577 0.969342 0.048640 -0.004784 -385274.000000 0 0 1
22.217958 -21.342856 21.473998 37.553798 -0.765312 0.962074 0.052024 0.003937 -248436.000000 0 0 1
22.357758 -20.811256 22.743498 38.082075 -0.749589 0.930762 0.043353 0.008721 -18454.400000 0 0 1
22.609158 -21.846056 23.855718 39.465422 -0.768234 0.921694 0.044766 0.005806 392566.000000 0 0 1
21.508058 -22.658856 24.302018 39.580405 -0.811448 0.909689 0.054273 0.010848 270817.000000 0 0 1
21.949358 -23.624156 25.245228 40.953591 -0.822131 0.906589 0.059206 0.014844 652246.000000 0 0 1
20.825858 -24.492856 25.973718 41.330986 -0.866138 0.891260 0.080462 0.012731 812818.000000 0 0 1
20.317358 -25.622556 25.265498 41.323793 -0.900370 0.912964 0.087549 0.012554 -534593.000000 0 0 1
19.427758 -26.370656 25.989848 41.812935 -0.935850 0.900045 0.092331 -0.001248 -810425.000000 0 0 1
18.689558 -27.278956 24.998498 41.453178 -0.970122 0.923472 0.102106 -0.005462 -368896.000000 0 0 1
17.795558 -26.564656 24.191198 40.094600 -0.980561 0.923097 0.105593 -0.006086 -7479.790000 0 0 1
17.235658 -27.363656 23.141918 39.766644 -1.008700 0.949680 0.103092 -0.011125 16983.500000 0 0 1
16.296158 -26.574656 22.211298 38.276872 -1.020712 0.951724 0.106512 -0.020804 1247470.000000 0 0 1
14.932758 -26.478256 22.702498 37.940595 -1.057296 0.929332 0.086176 -0.020444 911216.000000 0 0 1
14.243658 -25.457056 22.026098 36.552599 -1.060676 0.924058 0.057660 -0.018868 684606.000000 0 0 1
12.842358 -25.085656 22.628298 36.142166 -1.097642 0.894266 0.058617 -0.017130 567879.000000 0 0 1
11.845658 -26.067756 22.497698 36.414200 -1.144274 0.904819 0.052178 -0.026970 -331981.000000 0 0 1
10.639758 -25.387656 22.238798 35.387875 -1.173941 0.891263 0.039910 -0.022133 249357.000000 0 0 1
9.316258 -26.190356 22.164898 35.552920 -1.229041 0.897669 0.039921 -0.027398 383294.000000 0 0 1
9.067458 -26.958756 20.994898 35.352215 -1.246337 0.934926 0.053037 -0.030933 846573.000000 0 0 1
7.696458 -27.393756 20.981498 35.353594 -1.296901 0.935426 0.046471 -0.028135 888386.000000 0 0 1
7.409258 -28.299856 19.767798 35.306442 -1.314731 0.976541 0.060698 -0.031042 96277.700000 0 0 1
7.950858 -29.619556 19.936098 36.578440 -1.308546 0.994380 0.071483 -0.029944 222820.000000 0 0 1
8.063158 -30.317256 18.740498 36.542534 -1.310854 1.032306 0.053035 -0.027895 -60379.100000 0 0 1
8.721358 -31.711256 18.832798 37.899079 -1.302408 1.050751 0.054919 -0.030529 -363054.000000 0 0 1
7.994058 -32.607356 19.629598 38.890433 -1.330377 1.041714 0.072219 -0.031644 286767.000000 0 0 1
8.761858 -33.797156 19.562898 40.021556 -1.317132 1.060072 0.079272 -0.038510 140956.000000 0 0 1
8.513958 33.275978 20.685698 40.095839 1.320311 1.028731 0.088535 -0.043835 196146.000000 0 0 1
7.520058 32.332378 20.287198 38.903783 1.342273 1.022222 0.085948 -0.048010 153950.000000 0 0 1
7.570058 31.159578 21.046398 38.355912 1.332469 0.989972 0.082363 -0.054023 443075.000000 0 0 1
6.451558 30.149778 20.604098 37.083158 1.359992 0.981689 0.092272 -0.048562 1895250.000000 0 0 1
5.080558 30.530578 20.951598 37.375095 1.405899 0.975715 0.090227 -0.047518 1397990.000000 0 0 1
4.236558 29.447878 20.545398 36.155765 1.427910 0.966423 0.086827 -0.039048 -730315.000000 0 0 1
2.789358 29.589578 20.928598 36.350101 1.476806 0.957274 0.066507 -0.028565 -1004580.000000 0 0 1
2.538258 29.420778 22.256198 36.977876 1.484735 0.924945 0.059630 -0.025179 130359.000000 0 0 1
1.231558 28.871678 22.406198 36.566764 1.528166 0.911264 0.042350 -0.012745 299235.000000 0 0 1
1.095858 28.227078 23.804158 36.940585 1.531993 0.870570 0.049567 -0.008974 -158694.000000 0 0 1
0.982358 29.157578 24.883228 38.344549 1.537118 0.864609 0.054364 -0.018146 195077.000000 0 0 1
0.659858 28.604778 26.126148 38.745895 1.547732 0.830787 0.045857 -0.013585 176510.000000 0 0 1
1.855958 28.020878 26.947158 38.919963 1.504658 0.806023 0.031541 -0.010992 485613.000000 0 0 1
2.490558 26.799378 26.440148 37.729179 1.478129 0.794295 0.036231 -0.014713 438271.000000 0 0 1
3.327758 26.233478 27.407778 38.084848 1.444619 0.767498 0.008195 0.001642 -166448.000000 0 0 1
4.014758 24.918878 26.987188 36.951009 1.411056 0.751961 0.010482 0.011509 428043.000000 0 0 1
3.016158 23.981678 26.590448 35.934246 1.445684 0.737763 0.031441 0.000946 358476.000000 0 0 1
3.629858 22.750478 26.430948 35.062161 1.412579 0.716923 0.040857 0.007529 336463.000000 0 0 1
2.504158 21.673678 26.467908 34.301156 1.455767 0.689392 0.042632 0.004283 236100.000000 0 0 1
2.869158 20.291278 26.618578 33.593403 1.430329 0.656104 0.048494 0.003851 -167956.000000 0 0 1
3.383158 19.832078 25.398628 32.401349 1.401833 0.669913 0.042005 0.004060 -290663.000000 0 0 1
3.844658 18.382378 25.523878 31.688509 1.364619 0.634342 0.040794 -0.002332 -147371.000000 0 0 1
4.821358 18.110378 26.497258 32.455138 1.310610 0.615600 0.047765 -0.003060 1371390.000000 0 0 1
6.156258 17.974178 25.909738 32.129194 1.240813 0.632717 0.061787 -0.001581 1167650.000000 0 0 1
7.339558 17.839878 26.921508 33.119450 1.180490 0.621749 0.047468 -0.011402 371640.000000 0 0 1
7.808758 19.010978 27.619918 34.427516 1.181057 0.639720 0.056208 -0.012371 296624.000000 0 0 1
8.386958 19.985178 26.713928 34.400325 1.173458 0.681608 0.051759 -0.019169 -535288.000000 0 0 1
8.952658 21.150178 27.425048 35.771684 1.170375 0.697159 0.038437 -0.012974 -821172.000000 0 0 1
10.141958 20.960778 28.102718 36.496250 1.120149 0.691929 0.059191 -0.031978 -774620.000000 0 0 1
10.306858 21.835578 29.201028 37.890947 1.129781 0.690920 0.069430 -0.036888 923924.000000 0 0 1
11.573658 21.461478 30.079248 38.720870 1.076224 0.681192 0.080249 -0.044605 296592.000000 0 0 1
12.851058 21.644478 29.554668 38.821534 1.034997 0.705487 0.077637 -0.043829 -667157.000000 0 0 1
13.695958 21.506378 30.705548 39.911580 1.003734 0.692990 0.084496 -0.037728 -249732.000000 0 0 1
15.135158 21.198078 30.271588 39.934954 0.950744 0.710521 0.075717 -0.039861 -180164.000000 0 0 1
15.756058 22.294778 29.617638 40.280454 0.955578 0.744708 0.074551 -0.047005 -76204.300000 0 0 1
17.084258 21.994778 29.249548 40.387847 0.910399 0.760899 0.117680 -0.030657 28365.800000 0 0 1
-8.864261 16.709878 4.400363 19.420565 -1.083063 1.342229 0.022687 -0.014543 -65861.400000 0 1 0
-8.777961 17.920078 5.185963 20.617372 -1.115310 1.316532 0.032982 -0.019456 -417661.000000 0 1 0
-7.444461 18.267578 5.408363 20.454212 -1.183821 1.303201 0.040107 -0.013768 -617835.000000 0 1 0
-7.276161 19.680078 6.111763 21.854099 -1.216661 1.287354 0.046127 -0.014279 -64584.600000 0 1 0
-7.628561 20.864178 5.365663 22.853867 -1.220266 1.333803 0.057543 -0.014428 161953.000000 0 1 0
-8.932161 20.934378 4.815663 23.264185 -1.167508 1.362290 0.064339 -0.025952 -38658.800000 0 1 0
-8.983361 22.128178 3.814663 24.184886 -1.185155 1.412406 0.085497 -0.026977 2599.000000 0 1 0
-8.277461 22.090678 2.609063 23.734398 -1.212285 1.460646 0.061515 -0.022629 -294505.000000 0 1 0
-8.617961 21.009478 1.772663 22.777396 -1.181533 1.492892 0.069329 -0.020946 -645123.000000 0 1 0
-8.121061 20.981978 0.331363 22.501219 -1.201504 1.556069 0.054798 -0.004053 1940180.000000 0 1 0
-6.742061 20.592278 0.006063 21.667887 -1.254389 1.570516 0.046665 -0.003111 1626570.000000 0 1 0
-5.740261 21.505378 0.411663 22.262106 -1.309955 1.552304 0.061835 -0.015628 -729948.000000 0 1 0
-4.343261 21.110878 -0.031337 21.553052 -1.367892 1.572250 0.054193 -0.013810 -756360.000000 0 1 0
-4.169661 21.411778 -1.398837 21.858798 -1.378467 1.634834 0.050426 -0.016286 213496.000000 0 1 0
-2.833961 21.262378 -1.856937 21.530636 -1.438292 1.657150 0.047181 -0.018431 188583.000000 0 1 0
-2.737761 21.557578 -3.342837 21.986338 -1.444475 1.723430 0.055296 -0.008771 39366.200000 0 1 0
-1.476161 21.844978 -3.903837 22.240100 -1.503325 1.747242 0.060890 -0.019408 54877.200000 0 1 0
-1.601761 22.048978 -5.276037 22.727948 -1.498278 1.805072 0.071551 -0.025726 871661.000000 0 1 0
-0.328061 22.756778 -5.896737 23.510637 -1.556381 1.824315 0.079596 -0.030927 1630720.000000 0 1 0
0.928039 22.065278 -5.759137 22.823352 1.528762 1.825889 0.060224 -0.022864 660102.000000 0 1 0
1.922239 22.704378 -6.546237 23.707319 1.486334 1.850559 0.065006 -0.018341 626636.000000 0 1 0
3.209139 21.818978 -6.722237 23.055473 1.424763 1.866662 0.053122 -0.010413 519662.000000 0 1 0
3.061639 20.755878 -7.569637 22.304249 1.424345 1.917055 0.049714 -0.022752 249453.000000 0 1 0
4.164639 19.850378 -7.459537 21.610794 1.363994 1.923223 0.041182 -0.020458 469072.000000 0 1 0
4.061839 18.618578 -8.319137 20.793220 1.356001 1.982410 0.025987 -0.024596 -161184.000000 0 1 0
4.298539 18.769678 -9.736537 21.577266 1.345664 2.038951 0.027585 -0.029570 -495379.000000 0 1 0
3.139439 18.848478 -10.546437 21.825410 1.405750 2.075123 0.030708 -0.026196 -969025.000000 0 1 0
3.360039 19.281078 -11.998237 22.956644 1.398263 2.120750 0.028507 -0.027774 -196763.000000 0 1 0
3.652739 20.639578 -12.226437 24.265622 1.395633 2.098856 0.066024 -0.027665 -72407.200000 0 1 0
3.708339 20.757578 -13.647337 25.117297 1.394011 2.145212 0.065343 -0.021141 49092.800000 0 0 1
3.978139 22.193578 -14.214337 26.653853 1.393433 2.133286 0.078832 -0.020867 -284808.000000 0 0 1
2.854639 23.011278 -14.230637 27.206229 1.447373 2.121240 0.092632 -0.023588 -622559.000000 0 0 1
3.138839 24.196278 -14.913937 28.596113 1.441793 2.119448 0.090955 -0.022114 283847.000000 0 0 1
1.888039 25.018178 -15.330137 29.402160 1.495472 2.119281 0.086132 -0.016566 206015.000000 0 0 1
0.955839 25.451678 -14.380237 29.248808 1.533259 2.084782 0.088387 -0.017613 -483839.000000 0 0 1
1.110039 26.829878 -14.018937 30.291998 1.529447 2.051940 0.063742 -0.009671 -780534.000000 0 0 1
0.299239 27.243878 -12.743037 30.078288 1.559813 2.008281 0.066137 -0.015346 86881.300000 0 0 1
-1.099061 27.115478 -12.784337 29.998272 -1.530286 2.011050 0.048901 -0.019794 -82502.900000 0 0 1
-1.663661 25.817878 -13.108537 29.002833 -1.506447 2.039774 0.046882 -0.021337 -1095280.000000 0 0 1
-1.643261 24.660978 -12.029837 27.487836 -1.504261 2.023771 0.082701 -0.029721 66316.100000 0 0 1
-2.634961 24.813278 -11.024337 27.279622 -1.465001 1.986817 0.086483 -0.022626 161116.000000 0 0 1
-2.421061 23.735378 -10.082637 25.901530 -1.469146 1.970633 0.098764 -0.024280 481687.000000 0 0 1
-3.450661 23.752578 -8.882237 25.592697 -1.426530 1.925232 0.091296 -0.024057 383651.000000 0 0 1
-3.045361 24.249778 -7.635337 25.605162 -1.445867 1.873598 0.092876 -0.026343 -240958.000000 0 0 1
-2.845961 25.637278 -7.529537 26.871238 -1.460240 1.854807 0.091161 -0.027414 -51794.000000 0 0 1
-2.745761 26.013578 -6.076337 26.854559 -1.465635 1.799041 0.089451 -0.027545 758109.000000 0 0 1
-1.514061 25.683978 -5.408737 26.290940 -1.511915 1.778002 0.087168 -0.028379 412901.000000 0 0 1
-1.511961 26.026578 -4.005537 26.376374 -1.512769 1.723247 0.096291 -0.029651 3505.940000 0 0 1
-2.500561 25.369778 -2.996537 25.668223 -1.472549 1.687804 0.094786 -0.034421 343427.000000 0 0 1
-3.812561 25.914878 -3.006237 26.365773 -1.424726 1.685065 0.084863 -0.028895 51105.500000 0 0 1
-4.640861 25.177578 -2.124037 25.689678 -1.388517 1.653571 0.083780 -0.026202 36442.700000 0 0 1
-5.833561 24.460578 -2.789637 25.300838 -1.336681 1.681280 0.064839 -0.021246 -14905.800000 0 0 1
-6.909761 25.327778 -3.099937 26.435785 -1.304464 1.688330 0.063007 -0.020768 -635935.000000 0 0 1
-7.910061 24.624478 -3.773437 26.137575 -1.259980 1.715671 0.062672 -0.009903 -302342.000000 0 0 1
-9.187961 25.447978 -3.966837 27.345091 -1.224313 1.716376 0.047959 -0.008639 -57049.100000 0 0 1
-9.976961 25.516878 -2.787337 27.539427 -1.198077 1.672183 0.054430 -0.010525 -765025.000000 0 0 1
-11.243361 26.026978 -3.036937 28.513852 -1.163021 1.677506 0.057142 -0.008904 -589777.000000 0 0 1
-12.092861 26.270578 -1.806037 28.976582 -1.139394 1.633164 0.066892 -0.008205 -180185.000000 0 0 1
-12.479661 25.143478 -1.100737 28.091779 -1.110083 1.609990 0.072108 -0.000699 126699.000000 0 0 1
-11.453061 24.688978 -0.241137 27.217208 -1.136449 1.579656 0.077394 -0.009589 92087.400000 0 0 1
-11.654561 23.224378 0.128663 25.984940 -1.105690 1.565845 0.067089 -0.005961 213073.000000 0 0 1
-12.598061 23.070078 1.182763 26.312327 -1.070969 1.525830 0.081150 -0.010521 192738.000000 0 0 1
-12.980861 21.715478 1.457863 25.341470 -1.032018 1.513236 0.079273 -0.015942 -9281.500000 0 0 1
-13.805261 21.715478 2.773463 25.881254 -1.004516 1.463429 0.081661 -0.027803 286285.000000 0 0 1
-13.090761 21.722478 4.043863 25.682424 -1.028440 1.412682 0.093415 -0.030562 308651.000000 0 0 1
-12.973661 23.031878 4.494663 26.813901 -1.057806 1.402377 0.083089 -0.027286 -44318.100000 0 0 1
-12.758661 23.005478 6.021263 26.986868 -1.064434 1.345784 0.085367 -0.031678 374266.000000 0 0 1
-11.428461 22.645378 6.406463 26.162294 -1.103419 1.323407 0.077986 -0.031151 597604.000000 0 0 1
-11.504361 22.120278 7.723063 26.101777 -1.091212 1.270417 0.063813 -0.030599 58220.500000 0 0 1
-10.082061 21.794578 8.241363 25.388416 -1.137518 1.240196 0.049659 -0.028552 -323954.000000 0 0 1
-9.335761 22.935678 8.589363 26.210283 -1.184235 1.236918 0.051808 -0.030403 -443913.000000 0 0 1
-8.210061 22.520078 9.311863 25.715167 -1.221204 1.200260 0.050097 -0.030890 -637296.000000 0 0 1
-8.359861 22.364178 10.827363 26.215941 -1.213073 1.145043 0.050036 -0.038065 569135.000000 0 0 1
-9.392161 21.381778 11.176163 25.890148 -1.156910 1.124446 0.049708 -0.033793 965132.000000 0 0 1
-9.299261 20.908078 12.528263 26.087955 -1.152301 1.069877 0.045768 -0.026175 -343765.000000 0 0 1
-10.195161 19.714278 12.871663 25.656847 -1.093526 1.045250 0.039480 -0.021563 -504249.000000 0 0 1
-9.861261 18.522178 12.240863 24.293091 -1.081564 1.042709 0.043306 -0.030835 -99610.500000 0 1 0
-10.508361 17.362578 12.725963 23.954852 -1.026540 1.010724 0.034611 -0.031284 -310583.000000 0 1 0
-10.524561 16.093978 11.764263 22.542857 -0.991653 1.021764 0.033848 -0.033896 -299581.000000 0 1 0
-11.250761 15.015278 12.351763 22.463398 -0.927751 0.988598 0.030822 -0.026220 208810.000000 0 1 0
-11.313961 13.891878 11.532863 21.307204 -0.887318 0.998854 0.025839 -0.016328 -34738.400000 0 1 0
-11.707761 12.663378 12.311163 21.189563 -0.824589 0.950838 0.016643 -0.023828 -730713.000000 0 1 0
-13.015261 12.732978 12.784563 22.247940 -0.774435 0.958632 0.035150 -0.022365 -585732.000000 0 1 0
-13.392061 11.521678 13.406663 22.177353 -0.710464 0.921633 0.030216 -0.012993 -74007.800000 0 1 0
-14.117261 11.640678 14.747963 23.501168 -0.689544 0.892405 0.034581 -0.013177 760500.000000 0 1 0
-15.394561 12.285778 14.568663 24.498547 -0.673557 0.933935 0.040380 -0.016389 736125.000000 0 1 0
-16.098261 12.337778 15.799163 25.709694 -0.653918 0.909017 0.040594 -0.011909 -165944.000000 0 0 1
-17.240261 13.338378 15.944563 27.006815 -0.658482 0.939254 0.055871 -0.011773 -250615.000000 0 0 1
-18.337761 13.109478 15.102363 27.133251 -0.620649 0.980509 0.053209 -0.010962 -825338.000000 0 0 1
-19.255361 14.124778 15.146763 28.279016 -0.632890 1.005556 0.081608 -0.017853 -558900.000000 0 0 1
-20.493261 13.772778 14.295463 28.531096 -0.591730 1.045986 0.087352 -0.019168 101829.000000 0 0 1
-21.338961 12.799578 14.900963 29.003779 -0.540289 1.031235 0.092010 -0.009180 -232771.000000 0 0 1
-22.449461 12.523178 14.109963 29.324041 -0.508841 1.068803 0.083306 -0.011033 -280274.000000 0 0 1
-23.478161 11.520178 14.705363 30.003104 -0.456161 1.058560 0.087263 -0.003881 -112485.000000 0 0 1
-24.222561 12.149678 15.691263 31.313941 -0.464915 1.045933 0.095227 -0.020407 244871.000000 0 0 1
-25.150201 11.214478 16.313463 32.006659 -0.419439 1.035972 0.089565 -0.017299 763492.000000 0 0 1
-26.181711 11.865878 17.264463 33.531221 -0.425522 1.029932 0.084520 -0.024329 -98457.100000 0 0 1
-27.221951 12.620678 16.707363 34.343153 -0.434124 1.062736 0.093747 -0.023353 349594.000000 0 0 1
-28.044041 13.122678 17.774063 35.701404 -0.437665 1.049675 0.093031 -0.014885 175351.000000 0 0 1
-29.067101 14.197778 17.388363 36.726400 -0.454364 1.077585 0.088418 -0.017780 219796.000000 0 0 1
-28.455491 15.459778 17.096463 36.619787 -0.497682 1.085055 0.089208 -0.016170 213311.000000 0 0 1
-29.449071 16.407378 16.748263 37.642452 -0.508312 1.109700 0.082706 -0.014918 -186192.000000 0 0 1
-29.022031 17.886878 16.786363 38.000009 -0.552334 1.113252 0.085017 -0.011902 -358591.000000 0 0 1
-28.524441 18.388278 18.040763 38.434902 -0.572605 1.082202 0.068464 -0.012980 219856.000000 0 0 1
-29.350441 18.281178 19.158663 39.531054 -0.557058 1.064835 0.071448 -0.019875 -710937.000000 0 0 1
-28.412841 18.622678 20.370063 39.611023 -0.580184 1.030661 0.060922 -0.015697 1359600.000000 0 0 1
-27.657281 17.536078 21.023463 38.915617 -0.565080 1.000083 0.064502 -0.012029 778808.000000 0 0 1
-26.756611 16.885578 20.134063 37.502260 -0.562960 1.004067 0.058057 -0.010996 -538095.000000 0 0 1
-26.246971 15.483178 20.586363 36.775408 -0.532962 0.976669 0.060874 -0.013020 782162.000000 0 0 1
-27.381631 14.611178 20.685063 37.297615 -0.490175 0.982920 0.069529 -0.025363 869657.000000 0 0 1
-26.994481 13.396978 21.268563 36.885401 -0.460672 0.956221 0.060029 -0.022022 517989.000000 0 0 1
-28.245121 12.488278 21.530763 37.647281 -0.416298 0.961967 0.073238 -0.025758 158673.000000 0 0 1
-29.135021 12.349678 20.481963 37.694493 -0.400919 0.996353 0.082461 -0.025279 -241792.000000 0 0 1
-30.184851 11.475678 20.876363 38.453075 -0.363304 0.996904 0.108968 -0.023995 762537.000000 0 0 1
-31.241901 11.068778 19.761563 38.588776 -0.340494 1.033161 0.122021 -0.029821 508528.000000 0 0 1
-30.675731 10.376878 18.621563 37.355625 -0.326193 1.048935 0.143406 -0.037879 529801.000000 0 0 1
-30.116181 9.055178 18.835263 36.657165 -0.292076 1.031162 0.173250 -0.039722 -136267.000000 0 0 1
-29.180211 8.619878 17.703963 35.202519 -0.287233 1.043825 0.194834 -0.046682 -252364.000000 0 0 1
-29.771111 8.367778 16.413763 35.010718 -0.274001 1.082841 0.197631 -0.039842 408948.000000 0 0 1
-30.443121 9.522378 15.796563 35.594813 -0.303151 1.110975 0.174421 -0.039790 85728.200000 0 0 1
-29.601711 10.671778 15.161563 34.928801 -0.346009 1.121790 0.156238 -0.032733 -11670.600000 0 0 1
-29.091291 10.307478 13.870163 33.836796 -0.340514 1.148437 0.147068 -0.032552 10083.900000 0 0 1
-28.230731 11.262078 13.337863 33.191975 -0.379583 1.157271 0.118854 -0.025296 -327063.000000 0 0 1
-28.116371 11.166578 11.759663 32.457857 -0.378052 1.200056 0.128397 -0.015226 -551021.000000 0 0 1
-27.391231 10.093078 11.235463 31.279153 -0.353041 1.203386 0.157971 -0.009929 261025.000000 0 0 1
-28.160971 8.909078 11.027663 31.528104 -0.306400 1.213468 0.151779 -0.011109 -27652.200000 0 0 1
-27.435171 7.752978 10.275763 30.304927 -0.275411 1.224859 0.155181 -0.010950 -60439.200000 0 0 1
-27.206131 8.097878 8.928563 29.756822 -0.289299 1.266050 0.155849 -0.003923 75921.200000 0 0 1
-26.598241 7.038278 8.244963 28.722521 -0.258685 1.279645 0.160578 -0.008498 -4449.480000 0 0 1
-25.674441 7.611578 7.136563 27.713599 -0.288211 1.310351 0.152784 -0.001449 -58960.600000 0 0 1
-26.443111 8.238978 6.126363 28.366375 -0.302041 1.353108 0.151748 -0.007635 9486.400000 0 0 1
-25.713581 8.557078 4.966463 27.551363 -0.321256 1.389544 0.152431 -0.020985 -288105.000000 0 0 1
-26.600791 9.068078 3.798663 28.359513 -0.328541 1.436446 0.132111 -0.018515 299776.000000 0 0 1
-27.515711 8.110178 3.250263 28.869596 -0.286631 1.457973 0.156286 -0.025408 409921.000000 0 0 1
-26.920261 6.923378 2.732963 27.930319 -0.251726 1.472790 0.162210 -0.021222 377183.000000 0 0 1
-25.844601 6.984078 1.559563 26.817028 -0.263929 1.512608 0.159721 -0.020199 1057170.000000 0 0 1
-24.568461 7.482878 1.934163 25.755460 -0.295646 1.495628 0.142285 -0.020394 60480.900000 0 0 1
-23.714461 7.613978 0.862063 24.921707 -0.310672 1.536199 0.148550 -0.014769 -240627.000000 0 1 0
-22.378961 8.310978 1.188663 23.901949 -0.355588 1.521045 0.119998 -0.014995 132055.000000 0 1 0
-22.716661 9.639378 1.628963 24.730908 -0.401304 1.504881 0.122443 -0.025858 397497.000000 0 1 0
-21.581461 10.273478 2.153163 23.998749 -0.444290 1.480956 0.128797 -0.026654 -291902.000000 0 1 0
-21.766461 11.746378 2.370963 24.847086 -0.494866 1.475229 0.115588 -0.031357 -1423730.000000 0 1 0
-20.734861 12.372278 2.963563 24.326743 -0.537982 1.448670 0.120836 -0.034493 -1094250.000000 0 1 0
-21.108461 13.537978 3.615763 25.336095 -0.570273 1.427595 0.133260 -0.039920 -774519.000000 0 0 1
-20.008561 14.153278 4.435963 24.906537 -0.615649 1.391737 0.099187 -0.030281 -572914.000000 0 1 0
-19.512661 13.281278 5.420263 24.218083 -0.597620 1.345074 0.091314 -0.038039 -65178.800000 0 1 0
-18.905161 14.028778 6.442063 24.407210 -0.638401 1.303691 0.090891 -0.029163 67976.700000 0 1 0
-18.097361 13.096078 7.440163 23.545228 -0.626420 1.249292 0.042082 -0.026781 684185.000000 0 1 0
-16.974461 12.390878 6.903163 22.120575 -0.630559 1.253425 0.041009 -0.016061 381702.000000 0 1 0
-16.407361 11.531378 7.848163 21.535270 -0.612614 1.197772 0.027804 -0.016789 -207244.000000 0 1 0
10.269839 -33.847356 -14.829337 38.353909 -1.276208 1.967787 0.047539 -0.017465 -1212940.000000 0 0 1
11.086539 -33.116856 -13.996637 37.623707 -1.247753 1.951977 0.050869 -0.026586 -263457.000000 0 0 1
11.840639 -32.084856 -14.574037 37.175816 -1.217260 1.973634 0.056285 -0.028749 29676.800000 0 0 1
13.008339 -31.592656 -13.660837 36.795805 -1.180200 1.951163 0.053729 -0.031811 807234.000000 0 0 1
14.183139 -32.395356 -13.720537 37.932488 -1.158122 1.940897 0.069965 -0.028909 203976.000000 0 0 1
15.364339 -31.806356 -13.246937 37.725171 -1.120793 1.929588 0.062476 -0.026884 199469.000000 0 0 1
16.647539 -32.486656 -13.773137 39.015672 -1.097244 1.931588 0.086192 -0.025877 35029.100000 0 0 1
16.847339 -33.820656 -13.361737 40.077495 -1.108640 1.910701 0.086544 -0.026633 164205.000000 0 0 1
18.049239 33.752178 -13.901737 40.721528 1.079731 1.919187 0.088369 -0.014814 628391.000000 0 0 1
18.275439 32.277278 -13.537737 39.485246 1.055600 1.920751 0.068228 -0.019562 -500458.000000 0 0 1
18.829739 32.065778 -12.231737 39.145735 1.039825 1.888585 0.063159 -0.024636 -96348.200000 0 0 1
18.833439 30.731178 -11.824437 37.933112 1.020986 1.887797 0.053045 -0.019303 -1017.240000 0 0 1
19.558039 30.506378 -10.475537 37.721252 1.000694 1.852205 0.049089 -0.024589 479773.000000 0 0 1
20.854539 29.962078 -10.712637 38.044691 0.962739 1.856237 0.041350 -0.020125 422668.000000 0 0 1
21.564739 29.812278 -9.434737 37.984525 0.944570 1.821808 0.044417 -0.020730 734670.000000 0 0 1
22.855539 28.974078 -9.683937 38.153001 0.902905 1.827422 0.040008 -0.011641 -271422.000000 0 0 1
23.897639 29.620478 -10.350937 39.441244 0.891926 1.836346 0.051842 -0.021385 -1198440.000000 0 0 1
24.977439 28.795578 -10.138137 39.444132 0.856284 1.830739 0.051897 -0.012534 -879643.000000 0 0 1
26.279239 29.143478 -10.874537 40.720956 0.837032 1.841127 0.036007 -0.020894 -252118.000000 0 0 1
26.792239 30.424678 -10.613337 41.906181 0.848798 1.826849 0.046598 -0.029845 506343.000000 0 0 1
27.892639 30.726378 -11.505437 43.063728 0.833702 1.841254 0.052721 -0.025985 784780.000000 0 0 1
28.594639 32.092278 -11.269037 44.436009 0.842969 1.827198 0.045479 -0.030668 -445478.000000 0 0 1
27.895039 33.206778 -11.749337 44.931840 0.872113 1.835364 0.049717 -0.028833 -133642.000000 0 0 1
28.448439 -33.625356 -11.438137 45.506145 -0.868605 1.824875 0.045135 -0.024188 -79029.500000 0 0 1
27.448739 -32.506256 -11.800937 44.151467 -0.869554 1.841369 0.038017 -0.017530 316568.000000 0 0 1
26.279939 -32.664756 -10.981037 43.338259 -0.893296 1.826969 0.052685 -0.025262 489789.000000 0 0 1
25.126439 -31.888056 -11.260837 42.130660 -0.903442 1.841369 0.062112 -0.026593 364438.000000 0 0 1
25.322739 -30.417956 -10.865737 41.043360 -0.876554 1.838729 0.035516 -0.012250 -756713.000000 0 0 1
26.212539 -29.754756 -11.723437 41.350716 -0.848605 1.858251 0.025692 -0.009374 -293579.000000 0 0 1
26.589839 -28.536656 -11.157537 40.569088 -0.820699 1.849413 0.016699 -0.003847 -296443.000000 0 0 1
27.413839 -27.758456 -12.197337 40.875732 -0.791644 1.873813 0.038036 -0.003626 905322.000000 0 0 1
28.727139 -28.300056 -12.461437 42.206979 -0.777909 1.870509 0.030170 -0.004102 799964.000000 0 0 1
28.771639 -28.958956 -13.678537 43.052650 -0.788643 1.894117 0.046777 -0.008198 227799.000000 0 0 1
30.154439 -29.593456 -14.021037 44.515753 -0.776009 1.891219 0.045578 -0.005955 378386.000000 0 0 1
30.481339 -30.610156 -13.112037 45.144426 -0.787507 1.865490 0.039514 -0.015303 63304.300000 0 0 1
31.636739 -31.311556 -13.516737 46.518802 -0.780232 1.865614 0.042620 -0.019633 -41891.100000 0 0 1
32.241039 -32.359556 -12.563137 47.375710 -0.787233 1.839188 0.055509 -0.019190 66427.500000 0 0 1
33.349139 -33.024456 -13.134437 48.736980 -0.780506 1.843666 0.045785 -0.021672 649271.000000 0 0 1
34.298439 -33.638356 -12.218437 49.570274 -0.775682 1.819850 0.050503 -0.014782 563342.000000 0 0 1
33.851539 33.172078 -11.538237 48.779548 0.775261 1.809598 0.051774 -0.023649 -206339.000000 0 0 1
32.793339 33.381178 -10.637037 47.988047 0.794281 1.794313 0.037484 -0.021049 -180313.000000 0 0 1
32.450639 32.234278 -9.933037 46.805532 0.782053 1.784642 0.044433 -0.027575 81816.000000 0 0 1
31.693939 32.463978 -8.588937 46.175594 0.797400 1.757892 0.020678 -0.021207 49005.900000 0 0 1
30.467439 33.124178 -8.743637 45.846779 0.827152 1.762686 0.030159 -0.023413 -357052.000000 0 0 1
29.910939 33.621178 -7.513637 45.623487 0.843731 1.736238 0.028476 -0.016130 597140.000000 0 0 1
28.819039 -33.445456 -7.769337 44.827426 -0.859565 1.744993 0.018759 -0.020266 -379240.000000 0 0 1
29.335239 -32.112556 -7.777237 44.184363 -0.830565 1.747736 0.008543 -0.019409 137549.000000 0 0 1
28.479539 -31.011756 -8.055637 42.868478 -0.827937 1.759835 0.012108 -0.012574 141948.000000 0 0 1
27.358039 -30.665356 -7.029637 41.692231 -0.842336 1.740213 0.018036 -0.008676 139072.000000 0 0 1
26.492139 -29.744056 -7.613937 40.552612 -0.843160 1.759672 0.022744 -0.017504 142313.000000 0 0 1
25.356139 -29.464756 -6.788737 39.461280 -0.860205 1.743692 0.033720 -0.026397 173613.000000 0 0 1
24.353239 -28.465656 -7.384437 38.182506 -0.863100 1.765421 0.056463 -0.025712 -538774.000000 0 0 1
23.587839 -29.112056 -8.379337 38.394156 -0.889841 1.790812 0.077217 -0.023963 -202059.000000 0 0 1
22.824439 -28.197356 -9.107637 37.403141 -0.890318 1.816768 0.088887 -0.026374 -731544.000000 0 0 1
21.713239 -28.876656 -9.884337 37.456990 -0.926061 1.837844 0.104868 -0.021875 -512340.000000 0 0 1
22.113739 -29.605256 -11.074037 38.576196 -0.929248 1.861962 0.117987 -0.019419 345733.000000 0 0 1
21.027939 -30.349456 -11.641337 38.714137 -0.964878 1.876223 0.105901 -0.022262 494700.000000 0 0 1
20.745939 -31.690456 -10.947937 39.427609 -0.991164 1.852166 0.106682 -0.033590 -73401.300000 0 0 1
21.725039 -32.664056 -11.223237 40.802928 -0.983875 1.849448 0.086533 -0.034650 -456395.000000 0 0 1
21.479139 -33.959556 -10.691537 41.580210 -1.006828 1.830848 0.056804 -0.031831 -319070.000000 0 0 1
22.677639 33.237678 -10.578537 41.604374 0.972057 1.827884 0.055852 -0.029100 -294122.000000 0 0 1
23.635639 33.608178 -9.618337 42.197932 0.957879 1.800751 0.070040 -0.031155 639135.000000 0 0 1
24.780039 32.722078 -9.721137 42.181574 0.922647 1.803346 0.065748 -0.030323 -721913.000000 0 0 1
25.944439 32.939878 -8.862137 42.856586 0.903644 1.779085 0.054631 -0.029769 -1825040.000000 0 0 1
25.860539 32.672478 -7.493737 42.336915 0.901255 1.748736 0.042858 -0.033146 -57441.000000 0 0 1
26.117139 31.330678 -7.160337 41.412398 0.875903 1.744573 0.041410 -0.028831 -349608.000000 0 0 1
26.033039 31.113678 -5.665237 40.961872 0.874070 1.709546 0.042124 -0.017345 -105296.000000 0 0 1
27.124639 31.754878 -4.942137 42.054049 0.863876 1.688587 0.030611 -0.015214 920013.000000 0 0 1
28.221239 30.886678 -4.695937 42.100796 0.830462 1.682569 0.044644 -0.021669 -106393.000000 0 0 1
27.844139 29.746578 -3.705937 40.913188 0.818420 1.661501 0.060409 -0.016018 -840486.000000 0 0 1
27.688939 30.149378 -2.327637 41.000978 0.827912 1.627597 0.055924 -0.016177 165761.000000 0 0 1
27.263239 29.130278 -1.397137 39.922541 0.818493 1.605800 0.053006 -0.013171 1224850.000000 0 0 1
25.842639 28.413678 -1.574437 38.440316 0.832750 1.611766 0.058257 -0.009567 696851.000000 0 0 1
24.772439 29.227778 -1.226737 38.333296 0.867718 1.602804 0.062776 -0.009226 -592439.000000 0 0 1
23.573739 28.700478 -1.774237 37.183148 0.883159 1.618531 0.076044 -0.004637 945857.000000 0 0 1
22.259639 29.356178 -1.209237 36.861076 0.922029 1.603607 0.089664 -0.010169 731666.000000 0 0 1
21.876239 28.777578 0.027163 36.148576 0.920810 1.570045 0.086872 -0.017716 -353058.000000 0 0 1
20.839139 29.430178 0.690963 36.067749 0.954663 1.551638 0.084356 -0.018655 -778144.000000 0 0 1
20.277639 28.603978 1.861363 35.111748 0.954116 1.517759 0.080089 -0.031741 -476281.000000 0 0 1
19.325739 27.655178 1.465463 33.770411 0.960869 1.527388 0.085087 -0.020623 61662.200000 0 0 1
18.882839 26.923678 2.574163 32.985942 0.959167 1.492679 0.088727 -0.020752 -112663.000000 0 0 1
18.209939 25.591478 2.167063 31.483675 0.952352 1.501911 0.098606 -0.017300 61573.800000 0 0 1
19.064939 24.529878 1.764263 31.117510 0.910105 1.514069 0.103771 -0.022840 172272.000000 0 0 1
19.853039 23.928578 2.786663 31.216750 0.878219 1.481409 0.096186 -0.013252 559912.000000 0 0 1
21.179939 23.315478 2.217163 31.577162 0.833356 1.500524 0.099349 -0.017991 496220.000000 0 0 1
20.894539 22.240978 1.306063 30.544208 0.816602 1.528024 0.109390 -0.014474 -255558.000000 0 0 1
22.086139 21.705378 0.822063 30.977359 0.776704 1.544256 0.081335 -0.023255 -486612.000000 0 0 1
22.070739 20.507178 -0.149737 30.127799 0.748692 1.575766 0.094860 -0.024241 -459670.000000 0 0 1
21.688539 20.871878 -1.439637 30.134707 0.766212 1.618588 0.080777 -0.018748 267814.000000 0 0 1
22.069839 19.881878 -2.415237 29.802688 0.733291 1.651926 0.103577 -0.026142 120053.000000 0 0 1
21.978239 20.551478 -3.813937 30.330716 0.751863 1.696875 0.088503 -0.021409 129424.000000 0 0 1
22.963339 21.551678 -3.897537 31.732957 0.753697 1.693930 0.085671 -0.017946 176454.000000 0 0 1
22.708939 22.254878 -5.106337 32.203263 0.775300 1.730034 0.079905 -0.019381 -135437.000000 0 0 1
23.660539 23.438878 -5.350937 33.731804 0.780692 1.730101 0.071471 -0.008876 -134686.000000 0 0 1
23.436339 24.642778 -4.575037 34.314129 0.810486 1.704523 0.073418 -0.006434 -62823.500000 0 0 1
23.614239 24.542878 -3.180837 34.206766 0.804679 1.663919 0.081041 -0.008695 -521797.000000 0 0 1
22.374739 24.328278 -2.314937 33.133864 0.827203 1.640719 0.085359 -0.017943 -900633.000000 0 0 1
21.431839 25.399378 -2.323937 33.314453 0.869916 1.640611 0.091271 -0.009827 1340700.000000 0 0 1
20.358039 25.292378 -1.351537 32.495858 0.893070 1.612399 0.093965 -0.005363 1052790.000000 0 0 1
19.292539 24.164778 -1.534237 30.959529 0.897047 1.620373 0.108635 -0.016931 -476360.000000 0 0 1
18.608439 24.336078 -2.755437 30.758919 0.917989 1.660498 0.100191 -0.015225 34585.200000 0 0 1
17.912939 23.225178 -3.265437 29.511783 0.913819 1.681672 0.101416 -0.022548 105945.000000 0 0 1
17.346839 23.584778 -4.693737 29.651066 0.936634 1.729764 0.100422 -0.027495 -198725.000000 0 0 1
16.801339 22.453378 -5.351037 28.549479 0.928399 1.759342 0.104633 -0.034931 68849.800000 0 0 1
16.453639 22.827478 -6.647037 28.913649 0.946258 1.802764 0.099128 -0.030903 -258938.000000 0 0 1
15.700439 21.797178 -7.455337 27.878357 0.946578 1.841515 0.108934 -0.032531 -160297.000000 0 0 1
16.452039 20.620178 -7.784237 27.503739 0.897361 1.857743 0.118692 -0.034423 753303.000000 0 0 1
15.655539 19.712578 -8.573637 26.593023 0.899608 1.899062 0.144154 -0.042706 198199.000000 0 0 1
16.398539 18.378478 -8.858837 26.175552 0.842269 1.916054 0.129551 -0.044197 260029.000000 0 0 1
17.563639 18.622678 -9.627637 27.349167 0.814656 1.930532 0.120638 -0.040436 551948.000000 0 0 1
18.292339 17.421378 -9.959237 27.153277 0.761016 1.946340 0.110220 -0.040456 364457.000000 0 0 1
19.709239 17.602278 -10.544937 28.451537 0.728989 1.950481 0.093259 -0.034519 -16478.100000 0 0 1
19.697939 18.087478 -11.856737 29.253168 0.742803 1.988119 0.089081 -0.031832 414535.000000 0 0 1
21.029739 18.160578 -12.345737 30.405159 0.712318 1.988914 0.083449 -0.021408 272617.000000 0 0 1
21.169139 18.612778 -13.813137 31.390615 0.721227 2.026440 0.082417 -0.016963 -90863.000000 0 0 1
21.006039 17.545278 -14.699137 31.066945 0.695868 2.063652 0.076672 -0.015890 167698.000000 0 0 1
21.348539 17.913978 -16.009837 32.140093 0.698143 2.092233 0.072771 -0.015420 52649.300000 0 0 1
21.390139 16.699678 -17.028337 32.037190 0.662873 2.131188 0.072934 -0.021583 288704.000000 0 0 1
22.596739 15.923778 -16.940737 32.421719 0.613869 2.120591 0.078441 -0.013320 561643.000000 0 0 1
22.829839 15.158778 -18.120537 32.853370 0.586147 2.155027 0.084513 -0.031434 -226065.000000 0 0 1
23.795239 15.951478 -19.047137 34.401402 0.590558 2.157565 0.094279 -0.026965 -909615.000000 0 0 1
25.143639 15.896178 -18.691337 35.131995 0.563771 2.131795 0.103443 -0.017041 -299186.000000 0 0 1
25.882539 16.511678 -19.740837 36.499890 0.567855 2.142239 0.124189 -0.020110 14366.900000 0 0 1
27.363039 16.759178 -19.376537 37.484078 0.549542 2.114054 0.093790 -0.018432 -75116.400000 0 0 1
27.426739 17.699878 -18.340637 37.441830 0.573100 2.082707 0.080987 -0.014665 280851.000000 0 0 1
28.738739 18.179678 -18.095637 38.521005 0.564035 2.059815 0.077826 -0.024466 103371.000000 0 0 1
28.685939 19.420178 -17.176237 38.665870 0.595118 2.031102 0.072086 -0.021375 -111448.000000 0 0 1
28.200639 19.232678 -15.901837 37.656876 0.598539 2.006758 0.067749 -0.021181 321529.000000 0 0 1
26.832839 19.613378 -15.783237 36.793972 0.631195 2.014140 0.064465 -0.015015 378059.000000 0 0 1
26.059239 19.030278 -14.571537 35.405721 0.630754 1.994960 0.057915 -0.017185 -86318.200000 0 0 1
26.571139 19.468878 -13.343637 35.540333 0.632342 1.955679 0.049992 -0.017396 180573.000000 0 0 1
25.714839 19.159178 -12.245137 34.325944 0.640334 1.935563 0.068520 -0.017788 -74052.600000 0 0 1
26.204339 19.556178 -10.867437 34.455952 0.641126 1.891675 0.058703 -0.021733 -277881.000000 0 0 1
26.100939 20.985278 -10.704737 35.160095 0.677178 1.880165 0.060329 -0.022591 -41584.000000 0 0 1
26.697539 21.529578 -9.546637 35.600837 0.678647 1.842276 0.056726 -0.019499 -27633.100000 0 0 1
26.024639 21.193278 -8.199837 34.549590 0.683433 1.810418 0.062984 -0.018360 -598536.000000 0 0 1
26.088239 19.816878 -7.795937 33.676126 0.649623 1.804413 0.069254 -0.025089 435870.000000 0 0 1
25.138339 19.429678 -6.792037 32.489694 0.658003 1.781402 0.080340 -0.029256 -159730.000000 0 0 1
23.741139 19.178678 -7.354837 31.393582 0.679494 1.807273 0.113927 -0.036863 -575333.000000 0 0 1
22.981539 20.356578 -7.663037 31.642748 0.724903 1.815402 0.094097 -0.027177 -373015.000000 0 0 1
21.685039 20.011178 -8.016437 30.576975 0.745276 1.836069 0.072031 -0.029421 -309974.000000 0 0 1
20.649339 21.191078 -8.127837 30.684177 0.798345 1.838883 0.097766 -0.026426 -13859.400000 0 0 1
20.764739 22.100078 -9.212537 31.693196 0.816540 1.865732 0.082449 -0.021860 -98714.100000 0 0 1
20.102739 21.699978 -10.380737 31.349144 0.823589 1.908300 0.088484 -0.020905 481310.000000 0 0 1
18.581439 22.079278 -10.399137 30.674198 0.871212 1.916670 0.091022 -0.021989 269305.000000 0 0 1
18.473639 23.468078 -10.418437 31.631785 0.903921 1.906428 0.076396 -0.017344 -891198.000000 0 0 1
17.190939 23.872878 -10.710537 31.307479 0.946705 1.919956 0.070269 -0.018565 -991996.000000 0 0 1
16.870239 25.139678 -9.958937 31.871441 0.979758 1.888591 0.058920 -0.009879 -240161.000000 0 0 1
17.707239 26.213578 -10.251537 33.253451 0.976704 1.884186 0.092610 -0.000334 -130005.000000 0 0 1
17.241939 27.365278 -9.558037 33.726828 1.008562 1.858129 0.080133 -0.018218 215546.000000 0 0 1
20.130839 28.958778 33.053162 48.336043 0.963329 0.817811 0.067111 0.004857 240097.000000 0 0 1
18.758839 29.287078 33.029008 47.963969 1.001117 0.811210 0.087349 -0.015774 -203843.000000 0 0 1
17.976739 28.114278 33.248111 47.106397 1.001897 0.787232 0.089506 -0.019061 1250080.000000 0 0 1
16.439039 28.448678 33.448694 46.886932 1.046824 0.776472 0.120663 -0.031964 1169370.000000 0 0 1
15.866439 28.836578 32.207192 46.049922 1.067785 0.796242 0.124638 -0.030717 -957145.000000 0 0 1
14.596839 29.340378 32.417285 46.095617 1.109151 0.790821 0.115934 -0.037156 -1103370.000000 0 0 1
13.571639 29.182678 31.341558 44.923394 1.135491 0.798661 0.105074 -0.040319 -498866.000000 0 0 1
13.199939 27.832978 31.149358 43.808624 1.127956 0.779831 0.097964 -0.044922 -844432.000000 0 0 1
11.872839 27.789778 30.766698 43.125697 1.167032 0.776431 0.089534 -0.027682 -1050990.000000 0 0 1
11.358939 26.354578 30.545898 41.912303 1.163851 0.754221 0.060726 -0.025402 -225251.000000 0 0 1
11.599139 25.717478 29.332448 40.697926 1.147093 0.765933 0.067189 -0.016587 219771.000000 0 0 1
12.948239 25.344078 29.122838 40.720006 1.098468 0.773890 0.058137 -0.019132 45665.100000 0 0 1
13.079939 24.486778 27.846288 39.320514 1.080193 0.783869 0.081493 -0.022170 -169622.000000 0 0 1
12.737739 25.301478 26.744868 38.957705 1.104402 0.814117 0.072814 -0.021896 159286.000000 0 0 1
12.772339 24.661878 25.490758 37.697740 1.092933 0.828220 0.089637 -0.024733 1276860.000000 0 0 1
11.487239 23.787378 25.061998 36.412906 1.120911 0.811691 0.086598 -0.018947 877945.000000 0 0 1
11.791439 23.170078 23.830638 35.267405 1.100048 0.828865 0.098572 -0.023245 729647.000000 0 0 1
10.770939 22.198178 23.488368 34.065755 1.119045 0.809997 0.098160 -0.019544 732028.000000 0 0 1
10.741239 21.817478 21.972198 32.774289 1.113309 0.836036 0.109025 -0.027567 38910.200000 0 0 1
10.358339 22.987378 21.276298 32.990841 1.147435 0.869884 0.103907 -0.026809 209172.000000 0 0 1
10.772839 22.839178 19.918598 32.162597 1.130058 0.902934 0.102033 -0.019605 -338022.000000 0 0 1
10.326339 24.105178 19.042398 32.408422 1.166061 0.942737 0.092807 -0.022105 457290.000000 0 0 1
8.943339 24.313278 18.800598 32.009081 1.218320 0.943013 0.084541 -0.029217 65415.500000 0 0 1
8.324739 25.021178 19.834698 32.996604 1.249609 0.925903 0.083079 -0.032067 -661425.000000 0 0 1
7.023339 25.654478 19.335198 32.883574 1.303577 0.942225 0.080939 -0.035067 -283186.000000 0 0 1
6.999339 26.868178 18.612798 33.426427 1.315954 0.980233 0.083323 -0.041957 479248.000000 0 0 1
5.640339 26.995078 18.172398 33.027015 1.364820 0.988159 0.077978 -0.043520 391351.000000 0 0 1
5.350039 28.065878 17.133598 33.314811 1.382432 1.030612 0.084906 -0.045605 -214620.000000 0 0 1
5.775539 27.707878 15.847398 32.437993 1.365295 1.060376 0.084702 -0.040082 -600120.000000 0 0 1
6.875539 28.533678 15.605698 33.241264 1.334342 1.082109 0.079469 -0.040691 -942675.000000 0 0 1
7.646239 28.273678 14.315498 32.600603 1.306678 1.116180 0.080361 -0.040976 -494610.000000 0 0 1
6.934039 28.313078 13.109698 31.962094 1.330618 1.148163 0.083862 -0.042175 -653633.000000 0 0 1
6.330239 27.159478 12.692298 30.639902 1.341808 1.143688 0.063442 -0.044011 -217231.000000 0 0 1
5.713239 27.220378 11.257498 30.005355 1.363911 1.186202 0.067516 -0.046526 -327352.000000 0 0 1
6.662939 27.460878 10.221298 30.049451 1.332762 1.223721 0.057108 -0.035951 368520.000000 0 0 1
6.975339 28.881078 10.113698 31.385648 1.333815 1.242702 0.050033 -0.032354 -3911.410000 0 0 1
7.372539 29.293178 8.728098 31.442397 1.324236 1.289512 0.040987 -0.021122 -110587.000000 0 0 1
6.265939 29.312078 7.841198 30.982968 1.360200 1.314933 0.043603 -0.029786 46200.000000 0 0 1
5.966739 28.128578 7.143498 29.628507 1.361771 1.327295 0.038037 -0.015077 -506329.000000 0 0 1
4.465239 27.829578 7.023598 29.047456 1.411703 1.326579 0.042287 -0.023151 -373580.000000 0 0 1
3.895539 28.909378 6.284998 29.840050 1.436853 1.358584 0.042355 -0.022941 -416328.000000 0 0 1
2.505439 28.733178 6.146598 29.489887 1.483820 1.360826 0.060481 -0.023194 -55697.700000 0 0 1
1.877139 29.712178 5.139298 30.211745 1.507703 1.399856 0.076604 -0.025463 -165384.000000 0 0 1
2.232539 29.391878 3.769398 29.716579 1.494984 1.443609 0.060009 -0.033118 368510.000000 0 0 1
1.728639 30.375078 2.852698 30.557674 1.513948 1.477306 0.048152 -0.038149 -160973.000000 0 0 1
0.313039 30.249378 2.279798 30.336782 1.560448 1.495576 0.097169 -0.039579 -500328.000000 0 0 1
0.180539 29.315378 1.221898 29.341387 1.564638 1.529140 0.091005 -0.041733 -453604.000000 0 0 1
-0.962161 28.513878 1.397598 28.564318 -1.537066 1.521849 0.090766 -0.027989 169559.000000 0 0 1
-1.560361 27.962378 0.089198 28.006022 -1.515052 1.567611 0.094326 -0.037146 22339.700000 0 0 1
-2.388161 28.760778 -0.708402 28.868452 -1.487951 1.595338 0.106702 -0.048642 -209848.000000 0 0 1
-1.693061 29.534478 -1.700602 29.631805 -1.513534 1.628219 0.096156 -0.044711 -151069.000000 0 0 1
-2.568861 30.620878 -2.335502 30.817070 -1.487100 1.646655 0.110169 -0.039757 -23501.500000 0 0 1
-3.773761 30.215178 -2.964302 30.593878 -1.446544 1.667841 0.094234 -0.036140 -163019.000000 0 0 1
-3.787761 29.248878 -4.018202 29.765583 -1.442012 1.706205 0.074954 -0.029016 -446253.000000 0 0 1
-5.235161 28.831178 -4.394302 29.630282 -1.391174 1.719650 0.075319 -0.017225 46881.200000 0 0 1
-5.777761 29.931978 -5.029502 30.896630 -1.380112 1.734309 0.070071 -0.019481 -351912.000000 0 0 1
-6.979461 29.549178 -5.686802 30.890233 -1.338849 1.755949 0.060571 -0.024268 113635.000000 0 0 1
-7.518761 30.570078 -6.698502 32.185888 -1.329631 1.780448 0.062255 -0.016910 8080.560000 0 0 1
-8.482061 31.408478 -6.062102 33.093609 -1.307032 1.755017 0.050042 -0.024648 126936.000000 0 0 1
-8.742161 32.566478 -6.788502 34.395997 -1.308539 1.769464 0.053517 -0.027863 98966.100000 0 0 1
-9.821661 33.472278 -6.134502 35.418788 -1.285381 1.744873 0.045026 -0.032634 -509976.000000 0 0 1
-11.089761 32.936878 -6.104502 35.285772 -1.246021 1.744673 0.056772 -0.034631 -1254900.000000 0 0 1
-11.999361 33.705678 -5.344802 36.174913 -1.228783 1.719088 0.051968 -0.032837 -86926.900000 0 0 1
-13.446161 33.313278 -5.657702 36.367339 -1.187167 1.727002 0.072202 -0.031027 -350639.000000 0 0 1
-13.860261 33.704278 -6.928802 37.095734 -1.180645 1.758681 0.068292 -0.028339 572742.000000 0 0 1
-15.213161 33.290678 -7.184802 37.300548 -1.142153 1.764627 0.068789 -0.030066 465378.000000 0 0 1
-15.678861 33.668878 -8.614902 38.126586 -1.134981 1.798720 0.084004 -0.023554 1040630.000000 0 0 1
-17.068261 33.353478 -8.858102 38.499948 -1.097802 1.802957 0.102176 -0.021291 1043160.000000 0 0 1
-17.885461 -33.620756 -8.761202 39.076894 1.081896 1.796923 0.099907 -0.024131 -654107.000000 0 0 1
-19.378261 -33.925656 -9.022502 40.098288 1.051824 1.797749 0.085908 -0.016132 235896.000000 0 0 1
-19.935561 33.315978 -7.999302 39.640507 -1.031570 1.773988 0.078537 -0.015023 253088.000000 0 0 1
-20.232561 33.934278 -6.770202 40.084004 -1.033155 1.740510 0.088670 -0.023783 -615106.000000 0 0 1
-20.830761 33.046778 -5.692702 39.476791 -1.008365 1.715505 0.083244 -0.022862 -527505.000000 0 0 1
-20.615861 33.437078 -4.351702 39.522009 -1.018292 1.681128 0.079602 -0.031048 443043.000000 0 0 1
-21.783461 33.297278 -3.528702 39.945959 -0.991466 1.659249 0.083006 -0.028193 595768.000000 0 0 1
-22.701961 -33.571456 -3.589402 40.685446 0.976203 1.659134 0.097213 -0.033996 65081.600000 0 0 1
-23.296461 -33.424656 -4.886202 41.034226 0.962097 1.690156 0.099338 -0.036912 440642.000000 0 0 1
-24.133461 -32.238256 -4.996202 40.579443 0.928194 1.694231 0.104695 -0.042360 183144.000000 0 0 1
-24.656561 -31.996156 -6.360602 40.892020 0.914235 1.726977 0.118578 -0.032676 -1086060.000000 0 0 1
-23.655561 -31.675956 -7.241102 40.191857 0.929347 1.751949 0.123050 -0.021051 -711775.000000 0 0 1
-23.776061 -32.291956 -8.505402 40.992846 0.936131 1.779800 0.104286 -0.017867 34277.700000 0 0 1
-24.932861 -31.831156 -9.448002 41.522703 0.906331 1.800345 0.093353 -0.015145 -995379.000000 0 0 1
-26.140491 -32.282756 -8.945502 42.491454 0.890147 1.782908 0.079856 -0.009837 -541846.000000 0 0 1
-27.302751 -31.701956 -9.531702 42.910460 0.859817 1.794795 0.054917 -0.003614 478652.000000 0 0 1
-27.618251 -30.215656 -9.239202 41.965659 0.830279 1.792776 0.050117 0.004010 -845552.000000 0 0 1
-26.931451 -29.312856 -10.051902 41.055905 0.827713 1.818145 0.035576 0.005330 94602.000000 0 0 1
-27.626401 -29.024856 -11.257202 41.621928 0.810078 1.844671 0.021731 0.007648 508112.000000 0 0 1
-26.625361 -28.373656 -12.288802 40.804275 0.817175 1.876710 0.053368 0.008356 531297.000000 0 0 1
-25.459751 -29.110956 -12.582502 40.668982 0.852206 1.885346 0.055154 -0.003654 -89839.300000 0 0 1
-24.597461 -28.388656 -13.433002 39.892311 0.856827 1.914240 0.054379 -0.002515 864508.000000 0 0 1
-23.185761 -29.099356 -13.573702 39.605523 0.898022 1.920610 0.083741 -0.016365 710045.000000 0 0 1
-23.163561 -30.360756 -14.265802 40.765662 0.919062 1.928310 0.085655 -0.017625 -36058.300000 0 0 1
-23.614561 -31.522056 -13.563102 41.656275 0.927843 1.902438 0.076651 -0.015386 -46381.800000 0 0 1
-23.671761 -32.819056 -14.409902 42.954488 0.945930 1.912899 0.073202 -0.011396 -139434.000000 0 0 1
-24.181961 -33.944556 -13.789902 43.899448 0.951799 1.890331 0.063680 -0.019765 -174532.000000 0 0 1
-23.838861 33.040978 -14.484402 43.241131 -0.945790 1.912368 0.057294 -0.014599 -236111.000000 0 0 1
-24.142061 31.703878 -13.668502 42.128410 -0.919985 1.901225 0.038494 -0.014667 107080.000000 0 0 1
-23.376261 31.366178 -12.477702 41.060684 -0.930330 1.879564 0.029434 -0.012867 349245.000000 0 0 1
-23.291761 32.284678 -11.415002 41.413873 -0.945819 1.850044 0.066969 -0.009321 -13017.400000 0 0 1
-22.574761 31.630778 -10.207202 40.178513 -0.950937 1.827658 0.063454 -0.005780 50942.900000 0 0 1
-23.422361 30.952678 -9.303802 39.915361 -0.923011 1.806049 0.065117 -0.007272 63144.100000 0 0 1
-22.728261 30.494778 -8.163902 38.899288 -0.930299 1.782241 0.066486 -0.003208 -22448.200000 0 0 1
-23.550461 29.503978 -7.312202 38.452272 -0.897146 1.762125 0.062455 -0.002967 58938.000000 0 0 1
-23.732861 28.260878 -7.986302 37.758535 -0.872267 1.783916 0.068679 0.003729 -60060.600000 0 0 1
-24.387161 27.279778 -7.210602 37.294942 -0.841326 1.765362 0.052491 0.000619 -284838.000000 0 0 1
-23.596661 26.514778 -6.139902 36.021303 -0.843565 1.742085 0.041857 0.001328 -695531.000000 0 0 1
-23.604261 27.215578 -4.946102 36.363619 -0.856340 1.707237 0.045325 0.008430 -355361.000000 0 0 1
-22.546561 26.830878 -4.147902 35.290913 -0.871948 1.688603 0.032490 0.013989 -113502.000000 0 0 1
-21.213061 27.595878 -4.415702 35.085964 -0.915432 1.696985 0.031108 0.003781 -39064.000000 0 0 1
-20.467561 27.365278 -5.600602 34.628691 -0.928616 1.733243 0.041271 -0.001786 21511.600000 0 0 1
-19.203961 27.991578 -5.454602 34.381292 -0.969486 1.730120 0.056679 -0.007699 19031.900000 0 0 1
-18.258161 27.575978 -6.605402 33.725752 -0.985959 1.767927 0.065568 -0.014000 -329405.000000 0 0 1
-18.457961 28.266678 -7.914302 34.674740 -0.992319 1.801070 0.072400 -0.011476 243657.000000 0 0 1
-18.350361 29.738678 -7.830302 35.811148 -1.017932 1.791233 0.073004 -0.011746 -227183.000000 0 0 1
-18.540961 30.477878 -9.189502 36.839045 -1.024266 1.822909 0.073877 -0.013420 5705.690000 0 0 1
-17.548161 30.168578 -10.161202 36.350118 -1.043964 1.854108 0.080323 -0.018067 238656.000000 0 0 1
-17.591761 31.042278 -11.292802 37.424864 -1.055220 1.877320 0.078231 -0.016376 8054.990000 0 0 1
-16.164361 31.418878 -11.774602 37.243439 -1.095633 1.892467 0.082496 -0.022679 256219.000000 0 0 1
-15.998461 32.021178 -13.085902 38.112300 -1.107452 1.921279 0.087070 -0.022248 -274049.000000 0 0 1
-16.343561 31.211378 -14.193902 37.983272 -1.088415 1.953778 0.087666 -0.028960 -312129.000000 0 0 1
-15.891961 31.678278 -15.580202 38.714473 -1.105816 1.984976 0.139161 -0.034366 -100394.000000 0 0 1
-14.482561 31.739078 -15.597402 38.215083 -1.142715 1.991221 0.126858 -0.044893 -235376.000000 0 0 1
-14.014461 32.039378 -16.912102 38.845155 -1.158458 2.021248 0.090374 -0.048963 984483.000000 0 0 1
-12.446061 32.044878 -17.089002 38.390267 -1.200334 2.032126 0.115226 -0.055698 809782.000000 0 0 1
-11.851461 30.781178 -16.967002 37.092010 -1.203267 2.045899 0.121070 -0.068172 -68393.700000 0 0 1
-10.516361 30.709578 -17.438602 36.848024 -1.240867 2.063781 0.119097 -0.065064 335246.000000 0 0 1
-10.180461 30.719378 -18.947102 37.500862 -1.250785 2.100462 0.124955 -0.071439 -439974.000000 0 0 1
-10.843861 29.692778 -19.653302 37.222341 -1.220643 2.127037 0.110434 -0.079737 280611.000000 0 0 1
-10.472761 29.712078 -21.039802 37.883500 -1.231918 2.159618 0.110256 -0.084224 -1625250.000000 0 0 1
-11.583561 29.217878 -21.911902 38.314419 -1.193350 2.179613 0.103060 -0.073629 -616781.000000 0 0 1
-12.536261 30.158478 -22.305102 39.550085 -1.176847 2.169983 0.103590 -0.069537 94163.700000 0 0 1
-13.542161 30.499478 -21.354202 39.618307 -1.152932 2.140044 0.094693 -0.060097 -594829.000000 0 0 1
-14.388161 31.707278 -21.747502 41.052704 -1.144803 2.129097 0.110753 -0.056244 92643.700000 0 0 1
-15.262161 31.393478 -22.837702 41.713842 -1.118284 2.150152 0.090461 -0.052962 171598.000000 0 0 1
-16.050161 32.513378 -23.190002 43.040720 -1.112243 2.139799 0.083809 -0.045208 192153.000000 0 0 1
-16.498961 32.499078 -24.631602 43.990017 -1.101028 2.165105 0.081825 -0.039775 -55489.100000 0 0 1
-15.473461 32.874978 -25.514302 44.397880 -1.130882 2.183002 0.090513 -0.039661 -57354.600000 0 0 1
-15.925161 33.001178 -26.859702 45.432721 -1.121195 2.203339 0.097421 -0.027489 187813.000000 0 0 1
-16.540961 -33.731656 -27.172602 46.365702 1.114883 2.196971 0.078394 -0.017090 662099.000000 0 0 1
-17.810761 -33.389656 -26.615202 46.265120 1.080770 2.183738 0.068000 -0.008687 361323.000000 0 0 1
-18.346961 -32.326456 -27.397302 46.175999 1.054577 2.205978 0.043057 0.001258 -54761.300000 0 0 1
-19.853861 -32.105056 -27.215402 46.535885 1.016955 2.195462 0.038510 -0.010454 -49957.100000 0 0 1
-20.721561 -33.188956 -27.479402 47.812210 1.012664 2.183078 0.042262 -0.008484 -77782.900000 0 0 1
-22.063261 -32.745656 -27.279602 47.992105 0.977888 2.175379 0.038510 -0.003605 795393.000000 0 0 1
-23.072661 -33.944156 -27.236302 49.258193 0.973808 2.156672 0.012802 0.007167 42612.800000 0 0 1
-23.192961 33.446478 -26.021502 48.308373 -0.964490 2.139635 0.038128 -0.005191 398359.000000 0 0 1
-24.297561 32.513278 -26.017602 48.212035 -0.929018 2.140817 0.016716 -0.000444 881674.000000 0 0 1
-23.902661 31.161178 -26.723602 47.502707 -0.916463 2.168288 0.028553 -0.011107 574125.000000 0 0 1
-23.033361 30.190078 -26.074602 46.063667 -0.919062 2.172510 0.032615 -0.027947 501612.000000 0 0 1
-23.675961 29.409978 -25.051002 45.310602 -0.892995 2.156604 0.028535 -0.021801 2257.290000 0 0 1
31.545198 9.860178 -26.619837 42.437464 0.302951 2.248842 0.050170 -0.017806 -110538.000000 0 0 1
31.197258 8.610278 -26.054707 41.548207 0.269291 2.248616 0.023179 -0.007633 400572.000000 0 0 1
29.782808 8.564378 -25.901057 40.388476 0.280006 2.266985 0.025881 -0.014025 503452.000000 0 0 1
29.243028 7.212678 -25.329897 39.354556 0.241820 2.270032 0.008478 0.005043 19096.300000 0 0 1
29.696508 6.949578 -24.034437 38.830830 0.229883 2.238205 0.005058 -0.001775 -33911.300000 0 0 1
29.048688 5.833978 -23.491637 37.811620 0.198198 2.241173 0.003698 -0.001045 -176030.000000 0 0 1
29.263358 5.681378 -21.973437 37.033149 0.191761 2.206004 0.016694 0.005441 136673.000000 0 0 1
30.432498 4.947778 -21.621437 37.657721 0.161172 2.182370 0.030389 -0.006212 456181.000000 0 0 1
30.334318 4.645978 -20.223237 36.752350 0.151978 2.153468 0.046233 -0.014876 -939978.000000 0 0 1
31.646808 4.479078 -19.503537 37.442897 0.140599 2.118687 0.056903 -0.017409 -961052.000000 0 0 1
32.104208 3.122478 -19.603437 37.745527 0.096956 2.116896 0.071996 -0.019981 -223128.000000 0 0 1
33.256898 2.908878 -18.853737 38.339878 0.087245 2.084898 0.085424 -0.026369 -743353.000000 0 0 1
33.814468 1.439278 -18.947637 38.787920 0.042538 2.081158 0.092609 -0.026954 115803.000000 0 0 1
33.024968 0.511278 -18.227937 37.724894 0.015480 2.075080 0.109132 -0.032005 53057.800000 0 0 1
33.422368 -0.748922 -18.586937 38.250357 -0.022404 2.078221 0.115768 -0.029089 -702482.000000 0 0 1
32.407658 -1.791122 -18.211837 37.217407 -0.055212 2.082125 0.094612 -0.023381 -412160.000000 0 0 1
32.273328 -1.887922 -16.805637 36.435716 -0.058431 2.050189 0.110802 -0.030173 797580.000000 0 0 1
30.882548 -1.686622 -16.515537 35.061937 -0.054560 2.061264 0.094958 -0.033451 767620.000000 0 0 1
30.353758 -1.852022 -15.034237 33.923574 -0.060939 2.029939 0.104815 -0.033042 -127667.000000 0 0 1
30.190028 -3.214122 -14.748237 33.753205 -0.106064 2.022994 0.083935 -0.033522 740130.000000 0 0 1
29.354748 -3.350922 -13.567437 32.511617 -0.113661 2.001280 0.076768 -0.026135 223105.000000 0 0 1
29.262248 -4.806122 -13.115237 32.425105 -0.162790 1.987204 0.076958 -0.028146 -118557.000000 0 0 1
28.503958 -5.624922 -13.979637 32.241985 -0.194835 2.019264 0.058653 -0.028373 292027.000000 0 0 1
28.347158 -6.922122 -13.531737 32.164966 -0.239504 2.005011 0.066329 -0.026143 -416797.000000 0 0 1
27.937958 -7.876322 -14.654237 32.516344 -0.274790 2.038315 0.048772 -0.019067 -324431.000000 0 0 1
26.617658 -7.654822 -15.091537 31.541251 -0.280028 2.069708 0.058021 -0.020348 -142218.000000 0 0 1
26.203658 -8.622222 -16.007837 31.893969 -0.317887 2.096600 0.048335 -0.015723 32587.700000 0 0 1
24.754658 -8.246922 -16.407837 30.822426 -0.321582 2.132152 0.040566 -0.019019 -107430.000000 0 0 1
24.579658 -7.011722 -17.077837 30.740467 -0.277884 2.159819 0.033490 -0.013396 33526.800000 0 0 1
23.248358 -6.786422 -17.508437 29.884562 -0.284018 2.196748 0.068361 -0.014543 371880.000000 0 0 1
22.844258 -7.395522 -18.888037 30.550152 -0.313089 2.237327 0.054280 -0.004787 45167.700000 0 0 1
23.378758 -6.547722 -19.949037 31.422970 -0.273075 2.258617 0.038511 -0.005060 552732.000000 0 0 1
23.084158 -7.036722 -21.268437 32.167378 -0.295881 2.293187 0.068279 -0.010907 -151830.000000 0 0 1
23.733358 -6.127522 -22.323037 33.153232 -0.252664 2.309499 0.057732 -0.014452 -115728.000000 0 0 1
23.666958 -6.544322 -23.614737 34.067710 -0.269776 2.336675 0.072874 -0.022122 195233.000000 0 0 1
23.826458 -5.421722 -24.458237 34.573118 -0.223741 2.356659 0.059017 -0.020582 -185251.000000 0 0 1
24.003858 -5.777022 -25.958527 35.824632 -0.236179 2.381250 0.080607 -0.023074 21040.000000 0 0 1
22.868558 -6.427722 -26.511237 35.596801 -0.274003 2.410978 0.087717 -0.019991 68531.100000 0 0 1
22.912258 -6.481322 -27.919897 36.694683 -0.275673 2.435450 0.081631 -0.025111 -159742.000000 0 0 1
21.668058 -7.059122 -28.600357 36.569336 -0.314941 2.468802 0.073068 -0.024500 -126260.000000 0 0 1
21.574058 -8.492822 -28.461547 36.710048 -0.375028 2.457997 0.071554 -0.017942 332059.000000 0 0 1
20.248258 -8.961022 -28.266057 35.906292 -0.416648 2.477080 0.076173 -0.034671 240637.000000 0 0 1
20.289658 -10.489622 -27.958617 36.102446 -0.477150 2.456601 0.090732 -0.027023 118152.000000 0 0 1
19.013558 -10.997722 -27.605107 35.277573 -0.524397 2.469486 0.099913 -0.020510 471808.000000 0 0 1
19.096258 -12.317122 -27.066397 35.340747 -0.572854 2.443189 0.103896 -0.026328 -115737.000000 0 0 1
19.230858 -13.536722 -28.053407 36.606862 -0.613343 2.443925 0.095239 -0.019903 -469071.000000 0 0 1
17.989758 -13.745522 -28.643497 36.510556 -0.652448 2.472728 0.084209 -0.019634 -205512.000000 0 0 1
18.016858 -14.787122 -29.540657 37.628667 -0.687259 2.473585 0.069425 -0.021194 -532853.000000 0 0 1
16.736258 -14.943422 -30.339287 37.734341 -0.728866 2.504827 0.054222 -0.019314 -257769.000000 0 0 1
15.577058 -15.537322 -29.769377 37.017143 -0.784121 2.505133 0.037238 -0.020383 757938.000000 0 0 1
14.637358 -15.815022 -30.819327 37.605825 -0.824051 2.531397 0.035028 -0.024969 -416009.000000 0 0 1
13.424258 -16.551622 -30.275637 37.024061 -0.889351 2.528250 0.048322 -0.027891 -732875.000000 0 0 1
13.662358 -17.859822 -29.775417 37.312313 -0.917778 2.494774 0.042882 -0.030526 -596787.000000 0 0 1
12.734358 -18.258322 -28.838517 36.430622 -0.961780 2.484221 0.052592 -0.028607 -698905.000000 0 0 1
13.014058 -19.556022 -28.088787 36.616713 -0.983619 2.445109 0.060648 -0.028351 -328061.000000 0 0 1
14.019258 -19.405722 -27.130537 36.182698 -0.945175 2.418587 0.059585 -0.023472 -218996.000000 0 0 1
14.022958 -20.539122 -26.324317 36.214203 -0.971746 2.384602 0.057509 -0.017099 2666.060000 0 0 1
15.050458 -20.460622 -25.184917 35.769168 -0.936587 2.351945 0.050308 -0.011152 -217122.000000 0 0 1
16.407658 -20.556722 -25.536137 36.659028 -0.897175 2.341423 0.068842 -0.020135 -167515.000000 0 0 1
17.208058 -20.556022 -24.399437 36.249135 -0.873822 2.309194 0.070313 -0.016904 -40745.800000 0 0 1
18.710958 -20.886322 -24.689137 37.361636 -0.840280 2.292701 0.060235 -0.017088 367729.000000 0 0 1
19.023358 -22.240822 -25.008717 38.496470 -0.863213 2.277903 0.067449 -0.024337 290694.000000 0 0 1
18.776458 -23.180022 -24.018237 38.298100 -0.889971 2.248671 0.066134 -0.035707 -572152.000000 0 0 1
19.530458 -24.574322 -24.149037 39.604445 -0.899264 2.226549 0.049560 -0.032595 -166596.000000 0 0 1
20.937558 -24.477122 -24.034337 40.189055 -0.863180 2.211840 0.061211 -0.032792 145549.000000 0 0 1
21.509058 -25.738452 -23.725637 41.085439 -0.874676 2.186424 0.073060 -0.043059 -224269.000000 0 0 1
21.464858 -26.141852 -22.248637 40.486274 -0.883326 2.152604 0.084612 -0.037901 -335703.000000 0 0 1
20.147158 -26.402972 -21.790037 39.721916 -0.918987 2.151443 0.064029 -0.034103 243459.000000 0 0 1
20.139258 -26.387592 -20.421437 38.973450 -0.918895 2.122317 0.066407 -0.028330 88862.600000 0 0 1
18.847758 -26.804702 -19.655237 38.210710 -0.957959 2.111093 0.061031 -0.024590 -28702.800000 0 0 1
18.560258 -28.191402 -19.709837 39.086008 -0.988562 2.099331 0.062824 -0.017503 146547.000000 0 0 1
17.612558 -28.740152 -18.788137 38.590059 -1.021003 2.079293 0.059216 -0.014645 551250.000000 0 0 1
16.119958 -28.570302 -19.157237 37.988352 -1.057101 2.099359 0.058554 -0.021215 -132561.000000 0 0 1
15.508458 -27.360772 -18.723037 36.601588 -1.055136 2.107768 0.068458 -0.019293 236163.000000 0 0 1
14.210158 -27.282412 -19.292437 36.310559 -1.090605 2.130951 0.060334 -0.013011 17533.000000 0 0 1
13.118258 -26.415422 -18.702637 34.923514 -1.109861 2.135933 0.052779 -0.018366 -862136.000000 0 0 1
12.562458 -26.959132 -17.525337 34.521697 -1.134732 2.103265 0.047355 -0.017908 285284.000000 0 0 1
11.558358 -26.118012 -16.920837 33.197303 -1.154160 2.105638 0.056163 -0.024969 1348870.000000 0 0 1
10.100558 -26.323842 -17.483337 33.175789 -1.204417 2.125852 0.053653 -0.018930 197636.000000 0 0 1
9.563458 -27.585932 -17.103137 33.837267 -1.237083 2.100703 0.050534 -0.005706 493885.000000 0 0 1
8.135158 -27.484882 -17.102937 33.378286 -1.283026 2.108770 0.045295 0.009232 999337.000000 0 0 1
7.372258 -28.141632 -18.290737 34.363537 -1.314584 2.132078 0.054388 -0.001539 -22620.500000 0 0 1
7.413458 -27.339332 -19.441437 34.356483 -1.305999 2.172289 0.066295 -0.010729 -74858.500000 0 0 1
6.751558 -27.984672 -20.498237 35.339823 -1.334061 2.189565 0.063913 -0.008199 -93385.300000 0 0 1
6.788858 -27.120182 -21.736437 35.412788 -1.325512 2.231664 0.061032 -0.009986 77952.200000 0 0 1
5.850658 -26.048972 -21.619437 34.353736 -1.349860 2.251472 0.065226 -0.013804 387919.000000 0 0 1
5.777258 -25.228782 -22.762237 34.467196 -1.345683 2.292152 0.062496 -0.016200 -90561.900000 0 0 1
4.362458 -24.640322 -23.011037 33.995357 -1.395567 2.314322 0.047294 -0.005956 168271.000000 0 0 1
3.491458 -25.681512 -23.382937 34.906906 -1.435673 2.304824 0.036241 -0.001767 -325794.000000 0 0 1
2.226158 -25.250882 -23.836537 34.795737 -1.482862 2.325457 0.038611 -0.007203 383408.000000 0 0 1
1.421758 -26.451522 -24.486737 36.073601 -1.517098 2.316923 0.030843 -0.011440 -181930.000000 0 0 1
2.014658 -27.014642 -25.596147 37.269457 -1.496358 2.327855 0.027655 -0.011373 -331737.000000 0 0 1
1.156858 -27.847272 -26.319547 38.334415 -1.529277 2.327567 0.029489 -0.020998 -332145.000000 0 0 1
1.876458 -28.722062 -27.364947 39.715466 -1.505557 2.330939 0.028389 -0.020217 -741136.000000 0 0 1
2.204958 -27.970642 -28.505847 39.997524 -1.492128 2.364122 0.034879 -0.023729 141378.000000 0 0 1
2.841458 -28.671372 -29.567467 41.283853 -1.472015 2.369137 0.047968 -0.025710 136404.000000 0 0 1
4.283958 -29.208652 -29.378707 41.648602 -1.425167 2.353776 0.045648 -0.024657 -276273.000000 0 0 1
4.408458 -30.163642 -28.334637 41.618883 -1.425672 2.319667 0.045761 -0.032171 24422.600000 0 0 1
5.617258 -30.887272 -28.554707 42.437583 -1.390899 2.308869 0.061705 -0.031282 332164.000000 0 0 1
5.836658 -32.048642 -27.559917 42.670025 -1.390652 2.272978 0.081320 -0.041760 156439.000000 0 0 1
4.803958 -33.028192 -27.645787 43.338539 -1.426359 2.262569 0.069189 -0.047555 392269.000000 0 0 1
5.165258 33.931061 -26.911877 43.614744 1.419728 2.235767 0.074744 -0.054855 392186.000000 0 0 1
3.899558 33.066899 -26.648407 42.646969 1.453409 2.245749 0.099099 -0.057814 355086.000000 0 0 1
3.157858 32.530699 -27.753097 42.877183 1.474026 2.274793 0.085634 -0.059898 262082.000000 0 0 1
1.911558 32.039632 -27.319347 42.149007 1.511205 2.275963 0.067878 -0.058108 -406109.000000 0 0 1
0.865858 32.110616 -28.426917 42.894417 1.543838 2.295239 0.065948 -0.043996 -673668.000000 0 0 1
0.928258 31.105512 -29.406827 42.815605 1.540963 2.327908 0.081319 -0.052299 331514.000000 0 0 1
-0.169942 31.151162 -30.313427 43.466397 -1.565341 2.342558 0.088102 -0.043987 362865.000000 0 0 1
-0.073542 29.958612 -31.351717 43.364202 -1.568342 2.378911 0.079022 -0.037271 -113813.000000 0 0 1
1.006158 30.068642 -32.252557 44.106270 1.537347 2.390944 0.078509 -0.037974 70092.000000 0 0 1
0.628058 29.346152 -33.406757 44.470243 1.549398 2.420699 0.101756 -0.042154 -556081.000000 0 0 1
1.782958 28.789142 33.841285 44.466012 1.508944 0.705851 0.080122 -0.028005 -741442.000000 0 0 1
2.386358 29.915052 33.230056 44.775459 1.491194 0.734525 0.077018 -0.027854 226609.000000 0 0 1
3.521058 29.524252 32.431439 43.998609 1.452097 0.742025 0.042308 -0.023964 114474.000000 0 0 1
3.242758 28.749782 31.084668 42.465540 1.458479 0.749547 0.042538 -0.013642 -322498.000000 0 0 1
2.873758 27.393762 31.313348 41.703747 1.466273 0.721445 0.064485 -0.019447 733118.000000 0 0 1
4.045358 26.566712 31.296818 41.251012 1.419685 0.709493 0.055786 -0.014355 357666.000000 0 0 1
3.707558 25.152622 31.714008 40.647001 1.424448 0.675763 0.084620 -0.024945 -47425.000000 0 0 1
2.887858 24.513032 30.750018 39.430852 1.453528 0.676376 0.075540 -0.007542 202468.000000 0 0 1
2.673258 23.165022 31.053538 38.834093 1.455904 0.644090 0.061524 -0.006284 -429427.000000 0 0 1
1.907958 22.368312 30.021288 37.486790 1.485705 0.642083 0.050870 0.005082 441112.000000 0 0 1
0.518358 22.321812 30.362088 37.688041 1.547578 0.634082 0.054498 -0.002836 666759.000000 0 0 1
-0.259242 21.701012 29.321258 36.479273 -1.558851 0.637177 0.059821 0.000751 1321480.000000 0 0 1
-1.715342 21.238112 29.707988 36.559053 -1.490204 0.622192 0.059243 0.000486 931658.000000 0 0 1
-2.577742 22.274412 30.130198 37.558262 -1.455582 0.639783 0.068556 -0.003382 -111931.000000 0 0 1
-3.887042 21.823312 30.352888 37.585421 -1.394531 0.630775 0.054052 -0.005839 -331956.000000 0 0 1
-4.774742 23.010612 30.743698 38.697047 -1.366198 0.652660 0.035240 -0.012798 -296590.000000 0 0 1
-4.816842 23.264562 32.124876 39.955594 -1.366635 0.636780 0.044040 -0.014100 365375.000000 0 0 1
-5.648342 24.396302 32.371778 40.926952 -1.343281 0.658412 0.037047 -0.024163 285032.000000 0 0 1
-5.618742 24.846542 33.892890 42.398690 -1.348399 0.644525 0.067202 -0.022142 -83925.300000 0 0 1
-6.773642 25.620832 -33.914517 43.040722 -1.312330 2.478291 0.067230 -0.016396 88672.700000 0 0 1
-6.719142 26.192922 -32.653407 42.396474 -1.319686 2.449938 0.068044 -0.013739 -526568.000000 0 0 1
-8.035542 26.618412 -32.020237 42.407610 -1.277616 2.426540 0.079934 -0.011147 -832671.000000 0 0 1
-8.704642 27.711802 -32.609237 43.670094 -1.266442 2.413910 0.089118 -0.018281 297931.000000 0 0 1
-10.012542 28.011952 -32.144127 43.796865 -1.227510 2.394896 0.086274 -0.020518 491502.000000 0 0 1
-10.112942 28.428132 -30.665207 43.020753 -1.229020 2.364279 0.080828 -0.018827 -529567.000000 0 0 1
-9.460442 29.638172 -30.300637 43.428675 -1.261821 2.342993 0.088701 -0.010205 208231.000000 0 0 1
-9.337342 29.882232 -28.920837 42.620987 -1.267938 2.316595 0.097449 -0.015905 -136526.000000 0 0 1
-8.864742 31.324882 -28.610997 43.340755 -1.295014 2.291802 0.082485 -0.016732 -61092.800000 0 0 1
-7.494142 31.456902 -28.885057 43.359490 -1.336921 2.299866 0.075699 -0.017189 -261201.000000 0 0 1
-6.891442 32.712930 -28.484487 43.920312 -1.363168 2.276473 0.082724 -0.013432 -33458.200000 0 0 1
-5.365242 32.584054 -28.665417 43.728852 -1.407602 2.285676 0.083917 -0.020571 -540226.000000 0 0 1
-4.672042 33.758842 -28.336917 44.322322 -1.433275 2.264433 0.092565 -0.022955 -113526.000000 0 0 1
-4.443742 -33.435492 -29.383737 44.733466 1.438666 2.287446 0.092931 -0.030815 44110.500000 0 0 1
-3.379542 -33.868322 -30.452657 45.671094 1.471341 2.300679 0.087474 -0.041174 136779.000000 0 0 1
-3.880042 33.372904 -31.485267 46.044842 -1.455053 2.323748 0.077623 -0.027092 162062.000000 0 0 1
-4.622242 33.959041 -32.554197 47.268989 -1.435515 2.330492 0.090948 -0.026828 -195638.000000 0 0 1
-3.959942 -33.204102 -33.542877 47.363679 1.452096 2.357739 0.064264 -0.035846 -412849.000000 0 0 1
-3.774442 -31.923602 -32.996837 46.066843 1.453109 2.369255 0.068693 -0.035614 -63575.400000 0 0 1
-2.886842 -31.162742 -33.745507 46.024011 1.478422 2.393835 0.057321 -0.043154 -309742.000000 0 0 1
32.950248 18.452778 12.208498 39.689688 0.510503 1.258128 0.132317 -0.032023 995087.000000 0 0 1
34.184518 17.864878 12.713098 40.612289 0.481565 1.252409 0.125217 -0.044632 1013530.000000 0 0 1
34.012098 16.568078 13.208298 40.072224 0.453293 1.234903 0.133165 -0.028071 -248634.000000 0 0 1
35.207788 16.140478 14.127298 41.227223 0.429846 1.221040 0.142455 -0.047713 1335780.000000 0 0 1
36.478388 15.902478 13.492498 42.019152 0.411102 1.243902 0.126042 -0.018407 785516.000000 0 0 1
36.476208 14.676478 12.725298 41.326093 0.382537 1.257786 0.152377 -0.041010 -49401.400000 0 0 1
-35.799860 14.025078 12.475498 40.422405 -0.373386 1.257046 0.145954 -0.031169 1068840.000000 0 0 1
-35.111369 13.318678 13.494698 39.903663 -0.362558 1.225812 0.125621 -0.030582 236990.000000 0 0 1
-35.788187 12.125978 13.912998 40.266676 -0.326686 1.218002 0.129445 -0.028537 51616.700000 0 0 1
-35.049525 11.350178 15.055698 39.799118 -0.313176 1.182846 0.137717 -0.035844 149070.000000 0 0 1
-35.166625 12.174378 16.187998 40.582734 -0.333278 1.160492 0.143652 -0.032743 93039.900000 0 0 1
-34.630527 11.609978 17.349198 40.435871 -0.323477 1.127350 0.140783 -0.031447 -54945.300000 0 0 1
-34.538391 12.455778 18.643898 41.178172 -0.346118 1.100936 0.131887 -0.036157 80694.200000 0 0 1
-35.839335 12.658278 19.153798 42.562401 -0.339518 1.104012 0.146454 -0.044865 230044.000000 0 0 1
-35.780814 13.597278 20.217098 43.288378 -0.363161 1.084864 0.153605 -0.038049 805146.000000 0 0 1
36.522238 13.482878 20.940598 44.206001 0.353649 1.077303 0.154005 -0.050740 792026.000000 0 0 1
36.459918 12.243478 21.591398 44.106880 0.323975 1.059252 0.135176 -0.043207 61752.800000 0 0 1
35.288808 12.005778 22.337998 43.456010 0.327931 1.030912 0.141880 -0.050348 -164685.000000 0 0 1
35.360368 10.635878 22.974198 43.488979 0.292177 1.014227 0.101015 -0.033580 -161728.000000 0 0 1
36.445328 10.150378 23.729358 44.658421 0.271626 1.010600 0.098223 -0.023310 -231207.000000 0 0 1
36.375108 10.674578 25.035568 45.429889 0.285444 0.987137 0.113710 -0.023278 -770971.000000 0 0 1
-35.988584 10.657078 25.821588 45.557721 -0.287897 0.968194 0.110251 -0.026534 -5544.700000 0 0 1
-35.082355 11.685778 25.499288 44.917065 -0.321537 0.967091 0.099961 -0.031713 -313730.000000 0 0 1
-34.350906 11.585078 24.324308 43.656280 -0.325278 0.979813 0.112191 -0.038993 -958968.000000 0 0 1
-33.644001 12.922078 24.069338 43.338574 -0.366710 0.981978 0.112378 -0.039189 875344.000000 0 0 1
-32.571871 13.288078 24.991868 43.151979 -0.387351 0.953099 0.095409 -0.038570 769489.000000 0 0 1
-33.034491 13.737678 26.260338 44.380252 -0.394102 0.937615 0.089361 -0.031417 -1047490.000000 0 0 1
-32.048741 14.453378 27.138758 44.413220 -0.423670 0.913408 0.072689 -0.019256 -709057.000000 0 0 1
-31.670481 15.730078 26.705058 44.312694 -0.460988 0.923978 0.078234 -0.014922 -77647.000000 0 0 1
-31.170801 16.488078 27.795388 44.900548 -0.486546 0.903272 0.058227 -0.009325 69196.100000 0 0 1
-30.508001 17.813778 27.371888 44.691040 -0.528501 0.911616 0.050226 0.001060 482543.000000 0 0 1
-31.465531 18.668878 26.697958 45.292247 -0.535487 0.940406 0.062971 -0.020009 658621.000000 0 0 1
-30.859381 19.844578 26.242288 45.108385 -0.571484 0.949905 0.057318 -0.018221 -645972.000000 0 0 1
-31.814551 20.778478 25.558828 45.794809 -0.578560 0.978682 0.067075 -0.000122 -84716.700000 0 0 1
-32.748301 21.420478 26.455038 47.235126 -0.579248 0.976324 0.061903 -0.006116 737800.000000 0 0 1
-33.814961 22.065978 25.790498 47.911468 -0.578166 1.002384 0.064672 -0.003916 -248501.000000 0 0 1
-33.770411 23.631878 25.748008 48.599036 -0.610579 1.012426 0.065424 -0.007909 -53327.400000 0 0 1
-34.854633 24.208778 25.025128 49.266291 -0.607068 1.037986 0.069695 -0.006165 314405.000000 0 0 1
-34.773927 25.620878 24.994008 49.903465 -0.634989 1.046219 0.076630 -0.009901 138074.000000 0 0 1
-35.687220 26.310178 23.945028 50.390153 -0.635287 1.075613 0.093561 -0.010665 -6040.070000 0 0 1
-35.381421 26.103578 22.550198 49.414099 -0.635632 1.096906 0.101322 -0.017735 689916.000000 0 0 1
-36.383721 26.677278 21.679498 50.054500 -0.632675 1.122847 0.103634 -0.024928 460716.000000 0 0 1
-35.936925 26.566778 20.211898 49.048722 -0.636593 1.146063 0.123799 -0.035306 158834.000000 0 0 1
-35.943348 25.212278 19.855898 48.185474 -0.611695 1.146069 0.115769 -0.032250 -83255.900000 0 0 1
-35.196590 25.019778 18.701298 47.058770 -0.617976 1.162111 0.120087 -0.033077 -210755.000000 0 0 1
-35.481321 23.686378 18.010398 46.307052 -0.588630 1.171322 0.110240 -0.023643 933940.000000 0 0 1
-36.707381 23.614878 17.247498 46.931551 -0.571670 1.194473 0.109211 -0.027895 773375.000000 0 0 1
-36.739171 22.403178 16.533698 46.098072 -0.547587 1.203961 0.105729 -0.027435 268475.000000 0 0 1
35.792838 22.348678 15.479398 44.946662 0.558160 1.219202 0.086870 -0.023341 1082360.000000 0 0 1
34.706558 21.548478 15.976298 43.864840 0.555628 1.198005 0.112248 -0.040132 730079.000000 0 0 1
33.662738 21.231978 15.043798 42.547534 0.562707 1.209405 0.111578 -0.038748 217303.000000 0 0 1
32.511678 20.370078 15.705398 41.456107 0.559711 1.182249 0.132521 -0.041653 605013.000000 0 0 1
31.707848 21.069278 16.625798 41.541777 0.586488 1.159041 0.119149 -0.045220 89946.000000 0 0 1
30.819908 21.998678 15.991498 41.103973 0.619915 1.171196 0.101706 -0.034823 -560158.000000 0 0 1
29.820548 22.637778 16.981198 41.110767 0.649321 1.144985 0.095150 -0.031675 -23606.400000 0 0 1
30.377468 23.521078 17.962598 42.410926 0.658869 1.133450 0.052546 -0.024857 -375172.000000 0 0 1
29.425618 24.193578 18.770398 42.467918 0.688128 1.112980 0.042182 -0.011179 -180061.000000 0 0 1
30.004338 24.997078 19.915098 43.837488 0.694610 1.099217 0.042421 -0.026592 175192.000000 0 0 1
30.884638 26.026078 19.501698 44.850126 0.700233 1.120959 0.048845 -0.023257 835504.000000 0 0 1
31.946168 26.239278 20.480698 46.135847 0.687630 1.110826 0.038652 -0.017323 1068800.000000 0 0 1
33.039018 27.272078 20.056398 47.303299 0.690068 1.132944 0.051349 -0.022244 495664.000000 0 0 1
33.987218 27.808478 20.984298 48.670147 0.685743 1.125026 0.055691 -0.020910 838713.000000 0 0 1
33.442268 28.572478 22.048898 49.202903 0.707033 1.106133 0.032987 -0.013647 426734.000000 0 0 1
34.554178 28.619178 23.162888 50.493247 0.691725 1.094228 0.036713 -0.013411 426308.000000 0 0 1
35.720688 29.371178 22.991798 51.645488 0.688159 1.109415 0.064079 -0.013573 -349369.000000 0 0 1
36.041278 29.596178 24.365698 52.617437 0.687520 1.089337 0.080756 -0.008799 -478715.000000 0 0 1
-36.503141 30.615378 24.500698 53.572987 -0.697900 1.095802 0.077069 -0.007863 -497970.000000 0 0 1
-35.321163 29.962078 24.158228 52.239168 -0.703492 1.090035 0.097638 -0.009455 -413279.000000 0 0 1
-34.155647 30.747878 24.335848 52.002632 -0.732941 1.083800 0.113279 -0.005423 324751.000000 0 0 1
-32.832151 29.969578 24.259688 50.642455 -0.739849 1.071237 0.141853 -0.012132 65554.600000 0 0 1
-32.132121 29.755278 23.034098 49.481506 -0.747011 1.086586 0.128553 -0.007555 274073.000000 0 0 1
-32.585641 28.699378 22.238398 48.785497 -0.722070 1.097480 0.124271 -0.004873 -224975.000000 0 0 1
-32.018291 27.309278 22.631998 47.782580 -0.706191 1.077371 0.102138 0.000186 -920278.000000 0 0 1
-30.638671 27.249578 22.416198 46.730650 -0.726919 1.070496 0.092322 -0.002089 -171237.000000 0 0 1
-30.047121 26.183678 23.201788 46.116564 -0.716799 1.043601 0.082571 -0.000723 48930.500000 0 0 1
-29.717211 26.598078 24.676618 46.898890 -0.730068 1.016710 0.090814 -0.002030 -220013.000000 0 0 1
-30.841231 26.669878 25.552688 48.118643 -0.712994 1.010975 0.082021 -0.004194 379413.000000 0 0 1
-30.499481 27.239378 26.826418 48.906633 -0.728995 0.990199 0.100378 -0.015168 421778.000000 0 0 1
-31.772891 27.659978 27.662598 50.396531 -0.716306 0.989750 0.101672 -0.023688 530362.000000 0 0 1
-32.454321 26.490578 28.065238 50.425106 -0.684566 0.980542 0.077385 -0.018538 28029.400000 0 0 1
-33.362981 26.833378 29.120078 51.779317 -0.677349 0.973525 0.076512 -0.005516 -125532.000000 0 0 1
-34.151012 25.580878 29.427088 51.832678 -0.642894 0.967048 0.058168 -0.011843 -363479.000000 0 0 1
-33.487981 24.726278 30.319188 51.498416 -0.636012 0.941297 0.053582 -0.007099 -177910.000000 0 0 1
-34.064861 23.468478 30.321788 51.289327 -0.603261 0.938262 0.028086 -0.016084 -316690.000000 0 0 1
-33.610891 22.532778 31.478398 51.267023 -0.590584 0.909667 0.048449 -0.022743 -700704.000000 0 0 1
-32.293691 22.206278 31.166048 50.073185 -0.602379 0.898978 0.050255 -0.017149 -807981.000000 0 0 1
-31.793201 21.258078 32.076866 49.916319 -0.589365 0.872893 0.057912 -0.017790 -61165.200000 0 0 1
-30.742831 21.759778 33.078176 50.127591 -0.615942 0.850138 0.054894 -0.023532 -429021.000000 0 0 1
-31.274391 22.623278 -34.002587 51.440025 -0.626246 2.292966 0.074760 -0.025748 -14809.100000 0 0 1
-31.223791 22.145978 -32.682037 50.333736 -0.616918 2.277469 0.065534 -0.020384 -617427.000000 0 0 1
-29.965841 22.280378 -31.836327 49.070547 -0.639345 2.276785 0.074391 -0.021250 -555194.000000 0 0 1
-29.809071 23.577678 -31.309377 49.241900 -0.669202 2.259877 0.056308 -0.016683 -141358.000000 0 0 1
-28.706061 23.689478 -30.443637 48.083722 -0.689945 2.256397 0.085225 -0.018849 -120263.000000 0 0 1
-28.580031 25.008878 -29.643327 48.176644 -0.718857 2.233569 0.046329 -0.015055 -151959.000000 0 0 1
-28.450031 26.200878 -30.424727 49.209291 -0.744266 2.237339 0.042719 -0.017286 528955.000000 0 0 1
-29.710251 26.766778 -30.823137 50.489852 -0.733327 2.227465 0.034864 -0.007305 407687.000000 0 0 1
-29.508801 28.060978 -31.602367 51.545101 -0.760254 2.230777 0.053235 -0.012571 -94011.700000 0 0 1
-29.581031 29.181478 -30.766477 51.702729 -0.778599 2.208143 0.051841 -0.018155 73489.100000 0 0 1
-28.976581 30.274378 -31.448697 52.394663 -0.807298 2.214581 0.056510 -0.027853 -242340.000000 0 0 1
-29.283311 31.663278 -30.802807 52.998947 -0.824428 2.190995 0.048431 -0.011746 -5785.980000 0 0 1
-28.782291 31.770478 -29.502867 52.040395 -0.834707 2.173561 0.027507 -0.006366 -92956.200000 0 0 1
-29.052581 33.021478 -28.909737 52.633101 -0.849249 2.152286 0.014413 -0.008229 -848133.000000 0 0 1
-28.464111 33.208978 -27.499587 51.664970 -0.862183 2.132073 0.003932 -0.006853 131672.000000 0 0 1
-27.082511 33.497878 -27.408407 51.056743 -0.890903 2.137463 0.014303 0.000268 -27666.800000 0 0 1
-26.761141 -33.310056 -27.719647 50.932282 0.893989 2.146285 0.017672 0.012514 -717536.000000 0 0 1
-27.035131 -32.195956 -26.627417 49.764417 0.872309 2.135386 0.009188 0.017544 58635.800000 0 0 1
-28.377991 -31.749356 -26.531637 50.172301 0.841410 2.127995 0.002412 0.002694 -32530.900000 0 0 1
-28.629721 -30.998756 -25.377587 49.240286 0.825107 2.112250 -0.000392 0.003324 -574914.000000 0 0 1
-30.117261 -30.769156 -25.147487 49.861674 0.796104 2.099420 -0.010108 -0.000389 -591108.000000 0 0 1
-30.614011 -29.901156 -26.143697 50.147679 0.773619 2.119210 -0.000657 0.000402 -994998.000000 0 0 1
-31.971911 -29.783856 -25.890457 50.789733 0.749982 2.105699 -0.000722 -0.003087 -745687.000000 0 0 1
-32.656241 -28.962956 -27.057097 51.355325 0.725533 2.125699 0.023243 -0.010483 897704.000000 0 0 1
-34.090764 -28.941856 -26.969887 52.222467 0.703893 2.113487 0.033096 -0.014387 794598.000000 0 0 1
-34.603081 -27.900856 -27.740337 52.396157 0.678577 2.128730 0.040893 -0.020430 -14690.900000 0 0 1
-36.115401 -27.992356 -28.015317 53.598061 0.659361 2.120803 0.027575 -0.025084 511795.000000 0 0 1
36.652188 -27.641556 -26.972447 53.244262 -0.646157 2.102009 0.019731 -0.016492 248777.000000 0 0 1
35.351438 -27.762956 -27.513737 52.702103 -0.665739 2.120062 0.025251 -0.013549 975903.000000 0 0 1
34.144368 -27.261656 -26.601917 51.153668 -0.673779 2.117693 0.030092 -0.006298 823884.000000 0 0 1
33.988498 -28.064656 -25.445417 50.895109 -0.690223 2.094347 0.027530 -0.005010 526598.000000 0 0 1
33.018718 -27.496456 -24.547137 49.485885 -0.694396 2.089832 0.036502 -0.002359 369908.000000 0 0 1
32.831728 -28.239556 -23.183737 49.121081 -0.710346 2.062322 0.032492 -0.008366 164805.000000 0 0 1
32.235178 -29.552556 -23.174237 49.492480 -0.742009 2.058091 0.047380 -0.013221 282935.000000 0 0 1
31.834058 -30.170456 -21.913837 49.029378 -0.758574 2.034153 0.055826 -0.023718 -443409.000000 0 0 1
32.905018 -30.326956 -20.823837 49.356830 -0.744649 2.006341 0.038774 -0.014460 -1861610.000000 0 0 1
33.852428 -31.232856 -21.319237 50.754192 -0.745172 2.004295 0.023535 -0.012566 -679289.000000 0 0 1
34.980798 -31.342756 -20.509737 51.251087 -0.730600 1.982511 0.012495 -0.009159 -385906.000000 0 0 1
35.965348 -30.189456 -20.507237 51.239207 -0.698310 1.982559 0.002059 -0.001800 -1390730.000000 0 0 1
35.532718 -29.025556 -19.793537 49.968401 -0.684942 1.978085 -0.002515 0.006972 -160142.000000 0 0 1
35.926548 -27.901856 -20.556937 49.918114 -0.660331 1.995239 -0.010720 0.007445 253656.000000 0 0 1
35.119968 -26.634356 -20.059537 48.427122 -0.648844 1.997883 -0.007736 0.009009 1025230.000000 0 0 1
33.829798 -26.530356 -20.663037 47.699855 -0.665051 2.018824 0.013578 0.003689 461708.000000 0 0 1
32.988958 -25.595256 -19.995837 46.294946 -0.659856 2.017420 0.037305 0.003518 172541.000000 0 0 1
31.699408 -25.264356 -20.788837 45.555635 -0.672908 2.044673 0.050665 -0.007397 67057.400000 0 0 1
30.873358 -26.411856 -20.971737 45.722687 -0.707673 2.047297 0.074133 -0.012982 -1207710.000000 0 0 1
29.788308 -26.002956 -21.670737 45.090108 -0.717654 2.072146 0.072956 -0.024294 -1369230.000000 0 0 1
29.017678 -27.168356 -22.265537 45.562038 -0.752496 2.081380 0.087612 -0.032280 17410.200000 0 0 1
28.325358 -27.991756 -21.314137 45.168094 -0.779475 2.062224 0.089186 -0.033420 286196.000000 0 0 1
27.731958 -29.149556 -21.947937 45.830885 -0.810315 2.070186 0.087638 -0.031028 429591.000000 0 0 1
27.134158 -30.173456 -20.872637 45.632959 -0.838383 2.045869 0.084619 -0.020016 446008.000000 0 0 1
28.149858 -30.638856 -19.983937 46.157467 -0.827711 2.018561 0.087437 -0.025071 371894.000000 0 0 1
28.821898 -31.829156 -20.424237 47.549411 -0.834941 2.014776 0.093935 -0.023534 603519.000000 0 0 1
29.751248 -32.311256 -19.214337 47.941055 -0.826624 1.983176 0.062227 -0.024613 468272.000000 0 0 1
29.081328 -32.968556 -18.140937 47.557785 -0.847963 1.962161 0.066939 -0.022129 14997.400000 0 0 1
28.458358 -32.096656 -17.219137 46.223070 -0.845409 1.952522 0.056587 -0.024663 4459.180000 0 0 1
27.894058 -32.790056 -15.952937 45.910374 -0.865904 1.925679 0.057170 -0.018278 368780.000000 0 0 1
26.557958 -33.265456 -16.099337 45.509388 -0.897053 1.932383 0.053927 -0.017089 244993.000000 0 0 1
26.245258 -33.837456 -14.913937 45.345480 -0.911094 1.905930 0.061261 -0.018957 108608.000000 0 0 1
24.727258 -33.949556 -14.579837 44.458760 -0.941294 1.904919 0.068494 -0.015646 313247.000000 0 0 1
24.129658 -32.698156 -14.435637 43.125369 -0.935051 1.912122 0.063020 -0.011794 -140540.000000 0 0 1
22.808658 -32.880856 -13.974237 42.387084 -0.964327 1.906762 0.076843 -0.019740 -254825.000000 0 0 1
0.172339 -6.952122 -28.982317 29.804972 -1.546012 2.906097 0.104097 -0.037424 -159491.000000 0 0 1
0.476139 -8.326622 -28.955487 30.132699 -1.513676 2.861148 0.101264 -0.029662 -114296.000000 0 0 1
-0.016361 -9.009822 -30.072557 31.393245 1.568980 2.850500 0.088602 -0.035477 -187347.000000 0 0 1
0.019239 -10.537722 -29.864507 31.669113 -1.568971 2.802380 0.097698 -0.026393 597701.000000 0 0 1
1.364939 -10.952722 -29.609717 31.600008 -1.446815 2.784784 0.051219 -0.025219 345314.000000 0 0 1
1.514539 -12.303522 -29.277587 31.793829 -1.448315 2.741070 0.057603 -0.023209 500207.000000 0 0 1
2.937339 -12.583122 -28.683137 31.459263 -1.341468 2.718333 0.066917 -0.022014 721723.000000 0 0 1
3.918039 -12.579322 -29.746877 32.534090 -1.268853 2.724645 0.069258 -0.032060 2134930.000000 0 0 1
5.281439 -12.998222 -29.365037 32.544627 -1.184853 2.695873 0.070529 -0.029691 2145560.000000 0 0 1
5.488839 -14.508522 -28.989757 32.879029 -1.209120 2.650270 0.083724 -0.028823 -671139.000000 0 0 1
4.924839 -14.919022 -27.762837 31.899943 -1.251954 2.626628 0.088427 -0.026755 -56830.600000 0 0 1
5.698339 -15.865822 -27.033807 31.859411 -1.225986 2.584006 0.093573 -0.019552 29874.400000 0 0 1
5.416739 -17.324922 -27.454797 32.912913 -1.267769 2.557413 0.088797 -0.022996 -166441.000000 0 0 1
5.800439 -17.706422 -28.771287 34.277535 -1.254224 2.566906 0.088134 -0.038851 66977.900000 0 0 1
5.522539 -19.066522 -29.066157 35.197616 -1.288866 2.542414 0.085832 -0.031860 -120024.000000 0 0 1
5.877439 -19.437022 -30.536797 36.672034 -1.277154 2.554762 0.086734 -0.042945 477646.000000 0 0 1
7.268439 -19.533122 -30.846097 37.227070 -1.214563 2.547386 0.076421 -0.035439 491592.000000 0 0 1
7.477939 -20.118622 -32.077777 38.596143 -1.214929 2.551903 0.079629 -0.033602 2695.840000 0 0 1
8.925039 -19.940622 -32.581057 39.227668 -1.149956 2.550914 0.077115 -0.038498 -27334.400000 0 0 1
9.252439 -18.590422 -32.909987 38.913733 -1.108991 2.578703 0.067463 -0.044717 -83065.500000 0 0 1
10.483039 -18.550722 -33.592847 39.780683 -1.056433 2.576336 0.060311 -0.033952 -308183.000000 0 0 1
10.812939 -17.264122 33.787627 39.453432 -1.011245 0.542554 0.048595 -0.027008 -339440.000000 0 0 1
9.765939 -16.951122 32.912779 38.287924 -1.048118 0.536285 0.063933 -0.024467 -4893.040000 0 0 1
9.824439 -15.594022 32.482206 37.346845 -1.008600 0.516112 0.059358 -0.018678 -143929.000000 0 0 1
8.787339 -15.276122 31.394158 36.002366 -1.048787 0.511518 0.067998 -0.027384 -152939.000000 0 0 1
9.091139 -15.746922 30.131928 35.193003 -1.047214 0.542945 0.062097 -0.019867 -282507.000000 0 0 1
7.970939 -15.566822 29.291108 34.114965 -1.097558 0.538264 0.067166 -0.017440 18889.500000 0 0 1
7.966639 -16.406322 28.018548 33.431628 -1.118748 0.577033 0.051856 -0.015734 -468032.000000 0 0 1
7.670339 -17.739922 28.326948 34.292199 -1.162694 0.598740 0.055239 -0.021610 140551.000000 0 0 1
7.772539 -18.665322 27.289618 33.963655 -1.176219 0.637654 0.043890 -0.017004 -77259.900000 0 0 1
7.384339 -20.050522 27.786708 35.052147 -1.217924 0.655530 0.049604 -0.019469 -675475.000000 0 0 1
8.190539 -20.539522 28.774218 36.289289 -1.191351 0.655223 0.060741 -0.018296 -170800.000000 0 0 1
7.505539 -21.563622 29.497418 37.301750 -1.235847 0.658717 0.052775 -0.018109 140478.000000 0 0 1
7.931639 -21.560022 31.014908 38.596243 -1.218277 0.637522 0.063254 -0.027833 -192845.000000 0 0 1
7.350139 -20.670122 31.998908 38.797018 -1.229148 0.600988 0.087811 -0.036260 234036.000000 0 0 1
7.516239 -19.299522 31.784188 37.936790 -1.199416 0.577519 0.078712 -0.031867 -108780.000000 0 0 1
6.695239 -18.518622 32.841843 38.292979 -1.223877 0.540121 0.086701 -0.033473 416686.000000 0 0 1
5.289839 -18.604822 32.696157 37.988952 -1.293780 0.534202 0.084300 -0.031676 -75321.900000 0 0 1
4.540639 -17.734022 33.511382 38.185412 -1.320140 0.499971 0.084236 -0.031031 759754.000000 0 0 1
3.015939 -18.086322 33.566102 38.247799 -1.405564 0.499973 0.084835 -0.027042 817061.000000 0 0 1
2.538739 -19.227122 -33.758517 38.932825 -1.439516 2.620140 0.075549 -0.037324 122985.000000 0 0 1
2.356039 -18.932822 -32.371597 37.575563 -1.446991 2.609026 0.076851 -0.041599 -212775.000000 0 0 1
1.977839 -20.082222 -31.384857 37.312420 -1.472626 2.570178 0.072466 -0.028758 -30576.700000 0 0 1
0.696939 -20.605822 -31.714907 37.827515 -1.536987 2.565153 0.045639 -0.019160 413574.000000 0 0 1
0.053839 -21.382622 -30.687307 37.402275 -1.568278 2.533023 0.045001 -0.022866 372280.000000 0 0 1
-0.797261 -20.524822 -29.713807 36.122213 1.531972 2.536749 0.050110 -0.019432 -151603.000000 0 0 1
-1.967061 -19.954322 -30.272567 36.310778 1.472536 2.556584 0.048880 -0.024802 -134304.000000 0 0 1
-2.635161 -18.917722 -29.566447 35.199418 1.432391 2.568024 0.076523 -0.019659 -178732.000000 0 0 1
-1.948761 -17.559122 -29.249977 34.171356 1.460266 2.598239 0.060406 -0.021519 -738846.000000 0 0 1
-2.805061 -16.495522 -29.018007 33.496497 1.402358 2.618543 0.073305 -0.022009 -656255.000000 0 0 1
-2.200461 -15.279222 -29.421127 33.224981 1.427763 2.658392 0.076914 -0.023616 216253.000000 0 0 1
-3.119861 -14.069022 -29.183107 32.547268 1.352574 2.682913 0.092284 -0.024390 164601.000000 0 0 1
-3.373161 -13.801522 -27.833897 31.250376 1.331090 2.669622 0.089150 -0.025439 785853.000000 0 0 1
-4.432261 -12.801022 -27.753327 30.882977 1.237473 2.687504 0.100747 -0.030707 705884.000000 0 0 1
-4.640161 -12.423522 -26.248717 29.408674 1.213343 2.673765 0.093579 -0.024152 -280896.000000 0 0 1
-5.035961 -13.526422 -25.429687 29.240280 1.214390 2.625350 0.087334 -0.018685 275459.000000 0 0 1
-4.865161 -13.317722 -24.053937 27.921737 1.220544 2.608968 0.074833 -0.016112 -438883.000000 0 0 1
-5.922061 -12.444722 -23.374537 27.135049 1.126639 2.608845 0.079359 -0.018497 1726740.000000 0 0 1
-7.265761 -13.079822 -23.359337 27.740433 1.063745 2.571903 0.085550 -0.017647 1987040.000000 0 0 1
-8.233361 -12.173822 -22.833137 27.154048 0.976143 2.569693 0.080386 -0.017784 546478.000000 0 0 1
-9.693261 -12.611322 -23.151137 28.088786 0.915487 2.539607 0.087527 -0.021437 346766.000000 0 0 1
-10.146461 -13.738922 -22.441937 28.201936 0.934683 2.491056 0.082395 -0.022303 29143.800000 0 0 1
-11.405761 -14.258822 -22.827237 29.231629 0.896111 2.466916 0.087107 -0.020131 174476.000000 0 0 1
-11.987761 -15.372922 -21.945837 29.353925 0.908496 2.415281 0.088164 -0.023302 -416479.000000 0 0 1
-11.262361 -16.553522 -21.889837 29.665212 0.973373 2.400744 0.097802 -0.019766 -301181.000000 0 0 1
-12.030861 -17.765022 -21.821637 30.602638 0.975522 2.364655 0.100652 -0.018371 796880.000000 0 0 1
-12.960861 -18.292322 -22.972737 32.098903 0.954361 2.368402 0.080762 -0.011049 630304.000000 0 0 1
-14.160961 -17.584322 -23.201837 32.373854 0.892821 2.369833 0.085300 -0.012704 -336609.000000 0 0 1
-14.827461 -18.217322 -24.249337 33.760254 0.887624 2.372124 0.053819 -0.015446 268812.000000 0 0 1
-16.138061 -17.541922 -24.762837 34.370832 0.827056 2.375263 0.072695 -0.018142 811613.000000 0 0 1
-17.348761 -17.906822 -24.050837 34.642121 0.801226 2.338195 0.076846 -0.017763 1231350.000000 0 0 1
-18.474161 -17.334122 -24.727237 35.400602 0.753572 2.344092 0.052715 -0.024019 109291.000000 0 0 1
-18.807961 -15.839222 -24.224037 34.517015 0.699922 2.348717 0.067464 -0.019008 -669475.000000 0 0 1
-19.383161 -15.823222 -22.940537 33.946274 0.684624 2.312832 0.059268 -0.014357 -352604.000000 0 0 1
-20.206161 -14.729822 -22.877537 33.891567 0.629910 2.311790 0.057053 -0.018870 -202488.000000 0 0 1
-20.911061 -14.506522 -21.512737 33.324308 0.606502 2.272549 0.046654 -0.018959 92257.900000 0 0 1
-19.944561 -14.326722 -20.502137 31.990281 0.622921 2.266449 0.055521 -0.015402 131253.000000 0 0 1
-20.425161 -14.500422 -19.194337 31.557440 0.617359 2.224631 0.049598 -0.016440 -255942.000000 0 0 1
-20.994661 -13.252022 -18.482537 30.951511 0.563052 2.210733 0.052996 -0.020278 -312909.000000 0 0 1
-22.349861 -12.992822 -18.727537 31.922568 0.526584 2.197719 0.049966 -0.023432 -207050.000000 0 0 1
-22.837661 -11.857222 -18.067937 31.442055 0.478886 2.182963 0.052041 -0.014469 -307125.000000 0 0 1
-24.214961 -11.435922 -18.570737 32.588601 0.441216 2.177124 0.066275 -0.019891 -454396.000000 0 0 1
-24.273261 -10.726722 -19.765937 33.089969 0.416110 2.210976 0.055800 -0.019402 -51470.700000 0 0 1
-25.630181 -10.538122 -20.105437 34.237213 0.390090 2.198440 0.061502 -0.017145 57905.200000 0 0 1
-25.954031 -9.548422 -21.282337 34.895873 0.352529 2.226707 0.060006 -0.014159 -111601.000000 0 0 1
-25.735261 -10.160622 -22.554437 35.696562 0.376027 2.254718 0.042349 -0.008343 144066.000000 0 0 1
-26.575371 -9.447822 -23.403237 36.650009 0.341575 2.263422 0.025465 -0.008936 -196956.000000 0 0 1
-26.710861 -10.006422 -24.835937 37.820925 0.358437 2.287194 0.035795 -0.005813 127086.000000 0 0 1
-25.561831 -9.750122 -25.624277 37.484339 0.364398 2.323479 0.025334 -0.015462 234680.000000 0 0 1
-24.748661 -10.896922 -25.847497 37.407649 0.414761 2.333624 0.038167 -0.008795 70656.000000 0 0 1
-23.672661 -10.594622 -26.899847 37.366330 0.420812 2.374448 0.043799 -0.017985 -315852.000000 0 0 1
-24.211161 -10.732222 -28.153547 38.652078 0.417248 2.386756 0.047961 -0.013972 -360117.000000 0 0 1
-23.272061 -10.584322 -29.193877 38.805916 0.426845 2.422350 0.045810 -0.008637 -54322.300000 0 0 1
-23.737861 -11.106322 -30.576817 40.271307 0.437618 2.432988 0.049284 -0.013441 -40345.300000 0 0 1
-24.655561 -10.266622 -31.234887 41.096452 0.394565 2.434169 0.042143 -0.018253 4055.760000 0 0 1
-24.082561 -9.332622 -32.102587 41.202471 0.369707 2.464093 0.041976 -0.019929 -305205.000000 0 0 1
-25.221431 -8.428822 -32.616767 42.083478 0.322524 2.457589 0.044016 -0.019758 -369734.000000 0 0 1
-26.201221 -8.836922 -33.551147 43.477289 0.325291 2.452296 0.044115 -0.024209 941533.000000 0 0 1
-27.280561 -9.597222 -33.032077 43.902776 0.338275 2.422481 0.050027 -0.025699 -66051.800000 0 0 1
-28.318061 -8.868122 -32.134657 43.740054 0.303487 2.395982 0.042873 -0.012409 -670517.000000 0 0 1
-29.543281 -9.527222 -31.915097 44.521307 0.311954 2.370070 0.054419 -0.019153 237240.000000 0 0 1
-30.343831 -8.827622 -30.965797 44.244272 0.283106 2.346029 0.059625 -0.010164 536888.000000 0 0 1
-31.863841 -9.122022 -31.093507 45.445812 0.278824 2.324287 0.065671 -0.015751 250083.000000 0 0 1
-32.264281 -10.435522 -30.803097 45.811731 0.312819 2.308222 0.069392 -0.022803 507480.000000 0 0 1
-33.653611 -10.719922 -30.935767 46.952145 0.308375 2.290123 0.068482 -0.019828 387637.000000 0 0 1
-33.959951 -12.233522 -30.779557 47.437522 0.345763 2.276861 0.060344 -0.025290 -1009630.000000 0 0 1
-35.279024 -12.614922 -30.856137 48.537068 0.343408 2.259741 0.035220 -0.020747 -1055510.000000 0 0 1
-35.312851 -14.027622 -30.897007 48.973428 0.378123 2.253500 0.031783 -0.021415 271741.000000 0 0 1
-36.740601 -14.570322 -30.677577 50.032787 0.377548 2.230838 0.031456 -0.026154 113385.000000 0 0 1
36.505088 -14.537822 -29.364107 49.053241 -0.378989 2.212570 0.022848 -0.024731 -78.959900 0 0 1
36.037008 -15.802922 -28.923277 48.835993 -0.413266 2.204649 0.022334 -0.020881 99154.300000 0 0 1
35.997398 -16.027422 -27.356137 47.969252 -0.418887 2.177649 0.028748 -0.021380 -346240.000000 0 0 1
-36.357531 -15.951022 -26.963097 47.992851 0.413440 2.167374 0.040299 -0.030238 -93674.700000 0 0 1
-36.270841 -16.296622 -25.570987 47.276095 0.422275 2.142287 0.045477 -0.031610 -560324.000000 0 0 1
-34.958802 -15.927222 -24.897737 45.778724 0.427501 2.145840 0.069815 -0.033532 -355175.000000 0 0 1
-33.840921 -16.671522 -25.314227 45.430801 0.457745 2.161811 0.057375 -0.030872 507958.000000 0 0 1
-32.636131 -16.233822 -24.677637 44.018630 0.461580 2.165928 0.071471 -0.014548 1102310.000000 0 0 1
-31.274371 -16.879122 -25.086827 43.501034 0.494909 2.185474 0.071235 -0.017367 653751.000000 0 0 1
-30.936261 -18.063022 -24.342937 43.311703 0.528481 2.167647 0.066719 -0.027014 -109177.000000 0 0 1
-31.630731 -19.160922 -24.801337 44.528085 0.544651 2.161544 0.053635 -0.030004 -587594.000000 0 0 1
-31.430971 -20.383522 -23.892137 44.432287 0.575332 2.138527 0.049224 -0.029663 459785.000000 0 0 1
-30.104881 -20.927722 -23.873637 43.751845 0.607471 2.147973 0.053360 -0.021298 616569.000000 0 0 1
-30.039451 -22.003822 -22.998337 43.765972 0.632205 2.124081 0.045251 -0.017745 52990.400000 0 0 1
-28.743381 -22.884522 -23.151437 43.426632 0.672399 2.133076 0.043543 -0.017134 1288850.000000 0 0 1
-27.592261 -22.268922 -22.515537 42.002228 0.679038 2.136554 0.047844 -0.020352 597374.000000 0 0 1
-27.474921 -22.116322 -21.083537 41.091587 0.677760 2.109573 0.046524 -0.022695 -559974.000000 0 0 1
-27.566351 -23.384322 -20.186437 41.403170 0.703502 2.080087 0.055168 -0.012125 14723.700000 0 0 1
-27.241591 -22.937022 -18.868137 40.301586 0.699823 2.058019 0.047598 -0.013154 38974.000000 0 0 1
-27.327201 -24.022422 -17.926137 40.561054 0.721128 2.028573 0.051986 0.007848 29087.300000 0 0 1
-27.420011 -23.521522 -16.511437 39.720858 0.709018 1.999494 0.045292 0.008564 255017.000000 0 0 1
-28.524651 -22.659822 -16.264637 39.895635 0.671314 1.990708 0.047671 0.002094 192915.000000 0 0 1
-28.134231 -21.504322 -15.559237 38.678944 0.652620 1.984787 0.046542 -0.002618 -722.220000 0 0 1
-29.405751 -21.011722 -14.849937 39.073153 0.620421 1.960652 0.045737 0.001846 722796.000000 0 0 1
-30.448541 -20.644822 -15.773537 40.026576 0.595824 1.975859 0.039303 0.003461 19627.100000 0 0 1
-31.425601 -19.880322 -15.138637 40.149395 0.564057 1.957414 0.042325 0.005447 -234327.000000 0 0 1
-32.386331 -19.187822 -16.142237 40.958745 0.534862 1.975895 0.050683 -0.013238 306454.000000 0 0 1
-33.320211 -20.104322 -16.739937 42.363259 0.542892 1.977030 0.032584 -0.004175 230948.000000 0 0 1
-34.187910 -19.435322 -17.611737 43.089653 0.516924 1.991851 0.032122 -0.003615 -372300.000000 0 0 1
-35.055615 -20.313322 -18.506637 44.542371 0.525180 1.999271 0.021004 0.005006 1013140.000000 0 0 1
-36.281841 -20.927622 -18.046937 45.607338 0.523191 1.977629 0.012784 0.005894 681390.000000 0 0 1
-36.226611 -21.712522 -16.875337 45.481622 0.539944 1.950921 0.030396 0.003136 -483179.000000 0 0 1
36.679858 -23.042122 -16.920437 46.504328 -0.560894 1.943190 0.011009 0.020959 -87049.700000 0 0 1
35.311198 -23.010722 -16.611637 45.302544 -0.577538 1.946237 0.018986 0.007749 -319152.000000 0 0 1
34.747818 -24.271422 -16.541037 45.498557 -0.609720 1.942873 0.017711 0.003313 -578572.000000 0 0 1
33.277408 -24.291322 -16.161537 44.256632 -0.630555 1.944620 0.029930 -0.006226 -388746.000000 0 0 1
32.331318 -24.072922 -17.184237 43.819148 -0.640017 1.973778 0.024433 -0.010268 256902.000000 0 0 1
31.022678 -24.400222 -16.747637 42.874943 -0.666472 1.972097 0.044997 -0.012167 633307.000000 0 0 1
29.873038 -24.084122 -17.749837 42.278837 -0.678520 2.004052 0.070179 -0.019434 195447.000000 0 0 1
29.557108 -22.744622 -17.904737 41.370522 -0.655874 2.018381 0.059739 -0.018899 340512.000000 0 0 1
28.241658 -22.517822 -18.380037 40.527390 -0.673109 2.041509 0.079684 -0.031601 -60580.900000 0 0 1
34.720958 29.375478 -18.193937 48.984518 0.702193 1.951337 0.062707 -0.017930 -265356.000000 0 0 1
33.846278 29.658678 -19.252137 48.947446 0.719552 1.975039 0.048535 -0.026019 -276475.000000 0 0 1
34.172058 29.032578 -20.452537 49.284139 0.704262 1.998731 0.048823 -0.019751 -348730.000000 0 0 1
33.239288 29.388978 -21.637237 49.363269 0.723997 2.024532 0.048846 -0.012032 -718324.000000 0 0 1
32.089978 28.581878 -21.481837 48.043311 0.727642 2.034356 0.043840 -0.012212 -230006.000000 0 0 1
31.193868 28.713478 -22.571237 48.031052 0.744018 2.060008 0.059743 -0.002346 338375.000000 0 0 1
30.212598 29.920478 -22.566837 48.138324 0.780540 2.058718 0.041484 -0.003722 -904130.000000 0 0 1
30.789168 31.194078 -22.698837 49.358693 0.791931 2.048651 0.057390 -0.014958 32314.400000 0 0 1
29.791358 32.204878 -22.718337 49.404474 0.824309 2.048616 0.053959 -0.009076 167787.000000 0 0 1
30.471398 33.639278 -22.751837 50.771579 0.834771 2.035459 0.059186 -0.010497 538472.000000 0 0 1
31.103038 -34.031856 -21.567537 50.899164 -0.830333 2.008356 0.063124 -0.014125 401990.000000 0 0 1
32.405218 33.582178 -21.315037 51.304889 0.803232 1.999243 0.051988 -0.015004 -74316.100000 0 0 1
32.646998 33.187278 -19.840137 50.604871 0.793605 1.973666 0.049826 -0.026011 -384999.000000 0 0 1
32.797188 -33.808956 -19.020437 50.798406 -0.800587 1.954578 0.048015 -0.023433 90919.700000 0 0 1
33.020298 33.985978 -17.673337 50.574041 0.799809 1.927785 0.046314 -0.035419 -169373.000000 0 0 1
33.048908 -32.945556 -16.769337 49.586799 -0.783832 1.915780 0.048717 -0.030621 36266.400000 0 0 1
34.102718 -32.039256 -17.010837 49.788331 -0.754211 1.919482 0.045482 -0.020369 -130535.000000 0 0 1
35.057258 -32.063456 -15.959337 50.117632 -0.740824 1.894877 0.044670 -0.017380 209597.000000 0 0 1
36.301498 -31.194856 -16.273837 50.554481 -0.709884 1.898539 0.047846 -0.005949 -124214.000000 0 0 1
-36.545001 -31.779856 -17.211137 51.397662 0.715768 1.912255 0.036332 -0.015200 170953.000000 0 0 1
-35.348457 -30.988456 -17.422437 50.133214 0.719767 1.925724 0.025190 -0.001886 852866.000000 0 0 1
-34.448919 -31.656256 -18.460337 50.295434 0.743178 1.946619 0.033599 -0.009404 -886990.000000 0 0 1
-33.879211 -32.858656 -17.995737 50.510779 0.770107 1.935075 0.040322 -0.017113 -232960.000000 0 0 1
-32.941111 -33.385856 -18.881637 50.559355 0.792103 1.953527 0.057340 -0.016462 252486.000000 0 0 1
-31.526201 -32.774356 -19.048437 49.304186 0.804807 1.967462 0.034534 -0.014044 -896796.000000 0 0 1
-31.505771 -31.571856 -19.798937 48.799525 0.786446 1.988563 0.029560 -0.013240 680904.000000 0 0 1
-30.171101 -31.245656 -20.221737 47.911429 0.802893 2.006518 0.036242 -0.010440 1361010.000000 0 0 1
-29.340511 -32.274956 -21.134737 48.468706 0.832987 2.022000 0.035641 -0.006540 -389540.000000 0 0 1
-29.988301 -32.684656 -22.269837 49.633966 0.828394 2.036086 0.027430 0.004480 -649622.000000 0 0 1
-29.352471 -33.816556 -22.809137 50.253197 0.855950 2.041916 0.022627 0.000132 -319927.000000 0 0 1
-30.066991 33.556778 -23.942437 51.022756 -0.840194 2.059238 0.015701 -0.001351 -242529.000000 0 0 1
-31.095211 32.678178 -23.463237 50.845835 -0.810215 2.050435 0.017157 -0.019828 255226.000000 0 0 1
-31.750841 31.906878 -24.448337 51.223881 -0.787849 2.068358 0.026801 -0.008886 684887.000000 0 0 1
-32.655281 32.718478 -25.478007 52.782526 -0.786365 2.074529 0.035375 -0.022636 -438001.000000 0 0 1
-31.991291 33.379578 -26.554677 53.317819 -0.806632 2.092139 0.021551 -0.017536 -639022.000000 0 0 1
-32.744191 -33.802356 -27.256767 54.384857 0.801298 2.095762 0.027387 -0.022550 -291208.000000 0 0 1
-31.909901 -33.027356 -28.296887 53.942209 0.802605 2.123015 0.026011 -0.021505 -110356.000000 0 0 1
-31.805701 -33.665656 -29.562607 54.944761 0.813799 2.138909 0.032999 -0.024968 29806.800000 0 0 1
-32.986721 -33.541956 -30.334947 55.976742 0.793744 2.143517 0.050754 -0.024604 42527.200000 0 0 1
-32.985461 33.910578 -31.723287 56.959063 -0.799226 2.161504 0.072237 -0.026908 403004.000000 0 0 1
-32.188381 -33.588356 -32.755477 56.896316 0.806679 2.184262 0.080141 -0.041897 231505.000000 0 0 1
-32.248721 33.726178 -33.985517 57.727380 -0.807789 2.200276 0.075406 -0.046770 -266851.000000 0 0 1
-31.409631 -34.007256 32.781797 56.724815 0.825086 0.954632 0.087798 -0.049298 589178.000000 0 0 1
-30.040081 33.788278 32.927287 55.930854 -0.844054 0.941329 0.088961 -0.050232 101230.000000 0 0 1
-29.750481 32.405078 32.673639 54.797326 -0.828081 0.931958 0.098557 -0.053822 -554753.000000 0 0 1
-28.274921 31.992878 32.809245 53.846653 -0.847011 0.915608 0.094391 -0.049637 -262321.000000 0 0 1
-27.884741 31.864278 -33.870367 54.222622 -0.851904 2.245484 0.088737 -0.049345 871629.000000 0 0 1
-26.501551 31.511178 -33.674237 53.190608 -0.871538 2.256330 0.080141 -0.047300 414065.000000 0 0 1
-26.131761 30.000078 34.011802 52.341917 -0.854204 0.863474 0.078671 -0.034682 -502783.000000 0 0 1
-26.509641 29.062478 -33.042437 51.373060 -0.831303 2.269448 0.071765 -0.026392 143029.000000 0 0 1
-26.188781 27.767678 -33.460617 50.759325 -0.814652 2.290553 0.072885 -0.030404 -401178.000000 0 0 1
-26.032041 26.658978 -32.348467 49.343607 -0.797296 2.285741 0.078161 -0.038107 -646460.000000 0 0 1
-24.905961 26.637778 -31.524007 48.204161 -0.818985 2.283615 0.068357 -0.032036 -482906.000000 0 0 1
-24.940861 27.684078 -30.558867 48.190238 -0.837479 2.257679 0.053013 -0.030639 598944.000000 0 0 1
-23.695961 27.711278 -29.585097 46.954142 -0.863348 2.252459 0.059419 -0.022942 53779.200000 0 0 1
-22.517561 28.006378 -30.292297 47.000223 -0.893612 2.271184 0.051784 -0.026413 -38766.800000 0 0 1
-21.351461 27.869978 -29.479117 45.843635 -0.917064 2.269253 0.025301 -0.026688 477957.000000 0 0 1
-21.093561 29.108678 -28.510747 45.881545 -0.943719 2.241323 0.025651 -0.017684 -653736.000000 0 0 1
-20.640161 30.231178 -29.270287 46.868860 -0.971746 2.245306 0.020258 -0.012273 128883.000000 0 0 1
-20.264861 31.313478 -28.406247 46.884042 -0.996419 2.221672 0.021817 -0.012800 143740.000000 0 0 1
-19.718861 32.538078 -29.211197 47.967218 -1.025959 2.225573 0.024738 -0.000997 -1168380.000000 0 0 1
-18.647861 32.283978 -29.982897 47.843203 -1.046996 2.248096 0.027482 -0.009179 -1433390.000000 0 0 1
-18.480661 33.359378 -30.942037 49.110005 -1.064897 2.252421 0.027810 0.000558 513237.000000 0 0 1
-16.998861 33.567678 -31.428517 49.025523 -1.102037 2.266681 0.034978 0.002923 252728.000000 0 0 1
-16.163261 34.013878 -30.412497 48.405732 -1.127188 2.250141 0.051501 -0.005771 -625259.000000 0 0 1
-14.799061 -34.033956 -30.726787 48.181509 1.160627 2.262344 0.073292 -0.000465 -60156.000000 0 0 1
-13.987161 32.829778 -30.552257 46.977392 -1.168036 2.278856 0.078886 -0.008393 -790004.000000 0 0 1
-13.838161 32.398478 -29.224737 45.773806 -1.167128 2.263292 0.095213 -0.025743 -60778.700000 0 0 1
-13.463261 31.034578 -29.234057 44.710564 -1.161483 2.283460 0.085374 -0.026505 -145933.000000 0 0 1
-13.267161 30.330378 -27.874347 43.277345 -1.158452 2.270625 0.080295 -0.038097 183201.000000 0 0 1
-12.104861 30.749678 -27.172057 42.783069 -1.195769 2.258950 0.085397 -0.028926 73371.600000 0 0 1
-12.097761 30.387278 -25.845497 41.686115 -1.191912 2.239542 0.062831 -0.033518 -221414.000000 0 0 1
-10.790861 30.842678 -25.205567 41.267833 -1.234239 2.227842 0.072691 -0.033808 533200.000000 0 0 1
-9.618061 30.172578 -25.680937 40.772565 -1.262211 2.252167 0.096297 -0.027367 1459530.000000 0 0 1
-8.402561 30.573178 -24.991137 40.371762 -1.302584 2.238297 0.105907 -0.029599 1602800.000000 0 0 1
-7.044061 29.907978 -25.322457 39.816237 -1.339487 2.260078 0.092400 -0.029565 246675.000000 0 0 1
-6.825461 28.639678 -24.741037 38.456950 -1.336839 2.269654 0.086940 -0.042486 1022360.000000 0 0 1
-5.523461 28.120678 -25.118347 38.107906 -1.376846 2.290467 0.087237 -0.049194 852514.000000 0 0 1
-5.030961 26.893378 -24.359837 36.632854 -1.385863 2.298253 0.094344 -0.039166 -640377.000000 0 0 1
-5.787161 25.730478 -24.439937 35.956352 -1.349563 2.318165 0.096689 -0.043850 -210001.000000 0 0 1
-5.203461 24.628878 -23.836137 34.667262 -1.362583 2.328932 0.096817 -0.051169 331017.000000 0 0 1
-6.246561 23.419878 -23.831937 33.992226 -1.310144 2.347735 0.077310 -0.043606 661118.000000 0 0 1
-6.469361 22.861478 -25.124937 34.579795 -1.295026 2.384125 0.078350 -0.043163 146166.000000 0 0 1
-7.249161 21.682078 -25.086857 33.941320 -1.248141 2.402566 0.060224 -0.042642 26927.300000 0 0 1
-7.428761 20.892878 -26.465197 34.526880 -1.229173 2.444185 0.057400 -0.033012 206367.000000 0 0 1
-6.304661 20.061478 -26.702587 33.988819 -1.266302 2.474508 0.077387 -0.042546 -137749.000000 0 0 1
-6.064461 18.912578 -25.927927 32.660690 -1.260497 2.487922 0.072084 -0.041787 -107392.000000 0 0 1
-4.697061 18.285878 -26.306967 32.380429 -1.319364 2.519111 0.093638 -0.050831 288434.000000 0 0 1
-4.665961 17.763578 -27.575157 33.131634 -1.313929 2.554024 0.078499 -0.051558 -808708.000000 0 0 1
-3.750861 16.742478 -27.639347 32.531723 -1.350403 2.586046 0.091792 -0.048448 -744900.000000 0 0 1
-3.408861 16.488978 -29.099797 33.620007 -1.366933 2.617044 0.084398 -0.044041 -429384.000000 0 0 1
-2.521161 17.426178 -29.599887 34.440982 -1.427117 2.604966 0.089047 -0.046725 -297935.000000 0 0 1
-2.293761 17.311278 -30.969827 35.553788 -1.439063 2.628172 0.079938 -0.045000 -95762.200000 0 0 1
-1.490961 18.508778 -31.479517 36.548020 -1.490416 2.608657 0.088532 -0.033293 -78563.700000 0 0 1
-0.121961 18.486778 -31.114697 36.192543 -1.564199 2.605477 0.114439 -0.041302 -126132.000000 0 0 1
0.548139 19.664778 -31.503457 37.141240 1.542929 2.583387 0.123724 -0.025733 110062.000000 0 0 1
0.364939 21.025678 -30.801067 37.295013 1.553441 2.542551 0.111222 -0.036854 -435330.000000 0 0 1
1.058539 21.031778 -29.588727 36.317337 1.520508 2.523055 0.138563 -0.058249 -416182.000000 0 0 1
1.012939 22.187578 -28.833817 36.396478 1.525175 2.485226 0.130927 -0.064848 336248.000000 0 0 1
2.177039 22.220178 -27.801127 35.656394 1.473132 2.464976 0.147582 -0.062337 526056.000000 0 0 1
3.454539 22.402478 -28.375687 36.317825 1.417798 2.467567 0.127295 -0.061284 171823.000000 0 0 1
4.505139 22.645978 -27.442897 35.864316 1.374422 2.442128 0.121192 -0.063528 260612.000000 0 0 1
4.997539 24.119378 -27.290747 36.762816 1.366487 2.407362 0.128215 -0.063678 -298943.000000 0 0 1
5.748839 24.583878 -28.387747 37.990530 1.341078 2.414684 0.113749 -0.064785 176388.000000 0 0 1
6.006839 25.934078 -28.178967 38.764838 1.343190 2.384624 0.107065 -0.067526 -203855.000000 0 0 1
6.933139 26.636578 -29.208217 40.133473 1.316160 2.385871 0.106038 -0.061232 -759615.000000 0 0 1
8.276639 26.345178 -29.032607 40.068234 1.266399 2.381220 0.085569 -0.054025 -979971.000000 0 0 1
9.016239 27.062378 -29.990027 41.389208 1.249197 2.381229 0.087926 -0.052151 -487854.000000 0 0 1
10.483339 27.111478 -29.550417 41.450691 1.201829 2.364429 0.088801 -0.048618 -616285.000000 0 0 1
11.227939 28.050078 -30.247537 42.752625 1.190047 2.356753 0.084326 -0.041787 -271502.000000 0 0 1
12.507539 28.255278 -29.686677 42.849714 1.154061 2.336174 0.089820 -0.038756 109265.000000 0 0 1
13.384139 29.211578 -30.553097 44.338958 1.141161 2.331015 0.103448 -0.038567 -141307.000000 0 0 1
12.905239 30.523378 -30.732667 45.196444 1.170792 2.318531 0.104748 -0.041711 1125070.000000 0 0 1
13.962839 31.394578 -31.225377 46.428488 1.152314 2.308442 0.138807 -0.043819 1069280.000000 0 0 1
13.380839 32.835778 -31.450397 47.395808 1.183834 2.296376 0.135506 -0.049521 786545.000000 0 0 1
12.375039 32.940778 -32.468947 47.879734 1.211434 2.316019 0.104986 -0.049003 898173.000000 0 0 1
11.295239 33.804278 -32.105487 47.969510 1.248323 2.304048 0.101139 -0.040461 -156477.000000 0 0 1
10.232039 33.943778 -33.164817 48.546676 1.278018 2.322868 0.068940 -0.032323 -587052.000000 0 0 1
10.432239 -33.195156 33.896290 48.576831 -1.266300 0.798493 0.055801 -0.018961 -76599.700000 0 0 1
9.319039 -33.224056 33.038879 47.772900 -1.297333 0.807119 0.050605 -0.020349 14652.300000 0 0 1
9.435839 -32.378056 31.760008 46.325713 -1.287223 0.815395 0.062898 -0.019348 -41377.400000 0 0 1
9.333339 -31.014756 31.940338 45.488587 -1.278485 0.792367 0.048678 -0.022508 -98809.500000 0 0 1
9.737339 -30.370256 30.754248 44.305666 -1.260530 0.803575 0.076790 -0.027529 -410807.000000 0 0 1
9.250039 -28.889256 30.608158 43.093059 -1.260921 0.780900 0.064777 -0.040112 1097080.000000 0 0 1
7.813239 -28.772256 30.603068 42.725136 -1.305636 0.772343 0.045744 -0.030467 1172220.000000 0 0 1
7.123539 -28.809256 31.880438 43.555486 -1.328393 0.749617 0.043857 -0.017869 1371200.000000 0 0 1
5.566839 -28.482756 31.762048 43.024235 -1.377783 0.740345 0.047612 -0.019897 1785510.000000 0 0 1
4.693339 -29.531856 31.292958 43.282874 -1.413190 0.762680 0.050286 -0.028826 193371.000000 0 0 1
4.812539 -30.041856 29.945608 42.689731 -1.411951 0.793337 0.058423 -0.028959 -430885.000000 0 0 1
4.447039 -29.150856 28.700518 41.149342 -1.419411 0.798932 0.041337 -0.032480 -725320.000000 0 0 1
3.066839 -29.076456 28.515458 40.840876 -1.465710 0.797904 0.058800 -0.031206 -657946.000000 0 0 1
2.700939 -28.332556 27.367858 39.484535 -1.475754 0.804976 0.065404 -0.039820 -162286.000000 0 0 1
1.233939 -28.598656 26.976288 39.333521 -1.527676 0.815046 0.056622 -0.031758 -67170.500000 0 0 1
0.981039 -29.937056 26.560848 40.033342 -1.538038 0.845352 0.065176 -0.031875 -24491.600000 0 0 1
0.837739 -30.957156 27.532808 41.437940 -1.543742 0.844059 0.085851 -0.035574 -868140.000000 0 0 1
1.163739 -32.372356 26.997468 42.168555 -1.534863 0.876002 0.084536 -0.035517 1445980.000000 0 0 1
2.532939 -32.714856 26.627258 42.257407 -1.493526 0.889088 0.065847 -0.030482 1695760.000000 0 0 1
3.205539 -31.887756 25.652058 41.050366 -1.470607 0.895803 0.065099 -0.029090 737673.000000 0 0 1
4.751339 -32.136356 25.527038 41.315255 -1.424010 0.904778 0.075757 -0.024273 968926.000000 0 0 1
5.485639 -31.321056 24.640328 40.227436 -1.397413 0.911545 0.078473 -0.032749 908651.000000 0 0 1
6.899339 -31.518856 24.818778 40.706399 -1.355300 0.915112 0.071869 -0.041025 653531.000000 0 0 1
7.708739 -31.262956 23.520908 39.875183 -1.329042 0.939907 0.066409 -0.041518 -1170580.000000 0 0 1
9.055939 -31.142556 23.777268 40.214765 -1.287810 0.938180 0.059117 -0.033408 -1208350.000000 0 0 1
9.702739 -30.940156 22.556598 39.499830 -1.266912 0.963005 0.058545 -0.033254 -153896.000000 0 0 1
10.850939 -29.911856 22.602798 39.030097 -1.222796 0.953157 0.060820 -0.026334 -391110.000000 0 0 1
11.923839 -30.311456 23.398918 40.105756 -1.196012 0.947850 0.068923 -0.026673 -529444.000000 0 0 1
12.971939 -29.375156 23.253298 39.647029 -1.154953 0.944056 0.079822 -0.017643 -263480.000000 0 0 1
14.131539 -29.648756 24.194558 40.793698 -1.126017 0.935898 0.102962 -0.021078 -416511.000000 0 0 1
13.817939 -29.189156 25.523048 41.162705 -1.128660 0.901986 0.078809 -0.017825 -457213.000000 0 0 1
14.846139 -29.520556 26.381528 42.283048 -1.104825 0.897039 0.083861 -0.014779 -624780.000000 0 0 1
-10.699961 -14.295722 26.216808 31.720307 0.928273 0.597936 0.095434 -0.031911 410539.000000 0 0 1
-9.363061 -14.269522 25.727428 30.873722 0.990104 0.585725 0.084064 -0.026830 192293.000000 0 0 1
-8.461961 -14.635622 26.764228 31.656439 1.046579 0.563372 0.108529 -0.034638 -450770.000000 0 0 1
-7.006461 -14.614722 26.338918 30.926028 1.123755 0.551624 0.098286 -0.028675 -478008.000000 0 0 1
-6.472661 -15.661522 25.463668 30.587203 1.178891 0.587202 0.092852 -0.027279 249916.000000 0 0 1
-6.724761 -15.344422 24.121938 29.369059 1.157753 0.607043 0.093703 -0.031996 -162681.000000 0 0 1
-6.266661 -16.405422 23.067948 28.992053 1.205914 0.650692 0.098343 -0.038985 168617.000000 0 0 1
-7.107461 -17.538722 22.823898 29.648830 1.185777 0.692256 0.109826 -0.044699 -347407.000000 0 0 1
-7.246261 -18.476622 23.919288 31.080962 1.197045 0.692613 0.105955 -0.039452 -102853.000000 0 0 1
-8.110361 -19.762022 23.594198 31.827687 1.181356 0.735776 0.095829 -0.039677 -584667.000000 0 0 1
-9.466861 -19.513522 23.615578 32.063913 1.119104 0.742891 0.074882 -0.035348 -1211060.000000 0 0 1
-10.171861 -20.743222 23.466518 32.930616 1.114882 0.777592 0.059536 -0.022204 -22642.700000 0 0 1
-11.659461 -20.597622 23.821418 33.580724 1.055708 0.782181 0.040131 -0.014811 -151416.000000 0 0 1
-11.926761 -20.652722 25.231908 34.719328 1.047092 0.757233 0.044288 -0.020662 260539.000000 0 0 1
-13.337361 -20.572322 25.416248 35.314180 0.995606 0.767400 0.051545 -0.014985 370542.000000 0 0 1
-13.698861 -20.776222 26.881098 36.632003 0.987874 0.746876 0.053429 -0.014674 -266511.000000 0 0 1
-13.439261 -22.053522 27.421288 37.668271 1.023499 0.755443 0.060311 -0.011109 649680.000000 0 0 1
-12.289361 -21.939222 28.308508 37.864621 1.060190 0.726319 0.076581 -0.020721 1111580.000000 0 0 1
-11.853061 -23.201422 29.094988 39.055337 1.098485 0.730309 0.074079 -0.021430 608244.000000 0 0 1
-12.938661 -23.637222 29.937068 40.278472 1.069963 0.732878 0.079766 -0.011034 565599.000000 0 0 1
-12.559861 -24.817922 30.603158 41.354959 1.102296 0.737708 0.070363 -0.000720 306494.000000 0 0 1
-13.793261 -25.459442 31.271658 42.618703 1.074291 0.746965 0.068688 -0.024962 312460.000000 0 0 1
-13.780561 -25.002422 32.605311 43.337412 1.067056 0.719160 0.100446 -0.036656 -283056.000000 0 0 1
-14.917561 -25.388872 33.322574 44.469342 1.039572 0.723734 0.096246 -0.035304 -332633.000000 0 0 1
-15.003661 -24.827022 -33.306377 44.167925 1.027201 2.425056 0.093920 -0.038389 38808.300000 0 0 1
-15.047361 -23.410022 -33.168167 43.296414 0.999517 2.443504 0.102281 -0.045068 -374830.000000 0 0 1
-16.286361 -22.811922 -33.433677 43.628432 0.950775 2.443902 0.095192 -0.043944 -503307.000000 0 0 1
-16.399461 -21.316422 -33.246477 42.762839 0.915035 2.461416 0.089221 -0.043824 -5475.230000 0 0 1
-16.357661 -20.842622 -31.935397 41.495271 0.905382 2.449035 0.075711 -0.045602 30535.800000 0 0 1
-16.685261 -19.515922 -31.825117 40.891407 0.863432 2.462724 0.060667 -0.041491 -248053.000000 0 0 1
-16.777661 -19.066822 -30.354587 39.578208 0.849175 2.444874 0.055750 -0.031694 504810.000000 0 0 1
-17.953861 -19.459422 -29.622277 39.730209 0.825618 2.412210 0.062016 -0.032174 520951.000000 0 0 1
-17.848061 -19.307922 -28.193797 38.551774 0.824668 2.391056 0.060636 -0.025782 190295.000000 0 0 1
-16.935461 -20.319322 -27.416057 38.096258 0.875980 2.374098 0.064770 -0.026462 1041290.000000 0 0 1
-15.529661 -20.123922 -27.595497 37.518716 0.913550 2.397220 0.064691 -0.029645 751704.000000 0 0 1
-14.749361 -21.236022 -27.160247 37.499217 0.963741 2.380798 0.068249 -0.025033 -25551.000000 0 0 1
-13.265861 -21.207522 -27.531427 37.198407 1.011819 2.404051 0.090880 -0.022006 -601838.000000 0 0 1
-12.559261 -20.187822 -26.826167 35.845870 1.014270 2.416406 0.093349 -0.027448 499206.000000 0 0 1
-11.143661 -20.303022 -26.892597 35.490923 1.068823 2.430626 0.084892 -0.034429 573890.000000 0 0 1
-10.473761 -21.403222 -26.021207 35.283151 1.115701 2.400152 0.094211 -0.028359 -689854.000000 0 0 1
-10.454861 -22.716722 -26.549697 36.472455 1.139470 2.386106 0.092524 -0.030518 295030.000000 0 0 1
-9.959461 -23.604022 -25.534297 36.170997 1.171521 2.354536 0.112032 -0.028787 -87138.500000 0 0 1
-10.091161 -25.128922 -25.840287 37.430130 1.188932 2.332784 0.107950 -0.028797 37546.700000 0 0 1
-9.146861 -25.748442 -26.738007 38.230463 1.229462 2.345340 0.105989 -0.038455 525634.000000 0 0 1
-9.615561 -26.953962 -27.318367 39.563471 1.228130 2.332969 0.103429 -0.032358 -275471.000000 0 0 1
-9.512161 -28.240942 -26.445217 39.841956 1.245910 2.296622 0.124039 -0.027790 -277265.000000 0 0 1
-10.360061 -28.369102 -25.329017 39.416949 1.220655 2.268673 0.104055 -0.028786 -104099.000000 0 0 1
-10.195861 -29.564382 -24.670537 39.832696 1.238699 2.238716 0.120288 -0.027314 42167.900000 0 0 1
-11.146061 -29.630072 -23.417037 39.376814 1.210997 2.207678 0.123719 -0.022925 182181.000000 0 0 1
-11.123261 -28.480092 -22.524137 37.976036 1.198452 2.205718 0.116791 -0.025114 79927.700000 0 0 1
-12.058461 -27.486642 -22.930837 37.772281 1.157377 2.223178 0.098564 -0.021287 -83631.400000 0 0 1
-12.008361 -26.226162 -22.032537 36.296625 1.141411 2.223093 0.107958 -0.008983 -22245.300000 0 0 1
-12.349861 -26.455652 -20.627537 35.747949 1.134048 2.185880 0.096848 -0.012448 288310.000000 0 0 1
-12.465661 -25.222552 -19.918937 34.472219 1.111778 2.186859 0.085540 -0.006995 -60344.300000 0 0 1
-13.038761 -25.482342 -18.518537 34.092451 1.097850 2.145023 0.100652 -0.013165 296462.000000 0 0 1
-14.442961 -25.676202 -18.461537 34.766288 1.058404 2.130598 0.115680 -0.016520 241256.000000 0 0 1
-14.881761 -26.208692 -17.204937 34.704066 1.054376 2.089508 0.110714 -0.018060 590097.000000 0 0 1
-16.426761 -26.370922 -17.089637 35.458704 1.013700 2.073685 0.113580 -0.022769 -192289.000000 0 0 1
-17.185061 -25.166092 -17.048037 34.918392 0.971663 2.080851 0.103971 -0.014384 168685.000000 0 0 1
-18.566461 -25.359272 -16.830537 35.652112 0.938826 2.062441 0.104750 -0.015025 144499.000000 0 0 1
-19.502061 -26.080772 -17.811537 37.118565 0.928733 2.071286 0.094960 -0.015691 -1074410.000000 0 0 1
-19.374661 -27.506442 -17.929937 38.124329 0.957145 2.060429 0.098606 -0.016368 58098.500000 0 0 1
-19.569761 -28.362082 -16.775437 38.324907 0.966815 2.023853 0.103298 -0.022885 74055.200000 0 0 1
-21.060761 -28.780262 -16.609637 39.341316 0.939060 2.006660 0.095507 -0.013814 524744.000000 0 0 1
-21.590261 -29.710132 -17.562737 40.709717 0.942377 2.016856 0.087349 -0.010086 -1420370.000000 0 0 1
-22.907361 -29.949142 -17.315437 41.491236 0.917843 2.001299 0.084118 -0.007097 -1324380.000000 0 0 1
-23.482761 -30.967372 -18.323337 42.966997 0.922000 2.011362 0.064434 -0.015274 -292004.000000 0 0 1
-23.007561 -32.248542 -18.152137 43.575410 0.951104 2.000464 0.066667 -0.020051 -138424.000000 0 0 1
-23.166261 -32.962092 -19.342437 44.691219 0.958183 2.018395 0.047492 -0.004891 -248976.000000 0 0 1
-22.470061 33.840596 -19.397737 45.015129 -0.984644 2.016304 0.041863 -0.013779 -431765.000000 0 0 1
-23.012561 32.844391 -18.570637 44.195029 -0.959631 2.004459 0.044561 -0.009057 -186666.000000 0 0 1
-22.272561 31.642072 -18.515337 42.896450 -0.957464 2.017094 0.033065 -0.014992 19426.200000 0 0 1
-23.114561 30.419982 -18.046437 42.253191 -0.921022 2.012082 0.043051 -0.019999 6741.020000 0 0 1
-23.648661 30.417622 -16.753637 42.013989 -0.909948 1.980964 0.039498 -0.023716 -42652.300000 0 0 1
-24.331861 29.203072 -16.417537 41.405246 -0.876140 1.978507 0.045848 -0.020457 73035.300000 0 0 1
-23.441661 27.973312 -16.095337 39.888313 -0.873310 1.986146 0.049076 -0.027311 29858.900000 0 0 1
-22.937461 27.347042 -17.275037 39.653685 -0.872867 2.021554 0.041211 -0.030639 -89402.900000 0 0 1
-22.328461 26.107182 -17.096637 38.372388 -0.863256 2.032580 0.046578 -0.030576 -291410.000000 0 0 1
-21.490761 25.612262 -18.286737 38.108340 -0.872676 2.071294 0.053973 -0.030461 -856727.000000 0 0 1
-21.361061 24.225272 -18.116537 37.031982 -0.848146 2.081984 0.062038 -0.036144 -106153.000000 0 0 1
-20.664161 23.569172 -19.134837 36.724044 -0.850979 2.118870 0.052291 -0.029744 676329.000000 0 0 1
-19.131361 23.878732 -19.203337 36.124382 -0.895331 2.131272 0.048665 -0.038851 -515202.000000 0 0 1
-18.270761 23.527372 -18.160737 34.887968 -0.910503 2.118285 0.070541 -0.038300 -565636.000000 0 0 1
-17.097161 24.266972 -18.239837 34.840932 -0.957027 2.121770 0.089249 -0.046304 -831730.000000 0 0 1
-17.038361 25.630172 -17.517737 35.413029 -0.984103 2.088251 0.080506 -0.040287 -504568.000000 0 0 1
-17.743961 26.689642 -18.124037 36.819368 -0.984069 2.085460 0.057685 -0.039710 -196333.000000 0 0 1
-17.513161 27.935182 -17.512337 37.333191 -1.010817 2.059048 0.066458 -0.041989 -342643.000000 0 0 1
-18.672561 28.966002 -17.657337 38.723060 -0.998200 2.044281 0.047192 -0.035249 321068.000000 0 0 1
-18.779061 29.382522 -19.028937 39.725133 -1.002105 2.070329 0.032353 -0.036479 160302.000000 0 0 1
-19.676161 28.558172 -19.753437 39.911387 -0.967501 2.088553 0.042190 -0.029583 -407735.000000 0 0 1
-19.914861 28.920972 -21.255237 41.046430 -0.967765 2.115113 0.050175 -0.033065 -394216.000000 0 0 1
-20.663461 30.089872 -21.306437 42.265155 -0.969036 2.099152 0.047860 -0.031100 -66464.400000 0 0 1
-21.015561 30.413942 -22.690437 43.376464 -0.966147 2.121286 0.056796 -0.031815 115023.000000 0 0 1
-21.611761 31.823742 -22.930837 44.784395 -0.974230 2.108340 0.048515 -0.026279 -375288.000000 0 0 1
-20.660061 32.815725 -22.780037 44.973771 -1.008912 2.101938 0.043389 -0.020234 -420176.000000 0 0 1
-20.737261 33.797118 -23.820437 46.256809 -1.020451 2.111758 0.042788 -0.011355 56380.700000 0 0 1
-19.756761 -33.121902 -23.754937 45.295552 1.032964 2.122857 0.067823 -0.005285 141768.000000 0 0 1
-19.765161 -32.319672 -22.611737 44.119309 1.021926 2.108906 0.068063 -0.008137 -5422.270000 0 0 1
-19.127061 -32.813762 -21.450937 43.620295 1.043047 2.084912 0.073562 -0.019555 -245658.000000 0 0 1
-19.027361 -31.803402 -20.370137 42.289943 1.031642 2.073365 0.092148 -0.019056 -184503.000000 0 0 1
-18.059261 -30.812452 -20.616337 41.238058 1.040658 2.094320 0.092169 -0.018887 -32249.400000 0 0 1
-17.659561 -30.318802 -19.373437 40.080168 1.043372 2.075293 0.091832 -0.015004 -361335.000000 0 0 1
-16.446861 -29.394542 -19.385637 38.863109 1.060673 2.093031 0.109874 -0.014370 -192933.000000 0 0 1
-15.199261 -30.003322 -19.588837 38.922222 1.101894 2.098188 0.114630 -0.021626 -437401.000000 0 0 1
-14.149761 -29.069682 -19.628437 37.822449 1.117802 2.116433 0.097659 -0.021628 393767.000000 0 0 1
-12.758661 -29.788952 -19.869037 38.012415 1.166132 2.120810 0.123273 -0.028746 1013240.000000 0 0 1
-12.151561 -30.429682 -18.715637 37.734613 1.190866 2.089760 0.122843 -0.030896 492045.000000 0 0 1
-11.410561 -29.495652 -17.919037 36.349502 1.201672 2.086291 0.114959 -0.022840 -10430.300000 0 0 1
-10.545661 -30.124382 -16.759537 36.049569 1.234059 2.054321 0.117557 -0.010051 130940.000000 0 0 1
-11.236861 -30.800112 -15.715937 36.358006 1.220970 2.017789 0.130155 -0.024809 -19263.400000 0 0 1
-11.660261 -32.121332 -16.081537 37.767148 1.222581 2.010651 0.131705 -0.027505 104131.000000 0 0 1
-12.756561 -32.694012 -15.134137 38.218717 1.198784 1.977939 0.134880 -0.034345 244477.000000 0 0 1
-12.289161 -33.071422 -13.841837 37.899062 1.215015 1.944675 0.122895 -0.036226 -634718.000000 0 0 1
-13.382061 -33.430162 -13.103337 38.319091 1.190032 1.919791 0.117272 -0.032550 -775334.000000 0 0 1
-12.947461 -33.775922 -11.722737 38.024626 1.204739 1.884195 0.094076 -0.028857 181754.000000 0 0 1
-12.317261 -32.789232 -10.925337 36.690757 1.211456 1.873150 0.079082 -0.024587 219337.000000 0 0 1
-11.984061 -33.197932 -9.632737 36.585653 1.224366 1.837230 0.080111 -0.030153 32569.400000 0 0 1
-10.609361 -32.692492 -9.099537 35.555016 1.256999 1.829604 0.072729 -0.035461 177954.000000 0 0 1
-9.502161 -33.285622 -9.712537 35.952150 1.292719 1.844347 0.062340 -0.030929 -1228190.000000 0 0 1
-8.390061 -32.483152 -9.536837 34.878354 1.318031 1.847755 0.052245 -0.038037 120725.000000 0 0 1
-7.073661 -33.086162 -10.151237 35.323907 1.360172 1.862282 0.052888 -0.036860 712317.000000 0 0 1
-6.548761 33.950075 -9.448337 35.843618 -1.380243 1.837547 0.046282 -0.020942 606362.000000 0 0 1
-5.324161 33.379916 -9.936337 35.232035 -1.412627 1.856701 0.052240 -0.014119 935690.000000 0 0 1
-4.634661 32.251430 -9.135937 33.839329 -1.428069 1.844168 0.054041 -0.017543 264516.000000 0 0 1
-4.062461 32.680842 -7.921037 33.871579 -1.447124 1.806837 0.068531 -0.022368 -188149.000000 0 0 1
-3.376961 31.740982 -7.147337 32.710522 -1.464804 1.791076 0.066893 -0.024618 125423.000000 0 0 1
-2.930061 32.261130 -5.768337 32.903488 -1.480222 1.747018 0.073602 -0.023590 -230873.000000 0 0 1
-1.849861 33.152687 -5.879237 33.720736 -1.515056 1.746043 0.068552 -0.024383 -373075.000000 0 0 1
-1.469661 33.913689 -4.747137 34.275845 -1.527488 1.709741 0.071089 -0.025227 347256.000000 0 0 1
-0.556361 33.222646 -3.678937 33.430351 -1.554051 1.681067 0.079510 -0.024457 809442.000000 0 0 1
0.821039 33.123331 -4.086637 33.384574 1.546014 1.693515 0.072834 -0.027784 897815.000000 0 0 1
1.640539 32.355311 -3.170437 32.551639 1.520136 1.668348 0.065184 -0.028046 39565.300000 0 0 1
3.079839 32.426670 -3.654337 32.776951 1.476102 1.682520 0.058473 -0.024141 -457349.000000 0 0 1
3.740639 33.660468 -3.600337 34.058508 1.460122 1.676705 0.047970 -0.017286 -892338.000000 0 0 1
5.115839 33.602726 -3.784537 34.199967 1.419712 1.681682 0.058934 -0.007880 -285875.000000 0 0 1
5.881739 -33.209442 -3.516337 33.909092 -1.395504 1.674682 0.058190 -0.003952 30939.700000 0 0 1
5.836739 -32.196462 -4.498037 33.028957 -1.391459 1.707405 0.058273 -0.004429 -185325.000000 0 0 1
6.269039 -30.969372 -3.971437 31.846117 -1.371068 1.695829 0.045493 -0.009578 13823.300000 0 0 1
5.888039 -29.721372 -4.792237 30.675633 -1.375221 1.727662 0.040038 -0.007237 192453.000000 0 0 1
6.905939 -29.502232 -5.773737 30.844930 -1.340855 1.759093 0.061974 -0.003770 275247.000000 0 0 1
6.716139 -28.355622 -6.591737 29.876392 -1.338228 1.793260 0.056021 -0.003349 -137290.000000 0 0 1
7.118439 -26.967242 -6.085337 28.547077 -1.312717 1.785613 0.057951 -0.007567 95855.600000 0 0 1
6.217439 -26.361982 -5.178637 27.575876 -1.339180 1.759714 0.045969 -0.009320 -252068.000000 0 0 1
6.788339 -25.275922 -4.455237 26.548124 -1.308418 1.739412 0.043127 -0.020868 -97992.700000 0 0 1
5.985339 -24.891722 -3.186437 25.798750 -1.334821 1.694624 0.039162 -0.025891 563765.000000 0 0 1
4.722239 -24.378722 -3.616037 25.093771 -1.379463 1.715401 0.029078 -0.027436 -208310.000000 0 0 1
4.074139 -23.624222 -2.620537 24.115756 -1.400020 1.679676 0.035040 -0.034725 -359065.000000 0 1 0
2.736939 -23.173922 -3.218037 23.555833 -1.453237 1.707838 0.042710 -0.031452 -82077.900000 0 1 0
1.796239 -24.251122 -3.279737 24.537727 -1.496863 1.704859 0.041876 -0.023646 -477882.000000 0 1 0
0.588539 -23.674722 -3.726737 23.973473 -1.545942 1.726882 0.023591 -0.018726 -259778.000000 0 1 0
-15.974361 23.263178 18.094998 33.522897 -0.969066 1.000620 0.008637 -0.010696 -154563.000000 0 0 1
-15.698061 22.610878 19.364598 33.655142 -0.963926 0.957724 0.027271 -0.009710 298103.000000 0 0 1
-15.357061 23.475378 20.441898 34.710285 -0.991490 0.941063 0.038467 -0.013098 -750912.000000 0 0 1
-15.341961 22.679778 21.803198 35.001822 -0.976044 0.898331 0.058923 -0.019355 -516252.000000 0 0 1
-14.346361 21.671778 21.978498 34.037309 -0.986043 0.868833 0.055964 -0.021415 834939.000000 0 0 1
-12.985961 22.098478 22.043298 33.806581 -1.039514 0.860522 0.033623 -0.019118 182686.000000 0 0 1
-12.550761 23.199878 23.042498 35.024458 -1.074902 0.852773 0.051849 -0.004267 -1046860.000000 0 0 1
-12.176161 22.672978 24.307438 35.400203 -1.077962 0.813930 0.041739 -0.005953 154195.000000 0 0 1
-12.152861 23.792678 25.223978 36.742790 -1.098561 0.814130 0.059473 -0.008469 -57838.900000 0 0 1
-11.626861 23.340778 26.584318 37.238445 -1.108642 0.775752 0.063511 -0.010706 141344.000000 0 0 1
-10.221961 23.186778 26.611518 36.746266 -1.155575 0.760928 0.031035 -0.002942 -30028.600000 0 0 1
-9.803461 22.555478 27.815918 37.129271 -1.160791 0.723997 0.034552 -0.003118 -717293.000000 0 0 1
-8.321261 22.349278 28.129848 36.878476 -1.214370 0.703208 0.033618 -0.014206 364208.000000 0 0 1
-7.512361 23.486178 28.568018 37.738148 -1.261218 0.712077 0.036177 -0.014716 538503.000000 0 0 1
-7.315661 24.445578 27.564078 37.561730 -1.280016 0.746848 0.034185 -0.005023 -876466.000000 0 0 1
-6.169661 25.384078 27.952538 38.259123 -1.332367 0.751580 0.035205 -0.012296 838661.000000 0 0 1
-4.848961 24.817678 27.970418 37.706417 -1.377844 0.735054 0.023505 -0.010755 649945.000000 0 0 1
-3.818261 25.746978 28.198708 38.375163 -1.423570 0.745400 0.031032 -0.006346 -512154.000000 0 0 1
-2.414061 25.203678 28.113048 37.833802 -1.475306 0.733155 0.048226 -0.006333 -744939.000000 0 0 1
-1.918361 24.921678 26.806408 36.651789 -1.493972 0.750452 0.043734 -0.013213 -1431850.000000 0 0 1
-0.569761 24.740078 26.846858 36.512325 -1.547771 0.744714 0.054811 -0.002779 -1465660.000000 0 0 1
0.080539 24.527578 25.493418 35.376870 1.567513 0.766095 0.041431 -0.013612 -470071.000000 0 0 1
-0.195961 23.286978 24.928608 34.113886 -1.562381 0.751381 0.036560 -0.008629 -171910.000000 0 0 1
0.153139 23.144178 23.534858 33.008574 1.564180 0.777040 0.042450 -0.006461 72912.700000 0 0 1
-0.445361 21.937978 22.755898 31.611772 -1.550498 0.767203 0.024469 -0.004199 297090.000000 0 0 1
0.087039 20.729278 23.359658 31.231141 1.566598 0.725812 0.036973 -0.007525 349693.000000 0 0 1
-0.333861 19.572278 22.590898 29.892043 -1.553740 0.713998 0.034128 -0.007105 45597.000000 0 0 1
0.652939 18.395078 22.787498 29.292922 1.535316 0.679450 0.034925 0.002238 757328.000000 0 0 1
1.909039 18.683578 22.141198 29.033656 1.468972 0.703466 0.037221 0.000450 617084.000000 0 0 1
2.869839 17.656678 22.352598 28.629232 1.409670 0.674913 0.018786 0.002482 611656.000000 0 0 1
4.267739 17.989978 21.740398 28.539408 1.337873 0.704759 0.029029 -0.004066 122163.000000 0 0 1
5.094939 18.747878 22.541898 29.758671 1.305444 0.711336 0.032967 0.000100 -769710.000000 0 0 1
6.228939 19.167178 21.802098 29.690266 1.256583 0.746135 0.053472 -0.008025 31403.300000 0 0 1
7.267139 19.828478 22.757698 31.046621 1.219498 0.748050 0.066947 -0.009840 -299251.000000 0 0 1
6.921139 21.015878 23.381168 32.190811 1.252654 0.757828 0.056415 -0.003279 -208235.000000 0 0 1
6.872439 22.185578 22.593798 32.402315 1.270400 0.799187 0.056861 -0.009855 -734677.000000 0 0 1
5.763239 23.066078 23.096438 33.146709 1.325952 0.799878 0.035402 -0.002675 -758958.000000 0 0 1
5.381539 24.131778 22.309698 33.302047 1.351380 0.836696 0.038093 -0.012220 -554358.000000 0 0 1
4.356539 24.739078 23.007698 34.063993 1.396484 0.829254 0.019369 -0.002281 -974922.000000 0 0 1
4.114639 26.060678 22.302098 34.546675 1.414202 0.869034 0.049066 -0.009626 -59635.200000 0 0 1
3.850639 26.044278 20.896398 33.612368 1.424010 0.899901 0.055181 -0.020584 462288.000000 0 0 1
2.746439 25.224678 20.482298 32.609076 1.462344 0.891666 0.048217 -0.016959 -51639.200000 0 0 1
2.305639 25.723078 19.105498 32.124956 1.481402 0.933873 0.048529 -0.019762 -403053.000000 0 0 1
1.454939 26.850878 19.178498 33.028795 1.516663 0.951257 0.049388 -0.024182 235293.000000 0 0 1
1.093939 27.236578 17.849698 32.582812 1.530654 0.991033 0.057732 -0.021934 619240.000000 0 0 1
-0.140361 28.217278 17.857298 33.393376 -1.565822 1.006578 0.041807 -0.008049 450629.000000 0 0 1
0.168339 29.397878 18.506798 34.738525 1.565070 1.008955 0.060105 -0.013584 149750.000000 0 0 1
-0.925361 30.272778 18.614798 35.550079 -1.540238 1.019700 0.041826 -0.007357 -89410.900000 0 0 1
-0.438461 31.592678 19.230298 36.987754 -1.556919 1.024051 0.042913 -0.002986 229292.000000 0 0 1
-0.013961 31.453378 20.597698 37.597611 -1.570352 0.991009 0.044569 -0.005371 -169724.000000 0 0 1
0.497139 32.674178 20.951498 38.817706 1.555582 1.000667 0.049706 -0.015746 -440712.000000 0 0 1
1.178739 32.692178 22.320198 39.602515 1.534756 0.972052 0.056545 -0.024603 -345962.000000 0 0 1
0.302439 32.603378 23.392468 40.128285 1.561520 0.948451 0.058468 -0.010658 475594.000000 0 0 1
1.061739 32.647578 24.596648 40.889934 1.538287 0.925377 0.067331 -0.016615 575254.000000 0 0 1
0.015339 32.292578 25.665978 41.249888 1.570321 0.899237 0.061052 -0.009539 941257.000000 0 0 1
-1.040361 33.252278 25.974398 42.207413 -1.539520 0.907904 0.061490 -0.004740 968889.000000 0 0 1
-1.876461 32.789678 27.028888 42.535219 -1.513631 0.882209 0.075003 -0.009873 10246.600000 0 0 1
-1.276061 32.957878 28.417878 43.536489 -1.532098 0.859605 0.097221 -0.020303 -314684.000000 0 0 1
-0.242561 32.101678 28.879198 43.180837 -1.563240 0.838207 0.081463 -0.017532 278128.000000 0 0 1
0.377339 32.789378 29.938398 44.402628 1.559289 0.830850 0.076918 -0.020652 -1346900.000000 0 0 1
1.550239 32.061578 30.530998 44.299999 1.522482 0.810429 0.062887 -0.011550 -81170.300000 0 0 1
2.852339 32.151178 29.946708 44.029983 1.482312 0.822838 0.039228 -0.009321 679497.000000 0 0 1
3.023339 31.704278 28.615018 42.814963 1.475723 0.838819 0.035883 -0.012702 -1216670.000000 0 0 1
4.485439 31.579078 28.183598 42.563747 1.429702 0.847112 0.006969 -0.007453 -366762.000000 0 0 1
4.949339 30.364778 28.712668 42.082455 1.409221 0.819898 0.014305 -0.010541 959351.000000 0 0 1
6.368839 30.151678 28.556868 42.014051 1.362630 0.823445 0.011918 -0.015715 1139710.000000 0 0 1
6.975439 29.055178 29.473318 41.970664 1.335180 0.792263 0.010650 -0.010833 -52541.600000 0 0 1
6.915739 29.417578 30.778908 43.134238 1.339900 0.776228 0.021812 -0.013155 121256.000000 0 0 1
7.388939 28.385278 31.633068 43.138978 1.316139 0.747659 0.018673 -0.009030 -154147.000000 0 0 1
7.431039 28.634778 33.143668 44.426047 1.316886 0.728699 0.045096 -0.038003 -358818.000000 0 0 1
6.125639 28.537878 33.702893 44.584963 1.359355 0.713730 0.051984 -0.040346 -54601.900000 0 0 1
6.005739 28.099978 -33.025077 43.775945 1.360237 2.425553 0.083972 -0.047196 -100543.000000 0 0 1
6.135939 26.577178 -32.867587 42.711525 1.343899 2.448893 0.081537 -0.046204 1185350.000000 0 0 1
7.474039 26.095278 -33.177717 42.867070 1.291850 2.455879 0.057910 -0.043307 1080480.000000 0 0 1
7.595339 24.714678 -32.962727 41.893267 1.272637 2.476446 0.081110 -0.042643 682951.000000 0 0 1
9.061039 24.142078 -32.998627 41.879013 1.211744 2.478271 0.061319 -0.037657 81879.200000 0 0 1
9.416739 24.099378 33.662184 42.457009 1.198293 0.655319 0.039936 -0.026702 233009.000000 0 0 1
10.640939 23.394378 33.463003 42.193591 1.143916 0.654943 0.059284 -0.041824 76316.900000 0 0 1
10.707239 21.893778 33.858799 41.718111 1.115944 0.623895 0.065126 -0.041736 -448656.000000 0 0 1
9.873939 21.166178 32.922100 40.365411 1.134309 0.617028 0.050845 -0.042049 651406.000000 0 0 1
9.441239 19.869578 33.336790 39.940940 1.127217 0.583295 0.050845 -0.034807 698216.000000 0 0 1
8.104839 19.804378 -33.900777 40.089456 1.182346 2.578537 0.085807 -0.040009 292389.000000 0 0 1
8.265339 20.332878 -32.601577 39.301457 1.184698 2.549055 0.082758 -0.037268 47091.900000 0 0 1
7.122539 21.007778 -32.108887 39.026118 1.243916 2.537035 0.100678 -0.036980 59468.400000 0 0 1
7.344439 21.433478 -30.619237 38.090319 1.240674 2.504551 0.112821 -0.054465 472242.000000 0 0 1
8.283839 22.519378 -30.634247 38.912741 1.218305 2.477141 0.117222 -0.054373 265817.000000 0 0 1
8.568239 23.036778 -29.356827 38.287480 1.214713 2.444555 0.085881 -0.053385 -1209040.000000 0 0 1
10.029439 23.131078 -29.028637 38.448643 1.161671 2.426447 0.088984 -0.050360 -1013490.000000 0 0 1
10.555539 21.858578 -28.789257 37.656847 1.120921 2.441086 0.082366 -0.047882 393224.000000 0 0 1
11.990839 21.877678 -28.772837 38.082662 1.069424 2.427269 0.073093 -0.049543 670005.000000 0 0 1
12.627239 20.488978 -28.715457 37.467624 1.018482 2.444025 0.081690 -0.052891 -249634.000000 0 0 1
12.517039 19.771178 -29.960597 38.015958 1.006397 2.478522 0.065924 -0.043473 -69549.500000 0 0 1
11.222539 19.329178 -30.301157 37.652657 1.044763 2.506059 0.088396 -0.042197 -174441.000000 0 0 1
11.209639 18.412778 -31.552407 38.213097 1.023934 2.542231 0.077606 -0.037686 -351495.000000 0 0 1
11.574639 17.074178 -31.335977 37.515907 0.975055 2.559423 0.076553 -0.026816 146426.000000 0 0 1
11.520039 16.257778 -32.520777 38.139580 0.954331 2.591886 0.062139 -0.013757 795131.000000 0 0 1
12.742839 16.478178 -33.528437 39.472349 0.912539 2.585674 0.048008 0.002139 668949.000000 0 0 1
12.874439 17.747878 33.971163 40.432391 0.943221 0.573150 0.053629 -0.013948 -128619.000000 0 0 1
13.429339 17.756078 32.653867 39.520887 0.923260 0.598391 0.058136 -0.014750 250486.000000 0 0 1
12.557739 17.192578 31.446618 37.975931 0.939947 0.595145 0.070676 -0.035757 -866988.000000 0 0 1
12.903439 17.801478 30.220338 37.371917 0.943585 0.628964 0.061587 -0.031555 -270521.000000 0 0 1
12.129439 17.458678 29.106968 36.043645 0.963602 0.630814 0.064541 -0.036322 -482828.000000 0 0 1
10.673239 17.957378 29.192008 35.896501 1.034530 0.621120 0.061864 -0.032714 -856275.000000 0 0 1
9.968739 17.086778 30.038368 35.967170 1.042658 0.582371 0.063198 -0.031739 -274963.000000 0 0 1
8.674939 17.641778 30.297938 36.117197 1.113789 0.575577 0.071831 -0.029678 687226.000000 0 0 1
7.811839 16.720978 31.246388 36.289843 1.133741 0.533519 0.086732 -0.029396 204784.000000 0 0 1
8.036539 16.790278 32.629055 37.565338 1.124380 0.518437 0.097396 -0.030347 22792.900000 0 0 1
7.447839 15.757378 33.384288 37.660005 1.129261 0.481146 0.122710 -0.034093 -179751.000000 0 0 1
7.617739 16.035378 -33.173457 37.625012 1.127300 2.650221 0.130781 -0.037242 -450660.000000 0 0 1
6.591939 16.799578 -32.621947 37.280972 1.196870 2.636293 0.133753 -0.037889 -236490.000000 0 0 1
6.600839 16.780478 -31.249947 36.079283 1.196024 2.618236 0.131599 -0.048027 -334268.000000 0 0 1
5.512139 17.658278 -30.630667 35.783183 1.268225 2.598293 0.131245 -0.052639 -484316.000000 0 0 1
5.441239 17.621278 -29.219507 34.552801 1.271297 2.578574 0.122898 -0.059869 114951.000000 0 0 1
4.731939 18.662378 -28.555607 34.439777 1.322475 2.548375 0.134207 -0.061045 794237.000000 0 0 1
3.172539 18.630778 -28.483417 34.182977 1.402129 2.555780 0.143557 -0.063809 -305200.000000 0 0 1
2.664139 17.577678 -27.677127 32.895224 1.420377 2.570614 0.156453 -0.062171 -445309.000000 0 0 1
1.302639 17.301478 -27.697387 32.683073 1.495648 2.581966 0.144988 -0.060952 -232630.000000 0 0 1
0.267739 18.435478 -27.407497 33.031945 1.556274 2.549415 0.134016 -0.068466 -588713.000000 0 0 1
0.252539 18.908278 -26.078727 32.213145 1.557441 2.514212 0.151748 -0.069496 59330.100000 0 0 1
-0.622061 20.007578 -25.932787 32.759725 -1.539715 2.484229 0.143011 -0.065579 -161736.000000 0 0 1
-1.197061 20.421978 -24.571737 31.972807 -1.512247 2.447321 0.133471 -0.062610 -221483.000000 0 0 1
-2.151461 19.503278 -24.116337 31.090261 -1.460928 2.458601 0.122825 -0.057315 -383914.000000 0 0 1
-2.561161 20.011178 -22.894037 30.514647 -1.443502 2.419257 0.123310 -0.051748 -27439.800000 0 0 1
-3.642061 19.195578 -22.125637 29.517429 -1.383291 2.418222 0.088721 -0.042662 1808070.000000 0 0 1
-4.998361 19.543978 -22.567337 30.269380 -1.320414 2.412156 0.072732 -0.037275 2018820.000000 0 0 1
-5.977661 18.536678 -22.100637 29.458089 -1.258848 2.419221 0.069254 -0.043321 1867980.000000 0 0 1
-7.455561 19.067378 -22.264837 30.246872 -1.198063 2.398092 0.090524 -0.036317 893867.000000 0 0 1
-7.885961 19.949878 -21.249837 30.195059 -1.194358 2.351461 0.063941 -0.031280 123057.000000 0 0 1
-7.474461 21.305478 -21.521537 31.192427 -1.233388 2.332231 0.064474 -0.037837 -222641.000000 0 0 1
-8.014561 22.348878 -20.521437 31.382079 -1.226471 2.283553 0.064603 -0.041925 -157063.000000 0 0 1
-7.375461 22.296578 -19.268737 30.377937 -1.251337 2.257900 0.082665 -0.046633 -8564.850000 0 0 1
-7.761061 23.371678 -18.473737 30.785522 -1.250182 2.214396 0.095621 -0.047904 -379019.000000 0 0 1
-6.916661 23.560478 -17.216237 29.988917 -1.285249 2.182285 0.102001 -0.040947 419178.000000 0 0 1
-5.597861 24.074578 -17.391437 30.222234 -1.342334 2.183953 0.098397 -0.043339 208932.000000 0 0 1
-4.821561 23.992878 -16.209637 29.354011 -1.372480 2.155811 0.090776 -0.027272 -11880.800000 0 0 1
-3.312261 24.076378 -16.485337 29.366807 -1.434081 2.166824 0.081685 -0.025643 -141705.000000 0 0 1
-2.863261 25.375078 -16.641337 30.479943 -1.458434 2.148351 0.052691 -0.024020 -430410.000000 0 0 1
-1.610661 25.524478 -17.254537 30.851454 -1.507777 2.164311 0.055083 -0.026934 -251229.000000 0 0 1
-1.145561 26.964078 -17.370137 32.095100 -1.528337 2.142670 0.035776 -0.038999 86342.900000 0 0 1
-2.023761 27.885078 -18.038037 33.272270 -1.498348 2.143771 0.047080 -0.043080 132288.000000 0 0 1
-1.337161 29.067278 -18.410937 34.433374 -1.524826 2.134929 0.057622 -0.053155 -750660.000000 0 0 1
-2.163161 29.942678 -19.375237 35.730142 -1.498678 2.143928 0.108203 -0.061579 1303940.000000 0 0 1
-3.414061 30.505778 -18.902137 36.049259 -1.459345 2.122738 0.078441 -0.055376 1232560.000000 0 0 1
-4.447661 29.541678 -18.625437 35.205104 -1.421363 2.128283 0.046067 -0.055508 -297761.000000 0 0 1
-5.482661 30.131878 -17.616037 35.331493 -1.390810 2.092771 0.077075 -0.038404 547320.000000 0 0 1
-6.328861 31.147178 -18.105037 36.578594 -1.370333 2.088588 0.102784 -0.039054 454771.000000 0 0 1
-5.772961 32.356278 -17.647637 37.305427 -1.394236 2.063555 0.094647 -0.061886 -74887.700000 0 0 1
-6.434361 33.542878 -18.340937 38.767456 -1.381274 2.063604 0.090625 -0.040973 -206764.000000 0 0 1
-7.813961 33.636778 -18.088237 38.983011 -1.342541 2.053305 0.110771 -0.054371 48690.700000 0 0 1
-8.235961 -33.103056 -18.132937 38.632199 1.326950 2.059378 0.159468 -0.047589 64752.700000 0 0 1
29.849639 -20.321722 -26.269117 44.654673 -0.597726 2.199717 0.052932 -0.000978 151770.000000 0 0 1
29.302539 -21.512022 -25.755227 44.550393 -0.633270 2.187212 0.066486 -0.007960 857955.000000 0 0 1
27.980339 -21.808822 -26.281787 44.150384 -0.662074 2.208409 0.059096 -0.009745 1111720.000000 0 0 1
27.431339 -23.086922 -25.591517 44.050085 -0.699612 2.190709 0.065052 -0.013719 107495.000000 0 0 1
27.864639 -24.381522 -26.077877 45.287441 -0.718829 2.184416 0.054594 0.004950 260588.000000 0 0 1
29.247939 -24.689122 -25.884797 46.206248 -0.701078 2.165425 0.061065 0.005817 502101.000000 0 0 1
29.693539 -26.057602 -26.500757 47.570947 -0.720273 2.161660 0.061777 -0.001231 -43992.400000 0 0 1
29.470339 -27.089592 -25.580647 47.504909 -0.743331 2.139434 0.074936 -0.015444 -168853.000000 0 0 1
29.682439 -28.391702 -26.214637 48.727231 -0.763176 2.138844 0.058627 -0.012792 144726.000000 0 0 1
28.621939 -28.959262 -27.202787 48.967804 -0.791256 2.159789 0.053647 -0.015497 -139042.000000 0 0 1
28.559739 -28.302852 -28.489537 49.278431 -0.780881 2.187236 0.033925 -0.015102 325794.000000 0 0 1
29.547139 -28.587572 -29.505167 50.604718 -0.768894 2.193276 0.007041 -0.016690 -163820.000000 0 0 1
29.699839 -29.989852 -30.136487 51.862120 -0.790257 2.190862 0.018161 -0.013155 -368949.000000 0 0 1
30.374639 -31.027762 -29.400607 52.437929 -0.796035 2.165996 0.026655 -0.013579 660018.000000 0 0 1
31.687039 -30.785702 -28.894097 52.789172 -0.770971 2.149990 0.037737 -0.015199 1123130.000000 0 0 1
32.882739 -30.589662 -29.923217 53.966664 -0.749287 2.158529 0.029290 -0.018418 346587.000000 0 0 1
32.653839 -29.471182 -30.729207 53.657319 -0.734213 2.180584 0.034055 -0.025145 -1065770.000000 0 0 1
33.887639 -28.954002 -31.047597 54.319974 -0.707050 2.179213 0.031437 -0.020894 -927632.000000 0 0 1
33.809239 -27.538572 -31.732437 53.929446 -0.683537 2.199883 0.022862 -0.014583 -117890.000000 0 0 1
33.606139 -26.388182 -30.952797 52.761580 -0.665663 2.197717 0.016191 -0.003215 687938.000000 0 0 1
32.312339 -26.207552 -30.329637 51.486016 -0.681454 2.200722 0.028649 -0.005978 673749.000000 0 0 1
32.121239 -24.932922 -29.533707 50.255989 -0.660067 2.198967 0.033955 -0.008498 -170118.000000 0 0 1
32.788339 -25.009522 -28.293127 50.010522 -0.651615 2.172131 0.034990 0.004057 104205.000000 0 0 1
32.749339 -23.694022 -27.758897 49.035520 -0.626322 2.172561 0.028343 0.001131 267055.000000 0 0 1
33.745839 -23.471322 -26.560177 48.940041 -0.607721 2.144455 0.019228 -0.003384 14351.800000 0 0 1
33.436239 -24.240622 -25.349527 48.458109 -0.627295 2.121307 0.030750 -0.005252 -262826.000000 0 0 1
32.567139 -23.558822 -24.490137 47.068072 -0.626254 2.118014 0.049377 -0.004494 -659270.000000 0 0 1
32.908639 -22.367522 -23.580637 46.252902 -0.596962 2.105771 0.036665 0.002764 -485208.000000 0 0 1
33.079039 -21.121822 -24.243137 46.131159 -0.568267 2.124130 0.027174 -0.001235 29629.600000 0 0 1
33.345839 -20.039922 -23.384437 45.391357 -0.541134 2.112007 0.007307 -0.004166 132391.000000 0 0 1
33.699139 -18.764722 -24.182537 45.525178 -0.508073 2.130801 0.002586 -0.002499 -1163670.000000 0 0 1
32.635439 -18.340822 -24.888737 44.954497 -0.512003 2.157529 0.007910 -0.007709 -954031.000000 0 0 1
32.876739 -17.192522 -25.664477 45.112394 -0.481830 2.175965 0.001519 -0.012780 -150953.000000 0 0 1
31.894939 -17.199422 -26.874997 45.115105 -0.494554 2.208931 0.006115 -0.005364 -562486.000000 0 0 1
30.590739 -16.913422 -26.498017 43.863447 -0.505062 2.219435 0.021079 -0.006665 -820589.000000 0 0 1
29.862539 -16.648522 -27.649887 43.971135 -0.508587 2.250830 0.035222 -0.007861 380294.000000 0 0 1
28.392939 -16.100022 -27.497667 42.678933 -0.515834 2.270893 0.049892 -0.003308 831785.000000 0 0 1
27.447439 -16.955622 -26.911277 42.012758 -0.553368 2.266011 0.035520 0.003434 -15410.100000 0 0 1
27.481339 -17.022122 -25.455187 41.145390 -0.554567 2.237838 0.058824 -0.001766 -697488.000000 0 0 1
26.339239 -17.822422 -24.849837 40.359740 -0.594882 2.234081 0.064856 -0.009449 -409475.000000 0 0 1
26.499839 -17.904122 -23.443737 39.653598 -0.594183 2.203359 0.073319 0.001892 74991.700000 0 0 1
25.489039 -18.694022 -22.851237 39.004315 -0.632801 2.196743 0.083673 -0.004855 -35830.700000 0 0 1
25.291339 -18.480622 -21.352537 37.909313 -0.631040 2.169114 0.077630 -0.014232 304773.000000 0 0 1
24.565239 -17.297422 -20.874237 36.583952 -0.613501 2.178014 0.076288 -0.019206 683915.000000 0 0 1
25.160439 -16.019522 -21.170837 36.577002 -0.566965 2.188055 0.081289 -0.014681 401844.000000 0 0 1
26.432039 -15.620422 -20.360237 36.840053 -0.533750 2.156356 0.062326 -0.009732 443542.000000 0 0 1
26.180739 -14.744422 -19.276637 35.698988 -0.512905 2.141206 0.059263 -0.020526 828759.000000 0 0 1
27.408839 -14.034222 -19.114937 36.243408 -0.473227 2.126339 0.039782 -0.015654 377856.000000 0 0 1
27.305139 -12.909322 -18.064237 35.192866 -0.441635 2.109813 0.056208 -0.018684 -103374.000000 0 0 1
27.632239 -13.413122 -16.781437 35.000987 -0.451912 2.070831 0.053374 -0.017158 88539.600000 0 0 1
27.652439 -12.324522 -15.789037 34.144471 -0.419267 2.051517 0.042483 -0.015315 -27525.000000 0 0 1
28.090939 -12.675922 -14.361737 34.000578 -0.423890 2.006884 0.058095 -0.013831 -310770.000000 0 0 1
27.266339 -13.656322 -13.828337 33.483895 -0.464327 1.996525 0.079883 -0.025044 35275.900000 0 0 1
27.715439 -13.957622 -12.551537 33.473898 -0.466527 1.955155 0.089473 -0.021344 -123337.000000 0 0 1
27.140239 -15.275322 -11.953237 33.358775 -0.512640 1.937268 0.083504 -0.031189 671913.000000 0 0 1
25.727339 -15.163222 -11.737237 32.087100 -0.532575 1.945281 0.068517 -0.028993 807801.000000 0 0 1
25.260739 -16.374222 -11.127037 32.094096 -0.575115 1.924847 0.049778 -0.030542 1837660.000000 0 0 1
23.744339 -16.492722 -10.591237 30.789248 -0.607090 1.921961 0.045872 -0.026925 1708620.000000 0 0 1
23.558439 -15.832022 -9.364937 29.889045 -0.591708 1.889487 0.035804 -0.022638 1179330.000000 0 0 1
22.154839 -15.791622 -9.043337 28.670440 -0.619255 1.891699 0.029470 -0.020466 676438.000000 0 0 1
21.848539 -15.423822 -7.534937 27.785395 -0.614703 1.845419 0.032605 -0.016682 -365206.000000 0 0 1
22.144539 -14.080022 -7.204037 27.212603 -0.566345 1.838722 0.044447 -0.005750 330471.000000 0 0 1
22.076139 -13.772922 -5.842037 26.667933 -0.557795 1.791653 0.054262 -0.005765 250372.000000 0 0 1
23.091439 -14.516622 -4.890437 27.710345 -0.561226 1.748210 0.053912 -0.009854 106370.000000 0 0 1
24.462639 -14.223422 -5.084837 28.750339 -0.526657 1.748593 0.045975 -0.008692 -144731.000000 0 0 1
25.143939 -14.938022 -4.137537 29.537796 -0.536070 1.711335 0.047394 -0.018472 -929275.000000 0 0 1
26.655439 -14.700822 -4.179137 30.726076 -0.504004 1.707232 0.055401 -0.016693 -478477.000000 0 0 1
27.022339 -13.450922 -3.632837 30.402822 -0.461862 1.690573 0.062923 -0.020012 -23205.200000 0 0 1
28.304539 -13.064122 -4.074537 31.439148 -0.432422 1.700763 0.072532 -0.021159 -254306.000000 0 0 1
28.898339 -11.895022 -3.224537 31.416607 -0.390480 1.673615 0.097129 -0.035542 -1222590.000000 0 0 1
29.436839 -12.297822 -2.004437 31.965320 -0.395731 1.633544 0.109204 -0.043367 485989.000000 0 0 1
30.108239 -11.195122 -1.329437 32.149715 -0.355988 1.612160 0.115286 -0.039956 1541840.000000 0 0 1
31.568339 -10.742522 -1.780537 33.393594 -0.328002 1.624141 0.112771 -0.035597 722960.000000 0 0 1
31.544639 -10.457122 -3.138837 33.380652 -0.320102 1.664967 0.113014 -0.033047 393372.000000 0 0 1
32.777239 -10.675222 -3.822537 34.683130 -0.314856 1.681234 0.136773 -0.035696 37484.500000 0 0 1
32.529939 -10.428522 -5.300637 34.569462 -0.310231 1.724737 0.136834 -0.028147 343733.000000 0 0 1
31.554739 -11.351722 -5.830737 34.037635 -0.345332 1.742948 0.111346 -0.027807 677451.000000 0 0 1
31.174839 -11.162222 -7.180637 33.882552 -0.343830 1.784343 0.114684 -0.019326 630295.000000 0 0 1
29.785339 -11.861122 -7.416637 32.906825 -0.378971 1.798132 0.085904 -0.016323 467709.000000 0 0 1
29.827139 -13.295122 -7.463437 33.498080 -0.419305 1.795484 0.086220 -0.015378 -278314.000000 0 0 1
28.617639 -13.957822 -7.722137 32.763111 -0.453787 1.808731 0.087934 -0.012579 -393963.000000 0 0 1
28.577239 -15.497522 -7.853937 33.444223 -0.496915 1.807847 0.085088 -0.016630 -269334.000000 0 0 1
29.297639 -15.832722 -8.999737 34.496695 -0.495450 1.834737 0.099930 -0.026404 242571.000000 0 0 1
29.618439 -17.184522 -9.156537 35.445760 -0.525731 1.832085 0.097040 -0.026698 -131557.000000 0 0 1
30.095339 -17.648722 -10.527337 36.442168 -0.530380 1.863851 0.092712 -0.029121 -28593.400000 0 0 1
31.383539 -17.218422 -10.928537 37.427710 -0.501802 1.867104 0.105688 -0.019111 469862.000000 0 0 1
31.675939 -17.723622 -12.261737 38.312427 -0.510130 1.896574 0.097028 -0.014917 -210831.000000 0 0 1
30.990139 -17.122422 -13.486937 37.887511 -0.504770 1.934752 0.086046 -0.017783 -360626.000000 0 0 1
31.572439 -15.903222 -13.944437 38.002351 -0.466608 1.946510 0.086045 -0.014956 333852.000000 0 0 1
30.873039 -15.262822 -15.031237 37.577072 -0.459137 1.982325 0.078250 -0.020950 -515388.000000 0 0 1
31.631839 -14.153622 -15.819937 38.094207 -0.420730 1.999052 0.063102 -0.009031 881806.000000 0 0 1
32.762039 -14.524122 -16.649137 39.515757 -0.417286 2.005707 0.037791 -0.015088 1816970.000000 0 0 1
33.990539 -14.763622 -15.920637 40.333459 -0.409759 1.976565 0.049502 -0.017012 -96370.500000 0 0 1
35.091639 -15.149622 -16.919037 41.799377 -0.407545 1.987521 0.046614 -0.017142 -718278.000000 0 0 1
36.310639 -15.262222 -16.207237 42.591929 -0.397903 1.961159 0.051976 -0.017798 -282890.000000 0 0 1
-36.382181 -15.429222 -17.167037 43.086322 0.401097 1.980605 0.046676 -0.019412 917706.000000 0 0 1
-34.857981 -15.451022 -16.714837 41.631703 0.417232 1.983943 0.057473 -0.021207 1189120.000000 0 0 1
-34.263581 -16.294022 -15.786337 41.093753 0.443896 1.965088 0.050810 -0.021355 74087.500000 0 0 1
-34.790981 -16.177922 -14.502137 41.017673 0.435260 1.932169 0.034815 -0.014346 -538028.000000 0 0 1
-34.127681 -17.221422 -13.586337 40.569256 0.467335 1.912287 0.031531 -0.008376 363075.000000 0 0 1
-32.792881 -16.886322 -13.214037 39.180756 0.475527 1.914799 0.044773 -0.013735 302232.000000 0 0 1
-32.301481 -17.575322 -12.139937 38.725388 0.498304 1.889660 0.049100 -0.004828 166603.000000 0 0 1
-30.997581 -16.940822 -11.586837 37.176555 0.500168 1.887747 0.090844 -0.014729 188374.000000 0 0 1
-31.304381 -15.560422 -11.213037 36.712711 0.461300 1.881183 0.074911 -0.031343 -105143.000000 0 0 1
-30.431081 -14.895322 -10.361037 35.429823 0.455194 1.867572 0.112206 -0.050533 -836603.000000 0 0 1
-30.533381 -15.290122 -8.835837 35.272470 0.464261 1.823995 0.099342 -0.038348 -206086.000000 0 0 1
-30.217481 -16.633222 -8.557637 35.538618 0.503189 1.813985 0.073505 -0.028851 -1838.830000 0 0 1
-30.347781 -16.886622 -7.180337 35.464109 0.507772 1.774673 0.111929 -0.030245 -112018.000000 0 0 1
-30.322481 -18.382522 -6.890337 36.122662 0.544991 1.762721 0.095925 -0.030191 290255.000000 0 0 1
-31.425181 -19.154122 -7.354437 37.530123 0.547387 1.768034 0.075245 -0.022401 26647.500000 0 0 1
-31.254181 -19.599022 -8.672937 37.896772 0.560097 1.801700 0.064038 -0.012390 138767.000000 0 0 1
-32.457681 -20.416922 -9.212337 39.436264 0.561494 1.806575 0.053332 -0.009788 799800.000000 0 0 1
-33.561581 -19.664122 -9.716137 40.093150 0.529996 1.815572 0.044323 -0.010386 857555.000000 0 0 1
-34.738481 -20.408722 -9.978837 41.507290 0.531175 1.813586 0.032269 -0.008313 452415.000000 0 0 1
-36.054181 -19.668522 -10.254237 42.330888 0.499402 1.815470 0.042116 -0.016426 -23883.100000 0 0 1
-36.297181 -19.208222 -11.597437 42.672493 0.486729 1.846036 0.030446 -0.015472 -284130.000000 0 0 1
36.134239 -18.628422 -11.741237 42.314985 -0.475997 1.851958 0.076374 -0.024188 -319619.000000 0 0 1
35.834439 -18.353522 -13.239637 42.382151 -0.473341 1.888501 0.066081 -0.018148 -204712.000000 0 0 1
35.432239 -19.482722 -13.942737 42.771718 -0.502735 1.902845 0.046473 -0.015174 -59291.600000 0 0 1
35.029339 -19.319222 -15.259237 42.815082 -0.504006 1.935207 0.041701 -0.011039 475045.000000 0 0 1
33.816239 -20.284322 -15.568537 42.395413 -0.540302 1.946817 0.061817 -0.019389 859145.000000 0 0 1
32.653439 -19.911022 -14.817337 41.015233 -0.547571 1.940420 0.077337 -0.022911 1092560.000000 0 0 1
31.494539 -20.768122 -14.894937 40.559586 -0.582969 1.946832 0.077795 -0.028206 1348140.000000 0 0 1
30.538839 -20.320322 -16.074837 40.049176 -0.587120 1.983817 0.069417 -0.023865 -329563.000000 0 0 1
29.991839 -19.035822 -15.783337 38.871411 -0.565544 1.988913 0.062369 -0.024171 244764.000000 0 0 1
29.049739 -18.835822 -16.841637 38.500860 -0.575249 2.023541 0.050532 -0.024283 91568.400000 0 0 1
28.282439 -17.481822 -16.730037 37.221023 -0.553634 2.036977 0.055002 -0.015446 343985.000000 0 0 1
27.267239 -17.591322 -15.709537 36.051997 -0.572955 2.021664 0.067822 -0.026950 436150.000000 0 0 1
26.501639 -16.433022 -15.727037 34.924501 -0.555050 2.037915 0.056756 -0.023018 -1813130.000000 0 0 1
25.076439 -16.436722 -15.183537 33.608532 -0.580207 2.039552 0.048506 -0.028674 -793071.000000 0 0 1
24.120139 -17.047422 -15.969437 33.577055 -0.615256 2.066449 0.055652 -0.029425 -167701.000000 0 0 1
23.806139 -16.296922 -17.101437 33.537755 -0.600294 2.105883 0.063128 -0.028235 -980663.000000 0 0 1
22.723939 -16.978622 -17.997137 33.593867 -0.641687 2.136165 0.068845 -0.022134 2137370.000000 0 0 1
21.312239 -16.838522 -17.622637 32.377533 -0.668667 2.146334 0.066956 -0.018502 1923780.000000 0 0 1
20.467739 -17.620522 -18.465137 32.716546 -0.710784 2.170500 0.063561 -0.019601 -87891.600000 0 0 1
19.098639 -17.972022 -17.911937 31.758291 -0.755016 2.170028 0.063126 -0.015803 -328224.000000 0 0 1
18.202139 -16.893622 -17.798737 30.553352 -0.748131 2.192654 0.072474 -0.015937 545896.000000 0 0 1
16.889739 -17.320922 -17.441337 29.824115 -0.798001 2.195438 0.069234 -0.016363 744574.000000 0 0 1
15.934439 -16.182222 -16.913637 28.316810 -0.793113 2.210927 0.067501 -0.005303 83407.000000 0 0 1
15.354539 -15.541122 -18.023137 28.321755 -0.791437 2.260581 0.064065 0.003499 32037.100000 0 0 1
14.286239 -14.693922 -17.669237 27.059377 -0.799465 2.282309 0.066190 0.002888 -404583.000000 0 0 1
13.492739 -14.297222 -18.900737 27.270908 -0.814339 2.336540 0.051767 -0.001559 -327524.000000 0 0 1
13.984939 -13.332922 -19.806037 27.669919 -0.761535 2.368561 0.064545 -0.009063 166948.000000 0 0 1
13.035239 -13.188522 -20.860037 27.910494 -0.791243 2.414922 0.060119 -0.002619 370103.000000 0 0 1
13.004439 -11.712522 -21.301337 27.568923 -0.733177 2.453813 0.063367 -0.009697 -163899.000000 0 0 1
14.232939 -11.265322 -21.839137 28.397745 -0.669534 2.448142 0.063575 -0.008047 -225424.000000 0 0 1
14.263239 -9.870822 -22.054637 28.058512 -0.605368 2.475146 0.056530 -0.012769 -68599.200000 0 0 1
15.536239 -9.342422 -22.726637 29.071560 -0.541398 2.468261 0.063988 -0.005089 -36713.600000 0 0 1
15.851339 -9.863422 -23.986137 30.395506 -0.556616 2.480195 0.079168 -0.007781 216181.000000 0 0 1
17.178839 -9.536522 -24.369837 31.304100 -0.506775 2.463048 0.086739 -0.019237 145752.000000 0 0 1
22.117139 5.311978 -6.954037 23.785364 0.235710 1.867497 0.109209 0.008083 -240279.000000 0 1 0
21.978339 6.630778 -7.355737 24.106461 0.293012 1.880877 0.105729 0.001982 630536.000000 0 1 0
21.748339 7.511878 -6.265937 23.847023 0.332571 1.836673 0.107348 0.004610 -260786.000000 0 1 0
21.435739 8.969078 -6.656037 24.171017 0.396282 1.849774 0.091939 0.014251 -155594.000000 0 1 0
20.066639 9.201778 -6.983137 23.153982 0.429950 1.877162 0.034918 -0.004325 801591.000000 0 1 0
19.711539 10.518578 -6.684037 23.320840 0.490185 1.861485 0.041556 -0.005244 -212899.000000 0 1 0
19.575439 11.064278 -5.303837 23.102959 0.514447 1.802436 0.081066 -0.007723 -39814.100000 0 1 0
20.810739 11.253278 -4.601337 24.101772 0.495709 1.762888 0.103726 -0.006766 767206.000000 0 1 0
20.706839 12.376278 -3.692737 24.404543 0.538720 1.722693 0.132646 -0.025908 -59824.200000 0 1 0
21.864439 12.416078 -2.681937 25.286468 0.516457 1.677058 0.116729 -0.037914 -703328.000000 0 0 1
23.119139 12.781178 -3.223037 26.612799 0.505021 1.692203 0.110335 -0.045873 404935.000000 0 0 1
24.028539 13.011678 -2.167137 27.411146 0.496301 1.649939 0.118929 -0.046429 -203381.000000 0 0 1
24.808239 11.783578 -1.611937 27.511811 0.443437 1.629421 0.102820 -0.046907 -1203400.000000 0 0 1
25.840139 11.274078 -2.396337 28.294170 0.411404 1.655592 0.079070 -0.037066 -28011.200000 0 0 1
26.564939 10.306778 -1.658937 28.542560 0.370105 1.628951 0.109729 -0.042466 560624.000000 0 0 1
28.021539 9.982478 -2.137237 29.823217 0.342226 1.642521 0.105373 -0.034087 785325.000000 0 0 1
28.850839 11.156678 -2.084337 31.003013 0.368990 1.638077 0.086873 -0.034797 1086650.000000 0 0 1
30.233439 10.762678 -2.167837 32.165130 0.341997 1.638245 0.097727 -0.030608 348487.000000 0 0 1
31.218739 11.839178 -1.784237 33.435898 0.362477 1.624185 0.076474 -0.026282 -939638.000000 0 0 1
31.203339 12.063278 -0.444137 33.456962 0.368903 1.584072 0.085539 -0.034314 173706.000000 0 0 1
32.027339 13.140278 -0.079737 34.618257 0.389340 1.573100 0.070097 -0.030111 -615981.000000 0 0 1
33.533639 12.892378 0.074963 35.926647 0.367039 1.568710 0.082638 -0.030324 -643075.000000 0 0 1
34.221839 14.058378 0.524463 37.000639 0.389783 1.556621 0.073718 -0.028254 -342690.000000 0 0 1
35.050339 14.565078 -0.447637 37.958769 0.393837 1.582589 0.091806 -0.021088 -823886.000000 0 0 1
34.386539 15.629478 -1.378737 37.797031 0.426609 1.607282 0.040696 0.004055 67589.200000 0 0 1
33.357339 15.027378 -2.142737 36.648676 0.423267 1.629297 0.059028 0.000982 107683.000000 0 0 1
32.706039 16.004878 -2.992237 36.534840 0.455096 1.652789 0.037057 0.014585 393437.000000 0 0 1
31.374639 15.550978 -3.635037 35.205317 0.460165 1.674233 0.046727 -0.008146 -372565.000000 0 0 1
31.527039 14.511178 -4.590737 35.008618 0.431368 1.702307 0.041334 -0.008493 352951.000000 0 0 1
30.369839 14.311078 -5.377437 34.000748 0.440365 1.729620 0.037855 -0.020058 660754.000000 0 0 1
29.128039 13.608078 -4.736037 32.496961 0.437050 1.717055 0.056731 -0.034037 68137.800000 0 0 1
27.928539 13.680278 -5.464437 31.575518 0.455480 1.744731 0.077623 -0.040672 65661.400000 0 0 1
26.917339 12.928178 -4.850337 30.252383 0.447757 1.731820 0.084028 -0.024752 -628748.000000 0 0 1
25.748639 12.633978 -5.771837 29.256177 0.456152 1.769385 0.075793 -0.019110 -697786.000000 0 0 1
26.046639 11.713078 -6.782937 29.353566 0.422601 1.803981 0.075860 -0.015193 635128.000000 0 0 1
24.977039 11.565778 -7.720937 28.587279 0.433658 1.844276 0.087064 -0.018143 109821.000000 0 0 1
24.807739 12.772478 -8.721537 29.233975 0.475464 1.873745 0.092516 -0.013147 -514912.000000 0 0 1
24.151639 13.863478 -8.186537 29.026144 0.521096 1.856716 0.095289 -0.027143 -305860.000000 0 0 1
24.022739 14.854278 -9.201137 29.705260 0.553797 1.885724 0.093306 -0.024062 -908186.000000 0 0 1
22.918439 15.842578 -8.812337 29.221557 0.604835 1.877135 0.093806 -0.022609 289118.000000 0 0 1
21.561239 15.438878 -8.777937 27.933817 0.621415 1.890453 0.112530 -0.031968 501363.000000 0 0 1
21.207839 14.409478 -7.874937 26.822008 0.596794 1.868787 0.130571 -0.036394 -2177220.000000 0 0 1
19.757039 14.022178 -7.972037 25.505204 0.617227 1.888689 0.138684 -0.036958 -1094130.000000 0 0 1
18.863139 15.030278 -7.534737 25.268548 0.672791 1.873588 0.176795 -0.055998 -404594.000000 0 0 1
17.544639 14.645378 -7.691937 24.113634 0.695573 1.895457 0.186249 -0.058711 -993754.000000 0 1 0
16.566539 14.855178 -6.532237 23.190443 0.730988 1.856339 0.172097 -0.044088 -242889.000000 0 1 0
16.818939 14.093178 -5.370637 22.590664 0.697448 1.810832 0.154285 -0.046378 462982.000000 0 1 0
16.600539 14.824578 -4.214137 22.651820 0.728944 1.757926 0.159188 -0.036892 -223528.000000 0 1 0
16.157939 13.960778 -3.001837 21.563704 0.712577 1.710458 0.105922 -0.017664 -1086260.000000 0 1 0
17.119339 13.179178 -2.425937 21.740461 0.656079 1.682615 0.093803 -0.025384 -265146.000000 0 1 0
16.690139 12.412678 -1.327737 20.842221 0.639465 1.634544 0.073918 -0.023641 -107406.000000 0 1 0
16.826139 13.065678 0.023263 21.303320 0.660253 1.569704 0.089574 -0.026513 -337318.000000 0 1 0
15.760539 13.973178 0.151263 21.063408 0.725358 1.563615 0.089618 -0.031364 432059.000000 0 1 0
16.007539 14.848378 1.254063 21.869803 0.747849 1.513423 0.089420 -0.025550 -80256.600000 0 1 0
14.789439 15.749578 1.571063 21.662062 0.816828 1.498207 0.080080 -0.021968 -62869.800000 0 1 0
14.525439 16.724578 0.594463 22.159722 0.855655 1.543967 0.086289 -0.026483 731299.000000 0 1 0
13.384539 17.490378 1.025063 22.047901 0.917605 1.524287 0.060999 -0.031454 556910.000000 0 1 0
13.499139 18.933578 0.429763 23.257081 0.951416 1.552316 0.061607 -0.030964 22359.600000 0 1 0
13.143039 18.958478 -0.986237 23.089738 0.964612 1.613523 0.077515 -0.035775 136400.000000 0 1 0
12.669339 20.299678 -1.303237 23.964296 1.012833 1.625206 0.070562 -0.033869 621017.000000 0 1 0
11.122839 20.437278 -1.233037 23.300649 1.072384 1.623740 0.061874 -0.034150 412242.000000 0 1 0
10.523539 20.441678 0.069863 22.991563 1.095373 1.567758 0.056089 -0.036989 663066.000000 0 1 0
9.103739 20.303278 -0.054037 22.250934 1.149284 1.573225 0.048760 -0.034554 702363.000000 0 1 0
8.311839 20.213678 1.225063 21.890186 1.180673 1.514803 0.035739 -0.030215 -225722.000000 0 1 0
8.371339 21.432278 2.006863 23.096523 1.198424 1.483796 0.041263 -0.024533 137488.000000 0 1 0
7.301139 21.535978 2.923063 22.927042 1.243936 1.442954 0.036051 -0.028329 -113490.000000 0 1 0
6.983239 22.949078 3.447763 24.234539 1.275406 1.428045 0.043690 -0.021454 -64443.600000 0 1 0
7.746439 23.330078 4.550963 25.000222 1.250213 1.387739 0.046484 -0.025397 -3331.490000 0 0 1
7.459539 24.696178 4.980663 26.274568 1.277458 1.380080 0.040086 -0.023049 64760.400000 0 0 1
7.901539 25.069878 6.417663 27.057707 1.265471 1.331330 0.047486 -0.023926 200813.000000 0 0 1
7.208639 24.281378 7.382863 26.382882 1.282205 1.287174 0.053748 -0.025313 359609.000000 0 0 1
7.604939 24.735378 8.672763 27.292688 1.272517 1.247421 0.057591 -0.026329 -120256.000000 0 0 1
7.026839 23.786778 9.713763 26.637276 1.283556 1.197520 0.058651 -0.029437 533660.000000 0 0 1
5.625739 23.881578 9.980263 26.487438 1.339446 1.184465 0.057519 -0.032962 511960.000000 0 0 1
5.329539 22.980678 11.022363 26.038588 1.342911 1.133702 0.055540 -0.035339 -928307.000000 0 0 1
4.056339 23.336278 11.739863 26.435963 1.398695 1.110641 0.041883 -0.036677 -1215240.000000 0 0 1
2.942739 23.011478 10.981963 25.666931 1.443605 1.128668 0.024413 -0.035210 -471284.000000 0 0 1
1.736039 23.360478 11.654363 26.163905 1.496617 1.109134 0.028831 -0.032246 613842.000000 0 0 1
0.528539 23.575078 10.693263 25.892268 1.548381 1.145061 0.036406 -0.031888 -85870.700000 0 0 1
0.645939 24.788578 9.957463 26.721563 1.544744 1.188946 0.038165 -0.031394 398248.000000 0 0 1
-0.374661 24.921478 8.961963 26.486548 -1.555764 1.225624 0.038691 -0.030116 513979.000000 0 0 1
-1.687361 25.576178 9.445363 27.316716 -1.504918 1.217735 0.045177 -0.033929 -141012.000000 0 0 1
-2.463261 24.737978 10.278663 26.901415 -1.471549 1.178743 0.046548 -0.031247 -197026.000000 0 0 1
-3.712361 25.389778 10.459163 27.709503 -1.425610 1.183747 0.057362 -0.033335 -156800.000000 0 0 1
-4.704961 24.394578 11.169963 27.239680 -1.380267 1.148274 0.057929 -0.035617 165600.000000 0 0 1
-5.090561 24.666978 12.511963 28.123351 -1.367282 1.109738 0.051897 -0.027701 -28165.900000 0 0 1
-6.067761 25.677478 12.640863 29.256487 -1.338746 1.124009 0.055105 -0.019198 -575093.000000 0 0 1
-6.686361 25.607778 14.034463 29.957168 -1.315392 1.083222 0.045484 -0.014158 702437.000000 0 0 1
-7.800361 24.659478 14.108963 29.461812 -1.264432 1.071407 0.029111 -0.016874 861810.000000 0 0 1
-8.137061 24.491678 15.491863 30.100696 -1.250032 1.030176 0.029397 -0.002519 665120.000000 0 0 1
-9.459161 23.654778 15.624163 29.885427 -1.190390 1.020662 0.019006 -0.010540 732585.000000 0 0 1
-10.650361 24.353378 15.325863 30.682231 -1.158532 1.047771 0.021873 -0.002788 -541726.000000 0 0 1
-11.752361 23.520978 15.504263 30.524361 -1.107425 1.038015 0.015259 -0.005901 -555504.000000 0 0 1
-13.081561 24.277078 15.351263 31.562082 -1.076558 1.062851 0.013824 -0.008473 -475637.000000 0 0 1
-13.452761 25.090478 16.405363 32.857949 -1.078633 1.048027 0.011193 -0.010914 -167460.000000 0 0 1
-14.299761 26.112278 15.968963 33.783754 -1.069778 1.078465 0.009581 -0.000465 -426740.000000 0 0 1
-14.732061 27.155278 16.975263 35.250565 -1.073720 1.068362 0.022364 -0.000983 -515352.000000 0 0 1
-15.850861 26.777178 17.704763 35.801197 -1.036314 1.053502 0.023507 0.000825 -531150.000000 0 0 1
-16.328461 27.687178 18.664063 37.169150 -1.037949 1.044726 0.039651 -0.002554 635662.000000 0 0 1
-17.646661 27.175078 19.364063 37.747271 -0.994865 1.032129 0.040037 -0.002531 281551.000000 0 0 1
-18.716061 27.117178 18.493163 37.783983 -0.966683 1.059344 0.040160 -0.006802 -241760.000000 0 0 1
-19.847861 26.451578 19.076063 38.177477 -0.927073 1.047581 0.054614 -0.007729 440361.000000 0 0 1
-21.121161 26.516078 18.220763 38.486388 -0.898168 1.077611 0.049597 -0.008052 -350576.000000 0 0 1
-21.712061 27.810678 18.249063 39.722484 -0.907929 1.093461 0.045510 -0.012943 -45790.600000 0 0 1
-22.379361 28.023178 17.042063 39.705998 -0.896909 1.127183 0.046323 -0.018544 -753242.000000 0 0 1
-23.228361 29.278678 17.125163 41.110449 -0.900121 1.141133 0.052370 -0.021552 -177052.000000 0 0 1
-24.503561 28.971578 17.672363 41.857966 -0.868758 1.134927 0.050340 -0.021306 413645.000000 0 0 1
-25.403671 30.050478 17.404063 43.026494 -0.868998 1.154368 0.057313 -0.027811 121116.000000 0 0 1
-26.790281 29.885478 18.074063 44.017414 -0.839956 1.147672 0.072348 -0.016885 -632787.000000 0 0 1
-27.664021 29.191178 17.235563 43.754858 -0.812252 1.165912 0.090247 -0.015155 -402723.000000 0 0 1
-28.970321 29.173778 17.773463 44.791571 -0.788897 1.162764 0.128482 -0.015013 122882.000000 0 0 1
-29.314711 28.047178 18.782563 44.707731 -0.763305 1.137220 0.118206 -0.017860 -588649.000000 0 0 1
-29.490361 26.757978 18.244563 43.801083 -0.736859 1.141169 0.111247 -0.015504 87300.100000 0 0 1
-29.761141 25.792778 19.209363 43.817720 -0.714087 1.116987 0.113638 -0.016057 -125797.000000 0 0 1
-29.969651 24.431278 18.583663 42.900115 -0.683941 1.122773 0.105151 -0.014821 255103.000000 0 0 1
-31.077031 24.304378 17.684963 43.234738 -0.663711 1.149389 0.117168 -0.017772 448913.000000 0 0 1
-30.957211 23.254778 16.655963 42.149196 -0.644263 1.164547 0.106221 -0.016069 -315105.000000 0 0 1
-31.175911 21.779078 17.040163 41.672927 -0.609777 1.149545 0.097659 -0.009755 1407230.000000 0 0 1
-32.570711 21.400778 16.800963 42.439568 -0.581319 1.163771 0.103306 -0.010769 1471400.000000 0 0 1
-32.718601 20.050678 16.756963 41.872812 -0.549794 1.159075 0.082268 -0.008049 1216230.000000 0 0 1
-34.191440 19.555778 16.410463 42.670673 -0.519539 1.176039 0.087458 -0.016313 1274460.000000 0 0 1
-34.574467 19.898378 15.064763 42.641369 -0.522227 1.209711 0.077387 -0.014415 -977428.000000 0 0 1
-35.763431 19.411178 14.614963 43.236721 -0.497272 1.225982 0.098680 -0.026431 -1132700.000000 0 0 1
-35.952020 19.761378 13.110863 43.069183 -0.502582 1.261473 0.096550 -0.022867 -180444.000000 0 0 1
-36.152521 21.110878 12.790363 43.775191 -0.528526 1.274288 0.077215 -0.024525 -10477.300000 0 0 1
-36.047010 21.415978 11.430663 43.459074 -0.536079 1.304644 0.060632 -0.015524 -109863.000000 0 0 1
-34.808306 20.993078 10.597663 42.007594 -0.542700 1.315761 0.086557 -0.017981 -213675.000000 0 0 1
-34.878805 19.639678 10.185863 41.303751 -0.512833 1.321617 0.097269 -0.014265 -85024.600000 0 0 1
-33.720161 19.272478 9.479063 39.979124 -0.519231 1.331416 0.123671 -0.019540 -729649.000000 0 0 1
-32.877141 18.322578 10.255063 39.010122 -0.508434 1.304788 0.112662 -0.025519 -650912.000000 0 0 1
-32.361081 18.955878 11.463863 39.217153 -0.529884 1.274147 0.119428 -0.021518 43100.900000 0 0 1
-31.661691 17.979678 12.167863 38.389952 -0.516458 1.248280 0.106741 -0.030799 -186422.000000 0 0 1
-31.197661 18.454978 13.540963 38.694159 -0.534183 1.213280 0.090443 -0.016311 144962.000000 0 0 1
-30.048431 19.280078 13.616063 38.210297 -0.570471 1.206443 0.098686 -0.015978 104010.000000 0 0 1
-30.342221 20.685778 13.505863 39.127486 -0.598372 1.218370 0.096950 -0.012294 3682.330000 0 0 1
-29.102181 21.562378 13.749063 38.741578 -0.637664 1.207998 0.104733 -0.015919 51756.700000 0 0 1
-28.668771 21.515978 15.106063 38.897672 -0.643822 1.171952 0.093105 -0.011733 -782953.000000 0 0 1
-27.524611 22.270378 15.290963 38.566663 -0.680270 1.163115 0.106376 -0.013584 -645046.000000 0 0 1
-26.910971 22.128878 16.745163 38.656023 -0.688191 1.122774 0.087817 -0.015724 -11241.500000 0 0 1
-26.117241 20.956278 16.908563 37.512337 -0.676198 1.103195 0.089218 -0.021135 307366.000000 0 0 1
-25.712151 20.654778 18.273763 37.704973 -0.676755 1.064832 0.070650 -0.013850 8104.480000 0 0 1
-24.597961 19.590778 18.358963 36.413045 -0.672566 1.042357 0.087642 -0.021162 -190381.000000 0 0 1
-24.169661 19.311778 19.632563 36.640890 -0.674136 1.005329 0.089216 -0.023852 -46651.500000 0 0 1
-23.235361 18.247778 19.553963 35.429097 -0.665741 0.986134 0.082721 -0.022971 47822.400000 0 0 1
-22.420061 17.907278 20.809363 35.445160 -0.673958 0.943342 0.082329 -0.013273 277252.000000 0 0 1
-23.175261 17.061478 21.695763 36.040157 -0.634606 0.924807 0.089766 -0.011206 256167.000000 0 0 1
-23.831661 17.783078 22.684863 37.400387 -0.641062 0.919094 0.081962 -0.020931 -214827.000000 0 0 1
-24.571161 16.853178 23.656863 38.044957 -0.601195 0.899740 0.076177 -0.011880 -249743.000000 0 0 1
-23.795861 16.440278 24.774963 38.083127 -0.604584 0.862488 0.079149 -0.026216 313455.000000 0 0 1
-24.577661 15.705178 25.714063 38.883507 -0.568605 0.848232 0.073176 -0.023230 26627.100000 0 0 1
20.974539 24.879178 33.501437 46.703866 0.870347 0.770854 0.080206 -0.015331 -79632.300000 0 0 1
21.820039 23.904678 32.948988 46.186400 0.830958 0.776470 0.093689 -0.030520 -242478.000000 0 0 1
21.671539 22.605178 33.455936 45.825204 0.806482 0.752361 0.088147 -0.027687 441331.000000 0 0 1
20.447539 21.780578 32.910192 44.447454 0.816955 0.737088 0.080709 -0.030208 268689.000000 0 0 1
20.540839 21.310778 31.572468 43.276969 0.803793 0.753141 0.107693 -0.029837 -57408.800000 0 0 1
19.753839 20.176578 31.324388 42.172571 0.795985 0.733603 0.090653 -0.034630 -296927.000000 0 0 1
20.103739 19.455678 30.006038 41.024944 0.769018 0.750410 0.084132 -0.023762 438630.000000 0 0 1
21.350639 18.751978 29.956128 41.289903 0.720688 0.759025 0.079293 -0.023554 159697.000000 0 0 1
21.570139 18.217378 28.653038 40.226115 0.701330 0.778027 0.067865 -0.019855 314550.000000 0 0 1
22.745339 17.182778 28.533408 40.333035 0.646975 0.784920 0.083332 -0.021346 274666.000000 0 0 1
24.028439 17.741778 28.654248 41.390850 0.636014 0.806146 0.082890 -0.024958 -318444.000000 0 0 1
24.960939 16.748478 28.998938 41.767193 0.590988 0.803350 0.073557 -0.012317 -80983.700000 0 0 1
26.392339 17.266078 29.254968 43.017742 0.579328 0.822942 0.064532 -0.028088 296121.000000 0 0 1
27.132339 17.539578 28.039158 42.778441 0.573872 0.856017 0.062956 -0.018203 596614.000000 0 0 1
28.459539 18.008778 28.189398 43.919285 0.564178 0.873894 0.063074 -0.018339 366168.000000 0 0 1
29.318439 17.956478 26.896108 43.650963 0.549534 0.906935 0.053694 -0.003168 -20853.200000 0 0 1
29.177439 18.968078 25.942118 43.406272 0.576441 0.930219 0.076523 -0.007123 230816.000000 0 0 1
30.059439 18.708378 24.864178 43.264311 0.556713 0.958554 0.056447 0.001130 -207362.000000 0 0 1
30.513739 19.901278 23.962198 43.604312 0.577925 0.988986 0.076270 -0.001725 -669311.000000 0 0 1
29.537539 20.458378 23.144888 42.739879 0.605758 0.998541 0.067600 -0.002677 -489186.000000 0 0 1
29.903139 21.320378 22.078898 42.851301 0.619385 1.029503 0.073002 -0.016932 -1835.690000 0 0 1
30.688339 20.683678 20.852898 42.478607 0.593056 1.057670 0.101334 -0.022426 428121.000000 0 0 1
29.835839 19.744578 20.199698 41.085928 0.584608 1.056818 0.095651 -0.032386 457576.000000 0 0 1
30.329739 19.308778 18.899998 40.619354 0.566918 1.086828 0.103856 -0.038594 707836.000000 0 0 1
31.648139 18.449078 18.836298 41.191981 0.527784 1.095861 0.133367 -0.057049 522410.000000 0 0 1
31.438839 17.265078 19.552698 40.850845 0.502201 1.071695 0.134340 -0.050219 1081500.000000 0 0 1
32.452839 16.245478 19.285198 41.097703 0.464117 1.082352 0.134609 -0.037180 -58166.600000 0 0 1
31.966339 14.867278 19.703698 40.387108 0.435333 1.061147 0.128296 -0.034370 213968.000000 0 0 1
31.444339 14.590878 20.990398 40.524523 0.434454 1.026323 0.108032 -0.037411 -595160.000000 0 0 1
30.227139 15.142678 21.298298 39.957454 0.464418 1.008625 0.100028 -0.020239 -1277210.000000 0 0 1
29.603639 14.695278 22.651398 40.067599 0.460764 0.969964 0.069876 -0.015515 9309.340000 0 0 1
29.102639 13.405478 22.525698 39.167301 0.431657 0.958052 0.064035 -0.010610 -196428.000000 0 0 1
28.337439 13.060678 23.656968 39.156658 0.431880 0.922082 0.059977 0.000034 63823.700000 0 0 1
27.815539 11.617778 23.649738 38.314319 0.395648 0.905546 0.066306 -0.001306 -577147.000000 0 0 1
26.699139 11.351478 22.878598 36.947670 0.402008 0.903052 0.074571 0.003218 -541265.000000 0 0 1
26.494339 10.000478 22.810098 36.362895 0.360923 0.892727 0.056971 0.012276 -18168.300000 0 0 1
25.311139 9.533578 21.935898 34.824223 0.360221 0.889367 0.052039 0.003576 426442.000000 0 0 1
24.020139 9.544578 22.575698 34.318045 0.378226 0.852852 0.063649 0.002806 1194080.000000 0 0 1
23.011539 9.239378 21.607698 32.890571 0.381808 0.854021 0.058681 0.016567 385630.000000 0 0 1
21.545439 9.308678 22.087698 32.229239 0.407826 0.815738 0.050030 0.000126 97103.100000 0 0 1
21.292339 8.501578 23.230998 32.639237 0.379884 0.778809 0.044221 0.007715 -664058.000000 0 0 1
19.942339 8.426378 23.536648 31.979283 0.399783 0.743658 0.090957 -0.007116 -782045.000000 0 0 1
19.478539 7.678378 24.760148 32.425852 0.375494 0.701937 0.084473 -0.002735 -268623.000000 0 0 1
19.535639 6.263978 24.650988 32.071012 0.310287 0.694088 0.066506 -0.006029 341135.000000 0 0 1
19.033439 5.690878 25.872488 32.619680 0.290533 0.654823 0.071080 -0.015176 -74967.300000 0 0 1
19.130239 4.115578 25.830948 32.405893 0.211905 0.648308 0.067614 -0.015517 -66524.900000 0 0 1
20.449539 3.668678 25.613968 32.980573 0.177513 0.681485 0.065761 -0.009448 -125968.000000 0 0 1
20.601239 2.259078 25.605468 32.941683 0.109221 0.680439 0.059587 -0.008558 72929.300000 0 0 1
22.037039 1.718178 25.407158 33.676504 0.077810 0.715984 0.048711 -0.007430 1313840.000000 0 0 1
22.969139 2.169878 26.477378 35.118959 0.094190 0.716766 0.049031 -0.016107 1401920.000000 0 0 1
24.350739 2.129678 26.136308 35.785480 0.087236 0.751946 0.061554 -0.008730 754804.000000 0 0 1
25.253439 2.649078 27.279938 37.268604 0.104517 0.749570 0.042718 -0.005871 -1120680.000000 0 0 1
25.284539 1.720078 28.373618 38.043774 0.067924 0.729039 0.055966 -0.013840 -253872.000000 0 0 1
26.171439 2.035078 29.379048 39.398150 0.077603 0.729217 0.052498 -0.006413 292626.000000 0 0 1
27.696839 2.200078 29.128468 40.254476 0.079268 0.761781 0.049383 -0.011160 -472703.000000 0 0 1
27.915239 3.357878 28.349958 39.928136 0.119713 0.781263 0.058619 0.004663 283957.000000 0 0 1
29.276739 3.547678 27.936308 40.622048 0.120589 0.812462 0.058077 0.002064 667944.000000 0 0 1
29.790339 2.632678 26.807508 40.162641 0.088145 0.839985 0.084868 0.000855 -614933.000000 0 0 1
29.375939 2.950278 25.504888 39.014731 0.100096 0.858300 0.071290 0.011960 56711.200000 0 0 1
29.624339 1.849678 24.610068 38.557466 0.062357 0.878548 0.093758 0.012151 -140985.000000 0 0 1
29.334039 2.319878 23.146398 37.438261 0.078921 0.904276 0.073861 0.017541 304810.000000 0 0 1
30.229939 3.286578 22.604698 37.889618 0.108294 0.931547 0.075446 0.022868 -279846.000000 0 0 1
31.447639 2.789278 22.112198 38.544563 0.088464 0.959806 0.066708 0.014459 7952.350000 0 0 1
32.348039 3.929878 21.605298 39.097678 0.120895 0.985318 0.078219 0.004184 -30956.800000 0 0 1
31.827639 4.367578 20.357498 38.032908 0.136374 1.005981 0.068205 0.003739 340346.000000 0 0 1
32.343639 5.704278 20.072098 38.490764 0.174570 1.022214 0.079937 -0.000578 408245.000000 0 0 1
33.806439 5.983078 19.585698 39.525588 0.175167 1.052364 0.064549 -0.000538 169304.000000 0 0 1
34.713539 5.846978 20.653898 40.814218 0.166869 1.040201 0.082731 -0.005803 21577.100000 0 0 1
34.949039 7.055278 21.400998 41.583831 0.199196 1.030200 0.094908 -0.007596 -288136.000000 0 0 1
35.775839 6.718178 22.663098 42.879606 0.185624 1.013930 0.117702 -0.016627 283821.000000 0 0 1
34.959839 6.017778 23.575818 42.593699 0.170464 0.984230 0.108945 -0.003150 230936.000000 0 0 1
35.744939 5.680578 24.663188 43.797745 0.157602 0.972645 0.122835 -0.012721 24125.400000 0 0 1
34.957039 4.871178 25.721768 43.673016 0.138456 0.941022 0.115893 -0.005393 184735.000000 0 0 1
34.675139 3.522478 25.320138 43.079955 0.101238 0.942524 0.110243 -0.004423 -260723.000000 0 0 1
33.523139 3.000478 25.902938 42.470765 0.089267 0.914861 0.096173 0.000439 -406910.000000 0 0 1
33.508839 1.467078 26.005228 42.441330 0.043754 0.911281 0.099916 0.003303 -116628.000000 0 0 1
33.004139 0.894178 24.837928 41.315801 0.027086 0.925829 0.101921 -0.003901 -54499.800000 0 0 1
33.335239 -0.499422 24.856948 41.585520 -0.014981 0.930129 0.094134 -0.013824 230528.000000 0 0 1
32.456839 -1.386122 23.914348 40.339357 -0.042681 0.936229 0.101367 -0.000286 893443.000000 0 0 1
31.080939 -1.504922 24.277108 39.467297 -0.048382 0.908259 0.090935 -0.001921 275973.000000 0 0 1
30.345139 -2.210522 23.307338 38.326830 -0.072718 0.917105 0.093284 -0.001308 -680176.000000 0 0 1
28.850039 -2.246422 23.459918 37.252368 -0.077709 0.889557 0.089602 0.009279 -733471.000000 0 0 1
28.200939 -1.002822 23.298178 36.593766 -0.035545 0.880623 0.079555 0.008698 -246337.000000 0 0 1
26.805739 -1.149822 23.175548 35.453854 -0.042868 0.858357 0.064127 0.008429 552641.000000 0 0 1
25.938539 0.174378 23.074228 34.716829 0.006723 0.843783 0.064866 0.009784 426465.000000 0 0 1
26.052239 0.859778 21.847898 34.011601 0.032990 0.873215 0.058725 0.006307 262762.000000 0 0 1
25.095439 1.910378 21.839798 33.322776 0.075978 0.856082 0.055783 0.011040 182285.000000 0 0 1
24.982939 2.842678 20.648698 32.536084 0.113297 0.883254 0.050883 0.007969 -147221.000000 0 0 1
24.589239 2.207178 19.434998 31.420080 0.089522 0.903896 0.062123 0.001054 262126.000000 0 0 1
23.966939 3.188578 18.628998 30.522463 0.132264 0.914310 0.056781 0.009176 -62582.800000 0 0 1
23.851639 2.776878 17.109798 29.484859 0.115901 0.951710 0.070814 -0.006044 -115605.000000 0 0 1
25.058439 2.758178 16.383698 30.065902 0.109629 0.994495 0.065879 -0.013305 -138049.000000 0 0 1
24.903539 3.055878 15.019598 29.242315 0.122098 1.031391 0.071856 -0.017014 -231460.000000 0 0 1
24.270739 1.942178 14.101298 28.136941 0.079851 1.045850 0.073835 -0.005749 412842.000000 0 0 1
22.852139 1.987778 14.269498 27.014627 0.086766 1.014301 0.082177 -0.003538 488102.000000 0 0 1
22.391839 0.837078 13.579798 26.201261 0.037366 1.025948 0.082060 -0.011570 258898.000000 0 0 1
20.911639 0.387778 13.887798 25.106134 0.018542 0.984639 0.089795 -0.018190 1039400.000000 0 0 1
19.801539 1.015178 13.247098 23.845694 0.051223 0.981791 0.093722 -0.014176 866780.000000 0 1 0
19.751839 0.899678 11.821898 23.036967 0.045518 1.031921 0.091583 -0.015599 -960088.000000 0 1 0
19.407739 -0.539822 11.232498 22.430353 -0.027808 1.046306 0.076914 -0.014635 -230690.000000 0 1 0
20.396139 -1.560322 11.271898 23.355787 -0.076352 1.067156 0.084957 -0.034859 59464.300000 0 1 0
21.405639 -1.323822 10.315198 23.798260 -0.061766 1.122486 0.092375 -0.036700 -1179320.000000 0 1 0
22.679739 -2.073322 10.590098 25.116118 -0.091164 1.135537 0.119623 -0.046368 -921820.000000 0 0 1
23.242039 -1.621722 11.786298 26.110135 -0.069662 1.102455 0.115663 -0.048236 4431.710000 0 0 1
23.759939 -2.799022 12.473798 26.980824 -0.117264 1.090186 0.099314 -0.036839 -26529.600000 0 0 1
24.243539 -2.527822 13.899098 28.059294 -0.103892 1.052562 0.157040 -0.036057 -265721.000000 0 0 1
25.376039 -1.711722 13.918398 28.993019 -0.067352 1.070073 0.116959 -0.034216 -445883.000000 0 0 1
25.680539 -1.386722 15.253398 29.901158 -0.053947 1.035463 0.085378 -0.024394 -283510.000000 0 0 1
26.898139 -0.468522 15.309098 30.953156 -0.017417 1.053434 0.102445 -0.016195 -673540.000000 0 0 1
28.137339 -1.071122 15.101198 31.951578 -0.038049 1.078526 0.108503 -0.018179 -166059.000000 0 0 1
29.147139 -0.262122 15.686798 33.101360 -0.008993 1.077080 0.085433 -0.017693 135608.000000 0 0 1
30.525439 -0.884122 15.996698 34.474316 -0.028955 1.088271 0.071831 -0.016961 221515.000000 0 0 1
31.167539 -1.230922 14.752698 34.504677 -0.039473 1.129008 0.096846 -0.022823 -43607.600000 0 0 1
32.479339 -1.652022 15.056898 35.837785 -0.050820 1.137196 0.101920 -0.028022 -63743.200000 0 0 1
33.111639 -2.401022 13.847198 35.970688 -0.072386 1.175634 0.114164 -0.037813 -132057.000000 0 0 1
33.461839 -1.548122 12.809898 35.863419 -0.046232 1.205543 0.114286 -0.039794 -107574.000000 0 0 1
34.206839 -2.273922 11.874398 36.280571 -0.066378 1.237358 0.111050 -0.037885 -121223.000000 0 0 1
34.100339 -1.818622 10.459298 35.714667 -0.053281 1.273583 0.154697 -0.034878 -212301.000000 0 0 1
34.631639 -0.568522 10.227298 36.114696 -0.016415 1.283678 0.115096 -0.027898 268036.000000 0 0 1
33.622339 0.314278 9.749198 35.008675 0.009347 1.288586 0.125867 -0.037678 -266196.000000 0 0 1
34.037039 1.748578 9.417598 35.359139 0.051328 1.301201 0.117450 -0.034387 -99971.000000 0 0 1
34.631839 1.888478 8.116498 35.620333 0.054476 1.340916 0.111588 -0.029005 413448.000000 0 0 1
35.043539 3.247678 7.878298 36.064728 0.092412 1.350572 0.104512 -0.025886 -81109.700000 0 0 1
35.614239 3.342978 6.457998 36.349075 0.093592 1.392182 0.096861 -0.023481 -136566.000000 0 0 1
35.895939 4.648278 5.961898 36.683363 0.128777 1.407549 0.078661 -0.011276 51973.500000 0 0 1
36.199039 4.564478 4.578398 36.771818 0.125432 1.445964 0.089051 -0.003354 -201092.000000 0 0 1
36.695739 5.915978 3.985198 37.382587 0.159842 1.463988 0.099785 -0.021747 -197589.000000 0 0 1
35.749339 6.924678 4.191498 36.654264 0.191331 1.456193 0.111687 -0.035322 -289396.000000 0 0 1
36.196939 8.154578 3.660298 37.284223 0.221584 1.472465 0.102722 -0.039784 -192109.000000 0 0 1
35.012339 9.202078 3.697198 36.389715 0.257011 1.469021 0.134015 -0.050671 628375.000000 0 0 1
33.944839 8.982378 2.833998 35.227358 0.258688 1.490261 0.142228 -0.054067 -415656.000000 0 0 1
33.173139 7.816178 2.985198 34.212003 0.231397 1.483429 0.150904 -0.047863 -1292840.000000 0 0 1
31.988039 7.841678 1.992598 32.995408 0.240403 1.510369 0.166014 -0.055841 -235024.000000 0 0 1
32.264339 7.776778 0.621298 33.194154 0.236522 1.552078 0.177922 -0.051824 -479155.000000 0 0 1
31.154439 7.448878 -0.164502 32.032981 0.234689 1.575932 0.179586 -0.050687 -520683.000000 0 0 1
31.450139 7.326378 -1.688302 32.336317 0.228870 1.623031 0.155431 -0.038396 -1349960.000000 0 0 1
30.376739 6.860178 -2.450602 31.238018 0.222111 1.649326 0.168798 -0.042357 101290.000000 0 0 1
30.640439 6.681178 -3.838802 31.594478 0.214691 1.692600 0.156421 -0.034381 235473.000000 0 0 1
29.434439 6.042178 -4.665102 30.408178 0.202463 1.724821 0.167332 -0.035140 450711.000000 0 0 1
29.256039 4.657578 -4.438202 29.955074 0.157876 1.719506 0.175379 -0.038332 633956.000000 0 0 1
28.366539 4.039278 -5.340302 29.146099 0.141445 1.755063 0.175251 -0.038104 -339447.000000 0 0 1
28.188939 2.530878 -5.323402 28.798615 0.089543 1.756715 0.187946 -0.029491 -256885.000000 0 0 1
27.778239 2.034878 -4.026602 28.142224 0.073124 1.714370 0.184063 -0.038435 710886.000000 0 0 1
27.521339 0.644878 -3.956802 27.811800 0.023428 1.713551 0.158725 -0.034855 84909.500000 0 0 1
27.292139 0.272478 -2.489602 27.406809 0.009983 1.661761 0.162651 -0.033885 -470311.000000 0 0 1
28.555339 0.300478 -1.903802 28.620310 0.010522 1.637365 0.178708 -0.034657 -24022.500000 0 0 1
28.552639 0.159178 -0.522602 28.557865 0.005575 1.589097 0.182047 -0.028330 1227530.000000 0 0 1
30.004239 0.382178 0.101598 30.006845 0.012737 1.567410 0.188763 -0.028073 1883750.000000 0 0 1
31.018639 -0.556422 -0.289702 31.024982 -0.017936 1.580134 0.173356 -0.028726 1471200.000000 0 0 1
32.333339 -0.171622 0.160398 32.334192 -0.005308 1.565836 0.126610 -0.026054 601958.000000 0 0 1
-3.368261 -21.605622 -8.404537 23.426146 1.416144 1.937743 0.015753 0.021420 166108.000000 0 1 0
-3.593561 -21.950922 -7.067437 23.338923 1.408527 1.878444 0.028416 0.004435 -762160.000000 0 1 0
-2.716061 -22.958122 -6.788737 24.094383 1.453039 1.856420 0.031504 -0.000766 -496639.000000 0 1 0
-2.969661 -23.562322 -5.390637 24.352841 1.445423 1.794001 0.038695 -0.001908 -197419.000000 0 1 0
-2.818561 -22.628822 -4.370037 23.218637 1.446878 1.760138 0.032716 -0.015100 -84172.500000 0 1 0
-3.349461 -23.135422 -3.150637 23.587987 1.427019 1.704766 0.048596 -0.029594 -268273.000000 0 1 0
-2.820661 -22.365622 -1.884137 22.621387 1.445343 1.654183 0.045602 -0.047728 -1176200.000000 0 1 0
-1.577661 -22.766722 -1.509937 22.871217 1.501610 1.636863 0.041689 -0.038230 -1900330.000000 0 1 0
-1.351361 -22.426222 -0.192137 22.467722 1.510611 1.579348 0.048207 -0.043124 1043410.000000 0 1 0
0.199139 -22.358922 0.088263 22.359983 -1.561890 1.566849 0.048822 -0.045682 789587.000000 0 1 0
0.886139 -21.316222 -0.554037 21.341826 -1.529249 1.596759 0.033046 -0.042987 469617.000000 0 1 0
2.192939 -21.246822 0.068463 21.359801 -1.467948 1.567591 0.034434 -0.038038 1159570.000000 0 1 0
3.188039 -20.170722 -0.434637 20.425732 -1.414040 1.592077 0.038443 -0.033093 462863.000000 0 1 0
3.794939 -20.505522 -1.661637 20.919824 -1.387798 1.650309 0.032204 -0.026435 215949.000000 0 1 0
4.855539 -19.615122 -2.054537 20.311336 -1.328134 1.672122 0.042439 -0.019954 501399.000000 0 1 0
5.661439 -19.999022 -3.298737 21.045057 -1.294928 1.728192 0.041629 -0.012369 -679446.000000 0 1 0
6.430339 -21.137322 -3.048237 22.303080 -1.275475 1.707899 0.045529 -0.013863 -694608.000000 0 1 0
7.188939 -21.672822 -4.104737 23.200020 -1.250514 1.748661 0.048136 -0.010549 653251.000000 0 1 0
8.499639 -21.019422 -4.623537 23.139513 -1.186528 1.771962 0.061857 -0.008501 163226.000000 0 1 0
8.243039 -19.929022 -5.458537 22.246555 -1.178604 1.818693 0.056475 -0.004785 596118.000000 0 1 0
9.483539 -19.337422 -5.853437 22.318963 -1.114839 1.836163 0.071297 -0.013446 334360.000000 0 1 0
9.201139 -18.403922 -7.073237 21.757665 -1.107184 1.901905 0.061846 -0.000270 -478620.000000 0 1 0
10.244639 -17.558622 -7.391137 21.630689 -1.042632 1.919518 0.072881 -0.018956 -491901.000000 0 1 0
9.801439 -16.498822 -8.167837 20.856483 -1.034749 1.973189 0.059946 -0.010970 109233.000000 0 1 0
10.285439 -16.552922 -9.665337 21.753349 -1.014814 2.031206 0.062860 -0.011851 180309.000000 0 1 0
9.620339 -17.477022 -10.525837 22.556384 -1.067603 2.056291 0.062461 -0.009722 206930.000000 0 1 0
9.037839 -16.743422 -11.616137 22.292585 -1.075830 2.118908 0.051440 -0.008198 245983.000000 0 1 0
8.394939 -17.649622 -12.726737 23.322821 -1.126823 2.147994 0.062737 -0.011270 -237162.000000 0 1 0
7.240639 -18.367222 -12.429437 23.329650 -1.195287 2.132672 0.046976 -0.006671 -125917.000000 0 1 0
6.724839 -18.943722 -13.645037 24.295577 -1.229683 2.167146 0.051712 -0.007633 -280585.000000 0 1 0
5.519039 -19.824322 -13.337537 24.522508 -1.299274 2.145862 0.039204 -0.000653 -329307.000000 0 1 0
5.876539 -20.959122 -12.579037 25.140618 -1.297434 2.094796 0.054284 -0.017386 -240246.000000 0 0 1
4.776139 -21.819922 -12.444537 25.569259 -1.355306 2.079104 0.063726 -0.004900 81210.800000 0 0 1
5.181339 -23.324222 -12.247737 26.849072 -1.352202 2.044483 0.049135 -0.010048 -297825.000000 0 0 1
5.683239 -23.987722 -13.390037 28.053575 -1.338163 2.068379 0.064686 -0.018355 -259058.000000 0 0 1
5.060839 -25.204192 -13.718537 29.138662 -1.372638 2.060996 0.049719 -0.011010 1258740.000000 0 0 1
3.549839 -25.231492 -14.191437 29.165500 -1.431023 2.078971 0.051856 -0.012383 1160780.000000 0 0 1
2.541539 -24.838022 -13.258437 28.269646 -1.468827 2.058953 0.066906 -0.016835 288155.000000 0 0 1
1.222239 -25.095092 -13.702937 28.618665 -1.522130 2.070096 0.054831 -0.016281 344210.000000 0 0 1
0.735139 -26.444062 -13.075337 29.509207 -1.543004 2.029843 0.047030 -0.011004 -803581.000000 0 0 1
1.266839 -27.553602 -13.771737 30.829638 -1.524851 2.033875 0.049423 -0.008143 57967.100000 0 0 1
0.815639 -28.763482 -13.225337 31.668797 -1.542447 2.001614 0.040809 -0.003587 191637.000000 0 0 1
-0.656661 -29.178172 -13.455237 32.137833 1.548295 2.002780 0.037509 -0.008859 600493.000000 0 0 1
-1.642661 -28.375002 -12.777837 31.162673 1.512970 1.993291 0.033353 -0.016139 526426.000000 0 0 1
-2.961261 -28.822292 -13.111137 31.802445 1.468414 1.995739 0.044677 -0.016759 441666.000000 0 0 1
-4.034661 -27.904802 -12.423037 30.810523 1.427205 1.985816 0.039959 -0.010679 200657.000000 0 0 1
-4.307161 -28.139942 -11.036237 30.532057 1.418913 1.940634 0.056267 -0.025205 256417.000000 0 0 1
-5.155561 -29.288632 -10.923537 31.681658 1.396555 1.922812 0.045283 -0.024050 -458572.000000 0 0 1
-5.826761 -29.590502 -9.555637 31.636358 1.376371 1.877635 0.059038 -0.027111 136604.000000 0 0 1
-7.115461 -29.030612 -9.348037 31.317599 1.330433 1.873908 0.069481 -0.031352 -40978.000000 0 0 1
-7.219461 -27.683362 -8.884337 29.956979 1.315691 1.871895 0.073894 -0.022633 763409.000000 0 0 1
-8.719061 -27.431262 -8.427737 29.992047 1.263044 1.855631 0.078053 -0.027082 1025600.000000 0 0 1
-9.759761 -27.469192 -9.340837 30.611447 1.229409 1.880884 0.085486 -0.029069 -390049.000000 0 0 1
-10.133261 -28.765762 -9.802637 32.035039 1.232102 1.881782 0.091740 -0.038230 -228840.000000 0 0 1
-11.352361 -28.912692 -10.773737 32.876941 1.196648 1.904663 0.089178 -0.037106 78839.800000 0 0 1
-11.190461 -28.206952 -11.958437 32.616909 1.193115 1.946184 0.103863 -0.038772 -113975.000000 0 0 1
-12.005861 -28.811542 -12.899337 33.773341 1.175974 1.962689 0.104894 -0.038893 -746189.000000 0 0 1
-12.200761 -27.913552 -14.161137 33.594088 1.158729 2.005935 0.111390 -0.029979 -260366.000000 0 0 1
-13.275261 -27.019652 -14.304437 33.330332 1.114118 2.014372 0.096303 -0.037164 -150771.000000 0 0 1
-13.514561 -26.090312 -13.305537 32.255000 1.092859 1.996005 0.113017 -0.033677 245736.000000 0 0 1
-14.580661 -24.990622 -13.654437 31.993289 1.042638 2.011737 0.123532 -0.029233 326254.000000 0 0 1
-14.137361 -24.193522 -14.732037 31.657928 1.041967 2.054827 0.121853 -0.025499 916681.000000 0 0 1
-15.272961 -23.418622 -15.163837 31.806244 0.992896 2.067758 0.134392 -0.023723 646131.000000 0 0 1
-14.935861 -22.590722 -16.401137 31.660985 0.986623 2.115335 0.126821 -0.020047 34903.100000 0 0 1
-14.049061 -21.525022 -16.140637 30.351653 0.992536 2.131506 0.109962 -0.013648 245659.000000 0 0 1
-13.763561 -20.768622 -17.285237 30.324094 0.985538 2.177322 0.098500 -0.009532 -15731.400000 0 0 1
-13.659161 -19.241122 -16.982837 29.072499 0.953461 2.194635 0.096524 -0.012041 -106730.000000 0 0 1
-12.479761 -18.681022 -17.500637 28.478014 0.981840 2.232588 0.084980 -0.004229 -244198.000000 0 0 1
-12.612961 -17.255822 -17.627337 27.705111 0.939606 2.260422 0.087241 -0.005540 500997.000000 0 0 1
-11.330561 -16.359322 -17.723337 26.648184 0.965050 2.298405 0.094164 -0.013782 480418.000000 0 0 1
-10.570261 -16.246322 -16.514837 25.463959 0.993982 2.276484 0.094708 -0.009621 -66663.400000 0 0 1
-9.435361 -15.512322 -16.923537 24.820642 1.024333 2.321062 0.099052 -0.009452 -383002.000000 0 1 0
-8.700161 -14.797222 -15.738837 23.288657 1.039277 2.312867 0.079171 -0.007178 85527.600000 0 1 0
-8.227961 -15.597722 -14.649437 22.925843 1.085383 2.263984 0.083674 -0.005225 793853.000000 0 1 0
-7.130561 -16.489822 -14.941637 23.366892 1.162656 2.264561 0.087787 -0.003866 213200.000000 0 1 0
-6.664461 -17.243422 -13.651837 22.980933 1.201988 2.206881 0.070938 -0.007447 -463116.000000 0 1 0
-5.936961 -16.563222 -12.657337 21.674778 1.226620 2.194402 0.059742 -0.012011 183522.000000 0 1 0
-5.644661 -17.310822 -11.514737 21.543350 1.255591 2.134702 0.051941 -0.017722 183744.000000 0 1 0
-4.569461 -18.461322 -11.561237 22.256742 1.328157 2.117002 0.059501 -0.015906 556184.000000 0 1 0
-3.246161 -17.912022 -11.543537 21.555309 1.391514 2.135933 0.051874 -0.011695 22669.600000 0 1 0
-2.346561 -19.013022 -11.508337 22.348225 1.447999 2.111752 0.034942 0.003889 638625.000000 0 1 0
-0.881261 -18.614522 -11.837837 22.077396 1.523489 2.136722 0.031134 0.009119 -49498.000000 0 1 0
-0.855861 -18.483022 -13.223737 22.742511 1.524524 2.191312 0.041836 0.007358 375739.000000 0 1 0
0.305439 -17.780222 -13.681437 22.436829 -1.553619 2.226574 0.035499 0.006384 521689.000000 0 1 0
1.611139 -18.579222 -13.928337 23.276207 -1.484295 2.212291 0.035379 -0.000042 -173020.000000 0 1 0
1.607939 -19.656222 -14.873437 24.701653 -1.489175 2.216954 0.053574 0.000805 8701.410000 0 1 0
0.836039 -20.803522 -14.537037 25.393127 -1.530631 2.180323 0.054513 -0.004483 -488945.000000 0 0 1
0.757639 -21.806222 -15.740437 26.904399 -1.536066 2.195739 0.061741 -0.008638 -261771.000000 0 0 1
1.939839 -22.491822 -16.028937 27.687034 -1.484763 2.188216 0.074128 -0.012270 -279587.000000 0 0 1
2.909139 -21.699622 -16.700037 27.535938 -1.437527 2.222424 0.075651 -0.011698 -428892.000000 0 0 1
4.330839 -22.268722 -16.701937 28.171028 -1.378713 2.205422 0.072080 -0.015570 -256246.000000 0 0 1
4.389139 -23.476522 -17.441637 29.574014 -1.385971 2.201561 0.062063 -0.010269 454465.000000 0 0 1
5.729739 -23.960622 -17.573337 30.261584 -1.336073 2.190402 0.073706 -0.017930 601308.000000 0 0 1
6.218139 -23.792422 -19.014237 31.085138 -1.315165 2.228982 0.071544 -0.014316 -127550.000000 0 0 1
6.556539 -22.415822 -19.285237 30.288242 -1.286238 2.261038 0.083412 -0.026536 83912.900000 0 0 1
6.871039 -22.330522 -20.675737 31.198549 -1.272293 2.295234 0.087797 -0.015402 197189.000000 0 0 1
7.262239 -20.937522 -21.242037 30.697623 -1.236928 2.335020 0.074301 -0.014559 -141332.000000 0 0 1
6.091139 -20.213122 -21.427537 30.080086 -1.278105 2.363637 0.085939 -0.018760 -356029.000000 0 0 1
6.359639 -18.887622 -21.711937 29.471944 -1.246010 2.398971 0.085708 -0.016717 58078.100000 0 0 1
5.114539 -18.096622 -22.162937 29.066166 -1.295356 2.437964 0.083714 -0.017138 -173001.000000 0 0 1
4.595339 -18.566522 -23.408237 30.228768 -1.328166 2.456514 0.079475 -0.018029 683338.000000 0 0 1
3.628039 -17.704922 -24.052437 30.085655 -1.368677 2.497201 0.089981 -0.010711 1157680.000000 0 0 1
2.225939 -17.295222 -23.531037 29.288038 -1.442797 2.503839 0.094417 -0.006456 355978.000000 0 0 1
2.330139 -16.485122 -22.398637 27.908560 -1.430379 2.502391 0.085505 -0.004153 -850636.000000 0 0 1
1.122939 -15.857322 -22.144437 27.259709 -1.500099 2.518968 0.085047 -0.009771 -393824.000000 0 0 1
1.264939 -14.962622 -20.864437 25.706125 -1.486457 2.517772 0.082081 -0.012587 58131.900000 0 0 1
2.291739 -14.013222 -20.961137 25.317814 -1.408690 2.546186 0.068452 -0.009538 -291762.000000 0 0 1
2.117039 -13.056022 -19.941937 23.929530 -1.410045 2.555957 0.065789 -0.019454 245261.000000 0 1 0
3.331939 -12.128022 -19.704737 23.376642 -1.302681 2.573492 0.049379 -0.019651 -277685.000000 0 1 0
4.470039 -12.746622 -19.169837 23.450805 -1.233512 2.527764 0.045921 -0.022458 -265796.000000 0 1 0
5.700039 -12.133622 -19.490737 23.655951 -1.131622 2.539099 0.055673 -0.006029 364580.000000 0 1 0
6.179739 -11.105222 -18.429337 22.386504 -1.062998 2.537881 0.048888 -0.005011 290960.000000 0 1 0
5.262639 -9.967522 -18.205437 21.412258 -1.085017 2.587227 0.022162 -0.003631 748846.000000 0 1 0
5.413239 -8.818522 -19.103437 21.725809 -1.020256 2.645180 0.040887 -0.012602 -414400.000000 0 1 0
4.865939 -8.927022 -20.537237 22.916090 -1.071739 2.681909 0.054451 -0.019126 249774.000000 0 1 0
3.458639 -8.701722 -20.561037 22.592883 -1.192476 2.714242 0.050294 -0.021229 381900.000000 0 1 0
2.942439 -8.707822 -21.912337 23.762041 -1.244935 2.744417 0.057116 -0.029533 605869.000000 0 1 0
1.395339 -8.743722 -22.044937 23.756660 -1.412549 2.759664 0.048153 -0.025935 283465.000000 0 1 0
0.871839 -7.534522 -21.529137 22.826144 -1.455596 2.802867 0.038686 -0.027985 1028660.000000 0 1 0
-0.573061 -7.418022 -21.622037 22.866305 1.493697 2.810184 0.050177 -0.025441 1548790.000000 0 1 0
-1.093561 -6.478522 -22.745737 23.675634 1.403575 2.860394 0.067270 -0.025960 -68552.100000 0 1 0
-0.652261 -6.926322 -24.058937 25.044596 1.476902 2.860107 0.072067 -0.022042 25046.900000 0 0 1
-1.166161 -6.131522 -25.183397 25.945307 1.382850 2.898649 0.075827 -0.026688 93654.000000 0 0 1
-0.399761 -4.833922 -25.583847 26.039582 1.488285 2.954227 0.077641 -0.027886 -81752.000000 0 0 1
-0.941761 -4.117722 -26.704997 27.037000 1.345954 2.984718 0.072264 -0.028503 -12666.900000 0 0 1
-0.410261 -2.793122 -27.020337 27.167415 1.424956 3.037490 0.059131 -0.022657 -686236.000000 0 0 1
-0.895561 -1.674322 -26.099547 26.168525 1.079636 3.068969 0.058703 -0.032123 -318613.000000 0 0 1
-2.286961 -1.546222 -26.119617 26.265098 0.594507 3.036292 0.059734 -0.028292 -217623.000000 0 0 1
-2.914961 -0.957122 -27.267647 27.439709 0.317257 3.029547 0.070810 -0.026518 -801513.000000 0 0 1
-4.431961 -1.045622 -27.304847 27.681948 0.231691 2.976343 0.078827 -0.027292 -537063.000000 0 0 1
-5.161361 -0.236322 -26.436817 26.936978 0.045755 2.948587 0.075960 -0.030593 -681898.000000 0 0 1
-6.501661 -0.628522 -26.447437 27.242128 0.096372 2.899459 0.086422 -0.042343 -798018.000000 0 0 1
-7.451761 0.341678 -25.755677 26.814182 -0.045820 2.859677 0.079524 -0.023889 -971808.000000 0 0 1
-7.668461 1.593678 -26.391207 27.528910 -0.204906 2.853095 0.092344 -0.034822 209594.000000 0 0 1
-8.725661 1.634878 -27.335827 28.741214 -0.185217 2.827581 0.114220 -0.041479 854477.000000 0 0 1
-10.185661 1.488378 -26.738807 28.651819 -0.145098 2.774104 0.109321 -0.042790 -353169.000000 0 0 1
-11.153061 1.864878 -27.678607 29.899395 -0.165675 2.753743 0.105315 -0.047420 -1054550.000000 0 0 1
-12.373161 1.624978 -27.065687 29.804145 -0.130584 2.709564 0.068802 -0.037273 -1453740.000000 0 0 1
-13.509761 2.212178 -27.854477 31.036740 -0.162306 2.684791 0.048823 -0.032335 -750579.000000 0 0 1
-14.789161 1.740278 -27.482087 31.257206 -0.117134 2.645027 0.039731 -0.030521 534693.000000 0 0 1
-15.872961 2.050378 -28.355097 32.560197 -0.128463 2.627728 0.034326 -0.023926 841130.000000 0 0 1
-16.691961 3.329578 -27.953377 32.727648 -0.196888 2.594655 0.034267 -0.012456 -349996.000000 0 0 1
-15.986461 4.528978 -28.109357 32.652940 -0.276067 2.607738 0.041746 -0.013759 -96583.700000 0 0 1
-15.746661 5.076178 -29.405337 33.740165 -0.311847 2.629096 0.034507 -0.016885 -673159.000000 0 0 1
-16.950661 5.565378 -30.211427 35.086018 -0.317239 2.608161 0.021872 0.000240 -103373.000000 0 0 1
-17.585761 6.742978 -29.652477 35.128281 -0.366144 2.575718 0.026522 0.007079 465285.000000 0 0 1
-18.506961 7.385178 -30.519467 36.448406 -0.379686 2.563183 0.014346 0.008772 -176291.000000 0 0 1
-19.360561 8.402078 -29.753087 36.478383 -0.409451 2.524624 0.013011 -0.005775 -673305.000000 0 0 1
-18.577661 9.440278 -29.251937 35.915514 -0.470148 2.522603 0.019258 -0.004206 -140426.000000 0 0 1
-19.270161 10.397178 -28.518657 35.954891 -0.494783 2.486807 0.042964 -0.001588 -304360.000000 0 0 1
-9.346361 25.068778 30.803028 40.799812 -1.213931 0.715173 0.062733 -0.016733 -804434.000000 0 0 1
-9.917761 26.367878 30.887298 41.804930 -1.211035 0.739444 0.069859 -0.017302 166500.000000 0 0 1
-9.391461 27.158378 31.930748 42.957534 -1.237865 0.732792 0.082830 -0.021196 598745.000000 0 0 1
-7.885761 27.596778 31.855518 42.878216 -1.292464 0.733359 0.078412 -0.019231 435779.000000 0 0 1
-7.706161 28.465978 30.786928 42.632520 -1.306418 0.763896 0.093376 -0.006973 288992.000000 0 0 1
-6.340361 28.670678 30.460368 42.308888 -1.353155 0.767063 0.093642 -0.009960 241583.000000 0 0 1
-6.137361 29.749478 29.477708 42.327697 -1.367349 0.800404 0.107898 -0.014981 -192606.000000 0 0 1
-6.340261 31.087678 29.933678 43.619580 -1.369608 0.814484 0.114974 -0.017559 341834.000000 0 0 1
-5.945761 32.021378 28.948728 43.574644 -1.387206 0.844175 0.125965 -0.014397 -6145.680000 0 0 1
-6.236961 33.509078 29.397788 45.010976 -1.386775 0.859093 0.113231 -0.017225 -48912.000000 0 0 1
-5.453661 33.932978 30.516308 45.961228 -1.411440 0.844697 0.118954 -0.023986 834320.000000 0 0 1
-6.269361 -33.540656 31.545338 46.469225 1.386010 0.824610 0.110778 -0.026114 1569260.000000 0 0 1
-7.438661 33.752778 32.255034 47.275479 -1.353877 0.819922 0.085272 -0.020801 868335.000000 0 0 1
-7.034161 32.897078 33.296871 47.332640 -1.360145 0.790535 0.104177 -0.021165 88191.200000 0 0 1
-7.359361 31.537578 33.065893 46.283175 -1.341547 0.774993 0.103611 -0.011237 -53638.100000 0 0 1
-7.222261 30.780578 -33.631117 46.159041 -1.340328 2.387061 0.099837 -0.010286 246949.000000 0 0 1
-5.873861 30.628478 -33.218647 45.564069 -1.381319 2.387734 0.092639 -0.012208 162108.000000 0 0 1
-5.851661 30.229478 -31.869827 44.314209 -1.379587 2.373416 0.086234 -0.014909 -405809.000000 0 0 1
-4.427561 30.129078 -31.288617 43.661678 -1.424888 2.369733 0.071743 -0.017673 675168.000000 0 0 1
-3.660061 28.886578 -31.345137 42.782567 -1.444763 2.393021 0.078403 -0.014762 727343.000000 0 0 1
-3.376261 28.525578 -32.674147 43.505259 -1.452985 2.420431 0.072189 -0.019690 -770503.000000 0 0 1
-2.758561 27.090078 -32.831447 42.654260 -1.469317 2.449184 0.068469 -0.024734 -855832.000000 0 0 1
-1.495461 26.950578 -32.231387 42.040841 -1.515364 2.444432 0.084446 -0.027385 -31405.000000 0 0 1
-0.918661 25.668778 -32.401167 41.346895 -1.535023 2.471304 0.092767 -0.029601 30901.900000 0 0 1
-0.379061 25.395878 -33.855367 42.323518 -1.555871 2.497956 0.072255 -0.012998 -544908.000000 0 0 1
-1.354661 25.308978 33.153563 41.731741 -1.517322 0.652704 0.074494 -0.011609 278998.000000 0 0 1
-0.837261 25.085778 31.854408 40.554908 -1.537433 0.667351 0.085507 -0.007475 217422.000000 0 0 1
-0.255761 26.231878 31.005478 40.614240 -1.561047 0.702214 0.065732 -0.009204 562598.000000 0 0 1
-1.333561 27.084678 30.629548 40.908769 -1.521599 0.724655 0.077474 -0.014461 568855.000000 0 0 1
-0.827261 28.281178 30.097018 41.307867 -1.541553 0.754517 0.083916 -0.012119 282464.000000 0 0 1
-1.866561 29.429578 30.247898 42.243573 -1.507456 0.772690 0.094928 -0.014012 262832.000000 0 0 1
-2.051361 29.871978 31.559558 43.503435 -1.502232 0.759109 0.108585 -0.023027 -342048.000000 0 0 1
-2.795561 31.028378 31.674288 44.427873 -1.480942 0.777118 0.102889 -0.020764 -224509.000000 0 0 1
-2.414961 31.864178 32.939441 45.892970 -1.495152 0.770238 0.125464 -0.020619 227565.000000 0 0 1
-1.180461 32.535478 32.786648 46.205142 -1.534530 0.781882 0.113544 -0.031574 -209047.000000 0 0 1
-0.668761 32.909378 -34.009424 47.329856 -1.550478 2.372528 0.096026 -0.030143 -453567.000000 0 0 1
0.750639 33.452178 33.903614 47.634722 1.548361 0.778822 0.102802 -0.030689 -477964.000000 0 0 1
0.831039 -33.493256 33.137137 47.122804 -1.545989 0.790897 0.123408 -0.032037 -80619.700000 0 0 1
2.172439 -33.160756 32.900994 46.763561 -1.505377 0.790401 0.080778 -0.029113 -288124.000000 0 0 1
2.207039 -31.616556 32.547490 45.429250 -1.501103 0.772105 0.086282 -0.028841 -11376.600000 0 0 1
1.929539 -30.804956 33.713877 45.708795 -1.508241 0.741317 0.087591 -0.026058 196457.000000 0 0 1
2.046839 -29.409356 33.438381 44.578303 -1.501310 0.722576 0.067480 -0.033636 -74449.500000 0 0 1
1.514139 -28.552956 -33.449977 44.005282 -1.517817 2.434318 0.065437 -0.032302 285803.000000 0 0 1
0.103339 -28.507456 -33.320967 43.851711 -1.567171 2.433887 0.057818 -0.031365 179108.000000 0 0 1
-0.331961 -27.587956 -32.366637 42.530045 1.558764 2.435696 0.061527 -0.033731 -326693.000000 0 0 1
-1.849261 -27.384956 -32.289627 42.378952 1.503370 2.437078 0.074640 -0.034175 -424349.000000 0 0 1
-2.289261 -26.998456 -31.042047 41.203956 1.486206 2.423976 0.076502 -0.034542 -654100.000000 0 0 1
-3.534561 -26.408356 -31.230337 41.051533 1.437745 2.435279 0.080787 -0.036409 -772339.000000 0 0 1
-3.953361 -25.660556 -29.919637 39.614112 1.417934 2.426873 0.087236 -0.036855 -413239.000000 0 0 1
-4.546161 -26.588956 -29.017237 39.618685 1.401455 2.392655 0.092406 -0.038473 63418.500000 0 0 1
-4.930561 -26.055856 -27.756257 38.387861 1.383777 2.379000 0.094847 -0.029364 249649.000000 0 0 1
-3.704461 -25.676156 -26.871827 37.350811 1.427509 2.373798 0.087284 -0.030666 159710.000000 0 0 1
-3.020561 -24.550456 -27.379187 36.898083 1.448377 2.406878 0.082557 -0.028515 293479.000000 0 0 1
-1.960661 -24.281356 -26.456947 35.963850 1.490224 2.397428 0.077493 -0.020469 -870695.000000 0 0 1
-0.981661 -23.184056 -26.903307 35.528186 1.528480 2.429871 0.075051 -0.023630 258411.000000 0 0 1
-0.142861 -23.302756 -28.047167 36.464811 1.564666 2.448317 0.049126 -0.025772 458424.000000 0 0 1
0.738939 -24.425356 -27.895807 37.085308 -1.540553 2.422201 0.052247 -0.027221 -719664.000000 0 0 1
1.602539 -24.761356 -29.113777 38.253168 -1.506167 2.435775 0.043782 -0.031649 59416.300000 0 0 1
2.481139 -23.738156 -29.514967 37.957731 -1.466653 2.461596 0.055932 -0.027907 44501.500000 0 0 1
3.433939 -24.227256 -30.470017 39.079071 -1.429996 2.464986 0.055548 -0.023217 -365873.000000 0 0 1
4.441139 -23.128656 -30.863387 38.822765 -1.381087 2.489774 0.068207 -0.028904 373679.000000 0 0 1
5.647139 -23.079956 -30.058827 38.315893 -1.330834 2.472686 0.065714 -0.028850 1731780.000000 0 0 1
6.658339 -24.109456 -30.134357 39.162211 -1.301342 2.448816 0.064946 -0.018918 218718.000000 0 0 1
7.300939 -24.393156 -31.474337 40.484116 -1.279979 2.461396 0.070129 -0.018348 -744883.000000 0 0 1
6.433839 -25.106856 -32.333637 41.439264 -1.319936 2.465887 0.039169 -0.021004 44811.700000 0 0 1
6.769839 -24.956556 -33.715687 42.490092 -1.305906 2.487327 0.054641 -0.024733 -9957.810000 0 0 1
6.308239 -23.635156 33.718582 41.657620 -1.309975 0.627630 0.065079 -0.025598 -643427.000000 0 0 1
4.948039 -23.395756 33.891996 41.479054 -1.362375 0.614456 0.078923 -0.028972 -795438.000000 0 0 1
4.488839 -22.340956 33.069572 40.160485 -1.372512 0.603357 0.092253 -0.031217 1072930.000000 0 0 1
2.957539 -22.026656 33.374797 40.097353 -1.437324 0.587473 0.064707 -0.024226 1302350.000000 0 0 1
2.032339 -22.983456 32.937433 40.214974 -1.482600 0.611071 0.059174 -0.025771 -180089.000000 0 0 1
1.845339 -24.085956 33.774564 41.524207 -1.494331 0.620874 0.057590 -0.019262 172309.000000 0 0 1
0.443639 -24.759756 33.586455 41.728795 -1.552881 0.635332 0.049158 -0.014771 709232.000000 0 0 1
0.442239 -25.586256 32.503663 41.368348 -1.553514 0.666948 0.057571 -0.009134 821389.000000 0 0 1
-0.890961 -26.049656 32.203183 41.429741 1.536607 0.680440 0.052775 -0.012075 765661.000000 0 0 1
-0.999861 -27.139856 31.142198 41.320794 1.533972 0.717170 0.056453 -0.022751 -440709.000000 0 0 1
-2.299561 -27.192356 30.641228 41.031660 1.486431 0.727604 0.059132 -0.024061 -456850.000000 0 0 1
-2.492761 -28.049856 29.536558 40.809516 1.482160 0.761551 0.065262 -0.030587 -1383960.000000 0 0 1
-3.816161 -27.896956 28.892618 40.343359 1.434845 0.772500 0.076995 -0.025759 -1080160.000000 0 0 1
-4.919461 -28.254956 29.708798 41.293539 1.398415 0.767781 0.082104 -0.023758 -147679.000000 0 0 1
-6.006961 -28.675856 28.945978 41.185653 1.364304 0.791447 0.053363 -0.018814 -689842.000000 0 0 1
-7.057761 -29.441556 29.759248 42.452681 1.335515 0.794000 0.055885 -0.013883 -1052620.000000 0 0 1
-8.027761 -29.957656 28.911378 42.400164 1.308977 0.820481 0.078706 -0.010137 -171268.000000 0 0 1
-9.275661 -30.220256 29.536018 43.262896 1.272989 0.819331 0.072793 -0.012107 137058.000000 0 0 1
-9.331961 -31.434456 30.507988 44.787810 1.282213 0.821441 0.053657 -0.006880 -837973.000000 0 0 1
-9.262261 -32.719656 29.926338 45.298467 1.294934 0.849115 0.074608 -0.005031 215368.000000 0 0 1
-10.445661 -33.170756 29.283598 45.463612 1.265721 0.870936 0.064883 -0.000773 -125487.000000 0 0 1
-10.390961 33.517678 28.755218 45.368154 -1.270178 0.884315 0.075331 -0.004149 -310570.000000 0 0 1
-10.576561 32.663378 29.855088 45.498200 -1.257646 0.855049 0.079426 0.000049 231665.000000 0 0 1
-10.390161 31.281578 29.551458 44.269417 -1.250112 0.839901 0.088088 -0.012391 173572.000000 0 0 1
-11.088761 30.280178 30.550098 44.420247 -1.219758 0.812409 0.088022 -0.000504 801440.000000 0 0 1
-12.509861 30.235978 30.368268 44.642387 -1.178501 0.822684 0.076085 0.010384 712590.000000 0 0 1
-13.237161 29.148478 30.917778 44.505789 -1.144514 0.802806 0.067173 0.009598 100126.000000 0 0 1
-13.140961 28.808678 32.429063 45.324044 -1.142843 0.773466 0.077354 -0.003854 -503471.000000 0 0 1
-13.763361 29.783178 33.264223 46.722332 -1.137910 0.778517 0.059902 -0.005128 366154.000000 0 0 1
-13.977761 29.255178 -33.482277 46.608005 -1.125076 2.372268 0.063830 -0.010627 569405.000000 0 0 1
-15.281961 29.848478 -32.828727 46.927553 -1.097607 2.345580 0.042564 -0.009926 588424.000000 0 0 1
-15.478261 29.380778 -31.544357 45.802327 -1.085927 2.330500 0.033948 -0.015889 -10547.200000 0 0 1
-16.744461 29.724978 -30.988997 46.089795 -1.057790 2.308191 0.040321 -0.015630 403120.000000 0 0 1
-16.900161 29.312678 -29.529687 44.909364 -1.047800 2.288345 0.058592 -0.030368 -106558.000000 0 0 1
-16.970861 27.914778 -29.374437 43.932932 -1.024550 2.303148 0.052049 -0.035500 22659.500000 0 0 1
-16.999861 27.537478 -27.996527 42.791512 -1.017728 2.283992 0.057062 -0.038055 -232452.000000 0 0 1
-17.602261 26.153378 -27.700397 41.966067 -0.978395 2.291704 0.040746 -0.040993 -211107.000000 0 0 1
-18.984261 26.053778 -27.926007 42.650479 -0.941095 2.284667 0.041151 -0.035313 -440825.000000 0 0 1
-19.445561 24.783378 -27.576197 41.866362 -0.905503 2.289849 0.028920 -0.031305 -87740.700000 0 0 1
-20.904361 24.508178 -27.966647 42.658838 -0.864590 2.285758 0.031523 -0.026846 -624962.000000 0 0 1
-21.892561 24.871578 -27.070127 42.786346 -0.849015 2.255807 0.030939 -0.024935 -618735.000000 0 0 1
-23.141761 24.616878 -27.646587 43.656220 -0.816275 2.256580 0.047234 -0.028496 736677.000000 0 0 1
-24.420061 24.885378 -26.736037 43.936740 -0.794835 2.224981 0.062882 -0.035726 965830.000000 0 0 1
-24.691461 26.221578 -26.259887 44.573771 -0.815443 2.200782 0.032694 -0.023407 357156.000000 0 0 1
-25.924131 26.312578 -25.546747 44.911564 -0.792834 2.175871 0.036159 -0.020980 390031.000000 0 0 1
-25.847761 25.937978 -24.006837 43.785999 -0.787140 2.151098 0.045117 -0.011880 -492683.000000 0 0 1
-25.499921 24.623778 -23.741537 42.664235 -0.767920 2.160932 0.053034 -0.008522 195501.000000 0 0 1
-26.577611 23.664278 -23.668137 42.738135 -0.727477 2.157711 0.062463 -0.001053 255735.000000 0 0 1
-27.278511 23.554178 -22.252337 42.356617 -0.712262 2.123931 0.044416 -0.004032 263346.000000 0 0 1
-26.452111 23.080278 -21.194037 41.007324 -0.717430 2.113947 0.048707 -0.006764 -332683.000000 0 0 1
-25.496761 23.987378 -20.790637 40.715227 -0.754905 2.106720 0.046204 -0.005954 -982905.000000 0 0 1
-24.802361 23.688878 -19.489637 39.448270 -0.762440 2.087545 0.052961 -0.014617 -836323.000000 0 0 1
-25.514331 23.732678 -18.320137 39.368115 -0.749236 2.054832 0.052860 -0.008545 -394465.000000 0 0 1
-24.700561 23.338378 -17.256737 38.112892 -0.757050 2.040677 0.052017 -0.016321 -48079.200000 0 0 1
-25.422101 23.462978 -15.867837 38.060252 -0.745343 2.000843 0.051459 -0.014079 -73371.100000 0 0 1
-25.559881 24.803578 -15.360137 38.787354 -0.770382 1.977963 0.055796 -0.018190 502513.000000 0 0 1
-26.361541 24.856978 -14.142837 38.894987 -0.756031 1.942943 0.029803 -0.012537 571633.000000 0 0 1
-26.155241 26.241378 -13.473937 39.424022 -0.787042 1.919596 0.029724 -0.009761 -393159.000000 0 0 1
-24.943361 26.517978 -12.845637 38.605502 -0.815987 1.910005 0.047296 -0.016421 -750954.000000 0 0 1
-24.953061 27.492178 -11.853737 38.974173 -0.833775 1.879835 0.046023 -0.010193 -853677.000000 0 0 1
-23.595761 28.060078 -11.516637 38.428646 -0.871608 1.875163 0.052065 -0.007120 -270114.000000 0 0 1
-22.684161 27.021878 -11.083237 36.980957 -0.872445 1.875176 0.049890 -0.013002 288091.000000 0 0 1
-21.505861 27.480678 -10.478237 36.434643 -0.906767 1.862506 0.042504 -0.009142 -473353.000000 0 0 1
-20.623061 26.395978 -9.925537 34.936723 -0.907565 1.858864 0.073018 -0.017065 -348733.000000 0 0 1
-20.026561 25.598978 -10.903737 34.282099 -0.906930 1.894478 0.073026 -0.018628 -152684.000000 0 0 1
-19.272361 24.589878 -10.296837 32.895453 -0.906042 1.889164 0.082468 -0.010451 -285019.000000 0 0 1
-18.968061 23.440478 -11.245637 32.182413 -0.890470 1.927764 0.089596 -0.013159 -420551.000000 0 0 1
-18.355361 22.373578 -10.591237 30.816726 -0.883737 1.921634 0.069070 -0.015031 -35352.600000 0 0 1
-17.865261 21.567178 -11.612937 30.317833 -0.879004 1.963881 0.086212 -0.010429 19828.200000 0 0 1
-17.457061 20.212578 -10.985737 28.878776 -0.858418 1.961034 0.068784 -0.003774 -197082.000000 0 0 1
-18.584961 19.404078 -10.746237 28.937875 -0.806957 1.951265 0.064194 -0.000887 -95690.500000 0 0 1
-18.291961 18.118678 -10.202037 27.694113 -0.780639 1.948065 0.084559 -0.015106 36521.000000 0 0 1
-19.493661 17.080978 -10.192737 27.850575 -0.719528 1.945481 0.071709 -0.003461 567532.000000 0 0 1
-19.787661 16.649478 -11.519437 28.309964 -0.699484 1.989859 0.068916 0.001238 605070.000000 0 0 1
-20.636661 17.535978 -12.296837 29.742133 -0.704348 1.997034 0.068197 0.002669 172041.000000 0 0 1
-21.316661 16.984178 -13.607537 30.463542 -0.672760 2.033850 0.065611 -0.001001 237698.000000 0 0 1
-20.521161 17.078278 -14.806637 30.529037 -0.694085 2.077161 0.077703 -0.002283 -41964.100000 0 0 1
-21.110861 16.556378 -15.959637 31.216856 -0.665069 2.107436 0.066383 -0.005848 -111899.000000 0 0 1
-20.259461 16.549778 -17.275837 31.349569 -0.684956 2.154443 0.080516 -0.012837 -157214.000000 0 0 1
-19.896661 17.767278 -17.850537 32.096650 -0.728922 2.160542 0.062472 -0.021103 -255844.000000 0 0 1
-19.008361 17.522978 -18.888537 32.017954 -0.744760 2.201776 0.069455 -0.013494 -947949.000000 0 0 1
-18.055561 18.697778 -19.125337 32.270555 -0.802870 2.205149 0.056306 -0.016051 -867660.000000 0 0 1
-17.013561 18.649578 -18.211737 31.127727 -0.831240 2.195756 0.072536 -0.015886 -110978.000000 0 0 1
-16.046361 19.700378 -18.341637 31.336979 -0.887264 2.196050 0.081807 -0.024002 534258.000000 0 0 1
33.685048 30.219578 1.771363 45.288443 0.731222 1.531673 0.074882 -0.023215 -59564.900000 0 0 1
35.038668 30.398678 1.435863 46.409585 0.714609 1.539852 0.093256 -0.023229 -192983.000000 0 0 1
35.156188 30.999678 0.151963 46.871747 0.722652 1.567554 0.073744 -0.016199 391918.000000 0 0 1
36.603028 30.892778 -0.413037 47.899019 0.700998 1.579420 0.048896 -0.010671 176566.000000 0 0 1
-36.221221 31.770878 0.235663 48.181128 -0.720038 1.565905 0.044731 -0.003244 -25486.300000 0 0 1
-34.951931 31.761278 -0.411337 47.229075 -0.737608 1.579506 0.063500 -0.002167 532045.000000 0 0 1
-34.037811 32.966978 -0.023537 47.385597 -0.769418 1.571293 0.041841 -0.003965 321687.000000 0 0 1
-33.452111 32.811878 1.277563 46.875316 -0.775737 1.543538 0.040294 -0.003471 -87231.200000 0 0 1
-33.077801 34.044678 1.802663 47.501901 -0.799802 1.532838 0.016648 -0.005203 -208616.000000 0 0 1
-32.263721 33.766978 3.085963 46.804697 -0.808160 1.504816 0.041458 -0.008433 -490204.000000 0 0 1
-31.901851 -33.180856 3.668663 46.175280 0.805048 1.491262 0.035649 -0.001240 155390.000000 0 0 1
-31.300001 -33.485156 4.951663 46.102763 0.819115 1.463184 0.052906 -0.013628 -311418.000000 0 0 1
-31.290521 -32.167056 5.690463 45.234916 0.799210 1.444664 0.056231 -0.010339 879108.000000 0 0 1
-32.552171 -31.692856 6.200163 45.853277 0.772023 1.435163 0.056729 -0.010972 777421.000000 0 0 1
-33.071581 -32.374556 7.320763 46.855469 0.774748 1.413912 0.052859 -0.023621 -325143.000000 0 0 1
-34.202955 -31.589456 8.106563 47.259415 0.745696 1.398410 0.065874 -0.022811 1174450.000000 0 0 1
-35.509949 -31.473756 7.571163 48.050769 0.725215 1.412571 0.041670 -0.019833 422172.000000 0 0 1
-36.212271 -32.688656 7.271463 49.322926 0.734302 1.422831 0.034042 -0.017058 -1176270.000000 0 0 1
35.984668 -32.452456 7.164863 48.983605 -0.733831 1.423999 0.036679 -0.009620 -624586.000000 0 0 1
35.310108 -32.504756 8.396963 48.722396 -0.744054 1.397589 0.028770 -0.002333 231743.000000 0 0 1
33.929978 -32.227356 8.258463 47.518924 -0.759668 1.396116 0.010201 0.013139 342720.000000 0 0 1
33.065608 -32.352556 9.569063 47.239701 -0.774499 1.366821 0.010416 0.005543 638398.000000 0 0 1
31.671348 -32.176256 9.324463 46.101317 -0.793306 1.367131 0.017571 -0.001232 973049.000000 0 0 1
30.762998 -32.053156 10.416163 45.631824 -0.805934 1.340501 0.036308 0.002785 89932.400000 0 0 1
30.908188 -30.847756 11.317563 45.110835 -0.784420 1.317204 0.038270 -0.004263 -871935.000000 0 0 1
30.594058 -29.539656 10.889663 43.899572 -0.767866 1.320121 0.021837 -0.011447 378996.000000 0 0 1
31.181018 -29.052256 9.653463 43.697584 -0.750071 1.348044 0.019380 -0.011622 -23838.600000 0 0 1
30.894928 -27.585756 9.343763 42.459115 -0.728873 1.348915 0.017270 -0.009839 106638.000000 0 0 1
31.313448 -27.195956 8.032663 42.245423 -0.715141 1.379489 0.020102 -0.020027 172129.000000 0 0 1
30.572468 -26.036456 7.700563 40.888526 -0.705440 1.381334 0.017106 -0.014449 202652.000000 0 0 1
30.607098 -25.693156 6.203463 40.440273 -0.698338 1.416790 0.012295 -0.007496 983094.000000 0 0 1
31.895348 -25.092556 5.981463 41.021062 -0.666588 1.424460 0.024783 -0.013362 439645.000000 0 0 1
31.940308 -24.615656 4.619563 40.588843 -0.656604 1.456736 0.033849 -0.008554 337557.000000 0 0 1
33.330328 -24.239356 4.036063 41.409503 -0.628779 1.473174 0.037688 -0.014691 348040.000000 0 0 1
34.167648 -25.355456 3.837663 42.720663 -0.638419 1.480844 0.018615 0.000892 -269077.000000 0 0 1
35.522188 -25.004556 3.642563 43.592682 -0.613348 1.487140 0.033539 -0.008619 235355.000000 0 0 1
36.350618 -26.317256 3.544563 45.016990 -0.626642 1.491976 0.032107 -0.009037 -293111.000000 0 0 1
36.221528 -27.061956 4.738063 45.462048 -0.641658 1.466387 0.006020 -0.006743 -183633.000000 0 0 1
36.673888 -28.381256 4.634363 46.604153 -0.658611 1.471191 0.010840 -0.007882 -1602840.000000 0 0 1
36.029978 -29.407856 5.600263 46.843829 -0.684544 1.450958 0.014787 -0.010385 951718.000000 0 0 1
34.674188 -29.867756 5.440863 46.086714 -0.711065 1.452463 0.008084 -0.004094 614206.000000 0 0 1
33.741478 -28.826356 5.446163 44.711373 -0.707002 1.448686 0.001043 -0.000618 -1202940.000000 0 0 1
32.288328 -29.277056 5.755863 43.963759 -0.736525 1.439496 0.003132 -0.001539 432210.000000 0 0 1
31.672928 -30.202956 4.842663 44.032310 -0.761646 1.460594 -0.007256 0.001929 343378.000000 0 0 1
30.741578 -29.519056 4.008763 42.807587 -0.765114 1.477013 0.012515 -0.002466 272002.000000 0 0 1
29.354208 -30.157556 3.742663 42.251098 -0.798896 1.482099 0.024090 0.005266 489807.000000 0 0 1
29.449168 -31.410656 3.093463 43.167724 -0.817617 1.499073 0.026645 0.018906 -1037870.000000 0 0 1
28.168058 -31.890756 2.924463 42.649881 -0.847303 1.502173 0.042313 0.009988 -1138190.000000 0 0 1
28.218458 -33.322556 2.342463 43.728266 -0.868147 1.517202 0.043713 0.003481 -206167.000000 0 0 1
28.278458 -33.315756 0.956563 43.709562 -0.866999 1.548910 0.048887 -0.006025 190726.000000 0 0 1
28.426258 33.528878 0.463763 43.959673 0.867573 1.560246 0.041237 -0.004824 -357438.000000 0 0 1
28.224758 33.525378 -1.071237 43.837604 0.871028 1.595235 0.034755 -0.002690 -471843.000000 0 0 1
29.241428 -34.021756 -1.831937 44.898742 -0.860817 1.611609 0.029983 -0.004565 -115308.000000 0 0 1
28.915518 -34.045956 -3.198337 44.782404 -0.866704 1.642277 0.041407 -0.007849 -286858.000000 0 0 1
30.022698 -33.392056 -3.999537 45.082016 -0.838480 1.659630 0.020451 0.000169 -250249.000000 0 0 1
29.968408 -31.993456 -3.864437 44.007052 -0.818069 1.658724 0.015107 0.004978 299940.000000 0 0 1
30.922558 -31.449256 -4.753637 44.360539 -0.793842 1.678162 0.009185 0.010587 -166636.000000 0 0 1
31.198708 -29.956656 -4.579037 43.494002 -0.765091 1.676272 0.008509 0.008679 -333691.000000 0 0 1
30.112328 -29.089156 -4.920237 42.156139 -0.768117 1.687778 0.012377 -0.001668 291625.000000 0 0 1
30.328598 -27.674156 -4.897437 41.348128 -0.739666 1.689519 0.021708 -0.009121 600016.000000 0 0 1
31.390238 -27.200656 -6.015037 41.969077 -0.714014 1.714612 0.042232 -0.010603 677071.000000 0 0 1
32.720198 -27.541856 -5.657937 43.141366 -0.699678 1.702324 0.042711 -0.004184 57085.900000 0 0 1
33.669078 -27.298456 -6.696537 43.859505 -0.681284 1.724077 0.053805 -0.013328 229992.000000 0 0 1
33.754898 -28.363556 -7.821337 44.777872 -0.698824 1.746367 0.061007 -0.029273 -228195.000000 0 0 1
32.601728 -28.412156 -8.678537 44.107146 -0.716840 1.768849 0.063664 -0.026015 418366.000000 0 0 1
32.651308 -29.405856 -9.695937 44.998039 -0.733148 1.787974 0.049709 -0.015597 139265.000000 0 0 1
32.548578 -30.838456 -9.132537 45.758317 -0.758426 1.771728 0.041458 -0.010084 412711.000000 0 0 1
33.757178 -31.290956 -8.515737 46.810136 -0.747503 1.753736 0.048865 -0.008423 -232248.000000 0 0 1
33.569798 -32.419756 -7.823037 47.319889 -0.767972 1.736881 0.050441 -0.014351 -336864.000000 0 0 1
34.736128 -33.114756 -7.140937 48.519879 -0.761507 1.718508 0.056052 -0.014853 -583737.000000 0 0 1
34.375008 33.776178 -6.571437 48.638001 0.776612 1.706320 0.043136 -0.013402 35179.700000 0 0 1
33.924378 33.809578 -5.237137 48.180687 0.783703 1.679709 0.044910 -0.011239 -138274.000000 0 0 1
33.645498 32.364078 -4.676937 46.918299 0.765988 1.670645 0.020502 -0.007153 237011.000000 0 0 1
32.464868 31.755978 -5.167237 45.706784 0.774360 1.684090 0.029078 -0.016651 336071.000000 0 0 1
32.557448 30.395178 -4.763237 44.794449 0.751064 1.677333 0.035684 -0.010718 190496.000000 0 0 1
31.482568 29.478778 -5.385337 43.464380 0.752540 1.695018 0.049686 -0.026908 -53205.300000 0 0 1
31.658078 29.298978 -6.815337 43.670503 0.746716 1.727500 0.038125 -0.017044 99104.900000 0 0 1
30.398028 28.915378 -7.326137 42.588866 0.760406 1.743676 0.032800 -0.020536 120883.000000 0 0 1
30.481328 28.588078 -8.829437 42.712393 0.753358 1.779016 0.041348 -0.014091 -223352.000000 0 0 1
31.171228 27.361378 -9.121737 42.467594 0.720400 1.787276 0.052381 -0.011687 230396.000000 0 0 1
31.737318 27.275978 -10.416037 43.124589 0.709943 1.814742 0.053761 -0.008059 1531360.000000 0 0 1
33.051388 28.169878 -10.638037 44.711342 0.705831 1.811027 0.064076 -0.014557 59836.500000 0 0 1
34.259388 27.745578 -10.091937 45.225767 0.680729 1.795837 0.067486 -0.017193 216842.000000 0 0 1
35.418028 28.392878 -10.611237 46.617492 0.675747 1.800433 0.076291 -0.013816 433380.000000 0 0 1
35.750218 29.786778 -10.040737 47.604061 0.694655 1.783314 0.049518 -0.017671 -653334.000000 0 0 1
36.234888 29.736678 -8.685837 47.672643 0.687215 1.754017 0.050595 -0.011765 55189.900000 0 0 1
35.988948 31.014578 -8.099537 48.194511 0.711294 1.739657 0.036465 -0.014157 -763022.000000 0 0 1
36.826728 31.292278 -6.811837 48.803849 0.704329 1.710829 0.037672 -0.012538 758173.000000 0 0 1
-35.470390 31.399978 -7.070337 47.896731 -0.724603 1.718954 0.052290 -0.007995 346954.000000 0 0 1
-34.766422 30.213478 -7.352337 46.643491 -0.715446 1.729085 0.060962 -0.003907 -531324.000000 0 0 1
-33.287221 30.441078 -7.789937 45.775337 -0.740767 1.741806 0.092931 -0.009181 277861.000000 0 0 1
-32.456301 31.156478 -6.876837 45.512949 -0.764968 1.722474 0.091678 -0.023515 1117220.000000 0 0 1
-31.108151 31.336678 -7.367437 44.765875 -0.789058 1.736126 0.102215 -0.021701 999178.000000 0 0 1
-30.912941 32.394978 -8.510737 45.579350 -0.808804 1.758622 0.079366 -0.015633 -632221.000000 0 0 1
-31.021551 33.790678 -8.095637 46.579887 -0.828098 1.745485 0.066987 -0.010431 870274.000000 0 0 1
-29.964901 -33.863856 -7.200637 45.787610 0.846407 1.728714 0.088355 -0.021055 645276.000000 0 0 1
-30.130961 -32.385056 -6.653537 44.731826 0.821439 1.720093 0.065556 -0.024713 -484667.000000 0 0 1
-31.215651 -32.212656 -5.793337 45.228695 0.801115 1.699239 0.059437 -0.025679 -409684.000000 0 0 1
-31.127421 -32.832356 -4.522937 45.467977 0.812048 1.670436 0.065522 -0.026662 -80721.500000 0 0 1
-32.362581 -32.744556 -3.582137 46.177639 0.791265 1.648447 0.056065 -0.022183 -51182.000000 0 0 1
-32.585141 -31.507356 -2.991337 45.425247 0.768584 1.636696 0.053182 -0.012958 -98436.800000 0 0 1
-33.685501 -31.607556 -2.116137 46.240985 0.753584 1.616576 0.056404 -0.009020 25290.200000 0 0 1
-34.226477 -30.268356 -1.595337 45.718380 0.724104 1.605698 0.062015 -0.009972 -39999.900000 0 0 1
-35.284666 -30.370856 -0.667737 46.560095 0.710695 1.585138 0.056297 -0.002976 -140816.000000 0 0 1
-36.000158 -29.129356 -0.600137 46.312968 0.680292 1.583755 0.071553 -0.009583 283154.000000 0 0 1
36.673418 -29.145056 0.567463 46.847582 -0.671512 1.558683 0.064097 -0.008644 40035.200000 0 0 1
35.527768 -30.003956 0.386463 46.503861 -0.701305 1.562486 0.027976 0.001619 745536.000000 0 0 1
34.644668 -30.048456 1.493963 45.884580 -0.714471 1.538231 0.015789 0.002691 243289.000000 0 0 1
33.765678 -28.788356 1.733463 44.406029 -0.705997 1.531750 0.008625 0.025868 -46517.100000 0 0 1
32.589278 -28.801256 0.886763 43.501262 -0.723773 1.550410 0.008891 0.010652 946767.000000 0 0 1
32.073478 -27.507356 0.702663 42.259394 -0.708910 1.554168 0.015455 0.006036 269741.000000 0 0 1
30.809998 -27.255456 -0.183637 41.135746 -0.724258 1.575261 0.010641 -0.005774 1316870.000000 0 0 1
29.508348 -27.703756 0.245963 40.475934 -0.753866 1.564720 0.015185 0.011891 1225830.000000 0 0 1
29.222978 -29.104056 0.178863 41.243915 -0.783359 1.566460 0.023634 0.013131 -480341.000000 0 0 1
28.911028 -29.629356 -1.223937 41.415508 -0.797668 1.600353 0.010964 0.008388 354934.000000 0 0 1
27.548758 -29.347156 -1.582137 40.282662 -0.816996 1.610082 0.022087 0.010867 740506.000000 0 0 1
27.235458 -29.896556 -2.874137 40.544234 -0.831943 1.641745 0.024279 0.009655 -487407.000000 0 0 1
25.763558 -30.208456 -3.052637 39.819974 -0.864645 1.647533 0.026741 -0.004126 -986430.000000 0 0 1
24.876558 -29.167456 -3.189737 38.467624 -0.864628 1.653812 0.043005 0.002357 -621227.000000 0 0 1
23.544658 -29.629556 -3.221837 37.982124 -0.899336 1.655723 0.037736 -0.001913 -285655.000000 0 0 1
22.558658 -28.489656 -3.370337 36.495380 -0.901064 1.663278 0.036482 0.003867 -465798.000000 0 0 1
22.416558 -27.946656 -4.637937 36.125173 -0.894764 1.699537 0.041695 0.003494 -88258.100000 0 0 1
22.076858 -26.618756 -4.552437 34.880805 -0.878400 1.701684 0.050427 -0.001313 -597290.000000 0 0 1
21.554058 -25.993356 -5.842437 34.269025 -0.878494 1.742121 0.051968 -0.019379 943370.000000 0 0 1
20.140258 -26.207156 -6.023937 33.596620 -0.915559 1.751073 0.065979 -0.016940 487617.000000 0 0 1
19.631558 -25.663556 -7.191037 33.101770 -0.917790 1.789783 0.074990 -0.016200 -270448.000000 0 0 1
18.132158 -25.964456 -7.301437 32.499833 -0.961182 1.797391 0.080448 -0.016770 -552147.000000 0 0 1
17.377258 -25.241556 -6.388237 31.303591 -0.967872 1.776314 0.073519 -0.015877 -961473.000000 0 0 1
16.021858 -25.463856 -6.663137 30.814044 -1.009182 1.788755 0.078355 -0.019888 -635479.000000 0 0 1
15.197758 -24.571956 -5.748137 29.458343 -1.016885 1.767184 0.059858 -0.011701 -415027.000000 0 0 1
15.394658 -24.956056 -4.385137 29.648435 -1.018064 1.719245 0.044867 -0.001376 270546.000000 0 0 1
14.600558 -24.167756 -3.499537 28.451775 -1.027343 1.694107 0.040025 -0.000753 90968.300000 0 0 1
14.550458 -24.650056 -2.057937 28.698018 -1.037554 1.642568 0.038907 0.005433 -346815.000000 0 0 1
13.856858 -25.859256 -1.832837 29.395118 -1.078876 1.633189 0.042593 0.004410 -170958.000000 0 0 1
14.539158 -27.060156 -2.131937 30.792602 -1.077763 1.640087 0.038096 -0.001290 -103100.000000 0 0 1
13.634858 -28.333556 -2.172037 31.518527 -1.122280 1.639764 0.047842 0.002776 -131753.000000 0 0 1
13.003258 -28.565956 -0.953237 31.400752 -1.143625 1.601158 0.066981 -0.010204 -345699.000000 0 0 1
12.371458 -29.841256 -0.963237 32.318437 -1.177788 1.600605 0.074186 -0.014624 -70800.500000 0 0 1
13.237258 -31.093256 -0.599437 33.799037 -1.168310 1.588533 0.073215 -0.014851 -189636.000000 0 0 1
14.147058 -31.543256 -1.538137 34.604655 -1.149193 1.615260 0.086131 -0.014894 -593012.000000 0 0 1
14.877958 -32.660856 -1.128037 35.907627 -1.143354 1.602216 0.088042 -0.017090 54639.100000 0 0 1
16.322858 -32.739956 -1.695137 36.622588 -1.108301 1.617100 0.067935 -0.010136 471591.000000 0 0 1
17.118058 -31.689756 -1.153137 36.036069 -1.075527 1.602801 0.058769 0.001944 -369676.000000 0 0 1
18.469058 -31.738556 -1.504437 36.751944 -1.043783 1.611743 0.055506 -0.003204 -127640.000000 0 0 1
19.326458 -30.641156 -0.800737 36.235806 -1.008083 1.592896 0.051341 -0.002708 39461.800000 0 0 1
18.947258 -29.367756 -1.276737 34.972757 -0.997823 1.607311 0.039986 0.004214 231414.000000 0 0 1
19.465858 -28.333456 -0.458537 34.378985 -0.968830 1.584134 0.040444 0.010192 -197426.000000 0 0 1
19.276358 -26.903956 -0.910337 33.109358 -0.949090 1.598295 0.040827 0.011745 -203936.000000 0 0 1
19.734058 -26.434056 -2.206437 33.061469 -0.929514 1.637583 0.038218 0.008645 623288.000000 0 0 1
18.777158 -26.640656 -3.265137 32.756180 -0.956835 1.670642 0.048704 0.012131 -87395.600000 0 0 1
32.885368 -29.123756 13.766863 46.034413 -0.724810 1.267093 0.016581 -0.019385 184649.000000 0 0 1
33.703678 -29.485956 14.833263 47.173989 -0.718750 1.250932 0.029667 -0.010471 648658.000000 0 0 1
32.780308 -29.907956 15.847763 47.118850 -0.739611 1.227773 0.021446 -0.003387 724966.000000 0 0 1
33.586208 -30.536956 16.996463 48.470804 -0.737881 1.212527 0.026052 -0.001395 -120735.000000 0 0 1
32.797968 -30.984556 18.075363 48.605228 -0.756975 1.189762 0.018685 -0.008631 -237642.000000 0 0 1
33.510078 -31.282956 19.249863 49.720277 -0.751039 1.173243 0.017697 -0.003580 -551680.000000 0 0 1
34.292978 -32.551856 19.315863 51.075770 -0.759357 1.182966 0.013762 -0.003247 -730155.000000 0 0 1
35.422708 -32.575856 18.484063 51.552064 -0.743556 1.204081 0.021738 0.000595 -156947.000000 0 0 1
36.018198 -33.851856 18.500263 52.778012 -0.754403 1.212660 0.035621 -0.006653 -442149.000000 0 0 1
-36.621541 34.052878 17.404263 52.949449 -0.749069 1.235874 0.049963 -0.004503 -656071.000000 0 0 1
-35.541806 -33.272556 17.695563 51.801699 0.752434 1.222175 0.079056 -0.003691 229977.000000 0 0 1
-34.559698 -33.081156 16.636863 50.650971 0.763543 1.236123 0.087418 -0.000928 1011170.000000 0 0 1
-33.309811 -32.237356 17.042363 49.388590 0.769038 1.218486 0.066091 -0.003943 -97224.100000 0 0 1
-32.244911 -32.225856 16.158363 48.366650 0.785103 1.230167 0.086131 -0.013761 -480824.000000 0 0 1
-32.281501 -31.234256 15.108063 47.391219 0.768912 1.246339 0.094063 -0.010737 -502699.000000 0 0 1
-31.074681 -31.274756 14.157963 46.305444 0.788607 1.260069 0.086542 -0.020680 -453641.000000 0 0 1
-29.878941 -30.888756 14.737263 45.431854 0.802014 1.240438 0.084934 -0.026961 -787235.000000 0 0 1
-28.751241 -31.092156 13.908263 44.573488 0.824496 1.253467 0.075182 -0.019552 -135397.000000 0 0 1
-27.486781 -30.609956 14.590463 43.650592 0.839105 1.229981 0.074248 -0.025552 -380500.000000 0 0 1
-26.381351 -30.345856 13.761863 42.499830 0.855172 1.241043 0.079628 -0.026720 -997710.000000 0 0 1
-25.263691 -30.048256 14.514963 41.854940 0.871685 1.216648 0.065576 -0.026272 -917549.000000 0 0 1
-23.935161 -29.957656 13.776363 40.744832 0.896686 1.225885 0.088802 -0.021887 -433310.000000 0 0 1
-23.488361 -31.210856 13.348963 41.279723 0.925652 1.241499 0.092036 -0.033539 797975.000000 0 0 1
-22.194361 -31.053856 12.717163 40.232548 0.950269 1.249189 0.086084 -0.034579 1013100.000000 0 0 1
-21.671761 -32.425756 12.237563 40.876067 0.981629 1.266751 0.076601 -0.032288 -282273.000000 0 0 1
-22.384161 -32.985956 11.182963 41.402689 0.974580 1.297297 0.064522 -0.033124 -67850.500000 0 0 1
-22.188561 33.745978 11.199163 41.911151 -0.989155 1.300298 0.081579 -0.029213 206779.000000 0 0 1
-23.087061 33.036478 10.143663 41.560982 -0.960852 1.324239 0.060151 -0.021475 338712.000000 0 0 1
-22.769561 33.340178 8.782163 41.317633 -0.971608 1.356610 0.039458 -0.017944 -140952.000000 0 0 1
-23.879261 32.945478 8.025063 41.473188 -0.943612 1.376068 0.029998 -0.019085 -492312.000000 0 0 1
-23.675561 33.185578 6.485763 41.278080 -0.951114 1.413019 0.030633 -0.012306 -250597.000000 0 0 1
-22.770461 32.330478 5.763963 39.962195 -0.957188 1.426056 0.025447 -0.010172 808628.000000 0 0 1
-21.370261 32.354078 6.027863 39.240407 -0.987067 1.416572 0.050751 -0.013244 226025.000000 0 0 1
-20.668561 33.658278 5.611763 39.894373 -1.020095 1.429663 0.064163 -0.018233 -1147460.000000 0 0 1
-20.723161 -33.334756 6.446463 39.777032 1.014596 1.408013 0.064708 -0.015927 121274.000000 0 0 1
-20.079361 -33.458556 7.719363 39.777435 1.030284 1.375493 0.068210 -0.016172 -190925.000000 0 0 1
-20.091161 -32.111556 8.468663 38.813980 1.011717 1.350841 0.065303 -0.023925 -119960.000000 0 0 1
-19.193261 -31.144056 7.884463 37.423232 1.018497 1.358522 0.085875 -0.032905 190096.000000 0 0 1
-19.022361 -29.960856 8.672963 36.533867 1.005104 1.331113 0.083273 -0.034295 274682.000000 0 0 1
-18.439161 -30.071756 10.130663 36.700729 1.020748 1.291131 0.073730 -0.031529 391895.000000 0 0 1
-17.064261 -30.420256 10.093463 36.310591 1.059585 1.289110 0.082397 -0.043210 -119698.000000 0 0 1
-16.465761 -30.523556 11.372463 36.498517 1.076093 1.253934 0.094803 -0.040398 645527.000000 0 0 1
-15.055461 -31.170356 11.218263 36.388287 1.120836 1.257398 0.085226 -0.040510 763617.000000 0 0 1
-14.054361 -30.457756 10.504163 35.150213 1.138472 1.267323 0.085393 -0.039451 9437.600000 0 0 1
-12.884361 -31.221156 10.288063 35.307388 1.179407 1.275121 0.084876 -0.031132 -202466.000000 0 0 1
-11.822561 -30.320856 9.696163 33.957957 1.199014 1.281232 0.095259 -0.021889 -264617.000000 0 0 1
-11.039161 -29.549656 10.595663 33.276318 1.213271 1.246740 0.074078 -0.024732 241554.000000 0 0 1
-9.931461 -28.861356 10.012663 32.122659 1.239379 1.253814 0.082210 -0.021791 855671.000000 0 0 1
-8.916461 -28.428556 11.109963 31.798072 1.266869 1.213875 0.081985 -0.017028 241502.000000 0 0 1
-9.403061 -27.376156 11.881863 31.289778 1.239945 1.181285 0.060733 -0.020969 -441574.000000 0 0 1
-8.503061 -27.148556 12.932863 31.250682 1.267269 1.144125 0.065460 -0.015353 -375994.000000 0 0 1
-8.773161 -25.927356 13.837863 30.670550 1.244515 1.102712 0.071105 -0.022951 -59357.400000 0 0 1
-8.568761 -24.661056 13.149363 29.231783 1.236385 1.104220 0.053157 -0.021637 189244.000000 0 0 1
-9.571161 -24.239956 12.203563 28.776893 1.194737 1.132856 0.046019 -0.018190 385891.000000 0 0 1
-9.238561 -22.881856 11.602563 27.268110 1.187061 1.131283 0.036971 -0.016531 -151695.000000 0 0 1
-8.227361 -22.929956 10.629463 26.579275 1.226300 1.159372 0.029515 -0.019220 -125604.000000 0 0 1
-7.755661 -21.631656 10.208263 25.145327 1.226540 1.152756 0.021700 -0.012492 -20977.000000 0 0 1
-6.616061 -21.592356 9.168263 24.373329 1.273471 1.185148 0.020683 -0.018279 488391.000000 0 1 0
-5.447061 -22.180056 9.770963 24.841439 1.329978 1.166542 0.048129 -0.020788 362645.000000 0 1 0
-4.381961 -22.186256 8.838263 24.280578 1.375798 1.198232 0.036661 -0.022586 -217649.000000 0 1 0
-3.099461 -22.974256 9.075863 24.895671 1.436696 1.197640 0.054924 -0.027885 115340.000000 0 1 0
-2.317261 -22.447256 10.146263 24.742588 1.467929 1.148262 0.053305 -0.028119 -165189.000000 0 1 0
-1.336461 -23.410656 10.523663 25.701993 1.513770 1.148946 0.070282 -0.033229 620544.000000 0 0 1
-0.370361 -22.923856 11.643663 25.714106 1.554642 1.100879 0.065476 -0.030672 284002.000000 0 0 1
-1.007261 -22.774556 12.925663 26.206254 1.526598 1.054999 0.066852 -0.029301 80895.800000 0 0 1
-0.111861 -22.583256 14.049663 26.597162 1.565843 1.014271 0.079187 -0.028398 251178.000000 0 0 1
0.641539 -21.233156 14.191563 25.547191 -1.540592 0.981828 0.057128 -0.029210 640682.000000 0 0 1
1.628239 -21.086956 13.154363 24.906790 -1.493734 1.014383 0.056637 -0.033284 -18595.100000 0 1 0
2.069939 -19.776656 12.897563 23.701222 -1.466510 0.995393 0.044385 -0.027708 1347470.000000 0 1 0
3.621839 -19.589656 12.618263 23.581623 -1.387976 1.006183 0.051975 -0.021803 1473780.000000 0 1 0
4.061939 -20.222056 11.404163 23.568747 -1.372567 1.065727 0.056436 -0.012458 -612550.000000 0 1 0
5.464839 -20.140856 11.287463 23.726049 -1.305844 1.074990 0.084894 -0.019965 230202.000000 0 1 0
5.951939 -21.027656 10.113063 24.080323 -1.294959 1.137382 0.097539 -0.027790 -394713.000000 0 1 0
5.868939 -20.482656 8.809563 23.056280 -1.291741 1.178740 0.084143 -0.024788 -446747.000000 0 1 0
6.077339 -21.499856 7.842563 23.678760 -1.295315 1.233214 0.083106 -0.027293 699417.000000 0 1 0
7.582439 -21.926056 7.632363 24.423315 -1.237851 1.252969 0.074053 -0.019909 474334.000000 0 1 0
8.416439 -21.005056 6.961463 23.675109 -1.189698 1.272344 0.086117 -0.032007 27754.000000 0 1 0
8.849939 -19.800956 7.611963 22.985675 -1.150486 1.233262 0.092487 -0.025097 -276560.000000 0 1 0
9.757039 -19.944656 8.832963 23.895823 -1.115821 1.192170 0.087446 -0.018244 -69080.600000 0 1 0
9.080739 -20.134056 10.073763 24.275929 -1.147100 1.142887 0.095686 -0.020287 -306308.000000 0 1 0
10.042239 -20.155956 11.096363 25.104550 -1.108568 1.112962 0.098358 -0.007134 287905.000000 0 0 1
9.354239 -20.170056 12.460863 25.487371 -1.136552 1.059964 0.102420 -0.014837 188653.000000 0 0 1
9.011939 -21.490256 12.849363 26.611131 -1.173721 1.066882 0.085607 -0.022231 368928.000000 0 0 1
8.157339 -21.535156 14.021563 26.961257 -1.208706 1.023871 0.099701 -0.028609 592424.000000 0 0 1
8.302439 -22.868156 14.777263 28.464901 -1.222537 1.024952 0.097693 -0.035281 199456.000000 0 0 1
7.814639 -24.028156 14.132063 28.950580 -1.256358 1.060834 0.097673 -0.031856 -366335.000000 0 0 1
7.999939 -25.166956 14.947563 30.344758 -1.263022 1.055731 0.093294 -0.036250 379261.000000 0 0 1
7.856939 -26.473756 14.165863 31.036478 -1.282294 1.096822 0.090929 -0.038735 178152.000000 0 0 1
9.007039 -26.632156 13.363263 31.128368 -1.244671 1.127084 0.093254 -0.032191 -143309.000000 0 0 1
8.838239 -27.744856 12.479863 31.680254 -1.262405 1.165891 0.082611 -0.033135 -550327.000000 0 0 1
10.048239 -28.196156 11.665663 32.125971 -1.228459 1.199179 0.084556 -0.028604 -294942.000000 0 0 1
11.072639 -28.623456 12.566463 33.163558 -1.201688 1.182163 0.082384 -0.031633 -268529.000000 0 0 1
12.134339 -29.114256 11.805763 33.678749 -1.175906 1.212648 0.072745 -0.020699 -698118.000000 0 0 1
13.220339 -29.846456 12.558063 34.975610 -1.153825 1.203544 0.059365 -0.021731 -274175.000000 0 0 1
14.015339 -29.010856 13.457663 34.916589 -1.120754 1.175130 0.060697 -0.021337 1615660.000000 0 0 1
15.146439 -29.650656 14.112163 36.162538 -1.098522 1.169901 0.054006 -0.012445 846675.000000 0 0 1
16.437739 -29.914556 13.317463 36.639252 -1.068345 1.198801 0.062762 -0.010593 -67273.200000 0 0 1
17.231839 -28.692356 13.323763 36.023746 -1.029956 1.191937 0.058745 -0.020159 649933.000000 0 0 1
18.474139 -28.926556 12.685163 36.591704 -1.002437 1.216780 0.042970 -0.020342 834222.000000 0 0 1
19.572639 -27.772956 12.733563 36.284555 -0.956898 1.212226 0.050930 -0.023983 353198.000000 0 0 1
20.743339 -27.981456 12.026663 36.849541 -0.932871 1.238333 0.040360 -0.021826 -1055180.000000 0 0 1
21.581839 -26.907456 11.981463 36.514962 -0.894791 1.236479 0.041422 -0.020890 483151.000000 0 0 1
23.023939 -27.314156 11.485363 37.524372 -0.870421 1.259726 0.052226 -0.022561 724711.000000 0 0 1
23.837339 -27.957056 12.425763 38.784215 -0.864771 1.244664 0.067374 -0.028733 149648.000000 0 0 1
25.028639 -28.434256 11.802863 39.676785 -0.849013 1.268749 0.048316 -0.026735 -412160.000000 0 0 1
25.974539 -29.117956 12.869263 41.087102 -0.842393 1.252216 0.059518 -0.023555 347229.000000 0 0 1
26.965039 -28.330056 13.516863 41.381288 -0.810079 1.238048 0.045089 -0.025617 825358.000000 0 0 1
28.009939 -28.021056 12.539163 41.556791 -0.785597 1.264284 0.020621 -0.026197 -385765.000000 0 0 1
29.235139 -27.399356 13.256163 42.203601 -0.752995 1.251287 0.032054 -0.027630 -310735.000000 0 0 1
29.256839 -26.037356 13.611663 41.463043 -0.727239 1.236310 0.032824 -0.024907 30770.900000 0 0 1
28.360539 -25.623656 14.625463 40.924273 -0.734744 1.205337 0.044737 -0.025771 -521095.000000 0 0 1
29.091439 -25.305856 15.945763 41.724879 -0.715919 1.178659 0.030412 -0.019301 -321950.000000 0 0 1
29.517239 -26.546756 16.566563 43.016842 -0.732464 1.175461 0.029220 -0.016647 198593.000000 0 0 1
30.188339 -26.307656 17.779063 43.812369 -0.716816 1.152942 0.040418 0.003040 -38137.200000 0 0 1
30.710139 -27.646756 18.428963 45.244695 -0.732952 1.151281 0.033819 0.009065 449953.000000 0 0 1
29.604039 -28.403556 18.888663 45.165725 -0.764706 1.139325 0.021737 0.004811 242966.000000 0 0 1
30.081039 -29.260056 19.838263 46.417416 -0.771564 1.129194 0.033459 -0.006039 477730.000000 0 0 1
28.928839 -30.029856 20.568663 46.494515 -0.804070 1.112536 0.022498 0.005799 -417511.000000 0 0 1
28.079439 -29.165556 21.319263 45.755825 -0.804369 1.086105 0.018335 0.013291 -136320.000000 0 0 1
26.870939 -29.785856 21.628863 45.574689 -0.836802 1.076309 0.020971 0.007883 764122.000000 0 0 1
25.821639 -30.314856 20.521063 44.798009 -0.865269 1.094962 0.046397 0.004327 -360045.000000 0 0 1
26.141539 -31.529156 19.913963 45.541560 -0.878548 1.118235 0.041057 0.003467 -352244.000000 0 0 1
25.482139 -32.034056 18.779263 45.035329 -0.898824 1.140666 0.059298 0.000509 -655778.000000 0 0 1
25.807839 -31.240856 17.507463 44.142348 -0.880347 1.162971 0.053088 0.000590 1259450.000000 0 0 1
27.214639 -31.293156 17.171563 44.886087 -0.854995 1.178232 0.060150 -0.011247 1081650.000000 0 0 1
27.582739 -30.291756 16.221263 44.062766 -0.832173 1.193789 0.062990 -0.023051 82294.500000 0 0 1
29.041239 -30.362956 15.698163 44.852369 -0.807644 1.213229 0.074043 -0.017326 47566.800000 0 0 1
29.348139 -31.457456 14.770863 45.486957 -0.820074 1.240073 0.112922 -0.018427 319879.000000 0 0 1
29.434939 -32.782656 15.213463 46.610810 -0.839153 1.238311 0.115097 -0.020585 -237874.000000 0 0 1
28.538339 -33.788556 14.441463 46.525898 -0.869437 1.255187 0.113306 -0.023422 65812.200000 0 0 1
28.823139 -33.945756 13.072163 46.410873 -0.866828 1.285271 0.117405 -0.015921 458602.000000 0 0 1
27.868839 33.318778 12.486463 45.196514 0.874233 1.290885 0.107777 -0.020397 189863.000000 0 0 1
28.290739 33.036178 11.014363 44.867262 0.862624 1.322774 0.112071 -0.021670 -20758.000000 0 0 1
29.461539 32.245978 11.018763 45.046626 0.830491 1.323681 0.089629 -0.009077 136815.000000 0 0 1
29.744139 31.767678 9.745163 44.596719 0.818283 1.350501 0.085060 -0.015066 -12349.800000 0 0 1
31.204839 31.243078 9.768663 45.224978 0.786011 1.353079 0.063236 -0.011753 118847.000000 0 0 1
31.389339 30.091278 10.557063 44.746253 0.764288 1.332619 0.067166 -0.007635 -336800.000000 0 0 1
32.780139 29.968478 10.655863 45.674879 0.740620 1.335328 0.060651 -0.005363 -175037.000000 0 0 1
33.249439 28.982978 11.768863 45.651334 0.716948 1.310053 0.050793 -0.004025 67080.800000 0 0 1
33.083639 27.624578 11.429763 44.590178 0.695716 1.311574 0.057314 -0.013299 250341.000000 0 0 1
33.614639 26.852678 12.519363 44.807864 0.674032 1.287626 0.058456 -0.021778 -32401.100000 0 0 1
33.488639 25.313078 12.386163 43.768229 0.647248 1.283882 0.063096 -0.032315 335919.000000 0 0 1
34.486439 24.798478 11.495063 44.004721 0.623416 1.306507 0.056814 -0.019654 87960.200000 0 0 1
34.594639 23.364478 11.612963 43.330691 0.594010 1.299472 0.082688 -0.021217 -608899.000000 0 0 1
33.460139 22.516478 11.006163 41.805601 0.592329 1.304386 0.067865 -0.024501 -260601.000000 0 0 1
32.353039 22.556078 11.878563 41.189756 0.608835 1.278255 0.104580 -0.038604 -738436.000000 0 0 1
31.224839 22.111578 11.157463 39.854754 0.616169 1.287051 0.107040 -0.030875 181732.000000 0 0 1
29.934139 22.245078 12.027463 39.186171 0.639092 1.258829 0.094542 -0.027930 269146.000000 0 0 1
29.495239 23.569478 12.327263 39.717135 0.674188 1.255207 0.099161 -0.029891 -1300670.000000 0 0 1
28.255039 23.577378 12.881463 38.989384 0.695396 1.234086 0.124063 -0.013651 -1118710.000000 0 0 1
24.689739 9.381978 25.989308 37.054674 0.363143 0.793468 0.042060 0.007698 -87084.900000 0 0 1
24.314139 8.083878 26.309288 36.724720 0.320979 0.772179 0.032055 0.008324 -157152.000000 0 0 1
22.935839 7.832878 26.418218 35.851484 0.329094 0.742354 0.039599 0.005137 -295846.000000 0 0 1
22.533339 6.402078 26.939288 35.699625 0.276821 0.715737 0.051351 0.005296 -310095.000000 0 0 1
22.592239 6.340978 28.330698 36.786488 0.273630 0.691738 0.048461 -0.002001 26850.700000 0 0 1
23.871039 6.113578 28.882878 37.966077 0.250720 0.706321 0.043662 -0.001959 -232246.000000 0 0 1
23.940839 6.082678 30.401628 39.171695 0.248807 0.682320 0.047715 -0.014800 -330892.000000 0 0 1
23.662339 7.277178 31.038798 39.702274 0.298362 0.673267 0.071073 -0.010076 248634.000000 0 0 1
23.677439 7.238678 32.465373 40.829156 0.296697 0.651539 0.063770 -0.011260 -101545.000000 0 0 1
23.876039 8.682478 33.015480 41.659004 0.348781 0.655871 0.081657 -0.006073 103371.000000 0 0 1
25.219339 9.141078 33.051776 42.567526 0.347734 0.681775 0.069605 -0.005026 43840.900000 0 0 1
25.443939 9.832778 -33.719857 43.371722 0.368770 2.461416 0.074045 -0.002219 637743.000000 0 0 1
26.862539 10.478178 -33.560987 44.246220 0.371914 2.431813 0.050393 -0.000889 495475.000000 0 0 1
26.953339 11.696278 33.781904 44.771670 0.409423 0.715847 0.047081 -0.014833 396471.000000 0 0 1
26.627239 12.801778 -33.435197 44.618469 0.448152 2.417888 0.048569 -0.012256 -588398.000000 0 0 1
26.097939 13.997978 33.861279 44.984798 0.492313 0.718601 0.051248 -0.015474 -655599.000000 0 0 1
27.049739 14.793378 33.193183 45.302536 0.500457 0.748515 0.028227 -0.023500 -21356.300000 0 0 1
26.624839 16.113078 33.080925 45.418729 0.544227 0.754879 0.051126 -0.028257 -44430.500000 0 0 1
27.196339 17.052778 -33.892437 46.681210 0.560054 2.383342 0.040733 -0.028104 -399957.000000 0 0 1
26.618839 16.811878 -32.675517 45.375006 0.563316 2.374774 0.046122 -0.021269 382468.000000 0 0 1
27.588439 16.558478 -31.651837 45.134731 0.540564 2.347980 0.038307 -0.015893 -210766.000000 0 0 1
26.936839 15.998178 -30.418647 43.667254 0.535933 2.341445 0.035010 -0.010340 -304350.000000 0 0 1
26.289639 14.799078 -30.750027 43.078091 0.512712 2.365735 0.044623 -0.004121 -76213.100000 0 0 1
25.623739 14.221278 -29.639937 41.681490 0.506677 2.361866 0.067677 -0.018395 -386285.000000 0 0 1
24.822939 13.054178 -30.158327 41.183911 0.484146 2.392466 0.076093 -0.015589 -1945570.000000 0 0 1
23.737239 13.455478 -30.947837 41.258635 0.515689 2.419000 0.074864 -0.010959 -240232.000000 0 0 1
23.093639 12.328478 -31.540177 40.988904 0.490357 2.448824 0.076324 -0.006407 -14696.500000 0 0 1
22.292239 11.496878 -30.506547 39.493943 0.476156 2.453464 0.071584 -0.005591 -2508420.000000 0 0 1
21.267139 12.186278 -29.970057 38.716932 0.520337 2.456059 0.075547 -0.002517 -1016570.000000 0 0 1
20.338239 11.322278 -29.350367 37.460405 0.507972 2.471081 0.080284 -0.006310 502944.000000 0 0 1
19.064039 12.059178 -28.802837 36.585034 0.564018 2.477189 0.077896 0.000864 339428.000000 0 0 1
18.092639 12.390778 -29.762027 36.968273 0.600487 2.506589 0.059576 0.008927 -568517.000000 0 0 1
16.959739 12.867478 -29.107427 36.061711 0.649051 2.510115 0.054380 -0.005011 -1343430.000000 0 0 1
15.852839 13.159378 -30.083077 36.461942 0.692825 2.541094 0.039320 -0.006970 -411355.000000 0 0 1
15.112739 12.084778 -30.687957 36.279297 0.674523 2.579010 0.028311 -0.000118 280461.000000 0 0 1
13.905639 11.798678 -29.994967 35.103755 0.703612 2.595318 0.037411 -0.010644 -8856.810000 0 0 1
12.821439 11.224478 -30.925127 35.309229 0.719083 2.637964 0.044486 -0.009248 -122498.000000 0 0 1
12.554939 12.123878 -31.960787 36.415749 0.767933 2.641762 0.047511 -0.009526 -172471.000000 0 0 1
11.539339 11.573478 -32.766077 36.615810 0.786875 2.678917 0.075448 -0.008076 -252490.000000 0 0 1
11.004039 12.501178 -33.852367 37.727325 0.849006 2.684389 0.091267 -0.018596 172599.000000 0 0 1
11.841939 12.858678 33.103675 37.435684 0.826537 0.485844 0.065290 -0.008458 507116.000000 0 0 1
10.963539 13.368278 32.101372 36.461050 0.883909 0.494030 0.088057 -0.020760 360663.000000 0 0 1
11.471639 13.206878 30.644848 35.286355 0.855596 0.518705 0.076073 -0.020129 -203732.000000 0 0 1
11.743039 11.893878 30.217968 34.532432 0.791780 0.505235 0.079084 -0.017720 140364.000000 0 0 1
11.960239 11.839878 28.796088 33.353331 0.780341 0.528896 0.088806 -0.019285 -337470.000000 0 0 1
12.507239 10.476278 28.331988 32.693806 0.697261 0.522477 0.095940 -0.014516 -537114.000000 0 0 1
11.719139 9.371378 28.573868 32.274245 0.674536 0.483559 0.099071 -0.020413 -295073.000000 0 0 1
12.220639 8.152378 27.973338 31.596090 0.588302 0.483568 0.090214 -0.022987 -308363.000000 0 0 1
11.450039 6.892678 28.305208 31.301713 0.541873 0.441129 0.092436 -0.021733 -406089.000000 0 0 1
10.192239 6.858978 27.665478 30.270547 0.592347 0.417907 0.084759 -0.024836 278189.000000 0 0 1
9.271039 5.845178 28.050488 30.115580 0.562528 0.372480 0.080899 -0.029293 220595.000000 0 0 1
9.698539 4.440778 27.443358 29.443506 0.429389 0.370716 0.084028 -0.022258 124545.000000 0 0 1
10.896439 3.885778 27.975878 30.273444 0.342551 0.392106 0.076611 -0.017985 463232.000000 0 0 1
11.214039 2.633278 27.397538 29.720598 0.230641 0.398003 0.047068 -0.012007 -184640.000000 0 0 1
11.743239 1.592178 28.438308 30.808701 0.134761 0.394833 0.042836 -0.011597 -195580.000000 0 0 1
10.805639 1.410178 29.449928 31.401412 0.129771 0.354404 0.046821 -0.007783 -150552.000000 0 0 1
10.842239 0.094378 29.960308 31.861938 0.008704 0.347237 0.044722 -0.007778 62683.100000 0 0 1
9.851439 0.095678 31.145438 32.666471 0.009712 0.306361 0.063397 -0.003616 -29316.300000 0 0 1
10.056939 1.097478 32.167202 33.720548 0.108696 0.304708 0.060195 -0.006385 -217913.000000 0 0 1
8.862639 1.333178 32.867622 34.067643 0.149307 0.266208 0.066791 -0.004726 -247456.000000 0 0 1
8.882239 2.720078 33.652445 34.911031 0.297170 0.269332 0.062274 -0.009030 -230703.000000 0 0 1
9.001639 3.914678 32.953280 34.384195 0.410213 0.289508 0.066868 -0.019815 416802.000000 0 0 1
10.217839 4.001478 32.224025 34.041208 0.373259 0.328218 0.058564 -0.013193 -71239.000000 0 0 1
10.412039 5.364278 31.541468 33.645954 0.475733 0.355559 0.065877 -0.017325 42468.800000 0 0 1
10.596839 6.426278 32.464828 34.749894 0.545137 0.364667 0.051322 -0.018938 65086.300000 0 0 1
10.798439 7.656378 31.759868 34.408075 0.616758 0.394899 0.066406 -0.018612 -202421.000000 0 0 1
10.887939 8.971178 32.648063 35.565788 0.689178 0.407883 0.091841 -0.030171 -544359.000000 0 0 1
9.704139 9.477978 33.203092 35.867084 0.773609 0.387846 0.092486 -0.033430 -268553.000000 0 0 1
9.273839 8.747178 -33.676557 36.008717 0.756182 2.779714 0.077745 -0.029819 -907525.000000 0 0 1
7.868139 9.146778 -33.304977 35.423052 0.860405 2.794032 0.074508 -0.032446 -1005070.000000 0 0 1
7.337239 8.431378 -32.244777 34.126952 0.854674 2.807926 0.088410 -0.035671 53774.600000 0 0 1
6.013539 8.863878 -31.945957 33.693844 0.974693 2.818079 0.077515 -0.034077 775850.000000 0 0 1
5.275439 7.998778 -30.882017 32.334342 0.987750 2.840740 0.080660 -0.030605 -424824.000000 0 0 1
6.060039 8.035878 -29.695087 31.354387 0.924662 2.814807 0.078543 -0.037161 -179004.000000 0 0 1
5.579539 7.650978 -28.446507 29.981202 0.940703 2.820248 0.064816 -0.038273 -836243.000000 0 0 1
4.130839 7.983478 -28.041517 29.447010 1.093307 2.831386 0.060250 -0.039780 -621658.000000 0 0 1
3.269239 7.078378 -28.668357 29.709696 1.138121 2.876047 0.056584 -0.036349 -1053410.000000 0 0 1
1.972639 7.350178 -28.222017 29.230098 1.308595 2.878200 0.083735 -0.031421 -612475.000000 0 0 1
0.888939 6.731478 -29.108797 29.890217 1.439499 2.912430 0.089790 -0.033297 -394261.000000 0 0 1
0.809339 7.388278 -30.378957 31.274953 1.461688 2.901647 0.060415 -0.031488 -155605.000000 0 0 1
0.247839 6.583678 -31.342657 32.027619 1.533170 2.934405 0.088366 -0.025857 -803422.000000 0 0 1
0.127539 7.423678 -32.639847 33.473674 1.553618 2.917923 0.108557 -0.031406 708534.000000 0 0 1
1.413939 7.868978 -33.119077 34.070416 1.393008 2.904723 0.081634 -0.019837 1156260.000000 0 0 1
2.310139 6.866578 -33.623467 34.395118 1.246259 2.929370 0.076071 -0.023937 -245281.000000 0 0 1
1.957239 6.395278 32.987592 33.658752 1.273804 0.200034 0.077849 -0.032035 225153.000000 0 0 1
0.748939 5.604078 32.883627 33.366144 1.437942 0.170272 0.079709 -0.028018 683264.000000 0 0 1
0.301739 5.320778 31.580738 32.027250 1.514147 0.167177 0.093633 -0.022135 48839.000000 0 0 1
1.131839 4.285278 30.789508 31.106888 1.312571 0.142970 0.090096 -0.022101 -1223.070000 0 0 1
0.669539 4.222778 29.458308 29.766963 1.413551 0.144132 0.074275 -0.025011 522556.000000 0 0 1
1.581239 3.471478 28.641478 28.894390 1.143383 0.132407 0.058984 -0.014069 154082.000000 0 0 1
1.508139 3.745778 27.122998 27.421932 1.188030 0.147791 0.049955 -0.011575 67676.400000 0 0 1
2.100039 4.988678 26.776018 27.317617 1.172352 0.199459 0.055183 -0.014278 199298.000000 0 0 1
2.090039 5.220278 25.425438 26.039825 1.189972 0.217658 0.046691 -0.010622 -542885.000000 0 0 1
2.343039 6.730278 25.113838 26.105389 1.235785 0.276498 0.044488 -0.002772 -3264.780000 0 0 1
3.696039 7.149778 25.027828 26.290154 1.093685 0.311141 0.050488 -0.002966 110234.000000 0 0 1
4.238039 6.842878 23.723758 25.051999 1.016281 0.327092 0.051800 -0.007428 -1080580.000000 0 0 1
5.747239 6.762878 23.727088 25.332627 0.866406 0.357937 0.048713 -0.010083 -787583.000000 0 0 1
6.433539 5.788578 24.508628 25.991747 0.732677 0.339447 0.063114 -0.015763 115250.000000 0 0 1
6.259239 4.363978 24.343418 25.511260 0.608848 0.303747 0.066368 -0.011590 -773901.000000 0 0 1
6.594139 3.717078 22.962598 24.178094 0.513296 0.318432 0.063930 -0.011356 -55895.900000 0 1 0
5.760039 4.007478 21.858798 22.957460 0.607860 0.310622 0.038616 -0.014914 479577.000000 0 1 0
4.466039 3.371278 21.969098 22.670516 0.646611 0.249401 0.036491 -0.015777 935937.000000 0 1 0
3.457039 3.883278 20.877398 21.515035 0.843401 0.244067 0.009736 -0.019195 278946.000000 0 1 0
3.028339 5.224878 21.081798 21.929715 1.045512 0.278987 0.007747 -0.023285 636005.000000 0 1 0
1.730839 5.468878 20.526798 21.313232 1.264282 0.272500 0.004633 -0.012781 195659.000000 0 1 0
1.280339 6.922178 20.513398 21.687677 1.387901 0.330578 0.011527 -0.008297 -332856.000000 0 1 0
2.159739 7.811178 19.837198 21.428798 1.301042 0.387845 0.004778 -0.008187 46306.000000 0 1 0
1.844739 9.153578 20.184898 22.240080 1.371928 0.433286 0.013196 -0.004506 810514.000000 0 1 0
2.963439 10.201778 19.763498 22.437783 1.288094 0.493219 0.029592 -0.010233 -9248.220000 0 1 0
2.883339 10.514278 18.395198 21.383335 1.303145 0.535020 0.012058 -0.006450 636058.000000 0 1 0
3.853739 11.457278 17.844798 21.553592 1.246327 0.595395 0.013821 -0.009844 1178100.000000 0 1 0
5.359739 11.080578 17.977198 21.787282 1.120269 0.600376 0.023930 -0.011060 -89847.700000 0 1 0
5.631139 10.066878 17.074698 20.605753 1.060786 0.594127 0.017810 -0.011512 662328.000000 0 1 0
6.954439 9.542978 17.320698 20.962806 0.941035 0.598363 0.019519 -0.011033 844548.000000 0 1 0
6.925939 8.079278 17.888998 20.814889 0.862110 0.536637 0.028750 -0.009760 -202892.000000 0 1 0
6.652739 7.993778 19.299798 21.923541 0.876704 0.494254 0.036266 -0.008117 -64026.900000 0 1 0
6.807139 6.661378 19.807198 21.978084 0.774576 0.448208 0.034544 -0.014612 532340.000000 0 1 0
8.240339 6.124478 20.124098 22.591851 0.639155 0.471764 0.056551 -0.010186 202766.000000 0 1 0
9.123239 6.193878 19.024098 21.988950 0.596432 0.525314 0.056080 -0.011877 -335713.000000 0 1 0
10.363039 5.547478 19.182898 22.497792 0.491498 0.549747 0.065819 -0.016497 -180532.000000 0 1 0
10.352539 3.990178 19.143698 22.126404 0.367883 0.525253 0.065233 -0.015647 -754848.000000 0 1 0
9.720939 3.400578 20.228098 22.698822 0.336514 0.470919 0.072660 -0.020958 -58448.000000 0 1 0
9.803439 1.981578 20.209498 22.549011 0.199444 0.459560 0.072766 -0.029723 438515.000000 0 1 0
8.875939 1.253178 21.270198 23.081899 0.140261 0.398846 0.072817 -0.018935 172193.000000 0 1 0
9.332439 1.348778 22.561298 24.452521 0.143532 0.395881 0.073241 -0.013517 -62915.500000 0 1 0
8.710439 0.402078 23.361538 24.935815 0.046128 0.357236 0.074486 -0.020022 -414241.000000 0 1 0
9.334139 0.405078 24.783538 26.486110 0.043370 0.360506 0.072087 -0.010228 615175.000000 0 0 1
10.649739 -0.158822 24.905388 27.087276 -0.014912 0.404118 0.066062 -0.013270 677263.000000 0 0 1
10.697539 -1.609722 24.850768 27.103306 -0.149355 0.410577 0.058682 -0.016326 -916711.000000 0 0 1
12.106739 -2.112222 24.645528 27.539729 -0.172728 0.462571 0.044522 -0.018407 -720649.000000 0 0 1
12.121439 -3.500522 24.817808 27.840735 -0.281139 0.470326 0.046663 -0.013657 545766.000000 0 0 1
13.424339 -4.084322 24.671488 28.382686 -0.295349 0.517125 0.044808 -0.007506 562815.000000 0 0 1
13.493539 -5.531222 25.021458 28.961067 -0.389026 0.527697 0.049283 -0.017859 -93843.000000 0 0 1
13.046139 -6.340822 23.911268 27.967061 -0.452410 0.545285 0.061371 -0.019444 314562.000000 0 0 1
12.938139 -7.691022 24.295928 28.580402 -0.536326 0.554639 0.071187 -0.025438 -26052.200000 0 0 1
12.785139 -8.629122 23.086218 27.764996 -0.593704 0.589018 0.081947 -0.030936 100164.000000 0 0 1
12.243939 -9.883922 23.471618 28.258146 -0.679146 0.590586 0.086526 -0.021564 -253543.000000 0 0 1
12.435639 -10.870422 22.439698 27.863080 -0.718340 0.634521 0.085214 -0.020072 188046.000000 0 0 1
11.666039 -12.197722 22.720998 28.304145 -0.807674 0.638913 0.094851 -0.016326 -1062960.000000 0 0 1
10.319239 -12.057322 22.464898 27.505224 -0.862917 0.615040 0.090834 -0.015111 -1358670.000000 0 0 1
9.593239 -13.226122 22.822198 28.068011 -0.943275 0.621333 0.082286 -0.007034 -67881.200000 0 0 1
8.093339 -12.870322 22.887598 27.477072 -1.009442 0.586341 0.058948 -0.010002 -263380.000000 0 0 1
7.664839 -12.369722 21.655498 26.090619 -1.016057 0.591669 0.045321 -0.013964 103467.000000 0 0 1
6.259339 -12.169422 21.816798 25.753579 -1.095735 0.560223 0.023030 -0.017269 711757.000000 0 0 1
5.631639 -10.929722 21.118298 24.436790 -1.095016 0.527236 0.017140 -0.015877 299863.000000 0 1 0
5.864239 -9.734722 21.875298 24.651223 -1.028611 0.479139 0.033191 -0.009115 -360270.000000 0 1 0
5.205639 -8.697022 21.235798 23.530746 -1.031441 0.445326 0.024524 -0.001440 -14823.200000 0 1 0
5.390039 -7.375422 21.930898 23.757392 -0.939690 0.394682 0.030188 -0.004765 233592.000000 0 1 0
4.728939 -6.319022 21.275298 22.692096 -0.928342 0.355236 0.023469 -0.008427 -203497.000000 0 1 0
5.224239 -5.119022 21.788798 22.983663 -0.775226 0.323865 0.045308 -0.019642 213037.000000 0 1 0
-7.961061 -15.557522 -20.697737 27.088951 1.097818 2.440388 0.078184 0.001665 116735.000000 0 0 1
-7.500761 -14.979122 -19.496937 25.705370 1.106551 2.431770 0.069854 -0.003388 -11689.000000 0 0 1
-6.756661 -13.799122 -19.756337 25.027606 1.115468 2.480598 0.072781 -0.014961 -157917.000000 0 0 1
-6.124561 -13.276222 -18.479437 23.563911 1.138570 2.472244 0.075042 -0.022998 -151862.000000 0 1 0
-5.207861 -14.201122 -17.949037 23.472571 1.219303 2.441343 0.066585 -0.013060 -170630.000000 0 1 0
-4.444361 -13.693922 -16.897337 22.199005 1.256972 2.435920 0.064451 -0.016124 -66605.400000 0 1 0
-3.444161 -14.644322 -16.218537 22.121468 1.339807 2.393751 0.058191 -0.007212 -481281.000000 0 1 0
-2.340661 -14.802622 -17.036337 22.689933 1.413970 2.420118 0.046649 -0.006026 -1222730.000000 0 1 0
-1.261661 -15.380022 -16.395337 22.515415 1.488947 2.386463 0.047183 -0.001422 -78841.700000 0 1 0
0.117239 -15.411922 -17.123237 23.037932 -1.563189 2.408731 0.041733 0.003789 576860.000000 0 1 0
0.078539 -16.339322 -18.216237 24.470613 -1.565990 2.410451 0.073208 -0.008095 -291201.000000 0 1 0
-0.045361 -17.719022 -17.943737 25.217920 1.568236 2.362494 0.062303 -0.000330 -317696.000000 0 0 1
-0.529761 -18.343622 -19.292137 26.626221 1.541924 2.381183 0.068939 -0.017550 -614750.000000 0 0 1
-1.825961 -17.915822 -19.534837 26.569167 1.469228 2.396824 0.079400 -0.016888 -832673.000000 0 0 1
-2.260261 -18.291322 -20.841337 27.821620 1.447849 2.417508 0.074291 -0.012157 -44885.200000 0 0 1
-3.203961 -17.241222 -21.423937 27.685920 1.387061 2.455647 0.087982 -0.014371 163756.000000 0 0 1
-2.619461 -15.904822 -21.533237 26.898052 1.407566 2.499009 0.088890 -0.001089 -92779.700000 0 0 1
-3.160561 -15.064722 -20.574137 25.694943 1.363997 2.499272 0.082429 -0.003688 -321005.000000 0 0 1
-2.453961 -13.733922 -20.346437 24.670225 1.393983 2.540533 0.072482 -0.019603 -192063.000000 0 1 0
-2.560361 -12.879322 -21.452637 25.152495 1.374558 2.592317 0.072537 -0.032202 117908.000000 0 0 1
-1.777561 -11.736622 -21.233737 24.326520 1.420484 2.631837 0.060751 -0.023400 -62227.800000 0 1 0
-1.748161 -10.840622 -22.505237 25.041183 1.410913 2.687659 0.062768 -0.019706 -275833.000000 0 0 1
-2.912861 -10.125922 -22.828837 25.143087 1.290695 2.709179 0.061557 -0.008516 -68671.300000 0 0 1
-2.824861 -9.429722 -24.056737 25.992808 1.279734 2.753190 0.066960 -0.014640 74143.400000 0 0 1
-4.023861 -8.444222 -24.140437 25.889323 1.126107 2.771925 0.079101 -0.017822 122233.000000 0 0 1
-5.289161 -9.093722 -24.101637 26.297526 1.043995 2.730034 0.074200 -0.015774 509705.000000 0 0 1
-6.246461 -8.030922 -24.072037 26.133827 0.909739 2.741709 0.088480 -0.023761 -507361.000000 0 0 1
-7.706861 -8.402422 -23.747337 26.342597 0.828549 2.693974 0.064817 -0.028704 235734.000000 0 0 1
-8.474961 -8.730622 -24.891337 27.706089 0.800256 2.686924 0.063138 -0.027571 239946.000000 0 0 1
-9.021161 -7.625922 -25.615427 28.207909 0.701781 2.709506 0.059616 -0.027876 -97447.600000 0 0 1
-9.718761 -7.950422 -26.976037 29.755169 0.685650 2.705952 0.059383 -0.027815 95179.600000 0 0 1
-10.458961 -6.866322 -27.428947 30.147692 0.580932 2.713644 0.077774 -0.036887 -229109.000000 0 0 1
-11.092061 -7.204722 -28.625427 31.533425 0.576051 2.708758 0.073974 -0.027940 421898.000000 0 0 1
-11.948461 -6.094722 -29.380957 32.297863 0.471682 2.713327 0.060267 -0.033825 592612.000000 0 0 1
-11.130761 -5.137122 -30.016367 32.423234 0.432396 2.753856 0.058760 -0.031583 345097.000000 0 0 1
-11.887561 -4.391722 -30.998837 33.489240 0.353886 2.753508 0.052685 -0.042256 313872.000000 0 0 1
-11.031761 -3.407822 -31.822297 33.852202 0.299611 2.793533 0.040037 -0.045140 411096.000000 0 0 1
-9.994561 -4.009222 -32.617827 34.349494 0.381489 2.822712 0.050493 -0.028565 805721.000000 0 0 1
-9.144561 -3.036022 -33.207437 34.577077 0.320553 2.859190 0.039989 -0.019069 237785.000000 0 0 1
-8.100561 -3.560322 33.813199 34.951787 0.414101 0.255947 0.043536 -0.026298 211240.000000 0 0 1
-6.981261 -4.176022 -33.636827 34.606550 0.539077 2.904303 0.050974 -0.034935 -564916.000000 0 0 1
-6.020061 -4.435722 33.449743 34.275386 0.635015 0.219936 0.044282 -0.027982 796497.000000 0 0 1
-4.575961 -4.003622 33.963292 34.503241 0.718787 0.177145 0.050974 -0.034350 1001260.000000 0 0 1
-4.305661 -2.583822 33.802341 34.173281 0.540492 0.147474 0.069413 -0.040076 497024.000000 0 0 1
-2.896461 -2.374022 33.933410 34.139446 0.686595 0.109920 0.069613 -0.042339 715389.000000 0 0 1
-2.638361 -0.926222 -33.735237 33.850924 0.337618 3.058895 0.085902 -0.042244 -119584.000000 0 0 1
-2.921261 -0.746022 -32.363177 32.503315 0.250033 3.048699 0.075023 -0.046546 269796.000000 0 0 1
-3.482761 0.548478 -32.104837 32.297848 -0.156201 3.032213 0.101664 -0.047391 -495491.000000 0 0 1
-4.044561 0.855278 -30.691527 30.968690 -0.208394 3.007703 0.114714 -0.055054 255508.000000 0 0 1
-5.128361 0.028078 -30.325317 30.755905 -0.005475 2.974064 0.097137 -0.056595 109620.000000 0 0 1
-6.362161 0.592578 -30.709167 31.366880 -0.092873 2.936448 0.110228 -0.053532 -346602.000000 0 0 1
-7.635061 -0.269922 -30.698467 31.634836 0.035338 2.897681 0.093268 -0.058883 -65469.300000 0 0 1
-8.006561 -0.801322 -29.420047 30.500595 0.099751 2.874616 0.093578 -0.048563 204799.000000 0 0 1
-9.215761 -1.538422 -29.479597 30.924806 0.165409 2.834667 0.064405 -0.036210 118239.000000 0 0 1
-9.395061 -2.475622 -28.263237 29.886559 0.257646 2.810488 0.068591 -0.042649 -100830.000000 0 0 1
-9.803961 -1.859822 -27.029697 28.812863 0.187473 2.787935 0.075037 -0.040307 139862.000000 0 0 1
-10.135261 -2.673022 -25.993857 28.027650 0.257863 2.758294 0.061462 -0.031812 -384519.000000 0 0 1
-11.187761 -2.045922 -25.092567 27.549749 0.180873 2.716036 0.073385 -0.028492 -226436.000000 0 0 1
-10.682461 -0.838622 -24.579037 26.813193 0.078344 2.730481 0.067569 -0.023288 128014.000000 0 0 1
-11.542261 -0.321022 -23.601437 26.274601 0.027806 2.686591 0.077008 -0.032596 -1276.740000 0 0 1
-10.825461 0.845978 -22.927537 25.368844 -0.077989 2.699288 0.076833 -0.030143 165183.000000 0 0 1
-10.667861 2.032378 -23.715237 26.083448 -0.188258 2.712170 0.065521 -0.033570 34243.900000 0 0 1
-9.952561 3.038078 -22.998637 25.243230 -0.296272 2.716696 0.069957 -0.033284 -146842.000000 0 0 1
-9.865461 4.455078 -23.729237 26.081636 -0.424170 2.713613 0.087110 -0.045186 374964.000000 0 0 1
-11.104261 5.093178 -24.045037 26.970518 -0.430039 2.671509 0.088159 -0.041173 471858.000000 0 0 1
-11.822361 4.584778 -25.157767 28.172711 -0.369950 2.674727 0.074840 -0.043313 -748566.000000 0 0 1
-13.188961 5.178078 -25.407137 29.090957 -0.374117 2.632873 0.067510 -0.021671 -635218.000000 0 0 1
-13.259361 6.517378 -25.846347 29.771136 -0.456849 2.622295 0.059463 -0.016913 -222298.000000 0 0 1
-14.601361 6.714178 -26.216987 30.750778 -0.431000 2.591667 0.058353 -0.022838 -170701.000000 0 0 1
-14.894161 8.220378 -26.491967 31.483884 -0.504316 2.570749 0.069750 -0.012096 -242977.000000 0 0 1
-14.887261 8.904578 -25.263017 30.645425 -0.539046 2.539876 0.099015 -0.020116 230597.000000 0 0 1
-15.158961 10.284378 -25.439987 31.348931 -0.596106 2.517529 0.086943 -0.015194 -173927.000000 0 0 1
-14.884061 11.133078 -24.123537 30.453665 -0.642211 2.485102 0.099262 -0.023085 -270716.000000 0 0 1
-15.767661 10.792278 -23.108837 29.985175 -0.600218 2.450697 0.123071 -0.021933 -275790.000000 0 0 1
-15.425561 11.390678 -21.875437 29.090036 -0.636054 2.421873 0.125076 -0.025467 -595497.000000 0 0 1
-16.419561 11.085578 -20.754237 28.691991 -0.593849 2.379432 0.141074 -0.027342 -745467.000000 0 0 1
-17.546661 11.881978 -20.914437 29.773820 -0.595235 2.349622 0.115297 -0.021501 -557280.000000 0 0 1
-17.731361 12.742978 -19.818737 29.488421 -0.623146 2.307818 0.104751 -0.018715 406218.000000 0 0 1
-19.161361 13.382378 -19.757637 30.604085 -0.609654 2.272590 0.075743 -0.020026 397320.000000 0 0 1
-19.472761 14.270678 -20.825737 31.883412 -0.632437 2.282578 0.063815 -0.021471 646735.000000 0 0 1
-20.865961 14.556178 -20.703037 32.800707 -0.609116 2.253865 0.027374 -0.018224 554491.000000 0 0 1
-21.428261 15.836178 -21.407837 34.179678 -0.636445 2.247636 0.034949 -0.007025 -136824.000000 0 0 1
-21.586061 15.634678 -22.791537 35.069293 -0.626846 2.278249 0.039968 -0.014294 199445.000000 0 0 1
-21.949361 16.891878 -23.403837 36.260855 -0.655918 2.272382 0.033126 -0.009076 -73356.100000 0 0 1
-21.953161 16.888978 -24.917137 37.256443 -0.655751 2.303391 0.032823 -0.002097 486892.000000 0 0 1
-20.603261 16.888078 -25.377987 36.793257 -0.686626 2.331934 0.028776 -0.010251 608959.000000 0 0 1
-20.514661 16.602278 -26.763517 37.586870 -0.680379 2.363202 0.034680 -0.013034 -771124.000000 0 0 1
-19.271161 17.206578 -27.364407 37.633160 -0.728860 2.384936 0.020867 -0.013010 -456296.000000 0 0 1
-19.642961 18.501878 -27.833447 38.766818 -0.755493 2.371679 0.013535 -0.024813 742522.000000 0 0 1
-19.031461 19.580178 -27.105057 38.474199 -0.799608 2.352514 0.006711 -0.035517 -577964.000000 0 0 1
-19.663561 20.937978 -27.522187 39.780967 -0.816776 2.334835 0.043264 -0.025929 1056470.000000 0 0 1
-20.757061 21.412578 -26.707657 40.033149 -0.800942 2.301157 0.050543 -0.015849 966386.000000 0 0 1
-22.043461 20.836878 -26.839707 40.502587 -0.757267 2.295170 0.079748 -0.026257 329032.000000 0 0 1
-23.004461 21.419878 -25.728097 40.619593 -0.749744 2.256724 0.075632 -0.008509 244630.000000 0 0 1
-22.716761 20.889578 -24.479337 39.391162 -0.743521 2.241379 0.033044 -0.005353 445192.000000 0 0 1
-23.766961 21.197778 -23.542737 39.603973 -0.728322 2.207383 0.036238 -0.020997 348244.000000 0 0 1
-23.646761 20.635378 -22.026437 38.342562 -0.717498 2.182746 0.039225 -0.010784 -426803.000000 0 0 1
-22.698261 21.398378 -21.338537 37.794640 -0.755929 2.170735 0.040195 -0.015900 -228949.000000 0 0 1
-21.641261 20.609678 -20.806137 36.414260 -0.760987 2.178975 0.035180 -0.013846 -147518.000000 0 0 1
-21.867361 19.661678 -19.571237 35.324161 -0.732336 2.158014 0.037632 -0.025355 -1400160.000000 0 0 1
-22.659361 18.514378 -19.841237 35.353975 -0.685066 2.166651 0.045710 -0.023844 682870.000000 0 0 1
-23.421961 18.056478 -18.697237 34.988731 -0.656757 2.134569 0.044171 -0.021842 -53496.600000 0 0 1
-24.515361 18.961078 -18.108737 35.895010 -0.658333 2.099590 0.045342 -0.013803 -486995.000000 0 0 1
-25.627941 19.082078 -19.013337 37.180963 -0.640024 2.107578 0.046753 -0.011016 570724.000000 0 0 1
-26.429431 20.206078 -18.735237 38.181272 -0.652735 2.083680 0.053466 -0.007343 -627689.000000 0 0 1
-27.884261 20.149278 -19.274937 39.434105 -0.625736 2.081497 0.039832 -0.001985 274105.000000 0 0 1
-28.728821 19.133578 -18.796737 39.303388 -0.587545 2.069454 0.026871 0.004383 85246.400000 0 0 1
-28.947481 19.109178 -17.386737 38.799690 -0.583465 2.035452 0.016825 0.002846 -695829.000000 0 0 1
-29.999921 18.101178 -16.820437 38.866116 -0.542897 2.018369 0.003347 0.002634 103771.000000 0 0 1
-29.520991 16.775978 -16.892137 37.924486 -0.516764 2.032434 0.019754 -0.009004 -411460.000000 0 0 1
-30.344471 15.904978 -16.212237 37.902399 -0.482778 2.012783 0.005246 -0.011565 -372376.000000 0 0 1
-29.656061 14.672078 -15.518637 36.545587 -0.459432 2.009358 0.044917 -0.013679 -475831.000000 0 0 1
-28.946471 14.953478 -14.347437 35.599911 -0.476832 1.985609 0.048138 -0.012946 131577.000000 0 0 1
-29.707601 14.875378 -13.105337 35.715099 -0.464229 1.946515 0.015448 -0.001861 -84256.000000 0 0 1
-29.003831 15.375678 -11.853237 34.901761 -0.487457 1.917306 0.033452 -0.014553 -317758.000000 0 0 1
-28.792921 16.781778 -11.774437 35.345406 -0.527709 1.910412 0.035472 -0.002197 119593.000000 0 0 1
-29.929301 17.594078 -11.513037 36.576832 -0.531441 1.891003 0.008164 0.007244 -99837.700000 0 0 1
-29.673851 19.125478 -11.629437 37.169412 -0.572515 1.889016 0.059255 0.003478 458924.000000 0 0 1
-28.695201 19.656878 -10.713137 36.394762 -0.600604 1.869581 0.010446 -0.004173 411868.000000 0 0 1
-27.881921 20.577578 -11.400937 36.480400 -0.635793 1.888643 0.007593 -0.004893 6619.910000 0 0 1
-26.836561 21.341678 -10.573537 35.881303 -0.671836 1.869918 0.035090 -0.005619 231653.000000 0 0 1
-27.382821 22.354378 -9.687337 36.652171 -0.684640 1.838279 0.034846 -0.004855 122795.000000 0 0 1
-26.759971 23.628078 -9.835737 37.028690 -0.723323 1.839648 0.035075 -0.002421 143738.000000 0 0 1
-27.321651 24.768978 -8.873737 37.930438 -0.736433 1.806932 0.058180 0.011581 275143.000000 0 0 1
-27.013231 24.388378 -7.548437 37.168354 -0.734377 1.775307 0.052249 0.001862 388352.000000 0 0 1
-27.870381 25.005978 -6.588637 38.019301 -0.731279 1.744973 0.064737 -0.003021 321476.000000 0 0 1
-27.655611 24.266278 -5.247837 37.164834 -0.720213 1.712474 0.068264 -0.000737 362212.000000 0 0 1
-28.143961 22.906178 -5.285537 36.670321 -0.683155 1.715437 0.069953 -0.007807 608882.000000 0 0 1
-27.413401 22.171278 -4.272037 35.514933 -0.680069 1.691377 0.065876 -0.011032 439163.000000 0 0 1
-27.477651 20.679978 -4.474237 34.679989 -0.645170 1.700172 0.079990 -0.013090 -45627.000000 0 0 1
-26.736751 20.164378 -5.561137 33.946756 -0.646172 1.735357 0.058821 -0.022280 -186892.000000 0 0 1
-27.328441 20.291178 -6.832937 34.716921 -0.638679 1.768908 0.046767 -0.011505 -164746.000000 0 0 1
-28.507491 19.352978 -7.204337 35.201098 -0.596406 1.776915 0.033531 -0.009330 -138936.000000 0 0 1
-28.240461 17.952378 -7.155937 34.220154 -0.566255 1.781466 0.036204 -0.008324 185801.000000 0 0 1
-27.831761 17.388678 -8.398737 33.874944 -0.558440 1.821343 0.029586 -0.010002 88717.900000 0 0 1
-27.202771 15.948378 -8.258637 32.596727 -0.530268 1.826946 0.064757 -0.006766 -65828.700000 0 0 1
-28.128591 15.073078 -7.682737 32.824378 -0.491925 1.807044 0.039095 -0.007800 -11285.000000 0 0 1
-27.906931 13.736778 -8.109137 32.144268 -0.457417 1.825825 0.056440 -0.024334 -117102.000000 0 0 1
-28.629611 12.609978 -7.318837 32.128361 -0.414886 1.800614 0.050818 -0.020851 21348.100000 0 0 1
-30.035691 12.734478 -7.409937 33.454698 -0.401005 1.794140 0.053546 -0.020839 64974.400000 0 0 1
-30.765511 11.785978 -6.651437 33.610528 -0.365845 1.770009 0.070453 -0.027463 158025.000000 0 0 1
-31.249281 10.536878 -7.467337 33.812786 -0.325216 1.793476 0.066282 -0.028470 238918.000000 0 0 1
-30.151451 9.762578 -7.958037 32.676418 -0.313132 1.816811 0.070033 -0.029839 473230.000000 0 0 1
-30.622561 8.455078 -8.272937 32.827901 -0.269394 1.825552 0.062896 -0.025790 -319219.000000 0 0 1
-29.602021 7.431078 -8.763837 31.753825 -0.245950 1.850419 0.089008 -0.025253 -640951.000000 0 0 1
-29.160481 7.601078 -10.072437 31.773637 -0.254990 1.893367 0.086872 -0.038056 3676.620000 0 0 1
-28.195841 6.608578 -10.330937 30.747472 -0.230226 1.913456 0.102442 -0.042828 -749344.000000 0 0 1
-27.518391 6.897178 -11.675337 30.678110 -0.245580 1.961215 0.078302 -0.032769 -595286.000000 0 0 1
-26.705011 8.021678 -11.721637 30.247342 -0.291806 1.968743 0.097971 -0.039311 -136291.000000 0 0 1
-25.862971 8.034078 -12.805037 29.956780 -0.301190 2.012467 0.075607 -0.015658 -677804.000000 0 0 1
-32.193441 25.669978 -33.798817 53.270305 -0.673133 2.258129 0.029819 0.007039 -20947.000000 0 0 1
-32.497871 27.029878 -33.923327 54.198875 -0.693799 2.247087 0.026989 -0.006221 186426.000000 0 0 1
-32.595381 27.435578 32.758225 53.742638 -0.699657 0.915318 0.040689 -0.014881 -140448.000000 0 0 1
-32.995291 28.871978 32.533657 54.595963 -0.718849 0.932412 0.051590 -0.022694 -78249.100000 0 0 1
-33.125511 29.297778 31.202658 54.122686 -0.724156 0.956337 0.082668 -0.024273 96062.500000 0 0 1
-33.435301 30.675078 31.257018 55.098829 -0.742371 0.967585 0.102862 -0.027553 -48358.200000 0 0 1
-33.154761 31.388678 29.906508 54.579177 -0.758042 0.990888 0.108006 -0.028831 612267.000000 0 0 1
-31.733601 31.419778 29.775208 53.672963 -0.780429 0.982731 0.099359 -0.025721 397465.000000 0 0 1
-31.334161 32.257278 28.695848 53.346165 -0.799914 1.002831 0.105584 -0.011819 -299524.000000 0 0 1
-29.829161 32.076278 28.468438 52.240965 -0.821681 0.994473 0.127383 -0.015118 -437517.000000 0 0 1
-29.617691 30.800578 27.918138 51.042195 -0.804974 0.992065 0.149435 -0.022487 532017.000000 0 0 1
-28.610401 30.722578 26.891848 49.855826 -0.820982 1.001081 0.114770 -0.009107 321475.000000 0 0 1
-29.019221 31.362778 25.507528 49.763170 -0.824191 1.032611 0.116299 -0.014541 -73009.400000 0 0 1
-29.026891 32.764378 25.533608 50.675734 -0.845810 1.042732 0.116335 -0.020612 517615.000000 0 0 1
-29.890001 33.455678 24.603198 51.166512 -0.841628 1.069177 0.131512 -0.015743 323793.000000 0 0 1
-30.037261 -33.261556 25.076008 51.355373 0.836292 1.060674 0.130816 -0.015967 32173.400000 0 0 1
-30.615051 -33.152756 26.379628 52.271134 0.825173 1.041798 0.131001 -0.028525 153360.000000 0 0 1
-30.510051 -31.851756 26.985098 51.706800 0.806910 1.021735 0.117999 -0.030250 -283621.000000 0 0 1
-31.193061 -31.727856 28.332978 52.748664 0.793897 1.003763 0.127360 -0.045459 -448705.000000 0 0 1
-32.508721 -32.211756 28.441858 53.882776 0.780810 1.014733 0.104333 -0.041526 -197399.000000 0 0 1
-32.820921 -32.232656 29.827498 54.825511 0.776356 0.995547 0.097868 -0.037205 110921.000000 0 0 1
-34.196955 -32.864656 30.137758 56.194322 0.765534 1.004733 0.095796 -0.039901 127698.000000 0 0 1
-34.444537 -33.101556 31.488538 57.215970 0.765518 0.988019 0.093643 -0.047224 -1596610.000000 0 0 1
-35.770064 -33.287456 31.723348 58.257386 0.749464 0.994958 0.082938 -0.045152 -1529420.000000 0 0 1
-36.045892 -33.959656 33.116638 59.575803 0.755606 0.981382 0.082646 -0.033572 -131128.000000 0 0 1
-35.761743 32.801478 33.242022 58.820671 -0.742249 0.970191 0.059963 -0.023345 125703.000000 0 0 1
-36.461861 32.261378 -33.711717 59.217765 -0.724352 2.176431 0.066318 -0.022938 133981.000000 0 0 1
-35.827011 30.945478 -33.278937 57.867823 -0.712421 2.183505 0.054596 -0.020235 1027990.000000 0 0 1
-34.688005 31.161378 -32.401117 56.781349 -0.731893 2.178069 0.052472 -0.024857 666868.000000 0 0 1
-33.945171 29.964578 -32.194437 55.557469 -0.723194 2.188887 0.037822 -0.013923 603573.000000 0 0 1
-33.083601 29.957278 -30.889777 54.278370 -0.735847 2.176206 0.027939 -0.011813 89207.300000 0 0 1
-33.873491 29.910678 -29.743317 54.099232 -0.723349 2.152911 0.054460 -0.017285 -356552.000000 0 0 1
-34.302144 31.204278 -29.299157 54.852390 -0.738142 2.134293 0.040075 -0.014353 202180.000000 0 0 1
-35.500074 31.272278 -28.324617 55.140680 -0.722166 2.110264 0.041136 -0.018171 172679.000000 0 0 1
-35.214318 30.969478 -26.997577 54.111237 -0.721349 2.093157 0.030155 -0.027264 558720.000000 0 0 1
-36.408991 31.019278 -26.187417 54.530643 -0.705635 2.071717 0.064485 -0.028825 879775.000000 0 0 1
-36.058972 30.631678 -24.737037 53.389795 -0.704197 2.052544 0.061971 -0.028253 185916.000000 0 0 1
-35.436636 31.636378 -23.918737 53.185727 -0.728800 2.037249 0.073148 -0.036476 60811.200000 0 0 1
-35.280386 31.408178 -22.527537 52.332296 -0.727399 2.015811 0.060166 -0.032223 -417105.000000 0 0 1
-36.534241 31.031178 -21.725337 52.627702 -0.704130 1.996335 0.052505 -0.030477 -232790.000000 0 0 1
36.134448 32.001778 -21.562137 52.865280 0.724819 1.990916 0.064304 -0.033203 39416.600000 0 0 1
36.323628 33.207778 -20.851137 53.450279 0.740616 1.971540 0.067206 -0.042433 -629791.000000 0 0 1
36.638888 33.020478 -19.319437 52.971697 0.733500 1.944120 0.067591 -0.040160 145299.000000 0 0 1
-35.799152 32.406678 -19.129337 51.939422 -0.735700 1.947977 0.069186 -0.040673 -68851.900000 0 0 1
-35.500908 32.206578 -17.726937 51.105992 -0.736781 1.925024 0.076366 -0.030000 -869693.000000 0 0 1
-34.228195 31.442678 -17.536237 49.676261 -0.743007 1.931583 0.074293 -0.024362 -886368.000000 0 0 1
-34.030051 31.256878 -16.166737 48.953041 -0.742947 1.907365 0.068131 -0.012397 151614.000000 0 0 1
-32.874221 30.444278 -15.978237 47.569660 -0.747040 1.913348 0.064920 -0.011477 43138.100000 0 0 1
-32.434851 30.139878 -14.489837 46.587414 -0.748739 1.887067 0.068718 -0.007699 133371.000000 0 0 1
-33.407461 29.398578 -13.771337 46.583093 -0.721655 1.870911 0.051473 -0.002181 121466.000000 0 0 1
-32.906421 28.973978 -12.540837 45.602594 -0.721934 1.849389 0.068904 -0.001437 -588034.000000 0 0 1
-33.960241 28.288678 -11.685937 45.717703 -0.694538 1.829276 0.064287 -0.007639 -265611.000000 0 0 1
-33.449421 27.826278 -10.468937 44.752253 -0.693887 1.806915 0.078511 -0.001563 357244.000000 0 0 1
-34.474549 27.090778 -9.838337 44.935483 -0.666034 1.791528 0.074726 -0.011387 355800.000000 0 0 1
-33.868131 26.370378 -8.597337 43.776265 -0.661567 1.768474 0.080424 -0.006466 158779.000000 0 0 1
-33.384631 27.334378 -7.709837 43.830850 -0.686083 1.747616 0.089059 -0.007674 -348534.000000 0 0 1
-32.492361 26.733978 -6.861537 42.632614 -0.688476 1.732445 0.079490 -0.014065 -811800.000000 0 0 1
-31.979721 27.640478 -5.766437 42.660877 -0.712745 1.706381 0.099425 -0.022282 553211.000000 0 0 1
-30.866241 27.005778 -5.090537 41.327357 -0.718790 1.694286 0.105022 -0.019423 1070700.000000 0 0 1
-30.911841 27.341478 -3.786837 41.441989 -0.724184 1.662301 0.099754 -0.024362 -347439.000000 0 0 1
-30.074541 26.447678 -2.887137 40.153372 -0.721319 1.642761 0.090406 -0.021267 -589226.000000 0 0 1
-30.608621 25.193778 -2.580837 39.727508 -0.688665 1.635806 0.089932 -0.012888 -314798.000000 0 0 1
-29.788131 24.358478 -1.786537 38.520903 -0.685455 1.617191 0.089851 -0.015841 -18856.800000 0 0 1
-30.403551 23.018078 -1.318037 38.156848 -0.648020 1.605346 0.105874 -0.028876 -316313.000000 0 0 1
-30.777191 22.112778 -2.314037 37.967950 -0.623021 1.631781 0.083805 -0.022344 275886.000000 0 0 1
-31.751621 21.196478 -1.829637 38.220462 -0.588629 1.618685 0.083540 -0.020682 300997.000000 0 0 1
-32.477421 20.472178 -2.973037 38.506258 -0.562438 1.648082 0.088478 -0.014896 100787.000000 0 0 1
-31.578011 19.495678 -3.438537 37.270307 -0.553102 1.663187 0.075834 -0.014147 433157.000000 0 0 1
-32.146201 18.635478 -4.449037 37.422630 -0.525367 1.689964 0.072749 -0.009507 -57326.900000 0 0 1
-31.133291 17.677278 -5.080637 36.160487 -0.516401 1.711765 0.053322 -0.010089 -260274.000000 0 0 1
-30.628551 16.695478 -4.244737 35.140645 -0.499070 1.691885 0.077422 -0.012048 -611263.000000 0 0 1
-29.754531 15.880878 -4.883137 34.079018 -0.490266 1.714580 0.066164 -0.019579 -799753.000000 0 0 1
-29.384541 14.640378 -4.013937 33.074214 -0.462234 1.692458 0.070451 -0.018588 174875.000000 0 0 1
-30.510881 13.815578 -3.824337 33.710675 -0.425187 1.684487 0.093209 -0.022927 440957.000000 0 0 1
-30.069581 12.757778 -2.988637 32.800496 -0.401257 1.662038 0.094812 -0.031275 169192.000000 0 0 1
-31.147891 11.914278 -2.233737 33.423506 -0.365336 1.637677 0.112457 -0.030540 -347533.000000 0 0 1
-32.089371 11.383378 -3.103537 34.189779 -0.340891 1.661695 0.095585 -0.016598 -427410.000000 0 0 1
-32.992541 10.533478 -2.484837 34.722275 -0.309039 1.642421 0.105572 -0.015656 -1071790.000000 0 0 1
-34.131253 10.181278 -3.407237 35.780024 -0.289894 1.666168 0.096623 -0.014186 -890738.000000 0 0 1
-33.718081 9.365078 -4.477137 35.279717 -0.270918 1.698043 0.096675 -0.021541 144382.000000 0 0 1
-34.773552 8.846878 -5.221237 36.259185 -0.249129 1.715296 0.107579 -0.019672 -241567.000000 0 0 1
-34.146666 7.972678 -6.344837 35.634469 -0.229374 1.749804 0.106237 -0.038254 74376.200000 0 0 1
-33.575631 6.785778 -5.802937 34.742537 -0.199418 1.738610 0.105632 -0.033003 440290.000000 0 0 1
-33.197841 5.912178 -6.882537 34.415401 -0.176242 1.772138 0.105389 -0.032401 -356659.000000 0 0 1
-32.135501 4.876878 -6.462837 33.139744 -0.150611 1.767072 0.095375 -0.031150 -597324.000000 0 0 1
-30.827261 5.351478 -6.454337 31.947094 -0.171883 1.774229 0.091694 -0.038662 -84443.200000 0 0 1
-29.904621 4.347978 -6.057637 30.820225 -0.144383 1.768632 0.082994 -0.036958 453751.000000 0 0 1
-28.419911 4.780178 -5.881837 29.413219 -0.166638 1.772126 0.103755 -0.044895 451875.000000 0 0 1
-27.727591 5.125478 -7.069037 29.069935 -0.182788 1.816433 0.111409 -0.035847 332494.000000 0 0 1
-26.347481 4.874678 -6.881137 27.664098 -0.182946 1.822174 0.139492 -0.045605 -78927.600000 0 0 1
-25.463321 5.261878 -8.057237 27.221079 -0.203777 1.871291 0.129065 -0.038258 -346419.000000 0 0 1
-25.775451 4.468278 -9.203437 27.731618 -0.171648 1.909087 0.122881 -0.044674 512013.000000 0 0 1
-24.780061 4.539178 -10.209537 27.182535 -0.181170 1.955832 0.138379 -0.046736 -95196.300000 0 0 1
-25.158751 3.686978 -11.446437 27.885076 -0.145513 1.993783 0.122804 -0.048468 384182.000000 0 0 1
-26.359321 4.112278 -12.088137 29.289037 -0.154761 1.996233 0.085859 -0.024954 427120.000000 0 0 1
-26.639061 3.487978 -13.312037 29.983594 -0.130194 2.030829 0.083991 -0.021772 363568.000000 0 0 1
-27.462781 4.436178 -14.285537 31.272361 -0.160151 2.045203 0.073343 -0.012427 890903.000000 0 0 1
-26.609141 5.359178 -15.074937 31.048686 -0.198745 2.077761 0.049447 -0.007627 1017830.000000 0 0 1
-27.287731 6.264578 -15.922737 32.208675 -0.225665 2.087897 0.071084 -0.006496 209979.000000 0 0 1
-28.143531 5.734378 -17.149837 33.452329 -0.201003 2.109082 0.039017 0.004922 5374.020000 0 0 1
-29.310681 5.056178 -16.824137 34.172102 -0.170822 2.085567 0.046472 -0.005007 -616928.000000 0 0 1
-30.004651 4.626578 -17.959237 35.273482 -0.152990 2.104985 0.048802 0.009251 867802.000000 0 0 1
-31.404671 3.958578 -17.614437 36.224192 -0.125389 2.078603 0.060047 -0.002692 855724.000000 0 0 1
-31.352511 2.811878 -16.822937 35.691705 -0.089447 2.061606 0.069531 -0.006792 -68830.800000 0 0 1
-30.832141 1.636578 -17.356237 35.419462 -0.053030 2.082909 0.099219 -0.004676 -172706.000000 0 0 1
-31.043641 0.436778 -16.416937 35.119998 -0.014069 2.057203 0.085718 -0.003879 -53328.600000 0 0 1
-30.450271 -0.808622 -16.813937 34.793410 0.026549 2.075160 0.085710 0.001816 440120.000000 0 0 1
-30.842751 -1.831822 -15.891137 34.744195 0.059323 2.045838 0.098260 -0.010974 -4166.410000 0 0 1
-30.888331 -3.232222 -16.513237 35.174184 0.104263 2.059487 0.101879 -0.011485 -237881.000000 0 0 1
-31.819321 -3.290622 -17.554937 36.489357 0.103050 2.072702 0.103556 -0.012914 -33051.400000 0 0 1
-31.998561 -4.556522 -18.087837 37.038354 0.141447 2.080999 0.099093 -0.015870 -72281.700000 0 0 1
-32.969491 -4.645622 -19.277837 38.473421 0.139985 2.095630 0.110502 -0.016718 -153200.000000 0 0 1
-32.873361 -5.900022 -19.927037 38.891579 0.177587 2.108743 0.122807 -0.016107 92599.000000 0 0 1
-33.828321 -6.095022 -20.946037 40.252218 0.178263 2.118080 0.130668 -0.016318 -221421.000000 0 0 1
-33.676621 -7.393422 -21.838037 40.812711 0.216113 2.135398 0.138581 -0.018948 -149494.000000 0 0 1
-32.458631 -7.313222 -22.537037 40.186614 0.221609 2.166160 0.124821 -0.021615 -89133.900000 0 0 1
-32.287391 -8.357522 -23.455437 40.773537 0.253289 2.183720 0.113758 -0.011695 -991970.000000 0 0 1
-30.913901 -8.415922 -24.062137 40.068485 0.265796 2.214954 0.090935 -0.010075 -970838.000000 0 0 1
-30.472391 -7.232822 -24.739737 39.911589 0.233044 2.239365 0.094204 -0.011382 218294.000000 0 0 1
-30.223891 -7.241122 -26.174987 40.633082 0.235150 2.270746 0.076600 -0.010904 -293375.000000 0 0 1
-31.516001 -7.314522 -26.986547 42.131156 0.228052 2.265993 0.091428 -0.008773 -270819.000000 0 0 1
-32.225411 -8.514722 -26.760667 42.744718 0.258320 2.247284 0.093396 -0.021870 -574042.000000 0 0 1
-33.499901 -8.508922 -27.354527 44.078513 0.248738 2.240287 0.090415 -0.023435 166823.000000 0 0 1
-34.421042 -9.466822 -26.554737 44.492504 0.268394 2.210349 0.079367 -0.027371 -356452.000000 0 0 1
-33.984901 -10.777722 -26.759827 44.578258 0.307100 2.214658 0.082134 -0.022447 541413.000000 0 0 1
-34.994492 -11.791122 -26.505527 45.455341 0.324995 2.193350 0.059987 -0.017718 1638260.000000 0 0 1
-36.261521 -11.898722 -27.463547 47.018336 0.317066 2.194571 0.038748 -0.007474 1118810.000000 0 0 1
36.489598 -10.817122 -27.378767 46.883875 -0.288191 2.194407 0.032404 -0.013510 417171.000000 0 0 1
35.699148 -10.810422 -28.556427 46.976206 -0.294042 2.224198 0.037358 -0.017628 -45234.200000 0 0 1
34.521478 -9.821222 -28.578137 45.879175 -0.277173 2.243241 0.033726 -0.012524 483010.000000 0 0 1
33.456658 -10.096922 -27.638127 44.555155 -0.293099 2.239938 0.014584 -0.013495 42421.900000 0 0 1
32.726118 -8.931022 -27.445537 43.635071 -0.266415 2.251035 0.003390 -0.002923 -353380.000000 0 0 1
31.442598 -9.290322 -26.690617 42.276898 -0.287295 2.254062 -0.002560 0.005226 -113749.000000 0 0 1
31.753868 -9.461422 -25.324357 41.703114 -0.289585 2.223395 -0.017222 0.016993 816844.000000 0 0 1
30.580958 -9.971522 -24.650037 40.524691 -0.315199 2.224678 -0.017970 0.019139 643017.000000 0 0 1
30.670428 -10.148322 -23.121337 39.727318 -0.319544 2.191983 -0.020090 0.015054 132611.000000 0 0 1
31.613028 -11.128322 -22.686437 40.470946 -0.338471 2.165859 -0.034432 0.009357 377230.000000 0 0 1
31.661618 -11.166722 -21.259337 39.738056 -0.339069 2.135288 -0.017784 0.005243 -136792.000000 0 0 1
32.638048 -12.209422 -20.696737 40.529829 -0.357969 2.106742 0.011778 0.002994 -341065.000000 0 0 1
33.981708 -11.984622 -21.049137 41.730730 -0.339059 2.099488 0.020998 0.002316 -69924.100000 0 0 1
34.785948 -12.708022 -20.105337 42.140011 -0.350258 2.068157 0.049019 -0.000710 1042950.000000 0 0 1
36.304968 -12.806722 -20.546037 43.637168 -0.339126 2.061037 0.060650 -0.007818 915700.000000 0 0 1
-36.561861 -11.631622 -20.557637 43.527931 0.308011 2.062679 0.089665 -0.009852 584932.000000 0 0 1
36.818108 -10.661722 -21.568737 43.982449 -0.281868 2.083338 0.095583 -0.007940 -600219.000000 0 0 1
-36.250511 -10.910322 -22.981537 44.286406 0.292347 2.116395 0.072207 -0.011496 122907.000000 0 0 1
-36.731541 -12.074722 -23.643737 45.321422 0.317601 2.119627 0.057051 -0.006819 1832700.000000 0 0 1
35.542108 -12.013322 -24.003937 44.539312 -0.325947 2.139972 0.056582 -0.003223 1627390.000000 0 0 1
34.945968 -13.248322 -24.757037 44.829115 -0.362368 2.155861 0.029939 -0.012936 -147796.000000 0 0 1
35.153928 -14.513022 -24.173037 45.063979 -0.391528 2.136981 0.026213 -0.021874 734166.000000 0 0 1
34.329878 -14.850122 -23.019137 43.919783 -0.408266 2.122475 -0.001929 -0.013883 140857.000000 0 0 1
-30.536231 8.519478 -18.867537 36.892098 -0.272077 2.107638 0.015313 0.007120 -306831.000000 0 0 1
-29.524221 7.676278 -19.329337 36.114099 -0.254367 2.135576 0.014695 -0.000766 -248442.000000 0 0 1
-28.830121 8.225678 -20.433737 36.281886 -0.277931 2.169042 0.036952 -0.014243 -5430.270000 0 0 1
-27.628061 7.357278 -20.886937 35.407675 -0.260258 2.201730 0.056542 -0.019952 250908.000000 0 0 1
-26.523191 7.383078 -19.976237 34.015284 -0.271490 2.198481 0.063173 -0.014528 -67594.600000 0 0 1
-25.601811 6.433278 -20.441837 33.387250 -0.246185 2.229718 0.108555 -0.023333 -935053.000000 0 0 1
-24.296261 6.547078 -19.683737 31.947176 -0.263216 2.234621 0.080242 -0.024426 -272984.000000 0 0 1
-23.490961 7.688678 -20.048037 31.825537 -0.316314 2.252267 0.087101 -0.027345 1801540.000000 0 0 1
-22.091361 7.518478 -19.649637 30.506786 -0.328039 2.270652 0.075309 -0.024323 1672910.000000 0 0 1
-21.192261 8.661678 -20.159637 30.504878 -0.388000 2.292768 0.093682 -0.009726 -190598.000000 0 0 1
-21.004361 8.617878 -21.585037 31.326743 -0.389345 2.330945 0.107483 -0.035278 281888.000000 0 0 1
-20.326261 9.768878 -22.107637 31.580619 -0.448011 2.346247 0.089344 -0.030152 -195775.000000 0 0 1
-19.122361 9.460978 -22.978337 31.355681 -0.459447 2.393266 0.112868 -0.022548 -372871.000000 0 0 1
-19.509861 8.790978 -24.136737 32.256752 -0.423346 2.416246 0.112157 -0.024075 262270.000000 0 0 1
-18.338061 8.351778 -24.812437 31.963944 -0.427364 2.459513 0.083309 -0.021709 117770.000000 0 0 1
-18.723561 7.391678 -25.922737 32.820678 -0.375998 2.481327 0.069360 -0.017527 -189503.000000 0 0 1
-19.192261 6.224578 -25.347247 32.397086 -0.313624 2.469295 0.098222 -0.020177 280964.000000 0 0 1
-19.778361 5.285478 -26.255377 33.293613 -0.261133 2.479327 0.099615 -0.025805 -352661.000000 0 0 1
-20.237961 3.955678 -25.585377 32.860827 -0.193025 2.463225 0.094355 -0.010383 -177156.000000 0 0 1
-19.276361 2.947278 -25.450107 32.062010 -0.151721 2.487791 0.086781 -0.010884 967233.000000 0 0 1
-18.169561 3.303978 -24.539737 30.712341 -0.179876 2.496458 0.089741 -0.019441 683984.000000 0 0 1
-17.388561 2.032278 -24.103537 29.790480 -0.116347 2.513419 0.092449 -0.016743 171061.000000 0 0 1
-18.019061 1.208678 -23.127437 29.343241 -0.066977 2.478625 0.097092 -0.018961 201343.000000 0 0 1
-19.331961 0.728278 -23.359337 30.330079 -0.037654 2.449905 0.083538 -0.011469 -24425.300000 0 0 1
-19.827561 -0.196222 -22.254937 29.806927 0.009896 2.413788 0.103169 -0.009530 37097.600000 0 0 1
-19.168061 -1.453822 -22.290237 29.434382 0.075701 2.429943 0.104133 -0.008520 185679.000000 0 0 1
-19.280261 -2.050422 -20.999037 28.581327 0.105950 2.396038 0.110607 -0.012627 -53957.600000 0 0 1
-18.657261 -3.468522 -20.865637 28.204589 0.183809 2.403563 0.080563 -0.024744 13214.400000 0 0 1
-19.150861 -4.463922 -21.789937 29.351038 0.229004 2.407428 0.088574 -0.033110 324076.000000 0 0 1
-19.232261 -5.739722 -21.161537 29.165646 0.290027 2.382650 0.088615 -0.029466 -265571.000000 0 0 1
-19.110861 -6.885022 -22.147637 30.052393 0.345792 2.399369 0.065556 -0.039864 -839488.000000 0 0 1
-17.812361 -7.012422 -22.600737 29.618365 0.375049 2.438838 0.071563 -0.033242 -984894.000000 0 0 1
-17.795361 -7.876422 -23.722737 30.683565 0.416692 2.454576 0.089136 -0.040864 -311577.000000 0 0 1
-16.482661 -7.918522 -24.484037 30.558946 0.447857 2.500106 0.073204 -0.044401 -1034930.000000 0 0 1
-16.551661 -8.619522 -25.728357 31.783675 0.480121 2.514068 0.069579 -0.062114 997344.000000 0 0 1
-15.235361 -8.801922 -26.301177 31.643988 0.523883 2.551985 0.079279 -0.051343 1409240.000000 0 0 1
-14.088061 -9.648222 -25.665637 30.826718 0.600486 2.554541 0.080474 -0.045533 20276.600000 0 0 1
-13.429761 -8.951922 -24.596237 29.418876 0.587938 2.560876 0.065909 -0.038619 162537.000000 0 0 1
-12.665461 -9.877722 -23.853337 28.756999 0.662361 2.548971 0.056241 -0.032977 290842.000000 0 0 1
-11.790161 -9.254222 -22.702237 27.203678 0.665472 2.558072 0.074979 -0.030954 181500.000000 0 0 1
-12.547461 -8.722522 -21.650337 26.500156 0.607472 2.526966 0.071546 -0.035556 23334.600000 0 0 1
-11.730061 -8.038322 -20.747937 25.153247 0.600775 2.540753 0.078068 -0.029387 -610518.000000 0 0 1
-12.508161 -7.769522 -19.450037 24.395153 0.555830 2.493590 0.064491 -0.026410 793273.000000 0 1 0
-13.593061 -6.822622 -19.475937 24.710961 0.465182 2.478593 0.053214 -0.016223 1351210.000000 0 1 0
-14.867861 -7.370022 -19.881137 25.896527 0.460203 2.446063 0.066366 -0.028939 1026770.000000 0 0 1
-16.040161 -6.404622 -19.466337 26.023916 0.379891 2.415866 0.080075 -0.018859 161425.000000 0 0 1
-16.341161 -6.222022 -18.117837 25.179418 0.363809 2.373950 0.066483 -0.011750 293677.000000 0 0 1
-15.598761 -5.140722 -17.604637 24.076370 0.318350 2.390875 0.077549 -0.016469 -235040.000000 0 1 0
-15.515761 -5.119822 -16.035037 22.892659 0.318726 2.346816 0.091171 -0.004713 464990.000000 0 1 0
-16.636361 -4.466522 -15.395537 23.102833 0.262294 2.300155 0.119452 -0.018394 637299.000000 0 1 0
-16.549461 -3.035522 -15.436137 22.833602 0.181405 2.313154 0.063665 -0.025649 -250435.000000 0 1 0
-17.568361 -2.254322 -14.604837 22.957146 0.127620 2.260331 0.050935 -0.025150 -220590.000000 0 1 0
-17.323061 -2.396122 -13.198137 21.909374 0.137448 2.217297 0.079541 -0.040256 109068.000000 0 1 0
-18.212861 -1.679322 -12.415937 22.106196 0.091945 2.167175 0.078019 -0.042991 -436102.000000 0 1 0
-17.648761 -0.348122 -11.795037 21.230234 0.019722 2.159853 0.063717 -0.033117 44507.300000 0 1 0
-17.502561 0.599278 -12.840537 21.715851 -0.034226 2.203464 0.097399 -0.032845 504694.000000 0 1 0
-16.564061 1.620378 -12.538237 20.837493 -0.097515 2.216443 0.082749 -0.020193 -549067.000000 0 1 0
-16.220061 2.432278 -13.800837 21.435239 -0.148846 2.270301 0.092203 -0.004887 244845.000000 0 1 0
-15.471361 1.746678 -14.802237 21.483019 -0.112421 2.330933 0.080918 -0.016964 510007.000000 0 1 0
-14.088661 1.584478 -14.506037 20.283640 -0.111994 2.367649 0.067267 -0.012628 -481910.000000 0 1 0
-13.496061 0.466378 -15.333437 20.432216 -0.034543 2.419545 0.060054 -0.013212 -458552.000000 0 1 0
-13.168861 1.038678 -16.563137 21.185732 -0.078711 2.468354 0.068900 -0.017801 331.855000 0 1 0
-12.755961 -0.007222 -17.381737 21.560134 0.000566 2.508494 0.038901 -0.010290 -80679.400000 0 1 0
-12.089161 0.572278 -18.697337 22.272533 -0.047303 2.567121 0.055368 -0.012383 -393087.000000 0 1 0
-10.929861 1.289078 -18.457737 21.489803 -0.117399 2.603927 0.031933 -0.007720 -891053.000000 0 1 0
-10.667361 2.231178 -19.464837 22.308084 -0.206187 2.631187 0.050071 -0.010510 -488271.000000 0 1 0
-9.259061 2.784178 -19.303437 21.589454 -0.292097 2.677246 0.034955 -0.011527 -847764.000000 0 1 0
-8.309761 1.773378 -19.603637 21.365851 -0.210255 2.732600 0.037075 -0.005188 206701.000000 0 1 0
-6.931261 2.111778 -19.518937 20.820444 -0.295740 2.786140 0.027650 0.005407 917423.000000 0 1 0
-6.362861 3.286378 -20.411837 21.631675 -0.476755 2.804163 0.025267 0.008594 -644180.000000 0 1 0
-6.326561 2.893878 -21.715437 22.802633 -0.429005 2.831553 0.030386 0.007167 74310.000000 0 1 0
-5.878561 3.940778 -22.543737 23.628527 -0.590558 2.837402 0.026513 0.005176 -404240.000000 0 1 0
-5.353561 3.450278 -23.892537 24.726875 -0.572487 2.881079 0.049717 -0.008164 192193.000000 0 1 0
-4.021761 2.973678 -23.738737 24.259945 -0.636681 2.933931 0.060100 -0.014423 59303.200000 0 1 0
-3.630061 2.408478 -24.972637 25.349767 -0.585794 2.968884 0.082637 -0.021663 -780445.000000 0 0 1
-2.258261 1.793178 -24.843837 25.010627 -0.671104 3.026040 0.070339 -0.025021 -778933.000000 0 0 1
-1.191561 2.762078 -24.843937 25.025389 -1.163517 3.021098 0.061964 -0.023318 1029570.000000 0 0 1
0.115339 2.197478 -24.699937 24.797764 1.518358 3.052738 0.058209 -0.023569 692728.000000 0 1 0
0.551939 1.416078 -23.430337 23.479578 1.199144 3.076817 0.055384 -0.027636 -979835.000000 0 1 0
0.139939 0.060678 -23.450537 23.451033 0.409136 3.135089 0.048437 -0.028228 -79305.900000 0 1 0
0.894239 -0.711922 -22.568437 22.597363 -0.672371 3.090989 0.052672 -0.023011 -730902.000000 0 1 0
0.402039 -2.162922 -22.517937 22.625148 -1.387016 3.044203 0.057899 -0.030698 228033.000000 0 1 0
-0.858761 -2.406122 -21.892837 22.041397 1.227982 3.025423 0.054022 -0.029622 122632.000000 0 1 0
-1.901961 -2.389122 -22.848637 23.051802 0.898443 3.008729 0.068554 -0.028643 -228212.000000 0 1 0
-2.866461 -1.162922 -22.661837 22.871988 0.385410 3.005929 0.072878 -0.030040 -938898.000000 0 1 0
-3.748261 -1.309922 -21.592837 21.954862 0.336207 2.959741 0.059108 -0.023010 435313.000000 0 1 0
-4.823961 -0.362622 -21.495437 22.033064 0.075030 2.920230 0.035508 -0.023944 272837.000000 0 1 0
-5.977261 -0.514122 -22.500237 23.286318 0.085802 2.881021 0.060091 -0.005875 -913037.000000 0 1 0
-6.866661 -1.548822 -22.259537 23.346024 0.221844 2.835312 0.072928 0.006513 -383039.000000 0 1 0
-7.982661 -1.189122 -21.479837 22.946030 0.147876 2.782177 0.049918 -0.006523 -877199.000000 0 1 0
-8.818961 -2.360822 -21.083637 22.975363 0.261565 2.732955 0.049001 -0.014483 -429473.000000 0 1 0
-9.464161 -3.002822 -22.154537 24.277784 0.307237 2.720257 0.109234 -0.023775 -44774.600000 0 1 0
-9.248061 -4.361222 -22.038737 24.295119 0.440656 2.707201 0.063855 -0.020148 -101467.000000 0 1 0
-10.126061 -5.194222 -22.994437 25.656601 0.473958 2.682012 0.057659 -0.025856 1166300.000000 0 0 1
-11.513661 -5.208722 -22.563937 25.861679 0.424844 2.631062 0.057223 -0.026447 1177650.000000 0 0 1
-12.307761 -5.667022 -23.668137 27.272272 0.431504 2.621647 0.051592 -0.039665 -500932.000000 0 0 1
-13.802461 -5.637322 -23.424837 27.767072 0.387751 2.574785 0.073078 -0.034027 -692015.000000 0 0 1
-14.461861 -4.387322 -23.374437 27.834481 0.294547 2.567648 0.060287 -0.033646 1165160.000000 0 0 1
-15.827761 -4.452622 -23.868837 28.983879 0.274230 2.538387 0.074038 -0.036644 1311200.000000 0 0 1
-16.479661 -3.101622 -24.013837 29.289309 0.186033 2.532005 0.078176 -0.031799 -389229.000000 0 0 1
-16.054161 -2.516622 -25.241517 30.020054 0.155493 2.569596 0.072228 -0.037011 112805.000000 0 0 1
-16.706661 -1.272322 -25.555527 30.558408 0.076010 2.561268 0.065980 -0.031325 304194.000000 0 0 1
-18.160361 -1.447922 -26.073937 31.807945 0.079561 2.531736 0.085139 -0.022735 -164091.000000 0 0 1
-18.463161 -2.071422 -27.335577 33.051670 0.111725 2.544646 0.088227 -0.037338 34116.800000 0 0 1
-18.094761 -1.272822 -28.451667 33.742226 0.070226 2.574017 0.063567 -0.027320 -149146.000000 0 0 1
-18.093661 -1.927022 -29.862397 34.969368 0.106103 2.594343 0.052493 -0.018309 -365375.000000 0 0 1
-19.406961 -2.143222 -30.267907 36.019019 0.109990 2.568690 0.063012 -0.019141 -469899.000000 0 0 1
-19.403961 -2.779722 -31.492357 37.094597 0.142287 2.584837 0.065406 -0.023699 -840291.000000 0 0 1
-20.776961 -3.408722 -31.780477 38.122175 0.162614 2.556477 0.044957 -0.020455 114079.000000 0 0 1
-21.815561 -2.506422 -32.133177 38.919685 0.114390 2.542110 0.049808 -0.016219 323639.000000 0 0 1
-22.396261 -1.783322 -31.107107 38.372188 0.079458 2.516088 0.039885 0.001828 -326739.000000 0 0 1
-23.557861 -0.811222 -31.538117 39.373642 0.034422 2.499753 0.033060 0.006847 534266.000000 0 0 1
-23.062361 0.306778 -32.285817 39.677961 -0.013301 2.521280 0.035437 -0.000970 -22634.800000 0 0 1
-24.069961 1.139878 -32.734527 40.647406 -0.047322 2.507026 0.031027 -0.014591 -420317.000000 0 0 1
-23.502961 2.499678 -33.254957 40.798648 -0.105958 2.523697 0.041776 -0.017155 -392749.000000 0 0 1
-22.977161 3.431578 -32.319587 39.803032 -0.148252 2.518347 0.029355 -0.012982 672733.000000 0 0 1
-23.862361 3.991878 -31.318417 39.575126 -0.165753 2.483837 0.038566 -0.020926 -404133.000000 0 0 1
-24.986561 4.923578 -31.807457 40.746585 -0.194556 2.466448 0.034568 -0.026112 -1036290.000000 0 0 1
-25.974801 4.126678 -32.359507 41.699610 -0.157556 2.459119 0.045690 -0.032947 -394086.000000 0 0 1
-26.725961 4.920378 -33.287257 42.971253 -0.182066 2.456942 0.058022 -0.038381 331062.000000 0 0 1
-28.024951 4.336678 -33.902717 44.199535 -0.153526 2.445008 0.079325 -0.035962 -680.039000 0 0 1
-27.718551 3.338578 33.253582 43.419637 -0.119868 0.698411 0.092611 -0.036697 848328.000000 0 0 1
-28.958781 2.931178 32.686396 43.767606 -0.100875 0.727533 0.105766 -0.040715 257131.000000 0 0 1
-29.201291 1.459578 32.533117 43.740708 -0.049942 0.732100 0.111520 -0.018080 -275532.000000 0 0 1
-29.494431 0.854778 33.812877 44.877197 -0.028973 0.717498 0.112212 -0.010152 381156.000000 0 0 1
-29.737941 -0.544922 33.670388 44.925907 0.018322 0.723543 0.094961 -0.004808 -646362.000000 0 0 1
-29.722191 -1.286122 -33.061057 44.475794 0.043244 2.408860 0.070169 0.002695 513967.000000 0 0 1
-28.423911 -1.715622 -32.608717 43.291922 0.060285 2.423753 0.080064 -0.009712 1353290.000000 0 0 1
-27.620421 -0.639622 -32.090977 42.345337 0.023153 2.430792 0.076534 -0.005038 -397087.000000 0 0 1
-27.935581 -0.344122 -30.582707 41.422422 0.012318 2.401362 0.103545 -0.009701 -372637.000000 0 0 1
-27.273181 -1.239822 -29.691977 40.335804 0.045428 2.398116 0.073108 -0.008620 521817.000000 0 0 1
-27.335771 -0.875622 -28.341807 39.386154 0.032021 2.374005 0.079031 -0.012357 -638152.000000 0 0 1
-26.191831 -1.426922 -27.510407 38.011454 0.054426 2.380003 0.075792 -0.012714 -503304.000000 0 0 1
-26.298491 -2.823322 -27.307867 38.017119 0.106947 2.372159 0.066498 -0.003587 549850.000000 0 0 1
-25.331301 -3.214622 -26.322477 36.672625 0.126228 2.371389 0.075956 -0.013176 233979.000000 0 0 1
-25.567841 -4.639622 -25.683957 36.536369 0.179510 2.350361 0.063964 -0.024176 123681.000000 0 0 1
-26.721131 -4.602822 -24.869937 36.792915 0.170580 2.313041 0.081382 -0.021436 -2340.910000 0 0 1
-26.880571 -5.802522 -24.111337 36.573090 0.212601 2.290636 0.054487 -0.016348 233570.000000 0 0 1
-27.905301 -5.575722 -22.969337 36.570274 0.197212 2.249889 0.073061 -0.014632 223277.000000 0 0 1
-28.064801 -6.624322 -22.061237 36.307201 0.231794 2.223866 0.062997 -0.014392 119350.000000 0 0 1
-29.006921 -6.294122 -21.040437 36.382928 0.213674 2.187446 0.092726 -0.011062 257759.000000 0 0 1
-29.420761 -7.424822 -20.108337 36.401296 0.247205 2.156046 0.090621 -0.016372 450994.000000 0 0 1
-28.304761 -7.856822 -19.323437 35.160836 0.270763 2.152649 0.077947 -0.020536 717197.000000 0 0 1
-28.680721 -8.861522 -18.326637 35.170669 0.299667 2.118909 0.091288 -0.023862 97384.000000 0 0 1
-29.421951 -8.311522 -17.077637 35.019684 0.275320 2.080202 0.089348 -0.027912 120595.000000 0 0 1
-28.617921 -7.481222 -16.253537 33.751023 0.255695 2.073243 0.070162 -0.029660 887154.000000 0 0 1
-29.420231 -6.675222 -15.353837 33.850390 0.223115 2.041574 0.077204 -0.028883 -33941.900000 0 0 1
-28.544611 -5.729522 -14.590437 32.565367 0.198089 2.035363 0.080473 -0.029659 -239606.000000 0 0 1
-28.094531 -4.607022 -15.362637 32.350239 0.162536 2.065629 0.071393 -0.024495 404121.000000 0 0 1
-27.211021 -3.806922 -14.584637 31.106976 0.139001 2.058789 0.082567 -0.028064 -285200.000000 0 0 1
-14.300761 21.079778 -5.061237 25.970848 -0.974707 1.766933 0.064365 -0.009153 -199879.000000 0 0 1
-14.382961 20.398478 -6.276637 25.736426 -0.956656 1.817162 0.089827 -0.014195 149956.000000 0 0 1
-15.311461 19.326078 -6.227237 25.430624 -0.900787 1.818184 0.092275 -0.032733 128605.000000 0 0 1
-15.511261 18.722378 -7.576737 25.466323 -0.878925 1.872890 0.106417 -0.039979 -174291.000000 0 0 1
-14.381161 18.000578 -8.019337 24.395663 -0.896710 1.905744 0.100951 -0.034079 -30613.700000 0 1 0
-14.632361 17.202378 -9.151537 24.367569 -0.865953 1.955800 0.088383 -0.033264 -64524.800000 0 1 0
-15.213361 15.786978 -8.755737 23.608006 -0.803900 1.950753 0.094246 -0.037693 792786.000000 0 1 0
-16.527461 15.875678 -8.188337 24.336043 -0.765286 1.913962 0.089951 -0.034272 351921.000000 0 1 0
-16.819261 14.944578 -7.181037 23.617689 -0.726447 1.879741 0.098242 -0.026383 -594973.000000 0 1 0
-18.189061 15.245678 -6.600737 24.634171 -0.697591 1.842061 0.111658 -0.034897 -280574.000000 0 1 0
-19.256061 14.813978 -7.432837 25.406631 -0.655749 1.867694 0.110766 -0.034710 -681092.000000 0 0 1
-20.480761 15.288978 -6.996437 26.498388 -0.641260 1.837997 0.091657 -0.026009 -387626.000000 0 0 1
-21.652461 14.800278 -7.894437 27.389769 -0.599592 1.863170 0.090895 -0.012850 -99012.000000 0 0 1
-21.963761 13.462778 -7.710237 26.890536 -0.549890 1.861605 0.123729 -0.030764 -82361.400000 0 0 1
-22.662661 12.977278 -8.827537 27.566853 -0.520050 1.896761 0.111696 -0.029510 13812.700000 0 0 1
-23.177761 11.488978 -8.555537 27.247063 -0.460193 1.890198 0.111744 -0.027802 -493470.000000 0 0 1
-22.242161 10.475678 -8.502737 26.014421 -0.440166 1.903762 0.125417 -0.029474 -984108.000000 0 0 1
-22.680261 9.389078 -7.745737 25.739959 -0.392496 1.876456 0.130783 -0.037038 -524459.000000 0 0 1
-21.665161 8.409778 -7.138937 24.311890 -0.370267 1.868829 0.134940 -0.024111 -347062.000000 0 1 0
-21.229661 7.390478 -8.044937 23.875483 -0.334999 1.914476 0.118002 -0.023821 237401.000000 0 1 0
-20.285761 6.567678 -7.426437 22.578717 -0.313108 1.905949 0.115786 -0.012669 -731342.000000 0 1 0
-19.891761 5.424878 -8.291937 22.223134 -0.266245 1.953168 0.094564 -0.027306 -262709.000000 0 1 0
-20.866161 4.403978 -8.566637 22.982145 -0.208006 1.952769 0.113841 -0.026891 417734.000000 0 1 0
-20.524361 3.390378 -9.415337 22.834024 -0.163710 1.995815 0.109028 -0.025034 -598407.000000 0 1 0
-21.467961 2.187478 -9.345537 23.515898 -0.101545 1.979493 0.106515 -0.028806 -77004.000000 0 1 0
-21.165861 1.396478 -8.253637 22.761071 -0.065882 1.941875 0.103140 -0.030291 537578.000000 0 1 0
-22.058661 0.284478 -8.103137 23.501623 -0.012896 1.922812 0.102699 -0.026877 137516.000000 0 1 0
-21.727061 -0.900322 -9.066337 23.560013 0.041414 1.965808 0.077857 -0.039255 -355925.000000 0 1 0
-20.627461 -1.719022 -8.795137 22.490034 0.083144 1.972588 0.067221 -0.026407 152487.000000 0 1 0
-20.725261 -3.040722 -9.416637 22.966399 0.145676 1.993270 0.065362 -0.021683 -64608.500000 0 1 0
-21.629061 -4.062922 -8.676737 23.656064 0.185682 1.946349 0.063615 -0.023642 108033.000000 0 1 0
-21.213561 -4.286722 -7.323337 22.847810 0.199390 1.897082 0.057653 -0.024775 737530.000000 0 1 0
-22.227561 -4.957222 -6.565437 23.701128 0.219430 1.851477 0.075825 -0.026042 -142824.000000 0 1 0
-22.240561 -6.475522 -6.731737 24.122422 0.283325 1.853617 0.070784 -0.032416 52539.300000 0 1 0
-21.212561 -7.245122 -6.092937 23.229043 0.329126 1.836199 0.062170 -0.032939 817838.000000 0 1 0
-21.619661 -8.609022 -5.893237 24.005317 0.378957 1.818829 0.083849 -0.034557 -859634.000000 0 1 0
-20.537661 -9.529122 -5.420237 23.280435 0.434421 1.805776 0.079413 -0.029796 -619492.000000 0 1 0
-19.474061 -9.727722 -6.340337 22.673057 0.463265 1.854217 0.080061 -0.022442 570174.000000 0 1 0
-18.659461 -10.758822 -5.758037 22.295352 0.523027 1.832019 0.090084 -0.009954 71350.600000 0 1 0
-17.543461 -11.364722 -6.623237 21.927088 0.574830 1.877646 0.062122 -0.012029 717123.000000 0 1 0
-16.475061 -10.473322 -7.053237 20.757318 0.566262 1.917495 0.066834 -0.037803 1316720.000000 0 1 0
-16.594961 -10.231422 -8.456737 21.250674 0.552491 1.980079 0.049696 -0.033964 -117716.000000 0 1 0
-15.501261 -10.816822 -9.386137 21.104319 0.609250 2.031691 0.041984 -0.023513 -129022.000000 0 1 0
-15.713561 -12.108522 -9.972237 22.203104 0.656541 2.036596 0.062825 -0.020064 261392.000000 0 1 0
-14.686761 -12.548822 -10.853237 22.157767 0.707061 2.082675 0.067542 -0.007404 184191.000000 0 1 0
-15.044861 -13.913622 -11.445537 23.472048 0.746354 2.080163 0.082171 -0.011812 -38364.900000 0 1 0
-15.978761 -13.875922 -12.489937 24.573574 0.715078 2.103968 0.089093 -0.011460 -160285.000000 0 1 0
-16.093561 -15.123222 -13.141337 25.698430 0.754324 2.107571 0.070955 -0.011615 143045.000000 0 0 1
-16.787661 -15.090422 -14.526237 26.843211 0.732207 2.142602 0.092247 -0.014274 30813.200000 0 0 1
-17.123561 -16.272022 -15.163637 28.070107 0.759905 2.141478 0.086909 -0.006523 216416.000000 0 0 1
-17.615261 -16.026922 -16.470037 28.955514 0.738220 2.175848 0.085839 -0.007523 -49891.500000 0 0 1
-18.171061 -17.207022 -17.272537 30.407394 0.758155 2.174916 0.100749 -0.025694 648957.000000 0 0 1
-19.433861 -17.754122 -16.857737 31.258072 0.740260 2.140412 0.055382 -0.016379 65158.400000 0 0 1
-20.273161 -17.958222 -17.976437 32.506170 0.724921 2.156776 0.052476 -0.011168 -415922.000000 0 0 1
-21.763961 -17.796622 -17.673037 33.207318 0.685447 2.131997 0.049725 -0.019433 -615649.000000 0 0 1
-22.000761 -16.511722 -17.137537 32.409345 0.643825 2.127963 0.039934 -0.013602 111446.000000 0 0 1
-21.892561 -16.546722 -15.726637 31.629185 0.647212 2.091187 0.043698 -0.020627 -750758.000000 0 0 1
-21.700061 -15.265722 -14.973537 30.465419 0.613063 2.084599 0.058699 -0.028227 271832.000000 0 0 1
-22.876361 -14.455222 -14.974737 30.927724 0.563535 2.076228 0.071909 -0.024768 964923.000000 0 0 1
-22.605261 -13.214022 -14.351937 29.859442 0.528986 2.072192 0.075428 -0.025062 -469219.000000 0 0 1
-23.950161 -12.647522 -13.938737 30.460768 0.485856 2.046086 0.086630 -0.035661 -581472.000000 0 0 1
-24.639261 -13.349922 -12.901037 30.850452 0.496537 2.002237 0.109979 -0.040751 -390967.000000 0 0 1
-25.626791 -12.512922 -12.445637 31.115905 0.454224 1.982288 0.120356 -0.044037 -1060620.000000 0 0 1
-26.440801 -13.137722 -11.285837 31.608319 0.461143 1.935907 0.134890 -0.047156 -105710.000000 0 0 1
-27.246351 -12.076722 -10.739937 31.678970 0.417220 1.916676 0.115029 -0.043213 300016.000000 0 0 1
-28.030371 -12.458022 -9.635037 32.151796 0.418227 1.875147 0.113563 -0.039623 -172249.000000 0 0 1
-29.050871 -11.396622 -9.180437 32.528703 0.373850 1.856910 0.143802 -0.045160 245520.000000 0 0 1
-28.328741 -10.227522 -8.758637 31.366120 0.346467 1.853798 0.141363 -0.043601 791307.000000 0 0 1
-29.140571 -9.412722 -7.900037 31.625667 0.312432 1.823268 0.152940 -0.042810 300765.000000 0 0 1
-28.350311 -8.223622 -7.318237 30.412575 0.282324 1.813813 0.139309 -0.035520 331691.000000 0 0 1
-27.514331 -8.557822 -6.195037 29.472924 0.301546 1.782570 0.125075 -0.038734 601136.000000 0 0 1
-26.732281 -7.522922 -5.597937 28.329245 0.274322 1.769708 0.117059 -0.031204 10443.200000 0 0 1
-27.502041 -6.278622 -5.150137 28.675901 0.224450 1.751374 0.134251 -0.035354 156332.000000 0 0 1
-28.358751 -6.449322 -3.962037 29.351495 0.223616 1.706196 0.138634 -0.034812 1037130.000000 0 0 1
-27.690921 -6.709522 -2.716337 28.621378 0.237719 1.665845 0.150959 -0.035383 107676.000000 0 0 1
-26.940321 -5.454922 -2.107537 27.567713 0.199781 1.647320 0.152440 -0.030919 1090530.000000 0 0 1
-27.839241 -4.671922 -1.254337 28.256390 0.166269 1.615202 0.162648 -0.035886 775574.000000 0 0 1
-27.135161 -3.672722 -0.570337 27.388522 0.134532 1.591622 0.139238 -0.040976 -456457.000000 0 0 1
-27.931221 -2.596722 0.204163 28.052411 0.092702 1.563518 0.143430 -0.044847 312731.000000 0 0 1
-28.906461 -3.099422 1.140563 29.094515 0.106814 1.531584 0.151920 -0.038077 446289.000000 0 0 1
-28.320861 -3.464122 2.341363 28.627841 0.121712 1.488919 0.141943 -0.031293 206189.000000 0 0 1
-29.373661 -3.983422 3.393863 29.836185 0.134790 1.456800 0.134304 -0.036588 352809.000000 0 0 1
-29.996611 -5.224622 3.108563 30.606479 0.172444 1.469055 0.129280 -0.034679 -85576.000000 0 0 1
-31.042091 -5.418122 4.025063 31.767414 0.172800 1.443751 0.152841 -0.037089 5798.390000 0 0 1
-31.906891 -6.670222 3.732863 32.809691 0.206085 1.456776 0.133761 -0.030087 60252.500000 0 0 1
-31.159031 -7.842622 3.879163 32.364176 0.246575 1.450648 0.117991 -0.022026 -962.656000 0 0 1
-31.978641 -8.962522 3.697563 33.416048 0.273255 1.459917 0.134114 -0.026397 -39251.400000 0 0 1
-31.326931 -10.340822 4.089063 33.241986 0.318832 1.447475 0.115255 -0.019704 76169.400000 0 0 1
-31.396521 -10.659822 5.454563 33.602464 0.327310 1.407749 0.101056 -0.011830 -457496.000000 0 0 1
-30.307251 -11.375122 5.904063 32.905635 0.359057 1.390395 0.088322 -0.012944 -742639.000000 0 0 1
-30.228811 -11.662422 7.455363 33.247189 0.368210 1.344633 0.067274 -0.015665 -94785.600000 0 0 1
-29.991011 -10.534322 8.278263 32.847562 0.337787 1.316029 0.067671 -0.001278 417445.000000 0 0 1
-29.946551 -11.009722 9.616363 33.323931 0.352308 1.278061 0.066876 -0.000946 -437480.000000 0 0 1
-30.142151 -9.881022 10.692463 33.474059 0.316775 1.245673 0.067709 -0.004506 -1016260.000000 0 0 1
-29.192851 -8.872122 10.580863 32.293835 0.295044 1.236988 0.070672 -0.003226 -121034.000000 0 0 1
-29.376271 -7.844822 11.544163 32.523442 0.260957 1.207937 0.065147 -0.009278 -507131.000000 0 0 1
-28.303531 -6.797722 11.396563 31.259887 0.235708 1.197620 0.088982 -0.017738 -546828.000000 0 0 1
-28.523611 -5.927222 10.307263 30.902557 0.204885 1.230739 0.081618 -0.019766 438001.000000 0 0 1
-27.695211 -4.760122 10.418663 29.970519 0.170212 1.215754 0.100014 -0.029321 -94578.100000 0 0 1
-27.789841 -3.773122 9.121663 29.490956 0.134948 1.256336 0.098035 -0.026772 -90659.400000 0 0 1
-27.218771 -4.397522 7.967763 28.699912 0.160178 1.289477 0.106247 -0.023970 255662.000000 0 0 1
-27.353891 -3.539822 6.858463 28.421897 0.128693 1.327082 0.107716 -0.039996 -158203.000000 0 0 1
-26.510861 -3.953822 5.631363 27.389245 0.148048 1.363715 0.109960 -0.030132 55518.400000 0 0 1
-25.120381 -3.728322 5.812563 26.052252 0.147343 1.345791 0.138901 -0.046212 798209.000000 0 0 1
-24.349661 -4.296122 4.733063 25.174681 0.174637 1.381662 0.145108 -0.038836 669584.000000 0 0 1
-22.805461 -4.115622 4.889763 23.684113 0.178545 1.362843 0.140143 -0.032690 459111.000000 0 1 0
-22.462261 -2.796922 4.668363 23.112109 0.123879 1.367409 0.108410 -0.027366 406044.000000 0 1 0
-21.047561 -2.684622 4.568263 21.704287 0.126865 1.358733 0.086723 -0.017951 -61006.500000 0 1 0
-20.470961 -1.229022 4.671663 21.033193 0.059965 1.346819 0.055419 -0.022711 -650866.000000 0 1 0
-20.919061 -0.256722 3.714563 21.247847 0.012272 1.395073 0.072729 -0.012656 887736.000000 0 1 0
-22.136061 0.354878 4.141163 22.522886 -0.016030 1.385880 0.072873 -0.037848 188648.000000 0 1 0
-22.585961 1.515578 3.230363 22.866086 -0.067002 1.429049 0.116679 -0.025032 188813.000000 0 1 0
-21.552461 2.470478 2.967063 21.895555 -0.114128 1.434868 0.065338 -0.010643 868786.000000 0 1 0
-21.972261 3.334178 1.933363 22.307732 -0.150596 1.484020 0.103830 -0.013179 298314.000000 0 1 0
-20.753561 4.093378 1.326563 21.194948 -0.194738 1.508167 0.067040 -0.002353 17332.400000 0 1 0
-20.967661 4.999578 0.293963 21.557482 -0.234072 1.557160 0.082905 -0.006760 154835.000000 0 1 0
-21.763361 4.735178 -0.851937 22.288822 -0.214237 1.609028 0.095802 -0.015408 -147718.000000 0 1 0
-21.271661 3.678678 -1.872837 21.668497 -0.171244 1.657336 0.085188 -0.013939 -421011.000000 0 1 0
-21.322861 2.373878 -1.355737 21.497389 -0.110874 1.633903 0.069654 -0.008225 404940.000000 0 1 0
-20.665861 1.398978 -2.100237 20.819365 -0.067592 1.671847 0.049950 -0.009307 -411365.000000 0 1 0
-19.928261 0.359278 -1.228337 19.969314 -0.018027 1.632346 0.051200 -0.011495 -68643.500000 0 1 0
-20.752661 -0.655722 -0.643037 20.772973 0.031586 1.601757 0.064169 -0.015309 798259.000000 0 1 0
-20.149861 -1.230522 0.504563 20.193704 0.060993 1.545808 0.063567 -0.020120 -461826.000000 0 1 0
-19.046061 -2.274422 0.252463 19.183044 0.118854 1.557635 0.029874 -0.018758 -444032.000000 0 1 0
-18.463061 -2.882422 1.360663 18.736179 0.154868 1.498110 0.040527 -0.016839 98059.100000 0 1 0
-17.554161 -3.883322 0.988363 18.005711 0.217713 1.515877 0.019879 -0.014158 -667591.000000 0 1 0
-18.131261 -5.185022 0.471263 18.863965 0.278537 1.545812 -0.000242 -0.019332 -598821.000000 0 1 0
-18.999261 -5.689222 1.454063 19.886012 0.290947 1.497611 0.036881 -0.023931 49564.800000 0 1 0
-19.506361 -6.898822 1.079363 20.718516 0.339941 1.518676 0.027792 -0.027713 -1210420.000000 0 1 0
-20.534061 -7.372222 2.075363 21.915850 0.344691 1.475957 0.073137 -0.026169 -676432.000000 0 1 0
-19.982261 -7.863422 3.286963 21.723911 0.374908 1.418907 0.075381 -0.024396 185318.000000 0 1 0
-20.955361 -8.236322 4.209363 22.905958 0.374493 1.385979 0.088532 -0.030480 -360704.000000 0 1 0
-20.295461 -9.010522 5.331363 22.836784 0.417826 1.335167 0.086068 -0.018943 146610.000000 0 1 0
-19.717861 -10.228622 4.748163 22.714837 0.478534 1.360210 0.086096 -0.010812 239993.000000 0 1 0
-18.945961 -10.820022 5.735763 22.559284 0.518898 1.313721 0.109879 -0.015069 -164956.000000 0 1 0
-18.352061 -12.204622 5.295463 22.667000 0.586867 1.334997 0.090868 -0.010037 443973.000000 0 1 0
-19.277161 -13.308222 5.356163 24.029278 0.604228 1.346006 0.107166 -0.014555 653911.000000 0 1 0
-18.644861 -14.532422 4.943363 24.150755 0.662074 1.364652 0.097976 -0.013905 944329.000000 0 1 0
-19.467961 -15.853722 5.350863 25.670484 0.683430 1.360812 0.106085 -0.015296 630688.000000 0 0 1
-18.699161 -16.972322 4.974163 25.738311 0.737026 1.376314 0.101844 -0.024846 260480.000000 0 0 1
-19.375361 -18.173122 5.264963 27.081116 0.753391 1.375136 0.105144 -0.022418 609846.000000 0 0 1
-18.405861 -19.421122 5.113363 27.241553 0.812231 1.381972 0.103319 -0.031326 21729.000000 0 0 1
-18.274061 -19.795822 3.735263 27.198678 0.825350 1.433028 0.103168 -0.033869 808064.000000 0 0 1
-17.409461 -20.965822 3.609563 27.489707 0.877807 1.439110 0.093101 -0.033528 906572.000000 0 0 1
-15.876661 -20.702422 3.710263 26.351939 0.916567 1.429530 0.076473 -0.027288 93887.400000 0 0 1
-15.152761 -21.908122 3.830963 26.911861 0.965696 1.427959 0.068510 -0.026756 95767.400000 0 0 1
-13.764961 -21.734022 3.592463 25.975905 1.006224 1.432052 0.054120 -0.018201 159253.000000 0 0 1
-12.904161 -22.967222 3.965463 26.640863 1.058900 1.421392 0.053859 -0.008254 -216285.000000 0 0 1
-12.959561 -23.999322 3.021463 27.441700 1.075665 1.460468 0.072657 -0.010573 -175306.000000 0 0 1
-12.192061 -25.087482 3.405163 28.100236 1.118426 1.449319 0.093494 -0.013483 -403891.000000 0 0 1
19.243739 19.031078 -24.426537 36.457634 0.779842 2.305002 0.088232 -0.024592 -290869.000000 0 0 1
18.274939 19.579878 -25.256887 36.813793 0.819857 2.326872 0.066379 -0.032163 -470217.000000 0 0 1
18.517539 19.133678 -26.563517 37.611398 0.801761 2.355001 0.070864 -0.028851 -109801.000000 0 0 1
17.391539 19.407078 -27.564267 37.932692 0.840116 2.384248 0.052027 -0.026003 -202893.000000 0 0 1
17.283039 20.778178 -27.878587 38.828491 0.876971 2.371711 0.050348 -0.022798 347082.000000 0 0 1
16.446139 20.921078 -29.029607 39.381278 0.904586 2.399628 0.031437 -0.017277 -66962.800000 0 0 1
16.088139 22.397478 -29.354817 40.276302 0.947893 2.387417 0.042515 -0.021179 -373802.000000 0 0 1
15.305639 23.001278 -28.327377 39.569706 0.983653 2.368688 0.044250 -0.021401 380984.000000 0 0 1
15.257639 24.339278 -28.506727 40.470106 1.010851 2.352359 0.049255 -0.016334 -134579.000000 0 0 1
14.364439 25.090378 -27.475447 39.884387 1.050837 2.330735 0.051119 -0.023977 261554.000000 0 0 1
12.993139 24.718478 -27.609937 39.270006 1.086844 2.350515 0.057236 -0.034357 542558.000000 0 0 1
12.301339 25.594078 -26.642087 38.938163 1.122763 2.324323 0.058871 -0.031901 -57462.400000 0 0 1
10.847439 25.172878 -26.285557 37.977246 1.163924 2.335246 0.075079 -0.040447 596762.000000 0 0 1
10.206439 25.983978 -25.289767 37.668432 1.196514 2.306863 0.078227 -0.042291 224184.000000 0 0 1
9.726439 27.214678 -25.872467 38.789520 1.227547 2.300966 0.091726 -0.044048 -500209.000000 0 0 1
9.254739 28.182078 -24.750037 38.632163 1.253501 2.266152 0.101531 -0.046920 -258391.000000 0 0 1
10.334339 28.714778 -24.032137 38.844313 1.225333 2.237856 0.094327 -0.038435 206157.000000 0 0 1
9.804739 29.226978 -22.799237 38.342592 1.247125 2.207588 0.119431 -0.051296 613640.000000 0 0 1
10.921039 29.531078 -21.726337 38.254246 1.216579 2.174804 0.093037 -0.047473 146963.000000 0 0 1
11.811639 30.514678 -22.166737 39.522457 1.201477 2.166226 0.081758 -0.045715 -398672.000000 0 0 1
12.600439 30.902178 -21.081937 39.473582 1.183625 2.134212 0.071743 -0.037725 -671958.000000 0 0 1
13.900739 31.580478 -21.522037 40.666389 1.156148 2.128494 0.065931 -0.023913 -37310.200000 0 0 1
14.928239 30.684778 -21.958037 40.577867 1.118004 2.142581 0.057683 -0.024760 309737.000000 0 0 1
15.969739 31.464678 -22.541037 41.870716 1.101131 2.139272 0.049340 -0.012626 664899.000000 0 0 1
17.147639 30.642278 -23.175037 42.072236 1.060607 2.154166 0.028839 -0.002326 569534.000000 0 0 1
18.021839 30.065478 -22.236837 41.511403 1.030804 2.136109 0.032505 0.003006 -103969.000000 0 0 1
19.251639 29.746478 -22.859237 42.166613 0.996399 2.143751 0.029663 -0.001049 304213.000000 0 0 1
20.352739 29.179478 -21.913337 41.783612 0.961749 2.122863 0.034424 0.002183 56022.600000 0 0 1
20.943639 30.131778 -21.080037 42.319357 0.963388 2.092223 0.031490 0.010731 -230534.000000 0 0 1
21.757739 29.528478 -20.135237 41.842060 0.935772 2.072842 0.038297 0.002875 -188789.000000 0 0 1
22.267439 30.497878 -19.019937 42.281407 0.940133 2.037384 0.043655 -0.001686 -193722.000000 0 0 1
23.362539 31.277678 -19.435637 43.610152 0.929257 2.032716 0.040800 0.005019 -78971.400000 0 0 1
23.887239 31.832378 -18.237637 43.777984 0.927035 2.000492 0.048824 0.005841 -935396.000000 0 0 1
25.205339 32.552478 -18.393737 45.092155 0.911925 1.990965 0.049652 0.004953 -260484.000000 0 0 1
26.268539 31.633978 -18.667437 45.157700 0.877798 1.996963 0.046251 0.002515 570019.000000 0 0 1
27.545539 32.235678 -18.428937 46.233336 0.863693 1.980794 0.050610 -0.005800 -7865.860000 0 0 1
28.690139 31.467478 -19.038437 46.645346 0.831533 1.991226 0.053827 -0.013972 -395254.000000 0 0 1
29.217239 30.465478 -18.161437 45.952477 0.806310 1.977106 0.040640 -0.005840 -71383.400000 0 0 1
30.566939 30.183578 -18.448737 46.751920 0.779088 1.976439 0.040707 -0.006194 -168620.000000 0 0 1
31.114739 29.069278 -17.580637 46.067653 0.751424 1.962352 0.046285 -0.019663 -552588.000000 0 0 1
31.384939 29.360578 -16.213537 45.934047 0.752085 1.931544 0.051077 -0.018445 -201862.000000 0 0 1
31.683339 28.221278 -15.464537 45.160009 0.727669 1.920308 0.062640 -0.015827 -357545.000000 0 0 1
32.234239 28.641478 -14.076037 45.359841 0.726449 1.886325 0.076666 -0.020952 -107824.000000 0 0 1
33.487939 29.271178 -14.118037 46.664364 0.718309 1.878157 0.061707 -0.016267 -417530.000000 0 0 1
33.484939 30.646178 -14.518037 47.657137 0.741162 1.880352 0.062405 -0.017261 -190585.000000 0 0 1
34.931539 31.107978 -14.824137 49.068052 0.727565 1.877706 0.060527 -0.020993 488904.000000 0 0 1
35.742439 31.245878 -13.698037 49.411163 0.718374 1.851702 0.057704 -0.018918 347075.000000 0 0 1
-36.613581 31.722578 -13.897237 50.398506 -0.713947 1.850163 0.058046 -0.025395 992386.000000 0 0 1
-35.834381 31.879378 -12.590437 49.587465 -0.727057 1.827510 0.057002 -0.016461 -331944.000000 0 0 1
-36.379681 32.885678 -11.776437 50.434447 -0.734997 1.806472 0.065022 -0.021272 -294750.000000 0 0 1
-35.559081 33.359078 -10.771537 49.932978 -0.753487 1.788225 0.066319 -0.013679 55920.200000 0 0 1
-36.382581 -33.792256 -9.841737 50.620831 0.748502 1.766463 0.071285 -0.012508 715720.000000 0 0 1
-35.515081 -32.956656 -9.059537 49.290337 0.748051 1.755647 0.071093 -0.013755 257371.000000 0 0 1
-35.268181 -33.552756 -7.770537 49.295165 0.760477 1.729089 0.053784 -0.011101 219001.000000 0 0 1
-34.762481 -32.619856 -6.663637 48.134075 0.753611 1.709681 0.057664 -0.020144 -225662.000000 0 0 1
-35.819281 -31.769356 -6.343937 48.296567 0.725550 1.702531 0.057214 -0.010586 -261465.000000 0 0 1
-35.473781 -30.727356 -5.430037 47.244522 0.713824 1.685986 0.089011 -0.020045 -582714.000000 0 0 1
-36.716281 -29.979256 -4.977337 47.661462 0.684728 1.675418 0.068974 -0.016022 -961987.000000 0 0 1
36.261239 -30.885056 -4.201637 47.816502 -0.705502 1.658780 0.048587 -0.005250 -38461.200000 0 0 1
34.899639 -30.523756 -4.017137 46.538391 -0.718612 1.657223 0.038543 0.000588 152812.000000 0 0 1
34.562239 -29.426756 -2.968237 45.489480 -0.705314 1.636094 0.032899 0.004806 -748729.000000 0 0 1
34.972139 -28.128156 -3.301037 45.001561 -0.677359 1.644216 0.072490 -0.010809 288501.000000 0 0 1
34.420839 -27.237756 -2.338837 43.956338 -0.669423 1.624030 0.057647 -0.005472 -139496.000000 0 0 1
34.636739 -25.765256 -2.655437 43.250473 -0.639567 1.632232 0.087119 -0.024690 -245150.000000 0 0 1
34.075739 -25.373156 -3.882637 42.661785 -0.640043 1.661932 0.081852 -0.027683 337295.000000 0 0 1
34.213139 -24.007456 -4.089137 41.995450 -0.611868 1.668322 0.079091 -0.031222 -332110.000000 0 0 1
33.913339 -23.643556 -5.528937 41.709728 -0.608828 1.703745 0.082804 -0.026586 731578.000000 0 0 1
35.057939 -23.871556 -6.403437 42.894222 -0.597804 1.720641 0.089535 -0.030332 1100510.000000 0 0 1
34.783439 -23.539356 -7.727737 42.704881 -0.594944 1.752756 0.074570 -0.036968 -938850.000000 0 0 1
36.064139 -23.342156 -8.500637 43.791999 -0.574433 1.766150 0.071421 -0.032706 -754183.000000 0 0 1
36.773239 -24.513056 -8.734137 45.049375 -0.587957 1.765911 0.061278 -0.025341 102231.000000 0 0 1
-35.745381 -24.246856 -9.503337 44.226188 0.596028 1.787366 0.081717 -0.024028 451406.000000 0 0 1
-35.209181 -25.430056 -10.324637 44.642718 0.625508 1.804182 0.083876 -0.023675 25898.300000 0 0 1
-34.432981 -26.378456 -9.592637 44.423775 0.653714 1.788445 0.076274 -0.025160 732846.000000 0 0 1
-35.324581 -27.259856 -8.885137 45.495840 0.657243 1.767355 0.082131 -0.027525 519448.000000 0 0 1
-34.565081 -28.420856 -8.209437 45.495986 0.688157 1.752233 0.081712 -0.026429 -100643.000000 0 0 1
-33.809681 -29.137956 -9.152237 45.561809 0.711318 1.773048 0.067321 -0.022164 74348.800000 0 0 1
-33.053481 -30.172956 -8.559437 45.565380 0.739871 1.759769 0.067340 -0.029029 18802.800000 0 0 1
-32.296381 -31.145956 -9.501037 45.862801 0.767267 1.779470 0.054748 -0.017604 -21324.600000 0 0 1
-31.147781 -30.660356 -10.153237 44.870145 0.777512 1.799054 0.031962 0.007304 150728.000000 0 0 1
-30.747481 -31.506056 -11.229937 45.432925 0.797583 1.820561 0.020065 0.007031 -163951.000000 0 0 1
-31.103781 -31.005856 -12.693137 45.715687 0.783822 1.852147 0.016504 0.002077 171149.000000 0 0 1
-30.358481 -29.884956 -13.204537 44.599414 0.777538 1.871372 0.003938 0.010542 264235.000000 0 0 1
-30.830881 -29.609956 -14.485037 45.134344 0.765201 1.897509 0.005662 0.023803 -180910.000000 0 0 1
-30.042981 -28.467956 -15.075137 44.048439 0.758486 1.920096 0.005467 0.000872 49306.500000 0 0 1
-28.811981 -28.947256 -15.620937 43.727423 0.787740 1.936101 0.022123 -0.000194 -124197.000000 0 0 1
-28.089981 -27.820056 -16.074437 42.677747 0.780570 1.956970 0.048192 0.005119 -74284.800000 0 0 1
-26.708881 -28.318856 -16.569337 42.306794 0.814647 1.973217 0.055686 0.002309 -351361.000000 0 0 1
-26.768381 -29.133856 -17.768837 43.371181 0.827687 1.992913 0.049813 0.003710 -110769.000000 0 0 1
-26.810881 -28.467456 -19.038037 43.493290 0.815357 2.023862 0.047252 0.002021 -312077.000000 0 0 1
-25.473381 -27.874856 -19.512537 42.504586 0.830383 2.047743 0.058644 -0.000252 -23170.900000 0 0 1
-25.156281 -26.645956 -18.837837 41.203271 0.814147 2.045632 0.058360 0.000176 -692107.000000 0 0 1
-23.788281 -26.537056 -18.628837 40.213570 0.839964 2.052452 0.074207 -0.015779 -341339.000000 0 0 1
-23.162781 -25.295356 -17.898437 38.687511 0.829378 2.051768 0.066462 -0.010188 -3179.440000 0 0 1
-23.536581 -25.316656 -16.535237 38.318635 0.821819 2.016973 0.072843 -0.008433 300504.000000 0 0 1
-22.941281 -24.292056 -15.733037 36.931488 0.813988 2.010870 0.072456 -0.011003 -185108.000000 0 0 1
-23.482881 -24.333556 -14.324037 36.725273 0.803187 1.971463 0.068850 -0.008174 -210351.000000 0 0 1
-24.765481 -23.759056 -14.265137 37.166059 0.764661 1.964728 0.038323 0.010208 -151681.000000 0 0 1
-25.223081 -23.823856 -12.941337 37.030503 0.756878 1.927810 0.029803 0.008695 -1106930.000000 0 0 1
-26.712981 -23.834556 -12.713937 37.990967 0.728515 1.912037 0.021182 0.020270 -1841990.000000 0 0 1
-27.255281 -25.094756 -13.074437 39.287886 0.744151 1.910052 0.027384 0.015191 -204363.000000 0 0 1
-28.610781 -25.256356 -12.789237 40.249533 0.723206 1.894151 0.008393 0.017162 -443393.000000 0 0 1
-29.741481 -24.314056 -13.243437 40.633947 0.685329 1.902782 0.010132 0.016289 -1305200.000000 0 0 1
-29.957081 -23.142156 -12.470537 39.855995 0.657753 1.889030 0.021922 0.016646 419891.000000 0 0 1
-30.554981 -23.335156 -11.157537 40.032824 0.652218 1.853247 0.033494 0.012185 547393.000000 0 0 1
-32.048981 -23.845156 -11.082637 41.455440 0.639664 1.841426 0.030404 0.001297 724713.000000 0 0 1
-33.048481 -22.884256 -11.445937 41.795942 0.605638 1.848193 0.050075 -0.005003 478819.000000 0 0 1
-33.257481 -22.758756 -12.856337 42.300194 0.600125 1.879612 0.046919 0.005377 -765979.000000 0 0 1
-34.706581 -22.392856 -13.212537 43.365400 0.572997 1.880398 0.033781 -0.008009 -113705.000000 0 0 1
-35.628081 -23.416256 -12.869837 44.534412 0.581449 1.863964 0.053296 -0.005122 -498314.000000 0 0 1
36.776039 -22.881456 -13.016137 45.226739 -0.556572 1.862722 0.073344 -0.019850 -358395.000000 0 0 1
35.700539 -23.903856 -12.596137 44.772597 -0.590007 1.855982 0.068335 -0.013098 -408811.000000 0 0 1
35.703139 -25.112456 -13.373237 45.652963 -0.612983 1.868089 0.049051 0.000636 169631.000000 0 0 1
34.960539 -26.167156 -12.765237 45.496270 -0.642526 1.855192 0.052935 -0.009797 255144.000000 0 0 1
34.880739 -27.408256 -13.769237 46.448577 -0.666004 1.871760 0.039613 -0.014423 -6926.930000 0 0 1
34.070339 -27.191056 -14.866937 46.056132 -0.673573 1.899483 0.035811 -0.015774 -419168.000000 0 0 1
34.016539 -28.416356 -15.562237 46.976562 -0.695938 1.908453 0.021372 0.000645 -2435.950000 0 0 1
33.232739 -28.402256 -16.910437 46.872870 -0.707186 1.939892 0.018500 -0.007852 324286.000000 0 0 1
31.854639 -28.152056 -16.690737 45.670964 -0.723773 1.944919 0.083008 -0.017003 340837.000000 0 0 1
31.129839 -28.131856 -17.928237 45.627731 -0.734852 1.974606 0.068523 -0.023487 2089300.000000 0 0 1
29.535339 -28.237856 -17.782337 44.563710 -0.762944 1.981257 0.078640 -0.032286 1751650.000000 0 0 1
28.911739 -27.117356 -17.229437 43.221443 -0.753383 1.980821 0.080066 -0.030301 -500181.000000 0 0 1
27.552239 -27.404056 -17.012737 42.421002 -0.782702 1.983454 0.089154 -0.028848 -207175.000000 0 0 1
27.066139 -26.527556 -15.868337 41.086387 -0.775349 1.967325 0.075571 -0.025257 -185279.000000 0 0 1
26.766439 -25.239356 -16.304137 40.240430 -0.756043 1.987959 0.083210 -0.028985 41331.000000 0 0 1
26.152039 -24.497056 -15.256437 38.946036 -0.752734 1.973310 0.069352 -0.021088 -48367.700000 0 0 1
26.197339 -22.936156 -15.405837 38.075026 -0.719121 1.987357 0.057785 -0.018873 -329252.000000 0 0 1
25.027239 -22.436256 -16.016937 37.232923 -0.730863 2.015491 0.067390 -0.015962 23226.000000 0 0 1
25.008339 -21.035656 -16.082137 36.421847 -0.699331 2.028124 0.061559 -0.022468 202159.000000 0 0 1
23.567139 -20.490756 -16.311037 35.232528 -0.715685 2.052121 0.063978 -0.018230 245840.000000 0 0 1
22.760439 -20.625456 -15.159337 34.252774 -0.736229 2.029262 0.062634 -0.021354 -288783.000000 0 0 1
21.521239 -19.981156 -15.341937 33.132844 -0.748307 2.052222 0.058662 -0.029667 -91735.400000 0 0 1
21.448839 -18.767956 -14.322637 31.897128 -0.718836 2.036471 0.053569 -0.022792 98553.100000 0 0 1
20.838739 -19.083856 -13.042737 31.121690 -0.741469 2.003237 0.036357 -0.026803 382683.000000 0 0 1
20.616339 -17.938256 -12.229137 29.939376 -0.716047 1.991566 0.030484 -0.027116 -166583.000000 0 0 1
19.774839 -18.188656 -10.940937 29.009922 -0.743641 1.957508 0.039654 -0.014503 170262.000000 0 0 1
20.510539 -18.767656 -9.869337 29.501033 -0.741054 1.911916 0.034398 -0.030238 779806.000000 0 0 1
19.528939 -18.958456 -8.834037 28.615428 -0.770577 1.884639 0.041072 -0.032499 509970.000000 0 0 1
20.004539 -19.589756 -7.517237 28.990498 -0.774923 1.833094 0.042245 -0.031896 -414020.000000 0 0 1
20.846239 -18.700356 -6.825037 28.824471 -0.731189 1.809846 0.039470 -0.032397 -222674.000000 0 0 1
21.432939 -19.277756 -5.707837 29.386768 -0.732509 1.766270 0.043823 -0.020579 940748.000000 0 0 1
22.818239 -18.567056 -5.350837 29.900486 -0.683035 1.750720 0.042804 -0.019925 1465480.000000 0 0 1
23.750439 -18.724356 -6.420337 30.917723 -0.667615 1.779977 0.033909 -0.030498 306570.000000 0 0 1
24.840939 -17.829556 -6.475837 31.255428 -0.622539 1.779499 0.034491 -0.023764 -119217.000000 0 0 1
25.750939 -18.089456 -7.687537 32.395023 -0.612387 1.810388 0.054849 -0.033391 -379575.000000 0 0 1
26.668039 -19.121956 -7.448437 33.649855 -0.622069 1.793996 0.068751 -0.043197 -64673.100000 0 0 1
26.704139 -19.952156 -8.575737 34.420093 -0.641678 1.822598 0.068609 -0.048611 -626609.000000 0 0 1
27.739139 -21.070556 -8.441037 35.842423 -0.649615 1.808534 0.073836 -0.057520 -137950.000000 0 0 1
29.083339 -20.654456 -8.393037 36.645467 -0.617527 1.801881 0.078158 -0.037946 85730.600000 0 0 1
29.900939 -21.802456 -8.108237 37.883463 -0.630027 1.786496 0.073326 -0.040010 185968.000000 0 0 1
-29.516561 29.472978 4.873563 41.995660 -0.784659 1.454485 0.032761 -0.010177 28592.600000 0 0 1
-29.337151 30.355878 3.761163 42.382710 -0.802463 1.481937 0.028954 -0.011620 -178637.000000 0 0 1
-28.707241 31.530578 4.201363 42.847806 -0.832234 1.472585 0.021911 0.003721 38387.200000 0 0 1
-28.534811 32.628378 3.106863 43.456865 -0.852227 1.499242 0.022651 0.000925 132251.000000 0 0 1
-27.463881 32.317778 2.207963 42.468561 -0.866414 1.518782 0.025829 -0.004425 430125.000000 0 0 1
-27.085871 33.440578 1.419263 43.057299 -0.890005 1.537828 0.042560 -0.023192 202816.000000 0 0 1
-25.836621 -33.895256 1.902463 42.661912 0.919502 1.526188 0.047479 -0.016901 298633.000000 0 0 1
-24.612261 33.558378 1.688763 41.650691 -0.937994 1.530239 0.027643 -0.019797 317315.000000 0 0 1
-23.547361 -33.967956 2.430663 41.403000 0.964633 1.512055 0.041418 -0.020621 1187750.000000 0 0 1
-22.089161 33.708478 2.119863 40.356986 -0.990704 1.518244 0.058013 -0.027911 684497.000000 0 0 1
-21.629261 -33.972456 0.857963 40.282612 1.003849 1.549496 0.085332 -0.032390 101270.000000 0 0 1
-20.236161 33.908478 0.799763 39.495908 -1.032742 1.550546 0.088884 -0.032241 -438987.000000 0 0 1
-19.512961 -33.776456 -0.451837 39.010368 1.046929 1.582379 0.097735 -0.035835 -265333.000000 0 0 1
-19.511661 -32.349956 -0.652537 37.784261 1.028069 1.588067 0.091217 -0.037617 255391.000000 0 0 1
-18.744961 -31.667356 0.322863 36.800805 1.036329 1.562023 0.100855 -0.031659 -354773.000000 0 0 1
-18.513261 -30.150256 0.106863 35.380648 1.020122 1.567776 0.112469 -0.037304 188895.000000 0 0 1
-17.490861 -29.872656 -0.845337 34.626874 1.041096 1.595211 0.111514 -0.028009 189035.000000 0 0 1
-17.245661 -28.502756 -0.890037 33.325848 1.026670 1.597507 0.090440 -0.029918 182912.000000 0 0 1
-16.103961 -28.047856 -1.835837 32.394291 1.049593 1.627498 0.085242 -0.020620 -96656.400000 0 0 1
-16.554561 -28.161956 -3.143037 32.818104 1.039370 1.666715 0.074792 -0.020289 893072.000000 0 0 1
-15.615161 -27.573056 -4.105837 31.952537 1.055510 1.699651 0.058649 -0.009605 721920.000000 0 0 1
-16.334061 -27.430956 -5.445637 32.386940 1.033721 1.739742 0.079857 -0.025148 -222813.000000 0 0 1
-17.252661 -26.394156 -5.448137 31.999813 0.991856 1.741885 0.091543 -0.023367 -875684.000000 0 0 1
-18.031561 -26.335756 -6.584537 32.589345 0.970427 1.774243 0.106453 -0.029292 10030.100000 0 0 1
-18.702361 -24.953056 -6.738137 31.903539 0.927614 1.783602 0.099924 -0.024776 -90945.500000 0 0 1
-17.697461 -23.973056 -6.854737 30.576052 0.934875 1.796904 0.081084 -0.013463 -240027.000000 0 0 1
-18.079161 -22.624156 -6.977537 29.789168 0.896599 1.807223 0.053677 -0.012017 -1038030.000000 0 0 1
-16.930461 -21.703956 -6.804837 28.355036 0.908331 1.813149 0.072048 -0.004299 -686696.000000 0 0 1
-15.926461 -21.710256 -7.787937 28.029259 0.937880 1.852352 0.088092 -0.009309 -125495.000000 0 0 1
-14.785961 -20.947556 -7.392537 26.684722 0.956151 1.851501 0.114140 -0.037001 819476.000000 0 0 1
-13.760861 -20.878756 -8.570237 26.433553 0.988061 1.900981 0.106592 -0.030682 246077.000000 0 0 1
-14.300561 -20.095456 -9.621937 26.474801 0.952307 1.942751 0.106942 -0.031364 -18972.700000 0 0 1
-13.467861 -20.139856 -10.774437 26.515761 0.981376 1.989242 0.103707 -0.019410 135163.000000 0 0 1
-14.036161 -19.392756 -12.003537 26.780174 0.944286 2.035575 0.109066 -0.017063 274492.000000 0 0 1
-15.238661 -19.927356 -12.562537 28.055902 0.917947 2.035064 0.088097 0.000601 83957.800000 0 0 1
-15.511961 -19.149256 -13.684737 28.188419 0.889954 2.077701 0.094694 -0.015334 90230.200000 0 0 1
-16.876161 -19.458956 -14.348037 29.484266 0.856361 2.079029 0.107942 -0.016535 9197.950000 0 0 1
-17.993961 -19.138256 -13.548837 29.557173 0.816205 2.046984 0.106237 -0.018495 -339899.000000 0 0 1
-19.133061 -19.604456 -14.205137 30.857651 0.797567 2.049179 0.082209 -0.012312 -1372230.000000 0 0 1
-20.499061 -19.352756 -13.609237 31.304185 0.756642 2.020548 0.053418 -0.011263 -977686.000000 0 0 1
-21.410161 -20.005456 -14.431837 32.663300 0.751494 2.028441 0.057316 -0.019018 -1297560.000000 0 0 1
-22.712461 -19.622556 -14.141137 33.179397 0.712540 2.011087 0.048105 -0.015344 -898562.000000 0 0 1
-23.764361 -20.472056 -14.853837 34.705712 0.711110 2.013068 0.049126 -0.021133 -465008.000000 0 0 1
-24.031361 -19.945956 -16.133737 35.151742 0.692766 2.047636 0.041543 -0.030939 46123.900000 0 0 1
-24.635161 -20.837556 -16.984537 36.463261 0.702078 2.055333 0.049061 -0.029072 -863343.000000 0 0 1
-24.952061 -20.267256 -18.330037 37.004828 0.682165 2.089025 0.047810 -0.026162 -548038.000000 0 0 1
-23.937861 -19.811256 -19.185937 36.518588 0.691352 2.123952 0.051087 -0.024018 -212602.000000 0 0 1
-24.387261 -19.518156 -20.443037 37.331149 0.674950 2.150306 0.047942 -0.026592 -489931.000000 0 0 1
-23.266361 -18.726156 -21.122137 36.580557 0.677697 2.186354 0.037096 -0.019216 -139100.000000 0 0 1
-22.116561 -19.512656 -21.307137 36.385163 0.722930 2.196416 0.037314 -0.018595 -270594.000000 0 0 1
-21.254161 -18.913156 -22.260237 36.124299 0.727183 2.234721 0.041586 -0.022559 390485.000000 0 0 1
-19.816961 -19.488656 -22.381737 35.685597 0.777046 2.248740 0.055686 -0.020357 218403.000000 0 0 1
-19.760561 -20.831856 -22.807237 36.669007 0.811784 2.242060 0.048919 -0.016684 -489238.000000 0 0 1
-18.439461 -21.165356 -23.123137 36.368468 0.854117 2.259843 0.062536 -0.011404 -477759.000000 0 0 1
-18.266561 -22.560556 -23.677737 37.460395 0.890188 2.255023 0.063232 -0.014031 -219952.000000 0 0 1
-18.281561 -22.586956 -25.135947 38.421373 0.890358 2.283944 0.065080 -0.020922 128470.000000 0 0 1
-18.323961 -23.894856 -25.633067 39.544732 0.916593 2.276020 0.066926 -0.022525 -82621.900000 0 0 1
-18.272161 -24.002556 -27.166937 40.596022 0.920128 2.303931 0.069306 -0.019968 -679882.000000 0 0 1
-17.021961 -23.674456 -27.652797 40.185871 0.947431 2.329694 0.077272 -0.026030 -814207.000000 0 0 1
-16.986961 -23.837256 -29.054877 41.242666 0.951649 2.352495 0.089943 -0.031648 -163069.000000 0 0 1
-15.640761 -23.500556 -29.753367 41.014295 0.983568 2.382468 0.072031 -0.032642 -467071.000000 0 0 1
-14.596361 -24.264156 -29.315567 40.757889 1.029230 2.373535 0.070003 -0.033673 -772660.000000 0 0 1
-13.422661 -24.098456 -30.078927 40.812318 1.062600 2.399426 0.074662 -0.036200 172324.000000 0 0 1
-12.414761 -25.238056 -29.913827 41.059990 1.113645 2.386984 0.075380 -0.033307 -394501.000000 0 0 1
-12.862161 -26.363256 -30.675107 42.443122 1.116890 2.378547 0.080088 -0.024510 630746.000000 0 0 1
-12.157361 -27.580156 -30.377907 42.793500 1.155619 2.360113 0.080759 -0.026409 314820.000000 0 0 1
-10.754461 -27.797956 -31.000557 43.004876 1.201652 2.375841 0.071620 -0.031869 275639.000000 0 0 1
-9.778661 -26.959156 -30.410637 41.799822 1.222834 2.385512 0.091972 -0.047735 -458167.000000 0 0 1
-8.553561 -26.993656 -31.086087 42.049562 1.263932 2.402786 0.076762 -0.036898 614812.000000 0 0 1
-7.433861 -26.030756 -30.457557 40.749544 1.292621 2.414986 0.103652 -0.038560 184606.000000 0 0 1
-7.699061 -24.611256 -30.496377 39.937682 1.267614 2.439665 0.116374 -0.038375 193106.000000 0 0 1
-8.708761 -24.130256 -29.619477 39.184502 1.224439 2.427821 0.105433 -0.033709 123875.000000 0 0 1
-9.098461 -22.598456 -29.661497 38.383286 1.188038 2.453992 0.112549 -0.042319 -335084.000000 0 0 1
-9.613761 -22.084956 -30.836937 39.129099 1.160227 2.478483 0.101974 -0.040367 -1304.140000 0 0 1
-10.021061 -20.713256 -30.617967 38.300399 1.120193 2.497119 0.122059 -0.043923 344275.000000 0 0 1
-10.690961 -20.049056 -31.877827 39.146611 1.080912 2.522351 0.098156 -0.043667 320171.000000 0 0 1
-11.684561 -19.101156 -31.511767 38.657141 1.021804 2.523802 0.100263 -0.042141 292336.000000 0 0 1
-12.337061 -18.714156 -32.723317 39.664067 0.987955 2.541019 0.102059 -0.041181 -401140.000000 0 0 1
-13.350561 -17.591156 -32.553497 39.337214 0.921601 2.545525 0.097175 -0.040787 -486399.000000 0 0 1
-12.898161 -16.249056 -32.583297 38.627265 0.899860 2.574620 0.107210 -0.043074 774284.000000 0 0 1
-11.991261 -15.728356 -31.519017 37.210482 0.919408 2.581200 0.094022 -0.034130 1053250.000000 0 0 1
-11.676561 -14.199656 -31.729027 36.670198 0.882597 2.616453 0.079444 -0.035402 148423.000000 0 0 1
-10.817161 -13.883656 -32.836347 37.255772 0.908912 2.649564 0.082988 -0.038316 340026.000000 0 0 1
-11.431461 -13.720556 33.920170 38.334187 0.876159 0.484615 0.090728 -0.037854 176264.000000 0 0 1
-12.274361 -12.444056 33.590852 37.866342 0.792263 0.479794 0.074786 -0.029268 -208400.000000 0 0 1
-13.565061 -12.324356 -33.986227 38.613006 0.737512 2.647028 0.073092 -0.027409 -1246410.000000 0 0 1
-14.320761 -11.451056 33.292627 38.008024 0.674504 0.503422 0.042606 -0.024419 -76281.300000 0 0 1
-15.395161 -10.688956 -34.012795 38.834714 0.606894 2.637959 0.045427 -0.017928 -289009.000000 0 0 1
-14.877261 -9.641856 -33.279077 37.706700 0.575034 2.652112 0.064911 -0.020867 211996.000000 0 0 1
-15.863061 -8.964656 -32.509977 37.267953 0.514383 2.630745 0.045704 -0.021113 338529.000000 0 0 1
-15.100961 -7.974756 -31.618847 35.935877 0.485871 2.646382 0.055067 -0.034586 199140.000000 0 0 1
-14.759461 -6.718056 -32.171277 36.027282 0.427145 2.674697 0.048595 -0.039048 611116.000000 0 0 1
-15.817161 -5.751356 -32.105887 36.249809 0.348752 2.658762 0.052531 -0.031440 426007.000000 0 0 1
-16.084061 -5.015056 -30.776247 35.085968 0.302250 2.640726 0.061247 -0.039966 -111530.000000 0 0 1
-16.353061 -5.808456 -29.702397 34.400482 0.341292 2.612826 0.053787 -0.043805 62009.300000 0 0 1
-16.776861 -5.154656 -28.480967 33.454432 0.298093 2.589323 0.075773 -0.046339 -86095.700000 0 0 1
-15.640661 -4.625556 -27.582587 32.044112 0.287543 2.607575 0.071612 -0.044821 -359393.000000 0 0 1
-14.896661 -3.759156 -28.341487 32.237891 0.247188 2.644842 0.078413 -0.045458 -336568.000000 0 0 1
-13.757361 -3.210456 -27.697417 31.092104 0.229260 2.669939 0.070812 -0.043245 232258.000000 0 0 1
-13.619561 -1.850556 -28.342757 31.499664 0.135048 2.690061 0.056545 -0.031350 -28842.800000 0 0 1
-13.400361 -1.906556 -29.725837 32.662364 0.141328 2.714308 0.053601 -0.034790 217457.000000 0 0 1
-13.468461 -0.626556 -30.307777 33.171574 0.046487 2.723013 0.045523 -0.037913 -143329.000000 0 0 1
-13.664361 -0.799556 -31.824697 34.643403 0.058447 2.735412 0.032658 -0.034788 -1137600.000000 0 0 1
-14.895761 -1.371556 -32.110777 35.424100 0.091818 2.705637 0.030472 -0.037061 -458744.000000 0 0 1
-14.887861 -1.709556 -33.484487 36.684899 0.114328 2.720785 0.016702 -0.024323 -578600.000000 0 0 1
-16.225161 -1.721556 33.846618 37.574102 0.105709 0.449196 0.028937 -0.025057 -614533.000000 0 0 1
-16.037161 -1.889556 32.447735 36.243848 0.117283 0.461778 0.028957 -0.024958 174965.000000 0 0 1
-17.232361 -2.119556 31.728668 36.168428 0.122384 0.500698 0.037770 -0.021863 -5239.070000 0 0 1
-17.098761 -1.957556 30.187718 34.749072 0.113989 0.518155 0.040540 -0.018766 -55909.100000 0 0 1
-16.851861 -0.641556 29.730508 34.180403 0.038052 0.515976 0.032721 -0.009150 10432.800000 0 0 1
-16.982561 -0.522556 28.365738 33.065020 0.030760 0.539671 0.034451 -0.015520 -52672.300000 0 0 1
-16.460261 0.890444 27.878838 32.387694 -0.054044 0.533986 0.030547 -0.017862 317008.000000 0 0 1
-17.290861 2.009444 28.175058 33.118660 -0.115695 0.553423 0.026016 -0.011088 -317086.000000 0 0 1
-18.524461 2.151444 27.541758 33.261582 -0.115623 0.595202 0.029957 -0.021191 -599050.000000 0 0 1
-18.545261 2.875444 26.218688 32.243054 -0.153825 0.621239 0.034361 -0.029275 -730466.000000 0 0 1
-18.289161 4.208444 26.345988 32.346801 -0.226169 0.618955 0.025776 -0.021669 56791.700000 0 0 1
-18.703761 4.969444 25.216138 31.786470 -0.259692 0.654590 0.025894 -0.016660 -641866.000000 0 0 1
-18.494261 6.474444 25.412018 32.089356 -0.336745 0.656859 0.033058 -0.015063 432918.000000 0 0 1
-17.151261 6.952444 25.380858 31.411625 -0.385119 0.630032 0.032916 -0.014989 300277.000000 0 0 1
-16.565961 6.953444 24.069838 30.035622 -0.397409 0.641204 0.029502 -0.014881 -682448.000000 0 0 1
-15.372861 7.874444 23.929068 29.511558 -0.473384 0.625215 0.035299 -0.013818 804764.000000 0 0 1
-14.125761 7.341444 24.501888 29.219453 -0.479299 0.576185 0.026039 -0.011187 1201260.000000 0 0 1
-13.095161 8.091444 23.882428 28.413467 -0.553474 0.572532 0.035351 -0.005699 -640173.000000 0 0 1
-11.685061 7.781444 24.362678 28.118172 -0.587493 0.522771 0.035146 -0.002752 -619090.000000 0 0 1
-10.706461 8.522444 23.647978 27.321919 -0.672303 0.524586 0.026824 -0.004786 -208294.000000 0 0 1
-9.527961 8.638444 24.406568 27.587775 -0.736472 0.484972 0.026288 -0.002901 -281412.000000 0 0 1
-9.377961 9.970444 25.091508 28.582157 -0.816010 0.499394 0.025296 -0.012295 -760853.000000 0 0 1
-10.350061 10.064444 26.126818 29.850082 -0.771408 0.504807 0.023748 -0.016780 381607.000000 0 0 1
-10.326361 11.282444 26.823658 30.877758 -0.829614 0.518215 0.033762 -0.021075 -577953.000000 0 0 1
-10.756861 12.516444 25.947998 30.751748 -0.860860 0.566491 0.019299 -0.024041 -263185.000000 0 0 1
-12.130761 12.587444 25.633598 31.027092 -0.803872 0.598524 0.026553 -0.022695 13472.700000 0 0 1
-12.540861 11.686444 24.631388 30.009189 -0.750146 0.607995 0.025270 -0.022601 -1731370.000000 0 0 1
-14.044561 11.589444 24.642258 30.639938 -0.689914 0.636379 0.035840 -0.017877 -907109.000000 0 0 1
-14.735561 12.660444 23.947818 30.837017 -0.709797 0.681556 0.026853 -0.021790 -249885.000000 0 0 1
-16.104561 12.408444 23.826808 31.321608 -0.656488 0.706383 0.041674 -0.009788 -473707.000000 0 0 1
-16.542061 11.785444 22.515598 30.323071 -0.619035 0.733966 0.041955 -0.004967 -353780.000000 0 0 1
-16.127561 10.460444 22.226298 29.385837 -0.575395 0.713064 0.036528 -0.008980 33076.000000 0 0 1
-16.317361 10.246444 20.867998 28.402803 -0.560716 0.745548 0.029738 -0.010554 -70919.000000 0 0 1
-16.599661 8.761444 20.507998 27.800893 -0.485646 0.741177 0.018869 -0.010579 -347905.000000 0 0 1
-17.914761 8.401444 20.778798 28.692880 -0.438515 0.760952 0.018573 -0.001713 -858120.000000 0 0 1
-18.145861 7.014444 20.751098 28.444380 -0.368866 0.753158 0.010850 0.003139 -122943.000000 0 0 1
-19.602061 6.680444 21.116498 29.576606 -0.328458 0.775659 0.017985 -0.005363 -999.454000 0 0 1
-20.012261 7.323444 22.317198 30.857426 -0.350811 0.762320 0.019638 -0.014029 404964.000000 0 0 1
-21.432261 7.326444 22.470098 31.904920 -0.329389 0.789383 0.022285 -0.015219 478022.000000 0 0 1
-21.857661 8.054444 23.769018 33.280590 -0.353056 0.775315 0.040042 -0.020332 -646265.000000 0 0 1
-21.844861 9.448444 23.703648 33.590683 -0.408227 0.787440 0.047471 -0.021537 1414080.000000 0 0 1
-20.573461 10.163444 23.521528 32.860694 -0.458842 0.773034 0.042505 -0.014581 1444070.000000 0 0 1
-19.540561 10.040444 24.669758 33.033937 -0.474647 0.727558 0.040003 -0.018827 -306265.000000 0 0 1
-20.058461 10.547444 25.892698 34.409624 -0.484101 0.718970 0.046246 -0.021941 380932.000000 0 0 1
-19.498761 9.842444 27.013168 34.738835 -0.467459 0.679945 0.031358 -0.017065 48013.300000 0 0 1
-30.744011 -14.034722 21.000998 39.789566 0.428248 1.014786 0.077450 -0.006058 -107009.000000 0 0 1
-30.727811 -15.447822 21.088498 40.343009 0.465830 1.020746 0.085810 -0.000852 -246060.000000 0 0 1
-31.584081 -16.148822 20.231798 40.837046 0.472644 1.052469 0.073250 0.005979 -133967.000000 0 0 1
-31.398971 -16.011922 18.669298 39.885082 0.471576 1.083683 0.061524 0.008201 -73670.800000 0 0 1
-32.073331 -14.911322 18.140098 39.750588 0.435186 1.096910 0.066572 0.001338 -171184.000000 0 0 1
-31.562141 -14.610322 16.848998 38.646074 0.433535 1.119667 0.055555 -0.003822 -984489.000000 0 0 1
-32.446031 -13.675322 16.064798 38.701901 0.398885 1.142754 0.046844 -0.001922 658472.000000 0 0 1
-33.714291 -14.264922 15.633898 39.806535 0.400270 1.167180 0.064256 -0.005013 1092510.000000 0 0 1
-34.765798 -14.394922 16.522298 41.095752 0.392563 1.157048 0.071625 -0.003583 -762428.000000 0 0 1
-35.432693 -12.996322 16.926298 41.362782 0.351553 1.149202 0.065016 -0.006916 -662347.000000 0 0 1
-36.432591 -13.132622 17.888998 42.659298 0.345966 1.138072 0.027523 -0.001329 -198405.000000 0 0 1
36.703568 -11.903822 18.303698 42.706888 -0.313620 1.127866 0.026308 0.007135 110147.000000 0 0 1
35.841538 -11.946822 19.574798 42.550148 -0.321742 1.092755 0.036109 0.011111 -44883.200000 0 0 1
36.546188 -12.343922 20.751098 43.801876 -0.325731 1.077253 0.038058 0.012484 -181686.000000 0 0 1
35.875138 -11.964822 21.912198 43.707287 -0.321912 1.045650 0.037243 0.007502 -1005190.000000 0 0 1
36.680888 -12.387822 23.153168 45.111139 -0.325692 1.031832 0.034884 0.002705 345895.000000 0 0 1
-35.778616 -11.708522 23.206718 44.223870 0.316265 1.018368 0.043247 -0.004070 295429.000000 0 0 1
-34.657584 -12.270722 22.528998 43.119306 0.340284 1.021039 0.048254 -0.006267 25298.700000 0 0 1
-33.374581 -11.419422 22.676998 41.934617 0.329673 0.999444 0.074094 -0.012513 161866.000000 0 0 1
-33.521981 -10.206422 21.934498 41.340253 0.295552 1.011506 0.083717 -0.013939 -662822.000000 0 0 1
-32.388941 -9.428822 22.007398 40.277435 0.283283 0.992742 0.108145 -0.019575 -925773.000000 0 0 1
-32.560371 -8.047522 21.278798 39.720620 0.242301 1.005446 0.110746 -0.017127 25295.600000 0 0 1
-32.744141 -8.172022 19.867798 39.162356 0.244576 1.038726 0.100546 -0.016019 -34579.300000 0 0 1
-34.071931 -8.401922 19.469398 40.131612 0.241770 1.064275 0.096354 -0.020160 -499437.000000 0 0 1
-34.359405 -8.363822 17.936398 39.651439 0.238778 1.101396 0.086391 -0.013805 -315546.000000 0 0 1
-35.701696 -8.627422 17.627198 40.740172 0.237107 1.123340 0.023803 -0.006101 -103732.000000 0 0 1
-35.896743 -8.583822 16.243398 40.325007 0.234718 1.156209 0.042416 -0.003923 -257158.000000 0 0 1
36.318138 -8.491322 15.855298 40.527771 -0.229678 1.168839 0.040519 -0.003234 -402658.000000 0 0 1
35.609528 -9.673422 16.045298 40.237609 -0.265252 1.160628 0.032516 0.016378 -201826.000000 0 0 1
34.231988 -9.379722 16.082898 38.967522 -0.267441 1.145352 0.030573 0.008814 -202678.000000 0 0 1
33.250928 -10.539022 16.242998 38.477658 -0.306938 1.134991 0.020747 0.003424 -254658.000000 0 0 1
33.123878 -11.184322 17.517198 39.104125 -0.325632 1.106311 0.009995 -0.003088 -806271.000000 0 0 1
32.090708 -12.067922 17.403098 38.448877 -0.359697 1.101084 0.026767 -0.007469 -822885.000000 0 0 1
31.646978 -12.765022 18.704598 38.914509 -0.383397 1.069391 0.026834 -0.006905 -534337.000000 0 0 1
32.739078 -13.416222 19.256298 40.282096 -0.388919 1.072379 0.019769 -0.001793 -620984.000000 0 0 1
32.611848 -13.692122 20.668398 40.965712 -0.397501 1.041960 0.028421 -0.003203 -71982.700000 0 0 1
33.392888 -14.988322 21.119698 42.258448 -0.421895 1.047458 0.023598 0.006595 447070.000000 0 0 1
33.708008 -14.879022 22.500598 43.172816 -0.415687 1.022569 0.029661 -0.002946 -79005.300000 0 0 1
34.319948 -16.097822 22.924398 44.300415 -0.438584 1.026898 0.023699 0.006400 13287.500000 0 0 1
34.578848 -16.111622 24.471218 45.322418 -0.436029 1.000435 0.039129 0.004508 201101.000000 0 0 1
35.696628 -15.287022 24.742328 46.044816 -0.404619 1.003501 0.050027 0.004219 -33842.000000 0 0 1
35.971058 -15.117122 26.120518 46.954509 -0.397847 0.980877 0.055200 0.002796 212395.000000 0 0 1
-36.469821 -14.232522 26.331988 47.180358 0.372077 0.978686 0.054952 -0.001812 209867.000000 0 0 1
-35.221039 -14.671122 25.855278 46.089683 0.394687 0.975230 0.042794 0.001463 405630.000000 0 0 1
-34.211054 -13.667522 26.050328 45.120029 0.380080 0.955309 0.046923 -0.002571 694444.000000 0 0 1
-32.771021 -14.245922 25.999878 44.191400 0.410067 0.941783 0.049236 0.000469 5985.930000 0 0 1
-32.307851 -14.451722 24.628428 43.118546 0.420617 0.962854 0.054621 0.001536 283380.000000 0 0 1
-30.967221 -14.907922 24.632328 42.284353 0.448665 0.948946 0.061124 -0.008892 183946.000000 0 0 1
-30.823021 -16.462022 24.860588 42.884795 0.490540 0.952428 0.066865 -0.002290 -603698.000000 0 0 1
-30.862551 -16.856722 26.217038 43.863188 0.499911 0.930167 0.060487 0.005562 302196.000000 0 0 1
-30.278611 -18.164622 26.425908 44.103020 0.540358 0.928312 0.068456 -0.002451 -21485.700000 0 0 1
-29.842551 -18.399222 27.873248 44.788695 0.552495 0.899083 0.063114 -0.016282 -190482.000000 0 0 1
-28.876971 -17.469422 28.268428 44.024586 0.544059 0.873555 0.062324 -0.013752 -332953.000000 0 0 1
-28.233941 -17.847822 29.478918 44.550048 0.563718 0.847708 0.071681 -0.019426 -30297.000000 0 0 1
-27.037051 -16.976322 29.854698 43.709274 0.560676 0.818895 0.051472 -0.013927 -342649.000000 0 0 1
-27.282611 -15.670922 30.357768 43.720850 0.521377 0.803274 0.075713 -0.018916 -155618.000000 0 0 1
-26.105301 -14.877022 30.253418 42.638971 0.517982 0.781972 0.056273 -0.019750 -147913.000000 0 0 1
-25.941741 -13.540022 31.002168 42.631450 0.481045 0.756543 0.057366 -0.017571 -344597.000000 0 0 1
-25.490881 -13.666922 32.312948 43.366997 0.492147 0.730105 0.059913 -0.017221 -15469.700000 0 0 1
-25.136851 -12.378922 32.697554 43.060760 0.457598 0.708505 0.052924 -0.014600 -280270.000000 0 0 1
-24.526061 -12.360122 -33.929687 43.652307 0.466810 2.461113 0.062890 -0.016777 443843.000000 0 0 1
-23.170661 -12.799622 -33.818277 42.946312 0.504689 2.477465 0.033704 -0.013092 455128.000000 0 0 1
-22.970461 -14.208022 -33.752577 43.229000 0.553936 2.466718 0.042144 -0.013562 -479372.000000 0 0 1
-22.855961 -14.777722 -32.298987 42.237431 0.573952 2.441373 0.046808 -0.014481 -388010.000000 0 0 1
-21.638261 -14.573822 -31.598727 40.976703 0.592733 2.451424 0.021168 -0.008841 -33983.400000 0 0 1
-21.549061 -15.491822 -30.523527 40.448044 0.623304 2.425895 0.045803 -0.012388 163874.000000 0 0 1
-20.234561 -15.585922 -29.699297 39.171503 0.656343 2.431323 0.039107 -0.004017 249453.000000 0 0 1
-19.962061 -14.438422 -28.866567 37.950370 0.626188 2.435095 0.021297 -0.008262 -109345.000000 0 0 1
-20.586061 -14.413122 -27.619357 37.341035 0.610820 2.403349 0.031240 -0.009281 -235187.000000 0 0 1
-20.386061 -13.106022 -26.782507 36.120105 0.571362 2.406077 0.035572 -0.011635 1051820.000000 0 0 1
-19.073761 -13.011322 -26.167907 34.897883 0.598651 2.418620 0.037427 -0.014482 902963.000000 0 0 1
-18.872661 -11.832822 -25.436707 33.811523 0.560023 2.422356 0.043383 -0.021195 336737.000000 0 0 1
-17.484661 -11.760622 -24.751137 32.506067 0.592116 2.436315 0.066531 -0.021829 -533717.000000 0 0 1
-17.504461 -12.661122 -23.656237 32.036350 0.626198 2.401519 0.074825 -0.023505 -18683.600000 0 0 1
-16.296561 -12.845422 -22.954437 30.943318 0.667522 2.406580 0.079696 -0.031697 61478.200000 0 0 1
-15.208461 -13.617322 -23.762837 31.327323 0.730256 2.431857 0.069248 -0.025571 -575921.000000 0 0 1
-14.526361 -12.894122 -24.755837 31.466252 0.725942 2.476310 0.068074 -0.028565 -136077.000000 0 0 1
-13.892761 -13.756922 -25.651717 32.253252 0.780485 2.490335 0.080096 -0.026363 -332189.000000 0 0 1
-12.901761 -13.098122 -26.620047 32.351864 0.792950 2.537167 0.081705 -0.021282 82189.200000 0 0 1
-13.545861 -12.250722 -27.549577 33.053740 0.735234 2.556170 0.073008 -0.022270 396644.000000 0 0 1
-12.544961 -11.709722 -28.405787 33.187081 0.750976 2.598141 0.068935 -0.022074 353633.000000 0 0 1
-13.131061 -10.659422 -29.376807 33.897564 0.681878 2.619214 0.053621 -0.020762 -279353.000000 0 0 1
-12.210661 -9.845722 -30.020587 33.871435 0.678584 2.660111 0.051984 -0.018787 -263770.000000 0 0 1
-11.643061 -10.411422 -31.224407 34.913066 0.729611 2.677766 0.066072 -0.023042 200774.000000 0 0 1
-11.173561 -9.251222 -32.097597 35.223420 0.691557 2.717123 0.062686 -0.022948 635591.000000 0 0 1
-9.832961 -8.871222 -31.759537 34.410084 0.734025 2.746528 0.078125 -0.029770 400709.000000 0 0 1
-9.510161 -7.499522 -31.993517 34.209225 0.667739 2.779706 0.068399 -0.027305 54121.300000 0 0 1
-7.982661 -7.219922 -32.098387 33.854934 0.735269 2.818051 0.090551 -0.029243 403388.000000 0 0 1
-7.249161 -7.320722 -30.881407 32.554640 0.790310 2.819586 0.077324 -0.031567 45322.300000 0 0 1
-7.394961 -6.239222 -29.967287 31.490500 0.700833 2.829293 0.074428 -0.028134 -349931.000000 0 0 1
-6.842761 -4.791822 -30.348287 31.477030 0.610911 2.872983 0.077885 -0.036444 465542.000000 0 0 1
-5.433561 -4.684122 -30.165707 31.007006 0.711461 2.908114 0.098655 -0.041044 302668.000000 0 0 1
-5.028461 -3.427922 -30.704027 31.301331 0.598341 2.945923 0.094230 -0.049569 86857.500000 0 0 1
-3.546461 -3.094822 -30.422097 30.784075 0.717498 2.988089 0.068203 -0.039156 -1113640.000000 0 0 1
-2.612661 -4.019422 -30.845457 31.215764 0.994415 2.987409 0.066553 -0.037448 -383284.000000 0 0 1
-1.309261 -3.703222 -30.416237 30.668803 1.230966 3.013167 0.070260 -0.033225 81869.000000 0 0 1
-0.549261 -2.545422 -31.080257 31.189152 1.358271 3.058005 0.057837 -0.027421 -258477.000000 0 0 1
0.816839 -2.366322 -30.635247 30.737356 -1.238410 3.060059 0.063413 -0.026412 1046550.000000 0 0 1
1.268539 -1.120422 -31.156277 31.202213 -0.723477 3.087323 0.033107 -0.014808 -132449.000000 0 0 1
1.449439 -0.020722 -30.136647 30.171489 -0.014296 3.093529 0.043146 -0.025425 -622017.000000 0 0 1
0.302739 0.457178 -29.505657 29.510751 0.985899 3.123011 0.068184 -0.028536 -800385.000000 0 0 1
0.560139 1.552678 -28.753917 28.801255 1.224571 3.084250 0.094251 -0.041939 -717998.000000 0 0 1
-0.658661 2.221978 -28.139847 28.235120 -1.282618 3.059420 0.085557 -0.037243 -840571.000000 0 0 1
-1.385561 2.936078 -29.089877 29.270484 -1.129873 3.030447 0.071750 -0.050308 -127620.000000 0 0 1
-2.152361 3.926778 -28.334127 28.685797 -1.069395 2.984847 0.111904 -0.043387 1455120.000000 0 0 1
-3.508861 4.303778 -29.093567 29.618748 -0.886797 2.952998 0.138238 -0.047285 939583.000000 0 0 1
-3.300561 4.983678 -30.327297 30.910769 -0.985841 2.946987 0.131268 -0.048548 -184433.000000 0 0 1
-4.458361 5.496778 -30.957617 31.756347 -0.889332 2.916835 0.157096 -0.042553 -457633.000000 0 0 1
-4.348461 5.910178 -32.473277 33.291936 -0.936473 2.919369 0.147364 -0.034774 -195756.000000 0 0 1
-4.080061 4.937078 -33.529287 34.135534 -0.880157 2.952845 0.151311 -0.032816 -406029.000000 0 0 1
-2.838561 4.333978 -33.401997 33.801393 -0.990946 2.987714 0.125911 -0.036496 -958276.000000 0 0 1
-2.456661 3.589578 33.360928 33.643302 -0.970626 0.129653 0.097956 -0.031174 -505996.000000 0 0 1
-3.333861 2.570178 32.928206 33.196193 -0.656763 0.127151 0.097515 -0.038113 -153382.000000 0 0 1
-3.088961 1.904078 31.706098 31.913067 -0.552401 0.113951 0.087932 -0.029697 -353410.000000 0 0 1
-3.023561 2.808978 30.421518 30.700180 -0.748624 0.134838 0.085834 -0.026713 -112703.000000 0 0 1
-4.094661 3.711578 30.270828 30.771173 -0.736364 0.180579 0.080477 -0.025665 -94614.200000 0 0 1
-3.861661 4.587178 29.173448 29.783296 -0.871060 0.202714 0.077464 -0.026457 301645.000000 0 0 1
-5.064461 5.514778 28.872688 29.827733 -0.827939 0.253736 0.088612 -0.020729 144358.000000 0 0 1
-4.954361 6.144378 27.638418 28.743369 -0.892211 0.278175 0.077557 -0.010358 18369.000000 0 0 1
-6.123261 6.864878 27.265798 28.775765 -0.842436 0.325389 0.062939 -0.006912 -55642.800000 0 0 1
-6.069261 7.457778 25.874548 27.603381 -0.887687 0.355798 0.053065 -0.005267 -326921.000000 0 0 1
-5.334761 8.639678 25.779178 27.706854 -1.017629 0.375223 0.055099 -0.007991 -100330.000000 0 0 1
-5.271061 9.218378 24.530298 26.730097 -1.051371 0.408536 0.042272 -0.011785 21160.300000 0 0 1
-4.709461 10.623278 24.757248 27.348755 -1.153515 0.438847 0.047869 -0.011110 -436422.000000 0 0 1
-4.605561 11.445878 23.585638 26.617694 -1.188242 0.481959 0.045496 -0.014116 294109.000000 0 0 1
-3.951561 12.734478 23.710548 27.202424 -1.269913 0.512271 0.033504 -0.007133 237815.000000 0 0 1
-2.398061 12.696078 23.889008 27.159267 -1.384114 0.495798 0.045599 -0.006602 -29395.800000 0 0 1
-1.862961 12.198578 25.107658 27.976248 -1.419248 0.456812 0.037541 -0.006787 58468.300000 0 0 1
-2.203461 13.021678 26.281188 29.412926 -1.403169 0.465661 0.047682 -0.009979 -797177.000000 0 0 1
-1.601561 12.542778 27.576338 30.337118 -1.443796 0.429926 0.058217 -0.008327 91757.200000 0 0 1
-0.224061 12.881178 27.540868 30.405170 -1.553404 0.437543 0.054086 -0.009463 -207729.000000 0 0 1
0.483539 12.402378 28.682208 31.252550 1.531828 0.408404 0.058381 -0.016190 -252479.000000 0 0 1
1.971039 12.721478 28.540568 31.309504 1.417081 0.423728 0.055828 -0.010933 -459093.000000 0 0 1
2.281539 14.095278 28.362818 31.754240 1.410323 0.466389 0.047937 -0.016008 -254217.000000 0 0 1
3.675239 14.179278 28.174138 31.754391 1.317180 0.479444 0.063561 -0.017970 -89778.000000 0 0 1
4.246739 15.612378 28.398558 32.684235 1.305211 0.517868 0.060188 -0.014481 -251581.000000 0 0 1
4.245239 15.971578 29.818148 34.091573 1.311004 0.506086 0.072181 -0.014676 321521.000000 0 0 1
3.314239 16.981578 30.204878 34.809379 1.378052 0.520195 0.063534 -0.015230 90190.500000 0 0 1
3.463639 18.423278 29.640398 35.070888 1.384962 0.563938 0.064383 -0.011468 92759.400000 0 0 1
4.498439 19.116878 30.339688 36.141218 1.339688 0.574478 0.088704 -0.006737 267127.000000 0 0 1
4.940539 20.144178 29.504778 36.065618 1.330285 0.612721 0.070127 -0.005541 84632.800000 0 0 1
6.186239 20.884478 30.054168 37.117166 1.282818 0.627137 0.079171 -0.006774 100107.000000 0 0 1
5.788739 21.859478 31.010708 38.379816 1.311923 0.630055 0.071906 -0.016571 874989.000000 0 0 1
6.926239 22.544578 31.574888 39.410714 1.272725 0.641540 0.049204 -0.020361 628305.000000 0 0 1
7.240239 23.912378 31.006878 39.820213 1.276789 0.678250 0.036592 -0.008812 -139715.000000 0 0 1
7.653039 23.854378 29.638858 38.808018 1.260347 0.701724 0.019005 -0.001641 116676.000000 0 0 1
7.924539 25.172678 29.153428 39.324094 1.265811 0.735697 0.011632 -0.001424 189699.000000 0 0 1
8.568339 25.047278 27.750428 38.351908 1.241189 0.761831 0.031059 -0.003122 305000.000000 0 0 1
7.564639 24.701878 26.811568 37.232603 1.273627 0.766836 0.033624 -0.000046 506295.000000 0 0 1
8.091239 24.706578 25.506488 36.420655 1.254311 0.794936 0.053768 -0.010239 -347489.000000 0 0 1
29.197978 2.217378 6.574463 30.011036 0.075797 1.349937 0.150844 -0.031655 22671.200000 0 0 1
29.474408 3.113478 7.611963 30.600269 0.105243 1.319402 0.142071 -0.031942 -120338.000000 0 0 1
28.553958 2.979778 8.657363 29.985956 0.103980 1.277913 0.138797 -0.025012 -244605.000000 0 0 1
28.739698 3.928878 9.875563 30.642015 0.135863 1.242651 0.116254 -0.023421 -174383.000000 0 0 1
28.514458 5.333278 9.743763 30.601619 0.184901 1.246748 0.121360 -0.022321 -104843.000000 0 0 1
29.474818 5.998978 8.958163 31.384731 0.200786 1.281341 0.124662 -0.033977 -269720.000000 0 0 1
29.267578 7.488178 8.650963 31.424562 0.250479 1.291902 0.133135 -0.038059 215787.000000 0 0 1
28.296658 7.779778 7.649663 30.327268 0.268307 1.315805 0.135925 -0.049597 107225.000000 0 0 1
28.449858 9.088578 7.148463 30.709888 0.309213 1.335867 0.137994 -0.063159 29093.000000 0 0 1
27.502158 9.420578 5.951963 29.673926 0.330013 1.368848 0.132346 -0.060136 620554.000000 0 0 1
26.175458 9.785478 6.320563 28.650649 0.357755 1.348359 0.123089 -0.049928 145421.000000 0 0 1
25.346158 9.803078 5.186363 27.666341 0.369048 1.382220 0.137525 -0.050166 467886.000000 0 0 1
23.926558 10.399878 5.452263 26.652670 0.410023 1.364775 0.081906 -0.045099 286828.000000 0 0 1
23.965458 11.728778 5.895363 27.325130 0.455134 1.353338 0.072637 -0.042963 327049.000000 0 0 1
22.693758 12.159278 6.361963 26.520356 0.491874 1.328544 0.082128 -0.030848 20145.700000 0 0 1
22.573558 13.674078 6.653063 27.217810 0.544641 1.323856 0.076557 -0.017360 -199088.000000 0 0 1
22.390158 14.436378 5.501263 27.202796 0.572686 1.367160 0.067717 -0.018386 359831.000000 0 0 1
22.283058 15.799578 5.858363 27.937104 0.616767 1.359530 0.089040 -0.022486 -266933.000000 0 0 1
21.818058 16.669478 4.707463 27.857842 0.652415 1.401000 0.081706 -0.026309 -1043170.000000 0 0 1
20.507258 16.505578 4.295763 26.672745 0.677700 1.409037 0.099942 -0.022760 -565152.000000 0 0 1
20.161058 17.424778 3.249063 26.844880 0.712726 1.449468 0.101207 -0.025266 -513344.000000 0 0 1
18.640558 17.375878 3.101863 25.671250 0.750299 1.449670 0.088239 -0.025204 -590653.000000 0 0 1
17.970658 18.116978 4.149063 25.853127 0.789453 1.409613 0.089882 -0.029701 668821.000000 0 0 1
16.590858 17.967078 3.805763 24.749875 0.825201 1.416415 0.064878 -0.034475 -191096.000000 0 1 0
15.700958 19.035078 4.441663 25.071551 0.881089 1.392697 0.073976 -0.035176 656592.000000 0 0 1
14.305458 18.686078 4.354863 23.932833 0.917406 1.387815 0.070079 -0.039184 890508.000000 0 1 0
13.505258 19.857978 4.206963 24.380932 0.973557 1.397377 0.050466 -0.037846 -33995.800000 0 1 0
12.047158 19.483578 3.914163 23.239288 1.017012 1.401561 0.052561 -0.034579 -205638.000000 0 1 0
11.316158 18.883978 4.957663 22.566313 1.030931 1.349296 0.038968 -0.041240 739992.000000 0 1 0
9.911258 19.206178 4.856463 22.151649 1.094395 1.349764 0.040061 -0.023102 1117830.000000 0 1 0
9.267858 18.660278 6.176163 21.731180 1.109822 1.282617 0.035774 -0.019247 -445522.000000 0 1 0
9.412158 19.505278 7.335863 22.866121 1.121211 1.244203 0.051242 -0.023087 70718.000000 0 1 0
8.670758 18.980778 8.431263 22.506403 1.142287 1.186814 0.049063 -0.014684 -264897.000000 0 1 0
7.596358 19.907578 8.991163 23.126983 1.206268 1.171496 0.048055 -0.013169 280373.000000 0 1 0
6.432958 20.034878 8.183463 22.577608 1.260107 1.199891 0.044285 -0.022934 35411.100000 0 1 0
6.374758 21.179078 7.426963 23.331324 1.278429 1.246833 0.050728 -0.018859 71044.000000 0 1 0
5.080758 21.453778 6.601463 23.014300 1.338257 1.279868 0.032585 -0.011079 125362.000000 0 1 0
3.781458 21.406978 7.107763 22.870908 1.395954 1.254785 0.018405 -0.019290 -242723.000000 0 1 0
3.391658 22.408778 8.018563 24.040675 1.420582 1.230739 0.032599 -0.028308 -924319.000000 0 1 0
3.299158 23.885578 7.435463 25.232745 1.433541 1.271681 0.054336 -0.024058 -146587.000000 0 0 1
2.329958 23.932178 6.403163 24.883295 1.473745 1.310540 0.019469 -0.026979 107075.000000 0 1 0
2.440958 25.134278 5.720463 25.892352 1.473983 1.348026 0.038479 -0.029024 -546986.000000 0 0 1
1.309358 25.392978 4.745663 25.865790 1.519278 1.386278 0.047613 -0.030037 -446647.000000 0 0 1
0.180558 25.991278 5.331163 26.533007 1.563850 1.368494 0.056984 -0.026863 -845889.000000 0 0 1
-0.872642 26.167778 4.471463 26.561402 -1.537461 1.401646 0.061601 -0.028044 -581187.000000 0 0 1
-2.032042 26.991978 5.059163 27.537088 -1.495655 1.386025 0.076753 -0.022242 336594.000000 0 0 1
-2.999142 27.346978 4.065963 27.809785 -1.461563 1.424064 0.103840 -0.024234 743392.000000 0 0 1
-4.153442 27.995078 4.655863 28.681920 -1.423507 1.407747 0.093782 -0.026563 1064430.000000 0 0 1
-5.195142 28.347878 3.545663 29.037276 -1.389544 1.448384 0.097144 -0.028776 131055.000000 0 0 1
-4.547142 29.090778 2.568263 29.555809 -1.415742 1.483791 0.096725 -0.027287 -377554.000000 0 0 1
-5.464042 29.604778 1.672563 30.151221 -1.388284 1.515295 0.107772 -0.032719 -737686.000000 0 0 1
-4.860242 30.545878 0.623663 30.936412 -1.413006 1.550635 0.112166 -0.044395 94765.100000 0 0 1
-4.269742 31.791078 1.049963 32.093703 -1.437289 1.538075 0.112322 -0.039862 831423.000000 0 0 1
-3.074142 31.688778 1.844563 31.890930 -1.474089 1.512924 0.107602 -0.035711 148062.000000 0 0 1
-2.290342 33.043578 1.985763 33.182329 -1.501594 1.510917 0.106537 -0.036614 -598193.000000 0 0 1
-1.649842 33.387378 0.769663 33.436976 -1.521421 1.547776 0.092896 -0.034527 -29731.500000 0 0 1
-0.980842 -33.509156 0.909663 33.535848 1.541534 1.543668 0.088219 -0.031283 287720.000000 0 0 1
0.429758 -33.537956 1.550963 33.576550 -1.557983 1.524588 0.077597 -0.024520 -332958.000000 0 0 1
0.382358 -33.807756 2.959163 33.939170 -1.559487 1.483495 0.065922 -0.023556 -168759.000000 0 0 1
1.705258 -33.926756 3.417563 34.141067 -1.520576 1.470527 0.049185 -0.016189 -62694.100000 0 0 1
1.785758 -33.965656 4.933163 34.368457 -1.518269 1.426761 0.036800 -0.013251 -70442.000000 0 0 1
1.137958 33.109578 5.565263 33.593322 1.536440 1.404363 0.083743 -0.031685 216936.000000 0 0 1
0.483658 33.484278 6.854963 34.182178 1.556353 1.368885 0.075845 -0.025966 330067.000000 0 0 1
1.315458 33.451178 8.145163 34.453671 1.531492 1.332128 0.047995 -0.020359 -314714.000000 0 0 1
1.594358 32.079478 8.387163 33.196075 1.521137 1.315373 0.055317 -0.030891 -16766.900000 0 0 1
2.612258 31.873378 9.327063 33.312614 1.489022 1.287017 0.056823 -0.028455 -441223.000000 0 0 1
2.922858 30.340378 9.379063 31.891197 1.474757 1.272287 0.055407 -0.026943 155665.000000 0 0 1
2.094958 29.562278 10.247563 31.358088 1.500049 1.237889 0.071146 -0.041790 485081.000000 0 0 1
2.364358 28.188478 10.008263 30.005763 1.487115 1.230735 0.075126 -0.044333 -136631.000000 0 0 1
2.042758 27.421378 11.301963 29.729433 1.496439 1.180826 0.056236 -0.050770 -437951.000000 0 0 1
2.765658 27.949578 12.407363 30.704567 1.472166 1.154814 0.060215 -0.042087 -34043.500000 0 0 1
2.674958 27.188978 13.647863 30.539484 1.472728 1.107508 0.059192 -0.039375 468941.000000 0 0 1
1.193358 26.968478 14.168263 30.487089 1.526575 1.087467 0.058230 -0.034952 1405060.000000 0 0 1
0.461458 28.074078 14.726363 31.705403 1.554361 1.087755 0.056259 -0.033878 245341.000000 0 0 1
0.020458 29.013678 13.839363 32.145325 1.570091 1.125722 0.055369 -0.038622 -634067.000000 0 0 1
-0.757042 30.176078 14.533363 33.502051 -1.545714 1.122085 0.052471 -0.030516 1089070.000000 0 0 1
-2.088142 29.790478 14.961763 33.401905 -1.500817 1.106346 0.043253 -0.024367 466480.000000 0 0 1
-2.727742 30.950478 15.233263 34.603829 -1.482891 1.114954 0.038342 -0.013011 -220227.000000 0 0 1
-4.101242 30.766978 15.966863 34.905126 -1.438277 1.095687 0.029153 0.006713 760461.000000 0 0 1
-5.064942 30.106978 15.158063 34.085930 -1.404126 1.109955 0.028198 -0.007707 417366.000000 0 0 1
-6.218742 29.676378 15.877263 34.226418 -1.364233 1.088416 0.031643 -0.004554 876277.000000 0 0 1
-7.439642 29.226678 14.977563 33.673051 -1.321540 1.109852 0.034174 -0.016523 2113460.000000 0 0 1
-8.679742 28.923878 15.694963 34.033227 -1.279258 1.091488 0.030077 -0.010348 1141760.000000 0 0 1
-9.688342 28.409078 14.873463 33.498651 -1.242135 1.110736 0.028225 -0.012038 -337590.000000 0 0 1
-10.885142 27.859778 15.643363 33.754531 -1.198323 1.088918 0.029447 -0.009795 -263954.000000 0 0 1
-11.667942 28.865678 16.270563 35.129752 -1.186662 1.089243 0.021034 -0.011649 446493.000000 0 0 1
-11.373842 29.028778 17.666363 35.834824 -1.197368 1.055268 0.028647 -0.011271 8695.630000 0 0 1
-12.136242 30.295478 18.198763 37.367089 -1.189776 1.062114 0.029826 -0.008629 753945.000000 0 0 1
-13.502042 30.080978 18.552163 37.833228 -1.148894 1.058286 0.036171 -0.004714 873677.000000 0 0 1
-14.258742 31.291578 18.729263 39.156863 -1.143234 1.072063 0.051749 -0.012083 -95583.700000 0 0 1
-15.237542 31.132778 19.870463 39.953321 -1.115635 1.050264 0.056021 -0.011901 -457285.000000 0 0 1
-14.659742 30.919278 21.155963 40.230394 -1.128058 1.017059 0.050706 -0.013976 25304.100000 0 0 1
-15.586242 30.321778 22.040963 40.597355 -1.095989 0.996891 0.040900 -0.007916 -44056.800000 0 0 1
-15.071042 30.187578 23.483663 41.108498 -1.107752 0.962755 0.035789 -0.003989 734097.000000 0 0 1
-13.836042 29.436278 23.693563 40.240719 -1.131408 0.941228 0.031151 -0.004277 1483960.000000 0 0 1
-13.560042 29.117278 25.059463 40.739015 -1.134960 0.908256 0.049236 -0.001181 -207243.000000 0 0 1
-13.044442 30.311578 25.931363 41.968856 -1.164407 0.904763 0.050189 0.003747 247551.000000 0 0 1
-14.110442 31.252078 26.192163 43.148886 -1.146692 0.918493 0.043211 0.008898 773906.000000 0 0 1
-13.625942 32.399978 26.834863 44.221429 -1.172697 0.918731 0.044683 0.003976 -287098.000000 0 0 1
-14.673642 33.354678 27.438663 45.615026 -1.156350 0.925385 0.053739 0.004078 -66707.000000 0 0 1
-15.320942 32.889178 28.649163 46.229902 -1.134852 0.902422 0.016933 0.003290 269733.000000 0 0 1
-14.650242 33.030178 29.886963 46.891927 -1.153327 0.879731 0.048336 0.007462 -291862.000000 0 0 1
-15.377642 32.256578 30.956863 47.278812 -1.125938 0.856915 0.025681 0.000828 189842.000000 0 0 1
-16.629742 32.724178 31.432563 48.326247 -1.100627 0.862653 0.021781 0.002511 18260.700000 0 0 1
-17.095942 31.915978 32.508563 48.659096 -1.079033 0.839160 0.012709 0.004663 -73209.200000 0 0 1
-18.542942 32.294978 32.866863 49.669276 -1.049583 0.847694 0.008319 0.001074 -316637.000000 0 0 1
-18.692242 33.536378 33.487963 50.946366 -1.062311 0.853542 0.020292 -0.004588 -668038.000000 0 0 1
-20.006942 33.962178 33.339463 51.625837 -1.038434 0.868738 0.030234 -0.007546 -671209.000000 0 0 1
-20.131042 -32.609356 33.561963 50.941480 1.017725 0.851529 0.042627 -0.006786 -186591.000000 0 0 1
-19.921442 -32.226656 -33.147771 50.340798 1.017126 2.289577 0.044060 -0.005448 524091.000000 0 0 1
-20.963742 -32.484056 -32.182471 50.303120 0.997694 2.264996 0.032752 -0.000134 241228.000000 0 0 1
-20.754442 -31.612456 -30.928271 48.853375 0.989846 2.256327 0.045257 -0.009132 -111446.000000 0 0 1
-20.911242 -30.234956 -31.226471 48.234066 0.965714 2.274957 0.060192 -0.010361 43542.300000 0 0 1
-20.397642 -29.395756 -30.237871 46.845524 0.964178 2.272449 0.059584 -0.004757 -53529.100000 0 0 1
-20.843242 -27.929256 -30.464371 46.287817 0.929676 2.289157 0.065222 -0.012452 -1080.150000 0 0 1
-22.137242 -27.685956 -29.978671 46.425105 0.896309 2.272792 0.056424 -0.006246 -320512.000000 0 0 1
-22.541842 -26.341256 -30.025371 45.864140 0.862967 2.284528 0.060053 -0.010885 688549.000000 0 0 1
-23.877742 -26.112056 -29.226071 45.892802 0.830064 2.261181 0.068181 -0.015325 475305.000000 0 0 1
-23.778942 -26.206156 -27.815171 45.009826 0.833919 2.236967 0.066899 -0.014458 320087.000000 0 0 1
-22.984142 -25.188956 -27.189171 43.611986 0.831135 2.243923 0.080664 -0.024568 46086.300000 0 0 1
-22.869042 -25.400656 -25.647071 42.731238 0.837797 2.214541 0.081300 -0.015858 -342248.000000 0 0 1
-24.041342 -25.120756 -24.947471 42.795033 0.807351 2.193154 0.070598 -0.020356 -257337.000000 0 0 1
-23.854442 -25.497956 -23.610671 42.150255 0.818687 2.165369 0.067934 -0.011222 -196836.000000 0 0 1
-25.184942 -25.362856 -22.813471 42.402951 0.788918 2.138878 0.060724 -0.008536 1819170.000000 0 0 1
-26.325542 -26.201556 -23.235771 43.811606 0.783038 2.129817 0.043233 -0.005289 1130310.000000 0 0 1
-26.046042 -27.568256 -22.996471 44.353610 0.813782 2.115869 0.055379 0.004569 -658582.000000 0 0 1
-27.289442 -28.538356 -23.013771 45.703229 0.807765 2.098497 0.031949 0.001764 648341.000000 0 0 1
-28.162442 -28.369656 -21.938571 45.598919 0.789064 2.072729 0.032977 0.008277 -81943.500000 0 0 1
-29.115142 -27.333456 -22.106871 45.645625 0.753846 2.076377 0.032307 0.002677 -560771.000000 0 0 1
-29.852042 -26.818856 -20.894571 45.243547 0.731926 2.050847 0.040720 0.004678 234576.000000 0 0 1
-30.687342 -27.763256 -20.212871 46.055092 0.735413 2.025153 0.031856 0.011891 624576.000000 0 0 1
-31.281942 -27.203356 -19.013371 45.608012 0.715774 2.000814 0.031458 0.010790 -616574.000000 0 0 1
-32.143042 -28.231856 -18.196271 46.489968 0.720707 1.972951 0.021222 0.011815 20701.100000 0 0 1
-33.418042 -28.507856 -18.772071 47.768756 0.706272 1.974664 0.018393 0.010320 969153.000000 0 0 1
-34.396342 -27.442356 -18.709071 47.814439 0.673415 1.972824 0.005906 0.019437 -296640.000000 0 0 1
-34.979642 -27.117956 -17.318271 47.527691 0.659466 1.943766 0.020727 0.017638 -944367.000000 0 0 1
-34.128742 -26.459656 -16.460671 46.215129 0.659491 1.934968 0.011938 0.020216 -78387.400000 0 0 1
-34.946642 -25.969256 -15.433471 46.193745 0.639078 1.911450 0.015431 0.015456 191128.000000 0 0 1
-34.539642 -26.447756 -14.030171 45.709041 0.653487 1.882778 0.056861 0.009451 -37575.900000 0 0 1
-35.037642 -27.725756 -13.663471 46.723060 0.669422 1.867569 0.056081 0.008798 517840.000000 0 0 1
-34.338942 -28.286256 -12.532171 46.220456 0.689048 1.845373 0.049650 -0.006647 121873.000000 0 0 1
-34.921642 -29.631356 -12.147971 47.382608 0.703628 1.830072 0.054901 -0.011744 -66465.400000 0 0 1
-34.744442 -30.484856 -13.249171 48.083711 0.720189 1.849952 0.050889 -0.011031 269168.000000 0 0 1
-35.192342 -31.757556 -12.918271 49.131711 0.734139 1.836856 0.047228 -0.012583 -315374.000000 0 0 1
-34.747942 -32.776056 -13.971771 49.768461 0.756204 1.855357 0.038408 0.002205 1209470.000000 0 0 1
-33.319142 -33.036756 -13.908571 48.939155 0.781143 1.858970 0.039894 -0.001033 1174940.000000 0 0 1
-32.897142 -33.587456 -15.143171 49.392862 0.795781 1.882401 0.064222 -0.016007 153184.000000 0 0 1
-31.443842 34.024478 -15.127671 48.736298 -0.824796 1.886408 0.068285 -0.010008 426116.000000 0 0 1
-31.123542 33.356078 -16.379371 48.472535 -0.820008 1.915492 0.075628 -0.019855 -826821.000000 0 0 1
-29.907442 32.678978 -16.291771 47.199497 -0.829653 1.923214 0.061603 -0.017403 -499855.000000 0 0 1
9.030339 20.380678 -9.653237 24.292057 1.153709 1.979459 0.057770 -0.026082 -282171.000000 0 1 0
7.621639 20.249478 -9.640437 23.686890 1.210810 1.989958 0.050318 -0.024226 167241.000000 0 1 0
6.974839 19.917378 -10.867137 23.736996 1.233954 2.046332 0.064329 -0.028673 -67823.800000 0 1 0
7.278239 18.474878 -11.366037 22.879700 1.195513 2.090674 0.051166 -0.028995 -567297.000000 0 1 0
8.593339 18.331678 -11.849137 23.458430 1.132443 2.100308 0.075789 -0.030014 -281878.000000 0 1 0
8.676839 17.146878 -12.606137 22.982986 1.102336 2.151364 0.061772 -0.032600 -238560.000000 0 1 0
10.051039 16.857978 -13.234537 23.672088 1.033162 2.164069 0.091277 -0.033375 18442.800000 0 1 0
9.930639 15.667878 -14.032637 23.259726 1.005879 2.218431 0.091435 -0.039834 -549556.000000 0 1 0
11.145439 15.320578 -14.593637 23.914747 0.941863 2.227155 0.118865 -0.048229 -1171630.000000 0 1 0
11.205739 13.989178 -15.380637 23.618418 0.895428 2.279979 0.098992 -0.049303 -571799.000000 0 1 0
11.155039 12.779078 -14.617637 22.392298 0.853149 2.282068 0.104463 -0.042589 1528210.000000 0 1 0
12.403939 12.337178 -13.967937 22.386757 0.782700 2.244567 0.134684 -0.043863 1733890.000000 0 1 0
13.451939 11.645178 -14.922037 23.221370 0.713531 2.268682 0.140095 -0.041893 218157.000000 0 1 0
13.872739 12.517478 -15.928537 24.553175 0.734089 2.276719 0.117193 -0.036724 -638016.000000 0 1 0
14.686539 11.820278 -16.769037 25.231210 0.677684 2.297775 0.113377 -0.038654 -312342.000000 0 0 1
15.381139 12.555678 -17.978437 26.785232 0.684603 2.306632 0.092529 -0.041350 -218583.000000 0 0 1
16.448739 13.358978 -17.644437 27.574435 0.682111 2.265143 0.081773 -0.038941 -672919.000000 0 0 1
16.988839 14.087978 -18.740137 28.953143 0.692323 2.274777 0.070158 -0.035112 -61800.100000 0 0 1
18.261339 14.883978 -18.387537 29.884959 0.683853 2.233534 0.059129 -0.023463 -404055.000000 0 0 1
18.097939 16.103378 -17.665937 29.982320 0.727146 2.200879 0.062423 -0.025172 572513.000000 0 0 1
17.451239 17.180378 -18.451037 30.661896 0.777577 2.216497 0.066916 -0.018761 403379.000000 0 0 1
17.377739 18.568078 -17.751137 31.013903 0.818501 2.180178 0.071048 -0.011879 211356.000000 0 0 1
18.651339 19.181778 -17.756637 32.110920 0.799418 2.156731 0.065903 -0.004085 340996.000000 0 0 1
18.432539 20.583678 -17.546537 32.731135 0.840477 2.136584 0.058488 -0.001422 -408162.000000 0 0 1
19.667139 21.452078 -17.674337 34.049525 0.828780 2.116567 0.064198 -0.000555 128494.000000 0 0 1
20.696739 21.440378 -16.687337 34.154238 0.803044 2.081267 0.059294 -0.001013 172511.000000 0 0 1
20.345239 22.291378 -15.612537 33.979193 0.831011 2.048199 0.055343 -0.002595 -405614.000000 0 0 1
21.467539 22.863878 -14.741237 34.654238 0.816885 2.010179 0.049180 -0.006160 -688336.000000 0 0 1
21.995539 21.938278 -13.816737 33.999911 0.784095 1.989280 0.058127 -0.007070 447691.000000 0 0 1
22.966939 22.544478 -12.925537 34.681454 0.776116 1.952706 0.050694 -0.007399 676211.000000 0 0 1
24.422539 22.499878 -13.426337 35.818590 0.744446 1.955023 0.041652 -0.013578 -415792.000000 0 0 1
24.658339 23.361078 -14.558837 36.955830 0.758389 1.975724 0.043530 -0.003920 -31543.000000 0 0 1
26.040139 23.270478 -14.821637 37.937908 0.729289 1.972168 0.041796 -0.003493 -52093.200000 0 0 1
26.598739 24.012678 -16.034737 39.258303 0.734346 1.991543 0.042467 0.003906 278181.000000 0 0 1
27.395239 23.191678 -16.934137 39.687756 0.702493 2.011620 0.040391 -0.007365 596389.000000 0 0 1
27.506139 23.941678 -18.142337 40.730038 0.716226 2.032450 0.034710 -0.003089 -531240.000000 0 0 1
27.813539 23.023078 -19.299337 40.940438 0.691443 2.061674 0.030520 -0.009133 -622054.000000 0 0 1
29.169139 22.773678 -19.505837 41.832484 0.662890 2.055882 0.026960 -0.010404 -611050.000000 0 0 1
29.407739 21.952678 -20.636937 42.102474 0.641253 2.083069 0.032886 -0.011366 816822.000000 0 0 1
30.913539 22.016178 -21.073637 43.410334 0.618858 2.077677 0.062295 -0.009716 767654.000000 0 0 1
31.302739 23.209778 -21.707437 44.606816 0.638014 2.079035 0.041688 -0.008121 208035.000000 0 0 1
32.699739 23.428178 -21.567437 45.643255 0.621690 2.062946 0.067318 -0.003173 356503.000000 0 0 1
33.176739 24.819578 -22.056137 46.938051 0.642285 2.059973 0.056713 -0.004517 -295950.000000 0 0 1
33.194339 25.096278 -23.468137 47.774896 0.647356 2.084290 0.056431 -0.001243 558175.000000 0 0 1
32.017539 24.819078 -24.246637 47.212380 0.659417 2.110131 0.048197 -0.011038 -40882.900000 0 0 1
32.308639 25.086778 -25.705997 48.311415 0.660230 2.131863 0.060718 -0.018671 -141910.000000 0 0 1
32.032539 26.427178 -26.051177 49.021863 0.689806 2.131072 0.072099 -0.019288 904143.000000 0 0 1
30.685739 26.820178 -26.432327 48.575759 0.718279 2.146168 0.057389 -0.009555 1027110.000000 0 0 1
30.468239 26.559778 -27.948907 49.141396 0.716969 2.175775 0.067161 -0.007673 -152220.000000 0 0 1
30.164739 25.183378 -28.227617 48.382976 0.695639 2.193730 0.053779 -0.018447 13053.900000 0 0 1
29.948439 24.838578 -29.584607 48.878552 0.692399 2.220898 0.061884 -0.021955 -535639.000000 0 0 1
29.023639 23.619878 -29.671897 47.756588 0.683108 2.241216 0.060786 -0.023621 733960.000000 0 0 1
27.683239 23.980378 -29.260807 46.878727 0.713848 2.244879 0.063916 -0.026053 814495.000000 0 0 1
26.906239 22.777478 -29.276097 45.824110 0.702488 2.263838 0.073311 -0.030419 67590.600000 0 0 1
25.440939 22.949478 -28.835387 44.781686 0.733957 2.270394 0.055846 -0.021272 -57880.100000 0 0 1
25.407539 23.036378 -27.436447 43.920113 0.736491 2.245531 0.032981 -0.013460 -475702.000000 0 0 1
24.168739 22.799678 -26.861067 42.725521 0.756258 2.250663 0.044377 -0.020892 -711281.000000 0 0 1
24.275139 23.007578 -25.338967 41.960627 0.758596 2.219150 0.042185 -0.019922 -28224.400000 0 0 1
24.938739 21.942778 -24.709537 41.400331 0.721580 2.210358 0.035859 -0.018410 179292.000000 0 0 1
25.168939 22.166178 -23.336337 40.858286 0.722047 2.178706 0.035380 -0.009776 -217665.000000 0 0 1
25.697239 20.963678 -22.592037 40.127596 0.684298 2.168814 0.052250 -0.003153 -133927.000000 0 0 1
26.912239 20.463178 -23.098037 40.945446 0.650103 2.170160 0.030818 0.002174 -174879.000000 0 0 1
27.201039 19.260078 -22.431637 40.174935 0.616118 2.163191 0.072492 -0.007409 426541.000000 0 0 1
28.546839 18.493278 -22.626637 40.852026 0.574843 2.157799 0.083099 -0.011408 193139.000000 0 0 1
29.658539 18.908778 -21.899637 41.433862 0.567573 2.127681 0.092301 -0.017819 -711790.000000 0 0 1
30.736339 18.070678 -22.145137 41.972360 0.531494 2.126584 0.072748 -0.012720 -586063.000000 0 0 1
32.034739 18.206378 -21.359237 42.590065 0.516809 2.096137 0.081393 -0.004999 -499035.000000 0 0 1
32.903239 19.136478 -21.949637 43.938758 0.526779 2.093876 0.063951 -0.008557 -267271.000000 0 0 1
34.208739 19.106678 -21.422637 44.656828 0.509370 2.071128 0.057622 -0.007545 183470.000000 0 0 1
34.437839 20.135278 -20.260137 44.742232 0.529082 2.040721 0.054346 -0.011752 -527439.000000 0 0 1
33.660339 19.870178 -19.139537 43.521997 0.533267 2.026136 0.070292 -0.010717 -21985.200000 0 0 1
33.892039 20.912378 -18.154437 43.767356 0.552847 1.998513 0.049851 0.005052 129802.000000 0 0 1
32.978239 20.666178 -16.928537 42.440906 0.559793 1.981084 0.067974 -0.012314 1093.070000 0 0 1
33.371939 19.553778 -16.149437 41.914685 0.530013 1.966322 0.065652 -0.027322 354344.000000 0 0 1
33.370939 19.880978 -14.772937 41.558543 0.537294 1.934216 0.072465 -0.027319 -176097.000000 0 0 1
33.739639 18.706278 -13.872937 40.996908 0.506238 1.916002 0.067446 -0.025829 810676.000000 0 0 1
35.142039 18.354178 -13.963337 42.033481 0.481317 1.909427 0.055556 -0.024098 1261590.000000 0 0 1
35.594639 17.305778 -13.099637 41.690152 0.452539 1.890425 0.052409 -0.016292 146354.000000 0 0 1
35.561339 17.626178 -11.540737 41.333758 0.460166 1.853766 0.051504 -0.025644 -493449.000000 0 0 1
36.414739 18.740578 -11.225237 42.464672 0.475293 1.838319 0.041469 -0.024700 274934.000000 0 0 1
36.130639 19.276178 -9.969237 42.147121 0.490097 1.809594 0.037769 -0.013918 -466358.000000 0 0 1
34.862639 20.143378 -9.932837 41.470719 0.523931 1.812662 0.045116 -0.012329 181328.000000 0 0 1
33.665039 19.396978 -10.093937 40.143058 0.522717 1.824974 0.059927 -0.032523 -453464.000000 0 0 1
32.519039 20.127678 -9.782037 39.475303 0.554237 1.821207 0.036159 -0.016505 563067.000000 0 0 1
31.149339 19.416278 -10.140337 38.080173 0.557397 1.840337 0.044653 -0.016887 926834.000000 0 0 1
31.005039 19.327178 -11.564837 38.322287 0.557416 1.877354 0.068080 -0.027610 990837.000000 0 0 1
29.814639 18.550978 -11.888537 37.072750 0.556591 1.897245 0.063012 -0.029821 887256.000000 0 0 1
29.868039 17.896678 -13.300337 37.273178 0.539825 1.935673 0.095069 -0.032259 -364241.000000 0 0 1
30.871839 16.945878 -13.486637 37.711040 0.502006 1.936526 0.083745 -0.029810 -216227.000000 0 0 1
30.514039 16.055578 -14.508537 37.408365 0.484364 1.969086 0.070176 -0.032277 -428895.000000 0 0 1
31.727139 15.378178 -15.116137 38.361403 0.451334 1.975825 0.096492 -0.039607 -299755.000000 0 0 1
32.435039 14.568178 -14.202837 38.288172 0.422146 1.950824 0.088574 -0.035674 -4534.110000 0 0 1
33.621639 14.044778 -14.737337 39.304700 0.395697 1.955140 0.093719 -0.029006 -134585.000000 0 0 1
34.478639 13.139778 -13.834237 39.405791 0.364107 1.929511 0.078498 -0.044056 -536681.000000 0 0 1
35.194539 13.810178 -12.871237 39.938018 0.373934 1.898934 0.078365 -0.025900 -529081.000000 0 0 1
36.029539 12.948478 -12.187337 40.178625 0.345011 1.878980 0.071114 -0.026430 -570068.000000 0 0 1
-36.767881 13.708178 -11.194237 40.805663 -0.356867 1.848690 0.093873 -0.024736 -19087.300000 0 0 1
-35.552781 14.050378 -11.851937 40.023515 -0.376360 1.871429 0.062418 -0.022677 -291460.000000 0 0 1
-34.701781 14.581178 -10.863037 39.176905 -0.397785 1.851760 0.037520 -0.016376 12561.500000 0 0 1
-33.237681 14.748778 -11.428537 38.116680 -0.417633 1.875311 0.049053 -0.019521 619672.000000 0 0 1
-32.478981 13.640978 -11.838937 37.163435 -0.397623 1.895011 0.042848 -0.025785 103329.000000 0 0 1
-32.289581 12.624678 -10.889637 36.339836 -0.372709 1.875134 0.071003 -0.019050 -1244140.000000 0 0 1
-31.124781 11.677878 -11.133137 35.058117 -0.358942 1.893954 0.086974 -0.027303 -518585.000000 0 0 1
-31.191881 10.937278 -12.357437 35.288294 -0.337249 1.928565 0.079923 -0.025161 -291553.000000 0 0 1
-30.421281 9.827578 -12.163837 34.205183 -0.312467 1.934367 0.092145 -0.039143 -578745.000000 0 0 1
-30.248681 9.013178 -13.443937 34.306843 -0.289593 1.973463 0.090100 -0.043308 290269.000000 0 0 1
-31.496081 8.430378 -13.817037 35.411649 -0.261534 1.971627 0.074465 -0.037346 585518.000000 0 0 1
-31.422081 7.549378 -14.930937 35.598780 -0.235788 2.003606 0.071095 -0.036822 -288423.000000 0 0 1
-32.721281 7.254678 -15.716337 37.017777 -0.218182 2.009274 0.078911 -0.037060 136658.000000 0 0 1
-33.719081 6.621078 -14.937937 37.469415 -0.193893 1.980863 0.110967 -0.041492 364144.000000 0 0 1
-34.621981 5.825978 -15.684537 38.452936 -0.166712 1.990937 0.109204 -0.040443 1302540.000000 0 0 1
-35.916081 5.349378 -14.868637 39.238464 -0.147854 1.959436 0.116009 -0.029655 900148.000000 0 0 1
-36.807981 4.463578 -15.448137 40.167100 -0.120677 1.965567 0.129162 -0.029400 -217679.000000 0 0 1
35.745639 4.270678 -14.654137 38.868150 0.118910 1.957375 0.127233 -0.032237 -195236.000000 0 0 1
34.753939 3.205178 -15.048637 38.007511 0.091965 1.977886 0.127117 -0.036610 -428900.000000 0 0 1
35.274839 1.905578 -14.994537 38.376837 0.053968 1.972208 0.136524 -0.029729 112643.000000 0 0 1
34.254939 0.915378 -15.036437 37.421026 0.026716 1.984297 0.128977 -0.029652 439636.000000 0 0 1
33.660539 0.600678 -13.632737 36.321401 0.017843 1.955556 0.129776 -0.037284 202790.000000 0 0 1
34.661139 0.001078 -12.812637 36.953460 0.000031 1.924872 0.146510 -0.037643 728770.000000 0 0 1
34.264039 0.041578 -11.407637 36.113159 0.001213 1.892187 0.147256 -0.028017 21788.500000 0 0 1
34.366139 1.386578 -10.605837 35.992192 0.040325 1.869907 0.140763 -0.036131 167491.000000 0 0 1
33.414339 2.330878 -11.101937 35.287448 0.069644 1.890847 0.136191 -0.025089 638172.000000 0 0 1
33.654839 3.623078 -10.592537 35.467967 0.107241 1.874075 0.129455 -0.026725 -413083.000000 0 0 1
32.503639 4.529878 -10.989737 34.608968 0.138473 1.893931 0.120743 -0.030575 -588586.000000 0 0 1
32.496039 4.781778 -12.364237 35.096044 0.146101 1.930821 0.121504 -0.030512 920321.000000 0 0 1
31.443839 5.689578 -12.744537 34.402173 0.179007 1.950298 0.130232 -0.038708 414689.000000 0 0 1
31.824339 6.455078 -14.031837 35.374412 0.200120 1.978679 0.095269 -0.036090 -270407.000000 0 0 1
31.898839 5.530578 -15.116237 35.729873 0.171672 2.007627 0.087516 -0.024495 168890.000000 0 0 1
32.184939 6.159978 -16.377037 36.633631 0.189106 2.034260 0.083327 -0.024134 -533858.000000 0 0 1
31.149139 7.099078 -17.108237 36.240275 0.224079 2.062443 0.085196 -0.023197 991711.000000 0 0 1
29.854139 6.669878 -17.521737 35.252917 0.219806 2.090968 0.059012 -0.013573 854367.000000 0 0 1
29.011339 6.099278 -16.538037 33.946511 0.207220 2.079653 0.047135 -0.005999 -1451090.000000 0 0 1
27.593439 5.903178 -17.045037 32.966326 0.210757 2.114190 0.027031 0.007296 -751508.000000 0 0 1
27.504539 4.922878 -18.083237 33.282696 0.177109 2.145186 0.034556 -0.003260 724470.000000 0 0 1
26.344639 5.111578 -18.910337 32.829393 0.191646 2.184646 0.024269 -0.005610 474662.000000 0 0 1
26.029639 3.950778 -19.929337 33.020133 0.150630 2.218744 0.026846 0.013604 80446.500000 0 0 1
25.232339 2.936278 -19.324037 31.917253 0.115849 2.221117 0.043363 -0.000176 160322.000000 0 0 1
24.881739 1.927178 -20.198537 32.106009 0.077299 2.251217 0.035764 -0.003643 -934130.000000 0 0 1
23.918739 0.953678 -19.562837 30.914724 0.039850 2.255960 0.031278 -0.009297 -917834.000000 0 0 1
22.709439 1.622678 -19.417037 29.922784 0.071333 2.276940 0.038402 -0.014391 -453421.000000 0 0 1
21.719339 0.830478 -18.780237 28.724844 0.038218 2.283389 0.045856 -0.015095 -326870.000000 0 0 1
20.416839 1.520378 -18.398437 27.525648 0.074330 2.302866 0.051137 -0.024092 -1611450.000000 0 0 1
19.767739 1.856578 -19.589837 27.892151 0.093645 2.349479 0.052683 -0.023968 300899.000000 0 0 1
18.698939 2.794978 -19.432637 27.112535 0.148374 2.369912 0.051360 -0.018998 854667.000000 0 0 1
17.412339 2.350178 -18.672937 25.639646 0.134161 2.386610 0.078843 -0.030112 -988096.000000 0 0 1
17.588839 2.140578 -17.246537 24.726349 0.121105 2.342694 0.085722 -0.034957 420961.000000 0 1 0
16.337139 1.938278 -16.585437 23.360987 0.118090 2.360242 0.057777 -0.023740 199575.000000 0 1 0
15.486639 3.171278 -16.396637 22.775923 0.201983 2.374470 0.068655 -0.022260 -356496.000000 0 1 0
14.826139 3.731678 -17.553637 23.278101 0.246574 2.425054 0.065128 -0.016030 561427.000000 0 1 0
13.746039 4.542878 -17.113637 22.415795 0.319186 2.439455 0.073932 -0.026126 145103.000000 0 1 0
-20.613761 -21.715322 -17.306837 34.583362 0.811416 2.094901 0.073843 -0.017361 3902.290000 0 0 1
-20.508161 -22.556522 -18.391637 35.603843 0.832927 2.113629 0.081391 -0.020376 385646.000000 0 0 1
-21.550461 -22.322422 -19.324537 36.553394 0.802992 2.127825 0.078660 -0.016692 146773.000000 0 0 1
-21.125961 -22.926222 -20.673037 37.407116 0.826242 2.156337 0.072989 -0.011508 9221.170000 0 0 1
-21.205761 -24.341722 -20.725937 38.363631 0.854140 2.141530 0.071544 -0.011416 331095.000000 0 0 1
-20.536361 -24.933222 -21.845937 38.995546 0.881797 2.165443 0.072396 -0.014043 155837.000000 0 0 1
-20.148861 -26.448322 -21.672037 39.688380 0.919773 2.148444 0.071389 -0.004147 412965.000000 0 0 1
-21.317761 -27.259442 -21.657437 40.823629 0.907108 2.130001 0.075392 0.007076 450302.000000 0 0 1
-20.934561 -28.607842 -21.523137 41.471796 0.939060 2.116456 0.087857 -0.007383 96294.100000 0 0 1
-22.161161 -29.553872 -21.566337 42.774470 0.927387 2.099237 0.078318 -0.003503 107094.000000 0 0 1
-22.883061 -29.440232 -22.771737 43.691117 0.910069 2.119051 0.065031 0.001371 -136846.000000 0 0 1
-22.369461 -30.111842 -23.895237 44.475815 0.931868 2.137986 0.061537 -0.004422 -462883.000000 0 0 1
-22.859161 -29.574262 -25.263407 45.115606 0.912774 2.165146 0.051073 0.001808 -89860.400000 0 0 1
-24.213961 -29.903772 -25.476097 46.147405 0.890151 2.155628 0.041366 0.005564 472234.000000 0 0 1
-24.911361 -29.120042 -26.488057 46.585082 0.863134 2.175594 0.036729 0.008581 345193.000000 0 0 1
-24.515561 -29.370912 -28.000907 47.410062 0.875259 2.202612 0.046524 -0.003533 -235325.000000 0 0 1
-24.814761 -30.668712 -28.535987 48.689268 0.890517 2.197013 0.020879 0.007340 24952.600000 0 0 1
-24.237261 -30.706312 -29.798867 49.176162 0.902598 2.221770 0.055494 -0.001925 -291375.000000 0 0 1
-24.623261 -31.895812 -30.687807 50.649672 0.913369 2.221672 0.034412 -0.004504 -137089.000000 0 0 1
-24.054061 -33.134392 -30.330557 50.955161 0.942863 2.208361 0.026939 -0.014355 118010.000000 0 0 1
-24.842261 33.970747 -30.886807 52.202916 -0.939382 2.203923 0.037354 -0.013841 -34905.500000 0 0 1
-24.150761 32.591070 -30.833827 50.952547 -0.933065 2.220748 0.051771 -0.014239 -709354.000000 0 0 1
-23.030461 32.678815 -31.622767 50.973586 -0.956888 2.240018 0.037485 -0.022318 -632081.000000 0 0 1
-22.356661 31.402482 -31.680907 49.896052 -0.952102 2.258725 0.038193 -0.017365 596710.000000 0 0 1
-21.107361 31.279302 -32.615827 49.876925 -0.977182 2.283559 0.039743 -0.013118 251145.000000 0 0 1
-21.371961 30.963172 -33.985937 50.700322 -0.966652 2.305449 0.028260 -0.011505 163572.000000 0 0 1
-21.127661 29.580752 33.749713 49.602844 -0.950579 0.822490 0.017327 -0.002583 -155364.000000 0 0 1
-21.295561 29.393002 32.242332 48.549125 -0.943809 0.844483 0.022338 -0.009160 -168110.000000 0 0 1
-20.383261 30.093922 31.423168 48.047237 -0.975454 0.857929 0.023497 -0.003531 351266.000000 0 0 1
-20.661461 29.942362 30.008598 47.158849 -0.966785 0.881065 0.037695 -0.003341 -166763.000000 0 0 1
-20.096261 31.161312 29.266338 47.237757 -0.998007 0.902622 0.020027 -0.013915 -173331.000000 0 0 1
-20.946961 32.285005 29.360758 48.406104 -0.995255 0.919081 0.038042 -0.023291 593072.000000 0 0 1
-20.283361 33.527032 28.977258 48.735594 -1.026719 0.934052 0.022451 -0.025438 175081.000000 0 0 1
-21.246561 -33.407162 28.964098 49.054804 1.004334 0.939188 0.035437 -0.030440 -4462.600000 0 0 1
-21.743361 -33.184452 30.268708 49.901666 0.990755 0.919061 0.026072 -0.020169 260052.000000 0 0 1
-22.732161 -32.148642 30.366278 49.723206 0.955324 0.913844 0.057616 -0.026424 242685.000000 0 0 1
-22.267061 -30.682022 30.135498 48.428883 0.943006 0.899166 0.040977 -0.015255 -724022.000000 0 0 1
-21.951161 -30.438142 28.762778 47.282464 0.946001 0.916857 0.051589 -0.011650 -172369.000000 0 0 1
-22.048861 -29.120902 28.337098 46.229540 0.922736 0.910988 0.052264 -0.017629 -14227.100000 0 0 1
-23.461061 -28.558992 28.054488 46.401419 0.883086 0.921528 0.052287 -0.019355 -364404.000000 0 0 1
-24.412661 -28.565932 29.136628 47.549276 0.863633 0.911239 0.049935 -0.016217 1310460.000000 0 0 1
-25.423981 -29.617652 29.053808 48.659099 0.861442 0.930929 0.057602 -0.021153 563235.000000 0 0 1
-26.457461 -29.600042 27.860468 48.501190 0.841399 0.958890 0.042671 -0.015901 -410991.000000 0 0 1
-25.953671 -29.568852 26.538688 47.457476 0.850418 0.977364 0.053852 -0.018561 79305.500000 0 0 1
-27.024811 -29.719092 25.593558 47.629771 0.832844 1.003512 0.060563 -0.017064 300262.000000 0 0 1
-26.649951 -29.951592 24.172248 46.814692 0.843663 1.028226 0.058153 -0.021245 -410132.000000 0 0 1
-26.051771 -28.890482 23.437778 45.416783 0.837019 1.028552 0.041002 -0.016055 416482.000000 0 0 1
-25.554461 -29.143672 22.107098 44.621832 0.850923 1.052464 0.058349 -0.017175 48589.600000 0 0 1
-24.329261 -30.055022 21.916398 44.447113 0.890295 1.055159 0.052390 -0.024536 -688662.000000 0 0 1
-24.594261 -31.460272 21.985798 45.585104 0.907279 1.067515 0.061191 -0.029749 326108.000000 0 0 1
-23.477461 -32.281742 21.645998 45.407613 0.942003 1.073895 0.065435 -0.022155 286512.000000 0 0 1
-22.656861 -32.720032 22.903198 45.918301 0.965158 1.048604 0.062768 -0.020989 -30024.500000 0 0 1
-22.006261 -31.748392 23.683178 45.311465 0.964685 1.020810 0.071116 -0.028331 42163.400000 0 0 1
-21.270461 -32.408982 24.707678 45.970034 0.989995 1.003358 0.059671 -0.036483 -194763.000000 0 0 1
-20.371561 -31.445582 25.540298 45.344591 0.995944 0.972484 0.059196 -0.023344 -755805.000000 0 0 1
-19.201161 -31.114262 24.846238 44.205401 1.017885 0.973918 0.061451 -0.026233 -949.341000 0 0 1
-18.199861 -30.480192 25.631078 43.786176 1.032509 0.945461 0.075401 -0.027432 686192.000000 0 0 1
-17.397661 -31.398502 26.667498 44.718005 1.064817 0.931852 0.048139 -0.026109 -295310.000000 0 0 1
-18.133361 -31.702562 27.813058 45.906834 1.051232 0.919951 0.040763 -0.015174 213438.000000 0 0 1
-17.245661 -32.196352 28.799168 46.512471 1.079045 0.903110 0.048152 -0.011904 -54596.000000 0 0 1
-17.570061 -31.735172 30.179428 47.187139 1.065158 0.876859 0.066245 -0.012195 -107490.000000 0 0 1
-17.404361 -30.382242 30.235068 46.261774 1.050582 0.858511 0.066351 -0.010003 140044.000000 0 0 1
-17.841361 -29.849602 31.440038 46.880581 1.032063 0.835724 0.069294 -0.009816 -185780.000000 0 0 1
-17.625361 -28.312492 31.481408 45.862072 1.013976 0.814219 0.084423 -0.014179 -53233.900000 0 0 1
-18.413761 -27.483442 30.648088 45.096691 0.980493 0.823568 0.085421 -0.012344 -119163.000000 0 0 1
-18.406861 -27.661952 29.211218 44.241286 0.983656 0.849617 0.082765 -0.010312 488591.000000 0 0 1
-17.049461 -27.405682 28.451638 43.026169 1.014275 0.848294 0.080693 -0.009306 729704.000000 0 0 1
-16.830861 -25.994512 28.282988 41.939480 0.996196 0.830677 0.074124 -0.002627 408812.000000 0 0 1
-15.588961 -25.685542 27.637668 40.824055 1.025307 0.827125 0.065792 -0.002170 670760.000000 0 0 1
-15.628161 -24.282022 26.898698 39.463857 0.998926 0.820845 0.062497 0.010621 564974.000000 0 0 1
-16.683061 -24.200522 25.899778 39.176374 0.967242 0.848503 0.076731 0.004053 584242.000000 0 0 1
-16.514361 -23.151222 25.047138 37.895413 0.951183 0.848707 0.061123 0.005055 2364.600000 0 0 1
-17.141861 -21.789222 25.594628 37.731931 0.904210 0.825312 0.072964 0.003718 -123961.000000 0 0 1
-17.008061 -20.747422 24.659398 36.439204 0.884118 0.827488 0.061472 0.002442 -61301.100000 0 0 1
-17.681861 -19.594422 25.081668 36.409884 0.836661 0.810868 0.068176 0.009781 -317581.000000 0 0 1
-17.439761 -18.222722 24.384258 35.082829 0.807349 0.802309 0.056202 -0.003893 97841.700000 0 0 1
-16.076461 -17.857922 24.530968 34.338410 0.837847 0.775046 0.055278 -0.010231 28481.400000 0 0 1
-15.690861 -16.747622 23.708778 32.996850 0.817964 0.769129 0.047806 -0.008441 646711.000000 0 0 1
-14.205761 -16.347422 23.990698 32.320202 0.855380 0.734327 0.078611 -0.019225 124998.000000 0 0 1
-13.187561 -17.240422 23.569048 32.041285 0.917814 0.744268 0.062240 -0.016373 81408.700000 0 0 1
-11.884561 -16.738022 23.781438 31.415935 0.953368 0.712107 0.064361 -0.023955 -80400.100000 0 0 1
-11.434361 -15.791622 22.664298 29.896327 0.944093 0.710407 0.080871 -0.026112 -755349.000000 0 0 1
-11.016261 -16.400522 21.435698 29.151746 0.979316 0.744666 0.098896 -0.021851 -474878.000000 0 0 1
-9.709561 -16.906822 21.451298 28.987487 1.049489 0.737697 0.083672 -0.029659 -894407.000000 0 0 1
-9.270861 -17.910622 20.388898 28.678327 1.093154 0.779946 0.089468 -0.029972 -46958.000000 0 0 1
-9.030761 -17.451422 19.091298 27.396796 1.093263 0.799808 0.089834 -0.033136 -158732.000000 0 0 1
-8.834861 -18.574422 18.271598 27.512092 1.126821 0.844467 0.083218 -0.031313 182691.000000 0 0 1
-8.664161 -18.302522 16.782898 26.300488 1.128666 0.878741 0.082672 -0.038554 -19357.300000 0 0 1
-7.346961 -17.919322 16.471398 25.424140 1.181697 0.866019 0.092044 -0.039939 -287470.000000 0 0 1
-7.276861 -17.526822 15.119598 24.264057 1.177269 0.898061 0.112406 -0.044241 -252945.000000 0 1 0
-6.086361 -16.605222 14.950398 23.157970 1.219469 0.869010 0.085097 -0.037123 -376759.000000 0 1 0
-6.240661 -15.488522 15.742398 22.949145 1.187774 0.814862 0.094861 -0.042722 -772687.000000 0 1 0
-5.051761 -14.794522 15.824598 22.244462 1.241748 0.779315 0.063589 -0.017810 -878971.000000 0 1 0
-4.899561 -14.083322 17.185198 22.752510 1.235995 0.714669 0.028389 0.003683 -872886.000000 0 1 0
-4.692861 -14.839722 18.403198 24.102241 1.264511 0.702008 0.045781 0.011399 -655039.000000 0 1 0
-5.753061 -15.668622 18.911798 25.224186 1.218907 0.723114 0.086316 -0.025502 199370.000000 0 0 1
-7.010561 -14.815922 19.279598 25.305383 1.128836 0.704590 0.115102 -0.034644 -234045.000000 0 0 1
-6.836261 -13.984322 20.420798 25.676930 1.116107 0.651298 0.103670 -0.030362 607660.000000 0 0 1
-8.068961 -13.282122 20.691098 25.877489 1.024876 0.644202 0.103761 -0.023768 1146040.000000 0 0 1
-7.845461 -12.149122 21.742598 26.113081 0.997405 0.586952 0.089842 -0.014657 98806.600000 0 0 1
-7.170261 -10.969622 21.272798 24.985540 0.991862 0.552139 0.051891 -0.007317 125452.000000 0 1 0
-6.789861 -10.038822 22.268198 25.352570 0.976113 0.498416 0.039002 -0.010824 587573.000000 0 0 1
-5.366461 -10.313022 22.865098 25.650927 1.090995 0.470383 0.031601 -0.002427 528223.000000 0 0 1
-5.357161 -11.463722 23.686778 26.854787 1.133637 0.490639 0.057425 0.001088 -33699.900000 0 0 1
-4.114961 -11.434722 24.353428 27.217186 1.225360 0.462855 0.044618 0.004235 -534564.000000 0 0 1
-3.989661 -12.648122 25.283948 28.551190 1.265240 0.483086 0.056625 -0.006098 -68583.000000 0 0 1
-2.696661 -13.110622 25.641008 28.924413 1.367940 0.481107 0.041073 -0.006263 253089.000000 0 0 1
-2.780461 -14.177322 26.584128 30.256293 1.377134 0.497808 0.047257 -0.008579 65334.200000 0 0 1
-2.852761 -15.590622 26.041528 30.485520 1.389819 0.546736 0.057816 -0.024093 142577.000000 0 0 1
-1.612161 -16.110622 25.582418 30.275590 1.471060 0.564259 0.049021 -0.027427 66484.900000 0 0 1
-1.751061 -17.429722 25.004158 30.529811 1.470668 0.611116 0.065172 -0.029055 136528.000000 0 0 1
-0.363961 -18.166222 24.862758 30.794494 1.550764 0.631104 0.067473 -0.034026 1003920.000000 0 0 1
0.280639 -18.542622 26.062118 31.986585 -1.555663 0.618442 0.076089 -0.031924 74464.100000 0 0 1
0.724139 -17.482422 26.897548 32.087966 -1.529399 0.576741 0.075995 -0.032866 -472025.000000 0 0 1
1.456439 -17.846822 28.243788 33.441618 -1.489369 0.565035 0.069663 -0.028121 184846.000000 0 0 1
2.603139 -18.712522 28.162288 33.912377 -1.432571 0.590894 0.072097 -0.027602 540771.000000 0 0 1
3.312439 -18.801022 29.375468 35.033824 -1.396402 0.576292 0.069996 -0.037070 104191.000000 0 0 1
4.233439 -17.628222 29.712178 34.806461 -1.335108 0.547863 0.074260 -0.035410 -924186.000000 0 0 1
3.528839 -16.477322 30.116068 34.509889 -1.359820 0.510133 0.070546 -0.038726 -32968.500000 0 0 1
4.368739 -15.490222 30.704668 34.667124 -1.295904 0.482797 0.075509 -0.040484 -340902.000000 0 0 1
3.622739 -14.311622 31.308778 34.614828 -1.322871 0.440613 0.078936 -0.038026 43841.200000 0 0 1
2.915439 -14.787622 32.459427 35.788098 -1.376139 0.434717 0.067941 -0.042604 -206592.000000 0 0 1
1.965339 -13.889722 32.966129 35.826702 -1.430234 0.402319 0.066485 -0.036853 106203.000000 0 0 1
1.075039 -14.642222 33.963384 37.000836 -1.497507 0.408019 0.063752 -0.030494 598654.000000 0 0 1
1.914239 -14.851422 -32.944507 36.187975 -1.442610 2.714978 0.081153 -0.030580 232077.000000 0 0 1
1.204139 -15.513422 -31.944457 35.532584 -1.493332 2.688320 0.071523 -0.030930 241092.000000 0 0 1
1.939139 -15.613522 -30.542367 34.356637 -1.447233 2.665910 0.084182 -0.027651 -10129.200000 0 0 1
1.250539 -16.369122 -29.639067 33.881946 -1.494548 2.635767 0.084629 -0.028245 -349227.000000 0 0 1
1.889439 -16.304922 -28.376977 32.782209 -1.455429 2.617186 0.087822 -0.026778 34176.800000 0 0 1
1.488039 -17.472322 -27.477007 32.595739 -1.485836 2.573564 0.098184 -0.027733 71445.200000 0 0 1
2.140639 -18.688722 -27.837217 33.597043 -1.456752 2.547330 0.099590 -0.026792 154349.000000 0 0 1
1.623939 -19.741622 -27.087687 33.557586 -1.488721 2.510190 0.092443 -0.025543 -502366.000000 0 0 1
2.467139 -21.041522 -27.262117 34.526156 -1.454078 2.480966 0.089408 -0.029621 705462.000000 0 0 1
3.772439 -20.985422 -26.669177 34.144754 -1.392931 2.467161 0.079950 -0.029080 482752.000000 0 0 1
3.924639 -21.136022 -25.269107 33.176226 -1.387202 2.436672 0.081506 -0.024748 -298194.000000 0 0 1
5.430139 -21.372022 -24.896337 33.257741 -1.321984 2.416726 0.071965 -0.025368 578633.000000 0 0 1
5.962939 -22.650122 -25.058747 34.300517 -1.313374 2.389945 0.073455 -0.022033 -34902.100000 0 0 1
6.107839 -23.090022 -26.412577 35.610097 -1.312196 2.406421 0.066638 -0.020571 -964604.000000 0 0 1
5.402639 -24.402422 -26.777807 36.629464 -1.352913 2.390649 0.053346 -0.022026 -117053.000000 0 0 1
6.025539 -25.498992 -26.217667 37.065776 -1.338748 2.356508 0.065576 -0.015510 -201572.000000 0 0 1
5.276339 -26.644822 -26.502297 37.949414 -1.375301 2.343898 0.060021 -0.013544 -70880.600000 0 0 1
5.614639 -27.855142 -25.579987 38.233085 -1.371896 2.303731 0.067040 -0.016977 524753.000000 0 0 1
6.996339 -28.216302 -25.542097 38.697638 -1.327744 2.291672 0.087366 -0.023643 459035.000000 0 0 1
7.150139 -29.542132 -25.025477 39.371773 -1.333331 2.259607 0.087186 -0.028498 -1131360.000000 0 0 1
8.559239 -30.020462 -25.170707 40.100538 -1.293052 2.249379 0.087703 -0.030361 -1162940.000000 0 0 1
8.985539 -30.170142 -26.482877 41.137819 -1.281333 2.270198 0.088660 -0.030959 -931643.000000 0 0 1
10.330739 -30.449892 -26.630987 41.750803 -1.243712 2.262507 0.119140 -0.026799 -757785.000000 0 0 1
10.803239 -30.373112 -28.093447 42.760702 -1.229067 2.287618 0.112923 -0.036586 -91881.400000 0 0 1
10.449139 -31.471912 -28.885097 43.977432 -1.250233 2.287385 0.108825 -0.042585 1332.750000 0 0 1
10.549739 -31.050972 -30.258347 44.620930 -1.243277 2.315998 0.103528 -0.033440 -35729.700000 0 0 1
-35.197434 -4.923222 -5.755737 36.003139 0.138973 1.731353 0.166699 -0.043467 -163732.000000 0 0 1
-34.847249 -4.528722 -4.437437 35.419358 0.129235 1.696409 0.153823 -0.053630 165616.000000 0 0 1
-33.866781 -3.524522 -4.372537 34.329291 0.103697 1.698514 0.153612 -0.061110 -537236.000000 0 0 1
-34.131723 -2.070322 -4.962337 34.552649 0.060583 1.714911 0.201260 -0.045854 -435089.000000 0 0 1
-35.140477 -1.356322 -4.281237 35.426286 0.038578 1.691942 0.150110 -0.043791 121528.000000 0 0 1
-35.569325 -0.309322 -5.068737 35.929997 0.008696 1.712341 0.129574 -0.047660 -141095.000000 0 0 1
-36.725281 0.452178 -4.384837 36.988884 -0.012312 1.689620 0.156777 -0.044888 -20732.100000 0 0 1
-36.336851 1.278178 -3.343837 36.512761 -0.035161 1.662505 0.144234 -0.034508 395906.000000 0 0 1
36.238888 2.020678 -2.844937 36.406508 0.055702 1.649020 0.133743 -0.032675 -130753.000000 0 0 1
36.712928 3.123778 -1.868537 36.892933 0.084882 1.621466 0.111492 -0.035524 220959.000000 0 0 1
-36.206641 4.241778 -2.258437 36.524158 -0.116623 1.632670 0.142164 -0.048800 390693.000000 0 0 1
-34.921522 3.953578 -2.768437 35.253478 -0.112733 1.649407 0.118802 -0.029978 -614739.000000 0 0 1
-34.038831 5.201478 -2.948337 34.559949 -0.151637 1.656211 0.106330 -0.041413 -618961.000000 0 0 1
-33.422621 5.636378 -1.842437 33.944586 -0.167068 1.625101 0.116024 -0.043584 -119082.000000 0 0 1
-32.698621 6.828378 -2.041937 33.466343 -0.205869 1.631849 0.121012 -0.054572 -408373.000000 0 0 1
-32.163551 7.403578 -0.745937 33.013080 -0.226244 1.593393 0.119394 -0.052139 -289712.000000 0 0 1
-30.908861 6.874278 -0.320937 31.665698 -0.218843 1.580932 0.137479 -0.047017 604624.000000 0 0 1
-30.541881 7.307278 1.023063 31.420526 -0.234840 1.538230 0.141419 -0.040779 186454.000000 0 0 1
-30.325311 8.806478 1.363663 31.607565 -0.282627 1.527639 0.147961 -0.044245 -369061.000000 0 0 1
-31.564131 9.480378 1.417763 32.987604 -0.291781 1.527804 0.148800 -0.047438 -68249.200000 0 0 1
-31.475561 10.836778 1.721863 33.333340 -0.331581 1.519117 0.138126 -0.032540 639949.000000 0 0 1
-32.912071 11.466078 1.788263 34.898041 -0.335236 1.519531 0.129923 -0.040134 444242.000000 0 0 1
-33.538111 11.544378 0.504463 35.472976 -0.331513 1.556575 0.111813 -0.032732 292529.000000 0 0 1
-34.813268 12.133378 0.468563 36.870070 -0.335362 1.558087 0.102381 -0.018223 486656.000000 0 0 1
-36.048391 11.265578 0.865463 37.777623 -0.302896 1.547885 0.115404 -0.035490 246565.000000 0 0 1
-36.562781 10.415478 -0.180937 38.017784 -0.277515 1.575556 0.116051 -0.025917 -113489.000000 0 0 1
35.794108 10.069678 0.047163 37.183583 0.274234 1.569528 0.128971 -0.037033 -125409.000000 0 0 1
35.229488 8.960078 -0.871337 36.361505 0.249054 1.594762 0.120757 -0.046631 57944.800000 0 0 1
34.835628 9.386978 -2.138837 36.141541 0.263213 1.630010 0.125558 -0.042708 117537.000000 0 0 1
34.429168 8.320878 -2.972637 35.544918 0.237134 1.654525 0.110599 -0.046229 -654911.000000 0 0 1
33.966718 8.677178 -4.400437 35.332636 0.250112 1.695664 0.098105 -0.036514 62376.900000 0 0 1
32.628248 9.140078 -4.399537 34.168692 0.273127 1.699914 0.123704 -0.041444 164388.000000 0 0 1
32.238278 9.575178 -5.674837 34.105636 0.288714 1.737964 0.104427 -0.031129 -558659.000000 0 0 1
30.814838 10.125778 -5.726537 32.937499 0.317485 1.745545 0.131424 -0.034083 -66157.400000 0 0 1
29.798608 9.111778 -5.704437 31.678418 0.296750 1.751857 0.132552 -0.032182 832103.000000 0 0 1
28.543358 9.663678 -6.032437 30.732723 0.326448 1.768366 0.136080 -0.022740 -174840.000000 0 0 1
27.321558 8.755678 -6.251437 29.363411 0.310127 1.785337 0.159954 -0.023078 -211494.000000 0 0 1
27.440358 7.748578 -7.254737 29.421844 0.275213 1.819942 0.157879 -0.027616 486668.000000 0 0 1
26.338858 6.857878 -7.195437 28.152091 0.254716 1.829256 0.162926 -0.031408 88028.000000 0 0 1
26.444558 5.868478 -8.359437 28.348437 0.218377 1.870128 0.157870 -0.041741 -288038.000000 0 0 1
27.563058 5.035178 -8.306337 29.224483 0.180686 1.858995 0.155053 -0.040107 76339.200000 0 0 1
27.550058 4.062978 -9.335237 29.371076 0.146421 1.894244 0.140436 -0.037981 -352683.000000 0 0 1
28.592158 2.958978 -9.163737 30.170203 0.103122 1.879406 0.128093 -0.033559 -1169240.000000 0 0 1
29.940858 3.267778 -9.237437 31.503390 0.108711 1.868390 0.153490 -0.025983 -44795.800000 0 0 1
30.807138 2.717378 -8.241137 32.005941 0.087978 1.831218 0.135094 -0.036009 117246.000000 0 0 1
30.929448 1.208078 -8.094637 31.993958 0.039039 1.826582 0.137648 -0.035430 44100.700000 0 0 1
29.792488 0.635778 -7.372937 30.697830 0.021337 1.813345 0.161374 -0.039865 1309550.000000 0 0 1
29.883558 -0.744622 -7.145537 30.735000 -0.024912 1.805432 0.158651 -0.034282 -416881.000000 0 0 1
29.858928 -1.819022 -8.260537 31.033867 -0.060845 1.840222 0.147348 -0.026482 -440123.000000 0 0 1
31.001498 -1.902022 -9.076437 32.358805 -0.061276 1.855105 0.141224 -0.027360 -52384.400000 0 0 1
30.905248 -2.977022 -9.973837 32.610956 -0.096031 1.881620 0.119448 -0.035152 443353.000000 0 0 1
32.059258 -3.131922 -11.045437 34.052997 -0.097383 1.901132 0.121839 -0.040923 385458.000000 0 0 1
33.326078 -3.539622 -10.568537 35.140438 -0.105815 1.876277 0.146689 -0.031458 152773.000000 0 0 1
34.152348 -3.881822 -11.662637 36.296949 -0.113176 1.897911 0.139867 -0.049548 153995.000000 0 0 1
35.644138 -4.009822 -11.253037 37.592740 -0.112025 1.874798 0.156476 -0.040599 -36206.600000 0 0 1
35.929028 -5.107522 -10.386437 37.747317 -0.141210 1.849549 0.144366 -0.048209 -238133.000000 0 0 1
-36.427151 -5.323422 -10.053737 38.162204 0.145112 1.837391 0.153993 -0.039437 -419252.000000 0 0 1
-36.118071 -6.623022 -9.292037 37.877717 0.181357 1.818643 0.135572 -0.042969 -155361.000000 0 0 1
-36.600141 -6.564222 -7.935237 38.021406 0.177463 1.781046 0.149640 -0.041852 249986.000000 0 0 1
36.520588 -7.817222 -7.695637 38.132468 -0.210868 1.774005 0.134872 -0.029578 -335664.000000 0 0 1
36.159648 -8.096622 -6.176637 37.566292 -0.220280 1.735966 0.146097 -0.025157 107109.000000 0 0 1
-36.400971 -8.268422 -5.322037 37.705724 0.223358 1.712416 0.123916 -0.021982 595231.000000 0 0 1
-36.645951 -8.933022 -4.084337 37.939510 0.239102 1.678659 0.136943 -0.028619 -306657.000000 0 0 1
-36.801531 -10.461922 -4.117737 38.480648 0.276973 1.678010 0.130244 -0.032659 853368.000000 0 0 1
35.751548 -10.925222 -4.866637 37.699043 -0.296575 1.700249 0.109159 -0.035311 848587.000000 0 0 1
36.277608 -11.965622 -5.689937 38.621449 -0.318599 1.718660 0.096543 -0.032776 362553.000000 0 0 1
35.557978 -12.104822 -7.069337 38.221356 -0.328119 1.756825 0.093503 -0.028213 19557.000000 0 0 1
35.947918 -11.115122 -8.008837 38.469991 -0.299876 1.780514 0.138846 -0.030028 156201.000000 0 0 1
35.781668 -11.573822 -9.346737 38.751034 -0.312835 1.814398 0.123437 -0.017216 43202.600000 0 0 1
36.381118 -10.609722 -10.416537 39.302114 -0.283758 1.839039 0.109992 -0.020253 356038.000000 0 0 1
35.501478 -9.499222 -10.685237 38.272241 -0.261448 1.853747 0.113332 -0.023477 762629.000000 0 0 1
35.937098 -8.739622 -11.770937 38.812510 -0.238561 1.878926 0.113760 -0.027933 -362068.000000 0 0 1
34.765978 -7.931622 -12.331637 37.731328 -0.224304 1.903741 0.122447 -0.039156 -250206.000000 0 0 1
35.219468 -7.208522 -13.457937 38.386062 -0.201886 1.929002 0.127167 -0.037407 412746.000000 0 0 1
34.173508 -6.661122 -14.238937 37.615775 -0.192507 1.959011 0.122506 -0.041799 -230042.000000 0 0 1
34.630218 -5.746022 -15.374737 38.322987 -0.164427 1.983610 0.115045 -0.043300 -676105.000000 0 0 1
35.177068 -4.595622 -14.836837 38.453577 -0.129907 1.966912 0.114911 -0.036720 32163.500000 0 0 1
35.005208 -3.479922 -15.655237 38.504037 -0.099086 1.989511 0.141506 -0.046044 -429079.000000 0 0 1
36.085548 -2.416522 -15.488637 39.343414 -0.066867 1.975426 0.134345 -0.047238 508369.000000 0 0 1
-36.508991 -2.593722 -16.411737 40.112080 0.070924 1.992315 0.144616 -0.040941 182669.000000 0 0 1
-35.221109 -2.162522 -16.161437 38.812306 0.061321 2.000278 0.131216 -0.027493 -412260.000000 0 0 1
-34.975386 -0.616922 -15.996437 38.464844 0.017637 1.999697 0.120813 -0.011734 -563269.000000 0 0 1
-35.037781 0.156378 -17.137737 39.004777 -0.004463 2.025699 0.118230 -0.013344 81908.000000 0 0 1
-35.122203 1.531678 -16.878337 38.997351 -0.043582 2.018401 0.108118 -0.020316 -30465.300000 0 0 1
-35.579190 2.274878 -18.120837 39.992731 -0.063852 2.041040 0.106856 -0.021109 -320258.000000 0 0 1
-34.612697 2.423478 -19.111537 39.612661 -0.069903 2.074258 0.075848 -0.008574 -155193.000000 0 0 1
-34.807689 3.607578 -19.825537 40.219917 -0.103274 2.086249 0.069654 -0.009674 -167211.000000 0 0 1
-33.991861 3.804178 -21.150237 40.215058 -0.111451 2.124602 0.064627 -0.005331 -533480.000000 0 0 1
-32.639721 3.977278 -20.844637 38.931594 -0.121256 2.135798 0.065443 -0.013613 -308124.000000 0 0 1
-31.944331 4.405178 -22.025237 39.050697 -0.137037 2.170038 0.067671 -0.015785 -1049310.000000 0 0 1
-30.478571 4.653778 -21.836937 37.781646 -0.151520 2.187044 0.062138 -0.016956 -1469110.000000 0 0 1
-29.774551 3.627278 -21.294837 36.785202 -0.121227 2.188171 0.067753 -0.011829 -1273320.000000 0 0 1
-28.412651 3.835278 -21.311537 35.723517 -0.134174 2.210015 0.056199 -0.007195 -659708.000000 0 0 1
-27.576211 2.672278 -20.634937 34.545464 -0.096604 2.210960 0.084193 -0.014028 132742.000000 0 0 1
-27.305361 3.119178 -19.311337 33.589280 -0.113740 2.183310 0.060646 0.007080 109293.000000 0 0 1
-26.826421 2.046778 -18.463237 32.630312 -0.076150 2.172237 0.066898 -0.000574 -224953.000000 0 0 1
-26.100091 2.560178 -17.196237 31.360482 -0.097778 2.151175 0.071453 0.003763 54390.500000 0 0 1
-24.764561 2.927678 -17.501337 30.465580 -0.117674 2.182744 0.063098 -0.004885 -51347.900000 0 0 1
-24.189861 3.317278 -16.275237 29.343433 -0.136285 2.158735 0.083503 -0.012312 131212.000000 0 0 1
-22.934361 4.220078 -16.451837 28.538692 -0.181971 2.185204 0.109935 -0.019607 377492.000000 0 0 1
-21.794161 3.636678 -17.052137 27.910325 -0.165341 2.228071 0.138248 -0.031374 675547.000000 0 0 1
-20.731861 4.621078 -17.082237 27.257425 -0.219312 2.248108 0.132546 -0.031635 405758.000000 0 0 1
-19.431161 4.068878 -17.691037 26.591325 -0.206417 2.298683 0.173334 -0.040150 -227198.000000 0 0 1
-19.018261 2.934778 -16.949037 25.643265 -0.153106 2.292887 0.196487 -0.029844 -115836.000000 0 0 1
-17.899961 2.267678 -17.492537 25.130456 -0.126015 2.340704 0.143746 -0.027584 -668139.000000 0 0 1
-17.790261 0.774478 -16.985337 24.608837 -0.043506 2.332580 0.149071 -0.027937 223568.000000 0 1 0
-18.742861 -0.131622 -17.511237 25.650645 0.007022 2.322223 0.124210 -0.028844 1020870.000000 0 0 1
-20.123561 0.190878 -17.221537 26.487270 -0.009485 2.278620 0.139909 -0.038005 512229.000000 0 0 1
-21.094761 -0.944622 -17.649737 27.520801 0.044750 2.267018 0.120047 -0.039596 -133172.000000 0 0 1
-20.892661 -2.077022 -16.898037 26.951085 0.099088 2.248479 0.107276 -0.031829 209982.000000 0 0 1
-21.581161 -3.185522 -17.402337 27.905831 0.146548 2.244148 0.085885 -0.015116 -41863.500000 0 0 1
-22.022361 -4.171122 -16.237137 27.677197 0.187187 2.197726 0.104996 -0.020470 214411.000000 0 0 1
-22.870061 -3.594822 -15.240237 27.716913 0.155909 2.152985 0.097418 -0.025959 551175.000000 0 0 1
-23.600961 -4.590222 -14.550537 28.103267 0.192095 2.115018 0.116560 -0.035745 -85082.700000 0 0 1
-23.735661 -4.268022 -13.016837 27.405030 0.177913 2.065737 0.112415 -0.039344 -512681.000000 0 0 1
-24.545561 -3.199722 -12.708937 27.825166 0.129628 2.045126 0.087566 -0.036808 46712.500000 0 0 1
-24.811761 -2.993522 -11.327137 27.438817 0.120069 1.996338 0.121183 -0.048957 -99587.500000 0 0 1
-25.385221 -1.550522 -11.098637 27.748753 0.061004 1.982279 0.129245 -0.043766 -117430.000000 0 0 1
-25.795821 -1.273522 -9.781437 27.617436 0.049329 1.932829 0.129122 -0.050144 330679.000000 0 0 1
-26.435461 -0.052922 -9.771537 28.183672 0.002002 1.924857 0.134426 -0.048885 -776587.000000 0 0 1
-26.636031 0.442478 -8.330437 27.911828 -0.016610 1.873870 0.137971 -0.043077 -1255440.000000 0 0 1
-25.450291 0.697278 -7.714437 26.602933 -0.027391 1.865007 0.125729 -0.041383 -509245.000000 0 0 1
-25.737821 0.929978 -6.338037 26.523028 -0.036117 1.812095 0.125731 -0.042762 -454153.000000 0 0 1
-24.475961 1.178978 -5.533537 25.121359 -0.048132 1.792890 0.085781 -0.031713 -688186.000000 0 0 1
-24.150761 2.543178 -5.657437 24.934587 -0.104918 1.799681 0.111319 -0.035968 743283.000000 0 1 0
-22.798961 2.808978 -5.286737 23.571860 -0.122589 1.797002 0.092019 -0.018804 337636.000000 0 1 0
-22.418661 4.329578 -5.287137 23.437053 -0.190775 1.798344 0.109974 -0.025367 -53102.300000 0 1 0
-23.074061 5.131278 -4.276437 24.021454 -0.218822 1.749776 0.120448 -0.028380 912547.000000 0 1 0
-22.811561 6.484478 -4.548337 24.147529 -0.276957 1.760284 0.129509 -0.028350 -644034.000000 0 1 0
-23.175261 7.586278 -3.477437 24.632030 -0.316350 1.712445 0.110725 -0.022798 -351683.000000 0 1 0
-22.448061 7.662578 -2.258237 23.827089 -0.328945 1.665715 0.097334 -0.024157 1355980.000000 0 1 0
-21.032861 7.915278 -2.338837 22.594314 -0.359935 1.674496 0.105721 -0.023596 700999.000000 0 1 0
-20.666261 9.404778 -2.541137 22.847354 -0.427069 1.682249 0.105841 -0.021689 -549410.000000 0 1 0
-20.510561 9.744278 -3.915037 23.042604 -0.443518 1.741529 0.084679 -0.019826 678858.000000 0 1 0
-19.952061 11.054778 -3.999237 23.157866 -0.505960 1.744361 0.093259 -0.017785 -34367.900000 0 1 0
-19.984061 11.474378 -5.465337 23.683200 -0.521215 1.803664 0.104981 -0.025591 760787.000000 0 1 0
-18.858361 10.945578 -6.217837 22.673883 -0.525890 1.848584 0.077504 -0.024347 1082930.000000 0 1 0
-18.952961 11.464178 -7.536137 23.397339 -0.543997 1.898737 0.089693 -0.020312 404760.000000 0 1 0
-17.618161 11.220178 -8.297537 22.475345 -0.567077 1.948927 0.075546 -0.010420 138855.000000 0 1 0
-17.242361 9.900278 -8.674437 21.692404 -0.521220 1.982186 0.065030 -0.005659 60958.900000 0 1 0
-18.031861 9.125778 -9.552037 22.353283 -0.468509 2.012324 0.069768 -0.008765 -222717.000000 0 1 0
-18.187961 9.613478 -11.021437 23.338658 -0.486236 2.062626 0.087784 -0.005899 134522.000000 0 1 0
-16.969861 9.469478 -11.722137 22.694838 -0.508978 2.113568 0.081742 -0.004574 38623.500000 0 1 0
-16.902761 10.294578 -12.900037 23.623984 -0.547045 2.148446 0.079273 -0.009671 -405426.000000 0 1 0
-15.779261 9.981878 -13.863137 23.255312 -0.564042 2.209466 0.053537 -0.004993 -688462.000000 0 1 0
-15.885161 8.713878 -14.527337 23.223125 -0.501733 2.246639 0.077526 -0.020563 183351.000000 0 1 0
-15.629861 7.507878 -13.798837 22.160070 -0.447808 2.242971 0.076288 -0.015378 -317566.000000 0 1 0
-15.874961 6.303478 -14.710937 22.542402 -0.377978 2.281793 0.100142 -0.014932 -111882.000000 0 1 0
-15.010261 6.205278 -15.816237 22.670835 -0.392007 2.342904 0.116271 -0.015410 180175.000000 0 1 0
-14.863961 4.890678 -16.335637 22.620988 -0.317872 2.377695 0.100621 -0.021593 109082.000000 0 1 0
32.729798 -16.326822 27.828388 45.958938 -0.462716 0.920395 0.046896 0.001222 -198367.000000 0 0 1
32.327138 -15.006622 28.120088 45.398039 -0.434609 0.902803 0.057517 -0.000505 298755.000000 0 0 1
31.249908 -14.737622 29.025018 45.124339 -0.440675 0.872096 0.071665 -0.015205 411094.000000 0 0 1
31.485438 -14.814122 30.579138 46.323587 -0.439776 0.849817 0.062560 -0.025651 131169.000000 0 0 1
32.310838 -13.776522 31.087518 46.906467 -0.403034 0.846304 0.045140 -0.023699 -16418.400000 0 0 1
32.167398 -13.601122 32.464373 47.682990 -0.400025 0.821891 0.030460 -0.024512 -8470.600000 0 0 1
32.900818 -12.377822 33.050360 48.249358 -0.359837 0.816205 0.035477 -0.024032 -23348.700000 0 0 1
32.737868 -12.196222 -33.628967 48.491476 -0.356614 2.337136 0.010921 -0.030738 4386.540000 0 0 1
32.481468 -10.869822 -33.317087 47.783125 -0.322932 2.342359 0.051824 -0.025825 -83778.900000 0 0 1
32.100968 -10.579022 -31.868017 46.453830 -0.318346 2.326794 0.047479 -0.022155 728492.000000 0 0 1
30.776538 -11.040522 -31.571977 45.451932 -0.344432 2.338693 0.100373 -0.025372 613828.000000 0 0 1
30.285318 -10.417122 -30.415587 44.168143 -0.331289 2.330397 0.069345 -0.014033 -98263.700000 0 0 1
29.124878 -11.099422 -29.674657 43.035345 -0.364106 2.331652 0.075190 -0.021357 -24882.400000 0 0 1
28.574158 -10.381222 -28.538747 41.697870 -0.348481 2.324601 0.059187 -0.010796 413073.000000 0 0 1
27.695458 -11.276722 -27.852647 40.865300 -0.386671 2.320705 0.090846 -0.017075 -71160.500000 0 0 1
27.169158 -10.736222 -26.495547 39.439113 -0.376329 2.307444 0.080356 -0.011814 -910437.000000 0 0 1
26.336358 -9.596822 -26.462217 38.548043 -0.349440 2.327425 0.069405 -0.014663 991384.000000 0 0 1
25.006858 -9.588522 -27.000717 38.030532 -0.366146 2.360259 0.080015 -0.017789 961536.000000 0 0 1
24.034858 -10.668922 -26.500227 37.333126 -0.417764 2.360055 0.084040 -0.008954 -1312390.000000 0 0 1
24.454358 -11.836022 -27.179817 38.429799 -0.450770 2.356410 0.079253 -0.014734 316316.000000 0 0 1
23.635458 -13.027022 -27.060777 38.218108 -0.503737 2.357546 0.084878 -0.027748 710579.000000 0 0 1
24.419458 -14.217322 -27.751287 39.605253 -0.527238 2.347170 0.076340 -0.014437 490031.000000 0 0 1
24.424358 -14.088422 -29.135257 40.544988 -0.523200 2.372570 0.086890 -0.021743 505056.000000 0 0 1
25.540758 -14.753122 -29.727907 41.877600 -0.523809 2.360119 0.077172 -0.017532 325364.000000 0 0 1
25.666258 -14.647522 -31.249277 43.009580 -0.518590 2.384106 0.103267 -0.026065 -17762.200000 0 0 1
24.563158 -15.398422 -31.753317 42.996898 -0.559958 2.401643 0.119730 -0.022879 379332.000000 0 0 1
24.578058 -15.785922 -33.128597 44.167637 -0.570927 2.418957 0.135911 -0.024849 -231342.000000 0 0 1
24.565958 -14.632422 33.924197 44.367164 -0.537206 0.700339 0.109856 -0.026383 624290.000000 0 0 1
23.424258 -13.755722 33.993551 43.514104 -0.530986 0.674198 0.113567 -0.026297 446863.000000 0 0 1
23.482958 -12.916822 32.891541 42.428140 -0.502882 0.683718 0.101486 -0.027720 -727607.000000 0 0 1
22.549058 -11.682622 32.925594 41.581708 -0.478021 0.656999 0.098129 -0.030241 411567.000000 0 0 1
21.165958 -11.921822 32.701727 40.737336 -0.512962 0.638911 0.081342 -0.022567 495615.000000 0 0 1
20.887858 -12.303622 31.368378 39.644128 -0.532316 0.657947 0.078109 -0.024048 -2109190.000000 0 0 1
19.410658 -12.557922 31.295598 38.908733 -0.574235 0.636243 0.072214 -0.016280 -925741.000000 0 0 1
18.547358 -11.445822 31.324238 38.160441 -0.552908 0.607888 0.045545 -0.019304 527605.000000 0 0 1
17.325258 -11.653422 32.030058 38.234689 -0.592117 0.577697 0.023565 -0.004934 80023.100000 0 0 1
16.520358 -10.443822 32.335366 37.783218 -0.563745 0.543676 0.029642 -0.000430 -396545.000000 0 0 1
15.791858 -9.994122 31.149668 36.325846 -0.564235 0.540392 0.050275 -0.007292 515637.000000 0 0 1
15.123958 -8.732122 31.215078 35.768215 -0.523614 0.510082 0.059185 -0.001898 323696.000000 0 0 1
14.010458 -8.446522 32.259952 36.170999 -0.542529 0.469326 0.061997 -0.002331 -813820.000000 0 0 1
13.122058 -9.522022 32.174618 36.028646 -0.627734 0.466765 0.063085 -0.010555 -118845.000000 0 0 1
12.057458 -9.562122 33.102366 36.504563 -0.670486 0.435164 0.058132 -0.006504 -210484.000000 0 0 1
10.757858 -8.863522 32.784103 35.624303 -0.689152 0.402017 0.064064 -0.006028 -885465.000000 0 0 1
11.011358 -7.462022 32.730740 35.330343 -0.595579 0.386006 0.070737 -0.008102 -296209.000000 0 0 1
9.920558 -6.809922 32.193126 34.368443 -0.601571 0.357696 0.076125 -0.007894 -460598.000000 0 0 1
10.316158 -5.340022 32.042448 34.083096 -0.477657 0.347793 0.081699 -0.006670 213318.000000 0 0 1
10.229858 -4.631522 33.254019 35.098872 -0.425135 0.325664 0.068695 -0.014315 211989.000000 0 0 1
10.644258 -3.277922 33.057465 34.883248 -0.298736 0.324970 0.057133 -0.015108 -249943.000000 0 0 1
10.381858 -2.357122 -33.816117 35.452345 -0.223258 2.836593 0.049535 -0.006692 -957262.000000 0 0 1
9.073358 -2.050622 -33.496817 34.764459 -0.222271 2.870714 0.053928 0.000953 -963098.000000 0 0 1
8.935858 -1.416222 -32.254147 33.499033 -0.157180 2.868117 0.053402 0.006332 334541.000000 0 0 1
7.440758 -1.158322 -31.910907 32.787384 -0.154433 2.909851 0.046601 0.003842 316972.000000 0 0 1
6.852458 -0.064822 -32.603197 33.315594 -0.009459 2.934421 0.061719 0.003565 -5831.100000 0 0 1
5.524058 0.116478 -32.160277 32.631460 0.021082 2.971449 0.064601 0.002014 -280677.000000 0 0 1
4.775658 1.132278 -32.962227 33.325626 0.232795 2.993779 0.071139 -0.002948 -391233.000000 0 0 1
5.405858 2.414078 -32.932177 33.460115 0.419995 2.963717 0.054334 -0.010331 177941.000000 0 0 1
4.877358 3.330378 -33.906677 34.417187 0.599105 2.969141 0.064073 -0.011829 209913.000000 0 0 1
5.769958 4.574278 -34.013035 34.800905 0.670320 2.928401 0.058824 -0.014697 -217027.000000 0 0 1
5.187358 5.479978 33.126880 33.975418 0.812823 0.223963 0.083246 -0.035250 -203271.000000 0 0 1
5.873258 6.705778 32.906719 34.092738 0.851485 0.264543 0.079929 -0.036447 -678648.000000 0 0 1
5.392158 7.609478 31.825428 33.163797 0.954315 0.285064 0.092576 -0.034758 -697752.000000 0 0 1
4.358158 8.428278 32.329883 33.693482 1.093572 0.285470 0.101306 -0.031104 -123752.000000 0 0 1
3.971058 9.483078 31.485898 33.121894 1.174230 0.315611 0.108043 -0.044693 33970.300000 0 0 1
3.375358 9.283278 30.084798 31.664923 1.222061 0.317245 0.103175 -0.039735 -565187.000000 0 0 1
2.103858 8.735978 29.921688 31.241814 1.334470 0.291740 0.083635 -0.036352 -613641.000000 0 0 1
1.878858 8.333478 28.601678 29.850175 1.349045 0.290242 0.045750 -0.013850 -228751.000000 0 0 1
0.489758 7.737078 28.331408 29.372963 1.507581 0.267100 0.052720 -0.015302 -518275.000000 0 0 1
-0.525642 8.685978 28.426338 29.728424 -1.510354 0.297062 0.064664 -0.012366 -497471.000000 0 0 1
-1.604342 8.395578 27.525828 28.822402 -1.381979 0.301086 0.065799 -0.011731 250434.000000 0 0 1
-2.917542 8.580178 28.295018 29.710933 -1.243028 0.309967 0.068433 -0.013237 -596208.000000 0 0 1
-3.139142 9.984178 28.555778 30.413328 -1.266171 0.351309 0.076344 -0.009925 -364110.000000 0 0 1
-4.491042 10.140278 28.900648 30.955487 -1.153870 0.366410 0.070602 -0.004882 -292834.000000 0 0 1
-4.892042 11.464178 29.554258 32.075125 -1.167466 0.399109 0.056701 -0.007083 -73089.900000 0 0 1
-5.003342 12.634178 28.804028 31.848515 -1.193729 0.440808 0.050349 -0.010706 507245.000000 0 0 1
-6.179942 12.778178 27.989768 31.383127 -1.120328 0.469326 0.045651 -0.014007 608229.000000 0 0 1
-6.312242 14.204178 27.340808 31.450324 -1.152615 0.516945 0.034120 -0.008914 75310.600000 0 0 1
-5.349342 14.377178 26.332058 30.474514 -1.214595 0.527500 0.034134 -0.007894 -119796.000000 0 0 1
-5.508242 15.656478 25.865238 30.732338 -1.232502 0.570503 0.029823 -0.010191 -660531.000000 0 0 1
-4.241642 16.287678 25.349788 30.428469 -1.316035 0.586118 0.041892 -0.011545 -705253.000000 0 0 1
-3.918942 15.830778 24.044258 29.053365 -1.328123 0.595997 0.027787 -0.010073 260792.000000 0 0 1
-2.866942 16.672278 23.545108 28.992350 -1.400503 0.623029 0.042059 -0.006877 440067.000000 0 0 1
-2.548042 16.517478 22.034998 27.656116 -1.417739 0.648899 0.031226 -0.007272 -122982.000000 0 0 1
-1.818042 15.362278 21.733998 26.677173 -1.453000 0.618578 0.034773 -0.006947 -282659.000000 0 0 1
-1.787842 15.193778 20.384698 25.486922 -1.453666 0.643818 0.022132 -0.005903 501247.000000 0 0 1
-1.142142 13.839978 19.857598 24.231667 -1.488458 0.610277 0.025354 -0.010960 577946.000000 0 1 0
-1.949842 12.694378 20.105898 23.857834 -1.418389 0.568447 0.023260 -0.008304 426408.000000 0 1 0
-1.241142 11.588778 19.520898 22.735560 -1.464104 0.538251 0.019330 -0.008198 2645.470000 0 1 0
-2.124442 10.372778 19.143998 21.876939 -1.368781 0.505202 0.017094 -0.012650 -114991.000000 0 1 0
-2.558642 9.540378 20.245098 22.526195 -1.308772 0.453918 0.041044 -0.021178 -117590.000000 0 1 0
-3.551842 10.000678 21.114898 23.631929 -1.229532 0.465738 0.048758 -0.015019 -1002930.000000 0 1 0
-4.994842 9.867678 20.672598 23.445166 -1.102215 0.491253 0.048967 -0.014427 -865122.000000 0 1 0
-5.608342 8.618978 20.882998 23.277455 -0.993931 0.457558 0.041675 -0.018936 771143.000000 0 1 0
-7.038942 8.690978 20.743998 23.566783 -0.890040 0.494467 0.051192 -0.017544 1054830.000000 0 1 0
-7.668042 7.292178 20.922798 23.446497 -0.760279 0.468241 0.053245 -0.015130 -115851.000000 0 1 0
-7.557242 6.748578 22.235398 24.434978 -0.728931 0.427555 0.043879 -0.010860 -29038.900000 0 1 0
-8.286342 5.562878 22.286298 24.419012 -0.591225 0.421046 0.051407 -0.012937 -44199.600000 0 1 0
-8.330342 4.898078 23.675398 25.571669 -0.531535 0.387531 0.051737 -0.012639 -75360.500000 0 0 1
-8.965242 5.606378 24.720228 26.886739 -0.558848 0.404191 0.028865 -0.009923 79421.500000 0 0 1
-9.153042 4.769078 25.879998 27.862099 -0.480336 0.379472 0.025386 -0.000175 163855.000000 0 0 1
-10.101842 5.469078 26.887678 29.238763 -0.496212 0.403760 0.027434 0.000739 483279.000000 0 0 1
-9.397842 6.599978 27.400468 29.709675 -0.612259 0.396873 0.022699 -0.004437 630092.000000 0 0 1
-10.222642 7.198178 28.383948 31.015556 -0.613500 0.414911 0.022668 0.002324 243902.000000 0 0 1
-9.413942 8.205078 29.228048 31.784028 -0.716894 0.403779 0.042803 -0.002278 182277.000000 0 0 1
-8.516342 7.597078 30.139968 32.228270 -0.728410 0.361965 0.058295 -0.003348 -28467.900000 0 0 1
-8.064642 8.536178 31.084138 33.228428 -0.813795 0.361215 0.070104 -0.009514 -813293.000000 0 0 1
-6.914042 8.070278 31.903128 33.626522 -0.862409 0.321543 0.103977 -0.016160 -828881.000000 0 0 1
-5.689542 7.860478 31.243168 32.715341 -0.944264 0.301135 0.102827 -0.017365 -267895.000000 0 0 1
-4.763042 7.318278 32.172654 33.336518 -0.993829 0.265019 0.112688 -0.017807 -459171.000000 0 0 1
-3.296342 7.562878 31.868338 32.918900 -1.159765 0.253317 0.081974 -0.014674 -596455.000000 0 0 1
-2.886942 8.909078 32.058007 33.397933 -1.257428 0.284222 0.077016 -0.017053 -1093150.000000 0 0 1
-1.499942 8.870778 32.073904 33.311798 -1.403293 0.273471 0.061597 -0.018499 -618064.000000 0 0 1
-0.896442 10.211278 31.587678 33.209264 -1.483231 0.313790 0.064444 -0.016207 24404.600000 0 0 1
-1.266142 11.231078 32.494366 34.403838 -1.458535 0.334732 0.070782 -0.029743 97277.900000 0 0 1
-1.499442 12.465278 31.812948 34.200806 -1.451082 0.375890 0.071684 -0.028033 -213902.000000 0 0 1
-1.700242 13.533778 32.889076 35.605411 -1.445822 0.393142 0.064524 -0.034006 -377526.000000 0 0 1
-0.535042 14.074578 33.447923 36.292473 -1.532800 0.398558 0.094483 -0.036951 -749124.000000 0 0 1
-0.764242 14.598878 -33.342547 36.406548 -1.518495 2.728389 0.094787 -0.038106 -131036.000000 0 0 1
0.557058 15.008378 -32.665217 35.952442 1.533697 2.710638 0.086262 -0.035440 -238731.000000 0 0 1
1.228458 15.960578 -33.399807 37.037768 1.493980 2.694660 0.098741 -0.036299 604784.000000 0 0 1
2.562258 16.274178 -32.969577 36.856574 1.414635 2.678191 0.112618 -0.036397 1019830.000000 0 0 1
3.412358 17.121278 -33.941197 38.167881 1.374069 2.666523 0.126613 -0.028898 140308.000000 0 0 1
3.022758 18.454178 -33.840237 38.663359 1.408440 2.636756 0.107752 -0.021140 232468.000000 0 0 1
3.920958 19.273978 33.456923 38.810126 1.370102 0.531462 0.083504 -0.007014 346428.000000 0 0 1
3.659458 20.791778 33.523796 39.617352 1.396576 0.562002 0.085460 -0.015449 -62503.400000 0 0 1
3.928958 21.414078 -33.303157 39.788185 1.389339 2.562594 0.106236 -0.036000 384470.000000 0 0 1
3.283858 22.707878 -33.190737 40.349181 1.427179 2.536743 0.094527 -0.035055 241547.000000 0 0 1
3.434758 23.365278 -31.836837 39.639853 1.424839 2.503364 0.098203 -0.039358 -39795.900000 0 0 1
2.987358 24.725578 -31.825207 40.411908 1.450559 2.477572 0.100630 -0.042600 359227.000000 0 0 1
2.994658 25.111078 -30.426667 39.564078 1.452100 2.448146 0.110847 -0.051575 -149988.000000 0 0 1
2.586258 26.560878 -30.240097 40.331531 1.473731 2.418538 0.109957 -0.053021 -253952.000000 0 0 1
3.637858 27.466178 -30.412897 41.140846 1.439114 2.402735 0.108676 -0.055503 257619.000000 0 0 1
3.168758 28.784278 -30.137867 41.795534 1.461151 2.376154 0.105083 -0.052894 -749150.000000 0 0 1
4.357058 29.682978 -29.882157 42.343907 1.425051 2.354209 0.118511 -0.063069 -307283.000000 0 0 1
5.059858 29.348178 -28.679087 41.344984 1.400067 2.337345 0.112003 -0.070890 314374.000000 0 0 1
5.831758 30.508378 -28.305287 42.023324 1.381922 2.309813 0.120158 -0.070423 -816385.000000 0 0 1
6.865958 30.228378 -27.219707 41.252983 1.347450 2.291381 0.125494 -0.067352 485959.000000 0 0 1
8.027758 29.492878 -27.733937 41.272824 1.305042 2.307657 0.121251 -0.062966 2315140.000000 0 0 1
9.291358 30.177678 -27.930347 42.155970 1.272118 2.295012 0.129606 -0.063992 987706.000000 0 0 1
9.244558 31.396978 -28.877087 43.647660 1.284447 2.293741 0.136662 -0.072055 -1332090.000000 0 0 1
8.664058 32.509978 -28.207177 43.904549 1.310345 2.268508 0.128524 -0.061696 118456.000000 0 0 1
8.746658 33.748878 -28.872217 45.266938 1.317207 2.262462 0.115345 -0.051395 -392839.000000 0 0 1
7.772958 33.996678 -30.038017 46.026899 1.346021 2.281832 0.085633 -0.037809 -52632.400000 0 0 1
7.968158 33.017578 -31.083187 46.041465 1.333993 2.311914 0.072059 -0.034130 -408300.000000 0 0 1
6.712858 32.464778 -31.336577 45.618037 1.366896 2.328058 0.047160 -0.024511 -465479.000000 0 0 1
6.598858 31.878278 -32.727647 46.161330 1.366678 2.358853 0.056061 -0.047386 -47183.100000 0 0 1
6.449558 32.865878 -33.763047 47.557397 1.377020 2.360214 0.054215 -0.031077 183435.000000 0 0 1
6.222958 32.244978 33.073081 46.607859 1.380150 0.781862 0.048463 -0.024091 -396523.000000 0 0 1
5.723058 33.099478 31.912578 46.332942 1.399584 0.811010 0.039036 -0.014948 -413629.000000 0 0 1
6.603558 34.002378 31.271748 46.665736 1.378975 0.836423 0.041657 -0.013838 -137627.000000 0 0 1
6.106358 -33.551156 30.064028 45.462221 -1.390765 0.848250 0.022795 -0.017890 -33854.400000 0 0 1
17.860739 -21.933022 29.599118 40.941070 -0.887378 0.762706 0.101937 -0.000522 -344243.000000 0 0 1
16.661739 -21.251122 29.178698 39.757014 -0.905863 0.746712 0.088818 0.006423 869282.000000 0 0 1
15.460939 -21.948922 29.441668 39.844794 -0.957120 0.739347 0.097980 0.006226 122743.000000 0 0 1
15.042739 -22.143822 30.921038 40.899186 -0.974085 0.713569 0.098083 -0.003841 -1150180.000000 0 0 1
15.836439 -23.130522 31.519248 42.181475 -0.970443 0.726913 0.123446 -0.017265 146382.000000 0 0 1
15.375539 -23.303922 32.855003 43.115324 -0.987574 0.704360 0.108151 -0.025204 399105.000000 0 0 1
16.254039 -24.251822 33.769173 44.639688 -0.980338 0.712877 0.134392 -0.034148 357852.000000 0 0 1
16.302339 -25.645272 33.434223 45.180676 -1.004550 0.737709 0.119555 -0.041015 -567830.000000 0 0 1
17.259339 -26.363492 -33.919647 46.297526 -0.991146 2.392996 0.118266 -0.040574 -553139.000000 0 0 1
17.090739 -27.890852 -34.014592 47.190946 -1.021038 2.375732 0.103872 -0.021843 42774.200000 0 0 1
17.450339 -28.447072 32.816307 46.804490 -1.020559 0.793807 0.091664 -0.021808 77839.600000 0 0 1
16.934539 -29.739592 32.620609 47.279235 -1.053160 0.809368 0.105304 -0.029316 -10140.100000 0 0 1
17.521039 -30.350432 31.329028 47.006846 -1.047242 0.841322 0.105503 -0.031655 287587.000000 0 0 1
18.771239 -30.995222 31.472988 47.995960 -1.026257 0.855631 0.097049 -0.034471 -129368.000000 0 0 1
19.274539 -31.473612 30.287748 47.743521 -1.021307 0.883584 0.062206 -0.025164 9396.570000 0 0 1
20.550339 -32.355812 30.477978 48.970625 -1.004941 0.899026 0.032261 -0.020626 867887.000000 0 0 1
21.671339 -31.526412 30.852688 49.147227 -0.968575 0.892123 0.029225 -0.026817 -201335.000000 0 0 1
22.850439 -32.251742 30.862798 50.148078 -0.954387 0.907861 0.024857 -0.022346 -526667.000000 0 0 1
24.071739 -31.325332 31.139788 50.303195 -0.915596 0.903274 0.022201 -0.033484 36140.200000 0 0 1
24.266239 -30.336932 30.170008 49.187490 -0.896122 0.910479 0.017103 -0.026292 -136332.000000 0 0 1
25.182339 -29.335102 30.559538 49.280663 -0.861424 0.901911 0.006906 -0.020421 275892.000000 0 0 1
26.360939 -29.189822 29.555198 49.198115 -0.836279 0.926372 0.020156 -0.014791 186660.000000 0 0 1
27.321539 -30.238832 29.695518 50.424966 -0.836037 0.941093 0.038674 -0.010647 -363490.000000 0 0 1
28.393639 -30.071442 28.808338 50.402487 -0.814088 0.962384 0.032873 -0.027553 340654.000000 0 0 1
29.600339 -30.983872 29.240478 51.876642 -0.808231 0.971993 0.048696 -0.012869 582445.000000 0 0 1
29.272339 -32.397492 29.040888 52.438921 -0.836030 0.983870 0.046940 -0.016874 284453.000000 0 0 1
30.409539 -33.206242 29.273078 53.705751 -0.829332 0.994331 0.066644 -0.020685 -430163.000000 0 0 1
29.958239 33.530128 29.653378 53.861753 0.841599 0.987778 0.046650 -0.013949 -203709.000000 0 0 1
29.340839 33.364365 30.929158 54.135742 0.849476 0.962676 0.042436 -0.008410 1109980.000000 0 0 1
28.168839 -34.004372 31.285238 54.116050 -0.878983 0.954381 0.016997 0.001375 905261.000000 0 0 1
26.830339 33.991179 30.484868 52.958423 0.902594 0.957412 0.025234 -0.002210 55209.400000 0 0 1
26.334639 32.674179 30.518048 51.888982 0.892421 0.942038 0.019410 -0.001770 186029.000000 0 0 1
24.964939 32.707726 30.119358 50.992345 0.918854 0.938914 -0.006014 -0.002072 463230.000000 0 0 1
24.278539 31.346452 30.271918 49.884232 0.911785 0.918713 0.002480 -0.011674 -629162.000000 0 0 1
24.797339 30.438302 29.253718 48.960987 0.887171 0.930429 0.015352 -0.018608 235176.000000 0 0 1
24.295339 29.161902 29.396118 48.008456 0.876184 0.911816 0.064286 -0.039487 -352704.000000 0 0 1
23.741439 28.626652 28.067148 46.592982 0.878415 0.924304 0.063057 -0.040247 -151772.000000 0 0 1
22.577239 29.271782 27.626488 46.149667 0.913804 0.929009 0.083535 -0.043064 -150084.000000 0 0 1
21.923039 28.741872 26.475268 44.806860 0.919181 0.938653 0.089417 -0.038332 871889.000000 0 0 1
20.597539 29.510052 26.123198 44.469352 0.961425 0.942901 0.112176 -0.035133 618638.000000 0 0 1
20.740139 30.886752 25.733488 45.236680 0.979462 0.965673 0.087947 -0.040951 592149.000000 0 0 1
19.444939 31.361902 25.324308 44.754834 1.015788 0.969338 0.101005 -0.040092 470445.000000 0 0 1
19.445839 32.782855 24.704058 45.421875 1.035413 0.995742 0.110652 -0.037392 -405248.000000 0 0 1
19.945539 32.726214 23.422798 44.916112 1.023445 1.022213 0.111845 -0.035039 145567.000000 0 0 1
21.293039 33.196343 23.455708 45.886392 1.000471 1.034252 0.085992 -0.027971 137026.000000 0 0 1
21.722839 33.373723 21.961698 45.475305 0.993791 1.066791 0.072123 -0.029475 -44057.300000 0 0 1
21.273139 -33.574912 21.305798 45.097208 -1.006035 1.078737 0.085291 -0.015034 60621.900000 0 0 1
21.998239 -33.398142 20.128998 44.772033 -0.988353 1.104492 0.091684 -0.019020 -109204.000000 0 0 1
21.782239 -32.023032 19.507898 43.364716 -0.973479 1.104192 0.082074 -0.012576 -300384.000000 0 0 1
22.406339 -30.922112 20.189798 43.195474 -0.943747 1.084443 0.075895 -0.004429 201110.000000 0 0 1
21.943539 -29.593192 19.855198 41.850983 -0.932753 1.076484 0.085952 -0.005639 -150961.000000 0 0 1
22.468039 -29.002042 18.510998 41.092436 -0.911670 1.103502 0.068990 -0.004964 12758.100000 0 0 1
22.034839 -29.745412 17.414298 40.909430 -0.933221 1.131084 0.063288 -0.012859 225363.000000 0 0 1
22.577739 -29.156792 16.213798 40.283496 -0.911889 1.156559 0.060841 -0.013585 22453.100000 0 0 1
22.041639 -29.696602 14.862798 39.857556 -0.932288 1.188666 0.067604 -0.020314 -330565.000000 0 0 1
22.473139 -30.977012 14.570798 40.950280 -0.943175 1.207008 0.067718 -0.018459 -76810.000000 0 0 1
22.575039 -31.325152 13.197298 40.805223 -0.946333 1.241453 0.070344 -0.021649 -4483.590000 0 0 1
21.313639 -31.482622 12.284498 39.954168 -0.975676 1.258269 0.076054 -0.016122 198297.000000 0 0 1
20.560139 -32.645102 12.570698 40.576402 -1.008747 1.255810 0.077423 -0.017403 327332.000000 0 0 1
19.278239 -32.730862 11.948698 39.821241 -1.038510 1.266042 0.057710 -0.012289 434434.000000 0 0 1
18.363339 -33.604012 12.845498 40.391195 -1.070673 1.247148 0.048342 -0.005075 -251576.000000 0 0 1
18.011339 -32.965972 14.067398 40.113032 -1.070751 1.212484 0.048354 -0.007718 366531.000000 0 0 1
18.813139 -33.391142 15.187398 41.225715 -1.057711 1.193513 0.041389 -0.012652 -415727.000000 0 0 1
18.544639 -32.529342 16.495198 40.916418 -1.052660 1.155847 0.048911 -0.013903 799947.000000 0 0 1
17.178739 -32.313822 16.898898 40.309613 -1.082172 1.138202 0.059414 -0.018295 691097.000000 0 0 1
16.458039 -33.424342 17.395098 41.117431 -1.113250 1.133978 0.058734 -0.014477 -345428.000000 0 0 1
16.986139 33.973179 18.710898 42.341511 1.107159 1.113076 0.059957 -0.027803 420387.000000 0 0 1
18.113039 33.108883 18.447498 42.007029 1.070202 1.116141 0.041088 -0.024432 521227.000000 0 0 1
18.381939 32.537487 19.689698 42.240596 1.056550 1.085883 0.050646 -0.028192 50423.300000 0 0 1
19.228439 31.266252 19.586498 41.604595 1.019427 1.080625 0.062244 -0.031029 -451279.000000 0 0 1
18.477239 30.150522 19.294098 40.283056 1.020994 1.071323 0.054502 -0.031388 -260945.000000 0 0 1
19.276839 29.093832 18.792998 39.638673 0.985632 1.076846 0.051031 -0.035744 -55974.500000 0 0 1
18.510339 27.786852 18.622198 38.229937 0.983148 1.062018 0.061450 -0.032692 -72103.400000 0 0 1
18.221339 27.074782 19.843398 38.194522 0.978422 1.024489 0.067141 -0.034110 110336.000000 0 0 1
17.631139 25.815742 19.570398 36.882382 0.971598 1.011469 0.073663 -0.036216 -267592.000000 0 0 1
17.327839 24.866882 20.760598 36.737151 0.962205 0.970228 0.080929 -0.031310 347220.000000 0 0 1
16.188339 25.255362 21.527498 36.923283 1.000784 0.948339 0.075475 -0.026084 1142020.000000 0 0 1
15.039539 24.436382 21.226998 35.691875 1.019089 0.933868 0.084056 -0.026456 1463870.000000 0 0 1
13.623239 24.819672 21.790998 35.727530 1.068807 0.914834 0.094602 -0.040051 695249.000000 0 0 1
12.976039 25.851542 21.120898 35.815809 1.105594 0.940098 0.103768 -0.039161 192072.000000 0 0 1
11.718339 26.147792 21.727298 35.959727 1.149475 0.922020 0.087789 -0.039635 234927.000000 0 0 1
11.148139 27.450302 21.079498 36.361317 1.185025 0.952407 0.079695 -0.044591 -70509.100000 0 0 1
11.856539 28.627402 21.403198 37.659030 1.178137 0.966307 0.081698 -0.042691 -95228.600000 0 0 1
11.437539 29.575742 20.451598 37.733403 1.201790 0.997978 0.083032 -0.047091 -98175.400000 0 0 1
11.843839 31.072802 20.625798 39.130795 1.206632 1.015613 0.085601 -0.048553 -159423.000000 0 0 1
11.284039 31.874872 21.675698 40.164324 1.230553 1.000745 0.074886 -0.048363 -341116.000000 0 0 1
11.459339 31.367872 22.949298 40.520737 1.220538 0.968715 0.071766 -0.041195 197192.000000 0 0 1
10.790739 32.189985 24.107978 41.639282 1.247348 0.953329 0.048533 -0.033706 177194.000000 0 0 1
9.390039 32.261591 24.152098 41.380031 1.287562 0.947561 0.038594 -0.033940 -513887.000000 0 0 1
9.073939 32.826371 25.395778 42.483557 1.301108 0.930069 0.046009 -0.021064 774194.000000 0 0 1
7.562739 32.713092 25.847868 42.372795 1.343604 0.914722 0.080650 -0.030674 1040390.000000 0 0 1
6.609539 33.472479 25.085818 42.348449 1.375842 0.936803 0.075300 -0.033720 455594.000000 0 0 1
6.065439 32.825177 23.927628 41.070832 1.388077 0.948879 0.075072 -0.036002 -14034.300000 0 0 1
5.015439 31.718592 24.139198 40.173681 1.413972 0.926206 0.072379 -0.042022 -555851.000000 0 0 1
5.561839 30.625882 24.799988 39.798469 1.391148 0.898046 0.044780 -0.024269 -286150.000000 0 0 1
4.793439 29.456242 24.666138 38.717769 1.409480 0.880098 0.042159 -0.024441 -513511.000000 0 0 1
5.698739 28.228632 25.054748 38.171609 1.371596 0.854798 0.037370 -0.015662 539154.000000 0 0 1
6.587339 27.764582 24.013458 37.294922 1.337847 0.871238 0.064971 -0.022464 489814.000000 0 0 1
7.712339 28.577492 23.810598 37.988127 1.307201 0.893369 0.068728 -0.027413 -830111.000000 0 0 1
8.973439 28.349052 24.656658 38.628256 1.264241 0.878500 0.041130 -0.028900 -743930.000000 0 0 1
8.868639 28.619082 26.060768 39.709801 1.270295 0.854918 0.036767 -0.020704 259010.000000 0 0 1
10.032539 28.363702 26.839398 40.317549 1.230820 0.842365 0.060749 -0.013264 445398.000000 0 0 1
11.165539 29.398372 26.879478 41.369553 1.207823 0.863553 0.065833 -0.019749 -130507.000000 0 0 1
10.747039 30.508522 27.553158 42.490532 1.232106 0.865244 0.059072 -0.024175 10649.800000 0 0 1
11.840439 31.370982 27.731178 43.512674 1.209894 0.879790 0.054702 -0.014441 -307496.000000 0 0 1
11.583239 32.481394 28.801518 44.930389 1.228244 0.874963 0.038987 -0.013995 -102528.000000 0 0 1
11.349939 31.997942 30.098878 45.372149 1.229933 0.845472 0.044405 -0.030589 709727.000000 0 0 1
10.075339 31.396832 30.365868 44.825880 1.260274 0.826549 0.053005 -0.035513 343780.000000 0 0 1
9.718739 31.281562 31.875848 45.706233 1.269565 0.799023 0.097375 -0.032874 -24537.600000 0 0 1
10.366639 30.129002 32.416065 45.453551 1.239410 0.776788 0.061689 -0.030188 202172.000000 0 0 1
10.540339 30.362512 33.822435 46.657668 1.236663 0.759898 0.098843 -0.035061 -242757.000000 0 0 1
10.738239 29.082522 -33.404087 45.573412 1.217091 2.393479 0.086661 -0.036171 -35323.300000 0 0 1
11.906939 28.336562 -33.712037 45.620581 1.173001 2.402330 0.096437 -0.029706 389087.000000 0 0 1
11.718539 26.951182 -33.346417 44.448553 1.160649 2.419199 0.099036 -0.037482 14372.800000 0 0 1
13.039939 26.195482 -33.582527 44.542445 1.108916 2.424842 0.092445 -0.032338 52594.000000 0 0 1
13.036239 24.819532 -33.272477 43.508739 1.087160 2.441420 0.068853 -0.038807 -358675.000000 0 0 1
13.365639 24.441972 -31.946227 42.386457 1.070389 2.424454 0.065819 -0.029802 -91664.900000 0 0 1
13.476639 22.896112 -31.816997 41.450851 1.038802 2.445859 0.048932 -0.042677 -1139370.000000 0 0 1
14.544739 22.344512 -32.466707 42.010876 0.993767 2.454064 0.037749 -0.025370 -789933.000000 0 0 1
14.438939 20.944612 -32.609447 41.358624 0.967229 2.479091 0.032245 -0.025077 -123267.000000 0 0 1
15.673539 20.282312 -33.294137 42.018229 0.912882 2.485487 0.049662 -0.032543 296094.000000 0 0 1
16.756039 20.249112 -32.392167 41.713833 0.879514 2.459941 0.057685 -0.032622 577061.000000 0 0 1
17.983739 19.785212 -32.985937 42.461059 0.833059 2.460446 0.063079 -0.033095 425675.000000 0 0 1
19.205639 19.865612 -32.079547 42.339065 0.802288 2.430550 0.053186 -0.022952 -479427.000000 0 0 1
19.713139 21.162912 -32.062397 43.179555 0.820851 2.407646 0.059039 -0.020411 281340.000000 0 0 1
20.812939 21.383412 -31.179357 43.157630 0.798917 2.378140 0.046439 -0.010331 671159.000000 0 0 1
20.280539 21.828512 -29.792627 42.135315 0.822143 2.356143 0.040178 -0.017315 243933.000000 0 0 1
19.659939 23.120582 -29.777167 42.517692 0.866115 2.346681 0.040317 -0.012169 25459.300000 0 0 1
19.375139 23.719552 -28.533437 41.858932 0.885870 2.320821 0.040750 -0.006085 -719301.000000 0 0 1
20.603639 24.140982 -27.720357 42.139235 0.864290 2.288727 0.037803 -0.008706 310320.000000 0 0 1
21.423839 25.170372 -28.314627 43.522943 0.865633 2.279128 0.041125 -0.007398 439018.000000 0 0 1
20.714039 26.425212 -28.387837 43.968540 0.905966 2.272657 0.038942 -0.007116 -264063.000000 0 0 1
21.562939 27.502332 -29.098907 45.476202 0.905863 2.265127 0.033450 -0.005383 -314336.000000 0 0 1
21.740339 27.460992 -30.520367 46.456875 0.901149 2.287577 0.041367 -0.001158 69915.200000 0 0 1
22.324839 26.318662 -31.154047 46.493495 0.867318 2.305104 0.036387 0.000164 282134.000000 0 0 1
23.741939 25.869692 -30.691697 46.635833 0.828260 2.289107 0.063009 -0.014917 -956965.000000 0 0 1
24.747439 26.698622 -31.107477 47.884520 0.823307 2.277901 0.064716 -0.009432 -1349730.000000 0 0 1
25.918339 26.183142 -30.532357 47.849159 0.790481 2.262819 0.071980 -0.021135 -317374.000000 0 0 1
27.175839 27.060502 -30.792847 49.183294 0.783272 2.247317 0.049604 -0.012048 -40160.800000 0 0 1
27.255939 28.187462 -29.954787 49.342765 0.802198 2.223172 0.035596 -0.002809 -232411.000000 0 0 1
28.275539 28.986072 -30.477547 50.681154 0.797806 2.215997 0.035374 -0.008689 -177402.000000 0 0 1
28.418539 30.207902 -29.689897 51.006085 0.815910 2.192087 0.020181 -0.001893 -110600.000000 0 0 1
29.021639 30.012342 -28.439247 50.515215 0.802179 2.168788 0.042065 -0.010284 225018.000000 0 0 1
28.675439 31.084512 -27.571027 50.484544 0.825689 2.148531 0.026819 -0.003205 -623085.000000 0 0 1
29.093639 30.836332 -26.125447 49.798174 0.814469 2.123073 0.039250 -0.005983 -165415.000000 0 0 1
28.638639 29.634422 -25.445227 48.433771 0.802485 2.123936 0.026379 -0.000439 113727.000000 0 0 1
27.237139 29.569592 -25.305047 47.503346 0.826435 2.132584 0.025108 -0.000588 -416834.000000 0 0 1
26.813939 29.032762 -23.954937 46.213933 0.825108 2.115715 0.028227 -0.002868 -224732.000000 0 0 1
27.073339 30.013312 -22.871937 46.442331 0.836853 2.085734 0.031034 0.003139 -77141.100000 0 0 1
25.985639 30.094162 -21.990437 45.436674 0.858530 2.075993 0.033155 0.006299 -38114.100000 0 0 1
3.170639 -26.499422 -19.471037 33.036246 -1.451713 2.201092 0.051625 -0.009884 -163717.000000 0 0 1
3.113239 -27.571242 -18.597337 33.402493 -1.458356 2.161282 0.051050 0.000064 237087.000000 0 0 1
3.331839 -27.242302 -17.283437 32.433954 -1.449097 2.132798 0.058774 -0.005096 -58526.500000 0 0 1
3.084539 -28.409252 -16.326537 32.911332 -1.462645 2.089870 0.047882 0.001824 292936.000000 0 0 1
4.232039 -29.243082 -16.194337 33.694577 -1.427075 2.072160 0.049822 0.000303 131564.000000 0 0 1
4.261939 -29.937912 -14.960337 33.738026 -1.429387 2.030214 0.044970 -0.001955 -21873.100000 0 0 1
5.667039 -30.444122 -14.600837 34.236593 -1.386757 2.011381 0.056420 -0.005297 121730.000000 0 0 1
6.668039 -29.433562 -14.401737 33.439607 -1.348011 2.016041 0.050740 -0.005270 -4391.910000 0 0 1
8.001039 -29.872312 -14.428837 34.125694 -1.309098 2.007345 0.053114 -0.003729 165141.000000 0 0 1
8.486139 -30.644412 -13.162637 34.414380 -1.300643 1.963270 0.049894 -0.008892 -880897.000000 0 0 1
8.750139 -29.891972 -12.029437 33.388655 -1.286027 1.939370 0.049211 -0.003460 -57556.900000 0 0 1
8.905239 -30.569792 -10.812637 33.626308 -1.287332 1.898165 0.058713 -0.000927 326304.000000 0 0 1
10.145539 -31.430402 -10.425537 34.633711 -1.258561 1.876561 0.055374 -0.003540 64527.900000 0 0 1
11.339139 -30.766772 -10.121537 34.316408 -1.217691 1.870197 0.048767 -0.000835 -173516.000000 0 0 1
12.346539 -31.706002 -9.794837 35.406869 -1.199455 1.851089 0.061376 -0.007018 117027.000000 0 0 1
13.437439 -31.124552 -8.865437 35.041382 -1.163238 1.826575 0.073340 -0.002426 -175983.000000 0 0 1
14.296139 -30.220322 -9.529837 34.762986 -1.128929 1.848489 0.076667 -0.006987 370330.000000 0 0 1
15.439539 -30.033622 -8.693537 34.870839 -1.095952 1.822761 0.080615 -0.010459 251747.000000 0 0 1
16.630339 -29.356722 -9.410137 35.027646 -1.055380 1.842786 0.100224 -0.019329 -63736.500000 0 0 1
16.493139 -27.985052 -9.719537 33.906580 -1.038241 1.861531 0.091575 -0.022721 -52706.300000 0 0 1
15.757939 -27.686622 -10.882537 33.664392 -1.053367 1.899975 0.088077 -0.020214 -424639.000000 0 0 1
15.370239 -26.206782 -10.927937 32.287141 -1.040364 1.916077 0.074633 -0.020374 -1270750.000000 0 0 1
14.364739 -25.913102 -10.026037 31.278683 -1.064625 1.897095 0.061826 -0.020442 -177037.000000 0 0 1
13.848839 -24.563222 -10.102937 29.953490 -1.057417 1.914830 0.056484 -0.025857 289104.000000 0 0 1
13.212539 -24.033922 -11.449137 29.720083 -1.068149 1.966256 0.045774 -0.012618 -76981.200000 0 0 1
14.102739 -23.697422 -12.502137 30.278020 -1.033975 1.996445 0.049058 -0.024905 -43849.700000 0 0 1
13.421639 -23.843422 -13.733337 30.614599 -1.058097 2.035981 0.057822 -0.029593 237398.000000 0 0 1
14.189139 -23.249522 -14.932237 31.061932 -1.022839 2.072277 0.057529 -0.031947 675211.000000 0 0 1
15.356839 -24.000622 -15.303037 32.342623 -1.001588 2.063664 0.060157 -0.030161 651281.000000 0 0 1
15.735839 -23.534322 -16.568937 32.802600 -0.981433 2.100306 0.056116 -0.030163 -92291.600000 0 0 1
16.790739 -24.439022 -17.345437 34.351985 -0.968817 2.100100 0.056722 -0.027911 613263.000000 0 0 1
18.091139 -24.467922 -16.830237 34.773918 -0.934126 2.076005 0.078206 -0.027195 -971054.000000 0 0 1
18.923239 -23.450622 -17.184237 34.688883 -0.891838 2.089070 0.077008 -0.028176 -1127040.000000 0 0 1
20.361239 -23.801122 -16.770937 35.529393 -0.863133 2.062388 0.066313 -0.021260 -408623.000000 0 0 1
20.923939 -24.841122 -17.474437 36.881547 -0.870783 2.064396 0.080128 -0.024431 -747804.000000 0 0 1
22.265039 -25.009122 -17.134237 37.613431 -0.843379 2.043769 0.084431 -0.008414 -66701.700000 0 0 1
23.014039 -26.172852 -17.872437 39.167437 -0.849531 2.044639 0.098275 -0.018954 108190.000000 0 0 1
23.275739 -25.960992 -19.268237 39.837144 -0.839882 2.075645 0.114160 -0.027010 6903.010000 0 0 1
24.214539 -26.835112 -19.841837 41.233064 -0.836687 2.072833 0.100028 -0.033789 -786402.000000 0 0 1
25.515339 -26.167892 -20.195937 41.757238 -0.798024 2.075618 0.093123 -0.033959 -697492.000000 0 0 1
25.351239 -25.344682 -21.347137 41.722158 -0.785269 2.107900 0.103234 -0.039170 -311911.000000 0 0 1
25.965539 -24.135622 -21.065337 41.236948 -0.748890 2.106954 0.102642 -0.033115 -687888.000000 0 0 1
25.085339 -22.863422 -21.041637 39.934456 -0.739092 2.125750 0.105346 -0.020713 -106809.000000 0 0 1
24.669939 -22.315322 -22.275137 40.034500 -0.735326 2.160841 0.103348 -0.020898 299344.000000 0 0 1
23.984339 -23.120322 -23.239537 40.618639 -0.767058 2.179909 0.078831 -0.029246 -556944.000000 0 0 1
23.215639 -22.209622 -24.206237 40.226547 -0.763255 2.216484 0.067952 -0.019364 -160657.000000 0 0 1
24.027239 -21.435222 -25.094597 40.822980 -0.728445 2.232824 0.062959 -0.012913 40879.400000 0 0 1
23.277439 -20.578622 -25.901397 40.449984 -0.723938 2.265726 0.058945 -0.010836 -227573.000000 0 0 1
24.094239 -20.057122 -27.098497 41.438497 -0.694214 2.283584 0.055637 -0.007556 233778.000000 0 0 1
23.405439 -18.956322 -27.717167 40.931626 -0.680755 2.314689 0.068138 -0.012007 530745.000000 0 0 1
23.996439 -18.681322 -28.948727 41.986303 -0.661495 2.331568 0.077272 -0.012071 114238.000000 0 0 1
23.091939 -17.653222 -29.678497 41.541389 -0.652701 2.366608 0.112023 -0.015970 -305683.000000 0 0 1
21.824039 -18.105822 -30.048647 41.316227 -0.692547 2.385153 0.106494 -0.017794 -571232.000000 0 0 1
21.205239 -17.097022 -30.789027 41.108813 -0.678549 2.417294 0.111538 -0.019743 205538.000000 0 0 1
19.819739 -17.535522 -31.364397 41.037080 -0.724326 2.440742 0.087993 -0.014470 253955.000000 0 0 1
19.796839 -18.530122 -32.402997 42.252035 -0.752360 2.444790 0.098876 -0.012039 1304130.000000 0 0 1
18.443539 -19.006722 -32.615987 42.014547 -0.800435 2.459575 0.088698 -0.021717 1100280.000000 0 0 1
18.302939 -19.871522 -33.859487 43.316738 -0.826465 2.468139 0.137136 -0.016983 92680.600000 0 0 1
19.292039 -20.919722 -33.894717 44.256856 -0.825854 2.443180 0.129305 -0.012760 657944.000000 0 0 1
19.339439 -21.595322 32.930963 43.872772 -0.840452 0.721825 0.109830 -0.017865 207514.000000 0 0 1
20.385339 -22.758222 32.891882 44.892924 -0.840343 0.748554 0.102809 -0.017135 175866.000000 0 0 1
20.073639 -23.767022 33.823536 45.954912 -0.869445 0.743631 0.114423 -0.021972 224348.000000 0 0 1
20.438539 -23.593522 -32.853277 45.318053 -0.856928 2.381757 0.115682 -0.024078 -403074.000000 0 0 1
19.665439 -24.584622 -31.977087 44.873903 -0.896111 2.363992 0.113195 -0.030293 -294188.000000 0 0 1
19.989639 -25.951172 -32.072207 45.844034 -0.914443 2.345625 0.122773 -0.046081 504147.000000 0 0 1
21.204939 -26.218232 -31.347307 46.040186 -0.890721 2.319744 0.097423 -0.039265 634480.000000 0 0 1
21.356639 -27.722112 -31.085667 46.807480 -0.914377 2.297109 0.093092 -0.042438 389919.000000 0 0 1
20.282339 -28.202452 -30.265287 46.073193 -0.947321 2.287491 0.100625 -0.048668 268697.000000 0 0 1
20.166239 -29.576522 -30.440807 46.990324 -0.972368 2.275503 0.100827 -0.039351 37203.900000 0 0 1
18.899439 -30.230872 -29.837207 46.490357 -1.012075 2.267631 0.123387 -0.040215 718106.000000 0 0 1
17.674839 -30.235972 -30.562667 46.483228 -1.041805 2.288291 0.131546 -0.046552 305828.000000 0 0 1
17.531639 -31.205052 -31.612597 47.754266 -1.058923 2.294260 0.142754 -0.049218 493132.000000 0 0 1
16.062439 -31.761472 -31.748447 47.694412 -1.102583 2.299179 0.153121 -0.050066 705025.000000 0 0 1
15.215539 -30.862842 -32.447457 47.295508 -1.112760 2.326853 0.145859 -0.048066 -777541.000000 0 0 1
13.972739 -31.492012 -32.521387 47.377472 -1.153201 2.327367 0.098722 -0.024493 -742788.000000 0 0 1
13.005839 -30.835992 -33.499257 47.351984 -1.171661 2.356683 0.089136 -0.027101 -90347.200000 0 0 1
12.345239 -29.686202 -32.941537 46.030646 -1.176695 2.368341 0.105998 -0.034258 215466.000000 0 0 1
11.565139 -29.062362 -33.995037 46.195626 -1.192065 2.397781 0.076371 -0.029162 -331402.000000 0 0 1
10.603439 -28.045942 -33.428087 44.904841 -1.209333 2.410463 0.081976 -0.036939 -578465.000000 0 0 1
9.708039 -28.755542 -32.611287 44.549110 -1.245205 2.392093 0.076075 -0.024719 -183351.000000 0 0 1
8.753539 -27.868072 -32.013837 43.337508 -1.266449 2.401950 0.049733 -0.021270 258159.000000 0 0 1
7.647239 -28.511192 -31.147857 42.913370 -1.308745 2.383038 0.031913 -0.017050 -388817.000000 0 0 1
6.661939 -29.151972 -31.889907 43.717102 -1.346130 2.388329 0.031224 -0.018654 -470599.000000 0 0 1
6.987739 -30.433372 -32.367887 44.974423 -1.345100 2.374160 0.031619 -0.015930 500405.000000 0 0 1
5.675739 -31.254242 -32.678057 45.572986 -1.391155 2.370355 0.061195 -0.024924 1083380.000000 0 0 1
5.019939 -31.837642 -31.553737 45.105139 -1.414411 2.345577 0.068057 -0.035580 667119.000000 0 0 1
3.834539 -32.582452 -31.880487 45.745877 -1.453648 2.341868 0.086750 -0.055891 -204191.000000 0 0 1
2.956739 -32.925092 -30.666227 45.091257 -1.481235 2.318685 0.082848 -0.065649 -28206.300000 0 0 1
1.975039 -31.950332 -30.358337 44.117492 -1.509059 2.329698 0.082019 -0.056892 -362438.000000 0 0 1
0.783839 -32.154152 -31.055087 44.709309 -1.546424 2.338660 0.064692 -0.026834 -1157090.000000 0 0 1
-0.198361 -30.987172 -30.863597 43.735635 1.564395 2.354186 0.047885 -0.015975 116853.000000 0 0 1
-0.983961 -31.167102 -29.661587 43.036800 1.539236 2.331201 0.017879 -0.024076 328933.000000 0 0 1
-1.678661 -30.024642 -29.216197 41.927117 1.514945 2.341769 0.061814 -0.023302 519540.000000 0 0 1
-2.459661 -30.234102 -27.864457 41.189547 1.489621 2.313787 0.066233 -0.027481 152135.000000 0 0 1
-1.556061 -30.179432 -26.788957 40.384002 1.519282 2.296091 0.047039 -0.016947 569633.000000 0 0 1
-2.272661 -30.251392 -25.507257 39.634983 1.495811 2.269929 0.067267 -0.023229 263362.000000 0 0 1
-1.320761 -30.527322 -24.356637 39.075664 1.527558 2.243777 0.036993 -0.014806 16783.400000 0 0 1
-1.929161 -30.652462 -23.075037 38.415523 1.507943 2.215135 0.074797 -0.025514 387997.000000 0 0 1
-0.894661 -30.874522 -22.105837 37.982951 1.541827 2.191975 0.060120 -0.018693 785698.000000 0 0 1
-1.408961 -30.798832 -20.591837 37.075288 1.525081 2.159647 0.020365 -0.001581 140201.000000 0 0 1
-1.538461 -29.539262 -19.981237 35.695724 1.518761 2.164899 0.017339 0.005454 265992.000000 0 0 1
-0.312361 -28.933592 -19.551337 34.921413 1.560001 2.165021 0.036989 -0.004095 444266.000000 0 0 1
-0.426461 -27.573272 -18.883637 33.422432 1.555331 2.171228 0.038507 -0.007879 -216776.000000 0 0 1
-1.224561 -27.465482 -17.730037 32.714010 1.526240 2.143577 0.039059 -0.008513 53362.300000 0 0 1
-1.037761 -26.181342 -17.121237 31.299782 1.531180 2.149582 0.046511 -0.006783 -13953.700000 0 0 1
-2.157661 -25.982702 -16.086037 30.635223 1.487944 2.123609 0.044886 -0.006347 -196596.000000 0 0 1
-2.251261 -24.655522 -15.651437 29.290449 1.479740 2.134538 0.048066 -0.002669 -37504.300000 0 0 1
-3.039861 -24.702422 -14.482837 28.795884 1.448353 2.097803 0.043516 -0.001648 -119609.000000 0 0 1
-2.819961 -23.559622 -13.438937 27.269268 1.451668 2.086128 0.048357 -0.000491 -88113.200000 0 0 1
-1.598061 -23.656222 -12.750937 26.921312 1.503345 2.064212 0.046355 0.001292 -335490.000000 0 0 1
-1.609561 -22.808122 -11.629537 25.652431 1.500343 2.041317 0.045737 0.002505 -17052.000000 0 0 1
-0.217161 -22.857022 -10.992337 25.363795 1.561296 2.019044 0.038348 0.001691 32822.400000 0 0 1
0.269739 -21.559322 -10.707037 24.073175 -1.558286 2.031714 0.036857 0.007244 -271735.000000 0 1 0
1.541839 -21.531322 -10.104337 23.834276 -1.499309 2.008589 0.024501 0.007142 82640.300000 0 1 0
2.026739 -20.101822 -9.789537 22.450522 -1.470312 2.022000 0.031340 -0.001077 -668605.000000 0 1 0
2.556239 -19.387122 -10.874337 22.375121 -1.439700 2.078305 0.031147 0.007885 95304.500000 0 1 0
3.315939 -18.225022 -10.564237 21.324867 -1.390821 2.089086 0.019972 0.008859 303786.000000 0 1 0
4.735739 -18.405522 -9.985937 21.468800 -1.318959 2.054586 0.040460 -0.012562 -364066.000000 0 1 0
4.704139 -18.902122 -8.678037 21.324340 -1.326883 1.989914 0.040186 -0.010625 4996.130000 0 1 0
5.704839 -19.856622 -8.334737 22.277757 -1.291030 1.954253 0.047889 -0.010562 120977.000000 0 1 0
5.195939 -20.855022 -7.265137 22.687264 -1.326622 1.896768 0.056789 -0.020312 -118860.000000 0 1 0
4.256239 -21.818422 -7.622537 23.500259 -1.378140 1.901131 0.039537 -0.021323 -103340.000000 0 1 0
4.361339 -22.943922 -6.788437 24.321343 -1.382951 1.853668 0.055940 -0.023138 39406.400000 0 1 0
3.345639 -23.962222 -7.334437 25.281917 -1.432072 1.865134 0.036265 -0.015481 229456.000000 0 0 1
3.757739 -24.445122 -8.600137 26.184861 -1.418269 1.905447 0.049597 -0.017830 360122.000000 0 0 1
2.835239 -25.427102 -9.061337 27.141922 -1.459750 1.911182 0.031419 -0.006524 517706.000000 0 0 1
3.469039 -26.251602 -10.228537 28.386683 -1.439412 1.939417 0.035061 -0.005179 21056.900000 0 0 1
4.443839 -27.168642 -9.809937 29.225292 -1.408667 1.913108 0.038477 -0.009884 -252322.000000 0 0 1
5.061639 -27.813722 -10.881437 30.292391 -1.390783 1.938221 0.065343 -0.010310 60852.400000 0 0 1
4.909239 -29.332242 -10.705237 31.608276 -1.404967 1.916315 0.056159 -0.007823 -774860.000000 0 0 1
3.695339 -29.805592 -11.148737 32.036279 -1.447444 1.926237 0.052648 -0.005848 -856323.000000 0 0 1
3.610039 -31.208662 -10.923237 33.261540 -1.455634 1.905410 0.067657 -0.010393 562800.000000 0 0 1
2.234639 -31.883322 -11.275137 33.892013 -1.500823 1.909939 0.064315 -0.015771 505530.000000 0 0 1
2.045339 -31.919762 -12.675937 34.405435 -1.506806 1.948114 0.060818 -0.018613 781285.000000 0 0 1
1.163039 -32.973102 -13.163737 35.522698 -1.535539 1.950422 0.055910 -0.018095 276299.000000 0 0 1
0.823639 -32.728772 -14.655637 35.869745 -1.545636 1.991693 0.046315 -0.006987 -166437.000000 0 0 1
-0.179961 -31.793982 -14.935337 35.127681 1.565136 2.009949 0.048142 -0.009883 -182923.000000 0 0 1
-0.618761 -31.792872 -16.274437 35.721518 1.551337 2.043833 0.028012 -0.006667 -151715.000000 0 0 1
-1.794561 -30.876472 -16.612137 35.107550 1.512741 2.063692 0.030131 0.000294 1137330.000000 0 0 1
-3.014061 -31.292652 -15.924537 35.240680 1.474774 2.039667 0.031671 -0.009976 2041520.000000 0 0 1
-4.231361 -30.864152 -16.608837 35.303736 1.434549 2.060603 0.041020 -0.003613 1848180.000000 0 0 1
-5.582661 -30.982122 -15.854837 35.248175 1.392520 2.037344 0.044205 -0.011842 136373.000000 0 0 1
-5.662161 -29.904562 -14.940437 33.905155 1.383670 2.027123 0.040653 -0.007780 327054.000000 0 0 1
-6.960161 -29.697842 -14.395537 33.728877 1.340585 2.011749 0.061171 -0.003774 664042.000000 0 0 1
-7.668061 -30.761022 -13.472337 34.446241 1.326497 1.972636 0.062335 -0.018718 76241.900000 0 0 1
-8.143061 -31.922402 -14.107937 35.838291 1.321034 1.975401 0.073915 -0.019426 -211981.000000 0 0 1
-8.815461 -32.830762 -13.280737 36.495880 1.308472 1.943245 0.081838 -0.022354 206558.000000 0 0 1
-9.224361 -34.027382 -14.152737 37.990150 1.306072 1.952538 0.111162 -0.025753 392511.000000 0 0 1
-8.074261 33.259583 -14.144537 37.033249 -1.332639 1.962693 0.097001 -0.025436 740647.000000 0 0 1
-8.425761 31.999442 -14.659537 36.191985 -1.313331 1.987829 0.123603 -0.039273 -71157.300000 0 0 1
-6.860661 -22.036122 -3.342337 23.320175 1.268971 1.714615 0.072408 -0.023427 86791.000000 0 1 0
-6.739261 -20.770222 -3.908337 22.183211 1.257046 1.747905 0.065644 -0.032759 -602587.000000 0 1 0
-5.680661 -20.685422 -4.790137 21.979582 1.302782 1.790495 0.057931 -0.030948 -633659.000000 0 1 0
-5.914761 -19.669222 -5.926537 21.377243 1.278687 1.851712 0.058281 -0.029743 153608.000000 0 1 0
-6.751761 -20.134922 -6.988337 22.357062 1.247254 1.888703 0.065835 -0.027221 -59539.100000 0 1 0
-6.870961 -19.104422 -7.951737 21.804109 1.225548 1.944096 0.047666 -0.029692 -191817.000000 0 1 0
-7.964261 -19.366122 -9.004237 22.793692 1.180632 1.976899 0.053666 -0.032625 102229.000000 0 1 0
-7.583261 -20.340222 -9.939737 23.875277 1.213937 2.000190 0.065707 -0.010233 326194.000000 0 1 0
-8.584661 -20.453422 -10.964337 24.743798 1.173408 2.029866 0.080140 -0.012379 771549.000000 0 1 0
-7.992461 -21.279522 -12.183937 25.790421 1.211505 2.062832 0.076694 -0.007340 -148030.000000 0 0 1
-6.967961 -20.692822 -12.906337 25.363732 1.245989 2.104645 0.067456 -0.000701 -565270.000000 0 0 1
-6.816761 -21.420022 -14.099237 26.534394 1.262688 2.130998 0.053855 0.000064 -108176.000000 0 0 1
-5.843861 -20.781222 -15.120237 26.355862 1.296667 2.181807 0.046115 0.006392 -230456.000000 0 0 1
-4.527661 -20.869722 -14.598337 25.868058 1.357158 2.170428 0.043105 0.003256 508039.000000 0 0 1
-3.518461 -20.159322 -15.365337 25.590455 1.398004 2.214838 0.046952 0.005751 756837.000000 0 0 1
-3.559261 -18.632022 -15.398837 24.432453 1.382041 2.252686 0.064092 0.005001 -531854.000000 0 1 0
-4.628661 -18.020422 -16.118737 24.616535 1.319375 2.284705 0.066084 0.003620 -106302.000000 0 1 0
-4.572861 -17.954722 -17.520037 25.499702 1.321410 2.328243 0.072596 -0.002694 109967.000000 0 0 1
-5.968061 -17.781322 -18.205637 26.138829 1.246974 2.341301 0.076980 0.000234 348417.000000 0 0 1
-6.797961 -18.851722 -17.807137 26.808465 1.224708 2.297267 0.064185 0.007732 -221439.000000 0 0 1
-8.016761 -18.814422 -18.534437 27.600295 1.167997 2.307069 0.063485 0.004944 -208141.000000 0 0 1
-9.077161 -19.679722 -17.900737 28.109121 1.138631 2.261176 0.082063 -0.006657 -499114.000000 0 0 1
-8.719161 -21.059722 -18.056237 29.078572 1.178262 2.240746 0.079690 -0.000880 634034.000000 0 0 1
-9.662161 -21.974122 -17.504037 29.708765 1.156535 2.200849 0.090245 -0.007188 384365.000000 0 0 1
-9.137261 -23.343622 -17.948737 30.831338 1.197705 2.192178 0.093931 -0.006174 -576006.000000 0 0 1
-9.201961 -23.504922 -19.333037 31.795027 1.197647 2.224401 0.087455 -0.008615 -27679.100000 0 0 1
-8.401861 -24.483122 -19.891737 32.644995 1.240219 2.226018 0.100452 -0.015568 171998.000000 0 0 1
-6.856361 -24.280022 -19.814737 32.080414 1.295576 2.236558 0.100272 -0.003862 -456754.000000 0 0 1
-6.328461 -23.195422 -20.546937 31.626787 1.304446 2.277945 0.100524 -0.007056 124024.000000 0 0 1
-5.935461 -22.086822 -19.747437 30.216199 1.308266 2.283046 0.086895 -0.004364 114299.000000 0 0 1
-4.745061 -22.212522 -18.750337 29.453130 1.360339 2.260899 0.072473 0.003474 -16646.200000 0 0 1
-3.470561 -22.333022 -19.359537 29.759038 1.416629 2.279096 0.068961 -0.002265 -892140.000000 0 0 1
-2.552061 -22.279922 -18.374437 28.991859 1.456748 2.257226 0.060026 -0.003650 -337016.000000 0 0 1
-1.157561 -22.881922 -18.756337 29.609500 1.520251 2.256809 0.064841 -0.004563 684470.000000 0 0 1
-0.342261 -22.106722 -19.635637 29.569960 1.555315 2.297005 0.077792 -0.013063 830421.000000 0 0 1
0.973239 -22.707422 -19.622937 30.027218 -1.527963 2.283002 0.059673 -0.016713 1368420.000000 0 0 1
2.035539 -22.172422 -20.636337 30.358164 -1.479248 2.318235 0.071726 -0.023342 575130.000000 0 0 1
1.561539 -22.271022 -21.970737 31.323315 -1.500796 2.348181 0.061099 -0.025074 -138431.000000 0 0 1
0.867539 -21.143522 -22.428237 30.835482 -1.529788 2.385251 0.079640 -0.020753 -496415.000000 0 0 1
0.528839 -21.413822 -23.905237 32.098158 -1.546105 2.410963 0.087076 -0.027812 -10216.600000 0 0 1
-0.020761 -20.268522 -24.640937 31.905943 1.569772 2.453249 0.092231 -0.030931 -203747.000000 0 0 1
-1.380861 -19.995722 -24.416237 31.589370 1.501848 2.454236 0.088673 -0.025807 -375711.000000 0 0 1
-1.857461 -18.719722 -25.147767 31.405228 1.471895 2.499344 0.083086 -0.018890 -320836.000000 0 0 1
-1.322461 -17.517822 -24.716937 30.324082 1.495447 2.523685 0.092041 -0.021188 -450107.000000 0 0 1
-1.847861 -16.339222 -25.250167 30.132303 1.458181 2.564361 0.083488 -0.019083 -439514.000000 0 0 1
-1.297461 -14.987722 -24.790937 28.998375 1.484443 2.596169 0.090160 -0.016051 -101149.000000 0 0 1
0.066939 -14.894722 -25.154907 29.233996 -1.566302 2.606983 0.090054 -0.026243 -44695.500000 0 0 1
0.812339 -13.706922 -24.840837 28.383213 -1.511601 2.636634 0.081539 -0.025198 587005.000000 0 0 1
0.411939 -12.422222 -25.526027 28.391184 -1.537647 2.688466 0.075257 -0.018988 -685857.000000 0 0 1
1.346139 -11.456922 -25.259717 27.769163 -1.453837 2.713193 0.065017 -0.021061 -550352.000000 0 0 1
1.018439 -10.266822 -25.955147 27.930530 -1.471923 2.763242 0.060904 -0.022663 -693262.000000 0 0 1
1.966439 -9.095322 -25.803187 27.429841 -1.357870 2.795477 0.072025 -0.023411 650663.000000 0 0 1
3.338639 -9.270922 -26.179777 27.972794 -1.225135 2.781606 0.058573 -0.013823 499214.000000 0 0 1
3.595139 -9.379822 -27.575107 29.347787 -1.204783 2.792249 0.055634 -0.015261 14136.100000 0 0 1
5.075839 -9.072122 -27.963847 29.833609 -1.060690 2.785675 0.032789 -0.014380 -14002.800000 0 0 1
5.291739 -7.720422 -28.042517 29.563324 -0.969922 2.819445 0.031991 -0.015671 154027.000000 0 0 1
6.511339 -7.330822 -28.647567 30.279061 -0.844531 2.811826 0.042107 -0.013615 -134947.000000 0 0 1
7.751939 -7.254022 -27.711187 29.675297 -0.752229 2.775724 0.052899 -0.018155 -83381.800000 0 0 1
8.343839 -8.411722 -27.146697 29.619586 -0.789450 2.730067 0.042019 -0.016641 226849.000000 0 0 1
8.867939 -9.308922 -28.071827 30.875942 -0.809654 2.712110 0.046667 -0.025257 -709829.000000 0 0 1
9.348539 -10.692322 -27.499877 30.950996 -0.852350 2.664856 0.038651 -0.021695 -90475.100000 0 0 1
8.288239 -11.543822 -27.080357 30.582682 -0.948105 2.658323 0.055934 -0.027312 -262005.000000 0 0 1
8.539539 -12.773222 -26.483717 30.618069 -0.981491 2.615887 0.057614 -0.018165 40250.100000 0 0 1
9.426439 -13.880822 -27.220447 31.976361 -0.974237 2.589193 0.065508 -0.028455 580555.000000 0 0 1
8.799939 -14.512422 -28.316867 33.013546 -1.025704 2.601643 0.083121 -0.038672 -391697.000000 0 0 1
9.713939 -15.345622 -28.941517 34.168115 -1.006457 2.581174 0.070592 -0.037230 -287981.000000 0 0 1
9.183939 -16.177022 -30.141227 35.419406 -1.054454 2.588646 0.080618 -0.039006 -134391.000000 0 0 1
8.735639 -15.339822 -31.175617 35.826535 -1.053124 2.626369 0.076791 -0.039414 195182.000000 0 0 1
8.015239 -16.015322 -32.190847 36.837280 -1.106770 2.633895 0.090600 -0.037494 -884421.000000 0 0 1
6.823739 -15.273622 -32.746107 36.771653 -1.150635 2.669296 0.096285 -0.036095 -482853.000000 0 0 1
7.186439 -14.040422 -33.395697 36.933060 -1.097722 2.700351 0.090097 -0.032775 221403.000000 0 0 1
6.026739 -13.374722 -33.850667 36.892715 -1.147438 2.732654 0.069368 -0.038957 258956.000000 0 0 1
6.425739 -12.121122 33.324965 36.038383 -1.083338 0.390530 0.091529 -0.028820 51662.400000 0 0 1
6.864139 -12.525322 32.043068 35.082165 -1.069474 0.419305 0.081803 -0.027053 98125.000000 0 0 1
7.148939 -11.340722 31.306648 34.056211 -1.008339 0.404590 0.084027 -0.026288 -237786.000000 0 0 1
7.572939 -11.627222 29.828698 32.898221 -0.993500 0.435412 0.076634 -0.021070 47997.400000 0 0 1
6.594239 -12.240222 29.004118 32.164357 -1.076643 0.447002 0.070009 -0.016313 182913.000000 0 0 1
6.952239 -12.067422 27.663818 30.971650 -1.048124 0.466389 0.062918 -0.022538 -220278.000000 0 0 1
5.893339 -12.687722 26.761388 30.197378 -1.135957 0.481685 0.045877 -0.023826 -113429.000000 0 0 1
5.828939 -14.122222 26.848958 30.891427 -1.179348 0.517337 0.050853 -0.017030 -74666.100000 0 0 1
5.745839 -14.822322 25.603808 30.137533 -1.200984 0.555635 0.030229 -0.014427 628092.000000 0 0 1
4.276739 -15.278222 25.299818 29.862943 -1.297858 0.560108 0.029682 -0.021729 758405.000000 0 0 1
3.331439 -14.245122 25.173248 29.115536 -1.341060 0.526446 0.017967 -0.023880 -1278210.000000 0 0 1
2.126539 -14.697322 24.708668 28.827968 -1.427105 0.541168 0.026804 -0.019295 -715519.000000 0 0 1
1.082039 -13.551922 24.628208 28.131371 -1.491121 0.504386 0.030792 -0.019180 -493865.000000 0 0 1
1.327539 -12.543222 23.658398 26.810718 -1.465352 0.489808 0.018201 -0.010616 -188013.000000 0 0 1
0.383439 -11.488622 23.458098 26.123128 -1.537433 0.455635 0.029603 -0.000105 822524.000000 0 0 1
-1.012361 -11.931022 22.904398 25.845418 1.486148 0.481703 0.020180 0.001361 -243590.000000 0 0 1
-0.925461 -12.518722 21.618898 24.999033 1.497004 0.526066 0.023543 -0.007582 -421742.000000 0 1 0
-2.116861 -13.188122 21.317498 25.156379 1.411641 0.559728 0.043457 -0.019094 -3237.550000 0 0 1
-2.067661 -13.824522 19.858698 24.284986 1.422332 0.613330 0.065791 -0.031399 400135.000000 0 1 0
-1.086961 -14.855022 19.640398 24.649511 1.497755 0.648838 0.085347 -0.044961 -94935.400000 0 1 0
-1.289161 -15.600522 18.401098 24.158614 1.488348 0.704897 0.090455 -0.043427 212483.000000 0 1 0
-2.462761 -16.618322 18.469398 24.967028 1.423672 0.738095 0.081741 -0.048179 -851800.000000 0 1 0
-2.453761 -17.539022 17.410998 24.835078 1.431796 0.793907 0.059629 -0.050358 -312742.000000 0 1 0
-3.535561 -18.432922 17.449198 25.627082 1.381291 0.821821 0.070321 -0.042166 -154297.000000 0 0 1
-3.181861 -19.686722 16.634598 25.969234 1.410557 0.875582 0.060453 -0.045256 194236.000000 0 0 1
-2.160161 -20.362622 17.364398 26.848184 1.465107 0.867464 0.076814 -0.037516 -153204.000000 0 0 1
-2.104561 -21.747922 17.079898 27.733089 1.474326 0.907310 0.072703 -0.050231 -274373.000000 0 0 1
-1.010261 -22.563622 17.788598 28.750163 1.526052 0.903671 0.085509 -0.039522 -898847.000000 0 0 1
0.223139 -22.434322 17.199298 28.269497 -1.560850 0.916747 0.086382 -0.043907 -2034030.000000 0 0 1
1.092639 -23.297422 17.865398 29.379179 -1.523931 0.917135 0.088982 -0.034546 -250128.000000 0 0 1
2.456739 -23.342022 17.135398 29.060410 -1.465933 0.940174 0.076921 -0.041116 160772.000000 0 0 1
3.107239 -22.051222 17.212898 28.145962 -1.430808 0.912768 0.083875 -0.037660 -518976.000000 0 0 1
4.321739 -22.069422 16.528298 27.909164 -1.377419 0.936988 0.070833 -0.034960 -41614.700000 0 0 1
5.190539 -20.797722 16.772998 27.218016 -1.326220 0.906829 0.072615 -0.029453 -462463.000000 0 0 1
5.768339 -20.656722 18.052398 28.033248 -1.298486 0.871128 0.061850 -0.022855 -92595.500000 0 0 1
6.279939 -19.361822 18.399598 27.438349 -1.257156 0.835806 0.063804 -0.011280 148396.000000 0 0 1
7.410039 -18.681822 17.608698 26.720505 -1.193186 0.851314 0.069111 -0.016892 -677603.000000 0 0 1
7.042039 -18.419322 16.279798 25.571343 -1.205625 0.880660 0.065882 -0.017110 -99488.900000 0 0 1
7.954339 -17.695722 15.465298 24.810996 -1.148353 0.897809 0.077718 -0.019411 -75903.900000 0 1 0
7.190339 -16.767022 14.522498 23.318168 -1.165679 0.898483 0.054312 -0.013591 -93645.100000 0 1 0
6.224839 -17.434322 13.734998 23.051125 -1.227859 0.932473 0.054315 -0.010070 -50501.000000 0 1 0
5.618039 -16.548322 12.805698 21.665531 -1.243512 0.938420 0.035198 -0.009510 -84654.600000 0 1 0
6.108839 -16.620322 11.324098 21.018759 -1.218571 1.001830 0.033704 -0.012625 1047720.000000 0 1 0
7.456339 -16.092022 11.242198 20.998504 -1.136891 1.005838 0.049170 -0.012659 881854.000000 0 1 0
7.985339 -16.410422 9.970298 20.796020 -1.117925 1.070788 0.059164 -0.015090 1013960.000000 0 1 0
9.439039 -15.868622 9.701098 20.857131 -1.034191 1.087025 0.062666 -0.015142 931934.000000 0 1 0
10.095139 -16.432222 8.605198 21.118219 -1.019892 1.151106 0.067800 -0.018033 310362.000000 0 1 0
11.461039 -16.002322 8.526298 21.450582 -0.949273 1.162021 0.062104 -0.020412 999092.000000 0 1 0
12.398939 -16.973222 7.755498 22.404725 -0.939892 1.217327 0.063835 -0.025383 20614.300000 0 1 0
12.821539 -18.073922 8.504898 23.735876 -0.953793 1.204335 0.092834 -0.030684 -200160.000000 0 1 0
13.679639 -18.857922 7.716798 24.541856 -0.943222 1.250936 0.094730 -0.026872 71987.800000 0 1 0
14.365639 -20.037622 8.488098 26.075385 -0.948796 1.239233 0.089827 -0.031537 288471.000000 0 0 1
13.463139 -20.953422 9.101198 26.516670 -0.999693 1.220447 0.087238 -0.031282 420085.000000 0 0 1
14.200539 -22.086022 9.539198 27.936427 -0.999383 1.222326 0.086860 -0.026012 611504.000000 0 0 1
13.176939 -23.094922 10.151298 28.461483 -1.052308 1.206098 0.097536 -0.028699 460818.000000 0 0 1
12.818539 -22.585622 11.450498 28.382022 -1.054577 1.155521 0.098748 -0.029017 -449952.000000 0 0 1
11.786539 -23.295722 12.105298 28.777620 -1.102398 1.136635 0.098780 -0.029998 -83149.500000 0 0 1
12.057139 -24.777722 12.555098 30.281027 -1.117916 1.143272 0.070222 -0.034022 -244851.000000 0 0 1
13.034139 -24.850822 13.564098 31.167882 -1.087745 1.120542 0.052989 -0.030840 -246364.000000 0 0 1
13.071939 -26.145112 14.156098 32.478263 -1.107168 1.119799 0.060258 -0.035214 50224.200000 0 0 1
14.292139 -26.369652 15.071298 33.567362 -1.074122 1.105165 0.061874 -0.029215 -6540.190000 0 0 1
14.206139 -25.611712 16.219198 33.478897 -1.064372 1.065050 0.065251 -0.031640 632082.000000 0 0 1
15.282539 -25.967162 17.111398 34.650389 -1.038851 1.054308 0.079345 -0.028621 381228.000000 0 0 1
15.199839 -25.417012 18.500098 34.918666 -1.031835 1.012425 0.092882 -0.028183 -2941.700000 0 0 1
15.410439 -24.010722 18.490198 33.998291 -1.000197 0.995770 0.054613 -0.029616 188431.000000 0 0 1
16.648639 -23.623222 19.075798 34.628310 -0.956885 0.987387 0.064449 -0.024609 184487.000000 0 0 1
16.751539 -22.128422 19.557998 33.952856 -0.922821 0.956928 0.044888 -0.029180 -143941.000000 0 0 1
16.943739 -21.217422 18.469898 32.839099 -0.896924 0.973467 0.033914 -0.027437 910702.000000 0 0 1
15.723139 -20.740622 17.870298 31.571158 -0.922141 0.969111 0.062238 -0.019186 437287.000000 0 0 1
16.079939 -19.793222 16.695798 30.480908 -0.888542 0.991128 0.049449 -0.016680 168429.000000 0 0 1
16.811639 -18.666022 17.181898 30.434671 -0.837620 0.970908 0.049904 -0.018624 230791.000000 0 0 1
18.156039 -18.699722 16.716798 30.964055 -0.800149 1.000505 0.044180 -0.018968 4943.440000 0 0 1
18.929639 -17.434122 17.086998 30.890862 -0.744295 0.984667 0.055788 -0.019389 -428626.000000 0 0 1
19.245939 -17.205622 18.424298 31.715837 -0.729483 0.950940 0.050304 -0.017830 72051.100000 0 0 1
19.656639 -15.910522 18.738998 31.475041 -0.680460 0.933082 0.054508 -0.022146 -330869.000000 0 0 1
20.235839 -15.863722 20.169798 32.679774 -0.664872 0.905623 0.054341 -0.022426 -132646.000000 0 0 1
21.477739 -16.519522 20.276898 33.842879 -0.655643 0.928360 0.051686 -0.022064 -237342.000000 0 0 1
21.879639 -16.489622 21.612698 34.896059 -0.645834 0.902888 0.046261 -0.005577 92008.400000 0 0 1
33.923858 -1.504122 -7.613237 34.800171 -0.044309 1.791350 0.162503 -0.036054 -507569.000000 0 0 1
35.201368 -1.154922 -8.045537 36.127563 -0.032797 1.795377 0.154749 -0.034777 -626626.000000 0 0 1
36.155658 -2.135722 -7.802937 37.049679 -0.059002 1.782993 0.165593 -0.050622 -41550.400000 0 0 1
-36.208721 -1.744122 -8.493437 37.232404 0.048131 1.800942 0.127928 -0.043407 112391.000000 0 0 1
-35.096010 -2.587422 -8.293837 36.155393 0.073591 1.802252 0.149601 -0.042170 50271.100000 0 0 1
-33.925541 -2.031022 -8.828537 35.114249 0.059796 1.824947 0.196000 -0.043369 -191828.000000 0 0 1
-32.645811 -2.875122 -8.749837 33.920126 0.087844 1.831700 0.164912 -0.036405 -146255.000000 0 0 1
-32.186261 -3.100422 -7.419637 33.175579 0.096031 1.796352 0.156962 -0.040516 790115.000000 0 0 1
-30.933411 -3.789622 -7.351437 32.020006 0.121902 1.802452 0.151847 -0.046032 378161.000000 0 0 1
-30.519541 -4.071622 -5.920237 31.353942 0.132627 1.760756 0.146208 -0.061167 -505975.000000 0 0 1
-30.171761 -2.876922 -5.337837 30.775061 0.095064 1.745125 0.146181 -0.053291 361049.000000 0 0 1
-29.899191 -3.086422 -3.949137 30.316387 0.102863 1.701432 0.157368 -0.051148 -269613.000000 0 0 1
-29.589171 -1.759422 -3.305237 29.825144 0.059392 1.681845 0.174789 -0.051710 26605.200000 0 0 1
-28.306821 -1.208322 -3.595037 28.559770 0.042661 1.697009 0.143884 -0.043720 660638.000000 0 0 1
-28.124421 0.068178 -2.963637 28.280220 -0.002424 1.675784 0.153699 -0.052860 -227570.000000 0 0 1
-26.666921 0.349878 -2.541737 26.790064 -0.013120 1.665815 0.156608 -0.036750 18884.500000 0 0 1
-26.159091 -0.418322 -1.422637 26.201087 0.015990 1.625120 0.137685 -0.038528 107625.000000 0 0 1
-24.860761 0.018978 -1.131837 24.886520 -0.000763 1.616292 0.120644 -0.032043 -121734.000000 0 1 0
-24.165961 -0.692222 0.058263 24.175944 0.028637 1.568386 0.105760 -0.033999 47735.000000 0 1 0
-24.218361 -2.142422 -0.063637 24.313022 0.088233 1.573414 0.113340 -0.034300 -153188.000000 0 1 0
-23.330961 -2.700622 0.810363 23.500719 0.115240 1.536307 0.098910 -0.032405 -1011220.000000 0 1 0
-23.319061 -4.230122 0.755663 23.711676 0.179451 1.538922 0.088861 -0.025641 929849.000000 0 1 0
-24.423661 -4.805322 1.539963 24.939484 0.194267 1.509009 0.101846 -0.036590 1332650.000000 0 1 0
-24.601461 -6.162322 1.232263 25.391427 0.245436 1.522247 0.083728 -0.020356 331158.000000 0 0 1
-25.985931 -6.707322 1.697763 26.891248 0.252600 1.507620 0.118797 -0.025111 321091.000000 0 0 1
-26.013301 -6.984422 3.069463 27.108958 0.262308 1.457326 0.103628 -0.023577 855125.000000 0 0 1
-27.264471 -7.571822 3.494563 28.511329 0.270891 1.447920 0.124620 -0.011919 839477.000000 0 0 1
-27.424641 -7.581722 5.025463 28.893749 0.269720 1.395978 0.097973 -0.019195 3104.690000 0 0 1
-26.677471 -8.573422 5.712063 28.597530 0.310948 1.369704 0.103652 0.003910 49834.000000 0 0 1
-26.899581 -8.568822 7.108563 29.112607 0.308386 1.324128 0.076450 0.000907 -4722.330000 0 0 1
-26.293081 -7.402522 7.899763 28.434657 0.274435 1.289271 0.084391 0.003946 753552.000000 0 0 1
-24.858361 -7.289522 7.885863 27.078813 0.285246 1.275296 0.113466 -0.008776 903424.000000 0 0 1
-24.456261 -6.101622 8.543263 26.614392 0.244500 1.244009 0.117293 -0.027657 632872.000000 0 0 1
-22.975861 -5.682222 8.237163 25.060501 0.242448 1.235879 0.149330 -0.037626 384582.000000 0 0 1
-21.962161 -6.421622 8.838763 24.529523 0.284465 1.202173 0.134602 -0.039321 -26959.200000 0 1 0
-20.748961 -6.243222 8.115463 23.137804 0.292276 1.212430 0.118298 -0.032864 95952.800000 0 1 0
-19.587461 -6.903722 8.889963 22.591181 0.338861 1.166345 0.130082 -0.033157 -234904.000000 0 1 0
-19.105361 -6.097822 9.941763 22.383854 0.308948 1.110572 0.097203 -0.026726 -393344.000000 0 1 0
-17.895361 -6.655322 10.359763 21.722384 0.356052 1.073653 0.077389 -0.037782 -315460.000000 0 1 0
-17.225661 -5.792322 11.489063 21.500534 0.324383 1.007044 0.032719 -0.016282 -89017.300000 0 1 0
-18.037161 -5.619822 12.662463 22.743341 0.302037 0.980322 0.051515 -0.023526 296484.000000 0 1 0
-18.570761 -4.301522 12.780663 22.950417 0.227615 0.980170 0.072373 -0.019314 -233532.000000 0 1 0
-19.926461 -4.235822 13.474863 24.424946 0.209455 0.986414 0.093739 -0.039068 -383729.000000 0 1 0
-19.824161 -4.487522 14.874963 25.187294 0.222615 0.939026 0.101397 -0.029460 53275.300000 0 0 1
-21.080161 -4.457222 15.508363 26.547116 0.208372 0.946924 0.103568 -0.010882 -30567.500000 0 0 1
-20.903461 -4.766722 16.984963 27.352611 0.224201 0.900825 0.092420 -0.006824 135925.000000 0 0 1
-22.130961 -4.696422 17.682363 28.714139 0.209108 0.907387 0.094267 -0.010975 477147.000000 0 0 1
-22.014661 -5.415422 18.891263 29.510201 0.241203 0.876089 0.090538 -0.014988 -366989.000000 0 0 1
-22.960361 -5.033822 20.034363 30.885163 0.215825 0.864957 0.067538 0.000643 -574614.000000 0 0 1
-22.762261 -3.758722 20.680463 30.982739 0.163653 0.839972 0.068896 0.005101 42620.800000 0 0 1
-23.687961 -3.542722 21.707663 32.324805 0.148458 0.834500 0.058218 -0.001202 -245215.000000 0 0 1
-23.501461 -2.130122 22.336763 32.492878 0.090391 0.812844 0.048292 0.002083 -97289.200000 0 0 1
-24.148961 -1.154222 21.573363 32.402385 0.047760 0.842237 0.070766 -0.002948 -184323.000000 0 0 1
-24.087261 0.171478 21.975863 32.606198 -0.007119 0.831216 0.070942 -0.005489 727866.000000 0 0 1
-25.434501 0.833978 21.500163 33.314657 -0.032777 0.869293 0.085354 -0.017070 1137540.000000 0 0 1
-26.583271 0.487778 22.269163 34.681751 -0.018347 0.873561 0.093079 -0.015673 -700065.000000 0 0 1
-27.684961 1.195178 21.835063 35.279676 -0.043144 0.903438 0.108388 -0.016940 -1056670.000000 0 0 1
-28.671251 1.280578 22.984863 36.769342 -0.044635 0.895525 0.099172 -0.014563 -872061.000000 0 0 1
-28.318361 2.145678 24.040463 37.208566 -0.075625 0.868332 0.086858 -0.011238 165451.000000 0 0 1
-29.134601 2.053578 25.222563 38.590412 -0.070369 0.858469 0.082930 -0.014539 -78756.800000 0 0 1
-28.764921 2.971278 26.383563 39.145135 -0.102930 0.831195 0.093442 -0.018790 385768.000000 0 0 1
-27.636031 2.529078 27.159663 38.830320 -0.091260 0.796176 0.074116 -0.028406 745430.000000 0 0 1
-27.375681 3.399978 28.253663 39.487432 -0.123564 0.773442 0.065614 -0.027237 -473528.000000 0 0 1
-26.264101 2.911278 29.167763 39.357807 -0.110396 0.736101 0.069299 -0.028060 -317988.000000 0 0 1
-26.553601 1.789278 29.972063 40.082663 -0.067282 0.726120 0.069243 -0.027520 305085.000000 0 0 1
-25.466351 1.668078 30.858863 40.044812 -0.065408 0.691001 0.062258 -0.030247 -240419.000000 0 0 1
-25.579821 0.467078 31.848663 40.851962 -0.018258 0.676751 0.060561 -0.030674 -168631.000000 0 0 1
-25.901121 -0.668222 31.151863 40.518554 0.025793 0.693788 0.052327 -0.033190 -363413.000000 0 0 1
-26.221731 -1.755922 31.972063 41.386898 0.066865 0.688002 0.059984 -0.026463 -792653.000000 0 0 1
-26.854901 -2.805222 31.077163 41.168496 0.104081 0.715329 0.055618 -0.019225 -173692.000000 0 0 1
-28.171311 -2.551322 30.645463 41.704633 0.090318 0.745393 0.070106 -0.018039 -37116.200000 0 0 1
-28.348441 -1.436822 29.786763 41.145472 0.050641 0.761303 0.069937 -0.019841 -1150530.000000 0 0 1
-29.748821 -1.281322 29.160663 41.677073 0.043045 0.795845 0.095877 -0.023467 176786.000000 0 0 1
-30.721491 -0.759022 30.018463 42.959217 0.024702 0.797125 0.123229 -0.023691 -470882.000000 0 0 1
-32.038741 -0.929622 29.513063 43.570243 0.029007 0.826618 0.111403 -0.024443 95632.600000 0 0 1
-32.984361 -0.379122 30.578863 44.979759 0.011493 0.823257 0.108782 -0.020846 -457877.000000 0 0 1
-33.213711 -1.353722 31.593663 45.860034 0.040735 0.810805 0.114435 -0.012822 -622672.000000 0 0 1
-34.149663 -0.842122 32.459163 47.122245 0.024655 0.810924 0.138182 -0.018978 -471449.000000 0 0 1
-34.621171 -1.913022 33.471063 48.193332 0.055200 0.803049 0.131156 -0.011765 -155019.000000 0 0 1
-35.414883 -2.920922 32.898263 48.425628 0.082291 0.823911 0.087005 -0.014499 -317586.000000 0 0 1
-35.492230 -3.997822 33.851263 49.209644 0.112167 0.812206 0.075337 -0.007323 -739842.000000 0 0 1
-36.605221 -5.005022 33.694263 50.002958 0.135887 0.831395 0.072200 -0.020625 -357607.000000 0 0 1
35.878718 -4.571622 -33.763771 49.479030 -0.126736 2.321817 0.073903 -0.027615 409831.000000 0 0 1
34.775478 -5.391122 33.873663 48.844889 -0.153802 0.804468 0.073257 -0.026726 55131.300000 0 0 1
33.388528 -4.873022 -33.713371 47.698339 -0.144926 2.355766 0.085993 -0.031408 -456972.000000 0 0 1
32.995698 -5.227222 -32.447771 46.571427 -0.157116 2.341627 0.080458 -0.033684 -3954.420000 0 0 1
32.644468 -6.593422 -32.279771 46.380148 -0.199296 2.340584 0.080484 -0.030099 -430181.000000 0 0 1
31.288818 -7.011322 -32.917771 45.953547 -0.220442 2.369321 0.082722 -0.025817 -431582.000000 0 0 1
30.197828 -6.877722 -32.061871 44.577746 -0.223936 2.373497 0.083673 -0.028528 -223607.000000 0 0 1
28.969178 -7.031722 -32.760171 44.293196 -0.238126 2.403303 0.096759 -0.033813 831278.000000 0 0 1
27.722058 -6.959222 -31.785671 42.746604 -0.245953 2.409210 0.089887 -0.036052 569585.000000 0 0 1
26.500958 -7.204622 -32.440271 42.503865 -0.265447 2.439095 0.078649 -0.034485 -35053.000000 0 0 1
25.375758 -6.825422 -31.652971 41.139106 -0.262755 2.448718 0.070816 -0.033556 -187786.000000 0 0 1
24.099458 -7.368222 -32.308771 40.974764 -0.296717 2.479169 0.080127 -0.037447 -433735.000000 0 0 1
23.857958 -8.776522 -32.255471 41.068783 -0.352501 2.474140 0.088724 -0.046562 180349.000000 0 0 1
23.545258 -9.311022 -30.978971 40.009636 -0.376580 2.456385 0.089256 -0.046765 -351810.000000 0 0 1
23.428358 -10.816722 -30.810471 40.189235 -0.432536 2.444380 0.099849 -0.041254 -185454.000000 0 0 1
22.281858 -11.298022 -31.448871 40.164138 -0.469272 2.470285 0.112596 -0.044959 -139961.000000 0 0 1
22.007358 -12.691022 -31.278971 40.295904 -0.523090 2.459463 0.106694 -0.032854 -34201.900000 0 0 1
20.877658 -13.259622 -32.202071 40.603788 -0.565837 2.486646 0.092524 -0.022627 471561.000000 0 0 1
19.513858 -13.056422 -31.929671 39.632874 -0.589675 2.507545 0.073410 -0.013795 100170.000000 0 0 1
19.107058 -11.695722 -32.157771 39.191732 -0.549280 2.533124 0.062622 -0.019279 -590227.000000 0 0 1
17.715258 -11.264722 -31.669171 37.995536 -0.566383 2.556204 0.056282 -0.019165 460276.000000 0 0 1
16.618958 -11.714422 -32.475371 38.315365 -0.613996 2.582206 0.034891 -0.005507 665050.000000 0 0 1
15.361058 -11.319222 -31.908871 37.178797 -0.635050 2.602655 0.053776 -0.009964 160067.000000 0 0 1
14.254758 -11.810322 -32.812771 37.674392 -0.691890 2.627943 0.044843 -0.012803 -1099020.000000 0 0 1
13.960158 -13.219222 -32.714071 37.945280 -0.758144 2.610271 0.054554 -0.008043 844923.000000 0 0 1
12.706658 -13.507422 -33.367671 38.174744 -0.815936 2.634329 0.035475 -0.008778 127158.000000 0 0 1
11.496558 -13.545722 -32.455571 37.000291 -0.867044 2.640734 0.036127 -0.012610 -837994.000000 0 0 1
11.268758 -12.279222 -31.829271 35.928634 -0.828283 2.659233 0.075627 -0.007066 -80629.800000 0 0 1
10.101458 -12.335622 -31.027371 34.884163 -0.884646 2.666915 0.076649 -0.019676 75273.700000 0 0 1
8.846558 -11.715122 -31.603671 34.846775 -0.924014 2.706741 0.073624 -0.018261 -640320.000000 0 0 1
9.189158 -10.354822 -31.809571 34.691668 -0.844971 2.731095 0.065333 -0.010789 458007.000000 0 0 1
8.079258 -9.622822 -32.304671 34.662154 -0.872375 2.770652 0.064926 -0.006582 -13539.800000 0 0 1
8.352458 -8.125522 -32.470871 34.498480 -0.771627 2.797038 0.074598 -0.009496 -265737.000000 0 0 1
8.718958 -7.302922 -31.419771 33.414891 -0.697246 2.794285 0.062915 -0.014588 312731.000000 0 0 1
9.113258 -6.006622 -31.904171 33.719536 -0.582751 2.811965 0.052104 0.001455 3471.490000 0 0 1
9.469758 -5.046422 -30.745071 32.563816 -0.489619 2.805797 0.046684 -0.003791 -520799.000000 0 0 1
8.353758 -4.770822 -29.974371 31.480295 -0.518898 2.831034 0.052733 -0.006959 -532560.000000 0 0 1
8.678358 -3.821922 -28.981671 30.493577 -0.414839 2.825376 0.044824 0.000449 602713.000000 0 0 1
7.397458 -3.210222 -28.273471 29.400971 -0.409438 2.863756 0.041747 0.001007 717782.000000 0 0 1
6.582958 -2.558422 -29.227371 30.068590 -0.370678 2.904493 0.046017 0.002401 149841.000000 0 0 1
5.349658 -2.003422 -28.798271 29.359376 -0.358328 2.945772 0.063249 -0.006435 742268.000000 0 0 1
4.156558 -2.994822 -28.932871 29.382937 -0.624356 2.966341 0.052036 -0.016901 -164615.000000 0 0 1
4.245758 -3.946222 -27.886671 28.482724 -0.748850 2.936653 0.054997 -0.010505 365397.000000 0 0 1
3.189258 -4.916722 -27.801471 28.412450 -0.995367 2.933836 0.069958 -0.014233 452672.000000 0 0 1
3.256358 -5.665322 -26.508871 27.302381 -1.049122 2.899908 0.041962 -0.020745 -38122.900000 0 0 1
2.891658 -4.923922 -25.370871 26.005534 -1.039792 2.920211 0.052734 -0.023699 -22225.300000 0 0 1
3.212258 -5.660022 -24.191171 25.051292 -1.054591 2.878790 0.051964 -0.036642 6519.460000 0 0 1
3.108758 -4.897122 -22.819571 23.545255 -1.005171 2.892673 0.062706 -0.041610 60346.800000 0 1 0
4.191158 -4.011322 -22.647471 23.378718 -0.763477 2.890823 0.061764 -0.031053 -152426.000000 0 1 0
4.172058 -3.340622 -21.389371 22.047019 -0.675176 2.896730 0.066376 -0.030821 298747.000000 0 1 0
5.236658 -2.214222 -21.205371 21.954342 -0.400032 2.879636 0.082518 -0.031215 1034120.000000 0 1 0
6.493758 -2.615322 -20.639471 21.794416 -0.382870 2.814584 0.073785 -0.036616 1002320.000000 0 1 0
7.461058 -1.547222 -20.697271 22.055347 -0.204475 2.788837 0.098196 -0.016121 525087.000000 0 1 0
8.871358 -1.915322 -20.198171 22.143522 -0.212636 2.719291 0.074838 -0.027798 -733111.000000 0 1 0
9.606958 -2.726722 -21.093871 23.338382 -0.276555 2.699428 0.080529 -0.037429 460158.000000 0 1 0
10.787558 -3.314422 -20.580671 23.471703 -0.298090 2.640023 0.070186 -0.040152 763648.000000 0 1 0
11.969658 -2.500122 -19.996971 23.439330 -0.205911 2.592767 0.066034 -0.032337 -695399.000000 0 1 0
11.682858 -2.003522 -18.682271 22.125337 -0.169840 2.576210 0.065495 -0.030846 -224585.000000 0 1 0
12.747258 -1.433222 -18.000271 22.103314 -0.111964 2.522439 0.060701 -0.030352 -786481.000000 0 1 0
12.921158 0.078478 -18.206671 22.325890 0.006074 2.524382 0.058186 -0.026015 41471.300000 0 1 0
13.478158 0.474378 -19.458471 23.675259 0.035182 2.535518 0.067840 -0.028628 448090.000000 0 1 0
13.383458 1.901378 -19.492171 23.720812 0.141125 2.535242 0.071732 -0.037960 -131982.000000 0 1 0
13.727358 2.516878 -20.888571 25.121852 0.181334 2.552581 0.065653 -0.033929 443531.000000 0 0 1
15.091058 2.567378 -21.315771 26.242972 0.168512 2.518790 0.070906 -0.034196 578708.000000 0 0 1
15.251858 3.574778 -22.323071 27.271189 0.230227 2.529694 0.076672 -0.040143 433710.000000 0 0 1
16.752658 3.897278 -22.715871 28.493002 0.228571 2.493512 0.065683 -0.036466 1199690.000000 0 0 1
17.408158 3.043278 -23.636971 29.512911 0.173070 2.499598 0.059715 -0.027840 172324.000000 0 0 1
17.653658 1.746278 -23.079771 29.109740 0.098598 2.486274 0.048592 -0.022188 -760225.000000 0 0 1
9.596239 27.116978 3.254963 28.948456 1.230666 1.458118 0.011579 -0.010698 -35736.800000 0 0 1
9.570639 27.284778 4.650963 29.286306 1.233437 1.411311 0.027818 -0.007203 1323820.000000 0 0 1
10.838139 27.799878 5.168963 30.282283 1.199059 1.399264 0.024361 -0.005172 1017810.000000 0 0 1
10.800739 28.173378 6.656663 30.898323 1.204711 1.353656 0.030094 -0.010070 -53772.900000 0 0 1
10.745639 27.144178 7.576563 30.160893 1.193853 1.316871 0.033996 -0.019668 81237.900000 0 0 1
10.667639 27.633878 8.885863 30.925528 1.202387 1.279357 0.042584 -0.021488 -624491.000000 0 0 1
10.553239 26.451578 9.941863 30.164507 1.191183 1.234929 0.062172 -0.021905 -342686.000000 0 0 1
11.765639 25.808378 10.184463 30.136787 1.143060 1.226068 0.046177 -0.020204 44341.000000 0 0 1
12.458139 25.160478 9.083863 29.508837 1.111039 1.257879 0.035529 -0.022939 -955029.000000 0 0 1
13.772239 24.561578 9.508763 29.721411 1.059758 1.245141 0.055587 -0.024051 -1593600.000000 0 0 1
14.765839 25.482278 9.768763 31.029103 1.045620 1.250523 0.048370 -0.022068 39701.700000 0 0 1
15.915539 24.752178 10.252563 31.162313 0.999361 1.235546 0.047582 -0.022446 719647.000000 0 0 1
17.099939 25.615078 10.771763 32.627764 0.982166 1.234343 0.053630 -0.025576 -692301.000000 0 0 1
17.630539 26.306878 9.673663 33.112950 0.980360 1.274331 0.045350 -0.026221 -1108330.000000 0 0 1
18.994639 26.461278 9.781863 34.010004 0.948205 1.279058 0.052248 -0.029972 -632641.000000 0 0 1
19.688139 27.233678 10.993763 35.357586 0.944844 1.254624 0.052468 -0.028487 -813265.000000 0 0 1
19.648339 28.694778 10.799663 36.415385 0.970388 1.269699 0.057315 -0.036262 387301.000000 0 0 1
18.371439 29.235378 11.118363 36.274441 1.009758 1.259275 0.036797 -0.018722 214084.000000 0 0 1
18.482539 30.725078 11.445263 37.638128 1.029241 1.261816 0.026617 -0.011184 -548702.000000 0 0 1
18.911039 31.554278 10.382863 38.224386 1.030879 1.295711 0.051295 -0.026251 -282424.000000 0 0 1
18.200239 31.612778 9.179063 37.614779 1.048418 1.324279 0.049218 -0.027381 94077.100000 0 0 1
16.819839 32.323278 9.225863 37.587469 1.090991 1.322812 0.044384 -0.020395 -66939.400000 0 0 1
16.939739 33.721178 9.550563 38.926673 1.105273 1.322918 0.040772 -0.021485 -915817.000000 0 0 1
15.738339 -33.758756 9.678763 38.484119 -1.134552 1.316566 0.056454 -0.011545 -931143.000000 0 0 1
15.832539 -32.280656 10.070963 37.338109 -1.114806 1.297691 0.067010 -0.008864 -519270.000000 0 0 1
16.576939 -31.665456 9.013363 36.861046 -1.088524 1.323769 0.070890 -0.017362 311398.000000 0 0 1
16.612639 -30.240056 9.112763 35.685897 -1.068446 1.312576 0.050417 -0.020143 73873.800000 0 0 1
17.341539 -29.743156 7.792763 35.300304 -1.042939 1.348207 0.055481 -0.020950 164428.000000 0 0 1
16.613839 -30.042756 6.642563 34.967278 -1.065648 1.379670 0.053398 -0.015365 114194.000000 0 0 1
17.173039 -29.284056 5.542563 34.397518 -1.040415 1.408958 0.062122 -0.012392 152853.000000 0 0 1
16.686839 -29.761456 4.129463 34.369279 -1.059786 1.450356 0.062492 -0.014510 -9038.940000 0 0 1
17.086939 -31.055656 3.756763 35.644502 -1.067797 1.465205 0.057893 -0.014233 -108767.000000 0 0 1
17.029539 -31.250956 2.374363 35.668825 -1.071855 1.504180 0.064233 -0.015736 -258297.000000 0 0 1
17.333039 -32.701456 1.933463 37.061540 -1.083408 1.518604 0.064975 -0.013411 -1492720.000000 0 0 1
18.656639 -33.024256 2.029263 37.984070 -1.056557 1.517347 0.067401 -0.000297 -1188820.000000 0 0 1
18.927539 33.863978 1.373063 38.818888 1.061124 1.535418 0.093543 -0.010986 -681578.000000 0 0 1
20.317139 33.361178 1.698163 39.097802 1.023781 1.527349 0.103156 -0.016745 -678331.000000 0 0 1
20.464039 33.056078 3.038763 38.996349 1.016472 1.492793 0.088941 -0.029565 199413.000000 0 0 1
21.819539 32.741278 3.288163 39.482852 0.982962 1.487419 0.064976 -0.017460 1319.340000 0 0 1
22.110539 32.546978 4.787863 39.637171 0.974070 1.449708 0.068893 -0.007439 -1835.220000 0 0 1
21.566439 31.444778 5.518763 38.527160 0.969629 1.427058 0.083345 -0.021869 422405.000000 0 0 1
22.323439 30.238078 5.269563 37.953202 0.934854 1.431503 0.068930 -0.025332 625646.000000 0 0 1
21.666239 29.062178 6.060063 36.752693 0.930173 1.405152 0.076547 -0.031935 619017.000000 0 0 1
20.378239 28.711878 5.553463 35.643871 0.953557 1.414355 0.079032 -0.031203 -26050.500000 0 0 1
19.535239 28.446978 6.639163 35.141636 0.969036 1.380728 0.071768 -0.033932 237604.000000 0 0 1
18.032939 28.582178 6.214663 34.362040 1.007954 1.388937 0.073066 -0.028321 164046.000000 0 0 1
17.485939 29.869678 6.225963 35.167006 1.041176 1.392818 0.064536 -0.034414 118000.000000 0 0 1
17.864339 30.728178 5.102163 35.908044 1.044190 1.428224 0.082952 -0.033372 -97168.700000 0 0 1
17.878539 32.191878 5.488863 37.230186 1.063836 1.422826 0.090585 -0.031432 597406.000000 0 0 1
16.568239 32.724278 5.678763 37.116482 1.102123 1.417195 0.066899 -0.032181 200421.000000 0 0 1
16.604539 -34.012956 5.562063 38.256090 -1.116647 1.424889 0.066298 -0.030450 -216521.000000 0 0 1
15.313539 -33.181856 5.658263 36.980481 -1.138417 1.417186 0.059245 -0.027402 -316159.000000 0 0 1
14.346439 -33.327656 4.668763 36.583471 -1.164305 1.442828 0.065514 -0.024550 -49220.300000 0 0 1
13.329339 -32.324256 4.768263 35.288315 -1.179678 1.435259 0.052971 -0.018549 350457.000000 0 0 1
12.488339 -32.333356 3.465463 34.834092 -1.202211 1.471147 0.054728 -0.016198 -221796.000000 0 0 1
11.453439 -31.393556 3.546363 33.605258 -1.220968 1.465069 0.054958 -0.016792 -275073.000000 0 0 1
10.799639 -31.259856 2.313363 33.153619 -1.238154 1.500962 0.054471 -0.011742 300636.000000 0 0 1
9.695439 -30.122856 2.241263 31.723986 -1.259404 1.500089 0.052964 -0.009987 341631.000000 0 0 1
9.218739 -29.595556 1.047763 31.015801 -1.268831 1.537008 0.060034 0.000174 -298819.000000 0 0 1
8.240139 -30.316656 0.328563 31.418267 -1.305405 1.560338 0.048515 -0.007230 -343607.000000 0 0 1
8.667139 -30.926356 -1.039437 32.134705 -1.297555 1.603148 0.060015 -0.015761 853410.000000 0 0 1
9.827639 -31.808756 -0.977237 33.306673 -1.271140 1.600141 0.057307 -0.014036 826485.000000 0 0 1
9.743839 -32.786956 -2.012237 34.263333 -1.281923 1.629559 0.059068 -0.004894 -750855.000000 0 0 1
10.993139 -33.626456 -2.090637 35.439504 -1.254829 1.629822 0.063426 -0.012944 -741007.000000 0 0 1
11.115539 33.696278 -0.951437 35.495064 1.252162 1.597604 0.059198 -0.014345 -46323.600000 0 0 1
12.185839 32.797478 -1.063437 35.004287 1.215055 1.601181 0.073096 -0.020112 -490995.000000 0 0 1
12.304339 31.830178 0.154163 34.125954 1.201928 1.566279 0.062371 -0.019313 -302007.000000 0 0 1
12.680639 32.328678 1.466263 34.757617 1.196996 1.528598 0.057608 -0.015075 283507.000000 0 0 1
13.903739 33.043378 1.550063 35.882886 1.172512 1.527585 0.067429 -0.016072 399325.000000 0 0 1
15.173139 32.136478 1.692263 35.578661 1.129678 1.523214 0.087092 -0.023450 -346528.000000 0 0 1
15.643839 31.636678 0.497763 35.296697 1.111571 1.556694 0.085497 -0.021671 -378707.000000 0 0 1
16.570339 30.656478 0.865163 34.858920 1.075263 1.545975 0.099906 -0.019896 -509814.000000 0 0 1
17.417439 30.060478 -0.256237 34.742843 1.045652 1.578172 0.097262 -0.018519 -69860.400000 0 0 1
18.484239 30.845078 -0.780337 35.967970 1.030921 1.592493 0.083616 -0.011447 276866.000000 0 0 1
18.082639 31.908278 -1.660337 36.713441 1.055217 1.616036 0.091904 -0.020246 179099.000000 0 0 1
19.303839 32.402178 -2.509737 37.799975 1.033502 1.637240 0.082165 -0.017343 894113.000000 0 0 1
20.283739 33.023278 -1.665637 38.790995 1.019983 1.613748 0.065262 -0.007252 96428.700000 0 0 1
21.259639 33.695978 -2.420637 39.915544 1.007948 1.631478 0.054241 -0.002147 -479610.000000 0 0 1
22.354439 -33.673056 -1.582137 40.448718 -0.984734 1.609921 0.044275 -0.001757 116746.000000 0 0 1
23.341539 33.756378 -0.823337 41.048732 0.965818 1.590855 0.046704 -0.003748 752830.000000 0 0 1
24.097339 32.723278 -1.455137 40.664629 0.936058 1.606588 0.059109 -0.003380 -576865.000000 0 0 1
24.892839 33.093878 -2.703437 41.498997 0.925896 1.635987 0.041407 -0.005851 -1096290.000000 0 0 1
24.100939 33.560378 -3.815137 41.493487 0.948002 1.662872 0.043961 -0.017948 -238053.000000 0 0 1
24.873939 -33.705856 -4.570937 42.138949 -0.935038 1.679483 0.041325 -0.013984 -435277.000000 0 0 1
24.270039 -33.326456 -5.931437 41.651764 -0.941360 1.713687 0.048453 -0.023867 282348.000000 0 0 1
23.018739 -32.678556 -5.675337 40.372761 -0.957124 1.711837 0.049364 -0.018278 436723.000000 0 0 1
22.510039 -32.128456 -6.860637 39.824715 -0.959650 1.743931 0.050970 -0.021955 -448000.000000 0 0 1
21.612239 -30.933056 -6.612437 38.310144 -0.960958 1.744268 0.055066 -0.016026 660391.000000 0 0 1
20.331839 -31.165256 -5.972937 37.687303 -0.992744 1.729954 0.070931 -0.013679 569587.000000 0 0 1
19.663239 -29.950056 -5.984637 36.324437 -0.989841 1.736306 0.085063 -0.018302 413962.000000 0 0 1
18.460439 -29.888956 -4.978637 35.481324 -1.017511 1.711578 0.071080 -0.008714 303603.000000 0 0 1
17.267739 -30.485256 -5.380237 35.446757 -1.055427 1.723169 0.081623 -0.013668 -346055.000000 0 0 1
16.270839 -30.362456 -4.367437 34.723097 -1.078853 1.696909 0.060843 -0.011062 1177780.000000 0 0 1
14.868739 -30.939356 -4.801737 34.660927 -1.122808 1.709778 0.064510 -0.010199 907985.000000 0 0 1
14.954039 -32.370356 -4.895537 35.992076 -1.138035 1.707236 0.066380 -0.002338 -459946.000000 0 0 1
13.683039 -32.881056 -5.170037 35.987758 -1.176456 1.714956 0.063887 0.003492 -321150.000000 0 0 1
13.634739 33.717178 -5.449137 36.775634 1.186515 1.719516 0.064393 -0.001701 -67125.200000 0 0 1
13.931239 32.949078 -4.275437 36.027774 1.170781 1.689747 0.080907 -0.020790 -117808.000000 0 0 1
14.197039 31.604378 -4.591637 34.949617 1.148599 1.702556 0.072549 -0.019440 1182690.000000 0 0 1
12.982239 30.534178 -4.782237 33.522296 1.168781 1.713943 0.061465 -0.020045 874028.000000 0 0 1
12.256539 30.158378 -3.646137 32.757363 1.184780 1.682335 0.053343 -0.018947 95006.400000 0 0 1
12.943739 29.380878 -2.660137 32.215721 1.155829 1.653463 0.053305 -0.020200 346924.000000 0 0 1
11.857239 28.517478 -1.904537 30.942979 1.176754 1.632385 0.040677 -0.016374 1319170.000000 0 0 1
10.812539 29.310378 -1.301237 31.268234 1.217386 1.612424 0.028804 -0.019668 200034.000000 0 0 1
9.983439 28.517478 -0.481537 30.218330 1.234049 1.586732 0.015660 -0.014935 445846.000000 0 0 1
8.779639 29.328078 0.098663 30.614179 1.279927 1.567574 0.015250 -0.007863 1009620.000000 0 0 1
7.894639 28.545678 0.947463 29.632393 1.300979 1.538817 0.014040 -0.014339 -203699.000000 0 0 1
6.741339 29.256778 1.240063 30.049001 1.344329 1.529517 0.032221 -0.010054 -619595.000000 0 0 1
5.657639 28.438478 1.969663 29.062613 1.374417 1.502971 0.039010 -0.020004 -40329.200000 0 0 1
5.055039 27.461278 1.166063 27.947002 1.388755 1.529060 0.050775 -0.026848 450235.000000 0 0 1
3.995139 26.755378 1.854663 27.115515 1.422571 1.502344 0.051925 -0.032233 847377.000000 0 0 1
3.188139 25.825778 0.909663 26.037714 1.447970 1.535853 0.064812 -0.033616 433821.000000 0 0 1
1.987339 25.303078 1.475563 25.423858 1.492416 1.512725 0.061488 -0.034260 525767.000000 0 0 1
1.396539 24.348278 0.589163 24.395411 1.513502 1.546643 0.053519 -0.032764 688974.000000 0 1 0
-0.042961 23.855278 0.940663 23.873856 -1.568995 1.531385 0.055492 -0.028240 388761.000000 0 1 0
-1.057961 24.802678 0.761863 24.836919 -1.528167 1.540117 0.070401 -0.030141 -230540.000000 0 1 0
-2.280861 24.182278 1.124463 24.315619 -1.476755 1.524535 0.064094 -0.020798 575858.000000 0 1 0
-3.450561 25.086178 1.645663 25.375794 -1.434106 1.505899 0.086168 -0.032241 893446.000000 0 0 1
-4.717761 24.419778 1.590363 24.922120 -1.379953 1.506940 0.082178 -0.026877 -177237.000000 0 1 0
-5.621061 25.028878 2.420163 25.766223 -1.349879 1.476730 0.067010 -0.022281 -456105.000000 0 0 1
-6.953561 25.373678 1.730763 26.366097 -1.303317 1.505106 0.071234 -0.022489 -301383.000000 0 0 1
-6.790361 26.430378 0.810863 27.300758 -1.319320 1.541091 0.091042 -0.031287 432743.000000 0 0 1
-7.878661 26.615178 -0.125737 27.757104 -1.282994 1.575326 0.085968 -0.022141 435855.000000 0 0 1
-7.640061 27.689478 -1.119837 28.745987 -1.301576 1.609762 0.082808 -0.026528 26428.200000 0 0 1
-7.867061 29.017378 -0.711637 30.073332 -1.306045 1.594462 0.090345 -0.038271 -182922.000000 0 0 1
-7.800961 29.853278 -1.838337 30.910398 -1.315202 1.630305 0.090686 -0.038707 -27462.200000 0 0 1
-7.983061 31.390178 -1.608137 32.429287 -1.321759 1.620406 0.080080 -0.040269 -955238.000000 0 0 1
-7.956061 32.284578 -2.754237 33.364333 -1.329175 1.653441 0.071994 -0.030711 1297540.000000 0 0 1
-6.636761 32.473978 -3.376237 33.316735 -1.369201 1.672308 0.071169 -0.029777 1742150.000000 0 0 1
-5.519261 32.964778 -2.416137 33.510842 -1.404906 1.642959 0.084511 -0.040381 -976494.000000 0 0 1
-5.480961 -33.775256 -2.255137 34.291318 1.409921 1.636608 0.082694 -0.033826 -15353.200000 0 0 1
-4.599461 -33.446556 -1.194337 33.782445 1.434137 1.606157 0.098315 -0.034234 204643.000000 0 0 1
-4.279461 -31.968656 -1.265937 32.278652 1.437723 1.610025 0.101535 -0.034377 454429.000000 0 0 1
-5.472861 -31.246856 -0.982137 31.737719 1.397406 1.601747 0.101215 -0.028086 299837.000000 0 0 1
-5.416061 -29.981256 -1.619837 30.509561 1.392076 1.623914 0.112637 -0.021677 215364.000000 0 0 1
-6.769161 -29.241656 -1.515437 30.053162 1.343313 1.621243 0.127785 -0.017695 211339.000000 0 0 1
-6.971661 -28.852556 -0.167037 29.683362 1.333710 1.576424 0.104935 -0.011291 259707.000000 0 0 1
-8.273661 -28.301556 0.040663 29.486153 1.286382 1.569417 0.081688 -0.009287 696690.000000 0 0 1
-8.419261 -27.732456 1.434263 29.017757 1.276050 1.521349 0.072346 -0.003666 596163.000000 0 0 1
-7.579461 -26.557156 1.550063 27.661046 1.292786 1.514729 0.099563 -0.009864 406500.000000 0 0 1
-7.215161 -26.133856 2.898863 27.266104 1.301422 1.464278 0.090095 -0.005733 239363.000000 0 0 1
-8.338861 -25.267856 3.507263 26.838444 1.252032 1.439741 0.071234 -0.002795 125688.000000 0 0 1
-8.244361 -23.927256 3.168263 25.505313 1.238977 1.446255 0.076122 -0.006951 -895563.000000 0 0 1
-9.140661 -23.131156 3.835863 25.165769 1.194464 1.417776 0.065812 -0.007784 -770694.000000 0 0 1
-8.629761 -21.683556 3.862463 23.655190 1.192027 1.406780 0.041896 -0.007452 443462.000000 0 1 0
-7.616061 -21.632056 4.862063 23.443334 1.232276 1.361884 0.028945 -0.007219 -209464.000000 0 1 0
-7.009461 -20.394056 5.163063 22.174474 1.239744 1.335801 0.016401 -0.013368 -107839.000000 0 1 0
-7.858761 -19.338556 5.857163 21.680550 1.184804 1.297240 0.026776 -0.016542 -272389.000000 0 1 0
-8.165161 -19.772256 7.155563 22.556907 1.179167 1.247997 0.025835 -0.016077 -30645.000000 0 1 0
-9.012661 -18.949756 7.928563 22.431751 1.126852 1.209537 0.024578 -0.010989 -715782.000000 0 1 0
-27.759511 29.095378 -5.737537 40.620818 -0.808890 1.712516 0.090384 -0.002438 98700.400000 0 0 1
-27.186801 29.934778 -4.757537 40.716670 -0.833469 1.687909 0.080471 -0.008352 200728.000000 0 0 1
-26.166091 29.284178 -3.998437 39.474231 -0.841571 1.672263 0.059365 -0.001303 367407.000000 0 0 1
-25.249511 30.307778 -3.277637 39.583357 -0.876194 1.653695 0.046380 -0.004898 -266482.000000 0 0 1
-25.854661 31.005378 -2.198937 40.430586 -0.875737 1.625211 0.033975 -0.007723 -122678.000000 0 0 1
-25.050461 31.983478 -1.623837 40.658398 -0.906364 1.610745 0.032168 -0.008685 -579583.000000 0 0 1
-23.906161 31.606378 -0.707437 39.635441 -0.923230 1.588646 0.021934 -0.007186 178430.000000 0 0 1
-22.768561 31.028078 -1.346537 38.509248 -0.937741 1.605770 0.040425 -0.011427 945182.000000 0 0 1
-21.715361 30.613178 -0.438237 37.535525 -0.953825 1.582472 0.044636 -0.007299 1258970.000000 0 0 1
-20.478661 30.090278 -1.255637 36.419459 -0.973227 1.605280 0.044261 -0.007241 366237.000000 0 0 1
-19.305061 29.914578 -0.481237 35.606165 -0.997704 1.584312 0.065010 -0.010751 -398419.000000 0 0 1
-18.334061 29.398478 -1.329637 34.672413 -1.013176 1.609154 0.065455 -0.010085 -159105.000000 0 0 1
-16.864361 29.752278 -0.976737 34.213429 -1.055127 1.599349 0.072379 -0.017632 202290.000000 0 0 1
-16.460761 29.082778 0.195063 33.418598 -1.055754 1.564959 0.067761 -0.011857 3894.870000 0 0 1
-15.312061 29.698878 0.757863 33.422402 -1.094765 1.548119 0.070283 -0.013689 224002.000000 0 0 1
-14.705661 28.899378 1.929663 32.483136 -1.100088 1.511356 0.080575 -0.023865 -56199.400000 0 0 1
-15.357761 29.127078 3.182863 33.081386 -1.085573 1.474434 0.076810 -0.020646 -272476.000000 0 0 1
-14.853661 28.391278 4.233063 32.320500 -1.088780 1.439448 0.080794 -0.034920 2282.810000 0 0 1
-13.510761 28.879878 4.822763 32.246660 -1.133217 1.420675 0.088713 -0.029445 -1061.820000 0 0 1
-13.486061 30.096178 5.569463 33.446565 -1.149525 1.403499 0.095427 -0.027877 -425347.000000 0 0 1
-13.639661 31.313178 4.830963 34.494836 -1.159991 1.430286 0.103793 -0.023862 29302.200000 0 0 1
-13.502861 32.643178 5.682263 35.779777 -1.178578 1.411309 0.095716 -0.020847 322843.000000 0 0 1
-14.617261 32.863678 6.529363 36.555687 -1.152288 1.391219 0.094094 -0.024359 280830.000000 0 0 1
-14.359161 -34.054756 7.182063 37.649621 1.171767 1.378859 0.112205 -0.033558 479588.000000 0 0 1
-15.574061 -33.625656 8.052963 37.922109 1.137053 1.356812 0.098974 -0.031646 420654.000000 0 0 1
-15.791061 33.701478 9.218763 38.342311 -1.132618 1.327984 0.075975 -0.028379 152942.000000 0 0 1
-16.999061 34.055678 9.872263 39.321990 -1.107825 1.317019 0.087316 -0.032788 -330207.000000 0 0 1
-17.124461 33.232078 11.233763 39.036081 -1.094984 1.278889 0.079159 -0.028854 612060.000000 0 0 1
-16.175661 33.549378 12.276063 39.216253 -1.121535 1.252409 0.079888 -0.033696 195810.000000 0 0 1
-14.886261 33.020378 12.057363 38.174941 -1.147260 1.249449 0.080952 -0.030022 -547139.000000 0 0 1
-13.918861 33.359978 13.208863 38.485022 -1.175523 1.220452 0.079047 -0.028685 -670800.000000 0 0 1
-14.141561 32.670778 14.428163 38.412698 -1.162295 1.185742 0.062601 -0.023596 -129965.000000 0 0 1
-13.870461 31.304278 14.559963 37.206721 -1.153708 1.168724 0.036331 -0.016679 224663.000000 0 0 1
-14.888061 30.259478 13.930163 36.487530 -1.113559 1.179076 0.038728 -0.019099 378145.000000 0 0 1
-14.630861 30.054578 12.536763 35.700283 -1.117756 1.211979 0.040449 -0.015179 179273.000000 0 0 1
-15.729661 29.449578 11.893463 35.442268 -1.080225 1.228583 0.038744 -0.016272 -35923.600000 0 0 1
-15.543361 29.264578 10.336863 34.711127 -1.082554 1.268412 0.039755 -0.015299 185175.000000 0 0 1
-14.719961 28.144578 10.004963 33.300057 -1.088909 1.265633 0.028111 -0.016232 180043.000000 0 0 1
-14.572661 28.086778 8.601863 32.790572 -1.092187 1.305363 0.042690 -0.016563 -613050.000000 0 0 1
-13.821861 26.934778 7.997463 31.312706 -1.096676 1.312528 0.049322 -0.019369 72558.700000 0 0 1
-12.449061 26.891278 8.398963 30.800366 -1.137233 1.294608 0.049380 -0.019132 405525.000000 0 0 1
-11.904761 25.645078 8.125063 29.417852 -1.136186 1.290963 0.053000 -0.020212 124066.000000 0 0 1
-10.782861 25.811578 7.045663 28.846993 -1.175080 1.324058 0.071054 -0.028413 -128778.000000 0 0 1
-11.294161 26.135978 5.815363 29.059695 -1.162901 1.369318 0.082519 -0.030272 392987.000000 0 0 1
-10.187161 26.101878 4.926263 28.449154 -1.198693 1.396759 0.093024 -0.022002 219183.000000 0 0 1
-10.471761 26.438378 3.441363 28.644172 -1.193672 1.450364 0.084624 -0.026409 -125826.000000 0 0 1
-10.483261 27.839178 3.223063 29.921677 -1.210654 1.462870 0.095302 -0.022037 113351.000000 0 0 1
-10.666261 28.131278 1.880663 30.144234 -1.208383 1.508367 0.083788 -0.024619 -75067.700000 0 0 1
-10.132661 29.574778 1.633563 31.305061 -1.240719 1.518591 0.104571 -0.031079 293248.000000 0 0 1
-10.959961 30.665378 2.048663 32.629483 -1.227540 1.507969 0.097436 -0.030087 71177.300000 0 0 1
-10.433961 31.906478 1.645963 33.609524 -1.254741 1.521804 0.095496 -0.026463 -163778.000000 0 0 1
-10.951861 33.115678 2.601963 34.976587 -1.251404 1.496336 0.085129 -0.021650 875348.000000 0 0 1
-12.287861 33.605878 2.395863 35.862051 -1.220251 1.503939 0.125843 -0.025135 448959.000000 0 0 1
-12.543861 -33.964456 1.119363 36.224104 1.217012 1.539890 0.104428 -0.025854 -237366.000000 0 0 1
-14.017261 -33.676656 0.750763 36.485126 1.176377 1.550218 0.112578 -0.027803 384498.000000 0 0 1
-14.797061 33.349378 0.349263 36.486381 -1.153195 1.561224 0.094870 -0.024960 -63631.600000 0 0 1
-15.190661 33.332978 -1.011337 36.645142 -1.143192 1.598398 0.082269 -0.026408 55831.900000 0 0 1
-14.045461 33.164378 -2.047637 36.074143 -1.170188 1.627589 0.078491 -0.026980 86360.200000 0 0 1
-13.744161 31.826078 -2.295137 34.742897 -1.163136 1.636905 0.076390 -0.023018 236550.000000 0 0 1
-12.331761 31.660778 -2.363237 34.059684 -1.199377 1.640237 0.073739 -0.021492 274707.000000 0 0 1
-11.935461 30.148978 -2.484137 32.520563 -1.193844 1.647257 0.062519 -0.029468 -140888.000000 0 0 1
-12.082761 29.522078 -3.687937 32.111479 -1.182317 1.685898 0.054478 -0.023413 -712531.000000 0 0 1
-11.063061 29.797678 -4.598137 32.115974 -1.215298 1.714463 0.056734 -0.028678 -384383.000000 0 0 1
-11.209961 29.004778 -5.934437 31.656878 -1.201993 1.759373 0.062866 -0.022512 -211473.000000 0 0 1
-11.284261 27.572878 -5.876337 30.366585 -1.182339 1.765538 0.052774 -0.012836 69274.600000 0 0 1
-11.294861 27.069578 -7.238537 30.211461 -1.175506 1.812746 0.043947 -0.006948 102887.000000 0 0 1
-11.803561 25.579478 -7.337437 29.111368 -1.138464 1.825591 0.059865 -0.006871 493122.000000 0 0 1
-10.987361 24.657878 -6.578637 27.785095 -1.151614 1.809835 0.044210 0.001618 488773.000000 0 0 1
-11.416961 23.341578 -6.853537 26.872797 -1.115886 1.828681 0.080111 -0.007895 -176802.000000 0 0 1
-10.996861 22.290978 -5.793737 25.522266 -1.112497 1.799800 0.068034 -0.005283 207728.000000 0 0 1
-9.563161 22.254278 -5.808137 24.908661 -1.164933 1.806140 0.072046 -0.007325 936675.000000 0 1 0
-8.964261 21.092678 -5.152837 23.490653 -1.168931 1.791952 0.069573 -0.000044 85715.400000 0 1 0
-9.040461 21.050678 -3.595337 23.190244 -1.165153 1.726461 0.059416 -0.001448 206015.000000 0 1 0
-10.330361 20.835678 -3.004737 23.449313 -1.110513 1.699287 0.074765 -0.007724 583719.000000 0 1 0
-10.758161 19.456678 -3.078937 22.445049 -1.065707 1.708407 0.070286 -0.011338 -238003.000000 0 1 0
-12.136461 19.242078 -2.428937 22.879051 -1.008091 1.677161 0.076892 -0.012254 -314170.000000 0 1 0
-12.272861 19.114478 -1.009237 22.737743 -1.000015 1.615197 0.074386 -0.014358 248228.000000 0 1 0
-11.591261 17.955478 -0.528737 21.378402 -0.997552 1.595531 0.056132 -0.020148 -12186.400000 0 1 0
-11.271761 18.106878 0.964963 21.350475 -1.013988 1.525585 0.050919 -0.016149 1582860.000000 0 1 0
-12.552661 18.058978 1.689663 22.057900 -0.963372 1.494120 0.067161 -0.021743 1851660.000000 0 1 0
-12.322961 18.203778 3.104863 22.200745 -0.975711 1.430482 0.066633 -0.025366 -249024.000000 0 1 0
-13.603861 18.092778 3.923363 22.974038 -0.926084 1.399181 0.056510 -0.024919 -151132.000000 0 1 0
-14.138361 16.804578 4.218563 22.362544 -0.871351 1.381015 0.042055 -0.021133 551921.000000 0 1 0
-15.317361 16.927478 5.017263 23.373789 -0.835291 1.354459 0.057125 -0.025081 358643.000000 0 1 0
-15.628961 15.610678 5.841263 22.849027 -0.784813 1.312280 0.043550 -0.020316 -107805.000000 0 1 0
-14.686561 15.308878 6.870563 22.299360 -0.806142 1.257595 0.036889 -0.013763 133760.000000 0 1 0
-15.051161 15.916478 8.111863 23.359667 -0.813334 1.216149 0.032765 -0.011515 -962265.000000 0 1 0
-13.945761 15.911078 9.198363 23.070686 -0.851128 1.160694 0.016055 -0.001124 755222.000000 0 1 0
-12.830661 16.743878 8.903263 22.896537 -0.916951 1.171416 0.022978 -0.017027 146350.000000 0 1 0
-11.959861 16.347578 7.862063 21.727716 -0.939177 1.200550 0.023889 -0.013950 -1177710.000000 0 1 0
-10.862061 17.399178 7.693863 21.906878 -1.012711 1.211936 0.038960 -0.019286 133264.000000 0 1 0
-9.822161 17.238478 8.664963 21.649978 -1.052893 1.159029 0.041478 -0.019367 111268.000000 0 1 0
-9.034861 18.388778 8.820963 22.306619 -1.114113 1.164248 0.041476 -0.024009 -516323.000000 0 1 0
-7.772061 18.326978 9.677263 22.134419 -1.169707 1.118309 0.042063 -0.025213 -889740.000000 0 1 0
-6.772661 17.617878 9.040363 20.928133 -1.203793 1.124118 0.034439 -0.022055 303826.000000 0 1 0
-5.522861 17.695978 9.785463 20.961988 -1.268279 1.085105 0.028845 -0.023350 1962240.000000 0 1 0
-4.418261 18.723578 9.317763 21.375550 -1.339062 1.119750 0.016733 -0.025805 -472016.000000 0 1 0
-4.879061 20.046678 9.443863 22.690551 -1.332053 1.141531 0.027762 -0.033409 -340468.000000 0 1 0
-4.417761 21.027378 8.578463 23.135628 -1.363712 1.190937 0.027913 -0.031313 -456956.000000 0 1 0
-2.978161 21.558378 8.775363 23.465722 -1.433521 1.187516 0.031246 -0.028708 -97073.900000 0 1 0
-1.987761 20.641178 8.340963 22.351311 -1.474792 1.188367 0.022390 -0.019270 -121243.000000 0 1 0
-0.808161 21.450578 8.172163 22.968776 -1.533139 1.207032 0.015510 -0.022416 336594.000000 0 1 0
0.446039 20.596378 7.916063 22.069748 1.549144 1.203939 0.010537 -0.014378 -260468.000000 0 1 0
0.801739 19.937578 9.122563 21.940168 1.530606 1.141982 0.008065 -0.020863 -936617.000000 0 1 0
2.111339 19.460778 9.162263 21.613114 1.462727 1.133026 0.004547 -0.020521 -495010.000000 0 1 0
2.509839 18.886278 10.517063 21.762339 1.438678 1.066411 -0.004347 -0.032805 -306199.000000 0 1 0
3.883939 18.613978 10.590463 21.765180 1.365091 1.062628 0.016183 -0.010978 -416254.000000 0 1 0
4.132239 18.055478 11.840163 21.983293 1.345808 1.002024 0.004270 -0.013517 216064.000000 0 1 0
5.641039 18.089178 12.161063 22.515131 1.268507 1.000207 0.035127 -0.013768 719983.000000 0 1 0
6.557939 17.265378 11.375063 21.690825 1.207796 1.018765 0.024380 -0.010595 538110.000000 0 1 0
7.544439 16.792178 12.268863 22.122857 1.148539 0.982940 0.025338 0.002818 -212185.000000 0 1 0
8.775439 16.090178 11.649763 21.716794 1.071499 1.004583 0.025490 -0.004384 552922.000000 0 1 0
9.644039 17.026078 10.979863 22.437741 1.055428 1.059454 0.037556 -0.016510 1574290.000000 0 1 0
10.900139 16.378878 10.559763 22.329113 0.983602 1.078201 0.033062 -0.012881 1450150.000000 0 1 0
11.764839 17.405078 9.801963 23.182464 0.976399 1.134244 0.036835 -0.014492 -38905.700000 0 1 0
12.976939 16.830778 9.310863 23.202763 0.913975 1.157880 0.048416 -0.015343 184450.000000 0 1 0
13.684539 17.876178 8.639863 24.113722 0.917437 1.204354 0.054388 -0.018735 42887.900000 0 1 0
14.669439 17.370678 7.578163 23.965839 0.869507 1.249068 0.056854 -0.023565 -65183.600000 0 1 0
15.815339 16.785878 8.175163 24.468836 0.815159 1.230141 0.072626 -0.022109 -532354.000000 0 1 0
16.754739 16.599278 7.171863 24.651428 0.780737 1.275597 0.081582 -0.021413 -1229380.000000 0 1 0
18.143839 16.320878 7.717363 25.595461 0.732554 1.264517 0.075594 -0.020470 -801894.000000 0 0 1
18.300539 15.082178 8.401963 25.158990 0.689287 1.230300 0.076435 -0.016785 -345879.000000 0 0 1
19.450339 15.212878 9.166363 26.339506 0.663755 1.215351 0.089643 -0.012733 -596191.000000 0 0 1
19.700239 14.151678 10.256163 26.335495 0.622936 1.170770 0.080884 -0.010201 490188.000000 0 0 1
20.527239 13.038178 9.786363 26.213251 0.565875 1.188193 0.094875 -0.018197 901299.000000 0 0 1
20.843439 12.064578 10.741063 26.369934 0.524700 1.151276 0.100925 -0.020286 -258331.000000 0 0 1
21.631039 10.900378 10.127363 26.254210 0.466781 1.174784 0.093527 -0.017483 -1196890.000000 0 0 1
22.966839 11.233478 9.890063 27.413137 0.454904 1.201694 0.083425 -0.024360 353685.000000 0 0 1
23.642839 10.279278 9.012563 27.310688 0.410120 1.234491 0.102494 -0.035312 279010.000000 0 0 1
24.014439 8.862578 9.621163 27.346030 0.353546 1.211271 0.122030 -0.036861 -891991.000000 0 0 1
22.960539 7.940578 9.592663 26.120075 0.332960 1.194743 0.123871 -0.034052 105016.000000 0 0 1
23.275339 6.551678 9.845263 26.107376 0.274386 1.184126 0.124925 -0.033465 188064.000000 0 0 1
24.249239 5.730478 8.902063 26.459605 0.232059 1.227663 0.148857 -0.044648 275864.000000 0 0 1
23.807539 5.570778 7.595763 25.603283 0.229857 1.269591 0.142780 -0.035892 900256.000000 0 0 1
24.849439 5.192578 6.640463 26.240298 0.205997 1.314951 0.147433 -0.042974 621061.000000 0 0 1
24.256339 4.896278 5.284763 25.303601 0.199179 1.360393 0.141823 -0.051915 -153651.000000 0 0 1
23.409239 3.746178 5.317163 24.296060 0.158684 1.350162 0.134723 -0.043503 473842.000000 0 1 0
23.139539 3.344678 3.966663 23.714121 0.143550 1.402736 0.134432 -0.038666 -189090.000000 0 1 0
22.095939 2.234978 3.844063 22.538910 0.100806 1.399406 0.110342 -0.029113 61543.600000 0 1 0
22.756739 1.035978 4.222863 23.168405 0.045493 1.387504 0.129696 -0.025561 1831560.000000 0 1 0
21.902639 -0.062722 3.726463 22.217472 -0.002864 1.402273 0.092384 -0.018838 752640.000000 0 1 0
22.481339 -1.401922 4.130663 22.900619 -0.062279 1.389430 0.104507 -0.019838 -348209.000000 0 1 0
22.564839 -1.692322 5.505663 23.288371 -0.074858 1.332124 0.106620 -0.018750 592830.000000 0 1 0
22.582439 -3.097922 5.719363 23.500527 -0.136332 1.324956 0.090491 -0.018128 -456050.000000 0 1 0
22.323039 -3.499922 7.122663 23.691767 -0.155519 1.265434 0.106166 -0.030052 -133212.000000 0 1 0
22.476639 -4.871022 7.226663 24.107070 -0.213415 1.266341 0.103518 -0.033041 478663.000000 0 1 0
22.649939 -5.190322 8.611963 24.781547 -0.225265 1.215877 0.136184 -0.043019 -77521.900000 0 1 0
22.253039 -6.632422 9.032863 24.915444 -0.289663 1.199804 0.125337 -0.048377 390051.000000 0 1 0
20.861039 -6.923722 9.049763 23.770130 -0.320458 1.180222 0.104220 -0.037879 661371.000000 0 1 0
20.677539 -8.230922 9.533363 24.211437 -0.378834 1.166084 0.116863 -0.041439 -138041.000000 0 1 0
-26.632721 -33.065156 5.289363 42.785322 0.892734 1.446854 0.058396 -0.021154 -125989.000000 0 0 1
-27.477421 -34.040756 5.879563 44.140130 0.891685 1.437197 0.051267 -0.017794 249762.000000 0 0 1
-27.556721 -33.909856 7.265863 44.294966 0.888392 1.406018 0.047652 -0.010848 71587.800000 0 0 1
-28.542171 33.193678 7.879363 44.481009 -0.860601 1.392717 0.055902 -0.020637 2201360.000000 0 0 1
-29.977211 33.307178 7.574763 45.446434 -0.837969 1.403340 0.055513 -0.017755 1793040.000000 0 0 1
-30.637711 32.046578 7.776363 45.012491 -0.807870 1.397165 0.068594 -0.026197 99359.500000 0 0 1
-32.166571 32.174878 7.737263 46.149500 -0.785527 1.402344 0.070475 -0.018909 -357014.000000 0 0 1
-32.646481 32.265178 6.425963 46.347896 -0.779524 1.431702 0.053870 -0.016533 1097210.000000 0 0 1
-34.098333 32.270278 6.511963 47.396971 -0.757861 1.432968 0.063443 -0.016743 1327170.000000 0 0 1
-34.735288 32.051578 5.107863 47.538765 -0.745237 1.463142 0.052192 -0.011023 -199610.000000 0 0 1
-34.411016 30.807378 4.552363 46.410522 -0.730199 1.472549 0.065739 -0.011055 446077.000000 0 0 1
-35.178484 30.608178 3.354763 46.750837 -0.716038 1.498976 0.076835 -0.000750 324051.000000 0 0 1
-34.844905 29.249178 2.726763 45.575400 -0.698314 1.510931 0.088490 -0.018769 -155645.000000 0 0 1
-35.381328 28.126178 3.420563 45.327922 -0.671650 1.495262 0.113205 -0.027917 670663.000000 0 0 1
-34.635514 26.930078 3.000063 43.975542 -0.660887 1.502522 0.101865 -0.029978 408018.000000 0 0 1
-35.148799 25.624978 3.657963 43.651556 -0.629953 1.486899 0.119147 -0.028886 802523.000000 0 0 1
-36.507431 25.293078 3.314363 44.536697 -0.605891 1.496309 0.124771 -0.026602 479586.000000 0 0 1
36.542068 24.733778 4.443763 44.348952 0.595025 1.470428 0.130134 -0.025570 -192227.000000 0 0 1
35.047068 24.461378 4.210863 42.946331 0.609354 1.472589 0.144294 -0.027178 -359179.000000 0 0 1
34.650878 23.492178 3.207263 41.986335 0.595786 1.494334 0.109654 -0.025728 298548.000000 0 0 1
35.106708 22.151278 3.414163 41.651129 0.562881 1.488734 0.099315 -0.022349 -679245.000000 0 0 1
34.479818 21.215678 2.336963 40.551501 0.551599 1.513135 0.095984 -0.025896 834710.000000 0 0 1
33.069918 20.990778 2.489163 39.248289 0.565572 1.507333 0.076266 -0.025764 1092800.000000 0 0 1
32.590528 20.182778 3.607963 38.503304 0.554478 1.476953 0.060322 -0.010573 -310414.000000 0 0 1
32.814908 18.619678 3.494663 37.890939 0.516115 1.478436 0.060992 -0.017057 -197798.000000 0 0 1
32.168478 18.068778 2.358763 36.971009 0.511775 1.506953 0.047832 -0.020313 432857.000000 0 0 1
32.457718 16.634378 2.217063 36.539313 0.473593 1.510083 0.049177 -0.017380 -459683.000000 0 0 1
31.882048 15.621578 3.249263 35.651878 0.455600 1.479531 0.069357 -0.023497 870303.000000 0 0 1
30.440388 15.606078 3.200363 34.357084 0.473737 1.477511 0.065656 -0.021684 907354.000000 0 0 1
29.908548 14.697978 4.123863 33.579131 0.456769 1.447675 0.082619 -0.036670 224820.000000 0 0 1
28.361258 14.747578 4.185063 32.239212 0.479512 1.440616 0.069388 -0.026731 -14971.600000 0 0 1
27.595258 14.225378 3.137963 31.204270 0.475971 1.470064 0.073198 -0.038467 -101032.000000 0 0 1
26.289858 14.766778 3.290963 30.332240 0.511775 1.462085 0.052774 -0.024165 -185176.000000 0 0 1
25.433458 14.283778 2.116863 29.246679 0.511716 1.498353 0.057180 -0.035969 -783838.000000 0 0 1
25.800758 14.695478 0.801063 29.703163 0.517748 1.543824 0.063880 -0.036188 778962.000000 0 0 1
26.925958 14.020278 0.202663 30.358137 0.480068 1.564121 0.065127 -0.037170 -300099.000000 0 0 1
27.280558 14.770478 -1.105237 31.042188 0.496239 1.606408 0.073020 -0.036557 147702.000000 0 0 1
27.904758 16.082478 -0.971037 32.222113 0.522837 1.600937 0.041329 -0.027930 2323530.000000 0 0 1
29.187118 16.099278 -0.232637 33.333598 0.504062 1.577775 0.045538 -0.025456 1281450.000000 0 0 1
29.802058 17.530078 -0.028037 34.575527 0.531710 1.571607 0.058116 -0.019410 -67443.800000 0 0 1
30.313958 18.028178 -1.243437 35.291605 0.536525 1.606037 0.051914 -0.014640 -94990.400000 0 0 1
31.154848 19.112178 -1.057737 36.565267 0.550256 1.599728 0.037620 -0.004919 -252215.000000 0 0 1
31.177288 19.987378 -2.308437 37.105895 0.570084 1.633049 0.039777 -0.013886 519102.000000 0 0 1
32.081998 21.127078 -2.169237 38.474844 0.582351 1.627207 0.011947 -0.005217 738229.000000 0 0 1
31.857608 22.116778 -3.157437 38.910519 0.606849 1.652032 0.022730 -0.013749 -203023.000000 0 0 1
32.970138 23.192278 -3.240737 40.440254 0.613026 1.651019 0.023083 -0.011952 -383788.000000 0 0 1
33.096638 24.048578 -2.139637 40.967055 0.628367 1.623048 0.045235 -0.011996 164646.000000 0 0 1
33.528748 23.594678 -0.885637 41.008172 0.613215 1.592395 0.055594 -0.004762 -854233.000000 0 0 1
33.331958 24.719378 0.166563 41.498130 0.638111 1.566783 0.066397 -0.024513 -145919.000000 0 0 1
34.101478 25.898378 0.097163 42.821096 0.649522 1.568527 0.094337 -0.026169 -129070.000000 0 0 1
35.460778 25.693378 0.423363 43.792644 0.627018 1.561129 0.107347 -0.028271 -322934.000000 0 0 1
36.395128 26.838178 0.096363 45.220597 0.635396 1.568665 0.087672 -0.025720 -569001.000000 0 0 1
36.691098 27.110478 -1.232837 45.636987 0.636349 1.597814 0.087767 -0.034940 -216765.000000 0 0 1
35.686128 27.628078 -2.048137 45.177487 0.658808 1.616147 0.068056 -0.028310 -498079.000000 0 0 1
35.931908 27.177078 -3.525037 45.189838 0.647552 1.648881 0.075078 -0.026110 -118619.000000 0 0 1
-36.791441 27.948178 -4.185837 46.392155 -0.649641 1.661146 0.064832 -0.023191 -25664.800000 0 0 1
-36.342691 27.406678 -5.415637 45.839354 -0.646131 1.689217 0.056732 -0.018702 -88809.200000 0 0 1
36.381518 27.359778 -6.643937 46.003415 0.644795 1.715726 0.043595 -0.004988 162502.000000 0 0 1
35.297298 26.503778 -6.376537 44.598315 0.644059 1.714265 0.048927 -0.008735 -175071.000000 0 0 1
34.134988 26.749778 -7.141837 43.951722 0.664690 1.734013 0.036504 -0.008849 245869.000000 0 0 1
33.005398 25.731478 -6.820237 42.402605 0.662186 1.732343 0.039760 -0.015199 -297034.000000 0 0 1
33.059068 24.336978 -7.122737 41.664420 0.634589 1.742595 0.031590 -0.004888 152980.000000 0 0 1
34.225768 23.664078 -6.637437 42.136058 0.604938 1.728979 0.035729 -0.007037 359114.000000 0 0 1
34.395428 22.135278 -6.902637 41.480868 0.571830 1.737979 0.031834 0.001588 159501.000000 0 0 1
33.414218 21.430678 -6.176237 40.173746 0.570280 1.725147 0.011985 -0.000837 315851.000000 0 0 1
33.771948 20.041078 -6.298637 39.772630 0.535570 1.729832 0.027402 -0.008967 -281922.000000 0 0 1
32.800258 19.100578 -5.632537 38.372053 0.527326 1.718116 0.041233 -0.012502 639810.000000 0 0 1
31.567258 18.958278 -6.376437 37.370671 0.540837 1.742262 0.017866 -0.017008 514110.000000 0 0 1
30.484548 18.448278 -5.660337 36.078886 0.544211 1.728335 0.058648 -0.026605 -391919.000000 0 0 1
29.222988 18.269078 -6.496237 35.070548 0.558715 1.757106 0.038432 -0.029952 -463011.000000 0 0 1
29.354298 17.248978 -7.448837 34.852363 0.531262 1.786183 0.034364 -0.026545 662610.000000 0 0 1
28.197458 17.246278 -8.314837 34.083240 0.548924 1.817240 0.049096 -0.030082 565673.000000 0 0 1
28.151358 16.163678 -9.394837 33.793881 0.521211 1.852512 0.062248 -0.027135 74044.400000 0 0 1
27.199958 16.365878 -10.455437 33.421488 0.541659 1.888974 0.072355 -0.024019 511698.000000 0 0 1
27.256058 15.347978 -11.431637 33.303685 0.512848 1.921176 0.077411 -0.022283 -353577.000000 0 0 1
26.325958 15.674178 -12.568737 33.116598 0.537022 1.960084 0.086419 -0.012994 276749.000000 0 0 1
24.902158 15.523278 -12.373137 31.846258 0.557427 1.969829 0.078738 -0.017805 1482300.000000 0 0 1
24.186358 15.623578 -13.618637 31.851897 0.573535 2.012590 0.069479 -0.018771 -34014.500000 0 0 1
24.077758 14.261878 -14.350637 31.449648 0.534758 2.044635 0.068911 -0.031580 120102.000000 0 0 1
25.338158 13.766278 -14.862237 32.441004 0.497686 2.046688 0.083672 -0.037825 997616.000000 0 0 1
25.620358 14.201078 -16.175037 33.461996 0.506130 2.075314 0.096831 -0.038480 -1069650.000000 0 0 1
27.026458 13.832978 -16.613037 34.608867 0.473068 2.071477 0.114341 -0.035887 -717589.000000 0 0 1
27.289458 12.451578 -16.707737 34.335183 0.428062 2.078998 0.116183 -0.040402 -526153.000000 0 0 1
28.563958 12.311678 -17.247137 35.566007 0.406960 2.077083 0.106671 -0.022033 -465543.000000 0 0 1
28.756278 10.856678 -17.639537 35.439304 0.360997 2.091787 0.076174 -0.016836 -71827.700000 0 0 1
28.105558 10.542778 -18.895437 35.469848 0.358870 2.132606 0.068586 -0.018732 131532.000000 0 0 1
28.377158 9.292378 -19.424837 35.622123 0.316455 2.147546 0.050633 -0.005708 -1272500.000000 0 0 1
29.688978 8.959178 -20.051037 36.928937 0.293078 2.144758 0.049893 -0.006293 -1822530.000000 0 0 1
30.063138 9.952778 -21.034237 38.016959 0.319705 2.157100 0.051224 -0.014422 625031.000000 0 0 1
30.783538 9.455878 -22.211537 39.120228 0.298025 2.174598 0.032521 -0.005222 -557264.000000 0 0 1
32.073118 8.687278 -22.037837 39.872546 0.264512 2.156405 0.034138 -0.003021 -1675720.000000 0 0 1
33.133198 9.584178 -22.017137 40.919672 0.281577 2.138927 0.049970 -0.004498 -1226890.000000 0 0 1
34.363598 8.948278 -21.950737 41.746418 0.254743 2.124465 0.030967 -0.004158 -754610.000000 0 0 1
35.524358 9.951578 -22.021137 42.964455 0.273133 2.108940 0.065294 -0.011439 -340423.000000 0 0 1
35.727868 10.606478 -20.785437 42.673321 0.288581 2.079543 0.057485 -0.011362 -26480.100000 0 0 1
36.677538 11.626478 -20.853737 43.764085 0.306972 2.067470 0.027111 0.004222 -218401.000000 0 0 1
36.590768 12.473278 -19.530337 43.311673 0.328532 2.038598 0.020829 0.005562 20518.100000 0 0 1
-36.622251 11.742578 -18.417337 42.641244 -0.310284 2.017410 0.034334 -0.007133 242256.000000 0 0 1
36.633268 12.333478 -17.241537 42.324716 0.324754 1.990361 0.049518 -0.006182 -132260.000000 0 0 1
-36.618121 11.588878 -15.943637 41.585916 -0.306506 1.964261 0.047566 -0.019135 13701.900000 0 0 1
36.403338 10.322078 -15.753337 40.986778 0.276295 1.965302 0.065627 -0.025592 357983.000000 0 0 1
-36.747171 9.748378 -14.641237 40.740045 -0.259310 1.938402 0.074831 -0.037877 -180981.000000 0 0 1
36.162748 8.511478 -14.131737 39.747900 0.231159 1.934282 0.102569 -0.035059 -316965.000000 0 0 1
34.977038 8.896578 -13.499737 38.532910 0.249073 1.928734 0.119268 -0.043566 -60465.700000 0 0 1
34.702998 8.164078 -12.321837 37.719728 0.231054 1.903573 0.115987 -0.030767 -316227.000000 0 0 1
33.584388 8.822478 -11.493137 36.576487 0.256892 1.890433 0.120682 -0.032495 -150791.000000 0 0 1
33.948558 10.190378 -11.222337 37.179151 0.291614 1.877424 0.121035 -0.041097 66034.900000 0 0 1
33.046918 10.851078 -10.399137 36.304087 0.317262 1.861311 0.104346 -0.032994 -907744.000000 0 0 1
33.262368 10.535678 -8.912837 36.011447 0.306747 1.820896 0.113370 -0.029658 205727.000000 0 0 1
34.472358 10.972278 -8.297437 37.115789 0.308153 1.796257 0.107650 -0.025581 565672.000000 0 0 1
34.501438 12.356178 -8.170537 37.547064 0.343904 1.790159 0.102989 -0.024644 -563822.000000 0 0 1
34.219808 12.885878 -6.785137 37.189773 0.360139 1.754270 0.083219 -0.023464 -783605.000000 0 0 1
35.338408 12.800978 -5.962037 38.055407 0.347537 1.728112 0.093448 -0.020066 -325434.000000 0 0 1
35.167438 12.846478 -4.565737 37.717723 0.350235 1.692144 0.082719 -0.017016 -949552.000000 0 0 1
36.471288 12.489478 -3.901437 38.747427 0.329930 1.671656 0.092717 -0.019121 -460548.000000 0 0 1
-36.437031 13.666878 -3.750637 39.096139 -0.358843 1.666878 0.086604 -0.003190 287073.000000 0 0 1
-35.191867 13.481378 -3.086437 37.811918 -0.365838 1.652513 0.092593 -0.019448 725057.000000 0 0 1
-34.316477 14.747478 -2.847237 37.459518 -0.405886 1.646878 0.083999 -0.014295 331519.000000 0 0 1
-34.938529 15.641178 -1.956337 38.329813 -0.420920 1.621858 0.095728 -0.014929 287221.000000 0 0 1
-34.087854 16.718078 -1.629737 38.001737 -0.455971 1.613695 0.102805 -0.014959 8222.130000 0 0 1
-34.842236 17.767278 -0.828937 39.119621 -0.471564 1.591988 0.101160 -0.010499 527331.000000 0 0 1
-35.825350 18.572778 -1.494237 40.381141 -0.478279 1.607808 0.081124 -0.003909 578741.000000 0 0 1
-36.630131 19.322878 -0.639737 41.419191 -0.485415 1.586242 0.064007 -0.005284 114723.000000 0 0 1
36.142358 20.387478 -1.288537 41.516017 0.513595 1.601838 0.061212 -0.008077 214730.000000 0 0 1
36.765128 21.620878 -1.570137 42.680234 0.531610 1.607593 0.076669 -0.007627 15004.600000 0 0 1
36.383948 22.072378 -2.815837 42.648687 0.545296 1.636868 0.052749 -0.003110 -530064.000000 0 0 1
-36.543451 23.337978 -3.212737 43.478808 -0.568345 1.644756 0.081078 -0.012869 -553148.000000 0 0 1
-35.196819 23.092178 -3.476937 42.239246 -0.580642 1.653205 0.089318 -0.008767 -768166.000000 0 0 1
-34.607070 24.257278 -3.962437 42.447211 -0.611353 1.664282 0.099417 -0.018581 401720.000000 0 0 1
-33.154681 24.064678 -4.499137 41.213879 -0.627852 1.680180 0.102029 -0.023466 503993.000000 0 0 1
-33.021081 23.294778 -5.658637 40.805130 -0.614375 1.709919 0.078518 -0.009285 -169145.000000 0 0 1
-31.649841 23.336978 -6.000637 39.778570 -0.635355 1.722225 0.073221 -0.001646 300897.000000 0 0 1
-31.192911 22.583778 -7.292337 39.194425 -0.626655 1.757942 0.066320 -0.017343 486432.000000 0 0 1
-31.934591 22.986278 -8.446937 40.243482 -0.623886 1.782265 0.064591 -0.022149 321675.000000 0 0 1
-31.243171 22.460578 -9.562937 39.649251 -0.623295 1.814386 0.026305 -0.012122 221177.000000 0 0 1
-32.090181 22.240678 -10.844437 40.521961 -0.606058 1.841717 0.022262 -0.000361 -253152.000000 0 0 1
-32.735091 23.387878 -11.321037 41.794077 -0.620364 1.845100 0.025324 -0.003275 -60797.200000 0 0 1
-33.199091 23.155978 -12.613237 42.396612 -0.609038 1.872875 0.005304 -0.001223 -546819.000000 0 0 1
-33.724561 24.521278 -13.231337 43.745941 -0.628686 1.878067 0.030715 0.002264 210222.000000 0 0 1
-32.764501 25.562778 -13.342437 43.646177 -0.662549 1.881465 0.026503 0.000075 19854.600000 0 0 1
-31.745781 25.377078 -14.312237 43.088639 -0.674365 1.909387 0.025048 -0.004472 486801.000000 0 0 1
-30.473491 26.250078 -14.007137 42.589907 -0.711079 1.905918 0.035633 -0.002196 733204.000000 0 0 1
-29.573121 25.721278 -12.997737 41.292794 -0.715850 1.891011 0.037169 -0.002725 539806.000000 0 0 1
-29.991911 25.751878 -11.616837 41.202243 -0.709481 1.856619 0.042748 -0.002665 -236139.000000 0 0 1
-30.115691 27.111778 -10.900537 41.962186 -0.732956 1.833581 0.057854 0.009534 620093.000000 0 0 1
-28.820381 27.700678 -10.755637 41.395962 -0.765590 1.833636 0.069603 0.001838 204377.000000 0 0 1
-28.961541 28.631978 -9.702637 41.865286 -0.779676 1.804681 0.064423 0.003585 585731.000000 0 0 1
-27.676301 29.487978 -9.510337 41.544735 -0.817080 1.801762 0.075793 -0.000945 311170.000000 0 0 1
-27.933311 30.736478 -8.991037 42.495173 -0.833141 1.783985 0.082383 -0.010524 -107241.000000 0 0 1
-26.788481 31.560078 -8.881337 42.338391 -0.866994 1.782136 0.084547 -0.001139 61682.200000 0 0 1
35.289178 -25.061022 33.785514 54.907576 -0.617513 0.908009 0.040746 -0.015760 -209091.000000 0 0 1
34.819648 -23.742822 -33.950517 54.118084 -0.598461 2.248931 0.037559 -0.021027 305866.000000 0 0 1
33.557818 -23.813522 -33.316497 52.945254 -0.617158 2.251401 0.028396 -0.013892 169149.000000 0 0 1
33.015538 -22.427922 -32.812687 51.669235 -0.596708 2.258873 0.024587 -0.017346 127337.000000 0 0 1
32.545448 -21.595722 -33.871207 51.699517 -0.585846 2.285184 0.019355 -0.015381 62356.600000 0 0 1
32.102238 -20.335522 -33.508307 50.664522 -0.564661 2.293448 0.019599 -0.006724 20016.800000 0 0 1
31.951738 -19.381522 33.324064 50.070453 -0.545249 0.842575 0.018216 -0.011400 669870.000000 0 0 1
33.161328 -19.010522 32.621990 50.252043 -0.520536 0.864307 0.037137 -0.022600 865386.000000 0 0 1
32.854548 -18.461022 31.360858 49.027891 -0.511935 0.876749 0.048272 -0.014721 441687.000000 0 0 1
34.089368 -18.395022 30.361618 49.216762 -0.494833 0.906004 0.051193 -0.017884 647524.000000 0 0 1
34.964728 -17.344622 30.725298 49.673052 -0.460491 0.903900 0.037925 -0.020438 -327453.000000 0 0 1
36.185118 -17.528622 30.068098 50.206632 -0.451102 0.928686 0.051897 -0.023446 -391178.000000 0 0 1
-36.583211 -16.292922 30.247118 50.186441 0.418994 0.923922 0.048380 -0.023331 85239.600000 0 0 1
-35.246550 -16.624322 29.912048 49.126551 0.440718 0.916152 0.051906 -0.017341 -69134.900000 0 0 1
-34.393022 -15.553722 30.223428 48.355495 0.424711 0.895632 0.050852 -0.015242 -562981.000000 0 0 1
-32.905581 -15.868122 30.212988 47.406742 0.449332 0.879788 0.071435 -0.020498 -683909.000000 0 0 1
-32.103311 -14.905722 30.870508 46.965854 0.434686 0.853570 0.067175 -0.015358 463766.000000 0 0 1
-30.859401 -15.470722 31.276378 46.581732 0.464710 0.834659 0.074532 -0.021113 1068220.000000 0 0 1
-29.795241 -14.471422 31.881278 45.973844 0.452139 0.804508 0.060838 -0.023791 604182.000000 0 0 1
-30.365261 -13.803822 32.983294 46.909405 0.426667 0.791010 0.077988 -0.023244 55091.000000 0 0 1
-29.391151 -13.006622 33.576118 46.479756 0.416629 0.763556 0.069425 -0.025698 -227213.000000 0 0 1
-29.762741 -12.495922 -33.049317 46.197686 0.397501 2.367977 0.066111 -0.022098 -207356.000000 0 0 1
-29.766951 -13.539122 -32.046767 45.786182 0.426869 2.346085 0.081904 -0.022256 283473.000000 0 0 1
-30.070161 -12.968422 -30.810127 44.962857 0.407171 2.325723 0.092400 -0.020437 -232565.000000 0 0 1
-30.197151 -13.990422 -29.650297 44.572861 0.433861 2.298571 0.096396 -0.022743 356457.000000 0 0 1
-31.349861 -14.826622 -29.769217 45.703925 0.441767 2.280158 0.089952 -0.024936 266588.000000 0 0 1
-31.705171 -15.184422 -28.491237 45.249697 0.446646 2.251892 0.083524 -0.019812 625024.000000 0 0 1
-32.925921 -16.173522 -28.367177 46.372360 0.456590 2.229037 0.070774 -0.022044 626315.000000 0 0 1
-32.675511 -17.450522 -28.878477 46.969950 0.490519 2.232965 0.077797 -0.016449 229701.000000 0 0 1
-33.892521 -18.116622 -29.166777 48.245371 0.490890 2.219998 0.054644 -0.018249 -36059.400000 0 0 1
-33.662761 -19.521822 -29.804457 49.016208 0.525526 2.224402 0.060919 -0.018722 -261692.000000 0 0 1
-34.776180 -20.318322 -30.174987 50.326402 0.528765 2.213780 0.027873 -0.017825 -286509.000000 0 0 1
-34.523253 -21.592822 -30.722757 51.009732 0.558928 2.217166 0.029888 -0.019730 329815.000000 0 0 1
-35.851082 -22.306222 -31.177737 52.487321 0.556577 2.206825 0.036678 -0.015979 1215720.000000 0 0 1
-36.676181 -22.790822 -30.084987 52.627657 0.556011 2.179321 0.024734 -0.006123 236206.000000 0 0 1
36.245318 -23.952822 -30.354217 52.998483 -0.583967 2.180638 0.034455 -0.010806 -188204.000000 0 0 1
-36.768431 -25.305562 -30.560067 54.094424 0.602791 2.171156 0.033306 -0.011164 -355257.000000 0 0 1
-36.262691 -25.425072 -31.850197 54.551371 0.611488 2.194268 0.051322 -0.015591 -531520.000000 0 0 1
-35.504181 -26.595902 -32.046237 54.725224 0.642920 2.196397 0.036739 -0.011626 -267892.000000 0 0 1
-35.847587 -27.524722 -33.226547 56.095127 0.654813 2.204738 0.052097 -0.023868 463470.000000 0 0 1
36.569728 -28.175872 -33.172757 56.847661 -0.656474 2.193875 0.043030 -0.016163 178813.000000 0 0 1
36.440388 -29.448782 -33.804097 57.774126 -0.679682 2.195809 0.041030 -0.017199 166450.000000 0 0 1
-36.585651 -30.682082 -33.080137 58.087826 0.697860 2.176675 0.048456 -0.027391 413724.000000 0 0 1
36.388828 -31.098802 -31.940727 57.545567 -0.707173 2.159221 0.054638 -0.028084 220319.000000 0 0 1
-36.438651 -31.745502 -31.003777 57.417649 0.716676 2.141197 0.054234 -0.035988 109565.000000 0 0 1
36.509458 -32.190212 -29.728947 57.034731 -0.722609 2.119103 0.040112 -0.032778 -61036.300000 0 0 1
35.659468 -33.277742 -30.101937 57.316074 -0.750863 2.123737 0.064054 -0.030870 -234885.000000 0 0 1
35.048288 -33.615422 -28.920527 56.522349 -0.764533 2.107918 0.063008 -0.027242 -787060.000000 0 0 1
33.826388 33.607935 -28.986427 55.802606 0.782159 2.116999 0.067193 -0.035660 455878.000000 0 0 1
32.621298 -33.892862 -29.470887 55.510435 -0.804513 2.130467 0.072102 -0.034143 -230469.000000 0 0 1
31.525618 33.538738 -29.007297 54.407121 0.816329 2.133119 0.057374 -0.031015 -1437790.000000 0 0 1
30.283638 33.907271 -29.764337 54.338914 0.841789 2.150473 0.017303 -0.016815 -904739.000000 0 0 1
30.176058 33.343692 -31.022607 54.633309 0.835225 2.174667 0.029538 -0.013795 -208651.000000 0 0 1
28.913168 33.599614 -31.587667 54.430562 0.860226 2.189930 0.030250 -0.005327 -142160.000000 0 0 1
28.639338 32.911663 -32.957797 54.677286 0.854698 2.217764 0.030702 -0.009960 51986.400000 0 0 1
28.554658 31.494102 -32.841247 53.719591 0.834310 2.228556 0.020849 -0.004865 54067.100000 0 0 1
28.356058 30.958632 33.871826 53.942595 0.829247 0.891914 0.028972 0.001440 -16490.000000 0 0 1
28.350658 29.405192 33.810812 53.024487 0.803655 0.879359 0.031847 -0.012272 159000.000000 0 0 1
29.629618 28.893932 -33.907947 53.502546 0.772828 2.257205 0.042725 -0.009858 -52279.900000 0 0 1
29.658518 27.471942 -33.823827 52.710403 0.747143 2.267498 0.036307 -0.009865 115256.000000 0 0 1
31.072088 26.876292 -33.688417 53.129268 0.713119 2.257620 0.072757 -0.021766 150209.000000 0 0 1
31.816548 27.290012 -32.568017 53.082137 0.708965 2.231332 0.082012 -0.016253 433339.000000 0 0 1
33.033398 26.553982 -32.399867 53.348578 0.677086 2.223484 0.101008 -0.019280 513865.000000 0 0 1
33.780108 26.749862 -31.089597 53.133924 0.669771 2.195821 0.099483 -0.017924 -589265.000000 0 0 1
34.537838 27.900892 -30.828647 54.053006 0.679500 2.177717 0.082419 -0.016383 -428427.000000 0 0 1
34.074808 29.251772 -30.985367 54.560532 0.709384 2.174758 0.084089 -0.014074 317652.000000 0 0 1
32.912888 29.627942 -29.988837 53.482740 0.732922 2.166051 0.085159 -0.010097 791593.000000 0 0 1
33.462378 29.915082 -28.708817 53.280757 0.729486 2.139834 0.083307 -0.015432 609827.000000 0 0 1
32.449038 30.193602 -27.723327 52.279791 0.749409 2.129736 0.069471 -0.018729 209458.000000 0 0 1
33.063718 30.442762 -26.339957 52.093805 0.744151 2.100903 0.079561 -0.025766 129724.000000 0 0 1
33.698138 31.719552 -26.187367 53.173985 0.755162 2.085739 0.071697 -0.027601 258868.000000 0 0 1
33.686508 32.098480 -24.825537 52.738985 0.761263 2.060908 0.057645 -0.031920 -54987.300000 0 0 1
34.212848 33.513531 -24.631137 53.855071 0.775073 2.045820 0.063118 -0.029894 -386068.000000 0 0 1
33.294388 -33.612122 -24.907037 53.466359 -0.790147 2.055386 0.057295 -0.018086 -202062.000000 0 0 1
33.716418 -32.328402 -24.457437 52.726546 -0.764385 2.053137 0.043079 -0.027760 -489080.000000 0 0 1
34.298088 -31.564422 -25.656407 53.206417 -0.743916 2.073966 0.040069 -0.029765 852847.000000 0 0 1
35.572518 -32.065472 -26.123027 54.552828 -0.733594 2.070149 0.060343 -0.031439 752653.000000 0 0 1
36.632548 -31.211052 -25.657167 54.537726 -0.705656 2.060595 0.064421 -0.033524 7662.440000 0 0 1
-35.679055 -31.796322 -25.997967 54.404920 0.727919 2.069014 0.043648 -0.024203 -320763.000000 0 0 1
-35.208369 -32.993462 -25.420567 54.538088 0.752934 2.055681 0.044974 -0.021764 -478023.000000 0 0 1
-35.181924 -33.097642 -23.967137 53.922586 0.754882 2.031382 0.055481 -0.023718 -244710.000000 0 0 1
-34.050411 -32.396412 -23.173837 52.402144 0.760511 2.028881 0.034451 -0.018286 66120.000000 0 0 1
-34.106428 -31.024442 -23.252737 51.637721 0.738114 2.037904 0.010849 -0.014974 -420252.000000 0 0 1
-33.560431 -30.436302 -22.149737 50.430961 0.736620 2.025514 0.030882 -0.024448 -539496.000000 0 0 1
-33.513511 -28.874432 -22.176837 49.484344 0.711176 2.035501 0.022798 -0.007643 403276.000000 0 0 1
-34.774553 -28.238902 -22.352837 50.063504 0.682049 2.033635 0.007464 -0.001851 25178.600000 0 0 1
-35.268006 -28.079992 -23.670137 50.917517 0.672413 2.054287 0.019669 -0.004384 -642141.000000 0 0 1
-36.489091 -27.209422 -23.753037 51.342119 0.640735 2.051770 0.020091 -0.005019 -646020.000000 0 0 1
-36.250731 -25.919482 -23.249537 50.264063 0.620726 2.051663 0.007573 0.002989 -299092.000000 0 0 1
36.561978 -24.999222 -23.844537 50.302100 -0.599736 2.064655 0.011090 0.005213 -9876.260000 0 0 1
-36.746391 -24.521522 -25.314477 50.915862 0.588453 2.091145 0.015897 0.004871 -493052.000000 0 0 1
-35.607252 -23.720922 -25.305977 49.708661 0.587667 2.104919 0.012718 -0.006437 -466756.000000 0 0 1
-35.250083 -23.125922 -26.525917 49.809647 0.580619 2.132402 0.020492 -0.019671 -160002.000000 0 0 1
-34.054241 -22.165122 -26.355557 48.431388 0.576991 2.146212 0.025526 -0.023399 -627853.000000 0 0 1
-34.160741 -20.925622 -25.740297 47.617232 0.549606 2.141907 0.026812 -0.013464 -369518.000000 0 0 1
-35.125141 -20.025322 -26.258977 48.211232 0.518154 2.146786 0.018570 -0.010359 1025140.000000 0 0 1
-36.462401 -20.058522 -25.383287 48.745895 0.502932 2.118498 0.021744 -0.012742 656688.000000 0 0 1
-36.384871 -19.366822 -24.098737 47.746013 0.489134 2.099863 0.018154 -0.018317 703615.000000 0 0 1
-35.411468 -19.863722 -23.122737 46.724731 0.511204 2.088483 0.002778 -0.009184 790347.000000 0 0 1
-35.921699 -21.141722 -22.392337 47.315511 0.531958 2.063779 0.022917 -0.001738 176102.000000 0 0 1
36.628608 -21.033722 -21.590637 47.436568 -0.521265 2.043334 0.017972 -0.004475 -201121.000000 0 0 1
36.281758 -22.299922 -21.027137 47.495189 -0.551109 2.029428 0.023836 0.006578 461075.000000 0 0 1
35.151598 -22.150022 -19.962937 46.095305 -0.562279 2.018703 0.013912 0.003886 900176.000000 0 0 1
33.885298 -21.670122 -20.424137 45.110453 -0.568968 2.040653 0.034444 0.003048 268045.000000 0 0 1
32.870668 -21.709022 -19.453037 43.933849 -0.583678 2.029493 0.045971 -0.001300 35218.200000 0 0 1
31.570978 -21.114322 -20.018537 42.933472 -0.589470 2.055865 0.042521 -0.002231 -226420.000000 0 0 1
30.899178 -21.947022 -20.998737 43.328719 -0.617591 2.076745 0.046677 -0.001708 2283220.000000 0 0 1
29.507808 -21.622022 -21.352037 42.357196 -0.632373 2.099130 0.075723 -0.009317 1820150.000000 0 0 1
29.347638 -20.344922 -22.270537 42.085348 -0.606174 2.128425 0.070272 -0.001995 -301336.000000 0 0 1
29.752248 -19.121422 -21.663937 41.474705 -0.571218 2.120390 0.058715 -0.007132 95708.100000 0 0 1
29.721668 -18.036622 -22.569237 41.449581 -0.545442 2.146587 0.047839 -0.001962 -70589.000000 0 0 1
30.533458 -16.895622 -21.943037 41.221972 -0.505410 2.132128 0.028807 -0.007221 -66151.300000 0 0 1
29.855138 -16.334922 -20.806037 39.887969 -0.500644 2.119535 0.024030 -0.013004 634955.000000 0 0 1
30.730878 -15.702122 -19.877437 39.825318 -0.472374 2.093374 0.016152 -0.015845 -51745.800000 0 0 1
31.698878 -16.616122 -19.088537 40.562133 -0.482809 2.060767 0.034551 -0.021670 -800706.000000 0 0 1
32.861318 -16.851122 -19.780437 41.893821 -0.473831 2.062532 0.026774 -0.020018 -801010.000000 0 0 1
33.786698 -17.690422 -19.117837 42.661267 -0.482342 2.035470 0.033585 -0.019278 -382557.000000 0 0 1
35.001088 -17.984622 -19.979437 44.132762 -0.474651 2.040601 0.021475 -0.019854 -808185.000000 0 0 1
35.814598 -16.862722 -20.114337 44.402966 -0.440044 2.040919 0.023616 -0.019714 -161585.000000 0 0 1
-36.821411 -17.198122 -20.997237 45.743586 0.436957 2.047689 0.030070 -0.015013 80785.300000 0 0 1
-35.934116 -15.970822 -21.362537 44.751378 0.418227 2.068445 0.045076 -0.018942 -33812.000000 0 0 1
-34.938835 -15.712122 -20.400437 43.402429 0.422607 2.060121 0.052126 -0.022547 -209208.000000 0 0 1
-34.141097 -14.594522 -20.670937 42.495908 0.403967 2.078786 0.062442 -0.018719 140463.000000 0 0 1
-32.799811 -14.586422 -19.867937 41.028359 0.418447 2.076301 0.073706 -0.021744 248414.000000 0 0 1
-31.887661 -15.601022 -20.182637 40.835691 0.455010 2.087757 0.075091 -0.023280 -26354.300000 0 0 1
-32.067951 -16.803122 -19.524937 41.132974 0.482651 2.065395 0.061249 -0.025605 -55506.400000 0 0 1
-31.067501 -17.887422 -20.037237 41.068727 0.522405 2.080473 0.040811 -0.032309 94960.300000 0 0 1
-31.323981 -19.099122 -19.375937 41.489700 0.547542 2.056698 0.048764 -0.028432 649136.000000 0 0 1
-30.229151 -20.019622 -19.396637 41.119537 0.584947 2.062029 0.049109 -0.027329 376186.000000 0 0 1
-30.733371 -21.389422 -18.849737 41.920878 0.608014 2.037170 0.045580 -0.008314 -23630.700000 0 0 1
-31.624121 -22.007722 -19.741537 43.291490 0.607980 2.044308 0.031092 -0.008024 21648.200000 0 0 1
-31.893871 -23.289922 -19.319937 43.964752 0.630729 2.025773 0.031989 0.005956 282896.000000 0 0 1
-32.922751 -24.031222 -20.235437 45.506923 0.630530 2.031599 0.016603 0.006071 271482.000000 0 0 1
-32.332501 -24.383722 -21.471537 45.836486 0.646155 2.058318 0.017183 -0.008303 466358.000000 0 0 1
-33.262141 -24.959522 -22.367837 47.219359 0.643750 2.064284 0.015569 -0.006904 210658.000000 0 0 1
-32.646951 -24.769522 -23.809337 47.394484 0.649051 2.097128 0.016229 0.000066 255025.000000 0 0 1
-31.447401 -25.487732 -23.954837 47.036132 0.681103 2.105151 0.016702 -0.011850 -324896.000000 0 0 1
-31.213951 -25.761832 -25.343677 47.752326 0.689997 2.130260 0.014170 0.000355 -747925.000000 0 0 1
-29.788151 -26.176562 -25.632387 47.218276 0.720954 2.144622 0.027192 -0.011292 -588842.000000 0 0 1
-28.933751 -25.072752 -25.826887 46.182604 0.714028 2.164258 0.039815 -0.011163 262380.000000 0 0 1
-27.580441 -25.392352 -26.141177 45.703538 0.744116 2.179705 0.036096 -0.006679 741586.000000 0 0 1
-26.730751 -24.121022 -26.385027 44.637724 0.734123 2.203209 0.058524 -0.010808 -326980.000000 0 0 1
-26.754201 -23.669922 -27.727867 45.220428 0.724308 2.230865 0.059728 -0.014228 236308.000000 0 0 1
-25.852131 -22.586422 -27.860127 44.211603 0.718080 2.252548 0.082441 -0.025055 97714.300000 0 0 1
-25.555591 -21.996922 -29.256047 44.641562 0.710701 2.285448 0.061654 -0.013822 -82693.900000 0 0 1
-24.848061 -22.870822 -30.099767 45.238221 0.743987 2.298774 0.058513 -0.013867 159089.000000 0 0 1
-24.554161 -22.152222 -31.285747 45.523903 0.734017 2.328476 0.054274 -0.009972 27892.800000 0 0 1
-24.133061 -23.132522 -32.386627 46.544729 0.764233 2.340354 0.049256 -0.017065 840310.000000 0 0 1
-25.225101 -24.049222 -32.657977 47.762059 0.761539 2.323705 0.032148 -0.019854 988947.000000 0 0 1
-24.755761 -25.227742 -33.327047 48.579612 0.794841 2.326814 0.035799 -0.010360 246734.000000 0 0 1
-19.761061 -15.704722 -11.749937 27.842393 0.671520 2.006464 0.062211 -0.010529 166447.000000 0 0 1
-20.292661 -14.906722 -10.666337 27.345442 0.633563 1.971492 0.071032 -0.022851 -25150.000000 0 0 1
-19.451561 -14.994322 -9.542537 26.348680 0.656715 1.941385 0.044923 -0.018040 -250074.000000 0 0 1
-19.905861 -14.181222 -8.339637 25.824405 0.619009 1.899627 0.084912 -0.026165 86026.200000 0 0 1
-21.103561 -14.679422 -7.753437 26.850726 0.607760 1.863729 0.129667 -0.038680 78497.900000 0 0 1
-21.477161 -13.944322 -6.601437 26.444121 0.575857 1.823102 0.107134 -0.032951 -730024.000000 0 0 1
-22.745661 -14.604522 -6.094837 27.709280 0.570787 1.792566 0.117815 -0.039969 -926605.000000 0 0 1
-22.672061 -15.872422 -5.425937 28.202782 0.610785 1.764394 0.095510 -0.029989 297799.000000 0 0 1
-22.153161 -15.868222 -4.097837 27.556402 0.621579 1.720057 0.094793 -0.031326 -106264.000000 0 0 1
-21.786961 -17.220122 -3.489937 27.988997 0.668852 1.695811 0.066658 -0.020627 -231161.000000 0 0 1
-22.870061 -17.902322 -2.913337 29.189388 0.664155 1.670771 0.071668 -0.018871 -97553.000000 0 0 1
-22.488661 -18.999822 -2.138737 29.517915 0.701504 1.643315 0.052998 -0.013973 78375.400000 0 0 1
-23.651861 -20.006622 -1.857837 31.034288 0.702097 1.630696 0.067902 -0.027214 351906.000000 0 0 1
-24.067161 -20.700822 -3.013037 31.887783 0.710344 1.665426 0.050312 -0.026751 197624.000000 0 0 1
-25.069361 -21.678622 -2.759637 33.257347 0.712993 1.653870 0.053168 -0.025753 174478.000000 0 0 1
-25.209101 -22.774722 -3.881337 34.194320 0.734708 1.684550 0.049304 -0.027195 -606126.000000 0 0 1
-24.185761 -23.701922 -3.775337 34.073235 0.775295 1.681825 0.052000 -0.024662 -678520.000000 0 0 1
-24.033161 -24.542422 -4.903437 34.698228 0.795882 1.712588 0.056869 -0.024855 822013.000000 0 0 1
-22.634661 -24.449822 -5.650337 33.794201 0.823930 1.738784 0.070777 -0.022474 1057150.000000 0 0 1
-22.359461 -23.149522 -6.166337 32.769949 0.802757 1.760095 0.052691 -0.017934 23694.600000 0 0 1
-21.891661 -22.180322 -5.231437 31.600308 0.791948 1.737112 0.047933 -0.017881 -720021.000000 0 0 1
-21.753261 -20.775222 -5.867137 30.646982 0.762405 1.763428 0.054624 -0.012892 320254.000000 0 0 1
-20.597161 -20.518922 -6.663637 29.827391 0.783495 1.796104 0.041486 -0.008727 326849.000000 0 0 1
-20.621561 -19.171022 -7.070237 29.030417 0.748962 1.816816 0.032152 -0.009930 -90773.100000 0 0 1
-19.382061 -18.819322 -7.896737 28.145863 0.770668 1.855179 0.044755 -0.010729 -276557.000000 0 0 1
-19.351861 -19.520922 -9.129337 28.963869 0.789747 1.891461 0.036138 -0.013662 435923.000000 0 0 1
-18.024761 -19.580122 -9.647437 28.308059 0.826735 1.918566 0.054505 -0.009737 512418.000000 0 0 1
-17.347461 -18.433622 -10.409437 27.369494 0.815745 1.960949 0.054424 -0.009905 -296160.000000 0 0 1
-17.126661 -17.238522 -9.683737 26.158439 0.788653 1.950016 0.070024 -0.016486 834317.000000 0 0 1
-15.839561 -17.219722 -9.029637 25.078773 0.827122 1.939119 0.079504 -0.023765 572699.000000 0 0 1
-15.749761 -15.993322 -8.030037 23.839522 0.793071 1.914352 0.083440 -0.023557 -48298.500000 0 1 0
-16.474561 -16.156222 -6.821937 24.061868 0.775643 1.858255 0.058373 -0.021260 124775.000000 0 1 0
-16.682161 -14.982722 -6.122237 23.243456 0.731780 1.837337 0.078340 -0.024082 -179749.000000 0 1 0
-17.685861 -15.199922 -4.964437 23.842671 0.709949 1.780547 0.106916 -0.022096 -39697.700000 0 1 0
-18.122061 -13.940822 -4.527837 23.307873 0.655722 1.766302 0.108093 -0.019164 72500.100000 0 1 0
-18.306861 -13.943522 -3.117437 23.222433 0.650919 1.705445 0.084706 -0.025433 -387960.000000 0 1 0
-19.166661 -12.799322 -2.612337 23.194996 0.588781 1.683661 0.094026 -0.019430 -773491.000000 0 1 0
-20.525661 -12.987922 -2.869937 24.458647 0.564164 1.688406 0.119638 -0.029535 -498958.000000 0 1 0
-21.326961 -12.159822 -2.109037 24.640385 0.518191 1.656494 0.129950 -0.029655 -901652.000000 0 1 0
-22.784061 -12.197822 -2.562237 25.970471 0.491539 1.669617 0.112107 -0.024667 -598256.000000 0 0 1
-23.152061 -11.398922 -3.654037 26.063487 0.457509 1.711457 0.119821 -0.032992 -327428.000000 0 0 1
-24.526761 -11.588222 -3.809137 27.392671 0.441384 1.710305 0.112506 -0.028002 -566131.000000 0 0 1
-24.958861 -10.890322 -5.110537 27.706704 0.411429 1.756310 0.126062 -0.038224 -154931.000000 0 0 1
-24.457461 -11.603922 -6.191637 27.769674 0.443002 1.795650 0.129140 -0.044983 532104.000000 0 0 1
-25.041261 -11.034422 -7.375637 28.341194 0.415051 1.834072 0.143019 -0.049021 451960.000000 0 0 1
-24.137661 -11.359422 -8.621737 28.035647 0.439860 1.883390 0.150594 -0.056892 -650845.000000 0 0 1
-22.996961 -10.611922 -8.631937 26.757867 0.432334 1.899265 0.138463 -0.051766 -1116560.000000 0 0 1
-22.042961 -11.074322 -9.538337 26.448301 0.465564 1.939751 0.105249 -0.039349 -608141.000000 0 0 1
-20.763461 -10.244922 -9.399137 24.988468 0.458363 1.956422 0.090043 -0.044732 -624540.000000 0 1 0
-20.864361 -8.992922 -10.051037 24.843864 0.406957 1.987303 0.093393 -0.039692 45663.900000 0 1 0
-19.917861 -8.100622 -9.547537 23.526511 0.386270 1.988673 0.098434 -0.038516 -458349.000000 0 1 0
-19.851161 -6.831122 -10.373237 23.416594 0.331424 2.029724 0.098853 -0.047504 -350561.000000 0 1 0
-19.511261 -6.991722 -11.696537 23.798791 0.344088 2.084580 0.107793 -0.038392 542905.000000 0 1 0
-19.602261 -5.714322 -12.339537 23.857206 0.283653 2.114401 0.111824 -0.046533 35214.400000 0 1 0
-18.909961 -5.865822 -13.772137 24.117758 0.300786 2.178565 0.140115 -0.031770 269881.000000 0 1 0
-19.720661 -6.491222 -14.783237 25.486948 0.317988 2.189564 0.129781 -0.040780 517942.000000 0 0 1
-19.058361 -6.533922 -16.024737 25.743066 0.330280 2.242713 0.125900 -0.043204 -511576.000000 0 0 1
-19.741861 -7.381122 -17.136637 27.164064 0.357790 2.253453 0.102395 -0.035058 -71643.600000 0 0 1
-20.963661 -6.849822 -17.610237 28.222608 0.315812 2.244617 0.094801 -0.036333 433212.000000 0 0 1
-21.554261 -7.676522 -18.604437 29.489663 0.342142 2.253483 0.076858 -0.039720 140061.000000 0 0 1
-23.041361 -7.454122 -18.973037 30.764336 0.312884 2.235368 0.075569 -0.033346 -662639.000000 0 0 1
-23.276361 -6.365722 -19.815837 31.224650 0.266957 2.258315 0.075904 -0.032483 -8931.400000 0 0 1
-24.591961 -6.336522 -20.311737 32.518959 0.252181 2.245431 0.064380 -0.030472 694797.000000 0 0 1
-25.681841 -5.838122 -19.263037 32.629821 0.223526 2.202290 0.080343 -0.024473 -348973.000000 0 0 1
-25.740931 -4.446022 -19.039037 32.324102 0.171034 2.200623 0.082955 -0.023836 82157.500000 0 0 1
-26.745931 -4.052522 -18.143637 32.572371 0.150375 2.161596 0.104106 -0.022003 -491068.000000 0 0 1
-26.730551 -2.476222 -18.107237 32.380952 0.092373 2.164210 0.076524 -0.016751 273152.000000 0 0 1
-27.301011 -1.672022 -19.159037 33.394753 0.061168 2.181829 0.090538 -0.019763 617554.000000 0 0 1
-28.607911 -1.993822 -19.639437 34.757667 0.069582 2.171277 0.085450 -0.011755 268992.000000 0 0 1
-29.170071 -0.806722 -20.472337 35.646324 0.027649 2.182568 0.086221 -0.009745 -24372.600000 0 0 1
-28.511881 -0.561922 -21.724437 35.849606 0.019706 2.221804 0.097400 -0.015227 147804.000000 0 0 1
-28.672911 -1.596022 -22.674637 36.589920 0.055606 2.239152 0.103193 -0.009367 -143820.000000 0 0 1
-27.788921 -1.543222 -23.958437 36.723458 0.055477 2.281545 0.120574 -0.011796 -433829.000000 0 0 1
-27.997081 -0.501022 -24.896437 37.468922 0.017894 2.297561 0.117082 -0.009350 130046.000000 0 0 1
-27.650991 0.848178 -24.411337 36.894581 -0.030665 2.293815 0.111379 -0.009603 85339.100000 0 0 1
-26.213201 1.153578 -23.909337 35.498155 -0.043979 2.309781 0.119786 -0.019588 101235.000000 0 0 1
-25.237381 0.862878 -24.893237 35.459036 -0.034177 2.349038 0.112965 -0.017633 810992.000000 0 0 1
-23.916161 0.820178 -24.305837 34.109077 -0.034280 2.363981 0.101687 -0.019833 1023570.000000 0 0 1
-22.813561 0.248978 -25.222927 34.010537 -0.010913 2.406280 0.089134 -0.015017 -26437.700000 0 0 1
-22.482761 1.091478 -26.354007 34.658326 -0.048509 2.434717 0.064042 -0.011986 -118822.000000 0 0 1
-21.701561 0.337478 -27.218207 34.812389 -0.015550 2.468430 0.050943 -0.009975 -284608.000000 0 0 1
-21.541561 1.004578 -28.608517 35.825902 -0.046601 2.495667 0.046842 0.013232 -278556.000000 0 0 1
-20.685661 2.121178 -28.568787 35.335132 -0.102186 2.512411 0.046900 0.011224 223264.000000 0 0 1
-20.630561 2.934578 -29.780737 36.347271 -0.141296 2.531053 0.026799 0.008065 -30178.400000 0 0 1
-19.924561 2.273878 -31.031337 36.947294 -0.113633 2.567861 0.020376 0.007786 561238.000000 0 0 1
-18.512561 2.161978 -30.881287 36.069973 -0.116258 2.598568 0.009441 0.010774 571796.000000 0 0 1
-17.876161 1.540178 -31.995347 36.682850 -0.085946 2.630510 0.001805 0.010558 -165762.000000 0 0 1
-16.350761 1.517178 -32.010287 35.976488 -0.092525 2.667606 0.010699 -0.002700 -564496.000000 0 0 1
-15.770261 2.795478 -32.159837 35.927301 -0.175440 2.679534 0.015386 0.006130 -527967.000000 0 0 1
-14.467761 2.796778 -32.655257 35.826022 -0.190956 2.717702 0.020622 -0.007354 -507330.000000 0 0 1
-13.993861 4.231778 -33.067597 36.155249 -0.293659 2.725314 0.039917 -0.007852 -320595.000000 0 0 1
-13.639561 4.994578 -31.935647 35.083742 -0.351019 2.714730 0.049929 -0.026166 309269.000000 0 0 1
-13.278261 6.323078 -32.198907 35.398632 -0.444425 2.713138 0.067781 -0.016728 -348294.000000 0 0 1
-13.182961 7.272978 -31.011317 34.473010 -0.504144 2.689609 0.064588 -0.025483 -286623.000000 0 0 1
-12.069861 7.212878 -30.130557 33.249926 -0.538649 2.704968 0.100891 -0.037247 298287.000000 0 0 1
-12.034961 6.108978 -29.240937 32.205470 -0.469711 2.709161 0.094704 -0.034642 -81508.300000 0 0 1
-10.597661 5.548678 -29.017097 31.386146 -0.482330 2.750569 0.121532 -0.042959 177964.000000 0 0 1
-9.951261 4.836778 -30.082677 32.052916 -0.452423 2.789148 0.103766 -0.046291 331918.000000 0 0 1
-10.502561 3.570478 -30.233187 32.204001 -0.327705 2.789933 0.096147 -0.046188 -320150.000000 0 0 1
-10.112361 2.895878 -31.594287 33.299323 -0.278906 2.820201 0.088764 -0.038982 89609.200000 0 0 1
-10.666561 1.593478 -31.600087 33.389821 -0.148293 2.812694 0.089450 -0.033922 206324.000000 0 0 1
-10.309361 0.827478 -32.680957 34.278456 -0.080093 2.835096 0.070909 -0.023707 -725900.000000 0 0 1
-10.764261 1.202078 33.943089 35.629308 -0.111212 0.308885 0.075253 -0.023360 -521646.000000 0 0 1
-12.128661 1.001678 33.709811 35.839352 -0.082401 0.346459 0.031961 -0.021017 -451531.000000 0 0 1
-12.381161 1.147878 32.326083 34.635046 -0.092447 0.367205 0.021436 -0.002550 -1248610.000000 0 0 1
-13.773861 0.849278 31.881608 34.740142 -0.061581 0.408503 0.019163 0.004673 -1506680.000000 0 0 1
-14.679261 1.848678 32.196956 35.433632 -0.125279 0.430744 0.012740 0.013586 -378032.000000 0 0 1
-15.943961 1.516478 31.664038 35.484094 -0.094828 0.468283 0.001031 0.016857 304181.000000 0 0 1
-16.905861 2.722778 31.356848 35.727771 -0.159684 0.499838 0.011540 0.014573 559997.000000 0 0 1
-17.596061 3.275978 32.492918 37.096403 -0.184069 0.503488 0.001622 0.009875 318292.000000 0 0 1
-16.987361 4.451578 32.924408 37.314925 -0.256289 0.489987 0.009273 0.009133 -301682.000000 0 0 1
-17.690661 5.159278 -33.936197 38.616617 -0.283768 2.644133 0.009659 0.013389 910304.000000 0 0 1
-18.976261 5.792278 33.943158 39.316497 -0.296255 0.528962 -0.001474 0.010490 435578.000000 0 0 1
-19.919161 5.304378 -33.205617 39.083531 -0.260256 2.586035 -0.011454 0.021997 -859480.000000 0 0 1
-21.229861 6.050278 -33.362897 40.004946 -0.277629 2.557059 0.001091 0.012286 -891637.000000 0 0 1
-21.198961 7.413778 -32.988697 39.907570 -0.336429 2.543885 0.001111 0.007008 93793.200000 0 0 1
-20.809461 8.194378 33.995694 40.692613 -0.375134 0.581888 -0.006911 0.004882 -473662.000000 0 0 1
-20.788461 9.706678 -33.642527 40.720994 -0.436840 2.543075 0.006019 0.005875 -223708.000000 0 0 1
-19.885461 10.012778 -32.577817 39.458857 -0.466462 2.542087 0.004700 0.003615 347175.000000 0 0 1
-19.754261 11.383378 -32.219077 39.470002 -0.522773 2.525760 0.031870 -0.009704 194693.000000 0 0 1
-18.979761 12.322978 -33.209987 40.186942 -0.575861 2.543458 0.027392 -0.015819 -190347.000000 0 0 1
-19.630561 12.478278 33.612229 40.876011 -0.566225 0.605360 0.037040 -0.014191 585768.000000 0 0 1
-18.738461 12.940878 32.551285 39.726344 -0.604393 0.610454 0.032413 -0.007015 684448.000000 0 0 1
-19.320261 12.566478 31.170168 38.765555 -0.576677 0.636689 0.037903 -0.006102 -36587.600000 0 0 1
-19.471261 11.194778 30.947018 38.238345 -0.521788 0.627805 0.018322 0.004960 186123.000000 0 0 1
-18.276261 10.452278 30.747148 37.264715 -0.519505 0.600416 0.024273 0.002701 255285.000000 0 0 1
-18.482461 8.876078 30.795128 36.996298 -0.447718 0.587401 0.020489 0.009132 89731.500000 0 0 1
-19.115561 8.227278 29.691428 36.258429 -0.406433 0.611333 0.020463 -0.009924 182837.000000 0 0 1
-19.133461 6.853978 29.974078 36.214800 -0.343978 0.595845 0.018030 -0.010420 -34102.500000 0 0 1
-19.706461 6.005678 28.857388 35.456475 -0.295815 0.619994 0.023579 -0.012835 -1149670.000000 0 0 1
-21.037461 6.162778 28.572928 36.013426 -0.284970 0.654427 0.037882 -0.021608 -1217070.000000 0 0 1
-21.537961 5.270078 27.582218 35.389776 -0.239973 0.677115 0.030829 -0.021881 -1445130.000000 0 0 1
-23.028761 5.195878 27.540118 36.273670 -0.221910 0.708665 0.037768 -0.017385 -1312210.000000 0 0 1
-23.534061 6.034878 26.510038 35.959059 -0.251023 0.741837 0.051193 -0.027467 1003760.000000 0 0 1
-24.960261 5.991878 26.344608 36.782545 -0.235599 0.772417 0.057587 -0.027048 540966.000000 0 0 1
-25.421911 6.844378 25.137098 36.400450 -0.262995 0.808518 0.064449 -0.023413 -189233.000000 0 0 1
-25.295001 6.280878 23.818058 35.307031 -0.243383 0.830376 0.065128 -0.015761 486295.000000 0 0 1
-26.273211 5.284778 23.554828 35.679692 -0.198498 0.849745 0.069244 -0.013662 -217948.000000 0 0 1
-26.281321 4.644778 22.156898 34.687317 -0.174927 0.877910 0.086896 -0.006020 258854.000000 0 0 1
-27.125821 5.304678 21.184798 34.824495 -0.193121 0.916841 0.100466 -0.007529 398243.000000 0 0 1
-27.105241 4.676478 19.913398 33.957429 -0.170848 0.944161 0.118701 -0.018162 -107986.000000 0 0 1
-28.072861 5.276378 18.881698 34.240973 -0.185786 0.986712 0.165054 -0.038078 206778.000000 0 0 1
-29.411661 4.813078 18.957398 35.321304 -0.162207 1.004260 0.175406 -0.037391 -18969.200000 0 0 1
-30.151981 5.246878 17.830698 35.420411 -0.172289 1.043265 0.185843 -0.040253 514566.000000 0 0 1
-31.664651 5.120478 18.236498 36.897687 -0.160322 1.053830 0.182671 -0.045106 409085.000000 0 0 1
-32.157481 6.173778 19.015598 37.865712 -0.189678 1.044673 0.173459 -0.025498 395546.000000 0 0 1
-33.520251 5.921178 19.356598 39.157956 -0.174841 1.053743 0.167490 -0.023776 625631.000000 0 0 1
-34.229049 7.093778 20.113998 40.330168 -0.204352 1.048660 0.143900 -0.018147 69420.900000 0 0 1
-33.792911 7.356278 21.433598 40.687526 -0.214343 1.015982 0.133383 -0.024327 -82755.400000 0 0 1
-34.479473 8.458078 21.958398 41.743795 -0.240557 1.016873 0.126221 -0.028149 103137.000000 0 0 1
-0.480361 32.371278 11.343363 34.304552 -1.555958 1.233787 0.065477 -0.020489 -4302.620000 0 0 1
-0.760261 32.561878 12.768563 34.984141 -1.547452 1.197183 0.052437 -0.021489 89577.500000 0 0 1
-0.311761 33.815178 13.178063 36.293592 -1.561577 1.199208 0.044604 -0.025315 -230850.000000 0 0 1
-0.158161 33.908178 14.707263 36.960697 -1.566132 1.161552 0.050179 -0.017902 -416165.000000 0 0 1
-1.375461 33.770478 15.380663 37.133568 -1.530089 1.143734 0.048453 -0.000584 -366449.000000 0 0 1
-1.301261 -33.732256 16.636463 37.634164 1.532239 1.112905 0.043890 -0.011400 156248.000000 0 0 1
-2.684361 -33.410856 17.255163 37.699228 1.490625 1.095383 0.035945 -0.000200 -104586.000000 0 0 1
-3.380761 33.588078 17.667163 38.101407 -1.470481 1.088643 0.030896 0.004385 -522197.000000 0 0 1
-4.287761 33.966778 18.648863 38.985985 -1.445227 1.072024 0.024441 0.005835 -459209.000000 0 0 1
-5.176161 32.825878 19.167763 38.363186 -1.414399 1.047614 0.015898 -0.000390 342288.000000 0 0 1
-6.223761 32.488678 18.278163 37.793394 -1.381522 1.065995 0.021579 -0.009257 -21807.500000 0 0 1
-7.352561 31.852278 18.807863 37.714235 -1.343937 1.048705 0.025161 -0.018479 86635.800000 0 0 1
-8.468561 31.704378 17.738463 37.303314 -1.309780 1.075242 0.018335 -0.027754 -445394.000000 0 0 1
-9.054361 32.917778 17.430463 38.332527 -1.302374 1.098742 0.023742 -0.020669 38842.800000 0 0 1
-9.944461 32.786378 16.303863 37.942784 -1.276305 1.126640 0.033183 -0.020288 46767.200000 0 0 1
-10.894461 33.963778 16.057763 39.116228 -1.260398 1.147779 0.060404 -0.028890 -237625.000000 0 0 1
-12.098961 33.889078 16.786863 39.707093 -1.227884 1.134299 0.046318 -0.025726 -25670.800000 0 0 1
-12.937661 -33.144556 16.525963 39.230755 1.198645 1.135973 0.037841 -0.027322 -63481.600000 0 0 1
-14.284561 -33.267956 17.268963 40.112625 1.165222 1.125736 0.073196 -0.032628 -8024.900000 0 0 1
-14.222861 -32.885556 18.641963 40.389013 1.162594 1.091043 0.061507 -0.018006 -211630.000000 0 0 1
-15.496661 -33.046656 19.206063 41.244404 1.132310 1.086411 0.052247 -0.028199 -111373.000000 0 0 1
-15.533161 -32.873656 20.747963 41.862088 1.129381 1.052240 0.051116 -0.038693 -341478.000000 0 0 1
-15.501461 -31.561256 21.181663 41.049617 1.114250 1.028620 0.067508 -0.030363 109022.000000 0 0 1
-15.347761 -31.398656 22.600963 41.620103 1.116146 0.996755 0.052687 -0.021881 87393.400000 0 0 1
-15.207961 -29.949056 22.945563 40.678335 1.100933 0.971486 0.065710 -0.028603 -34783.400000 0 0 1
-15.250661 -29.776056 24.355263 41.380854 1.097453 0.941515 0.064261 -0.043480 -226073.000000 0 0 1
-15.041361 -28.412856 24.817863 40.613536 1.083917 0.913380 0.060750 -0.005471 50091.200000 0 0 1
-15.960361 -27.226856 24.353263 39.863721 1.040586 0.913583 0.077790 -0.007184 620318.000000 0 0 1
-17.288961 -27.295056 24.834263 40.751306 1.006172 0.915480 0.090414 -0.005474 129964.000000 0 0 1
-18.212161 -26.446656 24.207663 40.213423 0.967737 0.924818 0.086502 0.002284 -40955.200000 0 0 1
-19.388561 -25.978256 25.129763 41.015742 0.929643 0.911342 0.083038 -0.002386 542603.000000 0 0 1
-20.229261 -26.960256 25.681363 42.374649 0.927080 0.919705 0.092369 -0.007264 -86785.100000 0 0 1
-21.046261 -27.754056 24.872163 42.800202 0.921996 0.950689 0.083714 -0.014005 -418503.000000 0 0 1
-22.515961 -27.281156 24.853563 43.231119 0.880800 0.958315 0.065920 -0.005633 -114120.000000 0 0 1
-22.837061 -26.110056 24.116763 42.247896 0.852167 0.963269 0.088970 -0.012696 -27870.900000 0 0 1
-24.133861 -26.195056 23.568463 42.709445 0.826330 0.986236 0.081316 -0.014717 -320468.000000 0 0 1
-24.658061 -24.866756 23.064463 41.932625 0.789612 0.988389 0.078944 -0.001641 -368111.000000 0 0 1
-25.096601 -24.076656 24.143263 42.337004 0.764659 0.963969 0.069076 -0.000476 -20357.400000 0 0 1
-25.790431 -22.937356 23.706463 41.872008 0.726914 0.968950 0.060584 0.001936 117680.000000 0 0 1
-26.203741 -21.945856 24.851863 42.259576 0.697197 0.942118 0.057570 0.003442 142280.000000 0 0 1
-27.217361 -22.506256 25.660463 43.655191 0.690934 0.942461 0.051829 0.003566 -19488.800000 0 0 1
-27.553161 -21.613856 26.659063 44.011830 0.665182 0.920120 0.040524 0.003345 487922.000000 0 0 1
-28.828671 -21.996556 27.532963 45.530263 0.651775 0.921385 0.044157 -0.002028 1417050.000000 0 0 1
-30.166541 -21.802256 27.099063 46.040394 0.625818 0.941479 0.045313 -0.008690 631940.000000 0 0 1
-30.597931 -22.572056 26.002963 46.063926 0.635582 0.970972 0.056643 -0.010269 -846989.000000 0 0 1
-32.090701 -22.915056 26.115763 47.296364 0.620108 0.985828 0.068665 -0.020691 -131454.000000 0 0 1
-32.758801 -23.354156 24.943063 47.336161 0.619340 1.015806 0.062743 -0.020755 282117.000000 0 0 1
-32.540161 -24.707756 24.685163 47.735654 0.649427 1.027311 0.060435 -0.021756 -295163.000000 0 0 1
-32.998381 -25.041656 23.242763 47.499513 0.649157 1.059479 0.056754 -0.017819 -246945.000000 0 0 1
-34.362834 -25.302056 23.113263 48.530623 0.634689 1.074398 0.070759 -0.021822 -511219.000000 0 0 1
-34.661245 -25.841756 21.809263 48.423571 0.640648 1.103600 0.073490 -0.013348 -156403.000000 0 0 1
-35.881456 -26.765456 21.830663 49.804080 0.640898 1.117056 0.065287 -0.014590 -673451.000000 0 0 1
-35.848841 -27.911156 22.723663 50.798986 0.661542 1.107024 0.066815 -0.012100 -798309.000000 0 0 1
-34.940908 -28.894456 22.459963 50.598485 0.690960 1.110866 0.063512 -0.008629 -1015630.000000 0 0 1
-35.288381 -29.901656 21.341263 50.939459 0.702954 1.138504 0.067882 -0.005323 -135317.000000 0 0 1
-35.482142 -29.302656 20.081663 50.208578 0.690301 1.159318 0.058271 0.003644 478643.000000 0 0 1
-35.998078 -30.194356 19.087963 50.714013 0.697942 1.184906 0.056196 0.000386 -121961.000000 0 0 1
-36.257341 -29.587456 17.651963 50.016039 0.684445 1.210100 0.047717 0.010465 294265.000000 0 0 1
-35.099368 -29.427856 16.811363 48.791252 0.697730 1.219030 0.070752 0.007408 495462.000000 0 0 1
-35.412876 -29.098456 15.515263 48.389207 0.687828 1.244397 0.059533 0.012675 -67330.900000 0 0 1
-36.261411 -30.056656 14.679863 49.333467 0.692109 1.268656 0.048576 0.004726 344177.000000 0 0 1
-35.453495 -31.185556 14.295863 49.334176 0.721440 1.276803 0.054796 -0.003492 333870.000000 0 0 1
-35.955370 -31.885556 13.168063 49.828458 0.725479 1.303352 0.049615 -0.011663 -105121.000000 0 0 1
-35.957951 -31.145456 11.763263 49.003960 0.713803 1.328382 0.046093 -0.016192 -381659.000000 0 0 1
36.711158 -30.229756 11.622263 48.955330 -0.688876 1.331102 0.030323 -0.015323 -348290.000000 0 0 1
36.782798 -29.562056 10.390863 48.320383 -0.676988 1.354063 0.023101 -0.007046 854008.000000 0 0 1
35.515648 -28.634856 10.196463 46.747023 -0.678547 1.350909 0.039802 -0.004493 833912.000000 0 0 1
35.755428 -27.757356 9.070763 46.164924 -0.660129 1.373024 0.052648 -0.039413 213838.000000 0 0 1
34.632308 -26.947956 8.760863 44.747535 -0.661254 1.373739 0.037413 -0.034892 -56290.400000 0 0 1
34.882948 -25.896056 7.701563 44.121875 -0.638600 1.395346 0.025469 -0.027474 -209665.000000 0 0 1
35.630178 -24.815456 8.117363 44.172481 -0.608355 1.385981 0.046964 -0.035488 -312668.000000 0 0 1
35.937148 -23.855756 7.166763 43.725716 -0.586028 1.406151 0.041530 -0.037702 72137.300000 0 0 1
36.469488 -22.438056 7.522163 43.474968 -0.551561 1.396898 0.047597 -0.042497 120941.000000 0 0 1
35.485358 -21.584256 8.098663 42.316417 -0.546470 1.378225 0.059770 -0.041571 -202072.000000 0 0 1
35.906538 -20.223856 8.014063 41.982247 -0.512948 1.378726 0.077883 -0.045487 316356.000000 0 0 1
35.045848 -19.169956 8.770563 40.897695 -0.500534 1.354666 0.080157 -0.037300 194227.000000 0 0 1
35.399458 -19.228256 10.140663 41.541311 -0.497592 1.324194 0.069130 -0.041378 -547907.000000 0 0 1
34.599288 -18.463556 11.009063 40.733440 -0.490196 1.297122 0.072798 -0.030327 -106433.000000 0 0 1
35.042008 -18.464956 12.497363 41.534095 -0.484965 1.265166 0.059418 -0.038381 637885.000000 0 0 1
36.261828 -17.777956 12.819463 42.371152 -0.455830 1.263428 0.022224 -0.025041 618702.000000 0 0 1
36.646028 -17.873756 14.166563 43.163573 -0.453792 1.236392 0.020485 -0.015021 -383531.000000 0 0 1
-35.701681 -17.260556 14.523063 42.230987 0.450333 1.219734 0.044899 -0.007168 365991.000000 0 0 1
-34.516880 -17.914656 14.054363 41.350636 0.478741 1.224004 0.044535 -0.014392 854289.000000 0 0 1
-33.328831 -17.254456 14.439663 40.212326 0.477710 1.203508 0.044326 -0.015173 -7332.810000 0 0 1
-32.003691 -17.536556 13.745663 38.996286 0.501271 1.210570 0.064151 -0.018074 -346893.000000 0 0 1
-31.679281 -18.891556 13.764363 39.369093 0.537722 1.213627 0.045987 -0.011609 18207.400000 0 0 1
-30.432681 -18.927356 13.089463 38.153990 0.556397 1.220614 0.016141 -0.000393 22895.100000 0 0 1
-30.006351 -20.370456 12.855363 38.478526 0.596405 1.230155 0.014658 -0.015450 -475289.000000 0 0 1
-30.685101 -20.950656 11.795263 38.982479 0.599064 1.263399 0.017820 -0.013863 -339679.000000 0 0 1
-29.813321 -21.714856 10.963663 38.478189 0.629508 1.281861 0.021173 -0.010636 -147335.000000 0 0 1
-30.469081 -22.459456 9.724463 39.081419 0.635209 1.319329 0.029839 -0.011547 175798.000000 0 0 1
-31.182961 -23.633956 10.013263 40.388196 0.648546 1.320258 0.037361 -0.014404 -82311.100000 0 0 1
-32.524071 -23.344956 10.381363 41.359097 0.622556 1.317077 0.054702 -0.022297 -216571.000000 0 0 1
-33.376911 -24.623356 10.470363 42.777990 0.635606 1.323524 0.078072 -0.023884 -100082.000000 0 0 1
-33.721941 -25.108356 9.207563 43.039262 0.640017 1.355196 0.069394 -0.014558 -199026.000000 0 0 1
-34.479824 -26.299256 9.320863 44.355244 0.651607 1.359077 0.075970 -0.015006 195842.000000 0 0 1
-34.714468 -27.071956 7.962763 44.736906 0.662331 1.391852 0.063047 -0.018133 380054.000000 0 0 1
-33.566111 -27.788056 7.555063 44.225998 0.691500 1.399126 0.064947 -0.016676 -48458.500000 0 0 1
-33.809251 -28.262156 6.238863 44.505487 0.696269 1.430151 0.057376 -0.022912 11978.100000 0 0 1
-32.527991 -28.721956 5.491463 43.739881 0.723339 1.444916 0.060431 -0.017457 -304750.000000 0 0 1
-31.768451 -27.681756 5.016963 42.434468 0.716765 1.452291 0.076664 -0.014449 -1060480.000000 0 0 1
-30.653411 -28.236856 4.378163 41.906085 0.744386 1.466130 0.066737 -0.020246 -78268.300000 0 0 1
-29.727051 -27.050656 3.902963 40.381539 0.738295 1.473993 0.070226 -0.018858 401494.000000 0 0 1
-30.075071 -26.496956 2.636263 40.168999 0.722233 1.505120 0.071751 -0.017506 -433860.000000 0 0 1
-29.162421 -25.477756 2.383663 38.797484 0.718065 1.509319 0.076529 -0.016394 -142922.000000 0 0 1
-29.391121 -24.694556 1.053863 38.402731 0.698780 1.543350 0.089669 -0.026349 -80878.200000 0 0 1
-28.748281 -25.269356 -0.075537 38.275446 0.721083 1.572770 0.091177 -0.030645 -96972.200000 0 0 1
-28.825441 -24.529156 -1.301437 37.871880 0.705048 1.605167 0.081720 -0.034162 598935.000000 0 0 1
-30.214471 -24.605556 -2.034637 39.019065 0.683438 1.622965 0.112296 -0.035195 1665000.000000 0 0 1
-31.291881 -23.822556 -1.455637 39.354986 0.650695 1.607792 0.110073 -0.026905 383026.000000 0 0 1
-32.532191 -24.062056 -2.075337 40.517071 0.636837 1.622040 0.128851 -0.027776 25281.900000 0 0 1
-33.386021 -22.773456 -2.133637 40.469855 0.598629 1.623542 0.117269 -0.025435 -88332.700000 0 0 1
-33.873441 -22.376256 -0.846437 40.605706 0.583780 1.591643 0.115266 -0.037922 2045.040000 0 0 1
-34.500813 -21.129156 -0.950637 40.467902 0.549505 1.594290 0.120863 -0.022841 -234249.000000 0 0 1
-34.834735 -20.556056 0.464063 40.450285 0.533110 1.559324 0.105973 -0.037249 -307076.000000 0 0 1
-35.641068 -21.269056 1.343963 41.526675 0.538032 1.538427 0.092166 -0.032943 -45204.300000 0 0 1
-35.530993 -20.826456 2.689963 41.272614 0.530173 1.505575 0.080213 -0.029820 -32796.400000 0 0 1
-36.566931 -21.602956 3.622963 42.625744 0.533611 1.485699 0.075897 -0.018077 2720340.000000 0 0 1
35.716978 -21.472156 3.238463 41.800044 -0.541283 1.493243 0.072908 -0.017970 1750830.000000 0 0 1
35.107268 -20.211356 3.467163 40.657600 -0.522362 1.485415 0.078207 -0.034195 -93074.900000 0 0 1
33.766678 -19.929356 2.746263 39.305340 -0.533188 1.500869 0.071295 -0.023948 1516670.000000 0 0 1
32.623868 -20.730356 3.200763 38.785427 -0.566068 1.488177 0.072111 -0.016542 983750.000000 0 0 1
31.422148 -20.293156 2.598663 37.495555 -0.573433 1.501435 0.073266 -0.024533 531108.000000 0 0 1
30.116728 -21.036156 2.953063 36.854549 -0.609710 1.490583 0.057889 -0.007417 82785.000000 0 0 1
30.098948 -22.197556 2.162363 37.461367 -0.635444 1.513042 0.043667 -0.001225 377315.000000 0 0 1
28.970618 -23.016456 2.474263 37.083365 -0.671363 1.504025 0.036067 0.007687 406978.000000 0 0 1
28.692918 -24.238256 1.467663 37.588970 -0.701437 1.531741 0.041345 0.004556 -161110.000000 0 0 1
28.174458 -23.812556 0.251063 36.890391 -0.701691 1.563991 0.038003 -0.003447 -89044.300000 0 0 1
27.616158 -24.926856 -0.351037 37.203811 -0.734260 1.580232 0.023553 -0.001969 87945.300000 0 0 1
26.710458 -24.695256 -1.618137 36.413220 -0.746216 1.615249 0.041696 -0.009486 413871.000000 0 0 1
27.437158 -24.280656 -2.790437 36.744176 -0.724441 1.646812 0.022416 -0.024498 275992.000000 0 0 1
27.750258 -25.197356 -3.799637 37.675202 -0.737220 1.671821 0.030423 -0.026428 -559954.000000 0 0 1
26.614658 -25.711656 -4.733237 37.307276 -0.768143 1.698011 0.032734 -0.026058 10957.800000 0 0 1
26.163458 -24.796256 -5.688937 36.493080 -0.758576 1.727326 0.038375 -0.037142 993161.000000 0 0 1
25.137758 -23.895556 -5.152037 35.063485 -0.760070 1.718265 0.048881 -0.039255 491239.000000 0 0 1
24.562258 -22.849856 -6.150137 34.106372 -0.749296 1.752110 0.052989 -0.040137 -275439.000000 0 0 1
23.895558 -23.386856 -7.240837 34.210707 -0.774640 1.784063 0.055028 -0.036198 -54466.900000 0 0 1
22.824258 -22.573156 -7.708237 33.013801 -0.779867 1.806457 0.048800 -0.037300 14759.200000 0 0 1
23.140458 -21.226456 -8.413737 32.508987 -0.742285 1.832589 0.044489 -0.028898 -791952.000000 0 0 1
23.782158 -21.364256 -9.664737 33.398048 -0.731892 1.864376 0.043877 -0.028611 170022.000000 0 0 1
23.576858 -20.180056 -10.399437 32.729974 -0.707925 1.894135 0.030693 -0.030950 4555.220000 0 0 1
24.411658 -20.170456 -11.733437 33.770548 -0.690551 1.925642 0.027908 -0.030156 672953.000000 0 0 1
25.814158 -19.943956 -11.624537 34.630362 -0.657807 1.913118 0.043718 -0.028853 364297.000000 0 0 1
26.315558 -19.627456 -12.905237 35.274506 -0.640840 1.945344 0.048632 -0.028923 375955.000000 0 0 1
27.733858 -20.234356 -13.133737 36.757191 -0.630310 1.936183 0.055597 -0.030350 250144.000000 0 0 1
27.689058 -21.601656 -13.301737 37.553318 -0.662520 1.932865 0.043697 -0.023882 323969.000000 0 0 1
28.261358 -22.322456 -12.148037 38.007515 -0.668526 1.896127 0.060583 -0.034589 110028.000000 0 0 1
28.598058 -23.786556 -12.429937 39.219288 -0.693806 1.893292 0.049342 -0.020801 715465.000000 0 0 1
29.937848 -23.937756 -12.947837 40.459083 -0.674486 1.896550 0.047903 -0.024699 1167470.000000 0 0 1
30.277028 -25.299556 -13.257737 41.623714 -0.696076 1.894958 0.048060 -0.014255 31880.300000 0 0 1
-2.869261 -8.619522 -27.746237 29.195590 1.249454 2.825178 0.056092 -0.024941 -202587.000000 0 0 1
-3.131961 -7.389622 -27.178307 28.338596 1.169915 2.854447 0.073789 -0.019573 -443566.000000 0 0 1
-4.160961 -6.722522 -27.843937 28.944614 1.016553 2.864932 0.071783 -0.019549 -306343.000000 0 0 1
-4.475261 -5.287322 -27.329297 28.193513 0.868388 2.893355 0.067124 -0.029581 -76463.800000 0 0 1
-4.987161 -5.241022 -26.021427 27.008420 0.810213 2.870415 0.055258 -0.026037 164868.000000 0 0 1
-4.715161 -4.007722 -25.428797 26.170943 0.704474 2.902876 0.056232 -0.026224 40833.900000 0 0 1
-5.166361 -3.996322 -23.951337 24.825962 0.658389 2.875363 0.054026 -0.023678 115260.000000 0 1 0
-4.523661 -5.027122 -23.221637 24.186357 0.838063 2.858202 0.038045 -0.023789 432917.000000 0 1 0
-5.066061 -4.934122 -21.922737 23.035124 0.772205 2.829552 0.039709 -0.015510 123268.000000 0 1 0
-4.681661 -6.083022 -20.872037 22.238773 0.914851 2.789180 0.047153 -0.018255 -441983.000000 0 1 0
-5.406961 -7.266322 -21.010137 22.879259 0.931074 2.734573 0.051263 -0.017732 405616.000000 0 1 0
-4.764361 -8.302722 -20.267237 22.414174 1.049841 2.700335 0.054186 -0.019010 -741538.000000 0 1 0
-5.544561 -9.648122 -20.402537 23.239878 1.049204 2.642277 0.067382 -0.013365 988702.000000 0 1 0
-6.668261 -9.878922 -19.543437 22.891149 0.977047 2.593952 0.074209 -0.012768 173341.000000 0 1 0
-7.711261 -8.971822 -19.594337 22.888756 0.860814 2.598410 0.063709 -0.022683 -1101700.000000 0 1 0
-8.811261 -9.257822 -18.518037 22.500295 0.810107 2.537492 0.062359 -0.015566 -48142.300000 0 1 0
-9.678261 -10.317922 -18.822437 23.545963 0.817376 2.497078 0.099313 -0.007186 9495.140000 0 1 0
-10.320661 -10.689622 -17.617737 23.047098 0.802957 2.440943 0.088020 -0.011988 -33980.700000 0 1 0
-10.958861 -12.140322 -17.712537 24.108463 0.836501 2.396024 0.069101 -0.005010 1130940.000000 0 1 0
-12.242361 -12.325422 -18.360237 25.276268 0.788779 2.383840 0.093421 -0.027105 876133.000000 0 0 1
-12.227361 -12.117322 -19.804837 26.240606 0.780878 2.426054 0.092565 -0.032407 -1786410.000000 0 0 1
-13.559461 -11.808122 -20.425637 27.212081 0.716469 2.419780 0.096732 -0.036267 -578047.000000 0 0 1
-14.495861 -12.883322 -20.345237 28.107626 0.726570 2.380138 0.092274 -0.033801 55350.500000 0 0 1
-15.201161 -13.040122 -19.135937 27.700256 0.709026 2.333421 0.088478 -0.025966 -174119.000000 0 0 1
-16.430161 -14.001222 -19.307837 28.961647 0.705750 2.300527 0.087126 -0.018815 485090.000000 0 0 1
-15.960761 -15.278622 -19.567737 29.514039 0.763566 2.295612 0.096852 -0.019532 -268933.000000 0 0 1
-16.727061 -15.870422 -20.567637 30.898099 0.759125 2.299175 0.088510 -0.020348 -115736.000000 0 0 1
-16.277761 -17.263722 -20.999437 31.685611 0.814785 2.295273 0.080234 -0.012523 -227377.000000 0 0 1
-16.514961 -18.340122 -20.091537 31.824108 0.837715 2.254064 0.086249 -0.005178 -29746.800000 0 0 1
-16.062861 -19.543822 -20.638237 32.648328 0.882850 2.255105 0.078118 -0.004034 -276548.000000 0 0 1
-16.723961 -20.763322 -19.999037 33.328185 0.892737 2.214377 0.077426 -0.009519 -176877.000000 0 0 1
-16.234661 -22.044922 -20.311537 34.089607 0.936033 2.209092 0.073766 -0.005857 -434321.000000 0 0 1
-17.132561 -23.015022 -19.911537 34.923992 0.930884 2.177472 0.077824 -0.003135 -319482.000000 0 0 1
-16.764361 -24.443122 -20.282337 35.914944 0.969629 2.170905 0.072905 -0.000360 -129507.000000 0 0 1
-16.800861 -24.737822 -21.659937 36.923998 0.974196 2.197661 0.064330 -0.006222 182040.000000 0 0 1
-16.213961 -26.002232 -21.863937 37.643596 1.013233 2.190525 0.065967 -0.001359 -62901.400000 0 0 1
-16.242261 -26.361992 -23.384937 38.802332 1.018605 2.217637 0.068169 -0.010362 70862.400000 0 0 1
-17.420861 -27.088812 -23.722137 40.000374 0.999286 2.205635 0.086783 -0.004821 102664.000000 0 0 1
-17.301261 -28.498672 -23.734937 40.924994 1.025180 2.189478 0.082712 0.003408 -209391.000000 0 0 1
-18.444961 -29.255052 -24.457337 42.358423 1.008260 2.186325 0.092564 -0.004229 10399.400000 0 0 1
-18.445761 -29.192812 -25.904137 43.168167 1.007279 2.214391 0.084088 -0.004339 13225.200000 0 0 1
-18.640661 -27.952332 -26.552617 42.823458 0.982651 2.239601 0.097604 -0.017699 -568983.000000 0 0 1
-17.502961 -27.493142 -27.438947 42.604252 1.003877 2.270567 0.093437 -0.025778 -457519.000000 0 0 1
-17.528561 -27.947962 -28.743197 43.755118 1.010627 2.287510 0.093419 -0.018899 31218.800000 0 0 1
-16.369361 -27.528162 -29.428907 43.495014 1.034327 2.313937 0.072415 -0.018132 -120053.000000 0 0 1
-16.354361 -27.845752 -30.929527 44.715620 1.039753 2.334628 0.084180 -0.016590 -36404.400000 0 0 1
-16.103261 -29.179902 -31.279407 45.707581 1.066525 2.324491 0.066476 -0.015904 182849.000000 0 0 1
-16.716661 -29.521792 -32.503337 46.983506 1.055564 2.334780 0.060398 -0.008541 -119213.000000 0 0 1
-16.627161 -31.024312 -32.928127 48.199916 1.078812 2.322874 0.051147 -0.008615 437766.000000 0 0 1
-15.394461 -31.467922 -33.512367 48.479875 1.115817 2.334032 0.056930 -0.002414 115622.000000 0 0 1
-15.599361 -32.578212 33.673157 49.381793 1.124229 0.820447 0.038873 0.004413 349396.000000 0 0 1
-14.278161 -33.170122 33.105289 48.990642 1.164316 0.828818 0.037073 0.002719 791268.000000 0 0 1
-13.408461 -33.811212 -33.982147 49.777215 1.193252 2.322227 0.048950 0.002386 772557.000000 0 0 1
-12.363961 33.571592 33.438539 48.969942 -1.217924 0.819156 0.059622 -0.002371 65419.000000 0 0 1
-11.619661 32.703488 -33.630007 48.327136 -1.229405 2.340444 0.070473 -0.009741 -271702.000000 0 0 1
-10.892361 33.594027 -32.804897 48.201281 -1.257256 2.319352 0.074647 -0.007150 163828.000000 0 0 1
-10.083461 32.986396 -31.798827 46.914218 -1.274132 2.315573 0.086773 -0.016028 343430.000000 0 0 1
-9.188361 33.962359 -31.002687 46.893863 -1.306576 2.293113 0.083662 -0.006124 -328417.000000 0 0 1
-9.891061 -33.407912 -30.051067 46.010741 1.282949 2.282509 0.087125 -0.018302 -141312.000000 0 0 1
-9.211261 -32.295342 -29.516087 44.710578 1.292954 2.291827 0.083824 -0.028494 -283136.000000 0 0 1
-10.282661 -31.430242 -28.772147 43.834115 1.254614 2.286816 0.081355 -0.023131 889186.000000 0 0 1
-10.738961 -31.788252 -27.415767 43.329465 1.245006 2.255867 0.109207 -0.033670 312099.000000 0 0 1
-11.219361 -33.123032 -27.329517 44.383688 1.244208 2.234141 0.098820 -0.034697 -379685.000000 0 0 1
-11.697061 -33.476972 -25.915377 43.921927 1.234651 2.201896 0.116081 -0.037106 995044.000000 0 0 1
-10.555261 -33.490502 -25.022077 43.117648 1.265479 2.189919 0.115891 -0.045918 938958.000000 0 0 1
-10.977061 -33.865832 -23.747637 42.794167 1.257348 2.159071 0.120797 -0.052241 55786.300000 0 0 1
-9.792161 -33.835292 -22.785737 41.951200 1.289086 2.144979 0.118046 -0.058095 -24418.800000 0 0 1
-8.931361 33.192325 -22.796337 41.245274 -1.307943 2.156399 0.091756 -0.054251 -80497.200000 0 0 1
-8.384861 32.889339 -21.530137 40.194046 -1.321172 2.136079 0.110839 -0.054783 -277129.000000 0 0 1
-7.488361 31.652472 -21.470037 38.973286 -1.338487 2.154228 0.112998 -0.060179 -676226.000000 0 0 1
-6.315161 31.811162 -22.240137 39.324992 -1.374824 2.171893 0.095656 -0.065402 -106418.000000 0 0 1
-5.606161 30.600592 -22.113537 38.168492 -1.389601 2.188747 0.078940 -0.052290 -772713.000000 0 0 1
-4.143661 30.668332 -22.526937 38.277662 -1.436498 2.200016 0.084104 -0.056376 -629638.000000 0 0 1
-3.999061 30.866012 -23.955237 39.275394 -1.441952 2.226768 0.099341 -0.052345 -125381.000000 0 0 1
-2.698961 31.240252 -24.335037 39.691709 -1.484617 2.230777 0.086922 -0.055626 -253561.000000 0 0 1
-2.799661 31.465482 -25.889967 40.843666 -1.482054 2.257355 0.081539 -0.028859 -398708.000000 0 0 1
-1.883661 32.315424 -26.497267 41.832284 -1.512572 2.256757 0.088022 -0.044130 -485032.000000 0 0 1
-2.149261 33.687865 -26.363937 42.831633 -1.507083 2.233848 0.091490 -0.037443 -71254.900000 0 0 1
-1.119661 -33.517782 -27.058347 43.091176 1.537404 2.249690 0.031456 -0.018939 -153526.000000 0 0 1
0.119639 -33.413242 -26.405527 42.587685 -1.567216 2.239574 0.062388 -0.025109 -307523.000000 0 0 1
0.948739 -32.485242 -27.095617 42.312687 -1.541599 2.265771 0.037959 -0.006422 -338206.000000 0 0 1
2.136739 -32.018512 -26.267827 41.469862 -1.504161 2.256761 0.039672 -0.007529 -794381.000000 0 0 1
1.887339 -31.298952 -25.088337 40.157329 -1.510569 2.245609 0.029074 -0.004116 458425.000000 0 0 1
3.129639 -30.695482 -24.729137 39.541591 -1.469190 2.246435 0.017161 -0.006106 231884.000000 0 0 1
3.090939 -29.956682 -23.357737 38.112210 -1.467980 2.230481 0.023444 -0.005633 -253438.000000 0 0 1
3.327139 -30.804642 -22.239337 38.139008 -1.463206 2.193351 0.028143 -0.008269 578724.000000 0 0 1
3.369539 -30.020982 -21.058337 36.824811 -1.459025 2.179558 0.033015 0.000669 -439680.000000 0 0 1
3.477239 -30.788932 -19.666137 36.698862 -1.458335 2.136344 0.037621 -0.000074 -976007.000000 0 0 1
2.349339 -31.431642 -19.169937 36.891110 -1.496191 2.117221 0.040072 -0.001415 -277830.000000 0 0 1
1.907639 -32.646122 -19.695537 38.174894 -1.512429 2.112888 0.051810 -0.006407 -244339.000000 0 0 1
2.364839 -33.832102 -18.769337 38.761986 -1.501011 2.076268 0.030744 -0.010092 825633.000000 0 0 1
3.611139 33.728792 -19.205437 38.981028 1.464139 2.085971 0.047312 -0.002201 617737.000000 0 0 1
4.079139 32.822769 -18.211837 37.757709 1.447153 2.074114 0.058543 -0.023446 -101019.000000 0 0 1
5.312339 32.073702 -18.692537 37.501390 1.406657 2.092605 0.072347 -0.020501 151061.000000 0 0 1
6.548439 32.768376 -18.820537 38.351808 1.373554 2.083728 0.094007 -0.021700 243029.000000 0 0 1
7.553039 31.909722 -19.315937 38.057643 1.338374 2.103129 0.093133 -0.040181 694386.000000 0 0 1
8.921639 32.614998 -19.582837 39.074560 1.303784 2.095742 0.093179 -0.039975 422806.000000 0 0 1
9.815139 32.727179 -18.491337 38.850158 1.279424 2.066858 0.084113 -0.039136 933755.000000 0 0 1
11.080339 33.271688 -18.965937 39.868357 1.249322 2.066572 0.083932 -0.030970 1322610.000000 0 0 1
11.949839 33.609729 -17.663037 39.804465 1.229188 2.030570 0.059915 -0.031111 -203571.000000 0 0 1
12.446539 32.434197 -17.063037 38.704531 1.204379 2.027346 0.065414 -0.036978 -101730.000000 0 0 1
13.171139 32.843501 -15.923937 38.803946 1.189405 1.993655 0.054850 -0.037232 -797038.000000 0 0 1
14.450939 32.094063 -15.592537 38.496568 1.147719 1.987816 0.055125 -0.036212 -246271.000000 0 0 1
14.229839 30.920962 -14.907837 37.159626 1.139492 1.983605 0.061948 -0.032175 -64948.500000 0 0 1
15.446239 30.193592 -14.816937 37.010552 1.097933 1.982688 0.058897 -0.027023 230796.000000 0 0 1
15.357539 28.852992 -14.017337 35.564517 1.081668 1.975926 0.067280 -0.024500 -194694.000000 0 0 1
15.329839 29.152912 -12.613737 35.270421 1.086689 1.936524 0.061205 -0.023334 739129.000000 0 0 1
14.006139 29.007052 -12.053137 34.392719 1.120960 1.928854 0.066635 -0.026361 1148600.000000 0 0 1
13.467439 27.571732 -11.771337 32.865433 1.116431 1.937101 0.067555 -0.017108 -778584.000000 0 0 1
12.865439 26.967312 -12.887337 32.539805 1.125656 1.978006 0.076146 -0.022907 30038.000000 0 0 1
12.320839 25.685222 -12.655737 31.172125 1.123532 1.988864 0.089979 -0.022179 539093.000000 0 0 1
11.319739 25.479122 -11.458237 30.143214 1.152713 1.960729 0.091572 -0.017115 -506038.000000 0 0 1
10.214739 26.337482 -11.483137 30.493709 1.200816 1.956892 0.099731 -0.022305 -232040.000000 0 0 1
9.544539 26.434352 -10.234837 29.910284 1.224298 1.920037 0.078517 -0.015605 78664.200000 0 0 1
8.299239 27.334692 -10.324637 30.375334 1.276026 1.917609 0.082380 -0.020223 -97913.700000 0 0 1
8.670439 28.678632 -10.697837 31.813270 1.277202 1.913749 0.082724 -0.016675 -287859.000000 0 0 1
7.633039 29.615382 -10.648037 32.383867 1.318547 1.905836 0.069472 -0.016072 -85615.200000 0 0 1
8.146639 31.001962 -11.080837 33.915695 1.313828 1.903624 0.086859 -0.019953 291104.000000 0 0 1
9.151939 31.542932 -10.223737 34.398246 1.288408 1.872573 0.061870 -0.017445 -51957.600000 0 0 1
9.790039 32.724240 -10.603937 35.765406 1.280103 1.871807 0.074235 -0.021221 -198425.000000 0 0 1
10.928739 32.704809 -11.609937 36.384509 1.248299 1.895566 0.055677 -0.027276 -774318.000000 0 0 1
12.159539 32.279418 -11.091437 36.233068 1.210539 1.881904 0.041415 -0.021591 -207471.000000 0 0 1
13.187439 32.775001 -11.953337 37.295999 1.188255 1.897053 0.059690 -0.026945 353285.000000 0 0 1
14.663539 32.684252 -11.527037 37.631799 1.149072 1.882112 0.067600 -0.025551 73096.400000 0 0 1
15.037139 33.626301 -10.558237 38.318664 1.150287 1.849945 0.078839 -0.020235 -674645.000000 0 0 1
16.395839 33.487919 -10.285837 38.678970 1.115500 1.839963 0.079923 -0.027866 -280041.000000 0 0 1
16.952239 -33.758062 -9.077237 38.850758 -1.105415 1.806620 0.091199 -0.028492 206629.000000 0 0 1
16.722839 33.890309 -7.801437 38.588454 1.112410 1.774370 0.082874 -0.025112 168569.000000 0 0 1
17.273439 -33.349072 -6.850137 38.176651 -1.092885 1.751206 0.074981 -0.017284 -1334740.000000 0 0 1
17.701739 -34.011982 -5.498237 38.734959 -1.090918 1.713222 0.080278 -0.013256 313115.000000 0 0 1
18.677839 33.110157 -5.691337 38.438724 1.057183 1.719405 0.066770 -0.021951 27067.600000 0 0 1
19.950139 33.622717 -6.044037 39.560404 1.035279 1.724177 0.059659 -0.018375 -1323930.000000 0 0 1
20.752139 32.696184 -6.973437 39.348705 1.005255 1.748959 0.053081 -0.016667 122858.000000 0 0 1
21.135139 31.413342 -6.559037 38.425423 0.978554 1.742332 0.066398 -0.008147 -59466.000000 0 0 1
22.202439 31.445212 -5.617837 38.901282 0.956010 1.715716 0.066828 -0.012618 -334465.000000 0 0 1
22.526939 30.084242 -5.019937 37.917336 0.928067 1.703578 0.059016 -0.019342 -256637.000000 0 0 1
23.199639 29.324532 -6.007437 37.871371 0.901485 1.730097 0.055552 -0.013189 88222.400000 0 0 1
23.587639 28.030662 -5.488437 37.043457 0.871261 1.719506 0.057246 -0.009429 -3022.970000 0 0 1
24.625139 27.283492 -6.339637 37.295810 0.836566 1.741608 0.043307 -0.004439 37208.900000 0 0 1
25.914639 27.868192 -6.312237 38.575238 0.821705 1.735170 0.053542 -0.010565 -275148.000000 0 0 1
26.924139 27.132802 -6.915637 38.844874 0.789258 1.749783 0.037871 -0.009928 -82140.000000 0 0 1
27.720739 26.121382 -6.028837 38.563102 0.755702 1.727777 0.036408 -0.004383 -1015880.000000 0 0 1
28.654939 26.763382 -5.247037 39.559013 0.751279 1.703827 0.038957 -0.012958 -414996.000000 0 0 1
29.335539 25.740482 -4.503737 39.286511 0.720216 1.685687 0.033852 -0.009746 -678703.000000 0 0 1
30.647839 26.114402 -3.877437 40.451039 0.705700 1.666799 0.040968 -0.016953 -799921.000000 0 0 1
30.467539 27.015082 -2.782037 40.814523 0.725409 1.639012 0.050434 -0.023552 294207.000000 0 0 1
31.707539 27.111682 -2.095037 41.770809 0.707421 1.620973 0.062253 -0.039438 309792.000000 0 0 1
31.669439 28.252612 -1.049137 42.453082 0.728439 1.595512 0.065540 -0.025215 163391.000000 0 0 1
31.735839 29.572332 -1.572837 43.406913 0.750124 1.607039 0.044633 -0.015533 -111554.000000 0 0 1
30.726339 30.395932 -1.043437 43.233197 0.779993 1.594934 0.061603 -0.019234 -345738.000000 0 0 1
33.922638 22.547478 18.854998 44.884798 0.586621 1.137268 0.131899 -0.030980 92803.000000 0 0 1
34.243038 22.547078 20.241098 45.723719 0.582287 1.112208 0.111384 -0.027647 193855.000000 0 0 1
35.007388 23.642778 20.701998 47.043288 0.594001 1.115128 0.102716 -0.022821 -73418.700000 0 0 1
34.896008 23.712578 22.230198 47.688567 0.596849 1.085858 0.083097 -0.006455 817214.000000 0 0 1
33.614558 24.251678 22.611998 47.216362 0.624986 1.071393 0.069940 -0.005646 911166.000000 0 0 1
33.510858 24.126678 24.024838 47.773079 0.624001 1.043852 0.068811 -0.006231 -955316.000000 0 0 1
32.280778 24.693778 24.646718 47.532011 0.653012 1.025667 0.052460 -0.003580 -940170.000000 0 0 1
32.163918 26.095278 24.807298 48.279221 0.681606 1.031153 0.032160 -0.008956 1225620.000000 0 0 1
30.841828 26.408778 25.318458 47.850457 0.708120 1.013237 0.027929 -0.016025 1043920.000000 0 0 1
30.727878 27.892478 25.717448 48.821921 0.737067 1.016012 0.026318 -0.014536 -182822.000000 0 0 1
30.447258 28.643078 24.542408 48.474645 0.754875 1.039915 0.020033 -0.018024 224778.000000 0 0 1
30.227338 29.967578 24.861708 49.293531 0.781083 1.042155 0.015031 -0.014911 -192227.000000 0 0 1
30.369858 31.028478 23.753218 49.490505 0.796125 1.070193 0.010702 -0.014214 -254315.000000 0 0 1
31.663458 31.164878 23.227048 50.133023 0.777463 1.089072 0.011870 -0.019740 -340856.000000 0 0 1
31.710558 31.929878 22.012498 50.096174 0.788844 1.115860 0.011740 -0.010422 -1292480.000000 0 0 1
33.090738 32.379178 21.709998 51.134452 0.774530 1.132313 0.009379 -0.022274 -1311840.000000 0 0 1
33.666108 33.220778 22.697998 52.461663 0.778740 1.123357 0.025564 -0.004521 768992.000000 0 0 1
35.031688 33.421378 22.274998 53.295246 0.761878 1.139604 0.025422 0.000826 1311530.000000 0 0 1
35.829088 -33.544156 23.003898 54.204366 -0.752473 1.132506 0.049802 0.002381 300193.000000 0 0 1
35.176118 -32.327356 22.724198 52.903747 -0.743221 1.126815 0.037583 0.000549 235532.000000 0 0 1
35.581778 -31.314956 23.617918 52.957488 -0.721702 1.108529 0.051712 -0.001234 -354529.000000 0 0 1
34.449458 -30.251056 23.694368 51.607312 -0.720599 1.093783 0.047436 -0.007210 1043840.000000 0 0 1
33.168788 -30.728056 24.104898 51.238931 -0.747219 1.081006 0.043242 -0.004370 871858.000000 0 0 1
32.320378 -31.209656 23.045498 50.494995 -0.767917 1.096861 0.039019 0.004869 -185873.000000 0 0 1
31.496908 -32.463156 23.383478 50.918551 -0.800504 1.093665 0.033138 0.001735 -464220.000000 0 0 1
30.442958 -32.250756 24.264198 50.553302 -0.814226 1.070173 0.026698 -0.003753 -357159.000000 0 0 1
29.585798 -33.377456 24.133258 50.712801 -0.845546 1.074831 0.023705 -0.002837 182889.000000 0 0 1
28.611248 -33.560956 25.329398 50.857838 -0.864843 1.049456 0.018636 -0.008140 7066.260000 0 0 1
28.270958 33.237778 25.569098 50.574457 0.865973 1.040750 0.015933 -0.015620 20192.600000 0 0 1
27.678958 32.995478 26.836918 50.744916 0.872799 1.013540 0.009759 -0.007285 -1084360.000000 0 0 1
27.362158 31.468778 26.975018 49.665111 0.855089 0.996626 0.004997 -0.014397 -122079.000000 0 0 1
26.617158 30.843078 25.996528 48.327922 0.858811 1.002829 -0.000569 -0.007315 -804314.000000 0 0 1
25.326758 31.363078 25.914668 47.923453 0.891478 0.999466 -0.005093 -0.005339 -1633680.000000 0 0 1
24.679258 31.153978 24.523358 46.701512 0.900848 1.017954 0.033591 -0.024258 -268332.000000 0 0 1
25.022958 31.888878 23.381698 46.794794 0.905459 1.047585 0.029688 -0.028591 -187448.000000 0 0 1
26.378758 31.874078 23.003498 47.338744 0.879455 1.063365 0.016784 -0.019968 -296159.000000 0 0 1
26.615158 32.604578 21.615198 47.314289 0.886194 1.096353 0.038574 -0.014973 461273.000000 0 0 1
27.957258 32.743178 21.150998 47.969664 0.864080 1.114168 0.042173 -0.011254 644506.000000 0 0 1
27.879258 33.537278 20.026298 47.990152 0.877264 1.140324 0.042399 -0.015466 74352.500000 0 0 1
29.264938 -34.027356 19.667398 49.001063 -0.860501 1.157788 0.050760 -0.023680 595963.000000 0 0 1
30.281818 33.167378 19.272698 48.872286 0.830845 1.165438 0.053957 -0.031834 617712.000000 0 0 1
31.226718 33.850778 18.448598 49.611832 0.825698 1.189786 0.051527 -0.022703 -331140.000000 0 0 1
32.239468 32.998978 17.676198 49.404087 0.797040 1.204898 0.037950 -0.014215 -217181.000000 0 0 1
33.104738 32.376878 18.612498 49.906022 0.774283 1.188609 0.016705 -0.023720 202734.000000 0 0 1
33.959058 31.411178 17.983598 49.631538 0.746442 1.200017 0.031661 -0.026191 193019.000000 0 0 1
34.830308 30.555578 18.911798 50.044478 0.720114 1.183269 0.042348 -0.031540 809339.000000 0 0 1
35.909558 31.299978 19.539298 51.487563 0.716920 1.181545 0.040867 -0.026537 894415.000000 0 0 1
36.800218 30.460678 20.263098 51.891253 0.691423 1.169631 0.074811 -0.024830 451349.000000 0 0 1
-35.717167 31.255178 20.924598 51.869461 -0.718872 1.155557 0.115229 -0.015699 497997.000000 0 0 1
-34.810138 31.698078 19.896798 51.111608 -0.738640 1.170945 0.117329 -0.019812 891500.000000 0 0 1
-33.640971 32.433678 20.303298 50.949802 -0.767129 1.160920 0.107961 -0.007006 809756.000000 0 0 1
-33.862731 33.857878 20.934098 52.261620 -0.785326 1.158665 0.095907 -0.002784 -306515.000000 0 0 1
-34.276419 33.775578 22.292598 53.034164 -0.778039 1.136972 0.098382 0.000445 249322.000000 0 0 1
-33.997631 -33.202356 23.053048 52.817407 0.773564 1.119128 0.094271 0.001918 -93355.400000 0 0 1
-33.919511 -33.539356 24.555948 53.650874 0.779763 1.095391 0.110444 -0.009049 563766.000000 0 0 1
-35.203180 -33.800956 25.137128 54.896664 0.765080 1.095166 0.090454 -0.003311 563964.000000 0 0 1
-35.052022 -34.056656 26.515088 55.601709 0.770996 1.073700 0.102138 -0.005409 1233460.000000 0 0 1
-36.440921 33.701078 27.183338 56.591848 -0.746357 1.069754 0.067981 -0.013653 1208520.000000 0 0 1
-36.365931 33.300078 28.508068 56.956879 -0.741419 1.046597 0.086827 -0.015625 579570.000000 0 0 1
35.995478 32.907778 28.910138 56.695612 0.740616 1.035706 0.087130 -0.024851 864269.000000 0 0 1
35.931328 31.801878 30.041638 56.612011 0.724507 1.011419 0.092233 -0.017306 -222258.000000 0 0 1
35.966048 30.410478 29.720418 55.692522 0.701895 1.007883 0.077159 -0.020288 335302.000000 0 0 1
-36.749581 29.919478 28.803598 55.455876 -0.683306 1.024652 0.072417 -0.019919 -296022.000000 0 0 1
36.718688 28.452578 28.327518 54.408267 0.659235 1.023187 0.066883 -0.018665 -1168850.000000 0 0 1
35.622758 28.329278 27.497488 53.175565 0.671843 1.027328 0.058873 -0.014974 -479399.000000 0 0 1
35.379368 27.061278 26.953978 52.062745 0.652962 1.026611 0.062930 -0.016378 37377.400000 0 0 1
34.866828 25.980378 27.897298 51.661736 0.640378 1.000360 0.052652 -0.014618 206539.000000 0 0 1
35.962018 25.497578 28.700828 52.603524 0.616750 0.993684 0.041661 -0.014617 740244.000000 0 0 1
35.619818 24.295378 29.365838 52.166937 0.598594 0.972881 0.040629 -0.014619 318481.000000 0 0 1
36.176528 22.998578 28.572498 51.517603 0.566280 0.982895 0.044027 -0.000570 187660.000000 0 0 1
35.647098 23.030478 27.252198 50.436106 0.573607 0.999966 0.062214 -0.010421 -132185.000000 0 0 1
36.164038 22.150678 26.316618 49.910466 0.549564 1.015404 0.064462 -0.013448 -637702.000000 0 0 1
35.905878 20.651378 26.498218 49.171812 0.521949 1.001677 0.070827 -0.020246 -489677.000000 0 0 1
34.527298 20.389178 26.310998 47.959582 0.533422 0.990098 0.083515 -0.008976 178485.000000 0 0 1
34.230468 19.058278 26.653128 47.384936 0.508021 0.973413 0.085632 -0.006748 -354194.000000 0 0 1
34.134218 18.753878 28.185348 48.075635 0.502395 0.944348 0.074910 -0.015353 165786.000000 0 0 1
33.069238 19.330678 28.976108 48.029829 0.528983 0.923171 0.060292 -0.021617 699382.000000 0 0 1
33.007108 20.765778 28.840458 48.502152 0.561564 0.934001 0.058105 -0.023765 -700761.000000 0 0 1
31.812138 21.463578 29.564048 48.443062 0.593542 0.914377 0.053903 -0.031498 627376.000000 0 0 1
30.490848 21.120478 29.115158 47.153567 0.605798 0.905294 0.059954 -0.042912 996508.000000 0 0 1
30.025908 21.738478 27.898988 46.394721 0.626646 0.925620 0.055076 -0.031936 -319010.000000 0 0 1
29.873578 23.313378 27.961378 47.093343 0.662676 0.935093 0.048394 -0.025965 -392988.000000 0 0 1
31.049608 24.094478 28.047968 48.283647 0.659934 0.950962 0.049485 -0.027323 -64914.200000 0 0 1
30.818548 25.302178 28.834638 49.207921 0.687418 0.944713 0.034729 -0.023682 -23818.600000 0 0 1
31.120318 25.217578 30.363918 50.262988 0.681005 0.922159 0.038117 -0.034003 915773.000000 0 0 1
32.524248 24.929178 30.556718 51.117547 0.653965 0.930075 0.044028 -0.024227 919127.000000 0 0 1
32.891198 24.822478 31.938478 52.134947 0.646492 0.911436 0.052632 -0.024063 -53454.600000 0 0 1
32.547188 23.501778 32.715328 51.787505 0.625394 0.887023 0.059367 -0.022751 -475051.000000 0 0 1
32.798248 23.578578 -33.951897 52.767468 0.623297 2.269760 0.049027 -0.022863 239035.000000 0 0 1
32.514748 22.348878 -33.375227 51.677722 0.602183 2.272911 0.040160 -0.021613 -683130.000000 0 0 1
33.167668 22.277278 -32.008427 51.194831 0.591449 2.246220 0.036681 -0.025153 -356731.000000 0 0 1
32.537678 23.013878 -30.958377 50.465435 0.615608 2.231227 0.029008 -0.022750 361170.000000 0 0 1
33.089238 22.836178 -29.640907 49.949695 0.604077 2.206092 0.050866 -0.027938 431720.000000 0 0 1
34.411848 23.595778 -29.274947 50.970173 0.601056 2.182612 0.061014 0.000769 326155.000000 0 0 1
35.070068 23.137278 -28.174417 50.586965 0.583195 2.161505 0.051644 -0.009768 -1055030.000000 0 0 1
36.244598 23.862378 -27.956197 51.620082 0.582237 2.143107 0.068087 -0.002161 -106104.000000 0 0 1
-36.653861 23.124478 -26.811587 50.961831 -0.562822 2.124817 0.052096 -0.002150 -115135.000000 0 0 1
-36.144441 21.848278 -27.215337 50.243830 -0.543701 2.143213 0.035968 -0.005603 87529.300000 0 0 1
-36.183101 20.911978 -26.199907 49.325072 -0.524048 2.130775 0.018749 -0.000567 -400814.000000 0 0 1
-35.346806 19.640778 -26.398487 48.291169 -0.507178 2.149158 0.034630 0.005100 -749812.000000 0 0 1
-34.089677 19.776378 -25.838857 47.125977 -0.525680 2.151118 0.033569 0.005103 -1177380.000000 0 0 1
-33.207651 18.699278 -26.030177 46.151719 -0.512846 2.170034 0.018546 -0.005293 -410965.000000 0 0 1
-31.889191 18.997378 -25.344757 44.946386 -0.537275 2.169883 0.035235 -0.013395 -728522.000000 0 0 1
-32.054701 19.052878 -23.932037 44.308672 -0.536282 2.141377 0.039010 -0.010890 201141.000000 0 0 1
-30.808651 19.273178 -23.294037 43.165270 -0.559014 2.140815 0.051533 -0.002157 406567.000000 0 0 1
-31.070241 19.701878 -21.826837 42.777736 -0.565122 2.106258 0.042441 -0.000500 -64628.100000 0 0 1
-31.825301 18.769578 -21.119037 42.557732 -0.532863 2.090064 0.012452 0.006966 -388361.000000 0 0 1
-32.009331 19.202978 -19.816237 42.261506 -0.540359 2.058836 0.012467 0.008942 -432252.000000 0 0 1
-33.144931 18.338078 -19.183237 42.460195 -0.505350 2.039571 0.000329 0.010036 552252.000000 0 0 1
-33.832841 18.879078 -18.036737 42.736455 -0.508972 2.006497 0.006546 0.002430 548630.000000 0 0 1
-34.696401 19.970278 -18.381837 44.051608 -0.522264 2.001246 -0.004046 0.003000 -46779.300000 0 0 1
-35.866907 20.130678 -17.363637 44.644990 -0.511447 1.970263 0.006083 -0.001624 487382.000000 0 0 1
-35.317934 20.671578 -16.179937 44.005238 -0.529540 1.947312 0.005979 -0.009131 -131978.000000 0 0 1
-36.364051 20.717078 -15.277737 44.552786 -0.517852 1.920813 0.026695 -0.001813 -874411.000000 0 0 1
-36.178441 21.581178 -14.000337 44.391849 -0.537857 1.891654 0.036060 -0.001048 -449187.000000 0 0 1
-36.415641 22.986478 -14.148237 45.328244 -0.563063 1.888229 0.047632 -0.012139 592086.000000 0 0 1
35.978638 23.363278 -14.610237 45.318475 0.575929 1.899050 0.053512 -0.006151 345685.000000 0 0 1
35.790368 24.899778 -14.822937 46.050720 0.607842 1.898514 0.051142 -0.009219 -144397.000000 0 0 1
35.732268 25.693278 -13.646137 46.077723 0.623397 1.871461 0.066041 -0.008804 -111061.000000 0 0 1
35.808668 27.097178 -13.850537 46.993139 0.647789 1.869975 0.067818 -0.002734 -395273.000000 0 0 1
-36.688741 27.778978 -14.516237 48.254083 -0.648063 1.876358 0.062339 0.006076 -321191.000000 0 0 1
-36.605351 27.551978 -15.926037 48.504658 -0.645212 1.905342 0.063895 0.002690 633084.000000 0 0 1
-35.344640 27.996778 -16.456337 47.998689 -0.669910 1.920745 0.060210 -0.008296 -39960.500000 0 0 1
-35.112908 27.592378 -17.956137 48.131886 -0.666034 1.953103 0.066050 -0.015467 -47636.500000 0 0 1
-34.952752 26.184678 -18.143637 47.291900 -0.642954 1.964544 0.058055 -0.017205 -361199.000000 0 0 1
-33.702861 25.738978 -17.722037 45.961380 -0.652214 1.966639 0.068017 -0.009417 -689422.000000 0 0 1
-33.239431 24.399578 -18.363637 45.137815 -0.633218 1.989783 0.054991 -0.006863 -202952.000000 0 0 1
-33.060831 24.534878 -19.763537 45.668109 -0.638434 2.018353 0.041813 -0.000554 170080.000000 0 0 1
-32.832081 23.284278 -20.352337 45.103445 -0.616869 2.038947 0.041517 0.000703 -713579.000000 0 0 1
-32.429371 23.288278 -21.810037 45.493799 -0.622786 2.070775 0.038398 0.006194 -512507.000000 0 0 1
-33.405161 23.770878 -22.684837 46.856817 -0.618464 2.076166 0.039809 -0.001737 -219086.000000 0 0 1
-33.050031 23.567278 -24.041037 47.177247 -0.619450 2.105504 0.043509 0.002772 -450177.000000 0 0 1
-33.806931 24.376978 -25.053157 48.629274 -0.624724 2.112022 0.036070 -0.001439 -722979.000000 0 0 1
-33.534891 25.748078 -25.084147 49.160623 -0.654796 2.106270 0.032275 0.002411 -328991.000000 0 0 1
-34.214773 26.546878 -26.018797 50.520938 -0.659865 2.111816 0.031828 0.000785 -455723.000000 0 0 1
-33.580051 27.903978 -26.146837 50.891148 -0.693341 2.110381 0.025573 -0.005693 187884.000000 0 0 1
-32.504281 27.934178 -27.081287 50.697561 -0.709926 2.134326 0.007313 0.001076 -455517.000000 0 0 1
-31.952271 29.234578 -27.189117 51.135665 -0.741011 2.131409 0.013897 0.000684 185517.000000 0 0 1
-30.527371 29.112278 -27.795867 50.517871 -0.761675 2.153422 0.022446 -0.007319 -316780.000000 0 0 1
-29.655591 28.495878 -26.848147 49.115091 -0.765458 2.149140 0.002260 -0.009891 -505687.000000 0 0 1
-28.339481 28.328178 -27.301487 48.486937 -0.785199 2.168891 0.018374 0.000012 285497.000000 0 0 1
-27.458611 29.648878 -27.298737 48.767328 -0.823733 2.164911 0.011919 -0.012806 -374685.000000 0 0 1
-26.881711 29.978078 -25.979027 47.918904 -0.839801 2.143785 0.008784 -0.011688 -95310.900000 0 0 1
-27.795281 30.397278 -24.990137 48.177579 -0.830082 2.116136 0.011512 -0.004127 -236831.000000 0 0 1
-27.168571 30.760478 -23.620637 47.352642 -0.847324 2.093038 -0.009397 -0.003666 57997.200000 0 0 1
-26.567771 32.037578 -23.614337 47.852793 -0.878461 2.086881 -0.001012 -0.006697 -77283.400000 0 0 1
-25.869291 32.398278 -22.457937 47.151114 -0.896985 2.067235 0.010245 0.005975 -6554.690000 0 0 1
-25.274971 33.824678 -22.707637 47.943402 -0.929067 2.064209 0.006612 0.014700 -638854.000000 0 0 1
-26.173101 -33.328556 -22.435637 47.949783 0.905080 2.057708 0.004283 -0.000410 -517917.000000 0 0 1
-25.609661 -32.054456 -22.760337 46.918822 0.896701 2.077274 0.018957 0.001756 193432.000000 0 0 1
16.948939 8.947578 -25.090617 31.573164 0.485728 2.489279 0.067691 -0.033621 1434260.000000 0 0 1
15.665639 8.290378 -24.766037 30.454871 0.486740 2.520434 0.069108 -0.035361 1669830.000000 0 0 1
15.660439 6.931078 -25.121997 30.404011 0.416671 2.543254 0.080292 -0.044006 121751.000000 0 0 1
14.262639 6.268178 -25.215927 29.640443 0.414073 2.588163 0.072169 -0.042558 94603.800000 0 0 1
13.673739 6.092578 -23.958237 28.250447 0.419162 2.583121 0.082569 -0.050731 -52665.300000 0 0 1
12.328739 5.693678 -24.165837 27.720091 0.432641 2.629622 0.071987 -0.045657 -62560.600000 0 0 1
11.484239 5.863278 -22.882437 26.265408 0.472052 2.628439 0.081485 -0.050999 -169687.000000 0 0 1
11.730939 4.896978 -21.880137 25.304855 0.395451 2.615273 0.076874 -0.036449 255635.000000 0 0 1
10.953339 5.148578 -20.710637 23.987788 0.439399 2.612732 0.074327 -0.034040 -58434.700000 0 1 0
11.508339 6.359078 -19.869437 23.825915 0.504809 2.557010 0.087558 -0.046188 23258.700000 0 1 0
10.995639 6.388878 -18.565337 22.503190 0.526360 2.541015 0.068154 -0.034112 -397173.000000 0 1 0
11.072239 7.621778 -17.864237 22.356586 0.602877 2.496525 0.068685 -0.038912 304397.000000 0 1 0
12.503339 8.193478 -17.613137 23.101713 0.580094 2.437836 0.057811 -0.032566 95055.900000 0 1 0
13.138539 7.504278 -16.570037 22.438839 0.518948 2.401570 0.069898 -0.025766 -625200.000000 0 1 0
14.294139 8.233378 -16.308937 23.196817 0.522583 2.350499 0.050110 -0.015528 -829316.000000 0 1 0
14.954539 7.681478 -15.027937 22.549550 0.474512 2.300221 0.060831 -0.025039 322955.000000 0 1 0
16.216839 8.300278 -14.766537 23.450609 0.473067 2.251946 0.043376 -0.033269 876014.000000 0 1 0
16.768539 8.022478 -13.483437 22.964039 0.446239 2.198335 0.031572 -0.027454 202859.000000 0 1 0
17.557339 9.268578 -12.990237 23.725786 0.485720 2.150189 0.074827 -0.031874 164880.000000 0 1 0
16.648939 10.372378 -12.839137 23.443908 0.557164 2.150353 0.088500 -0.027504 561337.000000 0 1 0
17.215139 11.493878 -12.281337 24.068682 0.588691 2.106286 0.124588 -0.051610 27045.000000 0 1 0
16.159739 12.635978 -12.345237 23.941804 0.663633 2.112545 0.129823 -0.045865 581248.000000 0 1 0
15.090939 12.653978 -11.396737 22.754015 0.697789 2.095397 0.120795 -0.028400 373661.000000 0 1 0
15.217039 13.636778 -10.364137 22.911467 0.730685 2.040201 0.097736 -0.032372 -286384.000000 0 1 0
14.859839 15.095978 -10.657537 23.712580 0.793281 2.036942 0.106959 -0.036852 -350739.000000 0 1 0
13.499339 15.379778 -10.450337 22.977799 0.850421 2.042946 0.121311 -0.039411 -219503.000000 0 1 0
13.207439 16.706278 -10.745137 23.853598 0.901833 2.038079 0.128990 -0.038071 -149574.000000 0 1 0
12.239039 17.343078 -9.764937 23.365154 0.956254 2.001959 0.125039 -0.030562 -193588.000000 0 1 0
12.793339 17.372978 -8.471237 23.178691 0.936061 1.944940 0.124828 -0.025678 209127.000000 0 1 0
11.852739 17.754478 -7.489037 22.622877 0.982154 1.908200 0.109811 -0.016316 163144.000000 0 1 0
12.336739 17.452778 -6.009137 22.201448 0.955479 1.844879 0.100097 -0.016648 585292.000000 0 1 0
13.446039 18.293478 -5.667537 23.400177 0.936953 1.815430 0.124412 -0.020946 503638.000000 0 1 0
13.934139 17.840278 -4.420637 23.064643 0.907718 1.763653 0.124494 -0.020911 -289381.000000 0 1 0
15.108439 18.664378 -3.836737 24.317575 0.890302 1.729235 0.123008 -0.029642 74282.000000 0 1 0
16.318839 18.262878 -4.457237 24.893858 0.841555 1.750817 0.148507 -0.052702 425867.000000 0 1 0
17.144039 19.359778 -4.850037 26.310491 0.846023 1.756195 0.109885 -0.041084 106041.000000 0 0 1
18.464839 19.108778 -5.596637 27.155442 0.802535 1.778380 0.113028 -0.026662 -141098.000000 0 0 1
19.465139 18.538978 -4.790837 27.304532 0.761033 1.747169 0.111722 -0.041498 -48288.700000 0 0 1
20.000239 17.400278 -5.433637 27.061109 0.715993 1.772962 0.149380 -0.054510 -232796.000000 0 0 1
20.962039 16.586178 -4.536437 27.112499 0.669382 1.738906 0.122824 -0.055492 -357038.000000 0 0 1
22.271139 17.046378 -4.675437 28.433120 0.653286 1.735983 0.094650 -0.053586 -66448.100000 0 0 1
23.227039 16.222178 -4.000037 28.612142 0.609663 1.711058 0.092666 -0.055834 456719.000000 0 0 1
24.712539 16.411478 -4.375137 29.986464 0.586220 1.717223 0.079483 -0.049724 115520.000000 0 0 1
25.243939 17.656978 -3.874837 31.048988 0.610360 1.695920 0.074950 -0.045831 268695.000000 0 0 1
26.653639 17.540878 -3.931837 32.149000 0.582051 1.693404 0.071064 -0.037214 -296394.000000 0 0 1
27.423339 18.579778 -3.148037 33.273981 0.595477 1.665548 0.081055 -0.037594 -656677.000000 0 0 1
27.375439 19.795878 -3.894537 34.006747 0.626078 1.685571 0.072081 -0.036658 273855.000000 0 0 1
27.261039 20.884078 -3.043837 34.475700 0.653712 1.659201 0.096604 -0.022669 -470921.000000 0 0 1
27.359539 22.158678 -3.915137 35.424281 0.680753 1.681544 0.075625 -0.021753 -170171.000000 0 0 1
28.512539 22.616478 -4.583937 36.680818 0.670588 1.696092 0.047485 -0.010494 -51541.100000 0 0 1
28.903839 21.828978 -5.663437 36.660751 0.646838 1.725900 0.050015 -0.013505 -92303.500000 0 0 1
29.692639 22.595378 -6.764037 37.920392 0.650489 1.750131 0.036052 -0.013652 560677.000000 0 0 1
28.872639 23.379678 -7.677337 37.936527 0.680659 1.774577 0.028069 -0.008818 720097.000000 0 0 1
29.636639 24.276578 -8.491637 39.240164 0.686304 1.788924 0.030852 -0.003704 -12061.900000 0 0 1
30.555839 23.749978 -9.616537 39.877293 0.660723 1.814350 0.030362 -0.015690 245794.000000 0 0 1
29.879739 23.362378 -10.787637 39.433141 0.663594 1.847897 0.041016 -0.012621 -154347.000000 0 0 1
30.800039 22.680178 -11.576037 39.962951 0.634720 1.864678 0.023814 -0.018520 -106065.000000 0 0 1
30.240039 22.320378 -12.962037 39.757686 0.635846 1.902893 0.051958 -0.012786 116316.000000 0 0 1
30.505239 23.323578 -13.941837 40.852585 0.652765 1.919066 0.057991 -0.013351 85260.000000 0 0 1
30.303539 22.786778 -15.203737 40.849667 0.644749 1.952161 0.058847 -0.009557 -173440.000000 0 0 1
30.607239 23.802478 -16.364437 42.085102 0.660979 1.970170 0.051886 -0.011243 -398671.000000 0 0 1
31.952839 24.089578 -16.659837 43.345609 0.645999 1.965299 0.061247 -0.005334 -131125.000000 0 0 1
32.037839 24.828278 -17.829137 44.280296 0.659290 1.985198 0.066942 -0.012471 -106141.000000 0 0 1
33.452039 25.382178 -18.073537 45.715934 0.649086 1.977239 0.057117 -0.017417 342235.000000 0 0 1
34.362639 24.314678 -18.395937 45.939144 0.615802 1.982795 0.050122 -0.011535 -485502.000000 0 0 1
35.666539 24.739378 -18.604337 47.225630 0.606438 1.975717 0.056526 -0.013588 -808336.000000 0 0 1
36.673939 23.606878 -18.818437 47.501537 0.571931 1.978132 0.041757 -0.015845 -445415.000000 0 0 1
36.593239 22.681578 -19.953437 47.451646 0.554873 2.004793 0.031609 -0.001621 -62574.500000 0 0 1
-36.240581 23.093178 -20.983637 47.822459 -0.567338 2.025039 0.040403 -0.006957 -724135.000000 0 0 1
-36.193481 22.059378 -22.123937 47.812684 -0.547364 2.051859 0.039661 -0.001841 -266400.000000 0 0 1
-35.680881 20.830878 -21.718237 46.676895 -0.528431 2.054757 0.020531 0.002325 158387.000000 0 0 1
-35.257281 20.007478 -22.800737 46.510736 -0.516157 2.083144 0.033063 -0.002044 85848.100000 0 0 1
-34.908681 18.542578 -22.430337 45.448467 -0.488275 2.086944 0.010698 0.007127 -415156.000000 0 0 1
-35.997981 17.783178 -21.983837 45.775377 -0.458840 2.071741 0.017665 0.004532 -254181.000000 0 0 1
-35.814281 16.389678 -22.138237 45.181697 -0.429181 2.082866 0.004290 0.004413 237764.000000 0 0 1
36.583839 15.594978 -21.783737 45.344369 0.402955 2.071915 0.016711 0.002539 902181.000000 0 0 1
35.578839 15.766178 -22.807937 45.106852 0.417129 2.100923 0.060835 0.000305 387202.000000 0 0 1
34.456939 14.912978 -22.747137 43.898858 0.408459 2.115508 0.074350 0.003858 -138645.000000 0 0 1
34.571139 13.573078 -23.451937 43.924770 0.374122 2.134016 0.049977 -0.000587 -645881.000000 0 0 1
34.608539 13.565478 -24.863937 44.721231 0.373564 2.160333 0.064564 0.003496 214400.000000 0 0 1
34.764539 12.222078 -25.366797 44.737308 0.338070 2.173676 0.055050 0.003108 -117837.000000 0 0 1
34.700339 11.998378 -26.904437 45.518384 0.332903 2.203178 0.072613 -0.007730 208825.000000 0 0 1
33.465939 12.282078 -27.556527 45.057526 0.351741 2.228859 0.064158 -0.001871 209003.000000 0 0 1
33.364939 13.546078 -28.111837 45.683594 0.385666 2.233638 0.060826 -0.003135 -84393.000000 0 0 1
33.904139 13.747478 -29.557017 47.032978 0.385222 2.250332 0.051774 -0.011579 -519366.000000 0 0 1
35.275139 13.988678 -29.630657 48.145554 0.377537 2.233739 0.060986 -0.009106 -787550.000000 0 0 1
35.681239 13.766078 -30.912267 49.175440 0.368212 2.250563 0.067443 -0.012710 -161481.000000 0 0 1
-36.498381 14.000378 -31.113747 49.962062 -0.366279 2.243046 0.078131 -0.019406 725458.000000 0 0 1
-35.522881 12.982078 -30.832347 48.795932 -0.350378 2.254751 0.071715 -0.013839 644767.000000 0 0 1
-35.252981 12.839978 -29.440077 47.690206 -0.349290 2.236127 0.059929 -0.011605 -514399.000000 0 0 1
-34.190481 11.778278 -29.144607 46.444859 -0.331758 2.249147 0.049588 -0.010315 -348899.000000 0 0 1
-34.562181 10.568878 -29.707117 46.784167 -0.296763 2.258782 0.051301 -0.014034 495648.000000 0 0 1
-33.552281 9.570678 -29.558127 45.727850 -0.277867 2.273643 0.056927 -0.019139 117098.000000 0 0 1
-34.061181 8.269778 -30.076997 46.186351 -0.238183 2.279974 0.065065 -0.012106 -586907.000000 0 0 1
-34.094581 8.200878 -31.494137 47.133592 -0.236049 2.302568 0.069338 -0.016183 28804.700000 0 0 1
-34.554481 6.997978 -32.082147 47.668102 -0.199818 2.309097 0.082269 -0.016710 239607.000000 0 0 1
-36.010781 6.492578 -31.831087 48.498948 -0.178379 2.286734 0.081273 0.000447 167269.000000 0 0 1
-36.133181 5.989778 -30.534187 47.684596 -0.164276 2.265733 0.075601 -0.001069 -107739.000000 0 0 1
36.214539 5.756078 -30.218167 47.515922 0.157625 2.260047 0.059887 0.012593 -621760.000000 0 0 1
36.096839 5.113678 -28.785407 46.451384 0.140729 2.239143 0.068561 -0.007382 -130077.000000 0 0 1
36.592739 3.795078 -28.632707 46.618269 0.103342 2.232162 0.084308 -0.006071 495629.000000 0 0 1
36.129139 3.235778 -27.404857 45.462194 0.089323 2.217809 0.085152 -0.002774 -47334.700000 0 0 1
36.720839 1.833578 -27.295227 45.790953 0.049891 2.209411 0.136186 -0.005467 1257830.000000 0 0 1
-35.560481 1.783078 -26.973547 44.668774 -0.050100 2.219127 0.131356 -0.009966 1135290.000000 0 0 1
-35.097381 0.465278 -26.954507 44.255938 -0.013256 2.225671 0.145903 -0.008748 -1294480.000000 0 0 1
-33.825881 0.227478 -26.237857 42.809661 -0.006725 2.230516 0.132443 -0.018128 -1364880.000000 0 0 1
-33.922481 0.433278 -24.869637 42.064489 -0.012772 2.203375 0.121557 -0.010156 380587.000000 0 0 1
-32.705281 0.584178 -24.155937 40.663078 -0.017860 2.206882 0.134636 -0.003645 125940.000000 0 0 1
-32.951081 0.431778 -22.622337 39.971618 -0.013103 2.172394 0.125043 0.001690 -174952.000000 0 0 1
-33.415781 -0.844622 -22.354337 40.212487 0.025271 2.160248 0.133762 -0.010514 216774.000000 0 0 1
-33.336881 -1.096822 -20.985737 39.407509 0.032889 2.132385 0.107967 -0.000094 143189.000000 0 0 1
-34.692981 -0.995222 -20.233037 40.174235 0.028679 2.098594 0.095997 0.001651 549781.000000 0 0 1
-35.534581 -2.154322 -20.402737 41.031929 0.060552 2.091212 0.102883 -0.014948 -15839.900000 0 0 1
-36.778081 -2.047722 -19.781437 41.810592 0.055620 2.063625 0.096464 -0.014142 -512273.000000 0 0 1
36.357539 -3.418422 -19.547237 41.420414 -0.093747 2.062267 0.110349 -0.022410 -578799.000000 0 0 1
35.600039 -3.991522 -20.569637 41.308655 -0.111655 2.092029 0.086338 -0.021859 47159.200000 0 0 1
36.339939 -4.428022 -21.692337 42.552979 -0.121252 2.105717 0.077313 -0.020650 -394903.000000 0 0 1
35.535739 -5.334222 -22.601137 42.450607 -0.148996 2.132242 0.078613 -0.016546 -979012.000000 0 0 1
35.138839 -6.582722 -22.027637 41.991511 -0.185188 2.123010 0.085759 -0.017298 221518.000000 0 0 1
34.726439 -7.529122 -23.017837 42.337147 -0.213508 2.145611 0.085142 -0.008001 230677.000000 0 0 1
33.302239 -7.254722 -23.574837 41.442044 -0.214494 2.175919 0.053701 -0.002552 -404799.000000 0 0 1
33.242539 -6.164322 -24.512237 41.760208 -0.183352 2.198115 0.059219 -0.007450 -328352.000000 0 0 1
31.902939 -5.942922 -24.858837 40.878816 -0.184170 2.224475 0.016140 -0.003035 -196419.000000 0 0 1
31.742639 -4.677622 -25.678847 41.095966 -0.146308 2.245737 0.033098 -0.022541 155142.000000 0 0 1
32.176439 -4.825922 -27.038587 42.304821 -0.148873 2.264172 0.047155 -0.022666 290376.000000 0 0 1
31.586939 -3.817222 -27.783867 42.240373 -0.120265 2.288632 0.049753 -0.027870 -201842.000000 0 0 1
32.098639 -3.790222 -29.252577 43.593596 -0.117536 2.306392 0.061083 -0.024600 42458.600000 0 0 1
31.359139 -2.993722 -30.158977 43.611029 -0.095177 2.334422 0.053014 -0.030538 -546920.000000 0 0 1
30.500339 -3.706822 -30.971517 43.626208 -0.120941 2.360194 0.056731 -0.033626 -1172370.000000 0 0 1
30.107939 -2.781322 -32.173197 44.151311 -0.092117 2.387223 0.057643 -0.031142 -289589.000000 0 0 1
29.168139 -1.727222 -31.842027 43.216643 -0.059147 2.399122 0.043188 -0.029221 1151690.000000 0 0 1
27.843739 -2.196622 -31.557287 42.142155 -0.078728 2.417090 0.046041 -0.032431 456861.000000 0 0 1
26.980439 -2.673422 -32.806087 42.559729 -0.098765 2.450931 0.067300 -0.038880 -595900.000000 0 0 1
27.432739 -3.905122 -33.364867 43.370721 -0.141403 2.448533 0.088608 -0.042608 555492.000000 0 0 1
26.701339 -4.123822 33.441558 42.991920 -0.153232 0.679548 0.087917 -0.034911 91506.900000 0 0 1
27.235839 -5.290222 32.602672 42.810181 -0.191849 0.705074 0.084863 -0.046889 407379.000000 0 0 1
28.485239 -5.301622 31.908918 43.100987 -0.184013 0.737236 0.092205 -0.043412 469445.000000 0 0 1
28.759039 -4.308522 30.860538 42.403048 -0.148709 0.755702 0.099338 -0.042199 -233049.000000 0 0 1
29.258139 -2.950222 31.341488 42.977103 -0.100495 0.753556 0.079291 -0.036865 -359928.000000 0 0 1
30.603739 -3.032822 31.763398 44.211993 -0.098777 0.769248 0.082849 -0.038785 -170571.000000 0 0 1
31.022139 -1.760522 32.240527 44.776379 -0.056690 0.766945 0.061121 -0.033034 232970.000000 0 0 1
32.505339 -1.834522 32.703988 46.146651 -0.056378 0.783147 0.058253 -0.037474 -103516.000000 0 0 1
33.394039 -1.921622 31.633738 46.038547 -0.057480 0.813287 0.070998 -0.034867 -989319.000000 0 0 1
34.685339 -1.980222 32.157399 47.340177 -0.057029 0.824011 0.075564 -0.030207 -472734.000000 0 0 1
35.751839 -2.539822 31.201018 47.519977 -0.070921 0.854511 0.098058 -0.022084 -451786.000000 0 0 1
36.077039 -1.730222 30.092698 47.011880 -0.047922 0.876157 0.097627 -0.015987 -285572.000000 0 0 1
-36.484881 -2.250422 29.465638 46.951408 0.061603 0.892359 0.101928 -0.017776 -198801.000000 0 0 1
-36.084681 -1.521422 28.159818 45.797317 0.042138 0.908564 0.114268 -0.019575 457659.000000 0 0 1
36.702139 -1.736822 27.066638 45.636240 -0.047287 0.935898 0.118292 -0.032814 302502.000000 0 0 1
-36.584681 -0.964022 25.915068 44.843717 0.026344 0.954646 0.124359 -0.033856 358590.000000 0 0 1
-26.456281 14.716578 12.992663 32.944222 -0.507637 1.165399 0.112902 -0.017349 157644.000000 0 0 1
-27.765681 14.196578 13.124163 33.833704 -0.472646 1.172442 0.096722 -0.021937 187234.000000 0 0 1
-28.700261 15.203678 13.469063 35.160667 -0.487156 1.177677 0.100937 -0.023383 335663.000000 0 0 1
-30.063891 14.527078 13.767963 36.116899 -0.450123 1.179696 0.098242 -0.023805 737292.000000 0 0 1
-31.177681 15.333978 14.211963 37.538761 -0.457087 1.182519 0.090140 -0.023010 169437.000000 0 0 1
-32.187181 14.453178 14.647763 38.202958 -0.422051 1.177300 0.102391 -0.028044 -20923.300000 0 0 1
-33.204511 15.206878 15.511763 39.678754 -0.429467 1.169150 0.090186 -0.029417 -73856.800000 0 0 1
-32.569131 15.539178 16.731463 39.776328 -0.445171 1.136647 0.083406 -0.024695 -105478.000000 0 0 1
-33.436671 16.013578 17.719563 41.090493 -0.446644 1.124938 0.092209 -0.033533 -298534.000000 0 0 1
-32.696611 16.252678 19.016863 41.168666 -0.461305 1.090631 0.103693 -0.023573 -47707.600000 0 0 1
-32.250801 15.054778 19.638563 40.650138 -0.436739 1.066591 0.105197 -0.029696 519251.000000 0 0 1
-31.233871 15.284078 20.645963 40.440247 -0.455086 1.034995 0.083100 -0.017742 753015.000000 0 0 1
-31.805581 15.612678 22.012963 41.712364 -0.456324 1.014868 0.086567 -0.028214 -626968.000000 0 0 1
-32.223901 16.953578 22.164063 42.626862 -0.484323 1.023998 0.091723 -0.031107 288023.000000 0 0 1
-32.734621 17.372978 23.465163 43.863307 -0.487922 1.006335 0.093325 -0.029546 179356.000000 0 0 1
-33.931621 16.512678 24.027963 44.736635 -0.452907 1.003803 0.104150 -0.038413 420072.000000 0 0 1
-35.115347 16.446978 23.240463 45.207409 -0.438025 1.030855 0.125218 -0.029870 511281.000000 0 0 1
-35.945617 17.602178 23.220063 46.271972 -0.455365 1.045098 0.124310 -0.028787 -21221.700000 0 0 1
36.282378 17.286278 22.800163 46.206859 0.444620 1.054760 0.093221 -0.027335 442171.000000 0 0 1
35.682398 16.440178 23.773963 45.920740 0.431746 1.026616 0.106271 -0.028335 -982720.000000 0 0 1
34.421648 15.971378 23.495663 44.631614 0.434429 1.016394 0.127073 -0.031874 -630025.000000 0 0 1
33.780768 15.128478 24.658063 44.475063 0.421059 0.983125 0.091071 -0.008017 -38408.100000 0 0 1
33.154908 15.934778 25.633863 44.835923 0.448020 0.962188 0.099448 -0.011955 267582.000000 0 0 1
32.880708 15.490178 26.934763 45.239010 0.440263 0.933048 0.092115 -0.010969 52389.700000 0 0 1
32.130498 14.143578 27.275863 44.456523 0.414667 0.910260 0.089194 -0.008450 149139.000000 0 0 1
32.788488 12.929578 26.917663 44.348839 0.375611 0.918575 0.087082 -0.013945 484892.000000 0 0 1
31.878018 11.838178 27.150163 43.514157 0.355574 0.897024 0.074109 -0.005209 332411.000000 0 0 1
32.492388 10.466478 26.853763 43.433018 0.311626 0.904244 0.087972 -0.007291 -143541.000000 0 0 1
33.609088 10.141378 27.676563 44.703585 0.293057 0.903184 0.083857 -0.006253 268346.000000 0 0 1
34.078218 8.873478 27.248963 44.526055 0.254729 0.912237 0.093448 -0.006363 -227421.000000 0 0 1
35.215888 8.168378 27.993263 45.722029 0.227921 0.911895 0.102540 -0.014601 262740.000000 0 0 1
36.489978 8.784678 27.976763 46.812267 0.236247 0.930245 0.108762 -0.019044 415592.000000 0 0 1
-36.190041 7.933478 28.481963 46.732017 -0.215803 0.915399 0.114800 -0.028226 1405330.000000 0 0 1
-34.728356 8.520578 28.610863 45.795638 -0.240597 0.895984 0.128066 -0.028590 1080710.000000 0 0 1
-33.968641 8.703478 27.440763 44.526561 -0.250825 0.906788 0.114166 -0.026120 -470513.000000 0 0 1
-32.766421 9.312978 27.769863 43.949235 -0.276921 0.886843 0.101142 -0.019052 -959814.000000 0 0 1
-31.970951 9.890678 26.638263 42.773407 -0.300026 0.898510 0.082592 -0.025363 -702516.000000 0 0 1
-31.364951 8.938878 25.836963 41.607840 -0.277635 0.900825 0.080560 -0.021166 328133.000000 0 0 1
-30.493741 9.586378 24.867963 40.499167 -0.304589 0.909632 0.077461 -0.016587 412701.000000 0 0 1
-29.801041 8.584478 23.903863 39.155970 -0.280467 0.914132 0.076344 -0.012881 -53194.500000 0 0 1
-28.924821 9.231478 23.019663 38.102105 -0.308936 0.922088 0.081398 -0.018065 -214131.000000 0 0 1
-28.126211 8.238478 22.397363 36.886287 -0.284941 0.918264 0.069094 -0.011637 -326158.000000 0 0 1
-26.930821 8.785778 21.638263 35.646507 -0.315349 0.918487 0.070739 -0.010868 -1490700.000000 0 0 1
-25.912111 9.416378 22.384663 35.513080 -0.348559 0.888829 0.068451 -0.013827 327421.000000 0 0 1
-24.885161 10.118678 21.725763 34.549496 -0.386196 0.890749 0.057552 -0.009427 114446.000000 0 0 1
-24.099161 9.333478 20.671863 33.093947 -0.369506 0.896124 0.046641 -0.008002 -1489550.000000 0 0 1
-24.796961 9.041778 19.436163 32.778156 -0.349651 0.936065 0.054268 -0.008237 428830.000000 0 0 1
-24.073361 8.319778 18.396963 31.419639 -0.332751 0.945270 0.065663 -0.012970 -135282.000000 0 0 1
-23.947461 6.809878 18.542263 31.043049 -0.277054 0.930656 0.061181 -0.008787 -645558.000000 0 0 1
-22.904761 6.333778 19.358463 30.651182 -0.269785 0.887216 0.024717 -0.001708 98508.800000 0 0 1
-22.981161 4.942278 19.757563 30.707022 -0.211831 0.871837 0.032303 -0.004839 -278677.000000 0 0 1
-22.908361 3.896578 18.620963 29.777787 -0.168482 0.895241 0.057245 -0.006942 -333791.000000 0 0 1
-24.111261 3.745978 17.887563 30.254755 -0.154130 0.938211 0.112217 -0.014728 436487.000000 0 0 1
-24.047161 2.724878 16.875163 29.503594 -0.112833 0.961891 0.095406 -0.019360 -132185.000000 0 0 1
-24.080961 1.242578 17.337763 29.699070 -0.051554 0.947418 0.106819 -0.020810 -246216.000000 0 0 1
-22.826461 0.763878 17.743363 28.921580 -0.033452 0.910312 0.067903 -0.006537 187839.000000 0 0 1
-23.051161 -0.523822 18.326363 29.453116 0.022720 0.899219 0.094429 -0.011921 -143407.000000 0 0 1
-21.772161 -1.289422 18.728263 28.747825 0.059154 0.861280 0.091825 0.001212 232773.000000 0 0 1
-20.955461 -0.684922 19.757763 28.809195 0.032673 0.815074 0.057762 0.004949 140134.000000 0 0 1
-20.140061 -1.686622 20.272863 28.626138 0.083550 0.783859 0.049337 0.002187 400608.000000 0 0 1
-19.079361 -1.349922 21.384063 28.690111 0.070635 0.729742 0.040324 0.005414 1130790.000000 0 0 1
-19.765261 -1.098122 22.600563 30.044249 0.055501 0.719337 0.037816 0.006293 398405.000000 0 0 1
-18.806961 -1.209022 23.648063 30.238956 0.064198 0.672864 0.053554 0.001993 162241.000000 0 0 1
-19.381561 -0.972322 25.062563 31.697357 0.050125 0.658872 0.050556 0.005141 160194.000000 0 0 1
-20.005361 0.273178 25.318263 32.269236 -0.013654 0.668755 0.057218 -0.023233 -240737.000000 0 0 1
-21.408161 0.165878 25.388563 33.210180 -0.007748 0.700560 0.049840 -0.024604 -463974.000000 0 0 1
-21.980161 1.427078 26.113463 34.162509 -0.064835 0.700702 0.048539 -0.034134 -763539.000000 0 0 1
-21.846061 2.650378 25.412363 33.616411 -0.120731 0.713691 0.040070 -0.030762 387515.000000 0 0 1
-22.937361 2.920478 24.559163 33.731354 -0.126643 0.755278 0.042605 -0.023551 -576341.000000 0 0 1
-22.428361 3.930478 23.516963 32.734196 -0.173484 0.769265 0.039173 -0.015160 289577.000000 0 0 1
-21.750861 3.334378 22.414563 31.410678 -0.152114 0.776177 0.040129 -0.013148 849055.000000 0 0 1
-20.430361 2.836678 22.588263 30.588822 -0.137964 0.740030 0.023352 -0.005492 -203570.000000 0 0 1
-19.848761 2.181178 21.288863 29.188124 -0.109451 0.753400 0.013759 -0.004586 -157280.000000 0 0 1
-19.500261 3.099878 20.212163 28.255990 -0.157647 0.773710 0.009737 0.003566 257710.000000 0 0 1
-19.009961 2.389578 19.115763 27.064758 -0.125046 0.786542 0.016095 -0.001375 -205726.000000 0 0 1
-18.713361 3.282378 17.909863 26.109904 -0.173637 0.814900 0.002295 0.002859 -1182120.000000 0 0 1
-17.516061 3.956478 17.915563 25.365992 -0.222149 0.786563 0.010193 -0.015733 -819847.000000 0 0 1
-17.302461 4.519378 16.625763 24.417534 -0.255490 0.821813 0.025718 -0.009219 -736500.000000 0 1 0
-15.844961 4.946678 16.483563 23.393167 -0.302605 0.788893 0.037727 -0.018591 -409841.000000 0 1 0
-15.287661 5.961178 17.346063 23.877482 -0.371799 0.757638 0.034667 -0.021407 -55950.200000 0 1 0
-15.821261 7.217978 17.248163 24.493074 -0.428015 0.789492 0.026026 -0.026427 -727761.000000 0 1 0
-15.317061 8.113978 16.016663 23.600477 -0.487151 0.824862 0.027780 -0.026081 7567.410000 0 1 0
-15.753961 7.815578 14.663563 22.897394 -0.460525 0.875773 0.029284 -0.023112 -321740.000000 0 1 0
-17.122961 7.870978 14.419863 23.729319 -0.430870 0.917659 0.016194 -0.016311 -571017.000000 0 1 0
-17.495661 7.107978 13.105263 22.986288 -0.385901 0.964127 0.027084 -0.016790 -273654.000000 0 1 0
-17.170761 5.758778 13.238163 22.433179 -0.323594 0.939595 0.020555 -0.017232 10698.400000 0 1 0
-17.813461 4.996878 12.265163 22.197352 -0.273483 0.985375 0.022733 -0.019707 -96485.000000 0 1 0
-17.571161 3.453678 12.376563 21.768163 -0.194080 0.966039 0.033031 -0.007155 -251183.000000 0 1 0
-18.066261 2.815878 13.498663 22.727360 -0.154620 0.934850 0.029514 -0.008670 16031.100000 0 1 0
-17.732261 1.451978 13.471363 22.316338 -0.081701 0.922719 0.028677 -0.006210 -541534.000000 0 1 0
-18.583761 0.582178 14.409163 23.522736 -0.031317 0.911497 0.040248 -0.011238 -290698.000000 0 1 0
-19.927061 0.597178 13.981063 24.349836 -0.029959 0.959200 0.063145 -0.011048 -478559.000000 0 1 0
-20.737861 0.171378 14.995063 25.591799 -0.008264 0.944766 0.079392 -0.017247 -1504480.000000 0 0 1
-22.155061 -0.117722 14.577463 26.520992 0.005313 0.988842 0.102272 -0.023914 -1105000.000000 0 0 1
-22.315161 -1.311722 13.758363 26.248421 0.058714 1.019068 0.124606 -0.037651 930909.000000 0 0 1
-23.698261 -1.565522 13.492763 27.315071 0.065965 1.054149 0.162704 -0.041928 578448.000000 0 0 1
-23.770561 -2.691622 12.492063 26.987702 0.112753 1.089555 0.166639 -0.049555 -149329.000000 0 0 1
-23.526561 -3.981922 13.010963 27.177931 0.167663 1.071586 0.145351 -0.044770 284006.000000 0 0 1
-23.773661 -5.017922 12.135363 27.159410 0.208017 1.107589 0.171733 -0.050521 -116223.000000 0 0 1
-23.714461 -6.475022 12.582163 27.615438 0.266544 1.097727 0.157477 -0.042688 171718.000000 0 0 1
-24.766161 -6.783022 13.485463 29.003963 0.267327 1.087215 0.137428 -0.038395 392462.000000 0 0 1
-24.896761 -8.144622 13.708763 29.565415 0.316162 1.088657 0.146071 -0.042663 463079.000000 0 0 1
-25.946991 -8.426822 14.836063 31.054250 0.314024 1.072708 0.132429 -0.031121 982398.000000 0 0 1
-27.328431 -8.157922 14.581663 32.031543 0.290093 1.098168 0.113373 -0.029149 605250.000000 0 0 1
-28.060071 -8.267622 15.800063 33.247003 0.286532 1.075568 0.113258 -0.022566 -92034.300000 0 0 1
-29.506831 -7.730522 15.542063 34.234044 0.256232 1.099553 0.097570 -0.026672 511358.000000 0 0 1
-30.456491 -8.382222 14.676063 34.831686 0.268570 1.135871 0.084242 -0.018456 930865.000000 0 0 1
-30.699431 -9.777522 14.874963 35.486893 0.308334 1.138268 0.081773 -0.016961 -603585.000000 0 0 1
-31.094211 -10.316722 16.278063 36.582237 0.320360 1.109654 0.078907 -0.013368 -764679.000000 0 0 1
-29.996411 -10.345022 17.130163 36.058933 0.332102 1.075764 0.094551 -0.008770 -245104.000000 0 0 1
-30.351981 -10.893722 18.386763 37.121274 0.344593 1.052598 0.097134 -0.005965 -51446.900000 0 0 1
-29.181941 -10.770922 19.383263 36.651185 0.353584 1.013542 0.110450 -0.008390 115177.000000 0 0 1
-28.127311 -11.582622 18.949563 35.838369 0.390631 1.013668 0.106592 -0.005290 -1073730.000000 0 0 1
-26.885421 -11.264422 19.471863 35.055193 0.396760 0.981877 0.094759 -0.013700 -225188.000000 0 0 1
-25.734641 -12.179022 18.967863 34.210820 0.442023 0.983106 0.082293 -0.009398 -170020.000000 0 0 1
-25.393511 -12.102522 17.646463 33.206914 0.444752 1.010533 0.077203 -0.007783 -95353.200000 0 0 1
-24.608761 -13.174722 17.197463 32.785930 0.491539 1.018624 0.077980 -0.014976 -274045.000000 0 0 1
-24.162561 -13.041222 15.665263 31.611759 0.494923 1.052326 0.067670 -0.014749 -297631.000000 0 0 1
-23.203661 -12.032122 15.476863 30.376227 0.478373 1.036186 0.073102 -0.018622 -303231.000000 0 0 1
-22.818761 -11.869722 14.179163 29.370646 0.479656 1.066985 0.082762 -0.014243 -525701.000000 0 0 1
-21.459661 -11.242222 13.942763 27.951838 0.482566 1.048567 0.095282 -0.025044 -1046530.000000 0 0 1
-21.473461 -9.796822 13.926463 27.404993 0.428022 1.037735 0.108231 -0.036744 527200.000000 0 0 1
-20.202461 -9.239822 13.564763 26.029148 0.428959 1.022613 0.111838 -0.034871 599060.000000 0 0 1
-19.842661 -9.249522 12.091763 25.009910 0.436197 1.066172 0.117321 -0.022911 -364219.000000 0 0 1
-19.563861 -10.530222 11.551963 25.041528 0.493776 1.091323 0.123684 -0.026032 123916.000000 0 0 1
-19.126761 -10.374622 10.222463 24.040893 0.497000 1.131601 0.134798 -0.025255 -615460.000000 0 1 0
-18.414061 -11.642022 9.711663 23.852269 0.563785 1.151455 0.108696 -0.015337 1397520.000000 0 1 0
-16.965061 -11.645822 9.706763 22.752137 0.601580 1.130032 0.118208 -0.031957 1717220.000000 0 1 0
-16.364761 -11.738422 11.054363 22.973788 0.622242 1.068804 0.107334 -0.024999 -1793320.000000 0 1 0
-14.917361 -12.020722 11.112163 22.147361 0.678280 1.045190 0.108547 -0.022329 -1578310.000000 0 1 0
-14.622861 -13.389622 10.776763 22.566539 0.741402 1.072927 0.106097 -0.025809 480463.000000 0 1 0
-13.227761 -13.587822 10.970563 21.907894 0.798825 1.046322 0.111978 -0.021475 489667.000000 0 1 0
-12.665561 -15.017022 10.776163 22.406541 0.870138 1.069072 0.108739 -0.024499 126778.000000 0 1 0
-12.968661 -15.608722 9.512163 22.412042 0.877520 1.132473 0.091053 -0.030756 47074.500000 0 1 0
-12.741061 -17.021622 9.548263 23.307501 0.928242 1.148710 0.080838 -0.025668 92198.400000 0 1 0
-12.986261 -17.783222 8.242263 23.512143 0.940053 1.212634 0.069439 -0.019571 -234464.000000 0 1 0
-12.023061 -17.495622 7.253863 22.433665 0.968710 1.241532 0.058265 -0.029164 6553.530000 0 1 0
-12.291461 -18.268922 6.069063 22.840032 0.978555 1.301845 0.032005 -0.025628 -11840.100000 0 1 0
-11.566061 -17.840422 4.789363 21.794321 0.995613 1.349235 0.041660 -0.032308 -170240.000000 0 1 0
-11.913561 -18.792222 3.737063 22.562052 1.005778 1.404395 0.049291 -0.025407 334998.000000 0 1 0
-10.973861 -18.708522 2.701363 21.857076 1.040310 1.446887 0.057146 -0.034976 -11788.400000 0 1 0
-11.387161 -19.604022 1.505863 22.721196 1.044570 1.504472 0.076608 -0.031608 52486.400000 0 1 0
-10.975361 -20.959922 1.662263 23.717926 1.088420 1.500654 0.057319 -0.030984 -196285.000000 0 1 0
-11.349561 -21.789222 0.556563 24.574224 1.090585 1.548146 0.065525 -0.028559 -69128.000000 0 1 0
-10.750961 -21.593722 -0.876737 24.137951 1.108851 1.607126 0.095221 -0.030430 -107289.000000 0 1 0
-11.089361 -20.402522 -1.582337 23.275322 1.072935 1.638832 0.101730 -0.055829 -340671.000000 0 1 0
-12.242361 -20.540122 -2.368637 24.028784 1.033307 1.669532 0.117898 -0.044795 -266069.000000 0 1 0
-13.404961 -19.611722 -1.934337 23.833889 0.971218 1.652045 0.135509 -0.044017 -114477.000000 0 1 0
-13.959161 -20.256322 -0.793137 24.613123 0.967406 1.603026 0.114662 -0.030824 -672040.000000 0 1 0
-15.065261 -19.585322 -0.308137 24.711169 0.915113 1.583266 0.131754 -0.020713 -440887.000000 0 1 0
26.549839 -20.190122 -4.237237 33.622747 -0.650163 1.697155 0.061192 -0.019185 -448862.000000 0 0 1
25.385639 -20.114522 -3.471537 32.574165 -0.670064 1.677572 0.071286 -0.021715 -282708.000000 0 0 1
25.345939 -21.259622 -2.638237 33.186570 -0.697943 1.650377 0.056546 -0.019308 61934.400000 0 0 1
23.910039 -21.456322 -2.109337 32.194922 -0.731364 1.636361 0.044387 -0.011531 324296.000000 0 0 1
22.965539 -21.954222 -3.057137 31.917862 -0.762888 1.666725 0.054509 -0.015627 312896.000000 0 0 1
21.794639 -22.360122 -2.359837 31.313738 -0.798204 1.646229 0.047494 -0.006121 267002.000000 0 0 1
20.736439 -23.106322 -3.193937 31.210627 -0.839400 1.673311 0.055788 -0.012220 30064.200000 0 0 1
20.015539 -22.240822 -4.017537 30.189676 -0.838011 1.704269 0.055714 -0.016503 -452525.000000 0 0 1
18.998939 -22.888222 -4.738337 30.121126 -0.877984 1.728762 0.059095 -0.015812 447096.000000 0 0 1
17.941239 -21.928522 -5.384837 28.839982 -0.885074 1.758613 0.048583 -0.013301 1056140.000000 0 0 1
16.984339 -21.183622 -4.532037 27.527313 -0.894979 1.736187 0.047566 -0.010991 1399790.000000 0 0 1
17.538339 -20.186422 -3.679437 26.993022 -0.855478 1.707533 0.042393 -0.016517 414547.000000 0 0 1
16.432639 -19.755322 -2.637437 25.831385 -0.876959 1.673077 0.043447 -0.005704 652869.000000 0 0 1
16.187239 -20.761322 -1.683537 26.379793 -0.908567 1.634659 0.048009 -0.007036 162402.000000 0 0 1
15.294139 -20.244822 -0.708537 25.382386 -0.923810 1.598714 0.058357 0.002111 12517.300000 0 0 1
15.022139 -21.039922 0.570863 25.858632 -0.950748 1.548718 0.052311 0.003727 139687.000000 0 0 1
14.093339 -22.090622 0.356463 26.205817 -1.002919 1.557193 0.054858 -0.002545 159877.000000 0 0 1
13.285839 -22.261222 1.529163 25.969479 -1.032722 1.511879 0.047790 -0.003491 378386.000000 0 0 1
12.472439 -23.592022 1.608263 26.734467 -1.084475 1.510603 0.056374 -0.011693 233833.000000 0 0 1
13.236439 -24.718322 1.950563 28.107000 -1.079161 1.501343 0.046451 -0.010654 -96637.300000 0 0 1
12.605539 -25.878252 1.486963 28.823508 -1.117514 1.519185 0.041751 -0.006541 136784.000000 0 0 1
13.065439 -27.107172 2.322863 30.181123 -1.121659 1.493756 0.041174 -0.013321 205843.000000 0 0 1
12.474039 -27.130532 3.600263 30.077056 -1.139840 1.450807 0.066204 -0.017910 219959.000000 0 0 1
12.853539 -28.385642 4.154663 31.435956 -1.145601 1.438246 0.063642 -0.017863 24754.400000 0 0 1
12.357639 -28.603472 5.588863 31.656046 -1.162984 1.393316 0.073095 -0.016604 -131230.000000 0 0 1
12.964339 -29.654292 6.346863 32.980809 -1.158652 1.377147 0.065516 -0.016712 -119481.000000 0 0 1
12.568039 -29.784422 7.700663 33.232027 -1.171498 1.336947 0.066157 -0.024573 168317.000000 0 0 1
13.166539 -31.120442 8.302763 34.796200 -1.170550 1.329861 0.060653 -0.019933 -291804.000000 0 0 1
12.760539 -31.440402 9.635863 35.272937 -1.185245 1.294099 0.058533 -0.014634 -353864.000000 0 0 1
11.865939 -32.524842 9.653563 35.942414 -1.220974 1.298873 0.053226 -0.010396 878.587000 0 0 1
11.509939 -32.792882 11.166363 36.503965 -1.233241 1.259918 0.055364 -0.009558 245072.000000 0 0 1
12.665439 -33.171592 11.919663 37.454589 -1.206064 1.246921 0.049303 -0.008917 158581.000000 0 0 1
12.450639 -33.374372 13.348863 38.040232 -1.213728 1.212249 0.057821 -0.007408 -740472.000000 0 0 1
11.379039 33.857314 13.872063 38.317547 1.246569 1.200353 0.057641 -0.017279 -716575.000000 0 0 1
11.498739 32.537611 13.425063 37.029036 1.231097 1.199788 0.063289 -0.018777 242641.000000 0 0 1
10.334639 31.709432 13.531563 35.991611 1.255735 1.185359 0.068947 -0.020907 292683.000000 0 0 1
10.470239 30.448502 12.675463 34.603534 1.239596 1.195761 0.076571 -0.018832 -161916.000000 0 0 1
10.224139 30.557272 11.285463 34.141494 1.247916 1.233910 0.069732 -0.013643 232112.000000 0 0 1
11.062339 31.438162 10.524163 34.949841 1.232451 1.264927 0.041245 -0.012966 208072.000000 0 0 1
10.513939 31.624522 9.077863 34.540714 1.249831 1.304856 0.039754 -0.013249 -473690.000000 0 0 1
9.467739 32.518004 9.031163 35.051685 1.287475 1.310204 0.048427 -0.013534 -391632.000000 0 0 1
8.824239 32.607673 7.732963 34.654383 1.306508 1.345756 0.036535 -0.006387 88727.300000 0 0 1
9.330139 33.734937 6.842163 35.663885 1.300969 1.377748 0.042023 0.000490 94215.000000 0 0 1
8.814539 -33.123652 7.304063 35.045995 -1.310714 1.360844 0.043097 -0.003723 409841.000000 0 0 1
9.381739 -32.125562 6.499763 34.092751 -1.286664 1.378973 0.055887 -0.012905 -26956.100000 0 0 1
8.665139 -30.797172 6.704963 32.688025 -1.296526 1.364210 0.059499 -0.011544 -11368.000000 0 0 1
8.703139 -30.312832 8.004163 32.537348 -1.291206 1.322246 0.068213 -0.013659 -39078.700000 0 0 1
8.133339 -29.025672 8.080863 31.208031 -1.297591 1.308876 0.078385 -0.011464 -211166.000000 0 0 1
9.000439 -27.831012 7.658163 30.236081 -1.258016 1.314728 0.086613 -0.021062 -50023.600000 0 0 1
9.831539 -27.263902 8.699263 30.259820 -1.224704 1.279196 0.088263 -0.021098 994727.000000 0 0 1
10.805239 -26.260492 8.331063 29.593466 -1.180447 1.285422 0.088262 -0.030134 323096.000000 0 0 1
10.328939 -25.025722 7.559563 28.109086 -1.179362 1.298507 0.095010 -0.030079 -486088.000000 0 0 1
9.935539 -25.418622 6.276763 28.003911 -1.198180 1.344737 0.091391 -0.026732 -477001.000000 0 0 1
9.293439 -24.404522 5.595163 26.706826 -1.206943 1.359730 0.082614 -0.025740 -105383.000000 0 0 1
8.917539 -24.801122 4.131163 26.677419 -1.225629 1.415314 0.069223 -0.020605 213989.000000 0 0 1
7.984439 -25.872372 4.023563 27.373709 -1.271460 1.423275 0.075725 -0.025051 -207968.000000 0 0 1
8.424739 -27.220832 4.121363 28.791241 -1.270651 1.427156 0.068230 -0.019310 653838.000000 0 0 1
7.285039 -28.230052 3.659663 29.383682 -1.318247 1.445925 0.070820 -0.020355 111646.000000 0 0 1
6.110539 -28.250692 4.426863 29.241023 -1.357781 1.418820 0.061963 -0.009052 -295560.000000 0 0 1
5.080939 -29.042712 3.869363 29.736628 -1.397602 1.440305 0.054853 -0.004468 166124.000000 0 0 1
5.236539 -30.565452 4.102163 31.280920 -1.401121 1.439278 0.045505 -0.004581 -183774.000000 0 0 1
6.217939 -31.256202 3.332463 32.042444 -1.374425 1.466606 0.048511 -0.009770 186621.000000 0 0 1
6.298739 -32.635732 3.683363 33.441475 -1.380139 1.460429 0.040015 -0.004413 232354.000000 0 0 1
7.299339 -33.514602 2.869563 34.420100 -1.356349 1.487331 0.040238 -0.003604 190038.000000 0 0 1
6.966239 -33.624992 1.508063 34.372123 -1.366512 1.526908 0.042426 -0.011516 122244.000000 0 0 1
7.859539 33.613500 0.825363 34.530001 1.341102 1.546891 0.027272 -0.006178 -393602.000000 0 0 1
7.340939 33.083666 -0.495137 33.891938 1.352444 1.585406 0.045261 -0.004895 -1000.460000 0 0 1
6.424239 32.018812 -0.319137 32.658491 1.372786 1.580568 0.034845 -0.007840 -109157.000000 0 0 1
5.086339 32.472282 -0.242137 32.869113 1.415422 1.578163 0.038431 -0.014039 -698382.000000 0 0 1
4.058939 31.468832 0.222163 31.730297 1.442522 1.563795 0.047108 -0.018592 -560454.000000 0 0 1
3.886439 30.501332 -0.751637 30.757123 1.444061 1.595237 0.057988 -0.017281 248400.000000 0 0 1
2.720239 29.727722 -0.461037 29.855481 1.479545 1.586239 0.060519 -0.036132 226195.000000 0 0 1
2.539739 28.595072 -1.431237 28.743293 1.482211 1.620611 0.065673 -0.024711 20467.900000 0 0 1
2.112039 29.096442 -2.669437 29.294873 1.498336 1.662046 0.075325 -0.028334 17387.200000 0 0 1
1.748139 28.127252 -3.692437 28.422393 1.508725 1.701078 0.083752 -0.035717 -264372.000000 0 0 1
1.517139 28.850612 -5.047537 29.328095 1.518259 1.743763 0.088380 -0.037521 19241.200000 0 0 1
0.329939 29.604632 -5.141437 30.049584 1.559652 1.742741 0.088796 -0.035456 -68989.000000 0 0 1
0.285539 30.336272 -6.351737 30.995411 1.561384 1.777183 0.078452 -0.018914 -87674.400000 0 0 1
0.211339 29.635872 -7.778037 30.640291 1.563665 1.827455 0.077765 -0.018566 162172.000000 0 0 1
-1.002861 28.901792 -8.012237 30.008587 -1.536111 1.841073 0.071713 -0.011544 669080.000000 0 0 1
-1.307061 28.505622 -9.376437 30.036586 -1.524976 1.888270 0.066740 -0.009274 113405.000000 0 0 1
-1.559761 29.688102 -10.355637 31.481034 -1.518306 1.905986 0.051812 -0.010721 -678682.000000 0 0 1
-0.384561 30.305902 -10.774837 32.166640 -1.558108 1.912369 0.054251 -0.015276 -477441.000000 0 0 1
-0.630461 31.618422 -11.331837 33.593640 -1.550859 1.914866 0.043376 -0.017041 129148.000000 0 0 1
-0.781761 32.774659 -10.327237 34.372100 -1.546948 1.875965 0.049874 -0.021058 536738.000000 0 0 1
0.437939 33.116623 -9.677437 34.504425 1.557573 1.855079 0.043134 -0.025805 283943.000000 0 0 1
0.142939 -34.027722 -8.737737 35.131956 -1.566596 1.822146 0.051760 -0.022006 -248428.000000 0 0 1
1.171739 -33.849012 -7.639437 34.720161 -1.536194 1.792640 0.053721 -0.022456 -116623.000000 0 0 1
2.441139 -33.388222 -8.029337 34.426774 -1.497812 1.806194 0.053515 -0.015047 -136834.000000 0 0 1
3.236739 -32.865772 -6.970337 33.752349 -1.472629 1.778807 0.055532 -0.015663 24868.200000 0 0 1
4.510139 -32.112472 -7.501837 33.284077 -1.431261 1.798138 0.039863 -0.006776 861634.000000 0 0 1
5.350939 -33.029272 -8.208537 34.452074 -1.410186 1.811370 0.057236 -0.006209 306952.000000 0 0 1
6.117839 -34.011312 -7.530837 35.368217 -1.392823 1.785366 0.073831 -0.003507 -1323080.000000 0 0 1
6.674839 33.048458 -8.423937 34.752220 1.371506 1.815635 0.078488 -0.004775 -160429.000000 0 0 1
5.765639 32.028522 -8.758137 33.701243 1.392688 1.833690 0.063855 -0.003513 -500230.000000 0 0 1
4.606039 32.450052 -9.436237 34.106657 1.429796 1.851122 0.074668 -0.009999 -240377.000000 0 0 1
3.531639 31.364092 -9.596837 32.989059 1.458667 1.865974 0.059292 -0.016160 38413.300000 0 0 1
4.075239 30.353882 -10.434237 32.354892 1.437337 1.899159 0.068720 -0.019184 -4530.260000 0 0 1
3.330839 29.163882 -10.468437 31.164318 1.457078 1.913369 0.057037 -0.017887 168073.000000 0 0 1
3.960939 28.177672 -11.501237 30.691183 1.431141 1.954913 0.065247 -0.020961 214739.000000 0 0 1
3.881939 28.663462 -12.861137 31.655527 1.436184 1.989180 0.062825 -0.015572 195209.000000 0 0 1
5.027639 28.267972 -13.591437 31.766060 1.394781 2.012920 0.075590 -0.030548 199205.000000 0 0 1
4.887839 28.643432 -15.101237 32.747283 1.401780 2.050081 0.081966 -0.026221 253731.000000 0 0 1
3.882939 27.944942 -15.824037 32.348063 1.432731 2.081946 0.062496 -0.018131 204729.000000 0 0 1
3.781539 28.596412 -17.079537 33.522610 1.439321 2.105392 0.101041 -0.026466 312724.000000 0 0 1
2.713339 27.956192 -18.011737 33.366653 1.474043 2.141011 0.086445 -0.024361 235251.000000 0 0 1
3.139039 26.722442 -18.430537 32.613297 1.453864 2.171379 0.102341 -0.018539 -33720.300000 0 0 1
2.182939 26.286562 -19.344937 32.710475 1.487943 2.203589 0.097410 -0.032772 -98627.000000 0 0 1
2.804239 25.246632 -20.300637 32.517258 1.460176 2.245036 0.109076 -0.035751 19542.400000 0 0 1
3.062439 24.061512 -19.543837 31.149582 1.444202 2.249030 0.101236 -0.035185 -516895.000000 0 0 1
4.161739 23.421532 -20.075837 31.127600 1.394943 2.271758 0.108337 -0.035636 -714868.000000 0 0 1
4.713839 22.311212 -19.186737 29.801700 1.362582 2.270268 0.107712 -0.034804 -178675.000000 0 0 1
3.950339 21.102812 -19.045237 28.699389 1.385743 2.296432 0.113771 -0.025035 -92214.400000 0 0 1
4.548739 20.126412 -18.196937 27.511670 1.348522 2.293515 0.085033 -0.014109 -18945.400000 0 0 1
3.656439 18.892612 -17.965437 26.325981 1.379622 2.321868 0.073622 -0.018588 452671.000000 0 0 1
2.527439 19.164112 -17.128837 25.827276 1.439669 2.295892 0.071202 -0.010733 -127523.000000 0 0 1
1.806139 18.033112 -16.643337 24.606014 1.470972 2.313651 0.051685 -0.009551 -40796.700000 0 1 0
2.333539 16.877712 -15.701337 23.169690 1.433406 2.315382 0.026463 -0.007803 -662630.000000 0 1 0
3.368339 16.090612 -16.201537 23.081233 1.364441 2.348908 0.032305 -0.011601 -725824.000000 0 1 0
3.046039 15.085612 -17.170537 23.058217 1.371558 2.410822 0.035170 -0.011984 -132445.000000 0 1 0
2.986939 15.501812 -18.636837 24.424571 1.380446 2.438794 0.037770 -0.012114 -827276.000000 0 1 0
4.216639 15.946812 -19.092637 25.231124 1.312294 2.429062 0.049147 -0.013769 -1081000.000000 0 0 1
4.394939 16.204612 -20.475137 26.478976 1.305952 2.454763 0.065702 -0.021579 -387440.000000 0 0 1
4.877439 14.976112 -21.326737 26.512319 1.255948 2.505476 0.047318 -0.034056 337377.000000 0 0 1
3.995039 13.856212 -21.587137 25.960728 1.290088 2.552654 0.034049 -0.028115 647651.000000 0 0 1
2.817139 14.203412 -22.326737 26.611207 1.374995 2.566235 0.054174 -0.028514 566275.000000 0 0 1
1.947139 13.009912 -22.783137 26.308183 1.422233 2.617962 0.068556 -0.024220 297257.000000 0 0 1
1.128439 12.436212 -21.736137 25.067756 1.480306 2.620138 0.045887 -0.011907 -87081.500000 0 0 1
0.231739 11.595312 -22.378437 25.205146 1.550813 2.663452 0.040747 -0.002941 -698215.000000 0 0 1
-0.440561 10.671612 -21.370837 23.891213 -1.529536 2.678122 0.011915 0.002288 -894374.000000 0 1 0
-1.403761 11.280512 -20.527037 23.464436 -1.446992 2.635850 0.015295 -0.000081 109699.000000 0 1 0
-1.885361 10.426612 -19.470437 22.166794 -1.391907 2.643218 0.000106 0.001429 437625.000000 0 1 0
-2.918261 9.337412 -19.857537 22.136515 -1.267880 2.683842 -0.000862 -0.002229 -190111.000000 0 1 0
-2.382561 8.320912 -20.632237 22.374167 -1.291924 2.744387 -0.001247 0.000054 -980770.000000 0 1 0
-3.420861 7.506012 -21.038137 22.597471 -1.143171 2.767926 0.009984 0.004262 -466784.000000 0 1 0
-2.977061 6.157612 -21.636637 22.691918 -1.120455 2.835424 0.013112 -0.011286 249073.000000 0 1 0
-2.140761 5.305712 -20.836837 21.608036 -1.187292 2.873620 0.014614 -0.011062 157376.000000 0 1 0
-1.894161 4.161912 -21.579437 22.058591 -1.143694 2.932782 0.034304 -0.012357 -198688.000000 0 1 0
-1.114061 3.065312 -20.790037 21.044308 -1.222198 2.985984 0.032462 -0.013912 -1411400.000000 0 1 0
0.230239 3.343512 -20.770237 21.038888 1.502044 2.981614 0.029939 -0.014868 -1256040.000000 0 1 0
0.897339 2.327712 -20.041637 20.196303 1.202850 3.017754 0.034559 -0.013270 -410090.000000 0 1 0
2.403039 2.201612 -20.230737 20.491569 0.741682 2.981869 0.031805 -0.015383 -508029.000000 0 1 0
2.956839 1.817412 -21.474737 21.753395 0.551120 2.981360 0.050955 -0.013162 -153506.000000 0 1 0
4.358939 1.815912 -21.299337 21.816499 0.394730 2.923421 0.060997 -0.014281 -366231.000000 0 1 0
5.106339 1.334212 -22.514337 23.124666 0.255572 2.911332 0.066390 -0.012813 -1486530.000000 0 1 0
6.466039 1.531812 -22.371837 23.337849 0.232613 2.852867 0.067797 -0.020644 -720584.000000 0 1 0
7.165539 0.895612 -23.458337 24.544666 0.124344 2.842964 0.061337 -0.015155 -711137.000000 0 1 0
8.670839 0.982012 -23.340337 24.918248 0.112774 2.783812 0.050896 -0.024571 -774228.000000 0 1 0
9.207139 2.315112 -23.457437 25.305780 0.246341 2.757022 0.054615 -0.027568 -214304.000000 0 0 1
10.605239 2.167612 -23.491337 25.865276 0.201614 2.709805 0.048169 -0.027282 -558248.000000 0 0 1
13.858239 -21.252222 22.349698 33.811488 -0.992957 0.848634 0.073402 0.004334 -858675.000000 0 0 1
12.731439 -21.980222 22.754298 34.102460 -1.045795 0.840308 0.065135 0.010194 -111226.000000 0 0 1
11.492939 -21.455122 22.324998 33.027495 -1.079019 0.828541 0.050805 0.002385 208275.000000 0 0 1
11.143839 -21.272122 20.806398 31.774117 -1.088235 0.856849 0.065651 -0.012377 -641842.000000 0 0 1
11.823539 -20.163222 20.177198 30.878324 -1.040443 0.858674 0.061662 -0.009990 140041.000000 0 0 1
11.339839 -19.999322 18.872898 29.744766 -1.054987 0.883442 0.080173 -0.019731 91436.200000 0 0 1
11.421039 -18.623222 18.197698 28.432741 -1.020678 0.876264 0.090179 -0.021059 -12963.000000 0 0 1
10.682639 -17.564922 18.744798 27.821084 -1.024384 0.831508 0.094587 -0.023582 -165835.000000 0 0 1
10.974639 -16.334922 18.060198 26.710356 -0.979213 0.828272 0.101514 -0.024439 -103632.000000 0 0 1
10.082739 -15.177422 18.562098 26.010906 -0.984417 0.776133 0.103019 -0.014009 761123.000000 0 0 1
8.732839 -15.454522 18.188998 25.415436 -1.056459 0.773217 0.072828 -0.015257 -131014.000000 0 0 1
7.800239 -14.517822 18.622798 24.868042 -1.077766 0.724449 0.050712 -0.012527 -1008680.000000 0 1 0
6.378239 -14.836722 18.267598 24.382686 -1.164787 0.723937 0.028596 -0.009942 -1304250.000000 0 1 0
6.117539 -14.865022 16.889798 23.316484 -1.180382 0.760674 0.022634 -0.013964 -647758.000000 0 1 0
4.759339 -14.977722 16.586498 22.849407 -1.263126 0.758447 0.007317 -0.014194 -533319.000000 0 1 0
4.097739 -16.365122 16.777598 23.792782 -1.325446 0.788155 -0.000531 -0.007258 -908532.000000 0 1 0
2.792139 -16.414122 16.286998 23.291323 -1.402303 0.796416 0.006233 -0.008749 -511954.000000 0 1 0
2.203839 -17.695322 16.402198 24.228360 -1.446891 0.827140 0.011798 -0.017034 -89194.200000 0 1 0
0.705339 -17.710422 16.109198 23.951259 -1.530991 0.833103 0.011368 -0.009492 -256918.000000 0 1 0
0.367839 -17.588822 14.729198 22.944525 -1.549886 0.873760 0.016879 -0.011959 -673166.000000 0 1 0
-0.981861 -17.884122 14.528698 23.062718 1.515950 0.889289 0.019034 -0.005399 -893755.000000 0 1 0
-1.506961 -17.670322 13.122798 22.061710 1.485720 0.933752 0.018055 -0.033021 106475.000000 0 1 0
-2.831361 -18.140122 12.899898 22.438538 1.415963 0.958315 0.023733 -0.034897 393167.000000 0 1 0
-2.837361 -19.452622 12.358098 23.220201 1.425958 1.009584 0.037176 -0.038205 -651513.000000 0 1 0
-4.247561 -20.004822 12.287198 23.858121 1.361577 1.029776 0.028019 -0.030721 -463135.000000 0 1 0
-4.667561 -20.492422 13.541798 25.002116 1.346847 0.998426 0.025426 -0.034253 -332974.000000 0 0 1
-6.064261 -20.646022 13.481398 25.392550 1.285106 1.011111 0.024911 -0.029853 -459569.000000 0 0 1
-6.688161 -21.443022 14.621498 26.801547 1.268455 0.993755 0.029053 -0.024515 1234520.000000 0 0 1
-8.127961 -21.308122 14.480198 27.014366 1.206384 1.005083 0.050736 -0.016008 1361650.000000 0 0 1
-8.844361 -22.021522 15.504598 28.347182 1.188891 0.992075 0.049444 -0.020130 15628.500000 0 0 1
-10.355761 -21.824522 15.529898 28.718100 1.127755 0.999444 0.066107 -0.011829 -189098.000000 0 0 1
-10.728661 -20.504822 15.908698 28.082710 1.088741 0.968551 0.059212 -0.009367 -702385.000000 0 0 1
-12.090861 -20.231922 15.730298 28.336582 1.032134 0.982285 0.085201 -0.009395 -244406.000000 0 0 1
-12.645561 -19.036522 16.546498 28.214996 0.984449 0.944135 0.093762 -0.009597 -260702.000000 0 0 1
-12.769361 -19.286622 17.924998 29.263218 0.985973 0.911522 0.073224 -0.006716 -108877.000000 0 0 1
-13.069661 -18.152422 18.688698 29.147794 0.946776 0.874774 0.076119 -0.019711 -112117.000000 0 0 1
-13.333061 -18.527622 20.139198 30.440608 0.947016 0.847859 0.068790 -0.014476 -303643.000000 0 0 1
-14.522161 -19.253922 20.231998 31.479206 0.924584 0.872766 0.062173 -0.008504 -441828.000000 0 0 1
-14.765261 -19.675522 21.550898 32.704439 0.927015 0.851362 0.052288 -0.004944 1295910.000000 0 0 1
-16.090361 -20.582222 21.594998 33.895008 0.907277 0.880048 0.062451 -0.008215 718510.000000 0 0 1
-15.954161 -21.827322 20.906798 34.176914 0.939615 0.912560 0.053281 -0.013082 -38425.100000 0 0 1
-17.032261 -22.243022 20.089198 34.473553 0.917301 0.948697 0.085348 -0.006993 393670.000000 0 0 1
-18.285661 -22.786922 20.847698 35.892001 0.894555 0.951030 0.081786 -0.012425 -231882.000000 0 0 1
-19.003061 -21.794222 21.492998 36.028508 0.853707 0.931594 0.078652 -0.010066 -494922.000000 0 0 1
-19.843761 -22.412922 22.454298 37.420709 0.846122 0.927233 0.092699 -0.013468 -33778.800000 0 0 1
-20.451061 -21.411722 23.451968 37.771716 0.808342 0.900923 0.076074 -0.007823 11752.400000 0 0 1
-21.384961 -20.554022 22.802798 37.413260 0.765588 0.915386 0.083408 -0.013386 157571.000000 0 0 1
-21.668061 -19.351922 23.496648 37.364345 0.728994 0.890720 0.076993 -0.006769 -242497.000000 0 0 1
-22.913661 -18.666322 22.933898 37.408971 0.683603 0.910870 0.071938 0.006732 7259.790000 0 0 1
-22.599061 -17.949522 21.710298 36.114263 0.671231 0.925850 0.084889 0.007510 -134517.000000 0 0 1
-23.399961 -16.801022 21.642298 36.030842 0.622700 0.926470 0.075160 -0.002951 -300385.000000 0 0 1
-23.081561 -15.938022 20.403298 34.685351 0.604328 0.941916 0.081169 -0.003131 84991.600000 0 0 1
-21.893861 -15.178422 20.450998 33.585249 0.606197 0.916088 0.074017 -0.000549 -387385.000000 0 0 1
-21.507061 -14.768322 19.146198 32.360994 0.601726 0.937699 0.063848 -0.006458 838211.000000 0 0 1
-20.268461 -13.790822 19.039098 31.040048 0.597456 0.910473 0.058583 -0.012613 824037.000000 0 0 1
-20.056761 -13.668922 17.656798 30.014590 0.598210 0.941874 0.061062 -0.014217 -238911.000000 0 0 1
-19.317861 -12.526822 17.287998 28.791942 0.575290 0.926738 0.066051 -0.021668 -204063.000000 0 0 1
-18.926961 -12.697022 15.782998 27.722685 0.590888 0.965121 0.063213 -0.022481 -65912.100000 0 0 1
-18.276561 -11.648922 15.067098 26.395976 0.567445 0.963304 0.064755 -0.027982 830163.000000 0 0 1
-16.850761 -11.616522 15.218598 25.504852 0.603561 0.931421 0.063815 -0.041509 767750.000000 0 0 1
-16.218861 -10.295922 14.661598 24.166504 0.565624 0.918905 0.067638 -0.051180 108460.000000 0 1 0
-16.707861 -9.176322 15.362098 24.481658 0.502246 0.892466 0.066327 -0.035861 141201.000000 0 1 0
-16.395061 -7.942122 14.691598 23.403384 0.451107 0.892130 0.055923 -0.031026 -430835.000000 0 1 0
-16.887361 -6.728722 15.545298 23.918925 0.379167 0.863322 0.077438 -0.020518 490474.000000 0 1 0
-16.090461 -6.436122 16.711198 24.074691 0.380503 0.803572 0.056097 -0.013447 -453267.000000 0 1 0
-14.813961 -5.995122 16.370898 22.877964 0.384546 0.773349 0.057241 -0.020523 -1155010.000000 0 1 0
-13.988161 -5.868922 17.688098 23.301968 0.397257 0.708895 0.045387 -0.015809 -66371.300000 0 1 0
-13.942961 -7.075122 18.446498 24.181332 0.469577 0.703102 0.054397 -0.017943 83544.900000 0 1 0
-13.327261 -8.202322 17.813698 23.711217 0.551706 0.720801 0.056741 -0.021005 -808281.000000 0 1 0
-13.460861 -9.441222 18.665798 24.874555 0.611654 0.722133 0.061794 -0.021115 608917.000000 0 1 0
-14.806361 -9.901222 18.676798 25.808629 0.589419 0.761698 0.073462 -0.021086 404318.000000 0 0 1
-15.645261 -9.232622 19.603098 26.726335 0.533125 0.747376 0.064587 -0.016327 -1392130.000000 0 0 1
-16.909361 -10.005522 20.073598 28.088900 0.534305 0.774680 0.062059 -0.012989 756935.000000 0 0 1
-18.024861 -10.107222 19.192798 28.203104 0.511050 0.822323 0.067991 -0.022746 584640.000000 0 0 1
-18.621061 -8.801522 18.959698 27.994301 0.441541 0.826751 0.066706 -0.023112 -1441450.000000 0 0 1
-19.735561 -8.785522 17.954898 28.090143 0.418823 0.877354 0.100662 -0.036213 122298.000000 0 0 1
-21.031761 -9.065922 18.493998 29.437287 0.406991 0.891494 0.089421 -0.034591 347088.000000 0 0 1
-21.966161 -9.144122 17.449698 29.506257 0.394463 0.938015 0.113302 -0.037841 120656.000000 0 0 1
-23.468261 -9.254122 17.808198 30.879281 0.375605 0.956108 0.109726 -0.024571 32166.900000 0 0 1
-23.926261 -8.183322 18.582098 31.380362 0.329550 0.937063 0.115365 -0.020535 -1183180.000000 0 0 1
-25.284881 -8.156722 18.661098 32.466813 0.312053 0.958468 0.090761 -0.011713 -1514170.000000 0 0 1
-25.990281 -7.123822 19.569298 33.304669 0.267525 0.942726 0.100227 -0.016804 -82673.200000 0 0 1
-25.732241 -7.358622 20.950098 33.988295 0.278535 0.906644 0.102972 -0.020065 337108.000000 0 0 1
-26.381871 -6.356022 21.704998 34.749232 0.236418 0.896154 0.101431 -0.019934 -837080.000000 0 0 1
-26.299441 -6.543622 23.267288 35.718991 0.243860 0.861370 0.091974 -0.014022 513677.000000 0 0 1
-25.087561 -6.200522 23.960308 35.241007 0.242299 0.823172 0.063605 -0.018560 530868.000000 0 0 1
-23.956461 -6.974422 23.559208 34.316044 0.283299 0.814082 0.067837 -0.011911 -1030690.000000 0 0 1
-22.937261 -6.809222 24.685188 34.377929 0.288576 0.769795 0.060106 -0.005805 -737250.000000 0 0 1
-22.384861 -5.528822 24.598888 33.715800 0.242143 0.753066 0.049275 -0.004763 173691.000000 0 0 1
-21.556261 -5.332222 25.752728 34.004529 0.242495 0.711578 0.061172 -0.008559 405724.000000 0 0 1
-21.004561 -3.894822 25.931998 33.598062 0.183345 0.689082 0.058499 -0.011261 20714.500000 0 0 1
-20.114561 -3.615222 26.992738 33.856658 0.177833 0.648045 0.052211 -0.013172 -193489.000000 0 0 1
-20.689561 -3.538922 28.286968 35.224061 0.169409 0.638387 0.053717 -0.020679 -234106.000000 0 0 1
-21.380561 -2.282122 28.716438 35.874368 0.106336 0.642714 0.060834 -0.027229 782458.000000 0 0 1
-22.686061 -2.170822 28.126198 36.200178 0.095399 0.680969 0.061835 -0.029224 394106.000000 0 0 1
-23.472261 -1.125922 28.689858 37.085344 0.047931 0.686266 0.060710 -0.031952 374940.000000 0 0 1
-24.753961 -0.874522 27.881318 37.294655 0.035314 0.726362 0.059855 -0.032875 -529678.000000 0 0 1
-24.418461 -0.390222 26.601158 36.111427 0.015979 0.742706 0.048295 -0.036781 106225.000000 0 0 1
-25.475141 0.139778 25.793068 36.253065 -0.005487 0.779205 0.067566 -0.021894 -274056.000000 0 0 1
-26.495751 -0.839522 25.235428 36.599952 0.031675 0.810007 0.060925 -0.017390 -115799.000000 0 0 1
-27.454751 -1.333122 26.195448 37.970279 0.048519 0.809454 0.057469 -0.015654 701376.000000 0 0 1
-28.047271 -2.567222 25.795048 38.191944 0.091278 0.829282 0.059824 -0.023572 492130.000000 0 0 1
-27.053211 -3.780522 25.991908 37.706072 0.138845 0.810233 0.056078 -0.022917 676150.000000 0 0 1
-26.654191 -4.078722 27.337468 38.398165 0.151846 0.778529 0.043560 -0.023785 -435492.000000 0 0 1
-25.823301 -5.190522 27.310308 37.942553 0.198358 0.767310 0.048416 -0.023959 -355205.000000 0 0 1
-25.483391 -5.683622 28.756008 38.840891 0.219441 0.737200 0.032496 -0.020516 239217.000000 0 0 1
-26.556521 -6.253722 29.498158 40.180831 0.231274 0.746404 0.051065 -0.024957 85895.700000 0 0 1
-26.076781 -6.712422 30.730808 40.858753 0.251940 0.719519 0.052118 -0.019299 358087.000000 0 0 1
-27.298861 -7.172722 31.586518 42.360169 0.256940 0.729263 0.035376 -0.014759 433383.000000 0 0 1
-28.003701 -8.251322 30.986818 42.573166 0.286542 0.755617 0.023177 -0.016060 -346206.000000 0 0 1
-29.130971 -8.585222 31.743478 43.931400 0.286598 0.763285 0.036971 -0.015374 -542130.000000 0 0 1
-30.196161 -9.290922 30.912518 44.200828 0.298493 0.796287 0.031309 -0.016144 -556955.000000 0 0 1
-29.757011 -10.502922 30.360718 43.790002 0.339306 0.804703 0.036047 -0.012638 86878.500000 0 0 1
-30.754901 -11.204722 29.640068 44.158163 0.349377 0.834936 0.029302 -0.011823 -75507.300000 0 0 1
-30.146881 -12.466422 28.970838 43.629756 0.392109 0.844620 0.044573 -0.011390 600217.000000 0 0 1
-29.263531 -12.179322 27.866438 42.204603 0.394389 0.849618 0.050108 -0.005569 239489.000000 0 0 1
-28.508921 -13.293922 27.410318 41.723045 0.436332 0.854019 0.055105 -0.008122 379344.000000 0 0 1
-27.091171 -12.923322 26.863598 40.281469 0.445104 0.840759 0.059400 -0.012741 385383.000000 0 0 1
-26.180231 -12.303122 27.752598 40.087130 0.439311 0.806115 0.052065 -0.017654 -28236.100000 0 0 1
-26.519351 -11.069622 28.353738 40.370125 0.395430 0.792110 0.056914 -0.025318 -1378760.000000 0 0 1
-26.716361 -9.765022 27.533798 39.588252 0.350422 0.801675 0.058800 -0.019513 804353.000000 0 0 1
-25.474441 -9.222722 27.031078 38.271203 0.347359 0.786534 0.048860 -0.019461 782081.000000 0 0 1
-24.813361 -10.007122 26.059008 37.348592 0.383344 0.798581 0.042274 -0.020502 -529866.000000 0 0 1
-25.374191 -9.928922 24.623118 36.725074 0.372984 0.835952 0.060111 -0.017488 -66607.600000 0 0 1
-26.663491 -10.525122 24.488578 37.701597 0.375963 0.863821 0.064930 -0.013438 153037.000000 0 0 1
-27.185911 -10.423722 23.202698 37.230269 0.366135 0.897941 0.074068 -0.011432 169991.000000 0 0 1
-28.633151 -11.004822 23.169508 38.442029 0.366933 0.923900 0.083745 -0.015998 703274.000000 0 0 1
-29.734591 -10.280122 23.677448 39.375733 0.332865 0.925643 0.091586 -0.015116 3038.510000 0 0 1
-29.797881 -10.277922 25.084688 40.283880 0.332143 0.898610 0.081718 -0.016539 -1130700.000000 0 0 1
-31.212131 -10.312522 25.637588 41.687302 0.319109 0.908413 0.050614 -0.011865 -492160.000000 0 0 1
-31.919121 -9.069822 25.297468 41.725938 0.276853 0.919426 0.059400 -0.021840 120669.000000 0 0 1
-33.283621 -8.933822 25.610248 42.935969 0.262234 0.931694 0.058359 -0.012146 158653.000000 0 0 1
-33.751311 -8.932522 27.080138 44.184554 0.258725 0.911087 0.038559 -0.012352 -360945.000000 0 0 1
-33.734971 -10.305422 27.590408 44.782593 0.296478 0.907019 0.034501 -0.021691 173295.000000 0 0 1
-34.265108 -10.338022 28.934978 46.023964 0.293022 0.890924 0.043600 -0.017679 -856108.000000 0 0 1
-34.728282 -11.706722 29.478538 47.032809 0.325132 0.893401 0.047890 -0.007959 678745.000000 0 0 1
-35.981678 -12.160122 28.932668 47.745670 0.325903 0.919806 0.027495 -0.008031 700754.000000 0 0 1
36.579908 -11.560822 29.527358 48.410817 -0.306109 0.914820 0.038714 -0.005835 -340612.000000 0 0 1
35.265438 -12.070822 28.883928 47.155458 -0.329785 0.911544 0.039767 -0.005534 186841.000000 0 0 1
35.051108 -11.661822 27.548898 46.081667 -0.321189 0.930008 0.045122 -0.004489 -608116.000000 0 0 1
33.875208 -12.181322 27.009578 45.004796 -0.345196 0.927109 0.059008 -0.000166 -363968.000000 0 0 1
33.558508 -11.754022 25.507528 43.760307 -0.336902 0.948513 0.060926 -0.014614 69937.400000 0 0 1
33.223048 -10.400822 25.323648 43.049218 -0.303395 0.941905 0.070695 -0.028068 -78588.400000 0 0 1
33.222458 -10.122822 23.919098 42.170209 -0.295761 0.967690 0.058732 -0.019483 -453854.000000 0 0 1
32.776818 -8.713522 23.655788 41.350231 -0.259834 0.961752 0.075213 -0.011118 929028.000000 0 0 1
31.344968 -8.547022 23.718388 40.225869 -0.266204 0.940195 0.089342 -0.017858 724056.000000 0 0 1
30.966658 -7.217622 23.287428 39.412337 -0.228989 0.938664 0.091597 -0.009496 78883.100000 0 0 1
29.438918 -7.042522 23.173888 38.121859 -0.234812 0.917396 0.104593 -0.006223 -61950.500000 0 0 1
29.039718 -7.691022 22.028298 37.251885 -0.258901 0.938085 0.094196 -0.002772 -1570280.000000 0 0 1
27.682958 -7.547522 21.915198 36.105224 -0.266172 0.918540 0.086432 -0.019697 -1775910.000000 0 0 1
14.339239 -17.385522 26.627088 34.883692 -0.881127 0.702374 0.058695 -0.000108 218527.000000 0 0 1
13.789639 -18.511222 26.013598 34.778251 -0.930545 0.725776 0.044595 0.011947 249571.000000 0 0 1
14.762039 -19.514422 26.191748 35.843244 -0.923168 0.751405 0.056185 0.012789 -588603.000000 0 0 1
14.261139 -20.968122 25.998648 36.317653 -0.973528 0.772930 0.038115 0.001276 230029.000000 0 0 1
13.505239 -21.543222 27.080408 37.146338 -1.010839 0.753908 0.036255 0.000591 1024500.000000 0 0 1
12.228939 -20.926422 27.343338 36.539297 -1.041943 0.725260 0.039137 0.000476 -94106.100000 0 0 1
11.546839 -21.360422 28.611918 37.526510 -1.075221 0.703712 0.030003 -0.003967 -181259.000000 0 0 1
12.153939 -20.854822 29.824488 38.368502 -1.043129 0.680407 0.028397 -0.005852 557302.000000 0 0 1
11.344339 -19.889422 30.560778 38.186965 -1.052448 0.643012 0.025955 -0.012484 344732.000000 0 0 1
11.226139 -18.436722 29.931148 36.902744 -1.023858 0.624797 0.035032 -0.008365 -179637.000000 0 0 1
12.371139 -17.651222 30.090798 37.014414 -0.959489 0.621599 0.027568 0.004035 -575211.000000 0 0 1
12.162339 -16.271722 29.667918 35.956596 -0.928928 0.600411 0.044406 0.002326 -489480.000000 0 0 1
13.305139 -15.339722 29.985558 36.214189 -0.856307 0.595255 0.034229 0.000847 -55896.000000 0 0 1
12.874239 -14.077422 29.478128 35.112389 -0.830011 0.574367 0.072408 -0.006374 381104.000000 0 0 1
13.601039 -13.057422 30.173418 35.579765 -0.765009 0.558502 0.060974 -0.000586 306363.000000 0 0 1
13.234539 -11.548422 29.700068 34.505262 -0.717468 0.534074 0.062090 -0.010798 37050.100000 0 0 1
13.427339 -11.126222 28.363998 33.295685 -0.691953 0.551228 0.092084 -0.018501 235764.000000 0 0 1
14.758239 -10.965122 27.890608 33.405472 -0.638995 0.582825 0.078553 -0.019596 65053.800000 0 0 1
14.791639 -9.879322 26.776188 32.145884 -0.588855 0.586363 0.077586 -0.024017 73859.700000 0 0 1
14.954139 -8.536922 27.152548 32.152234 -0.518728 0.565166 0.068533 -0.024249 1837590.000000 0 0 1
16.316339 -8.109422 27.535908 33.018357 -0.461255 0.584555 0.064148 -0.029115 1384030.000000 0 0 1
16.518039 -6.604822 27.834258 33.033547 -0.380381 0.568693 0.051123 -0.029459 780484.000000 0 0 1
17.900339 -6.288822 28.122798 33.924375 -0.337854 0.593506 0.049384 -0.030054 970530.000000 0 0 1
18.305639 -5.123022 27.489358 33.421648 -0.272879 0.605001 0.054375 -0.025187 -213602.000000 0 0 1
19.834439 -5.143522 27.306538 34.139534 -0.253734 0.643750 0.055111 -0.022277 -654002.000000 0 0 1
20.287339 -5.967722 26.235448 33.697011 -0.286090 0.678414 0.051407 -0.016859 1557550.000000 0 0 1
21.660339 -5.714122 25.818888 34.182400 -0.257930 0.714643 0.064495 -0.014739 1748570.000000 0 0 1
22.839039 -6.214822 26.699808 35.680884 -0.265681 0.725309 0.080243 -0.022202 -183828.000000 0 0 1
22.997139 -5.220622 27.696058 36.375746 -0.223228 0.705345 0.070242 -0.019951 -18758.500000 0 0 1
23.950939 -5.611222 28.681138 37.785460 -0.230129 0.708940 0.088610 -0.032376 -185480.000000 0 0 1
24.616139 -4.437622 29.308678 38.531096 -0.178357 0.706483 0.087350 -0.029941 -50425.500000 0 0 1
25.504639 -3.789622 28.367648 38.334988 -0.147506 0.737735 0.088770 -0.023078 464385.000000 0 0 1
25.837339 -2.448522 28.793078 38.763445 -0.094485 0.733569 0.076430 -0.028651 -734508.000000 0 0 1
26.743639 -1.574722 27.963268 38.725267 -0.058814 0.763972 0.073912 -0.024506 222519.000000 0 0 1
28.116639 -1.833022 28.280438 39.921029 -0.065101 0.783554 0.080399 -0.020685 316711.000000 0 0 1
28.971839 -1.157022 27.368598 39.871623 -0.039915 0.814245 0.079351 -0.007495 1249800.000000 0 0 1
30.500839 -1.212522 27.761258 41.260863 -0.039733 0.832778 0.071442 -0.020197 1009360.000000 0 0 1
30.827739 -0.292022 28.760158 42.161374 -0.009472 0.820105 0.059635 -0.012112 -261891.000000 0 0 1
32.213439 -0.316922 29.004168 43.347985 -0.009838 0.837798 0.083756 -0.019804 -14699.700000 0 0 1
32.612039 0.871178 29.896218 44.250287 0.026707 0.828996 0.088359 -0.025692 -47500.800000 0 0 1
32.813239 2.065378 29.164498 43.949316 0.062861 0.845184 0.088203 -0.008448 95787.200000 0 0 1
33.170339 3.136178 30.041078 44.861714 0.094267 0.837076 0.076069 -0.009189 -130060.000000 0 0 1
33.379139 4.379578 29.156798 44.536126 0.130462 0.857040 0.080551 -0.011117 -46853.800000 0 0 1
33.354839 5.723078 29.759348 45.065704 0.169927 0.849505 0.079717 -0.010817 524978.000000 0 0 1
32.069539 6.039478 30.288798 44.523498 0.186144 0.822641 0.064744 -0.000124 264692.000000 0 0 1
32.179539 6.828778 31.628948 45.634913 0.209107 0.805034 0.051989 -0.003264 -44862.400000 0 0 1
32.709939 6.107178 32.709830 46.660162 0.184582 0.793966 0.048560 -0.000499 78112.800000 0 0 1
32.664439 6.931778 33.857511 47.553614 0.209110 0.778474 0.063279 -0.008470 -322960.000000 0 0 1
33.323639 6.393078 -32.946107 47.294633 0.189545 2.341464 0.063388 0.006133 -137293.000000 0 0 1
32.653339 5.374678 -32.167827 46.150805 0.163135 2.342023 0.026841 0.005598 326553.000000 0 0 1
32.844039 4.089678 -32.692907 46.521850 0.123881 2.350042 0.039226 0.001329 -25542.900000 0 0 1
32.481839 3.078978 -31.567417 45.398808 0.094508 2.339683 0.033597 -0.003171 -24685.200000 0 0 1
32.528139 1.795478 -32.155317 45.774097 0.055142 2.349670 0.022799 -0.009753 234595.000000 0 0 1
32.330939 0.792178 -31.193197 44.932534 0.024497 2.338136 0.009593 -0.014303 -115761.000000 0 0 1
33.032239 -0.541922 -31.579947 45.702467 -0.016404 2.333654 0.024975 -0.029029 -665261.000000 0 0 1
34.408439 -0.439622 -31.822367 46.870000 -0.012776 2.317127 0.038000 -0.013843 -557458.000000 0 0 1
35.042139 -1.675822 -31.661117 47.256599 -0.047787 2.304982 0.044876 -0.012914 70235.000000 0 0 1
35.836939 -1.744622 -30.358457 46.999636 -0.048644 2.273037 0.056601 -0.008892 -617143.000000 0 0 1
34.957639 -1.754122 -29.264867 45.623962 -0.050136 2.267165 0.040963 -0.008522 -64121.800000 0 0 1
35.595639 -1.845422 -28.000147 45.326188 -0.051798 2.236672 0.062470 -0.012952 -21191.700000 0 0 1
34.647939 -1.670322 -26.765477 43.813929 -0.048171 2.227980 0.051758 -0.012760 66752.200000 0 0 1
34.207239 -0.335722 -26.736447 43.417571 -0.009814 2.234195 0.031353 -0.011364 -94946.800000 0 0 1
33.343039 -0.034222 -25.702857 42.099837 -0.001026 2.227515 0.024242 -0.002240 -596367.000000 0 0 1
32.967439 1.461678 -25.602187 41.766739 0.044308 2.230623 0.006230 0.001530 -133366.000000 0 0 1
32.165239 1.931778 -26.668017 41.827233 0.059986 2.262143 0.014307 -0.009248 600391.000000 0 0 1
31.546839 3.214478 -26.590057 41.383173 0.101545 2.268596 0.003760 0.002298 238975.000000 0 0 1
30.718539 3.559278 -27.835197 41.606433 0.115353 2.303675 0.009327 0.003089 220111.000000 0 0 1
29.750539 4.585278 -27.597207 40.837791 0.152921 2.312814 0.008207 -0.000195 403586.000000 0 0 1
29.027239 4.854578 -28.780197 41.163664 0.165709 2.345025 0.015787 -0.003350 -511382.000000 0 0 1
27.779539 5.710978 -28.513787 40.216341 0.202757 2.358890 0.021916 -0.008571 -275518.000000 0 0 1
26.669239 4.912778 -28.098007 39.049733 0.182169 2.373942 0.034979 -0.012952 28975.600000 0 0 1
25.809239 5.785278 -27.420257 38.097988 0.220510 2.374209 0.046956 -0.018010 -780731.000000 0 0 1
24.417939 5.183878 -27.223827 36.935688 0.209192 2.399506 0.058773 -0.017983 -468411.000000 0 0 1
23.636539 5.086378 -28.388867 37.289207 0.211959 2.436137 0.063354 -0.015660 1546160.000000 0 0 1
22.341639 4.441078 -28.152957 36.214099 0.196223 2.461323 0.065372 -0.019870 1723230.000000 0 0 1
21.447539 4.299678 -29.417227 36.658660 0.197851 2.502208 0.063038 -0.016030 90010.800000 0 0 1
21.936539 3.275878 -30.213127 37.480343 0.148239 2.508338 0.055583 -0.020170 269364.000000 0 0 1
21.069539 2.984678 -31.310337 37.857244 0.140722 2.544659 0.049028 -0.026439 211863.000000 0 0 1
21.440039 3.622378 -32.677317 39.250527 0.167373 2.554459 0.051865 -0.020750 1141490.000000 0 0 1
22.657239 3.046778 -33.257277 40.356905 0.133671 2.539371 0.044811 -0.014080 1215270.000000 0 0 1
22.923239 3.519378 33.472687 40.722005 0.152339 0.605917 0.044653 -0.028599 -588964.000000 0 0 1
24.310939 3.050978 33.070254 41.157890 0.124845 0.637649 0.060334 -0.015561 -416207.000000 0 0 1
24.300439 1.673178 32.853107 40.897891 0.068745 0.637988 0.061447 -0.021628 375606.000000 0 0 1
25.659039 1.258678 32.834023 41.689850 0.049015 0.663927 0.074763 -0.028613 -370735.000000 0 0 1
25.815639 -0.261622 32.798595 41.740430 -0.010134 0.666848 0.055581 -0.021986 -415453.000000 0 0 1
25.294339 -0.955522 31.655328 40.531178 -0.037758 0.674512 0.058048 -0.025477 2024710.000000 0 0 1
23.835739 -0.983822 31.545578 39.550396 -0.041252 0.647483 0.066432 -0.030513 1855000.000000 0 0 1
22.966639 -1.900822 32.508475 39.848219 -0.082576 0.616672 0.065382 -0.035148 29969.100000 0 0 1
22.969239 -3.239522 32.109515 39.611885 -0.140113 0.625615 0.079831 -0.045696 52455.500000 0 0 1
22.405039 -4.117722 33.009148 40.106673 -0.181757 0.604065 0.074214 -0.036878 -348675.000000 0 0 1
22.400139 -5.536422 32.446743 39.814687 -0.242304 0.618164 0.075838 -0.033941 -1082870.000000 0 0 1
23.604839 -6.178022 32.365693 40.532635 -0.255985 0.645981 0.090291 -0.037844 -1140780.000000 0 0 1
23.429339 -7.536822 31.961558 40.339544 -0.311229 0.656205 0.093144 -0.048528 -446845.000000 0 0 1
24.738639 -8.353522 31.809688 41.153831 -0.325649 0.687325 0.099551 -0.044722 105947.000000 0 0 1
25.461639 -7.840622 30.708488 40.654417 -0.298724 0.714602 0.107693 -0.040142 -1515770.000000 0 0 1
26.608439 -8.534522 30.518008 41.378689 -0.310379 0.741391 0.116729 -0.036486 -1164250.000000 0 0 1
27.199539 -8.419422 29.094168 40.708380 -0.300189 0.774605 0.125900 -0.033715 214201.000000 0 0 1
26.393139 -8.983922 28.089478 39.576854 -0.328087 0.781660 0.108731 -0.028452 -32899.800000 0 0 1
26.937039 -8.561222 26.866228 38.996061 -0.307727 0.810761 0.123980 -0.024645 101146.000000 0 0 1
26.213639 -9.276922 25.711208 37.871920 -0.340142 0.824534 0.098170 -0.028163 992132.000000 0 0 1
24.856039 -8.847422 25.494868 36.689070 -0.341963 0.802529 0.088331 -0.031011 557129.000000 0 0 1
24.209439 -9.758522 24.649068 35.901285 -0.383165 0.814023 0.079638 -0.027356 -161442.000000 0 0 1
22.785039 -9.384122 24.205808 34.541871 -0.390684 0.794324 0.057754 -0.017271 -56386.300000 0 0 1
21.867339 -9.512622 25.297668 34.765536 -0.410323 0.755884 0.046835 -0.017354 861586.000000 0 0 1
20.572739 -9.235422 24.697338 33.443820 -0.421952 0.739994 0.053490 -0.014489 1717800.000000 0 0 1
19.344339 -9.042722 25.679268 33.397591 -0.437279 0.693684 0.044769 -0.021080 851179.000000 0 0 1
18.643539 -10.165322 26.209078 33.731752 -0.499186 0.680934 0.051091 -0.020748 547691.000000 0 0 1
19.403639 -10.836522 27.198978 35.124291 -0.509330 0.685087 0.046509 -0.021411 -106787.000000 0 0 1
18.538939 -11.918022 27.876478 35.536313 -0.571343 0.668987 0.048758 -0.021317 36224.200000 0 0 1
18.099739 -12.950522 27.017298 35.003585 -0.621059 0.689060 0.064029 -0.020717 78355.400000 0 0 1
17.250939 -13.866322 27.683198 35.443324 -0.677054 0.674442 0.050466 -0.015312 -191927.000000 0 0 1
17.898839 -15.062622 28.444988 36.828907 -0.699563 0.688256 0.058960 0.003281 -986380.000000 0 0 1
16.970439 -16.025322 28.794978 37.066933 -0.756762 0.681169 0.044326 0.004821 -209613.000000 0 0 1
17.553039 -17.140022 29.443538 38.325076 -0.773494 0.694681 0.069419 0.002065 -226122.000000 0 0 1
18.130339 -18.239322 28.524538 38.406137 -0.788395 0.733691 0.073316 0.003692 15642.300000 0 0 1
19.242539 -17.827022 27.759588 38.192574 -0.747231 0.757098 0.073548 0.006280 126183.000000 0 0 1
19.512639 -18.737622 26.707678 38.015018 -0.765139 0.791813 0.060642 0.015226 -26951.400000 0 0 1
20.518239 -18.201922 25.656998 37.557817 -0.725647 0.818752 0.067114 0.004176 282774.000000 0 0 1
21.808139 -18.045622 26.242078 38.599042 -0.691269 0.823220 0.089657 0.003470 171758.000000 0 0 1
22.646939 -17.373422 25.326658 38.159655 -0.654382 0.845038 0.068025 0.000983 -217339.000000 0 0 1
24.072739 -17.074722 25.809268 39.206647 -0.616938 0.852254 0.066380 -0.002485 -54324.200000 0 0 1
24.860839 -18.277522 25.837988 40.245879 -0.633957 0.873688 0.062818 -0.007156 358816.000000 0 0 1
26.131239 -17.997822 26.406828 41.280550 -0.603134 0.876699 0.058560 -0.007079 267586.000000 0 0 1
27.041639 -19.238822 26.600948 42.532258 -0.618370 0.895114 0.043175 -0.008374 49558.700000 0 0 1
26.594939 -20.167722 27.589168 43.303464 -0.648811 0.880050 0.051485 -0.005143 22898.200000 0 0 1
27.636939 -21.083322 27.881688 44.561142 -0.651686 0.894774 0.039729 -0.002710 -133645.000000 0 0 1
27.161739 -22.280822 28.617648 45.311862 -0.686998 0.887219 0.043585 0.003857 -204898.000000 0 0 1
26.930639 -22.061622 30.007018 45.960805 -0.686340 0.859412 0.048854 -0.004028 64095.100000 0 0 1
26.345539 -23.223322 30.608678 46.586492 -0.722494 0.853925 0.067594 -0.001687 -73308.200000 0 0 1
26.161839 -23.159222 32.149444 47.480292 -0.724594 0.826966 0.054528 -0.010154 -41682.200000 0 0 1
25.743539 -24.383922 32.671581 48.215533 -0.758282 0.826281 0.055490 -0.013213 -14725.600000 0 0 1
25.546239 -24.242522 -33.992097 48.946632 -0.759219 2.338483 0.078373 -0.007852 -466510.000000 0 0 1
25.236939 -25.549972 -33.220017 48.921096 -0.791562 2.317268 0.073060 -0.013950 255347.000000 0 0 1
23.983139 -26.179162 -33.393787 48.740993 -0.829149 2.325575 0.097525 -0.024205 -61422.000000 0 0 1
23.639239 -26.595462 33.303802 48.736798 -0.844179 0.818469 0.081161 -0.024909 -1044090.000000 0 0 1
22.392239 -27.428612 33.257378 48.577714 -0.886146 0.816711 0.110204 -0.027957 -759792.000000 0 0 1
22.460439 -28.806022 33.490583 49.556810 -0.908548 0.828744 0.104871 -0.029752 714783.000000 0 0 1
21.145739 -29.398252 33.555535 49.369762 -0.947244 0.823473 0.125219 -0.035607 565266.000000 0 0 1
21.078939 -30.895462 33.880673 50.465347 -0.972071 0.834747 0.086849 -0.034338 120904.000000 0 0 1
21.664339 -31.164572 -32.869567 50.209387 -0.963327 2.284516 0.066676 -0.034111 -13571.400000 0 0 1
23.001039 -31.561992 -32.941637 51.091668 -0.941030 2.271500 0.033129 -0.013629 -662060.000000 0 0 1
23.577139 -32.355532 -31.694847 51.061974 -0.941074 2.240448 0.021495 -0.009895 -778975.000000 0 0 1
24.773239 -33.049102 -31.908337 52.192896 -0.927558 2.228567 0.017758 0.000869 189485.000000 0 0 1
25.331839 -33.659742 -30.679627 52.114487 -0.925642 2.200242 0.011696 0.003251 150986.000000 0 0 1
26.089139 -32.678092 -29.806407 51.350976 -0.897051 2.190071 0.009382 -0.004685 -732416.000000 0 0 1
26.729939 -33.362992 -28.722767 51.503167 -0.895333 2.162396 0.026017 -0.003404 155576.000000 0 0 1
27.146339 -32.476992 -27.688837 50.580138 -0.874567 2.150081 0.024709 -0.005537 -543542.000000 0 0 1
27.496939 -33.119592 -26.344697 50.468129 -0.877891 2.119998 0.027829 -0.010526 972658.000000 0 0 1
28.694939 -33.911372 -26.289067 51.618753 -0.868527 2.105159 0.021726 0.005438 257997.000000 0 0 1
29.920539 -33.262982 -26.190147 51.841956 -0.838249 2.100401 0.027667 -0.006898 -519124.000000 0 0 1
-27.121451 -30.801256 9.463363 42.117048 0.848842 1.344169 0.061668 -0.019196 -340677.000000 0 0 1
-27.170431 -31.874556 10.371963 43.148549 0.864900 1.328041 0.060311 -0.022795 -558027.000000 0 0 1
-25.978221 -32.188156 11.028063 42.808452 0.891757 1.310244 0.060562 -0.023376 -461489.000000 0 0 1
-26.119671 -33.283556 12.108163 44.007272 0.905416 1.292061 0.059626 -0.024803 -22180.600000 0 0 1
-26.230651 33.594078 11.504863 44.147152 -0.907866 1.307150 0.056329 -0.014408 422663.000000 0 0 1
-27.485771 33.014778 11.851663 44.563495 -0.876533 1.301607 0.041139 -0.023315 237909.000000 0 0 1
-27.423681 31.502878 11.407663 43.296933 -0.854513 1.304174 0.040985 -0.022146 36907.000000 0 0 1
-27.043071 31.279878 10.055863 42.554422 -0.857915 1.332234 0.059963 -0.028778 47705.600000 0 0 1
-27.151301 29.954278 9.739363 41.584939 -0.834443 1.334397 0.071057 -0.024959 62753.800000 0 0 1
-26.564831 29.679078 8.292263 40.685373 -0.840712 1.365544 0.055026 -0.017395 503726.000000 0 0 1
-25.145561 29.601978 8.242563 39.705367 -0.866618 1.361682 0.046243 -0.016440 145712.000000 0 0 1
-24.772861 29.472078 6.876963 39.109982 -0.871812 1.394041 0.036108 -0.005233 -51892.100000 0 0 1
-23.298561 29.067678 6.650263 37.841497 -0.895124 1.394139 0.037092 -0.005726 22201.100000 0 0 1
-23.047161 27.725678 7.008263 36.728744 -0.877285 1.378808 0.043405 -0.004148 195829.000000 0 0 1
-23.552061 26.772978 6.050963 36.167749 -0.849313 1.402703 0.019574 -0.010944 -672019.000000 0 0 1
-23.630961 25.269078 6.454163 35.193819 -0.818885 1.386363 0.030260 -0.006605 -434982.000000 0 0 1
-24.779461 25.057478 7.262563 35.981158 -0.790977 1.367557 0.051148 -0.010754 177256.000000 0 0 1
-25.045761 23.770678 7.705463 35.379506 -0.759284 1.351242 0.060011 -0.008271 -228018.000000 0 0 1
-25.510111 22.764578 6.602363 34.822162 -0.728586 1.380039 0.069617 -0.016959 -496955.000000 0 0 1
-26.848911 22.815578 6.175563 35.770829 -0.704364 1.397285 0.072785 -0.021772 -90526.300000 0 0 1
-27.242591 22.225878 4.917563 35.501139 -0.684331 1.431831 0.068876 -0.020420 -7336.020000 0 0 1
-26.940041 23.030178 3.607163 35.625364 -0.707313 1.469370 0.051961 -0.023587 -184452.000000 0 0 1
-25.602791 23.473878 3.493563 34.910326 -0.742046 1.470556 0.037806 -0.020128 173672.000000 0 0 1
-25.401621 24.176978 2.312563 35.144225 -0.760702 1.504947 0.021802 -0.008633 379363.000000 0 0 1
-24.045161 24.941078 2.347863 34.723762 -0.803685 1.503129 0.013263 -0.000377 429111.000000 0 0 1
-23.781361 25.683178 1.176363 35.022316 -0.823827 1.537201 0.005283 -0.006396 -618306.000000 0 0 1
-22.458061 26.149078 1.161163 34.488942 -0.861188 1.537122 0.014749 -0.003158 -827917.000000 0 0 1
-22.035361 26.785478 -0.169437 34.684978 -0.882390 1.575681 0.027257 -0.000494 -141131.000000 0 0 1
-21.627761 26.032478 -1.302937 33.869568 -0.877555 1.609275 0.017487 0.000763 404173.000000 0 0 1
-20.546461 25.138578 -1.017037 32.482912 -0.885579 1.602111 0.033988 -0.003401 -119398.000000 0 0 1
-20.209661 24.195278 -2.147837 31.598340 -0.874914 1.638822 0.043947 -0.014476 409842.000000 0 0 1
-21.317261 23.385678 -2.580037 31.748577 -0.831635 1.652151 0.026018 -0.018191 394506.000000 0 0 1
-20.919461 22.363478 -3.463237 30.817901 -0.818748 1.683412 0.034565 -0.018569 9214.300000 0 0 1
-22.160661 21.726678 -4.136437 31.309001 -0.775510 1.703300 0.046787 -0.015291 36209.300000 0 0 1
-22.786961 22.687278 -4.925037 32.530204 -0.783206 1.722780 0.030714 -0.007723 136716.000000 0 0 1
-23.930861 22.127478 -5.578137 33.067008 -0.746264 1.740299 0.028288 -0.003638 266182.000000 0 0 1
-24.153861 22.733878 -7.018037 33.904145 -0.755123 1.779300 0.028597 0.000479 332968.000000 0 0 1
-23.294261 22.165878 -8.021337 33.140468 -0.760582 1.815265 0.027797 -0.004585 392121.000000 0 0 1
-23.206261 23.037778 -9.118037 33.947141 -0.781755 1.842731 0.033932 -0.006890 70081.000000 0 0 1
-22.389161 22.407278 -10.295637 33.307068 -0.785803 1.885056 0.039351 -0.008537 240035.000000 0 0 1
-23.224561 21.641678 -11.136037 33.641549 -0.750133 1.908181 0.025510 -0.003514 363696.000000 0 0 1
-22.404961 21.155478 -12.169637 33.130599 -0.756722 1.946926 0.036612 -0.004091 88313.100000 0 0 1
-23.089761 20.851978 -13.519337 33.922183 -0.734516 1.980720 0.032512 -0.008211 21635.500000 0 0 1
-24.101861 19.881678 -13.430337 34.008158 -0.689742 1.976772 0.028852 0.003734 746451.000000 0 0 1
-25.195271 20.020678 -14.354637 35.237549 -0.671452 1.990366 0.033627 -0.005331 764413.000000 0 0 1
-26.083251 18.769978 -14.416237 35.220391 -0.623771 1.992500 0.072599 -0.010963 53378.400000 0 0 1
-25.555721 17.806778 -15.309737 34.706833 -0.608563 2.027638 0.063512 -0.010953 27790.600000 0 0 1
-26.449601 16.737878 -15.456037 34.908839 -0.564204 2.029464 0.080583 -0.020172 -394783.000000 0 0 1
-26.249921 15.879278 -16.732337 34.945399 -0.544034 2.070099 0.088216 -0.022376 206708.000000 0 0 1
-24.993261 15.198278 -16.667937 33.667059 -0.546350 2.088725 0.086551 -0.021554 617316.000000 0 0 1
-24.654861 14.683878 -17.949437 33.847610 -0.537161 2.129752 0.081256 -0.016795 61992.800000 0 0 1
-23.727661 13.441878 -17.959937 32.653412 -0.515428 2.153181 0.086891 -0.017978 74668.300000 0 0 1
-22.437761 13.675978 -17.447437 31.542012 -0.547381 2.156936 0.097267 -0.031714 -258152.000000 0 0 1
-21.732161 12.487478 -17.349537 30.483280 -0.521540 2.176267 0.113357 -0.006660 -779544.000000 0 0 1
-20.709661 12.501678 -16.218737 29.124379 -0.543109 2.161419 0.114706 -0.021084 -99724.000000 0 0 1
-19.683361 13.453778 -16.443737 28.962654 -0.599573 2.174574 0.090041 -0.011477 629295.000000 0 0 1
-18.638261 13.399878 -15.459437 27.675543 -0.623328 2.163488 0.077876 -0.005612 297702.000000 0 0 1
-17.596161 14.505478 -15.630637 27.646891 -0.689416 2.171674 0.058273 -0.004352 -464947.000000 0 0 1
-16.969661 14.435878 -16.868337 27.944673 -0.704893 2.218847 0.081148 -0.015069 317651.000000 0 0 1
-15.977561 15.474578 -16.968937 27.976594 -0.769408 2.222498 0.076674 -0.010414 339983.000000 0 0 1
-15.312961 15.493878 -18.350037 28.482817 -0.791271 2.270838 0.097883 -0.021489 23498.900000 0 0 1
-14.256061 14.578078 -18.535237 27.555592 -0.796566 2.308579 0.096908 -0.016549 -214322.000000 0 0 1
-13.762861 14.517478 -19.839937 28.174396 -0.812075 2.352068 0.127285 -0.026228 -135162.000000 0 0 1
-12.580061 13.537378 -19.956737 27.199079 -0.822036 2.394590 0.111276 -0.019916 -18806.700000 0 0 1
-12.906761 12.160678 -20.144637 26.837902 -0.755644 2.419772 0.134426 -0.025436 182643.000000 0 0 1
-11.728461 11.370878 -19.934137 25.772533 -0.769919 2.455085 0.112182 -0.017173 476318.000000 0 0 1
-11.793761 10.026778 -20.716537 25.861245 -0.704596 2.499869 0.122219 -0.029624 7397.050000 0 0 1
-11.481761 10.069578 -22.141037 26.897077 -0.719965 2.537779 0.122241 -0.034263 -22457.600000 0 0 1
-11.894061 8.907978 -22.834237 27.243772 -0.642825 2.564670 0.113145 -0.022412 -34897.400000 0 0 1
-11.618261 9.064078 -24.311037 28.428296 -0.662524 2.596676 0.095308 -0.026338 1010300.000000 0 0 1
-10.196661 8.946178 -24.587037 28.080747 -0.720167 2.637439 0.094534 -0.022539 1186530.000000 0 0 1
-9.961661 8.428378 -25.885397 28.988377 -0.702215 2.674670 0.069539 -0.029450 -281317.000000 0 0 1
-10.050261 9.485678 -27.098917 30.419354 -0.756506 2.669997 0.103377 -0.036560 334496.000000 0 0 1
-8.843761 10.185978 -27.439827 30.576304 -0.855814 2.684686 0.082939 -0.049419 666990.000000 0 0 1
-8.492861 11.204578 -26.500667 29.999277 -0.922207 2.653816 0.064754 -0.030719 350756.000000 0 0 1
-6.957961 11.486278 -26.535787 29.740474 -1.026150 2.673089 0.059299 -0.032949 444843.000000 0 0 1
-6.589761 12.298778 -27.612637 30.937721 -1.078916 2.673706 0.053195 -0.053484 179207.000000 0 0 1
-5.193861 12.512178 -27.610317 30.754843 -1.177337 2.685443 0.080048 -0.049788 -173795.000000 0 0 1
-4.476361 12.913778 -28.884687 31.955103 -1.237123 2.699632 0.087489 -0.046113 -323176.000000 0 0 1
-3.085161 12.741978 -28.820317 31.662073 -1.333242 2.714677 0.113264 -0.053529 -110678.000000 0 0 1
-2.419661 13.004278 -30.057987 32.839741 -1.386833 2.727031 0.112313 -0.050989 -320874.000000 0 0 1
-0.937861 12.684478 -29.908527 32.500700 -1.496993 2.739496 0.124825 -0.058447 -788217.000000 0 0 1
-0.683761 11.305078 -29.755567 31.838123 -1.510387 2.777899 0.102137 -0.041523 171265.000000 0 0 1
0.673439 10.902778 -29.839757 31.776330 1.509107 2.790670 0.109200 -0.049032 376793.000000 0 0 1
1.225439 10.574578 -31.251027 33.014392 1.455426 2.813281 0.113821 -0.047601 -191244.000000 0 0 1
1.403239 11.689478 -32.087747 34.179474 1.451325 2.789931 0.116565 -0.054523 159746.000000 0 0 1
1.603439 11.231878 -33.362977 35.239386 1.428997 2.813791 0.118111 -0.039679 -32301.600000 0 0 1
1.872139 12.263078 33.566824 35.785747 1.419301 0.353998 0.116312 -0.042710 148941.000000 0 0 1
3.158639 12.911778 33.506872 36.047212 1.330876 0.377667 0.121289 -0.043857 599351.000000 0 0 1
3.419039 13.266478 32.156039 34.952827 1.318565 0.402757 0.122917 -0.043363 -398512.000000 0 0 1
4.913039 13.414678 31.894378 34.947717 1.219725 0.421121 0.122427 -0.047996 -715419.000000 0 0 1
5.578239 12.212478 31.710158 34.435381 1.142330 0.400516 0.117266 -0.044637 -572435.000000 0 0 1
6.957239 12.367278 31.545958 34.590464 1.058367 0.422701 0.108393 -0.032383 -528160.000000 0 0 1
7.700039 11.131778 31.155818 33.968987 0.965651 0.409841 0.085458 -0.027324 -309383.000000 0 0 1
7.292739 10.748478 29.902538 32.601773 0.974653 0.409787 0.085976 -0.027071 40988.100000 0 0 1
8.001439 9.588078 29.535138 32.066784 0.875358 0.400026 0.090728 -0.017712 269827.000000 0 0 1
7.398239 8.970178 28.191518 30.495241 0.881139 0.391189 0.073857 -0.016577 -302381.000000 0 0 1
6.342739 8.158678 28.547438 30.360346 0.909975 0.347324 0.067432 -0.019827 -689598.000000 0 0 1
5.989839 7.316978 27.438948 29.022616 0.884803 0.331874 0.081278 -0.022389 -220950.000000 0 0 1
5.200039 6.113478 27.967258 29.096092 0.865962 0.279465 0.090224 -0.029809 -180691.000000 0 0 1
5.931439 5.300878 28.825118 29.902654 0.729319 0.269271 0.080202 -0.023833 -79243.600000 0 0 1
5.009239 4.496478 29.531248 30.288701 0.731508 0.224110 0.086145 -0.024117 -341393.000000 0 0 1
5.544039 3.291778 30.342308 31.019797 0.535812 0.209382 0.085939 -0.021618 -78552.900000 0 0 1
5.781339 2.061178 29.657558 30.286021 0.342474 0.204074 0.079695 -0.012456 265172.000000 0 0 1
7.076439 1.936178 29.080238 29.991416 0.267073 0.247129 0.086144 -0.009247 174495.000000 0 0 1
7.214039 0.608678 28.291248 29.202869 0.084175 0.250522 0.081753 -0.016699 -85831.800000 0 0 1
7.496739 -0.552222 29.033938 29.991259 -0.073529 0.253343 0.062542 -0.010928 -40081.500000 0 0 1
7.629839 -1.706822 28.171258 29.236065 -0.220080 0.270718 0.068207 -0.004589 -143356.000000 0 0 1
8.529839 -2.807022 28.730158 30.100822 -0.317920 0.302938 0.065752 0.000071 253857.000000 0 0 1
9.919539 -2.539222 28.734648 30.504506 -0.250601 0.342314 0.056680 -0.006675 5504.600000 0 0 1
10.711839 -3.670522 28.429168 30.601206 -0.330121 0.379038 0.054273 -0.010365 1382680.000000 0 0 1
12.285839 -3.488322 28.523478 31.252184 -0.276650 0.420983 0.044191 -0.012595 1682420.000000 0 0 1
13.148939 -4.612022 28.289108 31.534727 -0.337345 0.457685 0.049825 -0.019188 284933.000000 0 0 1
13.115339 -5.764922 29.069068 32.407671 -0.414135 0.457904 0.062074 -0.018337 -630071.000000 0 0 1
12.286739 -7.002322 28.595128 31.901063 -0.518000 0.459286 0.065736 -0.018446 1346970.000000 0 0 1
10.854539 -6.882022 28.725598 31.469719 -0.565061 0.420705 0.062378 -0.011999 1104310.000000 0 0 1
10.098739 -8.076822 28.504808 31.300857 -0.674610 0.425889 0.066283 -0.017922 -212503.000000 0 0 1
8.595539 -7.893822 28.450118 30.750690 -0.742868 0.389270 0.079285 -0.015805 -643872.000000 0 0 1
8.048139 -7.504322 29.688988 31.662650 -0.750446 0.354944 0.087503 -0.016219 380291.000000 0 0 1
6.626139 -7.627822 29.607768 31.284330 -0.855557 0.328867 0.082542 -0.023908 621148.000000 0 0 1
5.822039 -7.149322 30.848068 32.196463 -0.887367 0.290434 0.069663 -0.016464 -68830.100000 0 0 1
6.027939 -7.804422 32.067909 33.549901 -0.913128 0.298335 0.069751 -0.013278 191327.000000 0 0 1
5.491139 -7.155422 33.262923 34.464108 -0.916246 0.264793 0.064070 -0.008555 -69683.400000 0 0 1
6.054139 -5.768222 33.598421 34.623386 -0.761218 0.243928 0.076488 -0.009846 -24716.700000 0 0 1
5.887939 -4.689622 32.665262 33.521332 -0.672591 0.226484 0.082012 -0.006093 80471.400000 0 0 1
6.470339 -3.491222 33.244288 34.047564 -0.494803 0.217652 0.067994 0.000447 219431.000000 0 0 1
6.451939 -2.325322 32.226603 32.948271 -0.345916 0.209683 0.076471 -0.001138 1117440.000000 0 0 1
5.088539 -1.864822 32.091275 32.545671 -0.351276 0.167299 0.084159 -0.005269 841484.000000 0 0 1
5.071939 -0.579522 31.447708 31.859359 -0.113767 0.160927 0.083142 -0.006201 -94949.100000 0 0 1
3.661039 -0.104422 31.065958 31.281110 -0.028515 0.117353 0.078730 -0.017654 85132.200000 0 0 1
2.821239 0.107678 32.194260 32.317818 0.038148 0.087472 0.068397 -0.017973 216595.000000 0 0 1
1.530939 0.563178 31.764478 31.806336 0.352500 0.051309 0.070405 -0.026068 720035.000000 0 0 1
0.671739 0.783478 33.068403 33.084503 0.862033 0.031199 0.069130 -0.027169 -179909.000000 0 0 1
1.143139 1.790878 33.862002 33.928590 1.002682 0.062661 0.052714 -0.016259 -121658.000000 0 0 1
0.401539 1.920778 -33.012917 33.071185 1.364714 3.082222 0.045954 -0.018325 -373377.000000 0 0 1
0.953039 3.011578 -32.112437 32.267421 1.264309 3.043542 0.043493 -0.017537 331919.000000 0 0 1
2.141539 2.594978 -31.432237 31.611795 0.880840 3.034958 0.024444 -0.009955 264502.000000 0 0 1
2.747739 3.794078 -30.905827 31.258842 0.944001 2.991162 0.030614 -0.011324 -128097.000000 0 0 1
4.014639 3.602578 -30.052397 30.532645 0.731355 2.963995 0.038289 -0.006783 -247745.000000 0 0 1
3.800639 2.998178 -28.784367 29.188588 0.667912 2.974975 0.036282 -0.016402 594140.000000 0 0 1
5.019639 2.853878 -28.054637 28.642696 0.516968 2.938607 0.049104 -0.019136 210290.000000 0 0 1
4.651239 2.180978 -26.752977 27.241741 0.438462 2.951879 0.053049 -0.028842 168659.000000 0 0 1
4.423039 0.772578 -26.795637 27.169216 0.172927 2.975570 0.058626 -0.025027 351760.000000 0 0 1
3.715439 0.316978 -25.645887 25.915564 0.085108 2.997204 0.074454 -0.028696 14960.900000 0 0 1
4.055639 -1.161222 -25.333767 25.682608 -0.278862 2.976586 0.076414 -0.024384 -552073.000000 0 0 1
5.279239 -1.362422 -24.713637 25.307912 -0.252561 2.924456 0.055854 -0.021044 -596461.000000 0 0 1
5.667939 -2.737022 -25.011657 25.791467 -0.449871 2.895061 0.052953 -0.016939 -234834.000000 0 0 1
7.014439 -3.160322 -24.414137 25.597657 -0.423307 2.836318 0.049958 -0.024606 397204.000000 0 0 1
8.126439 -2.354622 -24.823037 26.225301 -0.282025 2.813101 0.036616 -0.008899 -304378.000000 0 0 1
9.307239 -2.991422 -24.442937 26.325471 -0.310980 2.761122 0.030048 -0.012814 -245250.000000 0 0 1
-30.217341 -4.640222 17.852698 35.402517 0.152371 1.042251 0.147903 -0.028491 625723.000000 0 0 1
-31.546291 -4.135022 18.004298 36.557101 0.130335 1.055839 0.125870 -0.021063 52788.200000 0 0 1
-32.198651 -4.898422 18.989598 37.700829 0.150974 1.042929 0.111485 -0.024546 253475.000000 0 0 1
-33.662921 -4.486322 19.297598 39.060423 0.132491 1.054061 0.101247 -0.016016 227551.000000 0 0 1
-34.556045 -4.742222 18.237698 39.360165 0.136381 1.089020 0.090144 -0.023040 410008.000000 0 0 1
-35.902083 -4.526822 18.689298 40.727651 0.125426 1.094057 0.070252 -0.012604 844490.000000 0 0 1
36.754558 -4.744222 17.526398 40.994875 -0.128369 1.129041 0.050535 -0.013765 1397050.000000 0 0 1
35.384378 -4.722922 17.988198 39.974185 -0.132691 1.104036 0.041442 -0.009842 1013000.000000 0 0 1
34.467968 -4.973822 16.929098 38.721752 -0.143313 1.118315 0.029512 -0.009531 -422513.000000 0 0 1
33.078258 -5.335122 17.398198 37.753569 -0.159911 1.091860 0.029504 -0.005327 -1153170.000000 0 0 1
32.360018 -4.286122 17.947298 37.251136 -0.131685 1.068098 0.051781 -0.010200 -469489.000000 0 0 1
31.094508 -4.779622 18.283498 36.386804 -0.152519 1.044336 0.081988 -0.017685 -478438.000000 0 0 1
30.505218 -4.405422 19.648398 36.551821 -0.143424 1.003268 0.103903 -0.013267 -303136.000000 0 0 1
29.773718 -3.203422 19.721098 35.856072 -0.107180 0.988423 0.106507 -0.008490 4113.140000 0 0 1
30.437438 -1.988922 19.453998 36.178053 -0.065252 1.003055 0.082634 -0.003964 -112526.000000 0 0 1
29.365648 -0.854722 19.546198 35.286339 -0.029098 0.983718 0.087515 0.002428 507841.000000 0 0 1
29.802318 0.344078 19.034798 35.364107 0.011545 1.002435 0.068354 0.002791 247985.000000 0 0 1
28.851428 1.371978 19.355298 34.769452 0.047517 0.980418 0.066175 0.004267 680016.000000 0 0 1
29.143288 2.735978 18.546698 34.652516 0.093606 1.006029 0.064943 0.009129 190513.000000 0 0 1
29.229488 2.524378 17.146598 33.981484 0.086150 1.041893 0.050916 0.005706 83599.400000 0 0 1
29.192458 3.766578 16.461798 33.725028 0.128317 1.060864 0.050368 0.007759 24412.200000 0 0 1
28.797138 3.689178 14.999198 32.678145 0.127415 1.093929 0.057187 0.001790 -103355.000000 0 0 1
28.393058 4.937478 14.492298 32.257885 0.172176 1.104855 0.053742 0.001455 430756.000000 0 0 1
27.726058 4.809378 13.216898 31.089400 0.171752 1.131696 0.064409 -0.001884 178923.000000 0 0 1
27.136158 6.146078 12.696298 30.583351 0.222733 1.142702 0.085382 -0.001097 1174290.000000 0 0 1
25.952858 6.599678 13.433398 29.959352 0.249017 1.105836 0.067047 0.002910 774934.000000 0 0 1
25.404858 7.740778 12.817598 29.489274 0.295760 1.121144 0.099446 -0.018081 523983.000000 0 0 1
24.136758 8.280078 13.648798 28.938426 0.330469 1.079636 0.107722 -0.017369 1257880.000000 0 0 1
22.920558 7.580378 13.497098 27.658376 0.319400 1.061007 0.107035 -0.009585 465349.000000 0 0 1
22.973058 6.168678 13.897598 27.549178 0.262330 1.042034 0.117682 -0.006042 -649397.000000 0 0 1
21.599558 5.422378 13.748998 26.172085 0.245958 1.017693 0.124677 -0.013628 501768.000000 0 0 1
21.081858 5.558878 12.424898 25.094301 0.257813 1.052814 0.121826 -0.022687 858347.000000 0 0 1
19.910258 4.758178 12.261598 23.862218 0.234581 1.031130 0.103412 -0.019869 192455.000000 0 1 0
19.524858 4.652778 10.767398 22.777298 0.233937 1.078416 0.100057 -0.021300 252938.000000 0 1 0
20.528158 3.987478 9.985298 23.173507 0.191855 1.125314 0.108433 -0.031521 701319.000000 0 1 0
20.196658 3.891078 8.659798 22.316756 0.190328 1.172292 0.113185 -0.034362 301441.000000 0 1 0
21.303958 3.161178 7.825798 22.914947 0.147310 1.222268 0.120719 -0.033553 -525552.000000 0 1 0
21.393558 1.759578 8.223998 22.987270 0.082063 1.204925 0.106451 -0.036681 656648.000000 0 1 0
22.263858 0.978378 7.415298 23.486661 0.043916 1.249577 0.100954 -0.025709 417013.000000 0 1 0
23.805358 1.272078 7.396498 24.960397 0.053386 1.269949 0.110220 -0.032727 740774.000000 0 1 0
24.622358 0.740578 8.468498 26.048502 0.030068 1.239674 0.122274 -0.020817 855192.000000 0 0 1
24.628358 1.636778 9.571798 26.473655 0.066361 1.200856 0.116189 -0.022590 -553204.000000 0 0 1
25.350058 1.065778 10.764998 27.561686 0.042018 1.169537 0.108446 -0.019157 -514412.000000 0 0 1
26.749558 1.150678 10.684298 28.827368 0.042990 1.191109 0.102565 -0.025861 -346900.000000 0 0 1
27.198458 0.482478 11.840298 29.667854 0.017737 1.160266 0.095648 -0.026795 148663.000000 0 0 1
28.727498 0.274978 12.003698 31.135728 0.009572 1.175016 0.108388 -0.029395 168338.000000 0 0 1
29.474848 1.441178 12.187098 31.927559 0.048856 1.179150 0.086194 -0.015426 -178990.000000 0 0 1
30.851668 1.130278 12.180398 33.188327 0.036620 1.195005 0.097679 -0.019059 -188433.000000 0 0 1
31.657358 2.367378 12.594998 34.152991 0.074642 1.193098 0.071788 -0.007250 -623642.000000 0 0 1
31.487718 3.505978 11.725398 33.782440 0.110888 1.216335 0.098033 -0.027137 85644.800000 0 0 1
32.165778 4.666878 12.111598 34.685845 0.144083 1.214101 0.099696 -0.023924 -181992.000000 0 0 1
33.648838 4.765178 11.724298 35.950110 0.140679 1.238593 0.085389 -0.020325 17713.000000 0 0 1
34.537418 3.935078 12.485098 36.935021 0.113447 1.225975 0.073316 -0.026900 -256966.000000 0 0 1
35.857788 4.280678 12.187298 38.113454 0.118817 1.245316 0.093940 -0.022349 -640186.000000 0 0 1
-36.771201 3.471578 12.913998 39.127285 -0.094131 1.234439 0.152314 -0.022044 -997166.000000 0 0 1
-36.557541 2.157878 12.504098 38.697064 -0.058958 1.241764 0.140157 -0.025859 247782.000000 0 0 1
36.118698 1.176978 12.639198 38.284396 0.032575 1.234345 0.096528 -0.010290 -292772.000000 0 0 1
35.642598 0.806578 14.043398 38.317912 0.022626 1.195555 0.087564 -0.017654 -532154.000000 0 0 1
36.510218 0.062678 14.846698 39.413505 0.001717 1.184575 0.092189 -0.020573 -107900.000000 0 0 1
36.058728 -0.072422 16.192398 39.527596 -0.002008 1.148728 0.089414 -0.033622 -727955.000000 0 0 1
-36.671681 -0.907122 17.005098 40.432764 0.024731 1.136715 0.099362 -0.032667 -442325.000000 0 0 1
-35.423577 -0.216922 17.108698 39.339350 0.006124 1.120869 0.138028 -0.043315 552908.000000 0 0 1
-34.496413 -0.991022 17.898398 38.875922 0.028720 1.092353 0.122939 -0.032444 311706.000000 0 0 1
-34.761648 -0.829622 19.424898 39.829476 0.023861 1.061341 0.144348 -0.037907 -587272.000000 0 0 1
-35.717648 -1.707722 19.960398 40.952219 0.047775 1.061679 0.112973 -0.027662 -24635.400000 0 0 1
-35.614989 -1.532922 21.374398 41.564916 0.043015 1.030673 0.111220 -0.024417 125422.000000 0 0 1
-35.918952 -2.753022 22.267398 42.350765 0.076496 1.017159 0.085406 -0.018876 446684.000000 0 0 1
-34.964859 -3.841722 22.178098 41.583269 0.109435 1.008250 0.100241 -0.025146 480531.000000 0 0 1
-35.278428 -5.029622 22.925698 42.372777 0.141615 0.999114 0.094490 -0.023987 -43426.400000 0 0 1
-35.320970 -5.005822 24.463038 43.255860 0.140786 0.969705 0.092983 -0.031219 655719.000000 0 0 1
-34.022761 -5.073022 25.068708 42.564351 0.148016 0.941025 0.101095 -0.035718 309722.000000 0 0 1
-34.084141 -4.838322 26.475868 43.429364 0.141010 0.915202 0.107854 -0.039923 776496.000000 0 0 1
-32.810901 -4.158822 27.128198 42.776047 0.126079 0.883834 0.097181 -0.031348 777715.000000 0 0 1
-32.541671 -2.791522 26.991078 42.370642 0.085574 0.880166 0.100627 -0.021650 -310155.000000 0 0 1
-32.010081 -2.438222 25.780338 41.173002 0.076024 0.894195 0.110634 -0.024915 -286451.000000 0 0 1
-31.820941 -0.882422 25.554218 40.821184 0.027724 0.894378 0.112235 -0.022141 -26293.600000 0 0 1
-33.068451 -0.279722 25.363388 41.676158 0.008459 0.916523 0.134514 -0.033339 -141510.000000 0 0 1
-32.880511 0.981078 24.771198 41.178912 -0.029829 0.925356 0.114498 -0.016840 216994.000000 0 0 1
-34.214743 1.755678 24.552818 42.149400 -0.051269 0.948972 0.136141 -0.016820 306879.000000 0 0 1
-34.979173 1.159078 23.492438 42.151876 -0.033124 0.979632 0.135684 -0.010056 141371.000000 0 0 1
-36.229351 1.815478 23.320748 43.124461 -0.050069 0.999435 0.113156 -0.003308 499331.000000 0 0 1
-36.215271 3.051478 22.393098 42.688502 -0.084061 1.018587 0.112257 -0.003862 -160655.000000 0 0 1
-35.915933 2.654478 21.073898 41.726607 -0.073774 1.041360 0.136266 -0.035355 481191.000000 0 0 1
36.780948 3.172478 20.178298 42.072158 0.086040 1.070584 0.105947 -0.026063 557123.000000 0 0 1
-36.660861 2.764878 18.717298 41.255309 -0.075275 1.099890 0.124415 -0.031019 -47113.700000 0 0 1
-35.578307 3.405478 18.080398 40.053889 -0.095427 1.102461 0.170646 -0.047140 -131224.000000 0 0 1
-35.359269 2.729578 16.858098 39.267340 -0.077043 1.127061 0.200746 -0.045688 -613374.000000 0 0 1
-34.250121 3.285778 15.954798 37.926544 -0.095642 1.136606 0.191127 -0.043431 -265403.000000 0 0 1
-34.496553 4.569778 15.530998 38.106521 -0.131704 1.151007 0.192694 -0.048151 150914.000000 0 0 1
-33.376481 5.175078 14.904298 36.917598 -0.153827 1.155219 0.210199 -0.046814 119185.000000 0 0 1
-33.662301 6.684778 14.505998 37.259372 -0.196033 1.170898 0.217070 -0.054373 395718.000000 0 0 1
-32.641891 7.131378 13.627698 36.084121 -0.215094 1.183523 0.225819 -0.046880 372148.000000 0 0 1
-32.973151 8.450978 13.231898 36.520280 -0.250898 1.200044 0.192249 -0.040825 367878.000000 0 0 1
-32.138371 9.095478 12.055698 35.509752 -0.275798 1.224407 0.192271 -0.031475 360599.000000 0 0 1
-32.633151 10.357878 11.731498 36.191660 -0.307346 1.240684 0.154434 -0.021814 382453.000000 0 0 1
-31.769991 10.952878 10.762498 35.286389 -0.331995 1.260853 0.142240 -0.028626 129043.000000 0 0 1
-31.944121 12.501978 10.775098 35.955932 -0.373045 1.266444 0.117226 -0.028331 -260049.000000 0 0 1
-31.336441 13.214778 9.782498 35.387854 -0.399078 1.290712 0.114232 -0.027091 -359498.000000 0 0 1
-31.511581 14.561178 9.980598 36.119524 -0.432862 1.290832 0.102766 -0.027710 -249163.000000 0 0 1
-30.549481 15.474778 9.209298 35.461962 -0.468872 1.308090 0.103182 -0.026043 -301992.000000 0 0 1
-29.205861 15.371578 9.628598 34.379902 -0.484480 1.286935 0.117717 -0.025554 -366420.000000 0 0 1
-28.458391 16.132078 8.730198 33.857648 -0.515699 1.310000 0.107891 -0.033074 348792.000000 0 0 1
-26.897361 16.097378 8.942698 32.597016 -0.539297 1.292892 0.121685 -0.022252 827874.000000 0 0 1
-26.527351 16.689478 10.192398 32.956396 -0.561572 1.256372 0.119374 -0.025648 195243.000000 0 0 1
-26.746171 18.100478 10.398198 33.927975 -0.594951 1.259305 0.109558 -0.028783 -447476.000000 0 0 1
-26.756841 18.580678 11.867998 34.670153 -0.606976 1.221420 0.113107 -0.019361 196063.000000 0 0 1
-25.450681 18.640278 12.406898 33.898794 -0.632147 1.196091 0.101556 -0.013614 194496.000000 0 0 1
-25.465211 19.251178 13.689898 34.734682 -0.647317 1.165678 0.106562 -0.020196 66490.700000 0 0 1
-25.904991 18.309078 14.840598 35.021911 -0.615260 1.133213 0.089369 -0.021898 181440.000000 0 0 1
-24.945761 17.302378 15.193098 33.948395 -0.606418 1.106789 0.102881 -0.024842 221453.000000 0 0 1
-25.433251 16.532378 16.187198 34.383065 -0.576396 1.080610 0.098272 -0.022131 -394023.000000 0 0 1
-24.437961 15.463078 16.649898 33.369744 -0.564152 1.048407 0.101940 -0.024913 -558233.000000 0 0 1
-23.355561 15.899278 17.401898 33.182757 -0.597689 1.018756 0.089181 -0.025520 -552808.000000 0 0 1
-22.392961 14.868278 17.530998 32.091218 -0.586134 0.992872 0.075613 -0.026489 -58747.100000 0 0 1
-22.576361 13.778378 18.556698 32.309238 -0.547959 0.958991 0.080688 -0.023817 -484862.000000 0 0 1
-22.418461 14.251878 19.883898 33.182418 -0.566271 0.928257 0.079061 -0.024623 112560.000000 0 0 1
-22.698161 13.248078 20.850498 33.547897 -0.528320 0.900122 0.070959 -0.025207 -604328.000000 0 0 1
-22.378361 13.703478 22.332298 34.457335 -0.549454 0.865690 0.065162 -0.011426 720963.000000 0 0 1
-20.969361 13.739578 22.598398 33.751707 -0.580037 0.837196 0.078824 -0.017007 429170.000000 0 0 1
-20.487061 15.003278 22.234398 33.751837 -0.632096 0.851625 0.072206 -0.011957 -356185.000000 0 0 1
-18.947961 15.085078 22.479698 33.044238 -0.672378 0.822637 0.069237 -0.019692 881061.000000 0 0 1
-18.155261 14.563178 21.393498 31.612995 -0.676048 0.827483 0.062920 -0.017955 -48460.900000 0 0 1
-17.658961 15.552278 20.535398 31.231632 -0.722050 0.853275 0.059368 -0.021113 -1340830.000000 0 0 1
-16.450661 15.017978 19.763498 29.778512 -0.739902 0.845064 0.057097 -0.009427 190241.000000 0 0 1
-15.282761 14.668378 20.480798 29.465017 -0.764888 0.802253 0.060737 -0.005829 164352.000000 0 0 1
-14.621561 15.723978 21.161098 30.146735 -0.821711 0.792683 0.048131 -0.010963 129587.000000 0 0 1
-13.389061 15.221178 22.056398 29.957235 -0.849348 0.743265 0.037134 -0.014336 1147760.000000 0 0 1
-12.221161 14.922578 21.313398 28.745453 -0.884594 0.735563 0.021837 0.002273 264455.000000 0 0 1
-11.249461 14.318078 22.192898 28.706837 -0.904847 0.687102 0.012414 -0.000451 596904.000000 0 0 1
-10.038861 13.620478 21.549098 27.398171 -0.935640 0.665649 0.015546 -0.002586 -1388760.000000 0 0 1
-9.633161 12.588078 22.288798 27.350467 -0.917600 0.618183 0.027161 -0.009790 158647.000000 0 0 1
-8.410061 11.981378 21.885798 26.330034 -0.958778 0.589515 0.028954 -0.007336 428317.000000 0 0 1
-7.103561 12.761878 22.074698 26.469197 -1.062882 0.584520 0.026258 -0.002152 -1364980.000000 0 0 1
-6.875461 13.776978 21.084898 26.108428 -1.107905 0.630743 0.018436 -0.000189 -566337.000000 0 0 1
-6.257761 14.892978 21.637198 27.002384 -1.173014 0.641320 0.013344 0.011664 -306866.000000 0 0 1
-7.156561 15.780578 22.538498 28.429332 -1.145032 0.655423 0.018617 -0.007738 386877.000000 0 0 1
-8.203361 16.521178 21.911098 28.641590 -1.109924 0.699740 0.002400 -0.001274 -134158.000000 0 0 1
-7.732361 17.649478 21.211498 28.656956 -1.157876 0.737448 0.015829 0.004644 -1362820.000000 0 0 1
-8.541461 17.954978 19.910598 28.138403 -1.126764 0.784707 0.017004 0.009282 1059660.000000 0 0 1
-9.806661 18.594478 20.077498 29.069420 -1.085473 0.808375 0.015631 0.001806 137331.000000 0 0 1
-10.782261 17.864078 20.795998 29.459395 -1.027754 0.787074 0.010305 -0.001082 -1444770.000000 0 0 1
-12.073061 18.658278 20.951298 30.542545 -0.996489 0.814859 0.012841 -0.008133 -328963.000000 0 0 1
-12.724861 18.878178 19.706098 30.110430 -0.977699 0.857327 0.011943 -0.006188 21450.200000 0 0 1
-14.032461 19.386178 19.883398 31.114038 -0.944250 0.877535 0.020045 -0.011608 23257.900000 0 0 1
-14.882461 19.411378 18.629698 30.746624 -0.916700 0.919887 0.018570 -0.008621 -230411.000000 0 0 1
-15.594861 18.218478 18.249798 30.135822 -0.862834 0.920296 0.040734 -0.006682 555756.000000 0 0 1
-16.378961 18.477178 17.076798 30.021551 -0.845522 0.965728 0.050558 -0.014463 -578356.000000 0 0 1
-17.202961 17.307278 16.529198 29.473686 -0.788421 0.975430 0.053732 -0.011846 675245.000000 0 0 1
-18.227161 16.738578 17.382298 30.241589 -0.742851 0.958460 0.062065 -0.018764 949034.000000 0 0 1
-19.385661 17.582178 17.463998 31.463123 -0.736652 0.982358 0.069136 -0.025282 -46625.700000 0 0 1
34.774788 -9.401022 12.017663 37.974851 -0.264029 1.248797 0.054499 -0.017017 -588581.000000 0 0 1
33.564848 -10.001322 11.688963 36.922315 -0.289593 1.248672 0.054025 -0.014729 -417306.000000 0 0 1
33.141888 -10.989422 12.630563 37.130624 -0.320178 1.223703 0.040782 -0.008842 -270113.000000 0 0 1
31.720828 -11.571822 12.551463 36.023010 -0.349800 1.214902 0.058341 -0.003851 -1421050.000000 0 0 1
30.795348 -10.619922 12.877863 35.028211 -0.332084 1.194323 0.067255 -0.010611 69522.900000 0 0 1
29.446318 -11.089022 12.995963 34.043312 -0.360159 1.179110 0.073092 -0.015000 721777.000000 0 0 1
29.138318 -11.949522 14.223563 34.556366 -0.389180 1.146582 0.061383 -0.005130 -1220480.000000 0 0 1
29.103778 -11.216522 15.408763 34.788939 -0.367855 1.111942 0.077317 -0.016025 271192.000000 0 0 1
28.511258 -11.931222 16.499863 35.035573 -0.396330 1.080433 0.082966 -0.019728 174355.000000 0 0 1
26.963758 -11.899022 16.654163 33.852506 -0.415593 1.056454 0.087784 -0.037968 250676.000000 0 0 1
26.387758 -10.660622 16.862463 33.080286 -0.383949 1.035910 0.088488 -0.048292 -190214.000000 0 0 1
25.952358 -10.023722 15.687963 31.939194 -0.368584 1.057350 0.106526 -0.048425 -219818.000000 0 0 1
25.584858 -8.500722 15.803863 31.250749 -0.320781 1.040590 0.144353 -0.038751 442654.000000 0 0 1
26.720858 -7.650122 15.715863 31.929876 -0.278839 1.056182 0.120027 -0.029258 305036.000000 0 0 1
26.401458 -6.291422 15.976063 31.493707 -0.233935 1.038773 0.120849 -0.025462 -46122.000000 0 0 1
27.644358 -5.409322 15.786663 32.290711 -0.193234 1.059977 0.124729 -0.024669 -183112.000000 0 0 1
27.942358 -5.058922 14.483963 31.877159 -0.179108 1.099134 0.143647 -0.025826 163964.000000 0 0 1
29.039868 -4.165022 14.474463 32.713475 -0.142453 1.112454 0.121049 -0.018688 147799.000000 0 0 1
29.440688 -3.666822 13.041063 32.407855 -0.123911 1.156655 0.119860 -0.033161 -67745.100000 0 0 1
29.831008 -4.652822 12.127163 32.536224 -0.154726 1.188849 0.111301 -0.039997 192945.000000 0 0 1
29.951748 -4.097122 10.835363 32.113840 -0.135947 1.226638 0.121883 -0.045170 -47349.500000 0 0 1
30.710848 -4.957222 9.803063 32.616411 -0.160036 1.265521 0.139879 -0.035646 79967.400000 0 0 1
32.086028 -5.145222 10.103663 34.030435 -0.159003 1.269351 0.139705 -0.035789 230931.000000 0 0 1
32.633118 -5.764822 8.952063 34.326273 -0.174852 1.306952 0.134740 -0.034539 30352.300000 0 0 1
34.049908 -6.369622 9.099363 35.815733 -0.184930 1.313920 0.115719 -0.024184 76888.900000 0 0 1
35.115758 -5.455022 9.050563 36.671330 -0.154112 1.321417 0.137242 -0.031384 -724034.000000 0 0 1
36.307288 -6.163822 8.936963 37.895662 -0.168165 1.332723 0.128709 -0.029040 -1271020.000000 0 0 1
-36.165911 -5.344422 8.713063 37.582622 0.146713 1.336830 0.115081 -0.019598 -838764.000000 0 0 1
-36.207251 -4.669122 7.465563 37.262587 0.128248 1.369081 0.139801 -0.019824 520171.000000 0 0 1
-34.956613 -4.060222 7.138463 35.908326 0.115632 1.370666 0.103336 -0.007761 410918.000000 0 0 1
-35.164666 -3.140322 5.903563 35.794796 0.089067 1.405111 0.136842 -0.021744 -175988.000000 0 0 1
-34.933316 -3.837922 4.676963 35.453353 0.109425 1.438492 0.133026 -0.029916 121050.000000 0 0 1
-35.110398 -3.109322 3.481763 35.419354 0.088328 1.472336 0.133478 -0.026498 -95821.200000 0 0 1
-34.516194 -3.776922 2.211163 34.792557 0.108991 1.507201 0.162827 -0.031275 57930.400000 0 0 1
-35.062774 -5.007522 1.771063 35.462799 0.141857 1.520834 0.155871 -0.025258 -19565.500000 0 0 1
-36.066291 -4.954622 0.773163 36.413232 0.136521 1.549562 0.143039 -0.026121 84620.900000 0 0 1
-35.491313 -5.166122 -0.669937 35.871590 0.144545 1.589473 0.153628 -0.032193 -1140640.000000 0 0 1
-35.035404 -6.446822 -0.993137 35.637444 0.181973 1.598668 0.138634 -0.040977 -183434.000000 0 0 1
-34.185226 -6.480222 -2.085137 34.856431 0.187339 1.630653 0.133175 -0.038171 -565833.000000 0 0 1
-32.775301 -5.952322 -1.767937 33.358299 0.179652 1.623820 0.139619 -0.042840 -1697800.000000 0 0 1
-32.095311 -6.799422 -0.897137 32.819903 0.208764 1.598135 0.141015 -0.038020 -1416130.000000 0 0 1
-30.876911 -6.194922 -0.656337 31.499071 0.198004 1.591635 0.154724 -0.047037 -1181620.000000 0 0 1
-30.156031 -7.094222 0.346563 30.981193 0.231049 1.559610 0.136915 -0.043321 -243180.000000 0 0 1
-29.576171 -8.330422 -0.146537 30.727306 0.274547 1.575565 0.132790 -0.032315 527684.000000 0 0 1
-29.390601 -9.278322 0.825563 30.831417 0.305789 1.544016 0.130638 -0.026705 -299864.000000 0 0 1
-28.914801 -10.615022 0.256063 30.802760 0.351839 1.562483 0.112278 -0.031946 -289632.000000 0 0 1
-27.658041 -10.658322 -0.381437 29.643086 0.367823 1.583664 0.126304 -0.034273 83990.700000 0 0 1
-27.185441 -11.952922 -0.670837 29.704723 0.414240 1.593382 0.108390 -0.027815 -235092.000000 0 0 1
-27.916861 -12.768722 -1.736737 30.747482 0.428977 1.627310 0.100127 -0.028569 390371.000000 0 0 1
-29.073791 -13.509522 -1.273537 32.084489 0.434981 1.610500 0.112377 -0.030986 1017770.000000 0 0 1
-29.575471 -14.322222 -2.291037 32.940604 0.450977 1.640403 0.110388 -0.032925 -115720.000000 0 0 1
-30.644711 -15.318022 -1.846337 34.309606 0.463534 1.624636 0.117817 -0.028184 -86589.500000 0 0 1
-29.989811 -16.233922 -0.972537 34.115610 0.496150 1.599307 0.083858 -0.017936 409817.000000 0 0 1
-30.813201 -16.981122 -0.099537 35.182692 0.503687 1.573625 0.088165 -0.009916 -43310.500000 0 0 1
-31.101901 -18.484422 -0.513337 36.183776 0.536231 1.584984 0.098436 -0.009165 153067.000000 0 0 1
-29.990121 -19.338122 -0.296537 35.685547 0.572723 1.579106 0.108285 -0.020100 304590.000000 0 0 1
-30.314091 -20.702522 -0.342737 36.710435 0.599180 1.580133 0.103875 -0.024073 34081.300000 0 0 1
-31.096451 -21.349122 0.832763 37.728872 0.601639 1.548722 0.099383 -0.021791 -135927.000000 0 0 1
-30.364131 -21.411722 2.011963 37.208740 0.614184 1.516698 0.089432 -0.018460 197471.000000 0 0 1
-31.240171 -21.977922 2.985863 38.313088 0.613081 1.492784 0.079730 -0.011251 485418.000000 0 0 1
-30.556341 -22.250122 4.363663 38.049960 0.629381 1.455861 0.061807 -0.006664 -154067.000000 0 0 1
-30.323031 -21.084522 5.095363 37.282785 0.607585 1.433699 0.043452 -0.006413 -50783.700000 0 0 1
-29.365181 -21.262722 6.113963 36.766803 0.626704 1.403730 0.043288 -0.005630 -27864.600000 0 0 1
-28.999581 -19.964222 6.850963 35.867556 0.602920 1.378608 0.039327 -0.005526 -71373.000000 0 0 1
-28.134081 -20.128022 7.934263 35.491074 0.621008 1.345334 0.029538 -0.013638 -150864.000000 0 0 1
-27.512781 -18.891922 8.318663 34.395610 0.601717 1.326522 0.034416 -0.008600 530170.000000 0 0 1
-26.556271 -19.003922 9.541863 34.021049 0.621126 1.286513 0.040974 -0.004575 318070.000000 0 0 1
-27.278741 -19.326022 10.717463 35.106821 0.616384 1.260562 0.032439 -0.009321 18469.700000 0 0 1
-26.446271 -19.571022 11.818963 34.958805 0.637089 1.225918 0.049393 -0.003239 -175685.000000 0 0 1
-25.951731 -18.339122 12.630263 34.195604 0.615184 1.192483 0.038439 -0.002595 -1280080.000000 0 0 1
-25.123861 -17.479022 11.905063 32.839841 0.607844 1.199827 0.042880 0.003456 -88131.900000 0 0 1
-24.544461 -16.431222 12.696863 32.150054 0.589925 1.164810 0.047159 0.011985 590789.000000 0 0 1
-23.731461 -16.904122 13.975263 32.314696 0.618939 1.123562 0.055833 0.003857 -716995.000000 0 0 1
-24.536161 -17.205122 15.100463 33.556869 0.611541 1.104035 0.049308 -0.003785 -200409.000000 0 0 1
-23.760061 -17.679822 16.205763 33.760086 0.639713 1.070110 0.063038 -0.003520 -72040.300000 0 0 1
-24.443961 -18.315522 17.439263 35.172340 0.643044 1.052014 0.067854 0.000615 181196.000000 0 0 1
-25.295961 -17.398722 18.157763 35.669392 0.602495 1.036707 0.059389 0.008572 80029.800000 0 0 1
-26.135721 -18.086022 19.032163 37.045963 0.605339 1.031253 0.057043 0.010892 -114423.000000 0 0 1
-27.133471 -17.153922 19.750763 37.690516 0.563764 1.019227 0.066737 0.010931 296274.000000 0 0 1
-26.430201 -16.471522 20.775463 37.436432 0.557310 0.982490 0.061018 0.010519 110522.000000 0 0 1
-27.212441 -15.373222 21.174963 37.752245 0.514236 0.975332 0.071028 0.001861 -166506.000000 0 0 1
-26.594771 -14.626022 22.348563 37.691652 0.502811 0.936102 0.073679 -0.001991 -180611.000000 0 0 1
-25.386321 -14.038722 21.921963 36.361016 0.505146 0.923668 0.078831 -0.006926 176323.000000 0 0 1
-24.683961 -13.400222 23.045863 36.331470 0.497354 0.883665 0.065032 -0.008478 409106.000000 0 0 1
-23.428061 -12.664922 22.539863 34.890110 0.495588 0.868432 0.060085 -0.005703 -222271.000000 0 0 1
-23.782761 -11.653722 21.623363 34.190625 0.455621 0.886103 0.078351 -0.012969 -109188.000000 0 0 1
-22.713761 -10.926822 21.102163 32.872659 0.448386 0.873775 0.085449 -0.013232 -771492.000000 0 0 1
-22.430861 -9.570122 21.846563 32.741459 0.403267 0.840293 0.093169 -0.013568 87158.000000 0 0 1
-21.813061 -9.698722 23.135063 33.243135 0.418379 0.801075 0.079719 -0.020454 1135330.000000 0 0 1
-20.383761 -9.844922 23.084463 32.331295 0.449938 0.775605 0.056899 -0.009422 851947.000000 0 0 1
-19.653461 -9.950722 24.466663 32.922531 0.468682 0.733018 0.054997 -0.011200 240331.000000 0 0 1
-20.015661 -11.096322 25.223363 34.058378 0.506201 0.736845 0.054476 -0.008563 -134927.000000 0 0 1
-19.259861 -11.194122 26.404663 34.546445 0.526493 0.700805 0.056135 -0.012041 -983026.000000 0 0 1
-19.219161 -12.549422 27.165163 35.564171 0.578456 0.701562 0.059327 -0.028016 1093510.000000 0 0 1
-20.440161 -12.763022 27.897463 36.864121 0.558174 0.712447 0.064759 -0.014919 1368920.000000 0 0 1
-21.681161 -12.964122 27.208763 37.127591 0.538906 0.748303 0.046467 -0.011070 1294740.000000 0 0 1
-23.002061 -13.190922 28.044863 38.595461 0.520681 0.757383 0.043757 -0.007520 843585.000000 0 0 1
-23.143361 -14.359522 28.807863 39.644723 0.555328 0.757362 0.037372 -0.003673 -370920.000000 0 0 1
-22.254261 -14.485822 29.901763 39.990082 0.577024 0.726160 0.037217 -0.003547 -30051.500000 0 0 1
-22.642761 -15.538422 31.034563 41.440093 0.601433 0.724393 0.031299 -0.006811 -529259.000000 0 0 1
-22.608061 -16.872522 30.523963 41.563431 0.641132 0.746022 0.036684 -0.000418 4143.560000 0 0 1
-22.702461 -17.884222 31.505263 42.753114 0.667236 0.742306 0.035921 -0.006122 -705291.000000 0 0 1
-24.121061 -18.200322 31.944063 43.971587 0.646401 0.757624 0.047576 -0.008630 -806696.000000 0 0 1
-24.505761 -17.304922 32.929363 44.545882 0.614846 0.738880 0.055300 -0.007453 -116162.000000 0 0 1
-25.864931 -17.552722 33.273363 45.653143 0.596239 0.754185 0.060767 -0.019828 -87864.900000 0 0 1
-26.459301 -16.411622 -34.001271 46.103388 0.555183 2.400158 0.058923 -0.017697 -335709.000000 0 0 1
-25.933791 -16.172922 -32.765971 44.807743 0.557609 2.390959 0.074280 -0.020642 -261928.000000 0 0 1
-26.633621 -15.038022 -32.296171 44.480721 0.514003 2.383387 0.087095 -0.019076 -25447.300000 0 0 1
-26.131351 -14.382122 -30.985271 43.009069 0.503133 2.375227 0.079530 -0.012616 -397113.000000 0 0 1
-26.298241 -15.287222 -29.961471 42.696445 0.526558 2.348622 0.094077 -0.009711 112072.000000 0 0 1
-25.861581 -14.884322 -28.683671 41.389823 0.522238 2.336456 0.097844 -0.004444 -506415.000000 0 0 1
-26.159251 -15.832722 -27.495371 41.121490 0.544266 2.303171 0.080538 -0.007997 239033.000000 0 0 1
-27.514761 -15.824822 -27.056571 41.707855 0.521939 2.276693 0.091609 -0.017612 563991.000000 0 0 1
-27.994441 -14.701622 -26.358071 41.165208 0.483574 2.265685 0.084296 -0.009032 -478143.000000 0 0 1
-27.428631 -14.476322 -24.892271 39.768315 0.485625 2.247123 0.075630 -0.009845 90588.200000 0 0 1
-26.129761 -13.884522 -24.838071 38.632553 0.488426 2.269115 0.067199 -0.005093 556632.000000 0 0 1
-25.263851 -14.234322 -23.815371 37.523993 0.513093 2.258378 0.038525 -0.004880 -135108.000000 0 0 1
-24.566861 -15.597422 -23.957471 37.693112 0.565684 2.259572 0.037230 0.003382 -708699.000000 0 0 1
-23.466661 -15.746322 -24.823171 37.614102 0.591002 2.291539 0.050129 0.003369 246075.000000 0 0 1
-23.048161 -17.087022 -24.818871 37.936268 0.637950 2.283954 0.059062 -0.003562 393559.000000 0 0 1
-22.005461 -17.583422 -25.884371 38.254643 0.674160 2.313977 0.047450 -0.002704 238700.000000 0 0 1
-22.537761 -17.627322 -27.190071 39.471169 0.663745 2.330710 0.056383 -0.008790 57571.100000 0 0 1
-23.354561 -18.721022 -27.494971 40.643396 0.675716 2.313786 0.063373 -0.015730 -394152.000000 0 0 1
-24.060561 -18.516122 -28.856971 41.886539 0.655904 2.330811 0.064841 -0.011239 -120318.000000 0 0 1
-23.341461 -18.965422 -29.997571 42.477822 0.682329 2.354904 0.069337 -0.015490 325494.000000 0 0 1
-23.956961 -18.397622 -31.140171 43.383393 0.654887 2.371420 0.055894 -0.010295 -641226.000000 0 0 1
-23.240561 -18.683022 -32.455071 44.073923 0.677113 2.398498 0.048272 -0.012034 555904.000000 0 0 1
-21.905161 -18.140322 -32.505271 43.191435 0.691660 2.422777 0.049529 -0.007459 1349520.000000 0 0 1
-20.778961 -18.872022 -32.031471 42.590299 0.737342 2.422014 0.043679 -0.016327 371077.000000 0 0 1
-20.316961 -20.033922 -32.938471 43.578433 0.778384 2.427738 0.047248 -0.018842 -513571.000000 0 0 1
-20.134561 -19.638322 33.756063 43.937866 0.772922 0.694665 0.040505 -0.018708 29791.600000 0 0 1
-19.880661 -20.742022 32.909963 43.686816 0.806599 0.717707 0.045831 -0.016325 410062.000000 0 0 1
-21.117461 -21.284222 32.113363 43.934421 0.789331 0.751100 0.048572 -0.008320 646086.000000 0 0 1
-22.135561 -21.863722 32.923763 45.298782 0.779220 0.757125 0.038416 -0.009836 700558.000000 0 0 1
-23.261961 -22.422522 32.212663 45.623941 0.767026 0.786895 0.031016 -0.002441 468777.000000 0 0 1
-23.063761 -23.667422 31.360863 45.558618 0.798315 0.811567 0.050082 0.003204 -682039.000000 0 0 1
-22.559561 -24.779822 32.040363 46.363329 0.832265 0.807826 0.042115 0.005593 -14395.900000 0 0 1
-22.510161 -25.899502 31.208563 46.383898 0.855298 0.832766 0.046604 0.008270 -319857.000000 0 0 1
-21.859261 -27.028792 31.994063 47.244079 0.890749 0.826835 0.060694 -0.000383 -410843.000000 0 0 1
-22.595761 -27.516012 33.100163 48.613991 0.883270 0.821837 0.051336 -0.003822 -171092.000000 0 0 1
-22.005461 -28.613492 33.700563 49.383198 0.915209 0.819715 0.056393 -0.015181 -189495.000000 0 0 1
-23.078461 -29.609712 -33.768171 50.493958 0.908729 2.303332 0.047094 -0.010322 216411.000000 0 0 1
-23.974861 -30.177752 33.313063 50.943605 0.899446 0.858042 0.043164 -0.017506 903674.000000 0 0 1
-25.095811 -29.425962 32.849963 50.742557 0.864652 0.866648 0.039734 -0.011766 115494.000000 0 0 1
-26.178651 -29.180402 33.936063 51.850497 0.839568 0.857277 0.037053 -0.016713 -1221230.000000 0 0 1
-27.178421 -28.268362 33.659763 51.679266 0.805053 0.861473 0.037158 -0.014067 -560537.000000 0 0 1
-28.121681 -28.236732 -33.353971 51.967580 0.787440 2.267669 0.024930 0.000379 -41108.700000 0 0 1
-29.177091 -27.139442 -33.618971 52.135278 0.749232 2.271612 0.024263 -0.010635 433973.000000 0 0 1
-30.158221 -27.454342 33.425363 52.730581 0.738500 0.884224 0.041777 -0.019601 341983.000000 0 0 1
-31.217291 -26.528822 33.480963 52.908152 0.704385 0.885616 0.043934 -0.021047 -378529.000000 0 0 1
