# x y z rho theta phi s1 s2 stress_xx np intf bulk
-0.920511 -10.945282 -14.395671 18.107509 1.486893 2.489822 0.006993 -0.001119 -1561630.000000 1 0 0
2.114789 -13.602382 -13.104671 19.006039 -1.416559 2.331595 0.015136 0.003937 1601640.000000 1 0 0
1.961589 -11.345082 -14.759671 18.719151 -1.399587 2.479130 0.005202 0.003591 797938.000000 1 0 0
-5.561711 -6.323482 -16.440971 18.472265 0.849405 2.668219 0.013497 -0.008863 477727.000000 1 0 0
4.437089 -14.074182 -11.413571 18.655829 -1.265395 2.229126 0.015277 -0.001619 988044.000000 1 0 0
14.000889 -10.738982 -7.926971 19.343927 -0.654306 1.993021 0.049206 -0.018271 -357518.000000 1 0 0
7.041789 10.774718 -10.794371 16.798803 0.991931 2.268641 0.035467 -0.015669 -184084.000000 1 0 0
5.760289 -4.194382 -12.580071 14.457937 -0.629373 2.626232 0.019340 -0.008274 2735150.000000 1 0 0
13.676489 0.489218 -9.943171 16.916038 0.035755 2.199128 0.032496 -0.004618 277896.000000 1 0 0
14.246889 5.096618 -10.373571 18.345581 0.343549 2.171779 0.039423 -0.004459 -511426.000000 1 0 0
4.125889 4.306318 -13.504371 14.762634 0.806792 2.725727 0.010316 -0.001163 2621880.000000 1 0 0
10.571289 -5.012682 -13.693171 18.010610 -0.442778 2.434546 0.053118 -0.012456 -1302790.000000 1 0 0
2.505089 -7.581782 -11.880071 14.314153 -1.251680 2.549819 0.001721 0.000622 2363630.000000 1 0 0
-5.621811 -2.081982 -15.083471 16.231158 0.354679 2.763285 0.014447 -0.009090 2305890.000000 1 0 0
10.687889 0.029018 -9.660271 14.406688 0.002715 2.305734 0.022027 -0.003415 2062620.000000 1 0 0
-1.690911 -9.550782 -16.993071 19.566325 1.395568 2.622935 0.016355 -0.011177 1462690.000000 1 0 0
8.614489 1.641618 -17.847471 19.885586 0.188307 2.684882 0.047929 -0.020028 -788815.000000 1 0 0
16.417589 -6.004682 -8.763071 19.554663 -0.350634 2.035471 0.062413 -0.017783 -1116090.000000 1 0 0
10.119189 7.539118 -9.860971 16.014838 0.640314 2.234121 0.034158 -0.004636 -359231.000000 1 0 0
13.975589 -2.301482 -10.491471 17.626255 -0.163214 2.208334 0.042351 -0.008336 -1152070.000000 1 0 0
7.241189 -1.843382 -13.638271 15.551055 -0.249274 2.640378 0.029833 -0.009566 201450.000000 1 0 0
-2.863811 6.577718 -13.764071 15.521515 -1.160166 2.661114 0.010172 -0.004607 1195040.000000 1 0 0
11.415089 1.789918 -13.866871 18.049880 0.155536 2.446904 0.043189 -0.009914 1009710.000000 1 0 0
-2.464611 10.677818 -12.898571 16.925224 -1.343953 2.437334 0.007666 -0.002851 -1199640.000000 1 0 0
2.899289 -1.069982 -15.279871 15.589265 -0.353544 2.942030 0.013542 -0.004991 1129880.000000 1 0 0
-9.104911 0.363518 -15.218371 17.737823 -0.039904 2.602085 0.021026 -0.005440 -1248650.000000 1 0 0
2.304489 -1.889182 -17.982871 18.228091 -0.686688 2.977378 0.025453 -0.014780 1031220.000000 1 0 0
1.018189 7.857818 -13.210671 15.404669 1.441938 2.601334 0.011799 -0.000106 258734.000000 1 0 0
9.346189 -9.074882 -9.916871 16.372204 -0.770671 2.221459 0.029097 -0.006673 51506.900000 1 0 0
3.923789 7.257518 -13.505871 15.826441 1.075159 2.593220 0.010732 -0.000576 2191150.000000 1 0 0
-2.748511 9.050618 -15.461071 18.124919 -1.275965 2.592557 0.012563 -0.000830 -175892.000000 1 0 0
5.435289 -7.702082 -15.250571 17.928869 -0.956261 2.587951 0.033453 -0.012954 -168589.000000 1 0 0
4.228889 7.262218 -16.405371 18.432566 1.043483 2.668188 0.019165 0.001302 954227.000000 1 0 0
-0.228611 5.068218 -13.511771 14.432846 -1.525720 2.782403 0.012015 -0.006529 1949900.000000 1 0 0
8.865989 4.273118 -16.665471 19.354669 0.449118 2.608141 0.045897 -0.009223 -1338750.000000 1 0 0
5.335889 0.299618 -14.358571 15.320902 0.056092 2.785277 0.017418 -0.003749 -606415.000000 1 0 0
6.325889 7.851018 -11.563771 15.341973 0.892564 2.424522 0.008205 -0.002959 946936.000000 1 0 0
2.634389 -8.493882 -14.864671 17.321792 -1.270053 2.602449 0.015467 -0.010622 600790.000000 1 0 0
4.012289 11.481518 -13.769371 18.371698 1.234606 2.418085 0.030287 -0.009526 -1121440.000000 1 0 0
0.566789 -4.596582 -13.766671 14.524842 -1.448109 2.817066 0.000299 -0.004545 1614020.000000 1 0 0
8.490389 -0.050082 -11.626771 14.396910 -0.005899 2.510847 0.016729 -0.004484 331898.000000 1 0 0
-1.065611 -5.056982 -16.230571 17.033497 1.363114 2.833329 0.007837 -0.012173 790009.000000 1 0 0
4.419089 0.854518 -11.745771 12.578620 0.191012 2.775655 0.013705 -0.003309 431098.000000 1 0 0
-2.880511 -7.277982 -15.593371 17.447624 1.193930 2.676376 -0.001321 -0.006372 1427940.000000 1 0 0
11.545989 -3.775182 -11.348471 16.623768 -0.316012 2.322200 0.041169 -0.012671 510594.000000 1 0 0
6.546789 -7.020682 -12.551371 15.801498 -0.820313 2.488676 0.030175 -0.008588 -134817.000000 1 0 0
3.428089 -3.995982 -14.665071 15.581526 -0.861743 2.796911 0.016990 -0.008620 2933320.000000 1 0 0
-0.588011 -1.576982 -18.252971 18.330400 1.213894 3.049646 0.027752 -0.019388 817900.000000 1 0 0
14.917389 2.948418 -8.456771 17.399386 0.195135 2.078347 0.030106 -0.004197 -1651010.000000 1 0 0
7.010789 4.281318 -14.358671 16.542438 0.548232 2.621936 0.021849 -0.001725 2560740.000000 1 0 0
10.128289 -9.680982 -14.080371 19.863547 -0.762821 2.358670 0.056288 -0.013654 -665286.000000 1 0 0
9.103989 -3.214282 -15.493671 18.255631 -0.339401 2.584331 0.049886 -0.020973 -352232.000000 1 0 0
-5.397111 -2.183882 -18.074171 18.988781 0.384499 2.829960 0.010878 -0.002606 -523452.000000 1 0 0
5.058289 -8.958482 -11.002671 15.063182 -1.056785 2.389754 0.007012 -0.000843 274984.000000 1 0 0
-2.464211 3.877818 -17.058671 17.666580 -1.004708 2.878498 0.014421 0.000028 1580380.000000 1 0 0
9.354489 9.466318 -14.430571 19.630563 0.791340 2.396621 0.075094 -0.016934 -1097080.000000 1 0 0
9.755689 10.005718 -11.482271 18.086746 0.798050 2.258604 0.049206 -0.018579 -1189040.000000 1 0 0
12.130889 -5.998782 -9.634771 16.612425 -0.459242 2.189493 0.033396 -0.008756 66472.500000 1 0 0
8.236789 6.891318 -13.748871 17.446100 0.696693 2.478475 0.025656 -0.003671 200765.000000 1 0 0
3.923389 -4.264682 -17.559671 18.491147 -0.827056 2.822836 0.035018 -0.018644 -1216090.000000 1 0 0
9.368789 -7.481882 -12.384571 17.237470 -0.673885 2.372394 0.039742 -0.011550 -730148.000000 1 0 0
12.080189 -8.722582 -8.852971 17.331748 -0.625376 2.106906 0.039245 -0.014250 1330850.000000 1 0 0
-2.924511 -2.535082 -13.807371 14.339557 0.714190 2.868298 0.004517 -0.006246 -1293180.000000 1 0 0
-0.442011 6.043518 -17.501071 18.520447 -1.497788 2.808267 0.023986 -0.005647 -186669.000000 1 0 0
1.054689 -8.483782 -17.347871 19.339999 -1.447113 2.683719 0.018682 -0.019534 -7820.230000 1 0 0
0.056189 8.541418 -15.988771 18.127321 1.564218 2.650941 0.020861 0.000732 1262550.000000 1 0 0
1.776989 3.284318 -15.027071 15.484098 1.074848 2.898026 0.016259 -0.003535 2569840.000000 1 0 0
-1.931311 -0.519782 -15.731171 15.857801 0.262905 3.015133 0.014796 -0.007500 871078.000000 1 0 0
14.170389 -4.314482 -8.322271 16.990435 -0.295554 2.082681 0.036814 -0.008668 805679.000000 1 0 0
0.582289 0.584418 -14.571371 14.594706 0.787222 3.085036 0.009520 -0.005055 2082720.000000 1 0 0
8.926689 2.719518 -12.544271 15.634586 0.295718 2.502004 0.016885 -0.000334 2505370.000000 1 0 0
5.936989 0.874418 -17.130471 18.151184 0.146232 2.804638 0.032706 -0.007608 -1535020.000000 1 0 0
15.396989 1.483118 -12.243771 19.727565 0.096029 2.240359 0.056334 -0.014039 -962241.000000 1 0 0
8.768989 -11.248782 -12.043071 18.667239 -0.908650 2.272009 0.048519 -0.007884 779681.000000 1 0 0
-4.640911 0.678218 -15.024071 15.739146 -0.145112 2.839000 0.013145 -0.008482 1390660.000000 1 0 0
2.309089 5.063418 -17.281771 18.155707 1.142936 2.830058 0.026293 -0.005252 1495620.000000 1 0 0
5.883989 -11.641282 -12.281471 17.915784 -1.102805 2.326102 0.022642 -0.010778 832602.000000 1 0 0
12.831789 7.177718 -8.612771 17.039785 0.510009 2.100701 0.027235 -0.008330 1111070.000000 1 0 0
-5.018611 3.476818 -15.629771 16.779882 -0.605867 2.769198 0.010221 -0.002161 2177780.000000 1 0 0
-0.675911 -4.471282 -19.035071 19.564844 1.420765 2.908351 0.028265 -0.021669 -221513.000000 1 0 0
9.842389 4.395318 -10.180971 14.827124 0.419998 2.327660 0.008830 -0.001108 40256.900000 1 0 0
13.547089 3.630018 -12.797071 18.985933 0.261805 2.310446 0.051457 -0.014999 -613986.000000 1 0 0
-6.380811 5.702518 -17.076771 19.101035 -0.729322 2.677043 0.011682 0.002285 -1306960.000000 1 0 0
-10.072511 3.203618 -15.429571 18.702681 -0.307938 2.540985 0.016296 -0.006258 -915026.000000 1 0 0
10.821089 13.562418 -8.277571 19.223770 0.897354 2.015943 0.079542 -0.018137 -61406.400000 1 0 0
7.443089 13.329218 -12.328471 19.622915 1.061524 2.250123 0.074053 -0.025332 28607.800000 1 0 0
5.314689 15.137618 -11.198171 19.565081 1.233149 2.180171 0.050852 -0.023339 222023.000000 1 0 0
14.237889 9.297718 -10.235371 19.847616 0.578500 2.112618 0.084289 -0.017935 -1976490.000000 1 0 0
8.324089 -17.251682 -2.035271 19.262745 -1.121239 1.676652 0.043286 -0.009772 -2502680.000000 1 0 0
0.650289 -16.018682 0.057329 16.031979 -1.530223 1.567220 0.015878 -0.011172 1753010.000000 1 0 0
-9.208111 -11.665982 7.524729 16.658511 0.902606 1.102121 0.013768 -0.007897 -356933.000000 1 0 0
2.000389 -15.917682 -2.546871 16.243790 -1.445781 1.728236 0.012824 -0.010184 2490530.000000 1 0 0
-1.345911 -11.056782 -9.501371 14.640354 1.449665 2.277046 -0.003442 0.001583 435319.000000 1 0 0
-4.864211 -12.713182 -13.009371 18.828948 1.205369 2.333563 0.002002 -0.003855 1321420.000000 1 0 0
-8.268711 -17.776382 -1.691271 19.678205 1.135414 1.656849 0.030885 -0.016851 -1990360.000000 1 0 0
-11.410311 -6.986482 -8.812971 16.021067 0.549411 2.153264 0.024957 -0.009525 2609520.000000 1 0 0
-13.633411 -11.388682 -4.655871 18.364343 0.695928 1.827122 0.035990 -0.009617 -418562.000000 1 0 0
-5.749311 -13.418582 9.838029 17.603970 1.166000 0.977794 0.008825 -0.009422 -959152.000000 1 0 0
0.113889 -14.041382 -3.692571 14.519245 -1.562686 1.827943 0.005775 -0.002871 -329868.000000 1 0 0
-14.622211 -11.520182 1.966329 18.718710 0.667291 1.465556 0.010189 0.002168 -547334.000000 1 0 0
-4.055111 -16.544782 -7.454671 18.594243 1.330436 1.983309 0.013846 -0.008623 422842.000000 1 0 0
0.445489 -15.320482 -9.169071 17.860221 -1.541726 2.109915 0.006341 0.004911 666885.000000 1 0 0
4.549189 -14.274882 -2.489971 15.187737 -1.262287 1.735486 0.008490 -0.004099 -765565.000000 1 0 0
-3.563711 -18.061182 -2.446671 18.571283 1.375986 1.702925 0.010402 -0.013122 135401.000000 1 0 0
-0.935111 -13.494582 0.714729 13.545812 1.501612 1.518008 0.011107 -0.008679 1593310.000000 1 0 0
-8.461111 -11.415582 -10.538771 17.691003 0.932958 2.208950 0.017525 -0.007705 929868.000000 1 0 0
-3.728711 -14.164882 -0.306971 14.650645 1.313399 1.591751 0.002950 -0.005872 4395260.000000 1 0 0
-1.652511 -15.009082 -7.262371 16.755458 1.461137 2.019095 0.005416 0.000179 -1179990.000000 1 0 0
-14.156211 -7.912982 -1.725071 16.309183 0.509708 1.676768 0.006968 -0.003877 1557290.000000 1 0 0
-10.766111 -7.303082 -11.672471 17.478293 0.596041 2.302081 0.033302 -0.010134 -1617370.000000 1 0 0
-9.487111 -14.665482 6.891429 18.776939 0.996603 1.194998 0.003354 -0.000772 118802.000000 1 0 0
-2.566111 -14.422282 -12.301071 19.128604 1.394712 2.269299 0.008596 -0.000876 -201340.000000 1 0 0
2.340889 -17.772282 -4.687871 18.528624 -1.439834 1.826583 0.023036 -0.015181 15450.800000 1 0 0
-6.598111 -9.677482 -9.306671 14.960042 0.972390 2.242221 0.007010 -0.008156 241947.000000 1 0 0
-10.972211 -15.348482 0.338229 18.870075 0.950158 1.552871 0.029131 -0.010334 221683.000000 1 0 0
-12.637911 -10.990582 4.126229 17.249216 0.715793 1.329242 0.013136 -0.000542 676229.000000 1 0 0
-16.943011 -8.923882 -1.651571 19.220535 0.484779 1.656830 0.009432 -0.004928 -470953.000000 1 0 0
-1.438811 -19.209182 -3.902871 19.654396 1.496034 1.770700 0.020694 -0.010242 -1043490.000000 1 0 0
3.201789 -14.334082 -8.735671 17.088865 -1.351035 2.107366 0.012273 0.000755 1657160.000000 1 0 0
-4.285511 -8.002482 -13.057271 15.902756 1.079136 2.534079 0.001158 -0.000742 601367.000000 1 0 0
5.532289 -16.651182 1.337429 17.597068 -1.250025 1.494720 0.032475 -0.007983 3715640.000000 1 0 0
-2.803011 -13.811382 -3.170271 14.445130 1.370566 1.792067 0.003717 -0.005232 -1961480.000000 1 0 0
-0.398511 -14.024582 3.702329 14.510512 1.542389 1.312795 0.012844 -0.006141 -3091110.000000 1 0 0
1.272289 -16.069982 7.087329 17.609466 -1.491789 1.156580 0.027895 -0.014055 1334700.000000 1 0 0
-5.495111 -10.385182 -14.511671 18.671819 1.084117 2.460994 0.008463 -0.007863 1781540.000000 1 0 0
-0.338811 -17.318682 -5.867071 18.288632 1.551236 1.897375 0.014903 -0.007681 1100550.000000 1 0 0
-6.497511 -13.376882 -1.225571 14.921818 1.118632 1.653022 0.003723 -0.005283 1682780.000000 1 0 0
-1.787511 -17.692582 -0.075271 17.782810 1.470106 1.575029 0.009960 -0.014427 1203250.000000 1 0 0
-9.439611 -9.771282 -4.870171 14.432698 0.802661 1.914992 0.021692 -0.005711 2307930.000000 1 0 0
-0.825711 -16.612882 5.020029 17.374417 1.521134 1.277685 0.028345 -0.012877 2639130.000000 1 0 0
-6.783511 -9.910682 -6.346871 13.583829 0.970573 2.056960 0.016713 -0.006902 3307350.000000 1 0 0
-6.089911 -14.543382 -8.556571 17.939116 1.174239 2.068010 0.009776 -0.013486 -1057190.000000 1 0 0
-5.740511 -12.187982 -10.291271 16.953189 1.130619 2.223127 0.005006 -0.011130 755202.000000 1 0 0
-10.712711 -12.081782 -8.777571 18.378721 0.845388 2.068711 0.039642 -0.021859 -1149200.000000 1 0 0
4.043889 -17.041382 6.841929 18.803557 -1.337808 1.198384 0.044206 -0.012654 1628420.000000 1 0 0
-6.729011 -14.302782 -4.038871 16.314461 1.131052 1.820961 0.014940 -0.013742 -134617.000000 1 0 0
-2.759011 -12.277282 -7.076471 14.436767 1.349744 2.083081 0.000613 -0.002380 3518350.000000 1 0 0
-7.094811 -12.772982 4.484529 15.283862 1.063775 1.272998 0.001368 -0.001884 1433490.000000 1 0 0
2.560089 -16.418582 2.385429 16.787322 -1.416116 1.428217 0.023248 -0.014589 3137720.000000 1 0 0
-6.257311 -12.004482 7.236529 15.350208 1.090295 1.079886 0.003788 -0.004057 1332310.000000 1 0 0
-11.167911 -12.854182 -1.061671 17.061049 0.855480 1.633064 0.027152 -0.002404 2417500.000000 1 0 0
-14.208211 -8.613682 4.678029 17.261307 0.545000 1.296352 0.005218 -0.003861 -1060580.000000 1 0 0
-7.998711 -15.548282 4.511729 18.057801 1.095661 1.318272 0.005764 0.004081 764594.000000 1 0 0
-16.383611 -9.123682 1.122629 18.786287 0.508109 1.511003 0.001506 -0.000866 -1112980.000000 1 0 0
-6.721611 -17.048182 2.405729 18.482643 1.195238 1.440264 0.005298 -0.005533 1420610.000000 1 0 0
-11.691811 -14.857382 -4.773571 19.499416 0.904072 1.818116 0.062526 -0.011199 400226.000000 1 0 0
-10.161311 -10.050382 -12.557271 19.024917 0.779910 2.291673 0.027108 -0.006437 -1839150.000000 1 0 0
-4.390311 -15.968682 -4.451871 17.149134 1.302493 1.833402 0.008180 -0.008188 75376.800000 1 0 0
-11.774911 -8.239182 0.114429 14.371699 0.610540 1.562834 -0.005530 0.000260 -412956.000000 1 0 0
-9.664311 -11.159582 3.523029 15.177184 0.857081 1.336533 0.003764 0.002700 2797000.000000 1 0 0
-14.162411 -13.034382 -0.604871 19.257073 0.743945 1.602212 0.026257 0.005101 731822.000000 1 0 0
5.611689 -14.894382 -7.091871 17.424934 -1.210479 1.989959 0.012330 -0.011105 181494.000000 1 0 0
-7.452711 -10.515482 -1.284771 12.952564 0.954231 1.670150 0.007165 -0.000619 381240.000000 1 0 0
-11.645911 -8.105482 -6.006771 15.408030 0.608032 1.971262 0.022552 -0.010579 626120.000000 1 0 0
-14.438711 -6.630082 -9.190271 18.354711 0.430468 2.095208 0.040510 -0.013850 1280280.000000 1 0 0
-3.961011 -16.461982 1.510629 16.999073 1.334669 1.481814 0.003540 -0.008910 1348830.000000 1 0 0
-7.982911 -15.532482 0.163029 17.464577 1.096052 1.561461 0.021242 -0.010662 588702.000000 1 0 0
0.937489 -18.506382 3.791629 18.914056 -1.520182 1.368963 0.032398 -0.017048 -828308.000000 1 0 0
-14.044211 -8.595182 -4.548571 17.082345 0.549203 1.840321 0.017306 -0.010346 -1100620.000000 1 0 0
-3.322411 -14.470282 11.189429 18.591149 1.345106 0.924957 0.005933 -0.014038 141026.000000 1 0 0
-10.878711 -12.138582 -3.868571 16.752832 0.840079 1.803820 0.033669 -0.011397 1092020.000000 1 0 0
-9.967911 -10.693182 0.501429 14.627195 0.820487 1.536509 0.005513 0.002982 1845370.000000 1 0 0
-0.140411 -13.240482 -11.153871 17.312970 1.560192 2.270838 0.005450 -0.000757 2308230.000000 1 0 0
-5.813711 -12.657082 -6.279071 15.278341 1.140215 1.994324 0.002965 -0.012323 1589620.000000 1 0 0
1.732589 -15.733382 9.950929 18.696582 -1.461116 1.009561 0.029581 -0.017411 153817.000000 1 0 0
-9.053811 -15.563382 -5.390771 18.794967 1.043913 1.861702 0.046956 -0.022255 132126.000000 1 0 0
-3.352911 -15.350182 5.959629 16.804383 1.355746 1.208259 0.009057 -0.009270 -1460750.000000 1 0 0
-17.478911 -5.557282 -6.470271 19.448910 0.307835 1.909941 0.021429 -0.010305 -117919.000000 1 0 0
18.837289 5.489418 -2.994071 19.847963 0.283560 1.722225 0.025506 -0.003853 1319590.000000 1 0 0
12.862789 -12.467982 -5.825671 18.837207 -0.769813 1.885215 0.052238 -0.009894 -1712140.000000 1 0 0
11.017289 -13.469682 -1.593771 17.474356 -0.885216 1.662130 0.044361 -0.010190 2257630.000000 1 0 0
18.646989 -2.758182 4.616229 19.406889 -0.146851 1.330629 0.051110 -0.017988 -878066.000000 1 0 0
8.801489 -16.847882 4.951929 19.642784 -1.089382 1.315947 0.046194 -0.020425 -494889.000000 1 0 0
18.179089 -0.943082 6.808729 19.435213 -0.051831 1.212873 0.080110 -0.019733 -452021.000000 1 0 0
18.080089 -4.290982 -4.937271 19.227033 -0.233021 1.830494 0.088185 -0.024081 600428.000000 1 0 0
5.408989 -11.787682 14.839629 19.708405 -1.140592 0.718249 0.009066 -0.000315 -916361.000000 1 0 0
15.992889 -8.838082 -0.754771 18.288080 -0.504857 1.612079 0.051922 -0.014796 -141191.000000 1 0 0
13.865189 -12.532182 -1.463071 18.746724 -0.734943 1.648920 0.052914 -0.007327 550026.000000 1 0 0
11.266089 -2.096282 13.889129 18.006307 -0.183966 0.689840 0.046896 -0.009745 -1730350.000000 1 0 0
17.063689 -6.097082 -1.367071 18.171758 -0.343175 1.646098 0.068934 -0.016761 -2165270.000000 1 0 0
17.707989 3.733018 -0.981471 18.123785 0.207768 1.624977 0.018040 -0.003350 -973450.000000 1 0 0
9.770889 -11.101382 9.562329 17.611051 -0.849057 0.996823 0.022136 -0.009885 98390.800000 1 0 0
9.091989 -11.091982 4.262329 14.962079 -0.884164 1.281920 0.011706 -0.007328 218290.000000 1 0 0
14.051289 -10.132682 6.780429 18.603339 -0.624761 1.197729 0.039719 -0.012339 445703.000000 1 0 0
16.330489 -0.585782 -4.595171 16.974793 -0.035855 1.844922 0.038682 -0.005960 -360130.000000 1 0 0
15.773989 -0.460882 -1.648271 15.866567 -0.029210 1.674867 0.028059 -0.002329 368049.000000 1 0 0
12.921389 -5.223582 -0.312271 13.940790 -0.384172 1.593198 0.019012 -0.005094 400297.000000 1 0 0
14.383989 -7.455482 1.118129 16.239876 -0.478194 1.501891 0.034542 -0.007065 1026990.000000 1 0 0
15.574489 2.474618 3.586929 16.172647 0.157572 1.347147 0.027285 -0.009100 1837240.000000 1 0 0
15.991589 -7.020582 5.049629 18.180161 -0.413683 1.289340 0.051254 -0.011261 -1732900.000000 1 0 0
13.829389 -12.098882 3.272429 18.663969 -0.718755 1.394551 0.034732 -0.009371 1708110.000000 1 0 0
14.008189 -0.897582 9.160229 16.761409 -0.063988 0.992609 0.051089 -0.016058 323755.000000 1 0 0
14.178889 -2.829982 -1.562171 14.542698 -0.197003 1.678424 0.010796 -0.001857 -336766.000000 1 0 0
15.014589 1.816418 9.228329 17.717204 0.120392 1.022929 0.055257 -0.009582 -1548230.000000 1 0 0
14.405689 -10.057882 -3.032471 17.829211 -0.609509 1.741712 0.061622 -0.018510 1258260.000000 1 0 0
7.484689 -12.630682 6.177529 15.928483 -1.035851 1.172521 0.008625 -0.008150 -341810.000000 1 0 0
12.499289 -4.562682 6.996429 15.033307 -0.350006 1.086715 0.025063 -0.009865 1385660.000000 1 0 0
14.979389 -9.047082 -5.733271 18.414728 -0.543333 1.887401 0.070931 -0.022597 1710870.000000 1 0 0
14.283089 -4.556982 4.648029 15.696398 -0.308839 1.270168 0.023983 -0.008425 31757.300000 1 0 0
17.100889 -4.116382 0.897929 17.612248 -0.236218 1.519791 0.035562 -0.012136 -2467720.000000 1 0 0
10.254689 -14.498982 1.194429 17.799039 -0.955208 1.503639 0.040560 -0.011245 729683.000000 1 0 0
16.496289 -2.418282 8.709729 18.810503 -0.145559 1.089392 0.079591 -0.019937 848965.000000 1 0 0
16.033689 -2.580582 3.296929 16.571311 -0.159579 1.370506 0.019238 -0.006689 1492470.000000 1 0 0
7.730389 -15.195382 2.752229 17.269433 -1.100187 1.410744 0.024000 -0.011533 2699300.000000 1 0 0
16.678889 -6.946182 7.890129 19.715196 -0.394620 1.159055 0.065386 -0.012479 -1569220.000000 1 0 0
10.271689 -8.552182 5.166629 14.329741 -0.694304 1.201936 0.015650 -0.008043 702114.000000 1 0 0
11.023489 -11.870482 2.249729 16.355028 -0.822378 1.432803 0.025526 -0.010210 686145.000000 1 0 0
12.298489 -7.291282 11.982429 18.654604 -0.535153 0.873261 0.044655 -0.024423 32103.300000 1 0 0
15.303389 -9.806182 4.318329 18.681619 -0.569870 1.337533 0.039376 -0.011139 1541190.000000 1 0 0
7.399589 -10.265982 7.868829 14.901771 -0.946255 1.014498 0.005241 -0.004062 468714.000000 1 0 0
15.258989 -3.314782 -4.343071 16.207615 -0.213911 1.842076 0.044126 -0.008573 1501450.000000 1 0 0
11.827889 -9.008482 9.727129 17.767070 -0.650903 0.991446 0.037650 -0.018175 -1902650.000000 1 0 0
17.027589 -6.521082 2.459529 18.398712 -0.365741 1.436716 0.052030 -0.012910 898096.000000 1 0 0
17.591289 4.005018 2.021829 18.154377 0.223855 1.459196 0.025087 -0.000251 -595380.000000 1 0 0
14.823989 -4.942082 8.766629 17.917272 -0.321796 1.059528 0.061341 -0.020589 -882129.000000 1 0 0
12.854089 -12.716982 6.031129 19.061054 -0.780036 1.248852 0.032103 -0.010110 953230.000000 1 0 0
18.170589 0.795418 -0.725471 18.202453 0.043747 1.610663 0.033613 -0.005260 -770332.000000 1 0 0
11.780089 -2.047182 10.965729 16.223707 -0.172065 0.828601 0.029555 -0.008170 1791520.000000 1 0 0
5.821189 -12.486082 10.683929 17.433727 -1.134541 0.911158 0.006958 -0.005663 -1610100.000000 1 0 0
10.751489 -4.939782 10.972629 16.136746 -0.430686 0.823064 0.027875 -0.014658 1159160.000000 1 0 0
17.787689 1.375918 5.195329 18.581886 0.077199 1.287428 0.046323 -0.011040 -974294.000000 1 0 0
12.334489 -7.737582 7.159429 16.225512 -0.560261 1.113811 0.032593 -0.007762 -882119.000000 1 0 0
10.556189 -7.899482 14.277529 19.434063 -0.642430 0.745623 0.051025 -0.023829 -670667.000000 1 0 0
14.115989 -0.244682 3.778929 14.615106 -0.017332 1.309262 0.012137 -0.006366 1639640.000000 1 0 0
11.728189 -7.726582 2.583629 14.280254 -0.582540 1.388871 0.018751 -0.003950 3524640.000000 1 0 0
9.306889 6.124418 3.455129 11.664673 0.582015 1.270080 0.004220 -0.001357 3152510.000000 1 0 0
-3.954811 14.842318 -9.946271 18.299268 -1.310391 2.145438 -0.000419 0.000345 1645630.000000 1 0 0
8.870989 -6.469282 9.234929 14.346776 -0.630097 0.871481 0.007362 -0.008131 -1349910.000000 1 0 0
5.872689 -10.606582 -8.511471 14.813278 -1.065130 2.182892 0.005308 -0.002719 -223596.000000 1 0 0
5.445189 1.102418 0.551929 5.583013 0.199757 1.471776 -0.002392 0.000307 3769690.000000 1 0 0
-0.492811 9.901618 10.828529 14.681347 -1.521067 0.741331 -0.004794 -0.002810 -539618.000000 1 0 0
-6.373311 -5.101082 1.028429 8.227867 0.674974 1.445475 0.005237 -0.002100 2018760.000000 1 0 0
-1.046011 3.938618 -10.847271 11.587499 -1.311210 2.782222 0.009352 -0.007922 2034150.000000 1 0 0
10.986489 5.725718 1.274929 12.454406 0.480432 1.468249 0.008156 -0.002265 2051510.000000 1 0 0
-10.234411 -1.782282 -13.582571 17.099881 0.172417 2.488664 0.022652 -0.005971 1131410.000000 1 0 0
7.345089 10.808218 -6.096371 14.419904 0.973904 2.007301 0.008409 -0.003591 200980.000000 1 0 0
-12.457211 -2.899382 -9.592771 15.987800 0.228676 2.214304 0.026020 -0.003179 -721347.000000 1 0 0
-3.933311 -8.598182 2.509729 9.782557 1.141757 1.311344 0.008512 -0.001119 -959067.000000 1 0 0
8.034189 -6.696282 -5.960671 12.038189 -0.694821 2.088800 0.005366 -0.005175 2513440.000000 1 0 0
14.352889 3.126218 -4.188071 15.274770 0.214461 1.848536 0.022118 -0.002826 1762300.000000 1 0 0
-2.443811 -4.911682 9.799929 11.231004 1.109110 0.510341 -0.000515 -0.003436 986363.000000 1 0 0
3.488989 -1.931182 -4.618371 6.101791 -0.505532 2.429334 0.000693 -0.001819 -2310130.000000 1 0 0
-3.960611 8.392918 -3.520871 9.925927 -1.129881 1.933405 -0.003803 -0.001847 449840.000000 1 0 0
5.736089 0.021518 11.705829 13.035706 0.003751 0.455634 0.005619 -0.003475 1081910.000000 1 0 0
7.144289 4.635118 12.358329 15.008447 0.575522 0.603376 0.008804 -0.001394 -182210.000000 1 0 0
1.193389 -14.487482 12.469029 19.151711 -1.488608 0.861808 0.007637 -0.010931 374941.000000 1 0 0
3.027389 8.700518 -9.091071 12.942629 1.235944 2.349578 0.008633 -0.000421 362299.000000 1 0 0
-4.370111 -8.893182 -4.606271 10.927227 1.114052 2.005940 0.006190 -0.000699 458862.000000 1 0 0
5.701789 -6.647582 -4.108071 9.673520 -0.861835 2.009396 -0.000199 -0.003857 1284240.000000 1 0 0
-3.082811 3.412818 8.601229 9.753573 -0.836159 0.491016 -0.000294 -0.004691 1464880.000000 1 0 0
-3.784811 3.142118 -11.124971 12.163991 -0.692881 2.725270 0.004414 -0.010691 -101516.000000 1 0 0
3.130589 -6.172482 8.567029 11.013361 -1.101417 0.679518 -0.002411 -0.001446 -603422.000000 1 0 0
-5.048911 -8.695982 10.501329 14.539241 1.044762 0.763710 0.001021 -0.003964 1739230.000000 1 0 0
-13.239911 -2.377982 6.518729 14.948039 0.177712 1.119544 0.008769 -0.002907 590429.000000 1 0 0
3.896589 -5.933382 -8.383771 10.985265 -0.989709 2.439022 0.003650 -0.003082 3682750.000000 1 0 0
2.917089 -0.568782 12.313229 12.666828 -0.192567 0.236838 -0.003122 -0.002354 1223500.000000 1 0 0
1.408289 -1.445082 -7.550671 7.815636 -0.798292 2.880459 0.002013 -0.003900 91531.100000 1 0 0
3.641789 -3.572382 3.400529 6.130917 -0.775778 0.982851 -0.001762 0.001074 2742390.000000 1 0 0
1.506989 0.335918 -11.790271 11.890935 0.219321 3.011380 0.007864 -0.007946 -38549.000000 1 0 0
3.956889 3.466518 -10.683571 11.908501 0.719436 2.684044 0.007414 0.001672 -198709.000000 1 0 0
2.836589 3.218318 3.302529 5.413918 0.848359 0.914727 -0.008280 0.000841 295416.000000 1 0 0
-5.367111 0.884918 2.612129 6.034250 -0.163408 1.123107 0.002672 -0.004328 155276.000000 1 0 0
-9.498111 -9.198882 5.669929 14.386857 0.769395 1.165703 0.005265 -0.001234 -2044040.000000 1 0 0
-3.048011 3.922918 -0.511671 4.994142 -0.910253 1.673431 -0.002944 -0.003084 941814.000000 1 0 0
-15.740011 -6.392982 5.048729 17.723088 0.385806 1.281928 0.010818 -0.007523 -95635.700000 1 0 0
1.015589 6.636618 -8.110571 10.528887 1.418946 2.450133 0.004447 -0.001353 1840210.000000 1 0 0
-1.635211 6.482218 -9.510971 11.625473 -1.323691 2.528921 0.003169 -0.002373 568765.000000 1 0 0
2.128889 -0.378782 5.197929 5.629753 -0.176082 0.394221 -0.003985 0.001089 3143720.000000 1 0 0
-3.433211 -0.457382 -6.312771 7.200500 0.132443 2.639781 0.003974 -0.007502 40785.400000 1 0 0
1.944289 -1.163682 -2.425071 3.318943 -0.539325 2.390107 0.000088 -0.001292 472159.000000 1 0 0
2.410389 -8.586082 -7.707671 11.787238 -1.297109 2.283524 -0.001207 0.002346 778425.000000 1 0 0
-2.582111 14.103418 -5.581871 15.386064 -1.389718 1.942054 -0.001546 0.002536 2375990.000000 1 0 0
6.868989 -5.187482 -8.253571 11.925369 -0.646823 2.335193 0.011855 -0.005226 2866780.000000 1 0 0
-14.188411 -5.025282 -2.125171 15.201342 0.340396 1.711057 -0.000701 -0.003681 -75754.900000 1 0 0
-2.751011 6.967718 -6.934171 10.207834 -1.194761 2.317603 -0.001171 -0.003246 -2156670.000000 1 0 0
-5.653211 -1.008182 -8.087671 9.918954 0.176483 2.524174 0.013260 -0.009338 -381872.000000 1 0 0
-5.790811 -10.555682 3.470729 12.530039 1.069031 1.290133 -0.000271 0.000490 -2230480.000000 1 0 0
8.136189 -7.617982 6.698529 13.003904 -0.752517 1.029652 0.008525 -0.005811 -70298.200000 1 0 0
8.825189 -5.895382 13.124929 16.879078 -0.588937 0.679979 0.029886 -0.013860 -360716.000000 1 0 0
-4.724511 9.490718 -0.824871 10.633679 -1.108908 1.648446 -0.003455 0.001287 812884.000000 1 0 0
2.800589 6.545718 11.993729 13.947733 1.166514 0.535712 -0.003497 0.000299 1270370.000000 1 0 0
5.995889 -2.868482 10.916729 12.780996 -0.446225 0.546906 0.002283 -0.003093 -818490.000000 1 0 0
-9.682011 -6.454982 -1.097171 11.688110 0.588025 1.664805 0.005437 -0.002510 -20035.600000 1 0 0
0.845789 -13.334682 6.300729 14.772552 -1.507453 1.130159 0.012979 -0.008871 442178.000000 1 0 0
-0.534711 -3.178882 8.614029 9.197430 1.404149 0.358086 -0.004297 -0.003307 995875.000000 1 0 0
4.209089 0.711518 3.364129 5.435077 0.167460 0.903370 -0.007738 0.003436 -111073.000000 1 0 0
-10.147311 5.561218 8.322129 14.253171 -0.501344 0.947298 0.002091 -0.012239 369476.000000 1 0 0
9.326189 7.980518 -0.040571 12.274694 0.707800 1.574102 0.006165 -0.002954 823654.000000 1 0 0
4.336889 2.851718 8.206929 9.710540 0.581664 0.563938 -0.008261 0.000511 2146560.000000 1 0 0
1.304289 2.580318 -9.695471 10.117379 1.102777 2.851784 0.008480 -0.006148 1963780.000000 1 0 0
-1.412811 -10.122782 2.996629 10.651129 1.432125 1.285602 0.010362 -0.005361 -1065540.000000 1 0 0
-9.952911 9.555818 9.019229 16.483949 -0.765046 0.991838 0.012149 -0.015334 1114160.000000 1 0 0
9.792089 -2.007382 -7.648571 12.586311 -0.202199 2.223945 0.020570 -0.002973 1116550.000000 1 0 0
-5.145911 -1.816682 6.720529 8.657150 0.339375 0.682025 0.004876 -0.006626 996630.000000 1 0 0
3.084489 -7.877982 -4.889471 9.771571 -1.197610 2.094831 -0.003070 -0.003103 690573.000000 1 0 0
-5.128611 4.833818 -13.056471 14.837111 -0.755816 2.646632 0.002480 -0.011298 1537080.000000 1 0 0
-5.641911 9.584018 5.457529 12.388268 -1.038743 1.114596 0.001974 -0.005104 976090.000000 1 0 0
-0.575711 -1.787282 -9.316571 9.503910 1.259176 2.942711 0.004115 -0.005547 -557808.000000 1 0 0
-16.780011 0.344218 6.407229 17.964961 -0.020511 1.206115 0.032648 -0.013552 -435987.000000 1 0 0
-5.985711 -2.825282 4.124929 7.799102 0.441001 1.013495 0.000123 -0.003763 3152170.000000 1 0 0
0.960889 -5.705182 -5.106171 7.716566 -1.403938 2.293901 -0.002091 -0.002204 1818290.000000 1 0 0
-7.062611 1.449818 -8.420771 11.085658 -0.202468 2.433509 0.006446 -0.008556 578990.000000 1 0 0
7.936889 2.004918 4.734329 9.456626 0.247431 1.046463 -0.003673 0.000080 1904410.000000 1 0 0
0.488289 -8.064482 -0.539571 8.097249 -1.510322 1.637482 0.002567 -0.000640 1433040.000000 1 0 0
5.350289 5.492318 -3.329371 8.359178 0.798497 1.980447 -0.000751 -0.002442 -612708.000000 1 0 0
-0.746111 -0.337582 -1.305671 1.541239 0.424895 2.581407 0.001094 -0.001762 1614370.000000 1 0 0
9.017989 6.377718 -6.320571 12.725919 0.615556 2.090553 0.008255 -0.005797 1872500.000000 1 0 0
-14.938411 -7.024482 2.489229 16.694183 0.439549 1.421131 -0.009010 -0.003003 100419.000000 1 0 0
-6.255711 6.834918 8.882529 12.835472 -0.829615 0.806499 0.005617 -0.007146 -242492.000000 1 0 0
-9.457711 -3.126882 -9.494471 13.761201 0.319304 2.332209 0.015153 -0.005831 1909660.000000 1 0 0
14.860489 3.487918 -1.246171 15.315112 0.230538 1.652255 0.011495 -0.002791 -22854.700000 1 0 0
12.100789 1.640418 -5.704971 13.478381 0.134741 2.007846 0.016751 0.000083 -235501.000000 1 0 0
1.729489 -9.435882 12.709829 15.923780 -1.389520 0.646551 -0.003575 -0.004596 -708451.000000 1 0 0
-3.562911 6.279418 7.831429 10.651606 -1.054696 0.744784 0.001047 -0.004036 395627.000000 1 0 0
-4.090011 13.154418 -12.399071 18.533857 -1.269349 2.303653 0.004559 0.000186 750497.000000 1 0 0
-10.252111 7.766818 6.510729 14.415923 -0.648336 1.102200 0.004569 -0.013430 1053530.000000 1 0 0
8.022689 -9.380082 -7.124171 14.251431 -0.863239 2.094270 0.008719 -0.004870 953012.000000 1 0 0
5.802989 -3.792782 -0.422471 6.945384 -0.578896 1.631661 0.000925 -0.000757 -1613880.000000 1 0 0
-1.600011 -4.487382 4.195329 6.348025 1.228291 0.848796 0.003356 -0.003035 2104860.000000 1 0 0
9.892889 -2.049582 -2.580471 10.427314 -0.204287 1.820867 0.006516 -0.000929 -1965900.000000 1 0 0
13.633289 7.018918 1.355229 15.393779 0.475446 1.482645 0.011112 -0.001553 -399865.000000 1 0 0
5.457589 -3.703782 -3.305171 7.377495 -0.596252 2.035331 0.002024 -0.002029 -1937530.000000 1 0 0
-12.186511 -5.909782 1.943129 13.682555 0.451531 1.428299 -0.007984 0.000585 343895.000000 1 0 0
3.774889 -5.824382 -0.340271 6.949029 -0.995745 1.619783 0.000830 0.000924 -1313530.000000 1 0 0
-5.248211 3.772118 -8.677071 10.819618 -0.623195 2.501392 0.002780 -0.009325 369108.000000 1 0 0
-1.784811 -9.209882 7.208329 11.830786 1.379376 0.915637 0.001468 -0.004251 1841170.000000 1 0 0
-7.457511 -7.289082 2.630529 10.754761 0.773977 1.323697 0.005353 -0.002243 -3552700.000000 1 0 0
-5.756111 13.184118 -8.528071 16.723688 -1.159146 2.105911 -0.006024 -0.003269 1292680.000000 1 0 0
9.170389 -13.940882 -4.106271 17.184461 -0.988953 1.812083 0.033561 -0.003999 639004.000000 1 0 0
-6.455511 -5.114182 -6.696171 10.614480 0.669979 2.253448 0.011887 -0.004007 1084930.000000 1 0 0
3.387989 0.331218 -6.238471 7.106806 0.097453 2.642081 0.002501 -0.005572 1166140.000000 1 0 0
-3.625411 5.813218 4.948429 8.451275 -1.013169 0.945269 0.001374 -0.002859 212648.000000 1 0 0
-2.657611 -10.798282 -2.818971 11.472244 1.329478 1.819060 0.006549 0.000495 1969700.000000 1 0 0
-12.520511 -0.431482 1.712829 12.644491 0.034448 1.434918 0.001648 -0.002756 1033090.000000 1 0 0
8.353189 -12.055782 -6.040071 15.861908 -0.964866 1.961448 0.021865 -0.008808 -1464140.000000 1 0 0
6.078889 3.958818 0.999829 7.322895 0.577247 1.433834 -0.001780 -0.000883 -1391380.000000 1 0 0
3.350789 -4.851182 -10.998071 12.478755 -0.966328 2.649495 0.006659 -0.004496 666285.000000 1 0 0
-7.551611 4.299918 8.603329 12.228385 -0.517619 0.790410 0.004143 -0.006745 2806200.000000 1 0 0
8.204789 8.795518 4.046429 12.690677 0.820132 1.246280 0.008400 0.000884 861599.000000 1 0 0
0.208189 10.582418 -6.255271 12.294686 1.551126 2.104562 -0.000098 0.001800 1193240.000000 1 0 0
5.429689 8.101518 3.266829 10.285343 0.980347 1.247578 0.002341 0.000126 3511620.000000 1 0 0
7.948589 6.700118 -3.751471 11.051931 0.700376 1.917118 0.003690 -0.005011 315653.000000 1 0 0
10.568489 2.523218 -8.150571 13.582761 0.234362 2.214382 0.010267 -0.002417 1458710.000000 1 0 0
3.402389 -12.613382 -0.146371 13.065033 -1.307323 1.582000 0.002524 -0.005550 -1300640.000000 1 0 0
0.637789 2.051218 5.200029 5.626240 1.269341 0.391740 -0.003964 -0.001094 669806.000000 1 0 0
-4.878411 13.349418 1.455329 14.287191 -1.220433 1.468757 -0.000028 0.002900 1031220.000000 1 0 0
8.215789 4.021318 -7.998071 12.150692 0.455182 2.289275 0.006845 0.000300 1062240.000000 1 0 0
-13.870611 -0.593382 -3.576871 14.336664 0.042754 1.822951 0.007903 -0.006626 1233480.000000 1 0 0
-8.573011 0.119418 -0.426271 8.584432 -0.013929 1.620473 0.001646 -0.001406 -419247.000000 1 0 0
1.781289 -3.837882 -1.124271 4.377935 -1.136251 1.830510 0.002047 -0.000823 -1921780.000000 1 0 0
8.007389 -5.638982 -0.345471 9.799783 -0.613554 1.606057 0.004239 -0.001751 793312.000000 1 0 0
-2.256711 -1.120982 7.420129 7.836304 0.461030 0.327370 0.000784 -0.003856 1127160.000000 1 0 0
-5.898311 8.819018 -11.777071 15.851326 -0.981306 2.408294 -0.004729 -0.002670 -758723.000000 1 0 0
-6.288911 9.218618 -8.912771 14.281834 -0.972119 2.244729 -0.001986 -0.000600 -807698.000000 1 0 0
-1.626511 13.930718 -8.354371 16.325010 -1.454565 2.108020 0.007256 -0.004654 -1044230.000000 1 0 0
-1.473911 7.196418 9.624929 12.107853 -1.368778 0.651900 -0.002339 -0.004992 1039030.000000 1 0 0
9.991289 2.316318 -4.043371 11.024520 0.227809 1.946322 0.007288 -0.003957 -2389780.000000 1 0 0
-2.952211 -7.541082 -6.966271 10.682340 1.197653 2.281187 0.002586 -0.000571 64946.600000 1 0 0
-5.520211 -4.949782 -1.624671 7.590298 0.730970 1.786511 0.008684 -0.000866 358331.000000 1 0 0
5.708189 7.311118 -8.771171 12.765943 0.907901 2.328253 0.005122 0.001853 688488.000000 1 0 0
-9.506011 5.266018 -7.473071 13.188706 -0.505884 2.173202 0.002422 -0.003010 -101386.000000 1 0 0
-0.458511 6.149718 -5.405771 8.200708 -1.496376 2.290529 -0.001457 -0.002463 -118074.000000 1 0 0
-8.182211 2.861418 -6.269871 10.698017 -0.336418 2.197006 0.007885 -0.004917 668256.000000 1 0 0
3.729889 1.410118 -2.013371 4.467009 0.361450 2.038368 -0.004931 -0.002642 2678390.000000 1 0 0
-6.727911 12.491618 -3.513971 14.616883 -1.076752 1.813579 0.008415 0.002370 2401310.000000 1 0 0
-6.480511 3.207018 -2.368671 7.608717 -0.459536 1.887368 0.001317 -0.003392 593575.000000 1 0 0
12.053189 4.058918 -0.843271 12.746187 0.324823 1.637003 0.008993 -0.004517 1127950.000000 1 0 0
2.285389 12.356718 -5.552471 13.738319 1.387912 1.986856 0.008986 -0.003719 343173.000000 1 0 0
-9.153211 -1.449582 -4.279871 10.207833 0.157064 2.003441 0.010378 -0.003629 -878639.000000 1 0 0
-1.164211 5.777318 3.469729 6.838992 -1.371945 1.038695 -0.003068 -0.000085 325803.000000 1 0 0
11.523489 2.559818 12.127329 16.923817 0.218590 0.771905 0.039211 0.002003 -391133.000000 1 0 0
-7.012611 -2.304282 -5.792871 9.383165 0.317477 2.236190 0.012105 -0.004719 1127080.000000 1 0 0
7.517389 -7.398282 10.871129 15.146854 -0.777413 0.770281 0.012970 -0.005785 -1216440.000000 1 0 0
-5.543811 -1.910382 -10.925071 12.399216 0.331854 2.649000 0.010404 -0.004454 -444067.000000 1 0 0
0.855589 -6.248882 4.471629 7.731496 -1.434724 0.954073 0.000789 -0.002072 2083660.000000 1 0 0
-4.859811 -9.326982 7.367729 12.841098 1.090452 0.959705 -0.000809 -0.003750 1743250.000000 1 0 0
-8.733311 9.373818 1.626429 12.914505 -0.820757 1.444523 0.003203 -0.006847 956090.000000 1 0 0
-8.188511 7.228518 -9.141171 14.243039 -0.723210 2.267638 -0.001510 -0.002798 157517.000000 1 0 0
-1.290511 -10.599582 -0.117171 10.678497 1.449642 1.581769 0.008138 -0.002578 -1826690.000000 1 0 0
-3.939611 10.226118 7.720429 13.405187 -1.203070 0.957057 0.004227 -0.006586 1745860.000000 1 0 0
-7.505911 12.111718 2.005429 14.389376 -1.016001 1.430972 -0.002841 -0.003319 2106640.000000 1 0 0
-8.110711 -8.255482 -2.880771 11.926251 0.794244 1.814758 0.015878 -0.004634 -750901.000000 1 0 0
5.367989 4.494718 -8.125871 10.726023 0.697086 2.430401 0.003123 0.000880 2072330.000000 1 0 0
-8.982911 -0.108782 -10.110871 13.525318 0.012109 2.415164 0.013401 -0.009591 -1715830.000000 1 0 0
-15.214111 -2.238982 -1.592271 15.460192 0.146116 1.673971 -0.001524 -0.005922 -740489.000000 1 0 0
-7.171411 -5.707582 8.761229 12.679305 0.672224 0.807943 0.004446 -0.003819 -1218050.000000 1 0 0
8.087589 3.440518 -0.944971 8.839640 0.402215 1.677902 0.003150 -0.001639 891708.000000 1 0 0
11.813289 7.137718 -5.813771 14.976673 0.543510 1.969461 0.006271 -0.007030 1332700.000000 1 0 0
3.770289 13.339818 -9.570771 16.845340 1.295347 2.175059 0.015524 -0.007483 1851740.000000 1 0 0
-9.629711 5.481818 -0.492871 11.091644 -0.517510 1.615247 0.003711 -0.004236 2008170.000000 1 0 0
11.221389 -1.294782 -5.159071 12.418214 -0.114877 1.999227 0.019802 -0.003998 43309.700000 1 0 0
10.540389 1.731218 -1.172071 10.745728 0.162793 1.680087 0.007693 -0.003010 -635664.000000 1 0 0
14.599289 5.037718 4.674429 16.135927 0.332272 1.276893 0.019243 -0.010594 1698830.000000 1 0 0
0.897189 -0.844982 10.250329 10.324156 -0.755441 0.119661 -0.004056 -0.003116 1758350.000000 1 0 0
-8.002711 1.295818 -12.530371 14.924232 -0.160529 2.567341 0.009673 -0.009325 -434979.000000 1 0 0
3.063689 -11.578382 -7.884271 14.338998 -1.312120 2.152979 -0.003238 0.001662 1584180.000000 1 0 0
2.919689 4.955218 -6.762671 8.877639 1.038345 2.436829 -0.001166 0.000872 -2244230.000000 1 0 0
6.488489 8.016818 0.578629 10.329795 0.890374 1.514751 0.006550 -0.003454 -671942.000000 1 0 0
-9.110311 -5.293482 6.767129 12.522490 0.526364 0.999886 0.000881 -0.001151 -1784880.000000 1 0 0
-0.320111 -6.939082 -11.795771 13.689176 1.524697 2.609379 -0.002954 0.000040 905654.000000 1 0 0
6.407389 -13.440982 -4.586171 15.580360 -1.125957 1.869578 0.009710 -0.007125 2538070.000000 1 0 0
-3.208711 -0.322282 10.044329 10.549324 0.100104 0.310666 0.000173 -0.003595 -977557.000000 1 0 0
8.692289 8.437418 6.917029 13.949595 0.770520 1.051973 0.004681 0.000581 -1204820.000000 1 0 0
-7.881211 5.680418 -2.685271 10.079251 -0.624520 1.840469 0.002962 -0.005131 1641330.000000 1 0 0
-5.357511 5.914218 -6.490571 10.286321 -0.834748 2.253626 0.000357 -0.004303 -1395700.000000 1 0 0
3.415189 -13.712082 2.738929 14.393973 -1.326699 1.379346 0.017828 -0.009103 -2482690.000000 1 0 0
-11.297311 -6.904282 6.535429 14.765168 0.548573 1.112273 0.006197 -0.005117 -1222310.000000 1 0 0
-12.991811 -3.648682 -6.747271 15.087269 0.273792 2.034447 0.019730 -0.008755 310523.000000 1 0 0
6.023289 0.327418 -7.318471 9.484051 0.054305 2.452245 0.004979 -0.000923 711596.000000 1 0 0
-1.476311 2.240918 -2.491571 3.661848 -0.988261 2.319123 -0.001536 -0.004814 2379900.000000 1 0 0
7.480289 1.024518 -5.000971 9.056162 0.136115 2.155818 0.004085 -0.000725 551961.000000 1 0 0
3.662589 -4.570182 10.887429 12.362736 -0.895196 0.493532 -0.002396 -0.000982 212138.000000 1 0 0
5.963189 -2.552382 2.023229 6.794685 -0.404428 1.268444 -0.000958 0.000267 -1708430.000000 1 0 0
-6.287311 7.712018 1.067929 10.007296 -0.886819 1.463878 -0.000650 -0.002026 619128.000000 1 0 0
6.008389 -3.467682 7.952829 10.553343 -0.523441 0.717299 0.003285 -0.003742 110578.000000 1 0 0
6.747189 -2.304682 -7.880071 10.626930 -0.329151 2.406128 0.011618 -0.005261 2132390.000000 1 0 0
12.063289 -8.192982 -5.813571 15.698583 -0.596607 1.950155 0.032466 -0.014566 -340127.000000 1 0 0
5.574189 -9.684882 9.985529 14.985971 -1.048545 0.841527 0.000548 -0.003549 3103070.000000 1 0 0
-6.571811 7.576218 -4.495871 10.990934 -0.856272 1.992212 -0.001939 -0.001339 -234523.000000 1 0 0
-1.281511 -7.536582 9.719529 12.365743 1.402369 0.666477 -0.000116 -0.005059 -2905670.000000 1 0 0
10.039489 -9.247382 0.812929 13.673561 -0.744351 1.511309 0.013437 -0.004651 1787380.000000 1 0 0
11.138789 6.010018 9.777629 15.993592 0.494791 0.913035 0.007725 -0.002153 1880130.000000 1 0 0
-15.331611 -4.173282 -4.891571 16.625343 0.265762 1.869440 0.006022 -0.008396 1148740.000000 1 0 0
-4.663111 -4.600382 7.850629 10.224505 0.778627 0.695357 0.004582 -0.006397 -159816.000000 1 0 0
2.896589 10.893118 -11.082771 15.807531 1.310900 2.347745 0.006789 -0.000820 982826.000000 1 0 0
9.857189 -1.413382 1.568029 10.080702 -0.142415 1.414615 0.004291 0.000231 -274653.000000 1 0 0
-1.604311 -2.664482 0.588229 3.165327 1.028827 1.383874 0.002474 -0.001501 611968.000000 1 0 0
1.533989 2.960818 0.842529 3.439392 1.092777 1.323313 -0.004885 -0.000754 -733457.000000 1 0 0
-8.989911 -2.280782 4.325029 10.233589 0.248462 1.134450 -0.000016 -0.003413 3282090.000000 1 0 0
9.876489 4.897318 -2.733971 11.357964 0.460327 1.813893 0.005276 -0.004449 1037440.000000 1 0 0
2.599089 8.476218 2.465629 9.202220 1.273265 1.299544 -0.000155 -0.000756 1850880.000000 1 0 0
-8.136411 -0.011482 2.439929 8.494384 0.001411 1.279452 0.000945 -0.004001 2245860.000000 1 0 0
6.839489 1.972018 13.687129 15.427410 0.280715 0.479565 0.014750 -0.003627 -307695.000000 1 0 0
6.784089 4.438018 3.732729 8.924861 0.579308 1.139290 -0.003129 0.000117 120862.000000 1 0 0
-0.233111 3.339718 7.743229 8.435974 -1.501110 0.408086 -0.006572 -0.003285 499120.000000 1 0 0
2.661489 -10.309682 9.212829 14.080103 -1.318158 0.857519 0.004420 -0.008445 1885080.000000 1 0 0
1.364789 -4.607182 6.903729 8.411317 -1.282801 0.608044 -0.004082 -0.001789 241780.000000 1 0 0
-0.231911 10.843118 -2.040471 11.035873 -1.549412 1.756761 0.000525 -0.001277 2633880.000000 1 0 0
8.782489 5.465018 7.955429 13.049421 0.556629 0.915192 -0.001918 0.002904 338030.000000 1 0 0
2.670089 11.428618 -2.902571 12.089979 1.341281 1.813245 0.006348 -0.002953 2909880.000000 1 0 0
1.483189 2.352518 -6.628671 7.188426 1.008274 2.744350 -0.000119 -0.004023 320859.000000 1 0 0
-13.655011 -2.171882 3.590529 14.285247 0.157733 1.316726 -0.000966 -0.002334 463549.000000 1 0 0
-0.903611 -10.603682 -5.254571 11.868661 1.485785 2.029433 0.001103 0.000703 2234180.000000 1 0 0
-5.684611 2.906018 0.483829 6.402642 -0.472574 1.495157 0.002844 -0.002792 1055450.000000 1 0 0
3.698389 7.211718 -4.990971 9.518232 1.096937 2.122758 0.000381 -0.001804 -2033410.000000 1 0 0
2.879689 9.734918 -6.445571 12.025249 1.283188 2.136492 0.005700 -0.000776 1059790.000000 1 0 0
-12.235311 1.710218 -2.597871 12.624445 -0.138877 1.778058 0.008413 -0.005754 1283990.000000 1 0 0
-2.479211 9.615518 -5.775571 11.487466 -1.318458 2.097598 -0.003809 -0.000282 1008270.000000 1 0 0
-1.351711 3.304618 1.767529 3.983940 -1.182524 1.111114 -0.003225 -0.001825 -224038.000000 1 0 0
12.911489 3.694118 9.737029 16.588032 0.278666 0.943459 0.037217 -0.005443 1215730.000000 1 0 0
-2.482911 -9.563082 11.656629 15.280524 1.316770 0.703099 -0.002965 -0.009424 311663.000000 1 0 0
-0.440711 -8.951382 -7.547771 11.717095 1.521602 2.270731 -0.000966 0.000782 1237950.000000 1 0 0
2.318989 7.607318 -0.463171 7.966399 1.274908 1.628970 -0.002327 -0.001194 987759.000000 1 0 0
-11.752011 -1.240682 -5.622971 13.086896 0.105182 2.014917 0.015456 -0.003311 -35853.400000 1 0 0
-6.235911 -7.238582 -11.020371 14.585343 0.859674 2.427333 0.005626 0.000465 1024980.000000 1 0 0
-4.658111 -2.219082 -1.410371 5.348969 0.444583 1.837623 0.004322 -0.001778 -1623510.000000 1 0 0
-10.536411 3.764818 4.568229 12.085467 -0.343177 1.183168 0.004177 -0.010640 2551820.000000 1 0 0
6.700289 9.334218 -3.629071 12.049550 0.948210 1.876725 0.003757 -0.001458 954698.000000 1 0 0
1.180089 -2.766082 -11.456371 11.844503 -1.167547 2.884885 0.004306 -0.007536 -940284.000000 1 0 0
1.333089 8.736318 7.443129 11.554244 1.419373 0.870832 -0.003552 0.001700 -170349.000000 1 0 0
10.326489 0.343118 10.511029 14.738923 0.033215 0.776818 0.015502 -0.002803 1477400.000000 1 0 0
-5.183211 -0.824382 -3.899671 6.538556 0.157727 2.209819 0.006952 -0.003767 460476.000000 1 0 0
11.752589 5.655518 5.395429 14.114492 0.448507 1.178554 0.003816 0.001515 2193210.000000 1 0 0
9.933989 -3.482482 3.695829 11.156656 -0.337176 1.233151 0.015349 -0.004444 174153.000000 1 0 0
7.306289 -1.639882 -3.468171 8.252229 -0.220789 2.004540 0.002250 -0.000965 -2601660.000000 1 0 0
2.405889 9.180418 10.339929 14.035046 1.314493 0.742586 -0.003235 -0.000704 1834240.000000 1 0 0
2.376089 -10.849082 6.333529 12.785225 -1.355188 1.052525 0.005887 -0.004926 1668300.000000 1 0 0
5.914989 -7.622282 -1.272271 9.731647 -0.910854 1.701907 0.000335 -0.002924 591428.000000 1 0 0
-0.242111 -5.591482 -2.283071 6.044477 1.527523 1.958120 0.000782 0.000994 1468770.000000 1 0 0
7.705789 -5.069482 2.641729 9.594664 -0.581895 1.291860 0.003934 -0.002021 1423700.000000 1 0 0
-2.705011 -12.418182 4.645229 13.531685 1.356320 1.220384 0.007598 -0.005035 -428568.000000 1 0 0
4.861289 -10.382682 -1.165671 11.523498 -1.132902 1.672126 0.001083 -0.006257 945469.000000 1 0 0
0.882589 0.169218 1.086129 1.409708 0.189430 0.691227 -0.003365 0.000712 -3051870.000000 1 0 0
-1.568111 8.529718 2.395429 8.997396 -1.388986 1.301311 -0.003492 0.000385 548501.000000 1 0 0
-7.538011 0.679518 -3.069671 8.167388 -0.089902 1.956105 0.002806 -0.002378 855505.000000 1 0 0
4.531189 -6.363982 12.917429 15.096090 -0.952058 0.543932 0.006341 -0.006357 401492.000000 1 0 0
-5.151511 12.970118 8.376829 16.276771 -1.192721 1.030198 0.006572 -0.010798 2452710.000000 1 0 0
0.696689 6.095818 8.123629 10.180261 1.457000 0.646863 -0.005862 0.000341 674576.000000 1 0 0
7.990389 -0.543182 -0.756271 8.044459 -0.067875 1.664947 0.002526 -0.000594 3499630.000000 1 0 0
2.421889 -9.345982 -2.377771 9.943175 -1.317237 1.812272 -0.002358 -0.000726 -585658.000000 1 0 0
-7.176511 12.120118 4.892029 14.910785 -1.036194 1.236519 0.001585 -0.006523 -378915.000000 1 0 0
-14.945711 0.235218 0.200429 14.948905 -0.015737 1.557388 0.005914 -0.006025 -31175.900000 1 0 0
6.793189 -0.507782 3.903229 7.851144 -0.074610 1.050480 -0.002819 0.002230 -969952.000000 1 0 0
-4.193511 -4.995082 5.083129 8.268893 0.872413 0.908754 0.005205 -0.005008 217139.000000 1 0 0
2.942889 5.103218 6.820329 9.012232 1.047705 0.712414 -0.007171 0.000220 -1431920.000000 1 0 0
2.095989 -7.292282 1.774829 7.792341 -1.290915 1.341014 0.000894 -0.001746 3344070.000000 1 0 0
-2.461311 6.448618 -1.741071 7.118571 -1.206182 1.817884 -0.004949 -0.000943 1224480.000000 1 0 0
2.617489 -3.844282 -6.606371 8.079226 -0.973019 2.528198 0.000702 -0.004929 -679672.000000 1 0 0
-5.162711 0.948918 -12.148871 13.234390 -0.181773 2.733747 0.007023 -0.007742 -36464.800000 1 0 0
-7.524011 6.354618 -11.947471 15.483344 -0.701338 2.452202 0.000771 -0.006525 2807330.000000 1 0 0
-1.051811 11.185818 -9.031871 14.415391 -1.477041 2.247907 0.003683 0.001014 3078890.000000 1 0 0
4.554989 5.915118 -0.586271 7.488675 0.914581 1.649164 -0.000544 -0.000123 1298680.000000 1 0 0
-2.633111 13.416418 3.593529 14.136725 -1.376999 1.313778 -0.000429 0.004753 1781720.000000 1 0 0
1.430689 -7.955982 10.190429 13.007282 -1.392872 0.670614 -0.003947 -0.004014 -172636.000000 1 0 0
12.946389 -0.258082 -1.037771 12.990480 -0.019932 1.650769 0.016930 -0.003063 2046780.000000 1 0 0
-0.999411 3.151518 -5.368671 6.305038 -1.263708 2.589615 -0.002286 -0.007093 255329.000000 1 0 0
6.548589 1.048318 7.248929 9.824967 0.158736 0.740981 -0.001928 0.001053 2236780.000000 1 0 0
5.464189 -6.223882 6.800729 10.716529 -0.850304 0.883303 0.001432 -0.002902 1694630.000000 1 0 0
12.185589 -4.926782 2.605829 13.399706 -0.384218 1.375080 0.018605 -0.004957 741393.000000 1 0 0
4.468789 -9.196382 13.800129 17.175188 -1.118469 0.637658 0.001704 -0.003850 294608.000000 1 0 0
-2.789611 -4.322682 -1.422171 5.337610 0.997702 1.840497 0.005246 -0.002078 160211.000000 1 0 0
-9.367311 -5.084082 -7.393071 12.971195 0.497258 2.177254 0.017444 -0.005992 1711790.000000 1 0 0
-10.592211 -2.983382 7.814529 13.496754 0.274546 0.953303 0.002636 -0.004707 -1603140.000000 1 0 0
11.971689 -0.584382 1.718429 12.108503 -0.048775 1.428396 0.009469 -0.003041 -272941.000000 1 0 0
-7.612511 4.715518 4.414129 9.983535 -0.554593 1.112812 0.005159 -0.008094 3120130.000000 1 0 0
-1.038611 10.493918 6.897829 12.600836 -1.472145 0.991530 -0.002863 -0.000485 2133860.000000 1 0 0
7.408489 -10.085682 1.878129 12.654409 -0.937253 1.421829 0.008696 -0.005536 3482790.000000 1 0 0
-4.331111 -1.672182 1.647629 4.926398 0.368455 1.229776 0.002247 -0.001419 2341450.000000 1 0 0
6.726989 -15.101082 -0.874771 16.554767 -1.151721 1.623662 0.031122 -0.010116 -1344110.000000 1 0 0
-10.494311 1.802518 2.367229 10.907951 -0.170102 1.352037 0.003030 -0.003359 -572029.000000 1 0 0
-3.122311 8.281718 -11.383471 14.419399 -1.210262 2.480717 0.001813 -0.003224 -1623280.000000 1 0 0
-1.301711 -5.153882 -6.892971 8.704596 1.323401 2.484673 -0.003687 -0.003546 -695545.000000 1 0 0
12.809889 -0.418682 6.459529 14.352494 -0.032673 1.103960 0.021251 -0.008547 2224940.000000 1 0 0
5.955889 -13.226182 3.800729 14.995001 -1.147684 1.314534 0.013129 -0.009364 -443568.000000 1 0 0
-5.466211 3.627718 -4.961471 8.225326 -0.585920 2.218296 0.001353 -0.006428 3083500.000000 1 0 0
-4.418811 8.047318 3.350329 9.772917 -1.068642 1.220882 -0.000142 -0.002565 -91849.300000 1 0 0
14.055889 6.104218 -4.066771 15.854593 0.409706 1.830200 0.025057 -0.003405 -823974.000000 1 0 0
-6.755211 -8.400082 5.318829 12.020158 0.893509 1.112420 0.005646 -0.001439 467590.000000 1 0 0
1.744689 11.434918 2.667129 11.870757 1.419388 1.344181 0.004125 -0.001389 132094.000000 1 0 0
-7.342611 7.246018 6.005529 11.936712 -0.778777 1.043598 0.005270 -0.009176 439221.000000 1 0 0
-17.249311 -3.905082 5.335129 18.473007 0.222638 1.277816 0.022217 -0.011053 -169172.000000 1 0 0
7.519289 -13.146382 -8.581671 17.407244 -1.051245 2.086324 0.026035 -0.005921 -1224730.000000 1 0 0
-2.324411 12.865218 -2.913571 13.394238 -1.392051 1.790074 -0.001952 0.000799 1516820.000000 1 0 0
-5.573011 14.001418 -5.743471 16.127170 -1.191988 1.934926 0.012729 0.002081 1204640.000000 1 0 0
-5.599911 2.423118 7.380829 9.576385 -0.408380 0.690807 0.005237 -0.007010 2090110.000000 1 0 0
-7.418911 5.071018 1.515629 9.113319 -0.599584 1.403711 0.005433 -0.003746 713890.000000 1 0 0
10.716189 -5.735382 -5.064371 13.167353 -0.491415 1.965588 0.017610 -0.005356 2150360.000000 1 0 0
-9.498811 -0.588182 6.790129 11.690989 0.061843 0.951085 -0.000371 -0.005776 745454.000000 1 0 0
-11.281611 -4.497282 -2.538671 12.407463 0.379332 1.776860 0.005889 -0.003701 1004320.000000 1 0 0
6.536089 -4.257882 13.513029 15.602948 -0.577388 0.523537 0.015073 -0.011948 -1181740.000000 1 0 0
0.137789 10.190518 -11.639571 15.470787 1.557276 2.422431 0.009213 0.000324 -115103.000000 1 0 0
-11.816911 -3.207482 1.431329 12.327856 0.265046 1.454429 -0.002561 -0.001427 2703030.000000 1 0 0
5.258989 5.995418 5.402729 9.632834 0.850740 0.975365 -0.002378 0.001555 -3542750.000000 1 0 0
-7.109711 0.035818 8.118029 10.791278 -0.005038 0.719285 0.003387 -0.006873 -1058620.000000 1 0 0
1.784489 2.053618 9.609629 9.987328 0.855404 0.275893 -0.006233 -0.003065 2729590.000000 1 0 0
10.489989 -4.923882 -2.026771 11.764025 -0.438860 1.743946 0.010355 -0.002958 2624690.000000 1 0 0
-9.654711 -2.321982 -1.616971 10.060797 0.236020 1.732216 0.006263 -0.003167 -627169.000000 1 0 0
-2.064811 -5.249182 -9.900471 11.394590 1.196028 2.623721 0.002173 -0.003557 180113.000000 1 0 0
7.655189 -1.597082 6.474929 10.152699 -0.205677 0.879217 0.002668 -0.001919 1953180.000000 1 0 0
1.581489 -12.028882 -2.449671 12.377237 -1.440072 1.770029 0.000748 -0.002781 -3038030.000000 1 0 0
-0.683011 -1.576282 4.850829 5.146039 1.161913 0.340363 -0.000890 0.000261 1934280.000000 1 0 0
7.585389 1.413818 9.920929 12.568288 0.184272 0.661027 0.003238 0.000231 766798.000000 1 0 0
-3.941011 10.744118 -7.984071 13.953960 -1.219228 2.179949 -0.000587 0.002132 3271720.000000 1 0 0
-9.519611 12.627518 6.356929 17.043701 -0.924818 1.188580 0.007919 -0.009744 664291.000000 1 0 0
-2.592011 -2.477682 -11.033971 11.601980 0.762851 2.827387 0.007700 -0.006658 -2147200.000000 1 0 0
1.123489 -11.946782 11.151529 16.381222 -1.477031 0.822009 -0.000142 -0.004756 862102.000000 1 0 0
1.388989 3.464318 -1.975771 4.223086 1.189478 2.057653 -0.005791 -0.001963 2325690.000000 1 0 0
-1.966011 -9.497582 -12.087371 15.497542 1.366678 2.465389 -0.001485 -0.000976 817933.000000 1 0 0
1.323289 -2.706282 1.548729 3.387274 -1.116012 1.095929 0.001546 0.000096 2113320.000000 1 0 0
-1.101811 -2.227782 -6.554571 7.009950 1.111496 2.779163 -0.000082 -0.006004 -1515890.000000 1 0 0
1.835689 5.842018 4.012729 7.321265 1.266344 0.990715 -0.006879 0.001134 -793047.000000 1 0 0
-10.987311 8.648818 3.632829 14.447162 -0.666865 1.316612 0.002720 -0.012202 2142720.000000 1 0 0
-16.380711 -1.340982 4.007529 16.917039 0.081681 1.331630 0.021261 -0.009521 136713.000000 1 0 0
-12.218611 0.427818 6.774329 13.977447 -0.034999 1.064820 0.001446 -0.001873 119467.000000 1 0 0
-5.114611 2.991118 4.667129 7.542422 -0.529182 0.903603 0.002021 -0.004316 3016410.000000 1 0 0
5.176989 -6.094982 3.882229 8.889417 -0.866659 1.118842 -0.000337 -0.002193 910286.000000 1 0 0
9.942389 3.464818 6.202729 12.220062 0.335328 1.038416 -0.003564 0.001443 772647.000000 1 0 0
-12.228511 5.914918 3.211529 13.958390 -0.450522 1.338638 0.005936 -0.011029 1067220.000000 1 0 0
-4.895511 12.282718 -1.279671 13.284153 -1.191524 1.667277 -0.003890 0.002144 2435910.000000 1 0 0
-1.767811 -12.154482 10.396429 16.091685 1.426364 0.868366 0.005281 -0.008164 -82842.600000 1 0 0
5.220589 6.296418 13.779629 16.024282 0.878540 0.535680 0.002903 -0.002105 338343.000000 1 0 0
12.914689 -3.741682 -5.802671 14.644466 -0.282002 1.978210 0.013970 -0.005523 1735350.000000 1 0 0
3.519989 -2.599582 6.426529 7.774859 -0.636113 0.597796 -0.006522 0.001235 576279.000000 1 0 0
7.276889 -11.929082 -0.653971 13.988703 -1.023047 1.617563 0.013524 -0.006860 -1513550.000000 1 0 0
-6.018711 -6.597282 -4.103571 9.827935 0.831226 2.001534 0.013804 -0.001779 122387.000000 1 0 0
0.248489 -8.910082 5.054829 10.247078 -1.542915 1.054923 0.005891 -0.004915 1301350.000000 1 0 0
-10.261411 2.534818 -0.434671 10.578790 -0.242176 1.611897 0.004565 -0.002459 -2031380.000000 1 0 0
-1.874411 8.969618 -0.398171 9.172022 -1.364788 1.614221 -0.002553 -0.000188 332969.000000 1 0 0
-3.429011 2.401218 -6.652071 7.859644 -0.610904 2.579906 0.003757 -0.009820 350629.000000 1 0 0
-12.806111 3.176118 6.485929 14.702091 -0.243110 1.113909 0.009211 -0.010867 768457.000000 1 0 0
11.323389 1.628918 8.001129 13.960322 0.142874 0.960472 0.015043 -0.004228 -2823810.000000 1 0 0
6.001289 2.621918 -3.197771 7.288049 0.411900 2.025025 -0.000904 -0.002273 -186158.000000 1 0 0
10.546389 -2.438782 6.434829 12.592895 -0.227249 1.034462 0.014046 -0.005853 3666700.000000 1 0 0
-0.878411 11.059618 3.957029 11.778999 -1.491538 1.228194 0.003430 0.000208 419684.000000 1 0 0
-1.598311 -12.190782 7.445029 14.373526 1.440432 1.026322 0.005116 -0.004618 -708427.000000 1 0 0
8.043789 8.563118 -7.789971 14.096566 0.816660 2.156295 0.005104 -0.001589 1385640.000000 1 0 0
-4.686611 -6.084882 -8.804271 11.683548 0.914489 2.424259 0.008410 -0.003315 -165543.000000 1 0 0
-8.590411 -5.329582 -11.533871 15.337202 0.555292 2.421916 0.013754 -0.003383 1005930.000000 1 0 0
6.057389 -0.682782 -9.973471 11.688810 -0.112245 2.592981 0.013766 -0.003600 786403.000000 1 0 0
-11.325111 -5.387882 -5.300771 13.615637 0.444057 1.970684 0.008936 -0.008309 -285786.000000 1 0 0
3.827989 8.869418 -2.721571 10.036285 1.163354 1.845408 0.004125 -0.002278 2185350.000000 1 0 0
11.657189 -10.352982 -3.945771 16.082394 -0.726213 1.818674 0.030693 -0.011906 539285.000000 1 0 0
3.996189 -11.245482 3.964529 12.575687 -1.229355 1.250073 0.007142 -0.005348 943063.000000 1 0 0
-1.022411 0.794418 3.191429 3.444074 -0.660561 0.385412 0.001298 -0.002059 -1823150.000000 1 0 0
-10.627511 -4.979382 4.546429 12.586034 0.438162 1.201212 -0.001129 -0.001808 3595770.000000 1 0 0
4.557589 -8.702882 2.663129 10.178607 -1.088379 1.306075 -0.000166 -0.000703 3592160.000000 1 0 0
-3.684611 -5.682082 2.598629 7.253640 0.995504 1.204402 0.006108 -0.003029 2772900.000000 1 0 0
10.011989 4.953218 12.307629 16.620831 0.459422 0.736991 0.026052 -0.000379 47368.700000 1 0 0
1.662189 -12.354182 -5.218671 13.513816 -1.437055 1.967275 0.000254 -0.000971 1338400.000000 1 0 0
9.840989 -10.732082 -1.682071 14.657831 -0.828685 1.685805 0.018243 -0.007797 550988.000000 1 0 0
9.694089 -4.538882 -9.118471 14.061413 -0.437895 2.276375 0.025152 -0.005910 4687720.000000 1 0 0
-7.511011 -3.059182 -13.008771 15.329775 0.386778 2.584120 0.010335 -0.004862 2016610.000000 1 0 0
0.426689 6.273418 -2.579971 6.796623 1.502885 1.960156 -0.005151 -0.001779 1382690.000000 1 0 0
-5.991411 -9.449182 1.024029 11.235332 1.005704 1.479526 0.003669 -0.000320 389351.000000 1 0 0
-9.027811 -4.063582 0.645329 9.921216 0.422952 1.505705 0.000696 -0.001825 2070730.000000 1 0 0
1.909789 3.803618 12.013829 12.745466 1.105472 0.340474 -0.007357 -0.004918 983414.000000 1 0 0
6.713989 4.237118 9.556229 12.423862 0.562965 0.693234 -0.004659 0.001310 2152420.000000 1 0 0
-8.239611 9.903418 -3.610271 13.379197 -0.876847 1.844025 0.003052 0.000948 2768250.000000 1 0 0
16.459889 2.061518 -6.049571 17.657155 0.124596 1.920493 0.048442 -0.006623 -1500650.000000 1 0 0
-10.922411 2.691618 -5.159671 12.376028 -0.241617 2.000838 0.009619 -0.003560 1567210.000000 1 0 0
-13.748411 4.036618 1.558329 14.413239 -0.285581 1.462467 0.006248 -0.006972 683558.000000 1 0 0
-17.462111 10.462918 3.381729 20.635747 -0.539815 1.406177 0.042830 -0.021446 -1037080.000000 1 0 0
-14.359611 2.856718 -1.091171 14.681618 -0.196377 1.645187 0.009096 -0.004665 803817.000000 1 0 0
-14.450711 5.286418 5.163829 16.230662 -0.350702 1.247016 0.012666 -0.015174 123810.000000 1 0 0
-17.651811 7.524918 3.160429 19.447342 -0.402969 1.407560 0.037505 -0.013201 -1631140.000000 1 0 0
-15.301511 12.502418 -3.121271 20.004725 -0.685064 1.727463 0.043503 -0.010081 397431.000000 1 0 0
-8.532611 12.516818 -9.573871 17.920245 -0.972464 2.134415 0.011003 -0.011559 948018.000000 1 0 0
-12.406511 8.632718 -9.803571 18.015419 -0.607916 2.146204 0.007224 -0.005073 -1995800.000000 1 0 0
-13.886111 -3.578882 -12.159571 18.801267 0.252242 2.274101 0.031216 -0.001027 -2113640.000000 1 0 0
-14.823411 5.690618 -7.498571 17.559761 -0.366545 2.012004 0.031589 -0.004578 635456.000000 1 0 0
-11.018811 13.514918 -8.542071 19.417367 -0.886791 2.026305 0.019479 -0.007438 968529.000000 1 0 0
-10.853611 13.616518 3.932129 17.851388 -0.897831 1.348705 0.005859 -0.007153 -897763.000000 1 0 0
-15.239211 3.324518 3.111829 15.905013 -0.214790 1.373875 0.009194 -0.010495 1487050.000000 1 0 0
-11.131911 9.325318 -12.457971 19.133270 -0.697316 2.279850 0.004332 -0.005522 -542480.000000 1 0 0
-13.045911 11.447518 -9.150471 19.620718 -0.720233 2.055977 0.017699 -0.015419 246641.000000 1 0 0
-8.904811 14.593018 -3.486171 17.447212 -1.022903 1.771963 0.013916 -0.006207 634057.000000 1 0 0
-16.579711 8.333418 -4.072371 18.997812 -0.465747 1.786833 0.029307 -0.008438 -216992.000000 1 0 0
-16.954611 6.604018 0.436529 18.200616 -0.371432 1.546810 0.025432 -0.005041 -827678.000000 1 0 0
-10.618111 2.705218 -12.598571 16.696900 -0.249467 2.425758 0.015491 -0.007405 2368080.000000 1 0 0
-16.922811 0.981018 2.373729 17.116615 -0.057905 1.431668 0.026658 -0.009814 -840384.000000 1 0 0
-12.631911 1.274618 -7.036271 14.515472 -0.100564 2.076865 0.012548 -0.003174 2018950.000000 1 0 0
-12.278911 9.017518 -5.322871 16.137541 -0.633436 1.906935 0.011567 -0.000789 -1503910.000000 1 0 0
-9.649311 13.967918 1.250529 17.022801 -0.966258 1.497268 0.011515 -0.004484 721961.000000 1 0 0
-12.226311 11.228818 2.774829 16.830588 -0.742896 1.405172 0.009106 -0.008615 1346980.000000 1 0 0
-12.571511 6.795618 -3.531671 14.720598 -0.495564 1.813073 0.006008 -0.001142 398066.000000 1 0 0
-15.965411 3.680818 -9.355571 18.867153 -0.226590 2.089628 0.048959 -0.012257 -1985600.000000 1 0 0
-15.094811 5.855318 -4.587471 16.828040 -0.370034 1.846900 0.017329 -0.005272 -371409.000000 1 0 0
-17.829711 5.314818 7.660729 20.120453 -0.289701 1.180196 0.022738 -0.024467 179454.000000 1 0 0
-15.819711 9.964918 -1.857671 18.788661 -0.562119 1.669830 0.024673 -0.007808 -962918.000000 1 0 0
-8.858511 9.984718 -8.363071 15.751468 -0.845094 2.130505 0.002114 -0.000755 1191010.000000 1 0 0
-17.042711 4.147818 -1.214971 17.582222 -0.238736 1.639954 0.020217 -0.007719 -1181630.000000 1 0 0
-10.194011 5.447518 -4.541071 12.418318 -0.490775 1.945154 0.001892 -0.003610 583259.000000 1 0 0
-18.312211 2.920518 6.151929 19.537470 -0.158153 1.250468 0.046433 -0.021387 -1399690.000000 1 0 0
-10.325011 10.080118 -5.694971 15.512811 -0.773397 1.946701 0.003863 -0.001935 -410926.000000 1 0 0
-15.352311 0.531318 -5.850971 16.438053 -0.034595 1.934717 0.010113 -0.003979 -102696.000000 1 0 0
-16.462511 -4.183482 -8.796771 19.128485 0.248854 2.048654 0.034340 -0.013907 -456990.000000 1 0 0
-10.007911 9.653618 -1.092571 13.947915 -0.767381 1.649209 0.003831 -0.003053 1124400.000000 1 0 0
-17.400911 -3.036082 -3.130671 17.939080 0.172739 1.746211 0.021190 -0.007685 -640033.000000 1 0 0
-12.096411 5.000818 -11.547871 17.455218 -0.392016 2.293708 0.019180 -0.008736 -491023.000000 1 0 0
-16.382811 7.173418 5.904529 18.833955 -0.412715 1.251915 0.028667 -0.020247 -195589.000000 1 0 0
-12.142311 5.839518 -8.749371 16.065091 -0.448270 2.146732 0.008520 -0.009671 1029900.000000 1 0 0
-14.512411 8.243018 0.094929 16.690309 -0.516556 1.565109 0.018621 -0.006967 -707459.000000 1 0 0
-14.947211 11.846518 3.883229 19.463776 -0.670186 1.369938 0.019749 -0.018329 1325990.000000 1 0 0
-17.278711 4.113018 -4.010771 18.208708 -0.233691 1.792884 0.025358 -0.009280 179326.000000 1 0 0
-13.787111 13.490218 -0.817271 19.306432 -0.774514 1.613140 0.025413 -0.006041 -1077820.000000 1 0 0
-10.123911 6.762318 -13.182571 17.944433 -0.588894 2.395922 -0.001989 -0.008330 2633630.000000 1 0 0
-15.956911 -1.205182 -8.199271 17.980642 0.075384 2.044298 0.019395 -0.010162 -127254.000000 1 0 0
-11.476611 11.941518 -0.032671 16.562412 -0.805248 1.572769 0.016528 -0.006743 -382635.000000 1 0 0
-11.969511 7.411218 -0.834771 14.102914 -0.554399 1.630022 0.005779 -0.001317 979062.000000 1 0 0
-11.537811 0.094518 -11.655571 16.400681 -0.008192 2.361255 0.019889 -0.009071 912363.000000 1 0 0
-19.223411 -1.272182 -4.550271 19.795528 0.066082 1.802734 0.038485 -0.012584 -1018790.000000 1 0 0
-17.947011 1.434018 -5.026671 18.692753 -0.079733 1.843058 0.012898 -0.004797 1170590.000000 1 0 0
-13.448211 -0.113282 -9.446971 16.435098 0.008423 2.183162 0.020834 -0.006789 718423.000000 1 0 0
-6.186911 11.276618 -13.165071 18.405408 -1.068991 2.367825 -0.007008 -0.002213 -935621.000000 1 0 0
16.451189 5.695018 6.878829 18.718791 0.333265 1.194496 0.044691 -0.015978 1346420.000000 1 0 0
14.743489 10.145518 -5.614571 18.757010 0.602719 1.874789 0.048930 -0.017402 -2437.350000 1 0 0
2.366189 17.027218 4.419629 17.749876 1.432716 1.319154 0.020459 -0.007063 2258250.000000 1 0 0
-3.905611 18.210018 -5.851871 19.521858 -1.359521 1.875237 0.005565 -0.008274 339254.000000 1 0 0
5.516089 14.581118 5.641829 16.579097 1.209133 1.223563 0.014224 -0.004915 242261.000000 1 0 0
9.848689 5.917618 15.051029 18.935373 0.541047 0.652014 0.043244 -0.002969 190199.000000 1 0 0
4.695089 12.767618 -1.200071 13.656357 1.218411 1.658786 0.009787 -0.003850 2463950.000000 1 0 0
3.563889 13.729318 12.826129 19.123417 1.316819 0.835640 0.015592 -0.006653 1033680.000000 1 0 0
-0.834611 12.327918 9.037429 15.308470 -1.503199 0.939298 0.003536 -0.003409 1719370.000000 1 0 0
-7.780211 13.889218 8.387029 17.994008 -1.060185 1.085917 0.010055 -0.017594 1797480.000000 1 0 0
11.376689 12.723018 -4.238971 17.586162 0.841205 1.814234 0.036985 -0.008766 -729625.000000 1 0 0
-5.812711 16.090118 0.963329 17.134979 -1.224126 1.514547 0.003428 0.001738 465144.000000 1 0 0
3.267389 10.638218 6.707629 12.993837 1.272805 1.028369 -0.000064 -0.000405 2451480.000000 1 0 0
-1.201111 15.679218 2.413029 15.909219 -1.494340 1.418534 0.005646 0.001679 -1310100.000000 1 0 0
9.913589 8.778018 9.489729 16.290728 0.724720 0.948967 0.014291 -0.003049 1954080.000000 1 0 0
7.348289 12.365318 6.180529 15.655586 1.034604 1.164967 0.012189 -0.001554 -44516.200000 1 0 0
11.838589 13.961818 -1.643271 18.378925 0.867508 1.660326 0.025022 -0.004842 -550741.000000 1 0 0
9.641489 15.844118 -1.317271 18.593805 1.024134 1.641700 0.015535 -0.005488 959753.000000 1 0 0
10.298489 13.808618 2.887029 17.466303 0.929988 1.404743 0.015293 -0.002286 1955000.000000 1 0 0
-6.050611 14.503918 6.206529 16.896583 -1.175576 1.194666 -0.003362 -0.007692 138283.000000 1 0 0
-0.965511 18.191718 -6.235371 19.254886 -1.517772 1.900574 0.018969 -0.006739 1613140.000000 1 0 0
-3.505611 15.718618 5.434829 16.997106 -1.351365 1.245330 -0.003117 -0.000898 1498800.000000 1 0 0
7.113889 12.213118 10.558429 17.642225 1.043359 0.929200 0.011894 -0.001676 1907170.000000 1 0 0
1.468989 14.681118 6.207729 16.007156 1.471068 1.172542 0.010337 -0.004921 553820.000000 1 0 0
17.566689 7.773218 -1.622571 19.278076 0.416597 1.655063 0.034845 -0.000175 1215470.000000 1 0 0
2.052689 16.216518 -3.364171 16.688518 1.444886 1.773773 0.011569 -0.007238 1097080.000000 1 0 0
6.761089 11.202118 0.519529 13.094643 1.027767 1.531111 0.010900 -0.001717 995948.000000 1 0 0
12.741589 9.326918 3.109729 16.093785 0.631885 1.376348 0.013915 -0.001032 -1243010.000000 1 0 0
6.001789 14.268218 -3.515771 15.873379 1.172624 1.794137 0.011183 -0.006291 -1011.260000 1 0 0
3.131389 16.559018 1.544429 16.923118 1.383899 1.479408 0.020169 -0.012076 194255.000000 1 0 0
2.725389 18.926418 -2.514371 19.286241 1.427780 1.701540 0.020055 -0.018191 829386.000000 1 0 0
4.013089 11.863018 10.562129 16.382755 1.244595 0.870152 0.006065 -0.003218 2805510.000000 1 0 0
8.186189 11.639618 3.302629 14.608277 0.957856 1.342745 0.012808 0.003486 1566990.000000 1 0 0
0.741289 12.552618 0.164529 12.575563 1.511810 1.557713 0.005458 -0.000908 -1009490.000000 1 0 0
11.986189 9.784818 -4.612771 16.145868 0.684626 1.860526 0.025703 -0.007529 -173427.000000 1 0 0
-1.307811 16.487318 9.861929 19.256159 -1.491640 1.033117 0.006043 -0.007090 -1203120.000000 1 0 0
8.205689 14.766618 -8.016271 18.698848 1.063594 2.013854 0.048760 -0.012646 2801700.000000 1 0 0
14.575589 7.603118 -1.428571 16.501394 0.480804 1.657478 0.021880 -0.003332 830626.000000 1 0 0
12.542789 8.322518 5.965929 16.191917 0.585828 1.193454 0.008482 -0.002318 -1730300.000000 1 0 0
-3.036411 14.229818 10.056129 17.687092 -1.360566 0.966045 0.009998 -0.016328 1205000.000000 1 0 0
-4.635111 17.172218 -3.198171 18.072012 -1.307160 1.748701 0.013369 -0.004032 -347279.000000 1 0 0
-7.077411 16.353418 -1.753171 17.905240 -1.162356 1.668867 0.007389 -0.001349 313674.000000 1 0 0
8.377489 11.231318 -1.970071 14.149417 0.929922 1.710483 0.009845 -0.004288 218501.000000 1 0 0
8.506589 12.885218 -4.285371 16.023586 0.987297 1.841533 0.023365 -0.004348 1994110.000000 1 0 0
2.564289 14.894118 -7.322571 16.793760 1.400300 2.021978 0.007437 -0.008209 1342510.000000 1 0 0
11.352589 11.232118 9.730529 18.700935 0.780064 1.023567 0.023299 -0.002468 1396420.000000 1 0 0
8.625489 15.713818 1.378329 17.978402 1.068789 1.494055 0.009916 -0.004294 1210870.000000 1 0 0
6.125389 10.039818 7.648929 14.029414 1.022976 0.994161 0.006165 0.001986 3207270.000000 1 0 0
14.444689 11.356318 2.362629 18.525577 0.666265 1.442915 0.023189 -0.002847 1218220.000000 1 0 0
12.158689 12.613418 0.929829 17.544133 0.803753 1.517772 0.019350 -0.000985 3019920.000000 1 0 0
5.264489 15.809218 8.218729 18.579390 1.249345 1.112571 0.021317 -0.007146 -1591890.000000 1 0 0
11.723289 15.025818 5.054329 19.716920 0.908240 1.311558 0.026718 -0.004415 -24716.300000 1 0 0
6.057189 16.909218 1.754829 18.046900 1.226819 1.473405 0.008645 -0.010670 2172220.000000 1 0 0
-0.690411 16.169718 -4.193571 16.718925 -1.528124 1.824332 0.006557 -0.003355 -26636.600000 1 0 0
16.087289 6.477118 2.490029 17.520108 0.382766 1.428189 0.013423 -0.002572 -1273800.000000 1 0 0
7.683989 16.685718 -3.280971 18.660697 1.139234 1.747538 0.020053 -0.009948 -1120000.000000 1 0 0
14.899289 8.101318 7.394929 18.501490 0.498023 1.159614 0.035703 -0.008912 -1226720.000000 1 0 0
2.078289 12.923618 8.509029 15.612263 1.411348 0.994381 0.003465 -0.005496 2269450.000000 1 0 0
15.918589 7.439418 -5.972771 18.558567 0.437181 1.898462 0.036401 -0.008025 -1359360.000000 1 0 0
-3.046011 17.078518 0.679929 17.361344 -1.394299 1.531623 0.003451 0.003270 2039980.000000 1 0 0
-2.985511 18.537318 4.557929 19.321494 -1.411113 1.332652 0.011124 -0.005147 2350890.000000 1 0 0
-0.910311 19.127918 0.763129 19.164766 -1.523242 1.530966 0.014054 -0.004733 908446.000000 1 0 0
6.951889 16.775018 -6.145471 19.170206 1.177922 1.897132 0.030133 -0.011564 2110950.000000 1 0 0
10.992689 10.049918 0.725729 14.911966 0.740625 1.522110 0.009517 -0.002265 -1677660.000000 1 0 0
9.034589 8.660518 14.200029 18.928001 0.764261 0.722412 0.028907 -0.005154 250698.000000 1 0 0
6.370789 12.442118 -8.384371 16.300028 1.097568 2.111078 0.034312 -0.010947 199955.000000 1 0 0
6.333389 8.973418 13.245829 17.207151 0.956192 0.692290 0.007572 -0.002983 1358300.000000 1 0 0
16.660989 9.504118 2.777329 19.381186 0.518402 1.427001 0.024470 0.000422 -1731660.000000 1 0 0
2.576189 14.751918 -0.796671 14.996350 1.397906 1.623946 0.011753 -0.005927 538952.000000 1 0 0
9.148289 12.830918 8.343829 17.830960 0.951407 1.083837 0.020847 -0.004620 1408530.000000 1 0 0
7.244689 9.352218 10.455429 15.788144 0.911705 0.847001 0.005469 -0.001824 -8294.950000 1 0 0
4.343589 15.805218 -5.267271 17.216731 1.302598 1.881721 0.023108 -0.011263 2325870.000000 1 0 0
0.146689 16.228618 -8.145271 18.158606 1.561758 2.035953 0.010166 -0.008725 -511188.000000 1 0 0
-2.500111 15.658218 -2.026471 15.985522 -1.412465 1.697907 0.002853 -0.000162 -236563.000000 1 0 0
13.379589 10.459618 7.708729 18.650510 0.663519 1.144693 0.028471 -0.001568 -353444.000000 1 0 0
-0.941211 15.973518 7.019029 17.473005 -1.511941 1.157416 0.008197 -0.005551 2436420.000000 1 0 0
13.444489 13.262618 6.594329 20.003412 0.778588 1.234853 0.032845 -0.007313 100204.000000 1 0 0
5.343789 17.447118 4.573129 18.811473 1.273584 1.325233 0.018754 -0.008092 619014.000000 1 0 0
10.799389 9.408618 -1.919571 14.451078 0.716684 1.704022 0.007973 -0.004889 -1710730.000000 1 0 0
3.274089 12.812418 4.649629 14.017730 1.320610 1.232695 0.007705 0.000895 2189370.000000 1 0 0
-0.171011 18.131918 3.467329 18.461258 -1.561365 1.381858 0.013950 -0.005514 1405180.000000 1 0 0
-7.766911 15.892118 -5.781671 18.609460 -1.116208 1.886709 0.032563 -0.015925 2018170.000000 1 0 0
-12.469911 -9.056282 8.260829 17.485887 0.628128 1.078752 0.018567 -0.007727 383030.000000 1 0 0
-13.355811 -11.557782 6.890129 18.958742 0.713353 1.198852 0.030169 -0.006811 -2351170.000000 1 0 0
-6.444611 -12.202282 12.356929 18.523564 1.084885 0.840497 0.013615 -0.010103 -510800.000000 1 0 0
-1.734411 -10.684782 14.421329 18.031847 1.409875 0.643884 0.001705 -0.011640 1288440.000000 1 0 0
-8.815811 2.846218 11.008429 14.387668 -0.312289 0.699554 0.002958 -0.008693 2242180.000000 1 0 0
0.724489 10.046118 15.053029 18.111959 1.498805 0.589696 0.007505 -0.006779 1805900.000000 1 0 0
1.107989 -6.783782 16.646629 18.009931 -1.408897 0.391592 0.015817 -0.015578 2301630.000000 1 0 0
5.994389 2.359418 17.828529 18.956688 0.374981 0.346734 0.036434 -0.013206 1534100.000000 1 0 0
-5.053911 -2.952682 17.575529 18.524567 0.528749 0.321480 0.022829 -0.014730 2204120.000000 1 0 0
-4.294211 8.088418 12.963529 15.871857 -1.082729 0.615020 0.001349 -0.003813 248911.000000 1 0 0
0.081589 -4.921682 18.579929 19.220910 -1.554220 0.258979 0.022138 -0.019922 -295978.000000 1 0 0
-11.682311 2.165218 11.134229 16.282985 -0.183262 0.817845 0.025884 -0.010110 1155840.000000 1 0 0
-3.400311 -6.075782 14.364529 15.962987 1.060575 0.451337 0.012197 -0.010951 566020.000000 1 0 0
-7.401411 -2.146482 14.571529 16.483863 0.282267 0.486472 0.011017 -0.008010 1512970.000000 1 0 0
-6.064611 -1.055382 10.534729 12.201388 0.172298 0.528818 0.006734 -0.006295 986232.000000 1 0 0
-3.906211 2.411218 11.124729 12.034619 -0.553027 0.391353 -0.001329 -0.001003 1014540.000000 1 0 0
-6.459711 6.236918 13.513429 16.224666 -0.767853 0.586480 -0.004948 -0.005630 1331500.000000 1 0 0
-9.016111 5.473018 12.523229 16.373010 -0.545570 0.699956 0.013268 -0.012548 -235188.000000 1 0 0
-12.350511 -2.204882 15.807729 20.181202 0.176664 0.670856 0.030890 -0.005885 823098.000000 1 0 0
-3.506211 -7.592682 16.952229 18.902921 1.138183 0.458303 0.029338 -0.015596 -168175.000000 1 0 0
-0.494411 -5.414882 14.450529 15.439663 1.479743 0.359890 0.005098 -0.006153 1743730.000000 1 0 0
-14.290011 -2.260382 13.626429 19.874439 0.156879 0.815333 0.048928 -0.009162 -512456.000000 1 0 0
-6.456111 1.498418 12.165329 13.853587 -0.228055 0.498845 0.002600 -0.006885 1493500.000000 1 0 0
2.217389 -2.241882 14.484629 14.823877 -0.790891 0.214350 -0.000894 -0.004654 1573980.000000 1 0 0
-12.540211 4.038018 9.200129 16.068754 -0.311521 0.961186 0.015604 -0.014409 -7129.080000 1 0 0
-9.008311 -2.909682 12.465529 15.652646 0.312422 0.649502 0.004647 -0.005116 609515.000000 1 0 0
-7.180611 -7.191882 15.141029 18.235545 0.786182 0.591145 0.024206 -0.014349 -2020850.000000 1 0 0
-3.257711 5.902418 19.348929 20.489809 -1.066474 0.335276 0.038063 -0.021032 1638980.000000 1 0 0
0.716189 5.471418 16.035729 16.958595 1.440640 0.331420 0.010423 -0.006186 2149260.000000 1 0 0
3.387689 1.523718 16.712229 17.120069 0.422672 0.218712 0.020287 -0.010300 987182.000000 1 0 0
-11.729911 11.392118 7.846629 18.136724 -0.770790 1.123380 0.012324 -0.019408 -298202.000000 1 0 0
0.756189 -9.489982 15.480029 18.173137 -1.491281 0.551369 0.000485 -0.004141 1216760.000000 1 0 0
-2.467711 -3.703382 18.871129 19.388764 0.983020 0.231591 0.031318 -0.020245 1060320.000000 1 0 0
-12.719411 2.485018 13.865429 18.979169 -0.192942 0.751654 0.034966 -0.020299 -784292.000000 1 0 0
-5.390611 -0.514482 15.832429 16.732878 0.095152 0.329554 0.015072 -0.004878 1298780.000000 1 0 0
-4.407211 -5.999782 11.649629 13.825150 0.937249 0.568628 0.003286 -0.004563 1032450.000000 1 0 0
2.411489 1.816718 13.881829 14.206369 0.645648 0.214160 -0.001939 -0.003442 -341032.000000 1 0 0
0.111189 3.322618 14.218629 14.602109 1.537344 0.229685 0.003401 -0.003320 -101587.000000 1 0 0
-13.061411 7.137118 12.076329 19.167072 -0.500096 0.889171 0.040713 -0.020581 -81593.000000 1 0 0
0.801989 1.581218 18.178529 18.264785 1.101407 0.097224 0.015941 -0.009176 2155730.000000 1 0 0
-1.994711 6.465918 12.422729 14.146065 -1.271563 0.498762 -0.002354 -0.001480 276857.000000 1 0 0
-13.496211 -2.635182 10.884029 17.537217 0.192827 0.901257 0.033940 -0.009008 -688032.000000 1 0 0
-2.519311 3.673118 13.390529 14.111874 -0.969611 0.321116 0.000196 -0.003392 -1028650.000000 1 0 0
3.588689 6.161518 16.230629 17.727840 1.043392 0.413936 0.011501 -0.003349 129501.000000 1 0 0
-3.666011 12.477618 12.206429 17.836129 -1.285031 0.817063 0.009458 -0.009401 1441870.000000 1 0 0
3.610189 -1.412282 17.022629 17.458463 -0.372892 0.223913 0.024788 -0.013945 111207.000000 1 0 0
-15.863611 0.604818 9.156729 18.326638 -0.038108 1.047613 0.044567 -0.010960 1228990.000000 1 0 0
-4.590911 4.642518 15.133729 16.482087 -0.790987 0.407303 0.005745 -0.008341 1296610.000000 1 0 0
-7.945711 -8.116182 10.432229 15.422002 0.796011 0.827863 0.009136 -0.008304 4534890.000000 1 0 0
-2.680611 -0.467982 14.671629 14.921843 0.172839 0.183387 0.010990 -0.003560 1786390.000000 1 0 0
-1.923011 0.987718 17.137629 17.273445 -0.474493 0.125483 0.015736 -0.011301 753484.000000 1 0 0
-0.764811 -2.536882 14.358229 14.600666 1.277985 0.182487 0.006568 -0.003777 955479.000000 1 0 0
5.155589 -8.190482 16.420529 19.060375 -1.008996 0.532578 0.011261 -0.007979 1051750.000000 1 0 0
-4.468011 9.981418 10.598629 15.229011 -1.149913 0.801054 0.003755 -0.007157 -711141.000000 1 0 0
-6.189511 2.181118 15.220629 16.575128 -0.338802 0.407079 0.004405 -0.004851 -22551.800000 1 0 0
-4.827911 6.876218 17.164329 19.110345 -0.958651 0.455208 0.009523 -0.007358 -1814750.000000 1 0 0
-3.899211 9.174618 15.603029 18.515723 -1.168926 0.568535 0.008082 -0.006978 -112660.000000 1 0 0
-4.734311 -9.829582 18.336529 21.336886 1.121945 0.536737 0.053802 -0.018290 -1389890.000000 1 0 0
-6.784811 -4.053682 11.053829 13.588714 0.538553 0.620726 0.007974 -0.005026 1418470.000000 1 0 0
-2.296111 -0.892982 19.427529 19.583116 0.370910 0.126139 0.027899 -0.017789 712428.000000 1 0 0
-5.697511 -4.471482 15.216129 16.851895 0.665412 0.444251 0.015703 -0.010318 2404900.000000 1 0 0
-12.916711 0.087818 9.719829 16.165525 -0.006799 0.925708 0.020923 -0.004914 1689370.000000 1 0 0
-14.538611 8.813918 10.229329 19.841762 -0.544997 1.029152 0.032763 -0.023996 -1330640.000000 1 0 0
-8.344611 10.468618 12.767929 18.499851 -0.897822 0.809081 0.017227 -0.020562 -1363860.000000 1 0 0
-10.527711 7.173018 10.759729 16.675031 -0.598097 0.869433 0.023517 -0.017275 -160457.000000 1 0 0
-9.844511 -6.411982 14.790329 18.888667 0.577307 0.671279 0.028220 -0.016848 -924984.000000 1 0 0
-0.721411 -13.439182 14.441129 19.740270 1.517168 0.750194 0.002689 -0.010893 1433570.000000 1 0 0
3.888589 -5.661082 16.913729 18.254951 -0.968918 0.385718 0.020867 -0.012687 1098800.000000 1 0 0
-7.282111 9.351218 10.266129 15.680173 -0.909158 0.856984 0.004063 -0.010657 1501060.000000 1 0 0
-10.220811 -6.619582 11.848729 16.990475 0.574727 0.799068 0.023082 -0.016656 1375040.000000 1 0 0
-10.869711 -3.851082 10.636529 15.688123 0.340496 0.825760 0.016045 -0.003650 865449.000000 1 0 0
-10.041811 -10.159282 9.773529 17.308115 0.791213 0.970752 0.017496 -0.012634 2447070.000000 1 0 0
-9.845511 -3.516882 15.094029 18.361162 0.343081 0.605772 0.018085 -0.016935 1855440.000000 1 0 0
5.579789 -3.334382 16.053729 17.319769 -0.538640 0.384724 0.023117 -0.014430 -147504.000000 1 0 0
-11.303211 0.457318 15.271829 19.005275 -0.040437 0.637548 0.028104 -0.014979 -923683.000000 1 0 0
-3.276311 3.086918 18.699429 19.233615 -0.755643 0.236233 0.027761 -0.017266 -706534.000000 1 0 0
0.557489 7.377818 13.773129 15.634644 1.495377 0.492959 0.000651 -0.006335 498669.000000 1 0 0
-13.076311 -7.213682 12.129029 19.239035 0.504117 0.888678 0.029057 -0.019771 74502.300000 1 0 0
-1.505111 -1.176982 12.091429 12.241459 0.663663 0.156722 0.000451 -0.001725 -321870.000000 1 0 0
2.042789 -4.930782 13.124929 14.168605 -1.178029 0.386222 -0.001738 -0.005465 1712770.000000 1 0 0
-14.534811 -4.049382 8.626829 17.380460 0.271709 1.051405 0.018327 -0.007276 -1209950.000000 1 0 0
8.001489 0.988218 16.192129 18.088269 0.122882 0.461977 0.048112 -0.012316 415856.000000 1 0 0
-1.117311 11.394418 13.201729 17.474747 -1.473051 0.714418 0.004753 -0.002725 1792130.000000 1 0 0
2.801289 -12.435282 -13.952671 18.898690 -1.349225 2.401324 0.013137 0.004305 16821.600000 1 0 0
0.594789 -10.882582 -14.084371 17.808814 -1.516195 2.483018 0.004217 0.003493 -3320380.000000 1 0 0
3.209189 -14.495982 -12.348971 19.311382 -1.352926 2.264600 0.019919 0.000402 -147594.000000 1 0 0
-5.159811 -10.281182 -16.060871 19.755453 1.105654 2.520055 0.008957 -0.012944 -42486.400000 1 0 0
-1.347711 -12.307182 -15.139571 19.557343 1.461725 2.456107 0.015693 -0.002621 -30213.100000 1 0 0
5.740289 -14.932582 -11.862971 19.916401 -1.203798 2.208856 0.027546 -0.006631 653200.000000 1 0 0
1.759489 -12.032082 -16.193071 20.250490 -1.425592 2.497489 0.010245 0.005968 -576871.000000 1 0 0
1.293689 -14.638182 -14.081871 20.353110 -1.482648 2.334883 0.028500 0.007614 -97824.500000 1 0 0
-1.246711 -10.699282 -15.928071 19.228426 1.454797 2.546971 0.014249 -0.008943 -200644.000000 1 0 0
-5.870911 -5.518982 -15.106171 17.120840 0.754510 2.651579 0.013066 -0.005852 179896.000000 1 0 0
-6.451011 -7.669482 -16.380571 19.203114 0.871476 2.592534 0.014890 -0.010980 116646.000000 1 0 0
4.881889 -12.529282 -11.406371 17.632954 -1.199254 2.274280 0.011140 -0.002016 517234.000000 1 0 0
-1.888811 -15.626682 -13.165171 20.520295 1.450509 2.267337 0.017897 0.002205 275319.000000 1 0 0
15.665089 -7.398682 -9.064071 19.552312 -0.441246 2.052828 0.040933 -0.009754 127268.000000 1 0 0
19.322889 -3.683082 -4.095671 20.092627 -0.188348 1.776074 0.096266 -0.032942 1183470.000000 1 0 0
14.826589 -11.879982 -8.703871 20.897825 -0.675510 2.000385 0.054406 -0.017812 7088.210000 1 0 0
18.086289 -3.705182 -6.452671 19.557075 -0.202066 1.907037 0.099777 -0.019437 633542.000000 1 0 0
9.603489 -9.080382 -15.457671 20.337648 -0.757408 2.434189 0.084267 -0.026014 80488.200000 1 0 0
1.179089 1.818518 -15.353471 15.505687 0.995561 3.001358 0.013512 -0.003796 -22218.600000 1 0 0
4.822489 -4.370882 -13.948971 15.392686 -0.736315 2.705024 0.019775 -0.007468 1092230.000000 1 0 0
13.124689 -5.496482 -8.528771 16.589416 -0.396599 2.110765 0.032386 -0.006595 -1287690.000000 1 0 0
2.930289 0.732118 -12.286671 12.652465 0.244833 2.900548 0.009178 -0.005191 -3773570.000000 1 0 0
0.541489 6.342218 -13.059771 14.528405 1.485624 2.688078 0.013158 -0.002829 -444410.000000 1 0 0
3.157989 -1.253082 -16.824371 17.163990 -0.377743 2.942332 0.022669 -0.007505 -324104.000000 1 0 0
13.295689 4.361918 -11.444671 18.077117 0.317006 2.256351 0.029986 -0.006950 1010470.000000 1 0 0
-3.981911 9.246618 -16.457371 19.292501 -1.164163 2.592589 0.015764 -0.003010 -369764.000000 1 0 0
-0.319511 -5.080882 -17.601971 18.323395 1.507994 2.860051 0.013761 -0.016895 215094.000000 1 0 0
-0.459211 -8.763482 -17.681171 19.739131 1.518444 2.680894 0.016013 -0.008051 -1507400.000000 1 0 0
5.493589 -10.077682 -12.090771 16.671111 -1.071704 2.382198 0.015711 -0.005749 719028.000000 1 0 0
1.813489 -9.746082 -17.884871 20.448556 -1.386827 2.635463 0.035386 -0.021588 -790076.000000 1 0 0
10.881089 9.056918 -14.719971 20.423109 0.694160 2.375681 0.083551 -0.023538 -295331.000000 1 0 0
11.156589 -3.802582 -12.902571 17.475853 -0.328489 2.401355 0.043314 -0.016046 196307.000000 1 0 0
4.875489 7.513518 -12.220271 15.151183 0.995198 2.509098 0.003897 -0.000675 1280280.000000 1 0 0
9.813089 -5.975482 -12.685171 17.114808 -0.546960 2.405624 0.045551 -0.010706 -692938.000000 1 0 0
-3.301311 0.245718 -15.809971 16.152839 -0.074293 2.935185 0.013304 -0.007531 -1680540.000000 1 0 0
-0.867711 10.704218 -12.778971 16.692372 -1.489911 2.442704 0.014739 -0.000617 -699729.000000 1 0 0
6.743889 -5.430282 -12.528971 15.229679 -0.677913 2.536885 0.027998 -0.009262 -60918.500000 1 0 0
17.837489 -6.341682 -8.095871 20.589708 -0.341589 1.974906 0.065908 -0.023285 343654.000000 1 0 0
13.366189 4.714618 -13.978171 19.906579 0.339102 2.349263 0.061736 -0.018642 550110.000000 1 0 0
14.222089 0.787118 -11.441471 18.270047 0.055288 2.247520 0.032100 -0.002954 -468323.000000 1 0 0
15.134489 6.124918 -11.148071 19.769847 0.384551 2.169888 0.062275 -0.015119 -462310.000000 1 0 0
8.228689 1.483018 -11.780371 14.446031 0.178311 2.524345 0.007205 0.002616 784618.000000 1 0 0
9.993089 1.293918 -8.990271 13.504111 0.128765 2.299286 0.010707 -0.002121 329688.000000 1 0 0
-0.120711 -5.896882 -13.094971 14.361965 1.550329 2.718397 -0.001285 -0.004093 271921.000000 1 0 0
10.661689 -5.818582 -8.994671 15.113954 -0.499572 2.208216 0.025069 -0.007574 -72946.300000 1 0 0
10.229889 8.514418 -11.154971 17.366039 0.694133 2.268349 0.050057 -0.017872 940977.000000 1 0 0
8.445889 8.194718 -14.646271 18.788286 0.770305 2.464732 0.044399 -0.009531 256957.000000 1 0 0
8.600389 10.543418 -10.522071 17.200126 0.886548 2.229059 0.062123 -0.019491 -720940.000000 1 0 0
7.034489 1.718018 -17.870971 19.282303 0.239539 2.756615 0.040794 -0.011263 -2100420.000000 1 0 0
12.348389 2.600018 -12.840871 18.003632 0.207524 2.364903 0.043427 -0.010461 -1060250.000000 1 0 0
2.586589 -0.998382 -19.301571 19.499688 -0.368366 2.998923 0.033765 -0.017703 -573948.000000 1 0 0
10.250589 -2.051082 -15.472071 18.672613 -0.197486 2.547393 0.050247 -0.019118 593953.000000 1 0 0
8.332389 -0.848582 -12.998671 15.463319 -0.101492 2.569211 0.021047 -0.006548 750901.000000 1 0 0
0.585289 4.327818 -14.679771 15.315621 1.436373 2.852432 0.015775 -0.003515 473709.000000 1 0 0
3.890989 -7.747782 -15.549171 17.802939 -1.105385 2.632947 0.035398 -0.016929 -1430120.000000 1 0 0
11.747689 -5.837582 -14.342371 19.436799 -0.461175 2.400747 0.065927 -0.016605 -1190310.000000 1 0 0
-5.929311 4.197318 -16.771971 18.277669 -0.616004 2.732849 0.017222 -0.003048 600604.000000 1 0 0
11.398389 7.796218 -9.012471 16.490267 0.599890 2.149015 0.037709 -0.010286 -1407580.000000 1 0 0
9.671089 6.219718 -13.490671 17.726056 0.571527 2.435749 0.035383 0.000340 -122129.000000 1 0 0
12.123189 0.565218 -10.125271 15.805451 0.046589 2.266100 0.020192 -0.001441 -2343990.000000 1 0 0
5.532889 -7.301482 -13.696771 16.478047 -0.922337 2.552083 0.029748 -0.010394 -589106.000000 1 0 0
8.642289 -10.196982 -10.813271 17.192860 -0.867736 2.250985 0.031895 -0.005199 247174.000000 1 0 0
10.127889 4.686218 -15.827471 19.366042 0.433368 2.527470 0.053660 -0.013777 -1228290.000000 1 0 0
9.924889 -0.389282 -11.017971 14.834104 -0.039203 2.407958 0.018008 -0.005010 -347941.000000 1 0 0
-1.739311 5.435218 -13.955671 15.077385 -1.261087 2.753422 0.010715 -0.005653 857389.000000 1 0 0
1.343689 -0.723482 -14.979171 15.056709 -0.493917 3.040063 0.010667 -0.004445 62845.700000 1 0 0
11.410089 -10.593982 -14.314171 21.149895 -0.748326 2.314198 0.083239 -0.020512 -510224.000000 1 0 0
9.414889 -7.744582 -10.797571 16.285154 -0.688364 2.295658 0.033132 -0.009001 14084.500000 1 0 0
14.137089 -0.987582 -9.521471 17.073108 -0.069744 2.162394 0.029897 -0.002213 759343.000000 1 0 0
3.978989 11.045718 -12.231871 16.954613 1.225038 2.376687 0.022481 -0.009787 -691650.000000 1 0 0
-1.192411 2.858118 -17.001971 17.281715 -1.175550 2.961419 0.017658 -0.003082 725009.000000 1 0 0
6.113489 -0.684082 -17.495771 18.545746 -0.111434 2.803487 0.030658 -0.012327 118792.000000 1 0 0
6.105389 -6.526882 -16.106771 18.420207 -0.818752 2.635010 0.031990 -0.013792 49667.300000 1 0 0
-1.839611 -5.312382 -19.742271 20.527124 1.237433 2.864172 0.034291 -0.026746 -963642.000000 1 0 0
-0.079511 -4.297082 -15.203471 15.799264 1.552295 2.866094 0.002863 -0.009518 260831.000000 1 0 0
0.468489 0.684318 -12.970671 12.997156 0.970475 3.077741 0.008079 -0.008413 957174.000000 1 0 0
15.750889 0.415918 -13.360471 20.658308 0.026400 2.274093 0.067452 -0.023090 655031.000000 1 0 0
-0.058911 6.963618 -16.275771 17.702998 -1.562337 2.737296 0.020835 -0.000549 -398583.000000 1 0 0
-5.080511 -0.618782 -18.215471 18.920831 0.121198 2.867682 0.014476 -0.008029 -109243.000000 1 0 0
10.382289 -8.488882 -13.053071 18.714585 -0.685400 2.342673 0.039474 -0.018369 30155.200000 1 0 0
4.072789 8.707218 -17.094371 19.611750 1.133281 2.629333 0.037267 -0.013846 -568656.000000 1 0 0
9.113289 0.714718 -16.619571 18.967683 0.078266 2.638726 0.041371 -0.024092 -282669.000000 1 0 0
3.166989 4.932918 -18.627971 19.528563 1.000058 2.836714 0.032547 -0.003062 -632746.000000 1 0 0
1.373389 -8.311782 -15.809571 17.914085 -1.407042 2.651994 0.006285 -0.014849 -357518.000000 1 0 0
4.675489 7.480318 -14.873371 17.292556 1.012169 2.606267 0.015897 -0.005429 172298.000000 1 0 0
-5.716411 -0.516582 -15.090171 16.144889 0.090124 2.778131 0.013479 -0.008661 -356652.000000 1 0 0
2.941889 3.306818 -13.920871 14.607546 0.843733 2.833758 0.011541 -0.003566 447033.000000 1 0 0
-2.465411 -10.332182 -18.170371 21.047437 1.336562 2.612580 0.025445 -0.005422 -92241.300000 1 0 0
6.194989 -9.090782 -15.417071 18.939543 -0.972623 2.521828 0.037909 -0.015040 159730.000000 1 0 0
-1.795311 5.301118 -17.171371 18.060480 -1.244254 2.826509 0.016019 -0.006804 -59503.100000 1 0 0
10.049789 -12.200782 -11.828471 19.742595 -0.881770 2.213216 0.070523 -0.013862 147923.000000 1 0 0
10.953789 3.606518 -9.293371 14.810780 0.318070 2.249100 0.008115 -0.003510 -619166.000000 1 0 0
4.912989 -0.488282 -11.091471 12.140700 -0.099061 2.722792 0.014257 -0.006491 480667.000000 1 0 0
6.296289 9.443218 -11.265971 15.991864 0.982734 2.352488 0.018443 -0.011377 206007.000000 1 0 0
10.840289 -9.514182 -9.531171 17.287994 -0.720339 2.154739 0.039745 -0.012135 -136663.000000 1 0 0
3.240189 -2.418182 -14.509471 15.062243 -0.641135 2.869836 0.013203 -0.005636 37981.600000 1 0 0
9.550789 -4.576082 -14.799571 18.198500 -0.446814 2.520478 0.059070 -0.014735 -183240.000000 1 0 0
-3.984911 -6.628182 -16.537671 18.256694 1.029490 2.704158 0.002799 -0.009974 -608397.000000 1 0 0
5.872289 -7.644382 -11.232271 14.801495 -0.915759 2.432358 0.017175 -0.005689 58754.500000 1 0 0
5.371089 6.484418 -17.182571 19.134707 0.879032 2.685952 0.029827 0.005572 -1649660.000000 1 0 0
9.182689 1.002818 -19.183371 21.291527 0.108776 2.692833 0.071014 -0.030710 503419.000000 1 0 0
13.209189 5.777918 -9.306171 17.160181 0.412340 2.143983 0.024161 -0.007126 1273480.000000 1 0 0
-1.565811 -0.753582 -17.312171 17.399164 0.448554 3.041552 0.017772 -0.009658 193215.000000 1 0 0
-0.443811 -0.560382 -19.477171 19.490284 0.900966 3.104908 0.032978 -0.018611 -468789.000000 1 0 0
2.884089 6.334718 -16.482771 17.892131 1.143558 2.742027 0.021681 -0.001359 412926.000000 1 0 0
7.703289 3.751418 -15.710571 17.895134 0.453185 2.642306 0.030928 -0.002665 -812.413000 1 0 0
2.873989 -10.047082 -14.873671 18.177727 -1.292184 2.529132 0.017564 -0.004560 506387.000000 1 0 0
8.899989 -10.528382 -13.447571 19.258603 -0.869018 2.343764 0.053393 -0.014199 742957.000000 1 0 0
3.843189 0.082718 -14.803771 15.294724 0.021520 2.887535 0.013974 -0.005545 -2943660.000000 1 0 0
-1.165811 -2.951782 -18.893671 19.158364 1.194650 2.975171 0.032009 -0.013016 65121.200000 1 0 0
9.191389 10.044018 -12.965171 18.800521 0.829695 2.331757 0.071202 -0.026335 -321056.000000 1 0 0
4.556189 2.003718 -10.702171 11.802974 0.414322 2.706272 0.009227 0.000039 33405.800000 1 0 0
-0.674711 6.939818 -18.783771 20.036126 -1.473878 2.786157 0.033456 -0.006410 353698.000000 1 0 0
0.787489 -1.848182 -17.498171 17.613117 -1.168004 3.027283 0.023029 -0.015050 -2006370.000000 1 0 0
-4.499711 -2.529382 -13.989671 14.911608 0.512102 2.788111 0.009923 -0.005136 -2085760.000000 1 0 0
10.025589 6.005318 -10.357771 15.616008 0.539683 2.295988 0.018572 -0.000730 171869.000000 1 0 0
8.311089 5.552918 -17.418771 20.082895 0.589017 2.620636 0.064899 -0.018681 -279650.000000 1 0 0
11.581189 0.164918 -13.639871 17.894055 0.014239 2.437589 0.037196 0.000378 529632.000000 1 0 0
6.870589 11.876718 -11.907971 18.167586 1.046341 2.285577 0.050639 -0.020091 -281024.000000 1 0 0
-0.939711 0.542818 -15.116971 15.155874 -0.523819 3.069927 0.011712 -0.006162 113478.000000 1 0 0
-4.244211 -2.967682 -18.861571 19.559635 0.610209 2.873625 0.012791 -0.012768 -161155.000000 1 0 0
5.624589 -12.045882 -13.795671 19.158805 -1.133953 2.374699 0.023839 -0.011042 -187969.000000 1 0 0
2.159289 -4.751782 -14.027771 14.967308 -1.144276 2.785389 0.007826 -0.006167 369044.000000 1 0 0
11.893489 2.034418 -15.381071 19.549201 0.169413 2.476383 0.067499 -0.015621 474294.000000 1 0 0
9.873489 2.225618 -13.721771 17.050694 0.221708 2.506073 0.029703 -0.008520 334928.000000 1 0 0
-2.421111 -4.188882 -16.280571 16.984272 1.046722 2.852726 0.006604 -0.013404 -588886.000000 1 0 0
-2.984311 10.015018 -14.266771 17.684667 -1.281190 2.509395 0.013844 -0.006140 41084.600000 1 0 0
3.439089 5.743618 -13.619471 15.175851 1.031284 2.684736 0.013669 -0.001724 111147.000000 1 0 0
-5.304911 -2.635782 -16.554471 17.582375 0.461130 2.797962 0.014854 -0.004758 519967.000000 1 0 0
-4.376511 6.090218 -13.659671 15.583042 -0.947687 2.639490 0.002673 -0.004469 -491557.000000 1 0 0
5.971289 -1.145882 -14.211371 15.457438 -0.189594 2.737316 0.022502 -0.001150 -1808680.000000 1 0 0
6.656289 -2.898082 -12.596771 14.539040 -0.410638 2.618764 0.022129 -0.009577 561813.000000 1 0 0
2.835489 -3.358582 -18.278871 18.799925 -0.869649 2.905606 0.032931 -0.020208 -124984.000000 1 0 0
7.401189 -12.032482 -11.966671 18.513764 -1.019347 2.273609 0.035200 -0.010191 -1217250.000000 1 0 0
-6.103411 -5.515582 -17.724971 19.540928 0.734849 2.707065 0.029779 -0.008389 295821.000000 1 0 0
0.510889 8.681418 -11.905771 14.743656 1.512016 2.510729 0.008819 0.000694 152218.000000 1 0 0
0.326689 8.625918 -14.422371 16.808270 1.532941 2.602261 0.013779 0.002164 -43937.400000 1 0 0
7.763589 -2.635182 -14.897571 17.004562 -0.327226 2.638494 0.036193 -0.020859 -702292.000000 1 0 0
14.185489 1.594318 -8.879471 16.811156 0.111921 2.127263 0.019805 -0.000794 229181.000000 1 0 0
2.708789 10.858918 -14.504871 18.320614 1.326333 2.484422 0.018206 0.000209 56578.000000 1 0 0
6.027289 1.017318 -15.526371 16.686262 0.167209 2.766540 0.022722 -0.004139 -217451.000000 1 0 0
16.705689 -5.407682 -10.211571 20.312539 -0.313058 2.097542 0.078544 -0.025520 195494.000000 1 0 0
4.837889 -4.284582 -11.255771 12.979029 -0.724819 2.620403 0.012735 -0.003986 -78099.000000 1 0 0
8.943789 -3.615782 -17.038271 19.579783 -0.384189 2.626399 0.052809 -0.021842 325620.000000 1 0 0
13.338289 -9.698382 -8.950471 18.763782 -0.628689 2.068043 0.058187 -0.016343 -63395.100000 1 0 0
2.244289 -8.127382 -13.377971 15.813326 -1.301371 2.579222 0.004163 -0.002550 172769.000000 1 0 0
-6.861711 -2.549682 -18.617571 20.004947 0.355770 2.766977 0.022402 -0.005362 -211318.000000 1 0 0
-1.479011 -6.555382 -15.777971 17.149486 1.348894 2.738943 -0.002253 -0.006970 -318518.000000 1 0 0
1.556289 -7.298682 -18.291571 19.755363 -1.360714 2.754218 0.035164 -0.024234 -474232.000000 1 0 0
5.290889 10.894118 -14.504471 18.895898 1.118683 2.445883 0.045254 -0.018818 -759170.000000 1 0 0
5.366089 -3.689182 -17.395071 18.574000 -0.602287 2.783389 0.031736 -0.019422 -1598020.000000 1 0 0
3.939889 13.083218 -13.979271 19.547719 1.278293 2.367614 0.036719 -0.012347 -2419.700000 1 0 0
9.002189 10.707218 -15.402371 20.806656 0.871692 2.404256 0.082526 -0.025772 164828.000000 1 0 0
2.505389 3.787618 -16.340171 16.959487 0.986401 2.870514 0.018568 -0.003434 444921.000000 1 0 0
16.634789 1.687718 -11.238771 20.146329 0.101111 2.162598 0.071704 -0.016385 77010.300000 1 0 0
10.215889 -3.743282 -10.434371 15.074901 -0.351225 2.335286 0.032178 -0.008213 213992.000000 1 0 0
14.858289 -2.302782 -11.824771 19.128428 -0.153760 2.237219 0.065192 -0.014336 -62582.900000 1 0 0
-2.718411 -8.696482 -16.137171 18.531779 1.267832 2.627590 0.006279 -0.002923 -230555.000000 1 0 0
13.882389 8.338718 -9.005771 18.529945 0.540911 2.078317 0.054715 -0.012147 494734.000000 1 0 0
-8.351711 -0.284182 -16.506871 18.501584 0.034014 2.672960 0.018248 -0.008529 -603293.000000 1 0 0
-3.456711 3.817218 -15.842771 16.658733 -0.834919 2.827312 0.009321 -0.004099 -351727.000000 1 0 0
15.109989 3.991618 -9.648571 18.366810 0.258271 2.123895 0.039614 -0.004330 -99244.200000 1 0 0
5.340689 1.105318 -12.985771 14.084563 0.204080 2.743975 0.016993 -0.001381 -162926.000000 1 0 0
7.921389 -7.752282 -12.903471 17.010169 -0.774609 2.431918 0.049193 -0.012597 -2796850.000000 1 0 0
3.093589 -6.113782 -11.937971 13.764584 -1.102358 2.620541 0.006054 -0.003983 -544762.000000 1 0 0
-3.205911 3.528618 -18.461771 19.067406 -0.833280 2.888878 0.008633 -0.000728 44766.400000 1 0 0
0.768289 5.087718 -17.731871 18.463325 1.420920 2.859171 0.027123 -0.011440 -1308520.000000 1 0 0
6.349289 7.048318 -10.195271 13.926083 0.837527 2.392194 0.007182 0.001678 196124.000000 1 0 0
9.892789 3.628518 -11.583671 15.659337 0.351548 2.403464 0.019796 -0.002704 742437.000000 1 0 0
4.556789 1.415518 -17.708471 18.340064 0.301189 2.878392 0.028174 -0.000433 -823665.000000 1 0 0
2.583989 8.107718 -13.410971 15.882891 1.262266 2.576177 0.010628 0.002115 -710387.000000 1 0 0
14.466689 -3.536182 -9.669871 17.756579 -0.239735 2.146684 0.043152 -0.009074 -39283.900000 1 0 0
-1.381111 9.228118 -16.232171 18.722953 -1.422236 2.619879 0.020193 0.000919 -982977.000000 1 0 0
-5.209211 1.921418 -15.807471 16.754219 -0.353368 2.803810 0.014530 -0.006017 503394.000000 1 0 0
4.428189 4.168818 -11.986371 13.441019 0.755237 2.672050 0.009709 0.000427 491492.000000 1 0 0
9.302489 3.079718 -17.658071 20.194762 0.319707 2.634971 0.056520 -0.013258 1141620.000000 1 0 0
-4.383111 14.433718 -13.315971 20.121107 -1.275974 2.294002 0.014863 -0.001902 -271523.000000 1 0 0
15.529089 -5.039082 -7.848271 18.114644 -0.313773 2.018898 0.048289 -0.010696 290945.000000 1 0 0
1.224589 9.256318 -16.894571 19.302993 1.439263 2.636709 0.026672 0.004311 210666.000000 1 0 0
0.438689 -3.283782 -12.821571 13.242671 -1.437990 2.888734 0.001300 -0.006030 488414.000000 1 0 0
7.725489 3.657718 -13.056671 15.605727 0.442192 2.561951 0.020922 -0.001010 559945.000000 1 0 0
-2.840611 7.517518 -15.042971 17.055002 -1.209516 2.650943 0.007640 -0.002183 99358.600000 1 0 0
12.251289 -5.163882 -11.024571 17.271390 -0.398900 2.263102 0.044108 -0.012180 -823206.000000 1 0 0
0.651589 -4.493782 -19.977971 20.487507 -1.426802 2.918100 0.043268 -0.023080 12745.500000 1 0 0
3.390189 -4.656382 -16.120371 17.118459 -0.941476 2.798430 0.026700 -0.018157 468957.000000 1 0 0
-5.678011 3.949418 -14.240471 15.831257 -0.607742 2.689457 0.005733 -0.004805 415286.000000 1 0 0
12.344589 -7.513382 -9.872171 17.501416 -0.546747 2.170113 0.034678 -0.008408 210794.000000 1 0 0
-2.057611 -1.851882 -14.934971 15.189357 0.732824 2.958319 0.009940 -0.005495 223414.000000 1 0 0
7.187789 5.869518 -14.368971 17.105054 0.684779 2.568158 0.025980 -0.000941 25817.000000 1 0 0
4.054789 -5.567582 -18.426471 19.671657 -0.941338 2.783884 0.050744 -0.021927 22206.400000 1 0 0
7.574789 7.366718 -12.403371 16.293850 0.771473 2.436004 0.018349 -0.005574 -369863.000000 1 0 0
12.486289 -2.575882 -10.979771 16.825515 -0.203443 2.281763 0.036627 -0.005743 -1388860.000000 1 0 0
7.499089 -0.785582 -10.667271 13.063083 -0.104376 2.526286 0.014908 -0.003269 -1159770.000000 1 0 0
5.444889 4.016818 -14.357371 15.871853 0.635597 2.701191 0.010687 -0.003715 -714543.000000 1 0 0
14.927889 2.866318 -12.906171 19.940584 0.189702 2.274743 0.055637 -0.019267 -342112.000000 1 0 0
-6.605711 6.585918 -15.753771 18.308223 -0.783898 2.606998 0.007132 0.002243 161874.000000 1 0 0
-11.068711 3.724918 -16.614471 20.308422 -0.324622 2.528909 0.035894 -0.018225 522988.000000 1 0 0
-5.220911 6.415218 -17.873371 19.694423 -0.887678 2.708172 0.012818 0.010805 -580293.000000 1 0 0
-9.844511 1.665018 -15.774071 18.668368 -0.167546 2.577291 0.029107 -0.010911 30188.800000 1 0 0
-7.732711 5.638718 -17.914971 20.310985 -0.630058 2.650957 0.014447 0.002205 -499515.000000 1 0 0
-8.690611 3.960318 -15.421071 18.138915 -0.427585 2.587095 0.012387 -0.006258 -1794970.000000 1 0 0
9.009689 13.430618 -12.051171 20.168954 0.979916 2.211190 0.099190 -0.033873 -973915.000000 1 0 0
13.570389 8.855118 -11.657171 19.961418 0.578153 2.194426 0.056410 -0.013156 419153.000000 1 0 0
8.474089 15.830218 -9.186171 20.169078 1.079301 2.043683 0.070250 -0.021524 -228143.000000 1 0 0
7.225189 13.538418 -13.878471 20.690676 1.080569 2.306029 0.080495 -0.021563 2126.680000 1 0 0
4.892589 16.003918 -12.488071 20.880965 1.274107 2.211875 0.062065 -0.021907 16418.700000 1 0 0
11.017989 10.950218 -11.514171 19.335963 0.782313 2.208659 0.092793 -0.025540 -878290.000000 1 0 0
15.810389 9.365518 -10.328571 21.079865 0.534786 2.082855 0.099478 -0.006910 -1087200.000000 1 0 0
13.659289 10.761618 -9.931471 20.025551 0.667295 2.089713 0.119929 -0.021816 331474.000000 1 0 0
10.714489 11.929318 -8.274371 18.043672 0.838996 2.047187 0.059148 -0.009090 435116.000000 1 0 0
5.379689 16.099318 -9.873671 19.637170 1.248305 2.097637 0.051765 -0.026678 -443426.000000 1 0 0
6.744389 14.511918 -11.476971 19.692724 1.135746 2.192970 0.064863 -0.018847 -769801.000000 1 0 0
10.911589 14.131618 -9.794071 20.363919 0.913275 2.072537 0.097703 -0.016131 -417601.000000 1 0 0
8.150789 -18.662582 -1.375471 20.411253 -1.159020 1.638235 0.066996 -0.007905 196630.000000 1 0 0
7.237589 -17.286682 -3.201971 19.012225 -1.174291 1.740019 0.047868 -0.013841 -247242.000000 1 0 0
4.454889 -17.787182 5.497029 19.142811 -1.325389 1.279537 0.046880 -0.018650 294947.000000 1 0 0
9.773389 -17.096382 -2.623971 19.866823 -1.051473 1.703261 0.065421 -0.006462 -1158700.000000 1 0 0
-9.657711 -12.286982 -9.950271 18.526986 0.904643 2.137755 0.032489 -0.013196 123643.000000 1 0 0
-5.216911 -6.977082 -12.225571 15.012009 0.928755 2.522467 0.001183 0.001608 574463.000000 1 0 0
-10.840811 -9.415482 -5.546771 15.392893 0.715149 1.939435 0.021002 -0.008017 -105301.000000 1 0 0
-4.567111 -11.554082 -14.054671 18.758707 1.194365 2.417702 0.002593 -0.005152 -481672.000000 1 0 0
-3.074711 -15.346282 7.540729 17.373107 1.373059 1.121817 0.013437 -0.008180 251343.000000 1 0 0
-4.832611 -12.044282 -11.577771 17.391482 1.189224 2.299248 0.002521 -0.005995 206593.000000 1 0 0
-14.574311 -12.613382 -4.265371 19.740854 0.713397 1.788582 0.059238 -0.014323 283150.000000 1 0 0
-3.176411 -12.254982 -3.217071 13.062302 1.317184 1.819643 0.008096 -0.001994 862358.000000 1 0 0
-2.514511 -17.407982 -1.446771 17.648053 1.427343 1.652867 0.004047 -0.009092 -983762.000000 1 0 0
-5.855811 -12.129782 3.749029 13.981322 1.121033 1.299329 -0.001097 0.000312 108239.000000 1 0 0
-8.988211 -10.855882 -11.920171 18.458835 0.879239 2.272828 0.020200 -0.004241 -353644.000000 1 0 0
-9.812411 -11.953782 -7.459271 17.170237 0.883463 2.020202 0.035110 -0.015611 383210.000000 1 0 0
-10.889211 -15.116982 6.248829 19.650596 0.946556 1.247180 0.034227 -0.007617 -327290.000000 1 0 0
-9.490911 -15.869382 0.538429 18.498773 1.031801 1.541686 0.023316 -0.002413 -1983790.000000 1 0 0
-14.971311 -7.617982 -8.011371 18.610638 0.470694 2.015813 0.033902 -0.015141 -264032.000000 1 0 0
-2.403811 -16.500882 5.358629 17.514918 1.426136 1.259864 0.021153 -0.013009 431332.000000 1 0 0
4.620889 -15.530582 6.923129 17.620480 -1.281603 1.167011 0.037509 -0.010794 -218083.000000 1 0 0
4.059489 -14.714382 -10.036571 18.268149 -1.301607 2.152446 0.012766 -0.000513 402550.000000 1 0 0
-7.606011 -14.065782 -0.307271 15.993500 1.075086 1.590010 0.005821 -0.001243 620997.000000 1 0 0
3.018689 -14.770782 9.767929 17.963879 -1.369203 0.995893 0.028846 -0.013747 137372.000000 1 0 0
2.398989 -17.131182 10.368229 20.167616 -1.431665 1.030835 0.055643 -0.020221 -268559.000000 1 0 0
-8.308811 -16.928982 -5.685871 19.696596 1.114533 1.863637 0.047442 -0.019453 -134359.000000 1 0 0
-6.472211 -9.197082 -7.782571 13.676412 0.957575 2.176147 0.015823 -0.008292 486155.000000 1 0 0
-6.034511 -12.962282 -4.707871 15.053243 1.135092 1.888881 0.005037 -0.011220 608878.000000 1 0 0
2.191689 -19.368782 -4.759771 20.065110 -1.458120 1.810296 0.023674 -0.019452 266392.000000 1 0 0
-5.532111 -12.759582 8.401529 16.247981 1.161693 1.027359 0.007374 -0.007375 695142.000000 1 0 0
2.128589 -17.515682 3.482729 17.984978 -1.449865 1.375919 0.027700 -0.011736 -186178.000000 1 0 0
-17.577611 -10.050982 -2.572471 20.411082 0.519431 1.697165 0.036738 -0.014967 598533.000000 1 0 0
-3.527411 -15.475682 2.656029 16.093286 1.346692 1.404998 0.006573 -0.005505 170409.000000 1 0 0
-10.206911 -10.139982 -14.194271 20.210828 0.782109 2.349434 0.035419 -0.013051 -279076.000000 1 0 0
6.065089 -14.564082 -5.605571 16.742766 -1.176197 1.912195 0.009056 -0.010490 173679.000000 1 0 0
-7.264811 -12.376082 -10.759171 17.936127 1.039987 2.214123 0.007597 -0.011308 -2306210.000000 1 0 0
-7.231711 -14.275582 4.013329 16.498385 1.101899 1.325075 0.002006 0.001449 707587.000000 1 0 0
3.266389 -15.050182 -3.064671 15.702531 -1.357078 1.767228 0.008939 -0.008314 469963.000000 1 0 0
-7.652311 -11.436682 7.753529 15.794707 0.981109 1.057681 0.009885 -0.009497 -1921070.000000 1 0 0
-12.749811 -12.393882 -1.077471 17.813673 0.771243 1.631319 0.024445 0.003910 1669200.000000 1 0 0
-1.875811 -13.624782 4.036429 14.333392 1.433980 1.285325 0.007410 -0.004435 -2741950.000000 1 0 0
-3.128311 -13.861282 5.281929 15.159824 1.348828 1.214915 0.004431 -0.004360 -17566.100000 1 0 0
-14.532411 -10.101982 -4.455771 18.250888 0.607453 1.817429 0.029125 -0.012941 1096010.000000 1 0 0
-6.217511 -8.766382 -10.573671 15.076784 0.953893 2.348046 0.002704 -0.003238 67368.700000 1 0 0
0.693189 -19.372382 2.470829 19.541615 -1.535029 1.444018 0.041214 -0.019801 197476.000000 1 0 0
6.428089 -14.232882 -8.263171 17.668482 -1.146582 2.057459 0.020496 -0.004330 -1915400.000000 1 0 0
-4.055211 -16.684582 -5.851871 18.140133 1.332368 1.899263 0.012107 -0.010243 -120784.000000 1 0 0
-3.741711 -13.838082 -13.142971 19.448152 1.306719 2.312840 0.007027 -0.001966 -1199870.000000 1 0 0
-8.247211 -14.584382 -4.415271 17.326722 1.056144 1.828462 0.022231 -0.015677 -756112.000000 1 0 0
-4.538011 -14.361982 10.187529 18.183669 1.264750 0.976100 0.011901 -0.006990 -1335630.000000 1 0 0
-0.309211 -12.146282 -10.009671 15.742341 1.545345 2.259898 0.001772 0.002368 504482.000000 1 0 0
2.434489 -17.137882 6.953929 18.654514 -1.429687 1.188799 0.032835 -0.014296 -708635.000000 1 0 0
-2.963611 -19.159082 -3.437271 19.689293 1.417328 1.746271 0.013251 -0.009235 -578860.000000 1 0 0
0.592189 -15.398382 -3.107571 15.719983 -1.532357 1.769790 0.006121 -0.007276 262132.000000 1 0 0
6.001289 -18.004782 0.613029 18.988509 -1.249061 1.538506 0.040896 -0.009279 -377391.000000 1 0 0
-7.037611 -16.723582 4.005729 18.580959 1.172472 1.353508 0.008899 0.000185 63323.200000 1 0 0
-5.325911 -13.544982 -9.510571 17.386283 1.196164 2.149592 0.005902 -0.011269 -46066.600000 1 0 0
5.652489 -15.278582 -2.046171 16.418664 -1.216450 1.695746 0.025930 -0.007404 -1308780.000000 1 0 0
-8.860611 -10.238482 -0.566771 13.552054 0.857417 1.612630 0.005602 0.001598 -267452.000000 1 0 0
-7.421211 -17.840882 -3.053371 19.562580 1.176602 1.727519 0.030750 -0.028960 -274417.000000 1 0 0
7.930889 -16.132582 -1.044171 18.006930 -1.113886 1.628816 0.032352 -0.006828 -74824.100000 1 0 0
-8.081411 -10.202982 -9.596971 16.171329 0.900913 2.206142 0.017224 -0.008264 -975454.000000 1 0 0
-9.211611 -14.847682 -6.822271 18.757687 1.015506 1.943039 0.045360 -0.025359 -457021.000000 1 0 0
-11.587711 -10.435482 -11.970671 19.658873 0.733127 2.225494 0.046314 -0.004186 -548681.000000 1 0 0
6.490289 -16.249082 2.573729 17.685605 -1.190786 1.424751 0.031536 -0.010258 833573.000000 1 0 0
-2.165111 -11.232082 -6.037171 12.934249 1.380371 2.056418 0.002641 -0.000887 441932.000000 1 0 0
-12.671111 -15.138282 -3.463471 20.042961 0.873884 1.744470 0.061389 -0.017477 870561.000000 1 0 0
-0.457411 -19.528982 -2.734071 19.724744 1.547378 1.709855 0.029350 -0.018181 -709910.000000 1 0 0
-5.930611 -15.584282 -4.558071 17.286353 1.207168 1.837632 0.010705 -0.013177 -1708590.000000 1 0 0
1.860489 -15.940182 -0.962471 16.077226 -1.454605 1.630698 0.015401 -0.011210 294182.000000 1 0 0
-13.321711 -11.865482 5.314629 18.614589 0.727646 1.281259 0.028621 -0.003320 488427.000000 1 0 0
1.966589 -15.338582 -8.694671 17.740825 -1.443280 2.082994 0.013383 0.003246 -979377.000000 1 0 0
-11.897711 -16.662382 0.123329 20.474514 0.950705 1.564773 0.074360 -0.018214 537851.000000 1 0 0
-7.519511 -16.650982 -0.828171 18.288907 1.146616 1.616094 0.024525 -0.011019 736011.000000 1 0 0
-3.013911 -14.386482 -1.710771 14.798016 1.364287 1.686664 0.006252 -0.007012 223579.000000 1 0 0
-1.944211 -10.644482 -13.194871 17.064278 1.390138 2.454739 0.001458 -0.002058 -199734.000000 1 0 0
1.350989 -19.420482 5.018629 20.103904 -1.501343 1.318493 0.053060 -0.021739 123507.000000 1 0 0
-17.402611 -9.444582 2.331629 19.937088 0.497230 1.453579 0.028684 -0.008584 431883.000000 1 0 0
-2.742211 -15.804782 -8.040471 17.943245 1.399001 2.035442 0.004225 -0.001159 -1108020.000000 1 0 0
-10.459811 -12.151782 0.181529 16.034538 0.860087 1.559475 0.008157 0.004397 409954.000000 1 0 0
-6.809311 -11.471582 -6.551671 14.862311 1.035110 2.027313 0.010070 -0.008508 -186425.000000 1 0 0
-2.233011 -13.729182 -6.580571 15.387680 1.409561 2.012690 0.000982 -0.002868 287905.000000 1 0 0
-14.318111 -14.593982 -0.969971 20.467864 0.794940 1.618204 0.055396 -0.001730 161838.000000 1 0 0
-9.650911 -11.339182 -4.517671 15.560414 0.865657 1.865369 0.024676 -0.005990 1119950.000000 1 0 0
9.481789 -15.176182 -5.048671 18.593276 -1.012355 1.845781 0.042800 -0.005926 363031.000000 1 0 0
-5.565411 -10.868782 -9.405771 15.413395 1.097552 2.227152 0.003214 -0.007497 -583285.000000 1 0 0
-10.520011 -15.910282 -4.811571 19.671272 0.986582 1.817902 0.059529 -0.016322 -834312.000000 1 0 0
2.175689 -17.401482 -3.136971 17.815325 -1.446413 1.747802 0.017453 -0.009945 859612.000000 1 0 0
-0.448711 -14.555082 -8.143471 16.684360 1.539978 2.080696 0.004066 0.002297 -1147910.000000 1 0 0
-0.566811 -18.452482 -6.999971 19.743732 1.540089 1.933220 0.020365 -0.002868 234604.000000 1 0 0
-1.875211 -10.017182 -10.571671 14.684025 1.385739 2.374517 -0.001815 0.000115 426114.000000 1 0 0
-5.180611 -17.372482 2.070229 18.246307 1.280985 1.457091 0.005485 -0.007865 294380.000000 1 0 0
0.259889 -12.936382 -2.571571 13.192062 -1.550709 1.766986 0.006366 -0.004320 -822589.000000 1 0 0
2.741089 -15.054082 3.154529 15.623381 -1.390687 1.367488 0.022611 -0.007295 -676934.000000 1 0 0
-9.522411 -13.063482 6.830329 17.549481 0.940915 1.171029 0.005511 -0.004885 -126557.000000 1 0 0
-1.048011 -17.815082 -4.517671 18.408825 1.512037 1.818737 0.011930 -0.012559 22349.600000 1 0 0
-9.752211 -17.450782 -2.079971 20.098798 1.061191 1.674469 0.054350 -0.024055 -1552980.000000 1 0 0
1.251889 -16.090782 1.517729 16.210614 -1.493151 1.477033 0.019367 -0.018132 113994.000000 1 0 0
-0.484611 -17.901682 4.148229 18.382407 1.543732 1.343173 0.037702 -0.020166 -252926.000000 1 0 0
-17.326511 -9.176482 -0.138271 19.607012 0.487063 1.577848 0.015164 -0.003734 889286.000000 1 0 0
-14.727311 -7.352582 -10.590571 19.573307 0.463046 2.142508 0.053238 -0.018761 527063.000000 1 0 0
2.737689 -12.789882 -8.834371 15.783603 -1.359927 2.164842 0.000661 0.003075 511942.000000 1 0 0
-11.551911 -14.598382 1.657129 18.689716 0.901374 1.482014 0.034968 -0.006047 490998.000000 1 0 0
-2.238111 -15.565582 10.675229 19.006762 1.427989 0.974412 0.012377 -0.007025 234732.000000 1 0 0
-7.153111 -15.764982 1.475529 17.374661 1.144841 1.485770 0.014513 -0.008396 -602460.000000 1 0 0
-12.531911 -15.198682 -6.125871 20.629470 0.881270 1.872291 0.059685 -0.010357 515013.000000 1 0 0
0.905889 -13.731682 -5.067971 14.665063 -1.504921 1.923654 0.004726 -0.001311 270406.000000 1 0 0
5.810789 -16.479282 -7.322671 18.946069 -1.231797 1.967631 0.038522 -0.019367 142937.000000 1 0 0
-6.508111 -12.921882 5.978129 15.654666 1.104233 1.178972 0.004908 -0.001557 372596.000000 1 0 0
-2.554611 -13.559582 0.696129 13.815676 1.384580 1.520388 0.007067 -0.008156 2159210.000000 1 0 0
-4.301011 -15.553482 0.223829 16.138761 1.301008 1.556927 -0.000413 -0.008625 303860.000000 1 0 0
-17.567511 -7.546282 -2.211571 19.247204 0.405726 1.685954 0.009629 -0.003962 313597.000000 1 0 0
1.175889 -12.894482 -12.013771 17.662986 -1.479855 2.318786 0.007290 0.001959 218904.000000 1 0 0
1.244989 -17.120682 -5.638171 18.068114 -1.498206 1.888147 0.021262 -0.009008 -238774.000000 1 0 0
-12.863511 -6.367182 -9.078571 16.983267 0.459624 2.134783 0.033250 -0.007500 50284.200000 1 0 0
-11.588111 -13.387882 -8.894271 19.814837 0.857334 2.036296 0.054803 -0.021174 -304182.000000 1 0 0
-4.338811 -9.837382 3.445029 11.290155 1.155407 1.260715 0.005619 -0.000072 -3277380.000000 1 0 0
-7.068011 -14.317682 9.723329 18.694811 1.112237 1.023818 0.009059 -0.009191 -972308.000000 1 0 0
-5.292811 -15.863482 -8.163971 18.609523 1.248763 2.024946 0.008461 -0.012812 -909807.000000 1 0 0
-0.208711 -13.508082 2.154929 13.680481 1.555347 1.412619 0.012655 -0.008926 894242.000000 1 0 0
-11.107411 -13.364382 -4.825671 18.035199 0.877365 1.841666 0.050538 -0.011803 -859127.000000 1 0 0
-9.723311 -10.425782 6.632929 15.723723 0.820248 1.135320 0.013114 -0.004035 -257070.000000 1 0 0
-15.447511 -7.894882 -4.759971 17.989221 0.472471 1.838587 0.021541 -0.011347 -792454.000000 1 0 0
-14.458711 -7.267782 5.507929 17.094217 0.465772 1.242733 0.008504 -0.006617 -490444.000000 1 0 0
-1.616311 -19.261382 0.078429 19.329239 1.487078 1.566739 0.022622 -0.016608 -39003.100000 1 0 0
-15.285611 -12.254182 -1.405671 19.641558 0.675765 1.642424 0.032853 0.002884 -22176.200000 1 0 0
-4.363211 -12.150482 -6.784371 14.584221 1.226040 2.054641 0.003102 -0.004995 1150250.000000 1 0 0
-7.584011 -18.343782 2.086429 19.959077 1.178760 1.466070 0.024793 -0.006435 -177549.000000 1 0 0
-2.479511 -11.825182 -8.628771 14.847175 1.364110 2.190965 -0.001573 0.000038 483249.000000 1 0 0
-1.211511 -20.370082 -4.955471 20.999160 1.511391 1.809028 0.037584 -0.009542 32385.200000 1 0 0
-5.291811 -8.969382 -13.824371 17.307984 1.037773 2.495974 0.000668 -0.006475 389141.000000 1 0 0
-8.297411 -19.167182 -0.865371 20.903989 1.162256 1.612206 0.032481 -0.004913 180237.000000 1 0 0
-17.002011 -7.146782 5.719529 19.309528 0.397925 1.270082 0.028280 -0.011206 -330820.000000 1 0 0
-3.637011 -14.550382 -4.278171 15.596289 1.325855 1.848665 0.002361 -0.007249 -2641040.000000 1 0 0
-3.090811 -14.852682 -10.832671 18.641407 1.365627 2.190886 0.010703 -0.008741 -129238.000000 1 0 0
-0.053311 -16.616482 6.417729 17.812849 1.567588 1.202221 0.036256 -0.014977 -996710.000000 1 0 0
-11.173511 -11.561282 3.925729 16.550587 0.802453 1.331318 0.009887 0.001092 -819390.000000 1 0 0
-0.306111 -14.705382 -0.104871 14.708942 1.549983 1.577926 0.006387 -0.008845 934558.000000 1 0 0
-7.212711 -9.508182 -2.502271 12.193854 0.921827 1.777472 0.012014 -0.001293 -185669.000000 1 0 0
-10.995811 -14.409682 -0.944671 18.150460 0.918973 1.622866 0.031231 -0.009401 353423.000000 1 0 0
0.204289 -14.698182 -10.604871 18.125716 -1.556898 2.195767 0.007168 0.002592 179378.000000 1 0 0
-1.435511 -14.014882 -3.864271 14.608566 1.468725 1.838503 0.007275 -0.003204 -4194980.000000 1 0 0
-11.319711 -8.011882 -7.603171 15.815635 0.615929 2.072292 0.023878 -0.007979 696959.000000 1 0 0
-0.252411 -17.287782 -0.095471 17.289889 1.556197 1.576318 0.016076 -0.015369 -526434.000000 1 0 0
-12.856411 -9.462682 4.525129 16.592361 0.634499 1.294573 0.007102 -0.001454 -324753.000000 1 0 0
3.931389 -16.758582 1.586429 17.286488 -1.340373 1.478894 0.030974 -0.017756 1758160.000000 1 0 0
-3.899811 -18.013582 -8.070071 20.120231 1.357594 1.983505 0.031277 -0.015479 185040.000000 1 0 0
-13.288211 -11.222582 2.713729 17.603614 0.701323 1.416022 0.006915 0.000461 -1172100.000000 1 0 0
-8.591911 -12.174482 4.251829 15.495709 0.956234 1.292844 0.006388 -0.002644 1531440.000000 1 0 0
-8.253411 -9.406282 -5.902671 13.836129 0.850588 2.011541 0.020489 -0.008035 763695.000000 1 0 0
3.829889 -17.366782 -5.143071 18.512816 -1.353741 1.852311 0.012525 -0.011074 -327245.000000 1 0 0
-2.702611 -13.019382 11.339329 17.475377 1.366120 0.864692 0.007002 -0.010353 34221.700000 1 0 0
-0.041411 -16.805782 -9.330271 19.222122 1.568332 2.077608 0.015823 -0.003931 -218820.000000 1 0 0
-7.121911 -10.732382 -14.374271 19.300914 0.984926 2.410950 0.008749 -0.006036 1820540.000000 1 0 0
-4.652611 -18.786282 -1.511771 19.412796 1.328021 1.648750 0.025334 -0.019315 -225150.000000 1 0 0
-2.577711 -17.193082 1.225829 17.428406 1.421978 1.500403 0.014486 -0.015525 119038.000000 1 0 0
4.077589 -14.543682 -7.379471 16.810771 -1.297446 2.025251 0.011308 -0.006741 -8724.440000 1 0 0
-0.944011 -15.904382 -6.218671 17.102994 1.511510 1.942927 0.010347 -0.002044 -211638.000000 1 0 0
-9.465911 -15.148982 8.437729 19.755769 1.012302 1.129511 0.016455 -0.008314 -524897.000000 1 0 0
-7.233811 -12.067482 -1.676571 14.169087 1.030784 1.689400 0.004513 -0.003554 817417.000000 1 0 0
-7.447611 -15.013682 -9.265871 19.150298 1.110310 2.075845 0.023003 -0.020694 -517361.000000 1 0 0
-5.060011 -13.256882 -0.483971 14.197988 1.206174 1.604890 0.004325 -0.005467 1872380.000000 1 0 0
-6.335711 -13.864882 -7.139571 16.832993 1.142169 2.008810 0.004865 -0.016202 194601.000000 1 0 0
5.775489 -15.410882 0.357729 16.461456 -1.212230 1.549063 0.024938 -0.007414 -114337.000000 1 0 0
-14.312111 -12.700782 0.949329 19.158487 0.725818 1.521225 0.007197 0.000165 863207.000000 1 0 0
0.785189 -15.286282 11.135429 18.928411 -1.519476 0.941851 0.019500 -0.014429 74292.200000 1 0 0
-9.363611 -10.863482 1.957429 14.474943 0.859414 1.435152 0.004095 0.002529 18540.700000 1 0 0
-9.375211 -8.863582 -3.573271 13.387529 0.757354 1.840982 0.018753 -0.004455 -975734.000000 1 0 0
-12.208511 -7.323882 -12.292971 18.809681 0.540346 2.283055 0.045903 -0.011179 -1443920.000000 1 0 0
-13.188611 -8.275782 -0.487871 15.577742 0.560391 1.602120 -0.000427 -0.002993 -2327950.000000 1 0 0
-11.279911 -9.734082 0.504929 14.907840 0.711969 1.536920 -0.003332 0.004144 1385050.000000 1 0 0
-15.798111 -12.077582 2.875529 20.092709 0.652714 1.427190 0.036597 -0.003723 -9091.610000 1 0 0
-10.456911 -12.519882 -2.418671 16.490737 0.874943 1.717996 0.029963 -0.007910 506470.000000 1 0 0
-3.371011 -8.787182 -12.036271 15.279074 1.204483 2.477963 -0.001168 -0.001179 -1383770.000000 1 0 0
-0.330111 -15.562882 3.930929 16.055046 1.549588 1.323441 0.021893 -0.011225 -572684.000000 1 0 0
-15.695511 -7.708682 1.309729 17.535342 0.456534 1.496036 -0.000268 -0.003187 467.945000 1 0 0
-6.316411 -13.397182 -13.351371 19.940929 1.130230 2.304394 0.012259 -0.004997 741363.000000 1 0 0
-15.263511 -10.258082 1.163429 18.427061 0.591731 1.507617 0.008386 -0.001553 370553.000000 1 0 0
-9.878911 -8.472082 -12.320571 17.921091 0.708886 2.328823 0.019134 -0.012149 677500.000000 1 0 0
-13.321411 -11.543382 -6.257871 18.704828 0.714012 1.911934 0.045607 -0.014122 30088.700000 1 0 0
-12.259111 -11.327582 -3.866171 17.133219 0.745925 1.798410 0.026924 -0.004123 -875882.000000 1 0 0
-11.611811 -10.770182 -8.907971 18.170936 0.747813 2.083152 0.039693 -0.023690 313764.000000 1 0 0
-13.210511 -8.281482 -5.846271 16.651709 0.559954 1.929533 0.019247 -0.013198 -1912450.000000 1 0 0
-13.425111 -8.067182 -3.140671 15.974256 0.541083 1.768694 0.011135 -0.008213 2243.250000 1 0 0
-4.321911 -16.896982 -3.172971 17.727230 1.320385 1.750755 0.009149 -0.013620 -350512.000000 1 0 0
-15.363911 -8.963682 -1.799271 17.878331 0.528142 1.671607 0.014031 -0.003738 -1710940.000000 1 0 0
-9.423311 -15.727382 3.727929 18.709538 1.030990 1.370201 0.016995 -0.001414 129665.000000 1 0 0
4.646289 -17.864582 8.118829 20.165483 -1.316350 1.156430 0.050464 0.000705 307687.000000 1 0 0
-8.265211 -15.330882 6.073129 18.445394 1.076343 1.235288 0.005207 -0.000171 -59072.900000 1 0 0
0.889689 -15.842382 8.607029 18.051415 -1.514696 1.073778 0.025369 -0.016665 491722.000000 1 0 0
-10.888511 -7.705582 -10.135571 16.753073 0.615862 2.220559 0.027497 -0.010630 910287.000000 1 0 0
-4.831511 -15.830082 5.669129 17.494972 1.274566 1.240796 0.010780 -0.013950 -1788870.000000 1 0 0
-1.433311 -13.339382 -12.113871 18.075933 1.463757 2.305228 0.005963 0.000256 -226380.000000 1 0 0
-6.359211 -14.359882 -2.474071 15.898642 1.153908 1.727047 0.009618 -0.008575 379091.000000 1 0 0
-17.649211 -7.029982 -7.174171 20.307240 0.379055 1.931873 0.041660 -0.022308 -422797.000000 1 0 0
-17.312511 -4.129082 -10.193071 20.510267 0.234129 2.090905 0.056020 -0.014374 1060050.000000 1 0 0
-15.341011 -5.328882 -9.109771 18.620728 0.334323 2.082000 0.030852 -0.013871 522871.000000 1 0 0
-16.186511 -5.327482 -5.583171 17.932010 0.317964 1.887412 0.015840 -0.010222 -318471.000000 1 0 0
-15.183911 -4.438282 -12.338471 20.062087 0.284379 2.233200 0.053393 -0.011130 -1605880.000000 1 0 0
-18.744511 -5.406782 -5.483471 20.264709 0.280824 1.844804 0.038980 -0.010929 -242896.000000 1 0 0
-17.503811 -4.501682 -7.658371 19.629039 0.251728 1.971596 0.033008 -0.014815 389454.000000 1 0 0
12.285989 -7.827182 8.752929 16.994825 -0.567240 1.029748 0.040810 -0.016811 363881.000000 1 0 0
16.067889 -3.237182 1.788029 16.487979 -0.198808 1.462138 0.025617 -0.009491 534488.000000 1 0 0
12.099089 -2.006582 12.537129 17.538356 -0.164350 0.774400 0.051250 -0.011998 303557.000000 1 0 0
9.658889 -9.982782 5.198429 14.831512 -0.801887 1.212693 0.011692 -0.007780 22847.200000 1 0 0
17.119589 -1.967382 7.329029 18.726067 -0.114418 1.168664 0.069466 -0.020604 -294139.000000 1 0 0
5.090389 -12.795082 9.267329 16.598482 -1.192154 0.978432 0.013363 -0.004111 53015.900000 1 0 0
15.100789 -8.974082 -2.074771 17.688207 -0.536202 1.688364 0.048610 -0.020427 550480.000000 1 0 0
11.093289 -8.531482 6.530729 15.443370 -0.655593 1.134173 0.023199 -0.009036 -2305320.000000 1 0 0
19.929589 -3.096182 3.728329 20.510371 -0.154124 1.388002 0.091741 -0.025792 79905.800000 1 0 0
13.613889 -8.570682 6.767129 17.452467 -0.561868 1.172611 0.036034 -0.008920 -1620460.000000 1 0 0
8.338989 -10.970082 8.907729 16.408202 -0.920826 0.996930 0.009107 -0.005419 -2206200.000000 1 0 0
16.778389 0.072618 -0.536871 16.787133 0.004328 1.602783 0.028392 -0.002993 -982881.000000 1 0 0
12.545289 -12.324182 2.389629 17.747678 -0.776508 1.435742 0.029914 -0.010906 -1171710.000000 1 0 0
10.445989 -11.664082 3.637029 16.074747 -0.840435 1.342563 0.017991 -0.007823 31709.800000 1 0 0
16.388489 2.984918 2.310929 16.817631 0.180160 1.432949 0.017929 -0.004207 -214911.000000 1 0 0
18.303089 -3.172382 0.453929 18.581527 -0.171620 1.546365 0.058627 -0.016488 73000.000000 1 0 0
13.550389 -11.622182 -0.192971 17.852882 -0.708948 1.581605 0.053970 -0.008402 -34401.100000 1 0 0
16.967489 -7.583382 -0.755271 18.600371 -0.420303 1.611413 0.064442 -0.017065 -98068.200000 1 0 0
10.091389 -5.605682 9.704029 15.080716 -0.507050 0.871770 0.021078 -0.015081 -962391.000000 1 0 0
11.379289 -13.440482 5.904029 18.573970 -0.868254 1.247319 0.031710 -0.013671 930056.000000 1 0 0
13.204289 -1.736582 10.232229 16.794865 -0.130766 0.915685 0.048051 -0.010917 1197940.000000 1 0 0
15.539089 -2.001382 -1.362871 15.726609 -0.128091 1.657565 0.023013 -0.006440 -216960.000000 1 0 0
10.493989 -12.396682 8.899229 18.520201 -0.868328 1.069555 0.038485 -0.022169 308859.000000 1 0 0
14.534289 1.247418 3.348529 14.967106 0.085616 1.345161 0.015704 -0.007598 1749510.000000 1 0 0
14.950089 -5.863482 5.274129 16.902723 -0.373768 1.253469 0.037739 -0.010263 -874867.000000 1 0 0
14.338389 -3.350082 -3.032071 15.033493 -0.229527 1.773877 0.020181 -0.005294 1185570.000000 1 0 0
13.980689 0.632318 9.595729 16.968722 0.045197 0.969763 0.048069 -0.010017 3435.510000 1 0 0
15.386589 -3.479482 4.447929 16.390180 -0.222397 1.295972 0.025845 -0.008757 -1343780.000000 1 0 0
18.343889 4.736718 -4.281671 19.423374 0.252698 1.793061 0.016384 -0.009698 490465.000000 1 0 0
18.365189 -5.895282 -5.031771 19.933721 -0.310613 1.825982 0.104720 -0.023350 780934.000000 1 0 0
17.291489 0.102218 5.995629 18.301738 0.005911 1.237035 0.052909 -0.011561 978755.000000 1 0 0
17.079989 -6.484782 4.038329 18.710600 -0.362860 1.353253 0.056705 -0.015865 -45779.400000 1 0 0
9.719989 -6.529782 14.254029 18.447049 -0.591540 0.687713 0.044200 -0.017155 -617405.000000 1 0 0
8.695089 -12.268082 5.207729 15.913229 -0.954217 1.237396 0.016183 -0.008940 -1436640.000000 1 0 0
16.851089 -10.194082 -0.523971 19.701601 -0.544052 1.597395 0.056959 -0.011719 255879.000000 1 0 0
14.999089 -8.796182 0.489129 17.394963 -0.530395 1.542674 0.048425 -0.013434 210770.000000 1 0 0
10.105989 -12.965082 1.554129 16.511805 -0.908695 1.476534 0.028132 -0.011631 397732.000000 1 0 0
16.778989 -8.207682 8.859229 20.673328 -0.454942 1.127926 0.062898 -0.019012 520289.000000 1 0 0
19.072489 -0.049082 -1.742671 19.152001 -0.002573 1.661914 0.060160 -0.011583 -746713.000000 1 0 0
13.484189 -1.165982 7.700829 15.571951 -0.086256 1.053500 0.031523 -0.013585 335.588000 1 0 0
12.807189 -9.784782 -2.995271 16.393221 -0.652405 1.754543 0.037267 -0.013332 -62779.400000 1 0 0
8.888789 -15.252682 1.630029 17.728843 -1.043143 1.478724 0.038389 -0.007876 1117150.000000 1 0 0
11.465789 -8.408182 11.124129 18.052925 -0.632745 0.906893 0.042862 -0.019257 445360.000000 1 0 0
13.970089 -4.067882 -0.584771 14.562040 -0.283350 1.610964 0.016293 -0.006688 -1079920.000000 1 0 0
7.222389 -13.254682 10.755229 18.534413 -1.071882 0.951719 0.022384 -0.002992 -339357.000000 1 0 0
15.532889 -6.628582 1.854529 16.989645 -0.403348 1.461422 0.041458 -0.011374 -585280.000000 1 0 0
16.075489 -6.177982 -2.628171 17.421140 -0.366908 1.722236 0.076061 -0.014917 148334.000000 1 0 0
11.211989 -8.578682 3.873429 14.639192 -0.653117 1.303014 0.019019 -0.008381 550835.000000 1 0 0
10.681889 -14.556682 -0.384171 18.059550 -0.937735 1.592070 0.049911 -0.015035 1062000.000000 1 0 0
13.603589 -12.887682 4.623529 19.300959 -0.758380 1.328895 0.031304 -0.008196 485711.000000 1 0 0
12.838189 -11.134982 6.403229 18.160625 -0.714471 1.210460 0.028659 -0.009200 600978.000000 1 0 0
10.876389 -10.513382 1.416429 15.193200 -0.768429 1.477433 0.019515 -0.008534 773956.000000 1 0 0
13.881289 -7.585282 11.895629 19.792238 -0.500105 0.926013 0.064558 -0.027020 52793.200000 1 0 0
15.490389 -1.870882 -5.003671 16.385636 -0.120195 1.881123 0.038950 -0.005852 -165162.000000 1 0 0
12.878489 -11.485082 -7.052971 18.641540 -0.728268 1.958806 0.053520 -0.012781 415887.000000 1 0 0
17.688589 -5.208282 1.841929 18.531193 -0.286351 1.471236 0.075769 -0.011114 182202.000000 1 0 0
10.620789 -9.835882 9.097929 17.097312 -0.747048 1.009686 0.026140 -0.012092 -932473.000000 1 0 0
16.401589 1.530118 9.971329 19.255669 0.093022 1.026474 0.075862 -0.014458 -77000.700000 1 0 0
18.143789 3.896518 0.540929 18.565359 0.211545 1.541656 0.015453 -0.000681 853269.000000 1 0 0
13.261589 -3.957082 5.738329 14.981878 -0.289976 1.177735 0.024532 -0.010095 -1428420.000000 1 0 0
12.259789 -6.159982 6.671929 15.256555 -0.465609 1.118185 0.024700 -0.008264 -415867.000000 1 0 0
16.747989 -10.241882 3.664729 19.970517 -0.548854 1.386243 0.044670 -0.008573 1243080.000000 1 0 0
16.257889 -8.048082 -5.690971 19.012568 -0.459661 1.874783 0.072760 -0.021737 969090.000000 1 0 0
13.943089 -0.242282 5.352329 14.937064 -0.017375 1.204323 0.021035 -0.008592 390653.000000 1 0 0
18.223189 -4.114082 5.347029 19.431959 -0.222038 1.292033 0.063832 -0.018069 12215.300000 1 0 0
13.688489 -13.516082 7.143429 20.520424 -0.779061 1.215239 0.050871 -0.013950 187304.000000 1 0 0
15.082089 -13.467582 -0.978771 20.243596 -0.728908 1.619165 0.057382 -0.009054 564568.000000 1 0 0
17.880589 -5.958882 8.226529 20.564521 -0.321684 1.159241 0.078442 -0.011900 -861045.000000 1 0 0
14.447789 3.307818 9.481029 17.594607 0.225071 1.001713 0.044902 -0.008841 115417.000000 1 0 0
18.848089 3.681818 2.932629 19.426955 0.192912 1.419260 0.049722 -0.004490 -284182.000000 1 0 0
14.772889 -10.503182 8.120629 19.862017 -0.618055 1.149600 0.037981 -0.020211 -476498.000000 1 0 0
14.941689 -4.925582 10.394129 18.856123 -0.318435 0.986954 0.073831 -0.022648 438755.000000 1 0 0
17.917889 -7.772582 1.953329 19.628533 -0.409291 1.471117 0.100909 -0.020451 76414.700000 1 0 0
18.586189 -6.022882 -1.795171 19.619994 -0.313374 1.662421 0.083546 -0.019868 -730266.000000 1 0 0
14.320289 -12.884782 -5.418671 20.011254 -0.732681 1.845001 0.071948 -0.015182 -1559380.000000 1 0 0
15.532189 -1.339282 9.233329 18.118967 -0.086013 1.036083 0.085031 -0.020646 -1575580.000000 1 0 0
12.999289 -10.013982 10.089829 19.263074 -0.656397 1.019501 0.037368 -0.026014 -1878080.000000 1 0 0
16.531989 2.274718 4.837729 17.374828 0.136736 1.288634 0.033960 -0.009754 -763304.000000 1 0 0
14.927089 2.432318 -0.107571 15.124342 0.161527 1.577909 0.011230 -0.002499 -1158060.000000 1 0 0
15.007589 -9.942782 -7.026771 19.325169 -0.585124 1.942934 0.065715 -0.018970 187987.000000 1 0 0
16.240489 -0.031482 -3.114571 16.536476 -0.001939 1.760274 0.037370 -0.003299 -26647.700000 1 0 0
11.923489 2.376018 13.658929 18.286099 0.196695 0.727323 0.051530 0.002116 -304827.000000 1 0 0
17.622089 -2.675482 9.858629 20.368820 -0.150675 1.065570 0.080335 -0.018449 611101.000000 1 0 0
8.082389 -18.165782 4.397629 20.363197 -1.152172 1.353122 0.066273 -0.017569 -320857.000000 1 0 0
6.889389 -11.223482 6.695729 14.773728 -1.020265 1.100423 0.007523 -0.006670 629400.000000 1 0 0
17.842889 2.225218 -1.446371 18.039187 0.124071 1.651062 0.017731 -0.001132 147669.000000 1 0 0
17.519189 -2.144782 3.677229 18.028979 -0.121819 1.365393 0.023195 -0.009396 -1078230.000000 1 0 0
12.591689 -13.428682 -1.959071 18.512647 -0.817554 1.676818 0.049897 -0.006501 1108200.000000 1 0 0
15.168689 -8.232982 4.375929 17.805052 -0.497269 1.322483 0.037567 -0.005826 25230.600000 1 0 0
11.799889 -3.435482 14.641229 19.115583 -0.283314 0.698307 0.078393 -0.018388 515707.000000 1 0 0
12.004489 -13.731182 -6.294171 19.294292 -0.852391 1.903098 0.041925 -0.015126 93553.900000 1 0 0
10.586889 -11.997982 -1.158771 16.042960 -0.847797 1.643089 0.034095 -0.011717 -1116430.000000 1 0 0
13.305889 -7.945482 2.173729 15.649360 -0.538314 1.431444 0.025810 -0.006079 1169690.000000 1 0 0
8.772389 -7.869482 10.034529 15.478222 -0.731196 0.865447 0.012478 -0.003738 -1733580.000000 1 0 0
15.667189 -3.753782 8.195529 18.075354 -0.235162 1.100210 0.069522 -0.021121 11326.900000 1 0 0
10.369189 -17.020282 5.199429 20.597188 -1.023621 1.315601 0.058951 -0.025169 -517638.000000 1 0 0
15.254889 -6.337682 8.209629 18.446568 -0.393756 1.109567 0.060413 -0.015389 -1010330.000000 1 0 0
16.590089 -4.925882 -0.355171 17.309579 -0.288626 1.591316 0.046905 -0.010937 -1054920.000000 1 0 0
14.096589 -10.555082 3.501229 17.955005 -0.642713 1.374539 0.037942 -0.010974 1291120.000000 1 0 0
15.080989 -10.013882 -4.462271 18.644729 -0.586159 1.812474 0.073415 -0.024676 625262.000000 1 0 0
13.688789 -6.599482 -0.065871 15.196725 -0.449232 1.575131 0.031725 -0.008096 194828.000000 1 0 0
17.904589 -0.947282 -4.719971 18.540490 -0.052858 1.828206 0.073643 -0.012483 415466.000000 1 0 0
14.365989 0.234818 -1.623571 14.459349 0.016344 1.683319 0.015463 -0.001503 -1194800.000000 1 0 0
4.926489 -12.990982 11.884729 18.283400 -1.208328 0.863175 0.009339 -0.002596 -403313.000000 1 0 0
11.857089 -7.500782 13.497529 19.468837 -0.564045 0.804753 0.041390 -0.025473 -622837.000000 1 0 0
11.964789 -5.823182 11.541029 17.614227 -0.452946 0.856335 0.038608 -0.019845 506929.000000 1 0 0
13.362389 -4.636482 8.307629 16.403266 -0.333982 1.039720 0.043505 -0.016745 -2606030.000000 1 0 0
15.319189 -1.148682 3.242529 15.700670 -0.074843 1.362778 0.017392 -0.005138 238967.000000 1 0 0
15.300589 -10.326682 5.805129 19.350657 -0.593695 1.266107 0.044146 -0.012186 707886.000000 1 0 0
13.640689 -8.095682 -5.637471 16.834178 -0.535623 1.912277 0.052161 -0.018634 -174596.000000 1 0 0
9.732889 -2.224682 13.519229 16.806187 -0.224713 0.636098 0.034266 -0.011638 -1355200.000000 1 0 0
9.690389 -9.142682 13.674329 19.091348 -0.756324 0.772371 0.054283 -0.017885 233996.000000 1 0 0
20.373289 6.066118 -3.181571 21.493978 0.289390 1.719364 0.086079 -0.011747 1463840.000000 1 0 0
11.371589 -3.549782 10.573929 15.928653 -0.302577 0.844867 0.030741 -0.009282 623395.000000 1 0 0
10.269789 -14.026982 -2.923071 17.628646 -0.938820 1.737379 0.041785 -0.005670 1177660.000000 1 0 0
15.150189 -12.684482 2.477329 19.913852 -0.697045 1.446071 0.045737 -0.006419 1432940.000000 1 0 0
11.502689 -0.798382 14.787029 18.751147 -0.069297 0.662278 0.070767 -0.001748 423607.000000 1 0 0
19.113489 -1.750582 5.791629 20.048266 -0.091334 1.277735 0.089131 -0.023081 983640.000000 1 0 0
19.163189 -0.312282 7.919529 20.737509 -0.016295 1.178952 0.101900 -0.021859 851797.000000 1 0 0
18.865289 0.938918 0.703529 18.901737 0.049729 1.533567 0.044587 -0.011497 21815.200000 1 0 0
18.462889 0.776918 3.908629 18.888072 0.042055 1.362354 0.034698 -0.016810 -22667.800000 1 0 0
16.702389 -3.984982 -4.184471 17.673700 -0.234209 1.809829 0.064991 -0.014576 -112304.000000 1 0 0
10.973489 -8.340382 15.743629 20.924658 -0.649901 0.719104 0.081916 -0.021395 297470.000000 1 0 0
16.680189 -7.492482 6.395429 19.371823 -0.422176 1.234344 0.058281 -0.009926 560772.000000 1 0 0
18.878089 2.261918 5.972429 19.929085 0.119249 1.266435 0.056018 -0.011470 432683.000000 1 0 0
15.311389 1.800418 7.662729 17.216201 0.117049 1.109523 0.049791 -0.011503 298635.000000 1 0 0
8.658989 -15.631082 3.970229 18.304960 -1.064918 1.352165 0.032467 -0.018097 800278.000000 1 0 0
11.450689 -15.097082 2.081729 19.062366 -0.921896 1.461372 0.048963 -0.009308 45039.600000 1 0 0
8.089389 -16.165882 6.244429 19.125033 -1.106830 1.238192 0.037053 -0.012854 266231.000000 1 0 0
14.509089 -11.602282 -2.508271 18.746148 -0.674531 1.705001 0.057226 -0.012211 488721.000000 1 0 0
13.712989 -4.924482 3.184429 14.914328 -0.344768 1.355625 0.016847 -0.003224 154833.000000 1 0 0
-1.098011 10.291718 -5.457571 11.700861 -1.464510 2.056041 -0.002402 0.001699 -2622150.000000 1 0 0
8.281089 -1.742282 -8.048971 11.678952 -0.207368 2.331161 0.011978 -0.003445 -1328810.000000 1 0 0
2.835789 -10.099382 7.666629 12.992938 -1.297057 0.939662 0.007547 -0.006054 730125.000000 1 0 0
-6.233511 1.283218 8.315629 10.471533 -0.203022 0.653242 0.003265 -0.006219 -914482.000000 1 0 0
7.168389 -6.315182 -7.206171 11.966463 -0.722205 2.217047 0.006643 -0.004057 -28567.300000 1 0 0
-11.463511 -4.415282 -4.074071 12.942366 0.367648 1.891027 0.009065 -0.006721 254379.000000 1 0 0
2.107989 -3.220182 2.865329 4.798261 -0.991182 0.930841 -0.000338 0.000104 2502210.000000 1 0 0
-3.516611 -4.246782 8.875029 10.448342 0.879175 0.555911 0.002240 -0.005423 -3155660.000000 1 0 0
-4.678911 -0.990882 -2.422371 5.361150 0.208693 2.039621 0.004311 -0.002457 241667.000000 1 0 0
5.052289 -5.241082 -3.738771 8.183702 -0.803737 2.045254 0.002451 -0.001826 239702.000000 1 0 0
2.724989 14.256818 -8.819071 16.984064 1.381938 2.116776 0.015216 -0.010297 -685164.000000 1 0 0
5.503089 -5.389682 13.691629 15.709659 -0.774987 0.512458 0.010270 -0.011064 -2082930.000000 1 0 0
-4.698711 -0.743582 9.801129 10.894629 0.156951 0.451876 0.005242 -0.004912 -4032990.000000 1 0 0
-0.981811 11.999118 -2.864471 12.375297 -1.489155 1.804382 -0.004468 -0.000669 282641.000000 1 0 0
3.021689 9.428318 -10.525271 14.450090 1.260648 2.386762 0.009400 -0.000284 -549583.000000 1 0 0
-10.659611 2.806818 1.116929 11.079398 -0.257469 1.469813 0.002537 -0.003923 -85174.100000 1 0 0
5.716189 -9.112582 -0.790071 10.786018 -1.010555 1.644112 0.000103 -0.003766 563924.000000 1 0 0
-6.817911 5.463118 9.383729 12.821230 -0.675526 0.749705 0.004113 -0.008845 219870.000000 1 0 0
-5.468111 -1.780482 5.160729 7.726803 0.314785 0.839413 0.005322 -0.006367 698775.000000 1 0 0
6.718089 -3.831682 -7.380371 10.690387 -0.518335 2.332803 0.008620 -0.005302 581804.000000 1 0 0
6.298989 4.731118 10.983629 13.516688 0.644199 0.622201 -0.002447 -0.000114 579703.000000 1 0 0
3.676289 -9.886982 3.215129 11.027447 -1.214807 1.274942 0.000061 -0.002168 1195950.000000 1 0 0
-6.591411 6.678918 -5.851271 11.058571 -0.791992 2.128355 -0.002383 -0.003289 -658631.000000 1 0 0
-11.028811 8.460318 5.256729 14.860849 -0.654362 1.209240 0.005676 -0.012296 323269.000000 1 0 0
-9.174111 -5.348882 5.161029 11.807247 0.527856 1.118417 -0.000191 -0.000681 -668004.000000 1 0 0
3.295989 9.715718 -7.934571 12.969816 1.243737 2.229095 0.010806 -0.001128 814734.000000 1 0 0
-8.157611 -8.468382 6.036529 13.217405 0.804088 1.096502 0.006889 -0.001620 -2711440.000000 1 0 0
-7.837611 -5.623382 -7.323571 12.111369 0.622366 2.220167 0.015276 -0.004263 478500.000000 1 0 0
9.197889 -1.662482 6.922929 11.631507 -0.178816 0.933297 0.005716 -0.004719 1554930.000000 1 0 0
-4.055211 -0.300782 -4.875671 6.348808 0.074036 2.446456 0.003900 -0.006087 -810227.000000 1 0 0
9.009589 1.222318 -4.589871 10.184973 0.134845 2.038291 0.004499 -0.001223 -2247780.000000 1 0 0
-1.922611 -10.640182 10.656929 15.181570 1.392032 0.792644 -0.003542 -0.007162 202224.000000 1 0 0
-12.865911 0.263118 -2.594671 13.127574 -0.020448 1.769757 0.009403 -0.006684 523785.000000 1 0 0
-9.898011 -5.085182 -5.929571 12.609104 0.474593 2.060383 0.013804 -0.005630 -545044.000000 1 0 0
-5.536111 8.226218 -0.259971 9.919010 -0.978433 1.597009 -0.001652 0.000705 626133.000000 1 0 0
6.274489 9.635818 0.477629 11.508533 0.993604 1.529282 0.009689 -0.002600 501625.000000 1 0 0
-0.632111 -12.048082 0.006929 12.064655 1.518379 1.570222 0.010856 -0.004614 -90696.000000 1 0 0
6.014689 4.672618 2.373529 7.977687 0.660476 1.268701 -0.001523 -0.000386 148614.000000 1 0 0
3.473189 -7.502882 -8.267271 11.692051 -1.137255 2.356163 0.002010 -0.002187 585957.000000 1 0 0
-6.648211 -9.790582 4.538129 12.674732 0.974275 1.204623 0.004529 0.000652 -2756220.000000 1 0 0
-0.083011 6.524618 -9.234971 11.307617 -1.558074 2.526471 0.005288 -0.002775 -1856000.000000 1 0 0
-17.164311 -2.654482 4.342329 17.902951 0.153436 1.325805 0.033368 -0.008630 113201.000000 1 0 0
-8.392711 0.985718 -9.139371 12.447382 -0.116914 2.395343 0.009857 -0.007509 92453.600000 1 0 0
-10.049311 -5.873582 -11.840471 16.603745 0.528927 2.364736 0.020285 -0.002657 -873332.000000 1 0 0
2.214089 9.483718 6.367129 11.635438 1.341442 0.991759 -0.002439 0.000766 -360706.000000 1 0 0
-11.372511 1.750218 -1.222871 11.571200 -0.152701 1.676676 0.006357 -0.004141 -1874120.000000 1 0 0
-5.813411 -5.350082 -3.158471 8.508529 0.743918 1.951111 0.013374 -0.002568 713178.000000 1 0 0
-6.958011 -8.213382 1.397629 10.854811 0.867956 1.441681 0.005817 0.000507 260523.000000 1 0 0
-0.023611 10.910118 -7.786271 13.403628 -1.568632 2.190640 0.004600 0.001158 1178160.000000 1 0 0
-2.798611 9.170218 -4.265271 10.493696 -1.274590 1.989373 -0.003893 -0.002643 -344633.000000 1 0 0
3.489489 -4.875082 9.358129 11.113845 -0.949558 0.569771 -0.001753 -0.003456 -1197840.000000 1 0 0
-8.948311 1.671718 -0.390271 9.111488 -0.184690 1.613642 0.001901 -0.001038 -2162730.000000 1 0 0
2.417789 3.480018 -10.438071 11.265414 0.963593 2.755956 0.008394 -0.001812 -2113880.000000 1 0 0
-13.678711 0.452318 1.116929 13.731688 -0.033055 1.489367 0.003430 -0.005882 -1429560.000000 1 0 0
9.372289 -12.633582 -5.005371 16.507603 -0.932528 1.878862 0.038515 -0.007783 -2094650.000000 1 0 0
-4.882011 9.524418 -8.237771 13.505903 -1.097137 2.226779 -0.004087 -0.000670 -1411990.000000 1 0 0
-2.283311 7.098818 8.257029 11.125882 -1.259600 0.734530 0.001491 -0.002634 -2139340.000000 1 0 0
-10.684411 -1.209082 -4.461171 11.641330 0.112684 1.964074 0.011180 -0.006455 -3136550.000000 1 0 0
2.716489 -7.189482 9.657929 12.342754 -1.209536 0.672161 -0.003854 -0.002233 -809956.000000 1 0 0
-16.069611 -6.501782 3.473729 17.679716 0.384467 1.373029 0.010621 -0.005000 -262251.000000 1 0 0
-10.753611 0.170118 6.226329 12.427239 -0.015818 1.046016 0.001162 -0.004437 -1612030.000000 1 0 0
-8.453711 9.944818 9.365429 16.064741 -0.866266 0.948404 0.006723 -0.015054 -690529.000000 1 0 0
0.211489 -6.033082 -3.729371 7.095845 -1.535756 2.124183 -0.002821 0.000285 230079.000000 1 0 0
4.954589 1.491318 -2.998171 5.980051 0.292371 2.095969 -0.003257 -0.001603 -1683990.000000 1 0 0
0.294589 5.451118 3.906329 6.712740 1.516807 0.949699 -0.004829 0.000432 -2115000.000000 1 0 0
6.060189 -11.361682 -1.518571 12.966101 -1.080796 1.688184 0.000710 -0.006750 -1394700.000000 1 0 0
6.389089 -13.406482 5.339929 15.781923 -1.126070 1.225626 0.012832 -0.011912 -206941.000000 1 0 0
8.186589 -8.277982 -5.964871 13.081472 -0.790949 2.044268 0.005191 -0.004434 708759.000000 1 0 0
-13.077811 -1.186382 -4.793971 13.979227 0.090470 1.920836 0.010268 -0.007576 -3492230.000000 1 0 0
-6.806911 -1.413582 -7.076371 9.920044 0.204758 2.365050 0.009136 -0.006050 -298315.000000 1 0 0
-5.651511 12.912318 -4.606071 14.828466 -1.158232 1.886645 0.004911 0.001553 -179339.000000 1 0 0
-4.319311 7.040218 -6.859071 10.736292 -1.020495 2.263822 -0.000312 -0.003415 -2629460.000000 1 0 0
-9.482511 -3.585582 -7.949671 12.882999 0.361508 2.235806 0.012680 -0.005564 468232.000000 1 0 0
-2.141911 -6.308982 9.169729 11.334680 1.243504 0.628351 0.000403 -0.003240 -319593.000000 1 0 0
7.537189 -6.036982 10.014629 13.912124 -0.675326 0.767211 0.007214 -0.007192 -248204.000000 1 0 0
9.656089 -4.917382 12.154429 16.283454 -0.471022 0.728118 0.026250 -0.012385 42837.600000 1 0 0
-6.515111 2.863018 -8.976671 11.455311 -0.414040 2.471276 0.004242 -0.008601 -361312.000000 1 0 0
7.430089 5.469918 8.830529 12.771236 0.634600 0.807317 -0.003150 0.000907 -80032.400000 1 0 0
12.645789 3.322818 11.243929 17.244798 0.256952 0.860553 0.036968 -0.000757 -209634.000000 1 0 0
-7.437311 -7.267582 -3.859771 11.091852 0.773856 1.926215 0.014583 -0.005567 -950495.000000 1 0 0
2.264889 1.309418 -5.710371 6.281133 0.524189 2.711988 0.001807 -0.004476 -331051.000000 1 0 0
12.711889 6.832418 -7.054871 16.063787 0.493182 2.025480 0.015342 -0.005675 -80776.600000 1 0 0
0.724589 -7.771482 1.012829 7.870628 -1.477828 1.441754 0.004716 -0.002324 1987250.000000 1 0 0
-10.262211 -5.943282 -8.372571 14.516732 0.524942 2.185545 0.019182 -0.005322 125776.000000 1 0 0
-6.692211 0.214718 3.132529 7.392194 -0.032074 1.133202 0.003081 -0.005773 -1010790.000000 1 0 0
10.704789 -7.875082 1.378729 13.360776 -0.634260 1.467420 0.014371 -0.005576 405827.000000 1 0 0
6.181989 0.922118 10.503629 12.222664 0.148070 0.536786 0.004890 -0.001613 -348016.000000 1 0 0
-12.939811 5.365718 1.861229 14.131306 -0.393086 1.438703 0.007528 -0.009152 65869.900000 1 0 0
2.010889 7.422418 3.571529 8.478902 1.306226 1.136000 -0.003603 0.000541 237670.000000 1 0 0
10.052689 -9.428482 -0.764771 13.803540 -0.753368 1.626229 0.012321 -0.006559 844867.000000 1 0 0
6.832289 -11.773582 -9.023571 16.331633 -1.044983 2.156182 0.008871 -0.005681 -562124.000000 1 0 0
10.244589 3.434418 11.994229 16.143369 0.323467 0.733282 0.017311 0.001545 -2306810.000000 1 0 0
-11.039511 -3.040782 -1.957671 11.616782 0.268780 1.740125 0.003391 -0.003503 -329531.000000 1 0 0
12.308789 1.047318 6.889229 14.144421 0.084883 1.062072 0.017612 -0.005815 -45481.900000 1 0 0
-9.543111 9.144818 3.031729 13.560606 -0.764089 1.345322 0.003240 -0.008644 1753220.000000 1 0 0
-6.660811 7.681918 -8.958771 13.551304 -0.856472 2.293081 -0.001696 -0.005255 -601294.000000 1 0 0
8.496889 5.383518 12.199229 15.811407 0.564750 0.689528 0.013114 0.002571 -3589240.000000 1 0 0
1.207589 4.871118 -2.707071 5.702130 1.327788 2.065473 -0.003925 -0.002108 532251.000000 1 0 0
1.438489 0.507418 9.490929 9.612724 0.339117 0.159355 -0.004151 -0.002841 746694.000000 1 0 0
2.622589 12.555218 -4.031971 13.445008 1.364873 1.875370 0.008448 -0.003712 238484.000000 1 0 0
2.059289 0.610718 12.909129 13.086607 0.288304 0.164879 -0.002256 -0.003326 -164684.000000 1 0 0
-12.173611 -1.754582 0.807529 12.325886 0.143144 1.505234 -0.001905 -0.000626 -7912.220000 1 0 0
3.232289 8.719818 -1.220571 9.379377 1.215816 1.701300 0.001432 -0.000678 21525.400000 1 0 0
3.629189 -2.864582 -5.870171 7.472332 -0.668193 2.474441 0.001832 -0.003369 -891560.000000 1 0 0
-7.699211 -7.118482 9.211329 13.957049 0.746227 0.850008 0.005141 -0.006029 -123323.000000 1 0 0
-6.985711 10.909218 -3.503371 13.419567 -1.001235 1.834921 0.008615 0.002309 510497.000000 1 0 0
0.318389 0.476018 2.476629 2.541979 0.981277 0.227240 -0.001938 0.001087 -3055400.000000 1 0 0
-6.914611 4.646718 -1.975271 8.561864 -0.591696 1.803599 0.002427 -0.003831 -423895.000000 1 0 0
-6.636411 -3.798682 -5.890571 9.652500 0.519878 2.227190 0.012620 -0.003332 500261.000000 1 0 0
3.030589 -6.129982 13.468129 15.104690 -1.111648 0.469815 0.000251 -0.007906 -454343.000000 1 0 0
-5.453211 -0.550982 -11.767571 12.981402 0.100696 2.705702 0.008588 -0.007420 -679956.000000 1 0 0
11.833189 2.494618 -0.706971 12.113930 0.207773 1.629190 0.008314 -0.003676 -1600420.000000 1 0 0
6.099889 -10.929482 10.858429 16.570085 -1.061745 0.856212 0.004989 -0.004268 580874.000000 1 0 0
-8.203611 6.457018 -10.510771 14.814473 -0.666822 2.359575 -0.001649 -0.006721 492873.000000 1 0 0
2.879789 7.868018 11.129329 13.930573 1.219929 0.645309 -0.003731 0.000200 719482.000000 1 0 0
-6.278011 -10.074682 -0.381471 11.876791 1.013530 1.602921 0.008321 0.001155 -766946.000000 1 0 0
11.346989 4.243418 6.013929 13.525092 0.357866 1.110013 0.004851 -0.000702 821204.000000 1 0 0
-7.943911 10.686518 1.431029 13.392357 -0.931560 1.463738 -0.002782 -0.003609 303637.000000 1 0 0
4.351389 -2.665582 -3.620971 6.257104 -0.549620 2.187927 0.004010 -0.001792 -5015160.000000 1 0 0
6.320189 6.583318 6.386929 11.139018 0.805787 0.960167 -0.001910 0.001725 -5015040.000000 1 0 0
-0.459911 10.265918 -10.180571 14.465289 -1.526026 2.351519 0.004828 -0.000186 -257666.000000 1 0 0
14.178889 6.530318 -2.539771 15.815701 0.431606 1.732080 0.020999 -0.003451 847578.000000 1 0 0
1.322889 9.452918 -6.170971 11.366115 1.431754 2.144715 0.004378 -0.000543 -653077.000000 1 0 0
0.723389 7.335118 7.088129 10.225890 1.472494 0.804939 -0.005957 -0.000178 46848.100000 1 0 0
12.381689 6.194918 1.900629 13.974821 0.463911 1.434370 0.008152 -0.002015 -164341.000000 1 0 0
-6.747711 6.690818 -3.197371 10.026057 -0.781165 1.895371 -0.001082 -0.004665 792450.000000 1 0 0
1.085589 9.791118 10.949829 14.728994 1.460372 0.732627 -0.003590 -0.002294 -1726160.000000 1 0 0
-3.663611 13.639118 -10.969171 17.882122 -1.308380 2.231174 0.000257 -0.000611 -353863.000000 1 0 0
-10.046511 -5.509082 -2.326371 11.691637 0.501582 1.771111 0.006839 -0.002212 338448.000000 1 0 0
-3.995311 3.917818 -12.455771 13.654963 -0.775605 2.719367 0.005098 -0.010697 -834276.000000 1 0 0
-3.147111 8.334718 2.430429 9.234653 -1.209756 1.304473 -0.002957 0.000402 -1833630.000000 1 0 0
7.197789 9.019518 7.043529 13.519289 0.897262 1.022776 0.006393 -0.000127 -301271.000000 1 0 0
-1.495411 -2.241282 -8.086871 8.523912 0.982416 2.819982 0.001743 -0.006979 -620204.000000 1 0 0
0.913689 -1.412082 4.839329 5.123272 -0.996497 0.334490 -0.001959 -0.000087 -117700.000000 1 0 0
2.721389 -8.765582 -6.134771 11.039783 -1.269768 2.159997 -0.003286 -0.000961 429186.000000 1 0 0
5.367289 3.953818 8.750129 11.000238 0.634903 0.651048 -0.005116 0.000977 -412111.000000 1 0 0
6.139789 -7.521282 -2.828271 10.112656 -0.886182 1.854253 0.000075 -0.003772 1082330.000000 1 0 0
1.779889 2.213118 -8.206171 8.683728 0.893472 2.808408 0.003449 -0.004287 -14642.800000 1 0 0
-5.433911 10.912518 -0.701771 12.210770 -1.108788 1.628299 -0.004270 -0.000076 392049.000000 1 0 0
-5.246811 3.318618 -3.426571 7.091095 -0.563976 2.075127 -0.000175 -0.002647 1298320.000000 1 0 0
2.050789 13.704418 -6.319171 15.229863 1.422254 1.998651 0.004609 -0.004828 469260.000000 1 0 0
-5.295411 -2.522382 2.651829 6.437079 0.444536 1.146191 0.000234 -0.003001 967464.000000 1 0 0
10.411489 -3.317982 -1.862971 11.085070 -0.308509 1.739659 0.005351 -0.001770 -33329.700000 1 0 0
2.256789 -3.320982 7.034029 8.099358 -0.973924 0.518694 -0.005482 -0.001100 -2081510.000000 1 0 0
-2.983311 9.824218 -11.692671 15.560654 -1.275977 2.421016 0.003975 -0.002637 -3210240.000000 1 0 0
0.508689 -2.029882 9.181029 9.416501 -1.325253 0.224103 -0.003393 -0.004085 870721.000000 1 0 0
9.448589 2.606418 4.925329 10.969418 0.269159 1.105144 -0.000513 -0.000609 1324930.000000 1 0 0
13.483289 2.003118 -4.982771 14.513427 0.147484 1.921247 0.018152 -0.003155 -1347260.000000 1 0 0
-6.361611 3.784018 7.646229 10.642072 -0.536602 0.769167 0.005063 -0.006613 213205.000000 1 0 0
10.522089 0.066018 1.895929 10.691738 0.006274 1.392527 0.001821 0.001306 981778.000000 1 0 0
15.392289 6.576918 -4.747071 17.398652 0.403806 1.847141 0.028775 -0.004359 -325358.000000 1 0 0
8.110689 -5.026882 -9.280871 13.311175 -0.554840 2.342314 0.019367 -0.004077 3048690.000000 1 0 0
4.376189 5.638118 -2.126871 7.447347 0.910750 1.860416 0.000254 -0.002832 -552451.000000 1 0 0
-1.655111 -10.397482 1.437329 10.626050 1.412937 1.435116 0.010229 -0.003955 -711895.000000 1 0 0
-2.957111 12.183018 -12.911871 17.996856 -1.332677 2.370933 0.010471 -0.002836 -795933.000000 1 0 0
8.397589 4.202118 -9.586471 13.419304 0.463964 2.366533 0.009304 -0.000700 -1761300.000000 1 0 0
4.143389 7.623418 -8.957171 12.470568 1.072951 2.372102 0.007427 -0.000558 -1360260.000000 1 0 0
-1.757011 -5.065382 -2.405271 5.876267 1.236916 1.992504 0.003928 -0.001612 293655.000000 1 0 0
-3.355811 -9.119882 6.947229 11.945615 1.218206 0.950137 0.000360 -0.002921 -1625480.000000 1 0 0
1.074589 7.258018 -1.462871 7.481547 1.423809 1.767595 -0.003199 -0.001357 762996.000000 1 0 0
0.448889 -0.697382 -2.353271 2.495141 -0.998879 2.802755 -0.000761 0.000373 -976562.000000 1 0 0
4.223689 -6.848882 7.600529 11.068640 -1.018190 0.813895 0.000549 -0.002744 -184970.000000 1 0 0
-14.037311 4.013018 6.031429 15.796473 -0.278455 1.179030 0.008504 -0.013037 -1094610.000000 1 0 0
4.292389 6.236518 12.489229 14.604780 0.967988 0.544963 -0.001062 0.000538 -1086610.000000 1 0 0
8.229989 10.045818 -7.192371 14.845247 0.884430 2.076576 0.017395 -0.003583 334520.000000 1 0 0
12.529989 5.231918 9.558229 16.605220 0.395545 0.957439 0.024955 -0.003067 380038.000000 1 0 0
7.463189 4.142718 0.302229 8.541232 0.506740 1.535404 0.005308 -0.001918 -2159300.000000 1 0 0
-10.875411 -7.532282 -1.008571 13.267519 0.605741 1.646888 0.005164 -0.001603 -675821.000000 1 0 0
10.416689 6.835518 0.260729 12.461930 0.580727 1.549873 0.007652 -0.003999 464471.000000 1 0 0
14.538289 3.613518 3.974729 15.498962 0.243615 1.311447 0.020308 -0.008808 740577.000000 1 0 0
2.229989 5.581418 8.173329 10.145363 1.190688 0.634071 -0.009150 0.001602 -13308.900000 1 0 0
4.164289 0.106118 11.586129 12.312228 0.025477 0.345146 0.000288 -0.001507 -1922120.000000 1 0 0
-1.422911 -1.585682 -0.632071 2.222291 0.839448 1.859201 0.001162 -0.003288 -1097220.000000 1 0 0
3.029189 -5.239882 -9.520271 11.281308 -1.046634 2.575304 0.001396 -0.004471 416492.000000 1 0 0
-3.988211 -5.278282 -1.251271 6.732887 0.923728 1.757728 0.006285 -0.003000 -2123410.000000 1 0 0
-1.287611 -8.603482 8.543329 12.192880 1.422237 0.794444 -0.001250 -0.002323 -62493.500000 1 0 0
3.787589 8.480218 -5.959271 11.035073 1.150742 2.141269 0.007084 -0.000219 289584.000000 1 0 0
-14.304711 -1.857182 -2.812271 14.696351 0.129108 1.763342 0.004053 -0.006828 -1005340.000000 1 0 0
8.810289 -10.650882 -6.611871 15.322510 -0.879695 2.016966 0.006529 -0.006505 140551.000000 1 0 0
14.939589 6.196918 1.496729 16.242947 0.393198 1.478519 0.009360 0.000116 -3135740.000000 1 0 0
-5.790711 0.499218 -8.590171 10.371720 -0.085997 2.546738 0.009359 -0.009822 7507.730000 1 0 0
-8.170411 -4.526682 -12.849971 15.886101 0.505935 2.513043 0.012668 -0.006553 762799.000000 1 0 0
0.906689 -10.613282 12.022929 16.062835 -1.485574 0.725009 0.000755 -0.005171 -276237.000000 1 0 0
0.373089 11.766618 3.304229 12.227445 1.539100 1.297164 0.005743 -0.000152 -2902660.000000 1 0 0
5.137189 -13.276482 -3.600671 14.684023 -1.201600 1.818533 0.003982 -0.007263 603139.000000 1 0 0
-7.463811 1.604418 -6.907871 10.295693 -0.211738 2.306282 0.007666 -0.006128 690670.000000 1 0 0
1.525489 2.642618 4.025229 5.051041 1.047262 0.648632 -0.006078 -0.000603 -1078640.000000 1 0 0
17.259089 5.536318 2.084829 18.244821 0.310408 1.456277 0.016216 -0.003948 -707560.000000 1 0 0
2.361389 -8.471182 -3.640371 9.517846 -1.298942 1.963274 -0.003804 -0.001673 559836.000000 1 0 0
-0.300411 -9.458082 -0.594171 9.481488 1.539045 1.633504 0.008053 -0.001307 -1357360.000000 1 0 0
0.766889 11.903518 -5.582671 13.169968 1.506460 2.008537 0.003174 0.000352 -1171520.000000 1 0 0
6.012189 -5.054482 7.751529 11.035417 -0.699073 0.792000 0.001613 -0.002531 -894751.000000 1 0 0
-5.955811 -1.807182 -9.403671 11.276817 0.294602 2.556922 0.013814 -0.007611 -40638.700000 1 0 0
2.084389 -1.357582 11.145029 11.419255 -0.577295 0.219595 -0.005242 -0.001473 -535311.000000 1 0 0
18.008089 2.292818 -5.766371 19.047292 0.126640 1.878362 0.056761 -0.011240 -794128.000000 1 0 0
-8.784911 4.952318 7.766529 12.728672 -0.513323 0.914533 0.002819 -0.010733 -608493.000000 1 0 0
11.524289 -7.083082 -4.829471 14.363255 -0.551102 1.913716 0.019178 -0.010876 308268.000000 1 0 0
10.753289 0.535418 8.978529 14.019055 0.049750 0.875710 0.008886 -0.003541 -47232.000000 1 0 0
-8.484011 -7.390582 -1.568571 11.360438 0.716628 1.709312 0.009236 -0.002925 -754002.000000 1 0 0
10.254989 -10.447982 -3.178771 14.980979 -0.794720 1.784609 0.023679 -0.007836 343304.000000 1 0 0
7.648689 -13.936382 -3.662771 16.313831 -1.068853 1.797246 0.026512 -0.009802 -1465950.000000 1 0 0
1.600889 -1.256682 -11.620671 11.797546 -0.665521 2.968214 0.008166 -0.007548 225111.000000 1 0 0
-11.845011 -2.580582 -6.396771 13.707019 0.214510 2.056328 0.014705 -0.003849 169364.000000 1 0 0
2.779489 -12.046782 -6.331771 13.890351 -1.344040 2.044112 -0.001400 -0.001186 1024660.000000 1 0 0
-5.433111 1.485218 1.135829 5.745840 -0.266845 1.371807 -0.000311 -0.003260 514421.000000 1 0 0
0.068989 6.823518 -4.037071 7.928625 1.560686 2.105024 -0.001265 -0.002443 1077990.000000 1 0 0
5.522689 -11.694582 3.740929 13.463206 -1.129600 1.289227 0.003689 -0.008934 -2404260.000000 1 0 0
-4.420811 -9.135782 1.073929 10.205852 1.120111 1.465374 0.009259 -0.001250 -130401.000000 1 0 0
7.113189 -6.287782 -4.691971 10.590007 -0.723883 2.029801 0.004948 -0.004188 -172050.000000 1 0 0
-7.020811 -5.852082 2.248629 9.412491 0.694857 1.329565 0.003765 -0.001546 -151364.000000 1 0 0
-6.254811 -0.796182 7.091129 9.488977 0.126610 0.726804 0.003629 -0.006814 -1672040.000000 1 0 0
4.123489 -5.100282 3.203429 7.299178 -0.890904 1.116450 -0.002827 0.000989 -817774.000000 1 0 0
-2.569811 10.626618 -8.880671 14.085284 -1.333524 2.252984 -0.002202 0.000467 1935410.000000 1 0 0
-2.304011 -4.845182 2.773529 6.039596 1.126919 1.093675 0.003711 -0.002693 564766.000000 1 0 0
15.175689 4.994918 6.141529 17.116341 0.317971 1.203803 0.032030 -0.012317 914936.000000 1 0 0
6.874189 0.402618 0.081829 6.886456 0.058503 1.558913 0.001562 -0.000557 4363980.000000 1 0 0
-9.754411 9.236318 0.437929 13.440605 -0.758124 1.538208 0.002504 -0.007307 -1870800.000000 1 0 0
7.179689 10.403518 -2.581871 12.901441 0.966731 1.772279 0.004494 -0.002564 -310431.000000 1 0 0
1.625889 -4.262282 -5.397971 7.067436 -1.206374 2.439946 -0.001040 -0.003366 -328194.000000 1 0 0
0.902789 -8.146882 -7.909371 11.390560 -1.460433 2.338353 -0.002580 0.000492 -628610.000000 1 0 0
-10.448311 0.274518 -10.467571 14.792315 -0.026268 2.356943 0.015225 -0.009009 -2983790.000000 1 0 0
5.706089 -2.490282 0.434429 6.240969 -0.411508 1.501131 -0.002668 0.001187 354086.000000 1 0 0
-3.322911 5.389018 -1.060671 6.419367 -1.018255 1.736787 -0.002907 -0.001963 228997.000000 1 0 0
-0.307811 4.549518 -5.211771 6.924984 -1.503241 2.422804 -0.001784 -0.003768 -1541400.000000 1 0 0
3.953989 -9.805682 10.035129 14.577011 -1.187505 0.811486 -0.000824 -0.006062 50072.900000 1 0 0
7.321789 -13.585882 -0.767871 15.452327 -1.076495 1.620510 0.024980 -0.011694 401132.000000 1 0 0
12.906289 -0.010382 0.541329 12.917641 -0.000804 1.528878 0.004751 -0.005533 680749.000000 1 0 0
9.235889 2.427318 -0.560171 9.565945 0.257002 1.629389 0.005804 -0.002765 -632926.000000 1 0 0
-0.732311 -5.837282 4.437629 7.369037 1.445994 0.924543 0.001162 -0.002396 1751090.000000 1 0 0
11.475989 -3.761582 3.324829 12.526066 -0.316743 1.302143 0.017511 -0.004428 -825305.000000 1 0 0
1.654289 -8.158482 11.763229 14.410797 -1.370739 0.615857 -0.002924 -0.004084 526646.000000 1 0 0
9.435389 -5.905182 -5.989671 12.640170 -0.559214 2.064465 0.007674 -0.006085 -429461.000000 1 0 0
3.088289 6.289018 -0.082771 7.006863 1.114326 1.582609 -0.004271 0.000437 -902732.000000 1 0 0
6.407389 -1.408582 11.463129 13.207652 -0.216395 0.519806 0.002859 -0.002593 658456.000000 1 0 0
-4.748011 -7.522182 -3.892571 9.709734 1.007750 1.983288 0.011677 -0.000905 202427.000000 1 0 0
-3.327611 -8.543082 -5.762971 10.829085 1.199366 2.131964 0.006423 0.000197 -991633.000000 1 0 0
9.781489 5.295818 2.192929 11.337202 0.496226 1.376142 0.005002 -0.003176 -11499.000000 1 0 0
8.841589 -1.490982 0.277029 8.970701 -0.167061 1.539910 0.001091 0.001396 1050220.000000 1 0 0
-3.826811 9.569718 9.210129 13.822100 -1.190387 0.841515 0.002736 -0.006061 -212644.000000 1 0 0
-14.408811 -3.456682 -5.990371 15.982710 0.235451 1.954981 0.012895 -0.007661 155072.000000 1 0 0
10.529789 6.142218 -5.800871 13.500126 0.528063 2.014946 0.006345 -0.004327 136831.000000 1 0 0
-1.791311 4.547418 2.644729 5.557193 -1.195544 1.074797 -0.002280 -0.001092 511697.000000 1 0 0
6.901589 -3.713582 2.623829 8.264812 -0.493643 1.247736 0.001682 -0.000766 -1109660.000000 1 0 0
8.315889 -11.177382 -1.581671 14.021040 -0.931151 1.683844 0.017720 -0.009175 -1955560.000000 1 0 0
4.511489 0.491518 1.777429 4.873847 0.108520 1.197499 -0.004519 0.002209 937823.000000 1 0 0
-10.812711 2.403218 3.784029 11.705086 -0.218704 1.241602 0.003037 -0.006951 171061.000000 1 0 0
-0.703411 -3.143582 4.488429 5.524753 1.350662 0.622503 -0.000393 -0.002060 880717.000000 1 0 0
8.560089 -8.811582 -8.566271 14.976652 -0.799874 2.179708 0.016070 -0.004712 -440756.000000 1 0 0
12.158889 -4.808082 0.993429 13.112709 -0.376567 1.494963 0.014268 -0.003833 -15418.900000 1 0 0
2.871589 4.811218 3.376529 6.541773 1.032694 1.028448 -0.005929 -0.001207 -111114.000000 1 0 0
6.182189 7.445818 2.004429 9.883188 0.877857 1.366568 0.002812 -0.001606 77708.500000 1 0 0
-1.733911 -1.342782 -10.270171 10.501710 0.658950 2.931215 0.006854 -0.007291 670151.000000 1 0 0
-1.001811 -8.617382 5.968329 10.530141 1.455061 0.968198 0.000379 -0.003961 -918999.000000 1 0 0
-4.312811 -0.302582 2.374429 4.932525 0.070044 1.068565 0.002128 -0.004043 655952.000000 1 0 0
-8.372011 6.216018 -7.968071 13.123246 -0.638668 2.223293 -0.000147 -0.005703 -1278920.000000 1 0 0
6.389689 11.184618 -9.401871 15.947381 1.051753 2.201305 0.022588 -0.008073 46303.000000 1 0 0
-11.169411 -5.698782 3.183829 12.937103 0.471785 1.322141 -0.003180 0.000642 581430.000000 1 0 0
1.650989 -6.464082 3.081829 7.349000 -1.320733 1.138063 -0.004781 -0.000671 292056.000000 1 0 0
10.112489 2.321518 7.323329 12.699726 0.225659 0.956171 0.003816 -0.002510 -1334840.000000 1 0 0
-4.124911 -2.562682 -10.706171 11.756033 0.555912 2.715762 0.009034 -0.008695 -2627180.000000 1 0 0
-8.268511 11.763418 5.922029 15.550456 -0.958126 1.180106 0.006664 -0.009263 -1769950.000000 1 0 0
6.784989 6.007618 -2.915571 9.519879 0.724706 1.882059 0.004526 -0.003307 -3052020.000000 1 0 0
3.870689 -9.930282 -2.311871 10.905847 -1.199126 1.784402 -0.003668 -0.003259 -2729360.000000 1 0 0
8.425089 -12.927082 -7.303271 17.071302 -0.993199 2.012865 0.024606 -0.008924 101883.000000 1 0 0
-1.122111 9.520718 3.564729 10.227927 -1.453478 1.214795 -0.000679 0.000696 58143.600000 1 0 0
0.490689 -13.182382 4.745729 14.019199 -1.533590 1.225457 0.012134 -0.008932 -1142150.000000 1 0 0
-11.291111 -6.920682 -4.985471 14.150616 0.549874 1.930840 0.013511 -0.007954 -79636.600000 1 0 0
3.612889 10.280318 -3.388971 11.411530 1.232841 1.872322 0.007312 -0.002524 -666685.000000 1 0 0
11.678689 -8.198082 -7.359471 16.054973 -0.612046 2.046981 0.034911 -0.012407 499087.000000 1 0 0
11.722389 -4.810982 -5.877571 13.968028 -0.389448 2.005109 0.017403 -0.006311 -169745.000000 1 0 0
1.336789 -10.486582 -2.495971 10.862103 -1.444004 1.802655 -0.001292 -0.001009 -1122430.000000 1 0 0
2.433989 -12.159382 -3.806271 12.971607 -1.373234 1.868610 -0.000702 -0.001681 -1529500.000000 1 0 0
-7.666511 -5.570382 7.290529 11.956436 0.628347 0.915041 0.004155 -0.001805 -2411950.000000 1 0 0
-7.263011 -0.781182 9.498029 11.982242 0.107144 0.655611 0.002857 -0.006958 398326.000000 1 0 0
16.214089 2.573718 -7.596571 18.089461 0.157420 2.004181 0.052297 -0.005754 -295221.000000 1 0 0
-2.040311 6.375318 -5.698271 8.790781 -1.261064 2.276027 -0.002360 -0.003584 230469.000000 1 0 0
7.652489 1.112018 8.414029 11.427732 0.144304 0.743238 0.000676 -0.000622 173067.000000 1 0 0
7.884389 8.259018 -3.877871 12.058725 0.808600 1.898196 0.003323 -0.002060 568612.000000 1 0 0
7.864589 0.639018 3.922729 8.811805 0.081074 1.109435 -0.004162 -0.001292 -148793.000000 1 0 0
-6.942711 5.848218 5.363729 10.543836 -0.700038 1.037113 0.007131 -0.010050 -214389.000000 1 0 0
-6.078111 -1.992582 -4.511671 7.827451 0.316789 2.185101 0.006550 -0.003226 -553347.000000 1 0 0
-15.143011 -1.946382 3.146729 15.588492 0.127832 1.367537 0.004382 -0.005220 -1604750.000000 1 0 0
1.079089 1.226418 -10.520071 10.646146 0.849214 2.987542 0.007120 -0.008215 540476.000000 1 0 0
1.428689 -9.341382 9.408129 13.334747 -1.419030 0.787619 0.000734 -0.006626 -763479.000000 1 0 0
-0.281011 -6.792282 -1.234971 6.909357 1.529448 1.750501 0.002219 0.000704 915965.000000 1 0 0
-0.457111 -10.319782 -8.406371 13.318180 1.526531 2.253889 -0.001708 0.001650 -254782.000000 1 0 0
-4.460411 6.537018 3.801829 8.779622 -0.972027 1.122946 0.002059 -0.003482 12163.100000 1 0 0
10.759789 -1.200382 -8.645571 13.854958 -0.111102 2.244655 0.022909 -0.002332 483873.000000 1 0 0
3.171489 -1.081482 6.219629 7.064824 -0.328636 0.494163 -0.007391 0.001021 895291.000000 1 0 0
1.980989 -12.327382 6.714429 14.176468 -1.411460 1.077386 0.008752 -0.009576 -5874.430000 1 0 0
2.833389 -5.023082 -1.346671 5.922244 -1.057212 1.800195 0.005343 0.000107 -1094810.000000 1 0 0
-1.156511 9.582818 -1.766671 9.812698 -1.450691 1.751823 -0.002589 -0.002512 379708.000000 1 0 0
4.543089 -2.530682 2.616829 5.821667 -0.508232 1.104593 -0.001051 0.001954 -2926340.000000 1 0 0
17.898289 6.783918 -2.787871 19.342764 0.362296 1.715430 0.030977 -0.000169 623288.000000 1 0 0
-7.045611 3.542118 -5.386571 9.549993 -0.465838 2.170066 0.004924 -0.006613 720710.000000 1 0 0
-13.775011 -5.985182 2.195929 15.178782 0.409886 1.425616 -0.012542 -0.000148 484963.000000 1 0 0
6.687689 -6.096582 3.324629 9.640885 -0.739194 1.218721 0.002631 -0.003442 566295.000000 1 0 0
-4.640411 1.993818 3.532629 6.163456 -0.405814 0.960443 0.001110 -0.004898 713980.000000 1 0 0
6.881189 -12.138982 -5.408671 14.965272 -1.055096 1.940581 0.010863 -0.006262 -444827.000000 1 0 0
2.959589 -12.361082 3.443129 13.168548 -1.335792 1.306255 0.011414 -0.008214 -651884.000000 1 0 0
3.325689 11.272518 -6.122171 13.251824 1.283909 2.051031 0.009253 -0.001021 7847.710000 1 0 0
-5.607811 -8.236282 6.427929 11.857578 0.973027 0.997869 0.004406 -0.001989 -197062.000000 1 0 0
-4.020911 6.481718 6.354529 9.927761 -1.015550 0.876198 0.003262 -0.004650 -65487.300000 1 0 0
4.282389 4.245218 -6.994771 9.235126 0.781039 2.430133 0.002562 -0.000165 -2413220.000000 1 0 0
-0.276011 -2.756782 1.546829 3.173123 1.471008 1.061597 0.000127 -0.000127 311989.000000 1 0 0
-13.187311 -0.788182 6.571829 14.755180 0.059697 1.109185 0.004389 -0.001379 -217356.000000 1 0 0
-0.465711 -9.233782 -5.947371 10.993218 1.520403 2.142426 -0.001954 0.001491 118803.000000 1 0 0
2.063989 -1.777682 -3.889171 4.748247 -0.711009 2.530593 0.000542 -0.002283 -91347.900000 1 0 0
11.326689 -1.943582 1.113629 11.546063 -0.169938 1.474195 0.010176 -0.004074 922105.000000 1 0 0
0.481389 -4.219682 -1.898671 4.652140 -1.457206 1.991199 0.002141 -0.001750 -2131880.000000 1 0 0
1.045189 -7.465982 -11.181171 13.485247 -1.431707 2.548366 -0.006585 0.000069 -313416.000000 1 0 0
-4.419511 4.082918 -10.002771 11.672948 -0.745831 2.600059 0.003728 -0.008746 228002.000000 1 0 0
-1.055311 5.823218 -2.188371 6.309715 -1.391517 1.924981 -0.003705 -0.002492 -839609.000000 1 0 0
-11.471511 1.774018 -3.987371 12.273623 -0.153430 1.901674 0.010532 -0.006716 -304498.000000 1 0 0
-1.754511 -11.216682 4.138629 12.083895 1.415634 1.221229 0.013195 -0.004020 -162557.000000 1 0 0
-3.613111 -5.511682 -9.795371 11.806036 0.990539 2.549352 0.001764 -0.002365 -1951560.000000 1 0 0
-12.880511 -3.763682 -8.306371 15.781909 0.284285 2.125066 0.022853 -0.006077 296645.000000 1 0 0
11.293189 4.405418 0.506429 12.132613 0.371939 1.529043 0.008142 -0.002938 258141.000000 1 0 0
-8.816511 -2.266582 -2.969371 9.575250 0.251635 1.886104 0.009254 -0.004868 81480.300000 1 0 0
-2.512811 -6.060482 -6.501771 9.236703 1.177748 2.351678 0.000494 -0.002649 -1050660.000000 1 0 0
-0.015211 2.665518 -2.031571 3.351491 -1.565090 2.222031 -0.003950 -0.002506 -387718.000000 1 0 0
8.003389 5.933818 -5.170471 11.224892 0.637983 2.049496 0.006831 -0.003313 -563779.000000 1 0 0
-9.712511 -0.887482 -0.906871 9.795045 0.091122 1.663514 0.003605 -0.002263 -689511.000000 1 0 0
6.149889 0.477518 -8.897871 10.826877 0.077491 2.535415 0.010421 -0.001231 487491.000000 1 0 0
-4.096711 2.415018 7.949429 9.263303 -0.532664 0.539114 0.001112 -0.003516 -849423.000000 1 0 0
-10.190811 -3.296382 1.501729 10.815450 0.312844 1.431496 -0.001433 -0.001132 1389030.000000 1 0 0
-1.769811 -8.148582 -7.825071 11.435181 1.356926 2.324437 -0.003030 -0.000954 -1483000.000000 1 0 0
-9.472011 -9.716682 4.198429 14.204215 0.798148 1.270738 0.001609 -0.000213 -469412.000000 1 0 0
-1.178011 -10.673282 7.357229 13.016739 1.460871 0.970105 0.004461 -0.006127 166935.000000 1 0 0
9.430889 3.776818 -3.782271 10.840276 0.380914 1.927203 0.004714 -0.003523 -630317.000000 1 0 0
12.770389 -0.748482 3.068929 13.155280 -0.058544 1.335342 0.010766 -0.004129 -248747.000000 1 0 0
6.512589 11.885718 -6.911971 15.213791 1.069541 2.042408 0.015207 -0.002435 -188734.000000 1 0 0
-11.776511 -0.022882 -6.650671 13.524724 0.001943 2.084885 0.016025 -0.003497 592596.000000 1 0 0
-7.659011 -6.645582 -11.411371 15.265765 0.714670 2.415108 0.014230 -0.003910 -1572280.000000 1 0 0
4.090689 6.101618 6.508929 9.814766 0.980195 0.845741 -0.005289 0.001449 -2905720.000000 1 0 0
-4.261911 -1.258682 -7.371271 8.607194 0.287170 2.599068 0.004614 -0.009589 -1736280.000000 1 0 0
9.568589 9.324818 0.771629 13.383032 0.772496 1.513107 0.011226 -0.003762 -1462310.000000 1 0 0
-8.983511 3.950418 4.888629 10.963939 -0.414290 1.108636 0.005784 -0.010229 810050.000000 1 0 0
-6.984511 7.806518 -12.351471 16.195182 -0.840916 2.438217 -0.002122 -0.002796 -350672.000000 1 0 0
11.221389 -3.626482 7.334129 13.887419 -0.312581 1.014419 0.018501 -0.009882 316393.000000 1 0 0
11.838089 6.911318 6.370729 15.115980 0.528438 1.135745 0.004833 -0.002310 291384.000000 1 0 0
-10.108811 -0.710082 -14.740771 17.888057 0.070129 2.539331 0.024586 -0.005214 -856862.000000 1 0 0
1.716689 -12.994382 12.165829 17.883188 -1.439447 0.822632 0.005925 -0.004937 171199.000000 1 0 0
2.957889 3.039218 12.933329 13.610913 0.798959 0.316863 -0.006256 -0.002761 -1178040.000000 1 0 0
-2.611711 -1.446382 10.976129 11.374905 0.505761 0.265572 0.002680 -0.003822 -308626.000000 1 0 0
2.533289 -10.097082 -8.291671 13.308660 -1.324977 2.243404 -0.003993 0.002711 -553447.000000 1 0 0
14.024689 3.661418 -7.405071 16.276761 0.255370 2.043109 0.025602 -0.004523 -2469020.000000 1 0 0
7.373689 -1.580882 4.909329 8.998444 -0.211198 0.993721 0.000153 0.000113 318233.000000 1 0 0
-1.149311 8.718418 10.029929 13.339086 -1.439726 0.719826 -0.002389 -0.003581 -222448.000000 1 0 0
-12.175111 -4.681082 0.919729 13.076382 0.367056 1.500403 -0.006091 -0.001273 -421071.000000 1 0 0
-4.804511 5.034318 -5.310671 8.753908 -0.808751 2.222652 0.001149 -0.006445 -275090.000000 1 0 0
-11.200711 0.476818 1.898029 11.370391 -0.042545 1.403084 0.000241 -0.002109 -1547910.000000 1 0 0
-1.444111 2.372018 -4.089771 4.943495 -1.023923 2.545087 -0.001805 -0.006199 570717.000000 1 0 0
3.224389 -9.843782 12.999929 16.622121 -1.254254 0.672790 -0.001248 -0.005286 -1555850.000000 1 0 0
8.869089 4.689218 -1.567271 10.154105 0.486355 1.725764 0.004860 -0.005312 -1172550.000000 1 0 0
4.116389 2.303118 3.696929 5.993021 0.510107 0.906034 -0.010036 0.002317 572381.000000 1 0 0
-5.375311 -3.200082 7.443529 9.723200 0.536978 0.698911 0.004425 -0.006471 -59491.800000 1 0 0
1.849589 -5.748582 7.797929 9.862803 -1.259509 0.658942 -0.004240 -0.003000 -1546950.000000 1 0 0
-5.900811 -6.457182 -9.683371 13.049231 0.830389 2.406941 0.011038 -0.004362 -1101940.000000 1 0 0
-11.735611 -5.651982 5.602029 14.179288 0.448827 1.164636 0.001449 -0.003964 -1620690.000000 1 0 0
10.565589 6.194618 4.463529 13.035646 0.530286 1.221316 0.001043 0.000485 118402.000000 1 0 0
1.613489 -3.780182 0.448329 4.134504 -1.167378 1.462147 0.001647 -0.001078 -452750.000000 1 0 0
8.799689 4.366518 6.785329 11.939083 0.460613 0.966323 -0.002363 0.002287 -790998.000000 1 0 0
-7.939811 12.019118 3.508129 14.825881 -0.987007 1.331909 -0.002858 -0.006831 -275475.000000 1 0 0
-6.171311 13.337418 -7.019271 16.286250 -1.137426 2.016390 0.008389 -0.004038 -76699.200000 1 0 0
4.471989 -6.961582 -1.140971 8.352493 -0.999796 1.707827 0.000574 -0.004415 -584252.000000 1 0 0
-1.853711 -8.195182 11.057629 13.887708 1.348345 0.649780 -0.001444 -0.005944 -522778.000000 1 0 0
11.461489 8.703918 -5.666771 15.467262 0.649493 1.945903 0.021619 -0.011180 324795.000000 1 0 0
-3.330311 -2.941582 -1.963871 4.858051 0.723498 1.986956 0.005169 -0.001373 -2608630.000000 1 0 0
-2.047411 6.022218 4.766229 7.948329 -1.243079 0.927730 -0.002414 -0.000557 -376088.000000 1 0 0
0.551289 -11.288482 -5.494971 12.566959 -1.521999 2.023341 -0.000723 0.001384 455870.000000 1 0 0
-8.794111 6.325918 -1.537271 10.941518 -0.623585 1.711762 0.006673 -0.004146 -482479.000000 1 0 0
2.904389 -0.060782 3.835829 4.811731 -0.020925 0.648182 -0.006771 0.002655 -907395.000000 1 0 0
-10.079611 4.007518 -1.055471 10.898292 -0.378424 1.667796 0.008218 -0.003639 239128.000000 1 0 0
6.469289 5.379318 13.542229 15.943047 0.693665 0.555925 0.013118 0.002024 -1567680.000000 1 0 0
-8.751211 -1.492782 5.713429 10.557242 0.168954 0.998950 0.000390 -0.005742 -380867.000000 1 0 0
12.945089 -1.835982 -1.412771 13.150745 -0.140889 1.678433 0.015055 -0.003249 -1567170.000000 1 0 0
5.088189 -5.656882 5.401229 9.330770 -0.838275 0.953464 0.000444 -0.003843 202741.000000 1 0 0
-9.045811 -1.159682 3.197229 9.664048 0.127506 1.233605 -0.001611 -0.002495 1008780.000000 1 0 0
2.064089 5.364618 5.509829 7.962274 1.203497 0.806552 -0.006328 -0.000716 -1456360.000000 1 0 0
9.252389 2.984618 -7.331071 12.176175 0.312040 2.216904 0.009428 -0.001898 -191058.000000 1 0 0
2.330589 -2.362182 -1.462971 3.626546 -0.792130 1.986033 0.000607 -0.001534 327130.000000 1 0 0
-6.219111 0.371718 -3.934371 7.368499 -0.059699 2.134055 0.002341 -0.002332 -1079810.000000 1 0 0
-4.019911 4.209018 4.999729 7.672862 -0.808375 0.861089 0.001382 -0.004561 1691130.000000 1 0 0
-6.536911 1.760318 -12.180071 13.934993 -0.263049 2.634301 0.009577 -0.008288 -2138500.000000 1 0 0
-0.049211 3.080718 6.204729 6.927619 -1.554824 0.460903 -0.005763 -0.002586 1277580.000000 1 0 0
-8.828411 9.503518 -2.136971 13.146267 -0.822208 1.734074 -0.000872 0.000099 -150553.000000 1 0 0
-1.370211 -3.713082 -6.163971 7.325230 1.217277 2.570797 -0.002144 -0.002656 428229.000000 1 0 0
-3.358611 7.024018 -2.985971 8.338652 -1.124772 1.937016 -0.003556 0.000696 1305600.000000 1 0 0
7.013089 -0.413882 -4.435171 8.308156 -0.058947 2.133924 0.001933 0.000326 -393199.000000 1 0 0
-5.262211 -10.792882 6.848429 13.823102 1.117148 1.052462 0.002538 -0.005043 669874.000000 1 0 0
9.817989 8.245818 -1.553871 12.915144 0.698583 1.691402 0.004610 -0.003768 -101069.000000 1 0 0
13.731389 4.583418 -4.369571 15.121241 0.322163 1.863946 0.012592 -0.007007 699380.000000 1 0 0
4.659889 1.060718 -6.883171 8.379602 0.223814 2.534692 0.002017 -0.002655 -281083.000000 1 0 0
8.979489 -4.744382 3.527929 10.751124 -0.486076 1.236457 0.006705 -0.002219 -471989.000000 1 0 0
-8.795611 -3.318782 -0.753171 9.431031 0.360805 1.650742 0.002628 -0.002318 261537.000000 1 0 0
-8.594811 -4.232682 -10.313971 14.077086 0.457605 2.393045 0.012205 -0.005922 1349.090000 1 0 0
10.477389 -1.215482 10.634529 14.978194 -0.115494 0.781297 0.019613 -0.003959 440521.000000 1 0 0
2.070189 -11.680182 9.836729 15.410178 -1.395379 0.878474 0.005331 -0.008852 1021760.000000 1 0 0
-6.457211 -10.546782 2.050929 12.535410 1.021422 1.406447 0.005546 0.001053 -576826.000000 1 0 0
-3.675511 -1.201582 6.733329 7.764722 0.315964 0.521306 0.005409 -0.003632 -1335980.000000 1 0 0
4.681789 -7.596282 3.804629 9.700405 -1.018459 1.167760 -0.001638 -0.001605 31001.600000 1 0 0
11.512589 -9.543782 -5.292071 15.862834 -0.692168 1.910931 0.027730 -0.011510 398073.000000 1 0 0
11.339589 1.074318 11.529929 16.207397 0.094458 0.779309 0.027398 -0.000970 329235.000000 1 0 0
-10.233711 -3.362882 4.442629 11.652243 0.317492 1.179629 0.000988 -0.000770 1070430.000000 1 0 0
2.126989 8.689818 8.836029 12.574276 1.330748 0.791601 -0.005750 0.000942 -289299.000000 1 0 0
6.613689 8.774818 4.126129 11.737259 0.924923 1.211580 0.005205 0.001027 -267026.000000 1 0 0
-4.326911 3.743618 0.495629 5.743037 -0.713249 1.484388 -0.000176 -0.004418 394887.000000 1 0 0
4.853389 6.970718 4.186129 9.469423 0.962589 1.112893 0.000073 0.000068 -1286370.000000 1 0 0
-8.285811 13.140918 1.073129 15.572090 -1.008227 1.501828 0.002717 0.000623 180293.000000 1 0 0
8.865289 8.154618 -9.095671 15.093786 0.743667 2.217564 0.013983 -0.009129 -1169650.000000 1 0 0
7.005689 1.978718 6.047629 9.464081 0.275274 0.877588 -0.004839 0.001807 -356047.000000 1 0 0
11.536989 -6.267382 3.104929 13.491582 -0.497640 1.338577 0.018733 -0.004366 151873.000000 1 0 0
11.369889 4.777518 -2.130771 12.515560 0.397790 1.741879 0.009237 -0.003221 599880.000000 1 0 0
-4.069811 14.523218 -5.950771 16.214157 -1.297576 1.946590 -0.001107 0.004427 -697538.000000 1 0 0
7.093189 -2.999482 6.926729 10.358079 -0.400063 0.838301 0.003519 -0.002433 -742768.000000 1 0 0
-7.926211 -0.406082 0.915329 7.989214 0.051188 1.455974 0.002715 -0.002037 224068.000000 1 0 0
-3.160111 1.075818 10.797629 11.301880 -0.328130 0.299841 0.000223 -0.001327 -447247.000000 1 0 0
7.073789 -1.227882 -1.905071 7.428020 -0.171869 1.830165 0.003718 -0.001020 -1246700.000000 1 0 0
-7.875211 5.388318 3.012429 10.006380 -0.600052 1.265002 0.005564 -0.006714 954885.000000 1 0 0
9.443089 -2.191982 2.883229 10.113839 -0.228086 1.281709 0.004876 -0.001514 -1635640.000000 1 0 0
0.209789 3.426618 1.569929 3.774970 1.509649 1.141888 -0.002584 -0.000323 -3294830.000000 1 0 0
-7.596511 -3.008382 4.005229 9.099407 0.377072 1.115015 0.000679 -0.003251 914984.000000 1 0 0
-2.252911 8.445718 -6.876771 11.121858 -1.310114 2.237389 -0.002878 -0.002150 -813655.000000 1 0 0
4.579089 9.817418 7.240529 13.029774 1.134368 0.981602 -0.000173 0.003149 1444970.000000 1 0 0
-11.797811 -2.984482 6.826529 13.953386 0.247771 1.059580 0.007699 -0.006072 -2073160.000000 1 0 0
-4.616411 2.438118 -5.611871 7.664774 -0.485906 2.392290 0.004234 -0.008187 -281810.000000 1 0 0
-2.726011 3.005218 -1.774371 4.428415 -0.834076 1.983054 -0.001230 -0.004013 1336300.000000 1 0 0
2.355289 5.170418 11.271629 12.622608 1.143352 0.466892 -0.007326 -0.004186 163655.000000 1 0 0
-0.691511 1.550618 4.521229 4.829505 -1.151309 0.359229 -0.000689 -0.002895 -262337.000000 1 0 0
5.063289 1.585018 7.580729 9.252926 0.303378 0.610644 -0.006720 0.001987 493927.000000 1 0 0
3.330089 -8.339682 1.766029 9.151976 -1.190888 1.376611 0.000406 -0.002864 1215440.000000 1 0 0
5.023089 6.402118 -4.615671 9.355370 0.905518 2.086758 0.003815 -0.002391 -2711640.000000 1 0 0
-4.083611 2.967418 -7.974471 9.437882 -0.628399 2.577254 0.004570 -0.011372 152138.000000 1 0 0
-8.785511 -2.112582 -12.954671 15.794673 0.235982 2.532544 0.017003 -0.006584 53714.200000 1 0 0
-7.751811 8.201818 1.266829 11.356286 -0.813598 1.459011 0.002974 -0.003918 -2502010.000000 1 0 0
7.321189 0.970618 -6.610471 9.911621 0.131808 2.300893 0.004237 -0.000697 607317.000000 1 0 0
9.015089 8.895218 5.446529 13.786276 0.778705 1.164653 0.008007 0.001349 790438.000000 1 0 0
9.441489 -1.070482 -1.370071 9.600247 -0.112899 1.713997 0.005238 -0.000369 524839.000000 1 0 0
5.348089 0.041518 4.224529 6.815455 0.007763 0.902251 -0.008890 0.003200 -2428270.000000 1 0 0
-4.086311 -7.369782 -8.036471 11.644590 1.064529 2.332487 0.012846 -0.004276 -899344.000000 1 0 0
-2.153911 7.430718 -0.578971 7.758228 -1.288663 1.645492 -0.003544 -0.000129 163506.000000 1 0 0
13.406289 -3.401182 -7.277871 15.628949 -0.248458 2.055183 0.025607 -0.007504 998662.000000 1 0 0
-4.852711 -5.035782 1.613129 7.177053 0.803910 1.344097 0.006190 -0.002738 2125650.000000 1 0 0
-8.979611 1.357618 2.485229 9.415567 -0.150052 1.303682 0.002074 -0.004069 -1095580.000000 1 0 0
-1.077411 11.138818 10.023729 15.023622 -1.474371 0.840356 -0.003971 -0.006170 329269.000000 1 0 0
-8.468411 0.456318 7.448529 11.287285 -0.053833 0.850105 0.003003 -0.007894 -1137040.000000 1 0 0
-6.088511 12.945718 -2.125071 14.462970 -1.131181 1.718262 0.000317 0.001961 615157.000000 1 0 0
-12.900111 -0.803782 3.272629 13.333005 0.062228 1.322809 -0.000066 -0.003459 696878.000000 1 0 0
-6.729511 12.677418 8.694129 16.780677 -1.082793 1.026164 0.011009 -0.013970 1438550.000000 1 0 0
-8.081411 0.778818 -14.035271 16.214332 -0.096075 2.617161 0.011891 -0.007054 -141444.000000 1 0 0
7.307689 2.978618 3.727629 8.727526 0.387041 1.129500 -0.002424 0.000681 -827845.000000 1 0 0
-1.697911 0.729118 -2.036171 2.749637 -0.405609 2.404645 -0.000548 -0.003176 693996.000000 1 0 0
-6.310811 9.648318 -10.459571 15.566598 -0.991555 2.307600 -0.005250 -0.000481 -329220.000000 1 0 0
-9.946711 13.705118 5.257929 17.731698 -0.942986 1.269742 -0.001803 -0.007072 223411.000000 1 0 0
-5.600811 8.272118 2.369829 10.267088 -0.975625 1.337878 -0.000168 -0.002828 -2000720.000000 1 0 0
-2.456411 -10.703282 -1.194571 11.046321 1.345202 1.679150 0.008089 -0.000228 -298648.000000 1 0 0
-2.298211 -12.346882 8.874229 15.377881 1.386765 0.955651 0.001713 -0.006313 765172.000000 1 0 0
-14.750511 -6.422282 -1.564471 16.163875 0.410641 1.667736 0.005792 -0.002156 403855.000000 1 0 0
-2.765011 -9.302582 3.291929 10.247933 1.281882 1.243770 0.008390 -0.003424 -277185.000000 1 0 0
4.630589 -2.712982 7.578129 9.286047 -0.529974 0.616206 -0.004211 0.000195 -774256.000000 1 0 0
-14.928911 -1.285182 -0.349071 14.988193 0.085875 1.594088 -0.003623 -0.006646 32736.700000 1 0 0
5.449989 8.731618 -2.858271 10.682380 1.012796 1.841665 0.003889 -0.001875 -52511.900000 1 0 0
-5.631711 -5.683082 8.501429 11.674241 0.789938 0.755073 0.003209 -0.004426 -3092210.000000 1 0 0
3.567489 3.637518 7.033929 8.685314 0.795117 0.626875 -0.007842 0.000471 53418.000000 1 0 0
3.361489 2.377318 9.386929 10.250156 0.615556 0.413341 -0.003954 -0.002281 705918.000000 1 0 0
9.953389 -3.289982 5.253429 11.725718 -0.319233 1.106240 0.016994 -0.005046 -202896.000000 1 0 0
6.455389 9.901918 -5.133171 12.886794 0.993063 1.980490 0.005585 -0.003741 -17249.800000 1 0 0
-4.545511 12.130518 -8.466971 15.475811 -1.212274 2.149704 -0.005342 -0.002778 -453790.000000 1 0 0
-3.324911 -7.183482 2.192629 8.213713 1.137304 1.300572 0.009085 -0.003943 1014100.000000 1 0 0
-7.483311 -3.956882 1.147029 8.542396 0.486391 1.436115 0.003702 -0.001829 2093370.000000 1 0 0
-2.017511 -3.980682 -10.863071 11.744040 1.101703 2.751795 0.005312 -0.004016 -1297010.000000 1 0 0
-5.216911 8.384118 -4.500271 10.851821 -1.014186 1.998411 -0.002920 -0.002580 -1625310.000000 1 0 0
-10.975911 -3.162482 -10.071171 15.228276 0.280531 2.293409 0.022320 -0.003054 -372439.000000 1 0 0
4.671089 -11.430382 -7.898071 14.657839 -1.182851 2.139843 0.002265 -0.000274 -1115510.000000 1 0 0
-9.388611 -3.821982 7.312929 12.499300 0.386601 0.945834 0.001170 -0.003233 -1373420.000000 1 0 0
-5.673211 -9.567882 -5.215871 12.285561 1.035582 2.009264 0.011308 -0.005236 72067.100000 1 0 0
4.790589 4.252518 -9.569071 11.515240 0.725967 2.551685 0.003991 0.005652 339685.000000 1 0 0
-3.318011 -7.323082 -14.067371 16.202705 1.145376 2.622382 -0.001716 -0.001950 -464210.000000 1 0 0
0.569489 -0.846982 -8.778271 8.837405 -0.978853 3.025844 0.005022 -0.008994 -81741.300000 1 0 0
-7.710711 2.296418 -2.921171 8.559313 -0.289457 1.919081 0.003969 -0.003466 504815.000000 1 0 0
-2.424611 7.402318 -12.501871 14.729895 -1.254262 2.584397 0.005396 -0.006059 246396.000000 1 0 0
-9.812511 8.895918 7.519329 15.230333 -0.736444 1.054448 0.007114 -0.014694 -387666.000000 1 0 0
-10.790311 -3.114882 -14.298971 18.182240 0.281034 2.475796 0.029724 0.001181 -198547.000000 1 0 0
-3.241911 4.751818 7.822729 9.710039 -0.972085 0.634053 0.000299 -0.005547 -409803.000000 1 0 0
8.690189 -2.355482 -3.552071 9.679096 -0.264691 1.946561 0.005109 -0.000117 -4730250.000000 1 0 0
1.907089 -8.382682 -1.238571 8.685644 -1.347100 1.713884 0.000089 0.000514 -155522.000000 1 0 0
-13.576311 -2.804582 5.049029 14.753799 0.203714 1.221519 0.010020 -0.006666 403479.000000 1 0 0
7.022689 2.703418 -1.933071 7.769388 0.367469 1.822244 0.001821 -0.002813 638284.000000 1 0 0
-11.015711 4.397218 8.844529 14.795510 -0.379797 0.930061 0.007675 -0.011823 -1628010.000000 1 0 0
-1.833911 -2.491782 7.983729 8.562251 0.936326 0.369706 -0.001843 -0.004759 -894733.000000 1 0 0
3.084389 11.917818 -9.851771 15.767220 1.317548 2.245705 0.009408 -0.005623 699680.000000 1 0 0
3.545889 -5.075782 -7.046771 9.380505 -0.961018 2.420696 0.002013 -0.005570 461675.000000 1 0 0
8.300289 -13.694682 -9.826771 18.788415 -1.025907 2.121190 0.035244 -0.008469 -319559.000000 1 0 0
-6.379011 -5.728982 -0.480071 8.587403 0.731764 1.626730 0.007234 -0.002188 -209369.000000 1 0 0
-1.102811 -4.047282 9.779629 10.641327 1.304773 0.405200 -0.004010 -0.004133 212222.000000 1 0 0
2.800289 3.170518 1.745629 4.576136 0.847325 1.179417 -0.008794 0.000694 -850488.000000 1 0 0
-9.174611 13.404618 7.762029 18.002954 -0.970592 1.125026 0.011704 -0.018254 74107.000000 1 0 0
4.067989 -11.146982 0.015429 11.866086 -1.220874 1.569496 0.000202 -0.003785 88885.000000 1 0 0
-12.580411 -1.383282 -9.063371 15.566788 0.109515 2.192259 0.021282 -0.005685 49370.500000 1 0 0
-4.319711 0.892918 -13.503871 14.206045 -0.203837 2.825870 0.009967 -0.009829 266052.000000 1 0 0
3.877089 -3.119282 4.944829 7.015204 -0.677505 0.788552 -0.004480 0.003091 -170437.000000 1 0 0
1.690389 -1.176482 1.078329 2.324720 -0.608025 1.088456 -0.000668 0.001243 224718.000000 1 0 0
8.223189 -9.019082 7.402929 14.274735 -0.831525 1.025579 0.009456 -0.005997 -1351890.000000 1 0 0
-0.034211 2.185318 -6.250771 6.621851 -1.555143 2.805229 -0.001588 -0.006001 -1254440.000000 1 0 0
-3.801711 -9.806482 -3.364171 11.042543 1.200961 1.880373 0.008212 -0.000473 742071.000000 1 0 0
-9.403511 2.331118 -5.466671 11.124055 -0.243000 2.084525 0.009697 -0.004864 -1773990.000000 1 0 0
8.942989 -7.666382 5.297229 12.915538 -0.708688 1.148184 0.009820 -0.005480 981082.000000 1 0 0
-5.526011 -4.183082 4.727529 8.389548 0.647954 0.972177 0.003335 -0.004996 -52791.900000 1 0 0
-0.247811 -12.476282 10.580529 16.360521 1.550936 0.867532 0.003994 -0.006150 -2950190.000000 1 0 0
-14.181411 -8.208682 3.164329 16.688555 0.524711 1.380031 -0.006093 -0.001977 -1140100.000000 1 0 0
10.908189 -1.305582 -3.602171 11.561521 -0.119122 1.887636 0.017696 -0.002051 82341.100000 1 0 0
-13.656611 3.004718 2.808529 14.262510 -0.216569 1.372584 0.006593 -0.009189 169871.000000 1 0 0
-6.300011 6.121318 0.967229 8.837205 -0.771013 1.461127 0.003236 -0.002847 911826.000000 1 0 0
7.162089 -6.956682 -0.566271 10.000581 -0.770851 1.627450 0.004132 -0.004500 -590871.000000 1 0 0
-6.800611 7.835418 10.041029 14.438294 -0.855983 0.801758 -0.003140 -0.008489 475190.000000 1 0 0
-12.619111 -5.076382 -1.956171 13.741842 0.382468 1.713633 0.000682 -0.003803 -2691710.000000 1 0 0
-9.417911 -5.585082 0.282429 10.953080 0.535277 1.545008 0.002775 -0.001161 -1801160.000000 1 0 0
-1.833711 1.863418 2.244129 3.445423 -0.793433 0.861452 0.001397 -0.002453 47980.300000 1 0 0
-6.960111 7.381218 7.545529 12.643596 -0.814753 0.931306 0.003937 -0.009592 -115033.000000 1 0 0
5.537489 7.168018 -0.328371 9.063779 0.913033 1.607033 0.002758 -0.001819 -1800810.000000 1 0 0
-0.075311 -4.128982 7.416729 8.488936 1.552559 0.508052 -0.003753 -0.002956 -447095.000000 1 0 0
6.360489 0.609118 13.073829 14.551696 0.095475 0.454592 0.008373 -0.003678 708668.000000 1 0 0
5.729089 6.039118 -7.841371 11.435930 0.811737 2.326332 0.001081 0.001479 -555088.000000 1 0 0
9.992289 5.235418 8.973029 14.414253 0.482620 0.898849 0.001046 0.000772 -1243030.000000 1 0 0
-1.301111 -5.063682 -8.496071 9.975820 1.319288 2.589953 0.000129 -0.003903 750948.000000 1 0 0
10.026389 -3.566682 -7.914171 13.262119 -0.341770 2.210241 0.020685 -0.007957 543413.000000 1 0 0
8.305389 -5.548482 1.243429 10.065350 -0.588965 1.446944 0.006064 -0.002497 1377560.000000 1 0 0
15.748589 3.060418 -5.014771 16.808693 0.191937 1.873753 0.030212 -0.003308 83352.500000 1 0 0
-6.960011 3.572718 1.200729 7.915037 -0.474247 1.418506 0.003566 -0.004384 506445.000000 1 0 0
-1.725611 3.806118 0.323629 4.191539 -1.145137 1.493509 -0.001485 -0.003501 -1105180.000000 1 0 0
-2.581111 10.056618 6.845829 12.436361 -1.319561 0.987871 0.001234 -0.001224 437204.000000 1 0 0
5.477389 -5.730782 -8.759071 11.813762 -0.808002 2.405994 0.007280 -0.005776 257481.000000 1 0 0
-1.148511 -1.032682 6.299529 6.486107 0.732345 0.240436 -0.001281 -0.001810 -123554.000000 1 0 0
-5.690511 5.091118 -7.834171 10.939635 -0.729861 2.369034 0.002750 -0.006175 -129407.000000 1 0 0
6.739189 -1.261982 2.464229 7.285719 -0.185116 1.225764 -0.003408 0.003119 -1496530.000000 1 0 0
8.872489 7.611218 3.179129 12.114395 0.709031 1.305261 0.005419 -0.000501 355204.000000 1 0 0
-5.326811 -5.015882 -7.813371 10.704333 0.755345 2.389010 0.008417 -0.007210 779545.000000 1 0 0
-2.282311 7.805618 -10.105871 12.971709 -1.286333 2.463978 0.003032 -0.003074 483155.000000 1 0 0
-2.823711 -2.254782 1.536629 3.926655 0.673836 1.168717 0.000929 -0.000331 629377.000000 1 0 0
5.966589 -2.090682 -9.227271 11.185422 -0.337030 2.540887 0.010623 -0.004171 759114.000000 1 0 0
1.105589 -7.577882 5.235729 9.276826 -1.425922 0.971105 -0.000671 -0.001579 526234.000000 1 0 0
1.688789 11.702918 1.139829 11.878952 1.427481 1.474695 0.005278 0.001102 309678.000000 1 0 0
-0.974811 7.042018 2.489529 7.532465 -1.433243 1.233956 -0.003257 -0.000383 636259.000000 1 0 0
8.740589 7.836018 -6.665771 13.499391 0.730883 2.087231 0.006462 -0.005058 -956769.000000 1 0 0
3.710289 -10.996282 5.468129 12.829065 -1.245379 1.130475 0.010962 -0.003709 470043.000000 1 0 0
7.961789 -7.020782 12.373729 16.303087 -0.722674 0.709050 0.019762 -0.011958 105151.000000 1 0 0
-8.660811 0.048018 -4.019371 9.548156 -0.005544 2.005297 0.006653 -0.003604 -621264.000000 1 0 0
-3.141111 -5.090882 11.235529 12.728738 1.017965 0.489241 0.003488 -0.006256 738418.000000 1 0 0
-8.218911 0.121518 -11.472871 14.113540 -0.014784 2.519907 0.009923 -0.008011 -1647140.000000 1 0 0
1.492189 -5.085782 5.377429 7.550401 -1.285402 0.778163 -0.001911 -0.000595 -276782.000000 1 0 0
6.694789 3.619618 -7.867171 10.945968 0.495646 2.372767 0.003569 0.001144 -617321.000000 1 0 0
16.234889 4.223018 -1.131671 16.813274 0.254480 1.638155 0.016476 0.001655 -2816200.000000 1 0 0
7.850789 7.440618 0.072229 10.816788 0.758581 1.564119 0.005444 -0.005672 -2769910.000000 1 0 0
5.479189 -10.372782 14.045629 18.300159 -1.084823 0.695842 0.003314 -0.003866 -528230.000000 1 0 0
-5.067911 -9.283482 9.012729 13.895901 1.071102 0.865067 -0.003614 -0.005126 573573.000000 1 0 0
-12.668511 -3.175482 2.803129 13.357859 0.245599 1.359376 -0.004649 -0.002760 670408.000000 1 0 0
-2.133911 -1.279082 -5.875571 6.380592 0.539984 2.741052 0.000838 -0.007184 -656908.000000 1 0 0
-2.752911 13.026418 -4.446871 14.037120 -1.362528 1.893143 -0.000558 0.004492 -119165.000000 1 0 0
3.947389 -0.522982 -5.041071 6.424001 -0.131721 2.473048 0.001909 -0.001986 -627845.000000 1 0 0
-8.798411 3.874118 -7.338771 12.094560 -0.414775 2.222803 0.005749 -0.004358 -52193.200000 1 0 0
-4.636411 7.911618 -11.305971 14.557299 -1.040715 2.460131 -0.000221 -0.004579 -2516720.000000 1 0 0
-10.146111 -6.324082 7.448329 14.085993 0.557377 1.013639 0.001705 -0.003270 -1686650.000000 1 0 0
8.003589 5.411918 4.039529 10.472062 0.594564 1.174783 0.000471 0.001674 -1375310.000000 1 0 0
-6.757611 -7.459382 4.038429 10.845119 0.834720 1.189232 0.006671 -0.002077 -848731.000000 1 0 0
-4.205911 11.772818 7.965929 14.823797 -1.227672 1.003476 0.006086 -0.006275 -177849.000000 1 0 0
-7.295011 10.019518 -7.950271 14.724630 -0.941472 2.141150 0.002029 -0.002264 -779381.000000 1 0 0
13.102789 5.552818 4.572529 14.947404 0.400844 1.259904 0.006987 -0.003684 -1174030.000000 1 0 0
5.328389 3.954918 -3.634871 7.566068 0.638513 2.071927 0.000725 -0.002244 53660.800000 1 0 0
-2.853711 -4.164382 5.102729 7.177994 0.970027 0.780040 0.004605 -0.004192 -1807280.000000 1 0 0
12.451289 -2.310482 -5.298871 13.727744 -0.183475 1.967085 0.015606 -0.007159 -854013.000000 1 0 0
-5.199911 9.618018 6.971929 12.967387 -1.075166 1.003148 0.001658 -0.005427 -674384.000000 1 0 0
1.606189 3.808118 -0.473071 4.159976 1.171656 1.684762 -0.002236 -0.000329 613007.000000 1 0 0
-0.048011 9.461718 7.597029 12.134301 -1.565722 0.894282 -0.003978 -0.001456 -1146100.000000 1 0 0
-5.481511 2.020918 5.862929 8.276775 -0.353217 0.783625 0.004050 -0.006508 679919.000000 1 0 0
8.798489 0.770818 10.700629 13.874835 0.087385 0.690032 0.012786 0.000087 -1096470.000000 1 0 0
0.291889 -2.926782 -10.096171 10.515889 -1.471395 2.858110 0.004640 -0.005360 -2348130.000000 1 0 0
1.227989 10.671418 -2.674271 11.069726 1.456228 1.814794 0.003007 -0.000807 444263.000000 1 0 0
2.260789 -4.388382 11.648729 12.651560 -1.095082 0.400837 -0.002308 -0.002709 234052.000000 1 0 0
6.508789 -3.141282 9.444729 11.892641 -0.449648 0.653163 0.007359 -0.003190 230681.000000 1 0 0
-10.620811 -8.056582 5.627929 14.470098 0.648961 1.171321 0.001235 -0.002197 -534134.000000 1 0 0
-2.922611 0.914418 -6.913171 7.561067 -0.303228 2.724601 0.003636 -0.008757 740036.000000 1 0 0
11.132889 2.616318 -4.984571 12.475267 0.230820 1.981829 0.010647 -0.003581 -3853610.000000 1 0 0
-2.089911 -4.096282 0.046029 4.598845 1.099024 1.560787 0.001139 -0.001194 1437320.000000 1 0 0
-1.343411 -6.460882 -10.672171 12.547628 1.365788 2.587794 -0.000070 -0.001272 689990.000000 1 0 0
0.314389 6.837418 -6.646571 9.540756 1.524848 2.341514 0.001300 -0.000541 -2187340.000000 1 0 0
2.071689 3.757418 -6.171871 7.516786 1.066910 2.534094 -0.002712 -0.001913 -1755810.000000 1 0 0
1.648489 -14.688982 6.479529 16.139022 -1.459038 1.157662 0.019627 -0.011207 -77200.500000 1 0 0
-1.767711 5.331318 -10.545571 11.948088 -1.250633 2.652194 0.006920 -0.005994 -455477.000000 1 0 0
13.626289 4.388918 -0.757471 14.335694 0.311599 1.623659 0.010969 -0.003366 111292.000000 1 0 0
-2.265511 3.434718 -6.264171 7.494642 -0.987708 2.560421 0.002831 -0.008376 -930006.000000 1 0 0
5.750389 7.778518 14.080429 17.083056 0.934201 0.601949 0.010650 -0.002488 146196.000000 1 0 0
16.047289 0.553118 -5.709871 17.041832 0.034454 1.912455 0.035199 -0.005795 456063.000000 1 0 0
6.182189 -8.241482 10.523329 14.726913 -0.927212 0.774795 0.002896 -0.000704 1089860.000000 1 0 0
0.044389 -5.904182 -6.404871 8.711125 -1.563278 2.396834 -0.002297 -0.001996 -35862.800000 1 0 0
8.645589 5.504118 -7.574771 12.744358 0.566925 2.207269 0.006691 -0.001333 -361279.000000 1 0 0
-15.972611 -0.545182 5.331129 16.847625 0.034119 1.248830 0.018457 -0.013573 244492.000000 1 0 0
-0.354911 3.970918 -12.305971 12.935651 -1.481656 2.828294 0.009905 -0.006255 854004.000000 1 0 0
-11.372711 3.731318 5.942529 13.363193 -0.317028 1.109964 0.006283 -0.010914 843497.000000 1 0 0
5.450889 -9.474482 -9.575071 14.531345 -1.048719 2.290185 0.006743 -0.000673 217427.000000 1 0 0
1.410289 11.177618 -11.660471 16.214026 1.445289 2.373388 0.006580 0.002340 -68878.400000 1 0 0
5.916889 2.451318 1.228629 6.521355 0.392766 1.381263 -0.001854 0.001134 -376276.000000 1 0 0
5.713989 4.564518 4.917229 8.812698 0.674028 0.978858 -0.004661 0.001315 -195899.000000 1 0 0
0.327189 -1.608482 -6.317171 6.526937 -1.370119 2.887379 -0.000049 -0.004082 -764452.000000 1 0 0
12.706689 6.732018 -4.524171 15.074751 0.487203 1.875610 0.012590 -0.007261 -557627.000000 1 0 0
7.417089 3.080218 12.702029 15.028057 0.393615 0.563818 0.015112 -0.001535 -343538.000000 1 0 0
-2.354911 -0.168782 8.690529 9.005520 0.071550 0.265267 -0.001847 -0.004529 612574.000000 1 0 0
2.421589 -15.268482 13.207329 20.332836 -1.413506 0.863795 0.025649 -0.012669 875309.000000 1 0 0
18.866689 4.510718 -1.753671 19.477523 0.234678 1.660954 0.021185 -0.003178 1153110.000000 1 0 0
-0.388311 -13.206482 7.308129 15.098699 1.541402 1.065549 0.006477 -0.006987 -1198030.000000 1 0 0
4.383589 1.623118 -0.550571 4.706750 0.354619 1.688039 -0.003926 -0.001769 815805.000000 1 0 0
2.729289 -0.617982 -7.333671 7.849436 -0.222671 2.777066 0.000701 -0.003895 -498962.000000 1 0 0
7.312889 -11.367982 0.913429 13.547831 -0.999154 1.503323 0.007391 -0.004435 638391.000000 1 0 0
-11.730211 -7.337182 1.396329 13.906179 0.558955 1.470216 -0.005143 0.002834 131540.000000 1 0 0
0.152289 -7.054982 9.941129 12.191063 -1.549214 0.617300 -0.003771 -0.003561 -3960170.000000 1 0 0
-4.579711 -7.185682 10.581329 13.585739 1.003374 0.677957 0.003834 -0.002771 -1097470.000000 1 0 0
11.722889 0.678818 -1.629671 11.855073 0.057841 1.708699 0.010968 -0.004183 1763720.000000 1 0 0
6.467089 -9.778882 -7.281471 13.801072 -0.986496 2.126571 -0.000683 -0.003648 -102452.000000 1 0 0
-11.033011 4.990518 3.638329 12.643972 -0.424787 1.278918 0.004244 -0.010174 -235362.000000 1 0 0
5.932089 -9.318982 1.980529 11.222995 -1.003928 1.393397 -0.000895 -0.002958 3806120.000000 1 0 0
11.560689 -1.299582 5.903229 13.045557 -0.111944 1.101220 0.018811 -0.008000 578588.000000 1 0 0
-6.568411 3.540718 4.242429 8.583642 -0.494399 1.053829 0.002644 -0.007007 -309707.000000 1 0 0
9.380689 6.302618 -3.135671 11.728288 0.591597 1.841448 0.005427 -0.004553 210402.000000 1 0 0
-2.323411 6.645118 10.872829 12.952770 -1.234441 0.574579 -0.003465 -0.005948 -119027.000000 1 0 0
1.991189 9.865318 2.933829 10.483162 1.371635 1.287147 -0.001012 -0.000002 -303311.000000 1 0 0
2.836089 6.067318 -5.610171 8.736690 1.133537 2.268082 -0.002908 -0.000011 -2235440.000000 1 0 0
11.820889 0.094718 -5.671971 13.111584 0.008013 2.018162 0.017453 -0.003190 325767.000000 1 0 0
-2.640611 -12.367982 6.254029 14.108604 1.360451 1.111544 0.004315 -0.003402 46527.600000 1 0 0
10.690989 1.829618 -2.729971 11.184699 0.169494 1.817368 0.010393 -0.003072 563936.000000 1 0 0
-8.767811 5.335618 0.814529 10.295959 -0.546680 1.491602 0.002714 -0.004982 -2220230.000000 1 0 0
1.152289 -10.175882 5.528929 11.638102 -1.458039 1.075751 0.006057 -0.004454 418913.000000 1 0 0
9.396589 -5.716982 -1.127871 11.056757 -0.546581 1.672981 0.011454 -0.003274 545785.000000 1 0 0
-7.685211 8.660718 -4.454471 12.406160 -0.845006 1.938050 0.002007 -0.001761 -1114870.000000 1 0 0
-7.473211 0.068018 -1.595571 7.641947 -0.009101 1.781135 0.001696 -0.001264 -737165.000000 1 0 0
4.161089 8.928518 2.713029 10.217320 1.134680 1.302040 0.002973 -0.000926 1404970.000000 1 0 0
-1.289511 -10.509482 -3.673371 11.207395 1.448707 1.904731 0.005550 0.001093 739551.000000 1 0 0
3.099789 7.810818 -3.648171 9.161152 1.193001 1.980374 0.003403 -0.002912 -799859.000000 1 0 0
-4.380711 1.693918 -11.013971 11.973618 -0.368968 2.738502 0.006014 -0.010386 -836144.000000 1 0 0
1.257289 2.789018 10.918329 11.338841 1.147277 0.273194 -0.004253 -0.003732 741758.000000 1 0 0
2.115889 5.419818 -8.057571 9.938604 1.198594 2.516202 0.001604 0.001034 802340.000000 1 0 0
15.507689 6.140718 3.923529 17.134495 0.377035 1.339762 0.015206 -0.007109 268092.000000 1 0 0
-4.397511 9.068718 4.604029 11.080470 -1.119294 1.142295 0.000733 -0.002757 14406.100000 1 0 0
-0.833711 -8.357082 -12.319471 14.909905 1.471364 2.543233 -0.003437 -0.003262 177009.000000 1 0 0
14.292689 -4.263382 -5.166771 15.784578 -0.289888 1.904273 0.030977 -0.006830 881537.000000 1 0 0
-5.966811 -6.185582 -5.661371 10.291520 0.803399 2.153281 0.011168 -0.003490 618029.000000 1 0 0
-9.015411 2.501118 -12.297171 15.451654 -0.270621 2.491203 0.008527 -0.008799 1242460.000000 1 0 0
10.579989 5.358518 13.715829 18.132122 0.468816 0.712946 0.038217 -0.000781 1094610.000000 1 0 0
-0.441511 10.825418 5.457029 12.131107 -1.530034 1.104213 -0.000262 0.002304 566005.000000 1 0 0
0.015589 11.436218 -0.621171 11.453086 1.569433 1.625059 0.003125 -0.000435 146168.000000 1 0 0
-1.439311 -0.682282 3.747529 4.071990 0.442660 0.401901 0.002716 -0.001232 284441.000000 1 0 0
-4.690411 6.762918 8.858629 12.091829 -0.964413 0.748643 0.002093 -0.007380 -2401700.000000 1 0 0
3.514089 -8.567982 -11.094671 14.451673 -1.181578 2.446054 -0.000822 0.002225 -99976.400000 1 0 0
6.708189 -3.822882 11.960029 14.235749 -0.517980 0.573254 0.013638 -0.006564 -708277.000000 1 0 0
-2.532411 -1.825082 -12.471671 12.856384 0.624477 2.896340 0.006998 -0.008434 914002.000000 1 0 0
-15.903411 -4.821382 5.356229 17.460051 0.294359 1.258998 0.001310 -0.009693 891109.000000 1 0 0
-8.933111 7.236418 5.830129 12.890175 -0.680849 1.101462 0.002350 -0.011268 -2223130.000000 1 0 0
-12.941111 1.640018 6.037129 14.373898 -0.126057 1.137344 0.004965 -0.006972 570942.000000 1 0 0
-3.490211 3.588918 10.117529 11.288326 -0.799341 0.459482 -0.000457 -0.003430 569463.000000 1 0 0
2.073789 -12.509482 -1.044071 12.723122 -1.406513 1.652950 0.004227 -0.006481 -1794710.000000 1 0 0
10.278989 -5.188682 -3.609571 12.066857 -0.467468 1.874578 0.017107 -0.003587 686413.000000 1 0 0
3.406089 -13.539782 1.154329 14.009269 -1.324348 1.488305 0.012254 -0.007541 359098.000000 1 0 0
9.958289 -1.655782 -6.082471 11.785822 -0.164764 2.113069 0.020429 -0.002857 280824.000000 1 0 0
11.980989 -5.399082 -1.615671 13.240264 -0.423384 1.693128 0.018346 -0.005353 320742.000000 1 0 0
1.520889 0.929718 5.902629 6.165915 0.548686 0.293284 -0.005915 -0.000798 454890.000000 1 0 0
-10.774911 11.682718 6.598629 17.208327 -0.825799 1.177261 0.008682 -0.013294 -421185.000000 1 0 0
4.801989 -14.156782 3.323729 15.314071 -1.243775 1.352018 0.015165 -0.007283 -4976080.000000 1 0 0
5.192789 -3.458282 -1.794871 6.492021 -0.587526 1.850919 0.003554 -0.000977 -1186610.000000 1 0 0
1.915489 -2.939082 -7.771071 8.526244 -0.993206 2.717541 0.002660 -0.004401 -374695.000000 1 0 0
-2.831411 14.869718 -8.786171 17.502062 -1.382634 2.096715 0.004549 -0.002896 -1195000.000000 1 0 0
-2.410111 6.047318 -8.199571 10.469558 -1.191547 2.470563 0.001765 -0.004552 -94785.700000 1 0 0
2.550089 -3.517182 -11.296471 12.103048 -0.943464 2.774452 0.004298 -0.004284 -1569500.000000 1 0 0
14.678889 2.808318 -2.642071 15.176857 0.189033 1.745773 0.019858 -0.002329 516033.000000 1 0 0
-3.545111 13.117218 2.268229 13.775851 -1.306839 1.405391 -0.002757 0.003588 -596654.000000 1 0 0
7.888389 -4.943082 14.004529 16.816290 -0.559769 0.586658 0.025553 -0.013137 -709886.000000 1 0 0
-11.616211 7.368918 2.886229 14.055875 -0.565305 1.363986 0.003184 -0.011146 1096420.000000 1 0 0
-2.182811 11.960818 4.018729 12.805312 -1.390286 1.251569 -0.000123 0.000402 -318885.000000 1 0 0
1.671889 1.403618 0.608729 2.266254 0.698390 1.298851 -0.004101 0.000393 -1182040.000000 1 0 0
-6.836811 8.575518 5.259729 12.163315 -0.897736 1.123615 0.002443 -0.006870 -1484420.000000 1 0 0
-1.096511 9.137418 0.988629 9.255924 -1.451365 1.463782 -0.002129 0.000901 409414.000000 1 0 0
4.971389 13.131918 -8.480571 16.403721 1.208897 2.114128 0.025055 -0.014738 -1684300.000000 1 0 0
8.891889 6.822818 7.106629 13.271048 0.654487 1.005698 -0.004729 0.002299 -1650760.000000 1 0 0
7.210389 -13.678482 2.921329 15.736097 -1.085678 1.384068 0.020679 -0.010759 -43236.900000 1 0 0
4.188189 -13.517982 -1.125971 14.196640 -1.270352 1.650192 0.000258 0.001812 -3402560.000000 1 0 0
12.119989 -11.782782 -4.565571 17.509213 -0.771292 1.834598 0.038414 -0.007000 -203865.000000 1 0 0
3.053689 -0.052982 -2.066771 3.687732 -0.017349 2.165719 -0.001286 -0.001619 1222920.000000 1 0 0
-13.539011 -3.252882 -10.668471 17.541446 0.235791 2.224570 0.026434 -0.004317 -235499.000000 1 0 0
-6.559711 13.622818 4.981729 15.919441 -1.122039 1.252516 -0.000589 -0.007203 285259.000000 1 0 0
7.257789 -4.316882 -0.698171 8.473395 -0.536582 1.653285 0.000421 0.000165 -2189060.000000 1 0 0
11.790589 2.027018 -7.230871 13.978994 0.170254 2.114451 0.019404 -0.003550 -576181.000000 1 0 0
-7.478311 -4.500782 9.675929 13.030955 0.541775 0.733950 0.007534 -0.006319 125956.000000 1 0 0
1.081389 2.876318 8.470629 9.010781 1.211182 0.348005 -0.007310 -0.002020 -2016290.000000 1 0 0
1.659289 7.959418 -8.766171 11.956225 1.365271 2.393796 0.006258 -0.000725 -735369.000000 1 0 0
-8.603811 -2.235482 -5.545171 10.477207 0.254204 2.128525 0.012612 -0.005393 -24228.500000 1 0 0
6.586889 -0.506782 7.021229 9.640622 -0.076787 0.754964 -0.000878 -0.000896 874626.000000 1 0 0
-10.906411 6.465218 7.232829 14.596666 -0.535102 1.052372 0.005067 -0.012551 465749.000000 1 0 0
-5.972111 11.057918 5.027329 13.535793 -1.075605 1.190269 -0.000813 -0.003219 247682.000000 1 0 0
6.043289 -1.219882 -6.895071 9.249403 -0.199181 2.412023 0.006371 -0.002398 -660060.000000 1 0 0
4.564089 -5.765282 11.431629 13.592334 -0.901167 0.571603 0.001241 -0.004515 -1447560.000000 1 0 0
-9.032111 -7.330282 2.750929 11.953229 0.681762 1.338574 0.000131 -0.000386 -2505180.000000 1 0 0
-1.260611 12.732618 -9.338871 15.840555 -1.472112 2.201304 0.010490 -0.001920 855664.000000 1 0 0
-4.530911 9.345718 -2.382871 10.655968 -1.119373 1.796322 -0.004340 -0.001401 491561.000000 1 0 0
-3.275111 9.691518 -0.193371 10.231777 -1.244909 1.589696 -0.003280 -0.000317 -1631560.000000 1 0 0
-3.486611 10.730818 -6.443171 12.993127 -1.256641 2.089657 -0.001465 0.001454 1067040.000000 1 0 0
4.945089 -4.951682 0.259129 7.002872 -0.786064 1.533785 0.000902 0.000708 -1668540.000000 1 0 0
-2.239611 2.855818 -10.917871 11.505279 -0.905747 2.820669 0.007294 -0.008102 -656227.000000 1 0 0
-3.534711 12.122918 -2.180871 12.814660 -1.287089 1.741814 -0.001749 0.001280 859721.000000 1 0 0
-0.280911 0.305618 0.062929 0.419849 -0.827497 1.420343 -0.002985 -0.000741 -1889810.000000 1 0 0
-4.812411 -1.677882 0.084629 5.097229 0.335478 1.554193 0.000843 -0.001120 253958.000000 1 0 0
2.592189 2.529918 -2.420671 4.356555 0.773241 2.159927 -0.009855 -0.002599 1082220.000000 1 0 0
6.028389 -9.772482 8.494929 14.283092 -1.018062 0.933836 0.003656 -0.002027 -220002.000000 1 0 0
-4.146511 -5.435782 6.561229 9.475812 0.919142 0.805960 0.006550 -0.005727 461244.000000 1 0 0
-6.301011 5.310418 -12.090671 14.631732 -0.700292 2.543360 0.000110 -0.007809 420224.000000 1 0 0
-13.058311 3.202018 8.040029 15.665710 -0.240465 1.031858 0.013510 -0.011630 477975.000000 1 0 0
4.643489 -7.611782 -4.849071 10.149616 -1.023027 2.068898 -0.001252 -0.003763 -360609.000000 1 0 0
-5.978711 2.615118 -1.019671 6.604813 -0.412331 1.725799 0.001242 -0.002869 -554983.000000 1 0 0
-6.911311 -2.886982 -14.501471 16.321566 0.395687 2.664830 0.012152 -0.004601 288315.000000 1 0 0
2.906089 -6.185482 0.881229 6.890727 -1.131579 1.442559 0.000588 0.000088 458584.000000 1 0 0
4.885089 -7.905882 12.985029 15.968033 -1.017315 0.621186 0.005164 -0.007258 -587667.000000 1 0 0
-10.020311 -1.511582 8.006229 12.914767 0.149723 0.902145 0.005543 -0.003028 -347017.000000 1 0 0
-4.484211 13.274718 -0.087671 14.011922 -1.245030 1.577053 -0.003564 0.004419 703373.000000 1 0 0
6.734489 2.301718 -4.540771 8.442147 0.329334 2.138704 0.001135 -0.002126 -1726840.000000 1 0 0
5.022789 4.505018 -0.011571 6.747127 0.731108 1.572511 -0.004467 -0.000581 -1319580.000000 1 0 0
-5.892611 12.212418 1.931129 13.696542 -1.121239 1.429331 -0.003857 -0.000037 229694.000000 1 0 0
6.587589 -7.330882 6.560229 11.839543 -0.838751 0.983521 0.003876 -0.003975 -1348990.000000 1 0 0
-0.268811 4.941718 7.605529 9.073969 -1.516454 0.576877 -0.006029 -0.002987 -639948.000000 1 0 0
-5.770011 -3.373582 -1.619871 6.877359 0.529075 1.808567 0.006589 -0.000625 -667228.000000 1 0 0
2.318389 -6.533982 -4.974671 8.533182 -1.229834 2.193187 -0.001327 -0.001370 -358168.000000 1 0 0
-14.516911 -4.850182 -3.717971 15.750818 0.322446 1.809095 0.005776 -0.008506 -305132.000000 1 0 0
-12.558511 -5.119382 -6.272671 14.942244 0.387077 2.004015 0.019764 -0.011868 -860599.000000 1 0 0
-14.781111 -3.776982 -1.254071 15.307499 0.250174 1.652813 -0.002029 -0.004712 621790.000000 1 0 0
11.934889 2.859718 8.762029 15.079547 0.235176 0.950773 0.018018 -0.002681 -713710.000000 1 0 0
8.840789 -6.548982 7.646229 13.398267 -0.637567 0.963453 0.011504 -0.006932 229548.000000 1 0 0
-8.881111 -1.616282 -9.582471 13.164735 0.180021 2.386035 0.011143 -0.005189 94098.200000 1 0 0
-8.809011 5.070718 -3.824171 10.859794 -0.522306 1.930653 0.003728 -0.006141 -537687.000000 1 0 0
-4.206011 -6.207682 4.066029 8.529856 0.975297 1.073920 0.007329 -0.003627 -989342.000000 1 0 0
-0.211911 -9.179882 3.527129 9.836452 1.547716 1.204053 0.006785 -0.004783 560627.000000 1 0 0
7.906489 -10.466582 3.358129 13.540272 -0.923846 1.320170 0.008543 -0.006733 -185239.000000 1 0 0
-0.008511 6.495618 9.482029 11.493564 -1.569486 0.600619 -0.007142 -0.004643 934500.000000 1 0 0
-0.040211 3.443618 -9.699071 10.292332 -1.559120 2.800408 0.007771 -0.006801 -242298.000000 1 0 0
4.465189 -3.212482 11.009729 12.307400 -0.623661 0.463347 0.001158 -0.002829 -2495950.000000 1 0 0
8.504189 -9.105882 1.250729 12.522087 -0.819552 1.470748 0.009593 -0.004806 -80699.400000 1 0 0
-0.302411 -0.534582 11.303729 11.320403 1.055983 0.054282 -0.001155 -0.002085 -1819950.000000 1 0 0
10.852189 5.898218 11.336629 16.765385 0.497843 0.828214 0.023340 0.001244 104515.000000 1 0 0
-6.428111 -2.917382 -11.803871 13.753657 0.426049 2.602617 0.008892 -0.004277 85936.200000 1 0 0
-1.612011 2.834218 8.409129 9.019137 -1.053659 0.369895 -0.001341 -0.005442 -23054.800000 1 0 0
-1.855311 13.436318 -6.824471 15.183880 -1.433582 2.036951 -0.000305 -0.002331 553659.000000 1 0 0
7.739289 2.976618 9.719629 12.776073 0.367170 0.706301 0.003808 0.002079 944480.000000 1 0 0
6.452589 8.374018 -7.920771 13.209795 0.914273 2.213814 0.011587 -0.000535 -325787.000000 1 0 0
6.726989 -3.044182 -3.946971 8.372455 -0.424958 2.061700 0.003566 -0.000517 -2093540.000000 1 0 0
2.013189 8.164618 1.021029 8.470916 1.329044 1.449969 -0.002089 0.000216 427638.000000 1 0 0
-17.691511 6.489518 6.567329 19.955781 -0.351576 1.235452 0.034549 -0.019357 851893.000000 1 0 0
-14.816811 2.993418 -10.227071 18.250792 -0.199345 2.165620 0.046222 -0.009205 -651140.000000 1 0 0
-18.330311 0.013518 -4.294171 18.826587 -0.000737 1.800913 0.035003 -0.008170 457510.000000 1 0 0
-13.037611 7.850718 0.244729 15.220807 -0.542006 1.554717 0.007459 -0.005758 -2957320.000000 1 0 0
-12.779211 -4.488982 -12.876971 18.688915 0.337808 2.330927 0.042504 0.003090 -664333.000000 1 0 0
-17.491611 -0.872182 -8.546671 19.487502 0.049822 2.024805 0.042420 -0.017775 199145.000000 1 0 0
-16.733111 -2.141182 -2.014671 16.989425 0.127269 1.689660 0.020712 -0.007815 -871806.000000 1 0 0
-15.372811 4.111318 1.725429 16.006353 -0.261325 1.462790 0.009432 -0.007099 -50431.100000 1 0 0
-13.337111 6.071218 4.372929 15.292505 -0.427180 1.280796 0.005024 -0.013125 -610895.000000 1 0 0
-9.994111 14.294218 2.779829 17.661664 -0.960627 1.412746 0.007354 -0.003021 135200.000000 1 0 0
-11.761911 2.547618 -6.536471 13.695194 -0.213304 2.068355 0.006385 -0.001672 664912.000000 1 0 0
-15.905011 10.598618 3.670529 19.462087 -0.587797 1.381061 0.021674 -0.015776 -779851.000000 1 0 0
-12.889211 1.137518 -8.606671 15.540286 -0.088025 2.157753 0.016850 -0.004976 671132.000000 1 0 0
-12.237111 14.400518 4.030229 19.322643 -0.866436 1.360678 0.024287 -0.015939 -339594.000000 1 0 0
-10.499711 11.169118 -1.052271 15.365558 -0.816281 1.639332 0.009963 -0.004655 116481.000000 1 0 0
-16.862211 5.526418 8.922629 19.861741 -0.316708 1.104885 0.024493 -0.027347 331943.000000 1 0 0
-11.717911 12.312318 -9.315271 19.382385 -0.810129 2.072141 0.011507 -0.011055 -1346800.000000 1 0 0
-17.271511 -0.426782 3.045029 17.543074 0.024705 1.396338 0.035202 -0.006898 649117.000000 1 0 0
-13.045011 14.925618 -0.710671 19.835610 -0.852532 1.606632 0.025575 -0.011673 -94587.100000 1 0 0
-16.724011 4.806218 -10.166471 20.153148 -0.279843 2.099554 0.076955 -0.020626 283994.000000 1 0 0
-11.971611 7.379618 -8.908171 16.647334 -0.552410 2.135435 0.004971 -0.007759 301115.000000 1 0 0
-14.787011 13.529118 -2.006871 20.142498 -0.741004 1.670596 0.033020 -0.012679 -81759.800000 1 0 0
-11.807511 10.565118 -5.367671 16.728745 -0.729923 1.897439 0.011768 -0.003748 130617.000000 1 0 0
-17.747711 2.713918 -0.916071 17.977368 -0.151741 1.621775 0.029442 -0.010111 -791083.000000 1 0 0
-9.500211 15.387518 0.491929 18.090652 -1.017683 1.543601 0.017701 -0.006570 -76824.800000 1 0 0
-8.153711 13.232218 -3.726571 15.983176 -1.018549 1.806118 0.004756 -0.000107 64410.800000 1 0 0
-17.958411 11.665518 2.430029 21.552120 -0.576084 1.457805 0.070285 -0.008309 -203057.000000 1 0 0
-8.111211 15.751118 -7.364671 19.186657 -1.095252 1.964751 0.046843 -0.023275 57439.900000 1 0 0
-6.329211 15.292118 -5.298271 17.377556 -1.178376 1.880621 0.017617 -0.005287 -505667.000000 1 0 0
-17.368611 5.121718 -0.009571 18.108029 -0.286756 1.571325 0.032148 -0.006279 567672.000000 1 0 0
-5.502611 12.388418 -12.214671 18.246912 -1.152798 2.304211 -0.007879 -0.002521 347458.000000 1 0 0
-11.279811 3.650818 -11.520971 16.531647 -0.313019 2.341868 0.015896 -0.007777 -79585.400000 1 0 0
-11.900211 11.069818 1.237529 16.299919 -0.749263 1.494801 0.012656 -0.008462 305210.000000 1 0 0
-13.016111 0.156518 -10.996871 17.040387 -0.012024 2.272267 0.025275 -0.010007 1180890.000000 1 0 0
-14.014611 -2.272782 -13.073871 19.300284 0.160773 2.315009 0.038087 -0.004252 45549.100000 1 0 0
-18.826911 -2.424982 -3.551571 19.311830 0.128099 1.755756 0.035865 -0.009015 767070.000000 1 0 0
-18.215711 4.828418 -5.078371 19.517059 -0.259110 1.834027 0.044981 -0.015004 -250442.000000 1 0 0
-8.169511 15.393818 -2.313371 17.580165 -1.082891 1.702769 0.014820 -0.005987 -684283.000000 1 0 0
-15.802611 9.323618 -5.072171 19.036262 -0.533038 1.840502 0.021183 -0.004536 -623467.000000 1 0 0
-18.236111 1.792118 2.090829 18.442857 -0.097958 1.457184 0.044052 -0.015048 -1224620.000000 1 0 0
-15.760611 -2.749082 -8.490171 18.111800 0.172690 2.058688 0.015880 -0.010426 187819.000000 1 0 0
-9.745011 10.534818 -7.109171 16.015240 -0.824324 2.030743 0.008746 -0.002580 559242.000000 1 0 0
-13.976511 11.812318 -7.853271 19.913502 -0.701675 1.976178 0.038203 -0.017904 313547.000000 1 0 0
-11.021011 6.555818 -3.782871 13.369799 -0.536622 1.857656 0.000724 -0.002890 -926375.000000 1 0 0
-13.295511 4.917818 -12.584371 18.955789 -0.354279 2.296792 0.048702 -0.019867 -99136.700000 1 0 0
-17.687711 9.060518 2.666829 20.051436 -0.473399 1.437402 0.032070 -0.018889 858971.000000 1 0 0
-13.301211 8.678918 -6.448171 17.141316 -0.578124 1.956463 0.011306 -0.005587 -1310390.000000 1 0 0
-15.788311 7.017218 -3.733071 17.676196 -0.418234 1.783591 0.017769 -0.002603 -1104200.000000 1 0 0
-15.002311 -0.403382 -9.175471 17.590375 0.026882 2.119544 0.028518 -0.013707 645.236000 1 0 0
-9.928011 5.891018 -6.069971 13.042777 -0.535533 2.054871 0.002088 -0.003008 448944.000000 1 0 0
-12.752711 12.263418 -0.857771 17.713238 -0.765842 1.619241 0.016895 -0.006623 -1486140.000000 1 0 0
-10.814711 3.331818 -14.058471 18.047149 -0.298855 2.463843 0.020713 -0.005757 361969.000000 1 0 0
-11.112411 6.190418 -11.980671 17.474078 -0.508257 2.326259 0.005527 -0.009002 671982.000000 1 0 0
-5.947111 11.557318 -14.731071 19.645461 -1.095557 2.418626 0.008082 -0.005932 -214267.000000 1 0 0
-15.704511 13.243018 3.621229 20.859590 -0.700569 1.396312 0.030072 -0.022478 109199.000000 1 0 0
-15.010111 10.997618 -2.745371 18.809255 -0.632324 1.717278 0.024536 -0.005406 394213.000000 1 0 0
-17.982611 8.054118 -4.860771 20.294585 -0.421093 1.812658 0.030122 -0.010442 881328.000000 1 0 0
-4.062611 16.298518 -10.688071 19.909328 -1.326512 2.137480 0.013474 -0.001593 -116188.000000 1 0 0
-15.706511 4.361518 -4.340271 16.868766 -0.270864 1.831020 0.021888 -0.005894 962361.000000 1 0 0
-18.961811 -1.862282 -5.981371 19.969856 0.097898 1.874986 0.042323 -0.011373 609123.000000 1 0 0
-10.793811 8.559118 -5.789371 14.942612 -0.670437 1.968650 0.004188 0.000469 788644.000000 1 0 0
-11.494211 13.522318 -6.991671 19.074942 -0.866292 1.946080 0.020580 -0.004887 185678.000000 1 0 0
-9.412811 10.541218 -4.488171 14.827743 -0.841888 1.878307 -0.002642 0.001391 -815682.000000 1 0 0
-10.958911 6.357918 -0.212371 12.671462 -0.525703 1.587557 0.005732 -0.004042 -130083.000000 1 0 0
-14.702611 9.055418 -1.223871 17.310841 -0.552033 1.641555 0.020271 -0.006372 -446852.000000 1 0 0
-18.762511 3.635318 4.784929 19.701342 -0.191383 1.325470 0.048190 -0.021931 417028.000000 1 0 0
-14.677711 13.299118 0.493629 19.812758 -0.736162 1.545879 0.015954 -0.004915 159128.000000 1 0 0
-16.984411 2.533318 -8.922071 19.351776 -0.148064 2.049971 0.055337 -0.014914 -200074.000000 1 0 0
-9.176811 8.482218 -8.879371 15.329876 -0.746085 2.188568 0.000037 -0.001152 -2622380.000000 1 0 0
-17.591211 4.745618 -2.583571 18.402348 -0.263499 1.711655 0.023240 -0.008922 707980.000000 1 0 0
-13.579411 5.764218 -4.251471 15.352576 -0.401432 1.851386 0.012124 -0.003206 -2093590.000000 1 0 0
-12.086711 9.764418 3.386529 15.902862 -0.679518 1.356202 0.005592 -0.008384 481281.000000 1 0 0
-17.630611 2.550518 -3.943671 18.245441 -0.143667 1.788661 0.032853 -0.007698 964510.000000 1 0 0
-11.359411 1.309718 -12.685771 17.078652 -0.114791 2.408017 0.023192 -0.004192 88841.500000 1 0 0
-11.095611 12.112918 3.490429 16.793405 -0.829203 1.361425 0.005663 -0.011786 204334.000000 1 0 0
-16.875311 12.782018 -3.413971 21.443211 -0.648245 1.730687 0.070566 -0.017342 804482.000000 1 0 0
-11.105811 4.189218 -4.581971 12.723326 -0.360706 1.939197 -0.000536 -0.002573 -572493.000000 1 0 0
-11.366711 14.968018 -9.223371 20.935955 -0.921306 2.027009 0.051678 -0.016410 159270.000000 1 0 0
-15.468511 6.954118 0.023629 16.959809 -0.422493 1.569403 0.014787 -0.002285 -723906.000000 1 0 0
-12.777111 8.321618 -3.961371 15.754248 -0.577282 1.824972 0.007771 -0.001803 708299.000000 1 0 0
-19.194911 1.909018 -5.953871 20.187559 -0.099128 1.870176 0.055318 -0.012657 702949.000000 1 0 0
-12.542911 9.965418 -8.931871 18.341550 -0.671382 2.079419 0.010160 -0.011447 714855.000000 1 0 0
-16.646011 10.677518 -0.687171 19.788160 -0.570338 1.605530 0.026721 -0.018719 265138.000000 1 0 0
-10.833311 6.474618 -14.601371 19.299775 -0.538696 2.428827 0.017685 -0.015150 -214851.000000 1 0 0
-14.483111 12.732718 -4.494471 19.801082 -0.721171 1.799773 0.042132 -0.007972 463459.000000 1 0 0
-18.096211 7.524518 -0.188071 19.599147 -0.394058 1.580392 0.043560 -0.008856 114558.000000 1 0 0
-12.739811 6.564818 -1.934671 14.461762 -0.475812 1.704977 0.004458 -0.002246 427917.000000 1 0 0
-13.811311 8.336318 -10.479671 19.237203 -0.543052 2.146900 0.026272 -0.014973 -1424540.000000 1 0 0
-14.975111 1.374318 -0.918271 15.066052 -0.091517 1.631784 0.010197 -0.004524 -581885.000000 1 0 0
-13.464011 2.734618 -2.448071 13.955313 -0.200380 1.747131 0.006287 -0.005466 554946.000000 1 0 0
-11.296311 8.894118 -10.920271 18.054481 -0.666978 2.220375 0.003511 -0.011645 -148872.000000 1 0 0
-15.399211 4.252418 -7.950771 17.844705 -0.269431 2.032589 0.030932 -0.010187 567522.000000 1 0 0
-18.272411 10.482618 4.773229 21.599768 -0.520846 1.347972 0.062696 -0.034899 674274.000000 1 0 0
-15.325511 6.118418 -6.072671 17.583619 -0.379843 1.923418 0.025251 -0.004207 379843.000000 1 0 0
-7.786411 11.187818 -12.999971 18.835995 -0.962779 2.332515 -0.003972 -0.004457 -686702.000000 1 0 0
-16.877011 9.170218 -2.737771 19.401592 -0.497728 1.712379 0.038879 -0.008914 712423.000000 1 0 0
-20.763911 -0.876882 -4.303971 21.223409 0.042206 1.775006 0.075252 -0.023517 542284.000000 1 0 0
-15.490411 4.441818 4.245029 16.664418 -0.279254 1.313222 0.014383 -0.014773 259278.000000 1 0 0
-6.953011 12.665918 -9.436671 17.257479 -1.068756 2.149353 0.000868 -0.003695 -769203.000000 1 0 0
-17.375311 1.694518 5.771629 18.387075 -0.097217 1.251503 0.038500 -0.020699 391771.000000 1 0 0
-10.403111 14.348818 -2.992071 17.974030 -0.943478 1.738041 0.030131 -0.013288 -262542.000000 1 0 0
-10.030911 8.391618 -13.112871 18.519876 -0.696649 2.357520 -0.007716 -0.001167 -262364.000000 1 0 0
-13.715811 11.854818 2.870429 18.354823 -0.712748 1.413766 0.018163 -0.012970 421764.000000 1 0 0
-17.071211 6.619518 2.024129 18.421220 -0.369910 1.460694 0.026870 -0.006756 803489.000000 1 0 0
-9.437211 13.285018 -8.513371 18.385595 -0.953148 2.052225 0.025170 -0.013867 -597423.000000 1 0 0
-5.594611 9.851718 -12.894271 17.164446 -1.054328 2.420704 -0.003435 -0.003736 -1745610.000000 1 0 0
-15.937311 1.894318 3.211929 16.367737 -0.118306 1.373279 0.008528 -0.010236 -689615.000000 1 0 0
-18.538211 -4.824382 5.016629 19.801679 0.254593 1.314661 0.050092 -0.003808 159049.000000 1 0 0
-5.326511 14.557918 -9.149771 18.000638 -1.220042 2.104009 -0.003909 -0.001290 -58738.500000 1 0 0
-15.475811 -0.784682 -6.723371 16.891423 0.050660 1.980170 0.014676 -0.007239 899367.000000 1 0 0
-8.981611 10.997318 -9.602571 17.141169 -0.885950 2.165430 0.001744 -0.007793 64042.800000 1 0 0
-16.674111 1.328718 -6.051371 17.787933 -0.079519 1.917921 0.012156 -0.004222 -425340.000000 1 0 0
-11.188711 8.647018 -1.475871 14.217467 -0.657956 1.674791 0.005071 -0.004032 -794851.000000 1 0 0
-10.684411 10.838018 -12.638271 19.782445 -0.792535 2.263816 0.004271 -0.005889 -633560.000000 1 0 0
-13.854811 11.449618 -10.566371 20.849406 -0.690633 2.102259 0.033565 -0.024080 23022.600000 1 0 0
-13.225111 5.535618 -7.623871 16.237919 -0.396411 2.059532 0.012629 -0.002439 40567.000000 1 0 0
-9.008111 15.382918 -4.866971 18.478842 -1.041038 1.837321 0.029866 -0.013585 1226700.000000 1 0 0
-8.705411 6.025418 -12.988171 16.756563 -0.605436 2.457685 0.002052 -0.007529 356653.000000 1 0 0
-16.610611 7.399918 4.356229 18.698874 -0.419100 1.335668 0.034503 -0.014586 -236103.000000 1 0 0
-12.679111 5.138918 -10.074171 16.989916 -0.385072 2.205514 0.013859 -0.009855 459931.000000 1 0 0
-12.470111 9.069518 -13.283571 20.352225 -0.628814 2.281918 0.028566 -0.014935 -1440880.000000 1 0 0
-10.756111 5.145218 -8.427271 14.600893 -0.446181 2.186061 0.000852 -0.005322 -1480790.000000 1 0 0
-17.608511 -4.495782 -2.523971 18.347810 0.249978 1.708796 0.012858 -0.008097 -30581.400000 1 0 0
-8.822011 13.096418 -11.064071 19.281019 -0.977995 2.181974 0.027540 -0.015105 81254.500000 1 0 0
-15.095711 6.330218 6.142329 17.483717 -0.397066 1.211819 0.022243 -0.019290 -1834870.000000 1 0 0
-16.454611 -3.153282 -4.377471 17.316456 0.189340 1.826362 0.008692 -0.007323 -777830.000000 1 0 0
-11.262511 -1.233482 -12.511371 16.878982 0.109086 2.405712 0.021254 -0.003323 -87946.900000 1 0 0
-15.330611 6.819718 -8.510371 18.813893 -0.418557 2.040189 0.026554 -0.003977 -321591.000000 1 0 0
-14.751411 9.088718 1.385029 17.381807 -0.552192 1.491029 0.018211 -0.012258 -20844.700000 1 0 0
-19.355111 5.286618 8.219929 21.682617 -0.266634 1.181970 0.058368 -0.037592 548657.000000 1 0 0
-16.270311 0.549518 0.979929 16.309054 -0.033761 1.510675 0.019344 -0.007929 -739757.000000 1 0 0
-17.415011 3.912318 7.063829 19.196003 -0.220983 1.193956 0.022200 -0.021411 1113930.000000 1 0 0
-15.497811 3.921918 -1.322971 16.041005 -0.247859 1.653364 0.013803 -0.006590 -2824530.000000 1 0 0
-10.873811 13.304618 0.452129 17.188864 -0.885598 1.544490 0.017216 -0.010223 -1172980.000000 1 0 0
-13.437811 3.295418 0.154429 13.836849 -0.240489 1.559635 0.006503 -0.004048 -491750.000000 1 0 0
-15.067211 0.153418 -4.344871 15.681909 -0.010182 1.851532 0.010541 -0.003795 -29057.100000 1 0 0
-19.093011 6.950118 3.596229 20.634439 -0.349104 1.395619 0.052626 -0.016234 657347.000000 1 0 0
-14.069311 1.393618 -6.340671 15.494895 -0.098732 1.992385 0.012036 -0.003477 537308.000000 1 0 0
-14.303511 11.888418 5.359429 19.355836 -0.693451 1.290241 0.018191 -0.021119 449252.000000 1 0 0
17.815189 5.476718 6.017929 19.585476 0.298249 1.258479 0.049084 -0.013106 871167.000000 1 0 0
18.681189 7.666018 -0.434771 20.197616 0.389406 1.592324 0.046871 0.001576 941848.000000 1 0 0
16.651689 5.080718 8.356729 19.311328 0.296145 1.123270 0.055998 -0.014331 425382.000000 1 0 0
11.614089 12.330618 10.879329 20.131841 0.815314 0.999879 0.026279 -0.002549 634980.000000 1 0 0
-2.494911 16.260318 -0.573671 16.460608 -1.418548 1.605655 0.003915 -0.000139 49801.100000 1 0 0
15.085389 12.664418 3.061829 19.933169 0.698376 1.416581 0.038372 -0.007488 255328.000000 1 0 0
13.535189 11.682118 6.714829 19.098747 0.712046 1.211533 0.025218 -0.000901 770810.000000 1 0 0
-0.597011 15.878918 8.565329 18.051629 -1.533216 1.076411 0.005022 -0.003822 -5823.410000 1 0 0
0.678189 12.851218 9.280929 15.866612 1.518073 0.945997 -0.000625 -0.006512 326343.000000 1 0 0
0.735389 15.539218 -3.957971 16.052215 1.523507 1.819934 0.007675 -0.000976 -1194700.000000 1 0 0
5.290689 10.176618 13.476929 17.696965 1.091366 0.705112 0.013775 -0.007995 170716.000000 1 0 0
-1.437311 16.515018 -2.871471 16.824298 -1.483985 1.742310 0.002040 0.002505 -702141.000000 1 0 0
8.601889 10.134218 3.303129 13.696917 0.867001 1.327237 0.010351 -0.000163 513926.000000 1 0 0
12.591589 13.507618 -4.925771 19.111961 0.820482 1.831471 0.054785 -0.017501 295894.000000 1 0 0
2.422589 11.582418 7.703529 14.119692 1.364608 0.993706 0.003115 -0.003123 751183.000000 1 0 0
-0.320411 14.749018 -8.515871 17.033973 -1.549076 2.094319 0.011700 -0.010242 -2740650.000000 1 0 0
2.391889 15.929818 0.244329 16.110243 1.421758 1.555630 0.016733 -0.008560 -602054.000000 1 0 0
1.945389 13.534618 5.236529 14.642119 1.428040 1.205063 0.010363 -0.000831 721332.000000 1 0 0
17.590089 9.268018 -2.223071 20.006235 0.484926 1.682145 0.031413 0.000195 420269.000000 1 0 0
-7.242711 14.873718 7.230229 18.054378 -1.117646 1.158767 0.006948 -0.014167 -836439.000000 1 0 0
8.487889 15.859018 -0.200171 17.988685 1.079380 1.581924 0.009795 -0.006856 -10724.300000 1 0 0
15.629989 10.357918 1.929729 18.849586 0.585248 1.468241 0.025603 -0.004161 -1006460.000000 1 0 0
14.244489 7.352118 8.653929 18.216740 0.476474 1.075771 0.036401 -0.008769 -659345.000000 1 0 0
4.227889 18.460318 -2.058771 19.049853 1.345653 1.679081 0.026254 -0.018408 373408.000000 1 0 0
-0.539611 17.599718 -4.880871 18.271949 -1.540146 1.841203 0.011279 -0.005987 246670.000000 1 0 0
1.361589 13.705918 -0.751971 13.793896 1.471778 1.625338 0.004319 -0.002761 -436677.000000 1 0 0
10.466389 14.792518 4.103229 18.579569 0.955024 1.348114 0.019935 -0.004085 -184585.000000 1 0 0
-1.580911 15.310718 -5.189771 16.243493 -1.467906 1.895996 0.005256 -0.001607 351835.000000 1 0 0
15.025989 8.715918 -6.241871 18.458291 0.525626 1.915758 0.048212 -0.014380 -51851.300000 1 0 0
-2.379611 18.502318 0.910429 18.676916 -1.442887 1.522031 0.008387 -0.000236 -476989.000000 1 0 0
-3.961111 19.213318 3.420629 19.913379 -1.367480 1.398165 0.029702 -0.012243 669396.000000 1 0 0
1.802189 17.641518 -2.677371 17.934306 1.468993 1.720644 0.013831 -0.011029 -554052.000000 1 0 0
2.940589 12.367518 3.180929 13.104231 1.337364 1.325606 0.006135 0.002239 326445.000000 1 0 0
-2.597911 16.203218 1.899329 16.519711 -1.411816 1.455568 0.006282 0.001534 -1466640.000000 1 0 0
11.713989 12.696418 -2.647771 17.476477 0.825623 1.722887 0.013691 -0.004511 305941.000000 1 0 0
7.351689 11.785818 4.673829 14.655972 1.013079 1.246225 0.006315 0.001274 39312.800000 1 0 0
7.177789 15.759918 2.024229 17.435400 1.143423 1.454435 0.006434 -0.006256 -449997.000000 1 0 0
5.560189 12.171718 10.164529 16.804287 1.142292 0.921185 0.007593 -0.000363 536097.000000 1 0 0
-1.358311 14.234418 3.085429 14.628176 -1.475660 1.358276 0.000993 0.001503 -267634.000000 1 0 0
4.677889 16.157718 1.449829 16.883616 1.288987 1.484818 0.015265 -0.013038 -890469.000000 1 0 0
7.259189 13.158718 11.862629 19.146009 1.066677 0.902579 0.018920 -0.002053 100648.000000 1 0 0
0.476789 16.966618 -9.514571 19.458173 1.542702 2.081711 0.018735 -0.012826 277808.000000 1 0 0
9.708489 9.548718 15.368529 20.533496 0.777102 0.725057 0.033361 -0.006681 -507708.000000 1 0 0
13.611089 7.396418 -0.200271 15.492219 0.497771 1.583724 0.009216 -0.001970 23253.200000 1 0 0
12.365989 13.642718 -0.211671 18.414294 0.834447 1.582291 0.022999 -0.005151 274268.000000 1 0 0
9.605189 12.399918 3.284429 16.025139 0.911725 1.364379 0.011832 0.003736 849956.000000 1 0 0
-0.636311 13.048618 0.795229 13.088304 -1.522070 1.510000 0.004651 -0.002379 -144713.000000 1 0 0
16.122389 7.437718 -1.019771 17.784572 0.432235 1.628168 0.027683 0.000253 -255704.000000 1 0 0
-4.133811 18.543618 -2.534971 19.167165 -1.351459 1.703441 0.007472 0.001514 161784.000000 1 0 0
11.698189 9.204518 -3.139371 15.212706 0.666660 1.778655 0.018321 -0.006206 -578199.000000 1 0 0
14.756789 9.644318 7.800429 19.277510 0.578868 1.154212 0.031052 -0.004873 -497259.000000 1 0 0
4.540089 13.784718 4.650429 15.239992 1.252629 1.260704 0.011875 0.000578 -288969.000000 1 0 0
2.114189 16.078218 5.727329 17.198290 1.440052 1.231295 0.014461 -0.001212 -39175.200000 1 0 0
6.190189 18.512218 5.389629 20.250154 1.248100 1.301397 0.030654 -0.012845 -495066.000000 1 0 0
10.651789 17.011218 -0.930971 20.092507 1.011361 1.617147 0.026510 -0.012479 -1339440.000000 1 0 0
9.998289 13.446618 -4.526671 17.357075 0.931433 1.834644 0.033928 -0.010749 -63904.200000 1 0 0
16.722489 7.971618 2.339429 18.672473 0.444835 1.445179 0.023006 0.002011 987067.000000 1 0 0
3.977689 14.043018 -0.610471 14.608252 1.294776 1.612598 0.010767 -0.005348 -437299.000000 1 0 0
5.583089 13.163818 -2.452871 14.507707 1.169668 1.740686 0.008100 -0.004248 -658249.000000 1 0 0
-6.174911 16.964418 -2.930771 18.289626 -1.221711 1.731732 0.010359 -0.000928 -1531330.000000 1 0 0
18.103089 10.037418 2.315429 20.828653 0.506260 1.459401 0.040995 -0.006362 85121.000000 1 0 0
7.997489 12.907618 9.442429 17.880881 1.016094 1.014465 0.025084 -0.000817 -259017.000000 1 0 0
-2.524811 15.838318 6.686329 17.376247 -1.412715 1.175808 0.003745 -0.003009 626865.000000 1 0 0
11.343389 16.036118 6.247829 20.612252 0.955144 1.262839 0.034333 -0.003876 -71145.200000 1 0 0
13.584689 11.817618 1.095329 18.038836 0.715947 1.510038 0.027619 -0.005282 617101.000000 1 0 0
17.433789 7.938818 -5.753771 20.001693 0.427310 1.862583 0.045746 0.002539 50488.400000 1 0 0
9.627189 9.147918 7.965429 15.485969 0.759877 1.030530 0.013035 -0.002573 -676860.000000 1 0 0
-1.985011 14.167218 -2.082371 14.456368 -1.431590 1.715344 0.000271 -0.000843 696867.000000 1 0 0
10.944589 11.632118 0.560729 15.981383 0.815842 1.535703 0.009416 0.002428 181448.000000 1 0 0
11.708589 9.683218 -0.674771 15.208915 0.691000 1.615178 0.008938 -0.002218 -1969450.000000 1 0 0
-0.287311 16.166218 11.044629 19.580934 -1.553026 0.971514 0.008763 -0.009459 -335000.000000 1 0 0
2.094189 19.974718 -1.457171 20.136989 1.466336 1.643223 0.031549 -0.022778 -692665.000000 1 0 0
9.341689 14.366018 1.771129 17.227493 0.994236 1.467806 0.011648 -0.003985 -345172.000000 1 0 0
8.413589 11.610118 -5.210371 15.255533 0.943700 1.919351 0.018868 -0.005957 -446198.000000 1 0 0
10.521089 10.009618 10.316929 17.813613 0.760491 0.953099 0.009450 -0.001384 94476.900000 1 0 0
-5.048711 15.673518 5.857229 17.477293 -1.259174 1.229049 -0.008139 -0.004244 -17927.200000 1 0 0
14.465989 9.067318 -2.075871 17.198556 0.559894 1.691792 0.031904 -0.002551 -708427.000000 1 0 0
12.314989 9.569718 6.981529 17.087428 0.660608 1.149902 0.012910 0.000121 -2568290.000000 1 0 0
3.220889 12.884118 9.635529 16.407865 1.325828 0.943138 0.005611 -0.004035 -74473.800000 1 0 0
8.478889 12.598518 -2.735071 15.430321 0.978417 1.748991 0.013391 -0.003286 -1100670.000000 1 0 0
9.587689 16.819618 2.052229 19.468820 1.052705 1.465189 0.015546 -0.007959 228337.000000 1 0 0
9.665889 14.261418 -7.450971 18.770573 0.975150 1.978987 0.059543 -0.020043 882926.000000 1 0 0
6.386289 11.583718 7.184129 15.052539 1.066943 1.073251 0.009403 0.001290 -809584.000000 1 0 0
5.432689 16.959518 -5.542071 18.650842 1.260792 1.872501 0.033410 -0.009353 405186.000000 1 0 0
-4.077111 17.195018 -4.673271 18.279248 -1.337986 1.829327 0.007366 -0.004253 123771.000000 1 0 0
-0.290911 18.556318 -0.620371 18.568964 -1.555120 1.604212 0.010914 -0.005975 -651397.000000 1 0 0
6.573189 15.621018 -2.923971 17.198041 1.172496 1.741644 0.016813 -0.005924 -251158.000000 1 0 0
-1.012111 20.705718 0.652729 20.740713 -1.521954 1.539320 0.018521 -0.007704 -18941.900000 1 0 0
-1.421411 18.812518 4.168829 19.321241 -1.495383 1.353322 0.015041 -0.010434 596824.000000 1 0 0
7.177289 13.710018 -4.438371 16.098981 1.088521 1.850107 0.021678 -0.002908 -845970.000000 1 0 0
-1.042811 11.891818 7.540429 14.119520 -1.483329 1.007421 0.000782 -0.002559 571890.000000 1 0 0
7.712489 10.807318 10.917229 17.189139 0.950977 0.882628 0.011819 -0.001015 -147781.000000 1 0 0
1.496389 16.131618 -7.349871 17.790134 1.478300 1.996699 0.012330 -0.006969 -664125.000000 1 0 0
8.855489 7.140418 14.712429 18.597334 0.678587 0.658184 0.035945 0.000091 211559.000000 1 0 0
11.299589 11.225018 -4.822771 16.641540 0.782087 1.864817 0.033426 -0.009085 -293490.000000 1 0 0
-3.354711 16.956918 4.497829 17.861176 -1.375481 1.316234 0.002359 -0.002424 -26129.500000 1 0 0
3.977989 15.448318 -6.769171 17.329068 1.318769 1.972107 0.028394 -0.010509 -44994.400000 1 0 0
-4.456811 14.029118 9.383229 17.456354 -1.263197 1.003297 0.014271 -0.017931 -859989.000000 1 0 0
6.394789 17.949718 0.552529 19.062817 1.228554 1.541808 0.009025 -0.011264 -418808.000000 1 0 0
9.860389 10.648618 -2.180271 14.675623 0.823813 1.719912 0.009942 -0.004318 -557582.000000 1 0 0
7.200389 18.122618 -2.698871 19.686513 1.192607 1.708322 0.026948 -0.010942 127465.000000 1 0 0
3.564789 10.332018 10.312229 15.026656 1.238562 0.814458 0.002211 -0.001772 1087110.000000 1 0 0
0.057589 18.692718 1.970929 18.796424 1.567715 1.465747 0.014530 -0.006836 382289.000000 1 0 0
-0.937911 17.147618 -7.432271 18.712539 -1.516155 1.979240 0.016489 -0.005364 -251896.000000 1 0 0
10.015789 8.588518 12.964529 18.497505 0.708831 0.794166 0.024241 -0.003225 -617663.000000 1 0 0
3.655389 11.474318 5.419429 13.205758 1.262390 1.147921 0.002874 0.000288 566127.000000 1 0 0
13.222189 13.969518 8.031129 20.844010 0.812875 1.175267 0.039187 -0.008875 222158.000000 1 0 0
-0.430711 17.439318 6.633929 18.663449 -1.546104 1.207400 0.010618 -0.006387 -740124.000000 1 0 0
12.154989 13.599318 5.715229 19.114106 0.841421 1.267146 0.022045 -0.004125 62084.600000 1 0 0
4.841889 14.515318 -4.545171 15.962359 1.248832 1.859535 0.017231 -0.007791 -1498410.000000 1 0 0
3.783889 17.669518 4.834329 18.705625 1.359835 1.309387 0.019440 -0.005264 -411374.000000 1 0 0
7.286689 11.822118 1.939929 14.022184 1.018434 1.432004 0.011434 0.001711 1048260.000000 1 0 0
6.428089 8.702218 11.673629 15.916110 0.934584 0.747417 0.003429 -0.000874 460051.000000 1 0 0
-5.417711 14.818918 1.813229 15.882056 -1.220297 1.456378 -0.000222 0.002717 -127515.000000 1 0 0
6.911889 13.847918 5.924829 16.572346 1.107846 1.205193 0.012073 0.000252 -8054.750000 1 0 0
5.832789 15.968318 4.969529 17.711714 1.220581 1.286399 0.009587 -0.005296 596285.000000 1 0 0
1.171189 18.091918 4.301529 18.633097 1.506151 1.337841 0.020732 -0.006604 -679848.000000 1 0 0
7.234089 18.123118 -6.973471 20.722180 1.191011 1.914017 0.035392 -0.009862 358234.000000 1 0 0
-2.432611 18.792318 -5.991771 19.873855 -1.442065 1.877051 0.013885 -0.000579 -1119620.000000 1 0 0
13.537589 10.033918 -4.630371 17.475301 0.637838 1.838966 0.031996 -0.009102 -2556040.000000 1 0 0
-1.540011 18.044818 9.699729 20.544387 -1.485659 1.079085 0.017466 -0.011235 -193255.000000 1 0 0
3.439889 11.789018 -1.546071 12.377565 1.286891 1.696033 0.008156 -0.003033 713943.000000 1 0 0
4.208789 14.004118 -10.938171 18.261237 1.278845 2.213027 0.029722 -0.018712 -18144.200000 1 0 0
11.708989 13.418418 2.245829 17.949878 0.853324 1.445351 0.021096 -0.002036 -274325.000000 1 0 0
15.856589 6.474018 -7.251871 18.599300 0.387629 1.971320 0.034454 -0.005108 -499499.000000 1 0 0
2.523589 16.246518 2.982429 16.709660 1.416697 1.391349 0.018814 -0.006039 -247570.000000 1 0 0
13.475089 10.662718 3.432229 17.522893 0.669408 1.373651 0.017238 -0.000163 -639765.000000 1 0 0
-4.958911 19.408718 -5.707871 20.829520 -1.320649 1.848375 0.009302 -0.013059 -22305.300000 1 0 0
5.519489 12.047718 0.021229 13.251895 1.141197 1.569194 0.009367 -0.002284 -19761.900000 1 0 0
4.583889 15.346918 9.603129 18.675118 1.280547 1.030698 0.013487 -0.003677 -365600.000000 1 0 0
7.731189 9.509018 13.832229 18.480348 0.888156 0.725025 0.013199 -0.002364 -922199.000000 1 0 0
-5.054611 13.505618 6.905629 15.988700 -1.212675 1.124190 0.001024 -0.004709 -1372080.000000 1 0 0
-4.655711 17.145118 0.705029 17.779982 -1.305643 1.531133 0.010310 0.001593 -540242.000000 1 0 0
-0.602111 16.615618 3.498329 16.990574 -1.534575 1.363415 0.011535 -0.002663 -1710620.000000 1 0 0
7.947789 16.710518 -4.893571 19.140423 1.126846 1.829334 0.031619 -0.015167 698421.000000 1 0 0
3.026789 16.450818 -4.590871 17.345517 1.388841 1.838660 0.013420 -0.008602 22133.700000 1 0 0
9.844489 14.292218 8.316929 19.244552 0.967626 1.123898 0.040484 -0.004496 746775.000000 1 0 0
12.818489 10.802018 9.163529 19.104123 0.700235 1.070526 0.024042 -0.004509 1371290.000000 1 0 0
3.687689 12.347418 12.044629 17.638902 1.280569 0.819147 0.010336 -0.002294 759615.000000 1 0 0
-3.377411 19.137818 6.007829 20.341017 -1.396117 1.270969 0.017440 -0.009208 372104.000000 1 0 0
-2.692811 15.764418 9.976629 18.849436 -1.401613 1.013045 0.014993 -0.018642 -1177940.000000 1 0 0
2.048089 14.265818 7.659429 16.321001 1.428204 1.082300 0.008773 -0.004890 50991.000000 1 0 0
4.704989 17.255218 7.898929 19.551791 1.304597 1.154911 0.029957 -0.007447 153581.000000 1 0 0
-1.961411 13.419918 9.219829 16.399591 -1.425667 0.973754 0.006941 -0.008192 -1224220.000000 1 0 0
5.776089 17.723018 3.055429 18.889262 1.255743 1.408328 0.007948 -0.015300 309633.000000 1 0 0
7.184789 15.400218 -7.000771 18.379301 1.134275 1.961571 0.032329 -0.008554 -562538.000000 1 0 0
11.009689 7.593318 9.525829 16.419901 0.603776 0.951897 0.006577 0.000584 641603.000000 1 0 0
9.114589 16.376618 -2.695071 18.934961 1.062930 1.713614 0.028472 -0.007744 -903899.000000 1 0 0
14.333289 11.156318 -6.769771 19.383921 0.661400 1.927563 0.057729 -0.019824 364379.000000 1 0 0
11.090089 6.411218 15.974729 20.476469 0.524163 0.675890 0.062857 -0.015609 688869.000000 1 0 0
8.512489 8.457218 10.232529 15.769961 0.782141 0.864708 0.006541 0.002237 -985066.000000 1 0 0
16.404789 9.544518 4.386429 19.479622 0.526939 1.343668 0.033825 -0.002396 15622.800000 1 0 0
-3.305611 14.314218 4.731329 15.434033 -1.343843 1.259228 -0.004881 0.003126 -1131970.000000 1 0 0
4.908989 14.641418 12.794029 20.053839 1.247294 0.878919 0.018638 0.002742 -145171.000000 1 0 0
16.091789 10.764318 -4.992571 19.993548 0.589569 1.823176 0.055267 -0.013000 549620.000000 1 0 0
14.827089 13.832618 5.970229 21.138295 0.750713 1.284463 0.050813 -0.010308 119234.000000 1 0 0
6.294389 9.504118 9.145629 14.614723 0.985837 0.894663 0.003579 -0.001270 881801.000000 1 0 0
10.436589 11.901418 8.618829 18.023606 0.850880 1.072196 0.020777 -0.007791 1016580.000000 1 0 0
7.979989 11.480518 -0.468671 13.989359 0.963373 1.604305 0.008171 -0.003520 -102701.000000 1 0 0
7.511989 13.479018 -8.706071 17.717493 1.062358 2.084473 0.048971 -0.016275 -879311.000000 1 0 0
2.738689 15.282618 -2.312971 15.697409 1.393476 1.718682 0.010836 -0.007320 209477.000000 1 0 0
12.235989 13.961518 -7.639271 20.074906 0.851169 1.961175 0.080024 -0.022258 -124624.000000 1 0 0
-8.037911 14.715618 9.762829 19.402841 -1.070863 1.043539 0.025517 -0.024919 122271.000000 1 0 0
11.501389 9.680118 2.156729 15.186774 0.699625 1.428301 0.014882 -0.001423 -1336370.000000 1 0 0
12.217189 8.611218 4.427229 15.588879 0.613970 1.282834 0.008750 -0.000754 425548.000000 1 0 0
14.065889 7.930218 6.052429 17.244405 0.513369 1.212180 0.015497 -0.003651 -3039400.000000 1 0 0
16.241689 7.331818 7.054629 19.165485 0.424034 1.193842 0.049599 -0.010940 -415567.000000 1 0 0
13.608289 8.380218 2.174529 16.128923 0.551969 1.435563 0.009490 -0.001534 -1870720.000000 1 0 0
-4.286111 17.401418 -7.188271 19.309358 -1.329295 1.952249 0.007776 -0.011804 273682.000000 1 0 0
2.939089 19.682518 -3.925071 20.284130 1.422567 1.765529 0.024768 -0.014840 398040.000000 1 0 0
-0.111211 14.849018 6.278129 16.122053 -1.563307 1.170803 0.008863 -0.001561 -998486.000000 1 0 0
6.843289 15.821718 8.415029 19.182546 1.162569 1.116665 0.035824 -0.014480 -948708.000000 1 0 0
12.784389 15.141718 -2.207171 19.939504 0.869612 1.681717 0.048420 -0.014112 -67986.500000 1 0 0
12.858189 15.710018 4.144929 20.719993 0.884894 1.369393 0.034518 -0.010234 -251806.000000 1 0 0
3.077989 18.150518 1.325529 18.457311 1.402813 1.498918 0.027030 -0.014341 -567367.000000 1 0 0
10.346789 14.419018 -1.398671 17.802258 0.948369 1.649444 0.017323 -0.001565 -1465440.000000 1 0 0
-6.259911 15.658618 -0.522271 16.871620 -1.190485 1.601757 -0.002516 -0.001600 189122.000000 1 0 0
-3.958611 15.863318 -2.576171 16.551498 -1.326246 1.727077 0.006629 -0.001384 -1767870.000000 1 0 0
-7.045911 16.804818 1.689229 18.300280 -1.173781 1.478359 0.009507 -0.006665 -362561.000000 1 0 0
0.129089 19.328918 -6.574571 20.416873 1.564118 1.898655 0.030367 -0.013700 464250.000000 1 0 0
4.880489 14.868218 7.056629 17.166219 1.253628 1.147162 0.020299 -0.004406 -501881.000000 1 0 0
8.767189 12.436618 6.854429 16.688807 0.956756 1.147553 0.020780 -0.001597 -1348760.000000 1 0 0
-7.676311 17.480318 -5.546071 19.880798 -1.157010 1.853514 0.042870 -0.019343 318346.000000 1 0 0
-7.908311 17.597318 -1.126471 19.325525 -1.148438 1.629119 0.027276 -0.013324 165264.000000 1 0 0
-13.800511 -9.112982 9.154729 18.902635 0.583607 1.065222 0.034037 -0.019356 -18263.800000 1 0 0
-12.651211 -12.724682 7.656629 19.508835 0.788293 1.167481 0.036303 -0.012838 -171915.000000 1 0 0
-3.959411 -15.059382 12.510729 19.974491 1.313695 0.893953 0.014792 -0.014368 357904.000000 1 0 0
-2.140911 -14.018282 14.990429 20.635133 1.419245 0.757652 0.029906 -0.010719 40743.100000 1 0 0
-7.174711 -13.527282 12.775929 19.942122 1.083135 0.875451 0.021699 -0.018378 -302488.000000 1 0 0
-9.947111 -11.483182 8.902729 17.608722 0.856953 1.040735 0.018430 -0.010208 262600.000000 1 0 0
-10.512611 -10.568582 11.253629 18.677636 0.788053 0.924143 0.035493 -0.020494 584476.000000 1 0 0
-6.073911 -12.209182 10.821829 17.408863 1.109161 0.899978 0.009432 -0.008633 769708.000000 1 0 0
-12.531511 -10.245782 7.229929 17.728133 0.685382 1.150729 0.014614 -0.007733 -405203.000000 1 0 0
-7.429511 -10.925182 12.622229 18.272327 0.973595 0.808224 0.014236 -0.016261 464989.000000 1 0 0
-14.843311 -11.341682 7.381629 20.085967 0.652460 1.194475 0.037731 -0.008396 -1124040.000000 1 0 0
-11.173611 -9.119282 9.210929 17.112922 0.684508 1.002444 0.018241 -0.009883 837277.000000 1 0 0
-5.108011 -11.957782 13.244629 18.560726 1.167089 0.776196 0.013893 -0.014382 250302.000000 1 0 0
3.968589 -12.483982 14.847229 19.799993 -1.263004 0.722945 0.004791 -0.002902 -526444.000000 1 0 0
6.571689 -12.718582 14.276229 20.217818 -1.093878 0.786791 0.030147 -0.003418 -30218.100000 1 0 0
6.694889 -8.566282 16.103629 19.430121 -0.907413 0.593842 0.016242 -0.005309 239549.000000 1 0 0
0.663489 -1.811382 14.300529 14.430054 -1.219685 0.134086 0.002741 -0.004890 -332881.000000 1 0 0
-0.094611 -6.380082 15.632229 16.884342 1.555968 0.387539 0.010625 -0.011110 724089.000000 1 0 0
-1.465311 -4.759982 18.262229 18.929173 1.272163 0.266242 0.027125 -0.024409 -1835710.000000 1 0 0
-5.128311 12.708818 12.841129 18.780528 -1.187256 0.817911 0.015229 -0.015128 207665.000000 1 0 0
-4.063811 8.770718 11.551929 15.062773 -1.136906 0.696770 0.003740 -0.001933 -375207.000000 1 0 0
-0.593011 -3.954682 14.993029 15.517155 1.421954 0.260649 0.006669 -0.006366 -85450.200000 1 0 0
-4.364711 9.297718 14.024229 17.383247 -1.131895 0.632136 0.005144 -0.007604 710258.000000 1 0 0
-13.477311 -2.737982 16.849029 21.749121 0.200427 0.684557 0.050329 -0.008142 138659.000000 1 0 0
-0.331111 0.970318 17.221229 17.251721 -1.241947 0.059464 0.012457 -0.008828 -630296.000000 1 0 0
-3.344011 -7.289482 15.387229 17.351824 1.140694 0.480468 0.015354 -0.014459 369848.000000 1 0 0
-7.446311 5.461918 12.543629 15.576352 -0.632861 0.634616 -0.004404 -0.006242 -2142100.000000 1 0 0
-9.815711 10.143718 13.291229 19.388140 -0.801830 0.815459 0.034150 -0.018983 -547595.000000 1 0 0
-5.499311 2.228518 11.128229 12.611352 -0.385012 0.489862 0.002381 -0.003092 -1002800.000000 1 0 0
-7.176211 -7.296182 16.725729 19.608220 0.793688 0.549098 0.022274 -0.018779 -262561.000000 1 0 0
-4.836111 2.799218 18.528029 19.352299 -0.524697 0.292912 0.010277 -0.010777 -1155260.000000 1 0 0
1.212389 -8.395182 16.607529 18.648298 -1.427373 0.472210 0.018223 -0.011921 827134.000000 1 0 0
-15.117511 -3.663482 13.796029 20.791601 0.237750 0.845258 0.066366 -0.012958 555409.000000 1 0 0
-14.200711 2.609118 13.300629 19.630956 -0.181705 0.826392 0.043918 -0.008656 -894389.000000 1 0 0
-5.468711 1.040818 16.070029 17.006938 -0.188073 0.333476 0.013022 -0.007698 292912.000000 1 0 0
4.566489 5.666118 15.056429 16.722852 0.892450 0.450222 0.007288 -0.003107 -324769.000000 1 0 0
-1.005111 -11.981782 13.852529 18.343008 1.487106 0.714846 -0.000718 -0.012051 -162705.000000 1 0 0
-5.935311 -4.007282 16.702429 18.172985 0.593859 0.405056 0.024817 -0.016071 406435.000000 1 0 0
-12.962511 -1.509582 9.829229 16.337664 0.115935 0.925256 0.020586 -0.002925 -729254.000000 1 0 0
-14.730111 10.383618 10.091629 20.655185 -0.614023 1.060339 0.027767 -0.014985 498292.000000 1 0 0
-3.514911 -3.475982 17.683729 18.361681 0.779830 0.272586 0.024443 -0.013851 -168599.000000 1 0 0
-7.848411 9.364218 11.773829 16.967887 -0.873235 0.803921 0.001800 -0.012516 7760.480000 1 0 0
-3.934811 10.660818 16.202929 19.790672 -1.217216 0.611626 -0.003493 -0.009290 187762.000000 1 0 0
-12.545411 12.696518 8.205529 19.644837 -0.791384 1.139891 0.023796 -0.020403 -5187.420000 1 0 0
-12.700511 3.238418 10.551029 16.826008 -0.249663 0.893014 0.027807 -0.013973 292793.000000 1 0 0
-10.090211 -3.320782 13.542229 17.211389 0.317944 0.665160 0.015035 -0.009827 -864455.000000 1 0 0
-4.383411 -6.460682 17.662929 19.311494 0.974663 0.416197 0.031715 -0.016847 -483438.000000 1 0 0
0.800589 -3.684682 17.825729 18.220166 -1.356847 0.208456 0.017884 -0.020213 -241332.000000 1 0 0
-5.950611 1.901818 13.609029 14.974390 -0.309340 0.430349 0.002812 -0.005603 -909795.000000 1 0 0
-10.588511 8.677118 10.230029 17.089834 -0.686509 0.929040 0.023712 -0.021387 116993.000000 1 0 0
4.556589 2.535218 17.145129 17.920527 0.507732 0.295244 0.030359 -0.014133 -565552.000000 1 0 0
0.555089 -5.520982 13.296729 14.408067 -1.470591 0.395337 -0.000552 -0.005080 -664958.000000 1 0 0
-4.343711 5.544418 20.526229 21.701025 -0.906236 0.330548 0.052938 -0.023628 334052.000000 1 0 0
-10.800011 10.884818 9.017729 17.788730 -0.789309 1.039171 0.020293 -0.020493 -358800.000000 1 0 0
0.704489 4.217618 13.017429 13.701754 1.405289 0.317382 0.000148 -0.004163 -1884990.000000 1 0 0
-3.129811 7.066018 13.299729 15.382039 -1.153830 0.526388 0.000413 0.000673 -1620430.000000 1 0 0
0.868789 8.901818 13.976129 16.593051 1.473508 0.569282 0.001354 -0.002720 196345.000000 1 0 0
-4.144311 -6.643982 13.072129 15.238057 1.013083 0.539704 0.007831 -0.006726 42977.900000 1 0 0
-4.998311 8.319518 16.447529 19.097610 -1.029794 0.533102 0.013173 -0.004789 815003.000000 1 0 0
1.677689 -10.813682 15.713929 19.148837 -1.416878 0.608300 0.004454 -0.004878 17705.800000 1 0 0
-15.041811 -1.023282 14.346529 20.811681 0.067925 0.810205 0.062279 -0.011081 41299.300000 1 0 0
-13.390611 -5.168882 8.469629 16.666146 0.368386 1.037710 0.018756 -0.007090 -1371770.000000 1 0 0
-14.068411 -1.846382 12.120329 18.660967 0.130497 0.863867 0.039068 -0.007589 216731.000000 1 0 0
9.369489 1.390118 16.937429 19.406089 0.147292 0.509908 0.065217 -0.010213 59719.100000 1 0 0
5.095989 -6.647882 16.625229 18.616168 -0.916782 0.466710 0.018677 -0.016055 168560.000000 1 0 0
-6.033111 -2.632582 10.948729 12.775116 0.411450 0.541308 0.006343 -0.004885 375801.000000 1 0 0
0.657789 -6.287382 18.112029 19.183573 -1.466555 0.335813 0.026878 -0.020352 -144055.000000 1 0 0
-8.472611 11.842818 11.958329 18.842481 -0.949795 0.883244 0.014108 -0.022050 -22142.300000 1 0 0
-6.607111 -5.748782 14.737129 17.143086 0.716042 0.536204 0.018844 -0.013062 -383274.000000 1 0 0
-4.384011 -8.915982 17.064029 19.745769 1.113809 0.527265 0.036518 -0.018540 188201.000000 1 0 0
2.520189 -6.129382 16.278529 17.575870 -1.180702 0.386627 0.015620 -0.012932 -1196490.000000 1 0 0
2.316489 5.288918 15.928029 16.942281 1.157975 0.347770 0.011851 -0.003395 -1626520.000000 1 0 0
0.982689 -8.942882 14.006029 16.646612 -1.461350 0.570975 -0.000674 -0.004071 -366232.000000 1 0 0
-9.937811 -2.685182 11.195029 15.208516 0.263897 0.743502 0.004467 -0.003543 127695.000000 1 0 0
-1.129111 10.125618 12.238729 15.924494 -1.459745 0.694229 -0.005051 -0.004596 -284209.000000 1 0 0
-12.366411 -3.664682 11.281029 17.135333 0.288097 0.852173 0.020024 -0.004244 -14286.800000 1 0 0
-1.860911 6.431518 20.022929 21.112677 -1.289146 0.322695 0.039939 -0.015650 765622.000000 1 0 0
0.242889 -13.313382 15.741229 20.617746 -1.552554 0.702112 0.001708 -0.010767 -259675.000000 1 0 0
4.098689 -8.719682 15.310129 18.089560 -1.131394 0.561698 0.006987 -0.007718 113927.000000 1 0 0
4.325189 -4.318182 16.232229 17.344718 -0.784588 0.360104 0.024137 -0.010014 -379498.000000 1 0 0
7.936689 1.813918 14.815429 16.904978 0.224689 0.502473 0.019471 -0.004370 -14477.300000 1 0 0
-6.279311 -0.068482 11.781029 13.350172 0.010906 0.489724 0.005196 -0.004107 178325.000000 1 0 0
-3.562711 -10.862082 18.567729 21.804548 1.253858 0.551856 0.053616 -0.012141 -878824.000000 1 0 0
3.248389 -1.555282 13.475029 13.948023 -0.446533 0.261169 -0.000089 -0.003514 290256.000000 1 0 0
-2.446011 8.542518 15.781729 18.111338 -1.291924 0.512803 0.006842 -0.007188 -1282750.000000 1 0 0
-3.195011 3.914718 14.776929 15.617002 -0.886283 0.329489 0.006746 -0.006834 -73891.000000 1 0 0
-4.764011 -8.901782 19.707529 22.143266 1.079406 0.473449 0.060719 -0.020880 -34586.200000 1 0 0
-5.709911 -2.946182 19.042229 20.097004 0.476347 0.325422 0.022929 -0.019936 -949683.000000 1 0 0
-6.543511 -8.614582 11.064129 15.473963 0.921189 0.774149 0.010593 -0.007602 -407867.000000 1 0 0
-11.644311 2.524218 12.691629 17.408018 -0.213474 0.753837 0.039859 -0.022311 -273815.000000 1 0 0
-11.562911 -7.449082 11.647629 18.023790 0.572303 0.868154 0.027018 -0.014321 -558841.000000 1 0 0
-11.093911 -7.062382 15.519229 20.342040 0.566897 0.702988 0.047169 -0.029816 -567594.000000 1 0 0
0.391189 5.754518 17.573929 18.496229 1.502921 0.317125 0.015923 -0.012892 -93330.100000 1 0 0
-2.180311 -0.167282 13.160729 13.341160 0.076574 0.164651 0.005368 -0.001106 326883.000000 1 0 0
-6.145211 -10.575282 18.270429 21.986560 1.044396 0.589926 0.065131 -0.017104 -418278.000000 1 0 0
0.208289 2.819918 19.033029 19.241921 1.497067 0.147484 0.027070 -0.018540 -101848.000000 1 0 0
-0.512311 10.986718 14.577729 18.261452 -1.524200 0.646364 0.013517 -0.004775 551567.000000 1 0 0
-12.849511 -2.333782 14.289729 19.358534 0.179666 0.740455 0.034318 -0.006459 -1049610.000000 1 0 0
-13.677911 8.483918 11.518229 19.792213 -0.555187 0.949662 0.036348 -0.025539 -105970.000000 1 0 0
-18.038111 -0.445982 6.971829 19.343700 0.024719 1.202080 0.063295 -0.018183 -1172430.000000 1 0 0
-2.118411 -7.862982 17.749129 19.528076 1.307629 0.430150 0.025541 -0.017917 -471114.000000 1 0 0
5.567189 2.650618 14.420629 15.683556 0.444357 0.404055 0.019322 -0.004864 -1874030.000000 1 0 0
-13.992611 -6.630282 10.939429 18.958505 0.442503 0.955722 0.035850 -0.018683 372246.000000 1 0 0
3.372989 7.772618 16.078629 18.174514 1.161363 0.484989 0.011568 -0.015103 -282779.000000 1 0 0
1.004789 2.094918 14.511129 14.695957 1.123576 0.158765 0.002640 -0.003761 -3025540.000000 1 0 0
-14.362711 0.775318 9.682129 17.338749 -0.053929 0.978329 0.030147 -0.008519 -1067140.000000 1 0 0
-9.505211 -5.006782 15.479829 18.842559 0.484811 0.606698 0.021250 -0.013759 -219545.000000 1 0 0
-2.480211 -0.270582 17.956729 18.129225 0.108667 0.138057 0.022124 -0.014987 -99380.700000 1 0 0
6.836589 3.718318 17.673129 19.310731 0.498136 0.414799 0.044040 -0.008680 -241895.000000 1 0 0
-4.245911 -0.805782 14.731829 15.352649 0.187548 0.285352 0.013789 -0.004563 -180693.000000 1 0 0
4.677989 -8.921382 17.774929 20.430927 -1.087854 0.515592 0.015014 -0.005719 -17739.100000 1 0 0
1.893189 6.777918 13.250529 15.003362 1.298421 0.488217 0.000813 -0.002480 -2432190.000000 1 0 0
-3.774611 -0.792182 20.142929 20.508848 0.206869 0.189184 0.031669 -0.018602 679949.000000 1 0 0
-10.552111 1.509018 16.235229 19.421814 -0.142043 0.580976 0.031191 -0.016567 -315972.000000 1 0 0
-3.802011 7.014718 18.353029 20.012377 -1.074112 0.410093 0.019678 -0.013810 -690395.000000 1 0 0
-12.552711 1.070518 14.562529 19.255748 -0.085076 0.713204 0.046044 -0.021626 -595610.000000 1 0 0
-15.783111 -5.023182 8.394329 18.568891 0.308127 1.101718 0.029478 -0.013840 -1542390.000000 1 0 0
-2.308911 0.785718 15.603429 15.792892 -0.328006 0.155053 0.014862 -0.006215 181283.000000 1 0 0
-13.700111 -8.654382 12.463729 20.443481 0.563404 0.915155 0.047044 -0.030779 603789.000000 1 0 0
6.098489 -3.162782 14.539029 16.080365 -0.478430 0.441415 0.015818 -0.010400 820698.000000 1 0 0
-15.726011 0.687718 7.551129 17.458520 -0.043703 1.123512 0.029138 -0.012232 690031.000000 1 0 0
-14.080111 5.943118 12.277929 19.604023 -0.399406 0.894003 0.049868 -0.026724 -628693.000000 1 0 0
0.479289 9.637118 16.586929 19.189319 1.521104 0.526873 0.013675 -0.008358 -20980.700000 1 0 0
-10.304911 -5.361582 10.837729 15.886917 0.479751 0.820057 0.017056 -0.013042 60180.300000 1 0 0
-3.078911 -11.089982 15.244429 19.101310 1.299987 0.646689 0.019249 -0.010031 69379.900000 1 0 0
-3.502811 2.764318 12.636729 13.401420 -0.668103 0.339445 0.002146 -0.003249 -2184830.000000 1 0 0
-12.341511 -7.646282 7.511229 16.346164 0.554676 1.093353 0.015240 -0.005239 -119733.000000 1 0 0
-8.071311 -1.827882 13.148529 15.536120 0.222710 0.561758 0.007557 -0.007180 -686469.000000 1 0 0
-9.804811 6.437518 9.580229 15.144528 -0.580978 0.885908 0.003285 -0.011961 -414680.000000 1 0 0
-17.586311 -3.314682 6.783229 19.138381 0.186295 1.208491 0.040582 -0.016323 274321.000000 1 0 0
-1.302111 0.003618 20.310229 20.351927 -0.002778 0.064024 0.032268 -0.019905 -1648270.000000 1 0 0
-2.837311 2.608318 20.136629 20.502134 -0.743372 0.189108 0.038486 -0.018104 -724513.000000 1 0 0
-3.763711 11.303318 11.095329 16.279952 -1.249369 0.820940 0.006728 -0.011400 -742788.000000 1 0 0
-4.139711 -4.736282 14.859429 16.136053 0.852509 0.400455 0.014061 -0.011062 767736.000000 1 0 0
-0.102411 -14.470582 13.377829 19.707221 1.563719 0.824630 0.010747 -0.009794 -304676.000000 1 0 0
-12.125211 0.559518 8.403529 14.763235 -0.046112 0.965239 0.005874 -0.003473 -408785.000000 1 0 0
-7.763911 2.234718 15.484229 17.465212 -0.280258 0.480907 -0.001667 -0.002643 -920016.000000 1 0 0
3.412289 -2.104082 18.477529 18.907405 -0.552550 0.213647 0.029086 -0.012022 -212759.000000 1 0 0
-2.036211 4.898218 12.529129 13.605799 -1.176825 0.400498 -0.000680 -0.001139 -515149.000000 1 0 0
-10.196811 -6.060882 13.301329 17.822307 0.536284 0.728265 0.013250 -0.017769 -168678.000000 1 0 0
2.358089 -3.829382 14.237729 14.931098 -1.018849 0.305947 0.000385 -0.005227 -528221.000000 1 0 0
6.735189 1.162018 17.122029 18.435752 0.170847 0.379795 0.031019 -0.005115 -1375020.000000 1 0 0
-1.907011 -5.901982 13.909829 15.230018 1.258272 0.419441 0.006843 -0.006322 -2066580.000000 1 0 0
-12.447011 3.680218 14.925729 19.780027 -0.287480 0.715774 0.019468 -0.011110 24089.600000 1 0 0
-13.215911 -6.199882 13.404729 19.818820 0.438642 0.827982 0.032389 -0.023061 -229104.000000 1 0 0
-9.552711 6.891118 11.978429 16.799540 -0.624930 0.776998 0.020350 -0.011240 -281186.000000 1 0 0
-1.157711 -2.561582 12.821329 13.125871 1.146321 0.215833 0.001522 -0.002561 381867.000000 1 0 0
0.184589 6.677118 15.160929 16.567189 1.543158 0.414996 0.006870 -0.005456 219186.000000 1 0 0
-16.569611 -0.718582 9.692129 19.209522 0.043340 1.041938 0.061700 -0.012642 87275.100000 1 0 0
-1.253311 2.766818 13.657129 13.990827 -1.145468 0.218845 0.001277 -0.001878 -2157480.000000 1 0 0
-11.193811 -3.280782 15.959629 19.768022 0.285104 0.631156 0.017918 -0.013648 -52536.600000 1 0 0
-5.056711 -1.435082 17.099029 17.888728 0.276527 0.298241 0.023091 -0.007412 67000.400000 1 0 0
-11.968311 6.575418 11.090229 17.591753 -0.502384 0.888699 0.037928 -0.017808 -1853120.000000 1 0 0
-2.888911 4.612618 18.545629 19.327763 -1.011258 0.285457 0.032985 -0.017537 203776.000000 1 0 0
5.037789 -1.871782 16.450129 17.305769 -0.355741 0.315770 0.021994 -0.012412 74823.600000 1 0 0
-7.994111 -4.088882 12.118729 15.082718 0.472795 0.637671 0.013106 -0.008922 -956809.000000 1 0 0
-11.782911 -0.772282 16.176129 20.027495 0.065449 0.630562 0.040481 -0.010074 413154.000000 1 0 0
2.065689 2.119918 17.316429 17.567580 0.798353 0.169295 0.012336 -0.012071 -1208670.000000 1 0 0
-8.927211 -7.531582 11.621329 16.476502 0.700805 0.787911 0.016610 -0.009429 806052.000000 1 0 0
-7.211411 6.796618 14.811929 17.821103 -0.755796 0.589632 0.005774 -0.009863 -985816.000000 1 0 0
-5.556811 3.562118 15.689329 17.021219 -0.570048 0.398224 -0.001387 -0.006340 -696094.000000 1 0 0
-9.357011 4.264718 11.592129 15.495771 -0.427648 0.725627 0.006107 -0.014268 -138793.000000 1 0 0
-10.240911 -0.025282 14.146729 17.464445 0.002469 0.626593 0.011403 -0.004058 -196238.000000 1 0 0
8.148489 -0.597582 15.829029 17.813286 -0.073206 0.476495 0.044616 -0.013237 251779.000000 1 0 0
-8.648611 -7.443982 14.789729 18.680135 0.710681 0.657151 0.030432 -0.011185 -3994540.000000 1 0 0
-0.008111 4.107518 15.582829 16.115097 -1.568822 0.257731 0.004327 -0.006860 173725.000000 1 0 0
-7.962811 3.168718 9.699329 12.943111 -0.378729 0.723669 -0.000569 -0.005820 -492706.000000 1 0 0
-2.150711 -9.686482 13.221429 16.530568 1.352308 0.643806 0.003843 -0.005023 563117.000000 1 0 0
-6.020211 10.274918 10.404829 15.813834 -1.040799 0.852693 0.010067 -0.011969 -2245020.000000 1 0 0
-8.558211 -2.689282 15.549329 17.951514 0.304464 0.523280 0.012079 -0.012489 -20504.200000 1 0 0
4.141489 5.844218 17.709429 19.103160 0.954290 0.384351 0.024011 -0.007035 126282.000000 1 0 0
-6.831711 -0.842882 15.273229 16.752739 0.122758 0.423429 0.009482 -0.001058 -751202.000000 1 0 0
-0.816511 -9.848582 15.484629 18.369404 1.488079 0.568039 0.000158 -0.009647 370301.000000 1 0 0
-4.244211 5.915718 16.037629 17.612910 -0.948457 0.426157 0.009674 -0.010547 78739.200000 1 0 0
3.622889 0.126918 17.408429 17.781869 0.035018 0.205305 0.024464 -0.010616 -680383.000000 1 0 0
1.196889 0.461318 19.242029 19.284736 0.367884 0.066564 0.020688 -0.010335 -996908.000000 1 0 0
-6.210311 6.343418 17.726429 19.825065 -0.796001 0.464284 0.003577 -0.010778 -1660740.000000 1 0 0
-12.188911 0.668718 10.990229 16.425647 -0.054808 0.837813 0.023106 -0.005820 -367458.000000 1 0 0
-5.348011 5.138818 13.829529 15.692818 -0.765453 0.492265 -0.003515 -0.004396 -977963.000000 1 0 0
-8.625111 -9.414982 9.801429 16.096660 0.829154 0.916110 0.016679 -0.011857 -192014.000000 1 0 0
6.780189 -3.706782 17.016329 18.688678 -0.500312 0.426267 0.031888 -0.013782 -708622.000000 1 0 0
-16.697811 1.903418 9.665829 19.387319 -0.113502 1.048854 0.057051 -0.016044 491734.000000 1 0 0
-4.073111 -9.560782 11.493429 15.495087 1.168060 0.735125 0.000471 -0.008600 191207.000000 1 0 0
-11.053011 -3.653982 9.123929 14.790765 0.319277 0.906041 0.008632 -0.003736 -844857.000000 1 0 0
3.713189 -5.553882 18.491229 19.661102 -0.981473 0.346703 0.025959 -0.013376 -156219.000000 1 0 0
2.466189 -1.794782 15.993529 16.281779 -0.629112 0.188448 0.007224 -0.010762 -526137.000000 1 0 0
-3.164111 -4.376082 20.168229 20.878677 0.944770 0.261619 0.035543 -0.020588 -922745.000000 1 0 0
-6.237011 -3.240782 14.341929 15.971660 0.479208 0.455682 0.010989 -0.007271 264405.000000 1 0 0
-9.704311 5.277118 13.997329 17.831064 -0.498064 0.668105 0.033198 -0.012417 357307.000000 1 0 0
-5.774211 -5.136582 11.661329 13.989732 0.727024 0.585269 0.004437 -0.003633 387769.000000 1 0 0
5.844289 1.829418 19.333329 20.280042 0.303364 0.306757 0.053260 -0.019516 35957.800000 1 0 0
-2.632511 11.978818 13.360929 18.136610 -1.354471 0.742644 0.013593 -0.013808 1095890.000000 1 0 0
3.268289 1.277718 15.144829 15.546065 0.372675 0.227689 0.005746 -0.007324 -671645.000000 1 0 0
-5.751411 7.486118 12.852629 15.947124 -0.915700 0.633513 -0.004094 -0.006512 -939572.000000 1 0 0
-1.847011 -1.697482 15.190529 15.396268 0.743237 0.163663 0.009099 -0.003586 92324.800000 1 0 0
-7.389511 10.622818 14.045529 19.097801 -0.963012 0.744462 0.024553 -0.019870 -301904.000000 1 0 0
-10.186511 2.139118 10.562629 14.829362 -0.206988 0.778058 0.007885 -0.008141 -246533.000000 1 0 0
-13.518711 5.261418 9.098529 17.123706 -0.371157 1.010613 0.020427 -0.019737 -662951.000000 1 0 0
0.505289 -4.671382 20.114529 20.656026 -1.463048 0.229479 0.034771 -0.023154 -137325.000000 1 0 0
-14.421811 -2.951382 7.445429 16.496475 0.201860 1.102536 0.017827 -0.005606 612450.000000 1 0 0
-2.520311 2.408718 17.472129 17.816543 -0.762762 0.196945 0.016925 -0.012162 -458397.000000 1 0 0
-6.238511 -8.333582 14.468529 17.824308 0.928193 0.623688 0.012491 -0.011767 153657.000000 1 0 0
-7.975911 1.985218 12.041329 14.579090 -0.243945 0.598944 -0.001834 -0.008420 -125762.000000 1 0 0
-14.595311 -3.438282 10.101629 18.080039 0.231356 0.977958 0.031006 -0.008375 -386891.000000 1 0 0
-0.553911 7.108118 12.646129 14.517463 -1.493027 0.513363 -0.003359 -0.002404 -685284.000000 1 0 0
-1.789211 -2.406682 19.345029 19.576097 0.931510 0.153797 0.028693 -0.017064 -586556.000000 1 0 0
-12.706711 10.190218 7.362329 17.874701 -0.675932 1.146274 0.009616 -0.023435 -252528.000000 1 0 0
-19.557211 2.391018 6.947029 20.891689 -0.121654 1.231816 0.068989 -0.024967 -631334.000000 1 0 0
-16.134711 8.578718 6.633329 19.440276 -0.488680 1.222586 0.026766 -0.017317 367764.000000 1 0 0
-12.348411 7.478218 13.509229 19.771350 -0.544528 0.818560 0.042947 -0.010184 319760.000000 1 0 0
-15.990211 8.180518 10.384629 20.747246 -0.472881 1.046585 0.033440 -0.021384 -972574.000000 1 0 0
2.137289 10.851918 14.951829 18.598100 1.376335 0.636899 0.020723 -0.010290 526108.000000 1 0 0
2.265089 14.515818 12.206029 19.100438 1.416002 0.877541 0.012335 -0.009168 345878.000000 1 0 0
-3.079611 13.810618 11.589329 18.290154 -1.351397 0.884550 0.000859 -0.015312 194581.000000 1 0 0
8.986389 4.786318 15.788229 18.786490 0.489401 0.572769 0.043825 0.000204 349851.000000 1 0 0
-0.216711 12.588218 12.644429 17.843536 -1.553583 0.783245 0.002902 -0.009047 -265349.000000 1 0 0
3.339489 13.401518 14.349129 19.916083 1.326583 0.766303 0.017213 -0.007889 -51221.300000 1 0 0
-2.771511 -4.118382 -13.613771 14.490586 0.978449 2.791937 -0.000227 -0.006447 -586548.000000 1 0 0
5.786789 -11.548282 16.381129 20.861236 -1.106273 0.667709 0.021340 -0.007397 401326.000000 1 0 0
7.933789 -13.510882 7.433629 17.342082 -1.039831 1.127802 0.008704 -0.008897 -306144.000000 1 0 0
-0.173111 15.669718 1.174029 15.714591 -1.559749 1.496017 0.006575 -0.001379 -2029990.000000 1 0 0
-13.841111 8.127018 8.924029 18.364723 -0.530929 1.063366 0.022448 -0.020252 769606.000000 1 0 0
-15.404811 -9.601782 5.088429 18.851911 0.557374 1.297491 0.015492 -0.006119 -970133.000000 1 0 0
9.620689 -11.030482 11.143629 18.395915 -0.853559 0.920067 0.035010 -0.010745 16630.300000 1 0 0
-5.886711 -10.608582 -16.577671 20.542993 1.064198 2.509807 0.017586 -0.007722 98403.600000 1 0 0
-2.125611 -12.650982 -14.716271 19.522659 1.404332 2.424629 0.015324 -0.005156 -278073.000000 1 0 0
5.661189 -15.879282 -11.863971 20.614424 -1.228330 2.184034 0.044891 -0.009349 214532.000000 1 0 0
1.018889 -11.760682 -16.722571 20.469396 -1.484377 2.526907 0.023607 -0.003200 257555.000000 1 0 0
0.428589 -14.350782 -14.349271 20.298527 -1.540940 2.355919 0.031232 0.008648 435241.000000 1 0 0
-6.484811 -5.958282 -14.529471 16.989980 0.743108 2.596692 0.010673 -0.005609 10415.100000 1 0 0
-6.344411 -8.239782 -17.132771 20.041891 0.914635 2.596054 0.014310 -0.009014 62552.100000 1 0 0
-2.239311 -16.451082 -12.848871 20.993954 1.435508 2.229418 0.020454 -0.009203 172899.000000 1 0 0
16.118889 -8.214082 -8.886071 20.155694 -0.471293 2.027366 0.061756 -0.021814 -4482.010000 1 0 0
18.996789 -3.218182 -3.334071 19.553791 -0.167813 1.742141 0.084264 -0.033274 114965.000000 1 0 0
15.664289 -12.127582 -8.330371 21.490539 -0.658822 1.968855 0.064798 -0.012305 -140603.000000 1 0 0
18.959789 -3.833682 -6.803471 20.505071 -0.199511 1.909002 0.209473 -0.020038 -192315.000000 1 0 0
8.766689 -9.356482 -15.812871 20.357934 -0.817930 2.460273 0.075204 -0.018035 223257.000000 1 0 0
-4.795011 9.250618 -15.966171 19.065274 -1.092581 2.563393 0.009470 -0.011065 486216.000000 1 0 0
2.753589 -9.679982 -18.004571 20.626412 -1.293655 2.631889 0.045595 -0.018483 431539.000000 1 0 0
11.195089 8.290318 -14.254971 19.931472 0.637414 2.367705 0.106708 -0.060926 445729.000000 1 0 0
17.833289 -6.831482 -7.281871 20.438224 -0.365831 1.935087 0.035806 -0.030612 -171532.000000 1 0 0
12.430489 4.764718 -14.134771 19.416780 0.366035 2.386148 0.056918 -0.009785 175525.000000 1 0 0
15.956389 6.356118 -10.731571 20.252733 0.379077 2.129258 0.054396 -0.019649 111257.000000 1 0 0
3.454489 -0.619482 -19.226171 19.543871 -0.177441 2.961038 0.039974 -0.012326 228407.000000 1 0 0
10.534789 -1.749782 -14.617071 18.102549 -0.164593 2.510629 0.047053 -0.015556 97874.100000 1 0 0
12.610989 -5.789182 -13.948971 19.675504 -0.430361 2.358806 0.069066 -0.014061 210555.000000 1 0 0
10.286489 6.607518 -12.879671 17.758296 0.570978 2.382232 0.053807 -0.008439 575415.000000 1 0 0
10.949689 4.841118 -16.278271 20.206786 0.416285 2.507457 0.084046 -0.028592 495726.000000 1 0 0
12.102589 -10.086782 -14.721271 21.562274 -0.694801 2.322293 0.103259 -0.024595 297931.000000 1 0 0
-1.347711 1.952418 -17.242971 17.405410 -0.966625 3.004865 0.014467 -0.010319 330071.000000 1 0 0
6.169089 -1.313882 -16.786771 17.932641 -0.209843 2.782174 0.032675 -0.010689 39590.600000 1 0 0
6.089389 -5.678382 -15.679871 17.753395 -0.750486 2.653447 0.009770 -0.017490 106846.000000 1 0 0
-2.058111 -4.797182 -20.509871 21.163732 1.165521 2.892371 0.042259 -0.030256 311179.000000 1 0 0
15.769289 -0.464682 -13.004371 20.445050 -0.029459 2.260184 0.050664 -0.021752 -20406.600000 1 0 0
-4.222211 -0.359082 -18.529271 19.007627 0.084842 2.916769 0.019536 -0.012073 266458.000000 1 0 0
4.433189 8.727618 -17.973071 20.465965 1.100809 2.642868 0.053435 -0.015544 269880.000000 1 0 0
9.521289 -0.101082 -16.884971 19.384721 -0.010616 2.628123 0.056513 -0.032685 -100202.000000 1 0 0
4.075489 4.777918 -18.397471 19.439780 0.864572 2.812645 0.032684 -0.004611 309072.000000 1 0 0
-3.214711 -10.834982 -17.873271 21.146749 1.282372 2.577739 0.032835 -0.023230 282371.000000 1 0 0
5.603589 -9.801682 -15.634871 19.285289 -1.051448 2.516168 0.033781 -0.020536 105057.000000 1 0 0
10.087989 -12.645282 -10.989771 19.556220 -0.897418 2.167547 0.042593 0.001563 131032.000000 1 0 0
6.257289 6.810718 -17.078371 19.421902 0.827723 2.645262 0.051584 -0.015685 383085.000000 1 0 0
8.597589 1.132918 -19.920371 21.726095 0.131017 2.731006 0.078214 -0.031537 145945.000000 1 0 0
-0.772711 -0.961482 -20.273071 20.310562 0.893824 3.080823 0.039068 -0.015631 201384.000000 1 0 0
-1.164011 6.607018 -19.526971 20.647280 -1.396408 2.810663 0.031611 -0.007311 91197.900000 1 0 0
8.857089 6.005418 -18.050871 20.984447 0.595832 2.606463 0.087184 -0.028944 56314.000000 1 0 0
12.407689 -0.230182 -13.388271 18.255123 -0.018549 2.394103 0.043182 -0.001552 -1686.130000 1 0 0
-4.163811 -2.611182 -19.738471 20.341161 0.560118 2.897558 0.009971 -0.017465 449654.000000 1 0 0
6.103289 -11.430882 -14.338871 19.326625 -1.080375 2.406730 0.037126 -0.015561 133719.000000 1 0 0
11.183589 2.036418 -16.012371 19.637100 0.180116 2.524241 0.053179 -0.009199 -259632.000000 1 0 0
-2.911411 -4.236782 -17.092971 17.849266 0.968730 2.849449 0.004974 -0.012163 255053.000000 1 0 0
-6.803211 -4.942082 -17.435271 19.357079 0.628247 2.692216 0.025339 -0.016733 59886.300000 1 0 0
2.980989 10.119418 -15.035471 18.367207 1.284318 2.529773 0.016003 -0.017006 146756.000000 1 0 0
16.960389 -6.170082 -10.717871 20.990414 -0.348910 2.106688 0.074936 -0.028579 -30640.100000 1 0 0
9.698989 -3.755282 -17.597471 20.441221 -0.369409 2.607796 0.049836 -0.027597 -81182.400000 1 0 0
-7.178811 -1.993482 -19.319371 20.706216 0.270865 2.773521 0.019228 0.005892 474025.000000 1 0 0
1.662089 -7.423782 -19.227271 20.677597 -1.350541 2.764828 0.049149 -0.031815 281349.000000 1 0 0
5.166889 10.048018 -14.918271 18.714011 1.095838 2.493392 0.033653 -0.007598 280443.000000 1 0 0
6.064889 -3.838382 -18.021171 19.397903 -0.564250 2.762570 0.046607 -0.024230 715462.000000 1 0 0
4.713589 13.474918 -14.367071 20.253495 1.234296 2.359390 0.044426 -0.017437 -9873.940000 1 0 0
9.468489 11.522018 -15.256871 21.334978 0.882919 2.367579 0.104385 -0.027815 83600.000000 1 0 0
17.324289 1.043018 -11.345371 20.734906 0.060133 2.149767 0.093460 -0.009055 21852.400000 1 0 0
15.347289 -3.104882 -11.966371 19.707197 -0.199614 2.223338 0.073041 -0.021342 146754.000000 1 0 0
-8.781111 -0.352082 -17.351471 19.450075 0.040074 2.672775 0.037285 -0.013170 331184.000000 1 0 0
-3.211111 4.148318 -19.181771 19.886178 -0.912064 2.874635 0.016343 0.000967 61596.200000 1 0 0
4.204689 2.269418 -17.485871 18.126923 0.494928 2.874853 0.024925 0.003575 555083.000000 1 0 0
-5.062911 14.276018 -13.960571 20.599400 -1.229990 2.315450 0.016159 -0.004790 359753.000000 1 0 0
1.180289 9.227018 -17.843071 20.122279 1.443571 2.661024 0.036392 -0.004315 437506.000000 1 0 0
0.954689 -5.359582 -20.225071 20.944929 -1.394518 2.878656 0.037635 -0.003500 519967.000000 1 0 0
3.631489 -6.249482 -17.918271 19.321184 -1.044400 2.758171 0.047029 -0.034100 -50057.600000 1 0 0
-7.250211 7.252718 -15.959771 18.970549 -0.785571 2.570465 0.007230 0.003675 66306.000000 1 0 0
-11.770611 3.161818 -16.918971 20.851761 -0.262425 2.517328 0.056428 -0.024625 412155.000000 1 0 0
-4.388511 6.568818 -17.442071 19.147695 -0.981814 2.716311 0.010000 0.012632 550749.000000 1 0 0
-8.146411 4.783518 -17.918571 20.256387 -0.530950 2.656408 0.016880 0.002141 466349.000000 1 0 0
-8.047811 3.692718 -14.774771 17.224903 -0.430187 2.601685 -0.008181 -0.023222 146505.000000 1 0 0
9.489989 13.799018 -12.783371 21.068634 0.968353 2.222761 0.103450 -0.039652 444738.000000 1 0 0
12.838589 9.432518 -11.840671 19.849515 0.633637 2.209957 0.038569 -0.035125 -328235.000000 1 0 0
8.672289 15.426618 -10.022971 20.338365 1.058662 2.086114 0.071310 -0.029162 53239.000000 1 0 0
6.970889 12.731118 -14.309871 20.382518 1.069838 2.349091 0.105407 -0.045508 -50597.500000 1 0 0
4.035289 15.757518 -12.814971 20.707641 1.320097 2.238077 0.053823 -0.018717 203873.000000 1 0 0
11.056089 11.628718 -10.850271 19.369888 0.810636 2.165377 0.100655 -0.039502 362996.000000 1 0 0
16.136589 10.120118 -10.804671 21.898566 0.560146 2.086786 0.109103 -0.013544 317001.000000 1 0 0
13.713389 11.018918 -9.018571 19.768870 0.676881 2.044517 0.128517 -0.036095 136649.000000 1 0 0
10.769589 11.562518 -7.399671 17.447951 0.820889 2.008764 0.057038 -0.018924 187595.000000 1 0 0
5.364789 17.023118 -10.094871 20.505460 1.265502 2.085528 0.066823 -0.017655 -135155.000000 1 0 0
11.616489 13.666518 -10.229171 20.648304 0.866304 2.089092 0.125335 -0.047971 150824.000000 1 0 0
8.052089 -19.396682 -1.970271 21.093824 -1.177318 1.664338 0.060958 -0.015263 -25716.400000 1 0 0
7.410289 -16.882782 -4.044371 18.875849 -1.157190 1.786732 0.051113 -0.016748 217085.000000 1 0 0
3.805089 -18.433882 5.248129 19.540460 -1.367237 1.298880 0.058995 -0.026807 25144.200000 1 0 0
10.248389 -17.914982 -2.542571 20.795210 -1.051177 1.693370 0.065738 -0.007000 470221.000000 1 0 0
-3.693811 -14.831582 8.044929 17.272549 1.326712 1.086299 0.034909 -0.031582 -179669.000000 1 0 0
-15.521311 -12.537782 -4.259371 20.402189 0.679466 1.781114 0.066897 -0.014617 234201.000000 1 0 0
-9.138211 -12.603582 -7.298471 17.193745 0.943456 2.009188 0.030735 -0.014537 102397.000000 1 0 0
-11.554711 -15.310582 6.898529 20.384185 0.924302 1.225553 0.034604 -0.006798 294698.000000 1 0 0
-15.725111 -8.154982 -8.225671 19.530604 0.478414 2.005529 0.106653 -0.014877 6726.440000 1 0 0
5.559989 -15.516682 6.780529 17.822920 -1.226726 1.180526 0.047498 -0.014118 257899.000000 1 0 0
2.789089 -13.997382 9.266229 17.016719 -1.374114 0.994960 0.019382 -0.011227 380385.000000 1 0 0
3.248989 -17.273682 9.968629 20.206672 -1.384879 1.054878 0.052217 -0.019914 118394.000000 1 0 0
-8.618711 -17.561382 -5.048271 20.203202 1.114555 1.823347 0.044847 -0.015315 6785.660000 1 0 0
2.452989 -19.858882 -3.989071 20.403555 -1.447898 1.767572 0.040551 -0.016379 -15864.700000 1 0 0
-16.974211 -10.745182 -2.810371 20.284993 0.564353 1.709788 -0.058717 -0.016266 -87422.300000 1 0 0
-4.076011 -14.739082 2.898929 15.564646 1.300995 1.383451 0.002470 -0.003878 -27236.900000 1 0 0
-11.052411 -9.884182 -14.543871 20.769618 0.729658 2.346540 0.054829 -0.012982 65689.900000 1 0 0
0.077689 -20.055882 2.708429 20.238084 -1.566923 1.436565 0.043805 -0.024047 283157.000000 1 0 0
5.901389 -18.053682 -0.330371 18.996605 -1.254865 1.588188 0.039763 -0.019047 25013.300000 1 0 0
-6.516611 -17.553382 -3.014571 18.965102 1.215322 1.730427 -0.025555 -0.049199 -1045130.000000 1 0 0
-9.024011 -15.305582 -7.633171 19.338017 1.038067 1.976563 0.053475 -0.027035 -381962.000000 1 0 0
-11.713811 -11.362782 -12.134571 20.336519 0.770188 2.210165 0.029400 -0.004293 310558.000000 1 0 0
-13.492911 -14.667782 -3.388171 20.215889 0.827094 1.739190 0.065866 -0.026176 209461.000000 1 0 0
-0.320811 -20.448482 -2.538271 20.607915 1.555109 1.694280 0.044076 -0.015427 180573.000000 1 0 0
-12.045411 -16.923382 -0.778171 20.786975 0.952220 1.608241 0.070112 -0.009746 235494.000000 1 0 0
0.751689 -20.092582 5.321329 20.798881 -1.533402 1.312073 0.064070 -0.023464 -90730.700000 1 0 0
-18.037611 -8.760282 2.508129 20.208628 0.452116 1.446364 0.045305 -0.007255 -91609.100000 1 0 0
-15.139611 -14.980782 -0.690671 21.309826 0.780125 1.603213 0.074061 -0.005926 24917.600000 1 0 0
10.384089 -15.470082 -5.093671 19.315751 -0.979636 1.837658 0.051104 -0.003868 -55183.600000 1 0 0
0.051989 -19.163382 -6.880571 20.361242 -1.568083 1.915508 0.034425 -0.010869 184655.000000 1 0 0
-9.948311 -17.845482 -2.921571 20.638937 1.062237 1.712830 0.050468 0.014690 410532.000000 1 0 0
-14.908411 -6.747482 -11.300071 19.886700 0.425010 2.175140 0.068432 -0.019797 19287.100000 1 0 0
-12.288011 -15.023282 2.081529 19.519913 0.885217 1.463957 0.053830 -0.015964 164247.000000 1 0 0
-2.423411 -15.853982 9.789229 18.789643 1.419112 1.022785 0.014148 -0.027491 340221.000000 1 0 0
-12.467011 -14.569882 -6.835071 20.357456 0.863020 1.913201 0.054938 -0.009303 121948.000000 1 0 0
5.080189 -17.020082 -7.046571 19.108786 -1.280733 1.948472 0.027656 -0.019664 -139073.000000 1 0 0
-17.369011 -7.344082 -3.118271 19.113914 0.400028 1.734670 -0.005216 -0.009084 -58949.700000 1 0 0
-12.249711 -13.122382 -9.522171 20.320533 0.819780 2.058500 0.068464 -0.033116 -35560.700000 1 0 0
-7.728411 -14.085782 10.365729 19.120302 1.068977 0.997824 0.023178 -0.000227 295922.000000 1 0 0
-15.807811 -8.018482 -5.630271 18.597927 0.469429 1.878359 0.034966 -0.010045 271317.000000 1 0 0
-0.743811 -19.578582 0.279829 19.594705 1.532824 1.556515 0.027283 -0.016682 118730.000000 1 0 0
-14.965211 -11.361882 -1.466171 18.846739 0.649376 1.648669 0.020827 -0.003809 141172.000000 1 0 0
-7.097811 -19.050482 1.678029 20.398911 1.214150 1.488443 0.020424 -0.013768 64957.100000 1 0 0
-1.904811 -21.018682 -4.989371 21.686566 1.480419 1.802943 0.037862 -0.007454 162289.000000 1 0 0
-8.731911 -19.858282 -1.351271 21.735307 1.156531 1.633006 0.030934 -0.000893 159511.000000 1 0 0
-17.639511 -7.421782 5.071129 19.797766 0.398263 1.311763 0.038844 -0.010447 8084.110000 1 0 0
-3.127011 -15.771882 -10.595571 19.256079 1.375070 2.153455 0.012706 -0.005440 -1212.470000 1 0 0
-3.028311 -18.312182 -8.302371 20.333127 1.406908 1.991406 0.020646 -0.006111 256477.000000 1 0 0
4.495589 -17.366582 -4.465371 18.486429 -1.317492 1.814758 0.028822 -0.024239 605653.000000 1 0 0
0.667189 -17.314582 -9.706371 19.860854 -1.532282 2.081417 0.024839 -0.001568 -42171.300000 1 0 0
-7.679811 -9.986182 -14.559571 19.253167 0.915218 2.428308 0.007345 -0.014856 485733.000000 1 0 0
-4.880911 -19.671382 -1.770271 20.345035 1.327586 1.657919 0.025099 -0.013185 349479.000000 1 0 0
-10.336311 -14.944282 8.758729 20.171421 0.965692 1.121630 0.026402 -0.033193 143064.000000 1 0 0
-7.398011 -15.167982 -10.201871 19.719950 1.117006 2.114533 0.021451 -0.016970 241538.000000 1 0 0
-12.753511 -8.059082 -12.038171 19.300736 0.563554 2.244284 0.053843 -0.023165 323918.000000 1 0 0
-15.734111 -13.003182 3.079729 20.642910 0.690652 1.421047 0.048844 -0.003433 123683.000000 1 0 0
-6.417811 -14.269382 -12.988671 20.334924 1.148141 2.263652 0.005228 -0.005023 529090.000000 1 0 0
-14.014211 -11.369282 -6.884171 19.314515 0.681574 1.935235 0.059780 -0.023511 157615.000000 1 0 0
-11.708411 -10.391382 -8.042171 17.599552 0.725874 2.045363 0.034312 -0.013584 188859.000000 1 0 0
-9.583411 -15.011982 3.123729 18.082009 1.002630 1.397172 0.005921 0.006236 308216.000000 1 0 0
4.957889 -18.734582 7.898529 20.927303 -1.312089 1.183780 0.060499 -0.011977 188889.000000 1 0 0
-4.864611 -16.406882 4.915029 17.804711 1.282555 1.291112 0.006506 -0.011359 72638.800000 1 0 0
-18.485511 -7.470682 -7.079871 21.157735 0.384068 1.912002 0.054180 -0.024340 118679.000000 1 0 0
-17.158111 -4.889082 -10.741871 20.825265 0.277586 2.112749 0.071854 -0.004971 -242275.000000 1 0 0
-15.966111 -3.942582 -12.550671 20.687677 0.242091 2.222666 0.068680 -0.025183 408131.000000 1 0 0
-19.420111 -4.858382 -5.864771 20.860012 0.245141 1.855787 0.053680 -0.013495 -72200.100000 1 0 0
5.444589 -13.570282 8.847729 17.090302 -1.189244 1.026630 0.031433 -0.006785 309278.000000 1 0 0
19.820189 -3.137682 2.785529 20.259421 -0.157004 1.432866 0.073433 -0.019917 -24365.300000 1 0 0
18.001389 -2.359082 0.066629 18.155432 -0.130307 1.567126 0.048706 -0.018549 236253.000000 1 0 0
14.375989 -11.411282 0.227129 18.355872 -0.670933 1.558422 0.055009 -0.005885 103005.000000 1 0 0
11.216989 -13.746682 5.019429 18.438731 -0.886388 1.295095 0.032863 -0.009674 432324.000000 1 0 0
10.571989 -12.285482 7.959029 18.056749 -0.860222 1.114330 0.053275 -0.041592 -80825.200000 1 0 0
19.031489 4.192218 -4.646571 20.034043 0.216815 1.804861 0.086644 -0.000537 -62826.600000 1 0 0
18.960189 -6.279282 -4.398571 20.451542 -0.319814 1.787563 0.093294 -0.028574 -59079.900000 1 0 0
17.638789 -10.075382 -0.006271 20.313549 -0.518978 1.571105 0.071797 -0.011278 214239.000000 1 0 0
17.580089 -8.707282 8.753429 21.482524 -0.459874 1.151117 0.102847 -0.023413 37554.100000 1 0 0
19.793389 0.465018 -2.086971 19.908540 0.023489 1.675817 0.073228 -0.013109 147997.000000 1 0 0
7.502389 -13.222182 11.662429 19.160486 -1.054685 0.916412 0.027250 -0.008210 313549.000000 1 0 0
16.360589 -6.688982 -3.376671 17.994812 -0.388110 1.759562 0.077347 -0.017876 104228.000000 1 0 0
14.409489 -6.799982 11.978429 19.933788 -0.440924 0.926156 0.077633 -0.039937 367042.000000 1 0 0
17.095289 1.495818 9.323129 19.529647 0.087277 1.073122 0.137072 -0.035657 174717.000000 1 0 0
16.803589 -10.152882 2.720529 19.820265 -0.543509 1.433102 0.042669 -0.011831 192419.000000 1 0 0
15.930889 -7.156582 -5.720871 18.377657 -0.422211 1.887352 0.064599 -0.020619 215734.000000 1 0 0
18.894989 -4.531182 5.873529 20.299029 -0.235364 1.277248 0.162003 -0.021148 -166033.000000 1 0 0
13.077289 -13.829882 7.799429 20.569692 -0.813361 1.181896 0.043934 -0.015994 202792.000000 1 0 0
15.403189 -13.840682 -1.791271 20.785365 -0.732019 1.657083 0.064298 -0.014597 112292.000000 1 0 0
18.698689 -6.258782 7.848129 21.222782 -0.322996 1.192005 0.108790 -0.026780 250246.000000 1 0 0
19.554189 3.219318 2.496829 19.974095 0.163172 1.445465 0.058061 -0.004817 226740.000000 1 0 0
15.704889 -10.686682 8.106629 20.653478 -0.597497 1.167441 0.064196 -0.031207 283727.000000 1 0 0
14.401689 -4.230882 10.752329 18.464063 -0.285738 0.949194 0.072283 -0.022383 -20315.200000 1 0 0
18.803989 -7.432182 1.991129 20.317282 -0.376401 1.472637 0.103284 -0.023472 -142268.000000 1 0 0
19.183989 -6.047282 -1.057271 20.142316 -0.305366 1.623310 0.096801 -0.026762 8729.610000 1 0 0
14.977889 -13.108082 -6.066871 20.807833 -0.718922 1.866661 0.094756 -0.024120 482591.000000 1 0 0
13.844789 -9.617682 10.264529 19.736731 -0.607146 1.023861 0.047768 -0.023244 464930.000000 1 0 0
14.248889 2.401318 0.556929 14.460544 0.166958 1.532273 0.005682 -0.004847 -139151.000000 1 0 0
12.756389 1.919118 13.663029 18.790605 0.149324 0.756679 0.036201 -0.000768 -81218.300000 1 0 0
18.478089 -2.807182 9.468129 20.951504 -0.150767 1.101895 0.105924 -0.023687 110400.000000 1 0 0
7.136089 -18.243382 4.429329 20.083917 -1.197933 1.348427 0.050425 -0.027921 381030.000000 1 0 0
11.662389 -4.234282 14.145729 18.816007 -0.348272 0.720020 0.064965 -0.016996 129413.000000 1 0 0
11.331989 -13.540682 -6.937571 18.970871 -0.873966 1.945177 0.047554 -0.016486 97165.100000 1 0 0
10.673989 -17.821382 4.789829 21.318494 -1.031155 1.344182 0.044481 -0.012710 518693.000000 1 0 0
18.402589 -0.152682 -4.871971 19.037193 -0.008297 1.829594 0.088824 -0.022268 35495.800000 1 0 0
4.198589 -13.558982 11.661229 18.370042 -1.270507 0.883052 0.011137 -0.011668 -8949.330000 1 0 0
9.201489 -2.435182 14.278029 17.159826 -0.258720 0.587983 0.031860 -0.014706 373850.000000 1 0 0
9.023389 -9.465482 14.268729 19.354936 -0.809305 0.741859 0.044897 -0.008985 378936.000000 1 0 0
21.066489 5.416718 -3.195571 21.985210 0.251673 1.716664 0.102298 -0.009487 562013.000000 1 0 0
15.050289 -13.291282 1.753229 20.155476 -0.723413 1.483701 0.056391 -0.011574 126238.000000 1 0 0
11.983889 -0.993482 15.582629 19.682961 -0.082712 0.657240 0.097336 -0.000011 -183423.000000 1 0 0
19.966989 0.082418 7.602429 21.365495 0.004128 1.206997 0.143216 -0.027367 142697.000000 1 0 0
19.767689 1.228618 0.638929 19.816137 0.062073 1.538548 0.059361 -0.012283 156271.000000 1 0 0
17.924089 0.256818 3.324129 18.231532 0.014327 1.387442 0.034382 -0.011218 -113390.000000 1 0 0
10.253189 -8.475382 16.348129 21.076559 -0.690757 0.683045 0.060713 -0.009614 124523.000000 1 0 0
19.225689 2.998318 5.483229 20.215906 0.154708 1.296122 0.059177 -0.010125 155071.000000 1 0 0
14.715089 2.397818 7.226729 16.568313 0.161530 1.119450 0.031864 -0.012922 25156.400000 1 0 0
11.647789 -16.024182 2.146029 19.926135 -0.942252 1.462888 0.040908 -0.000733 178725.000000 1 0 0
8.749889 -16.089282 6.922829 19.579355 -1.072700 1.209403 0.038898 -0.009082 282174.000000 1 0 0
6.025889 6.701518 7.282429 11.586866 0.838433 0.891164 0.002100 0.002518 -1143650.000000 1 0 0
18.533389 2.127618 -6.540571 19.768468 0.114299 1.908010 0.071321 -0.011984 277157.000000 1 0 0
14.493289 4.434218 -7.112471 16.742310 0.296906 2.009560 0.032761 -0.008834 316761.000000 1 0 0
-10.511711 -3.866382 -13.789071 17.764668 0.352458 2.459425 0.024380 -0.006303 -167143.000000 1 0 0
7.644589 -14.095682 -10.385171 19.104444 -1.073857 2.145516 0.030871 -0.007448 5291.610000 1 0 0
2.046689 -15.818582 13.885129 21.147418 -1.442126 0.854511 0.017429 -0.015175 518347.000000 1 0 0
-9.460311 -7.991082 2.219429 12.580968 0.701406 1.393457 0.002139 0.003081 283856.000000 1 0 0
-13.967911 3.017818 -9.801371 17.328492 -0.212783 2.171983 0.032205 -0.007103 204173.000000 1 0 0
-12.977211 -4.852782 -13.731971 19.507037 0.357847 2.351739 0.049881 0.005193 158223.000000 1 0 0
-18.214111 -1.345882 -8.151771 20.000415 0.073758 1.990599 0.086078 -0.034731 474918.000000 1 0 0
-12.278111 15.154018 3.453229 19.807096 -0.889854 1.395558 0.032209 -0.024327 357444.000000 1 0 0
-17.327511 6.124618 9.495429 20.686149 -0.339756 1.093901 0.037393 -0.030987 281722.000000 1 0 0
-12.738611 15.079618 0.175229 19.740764 -0.869354 1.561920 0.023445 -0.035872 161392.000000 1 0 0
-16.168811 5.365718 -10.696671 20.115669 -0.320420 2.131472 0.062581 -0.013765 6148.930000 1 0 0
-18.386211 2.891918 -0.235571 18.613743 -0.156009 1.583452 0.058956 -0.011188 -3420.100000 1 0 0
-9.874611 15.397918 -0.381171 18.296150 -1.000565 1.591631 0.016760 -0.007315 66487.800000 1 0 0
-18.786611 12.014418 2.738029 22.467305 -0.568973 1.448625 0.110215 -0.034338 -159896.000000 1 0 0
-8.483711 16.525918 -7.768871 20.135408 -1.096520 1.966905 0.063311 -0.026163 100087.000000 1 0 0
-14.750211 -1.743982 -12.788071 19.599616 0.117688 2.281629 0.041342 -0.025327 88469.600000 1 0 0
-18.905411 5.329318 -4.659071 20.187202 -0.274764 1.803689 0.064832 -0.017836 -68404.700000 1 0 0
-15.935611 9.069518 -5.977771 19.285580 -0.517416 1.885948 0.022914 -0.005680 -41841.600000 1 0 0
-18.980811 1.353118 2.484629 19.190505 -0.071168 1.440960 0.055625 -0.020822 184765.000000 1 0 0
-13.534811 11.782918 -7.012771 19.266738 -0.716312 1.943337 0.027369 -0.012598 65320.900000 1 0 0
-13.106011 4.881118 -13.514571 19.448302 -0.356519 2.339073 0.058041 -0.027886 -97046.600000 1 0 0
-13.859711 9.404818 -6.700571 18.039951 -0.596200 1.951345 0.018180 -0.009952 130449.000000 1 0 0
-6.573311 11.174818 -15.334571 20.080688 -1.039080 2.439740 0.009319 -0.027317 -109457.000000 1 0 0
-15.279811 13.649418 2.875029 20.689249 -0.729100 1.431383 0.050542 -0.031267 -35906.500000 1 0 0
-18.457311 8.817818 -5.167171 21.098006 -0.445683 1.818226 0.057967 -0.017144 224257.000000 1 0 0
-4.493611 16.271118 -11.534271 20.444589 -1.301342 2.170227 0.006489 0.002387 52154.800000 1 0 0
-19.699811 -2.337582 -6.344671 20.827906 0.118108 1.880339 0.061309 -0.013927 -78850.100000 1 0 0
-10.910611 14.007518 -6.420371 18.880496 -0.909047 1.917770 0.025320 -0.009294 159744.000000 1 0 0
-19.449211 3.149318 4.343529 20.175635 -0.160532 1.353812 0.066840 -0.020241 186766.000000 1 0 0
-15.038511 12.433018 0.642929 19.523066 -0.690838 1.537859 0.012129 -0.012061 131492.000000 1 0 0
-17.567011 2.820018 -8.228671 19.602637 -0.159171 2.003992 0.047317 -0.019685 3709.390000 1 0 0
-17.174011 13.665718 -3.234071 22.184627 -0.672126 1.717097 0.074310 0.023107 358201.000000 1 0 0
-11.037411 15.691718 -8.703471 21.066676 -0.957798 1.996695 0.063765 -0.018935 199188.000000 1 0 0
-19.241611 1.580318 -6.843971 20.483577 -0.081946 1.911468 0.069079 -0.025064 -10495.800000 1 0 0
-16.801911 10.112318 0.060329 19.610375 -0.541783 1.567720 0.016143 -0.018851 -69834.500000 1 0 0
-11.759011 6.356318 -14.423371 19.664962 -0.495558 2.394188 0.032312 -0.025241 277790.000000 1 0 0
-14.753111 12.157518 -5.200671 19.811776 -0.689243 1.836413 0.042671 -0.014980 218641.000000 1 0 0
-18.947711 7.212318 0.094629 20.274176 -0.363709 1.566129 0.058306 -0.014039 154508.000000 1 0 0
-14.518411 8.653818 -9.930471 19.603241 -0.537516 2.102002 0.030759 -0.018978 469654.000000 1 0 0
-18.225711 11.328018 5.204129 22.081292 -0.556108 1.332878 0.052631 -0.037142 -158986.000000 1 0 0
-8.324411 11.814118 -13.469871 19.756179 -0.956979 2.321024 -0.003224 -0.008013 514103.000000 1 0 0
-21.027911 -0.194582 -4.910071 21.594436 0.009253 1.800179 0.076680 -0.023296 140452.000000 1 0 0
-10.562711 13.414018 -2.936071 17.324181 -0.903762 1.741096 0.015480 -0.002271 462400.000000 1 0 0
-18.420611 -5.032282 4.097129 19.530213 0.266680 1.359442 0.036435 -0.007342 -7191.540000 1 0 0
-11.369711 11.460218 -12.852071 20.634501 -0.789363 2.243169 0.019078 -0.007422 322685.000000 1 0 0
-14.587711 10.845718 -10.590171 21.037647 -0.639317 2.098316 0.052111 -0.034037 160741.000000 1 0 0
-12.479211 9.522718 -14.118471 21.112652 -0.651824 2.303283 0.037351 -0.013779 349805.000000 1 0 0
-18.036111 -5.156182 -3.056471 19.006039 0.278454 1.732313 -0.002728 -0.006227 -351221.000000 1 0 0
-9.328411 12.463318 -11.559171 19.389893 -0.928276 2.209486 0.015669 -0.014389 -78706.200000 1 0 0
-15.335111 7.672818 -8.092371 18.961124 -0.463922 2.011734 0.017524 -0.007464 -7710.830000 1 0 0
-14.617111 8.605318 2.191729 17.103073 -0.532081 1.442295 0.020376 -0.011462 -3348.550000 1 0 0
-19.832711 6.107818 8.209729 22.316844 -0.298750 1.194077 0.070528 -0.032777 283123.000000 1 0 0
-19.016911 6.008018 3.691529 20.282173 -0.306007 1.387768 0.043184 -0.018336 190696.000000 1 0 0
-14.666811 12.556918 5.928229 20.197411 -0.708051 1.272895 0.036888 -0.022588 77123.000000 1 0 0
17.965289 6.173618 5.390029 19.746331 0.330999 1.294324 0.036401 -0.014480 185957.000000 1 0 0
18.331989 7.803418 0.437929 19.928546 0.402440 1.548820 0.041988 0.003210 -63807.400000 1 0 0
15.795089 5.062018 8.767129 18.760902 0.310139 1.084552 0.024452 -0.004538 -197641.000000 1 0 0
12.130089 13.017518 10.473929 20.646986 0.820672 1.038764 0.036093 -0.010212 116310.000000 1 0 0
15.733389 12.430318 3.715929 20.392657 0.668650 1.387554 0.045073 -0.008155 222333.000000 1 0 0
4.592389 10.010118 14.099129 17.890722 1.140669 0.663130 0.019837 -0.014239 366117.000000 1 0 0
12.295089 14.362518 -5.215371 19.612527 0.862798 1.839955 0.033879 0.020246 320046.000000 1 0 0
17.763089 9.211618 -3.155471 20.256807 0.478402 1.727207 0.033129 -0.001467 -73531.700000 1 0 0
14.464589 7.730418 9.497129 18.952023 0.490817 1.045910 0.042885 -0.008541 119709.000000 1 0 0
4.850489 19.109918 -2.363471 19.857044 1.322225 1.690103 0.026236 -0.015356 427542.000000 1 0 0
-4.743511 19.580418 3.815029 20.504831 -1.333118 1.383651 0.011931 0.011483 163821.000000 1 0 0
7.212589 12.799918 12.741029 19.447189 1.057657 0.856401 0.034326 0.002156 25232.700000 1 0 0
-0.193411 17.062918 -10.180871 19.870347 -1.559462 2.108733 0.020973 -0.000359 5808.580000 1 0 0
10.561889 9.213218 15.616729 20.983782 0.717303 0.731417 0.048459 -0.014512 250783.000000 1 0 0
-1.105511 12.345818 1.229429 12.456037 -1.481489 1.471934 0.001109 -0.001130 284730.000000 1 0 0
-4.942311 19.036818 -2.460671 19.821245 -1.316786 1.695261 0.016039 0.001074 316090.000000 1 0 0
5.812189 18.696418 6.241529 20.549800 1.269395 1.262194 0.034355 -0.010554 272668.000000 1 0 0
11.069889 17.373018 -1.703471 20.670414 1.003480 1.653301 0.028002 -0.010414 265193.000000 1 0 0
18.708789 10.181618 3.033029 21.514725 0.498391 1.429351 0.062357 -0.006136 258340.000000 1 0 0
11.722189 15.957418 7.115429 21.039920 0.937230 1.225807 0.044798 0.000177 -65983.200000 1 0 0
18.044389 7.213718 -5.692071 20.249380 0.380313 1.855735 0.047676 -0.004421 357343.000000 1 0 0
0.542489 15.854118 10.703329 19.136578 1.536592 0.977240 0.002709 -0.002721 361639.000000 1 0 0
1.270289 20.325118 -1.774971 20.441980 1.508379 1.657735 0.027743 -0.009202 351272.000000 1 0 0
13.892789 9.730018 -1.708671 17.047064 0.610971 1.671197 0.018825 -0.008684 -417278.000000 1 0 0
10.331389 17.148818 1.561129 20.081252 1.028574 1.492977 0.037893 -0.016262 333800.000000 1 0 0
0.333389 17.849718 -0.503971 17.859943 1.552121 1.599018 0.013479 -0.000728 106389.000000 1 0 0
-0.377811 21.122018 1.224429 21.160851 -1.552911 1.512901 0.027497 -0.004565 271664.000000 1 0 0
5.708289 18.268718 -0.021371 19.139777 1.267946 1.571913 0.009582 -0.003614 -119689.000000 1 0 0
7.468689 18.392018 -1.828371 19.934657 1.185057 1.662644 0.024620 -0.017916 100251.000000 1 0 0
10.420089 9.433418 12.805429 19.014380 0.735741 0.831917 0.035640 0.003985 72963.400000 1 0 0
13.626489 14.824418 8.121629 21.711873 0.827478 1.187409 0.056834 -0.009042 149087.000000 1 0 0
0.374489 17.800018 6.986129 19.125555 1.549761 1.196866 0.010310 -0.000857 276956.000000 1 0 0
6.916489 18.129218 -7.868771 20.938575 1.206330 1.956059 0.038757 -0.013232 84058.400000 1 0 0
-0.949411 18.478718 9.095229 20.617652 -1.519463 1.113930 0.030307 -0.018898 94596.300000 1 0 0
15.960489 7.042118 -8.006071 19.194421 0.415530 2.001053 0.065354 -0.003830 -398156.000000 1 0 0
-5.200811 19.721218 -6.571771 21.428090 -1.312950 1.882509 0.009197 -0.012164 291151.000000 1 0 0
3.646889 15.499318 9.567929 18.576165 1.339706 1.029713 0.017450 -0.008663 176340.000000 1 0 0
9.320489 14.950218 7.875329 19.297703 1.013323 1.150428 0.030478 0.005219 150387.000000 1 0 0
-2.603011 19.281718 6.539029 20.526062 -1.436609 1.246574 0.022957 -0.009093 142541.000000 1 0 0
5.150389 17.881318 8.457629 20.440145 1.290355 1.144199 0.036381 -0.010759 105456.000000 1 0 0
14.455689 12.028718 -6.414271 19.869571 0.694016 1.899503 0.033633 -0.017319 168887.000000 1 0 0
11.953889 6.384318 15.580029 20.649269 0.490537 0.715893 0.074695 -0.020248 354996.000000 1 0 0
17.176089 9.782618 4.887329 20.361818 0.517728 1.328406 0.043376 -0.005445 -15481.600000 1 0 0
5.327989 14.627318 11.941529 19.620041 1.221484 0.916452 0.013456 -0.024980 293800.000000 1 0 0
16.000889 10.950718 -4.065571 19.810995 0.600167 1.777483 0.055727 -0.007562 304260.000000 1 0 0
15.530989 13.200718 6.057829 21.264239 0.704471 1.281912 0.061661 -0.015595 375678.000000 1 0 0
12.965489 14.018818 -8.245071 20.799335 0.824413 1.978400 0.135716 -0.042449 401848.000000 1 0 0
-8.153511 15.627818 9.524329 20.035500 -1.089916 1.075409 0.027355 -0.023428 160652.000000 1 0 0
-3.835511 17.736318 -7.954571 19.813210 -1.357824 1.983927 -0.006635 0.039174 62822.700000 1 0 0
2.536289 19.170618 -4.616671 19.881121 1.439259 1.805149 0.030632 -0.033076 196955.000000 1 0 0
7.006789 15.625218 9.330029 19.501076 1.149250 1.071923 0.034771 -0.030245 411463.000000 1 0 0
13.604489 15.118918 -1.728171 20.412015 0.838074 1.655562 0.071195 -0.023739 143736.000000 1 0 0
12.665489 16.634418 4.041129 21.294347 0.920037 1.379864 0.043894 -0.020045 400833.000000 1 0 0
2.445589 18.467518 0.691429 18.641571 1.439136 1.533697 0.020345 -0.015588 -33629.700000 1 0 0
-7.159211 17.717318 1.450229 19.164050 -1.186778 1.495049 -0.008335 0.013643 405634.000000 1 0 0
0.023089 20.115718 -6.052771 21.006634 1.569649 1.863076 0.032846 0.000832 329873.000000 1 0 0
-7.149411 17.840218 -6.249871 20.210104 -1.189646 1.885195 0.037925 -0.027662 59837.600000 1 0 0
-8.334911 18.115618 -1.798671 20.022027 -1.139579 1.660752 0.053387 -0.018438 102416.000000 1 0 0
-14.656411 -9.023582 8.752429 19.309077 0.551865 1.100354 0.039139 -0.017793 500195.000000 1 0 0
-13.195111 -13.478282 7.853629 20.431704 0.796014 1.176255 0.033766 -0.010408 -165588.000000 1 0 0
-3.902511 -16.003782 12.596429 20.736940 1.331615 0.917963 0.036546 -0.010491 93813.500000 1 0 0
-2.163811 -14.966982 14.946929 21.262722 1.427219 0.791240 0.031215 -0.017826 272894.000000 1 0 0
-7.883411 -13.376982 13.390529 20.503612 1.038262 0.859150 0.026543 -0.017835 128710.000000 1 0 0
-9.805111 -11.017582 11.701229 18.826739 0.843561 0.900112 0.033546 -0.013641 25451.500000 1 0 0
-6.957611 -10.185482 12.986429 17.910884 0.971509 0.759678 0.011280 -0.016631 274735.000000 1 0 0
-15.465111 -12.001082 7.096729 20.822084 0.659941 1.223000 0.049467 -0.014233 255417.000000 1 0 0
-4.556511 -12.722282 13.362229 19.004406 1.226878 0.791032 0.019852 -0.011547 339441.000000 1 0 0
3.507089 -12.291982 14.039429 18.986787 -1.292866 0.738571 0.005019 -0.003096 439518.000000 1 0 0
6.424389 -13.625482 14.517729 20.921066 -1.130209 0.803865 0.025983 -0.005671 309120.000000 1 0 0
7.162489 -8.918982 16.851529 20.367217 -0.894192 0.596361 0.038997 -0.004736 543405.000000 1 0 0
-5.040311 13.438818 13.442629 19.664965 -1.211976 0.818136 0.010937 -0.011286 581086.000000 1 0 0
-13.521211 -2.233282 17.652729 22.347920 0.163691 0.660143 0.057056 -0.012514 283468.000000 1 0 0
-10.416711 9.537918 12.873629 19.110470 -0.741387 0.831670 0.042519 -0.016226 651864.000000 1 0 0
-7.448811 -8.170082 16.979829 20.262024 0.831545 0.577166 0.033704 -0.016882 247309.000000 1 0 0
-5.220611 2.175318 19.132529 19.950951 -0.394801 0.287421 0.024154 0.009079 239126.000000 1 0 0
-15.507511 -3.746282 14.658329 21.665275 0.237037 0.827686 0.076276 -0.014606 133933.000000 1 0 0
-14.430611 3.524518 13.193329 19.867780 -0.239549 0.844565 0.045403 0.004742 412217.000000 1 0 0
-14.478711 10.675418 9.223229 20.215478 -0.635335 1.097024 -0.005818 -0.013246 -157023.000000 1 0 0
-4.574111 11.212418 15.767629 19.881120 -1.183455 0.654922 0.018233 -0.006011 243494.000000 1 0 0
-12.693211 13.351818 7.533729 19.903410 -0.810680 1.182605 0.016162 -0.029352 96088.500000 1 0 0
-4.083511 -6.328082 18.554529 20.024741 0.997732 0.385581 0.037164 -0.018586 366976.000000 1 0 0
0.896689 -2.845682 18.261029 18.503166 -1.265540 0.161956 0.019465 -0.014169 78251.100000 1 0 0
-4.763411 6.269518 20.974129 22.403371 -0.921070 0.359127 0.047032 -0.018766 360700.000000 1 0 0
2.221089 -10.826782 16.493029 19.853777 -1.368456 0.590388 0.009711 -0.004668 348830.000000 1 0 0
-14.966011 -0.165482 13.945529 20.456946 0.011057 0.820711 0.043431 -0.007012 30485.600000 1 0 0
-13.690611 -6.069382 8.428729 17.184694 0.417289 1.058157 0.017821 -0.002872 -344351.000000 1 0 0
10.093189 1.634518 16.372729 19.303119 0.160549 0.558236 0.066075 -0.007093 486810.000000 1 0 0
-7.714011 12.396818 11.816729 18.783560 -1.014172 0.890402 0.018916 -0.017383 99198.500000 1 0 0
-1.829711 7.290318 20.427829 21.766782 -1.324897 0.352576 0.048578 -0.011242 449577.000000 1 0 0
1.175989 -13.359882 15.569329 20.549293 -1.482999 0.711080 -0.003589 -0.011837 564674.000000 1 0 0
-3.542511 -11.409882 17.791829 21.430912 1.269755 0.591339 0.045695 -0.016611 410435.000000 1 0 0
-2.043511 8.692818 16.629029 18.875000 -1.339908 0.492807 0.011887 -0.014156 468643.000000 1 0 0
-5.196511 -9.311282 20.447629 23.060990 1.061765 0.480690 0.097326 -0.023763 303754.000000 1 0 0
-6.530811 -2.471282 19.099129 20.335572 0.361751 0.350509 0.023491 -0.018344 273431.000000 1 0 0
-10.949111 -7.960582 15.792429 20.800354 0.628652 0.708654 0.074247 -0.025954 271458.000000 1 0 0
-0.251611 6.433018 17.744029 18.875847 -1.531704 0.348052 0.021419 -0.010822 170066.000000 1 0 0
-6.094911 -11.398782 18.741529 22.766754 1.079777 0.603777 0.075510 -0.022744 406778.000000 1 0 0
0.821689 3.522618 18.853029 19.196894 1.341633 0.189559 0.025225 -0.011176 177144.000000 1 0 0
-18.594511 0.082618 7.531729 20.062144 -0.004443 1.185946 0.071026 -0.024281 298024.000000 1 0 0
-1.675811 -8.656082 17.470329 19.569070 1.379563 0.467379 0.021345 -0.019191 318923.000000 1 0 0
5.674789 3.298118 15.107329 16.471558 0.526472 0.409860 0.018353 -0.005231 264209.000000 1 0 0
-14.835711 -7.068082 10.932829 19.737854 0.444609 0.983753 0.089107 0.006277 14076.400000 1 0 0
3.742189 8.291318 16.783729 19.090403 1.146830 0.496677 0.022529 -0.006520 174089.000000 1 0 0
6.367889 4.301718 17.088029 18.736476 0.594116 0.422615 0.048575 -0.043834 390611.000000 1 0 0
3.986689 -9.553582 17.617629 20.433930 -1.175468 0.531248 -0.017308 -0.014713 342521.000000 1 0 0
-4.485211 -0.445682 19.616129 20.127302 0.099042 0.225855 0.028049 -0.019982 791934.000000 1 0 0
-11.138311 1.754818 16.941329 20.350676 -0.156263 0.587245 0.040769 -0.019292 370521.000000 1 0 0
-16.597111 -4.566782 8.572229 19.230255 0.268511 1.108764 0.038118 -0.018649 315548.000000 1 0 0
-13.279811 -9.376882 12.012329 20.213247 0.614809 0.934426 0.054949 -0.034629 73822.600000 1 0 0
-14.939411 6.146418 12.628329 20.504613 -0.390315 0.907297 0.062473 -0.033412 393924.000000 1 0 0
1.253289 9.178218 16.891729 19.265018 1.435085 0.501612 0.020747 -0.021905 347969.000000 1 0 0
-3.836811 -10.534482 15.104929 18.811043 1.221515 0.638514 0.024200 -0.012672 624897.000000 1 0 0
-18.320411 -2.711882 6.767429 19.717755 0.146958 1.220459 0.088498 -0.019988 -233029.000000 1 0 0
-0.782211 -0.619182 20.804529 20.828435 0.669586 0.047915 0.042369 -0.025572 258893.000000 1 0 0
-1.920611 2.360718 20.108329 20.337321 -0.887835 0.150206 0.027143 -0.026750 -17501.700000 1 0 0
-8.054711 2.190518 16.387529 18.390972 -0.265533 0.471113 0.003839 0.005174 627327.000000 1 0 0
3.613989 -3.021982 18.616229 19.203054 -0.696422 0.247854 0.044252 -0.008162 126167.000000 1 0 0
-11.536911 3.813818 15.163229 19.431136 -0.319266 0.675559 -0.001380 -0.003451 140378.000000 1 0 0
-13.112011 -5.273982 13.219329 19.351754 0.382423 0.818787 0.017948 -0.014459 -23273.700000 1 0 0
-17.512611 -0.706482 9.806429 20.083742 0.040319 1.060682 0.076071 -0.022056 201354.000000 1 0 0
-7.182611 7.745718 14.842429 18.217677 -0.823101 0.618538 0.010580 -0.010144 -50819.300000 1 0 0
-9.648811 0.708218 14.029029 17.041561 -0.073268 0.603729 0.013533 -0.006327 210147.000000 1 0 0
7.914189 -0.779682 14.926629 16.912911 -0.098200 0.489521 0.043582 -0.015066 143554.000000 1 0 0
4.008389 6.596518 18.274229 19.837558 1.024769 0.399660 0.029929 -0.004631 259346.000000 1 0 0
1.556389 0.824418 20.042929 20.120165 0.487123 0.087649 0.027790 -0.008506 192686.000000 1 0 0
-6.929311 6.605718 17.163629 19.653016 -0.761495 0.508793 0.008335 -0.022191 396130.000000 1 0 0
7.530189 -3.143982 16.863329 18.733933 -0.395515 0.450685 0.033388 -0.005516 336049.000000 1 0 0
-16.309111 2.706818 9.340329 18.988305 -0.164470 1.056527 0.044025 -0.019974 262706.000000 1 0 0
4.337589 -6.099782 18.954629 20.378911 -0.952656 0.376084 0.043941 -0.021286 100655.000000 1 0 0
-4.037511 -4.011282 20.249929 21.034532 0.782140 0.273989 0.038742 -0.025522 63948.000000 1 0 0
-9.613011 5.976718 14.633429 18.500497 -0.556246 0.658396 0.029724 -0.009231 -165079.000000 1 0 0
6.526289 2.179918 19.894229 21.050531 0.322369 0.332987 0.071139 -0.016411 79729.100000 1 0 0
-6.964811 11.472518 14.061329 19.438319 -1.025182 0.762108 0.013124 -0.028440 283019.000000 1 0 0
-14.441411 5.085118 9.240029 17.882699 -0.338563 1.027802 0.027841 -0.021861 110406.000000 1 0 0
1.254989 -5.224782 20.299429 20.998576 -1.335063 0.258772 0.045932 -0.026114 247963.000000 1 0 0
-6.203211 -8.308382 13.519529 17.037803 0.929461 0.654254 0.012506 -0.006747 296480.000000 1 0 0
-12.730411 10.226918 6.413329 17.543774 -0.676778 1.196560 -0.004975 -0.022784 -13886.400000 1 0 0
-19.752611 2.808418 7.777729 21.413685 -0.141233 1.199082 0.064539 -0.031038 -86810.100000 1 0 0
-15.710711 9.213618 6.067929 19.197316 -0.530400 1.249199 0.016192 -0.023639 144988.000000 1 0 0
-12.114711 6.737018 14.055529 19.741113 -0.507516 0.778464 0.017950 -0.027055 224430.000000 1 0 0
-16.649711 8.769518 10.731829 21.663090 -0.484784 1.052505 0.042440 -0.027465 275056.000000 1 0 0
2.270089 11.149618 14.059529 18.086947 1.369939 0.680386 0.008184 -0.041849 384222.000000 1 0 0
1.480689 14.336518 12.711029 19.217139 1.467880 0.848056 0.018570 -0.029599 201929.000000 1 0 0
9.010589 4.804518 16.737729 19.606777 0.489860 0.547803 0.054800 -0.005640 88217.000000 1 0 0
-0.283411 13.363118 13.189929 18.778378 -1.549591 0.792033 0.005118 0.001314 36752.600000 1 0 0
3.930889 13.960718 14.839129 20.749778 1.296334 0.773963 0.025583 0.017167 142115.000000 1 0 0
-3.540011 -4.647482 -13.434971 14.650229 0.919846 2.731411 -0.003347 -0.007924 61093.400000 1 0 0
6.160889 -12.294982 16.833929 21.737165 -1.106277 0.684981 0.024062 0.006642 130288.000000 1 0 0
8.789789 -13.922982 7.431229 18.064689 -1.007669 1.146842 0.018393 -0.004924 241771.000000 1 0 0
-0.469311 15.256018 0.371829 15.267763 -1.540044 1.546440 0.005102 -0.000194 -270172.000000 1 0 0
-14.392311 7.448818 8.551729 18.323634 -0.477593 1.085235 0.031591 -0.018191 21872.700000 1 0 0
-16.048911 -9.780682 4.413429 19.305638 0.547324 1.340148 0.025930 -0.005497 280705.000000 1 0 0
9.082489 -10.304982 11.437929 17.874857 -0.848371 0.876442 0.021059 -0.007127 87851.900000 1 0 0
-26.480091 6.030218 31.234333 41.390123 -0.223908 0.715702 0.062986 -0.026090 -1138130.000000 0 0 1
-25.367791 5.337918 30.807173 40.262887 -0.207395 0.699521 0.063696 -0.026837 -973032.000000 0 0 1
-24.471711 5.282518 31.886450 40.540292 -0.212600 0.665615 0.054415 -0.015973 -70306.400000 0 0 1
-23.071311 4.816718 31.422483 39.279239 -0.205819 0.643540 0.055433 -0.020049 -198829.000000 0 0 1
-22.820911 3.457518 31.554213 39.094971 -0.150363 0.631544 0.049256 -0.020002 682051.000000 0 0 1
-21.579011 3.113318 30.905773 37.822127 -0.143287 0.614374 0.049766 -0.019041 667338.000000 0 0 1
-20.971611 1.781518 31.428703 37.825198 -0.084746 0.590085 0.041528 -0.016345 50571.800000 0 0 1
-21.775311 0.622218 31.220663 38.069425 -0.028567 0.609214 0.045629 -0.008457 291943.000000 0 0 1
-21.477911 -0.231782 32.284059 38.776473 0.010791 0.587068 0.040029 -0.006720 -110789.000000 0 0 1
-22.232811 -1.565382 32.290532 39.235529 0.070293 0.604138 0.054167 -0.026856 -65789.600000 0 0 1
-21.514911 -2.533582 31.484843 38.217872 0.117220 0.602670 0.071408 -0.034962 479820.000000 0 0 1
-21.784111 -3.933882 31.637453 38.612839 0.178659 0.610519 0.085477 -0.044579 -5847.200000 0 0 1
-23.197711 -4.492282 31.214263 39.149005 0.191284 0.647955 0.073528 -0.039140 1940670.000000 0 0 1
-24.339511 -4.172282 32.084549 40.487504 0.169770 0.655972 0.062880 -0.032755 1381610.000000 0 0 1
-24.222411 -4.576582 33.480433 41.576552 0.186739 0.634662 0.068949 -0.032934 -351307.000000 0 0 1
-25.469621 -4.086882 -33.489461 42.272310 0.159105 2.485254 0.077512 -0.026716 483933.000000 0 0 1
-25.560451 -4.559382 -32.154561 41.328445 0.176520 2.462312 0.078014 -0.030425 1288490.000000 0 0 1
-26.865271 -4.233182 -31.602891 41.694188 0.156286 2.430990 0.089988 -0.027351 933536.000000 0 0 1
-27.037101 -4.574882 -30.100331 40.718107 0.167620 2.402733 0.082354 -0.018598 -333755.000000 0 0 1
-27.216871 -5.940082 -30.037731 40.967156 0.214880 2.393834 0.074561 -0.022413 549068.000000 0 0 1
-27.247751 -6.478082 -28.743291 40.132060 0.233414 2.369164 0.056419 -0.014966 -114390.000000 0 0 1
-27.273931 -8.001182 -28.606151 40.326146 0.285357 2.359400 0.063004 -0.015293 -505658.000000 0 0 1
-28.607381 -8.422582 -28.617881 41.331649 0.286330 2.335601 0.082210 -0.015574 -511216.000000 0 0 1
-28.734131 -9.739182 -28.166651 41.398818 0.326789 2.319068 0.074680 -0.020512 -214951.000000 0 0 1
-30.137101 -10.131582 -27.701991 42.169824 0.324313 2.287516 0.097695 -0.019372 -127587.000000 0 0 1
-30.085011 -11.097782 -26.708011 41.732319 0.353395 2.265274 0.109064 -0.019686 -402452.000000 0 0 1
-31.385251 -11.426282 -26.261921 42.488615 0.349150 2.237111 0.107395 -0.018110 54310.900000 0 0 1
-31.395331 -12.198882 -24.960871 41.922841 0.370603 2.208560 0.110787 -0.022969 -82935.900000 0 0 1
-31.184961 -11.325482 -23.881371 40.878946 0.348360 2.194687 0.124936 -0.021309 72368.300000 0 0 1
-30.984001 -12.117882 -22.709271 40.281042 0.372812 2.169740 0.127420 -0.026158 -162232.000000 0 0 1
-30.397531 -11.390882 -21.449371 38.908066 0.358534 2.154698 0.139161 -0.028465 9763.630000 0 0 1
-30.356341 -12.054282 -20.185671 38.396282 0.377998 2.124357 0.147291 -0.028106 671134.000000 0 0 1
-29.441211 -13.181982 -20.167771 38.043245 0.420972 2.129547 0.131279 -0.023849 431514.000000 0 0 1
-28.791191 -13.488982 -18.779371 36.926279 0.438140 2.104312 0.133841 -0.031068 444557.000000 0 0 1
-28.135101 -12.322382 -18.201571 35.703252 0.412806 2.105750 0.122001 -0.037236 347870.000000 0 0 1
-27.779301 -12.610882 -16.888471 34.870393 0.426148 2.076383 0.133709 -0.033533 -36444.300000 0 0 1
-27.563551 -11.282482 -16.069771 33.842004 0.388520 2.065586 0.118489 -0.036489 -86651.200000 0 0 1
-26.307891 -10.653582 -16.217971 32.689853 0.384773 2.089916 0.103129 -0.039762 84768.500000 0 0 1
-26.215721 -9.461582 -15.483171 31.882819 0.346363 2.077877 0.106380 -0.044968 -94788.300000 0 0 1
-24.855511 -8.759582 -15.709471 30.680844 0.338829 2.108341 0.099944 -0.038098 1160620.000000 0 0 1
-23.782911 -9.430782 -14.979271 29.647007 0.377517 2.100473 0.094765 -0.045569 1040980.000000 0 0 1
-22.608611 -8.663182 -14.849871 28.402793 0.365923 2.120965 0.116869 -0.059068 181233.000000 0 0 1
-21.465311 -9.089082 -13.899971 27.140010 0.400541 2.108492 0.113099 -0.042655 515195.000000 0 0 1
-20.620811 -10.225082 -14.275971 27.084562 0.460332 2.125968 0.105995 -0.030517 560951.000000 0 0 1
-19.693811 -10.417682 -13.201271 25.896869 0.486564 2.105706 0.120749 -0.033170 105077.000000 0 0 1
-18.625511 -11.420482 -13.748971 25.814168 0.550042 2.132482 0.110663 -0.023157 664375.000000 0 0 1
-17.769611 -10.956282 -14.847471 25.617310 0.552517 2.189019 0.126421 -0.030337 599789.000000 0 0 1
-18.410911 -10.945382 -16.127671 26.811654 0.536369 2.216195 0.115424 -0.041524 -442947.000000 0 0 1
-17.650911 -10.663782 -17.452371 27.015850 0.543465 2.273135 0.116015 -0.035739 238148.000000 0 0 1
-18.537611 -10.925182 -18.563171 28.418197 0.532553 2.282618 0.092130 -0.028090 897195.000000 0 0 1
-17.967711 -10.525182 -19.843771 28.764445 0.529900 2.332108 0.090790 -0.036789 -44579.900000 0 0 1
-18.887811 -10.764682 -21.039871 30.253990 0.518014 2.339830 0.105660 -0.029133 -663233.000000 0 0 1
-20.086711 -10.074582 -20.984271 30.745939 0.464891 2.321981 0.093775 -0.037498 -448972.000000 0 0 1
-21.096111 -10.733482 -21.732571 32.133443 0.470655 2.313555 0.111872 -0.025092 -251389.000000 0 0 1
-22.135011 -9.767482 -22.234171 32.859105 0.415569 2.314002 0.092125 -0.021036 -408593.000000 0 0 1
-21.572011 -8.781782 -23.113971 32.813518 0.386605 2.352379 0.090800 -0.032046 1227260.000000 0 0 1
-22.634711 -8.150382 -23.860071 33.883061 0.345629 2.352076 0.083097 -0.031572 539099.000000 0 0 1
-22.006011 -7.291082 -24.994971 34.090658 0.319940 2.393799 0.073261 -0.034816 -216224.000000 0 0 1
-21.238611 -8.172582 -25.761661 34.373432 0.367333 2.418049 0.094769 -0.037580 118086.000000 0 0 1
-20.621711 -7.528382 -26.863151 34.692367 0.350037 2.456443 0.075119 -0.040053 -547263.000000 0 0 1
-19.481211 -8.304782 -27.496291 34.706382 0.402969 2.485291 0.102542 -0.038634 -520151.000000 0 0 1
-19.787511 -9.413082 -28.342751 35.825455 0.444026 2.483458 0.117317 -0.035388 543394.000000 0 0 1
-18.568811 -9.930782 -28.857001 35.723209 0.491106 2.511197 0.083307 -0.027314 257122.000000 0 0 1
-18.833211 -11.054382 -29.837961 36.975574 0.530778 2.509790 0.087640 -0.025927 -121598.000000 0 0 1
-19.525811 -10.724782 -31.041511 38.208031 0.502276 2.519111 0.092362 -0.017653 422108.000000 0 0 1
-19.662811 -11.875482 -31.831911 39.254601 0.543324 2.516500 0.083266 -0.020556 -83246.600000 0 0 1
-19.856011 -11.712382 -33.340861 40.534603 0.532935 2.536639 0.077400 -0.018546 -59460.300000 0 0 1
-18.904911 -10.886582 33.807123 40.234747 0.522480 0.573058 0.071361 -0.012835 -133858.000000 0 0 1
-19.154811 -10.714682 32.379639 39.117160 0.510011 0.595692 0.060362 -0.015782 29283.300000 0 0 1
-18.714111 -11.848682 31.383833 38.412943 0.564433 0.614587 0.056796 -0.012205 289694.000000 0 0 1
-17.298011 -12.005382 31.262793 37.692341 0.606710 0.592727 0.048848 -0.014111 484613.000000 0 0 1
-16.866211 -12.924982 30.366803 37.063013 0.653867 0.610557 0.069742 -0.012781 -192950.000000 0 0 1
-17.277311 -14.400482 30.624933 37.996919 0.694831 0.633459 0.062905 -0.002329 -92701.000000 0 0 1
-18.674711 -14.627982 30.362003 38.530169 0.664477 0.663233 0.061962 -0.008601 849932.000000 0 0 1
-19.125111 -15.948882 30.776343 39.589392 0.695087 0.680293 0.078851 -0.015360 192350.000000 0 0 1
-19.377411 -16.082482 32.268813 40.931731 0.692744 0.662663 0.050641 -0.020698 -253522.000000 0 0 1
-18.172611 -15.962482 33.025266 40.935471 0.720742 0.632141 0.062896 -0.014304 104029.000000 0 0 1
-18.286411 -15.540782 -33.388351 41.118009 0.704409 2.518389 0.058084 -0.017707 -859007.000000 0 0 1
-16.899911 -15.356882 -32.820481 39.982806 0.737599 2.533720 0.058158 -0.023017 -863221.000000 0 0 1
-16.399011 -14.164982 -33.353891 39.775071 0.712434 2.565436 0.055778 -0.016837 -672421.000000 0 0 1
-15.461311 -13.487782 -32.557761 38.483505 0.717331 2.579269 0.054807 -0.016025 -395348.000000 0 0 1
-15.922411 -12.978782 -31.151361 37.314598 0.683897 2.558621 0.062812 -0.022434 -242318.000000 0 0 1
-16.005511 -14.028982 -30.202691 36.948494 0.719684 2.527726 0.066389 -0.030087 -231967.000000 0 0 1
-16.128611 -13.507482 -28.871761 35.723420 0.697184 2.511890 0.057750 -0.020950 -151697.000000 0 0 1
-16.282511 -14.626782 -27.831731 35.407176 0.731882 2.475186 0.080799 -0.023698 825674.000000 0 0 1
-15.100611 -15.364082 -27.437601 34.884171 0.794046 2.475973 0.072763 -0.044494 348253.000000 0 0 1
-14.572211 -16.230182 -28.425081 35.829504 0.839172 2.487077 0.061461 -0.043621 30610.000000 0 0 1
-13.191611 -16.789682 -27.945991 35.169453 0.904837 2.489161 0.077696 -0.036960 53058.400000 0 0 1
-12.161711 -15.877482 -28.250701 34.613635 0.917151 2.525552 0.058709 -0.033314 -398119.000000 0 0 1
-10.975611 -16.432182 -27.705621 34.030605 0.981917 2.522040 0.093429 -0.042543 293841.000000 0 0 1
-9.650711 -15.683682 -27.962731 33.481762 1.019178 2.559225 0.070161 -0.045600 176604.000000 0 0 1
-9.574711 -14.306282 -27.574721 32.507076 0.980996 2.583503 0.063442 -0.034808 -759279.000000 0 0 1
-8.283811 -13.809182 -27.780931 32.110670 1.030467 2.616270 0.077941 -0.034841 -189794.000000 0 0 1
-8.212911 -12.296782 -27.760431 31.453208 0.981947 2.652149 0.051376 -0.039119 38295.200000 0 0 1
-8.849811 -11.680282 -28.907341 32.409605 0.922404 2.672408 0.079211 -0.041631 335069.000000 0 0 1
-8.383211 -10.349882 -29.171881 32.068628 0.889999 2.713286 0.054560 -0.028596 -18051.500000 0 0 1
-7.268711 -10.225382 -30.243021 32.741913 0.952826 2.748370 0.058763 -0.020479 -143215.000000 0 0 1
-6.007611 -10.791982 -29.863541 32.317013 1.062844 2.749421 0.063522 -0.027204 1204710.000000 0 0 1
-4.999711 -10.465682 -30.859471 32.967174 1.125128 2.782075 0.072370 -0.024148 789719.000000 0 0 1
-4.539111 -8.939082 -31.013251 32.593442 1.100942 2.828931 0.067384 -0.023104 -1277570.000000 0 0 1
-3.439611 -8.675882 -31.840741 33.180335 1.193348 2.856469 0.076635 -0.032639 -152243.000000 0 0 1
-3.430111 -7.293682 -32.227781 33.220375 1.131202 2.896525 0.070410 -0.032093 -53286.400000 0 0 1
-2.049311 -6.785882 -32.695041 33.454649 1.277509 2.928088 0.080847 -0.032538 156408.000000 0 0 1
-1.445411 -7.441082 -33.811481 34.650760 1.378938 2.921050 0.093658 -0.040008 337837.000000 0 0 1
-0.367611 -6.651782 33.447767 34.104757 1.515587 0.196601 0.105428 -0.039222 428317.000000 0 0 1
0.232689 -7.183082 32.129100 32.923090 -1.538414 0.220064 0.098431 -0.036543 -137666.000000 0 0 1
-0.550611 -6.916182 30.980753 31.748131 1.491352 0.220313 0.089850 -0.031117 88940.800000 0 0 1
-0.023311 -7.552382 29.855083 30.795535 1.567710 0.247771 0.072041 -0.031569 -51749.900000 0 0 1
-0.536111 -6.848582 28.581503 29.395456 1.492675 0.235875 0.057771 -0.027836 -418142.000000 0 0 1
0.231389 -5.757682 28.195633 28.778432 -1.530630 0.201594 0.081191 -0.026271 -222273.000000 0 0 1
-0.084511 -5.223982 26.957173 27.458811 1.554620 0.191440 0.085717 -0.020960 -489908.000000 0 0 1
-1.320011 -4.334682 26.750283 27.131339 1.275195 0.167797 0.053966 -0.011111 -620036.000000 0 0 1
-2.520011 -4.975082 27.007373 27.577166 1.101941 0.203634 0.025935 -0.003267 -755604.000000 0 0 1
-3.587611 -4.055382 26.775403 27.317381 0.846525 0.199529 0.022170 -0.007699 886377.000000 0 0 1
-5.022011 -4.602782 27.073593 27.917479 0.741869 0.246501 0.016427 -0.002990 532646.000000 0 0 1
-5.458711 -5.730982 26.393913 27.555042 0.809726 0.291334 0.015949 -0.000374 -531893.000000 0 0 1
-6.683111 -6.186582 26.911493 28.410671 0.746836 0.326309 0.015354 -0.004854 164823.000000 0 0 1
-6.867611 -7.737082 26.902203 28.822822 0.844862 0.367121 0.029703 -0.009047 175733.000000 0 0 1
-6.045511 -8.365782 27.865693 29.715844 0.945032 0.354735 0.029716 -0.012227 -78562.400000 0 0 1
-6.071011 -9.712682 27.681803 29.957897 1.012154 0.392323 0.033215 -0.017303 -132069.000000 0 0 1
-5.290811 -10.480782 28.736913 31.042707 1.103308 0.387856 0.029185 -0.022138 -264657.000000 0 0 1
-5.492711 -11.884382 28.610243 31.463541 1.137861 0.429163 0.055030 -0.029978 -117064.000000 0 0 1
-4.708011 -12.541782 29.550233 32.444999 1.211687 0.425629 0.067070 -0.032900 -245598.000000 0 0 1
-4.946211 -14.041982 29.512473 33.054929 1.232123 0.467204 0.100647 -0.047150 689353.000000 0 0 1
-6.310511 -14.469582 29.621283 33.565038 1.159543 0.489636 0.116883 -0.048627 357724.000000 0 0 1
-6.391311 -15.902382 29.554533 34.164383 1.188645 0.525509 0.100436 -0.046640 136319.000000 0 0 1
-6.703311 -16.626682 30.876423 35.703423 1.187564 0.526039 0.109828 -0.042933 -107745.000000 0 0 1
-8.007411 -16.417282 31.342493 36.276682 1.117002 0.527666 0.113136 -0.043270 -509258.000000 0 0 1
-8.083611 -16.774582 32.693563 37.624466 1.121736 0.517731 0.099411 -0.030945 -230285.000000 0 0 1
-9.474211 -16.922782 33.351335 38.580471 1.060423 0.526718 0.100630 -0.026848 623307.000000 0 0 1
-10.239611 -18.121382 33.069159 39.074332 1.056467 0.561769 0.100120 -0.029856 675889.000000 0 0 1
-10.872211 -18.184082 31.783090 38.197259 1.031924 0.587953 0.096295 -0.032948 -549614.000000 0 0 1
-11.400911 -19.576282 31.433703 38.746474 1.043431 0.624482 0.094077 -0.027481 598509.000000 0 0 1
-12.585411 -19.932082 32.180505 39.890668 1.007597 0.632220 0.088694 -0.017331 878467.000000 0 0 1
-12.932511 -21.297582 32.236886 40.743756 1.025078 0.658011 0.091328 -0.020630 -35953.600000 0 0 1
-12.181511 -22.012582 33.409761 41.822902 1.065355 0.645434 0.096613 -0.021330 766012.000000 0 0 1
-10.752211 -22.169882 33.247254 41.382286 1.119227 0.637783 0.081230 -0.020927 1069550.000000 0 0 1
-10.035311 -22.811882 -33.482991 41.739671 1.156360 2.501744 0.096409 -0.026119 -85638.800000 0 0 1
-10.365311 -24.284682 -33.248661 42.457731 1.167381 2.470432 0.092407 -0.019565 -268987.000000 0 0 1
-9.664311 -25.119582 33.608643 43.057325 1.203521 0.675242 0.094359 -0.015906 66918.100000 0 0 1
-10.024811 -26.445332 33.680404 43.979791 1.208456 0.698488 0.115211 -0.026506 -1388900.000000 0 0 1
-9.511511 -27.111292 32.401020 43.304932 1.233380 0.725442 0.101786 -0.027713 108742.000000 0 0 1
-8.109611 -27.155002 32.313815 42.980723 1.280586 0.719977 0.119212 -0.034987 -192231.000000 0 0 1
-7.394711 -27.934702 33.291398 44.083404 1.312018 0.714851 0.122800 -0.036055 -570497.000000 0 0 1
-5.861211 -27.741922 33.247159 43.696014 1.362582 0.706137 0.129802 -0.045837 444830.000000 0 0 1
-5.248611 -26.558622 33.810863 43.313771 1.375687 0.675166 0.131771 -0.029257 245379.000000 0 0 1
-5.644711 -25.305572 33.233321 42.150781 1.351327 0.662529 0.127427 -0.030291 -216042.000000 0 0 1
-5.052011 -24.151082 -33.737971 41.797706 1.364586 2.510143 0.124854 -0.025490 1108560.000000 0 0 1
-3.615311 -24.033082 -33.842601 41.665107 1.421485 2.518800 0.128794 -0.036657 833754.000000 0 0 1
-3.237011 -23.082182 -32.925311 40.340321 1.431466 2.525580 0.107954 -0.032887 -109915.000000 0 0 1
34.789879 -15.956382 2.412529 38.350517 -0.430024 1.507847 0.196358 -0.064829 136695.000000 0 0 1
35.773429 -15.866482 3.424629 39.283732 -0.417458 1.483509 0.192284 -0.058137 132357.000000 0 0 1
35.227909 -16.142282 4.683529 39.032222 -0.429672 1.450515 0.174334 -0.058660 699317.000000 0 0 1
36.265179 -16.335582 5.904129 40.210362 -0.423227 1.423433 0.145400 -0.038719 943041.000000 0 0 1
37.154409 -17.423082 5.762929 41.439417 -0.438490 1.431275 0.139227 -0.036137 -81736.600000 0 0 1
-36.621141 -17.398782 6.703629 41.094577 0.443532 1.406937 0.125123 -0.023943 1036570.000000 0 0 1
-35.346970 -18.308182 6.386829 40.316118 0.477909 1.411707 0.091814 -0.020219 1170500.000000 0 0 1
-35.676162 -19.692682 6.606429 41.282383 0.504365 1.410075 0.087351 -0.031693 73627.100000 0 0 1
-34.472420 -20.361282 6.866429 40.621145 0.533519 1.400945 0.074598 -0.026526 -112016.000000 0 0 1
-34.632500 -21.909282 7.008729 41.575822 0.564062 1.401410 0.096131 -0.025026 -284716.000000 0 0 1
-34.589806 -22.600082 5.789529 41.722141 0.578743 1.431583 0.109488 -0.028068 250389.000000 0 0 1
-34.761019 -23.985282 5.988129 42.655362 0.603986 1.429947 0.131888 -0.031421 -88382.000000 0 0 1
-33.935691 -24.821182 4.998429 42.340365 0.631502 1.452467 0.129141 -0.030268 -223772.000000 0 0 1
-34.393843 -24.712282 3.666029 42.509682 0.623040 1.484449 0.113792 -0.025947 -159043.000000 0 0 1
-33.643681 -25.395682 2.715529 42.239934 0.646593 1.506464 0.094552 -0.024889 -367332.000000 0 0 1
-34.071404 -25.073132 1.276629 42.322007 0.634416 1.540627 0.100046 -0.027104 125413.000000 0 0 1
-35.365443 -25.633822 1.038629 43.690802 0.627195 1.547022 0.083759 -0.018722 510005.000000 0 0 1
-36.001774 -25.110152 -0.114171 43.893741 0.609026 1.573397 0.075397 -0.018887 145262.000000 0 0 1
-36.868971 -23.831482 0.190529 43.900989 0.573828 1.566456 0.075308 -0.022342 -286781.000000 0 0 1
36.592069 -24.085882 0.553629 43.811138 -0.582137 1.558159 0.064364 -0.015766 -385853.000000 0 0 1
35.953069 -22.901282 0.793429 42.634745 -0.567166 1.552185 0.087361 -0.026001 -807697.000000 0 0 1
34.443149 -23.097082 0.833729 41.478921 -0.590711 1.550695 0.095960 -0.022468 -601010.000000 0 0 1
33.785919 -23.117182 -0.397771 40.939598 -0.600060 1.580513 0.088020 -0.026843 -1005500.000000 0 0 1
32.444139 -22.797482 -0.249871 39.653623 -0.612515 1.577098 0.096113 -0.024414 -533617.000000 0 0 1
31.816769 -22.599782 -1.669471 39.062055 -0.617612 1.613548 0.106289 -0.026136 -41906.500000 0 0 1
32.360869 -21.507282 -2.374771 38.928506 -0.586576 1.631838 0.133322 -0.035407 172566.000000 0 0 1
31.841759 -21.394182 -3.707171 38.540262 -0.591611 1.667135 0.124448 -0.051435 109662.000000 0 0 1
31.818289 -19.875982 -4.215371 37.752186 -0.558363 1.682689 0.136037 -0.053302 737009.000000 0 0 1
30.804309 -19.108782 -3.524571 36.420786 -0.555233 1.667722 0.146505 -0.056550 660910.000000 0 0 1
30.865779 -17.717482 -3.915871 35.804184 -0.521095 1.680385 0.150124 -0.053369 175472.000000 0 0 1
29.747439 -16.934482 -3.157571 34.375240 -0.517521 1.662782 0.152622 -0.041544 73880.600000 0 0 1
29.926009 -16.590282 -1.779771 34.263262 -0.506197 1.622764 0.152908 -0.041769 84047.500000 0 0 1
30.375119 -17.539982 -0.831371 35.085468 -0.523670 1.594494 0.137900 -0.032396 21847.000000 0 0 1
29.436239 -18.759982 -0.567171 34.910612 -0.567402 1.587043 0.130844 -0.038297 -372547.000000 0 0 1
28.301039 -18.472482 0.183929 33.796675 -0.578281 1.565354 0.122378 -0.016013 -91253.800000 0 0 1
27.684539 -19.707182 0.616829 33.988046 -0.618633 1.552647 0.108988 -0.012997 -409359.000000 0 0 1
26.423539 -19.639182 1.462929 32.955137 -0.639164 1.526390 0.103562 -0.006911 -1534720.000000 0 0 1
25.930039 -20.935882 1.766929 33.373645 -0.679236 1.517828 0.091061 -0.008136 176697.000000 0 0 1
24.856539 -20.939182 2.689629 32.611823 -0.700066 1.488228 0.059409 -0.003103 274357.000000 0 0 1
23.492939 -20.446782 2.133729 31.217654 -0.716183 1.502393 0.029667 -0.004474 -818293.000000 0 0 1
23.304039 -19.078082 1.795429 30.170765 -0.686016 1.511252 0.062281 -0.017292 141064.000000 0 0 1
23.096339 -18.242582 2.924229 29.576745 -0.668520 1.471765 0.098843 -0.030626 -609230.000000 0 0 1
22.923439 -16.740182 2.561229 28.500486 -0.630751 1.480809 0.082884 -0.012359 495883.000000 0 0 1
21.616339 -16.390182 2.122529 27.210464 -0.648748 1.492713 0.070327 -0.012773 220794.000000 0 0 1
21.727739 -15.229882 1.319129 26.566597 -0.611358 1.521122 0.083533 -0.027947 -373615.000000 0 0 1
20.393439 -14.706082 0.826829 25.156408 -0.624759 1.537923 0.065939 -0.015095 -897216.000000 0 0 1
19.407639 -14.486382 1.795529 24.284474 -0.641210 1.496791 0.056437 -0.019378 -256334.000000 0 1 0
18.521839 -13.472882 1.444429 22.949150 -0.628883 1.507814 0.075209 -0.022582 -638434.000000 0 1 0
18.833039 -12.076582 1.989929 22.460789 -0.570196 1.482084 0.088049 -0.024404 -470914.000000 0 1 0
19.937839 -11.576282 1.257829 23.089173 -0.526047 1.516292 0.100002 -0.025131 511248.000000 0 1 0
20.245339 -10.255382 1.672029 22.756149 -0.468878 1.497254 0.116636 -0.027121 -9715.440000 0 1 0
21.393339 -9.598582 0.861429 23.463798 -0.421749 1.534075 0.144875 -0.027866 -149179.000000 0 1 0
20.971039 -9.175482 -0.400271 22.893977 -0.412437 1.588281 0.163427 -0.025029 924504.000000 0 1 0
21.964339 -8.575082 -1.257971 23.612428 -0.372211 1.624097 0.165632 -0.023961 -184467.000000 0 1 0
21.317639 -8.079982 -2.551171 22.939842 -0.362297 1.682238 0.186528 -0.028115 -72600.400000 0 1 0
22.137339 -7.469882 -3.570071 23.634854 -0.325436 1.722428 0.193692 -0.033583 1281440.000000 0 1 0
23.140139 -8.301782 -4.232271 24.945897 -0.344458 1.741279 0.184909 -0.032321 -50713.800000 0 1 0
22.646439 -9.413982 -5.152371 25.060551 -0.393962 1.777870 0.155830 -0.035022 -222489.000000 0 0 1
21.911539 -8.933082 -6.273371 24.480006 -0.387117 1.829953 0.136384 -0.046299 920522.000000 0 1 0
20.521039 -8.651282 -6.045871 23.076185 -0.398971 1.835886 0.138459 -0.037841 296414.000000 0 1 0
19.707239 -8.782782 -7.370571 22.799953 -0.419241 1.899981 0.118944 -0.033709 -594310.000000 0 1 0
19.653539 -10.106282 -7.911871 23.473309 -0.474960 1.914587 0.115078 -0.029348 290332.000000 0 1 0
20.768039 -10.494482 -8.700271 24.842309 -0.467894 1.928602 0.098748 -0.023830 -117625.000000 0 1 0
20.734239 -11.951482 -9.142071 25.618823 -0.522895 1.935690 0.088307 -0.025909 117066.000000 0 0 1
19.776539 -12.177982 -10.191571 25.363022 -0.551941 1.984308 0.117605 -0.031025 395262.000000 0 0 1
19.841539 -13.474182 -10.710171 26.266862 -0.596554 1.990779 0.118156 -0.022746 157776.000000 0 0 1
18.746939 -13.780882 -11.776671 26.077776 -0.633897 2.039352 0.131121 -0.024043 325997.000000 0 0 1
18.850339 -15.103382 -12.259371 27.087629 -0.675488 2.040455 0.123529 -0.026409 36103.900000 0 0 1
17.818639 -15.304482 -13.188271 26.938106 -0.709640 2.082401 0.122147 -0.028473 -407294.000000 0 0 1
17.599339 -16.794182 -13.491871 27.817474 -0.761992 2.077176 0.095405 -0.031084 -315061.000000 0 0 1
16.885439 -17.516682 -12.507271 27.356609 -0.803745 2.045634 0.092535 -0.027330 290742.000000 0 0 1
16.675439 -18.893182 -12.878671 28.299872 -0.847669 2.043257 0.088959 -0.025930 -373849.000000 0 0 1
15.571939 -19.551082 -12.050871 27.748038 -0.898209 2.020053 0.083354 -0.030266 -383353.000000 0 0 1
14.270439 -19.070882 -12.253371 26.785987 -0.928394 2.045927 0.082430 -0.031832 137344.000000 0 0 1
13.318639 -19.991582 -11.643871 26.695116 -0.983108 2.022145 0.088851 -0.031202 299716.000000 0 0 1
11.847339 -19.664982 -11.894271 25.856231 -1.028571 2.048809 0.086144 -0.036634 -323816.000000 0 0 1
11.001339 -20.557082 -11.175171 25.855513 -1.079418 2.017745 0.091425 -0.042360 -635183.000000 0 0 1
9.702139 -20.375882 -11.651471 25.398127 -1.126404 2.047388 0.076356 -0.034069 115038.000000 0 0 1
8.529439 -20.945082 -10.773871 25.050431 -1.184074 2.015386 0.063789 -0.033773 503286.000000 0 0 1
8.406139 -22.337582 -10.651271 26.135806 -1.210867 1.990550 0.077367 -0.033063 -101758.000000 0 0 1
7.394639 -22.750282 -9.752771 25.833555 -1.256533 1.957917 0.081201 -0.038943 165916.000000 0 0 1
7.341639 -24.288982 -9.703071 27.166227 -1.277265 1.936037 0.086938 -0.036804 -613518.000000 0 0 1
8.515239 -24.802082 -9.193371 27.787959 -1.240078 1.907990 0.091500 -0.031316 -1065640.000000 0 0 1
8.693639 -26.107352 -9.605771 29.145223 -1.249350 1.906658 0.069328 -0.032138 -272548.000000 0 0 1
10.182839 -26.440612 -9.708071 29.950673 -1.203182 1.900894 0.056230 -0.029617 -421985.000000 0 0 1
10.714439 -26.660632 -8.446071 29.948700 -1.188668 1.856693 0.072693 -0.031298 -70539.600000 0 0 1
12.096739 -26.996792 -8.452171 30.766818 -1.149540 1.849092 0.102801 -0.024753 403721.000000 0 0 1
12.574639 -27.495782 -7.040071 31.043553 -1.141864 1.799567 0.087334 -0.021716 -30940.500000 0 0 1
12.140439 -28.772742 -6.551371 31.908955 -1.171518 1.777581 0.088357 -0.026819 -785597.000000 0 0 1
10.886839 -28.706052 -5.985771 31.279229 -1.208303 1.763350 0.086771 -0.020381 -931012.000000 0 0 1
10.636239 -29.705722 -4.878271 31.927372 -1.226965 1.724190 0.093456 -0.019021 100059.000000 0 0 1
10.766339 -31.149102 -5.027271 33.338478 -1.238012 1.722169 0.105438 -0.024239 -141752.000000 0 0 1
9.857639 -31.695152 -5.966171 33.724634 -1.269266 1.748641 0.102992 -0.029153 212656.000000 0 0 1
9.914639 -33.257192 -6.094971 35.234778 -1.281065 1.744652 0.101943 -0.025421 76835.700000 0 0 1
9.521139 33.737385 -4.973871 35.406251 1.295736 1.711743 0.087902 -0.024930 -8600.160000 0 0 1
9.991739 32.421773 -5.139371 34.313545 1.271852 1.721139 0.096835 -0.018107 81349.700000 0 0 1
9.380439 31.492705 -4.104371 33.115389 1.281303 1.695057 0.081735 -0.013611 1733600.000000 0 0 1
7.992239 31.080695 -4.275071 32.375326 1.319105 1.703230 0.081676 -0.017541 741532.000000 0 0 1
7.467239 30.284465 -3.273571 31.362793 1.329049 1.675364 0.057562 -0.012476 1115290.000000 0 0 1
6.007039 29.818235 -3.673371 30.638298 1.372002 1.690980 0.057776 -0.019420 860368.000000 0 0 1
6.005539 29.003375 -4.834471 30.010571 1.366618 1.732594 0.065136 -0.022294 -73801.300000 0 0 1
5.847939 29.751075 -6.026171 30.913421 1.376708 1.766990 0.051072 -0.019278 -404343.000000 0 0 1
6.117839 28.927775 -7.311871 30.458293 1.362381 1.813226 0.069024 -0.023104 -74299.500000 0 0 1
5.252739 27.868735 -7.711271 29.389137 1.384500 1.836289 0.076903 -0.027799 -12878.500000 0 0 1
5.457239 26.638275 -7.007971 28.080079 1.368728 1.823033 0.068729 -0.027341 -160257.000000 0 0 1
4.563639 25.490985 -7.553071 26.975285 1.393644 1.854590 0.063495 -0.035601 -100856.000000 0 0 1
3.198839 25.668355 -7.247671 26.863093 1.446814 1.843982 0.060995 -0.028435 -71708.300000 0 0 1
2.338839 26.325835 -8.181471 27.666880 1.482187 1.870999 0.076225 -0.033207 522113.000000 0 0 1
1.873839 25.517725 -9.412171 27.262695 1.497495 1.923291 0.083576 -0.036582 749165.000000 0 0 1
3.016239 25.291065 -10.286671 27.469097 1.452096 1.954634 0.072945 -0.033499 1278460.000000 0 0 1
2.586739 24.615365 -11.468671 27.278890 1.466094 2.004708 0.082049 -0.031830 -359114.000000 0 0 1
2.183039 23.079965 -11.429171 25.847174 1.476491 2.028827 0.094491 -0.031987 61201.100000 0 0 1
1.088939 22.814345 -10.567171 25.166351 1.523102 2.004124 0.116615 -0.033359 8210.770000 0 0 1
0.967839 21.401315 -10.440171 23.831705 1.525604 2.024257 0.070870 -0.030067 -180968.000000 0 1 0
-0.208061 20.909015 -9.566371 22.994470 -1.560846 1.999871 0.070259 -0.019215 -207468.000000 0 1 0
-1.501661 20.976815 -10.080871 23.321786 -1.499332 2.017784 0.081618 -0.025991 -560560.000000 0 1 0
-2.412061 20.293615 -9.241171 22.428733 -1.452493 1.995470 0.051396 -0.018536 1476720.000000 0 1 0
-3.928261 20.513915 -9.698371 23.028468 -1.381594 2.005506 0.048517 -0.018115 1437930.000000 0 1 0
-4.837161 19.715915 -8.947871 22.185126 -1.330206 1.985947 0.035361 -0.029369 -3286.630000 0 1 0
-5.723161 19.210815 -9.937571 22.373317 -1.281255 2.031045 0.041112 -0.023962 -194119.000000 0 1 0
-6.754261 18.134215 -9.409871 21.517794 -1.214255 2.023398 0.040783 -0.026523 416963.000000 0 1 0
-7.821461 18.647915 -8.633671 21.987730 -1.173655 1.974317 0.069782 -0.025421 -192208.000000 0 1 0
-8.963261 18.923415 -9.423271 22.961570 -1.128442 1.993681 0.075664 -0.028756 -352506.000000 0 1 0
-10.149861 19.175415 -8.463171 23.288226 -1.083972 1.942722 0.095754 -0.036834 -188033.000000 0 1 0
-10.464461 17.998615 -7.766471 22.221007 -1.044163 1.927845 0.082297 -0.030130 -153600.000000 0 1 0
-11.331961 18.343815 -6.677271 22.571992 -1.017425 1.871111 0.098607 -0.025510 216959.000000 0 1 0
-11.954261 17.122315 -6.009471 21.729974 -0.961301 1.851001 0.073347 -0.025072 352504.000000 0 1 0
-12.798961 17.451015 -4.866071 22.181748 -0.937990 1.791968 0.075410 -0.021884 537275.000000 0 1 0
-13.297361 16.265415 -4.248471 21.434389 -0.885461 1.770326 0.060613 -0.019648 -340827.000000 0 1 0
-14.411861 16.578015 -3.240571 22.204360 -0.855183 1.717262 0.043924 -0.020903 -1738010.000000 0 1 0
-15.586461 16.788415 -3.899071 23.237715 -0.822507 1.739384 0.093381 -0.039586 -1590280.000000 0 1 0
-16.488061 17.123515 -2.874971 23.944443 -0.804302 1.691155 0.087108 -0.033612 490018.000000 0 1 0
-17.996461 17.185215 -3.339471 25.106897 -0.762343 1.704202 0.109977 -0.048947 684351.000000 0 0 1
-18.092861 18.177615 -4.402671 26.022314 -0.787735 1.740802 0.096159 -0.049172 -1290290.000000 0 0 1
-19.360161 18.360815 -4.872771 27.123408 -0.758911 1.751429 0.089198 -0.050639 -1199660.000000 0 0 1
-19.514761 19.289515 -6.054771 28.099315 -0.779594 1.787977 0.082664 -0.029227 -118662.000000 0 0 1
-19.252361 20.637215 -5.686971 28.790444 -0.820101 1.769634 0.097531 -0.051480 175843.000000 0 0 1
-19.563161 21.492415 -6.798071 29.847193 -0.832355 1.800575 0.085133 -0.017534 -262534.000000 0 0 1
-19.797461 22.976705 -6.457071 31.009066 -0.859588 1.780563 0.101010 -0.024544 -235068.000000 0 0 1
-18.715761 23.826725 -6.161671 30.918582 -0.904963 1.771427 0.116051 -0.023664 -24761.300000 0 0 1
-18.025361 23.565565 -4.920271 30.074217 -0.917826 1.735139 0.121637 -0.039706 -175178.000000 0 0 1
-16.749961 24.411935 -4.860471 30.002132 -0.969434 1.733518 0.123538 -0.037015 -751323.000000 0 0 1
-16.345961 24.832415 -3.575471 29.943668 -0.988643 1.690488 0.113842 -0.041949 462923.000000 0 0 1
-15.084361 25.498165 -3.439771 29.824929 -1.036586 1.686386 0.132883 -0.042754 639428.000000 0 0 1
-14.721161 26.693005 -4.362371 30.793820 -1.066803 1.712938 0.137198 -0.040659 -713512.000000 0 0 1
-15.489861 27.822665 -4.207071 32.120646 -1.062797 1.702151 0.139790 -0.039572 -58989.200000 0 0 1
-15.073861 28.776225 -5.233871 32.904191 -1.088267 1.730539 0.106269 -0.037745 226452.000000 0 0 1
-15.654761 30.115185 -4.783271 34.276458 -1.091411 1.710803 0.096985 -0.030392 206667.000000 0 0 1
-17.024161 30.291725 -5.094171 35.119243 -1.058781 1.716363 0.110669 -0.035073 -1798.080000 0 0 1
-17.537361 31.449735 -4.460071 36.284116 -1.062113 1.694029 0.114443 -0.032235 89800.000000 0 0 1
13.347389 -8.558782 18.126673 24.082812 -0.570187 0.718672 0.132617 -0.024740 118200.000000 0 1 0
14.121389 -9.554482 18.754073 25.345947 -0.594846 0.737839 0.124288 -0.020746 39482.300000 0 0 1
14.423589 -10.579582 17.825673 25.253160 -0.632852 0.787133 0.121865 -0.028831 -67515.200000 0 0 1
14.893089 -11.871182 18.641373 26.650138 -0.672966 0.796120 0.144583 -0.038580 -1666560.000000 0 0 1
16.087589 -11.640282 19.264773 27.666553 -0.626361 0.800539 0.130320 -0.029039 -794130.000000 0 0 1
16.479489 -12.784582 19.995373 28.893495 -0.659802 0.806489 0.119235 -0.029485 62560.700000 0 0 1
17.045889 -14.059182 19.214273 29.281585 -0.689672 0.855038 0.102725 -0.029004 -290375.000000 0 0 1
16.126889 -14.463082 18.210773 28.299992 -0.731061 0.871747 0.119488 -0.040021 450465.000000 0 0 1
16.531389 -15.671982 17.642173 28.812222 -0.758718 0.911810 0.126896 -0.037663 -276559.000000 0 0 1
15.942689 -15.854182 16.214273 27.720517 -0.782615 0.946015 0.116578 -0.039156 558606.000000 0 0 1
14.537689 -16.126982 16.250373 27.120077 -0.837180 0.928294 0.170847 -0.046701 474535.000000 0 0 1
14.013589 -16.099082 14.972973 26.072036 -0.854544 0.959057 0.192434 -0.047654 8937.130000 0 0 1
13.245289 -17.363582 14.462973 26.193688 -0.919141 0.985850 0.130864 -0.028612 38247.800000 0 0 1
14.097389 -18.455782 14.250773 27.247694 -0.918492 1.020420 0.127474 -0.030850 468218.000000 0 0 1
13.361389 -19.511382 13.672073 27.315679 -0.970345 1.046596 0.105945 -0.025533 240906.000000 0 0 1
14.393089 -20.502482 13.087773 28.263096 -0.958718 1.089341 0.096616 -0.019922 -215561.000000 0 0 1
15.082489 -21.197382 14.032273 29.558674 -0.952377 1.076144 0.061201 -0.011689 -718281.000000 0 0 1
15.646189 -22.271482 13.388273 30.332623 -0.958380 1.113658 0.042086 -0.017367 -585905.000000 0 0 1
16.570989 -23.107882 14.290373 31.824309 -0.948676 1.105106 0.039753 -0.026802 -189136.000000 0 0 1
17.864189 -22.539182 14.326173 32.130721 -0.900594 1.108649 0.024780 -0.015768 40886.800000 0 0 1
18.657689 -23.175482 15.346573 33.477301 -0.892977 1.094583 0.034569 -0.029253 707284.000000 0 0 1
20.104989 -22.596082 15.495773 33.984004 -0.843670 1.097332 0.014926 -0.013297 140691.000000 0 0 1
20.920389 -23.137882 14.503473 34.400218 -0.835687 1.135576 0.010158 -0.014426 -1239280.000000 0 0 1
22.082289 -22.354482 14.513673 34.612095 -0.791523 1.138096 0.020499 -0.008367 -526850.000000 0 0 1
23.251989 -23.196182 13.979273 35.695069 -0.784197 1.168393 0.020458 -0.018487 -335976.000000 0 0 1
23.680089 -24.227682 14.820173 36.977895 -0.796828 1.158423 0.019341 -0.017054 37178.400000 0 0 1
24.869889 -24.837582 14.371873 37.973249 -0.784748 1.182650 0.026687 -0.025483 -114909.000000 0 0 1
25.306789 -26.000262 15.321373 39.385171 -0.798913 1.171236 0.032610 -0.019194 -257938.000000 0 0 1
25.975189 -25.569122 16.489473 40.004915 -0.777520 1.145944 0.022321 -0.012450 -20403.900000 0 0 1
26.606389 -26.673772 17.079273 41.365344 -0.786663 1.145173 0.056043 -0.010141 20553.100000 0 0 1
27.075589 -26.431612 18.499573 42.118308 -0.773363 1.116056 0.034980 -0.003516 -558718.000000 0 0 1
25.985389 -26.328602 19.343873 41.744714 -0.791959 1.088985 0.052502 -0.001028 -943367.000000 0 0 1
26.193889 -25.769352 20.592273 42.121504 -0.777228 1.059993 0.064134 -0.005457 -994491.000000 0 0 1
25.040889 -25.445902 21.510273 41.680114 -0.793420 1.028528 0.066102 -0.014074 -488588.000000 0 0 1
24.328989 -26.624522 21.934773 42.212548 -0.830419 1.024382 0.083607 -0.013662 243547.000000 0 0 1
23.386389 -26.335402 22.964933 42.045984 -0.844639 0.992992 0.095467 -0.016803 359083.000000 0 0 1
22.384789 -27.528752 23.149313 42.365100 -0.888093 0.992708 0.128692 -0.023733 138598.000000 0 0 1
22.869989 -28.654142 23.916603 43.773282 -0.897191 0.992767 0.119925 -0.015270 281019.000000 0 0 1
23.252589 -29.747762 23.093433 44.259676 -0.907340 1.021870 0.131557 -0.016698 201274.000000 0 0 1
24.527989 -30.494102 23.574603 45.686699 -0.893407 1.028615 0.117885 -0.005572 82062.900000 0 0 1
24.300189 -30.915742 24.909573 46.548568 -0.904642 1.006134 0.118542 -0.007027 70042.800000 0 0 1
25.466089 -31.397082 25.540533 47.818588 -0.889325 1.007338 0.103624 -0.002362 -897760.000000 0 0 1
25.290289 -31.908092 26.994233 48.850934 -0.900585 0.985335 0.099616 -0.019732 -32922.200000 0 0 1
24.664089 -33.127392 27.229483 49.469043 -0.930810 0.987911 0.083043 -0.015027 -1338390.000000 0 0 1
23.420589 -33.279452 26.695893 48.669463 -0.957555 0.990210 0.101092 -0.017860 -1889470.000000 0 0 1
22.719189 33.202189 27.246773 48.589439 0.970707 0.975499 0.114893 -0.031598 -145033.000000 0 0 1
22.352589 33.303575 28.579223 49.249755 0.979678 0.951710 0.094210 -0.013910 -63087.500000 0 0 1
21.828689 32.070178 28.968593 48.416602 0.973173 0.929394 0.096034 -0.031201 102224.000000 0 0 1
21.297189 32.127879 30.442713 49.117509 0.985414 0.902317 0.081562 -0.038468 17322.600000 0 0 1
22.371689 32.320996 31.313223 50.255917 0.965343 0.898128 0.071724 -0.029184 133510.000000 0 0 1
21.899989 32.486911 32.619928 50.981061 0.977653 0.876501 0.057679 -0.030343 229491.000000 0 0 1
23.096589 32.424050 33.609521 52.099629 0.951844 0.869641 0.024410 -0.015247 323100.000000 0 0 1
23.546389 31.084665 33.690523 51.533874 0.922517 0.858260 0.021857 -0.010521 -359500.000000 0 0 1
24.639989 30.952195 -33.238711 51.671843 0.898459 2.269552 0.010048 -0.004647 -528454.000000 0 0 1
24.992589 29.467675 -33.108621 50.883732 0.867386 2.279265 0.029163 -0.010157 -329241.000000 0 0 1
25.396889 28.859815 33.469202 50.971349 0.849137 0.854458 0.035384 -0.015758 287554.000000 0 0 1
24.897489 27.521245 33.431945 49.949963 0.835410 0.837518 0.054292 -0.027414 59659.100000 0 0 1
25.310989 26.674555 32.141668 48.839174 0.811622 0.852487 0.107005 -0.038270 1220760.000000 0 0 1
26.683489 26.204015 32.221504 49.364809 0.776332 0.859624 0.097201 -0.044657 1516210.000000 0 0 1
27.159289 25.548945 31.009603 48.497124 0.754856 0.877064 0.137759 -0.065893 394712.000000 0 0 1
28.530589 24.865035 31.287253 49.103530 0.716857 0.879977 0.113803 -0.048666 274431.000000 0 0 1
28.430189 23.827215 32.297239 49.184586 0.697542 0.854423 0.138936 -0.055910 -526963.000000 0 0 1
29.596589 23.801185 33.010534 50.320472 0.677289 0.855282 0.136240 -0.053756 -1269920.000000 0 0 1
29.235489 23.084285 -33.428921 50.050882 0.668366 2.302178 0.138746 -0.058600 229605.000000 0 0 1
28.396589 23.799785 -32.505191 49.288776 0.697557 2.290929 0.131178 -0.056039 1463570.000000 0 0 1
27.025489 24.083215 -32.830921 48.869701 0.727893 2.307440 0.123011 -0.053440 765516.000000 0 0 1
26.021289 22.901865 -33.008361 47.866009 0.721723 2.331732 0.113592 -0.055730 -366387.000000 0 0 1
25.899289 22.144615 -31.862061 46.651346 0.707406 2.322635 0.097931 -0.060468 46229.900000 0 0 1
25.500789 20.826015 -32.112331 45.991466 0.684830 2.343710 0.104958 -0.049998 -156343.000000 0 0 1
25.431489 19.911415 -30.935011 44.723595 0.664254 2.334627 0.099941 -0.054278 5259.920000 0 0 1
24.316289 20.135815 -30.081781 43.607872 0.691629 2.332043 0.081889 -0.040328 516824.000000 0 0 1
24.314089 19.141215 -29.076701 42.461931 0.666917 2.325086 0.086304 -0.033736 626287.000000 0 0 1
23.039889 19.352515 -28.154031 41.206866 0.698635 2.322982 0.078125 -0.028884 687194.000000 0 0 1
22.850989 18.593415 -26.977641 39.945912 0.683028 2.312241 0.080968 -0.024032 612213.000000 0 0 1
23.691089 19.063115 -25.881241 39.931300 0.677572 2.275941 0.068659 -0.013428 433890.000000 0 0 1
23.659289 18.087315 -24.691871 38.685933 0.652711 2.263038 0.104700 -0.007227 -200488.000000 0 0 1
24.574189 17.029315 -24.791271 38.839354 0.605996 2.263088 0.101401 -0.027157 70543.000000 0 0 1
24.637189 16.266015 -23.625171 37.811678 0.583528 2.245686 0.111332 -0.017899 270268.000000 0 0 1
25.790489 15.226415 -23.732471 38.212867 0.533322 2.240890 0.110764 -0.017991 -73168.200000 0 0 1
27.119189 15.697515 -23.667771 39.268636 0.524711 2.217695 0.124544 -0.023158 485130.000000 0 0 1
28.050289 14.622615 -23.395871 39.344712 0.480542 2.207612 0.110768 -0.030572 446648.000000 0 0 1
28.103789 14.053715 -21.945771 38.326841 0.463699 2.180464 0.092132 -0.021220 -377231.000000 0 0 1
27.008789 13.154915 -21.805971 37.121784 0.453243 2.198660 0.087761 -0.012195 326566.000000 0 0 1
26.845989 12.837915 -20.423571 36.092124 0.446061 2.172288 0.066711 -0.021266 610377.000000 0 0 1
25.384789 12.326115 -20.184271 34.694746 0.452038 2.191696 0.085383 -0.004452 989410.000000 0 0 1
24.325789 13.272715 -20.364171 34.389074 0.499477 2.204545 0.106892 -0.013329 293192.000000 0 0 1
23.141389 12.557315 -20.715871 33.501602 0.497171 2.237444 0.118267 -0.020319 802733.000000 0 0 1
21.947389 13.594215 -20.736971 33.113631 0.554562 2.247513 0.122437 -0.026216 76681.900000 0 0 1
22.104789 14.688215 -21.664471 34.259519 0.586488 2.255397 0.119171 -0.018796 775270.000000 0 0 1
21.141089 15.767115 -21.472671 34.009163 0.640810 2.254126 0.099463 -0.015111 298523.000000 0 0 1
19.846289 15.626315 -22.269271 33.674580 0.666990 2.293358 0.101301 -0.007396 -11070.600000 0 0 1
18.876689 14.772615 -21.622471 32.281431 0.664032 2.304751 0.092002 -0.008357 1039430.000000 0 0 1
17.649489 14.830815 -22.360671 32.116306 0.698834 2.340943 0.088014 -0.017996 409430.000000 0 0 1
16.652989 13.710115 -22.008871 30.816873 0.688777 2.366252 0.081573 -0.012976 1099510.000000 0 0 1
15.414889 13.870715 -22.751571 30.783916 0.732719 2.402490 0.083850 -0.015140 779533.000000 0 0 1
14.365089 13.069015 -22.259171 29.540237 0.738190 2.424197 0.099778 -0.015382 122992.000000 0 0 1
13.025089 13.324115 -22.973471 29.579813 0.796746 2.460143 0.083626 -0.017641 -73748.200000 0 0 1
12.431689 14.614015 -22.830071 29.821611 0.865914 2.442699 0.083171 -0.016377 235728.000000 0 0 1
11.861589 15.051115 -24.052271 30.752969 0.903362 2.468845 0.080712 -0.016677 -512277.000000 0 0 1
11.426889 16.530815 -24.138971 31.409100 0.965969 2.447343 0.082130 -0.022933 -59404.400000 0 0 1
12.382989 17.584115 -24.096671 32.298437 0.957247 2.412926 0.076620 -0.020023 382211.000000 0 0 1
13.508389 17.551615 -24.990271 33.392355 0.914845 2.416417 0.083316 -0.029067 441741.000000 0 0 1
13.198889 17.641515 -26.535001 34.489708 0.928466 2.448635 0.112064 -0.039714 -429131.000000 0 0 1
14.380389 17.658615 -27.296071 35.548527 0.887363 2.446281 0.094413 -0.038965 96654.800000 0 0 1
14.129789 17.028415 -28.550321 36.121167 0.878160 2.482265 0.105652 -0.042598 455405.000000 0 0 1
15.201389 17.270615 -29.686781 37.558772 0.849035 2.482272 0.095572 -0.041323 1543000.000000 0 0 1
16.372089 16.397215 -29.716601 37.682759 0.786165 2.479324 0.073601 -0.036696 845218.000000 0 0 1
17.396689 17.075115 -30.401901 38.967678 0.776070 2.465754 0.074644 -0.036065 73805.100000 0 0 1
18.676989 16.175315 -30.403381 39.176987 0.713742 2.459178 0.083714 -0.033792 267196.000000 0 0 1
19.850389 16.789315 -30.876421 40.364247 0.702046 2.441752 0.087180 -0.035173 457413.000000 0 0 1
21.030889 16.025815 -30.613521 40.451362 0.651145 2.429197 0.101476 -0.030091 913461.000000 0 0 1
22.318389 16.687915 -31.199491 41.833064 0.642041 2.412545 0.114495 -0.036187 255630.000000 0 0 1
22.253889 16.949115 -32.576521 42.938768 0.650900 2.432071 0.119244 -0.041633 -379569.000000 0 0 1
23.491889 17.312015 -33.111951 44.135881 0.635087 2.419202 0.130099 -0.046040 -316810.000000 0 0 1
23.381689 18.151215 33.366419 44.603676 0.660122 0.725656 0.109545 -0.043365 -644519.000000 0 0 1
24.502489 18.915815 33.129764 45.340504 0.657430 0.751467 0.119401 -0.045297 -648304.000000 0 0 1
24.383589 19.625615 31.911459 44.699725 0.677703 0.775734 0.136173 -0.044595 15369.700000 0 0 1
25.548289 20.624415 31.646223 45.602248 0.679159 0.803819 0.151714 -0.045961 -61359.500000 0 0 1
26.801289 20.033415 31.526873 45.973803 0.641886 0.815153 0.125218 -0.045841 -33383.800000 0 0 1
27.816889 20.938515 31.040103 46.644279 0.645244 0.842681 0.121441 -0.056041 1135220.000000 0 0 1
29.244289 20.297615 30.986543 47.195206 0.606736 0.854546 0.135136 -0.052971 473325.000000 0 0 1
29.631089 19.969215 32.280188 48.153728 0.593013 0.836107 0.115203 -0.045960 297100.000000 0 0 1
31.053689 19.852015 32.350029 49.040376 0.568803 0.850429 0.103052 -0.033326 647557.000000 0 0 1
31.452389 19.300115 33.771103 50.022341 0.550381 0.829668 0.093066 -0.025750 -44090.300000 0 0 1
31.183689 20.181215 -32.949871 49.652773 0.574385 2.296425 0.084865 -0.038413 -126173.000000 0 0 1
30.655489 19.533115 -31.835641 48.319868 0.567311 2.290088 0.101626 -0.046925 -493471.000000 0 0 1
31.317989 19.872515 -30.527191 48.037930 0.565430 2.259428 0.099830 -0.036566 -101740.000000 0 0 1
32.681789 19.494815 -30.469141 48.749520 0.537845 2.245946 0.091010 -0.039788 -70530.500000 0 0 1
33.140589 19.789115 -29.173921 48.384144 0.538304 2.218008 0.105015 -0.039292 65837.100000 0 0 1
34.610689 19.336515 -28.945891 49.088341 0.509488 2.201446 0.076067 -0.023201 644171.000000 0 0 1
35.488989 20.110015 -29.783461 50.506788 0.515540 2.201474 0.086983 -0.027503 -272036.000000 0 0 1
36.791889 20.139215 -29.284201 51.154623 0.500831 2.180305 0.037706 -0.002907 243360.000000 0 0 1
-36.940461 20.934215 -30.113781 52.054575 -0.515575 2.187690 0.032836 -0.005980 680514.000000 0 0 1
-36.424161 20.193615 -31.246191 52.065593 -0.506216 2.214462 0.033660 -0.009198 356086.000000 0 0 1
-35.351761 20.941715 -31.815511 51.966616 -0.534799 2.229674 0.032561 0.000248 152465.000000 0 0 1
-34.580761 20.283515 -32.991851 51.920249 -0.530475 2.259366 0.037834 0.006013 17168.700000 0 0 1
-33.700661 19.348515 -32.388371 50.587608 -0.521179 2.265611 0.032461 0.005239 -287206.000000 0 0 1
-32.818161 18.766915 -33.274141 50.362657 -0.519460 2.292535 0.022289 0.004772 -511181.000000 0 0 1
-32.186161 17.477915 -32.791111 49.159774 -0.497473 2.301013 0.011216 0.003516 -551283.000000 0 0 1
-33.094861 16.454115 -32.531051 49.236947 -0.461389 2.292553 0.023975 0.005035 -70654.900000 0 0 1
-32.496461 15.165715 -32.272541 48.244541 -0.436645 2.303574 0.020739 0.011355 -72625.200000 0 0 1
-33.445761 14.070815 -32.788641 48.905027 -0.398228 2.305619 0.033112 0.006230 -330556.000000 0 0 1
-32.990861 12.723315 -32.773761 48.212022 -0.368085 2.318264 0.051979 -0.001224 77039.100000 0 0 1
-34.036261 11.838115 -33.144931 48.961152 -0.334722 2.314426 0.059612 -0.004246 -271267.000000 0 0 1
-33.634261 10.358815 -33.340021 48.478093 -0.298765 2.329159 0.058635 -0.001779 20322.800000 0 0 1
-32.866161 10.100815 33.268669 47.843655 -0.298170 0.801873 0.045681 -0.002961 39408.600000 0 0 1
-33.165361 8.767815 32.831553 47.483961 -0.258454 0.807338 0.073066 -0.017576 -18688.500000 0 0 1
-32.123061 8.015615 31.968554 46.023142 -0.244535 0.802906 0.085736 -0.009059 1225730.000000 0 0 1
-30.865761 7.723915 32.640263 45.582242 -0.245207 0.772635 0.055091 0.003206 825237.000000 0 0 1
-29.989961 7.019115 31.792859 44.265693 -0.229910 0.769544 0.060242 -0.006007 -252781.000000 0 0 1
21.802889 -4.222282 -31.404961 38.463817 -0.191289 2.526085 0.074690 -0.044242 -135764.000000 0 0 1
22.885789 -4.071782 -32.293761 39.789769 -0.176075 2.517698 0.062547 -0.044852 31947.300000 0 0 1
23.885689 -3.176682 -31.838571 39.928837 -0.132219 2.493742 0.071786 -0.036507 161081.000000 0 0 1
23.582889 -1.711082 -32.291591 40.022835 -0.072429 2.509561 0.070773 -0.030133 -424476.000000 0 0 1
24.388689 -0.781882 -31.624971 39.944440 -0.032048 2.484422 0.071972 -0.025091 146421.000000 0 0 1
24.049089 0.552718 -31.980401 40.017624 0.022979 2.496689 0.077952 -0.033265 -107925.000000 0 0 1
25.082689 1.513118 -31.341451 40.171101 0.060252 2.465780 0.071675 -0.023859 -310848.000000 0 0 1
26.297789 1.657518 -31.996871 41.450221 0.062946 2.452676 0.071633 -0.027614 -683821.000000 0 0 1
27.080689 2.616418 -31.288661 41.463112 0.096317 2.425863 0.077959 -0.023293 2518.100000 0 0 1
28.603989 2.389018 -31.347821 42.503899 0.083327 2.400199 0.075639 -0.029546 22667.900000 0 0 1
29.229189 2.787518 -32.560201 43.843841 0.095080 2.407801 0.093542 -0.033154 179646.000000 0 0 1
29.441189 1.749118 -33.470901 44.611033 0.059341 2.419286 0.071447 -0.023365 -470717.000000 0 0 1
30.132789 2.247718 33.031876 44.767645 0.074456 0.740915 0.063748 -0.028392 -381337.000000 0 0 1
29.527089 3.213318 32.211731 43.815180 0.108400 0.744875 0.057434 -0.017634 34333.200000 0 0 1
29.878689 4.559018 32.546348 44.416050 0.151416 0.748426 0.071430 -0.019546 161523.000000 0 0 1
29.086189 5.512418 31.589433 43.293018 0.187299 0.752963 0.080731 -0.017667 359815.000000 0 0 1
29.475089 6.879318 31.918499 43.987458 0.229290 0.758851 0.096669 -0.029814 563464.000000 0 0 1
28.812989 7.819518 31.050103 43.074843 0.265006 0.765782 0.086486 -0.029643 168845.000000 0 0 1
29.323189 9.264018 31.269563 43.857235 0.306005 0.777050 0.062633 -0.024194 -1002170.000000 0 0 1
30.670989 9.371118 31.036833 44.629726 0.296529 0.801779 0.045390 -0.013581 -1244120.000000 0 0 1
31.064789 10.721918 31.273553 45.365359 0.332345 0.810176 0.045867 -0.004312 -8207.920000 0 0 1
32.483189 11.043418 30.763413 46.081474 0.327715 0.839833 0.040577 0.001606 -956665.000000 0 0 1
33.511389 10.415918 31.530163 47.176856 0.301351 0.838822 0.042940 -0.016471 499442.000000 0 0 1
34.784989 10.860918 31.075023 47.891670 0.302639 0.864710 0.060610 -0.022750 260020.000000 0 0 1
35.175189 12.339818 31.270753 48.656192 0.337396 0.872795 0.063492 -0.016231 -1400180.000000 0 0 1
35.270889 12.731718 32.648361 49.719692 0.346414 0.854430 0.069590 -0.010953 271100.000000 0 0 1
35.709389 14.098418 32.872306 50.542204 0.376024 0.862694 0.091227 0.005492 -396451.000000 0 0 1
34.721789 15.186218 32.559948 49.963728 0.412300 0.861010 0.088365 -0.007376 -1014340.000000 0 0 1
34.363289 15.306218 31.164623 48.850278 0.419042 0.878947 0.081677 -0.018552 310436.000000 0 0 1
33.352989 16.221118 30.785473 48.200538 0.452665 0.877994 0.084405 -0.015423 671721.000000 0 0 1
31.882489 15.848418 31.159293 47.313497 0.461316 0.851878 0.084085 -0.015081 -99793.600000 0 0 1
31.330889 14.924818 30.304663 46.073283 0.444558 0.852970 0.074289 -0.003851 -234882.000000 0 0 1
30.050389 14.508818 30.726973 45.361642 0.449806 0.826604 0.068046 -0.014193 19804.300000 0 0 1
29.150289 13.998718 29.568853 43.818039 0.447703 0.830089 0.069695 -0.005657 -132999.000000 0 0 1
29.530189 12.748918 28.967963 43.286370 0.407553 0.837642 0.060590 0.000764 -197759.000000 0 0 1
28.841389 12.488218 27.796913 41.957713 0.408624 0.846647 0.079603 -0.005246 -595407.000000 0 0 1
28.443689 11.019518 27.546113 41.100627 0.369611 0.836303 0.067051 -0.001395 509202.000000 0 0 1
29.485689 10.142118 27.084473 41.301781 0.331291 0.855594 0.061846 0.000091 48782.100000 0 0 1
28.972589 8.862018 26.984533 40.572297 0.296839 0.843172 0.077238 -0.007388 -66126.700000 0 0 1
30.000889 7.724618 26.773733 40.945767 0.252006 0.858091 0.053599 -0.010956 -4373.330000 0 0 1
30.470489 7.833118 25.426113 40.451152 0.251624 0.891092 0.064870 -0.011049 -85656.600000 0 0 1
31.413089 6.879518 25.030123 40.750669 0.215598 0.909391 0.062263 -0.006176 4258.050000 0 0 1
32.071789 7.073618 23.623003 40.455927 0.217080 0.947248 0.076644 -0.005932 372902.000000 0 0 1
32.812589 8.325518 23.426373 41.167648 0.248486 0.965448 0.088048 -0.016099 322069.000000 0 0 1
32.074589 9.482918 23.140913 40.671942 0.287463 0.965550 0.098137 -0.018071 4405.000000 0 0 1
31.424589 9.615518 21.704273 39.383226 0.296940 0.987109 0.119075 -0.013704 -286342.000000 0 0 1
32.341289 9.926818 20.714673 39.668607 0.297811 1.021376 0.131465 -0.023131 -344267.000000 0 0 1
31.874889 9.784918 19.380973 38.566505 0.297847 1.044269 0.155560 -0.029054 -685509.000000 0 0 1
32.734189 10.618218 18.415573 39.030847 0.313668 1.079441 0.181502 -0.054358 653994.000000 0 0 1
34.052089 10.197718 18.093073 39.886057 0.290974 1.099974 0.159996 -0.041453 641753.000000 0 0 1
35.029889 10.419918 19.113073 41.242907 0.289123 1.088938 0.138397 -0.026145 25779.100000 0 0 1
36.482489 10.165118 18.630673 42.206677 0.271738 1.113621 0.164606 -0.024078 98873.600000 0 0 1
36.827589 8.780718 18.606973 42.185208 0.234058 1.113997 0.132942 -0.010086 797428.000000 0 0 1
-36.920061 8.535318 17.645473 41.800781 -0.227192 1.135000 0.143987 -0.011920 547764.000000 0 0 1
-36.676161 7.021318 17.429373 41.209498 -0.189152 1.134103 0.141030 -0.015952 -162645.000000 0 0 1
36.936289 6.409018 16.993873 41.160135 0.171805 1.145191 0.120554 -0.020682 104210.000000 0 0 1
37.118289 5.111518 16.408273 40.903868 0.136848 1.158033 0.127476 -0.018765 -391466.000000 0 0 1
35.837989 4.300218 16.168173 39.550767 0.119420 1.149663 0.101359 -0.012847 -325454.000000 0 0 1
35.457989 3.423718 17.180273 39.549369 0.096259 1.121424 0.093040 -0.007982 -139710.000000 0 0 1
34.278089 2.702318 16.911573 38.318288 0.078672 1.113700 0.076821 -0.001015 70881.900000 0 0 1
33.889889 1.773118 18.152073 38.485923 0.052272 1.079630 0.068296 -0.003761 -479146.000000 0 0 1
34.591389 0.569418 18.252373 39.115695 0.016460 1.085325 0.077842 -0.005168 -203243.000000 0 0 1
34.277589 -0.159882 19.400173 39.387122 -0.004664 1.055778 0.070951 -0.001152 27594.200000 0 0 1
35.019189 -1.541082 19.539673 40.131252 -0.043978 1.062266 0.068125 -0.005342 303959.000000 0 0 1
34.517289 -2.316782 20.605173 40.266411 -0.067019 1.033609 0.064143 -0.001886 487320.000000 0 0 1
35.240589 -3.575782 20.654773 41.003719 -0.101122 1.042886 0.076299 -0.008220 430396.000000 0 0 1
34.679289 -4.507082 21.777673 41.197499 -0.129240 1.013827 0.059995 -0.004721 228364.000000 0 0 1
35.266689 -4.235982 23.061953 42.350166 -0.119540 0.994939 0.061862 -0.008275 505969.000000 0 0 1
34.586989 -4.882482 24.116523 42.446497 -0.140239 0.966525 0.053589 -0.010303 145631.000000 0 0 1
35.005189 -4.195482 25.443693 43.478119 -0.119284 0.945661 0.035997 -0.009586 747490.000000 0 0 1
34.137989 -4.587482 26.545913 43.487157 -0.133580 0.914192 0.042399 -0.013568 492771.000000 0 0 1
34.451589 -3.858982 27.704533 44.377302 -0.111547 0.896567 0.046372 -0.013390 130374.000000 0 0 1
33.511689 -4.169382 28.900553 44.448386 -0.123780 0.862942 0.043902 -0.018064 181741.000000 0 0 1
33.758389 -5.499582 29.300283 45.037549 -0.161491 0.862456 0.050652 -0.029643 -170949.000000 0 0 1
32.772989 -5.971282 30.165793 44.941074 -0.180224 0.834930 0.048358 -0.032956 -430385.000000 0 0 1
33.029589 -7.421282 30.577823 45.618335 -0.221015 0.836188 0.061483 -0.032028 -493108.000000 0 0 1
34.154189 -7.612282 31.370263 46.995201 -0.219296 0.839922 0.076392 -0.038334 -664465.000000 0 0 1
34.705389 -8.897982 31.156073 47.479880 -0.250980 0.855031 0.078172 -0.031860 21826.600000 0 0 1
36.073489 -9.090382 31.827319 48.958247 -0.246857 0.863092 0.096424 -0.035890 97683.900000 0 0 1
35.855789 -9.242982 33.190541 49.726073 -0.252290 0.839994 0.093227 -0.042403 -426358.000000 0 0 1
37.097289 -9.325982 33.801013 51.045972 -0.246289 0.847088 0.081083 -0.043424 -654110.000000 0 0 1
37.133189 -9.625282 -32.427801 50.230290 -0.253628 2.272582 0.096907 -0.040847 -344708.000000 0 0 1
36.517389 -8.692082 -31.581631 49.055799 -0.233678 2.270237 0.071069 -0.036239 6021.290000 0 0 1
37.004389 -7.369982 -31.597331 49.214152 -0.196593 2.267949 0.060566 -0.036635 -287004.000000 0 0 1
36.229189 -6.339782 -30.750801 47.941201 -0.173237 2.267154 0.067625 -0.034055 -594808.000000 0 0 1
36.660989 -6.424382 -29.384041 47.420699 -0.173476 2.239088 0.066740 -0.026489 314922.000000 0 0 1
35.987089 -5.483682 -28.583031 46.283161 -0.151216 2.236444 0.075155 -0.034758 -457412.000000 0 0 1
36.543889 -5.428782 -27.157981 45.852845 -0.147477 2.204689 0.082597 -0.034861 -488351.000000 0 0 1
-36.931861 -5.010882 -27.170551 46.122772 0.134856 2.200731 0.078655 -0.029504 -623935.000000 0 0 1
-36.448561 -4.752082 -25.857681 44.941067 0.129646 2.183851 0.090753 -0.031528 184248.000000 0 0 1
-34.937261 -4.438982 -25.762641 43.635197 0.126379 2.202363 0.112396 -0.024450 -553947.000000 0 0 1
-34.613661 -3.837082 -24.519771 42.591641 0.110404 2.184250 0.129838 -0.030765 959857.000000 0 0 1
-33.273761 -3.899282 -23.993871 41.207443 0.116656 2.192315 0.153603 -0.024808 1453730.000000 0 0 1
-32.167361 -3.088682 -24.772571 40.718047 0.095726 2.224830 0.133538 -0.011376 97009.200000 0 0 1
-32.007361 -3.605282 -26.085801 41.448018 0.112166 2.251528 0.132886 -0.016239 561482.000000 0 0 1
-30.995361 -2.892282 -26.856331 41.113747 0.093044 2.282626 0.124907 -0.011487 929842.000000 0 0 1
-30.596861 -3.711982 -28.113651 41.717191 0.120729 2.310285 0.119574 -0.017464 -529448.000000 0 0 1
-31.646161 -3.774482 -29.004811 43.092984 0.118711 2.309155 0.127925 -0.022398 -567211.000000 0 0 1
-31.412261 -4.672582 -30.042031 43.715978 0.147667 2.328437 0.097857 -0.015155 -526517.000000 0 0 1
-32.585161 -4.881682 -31.028651 45.259261 0.148707 2.326191 0.090949 -0.023768 -54158.900000 0 0 1
-33.694261 -5.723282 -30.693641 45.936464 0.168253 2.302551 0.096517 -0.024687 815417.000000 0 0 1
-34.637961 -5.196582 -29.773711 45.970280 0.148915 2.275323 0.095333 -0.023576 -128844.000000 0 0 1
-35.653761 -4.164282 -30.326781 46.991973 0.116271 2.272292 0.109518 -0.029697 -816457.000000 0 0 1
-35.089361 -2.955182 -30.862911 46.824306 0.084020 2.290446 0.129114 -0.026472 -5456.620000 0 0 1
-34.688661 -2.044382 -29.858821 45.815192 0.058867 2.280650 0.142284 -0.017461 -319882.000000 0 0 1
-34.298161 -0.716982 -30.433041 45.859000 0.020901 2.296447 0.123994 -0.018849 -356516.000000 0 0 1
-35.381661 0.105918 -30.761731 46.884509 -0.002994 2.286458 0.151421 -0.016093 -213744.000000 0 0 1
-34.994161 1.269918 -31.475321 47.083965 -0.036273 2.302978 0.148315 -0.013413 -338244.000000 0 0 1
-36.174161 2.088318 -31.984451 48.331522 -0.057666 2.293976 0.129898 -0.015213 -292976.000000 0 0 1
-36.849461 1.481318 -33.080731 49.542021 -0.040178 2.301953 0.131241 -0.016900 416425.000000 0 0 1
36.818289 2.311318 -33.343741 49.726589 0.062694 2.305735 0.101006 -0.019679 437946.000000 0 0 1
35.997989 2.102018 33.102566 48.949500 0.058326 0.828123 0.071829 -0.013692 129887.000000 0 0 1
36.517289 2.553318 31.860712 48.529752 0.069807 0.854601 0.078126 -0.013190 -286535.000000 0 0 1
-37.293861 1.737018 31.333983 48.740822 -0.046543 0.872558 0.068516 -0.011885 -522222.000000 0 0 1
-37.068561 1.724318 29.808213 47.598120 -0.046483 0.894065 0.073183 -0.014761 -149187.000000 0 0 1
-36.513461 2.936818 29.400293 46.970575 -0.080258 0.894473 0.078301 -0.022204 -20034.100000 0 0 1
-36.046561 2.892818 28.082573 45.785957 -0.080081 0.910508 0.069085 -0.020518 114139.000000 0 0 1
-35.629161 4.290518 27.514393 45.220432 -0.119844 0.916690 0.081829 -0.022732 -53180.600000 0 0 1
-34.966561 4.251718 26.268573 43.940590 -0.121000 0.930017 0.087828 -0.021068 2620.300000 0 0 1
-34.494961 5.537418 26.019653 43.561309 -0.159170 0.930652 0.096757 -0.021535 -548.955000 0 0 1
-33.588261 5.688318 24.766473 42.117768 -0.167763 0.942176 0.093470 -0.019579 629285.000000 0 0 1
-32.323961 5.017818 24.789893 41.043340 -0.154006 0.922294 0.091851 -0.015161 911624.000000 0 0 1
-31.513561 5.174518 23.592663 39.705087 -0.162747 0.934529 0.090394 -0.014909 560695.000000 0 0 1
-32.053661 4.656218 22.228973 39.284154 -0.144254 0.969331 0.101669 -0.024331 -475928.000000 0 0 1
-31.986161 3.262718 22.084673 39.006315 -0.101652 0.968930 0.095714 -0.025144 -195942.000000 0 0 1
-32.648061 2.909718 20.894773 38.870990 -0.088889 1.003277 0.118506 -0.022446 -24095.300000 0 0 1
-32.579261 1.378518 20.525073 38.530341 -0.042288 1.009010 0.105536 -0.026132 -1025440.000000 0 0 1
-31.343961 1.056218 20.019773 37.206865 -0.033685 1.002655 0.115111 -0.023163 -934734.000000 0 0 1
-31.243161 1.255918 18.629673 36.397488 -0.040177 1.033472 0.122652 -0.023916 610.219000 0 0 1
-29.790161 1.116818 18.102573 34.876985 -0.037472 1.025068 0.126288 -0.025185 49763.000000 0 0 1
-29.408861 -0.251882 18.022673 34.492916 0.008565 1.021012 0.133846 -0.021433 243279.000000 0 0 1
-28.168361 -0.601482 17.430173 33.130488 0.021350 1.016780 0.135406 -0.023541 -205946.000000 0 0 1
-28.123161 -0.496982 15.924173 32.322414 0.017670 1.055645 0.154567 -0.014040 -324745.000000 0 0 1
-27.644161 0.779418 15.457673 31.681963 -0.028187 1.061112 0.149955 -0.015946 406756.000000 0 0 1
-27.776761 0.909318 14.037173 31.135471 -0.032725 1.103088 0.161418 -0.019163 -190242.000000 0 0 1
-27.259661 2.261118 13.543573 30.522617 -0.082758 1.111048 0.154504 -0.016569 -861890.000000 0 0 1
-25.873761 2.289918 13.545573 29.294671 -0.088273 1.090107 0.137492 -0.025957 -790200.000000 0 0 1
-25.397761 3.534618 13.061773 28.777590 -0.138282 1.099674 0.129626 -0.028072 -516886.000000 0 0 1
-23.888661 3.554718 12.880573 27.371761 -0.147720 1.080850 0.108939 -0.036491 -541486.000000 0 0 1
-23.133161 3.759618 14.076773 27.339228 -0.161112 1.029914 0.089032 -0.021038 45206.600000 0 0 1
-21.784061 4.037718 13.808473 26.105984 -0.183272 1.013446 0.080853 -0.028712 -280180.000000 0 0 1
-21.066061 4.722418 14.975973 26.274701 -0.220526 0.964319 0.079510 -0.028656 -216037.000000 0 0 1
-21.499561 6.070118 15.179973 27.009425 -0.275174 0.973964 0.060116 -0.019116 470976.000000 0 0 1
-21.148361 6.427318 16.503673 27.585047 -0.295045 0.929439 0.056302 -0.005461 -31267.600000 0 0 1
-21.100561 7.957618 16.719573 28.073145 -0.360635 0.932819 0.045660 -0.004434 -631919.000000 0 0 1
-20.027961 8.464518 15.982173 26.985128 -0.399866 0.936937 0.045268 -0.009702 157446.000000 0 0 1
-19.867461 9.916118 15.990573 27.363184 -0.462938 0.946677 0.043264 -0.004220 -149017.000000 0 0 1
-19.292961 10.519318 17.290673 27.961433 -0.499182 0.904122 0.051848 -0.001317 -117112.000000 0 0 1
-20.226561 10.494318 18.386373 29.279740 -0.478605 0.891873 0.052266 -0.003428 753900.000000 0 0 1
-19.686761 11.078918 19.557673 29.879986 -0.512587 0.857221 0.073201 0.002297 -545434.000000 0 0 1
-12.728311 -33.619080 -19.920571 41.098437 1.208870 2.076821 0.162715 -0.051477 -607977.000000 0 0 1
-13.873611 33.861818 -19.209971 41.329442 -1.181945 2.054206 0.187542 -0.044078 -738354.000000 0 0 1
-14.926911 -32.989680 -19.421771 41.089376 1.145888 2.063116 0.154498 -0.060315 95798.100000 0 0 1
-16.193111 -33.373580 -18.616071 41.503864 1.119053 2.035925 0.138274 -0.047140 -644096.000000 0 0 1
-16.819311 33.243218 -19.178671 41.902531 -1.102402 2.046200 0.128610 -0.060953 92347.500000 0 0 1
-17.742511 32.581318 -18.341371 41.385321 -1.072139 2.029945 0.135064 -0.058553 79813.500000 0 0 1
-19.114711 33.168818 -17.986871 42.297401 -1.047996 2.010032 0.125409 -0.048150 -1015230.000000 0 0 1
-19.077111 -33.385480 -17.235771 42.137848 1.051657 1.992190 0.133805 -0.040442 367543.000000 0 0 1
-20.325311 -33.013580 -16.649071 42.192491 1.018938 1.976427 0.101662 -0.037902 409129.000000 0 0 1
-20.687811 -33.815380 -15.366071 42.515662 1.021755 1.940588 0.099574 -0.033391 -386453.000000 0 0 1
-20.799111 32.543918 -15.460371 41.602075 -1.002115 1.951555 0.110439 -0.041135 -25644.300000 0 0 1
-21.320111 31.917118 -14.318471 40.966671 -0.981883 1.927850 0.110766 -0.030452 -246595.000000 0 0 1
-21.296011 30.358118 -14.412571 39.785143 -0.959069 1.941488 0.114281 -0.034564 304291.000000 0 0 1
-20.058311 29.761618 -14.049471 38.541891 -0.977758 1.943919 0.125498 -0.043857 296898.000000 0 0 1
-20.118011 28.370518 -14.156671 37.550392 -0.953978 1.957356 0.127650 -0.045412 -172920.000000 0 0 1
-19.135211 27.519118 -13.349271 36.078541 -0.963203 1.949812 0.113569 -0.045791 -413862.000000 0 0 1
-17.795911 27.623718 -13.714271 35.606817 -0.998491 1.966176 0.153450 -0.055526 -380995.000000 0 0 1
-16.947311 26.521318 -13.404471 34.209231 -1.002188 1.973425 0.166631 -0.068867 555472.000000 0 0 1
-15.476111 26.871118 -13.740371 33.917027 -1.048257 1.987903 0.129130 -0.065303 -4977.630000 0 0 1
-15.188211 27.127118 -15.117771 34.570352 -1.060391 2.023396 0.111906 -0.057599 -693459.000000 0 0 1
-13.829811 27.374018 -15.294771 34.271424 -1.102984 2.033404 0.129784 -0.060318 -833563.000000 0 0 1
-13.426111 27.907318 -16.685471 35.177887 -1.122386 2.064984 0.155364 -0.065592 -315763.000000 0 0 1
-13.399011 26.959918 -17.716271 34.931889 -1.109554 2.102690 0.119050 -0.068601 189221.000000 0 0 1
-13.948511 27.445718 -18.934471 36.143361 -1.100593 2.122186 0.098859 -0.061650 -15202.800000 0 0 1
-13.696811 26.473618 -20.104971 35.953649 -1.093345 2.164206 0.058704 -0.032209 -375436.000000 0 0 1
-12.499111 26.741018 -20.762071 36.088410 -1.133556 2.183781 0.044718 -0.033362 -453117.000000 0 0 1
-11.965711 25.577218 -21.413071 35.438565 -1.133217 2.219596 0.036089 -0.030813 589859.000000 0 0 1
-10.629511 25.852018 -22.175971 35.680344 -1.180700 2.241475 0.058352 -0.037363 132252.000000 0 0 1
-10.652711 26.431918 -23.451171 36.906421 -1.187685 2.259352 0.062193 -0.036610 -908878.000000 0 0 1
-9.411211 26.352718 -24.051571 36.898708 -1.227788 2.280787 0.066353 -0.047306 -794258.000000 0 0 1
-9.389811 26.863618 -25.554051 38.246987 -1.234535 2.302492 0.083128 -0.041643 -336413.000000 0 0 1
-10.230311 26.103018 -26.416931 38.521176 -1.197274 2.326467 0.083412 -0.038182 -86652.700000 0 0 1
-10.624011 26.894518 -27.512481 39.913923 -1.194586 2.331312 0.108407 -0.032437 172026.000000 0 0 1
-11.852111 26.222118 -28.195641 40.287295 -1.146290 2.346004 0.077421 -0.029468 7978.680000 0 0 1
-12.468111 27.036718 -29.148641 41.666307 -1.138705 2.345597 0.098133 -0.029369 684312.000000 0 0 1
-13.807111 26.536118 -29.372941 41.923400 -1.091030 2.347081 0.085327 -0.024483 832148.000000 0 0 1
-14.275511 26.977818 -30.747031 43.324043 -1.084096 2.359867 0.090448 -0.031189 -330304.000000 0 0 1
-13.570511 26.469818 -31.869381 43.594351 -1.097057 2.390647 0.104300 -0.028786 -5769.370000 0 0 1
-13.522911 25.050818 -32.044001 42.862927 -1.075803 2.415226 0.077974 -0.029161 -113056.000000 0 0 1
-12.490011 24.651918 -33.127461 43.141002 -1.101839 2.446334 0.076210 -0.021467 -152378.000000 0 0 1
-12.875811 24.949218 33.356266 43.599202 -1.094367 0.699653 0.078762 -0.018684 -130990.000000 0 0 1
-12.026011 24.367318 32.370758 42.264135 -1.112338 0.698332 0.074836 -0.023690 -349458.000000 0 0 1
-12.569811 24.226318 30.926763 41.247779 -1.092183 0.723067 0.079920 -0.015588 90663.400000 0 0 1
-13.668611 23.312718 30.809693 40.982324 -1.040500 0.720039 0.101612 -0.028114 394707.000000 0 0 1
-14.174011 23.129718 29.483283 40.064328 -1.021014 0.743803 0.120359 -0.027910 100394.000000 0 0 1
-15.529411 22.403618 29.505743 40.170556 -0.964672 0.745850 0.090278 -0.028030 117559.000000 0 0 1
-15.287511 21.044818 29.891653 39.624528 -0.942554 0.716099 0.061231 -0.030623 858777.000000 0 0 1
-16.526211 20.297218 29.920193 39.753121 -0.887450 0.718718 0.061299 -0.035039 861109.000000 0 0 1
-16.410711 18.774318 30.049323 39.048025 -0.852474 0.692664 0.061217 -0.039538 -57413.900000 0 0 1
-16.056511 18.108818 28.808653 37.625514 -0.845396 0.698717 0.076087 -0.035122 256490.000000 0 0 1
-15.382311 16.859718 29.027673 36.925213 -0.831189 0.666289 0.064169 -0.044333 40528.800000 0 0 1
-15.007311 16.271418 27.647763 35.417188 -0.825790 0.675121 0.060507 -0.034788 -622857.000000 0 0 1
-14.025511 17.038118 27.064063 34.920995 -0.882078 0.684068 0.041777 -0.033312 -920378.000000 0 0 1
-13.209611 16.235618 26.273803 33.591693 -0.887806 0.672685 0.029043 -0.024318 284093.000000 0 0 1
-11.964211 16.939418 25.651653 32.986262 -0.955859 0.679883 0.040140 -0.019245 431867.000000 0 0 1
-12.328511 17.757118 24.527273 32.693952 -0.963916 0.722419 0.036000 -0.010415 150676.000000 0 0 1
-12.866311 19.075618 24.885423 33.892557 -0.977397 0.746243 0.039633 -0.015698 598019.000000 0 0 1
-11.863111 20.102218 25.541073 34.600274 -1.037659 0.740435 0.046384 -0.022004 598826.000000 0 0 1
-11.360711 19.882618 26.890283 35.319563 -1.051680 0.705415 0.058462 -0.028084 -76888.200000 0 0 1
-12.351511 19.989718 27.876883 36.459145 -1.017324 0.700366 0.077247 -0.026813 -296423.000000 0 0 1
-11.888011 19.784318 29.330423 37.323153 -1.029730 0.666726 0.066559 -0.028475 -568437.000000 0 0 1
-10.822111 20.578718 29.721133 37.735228 -1.086653 0.663855 0.057404 -0.031431 -560106.000000 0 0 1
-10.682111 20.621218 31.157973 38.860795 -1.092840 0.640521 0.047911 -0.029377 871749.000000 0 0 1
-9.345011 21.255418 31.740916 39.326934 -1.156580 0.631566 0.040146 -0.025051 793975.000000 0 0 1
-8.248711 20.395118 31.759802 38.635309 -1.186464 0.605810 0.056775 -0.028593 141062.000000 0 0 1
-7.178911 20.967218 32.520444 39.354037 -1.240919 0.598191 0.048766 -0.015919 857422.000000 0 0 1
-6.030611 20.039118 33.028098 39.099741 -1.278476 0.564766 0.065072 -0.015639 337274.000000 0 0 1
-6.455311 19.231018 -33.638641 39.281818 -1.246943 2.598939 0.069064 -0.029263 1213160.000000 0 0 1
-5.341811 18.534618 -32.988081 38.213616 -1.290193 2.612479 0.060044 -0.032392 1285350.000000 0 0 1
-4.572411 17.450418 -33.823851 38.333756 -1.314534 2.651632 0.054397 -0.032306 -49783.400000 0 0 1
-5.344211 16.307918 33.733783 37.848076 -1.254118 0.470604 0.048561 -0.026603 -93516.700000 0 0 1
-4.854111 15.637518 32.579912 36.462927 -1.269813 0.465699 0.043346 -0.018155 328091.000000 0 0 1
-5.521411 14.252518 32.274540 35.710869 -1.201200 0.442291 0.057095 -0.030309 -31296.200000 0 0 1
-4.929411 13.250718 33.089612 35.983372 -1.214649 0.403785 0.061745 -0.027049 474858.000000 0 0 1
-5.728311 12.029018 33.278870 35.846813 -1.126363 0.380811 0.063068 -0.017960 310685.000000 0 0 1
-4.917011 10.823018 33.726146 35.759861 -1.144364 0.338877 0.096054 -0.036115 -57662.900000 0 0 1
-4.732711 10.731618 -32.685291 34.725990 -1.155447 2.797062 0.093883 -0.040973 -725245.000000 0 0 1
-3.847211 9.715918 -32.475291 34.115166 -1.193769 2.830276 0.104180 -0.037055 -590008.000000 0 0 1
-3.786311 9.156418 -31.054111 32.596532 -1.178694 2.832735 0.096666 -0.032691 691489.000000 0 0 1
-4.851511 8.238418 -30.752681 32.204597 -1.038587 2.840173 0.108763 -0.023908 654207.000000 0 0 1
-5.711311 8.637918 -29.681601 31.436127 -0.986594 2.805916 0.121202 -0.021875 247041.000000 0 0 1
-6.753411 7.557318 -29.339091 31.040358 -0.841514 2.808978 0.111608 -0.024360 61956.600000 0 0 1
-6.121111 6.530118 -28.607721 29.975192 -0.817716 2.838372 0.116481 -0.020483 531031.000000 0 0 1
-7.137711 5.673518 -28.113401 29.555017 -0.671602 2.827971 0.120643 -0.041271 -17760.300000 0 0 1
-6.841811 5.161818 -26.664301 28.007850 -0.646344 2.830598 0.100142 -0.040497 7096.720000 0 0 1
-7.103511 6.045418 -25.547951 27.197513 -0.705101 2.791523 0.073866 -0.024133 115415.000000 0 0 1
-6.096711 7.033418 -25.404791 27.056279 -0.856618 2.790394 0.075210 -0.020078 -107434.000000 0 0 1
-6.205911 7.924218 -24.105571 26.122502 -0.906410 2.746055 0.037948 -0.005967 72498.900000 0 0 1
-6.286311 7.183018 -22.940271 24.846920 -0.851874 2.747289 0.029252 -0.000485 154149.000000 0 1 0
-7.615911 7.370818 -22.454871 24.830470 -0.769046 2.700597 0.035461 -0.000603 450271.000000 0 1 0
-7.676411 7.576318 -20.921671 23.538143 -0.778836 2.665606 0.032270 0.003768 59774.400000 0 1 0
-7.114511 8.875818 -20.581271 23.515635 -0.895104 2.636679 0.015734 0.012547 106116.000000 0 1 0
-6.913011 9.044618 -19.157071 22.284259 -0.918191 2.605416 0.017165 0.008693 -189173.000000 0 1 0
-8.148611 9.300918 -18.251771 22.046180 -0.851339 2.546128 0.007843 0.009441 -160401.000000 0 1 0
-7.873811 9.423818 -16.877571 20.872413 -0.874768 2.512576 -0.001828 0.008623 860385.000000 0 1 0
-9.036611 9.769018 -16.068071 20.863291 -0.824325 2.449888 0.003121 0.003590 1073120.000000 0 1 0
-9.642211 11.190918 -16.171971 21.903002 -0.859600 2.401409 0.022352 -0.004098 636842.000000 0 1 0
-8.648011 12.195818 -15.811071 21.760423 -0.953991 2.384153 0.003562 -0.000350 799418.000000 0 1 0
-9.150311 13.479818 -16.025271 22.852636 -0.974430 2.347937 0.036626 -0.013078 629913.000000 0 1 0
-7.954911 14.501718 -15.852971 22.910633 -1.069067 2.334980 0.052124 -0.014230 570642.000000 0 1 0
-7.504511 14.529618 -14.496471 21.853492 -1.094038 2.296080 0.043563 -0.014130 27464.700000 0 1 0
-8.357211 15.302818 -13.705171 22.177712 -1.070935 2.236955 0.040733 -0.022448 -902256.000000 0 1 0
-7.638111 16.021318 -12.549871 21.737585 -1.125924 2.186257 0.033217 -0.023637 231907.000000 0 1 0
-7.001811 17.282518 -12.775371 22.603559 -1.185868 2.171463 0.038240 -0.024873 366209.000000 0 1 0
-6.110411 17.423918 -13.862971 23.089218 -1.233506 2.214809 0.052830 -0.016414 -459957.000000 0 1 0
-6.054411 18.860218 -14.394371 24.485947 -1.260173 2.199210 0.081300 -0.008279 202349.000000 0 1 0
-5.614311 19.745918 -13.360271 24.493235 -1.293779 2.147743 0.090074 -0.020305 -2392.050000 0 1 0
-5.753711 21.086318 -13.804471 25.851526 -1.304416 2.134110 0.097632 -0.019007 -216279.000000 0 0 1
-5.253711 22.134718 -12.774771 26.091032 -1.337757 2.082454 0.109588 -0.017691 -508957.000000 0 0 1
-5.522011 23.547418 -13.119071 27.515150 -1.340453 2.067801 0.110676 -0.024678 517263.000000 0 0 1
-6.832411 24.130218 -13.078571 28.284240 -1.294871 2.051494 0.098887 -0.018896 385936.000000 0 0 1
-7.513911 24.106718 -11.696071 27.827877 -1.268646 2.004573 0.056724 -0.021701 -447533.000000 0 0 1
-7.941411 22.813118 -11.358971 26.693268 -1.235809 2.010351 0.064007 -0.022370 -396227.000000 0 0 1
-8.380511 22.639318 -10.019771 26.137472 -1.216262 1.964216 0.080644 -0.028881 -77512.900000 0 0 1
-7.457411 22.955818 -8.810771 25.694595 -1.256692 1.920803 0.074059 -0.028834 -54679.200000 0 0 1
-7.351711 24.338318 -8.562571 26.827579 -1.277448 1.895650 0.074543 -0.022793 -193791.000000 0 0 1
-6.671611 24.630118 -7.359371 26.557737 -1.306272 1.851580 0.071128 -0.026551 95023.300000 0 0 1
-6.815311 26.143518 -7.074071 27.928023 -1.315784 1.826883 0.074298 -0.029068 102572.000000 0 0 1
-6.091411 27.127818 -7.805871 28.878286 -1.349915 1.844503 0.074429 -0.029063 -143252.000000 0 0 1
-6.317111 27.088418 -9.188071 29.293496 -1.341688 1.889837 0.077240 -0.031445 -148165.000000 0 0 1
-5.912811 28.362618 -9.934471 30.628306 -1.365268 1.901127 0.080684 -0.027763 -103617.000000 0 0 1
-6.749211 29.485918 -9.858171 31.814379 -1.345777 1.885848 0.082570 -0.024581 -153710.000000 0 0 1
-7.548111 29.591118 -11.059071 32.479397 -1.321042 1.918240 0.099606 -0.026078 297054.000000 0 0 1
-8.727511 30.570518 -10.901771 33.609144 -1.292706 1.901141 0.104642 -0.031399 396611.000000 0 0 1
-9.845011 30.065118 -10.182471 33.234293 -1.254344 1.882189 0.104059 -0.024971 8740.370000 0 0 1
-10.942711 30.933218 -10.153771 34.346847 -1.230782 1.870906 0.097218 -0.035457 272394.000000 0 0 1
-12.123611 30.429618 -9.294071 34.048837 -1.191657 1.847268 0.107858 -0.027657 509328.000000 0 0 1
-12.848311 29.271418 -9.709371 33.409083 -1.157180 1.865672 0.123404 -0.039121 520463.000000 0 0 1
-14.117511 29.122118 -9.060871 33.608053 -1.119407 1.843778 0.124458 -0.035551 1004760.000000 0 0 1
-14.911311 27.946218 -9.734471 33.137565 -1.080653 1.868954 0.132947 -0.033741 76687.700000 0 0 1
-14.463811 26.650018 -9.386871 31.741748 -1.073550 1.871012 0.138232 -0.040301 511806.000000 0 0 1
-15.439111 25.622918 -9.714571 31.452709 -1.028503 1.884793 0.162834 -0.042979 428459.000000 0 0 1
-15.232211 24.253018 -8.976871 30.013552 -1.010004 1.874539 0.147188 -0.033673 643635.000000 0 0 1
-14.033011 23.517118 -9.256371 28.907795 -1.032796 1.896740 0.146494 -0.034104 642228.000000 0 0 1
-14.185511 22.219118 -8.787471 27.787363 -1.002593 1.892560 0.124692 -0.033021 -390032.000000 0 0 1
-13.404511 21.128618 -9.490171 26.761217 -1.005449 1.933308 0.143193 -0.035808 -457473.000000 0 0 1
-13.769711 20.893618 -10.828471 27.265435 -0.988093 1.979206 0.136782 -0.027121 203291.000000 0 0 1
-13.223811 19.646418 -11.305471 26.242419 -0.978360 2.016185 0.124773 -0.022096 -92024.800000 0 0 1
-13.566011 19.254618 -12.690771 26.755048 -0.957017 2.065001 0.114495 -0.023299 517058.000000 0 0 1
-14.982511 19.176118 -12.818971 27.505002 -0.907555 2.055628 0.126353 -0.018160 227411.000000 0 0 1
-15.474911 18.649018 -14.062771 28.018213 -0.878148 2.096608 0.125227 -0.013512 1300310.000000 0 0 1
-17.044211 18.576918 -14.193771 28.932164 -0.828400 2.083561 0.121973 -0.010334 1412140.000000 0 0 1
-17.678211 19.830518 -14.567871 30.298373 -0.842717 2.072379 0.092268 -0.015812 140219.000000 0 0 1
-19.015511 19.634818 -14.970171 31.164430 -0.801420 2.071862 0.073329 -0.010378 -99430.000000 0 0 1
-19.624911 20.973218 -15.496771 32.636833 -0.818597 2.065561 0.069338 -0.014008 -115565.000000 0 0 1
-19.777711 21.913518 -14.458971 32.869772 -0.836583 2.026269 0.093496 -0.037621 176472.000000 0 0 1
-19.954411 23.193818 -15.019171 34.083826 -0.860334 2.027123 0.096508 -0.027276 -32306.100000 0 0 1
-20.811111 24.099918 -14.109971 34.828144 -0.858497 1.987919 0.095844 -0.018877 399717.000000 0 0 1
-22.152311 23.689718 -13.849471 35.266633 -0.818923 1.974370 0.123957 -0.024196 583054.000000 0 0 1
-22.835811 24.657118 -13.069771 36.059210 -0.823728 1.941695 0.131677 -0.039463 30347.500000 0 0 1
-26.504661 -1.058682 3.181029 26.715853 0.039922 1.451444 0.231933 -0.049212 -165276.000000 0 0 1
-26.955841 -0.264782 4.237329 27.288137 0.009823 1.414884 0.228522 -0.053097 295812.000000 0 0 1
-28.222321 -0.574782 4.791929 28.632016 0.020363 1.402642 0.215699 -0.049955 148230.000000 0 0 1
-28.546021 0.344018 6.021529 29.176231 -0.012051 1.362918 0.225029 -0.047385 -244875.000000 0 0 1
-28.873501 1.718218 5.756629 29.491865 -0.059438 1.374341 0.241385 -0.056000 129069.000000 0 0 1
-29.290671 2.460218 6.910129 30.195131 -0.083797 1.339901 0.237465 -0.045091 -484985.000000 0 0 1
-28.207931 3.101918 7.786529 29.426846 -0.109526 1.303001 0.242169 -0.048228 -356913.000000 0 0 1
-27.457681 2.078218 8.430929 28.797982 -0.075544 1.273683 0.219410 -0.058276 153915.000000 0 0 1
-26.493241 2.611818 9.297629 28.198569 -0.098267 1.234789 0.197758 -0.061764 -555497.000000 0 0 1
-25.764891 1.495118 10.040329 27.692475 -0.057964 1.199777 0.180343 -0.050627 -852767.000000 0 0 1
-24.751111 0.903018 9.306629 26.458388 -0.036468 1.211361 0.185235 -0.050318 -49927.200000 0 0 1
-25.188971 -0.263082 8.695329 26.648869 0.010444 1.238417 0.166223 -0.049229 178935.000000 0 0 1
-23.981811 -0.968182 7.991929 25.296948 0.040350 1.249365 0.156648 -0.050997 875127.000000 0 0 1
-22.906411 -1.368682 8.851229 24.595146 0.059680 1.202660 0.145335 -0.063803 -142980.000000 0 1 0
-21.965611 -2.143282 8.194029 23.541959 0.097267 1.215295 0.162067 -0.046653 63700.100000 0 1 0
-20.618211 -2.333582 8.976229 22.608160 0.112701 1.162512 0.116643 -0.030623 440446.000000 0 1 0
-19.956311 -1.132682 9.297329 22.044901 0.056697 1.135427 0.101194 -0.035908 659563.000000 0 1 0
-20.573911 -0.521782 10.445629 23.079628 0.025356 1.101128 0.124296 -0.040171 -589199.000000 0 1 0
-19.890511 0.839218 10.748329 22.624396 -0.042167 1.075745 0.080787 -0.033301 -41048.600000 0 1 0
-20.326111 1.917618 9.926029 22.701412 -0.094064 1.118266 0.090372 -0.030398 1167070.000000 0 1 0
-21.734111 2.199018 9.986629 24.019576 -0.100835 1.142007 0.124215 -0.041586 326732.000000 0 1 0
-22.133911 3.580918 9.468829 24.339098 -0.160394 1.171209 0.114770 -0.049539 -426632.000000 0 1 0
-22.190611 4.602918 10.418529 24.943051 -0.204526 1.139892 0.096910 -0.047903 439420.000000 0 1 0
-22.409111 5.847318 9.789729 25.143551 -0.255244 1.170867 0.072363 -0.040293 -271801.000000 0 0 1
-22.592511 6.926218 10.842829 25.999250 -0.297475 1.140606 0.086642 -0.040761 -297258.000000 0 0 1
-23.671011 6.590318 11.660129 27.197567 -0.271536 1.127721 0.088829 -0.035839 -118873.000000 0 0 1
-23.747511 7.557118 12.699729 27.970295 -0.308095 1.099498 0.109035 -0.030054 -490855.000000 0 0 1
-24.694611 7.139718 13.783929 29.168409 -0.281446 1.078599 0.123581 -0.023684 -227718.000000 0 0 1
-26.048151 7.110118 13.360929 30.125975 -0.266469 1.111294 0.143677 -0.020026 -47140.400000 0 0 1
-26.873221 6.709418 14.410529 31.222582 -0.244667 1.091064 0.139421 -0.021914 741061.000000 0 0 1
-28.404221 6.569018 14.066529 32.370032 -0.227273 1.121253 0.144779 -0.010352 977741.000000 0 0 1
-28.772781 5.573918 13.095329 32.100298 -0.191352 1.150588 0.164012 -0.004598 140865.000000 0 0 1
-30.146721 5.693018 12.796429 33.241297 -0.186646 1.175636 0.186203 -0.024734 -160404.000000 0 0 1
-30.743751 4.672918 11.792129 33.257611 -0.150841 1.208343 0.220419 -0.029977 -65813.000000 0 0 1
-30.729461 3.365118 12.387429 33.302735 -0.109073 1.189672 0.206013 -0.026378 240228.000000 0 0 1
-31.277861 2.450018 11.503029 33.415967 -0.078171 1.219370 0.198588 -0.022527 495769.000000 0 0 1
-32.596271 1.728218 11.979329 34.770791 -0.052969 1.219066 0.165087 -0.008664 592722.000000 0 0 1
-32.457401 0.789018 12.979229 34.965209 -0.024305 1.190491 0.164548 -0.002069 -227191.000000 0 0 1
-33.690231 0.210418 13.321529 36.228981 -0.006246 1.194258 0.148320 -0.000917 -124451.000000 0 0 1
-33.532841 -0.983282 14.265429 36.454365 0.029315 1.168728 0.132896 -0.010935 90358.400000 0 0 1
-33.169301 -2.222082 13.647429 35.935950 0.066892 1.181248 0.145372 -0.013644 101154.000000 0 0 1
-33.385881 -3.231982 14.633529 36.595122 0.096506 1.159414 0.155294 -0.014960 30699.000000 0 0 1
-33.280811 -4.642582 14.075029 36.431750 0.138603 1.174137 0.144296 -0.019224 288032.000000 0 0 1
-34.383342 -4.958282 13.230029 37.173007 0.143219 1.206915 0.111861 -0.024541 447992.000000 0 0 1
-34.410919 -6.392282 12.962729 37.322982 0.183670 1.216093 0.120617 -0.022205 -779229.000000 0 0 1
-35.548107 -6.845582 12.033529 38.148863 0.190243 1.249880 0.120527 -0.015370 832828.000000 0 0 1
-36.887631 -6.818082 12.545129 39.554568 0.182771 1.248063 0.102417 -0.021518 892935.000000 0 0 1
37.337879 -5.511482 12.720029 39.828292 -0.146553 1.245730 0.099033 -0.023166 -400586.000000 0 0 1
35.837419 -5.356382 12.426529 38.307050 -0.148365 1.240427 0.113614 -0.033745 51131.100000 0 0 1
34.909779 -6.114282 13.136629 37.797463 -0.173387 1.215836 0.114926 -0.027191 400717.000000 0 0 1
33.557479 -5.716082 12.930129 36.413820 -0.168718 1.207788 0.124359 -0.030815 472565.000000 0 0 1
32.447229 -6.676982 13.348429 35.715338 -0.202947 1.187753 0.099608 -0.025442 -182669.000000 0 0 1
32.229729 -6.800982 14.728929 36.082547 -0.207965 1.150314 0.110996 -0.018043 -250399.000000 0 0 1
31.241909 -7.749882 14.979229 35.503449 -0.243152 1.135246 0.108311 -0.017408 -116145.000000 0 0 1
30.625699 -7.790282 16.388229 35.597697 -0.249088 1.092381 0.096205 -0.016106 390486.000000 0 0 1
31.582059 -8.305782 17.314229 36.962076 -0.257167 1.083281 0.082398 -0.011840 29323.900000 0 0 1
31.019679 -8.440682 18.565629 37.123419 -0.265675 1.047076 0.074656 -0.018042 -661617.000000 0 0 1
32.019379 -8.897082 19.667029 38.615939 -0.271028 1.036427 0.073023 -0.019435 127871.000000 0 0 1
33.070999 -7.989282 19.887129 39.408344 -0.237038 1.041828 0.074820 -0.021946 17923.200000 0 0 1
34.194219 -8.342682 19.084529 40.038285 -0.239304 1.073948 0.063497 -0.008335 -75449.400000 0 0 1
35.591069 -7.775782 19.468329 41.306209 -0.215096 1.080013 0.066286 -0.009368 497686.000000 0 0 1
35.893359 -8.226482 20.771929 42.278615 -0.225301 1.057203 0.071452 -0.016660 -413057.000000 0 0 1
37.044959 -7.685882 21.349529 43.441964 -0.204572 1.057043 0.056883 -0.013425 -342480.000000 0 0 1
37.330839 -8.228182 22.784929 44.502220 -0.216944 1.033290 0.058162 -0.011019 -61598.700000 0 0 1
36.691779 -7.653382 23.926329 44.467181 -0.205637 1.002654 0.065826 -0.014626 103390.000000 0 0 1
36.662359 -8.620282 24.931329 45.166459 -0.230932 0.986050 0.074335 -0.023283 -197488.000000 0 0 1
36.145839 -8.267182 26.351429 45.489184 -0.224850 0.952939 0.079112 -0.021589 440458.000000 0 0 1
36.963749 -7.334782 27.120229 46.428705 -0.195887 0.946993 0.071065 -0.028047 -33451.000000 0 0 1
36.480819 -7.153482 28.404829 46.785220 -0.193632 0.918349 0.064946 -0.034061 -727156.000000 0 0 1
-37.391501 -6.597382 29.449829 48.051454 0.174643 0.911095 0.072300 -0.033396 -646950.000000 0 0 1
-36.566571 -7.506282 30.062129 47.929010 0.202465 0.892815 0.075108 -0.034638 291109.000000 0 0 1
-35.199425 -7.038282 30.121029 46.859506 0.197352 0.872656 0.068523 -0.041865 1336510.000000 0 0 1
-34.418063 -7.620182 31.339529 47.168171 0.217886 0.844077 0.066337 -0.044008 23022.700000 0 0 1
-34.117840 -8.985282 31.270529 47.144547 0.257513 0.845589 0.073778 -0.045898 124798.000000 0 0 1
-33.703061 -9.405782 32.560229 47.796795 0.272154 0.821366 0.063642 -0.042927 -401319.000000 0 0 1
-33.996771 -10.915082 32.710429 48.424081 0.310666 0.829155 0.075036 -0.042277 665370.000000 0 0 1
-35.386502 -11.262482 32.743529 49.509461 0.308133 0.848167 0.070835 -0.040610 627114.000000 0 0 1
-35.463854 -12.664982 32.905629 50.008671 0.343007 0.852639 0.067107 -0.031196 247780.000000 0 0 1
-36.970051 -13.003182 32.942329 51.196333 0.338208 0.871798 0.075446 -0.031620 57351.300000 0 0 1
-37.268171 -14.366282 33.010829 51.817193 0.367930 0.880114 0.070754 -0.036046 153599.000000 0 0 1
36.135529 -14.555382 33.122229 51.134311 -0.382918 0.866169 0.062997 -0.027872 247936.000000 0 0 1
35.756349 -16.035482 33.265429 51.402743 -0.421577 0.866953 0.046594 -0.019461 -174709.000000 0 0 1
36.213479 -16.636782 -33.313914 51.942425 -0.430650 2.267069 0.054554 -0.029260 168569.000000 0 0 1
35.891949 -18.020482 -33.336814 52.194952 -0.465307 2.263601 0.045318 -0.031737 -660025.000000 0 0 1
36.538629 -18.767682 -32.191514 52.188034 -0.474500 2.235514 0.049745 -0.006235 351531.000000 0 0 1
35.801949 -18.510582 -30.965314 50.825898 -0.477176 2.225902 0.058681 -0.010780 498500.000000 0 0 1
36.316069 -19.342182 -29.929614 50.879846 -0.489391 2.199678 0.057367 -0.010820 -79503.000000 0 0 1
35.461809 -19.230082 -28.607814 49.454454 -0.496894 2.187646 0.073569 -0.013150 800482.000000 0 0 1
34.147529 -19.746882 -28.642714 48.748315 -0.524297 2.198840 0.066084 -0.008261 469654.000000 0 0 1
33.118209 -18.921082 -29.203314 48.038076 -0.519064 2.224235 0.057449 -0.005980 299266.000000 0 0 1
31.788689 -19.751782 -29.241714 47.494542 -0.555968 2.234052 0.062346 -0.009632 333679.000000 0 0 1
30.951829 -19.224082 -30.272814 47.371134 -0.555788 2.264067 0.056573 -0.004798 -362783.000000 0 0 1
29.731239 -19.884382 -30.333114 46.898114 -0.589481 2.274161 0.056159 -0.004578 -178475.000000 0 0 1
28.656639 -19.366782 -31.329514 46.667052 -0.594314 2.306813 0.042454 0.001299 254585.000000 0 0 1
28.901639 -19.650082 -32.683014 47.849868 -0.597105 2.322703 0.031025 -0.003431 -786727.000000 0 0 1
27.864339 -19.279982 -33.503914 47.651352 -0.605285 2.350551 0.061357 -0.003444 -585671.000000 0 0 1
28.177839 -19.550282 32.786129 47.446122 -0.606565 0.807900 0.057343 -0.016319 592618.000000 0 0 1
29.122039 -18.548282 32.317729 47.292363 -0.567122 0.818441 0.036966 -0.014324 586199.000000 0 0 1
29.353539 -18.392882 30.912729 46.427634 -0.559748 0.842196 0.037015 -0.013923 -200651.000000 0 0 1
28.221639 -17.672682 30.140029 44.913317 -0.559469 0.835144 0.031019 -0.002057 -103455.000000 0 0 1
28.037439 -16.387182 30.583329 44.609167 -0.528926 0.815391 0.038330 -0.008613 -143033.000000 0 0 1
27.154839 -15.717982 29.759929 43.244580 -0.524706 0.811823 0.034444 -0.006478 -423969.000000 0 0 1
26.780039 -14.293382 30.149129 42.783657 -0.490268 0.788813 0.043189 -0.013926 -365725.000000 0 0 1
27.891739 -13.480782 29.979529 43.109776 -0.450219 0.801788 0.053572 -0.012768 -321864.000000 0 0 1
27.676039 -12.198282 30.586929 43.015364 -0.415137 0.779778 0.074840 -0.018201 -228178.000000 0 0 1
28.949139 -11.428582 31.001229 43.928822 -0.376000 0.787364 0.085605 -0.019952 -323179.000000 0 0 1
29.431739 -10.900482 29.821929 43.294287 -0.354701 0.810938 0.078387 -0.021805 -904444.000000 0 0 1
30.769109 -10.521182 29.948429 44.207938 -0.329476 0.826513 0.079774 -0.020218 -484047.000000 0 0 1
31.339049 -10.206282 28.525629 43.589170 -0.314840 0.857381 0.083407 -0.019465 -145353.000000 0 0 1
31.360359 -8.841482 28.244529 43.120730 -0.274799 0.856600 0.071964 -0.023053 -3193.290000 0 0 1
31.855239 -8.595882 26.941829 42.597038 -0.263565 0.886044 0.065814 -0.017142 90488.000000 0 0 1
31.925769 -7.075782 26.585729 42.144068 -0.218107 0.888174 0.063932 -0.012098 109034.000000 0 0 1
30.638179 -6.526082 26.405529 40.969986 -0.209868 0.870415 0.063754 -0.011365 -214357.000000 0 0 1
30.650299 -5.136482 26.160029 40.622302 -0.166041 0.871105 0.066523 -0.010139 1258550.000000 0 0 1
29.201439 -4.509782 26.017229 39.369511 -0.153226 0.848849 0.069058 0.000667 1216970.000000 0 0 1
28.408539 -4.707782 24.885429 38.059072 -0.164225 0.858117 0.081264 -0.004554 -333723.000000 0 0 1
27.184439 -4.033382 24.953929 37.120891 -0.147296 0.833574 0.084905 -0.003792 -228366.000000 0 0 1
26.289139 -4.324282 23.709829 35.664748 -0.163029 0.843574 0.094576 0.003870 -184438.000000 0 0 1
26.864439 -4.033782 22.427029 35.226995 -0.149040 0.880659 0.096311 0.007932 274902.000000 0 0 1
25.962239 -4.167982 21.322529 33.853511 -0.159182 0.889440 0.104656 0.001805 167296.000000 0 0 1
26.403439 -3.410482 20.077229 33.344687 -0.128457 0.924653 0.110824 0.001555 77640.900000 0 0 1
26.286439 -2.035782 20.282629 33.264190 -0.077292 0.915059 0.098223 0.011641 126460.000000 0 0 1
26.634139 -1.336182 19.116729 32.811768 -0.050126 0.948850 0.096288 0.001016 -615129.000000 0 0 1
25.449039 -0.537482 18.596129 31.523936 -0.021117 0.939855 0.101503 -0.008400 -1176340.000000 0 0 1
24.534139 -1.361682 17.997329 30.457873 -0.055445 0.938632 0.091681 -0.004924 -509862.000000 0 0 1
23.486839 -0.564182 17.449729 29.265047 -0.024017 0.931956 0.111409 -0.011977 390130.000000 0 0 1
22.262339 -1.328982 16.895929 27.979464 -0.059626 0.922450 0.127602 -0.015495 204735.000000 0 0 1
22.490039 -1.873082 15.662829 27.470612 -0.083093 0.964088 0.152219 -0.025099 198201.000000 0 0 1
21.334439 -2.564482 15.229529 26.337681 -0.119630 0.954225 0.167290 -0.030789 25867.000000 0 0 1
21.445639 -3.187582 13.787529 25.693814 -0.147555 1.004383 0.186788 -0.049341 -839357.000000 0 0 1
20.368139 -3.945682 13.380129 24.687191 -0.191348 0.997997 0.191591 -0.050215 -165639.000000 0 1 0
20.396739 -4.232082 12.011829 24.046238 -0.204585 1.047740 0.170621 -0.050468 475058.000000 0 1 0
19.202339 -5.158282 11.546429 22.992559 -0.262432 1.044677 0.154910 -0.050272 410196.000000 0 1 0
19.305739 -6.469782 12.026729 23.647661 -0.323360 1.037261 0.163875 -0.055967 576014.000000 0 1 0
18.090439 -7.188082 12.042629 22.890117 -0.378212 1.016781 0.144790 -0.042954 -143552.000000 0 1 0
18.324639 -8.646582 12.533729 23.825410 -0.440880 1.016829 0.163359 -0.046089 -391957.000000 0 1 0
18.847639 -9.419282 11.462829 23.986514 -0.463455 1.072549 0.135535 -0.053134 469807.000000 0 1 0
18.713139 -10.824282 11.700329 24.581383 -0.524410 1.074714 0.156664 -0.050887 51911.000000 0 1 0
19.246239 -11.746282 10.508529 24.876135 -0.547970 1.134667 0.139374 -0.047563 429226.000000 0 1 0
18.482239 -11.505782 9.339629 23.689763 -0.556822 1.165547 0.116407 -0.037990 497763.000000 0 1 0
19.240339 -11.917182 8.234829 24.083652 -0.554552 1.221831 0.118203 -0.043223 -100626.000000 0 1 0
18.861739 -11.222382 6.929629 23.015796 -0.536721 1.264970 0.103671 -0.026766 -168227.000000 0 1 0
19.189539 -9.876982 6.867429 22.648505 -0.475344 1.262729 0.100967 -0.021520 433025.000000 0 1 0
19.610939 -9.630682 5.567929 22.546415 -0.456492 1.321261 0.084545 -0.020619 -292141.000000 0 1 0
19.912639 -8.108482 5.355329 22.157171 -0.386700 1.326682 0.085956 -0.021454 -414289.000000 0 1 0
20.509939 -7.814282 4.115629 22.330675 -0.364020 1.385433 0.104276 -0.028133 629790.000000 0 1 0
20.955539 -6.484082 4.130429 22.321255 -0.300077 1.384679 0.117296 -0.028060 -461142.000000 0 1 0
21.498039 -5.981182 2.788529 22.488133 -0.271357 1.446476 0.136450 -0.035043 -435284.000000 0 1 0
20.584939 -5.836782 1.726429 21.465980 -0.276294 1.490283 0.089734 -0.045410 358767.000000 0 1 0
21.195439 -5.247282 0.611029 21.843855 -0.242687 1.542820 0.108445 -0.035109 -381428.000000 0 1 0
-26.257461 -14.922782 0.108129 30.201910 0.516804 1.567216 0.118119 -0.014362 -606159.000000 0 0 1
-25.307661 -14.208782 -0.637971 29.030573 0.511585 1.592774 0.100548 -0.007953 -87264.300000 0 0 1
-23.970111 -14.629582 -0.483671 28.086025 0.547978 1.588018 0.109088 0.001038 616876.000000 0 0 1
-23.194211 -14.259282 0.849329 27.240042 0.551215 1.539612 0.145882 -0.021392 -223688.000000 0 0 1
-23.790211 -14.776482 2.040829 28.079949 0.555802 1.498053 0.130782 -0.000685 71404.900000 0 0 1
-22.885611 -14.738882 3.137629 27.401287 0.572163 1.456038 0.131600 0.002772 307209.000000 0 0 1
-23.439611 -15.443782 4.390229 28.411263 0.582589 1.415650 0.145122 0.004384 25141.900000 0 0 1
-23.299711 -16.830882 4.313729 29.064814 0.625578 1.421828 0.186685 -0.015840 250216.000000 0 0 1
-23.923611 -17.471182 5.420529 30.115835 0.630767 1.389821 0.188982 -0.020889 48828.200000 0 0 1
-23.980611 -19.007882 5.216829 31.041659 0.670234 1.401936 0.151899 -0.018152 142785.000000 0 0 1
-24.612411 -19.614982 6.344829 32.105687 0.672881 1.371864 0.142584 -0.025020 223566.000000 0 0 1
-24.918811 -20.935282 6.087629 33.110307 0.698742 1.385885 0.133081 -0.032020 126515.000000 0 0 1
-25.502681 -21.742382 7.283529 34.295302 0.705974 1.356790 0.122781 -0.024688 180997.000000 0 0 1
-24.465811 -22.092682 8.174829 33.963073 0.734471 1.327712 0.119140 -0.019108 -14007.800000 0 0 1
-24.918511 -22.908382 9.236729 35.086227 0.743394 1.304399 0.102328 -0.012962 -42664.100000 0 0 1
-23.959411 -23.038382 10.443729 34.840952 0.765803 1.266361 0.096507 -0.018985 -18657.700000 0 0 1
-24.162511 -22.025382 11.422529 34.632623 0.739161 1.234683 0.093313 -0.021484 -497679.000000 0 0 1
-23.253511 -22.182182 12.417329 34.452359 0.761824 1.202078 0.081916 -0.021554 -1031490.000000 0 0 1
-23.615211 -21.351982 13.590029 34.616098 0.735110 1.167347 0.059365 -0.015558 -32539.400000 0 0 1
-24.780311 -21.799682 14.256929 35.952051 0.721496 1.163036 0.061885 -0.018995 15283.300000 0 0 1
-25.132171 -21.156082 15.440029 36.298765 0.699710 1.131437 0.066283 -0.008317 -651062.000000 0 0 1
-26.475211 -21.635182 15.971529 37.737351 0.685133 1.133790 0.046625 -0.011762 343158.000000 0 0 1
-27.645761 -21.356482 15.151529 38.078291 0.657749 1.161565 0.053698 -0.016464 779048.000000 0 0 1
-27.952291 -22.340982 14.176429 38.489235 0.674286 1.193593 0.052493 -0.015022 -703231.000000 0 0 1
-28.967321 -23.430582 14.489229 39.975438 0.680122 1.199897 0.045988 -0.010535 -549423.000000 0 0 1
-28.720741 -24.165982 15.689029 40.681953 0.699487 1.174883 0.043266 0.000005 26849.200000 0 0 1
-29.535641 -25.320892 15.952529 42.047412 0.708717 1.181655 0.033966 -0.004342 -150168.000000 0 0 1
-29.244111 -26.567622 15.047929 42.278798 0.737479 1.206896 0.045775 -0.005346 125739.000000 0 0 1
-29.811701 -26.593422 13.722229 42.240350 0.728403 1.239932 0.061954 -0.019803 -143827.000000 0 0 1
-31.142511 -27.052992 13.741729 43.480519 0.715241 1.249240 0.099167 -0.034613 -240406.000000 0 0 1
-31.630211 -27.258022 12.276129 43.522102 0.711289 1.284849 0.152052 -0.043872 -86267.800000 0 0 1
-31.135961 -28.441332 11.676129 43.757164 0.740200 1.300684 0.130839 -0.043354 172885.000000 0 0 1
-31.775501 -28.721492 10.446529 44.087828 0.734959 1.331573 0.153939 -0.036062 122510.000000 0 0 1
-31.266521 -30.037112 9.794429 44.449458 0.765346 1.348623 0.129611 -0.041752 -127524.000000 0 0 1
-31.450931 -31.211292 10.574629 45.553579 0.781574 1.336523 0.115604 -0.025690 4057.290000 0 0 1
-31.011911 -32.395162 9.970129 45.941143 0.807210 1.352036 0.109550 -0.033822 -333055.000000 0 0 1
-31.220321 -33.603392 10.871229 47.138944 0.822144 1.338081 0.095327 -0.031797 -920424.000000 0 0 1
-32.517821 33.725106 11.060629 48.136566 -0.803621 1.338949 0.085945 -0.026614 -1002150.000000 0 0 1
-32.490741 32.562806 11.849229 47.501461 -0.786506 1.318684 0.096128 -0.030502 -456892.000000 0 0 1
-33.849271 32.113489 12.467629 48.295870 -0.759090 1.309688 0.093253 -0.019468 135186.000000 0 0 1
-34.917117 31.781797 11.644129 48.629964 -0.738426 1.329004 0.064752 -0.023047 -161053.000000 0 0 1
-35.449847 32.920380 10.925829 49.596540 -0.748418 1.348680 0.096179 -0.024253 -1037680.000000 0 0 1
-36.947171 32.751682 10.597329 50.498213 -0.725276 1.359369 0.077840 -0.006044 12049.000000 0 0 1
-37.182151 31.998132 9.393429 49.946264 -0.710603 1.381599 0.053720 -0.012757 84776.700000 0 0 1
36.237129 32.025014 9.143229 49.217169 0.723771 1.383938 0.042016 -0.010204 -169402.000000 0 0 1
35.880439 31.547075 7.678429 48.389897 0.721219 1.411444 0.048584 -0.014248 12462.400000 0 0 1
36.332589 30.243815 7.407229 47.849895 0.694196 1.415370 0.065378 -0.021300 53731.000000 0 0 1
36.021939 29.758105 6.118029 47.122768 0.690460 1.440597 0.089278 -0.022948 71645.400000 0 0 1
36.027399 28.206545 5.914729 46.136393 0.664239 1.442242 0.108394 -0.020666 73319.900000 0 0 1
35.105799 27.474785 6.691329 45.078319 0.664058 1.421808 0.093458 -0.017012 155068.000000 0 0 1
35.591879 27.141135 8.003929 45.469616 0.651495 1.393846 0.077798 -0.016940 523466.000000 0 0 1
34.649949 26.008515 8.528429 44.156494 0.643890 1.376434 0.071238 -0.010898 295710.000000 0 0 1
34.819709 24.838405 7.761929 43.469599 0.619625 1.391274 0.071856 -0.017190 442524.000000 0 0 1
33.715449 23.937985 7.922829 42.101424 0.617406 1.381483 0.060969 -0.020571 41761.200000 0 0 1
33.747219 22.667015 7.045129 41.258966 0.591459 1.399202 0.070792 -0.014579 384223.000000 0 0 1
34.745079 21.712115 7.328429 41.621417 0.558526 1.393800 0.078268 -0.010287 750267.000000 0 0 1
36.148839 21.946615 7.185029 42.895421 0.545637 1.402502 0.096448 -0.023668 954840.000000 0 0 1
37.038819 20.668915 7.148229 43.013665 0.508990 1.403837 0.084966 -0.021217 42544.800000 0 0 1
36.877619 19.926315 6.011929 42.345722 0.495394 1.428342 0.106237 -0.031437 51999.000000 0 0 1
-37.401921 18.631215 6.181229 42.240188 -0.462155 1.423934 0.111014 -0.034271 -60576.700000 0 0 1
36.671739 17.621315 5.249629 41.022991 0.447938 1.442476 0.114655 -0.033241 -235312.000000 0 0 1
37.086499 17.494515 3.904329 41.191143 0.440770 1.475868 0.134118 -0.037002 56478.300000 0 0 1
36.646409 16.240215 3.404529 40.228034 0.417151 1.486064 0.115992 -0.040578 -1157120.000000 0 0 1
-37.365881 15.810915 2.188529 40.632299 -0.400292 1.516908 0.151220 -0.032176 824989.000000 0 0 1
-36.148841 15.064815 2.454829 39.239184 -0.394857 1.508195 0.154226 -0.041423 380137.000000 0 0 1
-35.076533 15.908015 2.738629 38.612540 -0.425780 1.499811 0.156455 -0.048246 -1128440.000000 0 0 1
-33.736901 15.148615 2.813029 37.088706 -0.422040 1.494877 0.173064 -0.052236 -87909.800000 0 0 1
-33.380411 14.460115 3.973729 36.594225 -0.408789 1.461993 0.163406 -0.050436 654627.000000 0 0 1
-31.993831 14.105415 3.902629 35.182360 -0.415243 1.459642 0.181509 -0.059061 502847.000000 0 0 1
-31.541351 13.359615 5.165929 34.641347 -0.400649 1.421112 0.194454 -0.046619 -135065.000000 0 0 1
-31.923101 12.019215 5.131329 34.494586 -0.360090 1.421485 0.204432 -0.047722 184523.000000 0 0 1
-31.386721 11.363915 6.252429 33.961120 -0.347379 1.385635 0.183992 -0.030577 -103375.000000 0 0 1
-31.669571 9.876315 6.410829 33.787602 -0.302297 1.379900 0.203227 -0.035515 1594010.000000 0 0 1
-33.048711 9.563915 6.806729 35.071603 -0.281693 1.375476 0.194412 -0.028284 1680630.000000 0 0 1
-33.011281 8.200315 7.055029 34.738498 -0.243481 1.366284 0.221333 -0.030717 131793.000000 0 0 1
-34.365582 7.461615 6.957329 35.847920 -0.213806 1.375478 0.185010 -0.026100 -140187.000000 0 0 1
-35.202113 7.419815 8.063229 36.868117 -0.207737 1.350310 0.169353 -0.025454 187314.000000 0 0 1
-36.349101 6.623615 7.808929 37.763855 -0.180245 1.362510 0.131271 -0.026634 165418.000000 0 0 1
-37.198431 6.093415 8.936729 38.739103 -0.162366 1.338009 0.113285 -0.015896 -163389.000000 0 0 1
36.958119 7.084915 9.762829 38.876876 0.189403 1.316957 0.115727 -0.013535 154743.000000 0 0 1
-37.035541 7.791415 10.694029 39.328103 -0.207353 1.295410 0.147009 -0.024242 -453090.000000 0 0 1
37.142289 8.690015 11.795129 39.927323 0.229831 1.270906 0.134567 -0.029650 -318238.000000 0 0 1
36.497719 7.976115 12.841129 39.504386 0.215155 1.239726 0.119370 -0.028251 753025.000000 0 0 1
35.902849 8.887115 13.793029 39.474588 0.242655 1.213849 0.138114 -0.034409 134758.000000 0 0 1
35.028259 8.362115 14.973329 39.001340 0.234339 1.176760 0.134592 -0.032394 -386890.000000 0 0 1
33.779189 7.845415 14.620429 37.634308 0.228210 1.171808 0.128131 -0.037872 -209925.000000 0 0 1
33.177459 7.389215 15.824229 37.493340 0.219141 1.135086 0.119153 -0.026618 -527186.000000 0 0 1
31.678309 7.108815 15.755929 36.087392 0.220749 1.118975 0.112484 -0.023115 -1129540.000000 0 0 1
30.937329 8.302515 15.918229 35.769262 0.262188 1.109594 0.118803 -0.030383 444700.000000 0 0 1
29.532239 8.064415 15.845829 34.471412 0.266572 1.093161 0.123083 -0.028733 505589.000000 0 0 1
28.872239 7.593815 17.151529 34.430324 0.257190 1.049330 0.116728 -0.036453 -797451.000000 0 0 1
28.798739 8.611915 18.157229 35.117196 0.290574 1.027399 0.134466 -0.044413 16459.400000 0 0 1
28.097439 8.242315 19.319929 35.080786 0.285343 0.987562 0.126746 -0.030625 -244307.000000 0 0 1
28.670739 7.134515 20.300929 35.847459 0.243890 0.968769 0.121954 -0.027914 -213743.000000 0 0 1
27.951139 7.020215 21.489229 35.949083 0.246070 0.930082 0.093925 -0.011995 -358029.000000 0 0 1
28.520739 6.113515 22.360129 36.753000 0.211158 0.916767 0.083259 -0.015135 -682940.000000 0 0 1
27.677639 5.957515 23.686329 36.913221 0.212012 0.874115 0.080464 -0.000306 549357.000000 0 0 1
26.465539 5.259915 23.452729 35.750832 0.196189 0.855283 0.060522 -0.006992 27061.900000 0 0 1
25.411839 6.183015 23.170629 34.940941 0.238675 0.845794 0.075242 -0.010030 -679949.000000 0 0 1
24.023739 5.579115 22.997529 33.721698 0.228189 0.820330 0.088328 -0.018000 -611326.000000 0 0 1
23.692739 5.357815 21.605329 32.509112 0.222397 0.843847 0.085065 -0.016630 1296700.000000 0 0 1
22.313239 5.119115 21.258829 31.241380 0.225518 0.822392 0.072730 -0.015567 483272.000000 0 0 1
21.529539 3.880315 21.874129 30.936313 0.178318 0.785451 0.093223 -0.018787 -166031.000000 0 0 1
20.276839 3.645015 21.294329 29.629121 0.177863 0.768871 0.097517 -0.024164 99589.000000 0 0 1
19.218139 4.485215 21.736929 29.358953 0.229280 0.737153 0.111894 -0.027930 -14666.800000 0 0 1
17.912539 4.230415 20.916829 27.861609 0.231921 0.721614 0.148271 -0.034039 258416.000000 0 0 1
17.164539 3.148715 21.410429 27.621410 0.181426 0.683861 0.153110 -0.035566 114434.000000 0 0 1
16.045039 2.789115 20.602129 26.261572 0.172111 0.668911 0.174409 -0.039248 204156.000000 0 0 1
15.273739 1.662515 21.366429 26.316827 0.108421 0.623410 0.199030 -0.030700 -182387.000000 0 0 1
15.755639 0.354915 21.043729 26.290772 0.022522 0.642796 0.161994 -0.028630 666757.000000 0 0 1
14.897239 -0.625785 21.648729 26.286628 -0.041982 0.603130 0.189291 -0.035469 195838.000000 0 0 1
15.238439 -2.152385 21.514929 26.452504 -0.140319 0.620923 0.157431 -0.019916 -197555.000000 0 0 1
14.806639 -2.623985 20.271129 25.239662 -0.175396 0.638240 0.165029 -0.010207 199162.000000 0 0 1
15.074439 -4.015885 20.070029 25.419916 -0.260357 0.660738 0.119928 -0.007649 -304063.000000 0 0 1
14.511639 -4.532785 18.718629 24.114745 -0.302753 0.682130 0.118163 -0.014525 593590.000000 0 1 0
13.092439 -4.682385 18.638829 23.253874 -0.343465 0.640936 0.125291 -0.017971 482996.000000 0 1 0
12.702239 -5.072885 17.336129 22.082175 -0.379963 0.667982 0.121749 -0.019757 -547712.000000 0 1 0
11.196339 -5.158885 17.207129 21.167367 -0.431770 0.621668 0.108196 -0.020186 -726502.000000 0 1 0
10.498639 -5.993885 18.074329 21.744642 -0.518763 0.589519 0.101709 -0.012272 82950.600000 0 1 0
9.105539 -6.003785 17.772329 20.852146 -0.582924 0.550425 0.077126 -0.027320 473679.000000 0 1 0
8.251339 -6.717685 18.813029 21.613467 -0.683299 0.514719 0.077585 -0.021595 -355806.000000 0 1 0
8.235239 -8.105285 18.673629 21.959491 -0.777445 0.554114 0.073916 -0.023660 184882.000000 0 1 0
9.161739 -8.943185 19.393929 23.238815 -0.773327 0.583483 0.107916 -0.018557 514928.000000 0 1 0
9.164839 -10.422585 18.864529 23.419971 -0.849522 0.634296 0.124235 -0.033425 94307.300000 0 1 0
9.443339 -10.454985 17.476029 22.447605 -0.836195 0.678484 0.109959 -0.028850 45527.200000 0 1 0
9.966239 -11.692985 17.057529 22.956723 -0.864953 0.733210 0.121660 -0.040418 251130.000000 0 1 0
9.764339 -11.957485 15.558629 21.917909 -0.886022 0.781498 0.110357 -0.034199 159225.000000 0 1 0
10.520139 -13.048385 15.111729 22.567633 -0.892262 0.837100 0.099182 -0.032716 -13441.100000 0 1 0
10.079639 -13.338285 13.800929 21.678898 -0.923662 0.880706 0.069978 -0.018736 -2815.600000 0 1 0
10.907639 -14.479485 13.138429 22.388622 -0.925176 0.943652 0.091461 -0.025032 1002710.000000 0 1 0
12.267639 -14.243985 12.757529 22.718729 -0.859807 0.974548 0.078472 -0.026902 654541.000000 0 1 0
12.328839 -13.405085 11.578529 21.581449 -0.827196 1.004508 0.041983 -0.026667 -644110.000000 0 1 0
13.729639 -13.102885 11.025929 21.949025 -0.762044 1.044490 0.072034 -0.034345 -382685.000000 0 1 0
14.384139 -14.167285 10.422529 22.721016 -0.777803 1.094245 0.074401 -0.032514 1111570.000000 0 1 0
15.673839 -13.757185 9.856429 23.066829 -0.720366 1.129293 0.075191 -0.043157 1336610.000000 0 1 0
16.541339 -15.000285 9.576129 24.296640 -0.736579 1.165671 0.066408 -0.042832 -175696.000000 0 1 0
17.003539 -15.738185 10.679229 25.511894 -0.746771 1.138895 0.061313 -0.031401 -193315.000000 0 0 1
16.153839 -16.760685 11.093329 25.786218 -0.803833 1.126078 0.099680 -0.026621 -76366.400000 0 0 1
16.769139 -17.600685 12.271429 27.231895 -0.809588 1.103329 0.085573 -0.023353 -211360.000000 0 0 1
17.914839 -18.326885 11.953329 28.278937 -0.796767 1.134381 0.103129 -0.029837 -378084.000000 0 0 1
18.406939 -19.015085 13.087529 29.524097 -0.801648 1.111538 0.065647 -0.020707 -919164.000000 0 0 1
19.614139 -19.837685 12.733929 30.665961 -0.791064 1.142583 0.031347 -0.019941 -752598.000000 0 0 1
20.676939 -18.951985 12.475429 30.697718 -0.741898 1.152290 0.040382 -0.026481 -686946.000000 0 0 1
21.864139 -19.560085 12.037629 31.710283 -0.729834 1.181419 0.034893 -0.028549 129295.000000 0 0 1
22.643539 -18.699685 11.038729 31.372944 -0.690293 1.211244 0.059257 -0.027757 -403887.000000 0 0 1
22.308739 -18.892485 9.673029 30.792423 -0.702671 1.251249 0.046557 -0.030817 1165210.000000 0 0 1
21.006239 -18.384685 9.238829 29.404331 -0.718944 1.251183 0.060185 -0.033274 1446560.000000 0 0 1
20.724239 -16.827885 9.369929 28.292532 -0.682010 1.233242 0.117356 -0.052630 -37604.600000 0 0 1
21.794839 -16.167885 8.718529 28.503128 -0.638246 1.259934 0.112683 -0.039577 129670.000000 0 0 1
21.665039 -14.764785 8.783029 27.649854 -0.598204 1.247544 0.130210 -0.044262 -141459.000000 0 0 1
-35.851782 24.791918 8.258429 44.364300 -0.605006 1.383554 0.107713 -0.021904 -669082.000000 0 0 1
-34.902937 24.020918 8.845429 43.283497 -0.602776 1.364986 0.113714 -0.036902 -486045.000000 0 0 1
-33.765481 24.822518 9.148329 42.894720 -0.633926 1.355871 0.126992 -0.036323 1021360.000000 0 0 1
-32.540521 24.036218 9.813829 41.628554 -0.636201 1.332809 0.144492 -0.048173 1123320.000000 0 0 1
-31.910941 23.147518 8.869529 40.407725 -0.627556 1.349494 0.142801 -0.046791 369666.000000 0 0 1
-30.729941 22.562218 9.418329 39.269426 -0.633318 1.328597 0.143079 -0.046103 337403.000000 0 0 1
-30.045311 21.768418 8.311429 38.021896 -0.626993 1.350421 0.141368 -0.054104 -123295.000000 0 0 1
-30.910761 20.773518 7.800329 38.050746 -0.591719 1.364335 0.153857 -0.060777 104216.000000 0 0 1
-30.345121 20.137318 6.700629 37.030209 -0.585883 1.388844 0.160452 -0.066810 -886572.000000 0 0 1
-31.301441 19.310818 5.928429 37.253646 -0.552776 1.410980 0.149163 -0.056898 -979270.000000 0 0 1
-31.798971 18.191918 6.601729 37.225035 -0.519646 1.392507 0.153955 -0.057043 330712.000000 0 0 1
-32.931641 17.744818 5.883229 37.867980 -0.494233 1.414803 0.116281 -0.048846 -70565.400000 0 0 1
-33.654691 16.473718 6.341229 38.003063 -0.455206 1.403151 0.114834 -0.033163 -190085.000000 0 0 1
-34.495053 16.708818 7.453429 39.046727 -0.451076 1.378733 0.091990 -0.032289 637215.000000 0 0 1
-35.401127 15.584518 7.607929 39.420776 -0.414697 1.376585 0.098177 -0.034561 177174.000000 0 0 1
-36.403761 15.730218 8.737829 40.608167 -0.407873 1.353926 0.084744 -0.024942 -859370.000000 0 0 1
37.386969 16.645318 8.531229 41.804712 0.418869 1.365279 0.089238 -0.025810 -614547.000000 0 0 1
36.817019 16.948518 9.761729 41.689765 0.431423 1.334450 0.094821 -0.018191 -235410.000000 0 0 1
35.796619 18.095618 9.697429 41.266081 0.468047 1.333580 0.083405 -0.018730 131101.000000 0 0 1
34.531539 17.740618 9.155329 39.887050 0.474588 1.339200 0.089986 -0.027375 -161974.000000 0 0 1
33.779999 18.902518 9.129929 39.771210 0.510166 1.339169 0.074461 -0.020319 86398.300000 0 0 1
32.301279 18.861018 8.655329 38.393038 0.528504 1.343402 0.056606 -0.021280 511653.000000 0 0 1
31.655039 20.107518 8.871929 38.536540 0.565906 1.338491 0.061370 -0.016045 -124061.000000 0 0 1
30.337829 20.297718 8.387329 37.453018 0.589655 1.344938 0.031623 -0.010738 392902.000000 0 0 1
29.977929 20.394918 6.813429 36.892435 0.597403 1.385046 0.027494 -0.002437 -330652.000000 0 0 1
30.141029 19.092518 6.234029 36.219732 0.564645 1.397818 0.047456 -0.009575 262818.000000 0 0 1
29.632539 18.958218 4.898329 35.517531 0.569155 1.432442 0.051853 -0.012721 95803.300000 0 0 1
28.197839 19.359318 4.423229 34.488640 0.601644 1.442190 0.072894 -0.012806 -243883.000000 0 0 1
27.293139 18.456818 5.055429 33.333571 0.594604 1.418547 0.069554 -0.014577 1082750.000000 0 0 1
25.876639 18.713318 4.950929 32.315637 0.626110 1.416985 0.100354 -0.019059 1113940.000000 0 0 1
25.323839 19.979218 5.544029 32.729226 0.667966 1.400585 0.111929 -0.013055 -1042570.000000 0 0 1
25.434339 21.032718 4.588029 33.321627 0.690954 1.432668 0.076643 -0.019013 255028.000000 0 0 1
24.954639 22.286618 5.063629 33.838849 0.728982 1.420593 0.079786 -0.014583 -90184.500000 0 0 1
25.911639 23.463918 4.764229 35.279829 0.735865 1.435341 0.052389 -0.017056 -330551.000000 0 0 1
27.189739 23.248118 5.279829 36.161215 0.707409 1.424264 0.055338 -0.019732 -583914.000000 0 0 1
28.048139 24.331618 5.053329 37.473482 0.714563 1.435533 0.070207 -0.020415 -865179.000000 0 0 1
29.426039 24.177518 5.709729 38.510325 0.687796 1.421983 0.065145 -0.024497 -237891.000000 0 0 1
30.247019 23.132918 5.205229 38.433169 0.652906 1.434943 0.054671 -0.019411 69983.600000 0 0 1
30.501079 22.908618 3.817429 38.336580 0.644189 1.471054 0.058860 -0.021871 -488253.000000 0 0 1
31.442049 23.924118 3.108429 39.631152 0.650438 1.492282 0.098947 -0.031442 -275890.000000 0 0 1
30.940769 25.232518 3.048029 40.041249 0.684127 1.494600 0.070685 -0.033113 -273990.000000 0 0 1
31.701479 26.128518 2.259529 41.143513 0.689327 1.515850 0.131604 -0.026843 -922399.000000 0 0 1
31.239539 27.574618 2.422629 41.738921 0.723165 1.512721 0.108472 -0.023567 -236069.000000 0 0 1
29.952349 27.958618 2.047129 41.024606 0.750984 1.520876 0.136977 -0.024808 -214918.000000 0 0 1
28.937739 27.506518 2.951629 40.033903 0.760047 1.497001 0.099656 -0.022153 -1141710.000000 0 0 1
27.581539 28.055218 2.594629 39.428019 0.793912 1.504942 0.066178 -0.015196 -919847.000000 0 0 1
27.494639 29.430818 2.883929 40.378773 0.819398 1.499314 0.053389 -0.028398 -212252.000000 0 0 1
26.190839 29.930818 2.766629 39.868135 0.851940 1.501346 0.054733 -0.018391 -271681.000000 0 0 1
25.988939 31.320218 3.433929 40.843272 0.878158 1.486621 0.066234 -0.028684 -145985.000000 0 0 1
26.145839 31.402618 4.833729 41.147227 0.876491 1.453050 0.083863 -0.050273 452995.000000 0 0 1
27.476639 31.514518 5.334329 42.149562 0.853740 1.443899 0.081998 -0.051334 190205.000000 0 0 1
27.564139 31.363018 6.864129 42.314737 0.849776 1.407860 0.122326 -0.068836 -331769.000000 0 0 1
27.106839 30.118618 7.415929 41.193542 0.837980 1.389783 0.118004 -0.068242 216663.000000 0 0 1
27.766439 28.864318 7.147329 40.684251 0.804782 1.394202 0.078505 -0.067867 188311.000000 0 0 1
26.885039 27.718918 7.720729 39.379606 0.800668 1.373459 0.098283 -0.065058 663234.000000 0 0 1
25.651639 27.447018 7.062929 38.226043 0.819197 1.384961 0.081019 -0.066499 581886.000000 0 0 1
24.860639 26.382818 7.571729 37.032898 0.815094 1.364885 0.084145 -0.043374 223292.000000 0 0 1
23.433239 26.286218 6.978329 35.899569 0.842717 1.375166 0.098919 -0.024110 68152.200000 0 0 1
23.307939 25.979218 5.604429 35.349532 0.839543 1.411581 0.066277 -0.025387 -47158.400000 0 0 1
23.812239 26.885918 4.670329 36.217224 0.845951 1.441483 0.055594 -0.017441 -370437.000000 0 0 1
23.497539 26.585918 3.201729 35.625783 0.846985 1.480804 0.056005 -0.007167 -289496.000000 0 0 1
24.390939 25.667318 2.617829 35.504678 0.810890 1.496997 0.040992 0.007985 158555.000000 0 0 1
24.365739 25.811518 1.212429 35.516105 0.814204 1.536652 0.058307 0.012028 -377341.000000 0 0 1
25.547839 25.179718 0.469529 35.873817 0.778141 1.557708 0.067975 0.003680 -911804.000000 0 0 1
26.758839 25.905518 0.453529 37.246973 0.769197 1.558620 0.056904 0.005310 -203453.000000 0 0 1
27.749939 25.346718 -0.333271 37.584921 0.740168 1.579664 0.080370 0.003782 -137872.000000 0 0 1
28.532239 24.116318 0.194729 37.359381 0.701719 1.565584 0.082029 -0.009178 -859989.000000 0 0 1
27.685439 23.014418 0.255529 36.002948 0.693527 1.563699 0.073622 -0.012991 603871.000000 0 0 1
28.340639 21.851218 0.854829 35.796624 0.656819 1.546914 0.081170 -0.022558 511439.000000 0 0 1
27.171239 20.944818 1.288029 34.331045 0.656709 1.533270 0.074945 -0.018151 391151.000000 0 0 1
26.531339 20.155418 0.285229 33.320177 0.649670 1.562236 0.104390 -0.036229 239789.000000 0 0 1
25.442839 19.491518 0.851829 32.062173 0.653720 1.544225 0.078186 -0.022404 -614980.000000 0 0 1
25.069739 18.198518 0.073729 30.978756 0.627908 1.568416 0.104242 -0.031023 198398.000000 0 0 1
23.713139 17.825518 0.287329 29.667231 0.644598 1.561111 0.094285 -0.023537 412850.000000 0 0 1
23.279939 16.871818 -0.624671 28.757678 0.627135 1.592520 0.118855 -0.049063 985827.000000 0 0 1
21.782839 16.473918 -0.307471 27.312572 0.647508 1.582054 0.102337 -0.030689 533280.000000 0 0 1
21.096339 15.595018 -1.179571 26.261217 0.636572 1.615728 0.100852 -0.037416 319515.000000 0 0 1
19.787439 15.333318 -0.726771 25.043594 0.659249 1.599821 0.112746 -0.040862 -111591.000000 0 0 1
18.651939 16.247118 -1.200271 24.764982 0.716599 1.619282 0.113853 -0.045628 -660961.000000 0 1 0
18.620239 17.525818 -0.560571 25.576979 0.755130 1.592715 0.105646 -0.031500 229706.000000 0 0 1
17.697139 18.340918 -1.267071 25.518297 0.803260 1.620470 0.083567 -0.031672 225324.000000 0 0 1
17.764439 19.797418 -0.706371 26.608495 0.839469 1.597346 0.085766 -0.023092 -133004.000000 0 0 1
17.199639 19.933918 0.566729 26.334575 0.858899 1.549274 0.088116 -0.024928 -60448.300000 0 0 1
17.292439 21.255618 1.107029 27.423626 0.887850 1.530418 0.098139 -0.022045 140317.000000 0 0 1
16.171939 22.210818 0.650729 27.482276 0.941452 1.547116 0.081435 -0.034048 -442129.000000 0 0 1
14.910639 22.015718 1.203329 26.617043 0.975487 1.525572 0.060201 -0.028895 -527519.000000 0 0 1
13.990739 22.935418 0.657129 26.873890 1.023052 1.546342 0.055047 -0.029391 118626.000000 0 0 1
12.599239 22.965418 1.323629 26.227909 1.069015 1.520308 0.045213 -0.032695 170267.000000 0 0 1
12.734039 23.375218 2.664829 26.751783 1.071980 1.471018 0.043644 -0.015817 -399334.000000 0 0 1
11.496139 23.333318 3.306429 26.220935 1.113012 1.444361 0.041007 -0.019095 -188514.000000 0 0 1
11.587939 23.765218 4.853529 26.881642 1.117117 1.389249 0.057911 -0.023274 167749.000000 0 0 1
12.276639 22.768518 5.608929 26.468497 1.076288 1.357268 0.066484 -0.034683 319823.000000 0 0 1
11.511739 22.495318 6.772229 26.161471 1.097801 1.308952 0.063450 -0.017081 -318491.000000 0 0 1
12.131539 21.348618 7.683729 25.728922 1.054043 1.267527 0.075645 -0.025356 642575.000000 0 0 1
13.396139 21.579818 8.263829 26.710222 1.015243 1.256247 0.097619 -0.021463 -69619.200000 0 0 1
14.520439 21.682918 7.426429 27.131972 0.980716 1.293543 0.089238 -0.019385 1563.210000 0 0 1
15.881539 21.786418 8.194629 28.178418 0.940894 1.275721 0.114382 -0.025284 449553.000000 0 0 1
16.216439 20.566618 8.852729 27.646509 0.903117 1.244844 0.122225 -0.025414 1995460.000000 0 0 1
17.596239 20.479518 9.381229 28.584012 0.860979 1.236401 0.115455 -0.032333 2115850.000000 0 0 1
17.959339 21.181818 10.719229 29.767586 0.867543 1.202424 0.084509 -0.022120 -371722.000000 0 0 1
17.138739 20.717818 11.767729 29.350363 0.879661 1.158254 0.091895 -0.026378 -12375.900000 0 0 1
17.200139 21.423318 13.016829 30.401335 0.894308 1.128334 0.081106 -0.010153 92427.800000 0 0 1
18.355439 21.056618 14.011029 31.250796 0.853828 1.105887 0.064547 0.000635 1494490.000000 0 0 1
19.659439 21.580318 13.664929 32.232499 0.831943 1.132995 0.070209 -0.004628 1145010.000000 0 0 1
20.632239 21.128018 14.621829 32.952698 0.797270 1.111049 0.055459 -0.004503 2121500.000000 0 0 1
22.157339 21.532018 14.339029 34.061463 0.771086 1.136276 0.065914 -0.014365 1888040.000000 0 0 1
22.698639 20.909018 13.129729 33.538113 0.744382 1.168549 0.082995 -0.008643 385393.000000 0 0 1
24.084439 21.216018 13.085129 34.661221 0.722163 1.183685 0.090273 -0.020803 363123.000000 0 0 1
24.874239 20.778718 11.828829 34.502233 0.695928 1.220855 0.105753 -0.028641 69860.800000 0 0 1
24.606139 21.593018 10.689929 34.438280 0.720270 1.255174 0.112325 -0.038905 16938.500000 0 0 1
25.421039 21.240818 9.631429 34.498783 0.696051 1.287854 0.126219 -0.040637 -595191.000000 0 0 1
25.534039 22.316118 8.588529 34.982269 0.718249 1.322750 0.102019 -0.036277 107811.000000 0 0 1
26.086939 23.580718 8.995229 36.297284 0.734981 1.320366 0.094791 -0.044318 1512750.000000 0 0 1
27.523139 23.698518 8.834129 37.378935 0.710868 1.332199 0.077019 -0.039627 902981.000000 0 0 1
28.103139 24.942918 9.521329 38.763273 0.725893 1.322629 0.088034 -0.052084 -978071.000000 0 0 1
29.364039 25.242018 9.056129 39.767069 0.710055 1.341051 0.080893 -0.046818 -1012450.000000 0 0 1
29.873479 26.375618 9.711629 41.017237 0.723293 1.331757 0.086134 -0.050963 245005.000000 0 0 1
31.067159 27.040618 8.967029 42.151762 0.716214 1.356426 0.081196 -0.044647 159336.000000 0 0 1
30.659789 27.552518 7.724529 41.938434 0.732071 1.385551 0.087359 -0.048950 -350825.000000 0 0 1
31.770969 27.741418 6.899229 42.738509 0.717792 1.408658 0.072496 -0.030711 -395096.000000 0 0 1
31.605709 28.805218 5.752929 43.148089 0.739074 1.437068 0.091090 -0.024834 50575.400000 0 0 1
31.580949 30.109318 6.176829 44.069043 0.761548 1.430171 0.082601 -0.039177 38303.900000 0 0 1
31.481199 30.960118 5.067729 44.444085 0.777053 1.456523 0.073519 -0.043733 82150.200000 0 0 1
31.661019 32.423618 5.436829 45.642855 0.797297 1.451396 0.046752 -0.034961 1228210.000000 0 0 1
30.464009 32.879718 6.139529 45.241856 0.823516 1.434672 0.059595 -0.048080 1077770.000000 0 0 1
30.485919 -33.465580 6.425329 45.723311 -0.831957 1.429803 0.063636 -0.045702 407621.000000 0 0 1
29.100439 -33.075280 7.028929 44.611832 -0.849240 1.412580 0.114742 -0.050680 515931.000000 0 0 1
28.016339 -33.273080 6.166629 43.932226 -0.870958 1.429964 0.108148 -0.054155 -1422160.000000 0 0 1
26.916139 -32.519680 6.496929 42.710868 -0.879399 1.418089 0.095443 -0.056346 -1131410.000000 0 0 1
25.755939 -32.851880 5.588229 42.117012 -0.905887 1.437720 0.119250 -0.051797 -718195.000000 0 0 1
25.911539 -32.283280 4.264329 41.614932 -0.894454 1.468145 0.100652 -0.023054 -243751.000000 0 0 1
24.820939 -32.471380 3.398729 41.012448 -0.918146 1.487831 0.112797 -0.030801 -251026.000000 0 0 1
25.085839 -31.887880 2.003329 40.622033 -0.904225 1.521460 0.107008 -0.019909 129759.000000 0 0 1
25.135239 -30.513180 2.127629 39.589913 -0.881740 1.517029 0.108201 -0.014098 32918.700000 0 0 1
25.563539 -29.846480 0.928329 39.308634 -0.862540 1.547178 0.099567 -0.017045 -61105.900000 0 0 1
25.773739 -28.277180 1.157829 38.278259 -0.831681 1.540544 0.111619 -0.014818 -47776.800000 0 0 1
24.642439 -27.436580 1.115229 36.895250 -0.838999 1.540565 0.101195 -0.004459 -237527.000000 0 0 1
24.238439 -27.126580 -0.182371 36.378380 -0.841567 1.575810 0.089522 -0.010987 43012.000000 0 0 1
23.020439 -26.181780 -0.341671 34.864638 -0.849562 1.580596 0.072069 -0.007335 15210.800000 0 0 1
23.306439 -24.826680 -0.157471 34.052591 -0.816972 1.575421 0.083767 -0.012723 -188595.000000 0 0 1
23.377839 -24.400180 1.210429 33.813567 -0.806793 1.534992 0.055245 -0.002136 918857.000000 0 0 1
22.016839 -24.329580 2.024329 32.875030 -0.835258 1.509181 0.033468 -0.005017 739918.000000 0 0 1
22.127339 -23.549580 3.225529 32.474696 -0.816525 1.471308 0.030331 -0.008870 -434308.000000 0 0 1
20.881439 -23.235980 3.778929 31.467850 -0.838717 1.450417 0.030528 -0.008873 -319037.000000 0 0 1
21.006439 -22.402280 5.103629 31.131651 -0.817543 1.406116 0.019851 -0.012030 -310183.000000 0 0 1
21.238839 -21.007680 5.095029 30.304624 -0.779927 1.401867 0.041056 -0.010202 502841.000000 0 0 1
20.169839 -20.231480 4.525129 28.924246 -0.786924 1.413703 0.029989 -0.006427 -286049.000000 0 0 1
20.165839 -18.701480 4.967629 27.947876 -0.747740 1.392101 0.036272 -0.010350 -121086.000000 0 0 1
19.635939 -18.517980 6.278329 27.711065 -0.756105 1.342248 0.067898 -0.022126 894728.000000 0 0 1
18.202739 -18.607380 6.384729 26.801848 -0.796390 1.330264 0.048504 -0.019873 840198.000000 0 0 1
19.737289 -26.028012 -11.809871 34.734580 -0.921998 1.917717 0.097305 -0.031373 164396.000000 0 0 1
19.714589 -24.626982 -12.072871 33.777322 -0.895734 1.936306 0.115769 -0.034320 -545283.000000 0 0 1
18.429289 -24.197282 -12.428271 32.857405 -0.919896 1.958700 0.093114 -0.039286 -457341.000000 0 0 1
18.251689 -22.775082 -13.155471 32.013980 -0.895209 1.994269 0.085433 -0.040010 -103111.000000 0 0 1
18.326489 -21.636082 -12.265271 30.893642 -0.868027 1.979060 0.088130 -0.040280 -78073.800000 0 0 1
19.542389 -21.351382 -11.589771 31.178667 -0.829606 1.951659 0.083387 -0.033242 -483612.000000 0 0 1
19.742489 -22.002982 -10.203271 31.273053 -0.839495 1.903145 0.093902 -0.025575 -15894.000000 0 0 1
18.841789 -21.711082 -9.148471 30.167510 -0.856035 1.878904 0.084052 -0.035139 -395443.000000 0 0 1
17.525589 -22.151882 -9.338071 29.749819 -0.901472 1.890080 0.105778 -0.031622 -332016.000000 0 0 1
16.541289 -21.500582 -8.300571 28.368799 -0.915031 1.867736 0.090754 -0.033167 -667543.000000 0 0 1
16.342089 -20.123782 -8.491471 27.278848 -0.888734 1.887340 0.078448 -0.028839 204022.000000 0 0 1
15.508589 -19.607182 -7.453471 26.086628 -0.901589 1.860554 0.080043 -0.034034 226016.000000 0 0 1
14.014189 -19.617182 -7.859771 25.357589 -0.950482 1.885944 0.086541 -0.027341 -288706.000000 0 0 1
13.552789 -20.979082 -7.900871 26.195873 -0.997228 1.877175 0.073413 -0.033910 -329346.000000 0 0 1
12.177989 -20.985982 -8.252971 25.628625 -1.044994 1.898660 0.079455 -0.030652 237207.000000 0 0 1
11.488189 -22.340382 -7.987271 26.360343 -1.095826 1.878639 0.086363 -0.030586 -73560.300000 0 0 1
11.330189 -22.620982 -6.610271 26.149144 -1.106452 1.826360 0.081501 -0.033285 59803.600000 0 0 1
10.857789 -23.927282 -6.478271 27.062417 -1.144801 1.812526 0.060444 -0.031903 274786.000000 0 0 1
11.319989 -24.345882 -5.047171 27.319189 -1.135567 1.756612 0.074215 -0.033847 302022.000000 0 0 1
10.511989 -25.420652 -4.622271 27.894029 -1.178688 1.737272 0.088600 -0.024097 191640.000000 0 0 1
11.024689 -25.781372 -3.356371 28.239833 -1.166707 1.689930 0.073279 -0.029112 209306.000000 0 0 1
10.061489 -26.692902 -2.538971 28.638977 -1.210330 1.659567 0.083097 -0.022720 336586.000000 0 0 1
9.119389 -25.969872 -1.758571 27.580611 -1.233095 1.634601 0.058442 -0.015088 -164403.000000 0 0 1
8.466789 -26.887082 -0.889971 28.202726 -1.265725 1.602358 0.055314 -0.016454 591249.000000 0 0 1
7.652589 -26.200742 0.303429 27.297126 -1.286626 1.559680 0.065149 -0.019455 -108419.000000 0 0 1
6.439389 -25.656772 -0.073071 26.452619 -1.324894 1.573559 0.065794 -0.023568 -1036670.000000 0 0 1
5.794389 -25.081122 1.015729 25.761781 -1.343754 1.531358 0.070770 -0.023018 757927.000000 0 0 1
4.341089 -24.570782 0.654229 24.959896 -1.395924 1.544582 0.076066 -0.025357 1400350.000000 0 1 0
3.340489 -25.532302 0.348129 25.752253 -1.440701 1.557278 0.079512 -0.027787 219712.000000 0 0 1
2.036589 -25.002932 0.513029 25.090985 -1.489522 1.550348 0.083223 -0.024651 174691.000000 0 0 1
0.889289 -25.941212 0.090629 25.956609 -1.536529 1.567305 0.096711 -0.018391 83935.500000 0 0 1
0.566489 -26.982562 1.010129 27.007405 -1.549805 1.533386 0.096119 -0.018107 -328571.000000 0 0 1
1.275389 -28.183822 0.846929 28.225374 -1.525575 1.540786 0.082601 -0.020586 -378138.000000 0 0 1
0.819589 -29.393482 1.685429 29.453170 -1.542920 1.513541 0.112881 -0.018595 71946.000000 0 0 1
1.114389 -29.282092 3.074429 29.464129 -1.532758 1.466261 0.085034 -0.015296 172264.000000 0 0 1
0.314489 -30.263232 3.711529 30.491599 -1.560405 1.448771 0.116039 -0.018971 118386.000000 0 0 1
0.582189 -30.153232 5.233929 30.609645 -1.551491 1.398962 0.100345 -0.019991 -625387.000000 0 0 1
1.843889 -30.540882 5.655129 31.114722 -1.510495 1.388030 0.049412 -0.004572 -742003.000000 0 0 1
1.865089 -30.436802 7.061729 31.300887 -1.509595 1.343229 0.052037 -0.008204 871186.000000 0 0 1
3.300889 -30.793582 7.611829 31.891700 -1.464010 1.329793 0.053245 -0.006824 977534.000000 0 0 1
3.623489 -32.114292 7.282429 33.128405 -1.458440 1.349162 0.047968 -0.006870 -330918.000000 0 0 1
4.885889 -32.554302 7.721629 33.812395 -1.421824 1.340396 0.040901 -0.008745 129564.000000 0 0 1
5.218789 33.717686 7.418329 34.916325 1.417236 1.356704 0.046696 0.002988 -499302.000000 0 0 1
5.369789 33.359692 6.059929 34.328216 1.411199 1.393337 0.036459 0.003557 4697.550000 0 0 1
5.409889 31.941763 6.052529 32.957188 1.403021 1.386100 0.054474 0.000420 -469779.000000 0 0 1
5.729789 31.344165 4.614829 32.196022 1.389990 1.426966 0.055765 -0.002935 319695.000000 0 0 1
7.061389 31.437985 4.136729 32.485730 1.349850 1.443110 0.046535 -0.003809 425370.000000 0 0 1
7.874889 30.289475 4.547029 31.625016 1.316440 1.426517 0.052008 -0.009017 787697.000000 0 0 1
9.352589 30.420775 4.067029 32.084813 1.272527 1.443696 0.034150 -0.010196 38088.400000 0 0 1
10.119289 31.370175 4.727729 33.299239 1.258758 1.428338 0.036787 -0.020379 -97941.200000 0 0 1
11.378689 31.509255 4.073729 33.747637 1.224248 1.449790 0.043339 -0.025754 478697.000000 0 0 1
12.556789 31.911178 4.982029 34.652805 1.195913 1.426527 0.044242 -0.033629 159376.000000 0 0 1
13.120789 30.840205 5.757329 34.006179 1.168549 1.400674 0.052283 -0.029423 -900421.000000 0 0 1
14.239889 31.255795 6.421229 34.941828 1.143302 1.385977 0.065320 -0.028035 -1054830.000000 0 0 1
14.851089 30.082545 7.232629 34.319460 1.112219 1.358460 0.064184 -0.027446 -406756.000000 0 0 1
14.193389 29.663445 8.442629 33.950703 1.124512 1.319486 0.059782 -0.017473 -108435.000000 0 0 1
14.858489 28.690845 9.135529 33.576736 1.092945 1.295243 0.064334 -0.015537 -398321.000000 0 0 1
14.518989 28.773895 10.619729 33.934006 1.103484 1.252496 0.058240 -0.011763 213117.000000 0 0 1
15.370789 29.601115 11.412529 35.252418 1.091857 1.241119 0.074037 -0.017044 358791.000000 0 0 1
15.040989 29.476445 12.810229 35.485126 1.098965 1.201453 0.063618 -0.019211 48881.800000 0 0 1
15.644089 30.560325 13.782129 36.994839 1.097667 1.189050 0.068353 -0.026636 -730404.000000 0 0 1
16.982789 30.352455 14.028429 37.503113 1.060674 1.187413 0.062720 -0.028461 -992965.000000 0 0 1
17.540289 31.390565 14.748029 38.865585 1.061240 1.181581 0.071984 -0.030044 448351.000000 0 0 1
18.896589 31.090115 15.475729 39.537002 1.024661 1.168618 0.069851 -0.030224 1681920.000000 0 0 1
20.081889 30.733065 14.720429 39.553693 0.992014 1.189458 0.049890 -0.026106 1037320.000000 0 0 1
20.310389 29.303925 14.814229 38.609498 0.964720 1.177003 0.040057 -0.019102 -626887.000000 0 0 1
21.652489 28.830765 14.259129 38.773265 0.926643 1.194201 0.061938 -0.026308 -787002.000000 0 0 1
22.685989 29.142405 15.134429 39.912214 0.909333 1.181872 0.071887 -0.031220 -787926.000000 0 0 1
23.909489 28.757135 14.567829 40.135497 0.877184 1.199347 0.081255 -0.031546 -304326.000000 0 0 1
25.154089 28.898735 15.454929 41.312467 0.854565 1.187372 0.119725 -0.042357 -158148.000000 0 0 1
25.086589 27.960135 16.493429 41.026081 0.839515 1.157071 0.089960 -0.031160 -83834.100000 0 0 1
26.014189 28.155145 17.554629 42.161775 0.824901 1.141354 0.086106 -0.031774 -134140.000000 0 0 1
27.002689 26.955035 17.628629 42.029605 0.784515 1.137975 0.063465 -0.017361 -140289.000000 0 0 1
26.497889 25.680715 18.050429 41.078647 0.769738 1.115853 0.061628 -0.012014 -4203.220000 0 0 1
26.124689 25.610765 19.425129 41.421568 0.775465 1.082681 0.078714 -0.006697 -217458.000000 0 0 1
25.541689 24.287355 19.854929 40.453328 0.760231 1.057776 0.069845 -0.006451 -351244.000000 0 0 1
26.441289 23.185605 19.866629 40.390556 0.719889 1.056568 0.072935 -0.007924 -228525.000000 0 0 1
25.934389 21.985215 20.336529 39.617126 0.703171 1.031740 0.069968 -0.001807 -437174.000000 0 0 1
26.865189 20.776715 20.143529 39.486353 0.658291 1.035450 0.054534 0.001656 -451017.000000 0 0 1
26.272689 19.548715 20.443729 38.605084 0.639695 1.012714 0.038963 0.021786 -295658.000000 0 0 1
27.079289 18.390315 20.418529 38.579890 0.596580 1.013076 0.050716 0.008101 -252835.000000 0 0 1
27.790589 18.195315 21.774529 39.717962 0.579693 0.990551 0.065678 0.012415 -9973.230000 0 0 1
26.923089 17.758715 22.813829 39.505639 0.583101 0.955154 0.052041 0.023603 27526.600000 0 0 1
27.601989 17.398615 23.971229 40.487053 0.562430 0.937169 0.085644 0.018623 130485.000000 0 0 1
26.675189 16.570215 24.923529 40.091396 0.555851 0.899926 0.054095 0.019902 307681.000000 0 0 1
26.195089 15.424715 24.278329 38.904265 0.532173 0.896877 0.062485 0.016623 390010.000000 0 0 1
25.388989 14.584515 25.123929 38.581352 0.521415 0.861640 0.072815 0.013550 23607.100000 0 0 1
24.684489 13.564015 24.252529 37.168423 0.502456 0.859913 0.074561 0.008563 454492.000000 0 0 1
23.598189 12.865515 24.912729 36.647512 0.499143 0.823316 0.053227 0.007400 830947.000000 0 0 1
22.894289 12.101315 23.941329 35.267231 0.486244 0.824594 0.056512 0.002972 186398.000000 0 0 1
21.582289 11.410515 24.411929 34.524446 0.486342 0.785420 0.053841 -0.004689 1297350.000000 0 0 1
20.418389 12.283615 24.322529 34.049717 0.541592 0.775139 0.054956 -0.010108 666767.000000 0 0 1
19.230589 11.574415 24.532729 33.251127 0.541797 0.740989 0.069766 -0.014559 -99890.500000 0 0 1
17.942889 12.382515 24.781929 33.006332 0.604056 0.721488 0.064442 -0.025120 -73383.100000 0 0 1
17.811689 13.054915 26.020629 34.128584 0.632494 0.703737 0.098006 -0.028624 992611.000000 0 0 1
16.632089 13.897515 26.091329 33.919387 0.696065 0.693183 0.106744 -0.033451 732637.000000 0 0 1
16.130889 14.445815 27.453029 34.965068 0.730344 0.667849 0.104595 -0.026302 124844.000000 0 0 1
15.575189 13.351615 28.235129 34.900927 0.708680 0.628334 0.102982 -0.022022 127686.000000 0 0 1
15.768689 13.513015 29.652229 36.200937 0.708516 0.610954 0.097369 -0.018683 -729402.000000 0 0 1
17.147589 13.230515 30.240929 37.196776 0.657162 0.621513 0.111836 -0.023081 -121778.000000 0 0 1
18.014989 14.372815 29.961829 37.799853 0.673414 0.655663 0.130779 -0.039306 1294110.000000 0 0 1
19.389689 14.008115 30.210329 38.533769 0.625636 0.669719 0.139136 -0.030925 435248.000000 0 0 1
20.390489 15.042715 29.720029 39.055544 0.635603 0.705992 0.151920 -0.035830 -634594.000000 0 0 1
20.402589 15.367615 28.364429 38.170278 0.645558 0.733102 0.140133 -0.039614 103471.000000 0 0 1
20.588289 14.387215 27.367629 37.146423 0.609924 0.742545 0.117101 -0.025866 -308375.000000 0 0 1
20.571189 15.139215 25.992329 36.441334 0.634444 0.776651 0.073987 -0.016271 44788.300000 0 0 1
21.601789 16.105615 25.891529 37.368428 0.640659 0.805332 0.082897 -0.008847 218849.000000 0 0 1
21.536389 16.469915 24.600429 36.609497 0.652873 0.833933 0.057428 0.000046 -5887.930000 0 0 1
22.648789 17.437315 24.157029 37.424453 0.656116 0.869134 0.058369 0.003092 -239053.000000 0 0 1
22.506289 17.764415 22.770429 36.614204 0.668188 0.899628 0.050486 0.005766 306542.000000 0 0 1
23.603989 18.532815 22.277429 37.375091 0.665624 0.932223 0.054081 0.009610 224856.000000 0 0 1
23.881089 19.926015 22.906729 38.627332 0.695358 0.935994 0.070697 0.003085 392876.000000 0 0 1
22.858989 20.911015 22.646929 38.375609 0.740923 0.939566 0.060630 0.006416 670444.000000 0 0 1
23.254189 22.092715 23.320629 39.657246 0.759791 0.942145 0.081166 -0.002459 203289.000000 0 0 1
22.439889 23.350075 22.980129 39.709709 0.805273 0.953659 0.066897 -0.012136 61332.600000 0 0 1
22.794489 23.855915 21.704429 39.493996 0.808147 0.988956 0.078515 -0.008597 470429.000000 0 0 1
21.862389 24.925395 21.491629 39.511132 0.850771 0.995673 0.071233 -0.013068 163176.000000 0 0 1
22.127389 25.977955 20.338929 39.725905 0.865272 1.033306 0.072427 -0.018423 -263627.000000 0 0 1
22.033789 25.499125 19.031229 38.702467 0.858173 1.056719 0.065958 -0.019085 88178.900000 0 0 1
22.350289 26.577655 18.224729 39.217954 0.871584 1.087496 0.066432 -0.019727 -59747.900000 0 0 1
22.559089 26.079005 16.715329 38.320089 0.857642 1.119422 0.055046 -0.018303 756291.000000 0 0 1
21.270189 25.738025 16.162729 37.095831 0.880157 1.119978 0.039341 -0.014120 713249.000000 0 0 1
21.393689 25.299195 14.827429 36.298648 0.868846 1.150003 0.049331 -0.015158 -531476.000000 0 0 1
20.050789 24.900765 14.230229 34.994024 0.892876 1.152015 0.060255 -0.016646 342666.000000 0 0 1
19.010889 25.859355 14.073629 35.045502 0.936858 1.157553 0.058804 -0.016411 349828.000000 0 0 1
18.238289 26.227065 15.224729 35.387661 0.963165 1.126052 0.053496 -0.009807 -1914920.000000 0 0 1
16.905389 26.716535 14.825429 34.919318 1.006630 1.132318 0.053203 -0.009712 -1100140.000000 0 0 1
16.008989 25.823475 14.084129 33.488839 1.015844 1.136732 0.061881 -0.013605 1006400.000000 0 0 1
15.464889 24.642395 14.721229 32.605598 1.010349 1.102357 0.080744 -0.026468 -148874.000000 0 0 1
14.408689 24.844395 15.815129 32.786775 1.045244 1.067446 0.092326 -0.034792 -601799.000000 0 0 1
14.934289 25.624005 16.898229 34.134627 1.043102 1.052908 0.085839 -0.029160 -193840.000000 0 0 1
14.059389 25.992275 17.914129 34.556922 1.074962 1.025824 0.084852 -0.029782 -575494.000000 0 0 1
14.625589 27.163765 18.666829 36.058682 1.076885 1.026660 0.086931 -0.041682 -428719.000000 0 0 1
14.734589 28.278785 17.841429 36.539217 1.090453 1.060677 0.080940 -0.038106 366887.000000 0 0 1
15.241389 29.366215 18.588629 37.950121 1.092056 1.058916 0.063735 -0.032167 -327344.000000 0 0 1
15.200289 30.639955 17.699629 38.511460 1.110279 1.093259 0.059874 -0.036941 753495.000000 0 0 1
13.864289 31.162775 17.820629 38.482618 1.152192 1.089326 0.057489 -0.029184 855385.000000 0 0 1
13.776989 32.314906 17.000429 39.026570 1.167795 1.120079 0.046518 -0.017784 -548686.000000 0 0 1
12.486589 33.095058 17.195329 39.330359 1.210015 1.118311 0.072303 -0.028776 -1124310.000000 0 0 1
12.258589 -33.422732 16.502029 39.238617 -1.219257 1.136738 0.085947 -0.027721 -334012.000000 0 0 1
12.943789 -32.215992 16.844129 38.589332 -1.188755 1.119095 0.073756 -0.033899 -149738.000000 0 0 1
12.861489 -31.759072 18.349029 38.868284 -1.186012 1.079145 0.080399 -0.039586 -120118.000000 0 0 1
13.675189 -32.568252 19.176029 40.192312 -1.173259 1.073437 0.073805 -0.036405 254017.000000 0 0 1
13.344089 -32.239182 20.557129 40.497224 -1.178357 1.038378 0.065251 -0.030818 -512301.000000 0 0 1
14.261089 -32.763502 21.665929 41.788016 -1.160256 1.025733 0.065574 -0.026342 -1255480.000000 0 0 1
15.482789 -32.169142 21.449829 41.649318 -1.122226 1.029777 0.071687 -0.021558 -1363080.000000 0 0 1
16.427689 -32.590222 22.397329 42.820929 -1.103900 1.020375 0.069548 -0.018651 554553.000000 0 0 1
17.860789 -32.003942 22.158029 42.828009 -1.061770 1.027019 0.114003 -0.020352 776714.000000 0 0 1
17.846489 -30.601882 22.416229 41.922067 -1.042834 1.006630 0.116371 -0.027533 679656.000000 0 0 1
19.128989 -30.065592 22.066929 41.914287 -1.004154 1.016344 0.120062 -0.031140 699661.000000 0 0 1
-5.110911 12.873318 18.426473 23.051651 -1.192865 0.644574 0.017827 -0.004029 -63324.500000 0 1 0
-4.787211 14.061718 17.723773 23.125341 -1.242661 0.697544 0.015450 -0.010465 84511.900000 0 1 0
-5.971411 14.786618 17.455773 23.643304 -1.186985 0.740255 0.020246 -0.013680 263858.000000 0 1 0
-5.653311 16.254718 17.156373 24.300553 -1.236087 0.786952 0.044869 -0.026716 13492.600000 0 1 0
-5.285611 16.929318 18.315873 25.495307 -1.268170 0.769294 0.042208 -0.016182 -3118.770000 0 0 1
-4.639811 18.155718 18.073373 26.034683 -1.320595 0.803483 0.049934 -0.017410 -235820.000000 0 0 1
-3.953111 18.732718 19.383973 27.244820 -1.362821 0.779203 0.038458 -0.020506 -41450.200000 0 0 1
-4.749211 19.305918 20.450273 28.521696 -1.329588 0.771296 0.016079 -0.019994 25197.400000 0 0 1
-4.027311 20.103018 21.371973 29.616073 -1.373080 0.764636 0.015167 -0.006278 -112578.000000 0 0 1
-4.805511 20.492518 22.664173 30.930583 -1.340458 0.748452 0.012642 -0.002205 102084.000000 0 0 1
-5.136611 19.357118 23.437403 30.828471 -1.311414 0.707096 0.015844 -0.008798 358720.000000 0 0 1
-6.267711 19.545718 24.289383 31.800840 -1.260486 0.701621 0.020868 -0.013732 666166.000000 0 0 1
-5.891011 20.156918 25.720823 33.204910 -1.286458 0.684700 0.019830 -0.012091 -414117.000000 0 0 1
-5.509911 21.507218 25.596233 33.883428 -1.320001 0.714501 0.021960 -0.016504 89092.600000 0 0 1
-4.522311 21.968418 26.499063 34.716898 -1.367777 0.702406 0.036480 -0.014819 321885.000000 0 0 1
-3.054511 21.587718 26.186523 34.074823 -1.430236 0.694302 0.047438 -0.010976 -144931.000000 0 0 1
-2.573811 20.244318 26.424973 33.387664 -1.444337 0.657604 0.042322 -0.002628 405174.000000 0 0 1
-1.217311 20.153818 26.015603 32.931289 -1.510469 0.659993 0.042641 -0.004487 402707.000000 0 0 1
-0.360511 18.994818 26.587933 32.677993 -1.551819 0.620420 0.038996 0.001059 -46818.000000 0 0 1
-0.752411 17.701418 26.158033 31.593496 -1.528316 0.595343 0.043557 0.004428 -185838.000000 0 0 1
0.094589 16.686718 26.655963 31.448304 1.565128 0.559328 0.045391 0.006101 921369.000000 0 0 1
1.456189 16.431518 25.880243 30.690426 1.482406 0.567462 0.052252 0.009198 266443.000000 0 0 1
1.333389 16.036718 24.533123 29.339877 1.487841 0.580534 0.042486 0.000915 -193764.000000 0 0 1
0.903189 14.698218 24.326953 28.436842 1.509425 0.544333 0.050141 0.003397 -69161.200000 0 0 1
1.047789 14.308618 22.818503 26.954007 1.497699 0.561285 0.058200 -0.012275 -706931.000000 0 0 1
2.328489 14.103518 22.351173 26.531227 1.407172 0.568986 0.063191 -0.013094 -1126820.000000 0 0 1
2.285789 13.836418 20.980073 25.235585 1.407074 0.589230 0.058116 -0.015574 388336.000000 0 0 1
3.692689 13.552018 20.396573 24.765164 1.304772 0.603068 0.055194 -0.018334 217068.000000 0 1 0
4.379589 14.692818 19.952773 25.162926 1.281105 0.655172 0.072440 -0.017437 -389752.000000 0 0 1
5.746789 14.411318 19.826773 25.175635 1.191351 0.663992 0.074701 -0.016935 -247277.000000 0 0 1
6.591089 15.534618 19.226973 25.582089 1.169532 0.720343 0.093980 -0.027567 -160285.000000 0 0 1
6.292589 15.662318 17.835573 24.556314 1.188768 0.757853 0.080548 -0.028875 344367.000000 0 1 0
7.174889 16.566518 17.183873 24.924166 1.162088 0.810072 0.083223 -0.022621 125947.000000 0 1 0
7.135089 16.273018 15.660373 23.684761 1.157579 0.848379 0.069652 -0.015089 368313.000000 0 1 0
8.117689 15.323918 15.205473 23.063515 1.083641 0.850926 0.061705 -0.005692 422221.000000 0 1 0
8.029689 14.017018 15.740773 22.554925 1.050577 0.798354 0.055737 -0.008637 -216825.000000 0 1 0
9.010289 13.067318 15.012973 21.847871 0.967133 0.813224 0.047865 -0.016530 -123937.000000 0 1 0
10.349989 13.445618 15.194973 22.777052 0.914764 0.840463 0.053769 -0.016780 -517693.000000 0 1 0
11.180689 12.699418 14.342373 22.180773 0.848911 0.867661 0.054096 -0.011523 -98638.600000 0 1 0
12.601689 13.291618 14.257973 23.211193 0.812037 0.909334 0.054607 -0.008868 -927496.000000 0 1 0
13.377389 13.135918 15.419873 24.275077 0.776291 0.882511 0.050662 -0.009560 915009.000000 0 1 0
14.725289 13.625618 15.434973 25.312645 0.746630 0.915022 0.050234 -0.005372 865444.000000 0 0 1
15.696189 13.073618 14.383673 24.983592 0.694492 0.957306 0.047185 -0.008230 -987661.000000 0 1 0
17.049689 13.352118 14.701873 26.174721 0.664369 0.974379 0.055548 -0.020191 -89959.100000 0 0 1
17.898589 12.941318 13.697373 25.989521 0.626019 1.015689 0.070140 -0.021855 -1585620.000000 0 0 1
19.175889 13.714518 13.731773 27.283041 0.620852 1.043374 0.074827 -0.026473 -1408370.000000 0 0 1
20.047689 13.252718 14.726973 28.185601 0.584111 1.021016 0.040214 -0.021993 -1570060.000000 0 0 1
21.299489 13.660418 14.347973 29.088478 0.570270 1.054971 0.073554 -0.039272 -1337560.000000 0 0 1
22.317089 13.310718 15.458173 30.235456 0.537795 1.034146 0.081418 -0.036028 -297379.000000 0 0 1
22.463089 11.958718 15.759073 29.932419 0.489209 1.016331 0.082300 -0.040318 60466.500000 0 0 1
23.333789 11.848918 16.842273 31.121130 0.469869 0.998951 0.071876 -0.037285 -258127.000000 0 0 1
23.822489 10.400018 16.993473 31.055587 0.411624 0.991787 0.091761 -0.032911 155674.000000 0 0 1
22.766489 9.596218 17.535073 30.296521 0.398908 0.953562 0.056684 -0.016305 781255.000000 0 0 1
22.973989 8.210018 17.378573 29.953687 0.343218 0.951845 0.054377 -0.010069 -57052.200000 0 0 1
21.664289 7.401018 17.552973 28.848282 0.329193 0.916680 0.079053 -0.011908 51475.500000 0 0 1
21.837489 6.031318 17.216073 28.454277 0.269473 0.920976 0.105777 -0.026947 516649.000000 0 0 1
20.796589 5.332718 17.864773 27.930022 0.251014 0.876784 0.100874 -0.025591 -244222.000000 0 0 1
20.579889 3.910518 17.311073 27.175306 0.187778 0.880177 0.151498 -0.021387 -968576.000000 0 0 1
19.577989 3.872018 16.324473 25.783301 0.195254 0.885191 0.147261 -0.026798 685470.000000 0 0 1
18.985389 2.593818 15.960573 24.938179 0.135781 0.876291 0.125144 -0.025432 192628.000000 0 1 0
18.289089 1.859318 17.129073 25.126739 0.101315 0.820703 0.130793 -0.013287 -767811.000000 0 0 1
19.221189 1.265918 17.986273 26.354557 0.065766 0.819656 0.150159 -0.021139 191735.000000 0 0 1
18.609789 0.810918 19.205773 26.755253 0.043547 0.770113 0.150660 -0.005296 258492.000000 0 0 1
19.468789 -0.258582 19.975573 27.894877 -0.013281 0.772595 0.142563 -0.021145 386645.000000 0 0 1
19.758189 -1.504482 19.396173 27.728344 -0.075998 0.796089 0.145540 -0.017888 452743.000000 0 0 1
18.625389 -2.351482 19.571773 27.119898 -0.125587 0.764576 0.121315 -0.008759 217007.000000 0 0 1
18.530089 -3.601382 18.747073 26.604265 -0.191960 0.788847 0.102811 -0.003087 -351579.000000 0 0 1
18.079589 -3.593782 17.386473 25.339224 -0.196218 0.814615 0.113434 -0.021326 483801.000000 0 0 1
18.049389 -4.939382 16.942073 25.243054 -0.267119 0.835027 0.123967 -0.023673 -436378.000000 0 0 1
17.524689 -5.022082 15.501973 23.930048 -0.279092 0.866098 0.098348 -0.025678 598435.000000 0 1 0
16.111289 -4.751782 15.456473 22.826643 -0.286804 0.826949 0.098409 -0.027219 921206.000000 0 1 0
15.582889 -4.618582 14.148973 21.548809 -0.288140 0.854493 0.092098 -0.028028 211413.000000 0 1 0
16.043289 -3.402882 13.247673 21.082400 -0.209009 0.891333 0.088897 -0.028020 -469894.000000 0 1 0
15.226089 -2.296482 13.420473 20.425884 -0.149697 0.853921 0.090108 -0.022148 270940.000000 0 1 0
15.816289 -1.096782 12.911973 20.446931 -0.069234 0.887327 0.099707 -0.021060 641584.000000 0 1 0
14.760189 0.055218 13.161973 19.776344 0.003741 0.842578 0.101307 -0.015484 184755.000000 0 1 0
15.043789 1.413818 12.786873 19.794408 0.093705 0.868485 0.100428 -0.011829 -117793.000000 0 1 0
15.941889 2.064918 13.633473 21.077934 0.128811 0.867399 0.120982 -0.017339 -506095.000000 0 1 0
16.196389 3.505318 13.109973 21.130113 0.213139 0.901492 0.106139 -0.016049 -2165.670000 0 1 0
15.137689 4.456218 13.215573 20.582976 0.286292 0.873610 0.082058 -0.008068 322939.000000 0 1 0
15.384489 5.661518 12.625473 20.691492 0.352621 0.914512 0.100754 -0.013903 -718408.000000 0 1 0
14.217689 6.600818 12.767873 20.217123 0.434656 0.887262 0.073227 -0.014145 -692868.000000 0 1 0
14.358089 7.805518 12.050673 20.305161 0.497941 0.935423 0.053473 -0.014068 38390.800000 0 1 0
13.330689 8.741018 12.266873 20.114394 0.580376 0.914918 0.040182 -0.005607 -447570.000000 0 1 0
13.501189 9.563018 13.517173 21.364629 0.616281 0.885775 0.038038 -0.010620 -165750.000000 0 1 0
13.195489 8.884218 14.701273 21.660510 0.592565 0.824787 0.051087 -0.018456 244887.000000 0 1 0
13.747289 9.494118 15.859273 23.035685 0.604401 0.811425 0.069738 -0.020838 68954.700000 0 1 0
13.299489 8.943218 17.296673 23.580340 0.591995 0.747308 0.066527 -0.019971 -107528.000000 0 1 0
12.042989 9.377218 17.746273 23.407178 0.661584 0.710317 0.058928 -0.027945 -195807.000000 0 1 0
11.516889 8.640218 18.836273 23.708591 0.643643 0.652627 0.083697 -0.020610 472855.000000 0 1 0
12.302989 8.706418 20.259673 25.251131 0.615853 0.639612 0.096691 -0.025439 128596.000000 0 0 1
13.660889 8.368718 20.196473 25.778923 0.549636 0.670600 0.108513 -0.026367 -176968.000000 0 0 1
14.357789 8.681118 21.400573 27.193610 0.543815 0.664913 0.103086 -0.021700 529896.000000 0 0 1
15.882689 8.347818 21.337373 27.878834 0.483911 0.699194 0.087964 -0.020980 335716.000000 0 0 1
16.411789 9.191318 20.397573 27.746858 0.510522 0.744937 0.086345 -0.017225 -309853.000000 0 0 1
17.306889 8.660418 19.434473 27.426812 0.463970 0.783293 0.065403 -0.013462 -320138.000000 0 0 1
17.888489 9.757918 18.616473 27.600509 0.499371 0.830513 0.066453 -0.021723 -622340.000000 0 0 1
18.744289 10.461618 19.471273 28.981447 0.509058 0.834089 0.054564 -0.023726 -533267.000000 0 0 1
19.709489 11.143718 18.739673 29.390845 0.514589 0.879414 0.048712 -0.025365 -210777.000000 0 0 1
20.681589 11.916718 19.664773 30.926358 0.522735 0.881677 0.045614 -0.016936 -616141.000000 0 0 1
20.009789 12.974718 20.357973 31.355734 0.575263 0.864187 0.021692 -0.012756 251963.000000 0 0 1
20.784289 13.718618 21.293973 32.766148 0.583406 0.863373 0.033339 -0.007212 -548795.000000 0 0 1
21.966389 14.451418 20.624073 33.417333 0.581900 0.905659 0.018717 -0.007217 -459503.000000 0 0 1
23.096589 13.646718 20.457473 33.737124 0.533668 0.919298 0.007670 -0.000404 105631.000000 0 0 1
24.342989 14.350718 20.413773 34.860384 0.532679 0.945193 0.022927 -0.009731 668712.000000 0 0 1
25.538689 13.377918 20.356773 35.292939 0.482529 0.955997 0.033967 -0.015001 -225421.000000 0 0 1
25.878989 12.992518 19.112473 34.696026 0.465285 0.987408 0.059441 -0.030854 -185822.000000 0 0 1
27.058289 12.234918 19.202173 35.363366 0.424656 0.996795 0.098865 -0.034626 -162542.000000 0 0 1
27.462589 11.663618 17.797273 34.741570 0.401624 1.032963 0.142297 -0.047161 -82921.400000 0 0 1
27.932389 12.622818 16.880573 34.992966 0.424438 1.067405 0.145672 -0.058525 291184.000000 0 0 1
28.521689 12.082718 15.708573 34.730938 0.400712 1.101461 0.172228 -0.064391 436354.000000 0 0 1
27.438289 11.689818 14.641573 33.224798 0.402751 1.114438 0.146055 -0.062899 214799.000000 0 0 1
27.017889 12.782418 13.892173 32.959809 0.441905 1.135710 0.159088 -0.064853 192532.000000 0 0 1
25.888089 12.427418 13.099673 31.563195 0.447556 1.142821 0.151424 -0.052068 163698.000000 0 0 1
25.274089 13.588718 12.305173 31.222590 0.493315 1.165696 0.130580 -0.048256 -37397.300000 0 0 1
24.481589 14.453718 13.095673 31.301035 0.533324 1.139137 0.111689 -0.044423 202522.000000 0 0 1
24.726589 15.811518 12.835173 32.033576 0.568926 1.158539 0.100164 -0.032024 -181800.000000 0 0 1
23.644089 16.702818 13.487273 31.936399 0.615026 1.134797 0.094937 -0.032025 -195031.000000 0 0 1
22.520089 16.768718 12.650473 30.795759 0.640044 1.147480 0.113441 -0.044396 -265101.000000 0 0 1
21.657089 17.806218 13.077173 30.937087 0.688125 1.134371 0.084960 -0.032197 -335118.000000 0 0 1
20.786989 18.360418 11.892173 30.176607 0.723492 1.165723 0.101023 -0.019280 594150.000000 0 0 1
19.672289 17.603418 11.457273 28.777567 0.729953 1.161317 0.099871 -0.018015 730597.000000 0 0 1
18.520089 17.562818 12.314873 28.339061 0.758875 1.121252 0.085200 -0.018679 -563431.000000 0 0 1
17.223989 17.147918 11.702673 26.975349 0.783185 1.122059 0.087960 -0.007359 -1104740.000000 0 0 1
17.215889 15.811718 11.295273 25.961133 0.742909 1.120665 0.090047 -0.010858 570890.000000 0 0 1
16.017189 15.405218 10.608173 24.625280 0.765925 1.125435 0.084755 -0.012869 536677.000000 0 1 0
16.172789 14.018218 9.880873 23.573315 0.714154 1.138282 0.091348 -0.018994 -214218.000000 0 1 0
15.923389 12.826718 10.628573 23.044426 0.678102 1.091426 0.072296 -0.013683 382556.000000 0 1 0
16.434789 11.799918 9.831073 22.494229 0.622694 1.118482 0.074780 -0.011721 -191269.000000 0 1 0
16.586089 10.400918 10.573473 22.250298 0.560099 1.075598 0.070610 -0.022764 -200439.000000 0 1 0
17.246689 9.367218 9.782473 21.929200 0.497554 1.108401 0.063947 -0.022144 618778.000000 0 1 0
17.818689 8.311818 10.497173 22.288621 0.436463 1.080411 0.072676 -0.020162 1120430.000000 0 1 0
19.165189 8.621418 11.288673 23.855135 0.422727 1.077857 0.079083 -0.023092 542087.000000 0 1 0
18.960089 9.345918 12.489773 24.552507 0.457972 1.037126 0.079623 -0.024719 -442085.000000 0 1 0
20.128889 9.489118 13.221373 25.884749 0.440522 1.034706 0.103745 -0.030381 -1114970.000000 0 0 1
19.827789 9.678118 14.798473 26.566934 0.454089 0.979996 0.069864 -0.019764 229955.000000 0 0 1
19.347989 8.558518 15.595573 26.283356 0.416471 0.935566 0.077643 -0.018918 1183640.000000 0 0 1
18.099989 8.059618 15.055473 24.884419 0.418924 0.921010 0.094170 -0.026068 361526.000000 0 1 0
17.646389 6.721418 15.689873 24.550858 0.363929 0.877500 0.123145 -0.028994 -601846.000000 0 1 0
16.858989 6.849318 16.788773 24.758868 0.385901 0.825634 0.127872 -0.024695 -426119.000000 0 1 0
16.480989 5.570818 17.268473 24.512388 0.325958 0.789107 0.135740 -0.008052 1086110.000000 0 1 0
15.000289 5.450318 17.871873 23.960770 0.348516 0.728940 0.124827 -0.013828 1480530.000000 0 1 0
14.437389 4.162018 17.884973 23.358785 0.280671 0.698724 0.144790 -0.006142 392411.000000 0 1 0
13.971289 3.652218 16.662573 22.049421 0.255687 0.714086 0.137355 -0.011212 -487619.000000 0 1 0
13.617089 2.140318 16.642273 21.609519 0.155903 0.691742 0.127244 -0.015983 190907.000000 0 1 0
14.761589 1.333318 16.928173 22.499895 0.090079 0.719149 0.129237 -0.011120 516634.000000 0 1 0
14.622589 -0.112882 16.675773 22.179140 -0.007720 0.719906 0.127328 -0.011252 4736.490000 0 1 0
13.819489 -0.851182 17.811973 22.560345 -0.061515 0.660761 0.131986 -0.014509 263227.000000 0 1 0
12.419989 -0.662082 17.802273 21.716708 -0.053257 0.609822 0.117954 -0.004630 -106298.000000 0 1 0
11.902489 -1.452782 18.858473 22.347748 -0.121456 0.566351 0.110555 -0.010644 16910.200000 0 1 0
-26.753441 14.240118 28.699983 41.739868 -0.489131 0.812629 0.095259 -0.011323 -379049.000000 0 0 1
-25.675191 14.168418 29.596673 41.664404 -0.504249 0.780789 0.082736 -0.014264 254293.000000 0 0 1
-25.022711 12.890218 29.557013 40.815570 -0.475687 0.760980 0.068808 -0.005187 -227854.000000 0 0 1
-23.915311 12.785518 30.603163 40.889670 -0.490956 0.725101 0.069282 -0.020697 -434742.000000 0 0 1
-24.343911 13.116618 31.887008 42.207262 -0.494207 0.714400 0.068468 -0.025508 222094.000000 0 0 1
-23.248111 13.011818 32.803610 42.259423 -0.510255 0.682111 0.061861 -0.016611 116405.000000 0 0 1
-23.568311 13.257818 -33.479051 43.035820 -0.512410 2.462168 0.044645 -0.007291 -374933.000000 0 0 1
-24.278211 12.246218 -32.851881 42.645603 -0.467171 2.450180 0.034418 -0.003909 -94852.500000 0 0 1
-24.569711 12.652018 -31.526341 41.924389 -0.475531 2.421858 0.018238 0.001532 -23628.800000 0 0 1
-25.556981 11.674318 -30.812481 41.699615 -0.428491 2.402255 0.011529 -0.002807 -230061.000000 0 0 1
-25.061481 10.502318 -30.233801 40.650451 -0.396830 2.409460 0.019819 -0.007537 -112322.000000 0 0 1
-24.784911 9.384918 -31.109751 40.867898 -0.361971 2.436000 0.023351 -0.008208 -229107.000000 0 0 1
-23.974911 8.327918 -30.381971 39.588062 -0.334321 2.445655 0.028979 -0.000539 -134506.000000 0 0 1
-24.686311 7.751718 -29.304841 39.093180 -0.304259 2.418277 0.032923 -0.002259 250588.000000 0 0 1
-23.814111 6.968218 -28.493391 37.782817 -0.284662 2.425134 0.039582 -0.000064 -116239.000000 0 0 1
-24.421511 6.089118 -27.397791 37.203850 -0.244352 2.398565 0.041462 0.001428 -254513.000000 0 0 1
-25.127011 4.994618 -27.955761 37.918827 -0.196217 2.399791 0.041512 -0.000033 -134250.000000 0 0 1
-25.304961 4.010918 -26.915921 37.160399 -0.157195 2.380840 0.058384 0.003466 -910808.000000 0 0 1
-25.974341 2.735018 -27.444991 37.886333 -0.104910 2.380965 0.062164 0.005008 709705.000000 0 0 1
-27.385441 2.766618 -27.667681 39.027133 -0.100684 2.358783 0.077584 -0.002662 744032.000000 0 0 1
-27.756931 3.623318 -28.722581 40.106886 -0.129803 2.369068 0.072722 -0.008756 -648325.000000 0 0 1
-29.138321 3.445018 -29.434501 41.560795 -0.117683 2.357781 0.099737 -0.015721 -95828.200000 0 0 1
-30.258051 3.553018 -28.583861 41.775718 -0.116889 2.324333 0.092885 -0.024304 670144.000000 0 0 1
-31.512251 3.656218 -29.269401 43.163499 -0.115509 2.315978 0.105554 -0.021733 734411.000000 0 0 1
-31.816891 5.032218 -30.002481 44.020297 -0.156862 2.320689 0.095760 -0.028325 -677867.000000 0 0 1
-30.893671 5.360418 -31.034841 44.117052 -0.171801 2.351059 0.085884 -0.028792 225324.000000 0 0 1
-31.132291 6.626318 -31.665811 44.898231 -0.209714 2.353614 0.086034 -0.024848 -481952.000000 0 0 1
-30.608741 7.862518 -30.903021 44.200802 -0.251436 2.345005 0.055349 -0.017625 202039.000000 0 0 1
-29.188361 7.959318 -30.807181 43.178623 -0.266216 2.365252 0.031546 -0.013825 606534.000000 0 0 1
-28.595171 7.531318 -29.598381 41.838603 -0.257529 2.356669 0.029663 -0.015162 -568227.000000 0 0 1
-28.655721 8.489718 -28.353681 41.196563 -0.288028 2.329875 0.020489 -0.006903 714484.000000 0 0 1
-29.958131 8.772918 -27.798381 41.799565 -0.284874 2.298344 0.025068 -0.008175 897029.000000 0 0 1
-30.573691 7.654818 -27.156881 41.603401 -0.245329 2.282013 0.034736 -0.001976 82598.100000 0 0 1
-31.923331 7.998118 -26.457751 42.226550 -0.245488 2.247936 0.028927 -0.005919 296810.000000 0 0 1
-31.825051 8.836718 -25.334241 41.626256 -0.270843 2.225107 0.029047 0.000402 -105949.000000 0 0 1
-31.527631 8.166018 -24.095671 40.512673 -0.253442 2.207774 0.034133 0.002225 40535.000000 0 0 1
-31.125311 9.120318 -22.992971 39.757287 -0.285040 2.187481 0.042343 -0.000311 64341.900000 0 0 1
-32.195911 9.811218 -22.368671 40.412796 -0.295795 2.157363 0.047854 0.004854 334732.000000 0 0 1
-31.632891 10.895318 -21.583971 39.814765 -0.331704 2.143742 0.052505 -0.000118 271877.000000 0 0 1
-32.626551 11.738718 -20.721671 40.394021 -0.345370 2.109459 0.055551 0.012085 -8961.250000 0 0 1
-32.928461 11.121318 -19.499471 39.852184 -0.325713 2.082077 0.060269 0.008749 -191729.000000 0 0 1
-33.751071 11.935018 -18.715871 40.396327 -0.339895 2.052519 0.064329 0.011142 -496656.000000 0 0 1
-33.121301 13.133318 -17.938671 39.891108 -0.377504 2.037216 0.076607 0.002815 -179920.000000 0 0 1
-32.411371 12.656218 -16.782871 38.630837 -0.372279 2.020215 0.116907 -0.000919 385443.000000 0 0 1
-33.230371 12.205518 -15.703771 38.727776 -0.352003 1.988312 0.109798 -0.006570 -164586.000000 0 0 1
-33.861391 13.278118 -14.780471 39.260215 -0.373705 1.956784 0.087803 0.001987 16490.600000 0 0 1
-34.683471 14.151218 -15.517371 40.546133 -0.387393 1.963523 0.068501 0.002280 27248.800000 0 0 1
-35.628726 14.809118 -14.706371 41.291566 -0.393925 1.934951 0.047991 0.005827 289230.000000 0 0 1
-36.345931 16.035618 -15.376671 42.598236 -0.415507 1.940104 0.038629 0.000294 325178.000000 0 0 1
-37.275191 15.676618 -16.378371 43.628514 -0.398108 1.955630 0.029435 -0.003106 405416.000000 0 0 1
36.728189 16.805218 -16.760171 43.729607 0.429120 1.964129 0.020402 -0.007477 -48788.500000 0 0 1
36.052249 16.696318 -18.119271 43.667375 0.433706 1.998671 0.028525 -0.007179 17813.800000 0 0 1
35.077509 15.644518 -18.098271 42.458568 0.419521 2.011148 0.040258 -0.017309 854563.000000 0 0 1
33.828909 16.218418 -18.506271 41.831976 0.447052 2.029064 0.049144 -0.015449 -355869.000000 0 0 1
32.800699 15.192118 -18.914171 40.797453 0.433747 2.052863 0.053257 -0.023856 -699558.000000 0 0 1
32.868619 14.633218 -20.244871 41.283556 0.418858 2.083329 0.055421 -0.021835 232987.000000 0 0 1
32.029519 13.509618 -20.488371 40.350628 0.399146 2.103377 0.038012 -0.013511 -69907.500000 0 0 1
32.675669 12.204918 -20.069971 40.242553 0.357470 2.092924 0.048327 -0.003620 -71913.400000 0 0 1
32.747209 12.052118 -18.661571 39.571296 0.352650 2.061893 0.054720 -0.000331 -55343.100000 0 0 1
33.543929 10.948518 -18.338471 39.766377 0.315492 2.050093 0.067553 0.000943 -218431.000000 0 0 1
33.631839 10.771518 -16.827771 39.119050 0.309955 2.015475 0.063928 0.003827 54114.200000 0 0 1
32.477969 10.129318 -16.306671 37.727034 0.302322 2.017758 0.063686 -0.006093 401030.000000 0 0 1
32.623379 9.916618 -14.928771 37.222203 0.295098 1.983483 0.050626 -0.006895 -173809.000000 0 0 1
31.926269 10.961718 -14.056471 36.565425 0.330734 1.965375 0.069889 -0.015595 -248677.000000 0 0 1
30.512139 10.918918 -14.084871 35.335492 0.343655 1.980791 0.055087 -0.011964 153927.000000 0 0 1
30.065349 11.735618 -13.040071 34.809387 0.372149 1.954776 0.076315 -0.019031 174956.000000 0 0 1
28.520539 11.926018 -12.993771 33.533403 0.396059 1.968701 0.069605 -0.002200 67043.100000 0 0 1
27.896139 10.905118 -12.199871 32.341197 0.372653 1.957593 0.067343 -0.020170 -89330.200000 0 0 1
26.501039 10.917318 -12.382971 31.222282 0.390772 1.978614 0.067546 -0.004604 -39428.500000 0 0 1
25.912639 10.178318 -13.644671 31.003872 0.374279 2.026502 0.058863 -0.011405 -851355.000000 0 0 1
26.316739 8.814418 -13.897471 31.038757 0.323192 2.035039 0.061422 -0.013897 809101.000000 0 0 1
27.669339 8.683118 -14.337671 32.350544 0.304085 2.029958 0.069610 -0.022304 544163.000000 0 0 1
28.586939 7.736418 -13.482171 32.539732 0.264297 1.998002 0.069734 -0.020908 -23460.500000 0 0 1
28.266739 6.315518 -13.415571 31.919772 0.219816 2.004562 0.062414 -0.028385 1258410.000000 0 0 1
27.171739 6.016018 -12.487971 30.503201 0.217892 1.992591 0.085683 -0.033215 813832.000000 0 0 1
26.827039 4.510418 -12.551571 29.959570 0.166572 2.003085 0.092394 -0.029224 163591.000000 0 0 1
25.882139 4.052318 -11.579471 28.642461 0.155307 1.986984 0.117584 -0.033004 809642.000000 0 0 1
25.511339 2.670318 -11.685871 28.187206 0.104292 1.998278 0.118002 -0.037003 -178858.000000 0 0 1
24.813239 2.154418 -10.421971 26.999182 0.086608 1.967099 0.142548 -0.035681 45503.800000 0 0 1
25.697439 1.798118 -9.376571 27.413714 0.069859 1.919883 0.153650 -0.031208 795718.000000 0 0 1
24.931539 1.027818 -8.464271 26.349230 0.041202 1.897829 0.166634 -0.025293 132276.000000 0 0 1
25.764739 0.559318 -7.230671 26.765971 0.021705 1.844339 0.188334 -0.022318 -59723.700000 0 0 1
25.834039 -0.800382 -6.800571 26.726129 -0.030972 1.828079 0.164161 -0.029949 324575.000000 0 0 1
26.193139 -1.746782 -7.788271 27.382275 -0.066590 1.859205 0.132039 -0.033475 -527947.000000 0 0 1
26.705639 -3.009182 -7.082871 27.792326 -0.112206 1.828489 0.129341 -0.037102 -691924.000000 0 0 1
27.980939 -2.776982 -6.568771 28.875480 -0.098922 1.800292 0.126373 -0.042248 -208970.000000 0 0 1
28.368239 -3.825582 -5.649571 29.177213 -0.134046 1.765657 0.134284 -0.059531 41352.200000 0 0 1
29.877399 -3.839982 -5.290871 30.584273 -0.127824 1.744664 0.149822 -0.054985 188944.000000 0 0 1
30.692449 -4.097482 -6.446471 31.628670 -0.132717 1.776052 0.116275 -0.048893 -229163.000000 0 0 1
31.905289 -4.620282 -5.992771 32.790361 -0.143813 1.754589 0.120605 -0.040547 -478290.000000 0 0 1
32.813559 -5.244782 -7.081371 33.976216 -0.158495 1.780757 0.133803 -0.043170 -56017.800000 0 0 1
32.137679 -6.278982 -7.728771 33.645058 -0.192947 1.802581 0.148171 -0.051984 -161744.000000 0 0 1
32.512479 -6.470882 -9.103071 34.377311 -0.196460 1.838792 0.140362 -0.034889 -1146960.000000 0 0 1
31.471299 -7.214482 -9.946971 33.785110 -0.225347 1.869644 0.126297 -0.030566 640477.000000 0 0 1
30.299409 -6.467382 -10.295171 32.647692 -0.210293 1.891613 0.098913 -0.044155 1312400.000000 0 0 1
29.410339 -6.034282 -9.215271 31.405443 -0.202367 1.868608 0.132473 -0.048441 -102638.000000 0 0 1
28.153339 -5.295482 -9.809871 30.280129 -0.185922 1.900720 0.123292 -0.049175 -121595.000000 0 0 1
27.052839 -6.164782 -9.869871 29.449533 -0.224053 1.912556 0.107873 -0.041943 -703238.000000 0 0 1
25.954139 -5.332582 -10.148871 28.373462 -0.202642 1.936588 0.098312 -0.042804 278731.000000 0 0 1
24.602439 -6.041482 -9.761371 27.148921 -0.240800 1.938581 0.120034 -0.039574 -57045.200000 0 0 1
24.571639 -6.398482 -8.353471 26.729880 -0.254744 1.888635 0.128921 -0.045911 696783.000000 0 0 1
23.292339 -6.457682 -7.723171 25.374832 -0.270452 1.880066 0.116350 -0.057735 86322.600000 0 0 1
22.581039 -5.121282 -7.416671 24.313327 -0.223023 1.880783 0.136193 -0.041298 -330362.000000 0 1 0
22.169139 -4.360482 -8.504271 24.141399 -0.194212 1.930791 0.150339 -0.042287 378735.000000 0 1 0
22.013039 -3.026782 -8.185671 23.679960 -0.136643 1.923759 0.146691 -0.044159 -167912.000000 0 1 0
22.156239 -2.221282 -9.477671 24.200398 -0.099922 1.973202 0.167444 -0.026143 -857126.000000 0 1 0
23.437439 -2.380982 -9.989471 25.588516 -0.101242 1.971850 0.143614 -0.035348 -110952.000000 0 0 1
23.564239 -1.643482 -11.212471 26.147541 -0.069632 2.013978 0.161301 -0.028072 -853719.000000 0 0 1
24.935339 -1.827882 -11.825071 27.657632 -0.073174 2.012579 0.132902 -0.030764 -440791.000000 0 0 1
25.971539 -1.280882 -10.989371 28.229909 -0.049279 1.970647 0.120869 -0.029898 1744550.000000 0 0 1
27.248139 -1.422382 -11.672971 29.677306 -0.052154 1.975047 0.103181 -0.029001 733631.000000 0 0 1
28.267539 -0.304782 -11.402071 30.482026 -0.010782 1.954178 0.086893 -0.017363 -494998.000000 0 0 1
29.483839 -0.591382 -12.042271 31.853772 -0.020055 1.958484 0.079246 -0.020583 21977.700000 0 0 1
30.481589 0.410318 -11.937471 32.738339 0.013460 1.944035 0.070674 -0.016502 18820.600000 0 0 1
30.368449 1.691818 -12.830271 33.010920 0.055652 1.969981 0.078318 -0.020791 -539195.000000 0 0 1
30.695829 1.512918 -14.146771 33.832735 0.049248 2.002191 0.075030 -0.024085 360797.000000 0 0 1
30.597749 2.727718 -14.851271 34.120711 0.088913 2.021120 0.083871 -0.025066 -167670.000000 0 0 1
30.806159 2.502618 -16.323371 34.953326 0.081060 2.056697 0.076879 -0.019753 -254706.000000 0 0 1
29.735539 1.846418 -16.953171 34.278587 0.062015 2.088137 0.077982 -0.012668 -104484.000000 0 0 1
29.956799 1.796418 -18.359971 35.181323 0.059895 2.119834 0.066839 -0.014592 -412008.000000 0 0 1
28.901639 1.064318 -19.175271 34.700555 0.036809 2.156268 0.053472 -0.017118 -691929.000000 0 0 1
28.776639 -0.342882 -19.043971 34.509207 -0.011915 2.155380 0.068922 -0.017882 -202992.000000 0 0 1
28.188139 -0.861382 -20.148571 34.659459 -0.030549 2.191158 0.041865 -0.019939 -572057.000000 0 0 1
27.824839 -2.300982 -20.107671 34.406898 -0.082508 2.194947 0.051211 -0.027731 497235.000000 0 0 1
26.709239 -2.695182 -19.267671 33.043768 -0.100568 2.193330 0.069955 -0.026961 868783.000000 0 0 1
26.532739 -4.128282 -19.238271 33.032409 -0.154354 2.192482 0.082557 -0.028536 -81263.200000 0 0 1
27.397239 -4.905982 -18.194371 33.252256 -0.177191 2.149766 0.064944 -0.024183 869714.000000 0 0 1
28.742439 -5.137682 -18.633971 34.637385 -0.176881 2.138827 0.063290 -0.027457 417671.000000 0 0 1
29.623439 -5.420682 -17.595571 34.878877 -0.180984 2.099572 0.056695 -0.020846 -119680.000000 0 0 1
31.085169 -5.050082 -17.911771 36.230134 -0.161052 2.087928 0.077092 -0.024431 -244800.000000 0 0 1
31.846689 -6.015182 -18.584771 37.360243 -0.186680 2.091451 0.062211 -0.024772 -830191.000000 0 0 1
33.137359 -5.503082 -18.685271 38.438364 -0.164567 2.078429 0.084578 -0.024388 -601313.000000 0 0 1
34.083059 -6.607082 -19.264871 39.704455 -0.191477 2.077396 0.075542 -0.020526 -189602.000000 0 0 1
34.407509 -7.575182 -18.318771 39.709413 -0.216704 2.050279 0.080642 -0.023360 101951.000000 0 0 1
35.005759 -8.730182 -18.930071 40.742691 -0.244407 2.054007 0.073080 -0.017735 -83410.500000 0 0 1
35.855099 -9.572782 -17.946871 41.222767 -0.260900 2.021238 0.085971 -0.016285 -879308.000000 0 0 1
35.104349 -10.098582 -16.912771 40.253429 -0.280110 2.004415 0.065490 -0.014291 -90692.900000 0 0 1
35.770749 -11.031982 -16.029871 40.721099 -0.299153 1.975395 0.093901 -0.017615 -409963.000000 0 0 1
36.971299 -10.476382 -15.229971 41.335016 -0.276127 1.948140 0.107664 -0.018117 -317458.000000 0 0 1
-37.263491 -11.238282 -14.165571 41.418958 0.292915 1.919848 0.098543 -0.022392 675311.000000 0 0 1
-36.624861 -12.471382 -14.543671 41.333209 0.328202 1.930358 0.093732 -0.020883 -1013010.000000 0 0 1
-35.211192 -12.438182 -15.080871 40.273677 0.339563 1.954610 0.101329 -0.024210 -891518.000000 0 0 1
-35.123921 -11.951482 -16.398471 40.563994 0.327977 1.986968 0.117138 -0.021944 -706837.000000 0 0 1
-33.823871 -12.042482 -16.866971 39.668253 0.342041 2.009980 0.139994 -0.025366 -657609.000000 0 0 1
-33.619091 -11.160782 -18.059371 39.761127 0.320530 2.042267 0.177131 -0.033556 37337.900000 0 0 1
-33.799551 -9.805482 -17.834271 39.454003 0.282356 2.039833 0.163094 -0.033889 -130476.000000 0 0 1
-34.743319 -9.124982 -18.602771 40.452770 0.256839 2.048638 0.151340 -0.033723 -285331.000000 0 0 1
-35.425594 -7.990882 -17.791171 40.439494 0.221855 2.026334 0.170859 -0.036574 104377.000000 0 0 1
-36.381771 -7.344582 -18.640071 41.533461 0.199198 2.036214 0.150549 -0.036888 421544.000000 0 0 1
-37.162511 -6.401382 -17.883471 41.735458 0.170580 2.013624 0.143106 -0.036905 60092.400000 0 0 1
25.267689 27.452418 -27.002311 46.056662 0.826815 2.197261 0.035257 0.014015 204664.000000 0 0 1
25.744789 26.660418 -25.908011 45.219432 0.802868 2.180885 0.029954 0.003709 351563.000000 0 0 1
27.016989 26.127818 -26.258261 45.848411 0.768669 2.180615 0.040353 -0.000294 16472.200000 0 0 1
27.581089 25.126818 -25.245981 45.049228 0.738868 2.165676 0.049662 -0.001035 -172073.000000 0 0 1
28.095289 25.674418 -24.012271 45.001224 0.740406 2.133638 0.050451 0.004493 310760.000000 0 0 1
28.397089 24.620218 -23.132471 44.132312 0.714280 2.122527 0.046094 0.009639 54075.300000 0 0 1
28.847689 25.165718 -21.742571 44.025469 0.717336 2.087324 0.050635 0.012874 377315.000000 0 0 1
27.834689 25.889018 -21.061571 43.458036 0.749198 2.076750 0.051666 0.005319 -183439.000000 0 0 1
28.401789 26.562318 -19.999271 43.728585 0.751944 2.045809 0.027420 0.012507 -335656.000000 0 0 1
27.602389 27.613818 -19.219271 43.517757 0.785605 2.028224 0.042413 0.012526 -376718.000000 0 0 1
26.572689 27.027018 -18.466371 42.161290 0.793874 2.024162 0.057213 0.011174 7031.210000 0 0 1
25.827889 28.035918 -17.792571 42.067423 0.826368 2.007499 0.051446 0.010715 -84993.400000 0 0 1
24.763589 27.586318 -16.783271 40.692978 0.839266 1.995923 0.062102 -0.000578 220059.000000 0 0 1
23.689289 26.983418 -17.494971 39.941973 0.850315 2.024180 0.086527 -0.000588 367622.000000 0 0 1
22.505389 26.873418 -16.712171 38.832586 0.873628 2.015693 0.050097 0.007045 663821.000000 0 0 1
21.462789 25.844718 -17.245471 37.762508 0.877761 2.045059 0.050651 -0.001900 88774.000000 0 0 1
21.018189 26.215318 -18.528871 38.370903 0.894988 2.074747 0.044474 -0.002102 -136748.000000 0 0 1
20.229889 25.232318 -19.150771 37.585506 0.894992 2.105429 0.040647 -0.000016 -148361.000000 0 0 1
19.770989 25.582118 -20.594171 38.333492 0.912835 2.137954 0.025364 0.002347 112300.000000 0 0 1
18.854589 26.640518 -20.493271 38.538122 0.954894 2.131481 0.007193 0.011983 -1034480.000000 0 0 1
17.684889 26.405518 -21.192171 38.198361 0.980668 2.158910 0.006886 -0.002833 -654105.000000 0 0 1
16.604689 27.491618 -20.962671 38.352813 1.027447 2.149065 0.013059 0.003623 -123979.000000 0 0 1
16.086589 27.442918 -19.676471 37.403951 1.040598 2.124749 0.016188 0.007170 -999762.000000 0 0 1
15.021689 28.294418 -19.550271 37.529166 1.082730 2.118743 0.019671 -0.002324 -674820.000000 0 0 1
14.475089 28.527618 -18.102471 36.756668 1.101241 2.085750 0.023959 0.006428 201446.000000 0 0 1
13.757089 27.348018 -17.744271 35.384046 1.104721 2.096101 0.021975 0.007240 -145202.000000 0 0 1
13.142989 27.470218 -16.488371 34.629718 1.124541 2.067049 0.055378 0.002225 -68348.900000 0 0 1
12.269889 26.254518 -16.133671 33.168437 1.133613 2.078780 0.061231 -0.004866 -220913.000000 0 0 1
12.985689 25.089018 -16.061071 32.496845 1.093180 2.087751 0.031245 -0.007152 -516719.000000 0 0 1
12.084789 24.076718 -15.761071 31.211245 1.105607 2.100156 0.073701 -0.005453 181593.000000 0 0 1
12.806189 22.737818 -15.912871 30.565115 1.057867 2.118376 0.051056 0.000038 49724.100000 0 0 1
13.136389 22.514618 -17.255071 31.260361 1.042627 2.155532 0.046120 0.001559 -83555.000000 0 0 1
14.108189 21.485918 -17.397171 31.037835 0.989778 2.165804 0.051717 0.002136 148514.000000 0 0 1
13.540389 20.046518 -17.501471 29.858106 0.976739 2.197101 0.058566 -0.003168 366862.000000 0 0 1
12.882389 19.508018 -16.321771 28.511733 0.987170 2.180297 0.078546 -0.014159 -4055.830000 0 0 1
12.585389 18.144218 -16.493571 27.561613 0.964358 2.212331 0.070767 -0.012831 171288.000000 0 0 1
13.726189 17.077918 -16.569471 27.470182 0.893780 2.218279 0.096500 -0.013328 -90313.000000 0 0 1
14.357989 16.756018 -15.366071 26.889256 0.862318 2.179077 0.104454 -0.025962 547288.000000 0 0 1
15.586189 16.084118 -15.729971 27.368963 0.801119 2.183080 0.129388 -0.031195 294582.000000 0 0 1
16.159289 15.040618 -14.708471 26.527003 0.749559 2.158524 0.184134 -0.028661 313375.000000 0 0 1
16.942489 15.550218 -13.588271 26.711389 0.742576 2.104479 0.139473 -0.029132 961639.000000 0 0 1
18.171089 16.218518 -13.783671 27.986039 0.728681 2.085779 0.111145 -0.026044 -350639.000000 0 0 1
19.384289 15.489718 -14.389671 28.683526 0.674183 2.096325 0.119993 -0.031924 -618252.000000 0 0 1
19.964489 14.534018 -13.550871 28.168149 0.629268 2.072672 0.150237 -0.036152 23508.700000 0 0 1
21.001789 14.987918 -12.727071 28.769622 0.619828 2.029046 0.136524 -0.027007 -408726.000000 0 0 1
21.816989 13.818318 -12.052171 28.498802 0.564599 2.007441 0.135036 -0.037331 123101.000000 0 0 1
21.084389 13.120618 -11.034271 27.174569 0.556649 1.988925 0.217436 -0.043540 43557.900000 0 0 1
21.782989 12.118318 -10.417671 27.016293 0.507683 1.966662 0.230109 -0.028902 -798469.000000 0 0 1
21.885989 10.727718 -11.135071 26.796833 0.455748 1.999329 0.196609 -0.034101 -458999.000000 0 0 1
22.613689 10.603118 -12.342471 27.859318 0.438444 2.029770 0.147782 -0.021846 409418.000000 0 0 1
22.575089 9.276918 -12.962271 27.635418 0.389898 2.059006 0.119758 -0.020334 -533577.000000 0 0 1
23.236989 8.100618 -12.221771 27.476342 0.335435 2.031759 0.120804 -0.004372 -293522.000000 0 0 1
22.413789 7.660018 -11.136971 26.174146 0.329311 2.010305 0.154494 -0.021701 595651.000000 0 0 1
22.842389 6.512218 -10.507971 25.973086 0.277726 1.987307 0.139644 -0.023404 -874178.000000 0 0 1
22.654589 5.064518 -11.175671 25.763838 0.219937 2.019473 0.151139 -0.025035 204989.000000 0 0 1
21.298989 4.611918 -11.138671 24.474205 0.213240 2.043302 0.144270 -0.042757 795223.000000 0 1 0
20.491189 5.167918 -12.150271 24.376737 0.247050 2.092591 0.094028 -0.039837 -755464.000000 0 1 0
19.643489 4.075118 -12.797371 23.795923 0.204552 2.138618 0.106800 -0.050952 -269590.000000 0 1 0
20.461189 3.240918 -13.580271 24.770700 0.157088 2.151054 0.121324 -0.039773 802654.000000 0 1 0
19.849089 1.963918 -13.707371 24.201969 0.098621 2.172896 0.126956 -0.039896 244492.000000 0 1 0
20.808789 1.126218 -14.600371 25.444939 0.054069 2.181938 0.145057 -0.029427 -98684.800000 0 0 1
21.877489 0.619918 -13.809871 25.878975 0.028328 2.133687 0.166542 -0.030683 417926.000000 0 0 1
22.983989 0.376218 -14.679171 27.274225 0.016367 2.139104 0.114776 -0.029608 2317.120000 0 0 1
22.995389 -1.076582 -15.228671 27.601800 -0.046783 2.155230 0.099123 -0.027933 -663020.000000 0 0 1
21.980689 -1.356182 -16.151771 27.310614 -0.061621 2.203603 0.091902 -0.022450 -52163.600000 0 0 1
22.342589 -2.503082 -16.851071 28.096535 -0.111567 2.213993 0.090050 -0.028855 399809.000000 0 0 1
21.126989 -3.204982 -17.542071 27.646805 -0.150553 2.258166 0.078957 -0.022497 625313.000000 0 0 1
20.195389 -3.831382 -16.641771 26.447718 -0.187488 2.251362 0.100781 -0.032783 153066.000000 0 0 1
19.268289 -4.611582 -17.350671 26.335896 -0.234916 2.290048 0.091860 -0.034404 -323457.000000 0 0 1
18.765889 -5.716982 -16.405271 25.572943 -0.295715 2.267260 0.093429 -0.041503 -822680.000000 0 0 1
19.733789 -6.646282 -16.074871 26.305835 -0.324865 2.228216 0.090150 -0.026956 -54837.700000 0 0 1
19.195289 -7.829482 -15.491071 25.879204 -0.387286 2.212538 0.098345 -0.017652 136357.000000 0 0 1
20.269589 -8.906382 -15.160471 26.833184 -0.414001 2.171217 0.129167 -0.012540 287894.000000 0 0 1
20.897089 -9.467982 -16.331371 28.161049 -0.425409 2.189436 0.122982 -0.015571 512604.000000 0 0 1
22.006489 -10.241282 -15.924971 29.030572 -0.435566 2.151436 0.114873 -0.022131 -339918.000000 0 0 1
22.445389 -11.194582 -16.998071 30.299316 -0.462645 2.166396 0.108925 -0.018337 -171473.000000 0 0 1
23.294689 -10.579682 -17.958871 31.258491 -0.426314 2.182823 0.104112 -0.016441 176148.000000 0 0 1
23.651289 -11.488882 -18.958371 32.416010 -0.452192 2.195486 0.103776 -0.022171 -6480.300000 0 0 1
22.613089 -11.527882 -20.134971 32.398471 -0.471447 2.241426 0.109506 -0.021564 1602510.000000 0 0 1
21.288889 -12.016282 -19.795471 31.455818 -0.513861 2.251462 0.101746 -0.021126 1128640.000000 0 0 1
21.152789 -13.390882 -19.618871 31.806545 -0.564371 2.235491 0.092059 -0.012117 -710560.000000 0 0 1
19.688489 -13.856582 -19.633671 31.066421 -0.613266 2.254915 0.088802 -0.009269 -208703.000000 0 0 1
19.079489 -13.627482 -20.878071 31.394729 -0.620224 2.298315 0.087622 0.000028 -454332.000000 0 0 1
17.682789 -13.771382 -20.783171 30.565866 -0.661681 2.318487 0.070143 0.002499 13022.700000 0 0 1
16.974989 -13.116782 -22.015371 30.738848 -0.657879 2.369148 0.055754 -0.001446 -185252.000000 0 0 1
17.297489 -13.806182 -23.192771 32.058048 -0.673619 2.379600 0.048715 0.000795 215670.000000 0 0 1
16.622689 -13.282182 -24.305471 32.303035 -0.674155 2.422526 0.057075 -0.010114 -216053.000000 0 0 1
16.669489 -14.246182 -25.518931 33.645823 -0.707174 2.431740 0.053482 -0.014090 212375.000000 0 0 1
15.663189 -15.269782 -25.363211 33.493196 -0.772681 2.429911 0.053434 -0.015378 602468.000000 0 0 1
15.687189 -16.113182 -26.520961 34.771884 -0.798793 2.438294 0.063990 -0.005645 -63286.300000 0 0 1
16.772889 -17.206082 -26.700361 35.920584 -0.798146 2.408811 0.059715 -0.010376 567228.000000 0 0 1
18.117089 -16.803482 -27.002261 36.602022 -0.747799 2.400492 0.066578 -0.006574 555530.000000 0 0 1
18.933089 -17.966182 -27.000801 37.553812 -0.759200 2.373144 0.078677 -0.011774 82040.500000 0 0 1
20.432189 -17.597482 -27.098411 38.229172 -0.710996 2.358650 0.096417 -0.006002 -155201.000000 0 0 1
20.900689 -17.083582 -25.864561 37.385333 -0.685243 2.334827 0.106942 -0.008703 -294735.000000 0 0 1
22.227289 -16.644282 -25.976711 38.024650 -0.642747 2.322870 0.111930 -0.008093 -386945.000000 0 0 1
22.755789 -15.974082 -24.648671 37.155810 -0.612053 2.296132 0.127111 -0.013445 65620.100000 0 0 1
22.399989 -14.613382 -24.361971 36.177563 -0.578049 2.309595 0.130079 -0.016464 904933.000000 0 0 1
20.997089 -14.386682 -24.117471 35.064323 -0.600707 2.329259 0.128401 -0.009614 884133.000000 0 0 1
20.717889 -13.052182 -23.467471 33.916258 -0.562184 2.334947 0.126610 -0.004025 -167522.000000 0 0 1
21.098389 -11.936582 -24.269371 34.301988 -0.514861 2.356780 0.135187 -0.018944 278565.000000 0 0 1
21.097389 -10.698882 -23.485571 33.333736 -0.469326 2.352597 0.118717 -0.016598 -5669.630000 0 0 1
21.449489 -9.423782 -24.349671 33.790453 -0.413960 2.375475 0.113225 -0.026581 -291796.000000 0 0 1
21.106589 -8.253582 -23.633671 32.743856 -0.372761 2.377159 0.115898 -0.024855 103567.000000 0 0 1
21.029389 -7.125482 -24.448971 33.026654 -0.326693 2.404283 0.097087 -0.025887 -345746.000000 0 0 1
20.397389 -5.969282 -23.604871 31.762804 -0.284699 2.408578 0.098434 -0.031695 -28656.000000 0 0 1
19.010489 -6.201682 -23.448271 30.816894 -0.315339 2.435480 0.097334 -0.027743 270552.000000 0 0 1
18.266189 -5.198782 -22.711971 29.605990 -0.277281 2.445169 0.096145 -0.029290 361281.000000 0 0 1
18.614389 -5.015682 -21.208471 28.660980 -0.263201 2.403833 0.087164 -0.025660 -591223.000000 0 0 1
18.409689 -6.148682 -20.327471 28.105676 -0.322343 2.379295 0.088503 -0.019564 293294.000000 0 0 1
18.911789 -7.412082 -20.733471 29.025360 -0.373529 2.366452 0.094107 -0.015799 -360684.000000 0 0 1
18.588489 -8.475282 -19.694971 28.377001 -0.427785 2.337892 0.089802 -0.012051 25312.500000 0 0 1
17.210189 -8.603782 -19.419871 27.337649 -0.463587 2.360821 0.079051 -0.012284 -206487.000000 0 0 1
16.856589 -9.843882 -18.743871 27.062507 -0.528556 2.335903 0.090903 -0.009720 -677322.000000 0 0 1
15.388589 -9.954282 -18.367171 25.947049 -0.574166 2.357276 0.088131 -0.010862 -599521.000000 0 0 1
14.968989 -9.395082 -17.139271 24.618952 -0.560493 2.340861 0.106525 -0.016596 65381.200000 0 1 0
14.863789 -7.991682 -17.194571 24.092581 -0.493321 2.365545 0.124070 -0.040131 99581.000000 0 1 0
13.505289 -7.451082 -16.610871 22.667873 -0.504160 2.393215 0.123662 -0.034537 892921.000000 0 1 0
12.395289 -7.658082 -17.493671 22.766597 -0.553421 2.447121 0.109906 -0.033530 128398.000000 0 1 0
11.631189 -6.485282 -17.527771 22.012864 -0.508642 2.491869 0.108783 -0.029585 -1419520.000000 0 1 0
10.151289 -6.630382 -17.703071 21.457152 -0.578591 2.541074 0.103446 -0.031055 -1081020.000000 0 1 0
9.772989 -6.215382 -19.056871 22.300373 -0.566453 2.595488 0.086037 -0.036331 -512071.000000 0 1 0
8.386489 -6.394182 -19.070571 21.792325 -0.651414 2.636449 0.082315 -0.045598 -483408.000000 0 1 0
7.774889 -6.073682 -20.470471 22.723967 -0.663167 2.692478 0.076766 -0.049748 11147.200000 0 1 0
7.901389 -7.087982 -21.464271 23.945487 -0.731186 2.682332 0.085710 -0.045958 85029.700000 0 1 0
7.312289 -6.616482 -22.669571 24.721587 -0.735485 2.731277 0.092574 -0.046796 -122625.000000 0 1 0
7.244589 -7.677382 -23.814771 26.049368 -0.814394 2.724367 0.088702 -0.040749 -577789.000000 0 0 1
6.338289 -8.695982 -23.517271 25.862251 -0.940952 2.712463 0.088797 -0.035413 -13014.900000 0 0 1
6.242789 -9.658782 -24.552671 27.112693 -0.997003 2.703538 0.072475 -0.022976 -73822.800000 0 0 1
5.348789 -10.829582 -24.160571 27.011527 -1.112036 2.678005 0.083093 -0.029784 90478.500000 0 0 1
5.984889 -11.701182 -23.237771 26.697014 -1.098009 2.626863 0.068840 -0.032831 25421.400000 0 0 1
5.339789 -12.952782 -23.306071 27.193029 -1.179774 2.600333 0.087122 -0.033304 -1034580.000000 0 0 1
5.963489 -14.107482 -22.502371 27.220230 -1.170860 2.543975 0.082473 -0.027765 -232387.000000 0 0 1
7.049889 -14.667482 -23.251971 28.381158 -1.122750 2.530942 0.055459 -0.017635 656571.000000 0 0 1
8.304689 -13.998982 -23.279571 28.405594 -1.035366 2.531407 0.071022 -0.026934 322700.000000 0 0 1
9.101689 -13.684982 -21.952571 27.423254 -0.983889 2.498941 0.065333 -0.018000 -244879.000000 0 0 1
9.449489 -14.825982 -21.208571 27.548250 -1.003358 2.449434 0.066655 -0.008862 246976.000000 0 0 1
8.391889 -15.300882 -20.382471 26.832553 -1.069138 2.433521 0.080726 -0.014486 -215471.000000 0 0 1
8.787889 -15.556782 -18.951271 26.045943 -1.056592 2.385627 0.077441 -0.014206 201836.000000 0 0 1
9.821589 -16.536382 -18.916371 26.976742 -1.034846 2.347890 0.078559 -0.014688 -19756.100000 0 0 1
10.358789 -16.776382 -17.640371 26.456269 -1.017636 2.300669 0.092082 -0.020337 -92163.000000 0 0 1
9.399889 -17.581182 -16.725371 26.022950 -1.079810 2.268835 0.077803 -0.022602 -161920.000000 0 0 1
9.191989 -19.002782 -16.946571 27.069996 -1.120259 2.247245 0.089629 -0.025268 -62732.000000 0 0 1
8.520589 -19.385782 -18.122471 27.871723 -1.156685 2.278657 0.088923 -0.019536 538385.000000 0 0 1
6.952989 -19.302782 -18.034371 27.316295 -1.225058 2.291889 0.085304 -0.015126 755785.000000 0 0 1
6.478889 -17.906082 -18.033071 26.225854 -1.223625 2.328984 0.095178 -0.020647 -633464.000000 0 0 1
5.092489 -17.743082 -18.039271 25.810186 -1.291297 2.344683 0.083521 -0.014447 -262943.000000 0 0 1
4.639489 -16.337382 -17.572271 24.438077 -1.294101 2.373235 0.063980 -0.004362 7375.940000 0 1 0
4.900889 -16.125582 -16.236671 23.402619 -1.275747 2.337545 0.040476 -0.005048 4797.980000 0 1 0
4.688689 -14.789682 -15.862071 22.188371 -1.263795 2.367252 0.031882 -0.000657 18603.300000 0 1 0
10.701389 29.892618 -17.947071 36.471710 1.227017 2.085276 0.066100 -0.018512 -464091.000000 0 0 1
9.919389 29.418518 -18.980471 36.388209 1.245586 2.119534 0.111035 -0.023091 -391895.000000 0 0 1
9.087789 28.400118 -18.466771 35.073868 1.261101 2.125288 0.098107 -0.022145 654873.000000 0 0 1
8.014789 27.769018 -19.454571 34.840142 1.289809 2.163246 0.108638 -0.024227 1455260.000000 0 0 1
6.958089 28.691618 -19.862671 35.582996 1.332877 2.163019 0.119384 -0.039180 815332.000000 0 0 1
6.099789 27.982618 -20.765371 35.375626 1.356169 2.198140 0.116519 -0.048730 642356.000000 0 0 1
5.004489 28.755018 -21.530971 36.269528 1.398483 2.206368 0.100920 -0.048129 411639.000000 0 0 1
3.880989 29.172818 -20.777671 36.025365 1.438538 2.185542 0.096772 -0.039670 167927.000000 0 0 1
3.034289 30.021218 -21.544571 37.076258 1.470067 2.190861 0.107700 -0.049736 -1144210.000000 0 0 1
1.666989 30.269918 -20.942571 36.846140 1.515781 2.175331 0.132246 -0.049959 -392770.000000 0 0 1
0.728789 29.211518 -20.903871 35.927924 1.545853 2.191771 0.138273 -0.064884 69060.000000 0 0 1
0.107089 28.993118 -22.143771 36.482310 1.567103 2.223042 0.164631 -0.087791 -771300.000000 0 0 1
-0.725911 27.707418 -22.278171 35.560439 -1.544603 2.247835 0.170116 -0.082044 133878.000000 0 0 1
-1.763311 27.637118 -21.328971 34.954893 -1.507080 2.227091 0.175046 -0.082754 -135523.000000 0 0 1
-2.420111 26.391318 -21.377171 34.049112 -1.479351 2.249563 0.176633 -0.079674 -194910.000000 0 0 1
-3.644411 26.151918 -20.494271 33.424836 -1.432333 2.230832 0.125512 -0.076733 1077850.000000 0 0 1
-4.875711 26.707718 -21.034971 34.344501 -1.390227 2.229978 0.125541 -0.074081 880881.000000 0 0 1
-6.053811 26.236918 -20.445171 33.808719 -1.344029 2.220224 0.099944 -0.069088 -359941.000000 0 0 1
-7.366211 26.960518 -20.778871 34.826599 -1.304084 2.210101 0.088680 -0.080311 -206353.000000 0 0 1
-8.425511 26.449118 -20.003271 34.215141 -1.262404 2.195223 0.080311 -0.058134 -374519.000000 0 0 1
-8.772111 27.301818 -18.936071 34.364428 -1.259913 2.154403 0.086765 -0.071817 292845.000000 0 0 1
-9.953711 26.712918 -18.079871 33.757044 -1.214116 2.136000 0.096490 -0.060207 478231.000000 0 0 1
-9.599911 25.602618 -17.257971 32.334036 -1.212062 2.133813 0.106314 -0.068295 466472.000000 0 0 1
-10.779711 24.980418 -16.707671 31.927569 -1.163411 2.121514 0.070465 -0.051248 456072.000000 0 0 1
-10.603511 24.299418 -15.330171 30.625321 -1.159336 2.095055 0.076216 -0.035743 3847.490000 0 0 1
-9.890511 23.053218 -15.358971 29.413790 -1.165518 2.120189 0.087796 -0.037713 49459.400000 0 0 1
-9.962211 22.502818 -14.082471 28.353808 -1.154022 2.090554 0.113626 -0.034742 -212932.000000 0 0 1
-9.414411 21.041018 -14.027571 26.983852 -1.150081 2.117472 0.110240 -0.014960 206050.000000 0 0 1
-10.330311 20.067518 -14.541671 26.849223 -1.095397 2.143141 0.092630 -0.012920 -75674.500000 0 0 1
-10.593011 20.110918 -15.979971 27.785254 -1.085995 2.183552 0.106672 -0.006685 48507.900000 0 0 1
-9.416311 20.039918 -16.989671 27.909033 -1.131536 2.225283 0.099013 -0.013519 130812.000000 0 0 1
-8.691111 18.836318 -17.067671 26.863500 -1.138501 2.259255 0.088129 -0.014032 189141.000000 0 0 1
-7.896111 18.781418 -18.266571 27.363439 -1.172810 2.301715 0.089466 -0.024488 398780.000000 0 0 1
-7.244611 17.404118 -18.603371 26.485337 -1.176353 2.349564 0.080041 -0.022853 332895.000000 0 0 1
-8.186011 16.380718 -18.891671 26.310338 -1.107361 2.371767 0.080667 -0.025727 82052.700000 0 0 1
-7.737211 15.570718 -19.961871 26.472400 -1.109626 2.425023 0.080174 -0.025750 -82903.100000 0 0 1
-6.555211 14.607118 -19.674871 25.366103 -1.148967 2.458519 0.065644 -0.018886 -220503.000000 0 0 1
-6.859111 13.467318 -18.839571 24.152546 -1.099724 2.465501 0.045272 -0.010446 424139.000000 0 1 0
-5.722511 12.702618 -18.418671 23.094394 -1.147528 2.494000 0.038340 -0.006775 693217.000000 0 1 0
-4.871011 13.290418 -17.256671 22.319378 -1.219494 2.454621 0.051670 0.000430 -191173.000000 0 1 0
-4.160111 14.435918 -17.577571 23.123002 -1.290221 2.434382 0.058481 -0.010006 -562436.000000 0 1 0
-3.310711 14.774618 -16.500771 22.394766 -1.350357 2.399142 0.044064 -0.001396 283592.000000 0 1 0
-2.507911 16.107018 -16.762771 23.381961 -1.416334 2.370157 0.078986 -0.007657 248132.000000 0 1 0
-3.260711 17.318618 -16.886671 24.407507 -1.384697 2.334864 0.078053 -0.007892 133288.000000 0 1 0
-2.396111 18.456618 -17.042871 25.235838 -1.441694 2.312227 0.097234 -0.015224 419747.000000 0 0 1
-3.129511 19.797418 -17.352771 26.511323 -1.414017 2.284373 0.108546 -0.022179 175683.000000 0 0 1
-3.669511 19.799918 -18.643671 27.442458 -1.387546 2.317704 0.110474 -0.028127 20056.000000 0 0 1
-4.256711 21.025418 -19.137971 28.748038 -1.371041 2.299247 0.129870 -0.025436 -45544.900000 0 0 1
-3.250511 22.141718 -19.392871 29.612580 -1.425033 2.284828 0.120862 -0.038477 -141385.000000 0 0 1
-2.281811 21.903918 -20.432071 30.040935 -1.466997 2.318751 0.140186 -0.032747 1311520.000000 0 0 1
-1.026111 22.613918 -20.301671 30.407236 -1.525452 2.301856 0.138042 -0.040396 930401.000000 0 0 1
-0.036511 21.959518 -19.365371 29.278650 -1.569134 2.293502 0.146893 -0.041907 -777166.000000 0 0 1
-0.430511 22.194118 -18.024471 28.594505 -1.551401 2.252797 0.145038 -0.037827 -126014.000000 0 0 1
0.614689 21.858518 -17.120571 27.772047 1.542682 2.235045 0.141734 -0.035350 198648.000000 0 0 1
0.295789 21.978918 -15.653571 26.985081 1.557339 2.189626 0.134923 -0.033627 1036510.000000 0 0 1
-0.856411 21.186718 -15.232871 26.108443 -1.530396 2.193762 0.117552 -0.023049 853056.000000 0 0 1
-1.114011 21.338218 -13.850371 25.463568 -1.518636 2.145908 0.132119 -0.021553 53808.900000 0 0 1
-1.980311 20.273318 -13.198771 24.272136 -1.473425 2.145734 0.085561 -0.019350 -49377.300000 0 1 0
-1.382711 18.974018 -13.333571 23.231645 -1.498051 2.182105 0.083286 -0.011644 306683.000000 0 1 0
-2.313011 17.947118 -13.030571 22.298987 -1.442624 2.194884 0.067116 -0.002431 104606.000000 0 1 0
-1.713611 16.540418 -13.295771 21.290829 -1.467563 2.245266 0.039587 0.010550 -476984.000000 0 1 0
-0.951111 16.131018 -12.193571 20.243456 -1.511903 2.217234 0.022712 -0.000597 -105588.000000 0 1 0
-0.646811 14.742018 -12.165071 19.124183 -1.526949 2.260242 0.009000 0.001781 -549440.000000 0 1 0
0.314489 14.093118 -13.177671 19.296784 1.548485 2.322514 0.028224 0.001567 49642.500000 0 1 0
-0.252911 13.730718 -14.479571 19.956316 -1.552379 2.382649 0.032908 -0.007351 245302.000000 0 1 0
0.740389 13.066018 -15.210571 20.065653 1.514192 2.431099 0.030161 -0.005130 -655460.000000 0 1 0
0.332789 12.728918 -16.637871 20.951249 1.544658 2.488360 0.046849 -0.001168 -27590.200000 0 1 0
-0.021511 13.869218 -17.357771 22.218188 -1.569245 2.467449 0.060085 -0.010066 42290.600000 0 1 0
-0.169411 13.596718 -18.720371 23.137669 -1.558337 2.513392 0.076596 -0.012822 -244596.000000 0 1 0
-0.794511 14.753918 -19.444871 24.421554 -1.516997 2.491814 0.085568 -0.013246 -762281.000000 0 1 0
0.077889 15.791518 -19.702971 25.250448 1.565864 2.465945 0.089947 -0.019908 -477503.000000 0 0 1
-0.571311 17.002918 -20.094871 26.329250 -1.537208 2.439070 0.124078 -0.030192 -592397.000000 0 0 1
0.308389 18.211118 -20.194271 27.194640 1.553864 2.407715 0.136253 -0.034223 -850970.000000 0 0 1
1.143489 18.075318 -21.286371 27.948779 1.507618 2.436607 0.134805 -0.042997 -356515.000000 0 0 1
2.114989 19.121118 -21.248971 28.663724 1.460634 2.405830 0.143992 -0.044341 133094.000000 0 0 1
2.792989 19.243218 -22.628171 29.835152 1.426661 2.431712 0.153431 -0.055071 -234398.000000 0 0 1
3.610589 18.151418 -23.007471 29.527174 1.374444 2.464179 0.124859 -0.048993 -279001.000000 0 0 1
4.031089 18.352618 -24.319471 30.732798 1.354583 2.483761 0.121785 -0.059706 -299013.000000 0 0 1
4.958089 17.228818 -24.752271 30.562881 1.290589 2.514744 0.088880 -0.041700 -82442.900000 0 0 1
6.209189 17.268418 -24.030171 30.235763 1.225622 2.489408 0.079993 -0.035716 429542.000000 0 0 1
7.066989 16.198218 -24.319271 30.062460 1.159409 2.513174 0.089050 -0.028297 -2292.370000 0 0 1
7.628789 15.998618 -25.718871 31.234828 1.125847 2.538180 0.081863 -0.033092 -670003.000000 0 0 1
8.650589 16.951218 -26.117861 32.315927 1.098925 2.511892 0.062926 -0.030120 1067790.000000 0 0 1
9.164989 16.894918 -27.467761 33.524814 1.073753 2.531031 0.071236 -0.036470 192523.000000 0 0 1
9.679489 15.557918 -27.991491 33.455416 1.014243 2.561990 0.080684 -0.041169 -392018.000000 0 0 1
10.855989 15.102518 -27.346641 33.072304 0.947551 2.544323 0.090292 -0.036174 188168.000000 0 0 1
11.127189 13.766618 -27.583841 32.775026 0.891031 2.571057 0.077370 -0.028320 339037.000000 0 0 1
10.348889 12.697118 -26.653151 31.284289 0.886941 2.590525 0.085678 -0.023296 1581240.000000 0 0 1
8.917889 12.857818 -26.636641 30.892764 0.964394 2.610451 0.104627 -0.028864 905868.000000 0 0 1
8.203189 11.749218 -26.106221 29.780382 0.961286 2.639598 0.120215 -0.022365 149561.000000 0 0 1
6.671889 11.805118 -26.136291 29.444534 1.056382 2.663002 0.091241 -0.036214 -248348.000000 0 0 1
6.170689 12.875318 -25.322041 29.069863 1.123874 2.628184 0.104629 -0.028543 535956.000000 0 0 1
4.737789 12.825118 -25.251061 28.714915 1.216931 2.645336 0.117817 -0.044705 771023.000000 0 0 1
3.997789 13.703918 -26.244211 29.875379 1.286948 2.643418 0.115644 -0.032995 -627616.000000 0 0 1
3.897189 13.269918 -27.561151 30.836599 1.285142 2.676501 0.107673 -0.040380 193169.000000 0 0 1
3.989489 14.357218 -28.443051 32.110012 1.299761 2.659012 0.098779 -0.046602 -4573.790000 0 0 1
3.815189 14.091818 -29.987041 33.352025 1.306397 2.688522 0.129536 -0.050537 72288.300000 0 0 1
4.937789 13.373918 -30.486231 33.654921 1.217111 2.704173 0.113515 -0.046782 210018.000000 0 0 1
4.933789 13.215618 -31.919491 34.897689 1.213490 2.725460 0.105314 -0.045325 -1027940.000000 0 0 1
6.044589 12.259818 -32.333701 35.104250 1.112732 2.741633 0.105274 -0.038553 1657220.000000 0 0 1
7.421089 12.707318 -32.023531 35.242801 1.042224 2.710847 0.112178 -0.033151 2161840.000000 0 0 1
7.846089 12.633518 -30.652181 34.069386 1.015040 2.689875 0.106150 -0.033074 -741689.000000 0 0 1
8.026189 11.304318 -29.948151 33.001500 0.953383 2.708039 0.108316 -0.031085 -32728.900000 0 0 1
9.280989 10.690218 -30.160651 33.317898 0.855844 2.702737 0.092673 -0.020036 175475.000000 0 0 1
9.092389 9.370118 -29.607101 32.358168 0.800440 2.726257 0.101571 -0.025825 466979.000000 0 0 1
10.317389 8.454018 -29.814121 32.661915 0.686456 2.720909 0.085559 -0.021478 280555.000000 0 0 1
11.479489 8.607218 -29.034641 32.386312 0.643367 2.682623 0.085868 -0.021694 -177037.000000 0 0 1
12.430289 7.649318 -29.353961 32.782299 0.551650 2.680172 0.055630 -0.014568 -1756440.000000 0 0 1
13.383489 7.336618 -28.251371 32.110492 0.501448 2.646274 0.052011 0.005482 -629834.000000 0 0 1
14.099589 6.140018 -28.284191 32.194622 0.410709 2.643589 0.054383 -0.007962 -68902.200000 0 0 1
15.075389 6.089818 -29.317951 33.524550 0.383913 2.635245 0.047053 -0.002968 -1047480.000000 0 0 1
15.993589 4.844118 -29.123321 33.577197 0.294096 2.620657 0.051812 -0.011925 -248157.000000 0 0 1
16.774289 4.978818 -27.983661 33.003798 0.288530 2.582793 0.027985 -0.013436 -57565.300000 0 0 1
17.571889 3.846518 -27.736701 33.058910 0.215503 2.566254 0.055077 -0.014874 -128652.000000 0 0 1
18.286789 3.880318 -26.357251 32.313591 0.209091 2.524684 0.068390 -0.010124 -813305.000000 0 0 1
19.284689 4.811218 -26.335291 32.993857 0.244493 2.495077 0.097964 -0.010060 -436397.000000 0 0 1
19.898989 4.957318 -25.067751 32.387295 0.244154 2.455930 0.110634 -0.010549 -16084.300000 0 0 1
21.032689 6.008918 -25.019571 33.233417 0.278281 2.423168 0.112154 -0.007671 -243471.000000 0 0 1
20.629689 7.358018 -25.248351 33.424597 0.342606 2.427034 0.117622 -0.004954 403339.000000 0 0 1
21.529489 8.174018 -26.023851 34.750169 0.362855 2.417173 0.120292 -0.022763 -215164.000000 0 0 1
21.422289 7.996618 -27.576291 35.823347 0.357266 2.449301 0.153786 -0.031856 424650.000000 0 0 1
20.222089 8.452818 -28.207041 35.721424 0.395926 2.481017 0.126882 -0.016110 379709.000000 0 0 1
19.160889 7.519718 -28.186101 34.901892 0.373982 2.510835 0.113884 -0.016463 -1343670.000000 0 0 1
17.961689 8.213818 -28.743631 34.875283 0.428905 2.539555 0.074072 0.001953 -1417480.000000 0 0 1
17.992789 8.200018 -30.141371 36.048342 0.427616 2.561000 0.065011 0.005367 196578.000000 0 0 1
16.937889 8.989618 -30.615241 36.124760 0.487936 2.582028 0.042759 0.008656 -489173.000000 0 0 1
16.492689 8.729718 -32.062321 37.097293 0.486818 2.614507 0.023955 0.015321 30962.800000 0 0 1
15.747589 7.530418 -32.254661 36.675017 0.446052 2.645549 0.029455 0.012125 2082370.000000 0 0 1
14.351189 7.815518 -32.644111 36.505848 0.498680 2.677473 0.037451 0.011630 1933300.000000 0 0 1
13.647889 6.509218 -33.127091 36.414817 0.445030 2.713393 0.046492 0.001581 76021.500000 0 0 1
13.703089 5.483318 -32.129151 35.357089 0.380637 2.710967 0.050314 0.000402 256877.000000 0 0 1
12.947589 4.320718 -32.466911 35.219440 0.322088 2.743614 0.065292 -0.016770 139861.000000 0 0 1
12.852189 3.296518 -31.342221 34.034991 0.251082 2.741134 0.076622 -0.023025 551647.000000 0 0 1
14.017589 2.471818 -31.173361 34.269244 0.174543 2.713261 0.065172 -0.025614 556334.000000 0 0 1
13.935689 1.618518 -30.065361 33.177537 0.115624 2.704997 0.090736 -0.027397 -94570.600000 0 0 1
13.153289 0.306018 -30.266971 33.002912 0.023261 2.731540 0.105003 -0.028949 124823.000000 0 0 1
13.796289 -0.676282 -31.056691 33.989895 -0.048980 2.723103 0.112610 -0.031910 -337064.000000 0 0 1
14.702289 -1.470082 -30.365951 33.769948 -0.099659 2.688735 0.122031 -0.037965 -168501.000000 0 0 1
15.086489 -2.780782 -31.100891 34.678528 -0.182277 2.683357 0.134540 -0.042121 -38832.500000 0 0 1
13.998189 -3.673482 -31.187781 34.381993 -0.256639 2.707130 0.120924 -0.042499 13340.100000 0 0 1
14.149789 -4.627482 -32.131761 35.412994 -0.316072 2.707718 0.127990 -0.047673 -30500.200000 0 0 1
13.220989 -5.858182 -32.017571 35.131719 -0.417099 2.717367 0.116777 -0.048432 152627.000000 0 0 1
13.646589 -6.671082 -30.891981 34.424515 -0.454685 2.684599 0.123770 -0.046947 342664.000000 0 0 1
13.272989 -8.045282 -30.913841 34.591391 -0.544922 2.676290 0.123172 -0.051165 -24036.300000 0 0 1
13.465489 -8.711482 -29.524401 33.599101 -0.574227 2.643983 0.088742 -0.049582 -1227990.000000 0 0 1
14.784089 -8.727382 -29.127851 33.810770 -0.533273 2.609005 0.097374 -0.042270 -811672.000000 0 0 1
15.017589 -9.261282 -27.792861 32.920244 -0.552605 2.575957 0.091338 -0.037793 -20367.700000 0 0 1
15.139689 -10.790782 -27.821571 33.461784 -0.619230 2.552496 0.071589 -0.030436 844974.000000 0 0 1
13.863389 -11.485482 -27.963981 33.257993 -0.691865 2.569592 0.058066 -0.038776 1321280.000000 0 0 1
14.053189 -12.862982 -28.102581 33.951487 -0.741208 2.545842 0.057112 -0.039965 92128.300000 0 0 1
-10.104211 -3.028082 -17.613871 20.530777 0.291168 2.602014 0.031661 -0.009904 464405.000000 0 1 0
-10.969311 -2.518682 -18.648571 21.781614 0.225700 2.598590 0.048276 -0.019501 326057.000000 0 1 0
-11.917911 -3.498682 -18.995271 22.695763 0.285543 2.562487 0.052992 -0.023649 1092610.000000 0 1 0
-13.025011 -3.125482 -20.117471 24.168826 0.235507 2.554171 0.070626 -0.037674 1578630.000000 0 1 0
-14.079211 -2.214582 -19.793071 24.390453 0.156016 2.517526 0.060693 -0.027768 326916.000000 0 1 0
-14.847911 -1.864682 -20.903871 25.708156 0.124931 2.520292 0.055237 -0.018514 -66508.200000 0 0 1
-15.662411 -0.576282 -20.729371 25.987497 0.036777 2.494213 0.055834 -0.017501 -311717.000000 0 0 1
-14.976711 0.611518 -20.870571 25.695457 -0.040809 2.518758 0.063537 -0.015207 -202117.000000 0 0 1
-15.806711 1.745818 -20.594171 26.019605 -0.110002 2.484034 0.067735 -0.013564 81305.800000 0 0 1
-15.332111 3.068418 -21.255171 26.386949 -0.197521 2.507346 0.092121 -0.026997 -278910.000000 0 0 1
-14.120811 3.560518 -20.730171 25.334059 -0.246998 2.529196 0.106569 -0.025077 80189.800000 0 0 1
-13.819711 4.797518 -21.330571 25.864915 -0.334134 2.540453 0.113985 -0.036742 -1224810.000000 0 0 1
-12.480411 5.337118 -20.949871 24.962823 -0.404104 2.566686 0.088026 -0.027364 -1288410.000000 0 1 0
-12.510011 5.836318 -19.619571 23.989384 -0.436516 2.528450 0.092695 -0.035392 -410546.000000 0 1 0
-11.309511 6.398618 -19.233771 23.211749 -0.514872 2.547438 0.061119 -0.018301 -750322.000000 0 1 0
-11.413111 7.160918 -17.853071 22.366716 -0.560344 2.495094 0.069933 -0.018263 173023.000000 0 1 0
-12.089611 8.428718 -18.001871 23.265195 -0.608835 2.455565 0.073776 -0.020254 655191.000000 0 1 0
-13.114411 8.501818 -17.013671 23.102676 -0.575166 2.398585 0.091031 -0.021498 -103148.000000 0 1 0
-13.821611 9.842618 -16.811071 23.885689 -0.618813 2.351548 0.102047 -0.027727 -641209.000000 0 1 0
-13.206811 10.690818 -15.956171 23.309071 -0.680502 2.324779 0.070489 -0.014976 -140461.000000 0 1 0
-13.630811 11.994718 -16.211971 24.341328 -0.721638 2.299666 0.066114 -0.020434 -604686.000000 0 1 0
-12.910711 13.029818 -15.416471 23.961013 -0.789990 2.269725 0.076974 -0.017794 -660756.000000 0 1 0
-13.143911 13.098618 -14.012671 23.252766 -0.783672 2.217581 0.087701 -0.021876 123570.000000 0 1 0
-12.669911 14.322118 -13.420571 23.361537 -0.846533 2.182756 0.078584 -0.021850 -772935.000000 0 1 0
-13.131811 14.576418 -11.988871 22.992377 -0.837487 2.119320 0.068397 -0.023133 212312.000000 0 1 0
-14.489111 14.900018 -11.764971 23.882198 -0.799379 2.085900 0.066965 -0.023079 152148.000000 0 1 0
-15.420211 13.862318 -11.969971 23.942158 -0.732246 2.094342 0.063435 -0.022838 -657960.000000 0 1 0
-16.805511 14.147618 -11.337171 24.720674 -0.699740 2.047228 0.036629 -0.012276 101595.000000 0 1 0
-17.717311 13.057418 -11.476271 24.821443 -0.635120 2.051443 0.029682 -0.019123 -575832.000000 0 1 0
-18.871211 13.440918 -10.817871 25.569654 -0.618897 2.007632 0.097595 -0.024177 -286056.000000 0 0 1
-20.200811 13.029718 -11.541071 26.665382 -0.572859 2.018405 0.090991 -0.039311 250135.000000 0 0 1
-20.500711 11.678818 -11.301171 26.160856 -0.517826 2.017492 0.114346 -0.044645 -138743.000000 0 0 1
-21.597811 11.307818 -12.078471 27.207014 -0.482320 2.030795 0.147891 -0.041154 -593987.000000 0 0 1
-22.294711 10.010818 -11.619571 27.060765 -0.422040 2.014611 0.146176 -0.043266 -15031.100000 0 0 1
-21.593111 8.811218 -11.890471 26.177916 -0.387433 2.042290 0.137269 -0.043932 875212.000000 0 0 1
-22.350611 7.743918 -11.298571 26.214037 -0.333531 2.016411 0.144422 -0.039974 280327.000000 0 0 1
-21.530811 6.459618 -11.383571 25.196987 -0.291473 2.039559 0.171217 -0.035635 -115824.000000 0 0 1
-21.351111 5.942518 -12.642971 25.515253 -0.271453 2.089214 0.174003 -0.038075 879677.000000 0 0 1
-20.180311 5.114118 -12.674571 24.373015 -0.248196 2.117676 0.175872 -0.043791 269115.000000 0 1 0
-20.343811 3.829318 -13.475371 24.700606 -0.186053 2.147839 0.183775 -0.056545 -266118.000000 0 1 0
-21.281011 2.920118 -12.969071 25.091937 -0.136365 2.113978 0.174026 -0.057612 49936.600000 0 0 1
-21.034911 1.685318 -13.581271 25.094993 -0.079949 2.142653 0.152344 -0.062211 113724.000000 0 0 1
-22.007711 0.480218 -13.320371 25.729404 -0.021817 2.114969 0.172544 -0.053947 -124235.000000 0 0 1
-23.237011 0.626818 -13.974371 27.122585 -0.026968 2.112072 0.134797 -0.041746 -139079.000000 0 0 1
-23.735011 -0.675282 -14.255271 27.695117 0.028443 2.111479 0.126414 -0.046105 329286.000000 0 0 1
-25.115501 -0.723482 -14.993971 29.259716 0.028798 2.108825 0.127953 -0.038269 -125890.000000 0 0 1
-26.162551 -0.268182 -14.236071 29.786183 0.010250 2.069107 0.163749 -0.052816 -671382.000000 0 0 1
-27.399871 -0.849582 -14.588871 31.053339 0.030997 2.059861 0.153182 -0.034336 -206779.000000 0 0 1
-28.558131 -0.362182 -13.731471 31.689924 0.012682 2.018955 0.165844 -0.035251 -607030.000000 0 0 1
-28.714591 -0.857482 -12.487171 31.323991 0.029853 1.980836 0.195600 -0.040008 -318799.000000 0 0 1
-29.901791 -0.342682 -11.952971 32.204162 0.011460 1.951057 0.217992 -0.045293 -117048.000000 0 0 1
-30.322041 -1.077682 -10.644971 32.154361 0.035526 1.908221 0.214472 -0.055619 -3363.970000 0 0 1
-30.851921 -2.419882 -10.634171 32.722812 0.078275 1.901784 0.215889 -0.048281 357313.000000 0 0 1
-29.953801 -3.407682 -11.095871 32.124147 0.113278 1.923468 0.213431 -0.051078 -106640.000000 0 0 1
-30.340201 -4.860782 -10.692671 32.534415 0.158859 1.905678 0.209879 -0.055849 -387211.000000 0 0 1
-31.446111 -5.423382 -11.337971 33.864739 0.170786 1.912191 0.184066 -0.047902 -221706.000000 0 0 1
-31.706041 -6.741082 -10.834871 34.177619 0.209492 1.893378 0.175699 -0.044445 -75876.200000 0 0 1
-30.812601 -7.906882 -11.340171 33.771802 0.251192 1.913238 0.163412 -0.051620 289712.000000 0 0 1
-29.439341 -7.759782 -10.991971 32.368386 0.257724 1.917277 0.155789 -0.046182 758794.000000 0 0 1
-28.632021 -8.721082 -11.741471 32.151392 0.295664 1.944637 0.148612 -0.044460 1216480.000000 0 0 1
-27.104201 -8.698682 -11.370071 30.652623 0.310551 1.950810 0.135417 -0.050325 137493.000000 0 0 1
-26.413321 -7.559982 -11.842971 29.917767 0.278766 1.977790 0.118439 -0.050001 1267860.000000 0 0 1
-25.023711 -7.558682 -11.440471 28.534263 0.293346 1.983337 0.140956 -0.054844 972527.000000 0 0 1
-24.614511 -7.441782 -9.934771 27.567262 0.293596 1.939475 0.154104 -0.052470 -723797.000000 0 0 1
-24.864611 -6.214182 -9.304771 27.266164 0.244904 1.919050 0.153735 -0.044491 2120360.000000 0 0 1
-26.262721 -5.994482 -8.914471 28.374850 0.224406 1.890377 0.170954 -0.053374 1330760.000000 0 0 1
-26.337851 -4.631682 -8.287871 27.996851 0.174077 1.871329 0.190352 -0.059214 -142643.000000 0 0 1
-26.017701 -4.568982 -6.894271 27.300683 0.173838 1.826092 0.182640 -0.056693 393887.000000 0 0 1
-26.066321 -3.193082 -6.494771 27.052373 0.121891 1.813246 0.236272 -0.056069 -103261.000000 0 0 1
-25.683031 -2.975982 -5.033471 26.340280 0.115359 1.763073 0.221825 -0.050734 310654.000000 0 0 1
-24.277911 -3.072782 -4.848971 24.947374 0.125898 1.766409 0.148024 -0.037779 468520.000000 0 1 0
-23.949011 -3.040882 -3.457971 24.387694 0.126297 1.713067 0.107873 -0.031435 1001350.000000 0 1 0
-22.461711 -3.495382 -3.174871 22.952689 0.154377 1.709564 0.089816 -0.022916 812268.000000 0 1 0
-22.258911 -4.904982 -3.197371 23.016106 0.216894 1.710166 0.117809 -0.021686 -27960.500000 0 1 0
-20.971711 -5.324382 -2.857671 21.824939 0.248631 1.702109 0.082460 -0.022592 -882502.000000 0 1 0
-20.936211 -6.817782 -2.587271 22.169823 0.314816 1.687765 0.082985 -0.022150 -247469.000000 0 1 0
-21.718711 -7.204782 -1.487471 22.930849 0.320308 1.635710 0.100363 -0.015009 427828.000000 0 1 0
-22.681211 -8.187282 -1.837971 24.183611 0.346416 1.646870 0.120106 -0.025750 279651.000000 0 1 0
-23.193511 -8.941382 -0.601771 24.864621 0.367955 1.595001 0.137688 -0.028288 41050.000000 0 1 0
-22.094611 -9.687282 -0.126871 24.125326 0.413204 1.576055 0.109733 -0.017626 344990.000000 0 1 0
-22.342511 -10.370482 1.115029 24.657210 0.434566 1.525560 0.087828 -0.015235 -280829.000000 0 1 0
-21.024511 -10.821982 1.754329 23.711243 0.475363 1.496741 0.090644 -0.010847 -383806.000000 0 1 0
-20.343411 -11.691782 0.914629 23.481667 0.521624 1.531836 0.090875 -0.005236 196045.000000 0 1 0
-19.330011 -12.375882 1.641029 23.010970 0.569485 1.499421 0.071523 -0.013062 -35888.900000 0 1 0
-18.865211 -13.662782 0.867629 23.309238 0.626804 1.533565 0.081171 -0.003913 175648.000000 0 1 0
-19.787011 -14.773982 0.837429 24.708250 0.641354 1.536897 0.101418 -0.002492 762496.000000 0 1 0
-19.183211 -15.952782 0.319229 24.951728 0.693715 1.558002 0.094773 -0.010837 736453.000000 0 1 0
-18.044111 -16.614582 1.235129 24.559312 0.744176 1.520483 0.095747 -0.012388 1005740.000000 0 1 0
-16.788011 -15.991782 1.005229 23.207432 0.761113 1.527468 0.101934 -0.006127 288483.000000 0 1 0
-15.643411 -16.538182 1.614529 22.821798 0.813195 1.499992 0.102163 -0.013273 354445.000000 0 1 0
-15.367711 -16.442282 3.158129 22.726394 0.819166 1.431382 0.099004 -0.018998 -294189.000000 0 1 0
-15.148611 -15.116982 3.559029 21.694936 0.784353 1.406003 0.075272 -0.015721 317712.000000 0 1 0
-14.263911 -15.044782 4.692529 21.256163 0.812035 1.348202 0.048807 -0.016341 199473.000000 0 1 0
-14.738211 -15.425082 6.112829 22.192672 0.808166 1.291745 0.078547 -0.017520 -624244.000000 0 1 0
-15.622111 -14.505082 6.739229 22.357660 0.748338 1.264606 0.065862 -0.015389 243300.000000 0 1 0
-15.720211 -14.681482 8.149329 23.001794 0.751245 1.208641 0.070937 -0.015003 -38678.600000 0 1 0
-16.725111 -15.820982 8.585429 24.571170 0.757625 1.213854 0.059083 -0.006741 5385.890000 0 1 0
-16.476211 -17.064682 7.989429 25.029980 0.802941 1.245917 0.071349 -0.012782 -74877.000000 0 0 1
-17.146011 -18.172682 8.627329 26.432232 0.814459 1.238310 0.082836 -0.021281 -12498.200000 0 0 1
-16.769811 -18.712782 10.059629 27.066417 0.840102 1.189995 0.099195 -0.024682 -259355.000000 0 0 1
-15.551211 -19.388682 10.222329 26.874843 0.894790 1.180602 0.063546 -0.012976 -264541.000000 0 0 1
-15.344011 -19.729382 11.558429 27.536966 0.909787 1.137635 0.068720 -0.016573 -662848.000000 0 0 1
-13.967811 -20.248482 11.890329 27.321799 0.966935 1.120541 0.061285 -0.012045 -165618.000000 0 0 1
-12.855111 -19.367482 11.729829 26.037322 0.984818 1.103470 0.065620 -0.017631 -102687.000000 0 0 1
-11.682411 -19.987382 12.187429 26.163096 1.041860 1.086229 0.073331 -0.021349 -122653.000000 0 0 1
-10.551311 -18.995682 12.467829 25.052203 1.063772 1.049881 0.075739 -0.030568 -246502.000000 0 0 1
-9.774111 -18.565982 11.385629 23.871772 1.086211 1.073616 0.065757 -0.022988 279187.000000 0 1 0
-8.742811 -17.692582 11.889329 23.039539 1.111839 1.028575 0.053622 -0.022421 566967.000000 0 1 0
-7.758311 -17.138782 10.851929 21.718509 1.145719 1.047587 0.027787 -0.018096 535609.000000 0 1 0
-6.751211 -18.016282 10.338829 21.841627 1.212264 1.077701 0.029921 -0.018783 525630.000000 0 1 0
-6.042011 -17.439482 9.224629 20.633352 1.237282 1.107305 0.025091 -0.011046 55467.800000 0 1 0
-4.958211 -18.301482 8.567129 20.806821 1.306229 1.146427 0.027308 -0.011637 389269.000000 0 1 0
-3.764411 -18.362682 9.334029 20.939986 1.368595 1.108783 0.037272 -0.011097 235372.000000 0 1 0
-2.666511 -18.897382 8.617429 20.939948 1.430617 1.146663 0.044927 -0.014780 -151087.000000 0 1 0
-1.311711 -18.872782 9.315329 21.087386 1.501405 1.113249 0.054758 -0.025302 77481.300000 0 1 0
-0.348311 -19.407882 8.395929 21.148968 1.552851 1.162561 0.062707 -0.020555 597566.000000 0 1 0
0.926189 -19.664282 9.017429 21.653080 -1.523731 1.141259 0.066586 -0.025739 1049630.000000 0 1 0
1.912689 -20.374682 8.024829 21.981446 -1.477195 1.197085 0.079191 -0.032728 200251.000000 0 1 0
1.674389 -21.741582 7.704029 23.126869 -1.493935 1.231185 0.084527 -0.028299 -168687.000000 0 1 0
1.959389 -22.659182 8.773429 24.377260 -1.484539 1.202633 0.092178 -0.032769 26632.700000 0 1 0
1.745089 -24.121382 8.407829 25.604258 -1.498576 1.236212 0.086716 -0.032356 3328.700000 0 0 1
1.935789 -25.040752 9.440229 26.831036 -1.493644 1.211260 0.098088 -0.036863 -7415.630000 0 0 1
1.727589 -26.351122 9.023729 27.906879 -1.505330 1.241527 0.099547 -0.028703 -739990.000000 0 0 1
1.627389 -27.342122 10.207929 29.230838 -1.511347 1.214060 0.113691 -0.036179 608920.000000 0 0 1
0.610689 -27.073702 11.196229 29.303820 -1.548244 1.178757 0.106811 -0.040013 242430.000000 0 0 1
-0.694311 -27.377852 10.749329 29.420689 1.545441 1.196770 0.092856 -0.032969 -215848.000000 0 0 1
-1.704611 -27.528672 11.908429 30.042373 1.508954 1.163217 0.084982 -0.040688 92224.700000 0 0 1
-1.400011 -28.626502 12.716229 31.355050 1.521929 1.153209 0.080620 -0.045149 -165185.000000 0 0 1
-1.457111 -28.254722 14.058729 31.592727 1.519271 1.109623 0.080457 -0.049183 150305.000000 0 0 1
-0.815111 -29.304792 15.003829 32.932509 1.542989 1.097758 0.061406 -0.027870 254467.000000 0 0 1
-1.312711 -29.170602 16.298729 33.440931 1.525826 1.061700 0.067130 -0.026341 317713.000000 0 0 1
-0.560911 -30.032082 17.160829 34.593853 1.552121 1.051734 0.063775 -0.017489 198653.000000 0 0 1
-0.911211 -29.736082 18.667929 35.122023 1.540163 1.010407 0.059219 -0.012365 -241122.000000 0 0 1
-2.230511 -30.021432 19.023829 35.611342 1.496635 1.007227 0.046595 -0.010246 -437317.000000 0 0 1
-2.545511 -29.586272 20.331929 35.989089 1.484971 0.970427 0.077736 -0.016474 -710744.000000 0 0 1
-4.035811 -29.725842 20.608429 36.395341 1.435854 0.968862 0.116112 -0.029247 -774714.000000 0 0 1
-4.805411 -28.661492 20.055529 35.310018 1.404680 0.966742 0.097996 -0.026832 66214.100000 0 0 1
-6.135711 -28.599052 20.525329 35.732924 1.359458 0.958914 0.108251 -0.037972 245383.000000 0 0 1
-6.245011 -27.749082 21.812929 35.844325 1.349432 0.916569 0.147400 -0.048744 -163164.000000 0 0 1
-5.345311 -28.169892 22.840629 36.658008 1.383273 0.898130 0.150011 -0.046900 191484.000000 0 0 1
-5.108911 -27.114822 23.751929 36.406987 1.384562 0.860049 0.162137 -0.041475 142292.000000 0 0 1
-4.043911 -27.487082 24.826429 37.259153 1.424724 0.841537 0.181100 -0.041528 142359.000000 0 0 1
-4.428411 -28.486942 25.774729 38.671092 1.416577 0.841277 0.173616 -0.040163 101469.000000 0 0 1
-4.104011 -29.810172 25.371529 39.359926 1.433985 0.870292 0.147441 -0.038678 -24766.900000 0 0 1
-4.493911 -30.840282 26.450429 40.877175 1.426099 0.867060 0.152293 -0.027197 -119736.000000 0 0 1
-3.784611 -30.679512 27.643429 41.469446 1.448057 0.841161 0.156105 -0.038867 -56425.800000 0 0 1
-4.036411 -31.697382 28.601129 42.884044 1.444136 0.840700 0.144406 -0.044263 -155162.000000 0 0 1
-3.287411 -31.450082 29.960529 43.560855 1.466647 0.812362 0.176020 -0.049451 -587582.000000 0 0 1
-1.912211 -31.436352 29.818929 43.371296 1.510043 0.812719 0.171453 -0.048647 -889681.000000 0 0 1
-1.258411 -31.491572 31.059929 44.249542 1.530857 0.792698 0.176357 -0.060808 -200377.000000 0 0 1
-29.352451 2.768618 -9.465371 30.964897 -0.094045 1.881450 0.209152 -0.046854 -182422.000000 0 0 1
-29.997241 2.599618 -10.667671 31.943570 -0.086446 1.911291 0.191492 -0.061478 -365274.000000 0 0 1
-30.691691 3.750118 -11.041471 32.832261 -0.121584 1.913781 0.162280 -0.054689 -193361.000000 0 0 1
-31.638551 3.666118 -12.287571 34.138288 -0.115361 1.938995 0.145866 -0.048128 717773.000000 0 0 1
-32.755211 2.781818 -12.018571 35.001263 -0.084724 1.921305 0.167286 -0.055517 969686.000000 0 0 1
-33.443001 2.501318 -13.266571 36.065119 -0.074654 1.947493 0.158145 -0.048894 -57660.900000 0 0 1
-34.778456 1.756718 -13.142871 37.220453 -0.050469 1.931688 0.153531 -0.041824 -137207.000000 0 0 1
-34.712004 0.398518 -12.892671 37.031108 -0.011480 1.926402 0.169357 -0.039913 448065.000000 0 0 1
-36.019769 -0.162982 -12.771971 38.217451 0.004525 1.911544 0.142195 -0.040793 464277.000000 0 0 1
-35.981300 -1.629582 -12.272371 38.051551 0.045259 1.899186 0.163746 -0.042308 -29810.500000 0 0 1
-35.478715 -2.597482 -13.188771 37.939818 0.073082 1.925832 0.146340 -0.028086 231416.000000 0 0 1
-35.390061 -3.879382 -12.635371 37.777753 0.109182 1.911835 0.167092 -0.041058 -86653.900000 0 0 1
-35.056911 -4.874282 -13.702671 37.954036 0.138153 1.940172 0.150678 -0.039179 43224.900000 0 0 1
-34.777859 -6.085482 -13.030571 37.634138 0.173228 1.924360 0.162066 -0.044914 113562.000000 0 0 1
-34.843203 -7.111982 -14.032171 38.229974 0.201348 1.946628 0.151010 -0.038906 -620927.000000 0 0 1
-34.493147 -8.547982 -13.496771 38.013261 0.242923 1.933768 0.133175 -0.035397 -218870.000000 0 0 1
-33.113631 -8.775682 -13.354671 36.767817 0.259062 1.942514 0.143195 -0.041091 -140461.000000 0 0 1
-32.490281 -9.078282 -14.578771 36.750158 0.272466 1.978715 0.147967 -0.039581 -1125930.000000 0 0 1
-31.288811 -9.958082 -14.298371 35.813356 0.308127 1.981492 0.135431 -0.036318 -381887.000000 0 0 1
-31.777531 -11.228282 -13.964271 36.481319 0.339647 1.963598 0.114775 -0.030749 491126.000000 0 0 1
-30.652951 -12.012782 -13.677771 35.650971 0.373501 1.964550 0.121432 -0.031240 -52342.100000 0 0 1
-31.012191 -13.508682 -13.760371 36.518328 0.410808 1.957143 0.132305 -0.033105 -71207.800000 0 0 1
-30.980601 -13.870282 -15.130071 37.163173 0.420947 1.990101 0.132386 -0.034093 357682.000000 0 0 1
-31.324101 -15.196282 -15.577371 38.141588 0.451682 1.991507 0.140098 -0.039136 384593.000000 0 0 1
-30.172881 -16.197782 -15.211771 37.472241 0.492678 1.988812 0.117989 -0.032720 264304.000000 0 0 1
-28.951801 -15.842982 -15.815071 36.596766 0.500706 2.017665 0.125559 -0.042927 -274902.000000 0 0 1
-28.025131 -16.925282 -15.524371 36.233675 0.543306 2.013575 0.128138 -0.046995 1334820.000000 0 0 1
-26.583231 -16.528382 -16.034071 35.170257 0.556266 2.044178 0.137305 -0.061240 871144.000000 0 0 1
-26.579381 -16.432182 -17.430571 35.781348 0.553717 2.079610 0.134963 -0.056765 -1579900.000000 0 0 1
-25.275211 -16.407882 -17.813371 35.005300 0.575791 2.104675 0.103718 -0.040282 -1553690.000000 0 0 1
-24.980211 -15.983382 -19.291271 35.378419 0.569201 2.147524 0.106918 -0.026894 179224.000000 0 0 1
-25.546361 -16.771982 -20.376971 36.730599 0.580953 2.158881 0.099506 -0.042740 928998.000000 0 0 1
-26.944971 -16.493782 -20.548071 37.686861 0.549290 2.147462 0.109047 -0.039293 533336.000000 0 0 1
-27.675811 -17.286382 -21.647071 39.158207 0.558313 2.156530 0.120243 -0.046996 -296617.000000 0 0 1
-27.175681 -17.011482 -22.876271 39.385682 0.559305 2.190541 0.110257 -0.028594 -258875.000000 0 0 1
-27.643391 -17.968082 -23.820671 40.674727 0.576372 2.196463 0.087660 -0.027736 -811866.000000 0 0 1
-26.749451 -18.279082 -25.004071 40.925072 0.599460 2.228084 0.090192 -0.019263 174209.000000 0 0 1
-25.564131 -19.017382 -24.681971 40.303663 0.639591 2.229889 0.104021 -0.025074 472754.000000 0 0 1
-25.817241 -20.391282 -24.566671 41.059172 0.668510 2.212204 0.088764 -0.024990 61064.100000 0 0 1
-24.505811 -21.232682 -24.468871 40.621265 0.713958 2.217258 0.080920 -0.010773 954048.000000 0 0 1
-23.585911 -20.897682 -25.529771 40.555857 0.725040 2.251701 0.083865 -0.020101 409713.000000 0 0 1
-22.275211 -21.356282 -25.209211 39.846959 0.764340 2.255768 0.088334 -0.025382 718933.000000 0 0 1
-21.364611 -21.232782 -26.493641 40.114718 0.782303 2.292210 0.083045 -0.031878 -65570.300000 0 0 1
-21.662511 -22.119882 -27.602461 41.478300 0.795844 2.298916 0.110954 -0.026450 -219204.000000 0 0 1
-22.019211 -21.477082 -28.782151 42.125086 0.772935 2.323007 0.110585 -0.022959 -990466.000000 0 0 1
-20.915911 -21.412482 -29.772041 42.217818 0.797129 2.353503 0.111786 -0.030481 -671298.000000 0 0 1
-20.717711 -22.719382 -30.292411 43.162762 0.831448 2.348743 0.104457 -0.028020 26668.400000 0 0 1
-20.098311 -22.715182 -31.588411 43.792114 0.846445 2.376512 0.102254 -0.028635 60251.800000 0 0 1
-19.817911 -24.117282 -32.162371 44.819761 0.882945 2.371137 0.105237 -0.034296 169520.000000 0 0 1
-19.113511 -24.120582 -33.420591 45.431978 0.900698 2.397375 0.112149 -0.030751 175350.000000 0 0 1
-19.950611 -23.826182 33.278686 45.532239 0.873698 0.751183 0.120528 -0.025023 -192001.000000 0 0 1
-19.247711 -23.987882 31.918941 44.325068 0.894598 0.766835 0.121882 -0.023949 155689.000000 0 0 1
-18.392111 -22.883982 31.642693 43.164875 0.893797 0.747978 0.109244 -0.029875 117810.000000 0 0 1
-17.744611 -22.958582 30.378733 42.009941 0.912802 0.762470 0.112339 -0.027198 296422.000000 0 0 1
-16.803211 -21.762982 30.070383 40.745591 0.913300 0.740690 0.080595 -0.013326 273401.000000 0 0 1
-17.523111 -20.535682 29.986833 40.348281 0.864389 0.732956 0.087934 -0.021643 462572.000000 0 0 1
-16.693011 -19.370182 29.768223 39.242932 0.859498 0.709692 0.080550 -0.023521 551513.000000 0 0 1
-15.839211 -18.821282 30.959723 39.542707 0.871223 0.671412 0.078807 -0.025926 517596.000000 0 0 1
-15.303111 -17.514882 30.722093 38.533145 0.852691 0.648004 0.080308 -0.028601 61797.500000 0 0 1
-14.474711 -17.121982 31.809138 38.916588 0.868986 0.613970 0.074115 -0.021845 39989.400000 0 0 1
-13.838111 -15.718182 31.634653 37.938184 0.848922 0.584755 0.060495 -0.012825 106449.000000 0 0 1
-12.710411 -15.698882 30.772783 36.809966 0.890206 0.580861 0.061599 -0.024796 63528.900000 0 0 1
-12.321011 -14.409282 30.328813 35.766907 0.863364 0.558677 0.060820 -0.021820 694763.000000 0 0 1
-10.885511 -14.345982 29.696463 34.730123 0.921697 0.545123 0.099531 -0.027432 810551.000000 0 0 1
-10.517111 -13.008382 29.330543 33.765491 0.890902 0.518317 0.110625 -0.023813 389618.000000 0 0 1
-9.170611 -12.812282 29.777513 33.689093 0.949567 0.486677 0.103290 -0.028200 665753.000000 0 0 1
-8.758011 -11.295682 29.695473 32.956279 0.911273 0.448597 0.079055 -0.020621 85805.100000 0 0 1
-9.519511 -10.491082 30.629843 33.747165 0.833913 0.433200 0.070958 -0.016810 511675.000000 0 0 1
-9.219911 -9.093082 30.480913 33.117623 0.778473 0.401736 0.056821 -0.013555 139768.000000 0 0 1
-9.986411 -8.228582 31.510193 34.063620 0.689192 0.389657 0.036430 -0.019137 1162340.000000 0 0 1
-11.368211 -7.906282 31.226363 34.158912 0.607681 0.417391 0.063834 -0.028261 1268750.000000 0 0 1
-12.064211 -7.303082 32.346598 35.287145 0.544345 0.411134 0.055230 -0.026323 186909.000000 0 0 1
-11.812011 -5.833982 32.783748 35.331758 0.458758 0.382101 0.043622 -0.023908 -315942.000000 0 0 1
-12.239211 -4.929282 31.767718 34.398895 0.382871 0.393664 0.060364 -0.027089 426749.000000 0 0 1
-12.746811 -3.718982 32.306953 34.929232 0.283878 0.389956 0.047499 -0.025415 -313439.000000 0 0 1
-12.364811 -2.446182 31.454273 33.885744 0.195312 0.381130 0.051348 -0.019545 115437.000000 0 0 1
-10.991111 -2.163682 31.656683 33.580227 0.194372 0.340110 0.055748 -0.021953 273697.000000 0 0 1
-10.603611 -1.089382 30.780133 32.573607 0.102378 0.333382 0.045602 -0.017827 73811.400000 0 0 1
-9.096611 -0.762482 30.932813 32.251645 0.083625 0.286962 0.051604 -0.018120 211684.000000 0 0 1
-8.765211 -0.326282 32.222272 33.394763 0.037208 0.265772 0.062532 -0.039818 -72319.300000 0 0 1
-7.414311 0.024518 32.423318 33.260249 -0.003307 0.224808 0.088581 -0.044183 60777.900000 0 0 1
-7.177011 0.617018 33.858943 34.616733 -0.085761 0.209624 0.129165 -0.060183 -70707.600000 0 0 1
-7.667711 1.956418 -33.675291 34.592579 -0.249820 2.910790 0.108099 -0.044780 448125.000000 0 0 1
-6.927811 2.923818 33.335172 34.172752 -0.399361 0.221860 0.128261 -0.043437 452707.000000 0 0 1
-7.621911 4.344018 33.454334 34.585495 -0.518022 0.256461 0.121860 -0.047791 291323.000000 0 0 1
-8.850611 4.350218 32.765238 34.217226 -0.456837 0.292363 0.082913 -0.023245 -166651.000000 0 0 1
-9.431811 5.643618 32.819889 34.611481 -0.539213 0.323159 0.076345 -0.017626 596496.000000 0 0 1
-10.765111 5.628618 31.994186 34.222754 -0.481766 0.362874 0.056796 -0.004139 761161.000000 0 0 1
-11.780111 6.523418 32.413910 35.099680 -0.505730 0.393738 0.073336 -0.004359 317298.000000 0 0 1
-12.818911 6.730118 31.473223 34.643653 -0.483459 0.431153 0.050267 -0.001760 406892.000000 0 0 1
-13.642111 8.001918 31.786650 35.503929 -0.530479 0.461693 0.074063 -0.011926 -269881.000000 0 0 1
-14.459911 8.081818 32.897462 36.832700 -0.509660 0.466475 0.074259 -0.007274 38204.500000 0 0 1
-15.140911 9.344718 32.970331 37.464832 -0.552959 0.494862 0.084199 -0.002975 550394.000000 0 0 1
-16.148711 9.409818 -33.607101 38.454684 -0.527600 2.634048 0.094918 -0.004608 721558.000000 0 0 1
-15.454811 9.594518 -32.337021 37.102410 -0.555581 2.629174 0.098121 -0.006808 628459.000000 0 0 1
-16.285311 10.307518 -31.413231 36.854407 -0.564284 2.591278 0.095603 -0.005851 -528779.000000 0 0 1
-15.522611 10.828318 -30.189591 35.631661 -0.609102 2.581618 0.113936 -0.013608 403459.000000 0 0 1
-14.600611 11.898418 -30.397971 35.760128 -0.683776 2.586880 0.100980 -0.012404 240264.000000 0 0 1
-13.348311 11.493818 -30.925421 35.590264 -0.710885 2.623831 0.110806 -0.020502 -400231.000000 0 0 1
-12.396811 12.715018 -30.906121 35.644647 -0.798069 2.620071 0.100014 -0.018380 -41202.300000 0 0 1
-12.661811 13.569918 -31.979561 36.975078 -0.820003 2.615737 0.086223 -0.015852 -145365.000000 0 0 1
-11.873611 14.724418 -31.886481 37.074772 -0.892172 2.606181 0.082156 -0.029388 -342157.000000 0 0 1
-12.263911 15.861218 -30.878011 36.816209 -0.912611 2.565701 0.092278 -0.027893 516882.000000 0 0 1
-13.565911 16.357918 -31.203851 37.753089 -0.878433 2.543701 0.092898 -0.026246 559988.000000 0 0 1
-13.945911 17.349618 -30.315981 37.610588 -0.893733 2.508242 0.075399 -0.017304 -639728.000000 0 0 1
-15.324311 17.949118 -30.544801 38.600391 -0.864121 2.483742 0.062876 -0.024727 -853487.000000 0 0 1
-15.461611 18.831118 -31.611951 39.912251 -0.883341 2.484934 0.071190 -0.030336 -128683.000000 0 0 1
-16.707711 19.449818 -31.807941 40.855698 -0.861091 2.463138 0.069611 -0.027199 -121814.000000 0 0 1
-17.190811 20.534818 -30.821491 40.830956 -0.873807 2.426231 0.057693 -0.036697 -259687.000000 0 0 1
-16.672911 21.824918 -31.153161 41.531102 -0.918434 2.419034 0.068506 -0.035105 290295.000000 0 0 1
-17.234811 22.823518 -30.344571 41.698257 -0.924018 2.385785 0.041835 -0.032452 -71688.500000 0 0 1
-18.613211 23.355518 -30.765691 42.877261 -0.897917 2.371045 0.046838 -0.035702 149467.000000 0 0 1
-19.737911 22.507918 -30.530001 42.758302 -0.850873 2.366010 0.048338 -0.032554 122560.000000 0 0 1
-20.752211 22.811918 -31.440331 44.040121 -0.832643 2.365851 0.070236 -0.037988 -98745.900000 0 0 1
-22.068111 21.993218 -31.246431 44.125305 -0.783698 2.357642 0.078288 -0.043376 -342864.000000 0 0 1
-22.903311 22.394218 -30.230831 44.045042 -0.774160 2.327271 0.088078 -0.040169 745509.000000 0 0 1
-24.047011 23.230618 -30.533461 45.279273 -0.768132 2.310862 0.094308 -0.034106 1278150.000000 0 0 1
-25.313221 22.452618 -31.032721 45.911969 -0.725582 2.313006 0.086981 -0.038613 -122081.000000 0 0 1
-25.044801 21.849818 -32.289491 46.338621 -0.717372 2.341745 0.107481 -0.034633 -467545.000000 0 0 1
-26.175151 21.461618 -32.992691 47.267930 -0.686772 2.343388 0.112963 -0.028558 -826416.000000 0 0 1
-25.953631 20.466718 33.575862 47.114923 -0.667743 0.777546 0.122744 -0.024530 -205112.000000 0 0 1
-25.674981 19.128918 -33.833751 46.581571 -0.640320 2.383769 0.111747 -0.034071 165348.000000 0 0 1
-25.347871 18.441118 32.769467 45.347848 -0.628959 0.763205 0.101668 -0.038906 -347896.000000 0 0 1
-25.033691 16.990618 32.987381 44.760854 -0.596294 0.742221 0.087028 -0.023561 -434229.000000 0 0 1
-26.040231 16.149918 33.490704 45.393179 -0.555134 0.741003 0.074853 -0.020046 96540.300000 0 0 1
-26.472091 15.318718 32.399993 44.555519 -0.524591 0.756588 0.085923 -0.017659 -644608.000000 0 0 1
-27.365351 14.136618 32.780132 44.980479 -0.476830 0.754282 0.050098 -0.008657 -3491.390000 0 0 1
-28.614981 14.586118 33.306771 46.270000 -0.471407 0.767232 0.056826 -0.006437 1199320.000000 0 0 1
-29.702571 13.631318 33.492169 46.795095 -0.430253 0.773142 0.043917 -0.001639 805650.000000 0 0 1
-29.442331 12.338618 -33.516621 46.286674 -0.396844 2.380539 0.026797 0.005383 -534079.000000 0 0 1
-28.562801 11.484618 33.556876 45.538928 -0.382301 0.742348 0.022505 0.004243 -247542.000000 0 0 1
-28.983991 10.162318 33.643180 45.554451 -0.337226 0.739914 0.032440 0.001170 -5349.710000 0 0 1
-27.786441 9.177518 -33.838741 44.736713 -0.319007 2.428584 0.026900 -0.004189 525719.000000 0 0 1
-26.798781 8.968318 32.966682 43.421279 -0.322939 0.708669 0.033149 -0.007048 -299994.000000 0 0 1
-25.868271 10.031018 32.940912 43.068462 -0.369922 0.699988 0.017851 -0.002362 -1012220.000000 0 0 1
-24.628811 9.512918 32.168795 41.616166 -0.368598 0.687259 0.025870 -0.006363 -295387.000000 0 0 1
-24.797711 9.361018 30.757323 40.602562 -0.360956 0.711288 0.032548 -0.007567 30506.800000 0 0 1
-23.582811 9.091918 30.091743 39.297900 -0.367972 0.698614 0.062563 -0.016806 268962.000000 0 0 1
-23.835911 8.919818 28.582483 38.271035 -0.358085 0.727493 0.091208 -0.025084 -12267.300000 0 0 1
-24.367211 10.058218 27.972163 38.436579 -0.391472 0.755763 0.060552 -0.017933 65034.600000 0 0 1
-24.306211 9.900418 26.553283 37.334796 -0.386801 0.779563 0.069886 -0.012637 -756617.000000 0 0 1
-24.362411 11.266218 25.767403 37.207711 -0.433153 0.805808 0.072691 -0.002991 606590.000000 0 0 1
-25.605121 11.959218 25.805203 38.269486 -0.436953 0.830777 0.088582 -0.004282 192159.000000 0 0 1
-26.683991 11.362918 25.106103 38.359714 -0.402576 0.857287 0.109223 -0.002453 1056350.000000 0 0 1
-28.027441 12.186718 25.426543 39.756290 -0.410154 0.876870 0.111277 -0.006114 1153970.000000 0 0 1
-28.021661 13.426018 24.801643 39.756671 -0.446813 0.897155 0.136654 -0.010578 -86267.200000 0 0 1
-28.896441 14.346618 25.422333 41.074624 -0.460831 0.903416 0.120023 -0.016913 -50108.000000 0 0 1
-29.010301 15.715418 24.708043 41.219647 -0.496463 0.928015 0.131610 -0.014185 -729729.000000 0 0 1
-27.976801 16.612218 24.835633 40.932576 -0.535837 0.918837 0.147509 -0.014935 -552299.000000 0 0 1
-28.203851 17.743918 24.071363 41.106378 -0.561564 0.945192 0.125770 -0.029042 42744.900000 0 0 1
-23.436511 -8.683782 31.698283 40.366561 0.354840 0.667679 0.089179 -0.021436 -481737.000000 0 0 1
-22.408711 -8.287682 30.845463 39.016389 0.354241 0.659046 0.081490 -0.024601 -294294.000000 0 0 1
-22.702911 -8.594182 29.564213 38.253429 0.361879 0.687474 0.081333 -0.024385 759883.000000 0 0 1
-21.486211 -8.242782 28.607213 36.714757 0.366316 0.677448 0.099388 -0.025198 -519160.000000 0 0 1
-21.260811 -6.862482 28.522913 36.230820 0.312219 0.664451 0.102356 -0.027643 1052060.000000 0 0 1
-19.899611 -6.557882 28.923943 35.715470 0.318340 0.626911 0.091233 -0.024232 1622560.000000 0 0 1
-18.729911 -6.993482 27.951903 34.366077 0.357355 0.620896 0.099825 -0.030751 -642963.000000 0 0 1
-18.559611 -8.459382 27.866833 34.533761 0.427663 0.631836 0.095649 -0.032333 -183865.000000 0 0 1
-17.990611 -9.058082 29.003933 35.312024 0.466435 0.607003 0.098607 -0.029359 -292816.000000 0 0 1
-16.617911 -8.630182 29.611963 35.035744 0.478992 0.563870 0.099854 -0.029064 478688.000000 0 0 1
-15.496311 -8.941482 28.770213 33.879358 0.523341 0.556336 0.078245 -0.021647 1060260.000000 0 0 1
-14.256111 -8.564982 29.436683 33.809968 0.541003 0.514272 0.069614 -0.029830 1400740.000000 0 0 1
-13.099511 -9.451282 28.879863 33.090337 0.625010 0.509972 0.069141 -0.031037 113445.000000 0 0 1
-12.582211 -9.190282 27.580953 31.677789 0.630851 0.514230 0.082944 -0.032359 329868.000000 0 0 1
-11.561611 -10.145582 27.273513 31.312109 0.720257 0.513519 0.095975 -0.034205 312549.000000 0 0 1
-10.951511 -9.986482 25.862483 29.808278 0.739341 0.520386 0.084707 -0.036083 -331279.000000 0 0 1
-11.824411 -10.358082 24.850913 29.405347 0.719391 0.564015 0.078554 -0.038494 -273901.000000 0 0 1
-11.350311 -10.006682 23.564473 28.004422 0.722568 0.570825 0.071288 -0.037509 23982.200000 0 0 1
-12.393011 -10.475982 22.553573 27.784826 0.701767 0.623701 0.087440 -0.044054 -629639.000000 0 0 1
-12.433211 -11.841482 22.425873 28.244030 0.761027 0.653429 0.079748 -0.040707 -235111.000000 0 0 1
-13.615611 -12.389482 21.939373 28.639487 0.738284 0.698118 0.082275 -0.038354 269958.000000 0 0 1
-14.918311 -12.308182 22.801093 29.898782 0.689823 0.703459 0.088974 -0.040445 -65255.700000 0 0 1
-16.071211 -12.868682 22.248773 30.313276 0.675185 0.746660 0.071987 -0.029409 353578.000000 0 0 1
-17.235711 -12.627782 23.045123 31.426236 0.632306 0.747621 0.071002 -0.026392 690358.000000 0 0 1
-18.540111 -13.356082 22.647773 32.172073 0.624279 0.789842 0.090274 -0.023571 -101260.000000 0 0 1
-18.499411 -14.739282 23.048333 33.025752 0.672752 0.798350 0.086384 -0.026066 67170.200000 0 0 1
-19.653711 -15.509882 22.764613 33.838623 0.668095 0.832890 0.077024 -0.016356 -382016.000000 0 0 1
-20.579411 -15.625282 23.950883 35.232178 0.649406 0.823305 0.080099 -0.015385 -601865.000000 0 0 1
-20.076411 -16.478882 24.983193 36.038532 0.687301 0.804827 0.076521 -0.014218 277585.000000 0 0 1
-20.754411 -16.239882 26.221793 37.176091 0.663965 0.787893 0.079989 -0.011686 177778.000000 0 0 1
-20.420111 -17.315682 27.323573 38.254299 0.703316 0.775228 0.077613 -0.012939 221247.000000 0 0 1
-20.954011 -18.621182 27.053943 38.958116 0.726520 0.803160 0.083043 -0.006667 249211.000000 0 0 1
-20.496411 -19.502982 28.054603 39.843819 0.760567 0.789621 0.081098 -0.013919 -88833.000000 0 0 1
-20.685111 -20.987982 27.805883 40.515878 0.792666 0.814412 0.087701 -0.009746 -423557.000000 0 0 1
-21.995511 -21.478482 27.732123 41.402878 0.773506 0.836841 0.091869 -0.009328 -334054.000000 0 0 1
-22.061011 -22.911382 27.544563 42.075202 0.804305 0.857076 0.098373 -0.005073 -23273.100000 0 0 1
-23.452211 -23.409582 27.107723 42.811720 0.784489 0.885136 0.094545 0.000732 -452195.000000 0 0 1
-24.331211 -23.678382 28.143213 44.098912 0.771801 0.878659 0.096999 -0.006649 -1462570.000000 0 0 1
-25.457701 -24.194782 27.569883 44.649529 0.759968 0.905270 0.080473 -0.005421 -1090670.000000 0 0 1
-26.331511 -25.131312 28.434523 46.189321 0.762081 0.907639 0.064029 -0.005524 -190023.000000 0 0 1
-27.133221 -24.433682 29.365993 46.856996 0.733096 0.893466 0.045941 0.000323 63646.100000 0 0 1
-27.773151 -25.336372 30.264043 48.261703 0.739548 0.892995 0.040606 0.004398 -10177.600000 0 0 1
-28.959971 -24.581282 30.929853 48.985459 0.703798 0.887428 0.014712 0.004202 462127.000000 0 0 1
-29.998651 -24.334482 29.957353 48.882810 0.681524 0.911146 0.025741 0.002443 85507.400000 0 0 1
-30.751991 -23.233182 30.355693 49.060512 0.647013 0.903659 0.019973 -0.001137 -1052310.000000 0 0 1
-31.990621 -23.162582 29.462363 49.274089 0.626681 0.929883 0.018594 -0.006513 -631949.000000 0 0 1
-33.048181 -23.969082 29.961733 50.639951 0.627490 0.937678 0.022422 -0.004277 -746974.000000 0 0 1
-34.051699 -24.079282 29.047433 50.824043 0.615501 0.962428 0.019589 -0.010052 -1193730.000000 0 0 1
-35.164593 -24.968482 29.552343 52.281112 0.617437 0.970050 0.028026 -0.018383 -471879.000000 0 0 1
-34.691012 -26.315392 29.642973 52.675156 0.648960 0.973087 0.024532 -0.021117 356752.000000 0 0 1
-35.742637 -27.250132 29.921613 53.994525 0.651389 0.983443 0.019139 -0.014872 205851.000000 0 0 1
-35.387271 -28.664062 30.385443 54.746347 0.680815 0.982407 0.024951 -0.019490 -287140.000000 0 0 1
-34.722506 -28.638752 31.616373 55.003869 0.689675 0.958433 0.035817 -0.019138 -233507.000000 0 0 1
-34.342290 -29.962622 31.920545 55.642365 0.717395 0.959813 0.042709 -0.027946 360415.000000 0 0 1
-33.361171 -30.150532 33.140355 55.859694 0.734889 0.935671 0.044448 -0.032016 476606.000000 0 0 1
-34.037413 -29.941032 -33.428581 56.324780 0.721458 2.206193 0.045767 -0.026013 6391.080000 0 0 1
-33.073761 -30.232952 -32.444461 55.322221 0.740555 2.197482 0.041875 -0.031441 196264.000000 0 0 1
-33.535381 -29.796892 -31.016261 54.538839 0.726437 2.175721 0.047817 -0.037879 -149837.000000 0 0 1
-33.551181 -28.371962 -30.783831 53.649736 0.701953 2.181926 0.037035 -0.027316 213714.000000 0 0 1
-32.272961 -27.738432 -30.675621 52.459111 0.709980 2.195372 0.034081 -0.019007 272710.000000 0 0 1
-32.387541 -26.245152 -30.492051 51.648097 0.681018 2.202327 0.023258 0.001054 -209047.000000 0 0 1
-32.950311 -25.782202 -29.285251 51.069275 0.663952 2.181497 0.029362 -0.014756 15421.900000 0 0 1
-33.034701 -24.385882 -29.169301 50.366763 0.635900 2.188467 0.032460 -0.003039 532604.000000 0 0 1
-31.696811 -23.832982 -28.579091 48.882137 0.644719 2.195249 0.037603 -0.007283 394223.000000 0 0 1
-31.684721 -22.414382 -28.648171 48.239442 0.615688 2.206662 0.037500 0.003070 263138.000000 0 0 1
-30.567211 -21.851082 -27.984451 46.850332 0.620625 2.210947 0.049930 0.001230 11931.600000 0 0 1
-30.624101 -20.289282 -28.056321 46.223886 0.585131 2.223033 0.068380 -0.002841 -59011.300000 0 0 1
-30.118141 -19.870882 -29.301911 46.481785 0.583209 2.252859 0.085083 -0.002294 83521.200000 0 0 1
-30.257791 -18.469882 -29.475571 46.102925 0.548044 2.264440 0.083672 -0.007550 -324050.000000 0 0 1
-29.588931 -17.907882 -30.768231 46.291264 0.544251 2.297843 0.117399 -0.009561 522637.000000 0 0 1
-30.429411 -17.759282 -31.925051 47.545242 0.528290 2.306983 0.105127 -0.017693 441471.000000 0 0 1
-31.419941 -16.746882 -31.819461 47.750904 0.489699 2.300117 0.082573 -0.016329 -340702.000000 0 0 1
-31.974511 -16.185382 -33.140431 48.812130 0.468592 2.317112 0.086483 -0.024485 -126976.000000 0 0 1
-32.802271 -16.993082 33.827613 50.090530 0.477980 0.829385 0.086752 -0.029429 1108830.000000 0 0 1
-34.191614 -16.711782 -33.657871 50.805535 0.454622 2.294927 0.073318 -0.019751 988386.000000 0 0 1
-35.241534 -17.461782 33.273615 51.517114 0.460032 0.868627 0.074421 -0.031101 -129903.000000 0 0 1
-35.441313 -18.824882 33.583654 52.329004 0.488261 0.873981 0.037385 -0.024204 -180159.000000 0 0 1
-36.251731 -19.480782 32.657246 52.537459 0.493099 0.900014 0.047540 -0.029439 -615030.000000 0 0 1
-36.551481 -20.985182 33.041287 53.554788 0.521178 0.905919 0.029326 -0.022498 706584.000000 0 0 1
-35.362384 -21.790382 32.960077 53.025330 0.552248 0.900024 0.037579 -0.016809 386426.000000 0 0 1
-35.576562 -23.087682 33.390204 53.978130 0.575642 0.903852 0.031328 -0.014858 -838977.000000 0 0 1
-34.350665 -24.051682 33.278239 53.534034 0.610847 0.899977 0.026567 -0.008534 -158166.000000 0 0 1
-33.279761 -23.923982 -33.652751 53.032132 0.623282 2.258252 0.009047 -0.005928 -916827.000000 0 0 1
-32.600141 -22.717182 -33.701391 52.102047 0.608604 2.274222 0.023554 -0.011267 -1806060.000000 0 0 1
-31.408471 -22.773282 -32.726801 50.755866 0.627353 2.271543 0.041309 -0.006626 -804046.000000 0 0 1
-30.444021 -23.669882 -33.249981 50.918199 0.660863 2.282345 0.039217 -0.003184 467752.000000 0 0 1
-29.144301 -23.450382 -32.679811 49.671730 0.677558 2.288844 0.065944 -0.005834 554494.000000 0 0 1
-28.915361 -23.947182 -31.239191 48.841096 0.691690 2.264785 0.064089 0.005400 -919009.000000 0 0 1
-28.868851 -25.328242 -31.130981 49.437520 0.720162 2.251968 0.055459 -0.008810 106419.000000 0 0 1
-28.532721 -25.654482 -29.801281 48.583793 0.732331 2.231154 0.052775 -0.012334 -172505.000000 0 0 1
-28.035431 -27.088122 -29.619541 48.959871 0.768215 2.220532 0.055415 -0.024904 260546.000000 0 0 1
-29.079791 -28.063192 -29.597241 50.091652 0.767610 2.202923 0.038031 -0.016816 465378.000000 0 0 1
-28.618461 -29.263302 -29.040331 50.186631 0.796538 2.187865 0.032119 -0.020870 138840.000000 0 0 1
-29.391851 -30.519112 -29.555931 51.660915 0.804212 2.179877 0.035212 -0.010335 15239.700000 0 0 1
-29.037291 -30.681292 -30.896071 52.336155 0.812920 2.202275 0.052320 -0.029888 470940.000000 0 0 1
-29.722141 -31.769652 -31.494101 53.708424 0.818683 2.197392 0.078688 -0.024255 -12873.700000 0 0 1
-29.097311 -32.049432 -32.911581 54.378229 0.833640 2.220857 0.061150 -0.037976 592419.000000 0 0 1
-27.677991 -32.144872 -32.936781 53.704707 0.859928 2.231021 0.058138 -0.030328 226032.000000 0 0 1
-27.149831 -32.314992 33.526347 53.901651 0.872041 0.899513 0.073161 -0.041636 268897.000000 0 0 1
-25.727191 -32.937922 33.533294 53.584297 0.907698 0.894634 0.083598 -0.036615 295066.000000 0 0 1
-25.428391 -33.654392 32.343827 53.153968 0.923737 0.916636 0.090865 -0.027820 -141519.000000 0 0 1
-24.441111 33.124388 32.528368 52.466062 -0.935111 0.902068 0.084053 -0.019101 -394401.000000 0 0 1
-24.395111 32.159224 31.312373 51.086220 -0.921831 0.911030 0.087496 -0.018517 495859.000000 0 0 1
-25.598651 31.385855 31.142373 51.090216 -0.886609 0.915295 0.086573 -0.034038 648898.000000 0 0 1
-25.611431 30.629095 29.949763 49.910672 -0.874381 0.927211 0.075789 -0.025443 -380800.000000 0 0 1
-27.044451 30.180715 29.655763 50.216951 -0.840149 0.939053 0.073815 -0.020857 -481495.000000 0 0 1
-27.497001 29.143975 30.508513 50.360954 -0.814467 0.920029 0.093065 -0.016134 -495959.000000 0 0 1
-28.824541 28.853145 30.183873 50.738785 -0.785894 0.933671 0.091815 -0.020217 -389695.000000 0 0 1
-29.232571 27.494575 30.752443 50.558952 -0.754770 0.916943 0.075787 -0.032012 -61052.300000 0 0 1
-28.512951 26.475705 30.098433 49.192144 -0.748367 0.912393 0.064582 -0.010934 118769.000000 0 0 1
-28.912411 25.177025 30.575453 49.037418 -0.716448 0.897569 0.060051 -0.012585 63379.400000 0 0 1
-29.930391 24.534345 29.621523 48.735993 -0.686646 0.917515 0.046248 -0.008828 -257206.000000 0 0 1
-29.503251 24.338625 28.320843 47.590762 -0.689769 0.933417 0.060507 -0.019647 -394857.000000 0 0 1
-30.357001 23.417195 27.695313 47.296331 -0.657053 0.945213 0.051068 -0.007214 213622.000000 0 0 1
-29.647151 22.749015 26.480163 45.800330 -0.654498 0.954318 0.063985 -0.013422 -59606.300000 0 0 1
-28.517921 21.971715 26.759813 44.856612 -0.656463 0.931584 0.073060 -0.018264 -337771.000000 0 0 1
-27.729751 21.762315 25.654243 43.596762 -0.665404 0.941664 0.080162 -0.013214 -630537.000000 0 0 1
-26.320681 21.200415 25.810863 42.525716 -0.678065 0.918583 0.090267 -0.025142 -467462.000000 0 0 1
-26.291531 19.932915 26.434813 42.277240 -0.648697 0.895315 0.121638 -0.030976 1227490.000000 0 0 1
-24.966111 19.413415 26.696093 41.386819 -0.660927 0.869723 0.114088 -0.027185 1015580.000000 0 0 1
-25.087711 18.442215 27.826993 41.759431 -0.633903 0.841474 0.141696 -0.029291 -412867.000000 0 0 1
-23.822011 17.950415 28.147193 41.011828 -0.645752 0.814381 0.128564 -0.021533 -198617.000000 0 0 1
-23.852411 16.878915 29.101433 41.239892 -0.615835 0.787439 0.125178 -0.019405 279571.000000 0 0 1
-22.596211 15.925115 29.122203 40.153465 -0.613920 0.759366 0.103949 -0.022564 914220.000000 0 0 1
-21.563811 16.535515 29.905453 40.407392 -0.654178 0.737579 0.135219 -0.018418 277343.000000 0 0 1
-20.374911 15.780715 29.930363 39.496767 -0.659008 0.710873 0.111250 -0.019880 287530.000000 0 0 1
-19.183611 16.317215 30.758743 39.753776 -0.704831 0.686086 0.095474 -0.028952 -49411.700000 0 0 1
-19.223111 15.984315 32.159614 40.734102 -0.693665 0.660801 0.084161 -0.023820 548740.000000 0 0 1
-18.154211 16.650715 32.828249 41.042851 -0.742227 0.643746 0.088700 -0.029081 -110677.000000 0 0 1
-18.358211 16.600215 -33.408781 41.578091 -0.735152 2.503979 0.076673 -0.032453 1667380.000000 0 0 1
-19.539211 17.248515 -32.817541 41.908030 -0.723211 2.470407 0.090412 -0.029827 1932230.000000 0 0 1
-20.845511 16.710615 -32.966901 42.433436 -0.675741 2.460537 0.080497 -0.022670 269133.000000 0 0 1
-21.961811 17.579715 -32.371791 42.887065 -0.675026 2.426168 0.077754 -0.032667 -110612.000000 0 0 1
-22.050411 17.378715 -31.004321 41.827123 -0.667465 2.405726 0.078875 -0.028614 226810.000000 0 0 1
-23.063411 18.183215 -30.441501 42.299352 -0.667628 2.374121 0.074890 -0.025222 -405934.000000 0 0 1
-23.337311 18.128015 -28.911631 41.341715 -0.660423 2.345260 0.070686 -0.030625 -200687.000000 0 0 1
-23.883511 16.950615 -28.359611 40.767793 -0.617220 2.340103 0.061434 -0.033840 776445.000000 0 0 1
-25.296761 16.878115 -28.620491 41.760380 -0.588375 2.325881 0.060269 -0.030970 949859.000000 0 0 1
-26.134001 15.888515 -27.720211 41.277609 -0.546254 2.307103 0.053094 -0.030106 351787.000000 0 0 1
-25.799091 14.538315 -27.936931 40.711519 -0.513164 2.327072 0.039547 -0.014212 137971.000000 0 0 1
-26.657061 13.723815 -27.151651 40.449402 -0.475440 2.306690 0.021206 -0.007204 67879.100000 0 0 1
-26.335131 12.234815 -27.185461 39.777872 -0.434914 2.323250 0.038278 -0.006954 155647.000000 0 0 1
-25.173951 11.841315 -26.480451 38.407796 -0.439672 2.331533 0.034215 -0.014655 39415.700000 0 0 1
-24.460911 10.820315 -27.127741 38.096321 -0.416475 2.363257 0.026355 -0.004890 325881.000000 0 0 1
-23.301411 10.171215 -26.306981 36.585060 -0.411576 2.373250 0.057972 -0.009821 553880.000000 0 0 1
-23.775611 9.392615 -25.211141 35.904073 -0.376234 2.349252 0.050939 -0.004864 533036.000000 0 0 1
-22.628411 9.047315 -24.446071 34.518245 -0.380352 2.357752 0.077420 0.013416 503076.000000 0 0 1
-23.010111 7.945815 -23.383671 33.754958 -0.332498 2.336088 0.080902 0.016522 263253.000000 0 0 1
-23.433611 6.767615 -24.037771 34.245425 -0.281150 2.348895 0.071178 -0.014827 -28819.600000 0 0 1
-23.797511 5.712315 -23.251771 33.757916 -0.235581 2.330601 0.075636 0.000566 -234742.000000 0 0 1
35.316579 24.530418 -10.482671 44.259333 0.607083 1.809915 0.072177 -0.002871 -355863.000000 0 0 1
36.054259 24.041018 -9.426771 44.347989 0.588096 1.784994 0.090219 -0.013825 449713.000000 0 0 1
37.189449 23.253618 -9.890671 44.962331 0.558797 1.792587 0.088493 -0.014500 667433.000000 0 0 1
-36.683891 22.805018 -8.781371 44.078216 -0.556196 1.771361 0.115391 -0.017061 -549684.000000 0 0 1
-37.166671 21.872818 -7.876071 43.838500 -0.531925 1.751438 0.085555 -0.016448 -795082.000000 0 0 1
-36.205051 21.433918 -6.982971 42.649506 -0.534527 1.735266 0.146618 -0.018082 -771549.000000 0 0 1
-36.729171 20.501818 -5.886771 42.473646 -0.509109 1.709842 0.106828 -0.012768 71436.800000 0 0 1
-37.215211 19.209318 -6.302671 42.352018 -0.476499 1.720167 0.078683 -0.002536 506865.000000 0 0 1
37.093809 18.445718 -5.215171 41.753960 0.461463 1.696026 0.086020 -0.017212 -229886.000000 0 0 1
36.586459 17.078818 -5.641371 40.768616 0.436742 1.709617 0.086024 -0.005380 -374381.000000 0 0 1
35.409279 17.163718 -6.391371 39.865523 0.451352 1.731814 0.079310 -0.008924 -154976.000000 0 0 1
35.054529 15.944618 -7.064871 39.153075 0.426881 1.752232 0.085900 -0.008890 169161.000000 0 0 1
34.082319 16.275018 -8.208771 38.650545 0.445503 1.784811 0.053695 -0.013948 -39305.600000 0 0 1
33.542099 15.199818 -8.969171 37.901885 0.425476 1.809704 0.078083 -0.019993 382878.000000 0 0 1
32.758629 15.683818 -10.056671 37.686159 0.446519 1.840923 0.064564 -0.013918 -254884.000000 0 0 1
32.086589 14.580118 -10.855971 36.877922 0.426506 1.869599 0.057680 -0.013208 77026.900000 0 0 1
30.915679 13.897218 -10.425271 35.462630 0.422455 1.869184 0.064453 -0.009892 557569.000000 0 0 1
31.009109 13.156618 -9.242371 34.929685 0.401263 1.838585 0.070652 -0.010986 -280960.000000 0 0 1
29.868949 12.110718 -9.077571 33.484712 0.385206 1.845328 0.075529 -0.007792 18400.200000 0 0 1
30.158929 10.904618 -9.688871 33.501432 0.346946 1.864195 0.083396 -0.011031 531298.000000 0 0 1
29.153939 9.901818 -9.515171 32.226335 0.327415 1.870525 0.100588 -0.011253 -63200.000000 0 0 1
29.608739 8.465318 -9.979771 32.371822 0.278477 1.884187 0.109192 -0.013540 -214902.000000 0 0 1
30.818169 8.138018 -9.335971 33.213660 0.258172 1.855724 0.097566 -0.027671 307781.000000 0 0 1
31.119149 6.729918 -9.279571 33.163288 0.212983 1.854397 0.090543 -0.030090 11253.000000 0 0 1
32.275999 6.516918 -8.246671 33.944336 0.199234 1.816199 0.122168 -0.035439 -109658.000000 0 0 1
33.531579 6.896018 -8.692471 35.319696 0.202829 1.819459 0.119084 -0.027139 -504694.000000 0 0 1
34.532869 6.743218 -7.701871 36.018174 0.192843 1.786293 0.127350 -0.024417 -2690.610000 0 0 1
35.982919 6.979218 -8.143171 37.547186 0.191580 1.789412 0.145814 -0.028718 -53376.500000 0 0 1
36.327539 5.914418 -9.068371 37.906540 0.161392 1.812369 0.159141 -0.034797 287722.000000 0 0 1
-37.146151 6.028618 -9.535171 38.821389 -0.160892 1.818952 0.158549 -0.039268 -1043880.000000 0 0 1
-36.807291 5.062018 -10.702671 38.664555 -0.136670 1.851267 0.147403 -0.044543 1005700.000000 0 0 1
-35.400447 4.761418 -10.820671 37.322241 -0.133699 1.864945 0.150751 -0.043148 1118760.000000 0 0 1
-34.517828 5.706518 -11.317671 36.771381 -0.163839 1.883660 0.126925 -0.032988 -946842.000000 0 0 1
-33.791021 6.670418 -10.381871 35.973751 -0.194896 1.863556 0.137207 -0.033912 -720540.000000 0 0 1
-34.574109 7.750718 -9.822171 36.768433 -0.220531 1.841216 0.157425 -0.033686 372968.000000 0 0 1
-34.676627 8.941018 -10.606871 37.348573 -0.252344 1.858756 0.145388 -0.029960 -79362.900000 0 0 1
-35.713777 9.958118 -10.070871 38.419531 -0.271925 1.836024 0.141298 -0.024802 385344.000000 0 0 1
-35.245390 10.463418 -8.841171 37.813845 -0.288586 1.806788 0.131654 -0.019746 365627.000000 0 0 1
-36.247651 11.304618 -8.337871 38.874241 -0.302312 1.786959 0.123938 -0.021651 -87008.500000 0 0 1
-35.666669 12.169818 -7.208271 38.368931 -0.328823 1.759787 0.134507 -0.022931 -264902.000000 0 0 1
-34.793863 13.111518 -7.694471 37.970115 -0.360378 1.774855 0.140934 -0.022015 -463274.000000 0 0 1
-34.137458 13.870218 -6.694971 37.450922 -0.385930 1.750529 0.145729 -0.025702 3224.000000 0 0 1
-33.200751 14.927918 -7.296071 37.126341 -0.422543 1.768604 0.128195 -0.021979 -264354.000000 0 0 1
-33.875221 15.933118 -8.027171 38.286163 -0.439645 1.782026 0.108114 -0.019600 -173606.000000 0 0 1
-33.086591 17.050918 -8.361471 38.149318 -0.475846 1.791768 0.104754 -0.007353 115691.000000 0 0 1
-33.932031 18.079518 -9.150971 39.522044 -0.489554 1.804458 0.071104 -0.012494 348115.000000 0 0 1
-33.865161 17.792218 -10.553871 39.683703 -0.483748 1.839985 0.056513 -0.015098 -302826.000000 0 0 1
-34.704313 18.563418 -11.370171 40.966701 -0.491178 1.852036 0.051230 -0.016734 -307532.000000 0 0 1
-34.316708 18.668818 -12.871871 41.132058 -0.498237 1.889083 0.035327 -0.001772 144193.000000 0 0 1
-33.198211 19.535918 -12.989671 40.651012 -0.531893 1.896042 0.041466 -0.016592 223861.000000 0 0 1
-33.012841 19.865518 -14.372071 41.122291 -0.541706 1.927829 0.028062 -0.012616 -124752.000000 0 0 1
-32.273691 21.170618 -14.727571 41.312074 -0.580562 1.935311 0.042049 -0.011388 854628.000000 0 0 1
-30.856781 21.080618 -14.436171 40.061657 -0.599345 1.939438 0.048591 -0.009181 1028720.000000 0 0 1
-30.233731 22.323518 -14.535071 40.294990 -0.636013 1.939832 0.047028 -0.009519 167591.000000 0 0 1
-29.588301 22.708818 -15.889371 40.541707 -0.654603 1.973521 0.052422 -0.023291 68151.000000 0 0 1
-30.612561 23.189618 -16.748271 41.897396 -0.648296 1.982035 0.058556 -0.012912 625009.000000 0 0 1
-30.048691 23.890318 -17.868171 42.343153 -0.671718 2.006430 0.076489 -0.019069 373590.000000 0 0 1
-29.315931 25.264118 -17.652571 42.536016 -0.711298 1.998742 0.089202 -0.020917 485705.000000 0 0 1
-30.199821 26.289518 -17.213571 43.582966 -0.716286 1.976822 0.114550 -0.026384 356197.000000 0 0 1
-29.716551 27.597318 -17.553771 44.190725 -0.748439 1.979290 0.119471 -0.027391 338898.000000 0 0 1
-30.629451 28.699818 -16.873971 45.239072 -0.752885 1.953032 0.120034 -0.031132 374089.000000 0 0 1
-30.538021 28.855418 -15.482571 44.776286 -0.757076 1.923862 0.104044 -0.032733 -166450.000000 0 0 1
-29.414791 29.606818 -15.135671 44.394618 -0.788652 1.918707 0.097484 -0.027366 -279645.000000 0 0 1
-29.467351 29.887018 -13.676671 44.143062 -0.792469 1.885806 0.089524 -0.019227 -237317.000000 0 0 1
-30.447861 30.853718 -13.438671 45.383058 -0.792019 1.871421 0.069391 -0.012273 -237186.000000 0 0 1
-30.236641 31.691018 -12.313171 45.499332 -0.808879 1.844837 0.058553 -0.017754 -235527.000000 0 0 1
-29.085241 32.708718 -12.299371 45.465217 -0.843969 1.844732 0.061846 -0.025787 -175448.000000 0 0 1
-29.188831 33.669918 -13.344371 46.515840 -0.856566 1.861763 0.062000 -0.026058 -496750.000000 0 0 1
-28.299961 -33.030880 -13.245971 45.468479 0.862383 1.866405 0.090430 -0.025778 -500238.000000 0 0 1
-28.386681 -32.035380 -14.442871 45.173728 0.845712 1.896229 0.083196 -0.024084 238913.000000 0 0 1
-27.639571 -32.520280 -15.552071 45.424458 0.866350 1.920237 0.079845 -0.028607 269530.000000 0 0 1
-28.171731 -31.812380 -16.678071 45.649008 0.846017 1.944810 0.080701 -0.017414 513002.000000 0 0 1
-27.526401 -32.391380 -17.991771 46.158510 0.866415 1.971192 0.080134 -0.020959 301957.000000 0 0 1
-27.971441 -33.688180 -18.422971 47.504745 0.877848 1.969054 0.078750 -0.017723 -5089.300000 0 0 1
-27.536091 32.971618 -17.586171 46.418070 -0.874990 1.959366 0.078298 -0.029009 -660235.000000 0 0 1
-27.778131 31.617518 -18.220471 45.861504 -0.849949 1.979362 0.095633 -0.040501 -74951.300000 0 0 1
-29.083041 31.217218 -18.563171 46.528800 -0.820776 1.981180 0.113603 -0.029439 -101023.000000 0 0 1
-29.634621 31.877018 -19.737471 47.790404 -0.821837 1.996543 0.113846 -0.032583 -376000.000000 0 0 1
-31.111151 31.606918 -20.038171 48.666510 -0.793303 1.995164 0.111779 -0.041245 -172515.000000 0 0 1
-31.427321 30.259818 -20.442971 48.179333 -0.766474 2.008996 0.122433 -0.052368 -364124.000000 0 0 1
-32.799181 30.250518 -20.719871 49.195458 -0.744997 2.005536 0.127510 -0.052184 -381259.000000 0 0 1
-33.259841 28.753918 -20.947771 48.701272 -0.712866 2.015431 0.137088 -0.049667 -140668.000000 0 0 1
-34.662585 28.627918 -20.988971 49.614406 -0.690337 2.007596 0.133419 -0.051782 121807.000000 0 0 1
-35.030202 27.333618 -21.526671 49.372454 -0.662605 2.021952 0.132051 -0.037203 -191221.000000 0 0 1
-36.522301 26.981518 -21.683971 50.319731 -0.636274 2.016313 0.115009 -0.030285 -28286.600000 0 0 1
-37.156341 27.751318 -22.693371 51.630595 -0.641501 2.025875 0.119791 -0.032422 -376165.000000 0 0 1
36.662789 26.922118 -23.241771 51.079746 0.633388 2.043179 0.112868 -0.029736 -996.756000 0 0 1
35.875399 27.508118 -24.470171 51.405545 0.654147 2.066922 0.099271 -0.024756 31743.400000 0 0 1
36.668789 27.609018 -25.601391 52.557484 0.645373 2.079576 0.115421 -0.032266 -524911.000000 0 0 1
35.866479 27.745718 -26.732171 52.638751 0.658425 2.103474 0.123720 -0.029019 68257.000000 0 0 1
36.747019 27.723418 -28.016981 53.887684 0.646337 2.117547 0.135768 -0.028318 633694.000000 0 0 1
37.383719 26.481118 -28.321871 53.860193 0.616314 2.124499 0.093232 -0.016469 -103016.000000 0 0 1
-36.703881 26.598318 -29.532291 54.099922 -0.627094 2.148240 0.075138 -0.017981 -1084150.000000 0 0 1
-36.081151 25.274918 -29.945751 53.267428 -0.611063 2.167813 0.059592 -0.013357 -170260.000000 0 0 1
-35.085430 24.690218 -29.180541 51.885433 -0.613216 2.168086 0.049284 -0.002889 -362011.000000 0 0 1
-33.887321 25.457518 -29.075721 51.398767 -0.644294 2.172065 0.043272 -0.002382 -565838.000000 0 0 1
-32.946001 24.776518 -28.081541 49.878730 -0.644802 2.168803 0.043971 -0.008036 -409990.000000 0 0 1
-32.370961 23.550718 -28.511511 49.146939 -0.628962 2.189682 0.044715 -0.008424 -146108.000000 0 0 1
-33.125461 22.409818 -28.197391 48.934537 -0.594789 2.184901 0.036125 0.000190 -241166.000000 0 0 1
-32.752501 21.135718 -28.949021 48.553997 -0.573075 2.209585 0.037821 -0.008019 364662.000000 0 0 1
-31.375651 20.822818 -28.750731 47.377481 -0.585919 2.222880 0.066756 -0.019073 380583.000000 0 0 1
-31.145921 19.566418 -29.326251 47.041918 -0.560910 2.243889 0.049246 -0.016965 725977.000000 0 0 1
-29.625241 19.163018 -29.371301 45.908054 -0.574156 2.265015 0.053338 -0.020722 1069290.000000 0 0 1
-28.895001 19.708818 -30.499651 46.406759 -0.598600 2.287926 0.055429 -0.023200 18678.200000 0 0 1
-27.706181 19.143518 -30.949881 45.738406 -0.604625 2.314029 0.069218 -0.024842 -505386.000000 0 0 1
-27.724711 17.727818 -31.535191 45.578540 -0.568904 2.334895 0.082592 -0.019936 -494726.000000 0 0 1
-28.048061 16.712718 -30.690631 44.809859 -0.537370 2.325274 0.053373 -0.011815 91652.800000 0 0 1
-27.822571 15.427518 -31.359821 44.671491 -0.506289 2.349012 0.043187 -0.005365 -29291.200000 0 0 1
-28.400441 14.204518 -30.587791 44.090433 -0.463769 2.337481 0.028308 0.003663 95743.600000 0 0 1
-29.756441 14.303218 -30.177651 44.729391 -0.448070 2.311316 0.026493 0.005295 318307.000000 0 0 1
-30.367851 13.033518 -29.911811 44.573483 -0.405413 2.306444 0.021852 0.010408 -18815.300000 0 0 1
-30.060141 12.234718 -28.582351 43.246400 -0.386533 2.292838 0.003964 -0.001773 -297909.000000 0 0 1
-30.792371 12.750318 -27.487771 43.200905 -0.392580 2.260460 0.011292 -0.002262 225016.000000 0 0 1
-30.741331 11.932818 -26.376671 42.227364 -0.370265 2.245460 0.021914 0.007224 9784.620000 0 0 1
-30.553701 12.760418 -25.129911 41.567647 -0.395619 2.220003 0.025203 -0.007542 956242.000000 0 0 1
-29.178291 13.130418 -24.907971 40.548582 -0.422859 2.232263 0.023595 -0.011635 739691.000000 0 0 1
-29.057521 13.710318 -23.637871 39.888109 -0.440862 2.205085 0.031767 -0.002013 -556025.000000 0 0 1
-27.574911 13.895118 -23.358971 38.718103 -0.466766 2.218440 0.057002 0.000506 -748249.000000 0 0 1
-26.954321 14.933518 -24.156771 39.154756 -0.505932 2.235666 0.056361 -0.011478 873901.000000 0 0 1
-25.559271 15.195018 -23.958471 38.186034 -0.536366 2.249025 0.061179 -0.019793 843285.000000 0 0 1
-25.207571 15.789218 -22.593371 37.352127 -0.559582 2.220405 0.069450 -0.012266 -1095590.000000 0 0 1
-25.569741 17.150918 -22.498171 38.133100 -0.590825 2.201844 0.071964 -0.015763 134229.000000 0 0 1
-25.977861 17.486918 -21.191871 37.811862 -0.592476 2.165732 0.079348 -0.011026 823930.000000 0 0 1
-27.521891 17.355218 -20.903471 38.673158 -0.562614 2.141847 0.080204 -0.008050 190782.000000 0 0 1
-28.034441 16.093118 -20.885571 38.485392 -0.521119 2.144431 0.079219 -0.004349 -757191.000000 0 0 1
-29.112711 16.226118 -20.020571 38.880073 -0.508473 2.111724 0.069965 0.002031 -1873550.000000 0 0 1
-30.143581 15.097218 -20.053171 39.226153 -0.464322 2.107399 0.058005 0.000485 30868.700000 0 0 1
-30.861111 14.931218 -21.274771 40.348052 -0.450620 2.126194 0.045758 -0.000086 24693.400000 0 0 1
-31.716071 15.988218 -21.578371 41.559094 -0.466926 2.116736 0.049687 -0.004708 -1208800.000000 0 0 1
-32.212481 15.895918 -23.026471 42.667815 -0.458411 2.140839 0.037187 0.001856 -471514.000000 0 0 1
-33.317371 15.065018 -23.225771 43.317876 -0.424655 2.136690 0.041778 0.001610 -306004.000000 0 0 1
-33.785961 15.352018 -24.516671 44.477441 -0.426499 2.154617 0.032140 0.006878 241794.000000 0 0 1
-34.985612 14.459818 -24.994171 45.362848 -0.391926 2.154338 0.033051 -0.003104 397385.000000 0 0 1
-34.752202 13.090718 -25.209241 44.884164 -0.360249 2.167176 0.040974 -0.008841 -73902.700000 0 0 1
-34.515632 12.295918 -24.048471 43.827473 -0.342225 2.151614 0.047549 -0.008402 -216340.000000 0 0 1
-34.661961 10.805618 -24.218971 43.643687 -0.302195 2.159069 0.053763 -0.017987 759612.000000 0 0 1
-35.996997 10.333618 -24.470071 44.736470 -0.279552 2.149552 0.062444 -0.015932 842636.000000 0 0 1
-35.840033 9.291018 -25.351161 44.872177 -0.253652 2.171186 0.063254 -0.012738 792431.000000 0 0 1
-37.243121 8.881118 -25.912231 46.231677 -0.234091 2.165769 0.091766 -0.015049 1079010.000000 0 0 1
36.689829 8.169318 -25.005071 45.145707 0.219085 2.157807 0.092565 -0.015497 425692.000000 0 0 1
35.695039 7.446718 -25.724561 44.624460 0.205671 2.185196 0.105968 -0.015938 192971.000000 0 0 1
34.844319 6.559018 -24.789071 43.262516 0.186061 2.180948 0.104877 -0.022208 -129067.000000 0 0 1
35.608929 5.533118 -24.232071 43.425850 0.154153 2.162782 0.099152 -0.027215 -50441.200000 0 0 1
34.885899 4.742918 -23.313971 42.226324 0.135127 2.155700 0.106728 -0.022128 154877.000000 0 0 1
35.776259 3.656318 -22.654371 42.503293 0.101846 2.132942 0.104531 -0.016195 140265.000000 0 0 1
36.110429 2.619818 -23.507971 43.167711 0.072423 2.146676 0.107165 -0.018637 -151368.000000 0 0 1
37.255649 1.987018 -23.012171 43.834822 0.053284 2.123482 0.113316 -0.009269 -331466.000000 0 0 1
-37.223461 0.661218 -23.759371 44.164815 -0.017762 2.138824 0.135126 -0.017357 -125975.000000 0 0 1
36.727389 -0.421182 -23.598471 43.657374 -0.011467 2.141873 0.105930 -0.027950 78143.900000 0 0 1
37.386759 -1.562882 -24.189871 44.557404 -0.041779 2.144674 0.112350 -0.028481 528388.000000 0 0 1
-24.122611 28.899518 27.154273 46.415913 -0.875248 0.945891 0.044770 -0.019971 -4491.800000 0 0 1
-25.374411 29.157318 26.506913 46.868180 -0.854658 0.969680 0.037333 -0.021865 805312.000000 0 0 1
-25.462761 28.664718 25.169303 45.864060 -0.844485 0.989892 0.026825 -0.006485 -385005.000000 0 0 1
-25.578151 27.120518 25.065983 44.922909 -0.814657 0.978849 0.033374 -0.010961 -739681.000000 0 0 1
-26.842251 26.759018 25.533593 45.700282 -0.783845 0.977957 0.032322 -0.007039 -296514.000000 0 0 1
-26.967481 26.464818 26.981433 46.428755 -0.775991 0.950672 0.043464 -0.010566 -1022340.000000 0 0 1
-26.312511 25.106618 27.361863 45.512218 -0.761950 0.925797 0.054490 -0.012211 1354540.000000 0 0 1
-24.880011 25.178318 27.561743 44.862148 -0.791357 0.909215 0.059436 -0.009526 867839.000000 0 0 1
-24.570511 25.690818 28.842133 45.777688 -0.807684 0.889182 0.067663 -0.016390 -113415.000000 0 0 1
-23.156311 25.443618 29.430583 45.274183 -0.832427 0.863143 0.093403 -0.014200 -1093210.000000 0 0 1
-22.120211 26.210118 28.914723 44.859059 -0.869821 0.870338 0.102612 -0.024746 -35962.800000 0 0 1
-20.918611 26.187818 29.675853 44.766576 -0.896793 0.846108 0.129983 -0.033838 572656.000000 0 0 1
-20.152911 24.828918 29.613733 43.584265 -0.888979 0.823771 0.114822 -0.026790 -1288350.000000 0 0 1
-19.485511 24.678518 28.382533 42.358972 -0.902445 0.836523 0.107129 -0.027733 -210463.000000 0 0 1
-20.091811 23.841818 27.427483 41.525654 -0.870548 0.849319 0.102779 -0.026706 -272423.000000 0 0 1
-19.901811 22.344918 27.654573 40.744973 -0.843163 0.824773 0.075527 -0.012533 -67224.300000 0 0 1
-20.530111 21.834718 28.789323 41.557977 -0.816183 0.805500 0.074507 -0.013461 -5126.430000 0 0 1
-20.539611 20.422918 28.769263 40.824523 -0.782549 0.788788 0.095552 -0.020047 153961.000000 0 0 1
-21.014211 19.879118 30.115773 41.758067 -0.757648 0.765268 0.111653 -0.023423 -141960.000000 0 0 1
-20.015511 20.184818 31.043043 42.091781 -0.789610 0.741423 0.102695 -0.032918 249677.000000 0 0 1
-20.365011 19.766118 32.341123 43.027681 -0.770476 0.720258 0.093899 -0.028048 -59961.700000 0 0 1
-19.391211 20.476818 33.288470 43.628447 -0.812621 0.702856 0.107034 -0.033913 -433510.000000 0 0 1
-19.665611 21.861118 33.434995 44.525763 -0.838219 0.721352 0.066115 -0.033384 400676.000000 0 0 1
-18.862611 22.772018 32.632222 44.036630 -0.879022 0.736201 0.084330 -0.026757 1189020.000000 0 0 1
-17.430411 23.007118 33.261912 44.039771 -0.922443 0.714731 0.080890 -0.023320 1210960.000000 0 0 1
-16.553711 21.866218 33.158795 43.030948 -0.922802 0.691045 0.100286 -0.039311 1031000.000000 0 0 1
-15.194011 22.174018 33.523097 42.969094 -0.970061 0.675863 0.072505 -0.033709 677757.000000 0 0 1
-14.168111 21.072218 33.173275 41.776068 -0.978863 0.653314 0.062147 -0.039020 124244.000000 0 0 1
-12.866611 21.067818 33.726043 41.795318 -1.022529 0.631855 0.052836 -0.027624 277420.000000 0 0 1
-12.808811 20.783918 -32.648281 40.766985 -1.018489 2.499511 0.066356 -0.030041 -353426.000000 0 0 1
-11.330811 20.561118 -32.270881 39.906849 -1.067125 2.512659 0.061673 -0.024893 -126789.000000 0 0 1
-10.620711 21.763118 -32.117341 40.223828 -1.116783 2.495538 0.073245 -0.031651 -287901.000000 0 0 1
-9.339511 21.385418 -31.671511 39.340147 -1.159038 2.506587 0.073630 -0.035590 314699.000000 0 0 1
-8.148011 22.414018 -31.749781 39.709279 -1.222125 2.497351 0.078767 -0.031294 677349.000000 0 0 1
-8.086411 23.542018 -30.866911 39.653282 -1.239934 2.462941 0.085263 -0.027501 -48429.900000 0 0 1
-7.704411 23.250818 -29.504561 38.346806 -1.250822 2.448719 0.075055 -0.031291 146520.000000 0 0 1
-7.265411 24.544318 -28.721021 38.472155 -1.283002 2.413643 0.091215 -0.031969 -184349.000000 0 0 1
-6.157711 25.204818 -29.243571 39.094586 -1.331183 2.415871 0.102899 -0.021453 -484722.000000 0 0 1
-5.750811 26.335018 -28.512461 39.237296 -1.355800 2.384255 0.126022 -0.029434 -513632.000000 0 0 1
-4.375011 26.779618 -29.020371 39.729970 -1.408856 2.389763 0.095525 -0.030037 -1000580.000000 0 0 1
-3.409311 25.841518 -28.519761 38.636565 -1.439622 2.401127 0.102612 -0.020370 42655.200000 0 0 1
-2.158511 26.016918 -29.144961 39.127585 -1.488020 2.411136 0.118906 -0.025148 143907.000000 0 0 1
-1.277611 27.241618 -28.791371 39.657043 -1.523931 2.383297 0.129708 -0.035560 -647706.000000 0 0 1
-0.676611 27.265018 -27.483471 38.719248 -1.545985 2.360031 0.144146 -0.047908 208390.000000 0 0 1
-0.048611 28.494118 -27.337301 39.487278 -1.569090 2.335477 0.148478 -0.044400 -1105420.000000 0 0 1
0.615189 28.767318 -25.973101 38.762598 1.549415 2.305080 0.160331 -0.064820 771224.000000 0 0 1
1.718689 27.936218 -25.559761 37.903661 1.509352 2.310860 0.186174 -0.073553 688417.000000 0 0 1
2.876989 28.009918 -26.341021 38.557514 1.468442 2.322880 0.169963 -0.071172 -274266.000000 0 0 1
4.227289 28.073518 -25.550991 38.194836 1.421340 2.303611 0.164746 -0.076956 597768.000000 0 0 1
4.720789 26.809018 -25.080081 37.013777 1.396494 2.315274 0.152127 -0.067233 1494570.000000 0 0 1
6.035889 26.944518 -24.454871 36.884681 1.350423 2.295627 0.114984 -0.060416 1110290.000000 0 0 1
6.500089 25.632118 -23.749971 35.543181 1.322440 2.302584 0.123310 -0.054674 671498.000000 0 0 1
7.839389 25.892918 -23.302571 35.705868 1.276808 2.281841 0.117313 -0.052575 196063.000000 0 0 1
8.374689 24.745318 -22.623571 34.558532 1.244461 2.284509 0.104146 -0.037108 754877.000000 0 0 1
9.865089 25.065518 -22.266071 34.948220 1.195843 2.261547 0.077992 -0.021604 -5976.960000 0 0 1
9.909189 25.962918 -21.158271 34.927604 1.206193 2.221536 0.094656 -0.019740 511973.000000 0 0 1
11.224689 26.170618 -20.648171 35.174448 1.165623 2.198172 0.114024 -0.025228 516569.000000 0 0 1
12.087989 25.064418 -20.001471 34.269569 1.121427 2.194014 0.070950 -0.007567 -179391.000000 0 0 1
12.586489 24.132918 -20.961171 34.353866 1.090059 2.227052 0.068800 -0.016381 183191.000000 0 0 1
12.424689 22.820818 -20.517271 33.107718 1.072228 2.239173 0.040156 0.000809 -796165.000000 0 0 1
12.677789 21.850218 -21.635971 33.260691 1.045053 2.279035 0.048979 -0.011758 -225166.000000 0 0 1
11.821589 21.975518 -22.744071 33.763384 1.077257 2.309907 0.061078 -0.030543 129105.000000 0 0 1
11.869689 20.779818 -23.462571 33.513916 1.051813 2.346312 0.065124 -0.030879 113143.000000 0 0 1
11.015489 20.748518 -24.758071 34.129226 1.082732 2.382443 0.072749 -0.036113 -215387.000000 0 0 1
9.636989 20.652518 -24.584571 33.523114 1.134203 2.394050 0.057138 -0.041408 -390130.000000 0 0 1
8.893989 20.606918 -25.777731 34.179519 1.163347 2.425211 0.060332 -0.039532 500631.000000 0 0 1
7.395289 20.136518 -25.706991 33.481622 1.218831 2.446187 0.062654 -0.045147 912588.000000 0 0 1
6.435389 21.060618 -25.218891 33.480685 1.274242 2.423766 0.094789 -0.049980 74702.400000 0 0 1
6.578589 21.497418 -23.900971 32.812699 1.273828 2.386789 0.103486 -0.051371 -497872.000000 0 0 1
5.191589 21.931518 -23.344571 32.448622 1.338357 2.373780 0.139680 -0.055707 452227.000000 0 0 1
4.545389 23.028618 -23.953471 33.537241 1.375921 2.366327 0.148709 -0.056004 175837.000000 0 0 1
3.205789 23.220718 -23.520471 33.206797 1.433606 2.357887 0.180195 -0.054187 335609.000000 0 0 1
2.499689 24.229018 -24.504271 34.550731 1.467991 2.359196 0.171014 -0.053360 159144.000000 0 0 1
1.093389 24.066318 -24.391371 34.282971 1.525395 2.362387 0.188643 -0.069948 -233310.000000 0 0 1
0.507489 24.794618 -25.395411 35.495880 1.550331 2.368060 0.175466 -0.052784 1140910.000000 0 0 1
-1.077911 24.671018 -25.461411 35.469768 -1.527133 2.371483 0.181973 -0.046592 1357810.000000 0 0 1
-1.502311 23.414418 -25.937871 34.975206 -1.506722 2.406260 0.193778 -0.047112 -259403.000000 0 0 1
-2.789711 23.515118 -26.491381 35.532189 -1.452713 2.412171 0.178070 -0.035743 -189557.000000 0 0 1
-3.369311 22.310518 -27.206431 35.345457 -1.420910 2.449213 0.153677 -0.038295 -41159.200000 0 0 1
-2.568811 21.929418 -28.328411 35.916528 -1.454188 2.479535 0.176802 -0.053068 61351.000000 0 0 1
-2.777911 20.639918 -28.836001 35.570183 -1.437011 2.516107 0.130365 -0.044906 884848.000000 0 0 1
-4.103411 20.471118 -29.702991 36.306642 -1.372969 2.528921 0.123686 -0.041577 1088870.000000 0 0 1
-3.876811 20.796818 -31.145231 37.650533 -1.386498 2.544936 0.106846 -0.043291 98948.000000 0 0 1
-3.573411 22.168218 -31.410271 38.610934 -1.410976 2.520954 0.126161 -0.041918 -56793.400000 0 0 1
-3.092011 22.381718 -32.873911 39.889796 -1.433516 2.539440 0.097733 -0.033060 393698.000000 0 0 1
-1.867211 21.698618 -33.151721 39.665515 -1.484956 2.560352 0.086696 -0.030297 653371.000000 0 0 1
-1.371611 21.996318 33.310628 39.941423 -1.508521 0.584502 0.077354 -0.018865 -772944.000000 0 0 1
-0.268911 21.049418 32.987579 39.132220 -1.558022 0.568002 0.079719 -0.016865 -876681.000000 0 0 1
-0.798511 19.745118 32.740403 38.241879 -1.530377 0.543043 0.066386 -0.010090 441250.000000 0 0 1
0.188789 18.776818 32.375004 37.426533 1.560742 0.525590 0.068367 -0.009017 -7582.660000 0 0 1
-0.409611 17.468918 31.828273 36.309363 -1.547353 0.502075 0.057586 -0.006535 -188903.000000 0 0 1
-1.024811 17.610618 30.601913 35.322247 -1.512669 0.522922 0.044042 -0.006553 -174617.000000 0 0 1
-1.378511 16.336618 30.163963 34.331473 -1.486614 0.497853 0.048592 -0.000885 -705480.000000 0 0 1
-2.464111 16.145318 29.111413 33.379896 -1.419344 0.511269 0.052493 0.002422 -931840.000000 0 0 1
-3.762711 16.458718 29.472543 33.965838 -1.346044 0.520217 0.035326 -0.003306 -607611.000000 0 0 1
-4.129111 17.819618 29.283043 34.526583 -1.343098 0.558350 0.035005 -0.005037 -565260.000000 0 0 1
-5.540711 18.212618 29.709103 35.284979 -1.275469 0.569861 0.045447 -0.017027 315073.000000 0 0 1
-6.595011 17.854718 28.824623 34.541917 -1.216970 0.583603 0.039318 -0.011407 71398.000000 0 0 1
-7.814911 18.544918 29.013473 35.309608 -1.171975 0.606430 0.041482 -0.019378 -177625.000000 0 0 1
-8.807211 18.046518 27.942293 34.409526 -1.116772 0.623138 0.041965 -0.020050 91532.600000 0 0 1
-9.405011 16.710018 28.043213 33.972058 -1.058151 0.599746 0.054409 -0.026549 470312.000000 0 0 1
-10.271911 16.475018 29.140413 35.015740 -1.013288 0.587716 0.055273 -0.027313 -559790.000000 0 0 1
-10.901711 15.034318 29.348553 34.730614 -0.943408 0.564167 0.064339 -0.033035 -392345.000000 0 0 1
-10.077611 13.902718 29.189313 33.865318 -0.943576 0.531745 0.061664 -0.019486 459473.000000 0 0 1
-8.990011 13.814418 30.156543 34.366779 -0.993880 0.500191 0.042141 -0.019654 504679.000000 0 0 1
-9.347711 13.659918 31.662023 35.727535 -0.970674 0.481702 0.077503 -0.031411 -787459.000000 0 0 1
-9.806411 12.386018 31.953529 35.645577 -0.901117 0.459164 0.084957 -0.017530 128022.000000 0 0 1
-9.990211 12.212118 33.354664 36.898154 -0.885141 0.441842 0.058308 -0.004649 -355010.000000 0 0 1
-10.521011 10.787418 33.670999 36.888971 -0.797900 0.420791 0.057714 -0.015668 -428644.000000 0 0 1
-9.648711 9.674618 33.478641 36.159580 -0.786739 0.387496 0.065606 -0.019999 145687.000000 0 0 1
-9.736711 8.793718 -33.215441 35.712722 -0.734553 2.765408 0.105903 -0.030841 189927.000000 0 0 1
-8.899311 9.195018 -31.963801 34.430083 -0.801739 2.760795 0.093381 -0.032441 -174020.000000 0 0 1
-9.353711 10.426018 -31.424711 34.405031 -0.839558 2.722296 0.090557 -0.029190 262992.000000 0 0 1
-8.411711 11.050518 -30.554671 33.562758 -0.920162 2.714984 0.096157 -0.029304 151466.000000 0 0 1
-7.579811 12.154518 -31.260811 34.386394 -1.013189 2.711925 0.070015 -0.030335 -398201.000000 0 0 1
-8.233111 13.338718 -31.494091 35.179301 -1.017801 2.679777 0.079025 -0.025513 -212623.000000 0 0 1
-7.383311 14.271618 -32.129601 35.923580 -1.093371 2.677856 0.047746 -0.026421 -72039.200000 0 0 1
-8.021511 15.639218 -32.339071 36.806864 -1.096874 2.643751 0.049631 -0.027920 -220684.000000 0 0 1
-8.960211 15.805918 -33.375441 38.000427 -1.055079 2.643073 0.067002 -0.029825 97417.600000 0 0 1
-9.243511 17.193718 -33.530991 38.799404 -1.077516 2.614382 0.080777 -0.035245 -1083570.000000 0 0 1
-9.655311 17.591318 32.779281 38.433849 -1.068823 0.549329 0.055266 -0.031993 39908.400000 0 0 1
-10.735911 16.868818 32.241302 37.938349 -1.004016 0.555126 0.044152 -0.037539 -313533.000000 0 0 1
-11.959011 17.234418 32.820703 38.951786 -0.964174 0.568707 0.063501 -0.042187 -1591010.000000 0 0 1
-13.197111 16.961818 31.957414 38.511599 -0.909585 0.592024 0.078345 -0.045114 -366159.000000 0 0 1
-13.532011 15.593218 31.735247 37.860133 -0.856051 0.576779 0.075284 -0.035128 420546.000000 0 0 1
-14.101411 14.852618 32.803458 38.671914 -0.811337 0.558124 0.078624 -0.029475 -302055.000000 0 0 1
-13.805111 13.312218 32.642186 37.859061 -0.767224 0.531194 0.069828 -0.023862 70172.600000 0 0 1
-14.211211 12.723118 31.456213 36.787628 -0.730205 0.545099 0.063563 -0.028236 -374002.000000 0 0 1
-13.086911 12.093418 30.932433 35.697807 -0.745963 0.522633 0.071232 -0.019868 -500983.000000 0 0 1
-13.175911 11.517618 29.453273 34.260114 -0.718344 0.536123 0.089354 -0.019834 169653.000000 0 0 1
-14.065611 10.384618 29.372263 34.182035 -0.635970 0.536917 0.071772 -0.015208 405165.000000 0 0 1
-14.204211 9.795618 28.129333 32.999592 -0.603731 0.550210 0.062409 -0.013321 170497.000000 0 0 1
-15.189611 8.580418 28.060043 33.041093 -0.514201 0.556239 0.077882 -0.012261 226849.000000 0 0 1
-14.796811 7.397118 28.676163 33.105668 -0.463578 0.523247 0.053812 -0.008101 -585474.000000 0 0 1
-15.621411 6.438218 28.194293 32.869397 -0.390928 0.539886 0.062435 -0.002285 -671997.000000 0 0 1
-14.957011 5.054718 28.237523 32.351508 -0.325900 0.509815 0.060658 -0.003708 109722.000000 0 0 1
-13.910611 4.896318 27.295573 31.024624 -0.338442 0.495348 0.061374 -0.011875 -12436.800000 0 0 1
-14.361711 4.539018 25.978053 30.028664 -0.306116 0.525430 0.059046 -0.011985 202786.000000 0 0 1
-13.266811 4.382518 24.847743 28.506579 -0.319051 0.512239 0.046723 -0.006385 644850.000000 0 0 1
-12.454111 3.202018 25.026793 28.137131 -0.251655 0.474639 0.036401 -0.006930 432423.000000 0 0 1
-11.988211 2.694118 23.781203 26.767911 -0.221058 0.476900 0.032800 -0.003856 46761.100000 0 0 1
-10.941711 1.523618 23.892893 26.323236 -0.138359 0.433090 0.033588 -0.002256 -660773.000000 0 0 1
-9.691611 2.061818 24.158193 26.111237 -0.209617 0.389226 0.028339 -0.016661 -918872.000000 0 0 1
-8.883811 1.022518 24.656213 26.227781 -0.114595 0.347931 0.023047 -0.004835 -635920.000000 0 0 1
-7.393411 1.282118 24.461613 25.586654 -0.171706 0.297644 0.046057 -0.019770 -1007320.000000 0 0 1
-7.005411 1.326818 23.084653 24.160659 -0.187182 0.299566 0.052235 -0.019968 519605.000000 0 1 0
-5.603811 1.441918 22.845273 23.566678 -0.251847 0.248067 0.049307 -0.021187 594069.000000 0 1 0
-4.971611 2.820318 23.174903 23.869379 -0.516017 0.241814 0.072220 -0.028385 -666446.000000 0 1 0
-4.569511 3.025818 24.522523 25.127478 -0.584887 0.219876 0.072708 -0.031902 77798.200000 0 0 1
-4.275411 4.391318 24.778393 25.525116 -0.798771 0.242480 0.069441 -0.039632 -139090.000000 0 0 1
4.786689 -24.066782 13.134929 27.832513 -1.374466 1.079321 0.139596 -0.030028 -327484.000000 0 0 1
3.795989 -25.019732 13.278429 28.578195 -1.420225 1.087574 0.149930 -0.046490 72437.900000 0 0 1
2.537889 -24.311582 13.421029 27.885802 -1.466783 1.068676 0.121075 -0.043802 828246.000000 0 0 1
1.336189 -25.216082 13.815429 28.783716 -1.517856 1.070171 0.082383 -0.054101 33587.700000 0 0 1
1.255589 -25.550352 15.199629 29.756104 -1.521694 1.034673 0.136659 -0.045342 -11739.800000 0 0 1
1.987789 -26.690792 15.593229 30.975773 -1.496459 1.043266 0.136755 -0.041938 -133799.000000 0 0 1
1.947189 -26.979952 17.118229 32.011610 -1.498750 1.006584 0.109107 -0.034952 319162.000000 0 0 1
2.908489 -26.229882 17.872329 31.872970 -1.460363 0.975522 0.131660 -0.043488 335821.000000 0 0 1
2.961189 -26.787752 19.198429 33.089757 -1.460701 0.951831 0.105392 -0.036966 37905.300000 0 0 1
3.943889 -26.125902 20.183729 33.249060 -1.420971 0.918458 0.095230 -0.033372 154002.000000 0 0 1
3.405489 -24.900482 20.712629 32.567536 -1.434876 0.881506 0.088345 -0.028645 451956.000000 0 0 1
4.308989 -24.345382 21.656529 32.867466 -1.395616 0.851435 0.083752 -0.026116 346778.000000 0 0 1
3.711289 -23.103682 22.440029 32.420807 -1.411521 0.806334 0.095030 -0.040407 -127576.000000 0 0 1
3.133389 -22.066782 21.688429 31.099019 -1.429744 0.799034 0.122112 -0.039902 200205.000000 0 0 1
4.015989 -21.312982 20.902929 30.121485 -1.384551 0.803830 0.108575 -0.026451 -10306.800000 0 0 1
3.179589 -20.250082 20.093529 28.704103 -1.415052 0.795367 0.081035 -0.021334 443985.000000 0 0 1
2.684689 -19.209682 20.914029 28.523956 -1.431939 0.747767 0.049384 -0.017306 764607.000000 0 0 1
1.652989 -18.504082 20.169129 27.421291 -1.481702 0.744351 0.043969 -0.014432 514537.000000 0 0 1
1.148089 -17.288682 20.893029 27.142869 -1.504487 0.692358 0.062680 -0.011820 423521.000000 0 0 1
2.219489 -16.327482 21.007129 26.698545 -1.435689 0.665146 0.020975 0.005118 428017.000000 0 0 1
1.775289 -15.044482 21.386529 26.208238 -1.453337 0.616299 0.030432 0.006771 642420.000000 0 0 1
2.827489 -13.838382 21.353129 25.601790 -1.369248 0.584391 -0.001298 0.027084 290668.000000 0 0 1
3.425089 -13.508982 20.111029 24.467884 -1.322487 0.605995 -0.015556 0.025528 294040.000000 0 1 0
2.543589 -13.057382 19.056529 23.240404 -1.378405 0.609431 -0.004557 0.020745 178471.000000 0 1 0
1.679089 -11.828982 19.338529 22.731539 -1.429791 0.553413 0.006725 0.010672 -758165.000000 0 1 0
2.250189 -10.540382 19.115329 21.944449 -1.360471 0.513403 0.011255 0.003556 -136604.000000 0 1 0
1.747089 -9.511782 20.038329 22.249966 -1.389145 0.449647 0.020075 -0.011514 203279.000000 0 1 0
0.274389 -9.068582 19.870729 21.844001 -1.540548 0.428319 0.030731 -0.022378 24044.800000 0 1 0
-0.143611 -8.353182 20.984129 22.586057 1.553606 0.378893 0.036509 -0.026553 -1081070.000000 0 1 0
-1.462511 -7.964982 20.807929 22.328229 1.389202 0.371149 0.042482 -0.028549 -792316.000000 0 1 0
-1.988111 -7.202882 22.013429 23.247047 1.301486 0.327236 0.044667 -0.027299 -149309.000000 0 1 0
-2.158011 -8.035682 23.190029 24.637505 1.308433 0.344486 0.038156 -0.016353 90308.100000 0 1 0
-2.483911 -7.280482 24.367929 25.553302 1.242006 0.305782 0.028908 -0.008524 -44590.800000 0 0 1
-2.697311 -8.196782 25.576729 26.993181 1.252888 0.325392 0.022213 -0.011972 583088.000000 0 0 1
-1.565611 -9.064382 25.754729 27.348131 1.399763 0.343040 0.022672 -0.012109 564090.000000 0 0 1
-1.733711 -9.837782 26.945429 28.737500 1.396358 0.355019 0.033493 -0.023087 -99733.700000 0 0 1
-0.530011 -10.750882 27.285529 29.331937 1.521537 0.375750 0.041735 -0.027406 -653083.000000 0 0 1
0.538989 -10.110082 27.877729 29.659266 -1.517535 0.348362 0.039967 -0.027750 -1153920.000000 0 0 1
1.595089 -11.008782 27.940629 30.073516 -1.426905 0.378885 0.051206 -0.030327 -274231.000000 0 0 1
2.744589 -10.529782 28.889329 30.870738 -1.315819 0.360229 0.080107 -0.037703 270833.000000 0 0 1
2.325989 -10.248482 30.224929 31.999812 -1.347618 0.334622 0.075893 -0.046171 1141140.000000 0 0 1
3.472089 -9.846982 31.041629 32.750591 -1.231803 0.324473 0.125925 -0.044276 944416.000000 0 0 1
2.978489 -9.542182 32.467329 33.971343 -1.268240 0.298676 0.125119 -0.055340 -248081.000000 0 0 1
2.462189 -10.636382 33.194929 34.944218 -1.343316 0.317751 0.125762 -0.055611 69757.300000 0 0 1
2.112789 -10.357082 -33.271114 34.909885 -1.369563 2.833973 0.115694 -0.058483 -300784.000000 0 0 1
3.268489 -10.407682 -32.260214 34.054725 -1.266504 2.815512 0.107942 -0.040459 -70471.800000 0 0 1
4.330589 -9.493282 -32.502314 34.136151 -1.142820 2.830951 0.092113 -0.047861 169768.000000 0 0 1
4.650489 -8.559782 -31.494714 32.966861 -1.073115 2.841620 0.113039 -0.047390 -277572.000000 0 0 1
3.643289 -7.439082 -31.134414 32.217468 -1.115382 2.881566 0.096951 -0.041051 -30171.700000 0 0 1
3.642789 -6.448582 -32.088714 32.932350 -1.056587 2.914756 0.132297 -0.047011 158344.000000 0 0 1
2.789489 -5.421282 -31.601914 32.184663 -1.095581 2.951008 0.104628 -0.029249 288275.000000 0 0 1
2.908489 -4.183582 -32.508414 32.905298 -0.963289 2.986121 0.104976 -0.028332 -54271.800000 0 0 1
2.218789 -4.268882 -33.700214 34.041898 -1.091467 2.999790 0.104708 -0.038027 -410424.000000 0 0 1
2.328989 -3.033882 33.421829 33.639966 -0.916088 0.113943 0.128523 -0.032777 172833.000000 0 0 1
1.700889 -3.005882 32.010629 32.196409 -1.055863 0.107478 0.135342 -0.040739 1345560.000000 0 0 1
0.258489 -3.115682 32.043029 32.195186 -1.488022 0.097261 0.124136 -0.039463 694039.000000 0 0 1
-0.114111 -3.579782 30.770529 30.978272 1.538931 0.115876 0.112593 -0.035331 -412887.000000 0 0 1
-1.616111 -3.764282 30.566529 30.839818 1.165266 0.133227 0.089398 -0.028973 -399556.000000 0 0 1
-2.307411 -2.528582 30.584929 30.775896 0.831101 0.111459 0.083177 -0.032936 -417963.000000 0 0 1
-3.685811 -2.754582 30.438229 30.784066 0.641802 0.150036 0.054337 -0.030065 137030.000000 0 0 1
-4.588511 -1.568882 29.969029 30.358830 0.329454 0.160420 0.047324 -0.022705 153556.000000 0 0 1
-4.509011 -1.315482 28.551229 28.935003 0.283867 0.163050 0.044138 -0.023296 9164.610000 0 0 1
-5.573411 -0.580382 27.952129 28.508267 0.103760 0.197847 0.028874 -0.021894 309982.000000 0 0 1
-5.756911 0.907618 28.324229 28.917603 -0.156370 0.202929 0.059068 -0.028357 -43702.400000 0 0 1
-7.008111 1.222318 28.913729 29.776021 -0.172678 0.241247 0.051760 -0.024956 -75543.700000 0 0 1
-7.180611 2.616918 29.219029 30.202005 -0.349483 0.255831 0.066758 -0.031534 -770854.000000 0 0 1
-8.583611 2.849618 29.748429 31.092889 -0.320535 0.295145 0.059164 -0.027744 -115104.000000 0 0 1
-9.590211 2.406618 28.830529 30.478901 -0.245868 0.330385 0.047818 -0.021370 1113560.000000 0 0 1
-10.891111 2.979118 29.119929 31.232383 -0.267005 0.369900 0.040402 -0.011395 1428680.000000 0 0 1
-12.009411 2.380018 28.202729 30.745477 -0.195644 0.409558 0.035462 -0.003488 72790.100000 0 0 1
-12.193911 1.021118 28.487029 31.003951 -0.083545 0.405718 0.036018 -0.001655 51172.200000 0 0 1
-12.421511 0.210118 27.351629 30.040801 -0.016914 0.426347 0.039000 -0.001991 -580729.000000 0 0 1
-12.475511 -1.288082 27.586429 30.303607 0.102884 0.426704 0.039983 -0.009191 538805.000000 0 0 1
-11.246111 -1.915782 28.000529 30.235325 0.168731 0.386891 0.047356 -0.021819 1435970.000000 0 0 1
-10.154311 -1.982882 27.051629 28.962605 0.192848 0.365293 0.032878 -0.013934 135403.000000 0 0 1
-10.270311 -2.737382 25.737029 27.845417 0.260478 0.391645 0.022720 -0.005491 -116011.000000 0 0 1
-11.203711 -2.126782 24.796029 27.292662 0.187596 0.431059 0.016935 -0.002165 860185.000000 0 0 1
-11.086811 -2.632482 23.461429 26.082293 0.233126 0.452137 0.013074 -0.001791 -337539.000000 0 0 1
-9.936611 -2.116682 22.593329 24.772467 0.209881 0.422580 0.020485 -0.006669 80201.800000 0 1 0
-8.627811 -2.395482 23.039429 24.718268 0.270825 0.370680 0.025215 -0.007542 -182897.000000 0 1 0
-7.676711 -2.035282 22.073529 23.458793 0.259162 0.345373 0.018469 -0.010443 62168.700000 0 1 0
-6.205411 -2.017482 22.566629 23.491065 0.314337 0.281473 0.028472 -0.007865 511280.000000 0 1 0
-5.494311 -3.269282 22.549929 23.438749 0.536757 0.276272 0.029166 -0.008575 36761.700000 0 1 0
-5.909311 -4.222582 23.485229 24.582639 0.620434 0.299926 0.022964 -0.006142 -351366.000000 0 1 0
-5.684311 -5.696882 23.089229 24.451552 0.786503 0.335381 0.035587 -0.009766 -219650.000000 0 1 0
-6.559511 -6.244782 22.132829 23.914151 0.760823 0.388412 0.037802 -0.015249 -123564.000000 0 1 0
-6.151911 -6.023882 20.792029 22.504259 0.774884 0.392606 0.035284 -0.018275 78294.700000 0 1 0
-7.343811 -6.319082 19.833029 22.072866 0.710537 0.454398 0.038905 -0.015303 217997.000000 0 1 0
-8.348911 -5.340882 19.901429 22.232774 0.569107 0.462053 0.034229 -0.017094 -628105.000000 0 1 0
-8.996211 -5.071382 18.736229 21.393855 0.513319 0.503755 0.030966 -0.026520 -151020.000000 0 1 0
-9.756111 -3.726982 18.822029 21.525354 0.364907 0.506574 0.023003 -0.026101 240060.000000 0 1 0
-8.866011 -2.616582 18.865629 21.008680 0.286978 0.455611 0.019275 -0.011890 241748.000000 0 1 0
-9.555711 -1.399582 18.623529 20.978710 0.145431 0.478395 0.016408 -0.020477 123826.000000 0 1 0
-8.624811 -0.251182 18.109529 20.060048 0.029115 0.444639 0.008421 -0.013786 -119811.000000 0 1 0
-7.627311 0.173118 19.017829 20.491063 -0.022693 0.381510 0.014499 -0.006123 185534.000000 0 1 0
-8.040511 1.086718 19.999929 21.583048 -0.134341 0.385395 0.032662 -0.008026 -329663.000000 0 1 0
-7.926611 2.601018 19.667629 21.363803 -0.317067 0.401169 0.034531 -0.022265 -783564.000000 0 1 0
-8.821311 2.956118 18.684329 20.872430 -0.323350 0.461989 0.022714 -0.031048 -346067.000000 0 1 0
-8.627111 4.324118 18.375529 20.755364 -0.464627 0.483574 0.021014 -0.026434 -21360.500000 0 1 0
-9.589211 4.879518 17.296929 20.370234 -0.470706 0.556465 0.029169 -0.013717 580555.000000 0 1 0
-10.873211 5.272818 17.797129 21.512023 -0.451524 0.596493 0.035663 -0.004819 721520.000000 0 1 0
-11.573411 6.232518 16.996429 21.486431 -0.493987 0.658304 0.041872 0.015118 150226.000000 0 1 0
-11.023311 7.704018 17.092529 21.749019 -0.609977 0.666648 0.033389 0.017424 -883470.000000 0 1 0
-9.872911 7.769518 16.322429 20.597608 -0.666735 0.655993 0.023485 -0.007829 -344658.000000 0 1 0
-9.321311 9.088218 16.188229 20.773572 -0.772737 0.677296 -0.005334 -0.011966 82546.600000 0 1 0
-8.225411 9.571118 17.161429 21.302073 -0.860871 0.634071 0.004585 0.001860 -239845.000000 0 1 0
-8.755011 10.048718 18.393229 22.714265 -0.854090 0.627044 0.040745 0.017891 -1799.830000 0 1 0
-8.694411 11.473518 18.579029 23.503504 -0.922334 0.659205 0.066115 0.013272 41931.600000 0 1 0
-9.503911 12.479118 17.744229 23.683546 -0.919922 0.723910 0.073020 -0.001229 -6324.990000 0 1 0
-8.796911 12.776818 16.546929 22.681128 -0.967826 0.753138 0.043300 -0.012110 -75581.400000 0 1 0
-9.576311 13.650818 15.789529 22.964316 -0.959051 0.812662 0.050802 -0.029341 47755.900000 0 1 0
-8.943411 14.105918 14.422829 22.067612 -1.005738 0.858499 0.037581 -0.026550 19867.400000 0 1 0
-7.912711 15.043418 14.468329 22.321469 -1.086572 0.865604 0.042349 -0.016973 -379197.000000 0 1 0
-7.519311 15.521918 13.176929 21.704871 -1.119681 0.918396 0.031627 -0.028886 -415450.000000 0 1 0
-6.559411 16.704118 13.279829 22.325037 -1.196614 0.933729 0.018272 -0.016976 -390766.000000 0 1 0
-5.332311 16.245718 13.788429 21.965374 -1.253647 0.892157 0.020557 -0.020713 -1178920.000000 0 1 0
-4.449311 17.308518 13.799029 22.578626 -1.319185 0.913278 0.019833 -0.022300 -270202.000000 0 1 0
-2.952511 17.021118 13.524329 21.939536 -1.399044 0.906587 0.020401 -0.023984 342800.000000 0 1 0
-2.201511 16.388118 14.554629 22.028488 -1.437260 0.849021 0.028590 -0.030041 -103744.000000 0 1 0
-2.589411 15.071318 14.845329 21.312754 -1.400647 0.800223 0.022890 -0.026697 49366.800000 0 1 0
-1.632511 14.458218 15.965029 21.600632 -1.458360 0.739063 0.020514 -0.013952 671991.000000 0 1 0
-0.354911 14.070018 15.430529 20.885224 -1.545577 0.739471 0.019032 -0.022666 489758.000000 0 1 0
0.480089 13.555218 16.503529 21.362137 1.535394 0.687933 0.023957 -0.001607 127639.000000 0 1 0
1.362489 14.638918 17.069329 22.528122 1.477991 0.711030 0.027019 -0.008393 -1161190.000000 0 1 0
0.614789 15.634818 17.657529 23.592665 1.531495 0.725100 0.019956 -0.016040 -644777.000000 0 1 0
1.459389 16.488118 18.377529 24.733003 1.482515 0.733200 0.056228 -0.015013 -388141.000000 0 1 0
0.739689 17.709518 18.883229 25.898851 1.529053 0.753769 0.064965 -0.022124 89033.700000 0 0 1
0.317089 18.695918 17.924429 25.902182 1.553838 0.806534 0.046563 -0.022940 -284013.000000 0 0 1
-0.845511 18.401718 17.200729 25.203238 -1.524881 0.819645 0.034217 -0.018713 -670107.000000 0 0 1
-1.430011 19.640518 16.413129 25.635633 -1.498115 0.875977 0.034257 -0.014207 355101.000000 0 0 1
-2.189911 20.458718 17.323529 26.897203 -1.464162 0.870997 0.035549 -0.022457 251268.000000 0 0 1
-2.973211 21.443018 16.676129 27.326476 -1.433018 0.914413 0.059483 -0.030777 -82325.500000 0 0 1
-3.773611 22.437218 17.547429 28.732928 -1.404170 0.913842 0.052797 -0.025001 -181355.000000 0 0 1
-4.901311 21.882118 18.172929 28.863563 -1.350446 0.889739 0.070662 -0.032250 -114099.000000 0 0 1
-5.333911 22.777918 19.220629 30.277330 -1.340771 0.883022 0.074343 -0.019939 -255126.000000 0 0 1
-6.679011 22.396918 19.829829 30.650501 -1.280981 0.867198 0.060025 -0.025746 -739450.000000 0 0 1
-7.846711 22.714218 19.125829 30.713253 -1.238177 0.898579 0.048466 -0.028666 -726355.000000 0 0 1
-8.897911 22.180218 19.903829 31.101403 -1.189287 0.876343 0.015442 -0.023831 390547.000000 0 0 1
-10.282911 22.670918 19.343729 31.525999 -1.144975 0.910210 0.034750 -0.027398 456986.000000 0 0 1
-10.540011 23.990118 19.719429 32.794412 -1.156836 0.925664 0.050494 -0.019255 328132.000000 0 0 1
-11.751811 24.430718 19.109329 33.168230 -1.122443 0.956806 0.039323 -0.012986 581895.000000 0 0 1
-12.363511 25.802918 19.564529 34.661474 -1.123966 0.971034 0.041295 -0.013365 81011.900000 0 0 1
-13.238411 25.742918 20.663229 35.565747 -1.095810 0.950856 0.038075 -0.004835 33809.900000 0 0 1
-13.866311 26.970618 20.897929 36.829502 -1.095911 0.967423 0.054555 -0.020540 -608902.000000 0 0 1
-14.813511 26.994918 22.081829 37.891594 -1.068912 0.948671 0.086356 -0.032589 -173600.000000 0 0 1
-16.017611 26.310718 21.788829 37.730237 -1.023941 0.955146 0.065338 -0.027617 608347.000000 0 0 1
-17.077611 26.629118 22.694429 38.933171 -1.000552 0.948494 0.043500 -0.016703 1104910.000000 0 0 1
-18.455411 25.905418 22.598029 39.017480 -0.951787 0.953077 0.052394 -0.018436 541157.000000 0 0 1
-18.388711 24.505418 22.833929 38.210581 -0.927043 0.930315 0.081220 -0.017749 -276450.000000 0 0 1
-19.671111 24.004618 23.095129 38.685388 -0.884295 0.931041 0.073506 -0.012337 -493191.000000 0 0 1
27.812189 23.750818 23.327383 43.379557 0.706795 1.003029 0.102618 -0.019729 -53632.200000 0 0 1
28.022689 23.044018 24.514153 43.786317 0.688212 0.976581 0.114617 -0.029120 155885.000000 0 0 1
27.791289 21.667818 24.448193 42.890141 0.662216 0.964267 0.117342 -0.019522 -312347.000000 0 0 1
27.632089 21.038318 25.857953 43.298694 0.650740 0.930791 0.139008 -0.032316 -253819.000000 0 0 1
26.362289 21.383618 26.352483 42.973047 0.681499 0.910650 0.131634 -0.025196 -117561.000000 0 0 1
26.193389 20.694118 27.579713 43.301047 0.668645 0.880288 0.140207 -0.030599 -401739.000000 0 0 1
24.775889 20.806918 28.128213 42.871539 0.698546 0.855151 0.144550 -0.039662 -482835.000000 0 0 1
24.561189 22.125418 28.597953 43.710743 0.733273 0.857600 0.152507 -0.050088 231309.000000 0 0 1
23.333789 22.317318 29.291053 43.594658 0.763136 0.834031 0.179703 -0.057702 -47611.000000 0 0 1
23.205589 23.738218 29.895783 44.673932 0.796744 0.837665 0.172781 -0.061037 -306163.000000 0 0 1
22.805489 24.748718 28.977573 44.410462 0.826239 0.859925 0.145413 -0.050839 112460.000000 0 0 1
22.402989 25.949218 29.668963 45.337657 0.858609 0.857407 0.142389 -0.049488 412792.000000 0 0 1
20.938889 25.992718 30.201443 45.013172 0.892670 0.835311 0.133295 -0.042859 -173847.000000 0 0 1
19.983089 26.447118 29.223453 44.190317 0.923729 0.848234 0.118634 -0.040145 882661.000000 0 0 1
18.707089 26.808018 29.758803 44.206463 0.961537 0.832299 0.099155 -0.042786 744207.000000 0 0 1
17.781789 25.676518 30.252733 43.482220 0.965101 0.801333 0.086201 -0.032053 -858219.000000 0 0 1
18.029689 25.155518 31.534323 44.184650 0.948931 0.776038 0.095757 -0.040222 -57069.600000 0 0 1
16.989989 24.344818 32.034428 43.675330 0.961488 0.747387 0.066989 -0.035251 -51940.400000 0 0 1
17.324089 23.805818 33.442591 44.556121 0.941704 0.721869 0.082383 -0.036317 -277082.000000 0 0 1
17.377389 24.866918 -33.430751 45.143685 0.960866 2.404671 0.063868 -0.032886 183958.000000 0 0 1
17.812489 24.448618 -32.149171 44.142823 0.941153 2.386633 0.061691 -0.027117 -262011.000000 0 0 1
18.224589 25.626518 -31.173231 44.278938 0.952619 2.351838 0.040370 -0.003242 -200817.000000 0 0 1
17.208989 26.573618 -30.860201 44.211519 0.996112 2.343415 0.051999 -0.020996 173188.000000 0 0 1
17.670089 27.803118 -30.360081 44.799329 1.004651 2.315414 0.050623 -0.021242 -345172.000000 0 0 1
17.267889 28.133618 -28.923601 43.889123 1.020305 2.290305 0.065144 -0.016956 -224895.000000 0 0 1
17.772589 27.216218 -28.000251 42.902231 0.992305 2.281876 0.027828 -0.008052 241462.000000 0 0 1
17.228089 27.562018 -26.735171 42.086117 1.012149 2.259127 0.041342 -0.010224 -4392.550000 0 0 1
17.903589 26.748518 -25.573661 41.110021 0.980952 2.242191 0.032478 -0.006392 531467.000000 0 0 1
19.322489 26.824018 -25.512871 41.758749 0.946548 2.228067 0.032659 -0.003857 53198.100000 0 0 1
19.840089 26.470518 -24.272271 41.029996 0.927605 2.203806 0.024934 0.002681 -303564.000000 0 0 1
21.319689 26.849518 -24.141871 41.931559 0.899698 2.184311 0.021798 0.008399 -395444.000000 0 0 1
21.878689 26.296218 -22.989571 41.215148 0.876840 2.162522 0.030045 0.008744 -14582.000000 0 0 1
23.293689 26.308318 -23.177671 42.094275 0.846100 2.153895 0.043445 0.012894 432956.000000 0 0 1
24.091889 26.018018 -21.916271 41.685480 0.823817 2.124397 0.063348 0.009603 -57100.600000 0 0 1
23.887489 24.713818 -21.368971 40.472433 0.802399 2.127026 0.086966 0.001487 -24453.300000 0 0 1
24.317989 24.724918 -20.010371 40.038745 0.793695 2.094136 0.091900 -0.001985 54217.000000 0 0 1
23.836389 23.519518 -19.135571 38.568267 0.778707 2.089953 0.099267 -0.018847 -72812.400000 0 0 1
24.407289 22.240818 -19.480571 38.338784 0.738989 2.103793 0.093015 -0.014036 389922.000000 0 0 1
24.311389 21.371718 -18.356871 37.212480 0.721138 2.086674 0.100499 -0.012912 -938154.000000 0 0 1
24.336089 19.876318 -18.742971 36.587049 0.684867 2.108639 0.119618 -0.018248 1168660.000000 0 0 1
23.296989 19.325618 -19.629671 36.077045 0.692491 2.146117 0.111554 -0.023409 1177390.000000 0 0 1
21.953089 19.669718 -19.343671 35.256397 0.730594 2.151553 0.110870 -0.026975 -61530.300000 0 0 1
20.974189 19.305518 -20.525771 35.127295 0.743995 2.194845 0.084083 -0.009320 306910.000000 0 0 1
21.132489 20.012618 -21.734871 36.324806 0.758187 2.212234 0.079699 -0.008105 -51271.900000 0 0 1
21.141289 21.398418 -21.619471 37.043864 0.791443 2.193974 0.074431 -0.011783 -69104.000000 0 0 1
20.930689 22.142718 -22.903371 38.117687 0.813529 2.215372 0.054752 0.004635 732221.000000 0 0 1
19.557889 22.089718 -23.300871 37.595176 0.846115 2.239263 0.060120 -0.006237 304341.000000 0 0 1
19.292689 22.534518 -24.593271 38.533639 0.862749 2.262991 0.049480 -0.003628 -767056.000000 0 0 1
17.803189 22.614018 -24.828171 38.010333 0.903870 2.282593 0.047092 -0.013163 -716920.000000 0 0 1
17.077689 23.461718 -23.959671 37.631974 0.941593 2.260987 0.041039 -0.011224 -172223.000000 0 0 1
15.686289 23.338218 -24.130971 37.054498 0.979022 2.279999 0.050861 -0.014325 -78617.800000 0 0 1
14.945989 24.482818 -23.431471 37.038153 1.022715 2.255742 0.039805 -0.014447 -118458.000000 0 0 1
15.240489 25.793518 -23.913171 38.332986 1.037121 2.244427 0.023567 -0.011303 217570.000000 0 0 1
14.136989 26.611818 -23.567971 38.255621 1.082478 2.234534 0.051714 -0.015038 281624.000000 0 0 1
14.269489 28.053918 -24.176971 39.688368 1.100257 2.225810 0.050948 -0.016619 133442.000000 0 0 1
14.030589 27.995918 -25.579351 40.434293 1.106217 2.255722 0.052898 -0.025343 -139220.000000 0 0 1
13.442089 29.107818 -26.204861 41.408327 1.138170 2.256012 0.085044 -0.033052 -5117.920000 0 0 1
14.284689 30.427218 -26.193791 42.614347 1.131869 2.232765 0.091538 -0.029004 100614.000000 0 0 1
15.445489 30.314618 -26.992021 43.429349 1.099573 2.241472 0.070688 -0.025310 99103.400000 0 0 1
16.164989 31.576718 -26.938901 44.543241 1.097652 2.220287 0.072399 -0.025801 19431.100000 0 0 1
17.573589 31.486018 -27.533661 45.368522 1.061725 2.222937 0.060168 -0.016178 -248062.000000 0 0 1
18.548589 30.942718 -26.669341 44.863746 1.030782 2.207380 0.025500 -0.009881 109274.000000 0 0 1
19.848789 30.930918 -27.190321 45.716623 1.000268 2.207761 0.027621 -0.006726 39839.700000 0 0 1
20.898389 30.142218 -26.311711 45.139806 0.964563 2.193082 0.015167 0.000847 -480712.000000 0 0 1
21.234689 30.563818 -24.962571 44.812821 0.963592 2.161615 0.025883 -0.006098 129891.000000 0 0 1
21.880689 31.812818 -24.836371 45.909315 0.968309 2.142407 0.030374 -0.009896 -611576.000000 0 0 1
23.306989 31.876718 -25.390691 46.947077 0.939462 2.142228 0.018753 -0.002532 -1127970.000000 0 0 1
23.374889 31.727818 -26.805561 47.661074 0.935841 2.168106 0.011431 0.004002 -154500.000000 0 0 1
24.514489 32.356818 -27.357101 48.952373 0.922430 2.163796 0.010190 0.017991 -455038.000000 0 0 1
24.875189 31.694118 -28.661321 49.444549 0.905361 2.189115 0.007400 0.011774 -474110.000000 0 0 1
24.023789 32.029418 -29.683931 49.841366 0.927261 2.208769 0.022398 -0.012794 -231138.000000 0 0 1
22.822789 31.295018 -29.827931 48.887251 0.940689 2.227030 0.019421 -0.010098 -329633.000000 0 0 1
21.814789 32.062718 -30.670361 49.442632 0.973361 2.239950 0.029051 -0.012111 -1380940.000000 0 0 1
21.239289 33.213518 -30.050801 49.571118 1.001854 2.222090 0.048329 -0.015591 50921.400000 0 0 1
20.260689 33.726218 -30.902951 50.029448 1.029833 2.236605 0.065686 -0.030502 -810004.000000 0 0 1
18.810589 33.314818 -30.674961 49.037420 1.056789 2.246622 0.074720 -0.036196 -1139050.000000 0 0 1
18.421689 31.977518 -30.921931 48.146506 1.048149 2.268222 0.083050 -0.032776 307516.000000 0 0 1
18.774489 31.294218 -32.148971 48.635027 1.030425 2.292980 0.098178 -0.039040 -860157.000000 0 0 1
18.127589 31.855418 -33.437771 49.613119 1.053439 2.310366 0.115499 -0.047867 -249690.000000 0 0 1
18.456189 33.255118 -33.695021 50.812284 1.064132 2.295786 0.111955 -0.045542 359315.000000 0 0 1
17.945489 33.682218 32.818358 50.334650 1.081263 0.860573 0.097889 -0.038388 1055130.000000 0 0 1
16.436189 -33.674680 32.635628 49.691213 -1.116724 0.854271 0.106516 -0.038712 540868.000000 0 0 1
15.475089 33.061518 32.468218 48.854145 1.133018 0.843845 0.112496 -0.040870 -699132.000000 0 0 1
14.151589 33.442118 32.421950 48.680854 1.170480 0.841949 0.100335 -0.038279 -528107.000000 0 0 1
13.669889 -33.705580 31.045033 47.819725 -1.185500 0.864251 0.090752 -0.043849 -668583.000000 0 0 1
14.359189 -32.507480 30.733513 46.983735 -1.154850 0.857763 0.097532 -0.025113 579468.000000 0 0 1
13.743589 -31.939880 29.562963 45.640015 -1.164449 0.866179 0.068885 -0.020419 243935.000000 0 0 1
14.189489 -30.451780 29.251583 44.545568 -1.134745 0.854406 0.067293 -0.016016 67460.100000 0 0 1
13.767589 -29.556980 30.299653 44.511016 -1.134883 0.822048 0.072788 -0.022686 553423.000000 0 0 1
14.317189 -28.252380 30.076913 43.678365 -1.101755 0.811240 0.081926 -0.027283 -397202.000000 0 0 1
13.864989 -27.237880 31.139203 43.632442 -1.099948 0.776072 0.082109 -0.029169 1039500.000000 0 0 1
12.484489 -26.854180 30.923873 42.816999 -1.135621 0.763770 0.069496 -0.024954 1095460.000000 0 0 1
12.122289 -25.982780 29.826003 41.372034 -1.134264 0.765665 0.054575 -0.024323 -477711.000000 0 0 1
12.306789 -24.515480 30.158253 40.767463 -1.105549 0.738079 0.062142 -0.023056 -303778.000000 0 0 1
11.411389 -24.215980 31.178703 41.094343 -1.130425 0.709465 0.065170 -0.027456 -114344.000000 0 0 1
11.583389 -22.881180 31.528983 40.642343 -1.102168 0.682867 0.066190 -0.029197 154512.000000 0 0 1
10.830089 -22.431380 32.834343 41.213490 -1.120995 0.648999 0.067390 -0.020277 -77835.200000 0 0 1
11.062589 -23.199480 -33.759931 42.430292 -1.125843 2.490887 0.073939 -0.022549 897709.000000 0 0 1
12.412389 -23.297680 -33.256871 42.460202 -1.081275 2.470669 0.086346 -0.016588 1054300.000000 0 0 1
12.916189 -22.079580 -32.406011 41.285413 -1.041492 2.473374 0.087765 -0.013983 -98203.900000 0 0 1
13.132189 -21.013780 -33.283471 41.494852 -1.012246 2.501618 0.070043 -0.011751 305971.000000 0 0 1
13.908989 -19.953880 -32.712291 40.764093 -0.962048 2.502233 0.073136 -0.011019 2385.010000 0 0 1
14.165589 -18.809480 -33.710771 41.120269 -0.925308 2.531874 0.056247 -0.008079 -808811.000000 0 0 1
15.098189 -19.256680 33.121232 41.179984 -0.905857 0.636293 0.084590 -0.000291 129184.000000 0 0 1
15.182789 -18.380780 31.971279 39.881485 -0.880393 0.640734 0.061015 0.002925 323651.000000 0 0 1
15.986889 -16.995780 32.104136 39.687690 -0.815977 0.628485 0.071243 -0.005725 -158549.000000 0 0 1
15.401089 -15.999580 32.959043 39.742655 -0.804456 0.592922 0.056655 -0.001926 235379.000000 0 0 1
15.920589 -14.679580 32.890301 39.379273 -0.744865 0.582266 0.076873 -0.012511 290543.000000 0 0 1
17.377689 -14.380380 33.389925 40.294745 -0.691297 0.594119 0.071651 -0.005657 1125650.000000 0 0 1
18.401389 -15.049480 32.634103 40.374282 -0.685528 0.629555 0.089608 -0.019091 1068120.000000 0 0 1
19.715289 -14.766180 33.165798 41.312260 -0.642842 0.638807 0.098080 -0.016401 831730.000000 0 0 1
20.787989 -15.631780 32.481372 41.611688 -0.644756 0.675198 0.128389 -0.027264 -231296.000000 0 0 1
21.015089 -15.163080 31.162943 40.530013 -0.625032 0.693700 0.091717 -0.017426 -221446.000000 0 0 1
22.033789 -15.850480 30.518003 40.842063 -0.623609 0.726927 0.092952 -0.020721 -510359.000000 0 0 1
22.267389 -15.369480 29.064213 39.708765 -0.604135 0.749640 0.076892 -0.014067 -159676.000000 0 0 1
22.881889 -14.088080 29.035113 39.561252 -0.551874 0.746709 0.068359 -0.016999 319883.000000 0 0 1
22.949889 -13.535880 27.713063 38.443872 -0.532887 0.765738 0.056877 -0.020222 -436430.000000 0 0 1
23.885689 -12.341680 27.717343 38.614690 -0.476916 0.770169 0.029137 -0.014935 -625519.000000 0 0 1
23.339189 -11.122580 28.088993 38.176185 -0.444722 0.743989 0.034630 -0.018858 -352072.000000 0 0 1
24.261589 -10.113780 28.376303 38.679812 -0.394959 0.747162 0.041881 -0.018202 -118024.000000 0 0 1
23.551289 -8.741080 28.431653 37.939802 -0.355392 0.723658 0.049128 -0.019629 -36281.800000 0 0 1
22.619889 -8.683180 29.460653 38.144293 -0.366528 0.688268 0.058242 -0.025178 -531725.000000 0 0 1
21.691789 -7.631780 29.222163 37.184844 -0.338302 0.666707 0.074526 -0.035769 268424.000000 0 0 1
20.560489 -7.644680 30.294933 37.402644 -0.355975 0.626699 0.060555 -0.029102 -28355.200000 0 0 1
20.839689 -7.096180 31.542333 38.465143 -0.328198 0.609344 0.067419 -0.030047 -83038.700000 0 0 1
20.996889 -8.129380 32.493708 39.532230 -0.369398 0.605962 0.075082 -0.036197 -437919.000000 0 0 1
20.839589 -7.738580 -33.779181 40.437695 -0.355558 2.559545 0.092105 -0.046005 -68577.000000 0 0 1
19.516689 -7.459680 -33.391631 39.389706 -0.365086 2.582477 0.080034 -0.050788 -36061.500000 0 0 1
19.563289 -7.164280 -31.995011 38.180229 -0.351043 2.564403 0.080794 -0.054069 812904.000000 0 0 1
18.148989 -6.815580 -31.405511 36.907236 -0.359240 2.588551 0.097029 -0.054589 837426.000000 0 0 1
18.310389 -5.974680 -30.276151 35.883317 -0.315407 2.575008 0.097380 -0.050930 -667302.000000 0 0 1
17.098889 -5.716280 -29.697441 34.741702 -0.322627 2.595975 0.107368 -0.044413 -791489.000000 0 0 1
17.392089 -4.592180 -28.689391 33.862280 -0.258147 2.581559 0.099031 -0.039174 104608.000000 0 0 1
18.110689 -4.895180 -27.457591 33.254761 -0.263984 2.542192 0.098873 -0.037371 302310.000000 0 0 1
17.606989 -5.877480 -26.602681 32.438456 -0.322184 2.532377 0.096424 -0.037942 -171999.000000 0 0 1
16.140789 -5.780880 -26.115911 31.240750 -0.343920 2.560670 0.088437 -0.039041 74205.500000 0 0 1
15.897289 -4.694880 -25.293891 30.241472 -0.287163 2.561474 0.098711 -0.047012 -75216.200000 0 0 1
14.498089 -4.642580 -25.066371 29.326968 -0.309903 2.595809 0.077535 -0.039829 179970.000000 0 0 1
14.013489 -3.619180 -24.048871 28.068212 -0.252741 2.599830 0.097754 -0.040135 29159.400000 0 0 1
14.362889 -2.288780 -24.408471 28.413105 -0.158025 2.604220 0.094276 -0.049684 203952.000000 0 0 1
13.867889 -1.385780 -23.440471 27.270761 -0.099597 2.605177 0.091611 -0.046561 120046.000000 0 0 1
14.324289 0.090220 -23.740471 27.727303 0.006298 2.598690 0.086264 -0.045224 -145889.000000 0 0 1
13.685489 0.601220 -24.889771 28.410469 0.043903 2.638462 0.088005 -0.040209 214123.000000 0 0 1
14.226089 1.836220 -25.328531 29.108208 0.128364 2.626305 0.089816 -0.022900 -229238.000000 0 0 1
13.485189 2.494220 -26.529201 29.864192 0.182893 2.664488 0.078326 -0.016363 354120.000000 0 0 1
12.155289 2.939220 -26.284551 29.107863 0.237252 2.697510 0.085606 -0.028232 776358.000000 0 0 1
11.639189 3.667220 -27.419701 30.012651 0.305229 2.722859 0.091838 -0.027581 1004940.000000 0 0 1
10.399989 4.626220 -27.164501 29.452874 0.418546 2.744797 0.102102 -0.028872 851315.000000 0 0 1
10.725789 5.845220 -26.561421 29.235564 0.498972 2.710551 0.084787 -0.037349 -407916.000000 0 0 1
9.569489 6.516220 -26.198111 28.642228 0.597817 2.725480 0.094585 -0.039510 -483332.000000 0 0 1
8.225989 5.647418 -31.385521 32.933435 0.601631 2.833780 0.077066 -0.035566 -66817.900000 0 0 1
8.257189 4.755218 -30.280021 31.743864 0.522502 2.836722 0.083397 -0.016278 341261.000000 0 0 1
7.927489 3.489418 -30.777421 31.972969 0.414647 2.867265 0.068650 -0.014353 -165708.000000 0 0 1
7.649789 2.478518 -29.602081 30.674835 0.313325 2.876347 0.081596 -0.020813 -157510.000000 0 0 1
8.798089 1.910318 -29.012351 30.377165 0.213810 2.840696 0.115300 -0.029155 251196.000000 0 0 1
8.386189 0.971118 -28.016801 29.261107 0.115286 2.848919 0.091949 -0.027645 63986.800000 0 0 1
9.490489 0.399618 -27.093671 28.710557 0.042082 2.804388 0.092515 -0.039334 513741.000000 0 0 1
10.384689 -0.482382 -27.817971 29.697036 -0.046418 2.783952 0.116828 -0.030307 15437.400000 0 0 1
11.376489 -0.956582 -26.974111 29.290650 -0.083887 2.741210 0.111055 -0.034992 -418921.000000 0 0 1
12.068789 -2.214082 -27.556621 30.164966 -0.181438 2.722677 0.099149 -0.038892 205333.000000 0 0 1
11.249289 -3.382782 -27.585761 29.982727 -0.292109 2.739017 0.092637 -0.040189 675125.000000 0 0 1
12.054989 -4.546282 -27.920881 30.750074 -0.360636 2.709267 0.105821 -0.040209 549692.000000 0 0 1
11.365889 -5.812782 -27.403981 30.231606 -0.472745 2.705639 0.069513 -0.033327 13741.200000 0 0 1
11.508389 -5.813382 -25.937951 28.965768 -0.467754 2.680280 0.090730 -0.030379 121927.000000 0 0 1
10.937689 -6.973882 -25.387201 28.509262 -0.567609 2.669216 0.087104 -0.032782 -212193.000000 0 0 1
10.861589 -6.780282 -23.872971 27.089944 -0.558056 2.649293 0.091443 -0.033667 176672.000000 0 0 1
12.148389 -6.683682 -23.263171 27.081914 -0.502974 2.604096 0.078329 -0.032662 498496.000000 0 0 1
11.983889 -6.582182 -21.821671 25.751195 -0.502269 2.581873 0.083919 -0.037594 -255862.000000 0 0 1
13.322789 -6.432782 -21.108571 25.776911 -0.449826 2.530279 0.097045 -0.031134 -288912.000000 0 0 1
13.770789 -5.109782 -21.039871 25.659709 -0.355312 2.532133 0.085541 -0.033685 -260983.000000 0 0 1
14.806289 -5.005782 -20.089671 25.453466 -0.326021 2.480416 0.067829 -0.026759 -11256.500000 0 0 1
15.286889 -3.643282 -19.581571 25.107776 -0.233963 2.465303 0.080376 -0.031442 348579.000000 0 0 1
16.144589 -2.974882 -20.554271 26.305432 -0.182221 2.467654 0.076888 -0.027843 477133.000000 0 0 1
16.704289 -1.843882 -20.004471 26.126845 -0.109939 2.442874 0.083596 -0.019211 247641.000000 0 0 1
17.823889 -1.100882 -20.812071 27.423443 -0.061686 2.432442 0.073719 -0.021651 354759.000000 0 0 1
19.062689 -1.756182 -20.851871 28.306727 -0.091867 2.398885 0.100713 -0.030229 -13492.600000 0 0 1
20.049189 -0.922482 -21.457071 29.380722 -0.045979 2.389574 0.096741 -0.016149 291326.000000 0 0 1
21.421189 -1.566482 -21.695371 30.528844 -0.072998 2.361220 0.080173 -0.020821 -1315540.000000 0 0 1
22.238789 -1.832982 -20.594971 30.365711 -0.082237 2.316149 0.072563 -0.022477 521448.000000 0 0 1
23.468389 -2.477182 -20.939771 31.549576 -0.105165 2.296564 0.062122 -0.018939 399748.000000 0 0 1
24.520889 -1.694582 -21.732771 32.809434 -0.068998 2.294806 0.075652 -0.025738 -1825090.000000 0 0 1
24.280289 -1.357582 -23.102071 33.542229 -0.055855 2.330554 0.077968 -0.031139 370925.000000 0 0 1
25.359889 -0.716682 -23.788771 34.778488 -0.028253 2.324040 0.074069 -0.020440 469317.000000 0 0 1
26.515689 -1.584582 -24.335171 36.024897 -0.059689 2.312452 0.073842 -0.027847 -677522.000000 0 0 1
27.348289 -2.107982 -23.366971 36.033149 -0.076927 2.276389 0.073768 -0.025624 827269.000000 0 0 1
28.528689 -2.841082 -23.793771 37.257233 -0.099260 2.263519 0.056711 -0.021290 1341170.000000 0 0 1
29.721789 -2.067882 -24.388271 38.502580 -0.069463 2.256760 0.064761 -0.023534 -589033.000000 0 0 1
29.510089 -1.885582 -25.789741 39.236609 -0.063809 2.288010 0.078962 -0.023162 561531.000000 0 0 1
30.342989 -0.840982 -26.233741 40.119987 -0.027709 2.283500 0.085759 -0.034195 -326981.000000 0 0 1
29.804989 -0.421882 -27.639281 40.650279 -0.014154 2.318461 0.082657 -0.042667 216201.000000 0 0 1
28.488489 0.074918 -27.725631 39.753116 0.002630 2.342623 0.082980 -0.027971 86005.100000 0 0 1
28.329689 1.382318 -27.279251 39.352759 0.048755 2.336713 0.070651 -0.027695 237038.000000 0 0 1
26.852889 1.800318 -27.614711 38.560226 0.066944 2.369059 0.092161 -0.025485 915486.000000 0 0 1
25.795589 1.243418 -26.855511 37.258247 0.048165 2.375743 0.097903 -0.020702 39487.900000 0 0 1
24.582989 1.858918 -27.213541 36.719964 0.075474 2.405519 0.085072 -0.018417 305493.000000 0 0 1
23.413189 1.563718 -26.194701 35.167954 0.066689 2.411100 0.085591 -0.020911 354048.000000 0 0 1
23.527889 2.183218 -24.957771 34.368857 0.092528 2.383537 0.097306 -0.019988 612450.000000 0 0 1
22.312989 2.173618 -24.203471 32.990940 0.097108 2.394459 0.097243 -0.021207 182217.000000 0 0 1
22.377689 2.591918 -22.743071 32.011346 0.115312 2.360961 0.087712 -0.010743 -333813.000000 0 0 1
22.297389 3.967318 -22.535871 31.949627 0.176085 2.353722 0.099253 -0.014000 444160.000000 0 0 1
22.495789 4.197818 -21.165571 31.171519 0.184483 2.317201 0.087457 -0.015863 -345457.000000 0 0 1
22.153089 5.628018 -20.675471 30.820594 0.248788 2.306128 0.101791 -0.009074 -563248.000000 0 0 1
22.967289 6.672818 -21.099171 31.893540 0.282751 2.293680 0.085397 0.003809 -159637.000000 0 0 1
22.738289 7.953418 -20.522471 31.645828 0.336480 2.276415 0.078299 0.008546 -515878.000000 0 0 1
23.248489 8.126918 -19.056571 31.139877 0.336290 2.229341 0.071631 -0.008194 -999111.000000 0 0 1
24.632489 8.303818 -19.051071 32.228190 0.325144 2.203256 0.044811 0.001408 -231060.000000 0 0 1
25.140389 8.581718 -17.745271 31.946513 0.328950 2.159722 0.061745 -0.014630 -36331.500000 0 0 1
24.950989 10.087318 -17.319971 32.004488 0.384195 2.142628 0.059481 -0.020860 -209497.000000 0 0 1
23.618189 10.373018 -16.935971 30.858475 0.413833 2.151757 0.071193 -0.028481 48960.800000 0 0 1
23.316589 11.766218 -16.899871 31.108083 0.467344 2.145115 0.073142 -0.025914 -609279.000000 0 0 1
21.848989 12.070318 -16.531471 29.939279 0.504717 2.155757 0.071482 -0.030867 326199.000000 0 0 1
20.905389 11.834118 -17.578171 29.766990 0.515105 2.202506 0.090919 -0.036175 398880.000000 0 0 1
20.611589 10.459018 -17.799771 29.172941 0.469577 2.227042 0.102695 -0.030101 -731033.000000 0 0 1
19.678689 10.179818 -19.016171 29.197504 0.477393 2.280085 0.119324 -0.017057 105870.000000 0 0 1
20.299989 10.482018 -20.253871 30.531648 0.476646 2.296114 0.121160 -0.015409 376401.000000 0 0 1
19.487089 10.057318 -21.343071 30.601029 0.476446 2.342647 0.096196 -0.013083 -84245.900000 0 0 1
20.189089 10.035618 -22.701071 31.994555 0.461310 2.359626 0.117657 -0.010752 -340494.000000 0 0 1
20.138689 11.327718 -23.290671 32.807611 0.512378 2.360176 0.110107 -0.012800 37274.300000 0 0 1
20.982089 11.541418 -24.363271 34.161694 0.502890 2.364814 0.127087 -0.015589 -293238.000000 0 0 1
20.653389 12.975518 -24.961771 34.900094 0.560934 2.367757 0.143947 -0.020574 208169.000000 0 0 1
21.576189 13.471118 -25.936171 36.327509 0.558133 2.365925 0.132236 -0.018919 209695.000000 0 0 1
21.558289 14.859118 -26.101781 36.971018 0.603477 2.354640 0.135184 -0.010822 481350.000000 0 0 1
20.290389 15.584518 -26.710431 36.986811 0.654968 2.377718 0.120095 -0.021877 526229.000000 0 0 1
19.119489 15.265818 -25.989611 35.693976 0.673791 2.386376 0.095052 -0.018200 -396876.000000 0 0 1
18.021989 15.753718 -26.738631 35.887687 0.718342 2.411427 0.094203 -0.023925 913966.000000 0 0 1
16.580289 15.357118 -26.225181 34.619462 0.747118 2.430313 0.096276 -0.022859 809193.000000 0 0 1
16.467689 13.958818 -26.295781 34.022073 0.703128 2.454201 0.099641 -0.016141 69819.600000 0 0 1
15.161689 13.471818 -26.090281 33.046474 0.726449 2.480795 0.070084 -0.017579 -269601.000000 0 0 1
15.092989 11.942118 -25.840021 32.219857 0.669374 2.501417 0.058776 -0.018016 501272.000000 0 0 1
13.787889 11.384418 -25.638421 31.257630 0.690206 2.532608 0.060106 -0.022052 574115.000000 0 0 1
13.878589 10.048618 -25.260821 30.523745 0.626677 2.545578 0.063814 -0.023617 683143.000000 0 0 1
12.466589 9.364618 -25.169151 29.607399 0.644254 2.586965 0.103308 -0.038331 949839.000000 0 0 1
11.698689 9.810818 -24.053271 28.489846 0.697853 2.576008 0.123830 -0.042919 377271.000000 0 0 1
10.471689 9.120918 -23.894671 27.636981 0.716564 2.615131 0.127441 -0.045440 164038.000000 0 0 1
9.515089 9.684618 -22.826971 26.559355 0.794228 2.605028 0.118572 -0.044151 -83078.100000 0 0 1
8.886389 10.894918 -23.173771 27.105180 0.886588 2.596265 0.112191 -0.043842 -360979.000000 0 0 1
8.315289 11.586218 -22.136871 26.332974 0.948298 2.569283 0.104523 -0.031925 443899.000000 0 0 1
9.293689 12.501618 -21.244871 26.344025 0.931533 2.508903 0.093351 -0.032219 964745.000000 0 0 1
10.064989 11.656518 -20.339371 25.512123 0.858537 2.493511 0.119763 -0.039294 98202.000000 0 0 1
10.924289 12.503318 -19.588971 25.678801 0.852697 2.438500 0.136763 -0.040660 -294028.000000 0 0 1
11.980089 11.732718 -18.741371 25.147926 0.774967 2.411699 0.167190 -0.041707 63784.500000 0 0 1
13.019389 11.040218 -19.416171 25.853019 0.703322 2.420404 0.158150 -0.040514 148610.000000 0 0 1
12.643789 10.156518 -20.395871 26.057855 0.676738 2.469812 0.158022 -0.043734 -587981.000000 0 0 1
13.897589 9.495718 -21.086871 26.980877 0.599405 2.467941 0.155851 -0.041237 607592.000000 0 0 1
14.509489 8.503318 -20.333271 26.386996 0.530101 2.450546 0.163933 -0.049945 -239305.000000 0 0 1
15.447789 7.791918 -21.064771 27.259360 0.467164 2.453965 0.131383 -0.043050 -330176.000000 0 0 1
16.190389 6.674518 -20.286671 26.799755 0.391023 2.429463 0.175191 -0.048013 185784.000000 0 0 1
17.054889 7.077918 -19.242071 26.668773 0.393377 2.376792 0.148127 -0.036396 327332.000000 0 0 1
17.635789 5.941318 -18.615171 26.321947 0.324948 2.356342 0.142973 -0.047047 82005.900000 0 0 1
18.377889 6.284518 -17.296171 26.007681 0.329495 2.298345 0.175610 -0.036111 -444493.000000 0 0 1
19.635789 6.927518 -17.512571 27.207441 0.339168 2.270078 0.136784 -0.036511 261877.000000 0 0 1
20.313889 6.934818 -16.298371 26.951487 0.328978 2.220223 0.130217 -0.048869 -239471.000000 0 0 1
21.048489 5.675718 -15.833571 26.943545 0.263385 2.198957 0.109387 -0.048797 -1179360.000000 0 0 1
22.301689 5.431618 -16.419171 28.221569 0.238901 2.191730 0.085298 -0.035752 222864.000000 0 0 1
22.942889 4.367818 -15.730271 28.158399 0.188127 2.163536 0.116282 -0.043335 -387241.000000 0 0 1
24.385189 4.075018 -16.146271 29.528720 0.165580 2.149332 0.050281 0.001340 -404138.000000 0 0 1
24.921589 2.943218 -15.524971 29.508861 0.117555 2.124819 0.056439 -0.011076 -365196.000000 0 0 1
26.220489 2.685018 -15.959171 30.812635 0.102046 2.115240 0.050017 -0.014728 -486111.000000 0 0 1
26.935189 1.463618 -15.365171 31.044083 0.054285 2.088570 0.069622 -0.028395 -416872.000000 0 0 1
26.293189 0.240918 -15.552571 30.549506 0.009162 2.104928 0.088564 -0.028272 -323474.000000 0 0 1
27.220189 -0.814082 -15.614171 31.391141 -0.029898 2.091403 0.083558 -0.023060 -471480.000000 0 0 1
26.671889 -2.214282 -15.903371 31.132136 -0.082829 2.106952 0.069984 -0.030890 -343355.000000 0 0 1
26.087589 -2.787082 -14.744471 30.095341 -0.106432 2.082800 0.076643 -0.033259 353965.000000 0 0 1
25.707089 -4.137882 -14.969371 30.034290 -0.159594 2.092559 0.072610 -0.025927 -1008580.000000 0 0 1
25.260589 -4.917482 -13.708571 29.158256 -0.192265 2.060250 0.087258 -0.028807 1599730.000000 0 0 1
23.877489 -4.766182 -13.244271 27.717534 -0.197020 2.068979 0.100765 -0.027372 1544910.000000 0 0 1
22.956989 -5.336782 -14.137271 27.483941 -0.228412 2.111084 0.107094 -0.028820 -831334.000000 0 0 1
21.504489 -5.196482 -13.628471 25.984259 -0.237101 2.122912 0.126354 -0.030151 -253579.000000 0 0 1
21.115389 -6.212182 -12.702971 25.412917 -0.286129 2.094237 0.133017 -0.032890 314189.000000 0 0 1
20.835189 -5.750582 -11.411571 24.441732 -0.269299 2.056566 0.141290 -0.035121 -355591.000000 0 1 0
20.436189 -6.843182 -10.429471 23.942448 -0.323120 2.021508 0.128663 -0.041151 -801825.000000 0 1 0
19.182789 -7.414882 -10.582971 23.129184 -0.368848 2.046045 0.120940 -0.033583 -282729.000000 0 1 0
19.113989 -8.485382 -11.538571 23.884826 -0.417799 2.074979 0.119929 -0.039135 -1818260.000000 0 1 0
17.818689 -9.226482 -11.532671 23.143815 -0.477784 2.092439 0.130594 -0.038602 -1402880.000000 0 1 0
16.830389 -8.271882 -11.839371 22.177843 -0.456812 2.133929 0.112130 -0.032290 -26049.500000 0 1 0
15.636989 -8.970682 -12.251671 21.796605 -0.520844 2.167708 0.115233 -0.024065 492754.000000 0 1 0
14.463189 -7.996282 -12.514271 20.729962 -0.505045 2.218906 0.080780 -0.015057 -217166.000000 0 1 0
14.523389 -7.022382 -13.568371 21.079454 -0.450379 2.270090 0.080828 -0.022343 -64374.400000 0 1 0
15.479389 -5.998782 -13.367871 21.314240 -0.369713 2.248724 0.070346 -0.024711 -225052.000000 0 1 0
15.462689 -4.839882 -14.378271 21.662269 -0.303344 2.296614 0.072820 -0.025748 215711.000000 0 1 0
14.348989 -3.943982 -14.254371 20.606688 -0.268237 2.334685 0.077197 -0.028031 342168.000000 0 1 0
14.137289 -3.001982 -15.314471 21.057252 -0.209237 2.385144 0.079051 -0.026580 -444510.000000 0 1 0
15.197289 -1.940182 -15.597271 21.863137 -0.126979 2.365142 0.081388 -0.026970 -753639.000000 0 1 0
16.375289 -2.486682 -16.131171 23.120302 -0.150704 2.342986 0.086086 -0.030011 -10422.100000 0 1 0
17.453689 -1.568482 -15.965671 23.706414 -0.089625 2.309696 0.109410 -0.027883 283874.000000 0 1 0
18.551689 -2.045482 -14.999671 23.944504 -0.109815 2.247767 0.116569 -0.030113 -515185.000000 0 1 0
18.032289 -2.129782 -13.684771 22.737027 -0.117565 2.216639 0.104165 -0.022293 476557.000000 0 1 0
19.007589 -2.650682 -12.804571 23.071012 -0.138560 2.159168 0.104388 -0.022823 -112523.000000 0 1 0
18.484789 -2.815582 -11.381071 21.889351 -0.151157 2.117573 0.096926 -0.022493 -364934.000000 0 1 0
18.249389 -1.609182 -10.691471 21.211724 -0.087950 2.099062 0.101770 -0.019610 851124.000000 0 1 0
17.716989 -1.860182 -9.372371 20.129414 -0.104611 2.055115 0.089981 -0.016672 -874592.000000 0 1 0
17.541789 -0.567482 -8.492471 19.497653 -0.032339 2.021461 0.082923 -0.014991 180064.000000 0 1 0
18.745889 -0.094482 -7.861671 20.327891 -0.005040 1.967894 0.104090 -0.019495 942506.000000 0 1 0
19.739389 0.394818 -8.723871 21.584839 0.019999 1.986864 0.105111 -0.013038 -850554.000000 0 1 0
19.536389 1.727018 -9.492071 21.788816 0.088171 2.021545 0.115359 -0.016222 -713650.000000 0 1 0
19.410389 2.835118 -8.612071 21.423559 0.145036 1.984486 0.101737 -0.013539 486223.000000 0 1 0
18.880389 3.955318 -9.287971 21.409812 0.206507 2.019523 0.100428 -0.021502 -265705.000000 0 1 0
18.540889 5.225818 -8.419671 21.022954 0.274727 1.982858 0.083653 -0.018303 -352372.000000 0 1 0
17.875689 6.248018 -9.154171 21.032756 0.336252 2.021094 0.067843 -0.027416 227811.000000 0 1 0
18.578389 7.460918 -9.180471 22.025051 0.381877 2.000740 0.105877 -0.016884 -392175.000000 0 1 0
-27.189631 -29.357342 6.108729 40.477724 0.823714 1.419302 0.077064 0.001449 5404.620000 0 0 1
-26.910501 -28.239352 6.856529 39.606162 0.809489 1.396802 0.091402 -0.006375 -1153570.000000 0 0 1
-25.774721 -27.597402 6.457629 38.309970 0.819535 1.401425 0.070803 -0.005803 -1551230.000000 0 0 1
-25.569781 -26.159332 7.136329 37.269982 0.796795 1.378130 0.076385 -0.005962 -250497.000000 0 0 1
-26.533251 -25.194412 6.703029 37.198151 0.759521 1.389609 0.095622 -0.013512 -600343.000000 0 0 1
-27.851261 -25.407192 7.041829 38.351082 0.739540 1.386134 0.060693 -0.016401 -1204280.000000 0 0 1
-28.167111 -24.956182 8.497429 38.579832 0.725029 1.348720 0.063985 -0.016485 -905556.000000 0 0 1
-27.539911 -25.845592 9.345129 38.907233 0.753671 1.328235 0.065468 -0.018819 -218545.000000 0 0 1
-28.061191 -25.948752 10.683129 39.684977 0.746306 1.298236 0.054216 -0.019650 122865.000000 0 0 1
-27.198401 -26.987682 11.452329 39.990547 0.781509 1.280354 0.034733 -0.007256 336152.000000 0 0 1
-25.994391 -26.517762 12.021529 39.030978 0.795365 1.257707 0.062079 -0.004148 -198198.000000 0 0 1
-26.072651 -25.789322 13.199629 38.975665 0.779935 1.225300 0.062272 -0.004171 -761343.000000 0 0 1
-24.730611 -25.378712 13.811029 38.031917 0.798331 1.199157 0.059449 -0.009935 91982.100000 0 0 1
-24.082911 -26.440782 14.556329 38.613318 0.832033 1.184266 0.050080 -0.011990 379286.000000 0 0 1
-22.832311 -26.097042 15.137529 37.835365 0.852023 1.159182 0.069899 -0.016461 231478.000000 0 0 1
-22.200511 -27.431632 15.673529 38.613685 0.890408 1.152826 0.071412 -0.019746 -355014.000000 0 0 1
-22.954611 -28.001902 16.701429 39.874283 0.884127 1.138615 0.078683 -0.013447 291020.000000 0 0 1
-22.276511 -29.143212 17.216729 40.521421 0.918155 1.131967 0.083616 -0.011745 467515.000000 0 0 1
-23.219011 -30.074662 18.082629 42.078371 0.913335 1.126595 0.101923 -0.027492 377909.000000 0 0 1
-24.277311 -30.661592 17.354729 42.786770 0.901086 1.153151 0.087740 -0.024997 464374.000000 0 0 1
-25.057471 -31.545932 18.159129 44.190233 0.899530 1.147321 0.093158 -0.023041 98949.400000 0 0 1
-26.054291 -32.365932 17.321829 45.015835 0.893019 1.175812 0.076961 -0.030605 40288.500000 0 0 1
-25.367571 -33.359472 16.547729 45.057690 0.920653 1.194739 0.081181 -0.034127 369065.000000 0 0 1
-26.220231 33.440780 15.943229 45.386924 -0.905839 1.211865 0.075265 -0.039022 -569702.000000 0 0 1
-25.545491 32.611639 14.812429 43.994308 -0.906307 1.227397 0.078799 -0.041954 1054840.000000 0 0 1
-24.351211 31.850067 15.134129 42.853823 -0.918043 1.209853 0.071244 -0.041658 972814.000000 0 0 1
-23.188011 32.637755 15.111129 42.793144 -0.953081 1.209892 0.074778 -0.041679 -703262.000000 0 0 1
-21.864511 31.856921 15.000229 41.447885 -0.969301 1.200485 0.076802 -0.044611 -142448.000000 0 0 1
-21.692711 31.158965 13.765129 40.384819 -0.962629 1.222976 0.051827 -0.026613 -106837.000000 0 0 1
-20.602911 30.263145 13.827829 39.134981 -0.973078 1.209661 0.053583 -0.027291 -100761.000000 0 0 1
-20.450911 29.349245 12.599829 37.925897 -0.962213 1.232138 0.048120 -0.026972 -362313.000000 0 0 1
-20.190811 30.145475 11.452629 38.047092 -0.980642 1.265043 0.030521 -0.017885 -75034.000000 0 0 1
-20.523411 29.527655 10.232729 37.387184 -0.963395 1.293562 0.047536 -0.028403 65884.600000 0 0 1
-19.999811 30.312005 8.972029 37.407317 -0.987564 1.328588 0.032448 -0.018614 281834.000000 0 0 1
-18.612811 30.114175 8.758629 36.469355 -1.017192 1.328261 0.034746 -0.028990 -265342.000000 0 0 1
-18.183511 30.774605 7.604729 36.545154 -1.037124 1.361173 0.059558 -0.029686 172908.000000 0 0 1
-17.566211 29.873105 6.474329 35.254661 -1.039227 1.386103 0.073121 -0.035930 -182542.000000 0 0 1
-18.479911 28.885355 6.027929 34.816760 -1.001648 1.396787 0.052750 -0.025160 48725.700000 0 0 1
-18.462511 27.693215 6.805929 33.972035 -0.982785 1.369092 0.035107 -0.025468 -58108.500000 0 0 1
-19.560511 26.660425 6.442529 33.688248 -0.937815 1.378371 0.040835 -0.019092 128619.000000 0 0 1
-19.364511 26.040645 5.181129 32.862495 -0.931387 1.412475 0.055321 -0.030918 -238461.000000 0 0 1
-20.532611 25.436455 4.729229 33.029789 -0.891673 1.427122 0.062048 -0.030206 -872276.000000 0 0 1
-20.372111 24.715045 3.362629 32.205025 -0.881425 1.466192 0.082374 -0.043706 -1147320.000000 0 0 1
-20.235711 25.452545 2.119229 32.585383 -0.899089 1.505714 0.094854 -0.047515 127405.000000 0 0 1
-19.130911 26.304725 1.897329 32.581132 -0.941995 1.512529 0.103640 -0.045127 -63519.200000 0 0 1
-17.714211 25.694175 2.107429 31.279788 -0.967203 1.503372 0.099868 -0.049616 -833021.000000 0 0 1
-17.359411 24.518685 1.407729 30.074853 -0.954716 1.523972 0.147560 -0.058575 150974.000000 0 0 1
-17.110311 24.707055 0.049329 30.053348 -0.965103 1.569155 0.140205 -0.057985 -370393.000000 0 0 1
-16.658811 23.414595 -0.733171 28.745378 -0.952413 1.596305 0.141224 -0.060815 -198128.000000 0 0 1
-17.663611 22.445215 -0.886471 28.575805 -0.904054 1.601823 0.147741 -0.073296 -14677.700000 0 0 1
-17.322711 21.387915 -1.813471 27.582746 -0.890030 1.636590 0.148275 -0.065004 -635157.000000 0 0 1
-16.220911 20.391615 -1.475871 26.098163 -0.898824 1.627377 0.136895 -0.060756 -213774.000000 0 0 1
-16.428711 19.623815 -0.297271 25.594629 -0.873791 1.582411 0.136960 -0.062549 -48939.700000 0 0 1
-15.266711 18.851215 -0.165571 24.258363 -0.890076 1.577622 0.123949 -0.053153 -131393.000000 0 1 0
-15.435611 17.737715 0.884229 23.530119 -0.854683 1.533209 0.089437 -0.046482 256759.000000 0 1 0
-16.172511 16.642215 0.374929 23.208921 -0.799711 1.554641 0.076003 -0.045431 451352.000000 0 1 0
-17.083311 16.053315 1.301829 23.478569 -0.754325 1.515320 0.098591 -0.055816 327738.000000 0 1 0
-17.708611 14.687915 0.894329 23.024543 -0.692426 1.531944 0.093128 -0.052786 -407044.000000 0 1 0
-18.577111 14.906615 -0.183771 23.819110 -0.676214 1.578512 0.128971 -0.058712 -75243.900000 0 1 0
-19.055011 13.638015 -0.559771 23.439331 -0.621197 1.594680 0.115612 -0.051041 474995.000000 0 1 0
-20.300611 13.682115 -1.566871 24.531004 -0.593046 1.634713 0.105613 -0.049256 830865.000000 0 1 0
-21.145211 12.531215 -1.636071 24.633879 -0.534980 1.637261 0.116963 -0.049821 853054.000000 0 1 0
-21.954611 12.233015 -0.518471 25.138027 -0.508351 1.591423 0.133437 -0.054315 -1014830.000000 0 0 1
-23.280311 12.972715 -0.400271 26.653788 -0.508385 1.585814 0.161755 -0.054409 -1061900.000000 0 0 1
-23.317211 14.313315 -0.005371 27.359885 -0.550543 1.570993 0.184947 -0.062411 348224.000000 0 0 1
-24.656311 14.765815 0.142529 28.739925 -0.539585 1.565837 0.161766 -0.055689 272394.000000 0 0 1
-24.786011 16.151415 0.816229 29.595283 -0.577523 1.543213 0.178804 -0.061719 -184105.000000 0 0 1
-24.622911 16.096415 2.225029 29.501408 -0.578984 1.495304 0.185578 -0.062622 -8712.640000 0 0 1
-24.672111 17.316015 2.912729 30.282692 -0.611964 1.474463 0.164527 -0.057230 4425.730000 0 0 1
-26.062481 17.976615 3.034729 31.805993 -0.603814 1.475237 0.160603 -0.059742 -1162540.000000 0 0 1
-26.881861 17.282015 3.973729 32.203928 -0.571359 1.447088 0.163959 -0.059583 712234.000000 0 0 1
-28.180591 17.855515 4.209129 33.625614 -0.564767 1.445291 0.154392 -0.065020 1127550.000000 0 0 1
-29.111011 17.795715 2.939129 34.245830 -0.548691 1.484866 0.146858 -0.065532 -1202310.000000 0 0 1
-30.349461 18.429315 3.131529 35.644577 -0.545724 1.482829 0.129584 -0.061180 202392.000000 0 0 1
-31.150521 18.473815 1.963129 36.269693 -0.535294 1.516644 0.117951 -0.053511 349721.000000 0 0 1
-32.451401 19.313015 2.000329 37.816495 -0.536836 1.517876 0.113514 -0.053935 860456.000000 0 0 1
-33.607831 18.647715 2.586329 38.521587 -0.506569 1.503606 0.116786 -0.046772 923392.000000 0 0 1
-34.720728 19.524915 2.578729 39.917428 -0.512269 1.506150 0.120209 -0.043613 53967.400000 0 0 1
-35.067197 20.270515 3.856029 40.687480 -0.524122 1.475882 0.097586 -0.042406 -138832.000000 0 0 1
-34.028931 21.154015 4.274129 40.295517 -0.556185 1.464527 0.110709 -0.052746 597114.000000 0 0 1
-34.440613 21.821615 5.444229 41.133664 -0.564761 1.438052 0.095650 -0.044948 80748.300000 0 0 1
-33.297231 22.652115 6.072429 40.727120 -0.597382 1.421138 0.112441 -0.050503 -113894.000000 0 0 1
-33.215191 23.916585 5.451229 41.291256 -0.624056 1.438391 0.088908 -0.039685 1265770.000000 0 0 1
-32.054521 24.666465 5.905729 40.875475 -0.655875 1.425808 0.088151 -0.044347 711445.000000 0 0 1
-32.270151 26.144315 5.641329 41.913154 -0.680912 1.435791 0.081246 -0.036322 -138574.000000 0 0 1
-33.269911 26.556735 6.555029 43.071052 -0.673655 1.418012 0.088595 -0.024150 324793.000000 0 0 1
-33.787351 27.879485 6.329129 44.259560 -0.689887 1.427304 0.080699 -0.017650 358389.000000 0 0 1
-34.803380 28.416015 7.379229 45.532386 -0.684705 1.408013 0.079466 -0.019698 -511303.000000 0 0 1
-34.172146 28.674905 8.604329 45.431489 -0.698150 1.380254 0.091107 -0.028676 -214198.000000 0 0 1
-34.902793 29.163365 9.705029 46.506929 -0.696051 1.360572 0.095252 -0.022454 -697353.000000 0 0 1
-36.176931 28.415965 10.132129 47.105174 -0.665819 1.354006 0.088290 -0.017571 -274279.000000 0 0 1
-35.842224 27.158735 10.626029 46.207947 -0.648430 1.338759 0.107591 -0.029503 -151604.000000 0 0 1
-36.869321 26.598145 11.392929 46.867974 -0.624955 1.325251 0.096559 -0.026298 -326645.000000 0 0 1
-36.488191 25.253485 12.071729 45.987533 -0.605404 1.305184 0.114418 -0.030587 410409.000000 0 0 1
-35.468854 25.453055 13.062829 45.569015 -0.622452 1.280057 0.138583 -0.042910 318846.000000 0 0 1
-34.964039 24.253685 13.642429 44.686029 -0.606468 1.260548 0.139153 -0.039369 -273612.000000 0 0 1
-33.789391 24.558605 14.574129 44.240855 -0.628496 1.235100 0.141422 -0.036981 -533849.000000 0 0 1
-33.999101 25.591405 15.542429 45.303708 -0.645232 1.220611 0.136240 -0.037079 -467520.000000 0 0 1
-32.840851 26.048025 16.188329 44.934209 -0.670556 1.202242 0.154372 -0.031916 -339362.000000 0 0 1
-33.068411 27.220065 17.132529 46.129983 -0.688695 1.190283 0.141577 -0.034728 -230831.000000 0 0 1
-33.213211 28.457945 16.526629 46.755764 -0.708444 1.209521 0.153071 -0.036044 70574.100000 0 0 1
-33.297241 29.528665 17.432629 47.796913 -0.725486 1.197461 0.128256 -0.033554 -28578.800000 0 0 1
-32.995441 30.921665 16.750929 48.222838 -0.752965 1.216037 0.107650 -0.027905 -231773.000000 0 0 1
-31.659061 31.198385 16.456829 47.396863 -0.778069 1.216198 0.096868 -0.021867 -606906.000000 0 0 1
-31.580871 32.328781 15.661029 47.830632 -0.797100 1.237217 0.083791 -0.016287 1291360.000000 0 0 1
-30.139471 32.663203 15.003729 46.908255 -0.825562 1.245222 0.102064 -0.025734 1651530.000000 0 0 1
-29.899941 31.876887 13.805629 45.833806 -0.817389 1.264834 0.095497 -0.023629 115015.000000 0 0 1
-29.390131 30.548285 14.022029 44.649690 -0.804718 1.251345 0.105442 -0.028089 -257070.000000 0 0 1
-30.403021 29.401095 13.813729 44.492552 -0.768646 1.255106 0.124595 -0.025141 177872.000000 0 0 1
-30.769921 29.406725 12.400829 44.331976 -0.762749 1.287287 0.124658 -0.027309 362662.000000 0 0 1
-31.705981 28.359665 12.071029 44.218204 -0.729745 1.294299 0.134356 -0.030106 500454.000000 0 0 1
-31.693371 27.944025 10.568429 43.554908 -0.722612 1.325704 0.116802 -0.026866 -317753.000000 0 0 1
-30.507181 27.338475 10.109929 42.193494 -0.730674 1.328834 0.088449 -0.017597 -314649.000000 0 0 1
-30.481871 27.386915 8.683729 41.887883 -0.731967 1.361973 0.086645 -0.022857 7117.660000 0 0 1
-29.358691 26.592165 7.994829 40.410311 -0.735993 1.371641 0.090645 -0.028105 -80535.200000 0 0 1
-29.230731 26.751995 6.605929 40.171422 -0.741150 1.405603 0.090154 -0.039702 134691.000000 0 0 1
-28.171421 25.869355 6.162329 38.740506 -0.742825 1.411051 0.087683 -0.037809 628723.000000 0 0 1
-27.679251 26.161895 4.719429 38.377841 -0.757224 1.447511 0.072029 -0.033267 -306285.000000 0 0 1
-27.188971 27.483565 4.708429 38.945549 -0.790786 1.449602 0.047955 -0.017030 7752.390000 0 0 1
-26.866171 27.884545 3.391829 38.869570 -0.803996 1.483423 0.037576 -0.017099 -24540.200000 0 0 1
-25.844221 29.040825 3.186229 39.005709 -0.843574 1.489019 0.036234 -0.013063 26265.200000 0 0 1
-24.561811 28.653155 3.638029 37.914655 -0.862131 1.474695 0.037294 -0.016986 -295166.000000 0 0 1
-23.645011 29.528395 2.980829 37.945988 -0.895595 1.492161 0.035705 -0.009460 134774.000000 0 0 1
-22.169511 29.257055 3.330329 36.858562 -0.922354 1.480319 0.035479 -0.016051 -124698.000000 0 0 1
-21.242311 30.196405 2.869429 37.030964 -0.957744 1.493231 0.044514 -0.019848 -1479910.000000 0 0 1
-19.984811 29.644455 2.963429 35.874340 -0.977631 1.488096 0.065031 -0.030987 -920067.000000 0 0 1
-18.886511 30.663535 2.603729 36.107230 -1.018748 1.498623 0.069862 -0.031092 -103300.000000 0 0 1
-18.808811 31.796531 3.405129 37.099672 -1.036623 1.478884 0.074592 -0.030132 352098.000000 0 0 1
-17.699611 32.605728 3.009129 37.221829 -1.073469 1.489865 0.099214 -0.031524 207262.000000 0 0 1
-17.490311 33.812855 3.891129 38.266970 -1.093430 1.468937 0.095617 -0.031998 -411351.000000 0 0 1
-18.381811 -32.879842 3.748729 37.855356 1.061024 1.471606 0.093891 -0.028500 -313831.000000 0 0 1
-18.162811 -31.892512 4.709729 37.002724 1.053105 1.443170 0.068343 -0.033358 -549466.000000 0 0 1
-19.254111 -30.850232 4.871929 36.690507 1.012833 1.437619 0.076132 -0.016935 -361930.000000 0 0 1
-19.306811 -29.901462 3.804629 35.795609 0.997463 1.464308 0.096420 -0.017975 -32196.500000 0 0 1
-20.313011 -28.940482 3.990929 35.582263 0.958804 1.458399 0.092441 -0.020200 -69427.500000 0 0 1
-20.551811 -28.050302 2.733829 34.880800 0.938474 1.492340 0.095937 -0.026462 -27354.500000 0 0 1
-19.500911 -27.134622 2.580029 33.514621 0.947648 1.493738 0.101219 -0.025783 -147175.000000 0 0 1
-19.735611 -26.174502 1.553629 32.817871 0.924739 1.523438 0.091838 -0.026538 -117296.000000 0 0 1
-18.674211 -25.062272 1.583829 31.294603 0.930431 1.520164 0.081703 -0.022430 -4502.730000 0 0 1
-17.422611 -25.536472 1.153129 30.935231 0.972073 1.533512 0.120736 -0.026883 -821156.000000 0 0 1
-16.504911 -24.481482 1.159929 29.548274 0.977611 1.531531 0.108011 -0.022772 142426.000000 0 0 1
-15.211511 -24.798982 0.336929 29.094555 1.020588 1.559216 0.100210 -0.017238 132748.000000 0 0 1
-15.363511 -24.861082 -1.103871 29.246015 1.017265 1.608550 0.088554 -0.012008 101595.000000 0 0 1
-15.181811 -23.564082 -1.594871 28.076627 0.998454 1.627631 0.091698 -0.012255 -147119.000000 0 0 1
-15.285811 -23.556382 -3.134471 28.255691 0.995193 1.681957 0.061059 -0.003180 -56766.300000 0 0 1
-14.154611 -24.110782 -3.756071 28.209766 1.039942 1.704341 0.085045 -0.005150 -259140.000000 0 0 1
-14.308611 -24.146682 -5.188271 28.543244 1.035858 1.753581 0.074331 -0.003724 559155.000000 0 0 1
-13.101311 -24.778182 -5.960771 28.655426 1.084419 1.780342 0.086792 -0.005473 521499.000000 0 0 1
-13.046311 -26.174452 -5.981571 29.851087 1.108400 1.772542 0.065468 -0.004045 -399865.000000 0 0 1
-11.990611 -26.631572 -6.779271 29.982894 1.147742 1.798873 0.069089 -0.001880 -148714.000000 0 0 1
23.958789 12.640418 28.115373 39.042002 0.485475 0.766805 0.081319 -0.006916 -36491.600000 0 0 1
25.144989 12.030218 28.597103 39.934833 0.446246 0.772606 0.073583 -0.009712 418812.000000 0 0 1
24.936789 11.179018 29.716883 40.372107 0.421434 0.743543 0.101661 -0.014941 -106049.000000 0 0 1
24.698389 11.947018 31.040903 41.428002 0.450536 0.723832 0.130821 -0.043108 -805370.000000 0 0 1
23.500289 12.576118 31.280753 41.096324 0.491369 0.705701 0.130394 -0.037598 -756243.000000 0 0 1
23.540789 13.103518 32.583717 42.279659 0.507919 0.690902 0.124711 -0.034105 -65088.000000 0 0 1
22.306289 13.951218 32.924131 42.145052 0.558915 0.674195 0.107220 -0.037711 -815458.000000 0 0 1
21.086789 13.323318 33.041050 41.398967 0.563497 0.646640 0.121159 -0.031262 -863205.000000 0 0 1
20.223089 14.090018 33.833183 41.859123 0.608527 0.629600 0.122808 -0.026552 -961238.000000 0 0 1
19.023489 13.337118 -33.454591 40.730596 0.611455 2.534592 0.115070 -0.014018 -1361390.000000 0 0 1
17.948589 13.220718 33.446750 40.194829 0.634862 0.587885 0.086779 -0.006172 -260109.000000 0 0 1
17.041989 12.331018 -33.666321 39.697664 0.626368 2.583125 0.072111 -0.006348 -278353.000000 0 0 1
15.657689 12.250818 33.473619 38.932364 0.663926 0.535940 0.066139 0.000687 -341669.000000 0 0 1
15.567489 11.348818 32.435006 37.724952 0.629930 0.535966 0.059804 0.011655 -1074760.000000 0 0 1
14.287389 10.930118 32.145642 36.836656 0.653044 0.510186 0.069199 0.009426 -1080850.000000 0 0 1
14.253789 9.864518 31.053703 35.564191 0.605379 0.509121 0.073585 0.011061 -139954.000000 0 0 1
14.683189 8.620018 31.574093 35.872331 0.530856 0.494556 0.052356 0.005809 53723.200000 0 0 1
14.863489 7.643118 30.549513 34.822598 0.474960 0.500610 0.064948 -0.016832 37303.800000 0 0 1
15.481589 6.332918 31.015253 35.238209 0.388293 0.494598 0.104956 -0.022609 490422.000000 0 0 1
14.497189 5.277518 31.050673 34.672251 0.349125 0.461135 0.104239 -0.016889 433980.000000 0 0 1
14.991889 4.180718 31.723903 35.336117 0.271956 0.456103 0.098194 -0.022393 128258.000000 0 0 1
13.998689 2.984118 31.763306 34.839286 0.210028 0.423370 0.079666 -0.017826 -34330.900000 0 0 1
14.594289 1.909018 32.379215 35.567558 0.130067 0.426648 0.068518 -0.026065 -204889.000000 0 0 1
13.622889 1.040518 32.901905 35.625849 0.076232 0.393585 0.079628 -0.030114 -243851.000000 0 0 1
14.173889 -0.325582 33.426897 36.309263 -0.022967 0.401141 0.073333 -0.039705 -117369.000000 0 0 1
14.371289 -1.231382 32.343409 35.413929 -0.085475 0.419491 0.059988 -0.035259 273374.000000 0 0 1
15.068489 -2.404182 32.774565 36.152615 -0.158217 0.435732 0.109315 -0.046825 -189254.000000 0 0 1
15.312489 -3.531982 31.749329 35.425515 -0.226695 0.459605 0.118497 -0.047908 -911981.000000 0 0 1
15.672989 -4.832482 32.323287 36.246246 -0.299083 0.469556 0.127159 -0.052729 -68112.400000 0 0 1
16.924789 -4.933782 32.947837 37.367776 -0.283652 0.491305 0.091385 -0.046670 260309.000000 0 0 1
18.215089 -4.661182 32.100008 37.201164 -0.250521 0.529863 0.100204 -0.048478 -191611.000000 0 0 1
18.423389 -3.257782 31.904650 36.985688 -0.175019 0.530367 0.107514 -0.048662 -217373.000000 0 0 1
19.612789 -2.998382 31.204053 36.977625 -0.151704 0.566354 0.118468 -0.051213 -111035.000000 0 0 1
19.753089 -1.465082 30.838613 36.651754 -0.074034 0.570936 0.122661 -0.051396 -150700.000000 0 0 1
20.137389 -0.707782 31.931262 37.757395 -0.035133 0.562929 0.102644 -0.041167 8802.490000 0 0 1
19.787489 0.666118 31.742514 37.410903 0.033651 0.557684 0.097598 -0.034460 546991.000000 0 0 1
20.931789 1.666918 31.299163 37.690264 0.079468 0.590916 0.125798 -0.035190 323464.000000 0 0 1
21.331489 1.641918 29.939643 36.798241 0.076820 0.620451 0.140917 -0.038708 149854.000000 0 0 1
22.372589 2.574118 29.765653 37.324964 0.114553 0.647701 0.117659 -0.034696 356361.000000 0 0 1
21.698689 4.003518 29.576813 36.900530 0.182453 0.640950 0.111954 -0.022675 641608.000000 0 0 1
20.989689 4.538618 30.723833 37.484931 0.212952 0.610029 0.118314 -0.024296 486343.000000 0 0 1
20.273289 5.714718 30.522613 37.084959 0.274755 0.604044 0.120977 -0.025291 -26727.000000 0 0 1
19.707189 6.353718 31.828983 37.971400 0.311884 0.576757 0.125294 -0.024191 326608.000000 0 0 1
18.782089 5.502318 32.510275 37.946810 0.284982 0.541895 0.096321 -0.015278 376246.000000 0 0 1
18.519089 5.948618 33.837793 39.029975 0.310805 0.521708 0.079368 -0.014419 -190237.000000 0 0 1
17.556089 5.070518 -33.147561 37.850855 0.281167 2.637766 0.076368 -0.007188 -239014.000000 0 0 1
18.073089 3.778918 -32.895311 37.722914 0.206121 2.630120 0.060300 -0.007581 -45327.400000 0 0 1
17.029289 2.843918 -32.670611 36.952041 0.165474 2.655437 0.045967 -0.004820 89406.700000 0 0 1
17.394389 1.406418 -33.145691 37.459039 0.080679 2.656972 0.069675 -0.030979 -61890.100000 0 0 1
18.271589 0.779818 -32.233221 37.059946 0.042653 2.625510 0.055076 -0.026832 -40404.600000 0 0 1
18.552989 -0.559582 -32.551991 37.472105 -0.030152 2.623367 0.078460 -0.029627 -175441.000000 0 0 1
19.462489 -1.104782 -31.425081 36.980329 -0.056704 2.586361 0.089485 -0.030474 -154994.000000 0 0 1
18.916189 -1.250182 -30.111561 35.582176 -0.065995 2.579711 0.094505 -0.037528 180860.000000 0 0 1
18.812989 -0.031482 -29.407031 34.909927 -0.001673 2.572460 0.074027 -0.030360 -36453.500000 0 0 1
18.295789 -0.315682 -27.972161 33.425699 -0.017253 2.562292 0.084927 -0.031294 218406.000000 0 0 1
17.007389 -0.868682 -27.758031 32.565536 -0.051032 2.591306 0.108182 -0.035045 194652.000000 0 0 1
16.748089 -1.112982 -26.372581 31.261002 -0.066357 2.574797 0.104260 -0.036667 -279345.000000 0 0 1
17.578389 -2.175482 -25.653081 31.173916 -0.123133 2.537296 0.112124 -0.033072 297640.000000 0 0 1
18.883089 -1.737982 -25.245541 31.574182 -0.091781 2.497363 0.117745 -0.026429 838593.000000 0 0 1
19.891089 -2.738182 -25.105101 32.146837 -0.136799 2.466983 0.104541 -0.023606 405123.000000 0 0 1
20.719289 -3.192582 -26.296191 33.629915 -0.152885 2.468550 0.111029 -0.035079 -594536.000000 0 0 1
21.706789 -2.215682 -26.538881 34.357039 -0.101721 2.453476 0.105043 -0.022130 -481678.000000 0 0 1
22.265589 -2.334682 -27.816881 35.706947 -0.104474 2.463918 0.102589 -0.030242 29951.400000 0 0 1
23.727389 -1.899182 -27.998841 36.749571 -0.079871 2.437010 0.082695 -0.027951 -248909.000000 0 0 1
24.679089 -2.907982 -27.886021 37.351626 -0.117291 2.413705 0.081997 -0.028422 -781238.000000 0 0 1
25.938989 -2.427882 -28.277221 38.449018 -0.093328 2.397123 0.065598 -0.029822 12538.700000 0 0 1
27.083589 -3.347982 -27.763091 38.929667 -0.122993 2.364792 0.071421 -0.031532 -83020.000000 0 0 1
27.264189 -4.530182 -28.514271 39.710480 -0.164654 2.371799 0.090110 -0.040264 -212196.000000 0 0 1
28.399089 -5.263482 -28.168951 40.344793 -0.183260 2.343684 0.085957 -0.043716 -415684.000000 0 0 1
28.221089 -6.378182 -27.153241 39.678830 -0.222273 2.324475 0.076458 -0.032250 -254485.000000 0 0 1
28.072689 -5.835082 -25.859881 38.611624 -0.204938 2.304660 0.064579 -0.024470 352280.000000 0 0 1
27.936489 -6.897682 -24.960771 38.092854 -0.242064 2.285325 0.053887 -0.019399 -353298.000000 0 0 1
27.998789 -6.444382 -23.464571 37.095126 -0.226226 2.255639 0.036481 -0.014822 216483.000000 0 0 1
29.339589 -6.116282 -23.100271 37.839700 -0.205522 2.227459 0.044280 -0.016395 838526.000000 0 0 1
29.338889 -5.553982 -21.854071 37.002940 -0.187091 2.202603 0.049279 -0.026029 1002160.000000 0 0 1
30.823389 -5.151282 -21.463071 37.911482 -0.165592 2.172608 0.049151 -0.024583 629839.000000 0 0 1
31.270589 -4.103482 -22.197071 38.566803 -0.130479 2.184071 0.063467 -0.030342 -804348.000000 0 0 1
32.569489 -3.860882 -21.768771 39.364418 -0.117992 2.156764 0.080002 -0.027402 -399384.000000 0 0 1
33.339489 -2.731382 -22.492171 40.309797 -0.081744 2.162749 0.098282 -0.032604 78988.000000 0 0 1
32.738789 -1.503982 -22.232671 39.602802 -0.045907 2.166862 0.083743 -0.031429 175177.000000 0 0 1
33.357489 -0.498982 -22.975571 40.507381 -0.014958 2.173892 0.097716 -0.034514 124884.000000 0 0 1
32.545289 0.788818 -22.666571 39.668520 0.024233 2.179006 0.087281 -0.024041 236930.000000 0 0 1
31.315689 0.807418 -23.362071 39.078263 0.025777 2.211585 0.068301 -0.022700 498122.000000 0 0 1
30.376789 1.645118 -22.659071 37.932693 0.054104 2.210988 0.055798 -0.012825 775679.000000 0 0 1
29.009789 1.736718 -23.416371 37.321716 0.059795 2.249031 0.049670 -0.012941 333870.000000 0 0 1
28.098589 2.727218 -22.973571 36.397162 0.096756 2.253884 0.042403 -0.011831 -4111.840000 0 0 1
27.130589 2.894018 -23.991071 36.332020 0.106268 2.292053 0.077641 -0.015486 -293038.000000 0 0 1
26.077489 3.921818 -23.515171 35.332412 0.149272 2.299015 0.080705 -0.011367 -335843.000000 0 0 1
26.525789 5.221218 -23.387771 35.747258 0.194351 2.283992 0.054304 -0.001173 829458.000000 0 0 1
25.374489 6.059918 -23.147371 34.876755 0.234428 2.296538 0.076638 -0.002811 670380.000000 0 0 1
25.760289 7.446918 -22.630671 35.088407 0.281413 2.271769 0.072596 0.005150 -67430.500000 0 0 1
26.638789 8.135118 -23.509671 36.448729 0.296391 2.271828 0.068838 0.001872 335294.000000 0 0 1
26.918189 9.450318 -23.029171 36.663880 0.337633 2.249926 0.078930 0.002128 184806.000000 0 0 1
27.946089 10.216018 -23.939871 38.189898 0.350470 2.248318 0.109252 0.001614 -204535.000000 0 0 1
27.551489 10.509318 -25.271061 38.834995 0.364407 2.279341 0.139830 -0.011877 270850.000000 0 0 1
26.403289 11.329118 -25.419571 38.361923 0.405321 2.295115 0.144517 -0.015902 218280.000000 0 0 1
26.074589 11.678818 -26.888441 39.233496 0.421106 2.325872 0.153881 -0.021158 -252744.000000 0 0 1
25.629589 10.622918 -27.724141 39.221808 0.392925 2.355839 0.146587 -0.020380 731387.000000 0 0 1
26.637789 9.692818 -28.193561 39.979987 0.348981 2.353490 0.133681 -0.033751 495397.000000 0 0 1
27.525089 10.209318 -29.384101 41.536563 0.355180 2.356648 0.132298 -0.035016 -1111210.000000 0 0 1
28.533289 11.071818 -28.823411 42.041916 0.370146 2.326207 0.124510 -0.036816 1169200.000000 0 0 1
29.544089 11.499718 -29.772391 43.491286 0.371196 2.324796 0.132167 -0.040838 921016.000000 0 0 1
30.393289 10.341018 -30.379801 44.199785 0.327954 2.328602 0.102259 -0.042229 -1442670.000000 0 0 1
29.670589 9.522018 -31.303541 44.169269 0.310541 2.358475 0.100690 -0.046464 -147652.000000 0 0 1
30.300289 8.335418 -31.641191 44.595422 0.268453 2.359608 0.089039 -0.043944 -697822.000000 0 0 1
29.340689 7.427118 -32.426381 44.356604 0.247926 2.390639 0.096830 -0.046549 -63199.300000 0 0 1
28.253689 7.008718 -31.624861 42.982844 0.243156 2.397578 0.118425 -0.047422 35063.900000 0 0 1
27.320989 6.323418 -32.470201 42.903799 0.227444 2.429221 0.095979 -0.035598 88172.100000 0 0 1
25.932289 6.193118 -31.804231 41.501174 0.234428 2.443929 0.113103 -0.032644 -478702.000000 0 0 1
25.277689 7.437618 -31.773071 41.277206 0.286161 2.449244 0.117597 -0.031506 344741.000000 0 0 1
24.260489 7.525518 -30.738261 39.875374 0.300785 2.450984 0.124853 -0.031878 45786.400000 0 0 1
22.866389 7.347418 -31.307011 39.458652 0.310899 2.487192 0.140854 -0.035112 -951069.000000 0 0 1
22.386489 8.448018 -32.033581 39.983424 0.360848 2.500047 0.147437 -0.029509 537170.000000 0 0 1
20.977289 8.403818 -32.273121 39.398288 0.381036 2.530724 0.125068 -0.018049 659349.000000 0 0 1
20.546889 9.459818 -33.282951 40.241988 0.431470 2.544672 0.133037 -0.016445 -99832.000000 0 0 1
21.149589 9.093118 33.261874 40.451726 0.406050 0.605424 0.129331 -0.022911 221527.000000 0 0 1
21.262489 10.135318 32.310547 39.984867 0.444815 0.629929 0.122078 -0.021126 167210.000000 0 0 1
20.043389 10.318818 31.351513 38.615189 0.475436 0.623404 0.105495 -0.019112 373509.000000 0 0 1
19.947189 9.333218 30.344563 37.493890 0.437636 0.627802 0.101557 -0.019031 706437.000000 0 0 1
21.000889 9.400018 29.347833 37.291996 0.420857 0.664907 0.127491 -0.022961 291336.000000 0 0 1
20.487189 10.178918 28.121073 36.250931 0.461119 0.682919 0.123231 -0.020104 459420.000000 0 0 1
19.387389 9.543518 27.474563 34.954273 0.457432 0.666461 0.100725 -0.014027 600617.000000 0 0 1
18.139089 10.099418 27.892223 34.770690 0.508031 0.639865 0.089342 -0.026690 476622.000000 0 0 1
16.923489 9.337118 27.242383 33.402600 0.504167 0.617071 0.115895 -0.026461 84541.900000 0 0 1
16.714489 9.716718 25.924923 32.340229 0.526582 0.640778 0.115600 -0.023007 -451603.000000 0 0 1
15.544989 9.309318 25.297093 31.116764 0.539583 0.621556 0.124140 -0.030355 -513514.000000 0 0 1
15.352189 7.831918 24.956273 30.328934 0.471735 0.604382 0.130010 -0.033239 -229051.000000 0 0 1
15.285589 7.023018 26.131313 31.077605 0.430688 0.571962 0.119548 -0.032122 54602.100000 0 0 1
15.104089 5.673918 25.867633 30.487068 0.359344 0.557692 0.127141 -0.035982 -45626.200000 0 0 1
15.438689 4.823118 27.110473 31.568867 0.302798 0.537927 0.123408 -0.034334 -461372.000000 0 0 1
16.782189 4.483618 27.246263 32.312591 0.261068 0.567572 0.129658 -0.033521 -551627.000000 0 0 1
17.177789 4.207118 28.556433 33.589376 0.240188 0.554502 0.128217 -0.034178 -125191.000000 0 0 1
18.004689 2.887218 28.660233 33.969307 0.159005 0.566639 0.144724 -0.038044 329196.000000 0 0 1
17.262689 1.714718 28.247663 33.149226 0.099006 0.550742 0.140941 -0.044153 458414.000000 0 0 1
16.337689 1.257118 29.216233 33.497593 0.076795 0.511137 0.117052 -0.042126 88151.200000 0 0 1
16.065289 -0.315282 29.346483 33.457570 -0.019623 0.500953 0.118167 -0.040978 -157760.000000 0 0 1
15.290989 -0.821582 28.261033 32.143045 -0.053678 0.496559 0.123047 -0.044494 677817.000000 0 0 1
16.049389 -1.247782 27.098673 31.519485 -0.077590 0.536029 0.151802 -0.042483 -206190.000000 0 0 1
17.274089 -2.190882 27.070063 32.186681 -0.126157 0.571606 0.138299 -0.032622 562113.000000 0 0 1
18.522089 -1.809282 27.638883 33.320401 -0.097373 0.592605 0.141295 -0.041704 942151.000000 0 0 1
19.163889 -0.583882 27.113843 33.207771 -0.030458 0.615490 0.140884 -0.038560 -1179420.000000 0 0 1
20.621989 -0.481782 27.517793 34.390805 -0.023358 0.643252 0.131575 -0.032325 -574494.000000 0 0 1
21.475489 -1.203082 26.652153 34.248815 -0.055963 0.679015 0.111705 -0.028407 86168.600000 0 0 1
22.836389 -1.043582 27.044873 35.412073 -0.045666 0.701742 0.096116 -0.025008 608367.000000 0 0 1
23.835589 -1.689982 26.051773 35.350901 -0.070783 0.742252 0.082907 -0.015787 -182394.000000 0 0 1
23.910789 -1.152482 24.759063 34.439298 -0.048162 0.768551 0.090180 0.000925 -88247.500000 0 0 1
22.861489 -1.428682 23.874853 33.086212 -0.062412 0.764693 0.107505 0.006166 -573803.000000 0 0 1
23.242189 -1.007982 22.445573 32.326756 -0.043341 0.803302 0.100583 -0.016544 140361.000000 0 0 1
22.947689 0.423418 22.307573 32.006305 0.018449 0.799627 0.106954 -0.019393 170989.000000 0 0 1
23.093989 0.694418 20.960873 31.195717 0.030060 0.834005 0.073745 -0.014050 -356184.000000 0 0 1
-31.660641 -27.172380 -9.852371 42.869612 0.709258 1.802691 0.041728 0.018847 44052.500000 0 0 1
-31.213621 -26.104180 -9.048071 41.684360 0.696491 1.789600 0.053603 0.015671 -206208.000000 0 0 1
-31.549161 -26.268180 -7.703771 41.769785 0.694312 1.756292 0.060579 0.005228 -355604.000000 0 0 1
-31.684551 -25.037380 -6.762771 40.945283 0.668742 1.736723 0.093997 -0.007491 -332989.000000 0 0 1
-30.511821 -24.393580 -6.422971 39.588793 0.674424 1.733759 0.123069 -0.015830 -1260860.000000 0 0 1
-29.659501 -25.064280 -5.544271 39.225541 0.701624 1.712615 0.114357 -0.014060 -295081.000000 0 0 1
-28.373351 -24.287280 -5.176271 37.705607 0.707961 1.708512 0.099436 -0.014420 -286660.000000 0 0 1
-28.490551 -23.183280 -4.245071 36.975621 0.683050 1.685857 0.121048 -0.023454 -203289.000000 0 0 1
-29.364541 -22.179180 -4.646771 37.091572 0.646888 1.696405 0.140751 -0.024627 -296155.000000 0 0 1
-29.404571 -21.052180 -3.610671 36.343638 0.621350 1.670309 0.124146 -0.032648 220621.000000 0 0 1
-28.331461 -20.168080 -3.898971 34.994644 0.618643 1.682444 0.139062 -0.032054 500383.000000 0 0 1
-28.282721 -19.144880 -2.916171 34.277438 0.595061 1.655975 0.151415 -0.027219 -630412.000000 0 0 1
-27.263881 -18.081680 -3.225071 32.873506 0.585606 1.669060 0.141427 -0.021182 -422739.000000 0 0 1
-27.603681 -17.239480 -4.348771 32.834047 0.558265 1.703634 0.130555 -0.024338 -27647.800000 0 0 1
-26.768991 -16.132680 -4.347871 31.555447 0.542375 1.709021 0.115270 -0.024671 -318705.000000 0 0 1
-27.178371 -15.133380 -5.435671 31.578941 0.508062 1.743787 0.116367 -0.035743 -121234.000000 0 0 1
-28.481751 -14.671180 -5.192971 32.456441 0.475661 1.731485 0.097896 -0.024387 -187102.000000 0 0 1
-28.725091 -13.567880 -6.051571 32.339445 0.441272 1.759033 0.130660 -0.043941 -390895.000000 0 0 1
-30.022341 -12.804380 -5.758771 33.142971 0.403136 1.745438 0.115153 -0.038460 -552362.000000 0 0 1
-31.082361 -13.433780 -6.425871 34.465510 0.407953 1.758337 0.118759 -0.031271 -523006.000000 0 0 1
-32.264631 -12.718980 -6.189871 35.229155 0.375503 1.747416 0.098346 -0.031320 -432490.000000 0 0 1
-33.538211 -13.304780 -6.819971 36.719760 0.377663 1.757611 0.068773 -0.024171 -259767.000000 0 0 1
-34.191772 -14.410380 -6.217271 37.621679 0.398866 1.736816 0.072818 -0.027795 327734.000000 0 0 1
-34.390553 -15.429880 -7.224171 38.379421 0.421744 1.760156 0.081853 -0.032476 -493089.000000 0 0 1
-35.164278 -16.645480 -6.600371 39.460909 0.442112 1.738850 0.085032 -0.033620 781292.000000 0 0 1
-36.584051 -16.544280 -6.493471 40.672732 0.424704 1.731134 0.081911 -0.044245 542037.000000 0 0 1
-36.990761 -15.656680 -5.443771 40.534956 0.400395 1.705502 0.088602 -0.042658 -540806.000000 0 0 1
36.286179 -15.755380 -5.247171 39.905534 -0.409635 1.702668 0.128117 -0.046240 146819.000000 0 0 1
35.498909 -15.178980 -6.310471 39.120277 -0.404062 1.732814 0.141388 -0.052625 735315.000000 0 0 1
34.098249 -15.381780 -6.420871 37.954148 -0.423770 1.740788 0.154328 -0.057069 493505.000000 0 0 1
33.298669 -14.434880 -5.516571 36.709668 -0.409046 1.721643 0.167791 -0.063712 -735893.000000 0 0 1
33.328119 -14.854180 -4.166771 36.725634 -0.419268 1.684498 0.162209 -0.064466 389179.000000 0 0 1
32.813069 -13.863880 -3.267771 35.771260 -0.399760 1.662276 0.182511 -0.049088 -738641.000000 0 0 1
32.840549 -14.435180 -1.812271 35.918803 -0.414133 1.621272 0.176894 -0.053905 592737.000000 0 0 1
34.104049 -14.789580 -1.221771 37.192883 -0.409183 1.603652 0.202588 -0.046896 845675.000000 0 0 1
34.905309 -15.821280 -1.838771 38.367624 -0.425564 1.618740 0.168663 -0.045932 -602943.000000 0 0 1
34.445039 -17.248980 -1.942771 38.571523 -0.464262 1.621186 0.157790 -0.045230 -1046430.000000 0 0 1
34.459179 -18.046980 -0.732671 38.905852 -0.482443 1.589629 0.155969 -0.047943 259337.000000 0 0 1
34.470899 -19.451180 -0.990071 39.592569 -0.513739 1.595805 0.134496 -0.042034 -210262.000000 0 0 1
35.719869 -20.050780 -1.672871 40.996846 -0.511503 1.611613 0.108098 -0.051255 -206217.000000 0 0 1
35.839869 -19.615980 -3.034171 40.969368 -0.500786 1.644924 0.082492 -0.047864 -632887.000000 0 0 1
36.884119 -20.113980 -3.785271 42.182209 -0.499250 1.660653 0.087552 -0.036771 -627074.000000 0 0 1
36.979099 -19.409080 -5.147971 42.079303 -0.483342 1.693443 0.115862 -0.040664 -557246.000000 0 0 1
35.807489 -19.647880 -5.856671 41.261557 -0.501851 1.713217 0.099672 -0.047030 -298325.000000 0 0 1
35.806849 -19.074680 -7.144171 41.194818 -0.489472 1.745102 0.108276 -0.050955 -630378.000000 0 0 1
34.484469 -19.280880 -7.860371 40.282954 -0.509816 1.767185 0.126265 -0.054091 -471971.000000 0 0 1
34.484829 -20.467380 -8.581071 41.009168 -0.535640 1.781602 0.136141 -0.055232 -104716.000000 0 0 1
33.336289 -20.502480 -9.382071 40.245287 -0.551390 1.806083 0.129445 -0.051181 -330583.000000 0 0 1
33.285149 -21.858480 -10.189171 41.103692 -0.581073 1.821297 0.116734 -0.035225 -128111.000000 0 0 1
33.036829 -22.921980 -9.309671 41.273711 -0.606574 1.798313 0.102651 -0.030403 -51121.500000 0 0 1
32.884309 -24.152680 -9.972771 42.002213 -0.633490 1.810520 0.083263 -0.015318 20010.100000 0 0 1
32.045649 -25.204580 -9.165371 41.787540 -0.666468 1.791927 0.082035 -0.019432 -422612.000000 0 0 1
30.838539 -24.649380 -8.778471 40.443405 -0.674317 1.789594 0.095442 -0.028839 -1221120.000000 0 0 1
29.895309 -25.595880 -8.397571 40.241742 -0.708073 1.781019 0.069796 -0.029946 207985.000000 0 0 1
28.474539 -24.981780 -8.234171 38.764549 -0.720152 1.784842 0.078749 -0.041279 125328.000000 0 0 1
27.827339 -24.708980 -9.423571 38.388777 -0.726111 1.818808 0.076339 -0.038176 -491143.000000 0 0 1
26.554439 -24.156680 -9.252171 37.071365 -0.738151 1.823040 0.083527 -0.040761 -293703.000000 0 0 1
25.806739 -23.631080 -10.505671 36.534707 -0.741419 1.862467 0.111924 -0.044251 -329274.000000 0 0 1
25.142339 -24.577580 -11.298071 36.930219 -0.774040 1.881712 0.090428 -0.036926 405512.000000 0 0 1
24.243039 -23.974880 -12.209371 36.215861 -0.779837 1.914661 0.101804 -0.020211 -45891.100000 0 0 1
23.383739 -24.831180 -13.115471 36.543157 -0.815410 1.937889 0.107368 -0.032033 -311347.000000 0 0 1
24.119939 -25.702580 -13.929971 37.900372 -0.817153 1.947161 0.108724 -0.027171 -96843.300000 0 0 1
23.607139 -27.008580 -13.820871 38.441864 -0.852499 1.938557 0.102935 -0.008575 -255391.000000 0 0 1
24.433639 -28.160580 -14.434471 39.979682 -0.856142 1.940185 0.085432 -0.015453 -240475.000000 0 0 1
24.257139 -28.299080 -15.808371 40.486434 -0.862154 1.971929 0.092204 -0.009487 274042.000000 0 0 1
24.875439 -29.475880 -16.253371 41.854355 -0.869840 1.969617 0.083982 -0.006373 -182711.000000 0 0 1
24.831839 -29.600680 -17.816671 42.547083 -0.872785 2.002867 0.094311 -0.013197 -229843.000000 0 0 1
23.509039 -29.728380 -18.265471 42.072306 -0.901694 2.019885 0.091995 -0.008966 -83661.800000 0 0 1
23.426739 -29.672780 -19.675171 42.619225 -0.902489 2.050651 0.086308 -0.009480 545354.000000 0 0 1
21.958139 -29.464980 -20.175771 41.921434 -0.930356 2.072906 0.066953 -0.003789 576334.000000 0 0 1
21.917539 -29.549280 -21.558371 42.641550 -0.932610 2.100841 0.053369 -0.005230 240187.000000 0 0 1
20.557939 -29.566580 -21.952771 42.175060 -0.963225 2.118251 0.058207 -0.015473 -58641.600000 0 0 1
20.222639 -29.835380 -23.432271 42.990422 -0.975121 2.147255 0.056591 -0.017809 -393638.000000 0 0 1
20.641439 -28.748380 -24.259571 42.907635 -0.948089 2.171703 0.067387 -0.024192 543147.000000 0 0 1
20.450839 -29.108580 -25.639761 43.851381 -0.958347 2.195303 0.069843 -0.021729 -410195.000000 0 0 1
21.000539 -28.011780 -26.574641 43.953316 -0.927485 2.220073 0.084410 -0.023344 -195354.000000 0 0 1
20.295539 -26.801880 -26.687811 42.924223 -0.922676 2.241762 0.086781 -0.029025 441377.000000 0 0 1
19.141139 -26.937180 -27.544401 43.019634 -0.953002 2.265653 0.112048 -0.035903 642812.000000 0 0 1
18.324239 -25.602880 -27.681661 41.923258 -0.949604 2.292006 0.107999 -0.028948 196979.000000 0 0 1
17.498939 -25.284780 -26.562281 40.633579 -0.965410 2.283263 0.087740 -0.014301 -110642.000000 0 0 1
16.879539 -24.050080 -26.748391 39.734136 -0.958830 2.309303 0.071805 -0.015645 -327762.000000 0 0 1
15.760139 -23.764180 -25.750501 38.421433 -0.985205 2.305291 0.079750 -0.015418 -729336.000000 0 0 1
14.599939 -24.549980 -25.980391 38.611403 -1.034281 2.308876 0.113140 -0.016763 286703.000000 0 0 1
13.477239 -24.088380 -25.205981 37.379506 -1.060695 2.310848 0.092645 -0.019060 611233.000000 0 0 1
13.490839 -24.201880 -23.670671 36.442206 -1.062267 2.277776 0.080951 -0.014177 -887484.000000 0 0 1
14.597239 -23.594480 -23.060271 36.077070 -1.016761 2.264247 0.059197 -0.018966 -479787.000000 0 0 1
14.880639 -24.128680 -21.855371 35.795025 -1.018173 2.227577 0.062049 -0.031908 -655399.000000 0 0 1
16.194539 -23.628880 -21.316871 35.707087 -0.969956 2.210544 0.058509 -0.046543 -834464.000000 0 0 1
16.099439 -22.283080 -20.870571 34.515334 -0.945131 2.220154 0.044852 -0.046241 -159233.000000 0 0 1
17.310339 -21.747580 -20.414971 34.487333 -0.898520 2.204279 0.061944 -0.041789 -721141.000000 0 0 1
17.172239 -20.271480 -19.941671 33.218804 -0.867981 2.214688 0.072182 -0.026617 -85710.800000 0 0 1
16.440339 -20.139580 -18.757771 32.058406 -0.886183 2.195815 0.069194 -0.028122 317978.000000 0 0 1
15.043439 -19.989680 -18.969971 31.396690 -0.925659 2.219561 0.067609 -0.028063 -27475.100000 0 0 1
14.244439 -19.801780 -17.651371 30.109557 -0.947201 2.197204 0.073230 -0.027311 -205216.000000 0 0 1
14.420739 -18.610080 -16.882271 28.970741 -0.911556 2.192887 0.091592 -0.031363 -68064.400000 0 0 1
13.744939 -18.776280 -15.683371 28.061364 -0.938891 2.163850 0.092155 -0.034233 -275092.000000 0 0 1
13.665939 -17.437780 -14.881271 26.688692 -0.906075 2.162273 0.102776 -0.035911 -387802.000000 0 0 1
12.736239 -16.544380 -15.423171 25.957706 -0.914729 2.207024 0.108771 -0.048177 -122098.000000 0 0 1
12.654439 -15.360380 -14.661471 24.719119 -0.881689 2.205728 0.099071 -0.041038 348049.000000 0 1 0
11.234139 -14.881580 -14.208471 23.442439 -0.924165 2.221945 0.101810 -0.034461 422498.000000 0 1 0
10.372239 -14.545480 -15.294171 23.517355 -0.951339 2.278822 0.116931 -0.024053 445478.000000 0 1 0
9.341239 -13.655180 -14.842271 22.226464 -0.970835 2.302012 0.117462 -0.033214 511095.000000 0 1 0
8.375639 -13.164480 -15.944771 22.308980 -1.004162 2.367026 0.091430 -0.021800 215059.000000 0 1 0
8.951139 -12.131380 -16.731971 22.522258 -0.935117 2.408201 0.085570 -0.014590 579706.000000 0 1 0
10.139639 -12.422580 -17.481771 23.722249 -0.886239 2.399322 0.107816 -0.014004 451243.000000 0 1 0
10.490239 -11.175280 -18.292071 23.864866 -0.817007 2.444147 0.109120 -0.019090 -247556.000000 0 1 0
9.648739 -11.052380 -19.400471 24.323477 -0.853100 2.494107 0.107560 -0.024855 23694.600000 0 1 0
9.742239 -9.765580 -20.011971 24.305488 -0.786595 2.538088 0.094038 -0.031517 78955.600000 0 1 0
9.510139 -9.859780 -21.563971 25.547267 -0.803447 2.575646 0.092968 -0.028782 460375.000000 0 0 1
10.600839 -10.541780 -22.182071 26.749788 -0.782605 2.548548 0.080591 -0.023395 -180003.000000 0 0 1
10.578139 -10.391180 -23.595971 27.868324 -0.776483 2.580539 0.070413 -0.023260 -558580.000000 0 0 1
11.587339 -11.134080 -24.448871 29.257161 -0.765452 2.560119 0.098083 -0.024917 -596082.000000 0 0 1
11.598039 -12.520980 -24.150671 29.572696 -0.823646 2.526386 0.085888 -0.025621 -53677.500000 0 0 1
12.687139 -13.200980 -24.731271 30.771174 -0.805244 2.504310 0.054570 -0.031312 -189246.000000 0 0 1
12.589139 -14.670580 -24.398371 31.128650 -0.861606 2.471544 0.050513 -0.025323 220781.000000 0 0 1
11.563939 -15.276980 -25.188311 31.647461 -0.922861 2.491294 0.054488 -0.027350 -40315.500000 0 0 1
11.046439 -16.395080 -24.535971 31.509305 -0.977895 2.463371 0.055026 -0.029082 -141050.000000 0 0 1
9.818839 -17.078780 -25.155001 31.951031 -1.049026 2.477212 0.053184 -0.031829 -100941.000000 0 0 1
9.973639 -17.679380 -26.446621 33.338532 -1.057162 2.486965 0.048917 -0.036850 -1024930.000000 0 0 1
8.869739 -18.410080 -26.819801 33.718022 -1.121825 2.490487 0.053818 -0.037171 -808325.000000 0 0 1
9.044439 -19.268780 -28.084491 35.239557 -1.131941 2.493041 0.061870 -0.025273 -70464.400000 0 0 1
9.803139 -20.429480 -27.827001 35.886030 -1.123396 2.458188 0.048598 -0.028390 -125125.000000 0 0 1
10.207939 -21.114480 -28.963201 37.267818 -1.120471 2.460943 0.056187 -0.024424 81252.100000 0 0 1
10.728239 -22.524980 -28.585071 37.941746 -1.126303 2.424004 0.051291 -0.009279 132231.000000 0 0 1
11.055739 -23.455380 -29.618831 39.365713 -1.130329 2.422497 0.061008 -0.011173 9779.480000 0 0 1
11.631739 -24.682380 -29.234741 39.989840 -1.130407 2.390662 0.093784 -0.020689 -131508.000000 0 0 1
10.774739 -25.672380 -28.431001 39.793063 -1.173422 2.366664 0.089034 -0.017830 77281.400000 0 0 1
10.274839 -25.101180 -27.210081 38.419136 -1.182267 2.357802 0.091947 -0.016010 -398650.000000 0 0 1
9.821339 -26.029680 -26.282191 38.272137 -1.209999 2.327762 0.082609 -0.010388 132529.000000 0 0 1
9.137439 -25.358680 -25.068141 36.809878 -1.224951 2.319946 0.062351 -0.003280 299411.000000 0 0 1
9.977739 -24.329480 -24.552271 35.976282 -1.181606 2.321915 0.068856 -0.008168 274296.000000 0 0 1
9.311339 -23.081280 -24.753371 35.102363 -1.187349 2.353469 0.050830 -0.004253 -382133.000000 0 0 1
10.247639 -21.912380 -24.640971 34.530334 -1.133350 2.365425 0.060751 -0.006754 -733005.000000 0 0 1
10.772039 -21.886080 -23.350971 33.768405 -1.113419 2.334365 0.062071 -0.015430 97171.300000 0 0 1
11.650939 -20.755880 -23.310871 33.315876 -1.059295 2.345763 0.063581 -0.024455 -15484.800000 0 0 1
12.437439 -20.566880 -21.981271 32.570887 -1.026905 2.311591 0.056680 -0.023651 35277.500000 0 0 1
11.743939 -19.921880 -20.915171 31.180856 -1.038134 2.306042 0.054053 -0.025152 -67188.300000 0 0 1
11.326739 -18.571680 -21.070571 30.284836 -1.023134 2.340255 0.064330 -0.024851 -92130.900000 0 0 1
12.433639 -17.513780 -20.984471 30.027918 -0.953434 2.344560 0.063381 -0.026031 -479392.000000 0 0 1
13.372839 -17.547080 -21.996071 31.153811 -0.919589 2.354698 0.058788 -0.021519 -399549.000000 0 0 1
14.374239 -16.553680 -21.692971 30.841985 -0.855750 2.350907 0.058955 -0.019900 361251.000000 0 0 1
15.595739 -16.800380 -22.607071 32.195644 -0.822566 2.349248 0.040454 -0.007924 -490901.000000 0 0 1
16.698539 -17.477280 -22.051771 32.719675 -0.808181 2.310353 0.046805 -0.004653 -252591.000000 0 0 1
17.785439 -17.057780 -22.816771 33.584144 -0.764517 2.317729 0.050580 -0.001440 -851667.000000 0 0 1
19.198339 -17.245280 -22.266271 34.084641 -0.731858 2.282684 0.063806 -0.010582 -215435.000000 0 0 1
19.535539 -18.639980 -22.250171 34.987944 -0.761943 2.260020 0.076385 -0.026510 558026.000000 0 0 1
20.939539 -18.813980 -22.054571 35.760792 -0.731981 2.235372 0.065099 -0.030842 590308.000000 0 0 1
21.293339 -20.312780 -21.800471 36.623433 -0.761835 2.208386 0.088214 -0.042860 -232543.000000 0 0 1
21.088539 -20.737780 -20.447771 35.956826 -0.777012 2.175691 0.085884 -0.041518 248821.000000 0 0 1
21.354239 -22.097180 -20.264171 36.809313 -0.802495 2.153780 0.098933 -0.042318 -68589.800000 0 0 1
-16.601811 13.306718 29.453573 36.334582 -0.675668 0.625585 0.094912 -0.021158 -701034.000000 0 0 1
-17.845711 13.488518 28.867883 36.520736 -0.647229 0.659250 0.099993 -0.024158 -679522.000000 0 0 1
-17.706811 13.510118 27.458653 35.355792 -0.651763 0.681485 0.091054 -0.025254 -269406.000000 0 0 1
-18.879611 14.062518 26.658953 35.565347 -0.640198 0.723374 0.108130 -0.020682 -278337.000000 0 0 1
-18.965211 15.468818 26.751403 36.257428 -0.684206 0.740963 0.101753 -0.017822 155326.000000 0 0 1
-20.068811 15.956518 26.006083 36.519638 -0.671740 0.778294 0.106373 -0.020922 -245871.000000 0 0 1
-20.316611 17.463718 26.236013 37.497660 -0.710029 0.795860 0.097151 -0.008323 -35161.200000 0 0 1
-19.346811 18.389618 25.838743 37.149936 -0.760038 0.801645 0.070122 -0.012753 -78454.800000 0 0 1
-18.123611 18.503118 26.536323 37.081088 -0.795759 0.773271 0.046320 -0.005132 202504.000000 0 0 1
-17.035611 19.373018 25.848223 36.519262 -0.849509 0.784422 0.053881 -0.006569 344910.000000 0 0 1
-17.326911 20.761118 25.904233 37.446964 -0.875320 0.806876 0.071056 -0.010764 -246821.000000 0 0 1
-16.187111 21.422218 25.471183 37.009663 -0.923706 0.811749 0.104004 -0.027617 -209073.000000 0 0 1
-16.381111 22.971718 25.453563 37.999006 -0.951333 0.836792 0.098106 -0.027734 40774.500000 0 0 1
-15.994111 23.690618 26.600363 39.046591 -0.976961 0.821332 0.098693 -0.025587 -16366.500000 0 0 1
-16.268111 25.061018 26.446913 39.901695 -0.995026 0.846242 0.094196 -0.022087 -855.361000 0 0 1
-15.614111 25.889818 27.606973 40.941764 -1.028102 0.830782 0.083400 -0.018432 200238.000000 0 0 1
-14.261111 26.184518 27.309103 40.432603 -1.072078 0.829258 0.095225 -0.023063 -43395.800000 0 0 1
-13.708811 27.026718 28.294563 41.460309 -1.101380 0.819688 0.104333 -0.013410 -610898.000000 0 0 1
-12.206611 27.088418 28.459173 41.142536 -1.147426 0.806926 0.105625 -0.018548 -555221.000000 0 0 1
-11.465911 27.544518 27.381303 40.495720 -1.176345 0.828268 0.095090 -0.014959 -1992320.000000 0 0 1
-10.128711 27.359018 27.425573 40.040838 -1.216228 0.816275 0.074508 -0.006425 -1745310.000000 0 0 1
-9.381911 28.082018 26.292033 39.596603 -1.248365 0.844644 0.082851 -0.011587 657411.000000 0 0 1
-7.953811 27.958518 26.363073 39.242240 -1.293632 0.834156 0.076533 -0.009356 858164.000000 0 0 1
-7.370711 28.121118 25.106513 38.411738 -1.314457 0.858444 0.092213 -0.016770 216119.000000 0 0 1
-5.833711 27.960418 25.003533 37.960424 -1.365105 0.851742 0.087484 -0.023069 -335943.000000 0 0 1
-4.999911 28.798718 25.752153 38.955598 -1.398894 0.848560 0.107364 -0.018999 -212082.000000 0 0 1
-3.664011 28.370118 25.775873 38.505638 -1.442357 0.837389 0.097322 -0.014502 -511315.000000 0 0 1
-2.768411 29.090718 24.810673 38.334103 -1.475917 0.866862 0.096360 -0.021820 -1066530.000000 0 0 1
-3.005011 28.776218 23.448303 37.241425 -1.466747 0.889720 0.089569 -0.028389 -25875.400000 0 0 1
-2.560411 29.764618 22.531173 37.418470 -1.484986 0.924617 0.090348 -0.032088 -82924.900000 0 0 1
-3.094911 29.405818 21.108773 36.329890 -1.465934 0.950802 0.072689 -0.026836 808234.000000 0 0 1
-4.498611 29.425118 20.872273 36.355561 -1.419088 0.959273 0.070785 -0.020230 370345.000000 0 0 1
-5.185111 28.253418 21.290473 35.755073 -1.389294 0.932967 0.080578 -0.024340 -723264.000000 0 0 1
-6.702011 28.280618 21.104573 35.918147 -1.338106 0.942739 0.086701 -0.026942 -501580.000000 0 0 1
-7.039111 28.509018 19.750073 35.388961 -1.328730 0.978719 0.072708 -0.033048 -7488.730000 0 0 1
-7.789111 27.437518 19.175573 34.368448 -1.294188 0.978893 0.054633 -0.031432 -770274.000000 0 0 1
-7.061111 26.095918 18.917973 32.996150 -1.306541 0.960221 0.047807 -0.036704 -438084.000000 0 0 1
-6.128511 26.182318 17.883273 32.293712 -1.340865 0.983912 0.051592 -0.033872 -645680.000000 0 0 1
-4.832211 26.345018 18.406473 32.499361 -1.389392 0.968709 0.070239 -0.032910 -1172270.000000 0 0 1
-3.831311 26.600418 17.288573 31.955530 -1.427748 0.999147 0.067682 -0.029627 -492408.000000 0 0 1
-3.448411 25.405718 16.653673 30.572649 -1.435887 0.994736 0.072811 -0.034246 -376222.000000 0 0 1
-2.847811 25.723218 15.449573 30.141056 -1.460536 1.032614 0.085773 -0.041412 -156563.000000 0 0 1
-2.060011 24.556718 14.781973 28.736436 -1.487104 1.030491 0.085889 -0.040012 484293.000000 0 0 1
-0.938911 24.176218 15.588673 28.781553 -1.531980 0.998433 0.086023 -0.038877 141509.000000 0 0 1
-0.114811 23.296918 14.868873 27.637709 -1.565868 1.002743 0.067147 -0.039165 36182.200000 0 0 1
1.263289 23.014118 15.495273 27.773170 1.515959 0.978916 0.059849 -0.037921 912424.000000 0 0 1
2.322989 23.990818 15.472673 28.641914 1.474269 1.000109 0.076752 -0.043965 1259530.000000 0 0 1
3.574589 23.434718 15.880273 28.533257 1.419429 0.980565 0.088262 -0.039948 754557.000000 0 0 1
4.783789 24.415118 15.888273 29.519821 1.377312 1.002468 0.086297 -0.040759 400860.000000 0 0 1
6.012389 23.729318 15.768373 29.118223 1.322645 0.998541 0.086519 -0.035662 -527762.000000 0 0 1
7.096789 24.577718 15.916773 30.129260 1.289693 1.014219 0.098003 -0.035869 33323.400000 0 0 1
8.523289 23.929118 15.932873 29.985089 1.228619 1.010591 0.117295 -0.032039 646066.000000 0 0 1
8.843889 23.324118 14.716273 28.962001 1.208372 1.037792 0.094209 -0.021378 198241.000000 0 0 1
9.521089 24.192218 13.789273 29.428873 1.195854 1.083133 0.105042 -0.024868 -319973.000000 0 0 1
10.064689 23.470618 12.525673 28.443986 1.165694 1.114794 0.092494 -0.016769 434765.000000 0 0 1
11.160089 22.579618 12.817973 28.261054 1.111755 1.100045 0.095765 -0.014173 300201.000000 0 0 1
11.640589 22.132818 11.592973 27.563780 1.086611 1.136704 0.097558 -0.013187 434630.000000 0 0 1
12.976489 21.311518 11.730673 27.571339 1.023862 1.131319 0.106257 -0.016699 580178.000000 0 0 1
12.875789 20.207718 12.641973 27.091646 1.003492 1.085311 0.094707 -0.006654 1103070.000000 0 0 1
14.131889 19.476618 12.795273 27.253769 0.943107 1.082087 0.078076 -0.007452 926873.000000 0 0 1
14.178789 18.624118 14.096773 27.324254 0.920094 1.028730 0.074880 -0.006843 -697338.000000 0 0 1
15.449689 18.105318 14.290373 27.761668 0.864376 1.030078 0.071571 -0.001197 -511260.000000 0 0 1
15.649689 17.540318 15.580873 28.201757 0.842300 0.985461 0.059971 -0.005382 1232520.000000 0 0 1
17.091389 16.864318 15.696073 28.686016 0.778711 0.991819 0.035576 -0.009049 1238020.000000 0 0 1
17.296489 16.236618 16.936473 29.148592 0.753802 0.950791 0.034479 -0.011846 -569729.000000 0 0 1
18.462789 15.485718 16.919673 29.444140 0.697928 0.958637 0.027641 -0.013005 -601457.000000 0 0 1
18.919889 15.070118 18.338573 30.354142 0.672617 0.922093 0.031722 -0.015440 -501445.000000 0 0 1
19.575789 16.176318 18.947473 31.684247 0.690599 0.929781 0.044477 -0.011753 -139125.000000 0 0 1
18.804489 17.062618 19.705273 32.140932 0.736872 0.910831 0.036184 -0.007065 -487541.000000 0 0 1
19.611489 18.179318 20.434873 33.655343 0.747519 0.918289 0.029151 0.003929 -10335.200000 0 0 1
18.768889 19.073018 21.161173 34.115194 0.793435 0.901689 0.043653 0.000766 293730.000000 0 0 1
19.517489 20.042818 21.862973 35.505443 0.798677 0.907441 0.047919 0.006093 196375.000000 0 0 1
18.641089 21.209818 22.454973 36.077311 0.849768 0.898975 0.060196 -0.000215 344309.000000 0 0 1
17.822289 20.808018 23.516443 36.105826 0.862535 0.861474 0.063742 -0.007709 -47554.400000 0 0 1
17.034989 21.859718 24.026553 36.678514 0.908814 0.856537 0.067978 -0.020004 236751.000000 0 0 1
16.157989 21.570618 25.262053 36.939728 0.927888 0.817740 0.102392 -0.021383 423059.000000 0 0 1
15.074989 20.671218 25.056133 35.810115 0.940692 0.795827 0.097838 -0.029838 62792.500000 0 0 1
14.430589 20.383918 26.289813 36.261554 0.954761 0.759754 0.103810 -0.033487 601398.000000 0 0 1
13.323589 19.254318 26.163223 35.110697 0.965474 0.730016 0.116519 -0.033575 408764.000000 0 0 1
13.798189 17.915718 26.001963 34.459615 0.914509 0.715808 0.098390 -0.040453 101368.000000 0 0 1
14.352389 17.591018 24.728493 33.569828 0.886439 0.742725 0.102494 -0.036347 -61302.700000 0 0 1
13.440689 17.699118 23.450153 32.308212 0.921307 0.758561 0.113549 -0.037067 -418820.000000 0 0 1
13.462189 18.851018 22.676973 32.416609 0.950646 0.796032 0.117554 -0.028346 221522.000000 0 0 1
14.641489 19.109818 21.916373 32.555886 0.917023 0.832279 0.096932 -0.021702 398109.000000 0 0 1
15.080389 18.063218 20.846273 31.436683 0.875153 0.845818 0.087783 -0.017692 -800583.000000 0 0 1
14.129089 17.877818 19.864673 30.229998 0.901989 0.853807 0.093479 -0.021569 75977.100000 0 0 1
14.518889 16.746818 19.048973 29.225287 0.856536 0.860844 0.054534 -0.020132 64139.600000 0 0 1
13.205789 16.249818 18.447573 27.906315 0.888376 0.848574 0.055719 -0.012793 -213747.000000 0 0 1
12.765089 16.928318 17.295173 27.361258 0.924697 0.886530 0.078738 -0.011844 -533381.000000 0 0 1
11.552589 16.417018 16.855473 26.212359 0.957594 0.872341 0.068213 -0.009985 -398256.000000 0 0 1
11.001689 16.947418 15.491673 25.460637 0.995008 0.916683 0.071502 -0.006268 -42974.000000 0 0 1
10.499289 18.293418 15.552573 26.206235 1.049760 0.935435 0.078476 -0.013557 77868.300000 0 0 1
9.977289 18.573418 14.278973 25.463841 1.077848 0.975499 0.078873 -0.009597 -207868.000000 0 0 1
9.057689 19.835918 14.281673 26.066675 1.142442 0.990956 0.084217 -0.010240 -456146.000000 0 0 1
7.903789 19.566618 15.000973 25.891149 1.186896 0.952821 0.076207 -0.010502 -1243320.000000 0 0 1
6.985189 20.592118 14.770373 26.286728 1.243760 0.974122 0.075064 -0.016723 -557600.000000 0 0 1
5.723489 20.393218 15.603073 26.307747 1.297179 0.935895 0.074531 -0.023136 346922.000000 0 0 1
4.694189 19.570318 14.977973 25.087296 1.335381 0.930997 0.061789 -0.020843 134462.000000 0 0 1
3.519289 19.622118 15.733473 25.395966 1.393330 0.902657 0.055154 -0.016009 49976.800000 0 0 1
2.365289 18.750118 15.158773 24.227049 1.445311 0.894773 0.038261 -0.018025 314097.000000 0 1 0
1.684889 19.359818 14.086673 24.001578 1.483985 0.943564 0.041386 -0.030550 -562548.000000 0 1 0
0.680789 18.549118 13.559573 22.986850 1.534111 0.939881 0.029092 -0.034370 -159168.000000 0 1 0
-0.185511 19.219618 12.449073 22.899946 -1.561144 0.996042 0.035470 -0.046551 521875.000000 0 1 0
-1.270111 19.960818 13.021773 23.866587 -1.507252 0.993683 0.053236 -0.044532 -46833.700000 0 1 0
-2.310911 20.217518 12.133173 23.691817 -1.456988 1.033139 0.051055 -0.048970 -256391.000000 0 1 0
-3.426811 21.140318 12.587473 24.841508 -1.410096 1.039431 0.051511 -0.037655 -370573.000000 0 1 0
-4.210511 20.602618 13.593773 25.039707 -1.369205 0.996923 0.053675 -0.040850 -193724.000000 0 0 1
-5.379311 21.422818 13.712973 25.998456 -1.324781 1.015196 0.067202 -0.033699 314899.000000 0 0 1
-6.220311 21.057918 14.955973 26.567071 -1.283574 0.972844 0.053765 -0.029617 -904520.000000 0 0 1
-7.032511 19.956618 14.682973 25.754854 -1.231994 0.964163 0.049442 -0.027987 -16278.600000 0 0 1
-7.781211 19.483618 15.802973 26.265806 -1.190831 0.925224 0.044058 -0.011332 -205720.000000 0 0 1
-8.993711 20.174018 16.417973 27.521404 -1.151435 0.931597 0.034771 0.003581 125542.000000 0 0 1
-10.158111 20.043918 15.589073 27.348950 -1.101729 0.964283 0.024854 -0.009340 144829.000000 0 0 1
-11.235011 19.440018 16.253273 27.718381 -1.046761 0.944224 0.011802 0.004756 -517321.000000 0 0 1
-12.516911 19.370618 15.444473 27.756542 -0.997111 0.980718 0.022712 0.000562 -537260.000000 0 0 1
-13.243211 20.560518 15.187373 28.788432 -0.998574 1.015081 0.013589 0.011345 -42602.800000 0 0 1
-14.166311 20.288418 14.165973 28.512787 -0.961248 1.050856 0.013933 -0.005068 -402728.000000 0 0 1
-15.211811 21.392218 13.916673 29.710267 -0.952666 1.083303 0.012617 -0.005780 -716792.000000 0 0 1
-16.347011 21.299918 14.703573 30.612192 -0.916209 1.069780 0.006086 -0.008369 -352054.000000 0 0 1
-17.261511 22.372718 14.464773 31.744730 -0.913650 1.097684 0.024365 -0.015922 522573.000000 0 0 1
-18.496011 22.406118 15.411873 32.888636 -0.880705 1.083082 0.086760 -0.028204 -239905.000000 0 0 1
-19.371211 21.315618 15.097573 32.519780 -0.833151 1.087999 0.070198 -0.031929 -403348.000000 0 0 1
-20.449911 21.186918 15.960273 33.493501 -0.803097 1.074106 0.093490 -0.032881 -547045.000000 0 0 1
-21.623211 22.116118 15.726773 34.698952 -0.796667 1.100405 0.087046 -0.034593 -974576.000000 0 0 1
-22.583611 21.808418 14.709773 34.669929 -0.767937 1.132629 0.102744 -0.033393 827086.000000 0 0 1
-23.526111 22.859918 14.413773 35.830302 -0.771037 1.156792 0.118889 -0.047266 215348.000000 0 0 1
-23.137911 24.104218 13.612173 36.078629 -0.805850 1.183926 0.102510 -0.044023 -425641.000000 0 0 1
-22.137111 24.790718 14.343173 36.198867 -0.841885 1.163386 0.060436 -0.041415 164505.000000 0 0 1
-21.629911 25.940918 13.638573 36.425196 -0.875774 1.187018 0.050632 -0.033786 -149828.000000 0 0 1
-20.254011 26.324718 14.224073 36.132256 -0.915000 1.166179 0.028118 -0.023484 101330.000000 0 0 1
-19.182711 25.543818 13.712873 34.763571 -0.926673 1.165315 0.017751 -0.012794 271272.000000 0 0 1
-17.955211 26.265418 13.753273 34.661423 -0.971158 1.162780 -0.001298 -0.015858 34652.600000 0 0 1
-16.958011 25.610218 12.793373 33.273530 -0.985922 1.176140 0.005896 -0.017735 173884.000000 0 0 1
-15.638511 26.144818 12.894273 33.081366 -1.031739 1.170410 0.010585 -0.014827 368386.000000 0 0 1
-14.784011 25.636418 11.895673 31.895139 -1.047700 1.188597 0.009310 -0.016992 -340013.000000 0 0 1
-13.380011 26.248018 11.969073 31.800029 -1.099377 1.184904 0.016934 -0.012029 -255170.000000 0 0 1
-12.389111 25.295718 11.447473 30.404079 -1.115365 1.184769 0.027308 -0.013661 548722.000000 0 0 1
-11.110811 25.729818 11.847073 30.427402 -1.163158 1.170865 0.046922 -0.019090 -170069.000000 0 0 1
-10.381611 26.806818 11.005473 30.781549 -1.201308 1.205170 0.055692 -0.021495 -318873.000000 0 0 1
-9.338911 27.493718 11.707373 31.307864 -1.243350 1.187539 0.076378 -0.032741 375752.000000 0 0 1
-8.851311 28.523118 10.877773 31.784271 -1.269898 1.221499 0.074283 -0.036601 -430905.000000 0 0 1
-7.795611 29.418418 11.526973 32.543601 -1.311759 1.208737 0.067394 -0.031303 148483.000000 0 0 1
-6.563311 28.784018 11.801273 31.794131 -1.346610 1.190519 0.083179 -0.034719 559387.000000 0 0 1
-5.570111 29.646718 12.406473 32.617090 -1.385079 1.180603 0.118874 -0.033544 1369150.000000 0 0 1
-4.082911 29.240918 12.120873 31.915780 -1.432063 1.181241 0.111261 -0.044333 619908.000000 0 0 1
-3.750911 29.738018 10.808473 31.862864 -1.445327 1.224710 0.119367 -0.038932 137253.000000 0 0 1
-2.447111 29.354318 10.411273 31.241942 -1.487624 1.231051 0.131804 -0.032902 318305.000000 0 0 1
-2.124411 29.881518 8.962473 31.268900 -1.499821 1.280093 0.131095 -0.034362 41761.000000 0 0 1
-2.987111 29.308318 8.014173 30.530760 -1.469227 1.305189 0.128860 -0.034529 12460.100000 0 0 1
-2.996611 30.090118 6.833473 31.001471 -1.471536 1.348547 0.123420 -0.029324 7948.140000 0 0 1
11.746889 -33.532180 -26.778851 44.491610 -1.233839 2.216656 0.144694 -0.037494 46327.600000 0 0 1
12.406189 -33.347980 -25.535261 43.795557 -1.214639 2.193281 0.125852 -0.028867 -339875.000000 0 0 1
13.451989 -32.442280 -25.615671 43.469761 -1.177730 2.200958 0.124472 -0.018863 -499311.000000 0 0 1
14.247289 -32.611780 -24.302671 43.094469 -1.158910 2.169945 0.098659 -0.010934 -659263.000000 0 0 1
13.548989 -31.998580 -23.254871 41.812357 -1.170261 2.160569 0.106913 -0.011002 148289.000000 0 0 1
13.947989 -32.231680 -21.895271 41.386356 -1.162387 2.128272 0.075822 -0.010435 161587.000000 0 0 1
15.371489 -31.849080 -21.375171 41.322445 -1.121137 2.114463 0.039781 -0.006648 645222.000000 0 0 1
16.355189 -32.777680 -21.820871 42.638233 -1.107970 2.108037 0.056524 -0.003088 624885.000000 0 0 1
17.667589 -32.395180 -21.409871 42.661153 -1.071509 2.096543 0.035827 -0.010122 499820.000000 0 0 1
18.784089 -33.432180 -21.689771 44.056768 -1.058896 2.085543 0.014287 0.005092 -818031.000000 0 0 1
19.955789 -33.149780 -21.030371 44.038823 -1.028916 2.068651 0.022562 0.012738 -813539.000000 0 0 1
20.903589 33.612518 -21.278571 44.939281 1.014430 2.064052 0.019015 0.009340 -834416.000000 0 0 1
22.355189 -33.847280 -20.947171 45.652785 -0.987094 2.047482 0.043951 0.009766 -936428.000000 0 0 1
22.950089 -33.098580 -21.951371 45.870309 -0.964523 2.069802 0.047109 -0.001365 -199335.000000 0 0 1
24.347389 -33.239080 -21.844871 46.635074 -0.938594 2.058300 0.040643 0.004484 -66581.300000 0 0 1
25.131789 -32.855280 -23.113171 47.384543 -0.917812 2.080340 0.057108 -0.008119 -150050.000000 0 0 1
25.141989 -31.477480 -23.401471 46.589486 -0.896831 2.097042 0.070167 -0.015760 341396.000000 0 0 1
23.982589 -30.920380 -24.027371 45.918940 -0.911097 2.121464 0.055227 -0.013049 243361.000000 0 0 1
24.033989 -29.383180 -23.926771 44.871976 -0.885205 2.133202 0.063989 -0.028101 310664.000000 0 0 1
25.138389 -28.798480 -24.635771 45.477602 -0.853153 2.143269 0.064223 -0.029943 470074.000000 0 0 1
25.470589 -27.473480 -24.235671 44.619623 -0.823210 2.144994 0.089340 -0.027818 508002.000000 0 0 1
26.078389 -26.561680 -25.358591 45.040685 -0.794579 2.168826 0.086572 -0.029981 438491.000000 0 0 1
25.067689 -26.295180 -26.285251 44.841275 -0.809292 2.197137 0.069952 -0.024262 -319855.000000 0 0 1
25.670489 -25.583780 -27.315731 45.383400 -0.783706 2.216660 0.059905 -0.017619 -624031.000000 0 0 1
24.737289 -25.482780 -28.548021 45.566380 -0.800242 2.247870 0.060505 -0.015317 665193.000000 0 0 1
23.655789 -24.585380 -28.462971 44.431723 -0.804665 2.266076 0.075724 -0.017700 -232394.000000 0 0 1
22.629089 -24.786080 -27.528001 43.407560 -0.830858 2.257738 0.071782 -0.014891 -1018300.000000 0 0 1
21.919389 -23.465280 -27.319411 42.159568 -0.819447 2.275752 0.077597 -0.016923 -260586.000000 0 0 1
21.333089 -22.931780 -28.501811 42.347614 -0.821499 2.309113 0.083720 -0.013963 120825.000000 0 0 1
20.824789 -21.663680 -28.177341 41.194046 -0.805140 2.324049 0.073356 -0.002862 -611170.000000 0 0 1
19.942789 -21.104480 -29.284921 41.239793 -0.813692 2.360455 0.097308 -0.007342 -235946.000000 0 0 1
18.724489 -21.798080 -29.422051 41.126875 -0.861102 2.367989 0.088097 -0.016879 -113544.000000 0 0 1
17.889389 -21.275480 -30.419501 41.207066 -0.871641 2.401210 0.072029 -0.022992 -124598.000000 0 0 1
16.504589 -21.951180 -30.387881 40.959481 -0.926095 2.406697 0.087257 -0.028493 -299071.000000 0 0 1
16.446489 -23.242580 -30.985731 42.081112 -0.954987 2.398432 0.094976 -0.013650 -187104.000000 0 0 1
15.591889 -24.091980 -30.294241 41.728546 -0.996405 2.383260 0.104572 -0.026848 -374231.000000 0 0 1
15.561489 -25.528280 -30.812191 42.933019 -1.023364 2.371262 0.130338 -0.024327 -574859.000000 0 0 1
14.837089 -26.425280 -30.101811 42.714794 -1.059187 2.352819 0.125092 -0.027889 -523923.000000 0 0 1
14.986889 -27.737580 -30.531071 43.887657 -1.075423 2.340140 0.173069 -0.038263 154207.000000 0 0 1
14.209789 -28.856880 -29.766771 43.825772 -1.113229 2.317478 0.156015 -0.046605 -388781.000000 0 0 1
14.682289 -29.074280 -28.445981 43.244158 -1.103163 2.288690 0.172045 -0.047184 33976.100000 0 0 1
14.374589 -28.001780 -27.543891 41.825762 -1.096529 2.289672 0.147484 -0.034168 -235442.000000 0 0 1
15.435289 -27.772180 -26.457361 41.346512 -1.063524 2.265156 0.117141 -0.026103 -320688.000000 0 0 1
15.564689 -28.865980 -25.548061 41.571718 -1.076279 2.232617 0.101280 -0.024643 292287.000000 0 0 1
16.475489 -28.654280 -24.470171 41.125403 -1.048981 2.208079 0.106590 -0.026277 -306356.000000 0 0 1
15.858689 -27.767080 -23.306471 39.568931 -1.051873 2.200629 0.083873 -0.020370 594961.000000 0 0 1
14.881289 -28.304480 -22.417171 39.052860 -1.086756 2.182205 0.081786 -0.016452 -364495.000000 0 0 1
13.645789 -28.435980 -23.041571 39.060549 -1.123376 2.201723 0.091393 -0.009031 -1291300.000000 0 0 1
12.428289 -28.293880 -22.123771 38.006147 -1.156912 2.192118 0.071687 -0.007682 -163551.000000 0 0 1
12.213189 -26.929680 -21.738871 36.700792 -1.145018 2.204740 0.058033 -0.013823 39896.800000 0 0 1
10.932589 -26.706980 -21.190271 35.802400 -1.182253 2.204170 0.058173 -0.015613 67045.300000 0 0 1
10.496889 -25.210580 -21.230571 34.590391 -1.176259 2.231624 0.067988 -0.023188 -71132.400000 0 0 1
11.066489 -24.526080 -20.138871 33.609074 -1.146934 2.213309 0.061348 -0.027305 -15019.000000 0 0 1
10.740389 -23.169380 -20.116771 32.509392 -1.136724 2.238009 0.067102 -0.033029 -372028.000000 0 0 1
11.180389 -22.331380 -18.883371 31.309317 -1.106622 2.218207 0.065616 -0.029769 -60571.800000 0 0 1
10.632889 -22.686180 -17.607371 30.622550 -1.132505 2.183377 0.083703 -0.033521 304045.000000 0 0 1
11.019289 -21.697380 -16.656971 29.489925 -1.100878 2.171031 0.076190 -0.034439 -183487.000000 0 0 1
10.211089 -21.865280 -15.368171 28.610094 -1.133895 2.137862 0.070142 -0.029835 -6486.120000 0 0 1
10.516389 -23.131680 -14.831871 29.421989 -1.144098 2.099146 0.081532 -0.023898 12637.300000 0 0 1
9.766889 -23.422280 -13.672771 28.826030 -1.175729 2.064988 0.077651 -0.025381 -213791.000000 0 0 1
9.740389 -24.960580 -13.299071 29.912723 -1.198740 2.031519 0.091983 -0.027261 678268.000000 0 0 1
11.010089 -25.485180 -12.877071 30.602866 -1.162995 2.005101 0.081222 -0.034288 428327.000000 0 0 1
11.137589 -26.875480 -13.083871 31.898667 -1.177926 1.993437 0.085239 -0.040035 391652.000000 0 0 1
12.521889 -27.365080 -12.503171 32.587952 -1.141651 1.964569 0.088337 -0.040492 1876370.000000 0 0 1
13.758189 -26.979580 -13.154171 33.018445 -1.099222 1.980556 0.083202 -0.036372 750064.000000 0 0 1
13.908889 -27.279780 -14.526371 33.891873 -1.099291 2.013749 0.078286 -0.032227 -38494.300000 0 0 1
15.240989 -26.675980 -15.130671 34.246647 -1.051719 2.028417 0.048036 -0.024570 404775.000000 0 0 1
16.358589 -27.409380 -14.753671 35.164589 -1.032715 2.003757 0.072989 -0.015114 -285688.000000 0 0 1
17.565189 -26.901880 -15.323871 35.595899 -0.992360 2.015838 0.086683 -0.018010 1575380.000000 0 0 1
18.807489 -27.896380 -15.175071 36.908162 -0.977603 1.994520 0.078900 -0.016331 1133760.000000 0 0 1
18.764389 -29.113380 -15.852771 38.092014 -0.998277 2.000026 0.066887 -0.007373 -20187.900000 0 0 1
20.114589 -29.466080 -16.105071 39.143580 -0.971820 1.994825 0.071558 -0.001227 458032.000000 0 0 1
20.266289 -30.592880 -17.116271 40.492141 -0.985718 2.007225 0.063078 0.002424 -81232.000000 0 0 1
20.040489 -31.937180 -16.690771 41.233318 -1.010403 1.987544 0.047902 0.015248 74800.700000 0 0 1
20.542289 -32.863780 -17.660571 42.590016 -1.012144 1.998370 0.040034 0.014802 69853.900000 0 0 1
20.249589 33.371018 -17.362171 42.721372 1.025391 1.989312 0.019256 0.014869 -317569.000000 0 0 1
20.878289 32.860518 -16.183871 42.162000 1.004781 1.964758 0.049173 0.016342 75331.000000 0 0 1
20.695189 31.441218 -15.947871 40.880015 0.988665 1.971552 0.029542 0.006265 -279516.000000 0 0 1
21.631789 30.909218 -14.839971 40.540582 0.960172 1.945560 0.059491 0.007067 -946325.000000 0 0 1
22.980389 30.868618 -15.210971 41.380472 0.930852 1.947211 0.052954 0.011159 -436041.000000 0 0 1
23.911989 30.682418 -14.177571 41.402868 0.908781 1.920298 0.050590 0.009287 33440.700000 0 0 1
23.800989 29.541218 -13.173571 40.158605 0.892597 1.905023 0.058368 0.004723 -1326690.000000 0 0 1
24.150789 28.253918 -13.648271 39.595704 0.863536 1.922706 0.055200 0.008990 -6570.370000 0 0 1
23.845089 27.097818 -12.899171 38.331040 0.849162 1.914015 0.027595 0.004112 574764.000000 0 0 1
22.311989 26.891618 -12.646671 37.160762 0.878206 1.918057 0.049376 -0.002998 -65805.400000 0 0 1
21.558589 26.319618 -13.704471 36.678434 0.884513 1.953725 0.053726 -0.001652 760659.000000 0 0 1
20.169889 26.105618 -13.401771 35.608077 0.912971 1.956670 0.056779 -0.004319 975933.000000 0 0 1
19.338189 27.449018 -13.523671 36.198119 0.957048 1.953685 0.045399 -0.012056 -617294.000000 0 0 1
19.351989 27.983118 -14.812071 37.107301 0.965758 1.981406 0.040616 -0.009205 251920.000000 0 0 1
18.305989 27.543818 -15.676271 36.599407 0.984217 2.013429 0.029702 0.001434 -54759.400000 0 0 1
18.431589 28.070618 -17.138471 37.701595 0.989785 2.042699 0.023803 0.007711 -169774.000000 0 0 1
18.018589 29.408018 -17.177271 38.529984 1.021084 2.032882 0.018128 0.005063 21112.800000 0 0 1
18.410489 29.991418 -18.414971 39.718288 1.020249 2.052895 0.012685 0.001592 -341840.000000 0 0 1
17.517489 31.132118 -18.919271 40.422889 1.058268 2.057861 0.006681 0.006972 -215920.000000 0 0 1
17.329089 32.235318 -18.058571 40.810844 1.077538 2.029175 0.012947 -0.000398 -89528.600000 0 0 1
16.622589 33.311018 -18.604671 41.618123 1.107940 2.034242 0.017901 0.000020 -135976.000000 0 0 1
16.319889 -33.285680 -17.594671 41.034713 -1.114941 2.013933 0.026024 -0.000301 469075.000000 0 0 1
15.327289 -32.352980 -18.043371 40.089953 -1.128367 2.037642 0.029402 -0.008514 453473.000000 0 0 1
14.840689 -31.582580 -16.965371 38.801150 -1.131516 2.023323 0.041437 -0.014292 -466262.000000 0 0 1
13.867589 -30.521380 -17.365371 37.754745 -1.144325 2.048737 0.056993 -0.019450 -675153.000000 0 0 1
12.670289 -30.900080 -17.981371 37.929947 -1.181664 2.064701 0.062690 -0.016512 -676891.000000 0 0 1
11.723589 -29.874080 -17.871471 36.732719 -1.196830 2.078907 0.051297 -0.014060 211749.000000 0 0 1
10.310189 -30.406480 -18.227871 36.920310 -1.243884 2.087145 0.067611 -0.018222 -24349.700000 0 0 1
9.544689 -31.039880 -17.171971 36.734885 -1.272475 2.057208 0.074253 -0.022417 1309110.000000 0 0 1
8.393389 -31.818080 -17.565671 37.301367 -1.312879 2.061121 0.094508 -0.017173 656034.000000 0 0 1
7.175189 -31.170680 -18.234571 36.818395 -1.344547 2.088927 0.092626 -0.012929 -691724.000000 0 0 1
7.375789 -30.863780 -19.588971 37.292130 -1.336217 2.123846 0.077743 -0.004801 29579.000000 0 0 1
7.166889 -32.039580 -20.377471 38.641173 -1.350730 2.126276 0.083421 -0.017857 -849402.000000 0 0 1
7.400489 -31.683780 -21.827771 39.180106 -1.341337 2.161702 0.080506 -0.001219 459435.000000 0 0 1
8.728589 -31.310980 -22.195771 39.360106 -1.298928 2.169916 0.073294 0.001162 1278170.000000 0 0 1
9.744189 -32.364080 -22.330471 40.509663 -1.278349 2.154644 0.076298 0.002059 712839.000000 0 0 1
9.597089 -33.567380 -23.376571 42.015916 -1.292320 2.160812 0.096546 -0.015262 -30849.700000 0 0 1
8.503889 33.355218 -22.998271 41.398154 1.321165 2.159807 0.100209 -0.030768 328979.000000 0 0 1
8.052389 32.573618 -24.129071 41.329089 1.328449 2.194232 0.100799 -0.043938 -655434.000000 0 0 1
6.860089 31.685818 -23.840471 40.242017 1.357584 2.204865 0.108694 -0.055093 262356.000000 0 0 1
5.555389 32.270318 -23.808571 40.485600 1.400316 2.199473 0.113068 -0.057193 698675.000000 0 0 1
5.224689 32.886018 -22.583971 40.234603 1.413240 2.166761 0.093813 -0.052291 -1312740.000000 0 0 1
3.963789 33.703318 -22.617471 40.782045 1.453726 2.158671 0.096527 -0.039672 -1078910.000000 0 0 1
2.788789 32.947818 -22.688371 40.101100 1.486355 2.172174 0.095870 -0.053682 526130.000000 0 0 1
1.678389 33.855718 -22.909371 40.912906 1.521262 2.165127 0.096930 -0.045058 837024.000000 0 0 1
0.283289 33.380218 -22.436671 40.220932 1.562310 2.162572 0.086971 -0.054101 204732.000000 0 0 1
0.049189 33.583918 -21.022471 39.621032 1.569332 2.130091 0.073632 -0.047409 345255.000000 0 0 1
-1.210111 33.016318 -20.654471 38.963428 -1.534161 2.129514 0.074799 -0.060827 637823.000000 0 0 1
-1.626011 33.202418 -19.203371 38.390284 -1.521863 2.094643 0.085633 -0.048851 379382.000000 0 0 1
-0.759011 32.469718 -18.331671 37.294890 -1.547425 2.084646 0.091215 -0.058922 30994.600000 0 0 1
-1.153511 32.549918 -16.982071 36.731709 -1.535373 2.051414 0.060986 -0.045035 83471.000000 0 0 1
-0.266611 31.664818 -16.089071 35.518867 -1.562377 2.040893 0.043609 -0.035495 265331.000000 0 0 1
0.979089 32.255118 -15.790571 35.926221 1.540451 2.025869 0.046582 -0.026937 47766.300000 0 0 1
1.864689 31.290118 -15.183771 34.829519 1.511273 2.021885 0.059818 -0.013353 360641.000000 0 0 1
2.789289 31.861218 -14.093871 34.950744 1.483474 1.985861 0.071074 -0.019955 -395317.000000 0 0 1
3.919189 32.465318 -14.654171 35.834363 1.450658 1.992091 0.071841 -0.022848 296728.000000 0 0 1
4.868489 32.856218 -13.624271 35.900612 1.423691 1.960052 0.082929 -0.028566 524382.000000 0 0 1
6.229489 33.371118 -14.135071 36.772792 1.386247 1.965343 0.087187 -0.039811 180143.000000 0 0 1
6.868489 32.238918 -14.727471 36.102941 1.360885 1.990982 0.081256 -0.031862 -186984.000000 0 0 1
8.181089 32.511918 -15.181671 36.802692 1.324281 1.996010 0.078450 -0.022750 36068.900000 0 0 1
9.111589 31.334318 -15.288371 36.036021 1.287814 2.008933 0.067013 -0.023740 -317119.000000 0 0 1
9.787789 31.068718 -14.071671 35.483488 1.265602 1.978573 0.059470 -0.026738 -160265.000000 0 0 1
10.678589 29.971018 -14.121671 34.809708 1.228523 1.988521 0.075023 -0.020333 322951.000000 0 0 1
9.977389 28.592018 -13.901271 33.321121 1.235051 2.001149 0.062800 -0.021339 388820.000000 0 0 1
9.205989 28.037118 -15.004371 33.105307 1.253537 2.041184 0.069238 -0.018171 446986.000000 0 0 1
8.822889 26.724218 -14.626471 31.716885 1.251917 2.050095 0.059584 -0.015279 -148682.000000 0 0 1
8.016889 25.953318 -15.714771 31.381511 1.271198 2.095279 0.074870 -0.014202 -367122.000000 0 0 1
8.757389 25.362018 -16.701671 31.604898 1.238319 2.127572 0.077542 -0.010242 -513226.000000 0 0 1
8.038989 24.362418 -17.415671 31.007391 1.252071 2.167189 0.072587 -0.006346 271352.000000 0 0 1
8.824689 23.757218 -18.613571 31.444324 1.215139 2.204277 0.084421 -0.005416 339027.000000 0 0 1
8.164589 22.602018 -19.131471 30.716850 1.224150 2.243155 0.101689 -0.013321 475759.000000 0 0 1
9.028489 22.065318 -20.111771 31.190947 1.182409 2.271552 0.083249 -0.016493 -265651.000000 0 0 1
8.302589 21.031518 -20.998871 30.857905 1.194808 2.319244 0.079386 -0.028305 -128994.000000 0 0 1
8.091089 19.805318 -20.384671 29.550823 1.182957 2.332033 0.086916 -0.025389 -48479.200000 0 0 1
7.388489 18.954418 -21.246771 29.415727 1.199111 2.377908 0.080111 -0.025016 -388445.000000 0 0 1
25.727489 -12.374682 -9.419371 30.062618 -0.448325 1.889489 0.090638 -0.014639 -320198.000000 0 0 1
26.319689 -11.666782 -8.420771 29.995820 -0.417245 1.855352 0.112422 -0.022932 95159.300000 0 0 1
25.737989 -12.048882 -7.222971 29.322192 -0.437833 1.819689 0.106485 -0.011678 -344121.000000 0 0 1
26.156089 -11.101082 -6.087471 29.059118 -0.401377 1.781845 0.094539 -0.022677 -366668.000000 0 0 1
25.800789 -9.724282 -6.038971 28.226079 -0.360434 1.786413 0.099118 -0.030202 368523.000000 0 0 1
26.414689 -8.824282 -6.967571 28.708027 -0.322411 1.815949 0.069858 -0.038411 -955168.000000 0 0 1
26.748989 -7.375282 -6.417371 28.479569 -0.269037 1.798081 0.113710 -0.038866 -70374.900000 0 0 1
27.588989 -7.305482 -5.281671 29.024446 -0.258856 1.753789 0.141855 -0.045627 783482.000000 0 0 1
28.906289 -7.828982 -5.431771 30.436338 -0.264495 1.750221 0.128910 -0.049254 -352061.000000 0 0 1
29.677089 -7.951482 -4.135771 31.000973 -0.261785 1.704603 0.140784 -0.060900 -377022.000000 0 0 1
30.082489 -6.670282 -3.683171 31.032476 -0.218203 1.689764 0.151972 -0.041212 146486.000000 0 0 1
30.963189 -6.866182 -2.603071 31.821998 -0.218222 1.652689 0.152712 -0.031206 -144972.000000 0 0 1
31.441289 -5.593082 -1.938871 31.993694 -0.176048 1.631435 0.149765 -0.041979 -510072.000000 0 0 1
30.396689 -4.902282 -1.305971 30.817149 -0.159900 1.613187 0.203400 -0.034736 -397205.000000 0 0 1
30.691389 -3.596682 -0.793971 30.911614 -0.116657 1.596484 0.178318 -0.016890 -449027.000000 0 0 1
31.429189 -3.452282 0.562429 31.623228 -0.109405 1.553010 0.172665 -0.031188 -656713.000000 0 0 1
30.712289 -3.688482 1.708329 30.980123 -0.119525 1.515626 0.218487 -0.051504 -382050.000000 0 0 1
31.375889 -3.408882 2.942229 31.697376 -0.108222 1.477840 0.182901 -0.043855 -348045.000000 0 0 1
30.674189 -3.898382 4.216529 31.207089 -0.126412 1.435267 0.195246 -0.049629 -348428.000000 0 0 1
30.824189 -5.310482 4.278329 31.569542 -0.170608 1.434857 0.177952 -0.052643 175515.000000 0 0 1
30.668289 -5.786282 5.565629 31.701755 -0.186481 1.394320 0.168046 -0.058369 -182787.000000 0 0 1
31.355589 -7.151682 5.737429 32.668603 -0.224247 1.394256 0.131303 -0.042546 829031.000000 0 0 1
32.775389 -7.067482 5.566429 33.987653 -0.212382 1.406277 0.148917 -0.053888 722455.000000 0 0 1
33.449889 -8.308782 5.529129 34.907051 -0.243467 1.411731 0.145825 -0.053505 1246540.000000 0 0 1
34.972489 -8.340082 5.929229 36.438822 -0.234103 1.407352 0.192439 -0.054015 1377090.000000 0 0 1
35.970489 -7.872182 5.029729 37.163766 -0.215454 1.435040 0.192478 -0.043866 61944.200000 0 0 1
37.266589 -8.185982 5.473429 38.545654 -0.216226 1.428316 0.185572 -0.040387 -246859.000000 0 0 1
-36.458061 -7.855782 4.451129 37.559500 0.212230 1.452008 0.169702 -0.032421 -279822.000000 0 0 1
-36.210661 -8.924282 3.542029 37.461991 0.241639 1.476105 0.208814 -0.050832 -280783.000000 0 0 1
-35.365261 -8.439382 2.561029 36.448371 0.234254 1.500474 0.214029 -0.056622 -554736.000000 0 0 1
-34.987161 -9.522882 1.521029 36.291876 0.265745 1.528873 0.216570 -0.047163 4839.350000 0 0 1
-34.154161 -10.517582 2.071429 35.796886 0.298729 1.512898 0.211079 -0.040413 100211.000000 0 0 1
-33.964661 -11.582582 1.169029 35.904332 0.328651 1.538231 0.211201 -0.048321 -456457.000000 0 0 1
-33.451261 -12.856782 1.923129 35.888468 0.366937 1.517184 0.154215 -0.042395 99789.400000 0 0 1
-32.130061 -12.806282 2.384829 34.670291 0.379278 1.501956 0.155709 -0.034364 -165598.000000 0 0 1
-31.129661 -13.112382 1.446229 33.809495 0.398663 1.528007 0.162490 -0.026355 -795065.000000 0 0 1
-29.788461 -13.416382 2.114629 32.738714 0.423177 1.506160 0.154994 -0.022400 -200126.000000 0 0 1
-29.013261 -12.255082 2.455929 31.590947 0.399663 1.492976 0.133666 -0.029744 687299.000000 0 0 1
-27.870561 -12.646482 3.209829 30.773441 0.425974 1.466301 0.136204 -0.013972 214169.000000 0 0 1
-27.021261 -11.537282 3.834229 29.630369 0.403539 1.441030 0.149602 -0.016106 95338.200000 0 0 1
-25.828661 -12.049882 4.416129 28.841317 0.436516 1.417073 0.136031 -0.005800 410460.000000 0 0 1
-24.920161 -10.987482 4.621829 27.624274 0.415267 1.402695 0.127496 -0.005222 198561.000000 0 0 1
-23.485261 -11.404582 5.030629 26.588140 0.452066 1.380443 0.121842 -0.001101 247374.000000 0 0 1
-23.373061 -11.975082 6.295729 27.006273 0.473475 1.335510 0.131782 -0.002585 520957.000000 0 0 1
-22.021961 -12.412582 6.508729 26.103688 0.513259 1.318796 0.113583 -0.005225 532932.000000 0 0 1
-21.512461 -12.224382 7.950729 25.989144 0.516744 1.259886 0.120316 -0.016353 -710676.000000 0 0 1
-21.207461 -10.914382 8.330129 25.264030 0.475297 1.234786 0.103499 -0.012380 523970.000000 0 0 1
-22.333261 -10.102482 8.632329 25.987532 0.424808 1.232191 0.120168 -0.015140 -155902.000000 0 0 1
-23.042661 -10.260182 9.995729 27.132087 0.418913 1.193498 0.124003 -0.017042 -354451.000000 0 0 1
-23.490361 -11.549582 10.313329 28.134581 0.456964 1.195475 0.115925 -0.021925 500227.000000 0 0 1
-24.786361 -11.849282 9.818229 29.174763 0.445939 1.227565 0.121685 -0.025188 748289.000000 0 0 1
-26.033761 -11.472282 10.723329 30.403285 0.415068 1.210338 0.134600 -0.026226 513207.000000 0 0 1
-26.048561 -12.212082 11.893129 31.130516 0.438394 1.178793 0.113291 -0.030638 -134965.000000 0 0 1
-27.044961 -11.746582 12.748829 32.123897 0.409751 1.162698 0.097192 -0.033728 -338384.000000 0 0 1
-27.016761 -12.546082 14.084229 32.949584 0.434749 1.129128 0.091978 -0.028754 -285200.000000 0 0 1
-27.269961 -13.922882 13.849029 33.604956 0.472058 1.146025 0.110010 -0.029274 524518.000000 0 0 1
-27.665361 -14.610182 15.040829 34.713919 0.485877 1.122668 0.066148 -0.009239 -143301.000000 0 0 1
-27.810261 -16.125482 14.794229 35.388007 0.525464 1.139490 0.082209 -0.025031 -32110.200000 0 0 1
-28.606761 -16.888082 15.707929 36.746335 0.533296 1.129105 0.094945 -0.025885 160496.000000 0 0 1
-28.481061 -18.249582 15.392329 37.163717 0.569854 1.143759 0.069717 -0.023501 -198710.000000 0 0 1
-29.448661 -19.190482 16.127329 38.672846 0.577541 1.140633 0.048698 -0.014279 -368424.000000 0 0 1
-29.245461 -19.124582 17.515529 39.087599 0.579135 1.106147 0.050547 -0.004072 -96319.200000 0 0 1
-29.858361 -20.168082 18.245529 40.387778 0.594065 1.102061 0.062726 -0.003869 -39107.900000 0 0 1
-28.932761 -21.355882 18.639429 40.504403 0.635855 1.092595 0.036247 -0.001768 851712.000000 0 0 1
-27.780461 -20.984482 19.433529 39.871852 0.646928 1.061687 0.045564 -0.001684 1010000.000000 0 0 1
-27.016061 -22.100782 19.944229 40.200552 0.685657 1.051674 0.049885 -0.000698 -83334.400000 0 0 1
-25.623361 -21.607782 20.316529 39.194569 0.700582 1.025875 0.048006 0.008840 -490677.000000 0 0 1
-24.790861 -21.245982 19.241529 37.897427 0.708549 1.038253 0.057144 0.000009 1251970.000000 0 0 1
-23.431661 -21.012982 19.729529 37.146231 0.731032 1.010861 0.065379 0.003115 1738620.000000 0 0 1
-22.401461 -20.698482 18.605629 35.727050 0.745906 1.023042 0.052778 -0.011732 71058.000000 0 0 1
-22.199261 -21.749182 17.745029 35.787151 0.775157 1.051984 0.046877 -0.015914 437444.000000 0 0 1
-20.948061 -21.561382 17.092029 34.581092 0.799825 1.053814 0.050906 -0.012517 421328.000000 0 0 1
-20.684761 -22.629982 15.948029 34.558864 0.830277 1.091140 0.057194 -0.005708 -431184.000000 0 0 1
-20.715361 -24.026182 16.284129 35.658891 0.859262 1.096555 0.059649 -0.013756 778665.000000 0 0 1
-19.580961 -24.663182 16.907629 35.742895 0.899765 1.078064 0.067426 -0.017900 1219010.000000 0 0 1
-18.179161 -24.760482 16.210029 34.732239 0.937484 1.085224 0.060844 -0.021443 663365.000000 0 0 1
-17.568361 -23.504082 16.075629 33.459155 0.928923 1.069623 0.066170 -0.023032 249085.000000 0 0 1
-16.323961 -23.663182 15.375029 32.600758 0.966917 1.079674 0.065991 -0.021005 486461.000000 0 0 1
-15.570861 -22.320982 15.113529 31.130319 0.961691 1.063870 0.056915 -0.014788 -45754.300000 0 0 1
-16.300961 -21.303182 14.434529 30.461493 0.917645 1.077126 0.081130 -0.013708 -414813.000000 0 0 1
-17.191861 -20.557882 15.204129 30.811559 0.874330 1.054738 0.059538 -0.007582 -614361.000000 0 0 1
-16.602261 -19.532482 16.145929 30.295940 0.866313 1.008725 0.073148 -0.022673 -407514.000000 0 0 1
-16.134961 -18.325782 15.507929 28.925199 0.848887 1.004940 0.077085 -0.029448 51655.400000 0 0 1
-15.989961 -17.296382 16.500529 28.759540 0.824626 0.959730 0.083018 -0.027460 -222563.000000 0 0 1
-15.187161 -16.005182 15.977229 27.241284 0.811617 0.944056 0.075942 -0.021472 588212.000000 0 0 1
-15.821861 -15.249782 14.911229 26.556203 0.766989 0.974602 0.068758 -0.022418 266831.000000 0 0 1
-15.804961 -15.824482 13.619829 26.186080 0.786015 1.023808 0.086389 -0.028987 299677.000000 0 0 1
-16.754861 -15.063782 12.612529 25.820899 0.732301 1.060470 0.072953 -0.024338 629435.000000 0 0 1
-18.137561 -15.309882 12.800129 26.966774 0.701058 1.076215 0.067977 -0.025387 606885.000000 0 0 1
-18.954161 -14.394782 12.034429 26.670161 0.649523 1.102651 0.093970 -0.031166 180175.000000 0 0 1
-20.466761 -14.705082 11.979629 27.904108 0.623025 1.127063 0.084791 -0.038092 -28117.500000 0 0 1
-20.870061 -15.846382 11.252829 28.518300 0.649419 1.165183 0.104077 -0.043722 146656.000000 0 0 1
-20.825861 -15.757582 9.816529 27.899501 0.647734 1.211246 0.130734 -0.039501 -384426.000000 0 0 1
-21.704761 -16.852582 9.167829 28.968177 0.660213 1.248781 0.129174 -0.026032 -112934.000000 0 0 1
-21.230661 -18.162782 9.215529 29.420292 0.707677 1.252196 0.133578 -0.010452 111809.000000 0 0 1
-22.076661 -19.043582 8.462629 30.358740 0.711770 1.288300 0.143498 -0.024581 396252.000000 0 0 1
-21.568661 -20.540082 8.487629 30.970017 0.760976 1.293185 0.142055 -0.019634 544883.000000 0 0 1
-20.341361 -20.746482 7.797829 30.083112 0.795258 1.308593 0.149152 -0.014477 19383.700000 0 0 1
-19.918061 -22.059582 7.882729 30.748850 0.836370 1.311543 0.121526 -0.013781 163427.000000 0 0 1
-18.615461 -22.281882 7.040829 29.876261 0.874809 1.332892 0.105833 -0.024243 -4464.970000 0 0 1
-17.540761 -21.627282 7.621429 28.870466 0.889355 1.303643 0.085190 -0.020146 -1119150.000000 0 0 1
-16.326561 -21.783782 6.959229 28.098410 0.927627 1.320518 0.099405 -0.026787 -336602.000000 0 0 1
-15.116661 -21.643582 7.905629 27.558249 0.961121 1.279839 0.053505 -0.013456 -211414.000000 0 0 1
-13.891961 -22.085082 7.373729 27.112900 1.009311 1.295363 0.058334 -0.008933 444521.000000 0 0 1
-12.823961 -21.763282 8.317729 26.594719 1.038321 1.252700 0.051285 -0.008136 335813.000000 0 0 1
-11.428861 -22.071782 7.801129 26.050721 1.093007 1.266670 0.043359 -0.008981 -409518.000000 0 0 1
-11.188361 -23.462782 7.695229 27.109005 1.125835 1.282976 0.035383 0.000248 -442623.000000 0 0 1
-9.965961 -23.753382 7.064329 26.710453 1.173543 1.303134 0.067307 -0.016642 -5184.960000 0 0 1
-9.810461 -25.256812 7.058229 27.999470 1.200305 1.315963 0.062337 -0.010100 -349560.000000 0 0 1
-10.613561 -25.925902 6.140029 28.679262 1.182229 1.355033 0.059532 -0.019467 -361998.000000 0 0 1
-10.822861 -27.242882 6.520929 30.030509 1.192643 1.351909 0.097458 -0.028917 14197.800000 0 0 1
-9.864161 -28.240572 5.802929 30.471390 1.234754 1.379187 0.126302 -0.039356 -924.343000 0 0 1
-8.506461 -27.978032 6.126929 29.877574 1.275637 1.364263 0.116491 -0.038299 561689.000000 0 0 1
-7.555461 -28.932322 5.604129 30.423191 1.315358 1.385533 0.135120 -0.032147 716514.000000 0 0 1
-7.648461 -30.295102 6.404629 31.895320 1.323499 1.368620 0.156377 -0.040596 -614938.000000 0 0 1
-7.443461 -30.221442 7.759329 32.077218 1.329306 1.326478 0.151149 -0.039696 90897.700000 0 0 1
-7.466461 -31.544422 8.216329 33.441093 1.338377 1.322559 0.178206 -0.044128 -159097.000000 0 0 1
-7.727461 -31.550392 9.732029 33.909487 1.330600 1.279703 0.146192 -0.042043 -572917.000000 0 0 1
-6.790461 -30.897712 10.536229 33.343532 1.354463 1.249296 0.145097 -0.035250 -80193.500000 0 0 1
-7.103461 -31.107182 11.918129 34.061089 1.346291 1.213327 0.121865 -0.023220 -114086.000000 0 0 1
-6.108461 -30.320832 12.835829 33.487680 1.371996 1.177430 0.114162 -0.024394 223573.000000 0 0 1
-6.209461 -28.948142 12.687429 32.210607 1.359495 1.165937 0.103782 -0.023883 221170.000000 0 0 1
-5.416461 -28.173442 13.606129 31.752286 1.380860 1.127955 0.082115 -0.027695 215743.000000 0 0 1
-6.181461 -27.677932 14.860229 32.017258 1.351067 1.088142 0.091671 -0.024593 64656.600000 0 0 1
-6.659461 -28.504772 15.909629 33.316464 1.341287 1.072954 0.074142 -0.018331 926937.000000 0 0 1
-5.645461 -29.385812 16.489329 34.165702 1.380994 1.067143 0.061609 -0.019880 1114460.000000 0 0 1
-6.324461 -30.701302 17.045429 35.680743 1.367638 1.072738 0.058560 -0.015480 280650.000000 0 0 1
-6.802461 -31.509142 16.003129 35.988883 1.358171 1.109992 0.068212 -0.013118 313312.000000 0 0 1
-7.451461 -32.714372 16.363629 37.329918 1.346844 1.117032 0.070396 -0.019197 356016.000000 0 0 1
-6.546461 33.826005 15.935629 37.960493 -1.379626 1.137577 0.062800 -0.028917 460163.000000 0 0 1
-6.520461 33.567473 14.580429 37.173654 -1.378936 1.167747 0.072822 -0.026254 889255.000000 0 0 1
-5.316461 32.847014 14.258829 36.200902 -1.410333 1.165947 0.096544 -0.033936 1358640.000000 0 0 1
-4.269461 33.574152 13.330829 36.375308 -1.444310 1.195573 0.110674 -0.038015 583566.000000 0 0 1
-4.768461 33.545740 12.003129 35.946210 -1.429594 1.230338 0.126661 -0.037429 47344.500000 0 0 1
-3.980461 -33.354792 11.251229 35.425646 1.452021 1.247598 0.138007 -0.044723 -510484.000000 0 0 1
-4.449461 -33.126412 9.841229 34.842599 1.437278 1.284451 0.136633 -0.049295 -1135800.000000 0 0 1
-4.319461 33.543222 8.900229 34.971697 -1.442728 1.313468 0.142553 -0.047330 391723.000000 0 0 1
-5.031461 32.289167 9.156329 33.937358 -1.416214 1.297610 0.158825 -0.052561 334802.000000 0 0 1
-6.541461 32.373621 9.481929 34.362029 -1.371419 1.291227 0.163167 -0.049224 8195.950000 0 0 1
-7.376461 32.696921 8.362929 34.546192 -1.348910 1.326288 0.157943 -0.045256 477445.000000 0 0 1
-8.758461 32.700112 8.766829 34.969491 -1.309097 1.317394 0.117937 -0.047933 879890.000000 0 0 1
-9.701461 32.936456 7.575129 35.161215 -1.284346 1.353654 0.124918 -0.060424 -239678.000000 0 0 1
-9.944861 -33.478442 7.262029 35.671325 1.282046 1.365781 0.145618 -0.052319 -65546.700000 0 0 1
-10.805161 -33.537622 6.146829 35.767403 1.259117 1.398083 0.137429 -0.047168 17977.000000 0 0 1
-11.293161 -32.202692 5.565529 34.576350 1.233507 1.409130 0.122274 -0.049208 -203095.000000 0 0 1
-12.270161 -31.578022 6.336929 34.465708 1.200185 1.385882 0.129454 -0.049700 -574862.000000 0 0 1
-12.932061 -30.647562 5.499329 33.715781 1.171503 1.406956 0.115156 -0.042484 171370.000000 0 0 1
-13.941861 -29.867702 6.401829 33.577352 1.134070 1.378963 0.083105 -0.031092 -245748.000000 0 0 1
-15.152961 -30.504192 6.667229 34.706915 1.109752 1.377494 0.087010 -0.031015 -673170.000000 0 0 1
-15.955361 -29.722762 7.466729 34.550951 1.078139 1.352970 0.074374 -0.029310 -339063.000000 0 0 1
34.283129 -12.510182 -11.816071 38.359577 -0.349894 1.883923 0.111098 -0.031149 -126294.000000 0 0 1
33.287749 -13.088582 -10.975471 37.414519 -0.374626 1.868523 0.127095 -0.032550 247641.000000 0 0 1
33.299279 -14.505182 -10.787871 37.889583 -0.410815 1.859509 0.121655 -0.033620 580232.000000 0 0 1
34.535539 -15.083382 -9.988571 38.986965 -0.411780 1.829888 0.107476 -0.038719 2852770.000000 0 0 1
35.871879 -14.871982 -10.605371 40.254708 -0.393017 1.837400 0.117311 -0.038445 1131890.000000 0 0 1
36.832799 -15.287182 -9.725671 41.048042 -0.393407 1.810005 0.097658 -0.037616 -499420.000000 0 0 1
-36.530301 -15.250782 -10.282271 40.899564 0.395487 1.824926 0.074409 -0.043441 20854.600000 0 0 1
-35.954154 -13.984682 -10.477271 39.975564 0.370952 1.835986 0.079994 -0.032302 -893036.000000 0 0 1
-34.604259 -14.104182 -10.742171 38.881575 0.387028 1.850717 0.077463 -0.031124 -1007030.000000 0 0 1
-33.928931 -12.746182 -10.954271 37.863354 0.359361 1.864303 0.082038 -0.040483 -276714.000000 0 0 1
-33.702891 -11.990982 -9.782271 37.085864 0.341819 1.837729 0.092927 -0.032186 438113.000000 0 0 1
-33.171991 -10.681382 -10.099771 36.283306 0.311516 1.852881 0.099360 -0.023866 -31243.100000 0 0 1
-33.723251 -9.593482 -9.184171 36.244193 0.277155 1.826987 0.104163 -0.027394 -209206.000000 0 0 1
-33.317811 -9.725382 -7.851871 35.585270 0.284007 1.793277 0.108657 -0.021851 180401.000000 0 0 1
-33.785571 -8.655482 -7.040671 35.580236 0.250795 1.769993 0.146898 -0.038399 162250.000000 0 0 1
-33.079301 -8.607382 -5.625571 34.640644 0.254560 1.733917 0.123186 -0.028477 -232427.000000 0 0 1
-31.796301 -8.001282 -5.692471 33.278063 0.246523 1.742699 0.130834 -0.049857 247649.000000 0 0 1
-31.180631 -7.945182 -4.426171 32.479973 0.249502 1.707496 0.145967 -0.044139 -614974.000000 0 0 1
-30.431771 -9.203682 -4.005871 32.044460 0.293691 1.696134 0.140396 -0.041922 -885289.000000 0 0 1
-31.259931 -10.342282 -3.771271 33.141644 0.319512 1.684836 0.147280 -0.042891 257870.000000 0 0 1
-31.748981 -10.299782 -2.445071 33.467322 0.313701 1.643920 0.132579 -0.044055 -110878.000000 0 0 1
-32.371241 -11.670282 -2.030771 34.470520 0.346010 1.629744 0.141664 -0.037352 -561573.000000 0 0 1
-33.652621 -11.857382 -2.537771 35.770612 0.338764 1.641802 0.159193 -0.050708 -441956.000000 0 0 1
-34.187310 -13.118582 -2.259271 36.687514 0.366399 1.632417 0.160333 -0.054856 -1083300.000000 0 0 1
-35.683681 -13.188482 -2.466471 38.122757 0.354023 1.635540 0.132493 -0.046410 -1197810.000000 0 0 1
-36.361361 -12.628782 -1.400171 38.517466 0.334279 1.607156 0.165966 -0.047851 -106343.000000 0 0 1
37.048579 -12.591282 -1.649671 39.164513 -0.327612 1.612930 0.218753 -0.048408 402844.000000 0 0 1
36.342269 -11.559782 -0.684771 38.142601 -0.307961 1.588750 0.209649 -0.050318 89401.400000 0 0 1
36.443169 -12.073882 0.626829 38.396304 -0.319926 1.554470 0.241403 -0.046929 316634.000000 0 0 1
35.470069 -11.647082 1.582829 37.366906 -0.317271 1.528425 0.257648 -0.042402 256724.000000 0 0 1
35.904069 -11.992582 3.056129 37.977153 -0.322366 1.490236 0.236490 -0.050387 -104135.000000 0 0 1
35.043139 -11.680082 4.116429 37.167068 -0.321726 1.459814 0.212024 -0.055047 -229618.000000 0 0 1
35.602359 -12.062282 5.362329 37.970794 -0.326668 1.429100 0.212632 -0.053542 53585.700000 0 0 1
34.480389 -12.207082 6.394929 37.132267 -0.340260 1.397713 0.187687 -0.050173 9848.550000 0 0 1
33.885369 -10.996582 6.789029 36.266155 -0.313800 1.382485 0.179653 -0.054718 -128384.000000 0 0 1
33.411129 -11.123682 8.111929 36.136454 -0.321391 1.344386 0.137308 -0.042938 -166895.000000 0 0 1
32.605729 -9.898582 8.666129 35.159882 -0.294742 1.321752 0.136555 -0.053091 -61240.900000 0 0 1
31.265409 -9.764182 8.256129 33.779117 -0.302703 1.323880 0.146855 -0.044828 -253153.000000 0 0 1
30.599629 -8.696882 8.822829 33.012352 -0.276913 1.300249 0.148906 -0.037818 -190284.000000 0 0 1
29.062339 -8.770582 8.739229 31.589821 -0.293094 1.290493 0.124290 -0.033949 9513.490000 0 0 1
28.498839 -8.450882 7.477829 30.651577 -0.288274 1.324347 0.157755 -0.039718 432324.000000 0 0 1
27.422139 -9.319282 7.124729 29.825904 -0.327600 1.329587 0.166226 -0.054627 -74753.800000 0 0 1
26.578939 -8.750582 5.966529 28.611400 -0.318053 1.360718 0.178997 -0.052918 -238425.000000 0 0 1
25.671539 -7.734582 6.338229 27.550406 -0.292640 1.338658 0.189720 -0.054964 313729.000000 0 0 1
24.876939 -7.302282 5.272529 26.457230 -0.285516 1.370168 0.197600 -0.055831 -250085.000000 0 0 1
25.496739 -6.075682 4.586029 26.608820 -0.233930 1.397581 0.208080 -0.054697 758301.000000 0 0 1
26.636539 -6.399782 3.749529 27.649980 -0.235794 1.434770 0.207553 -0.043445 966643.000000 0 0 1
27.388139 -5.318482 3.316129 28.096141 -0.191802 1.452493 0.218839 -0.046152 -332132.000000 0 0 1
27.985639 -5.502582 1.946229 28.587799 -0.194145 1.502665 0.204929 -0.055271 -271249.000000 0 0 1
26.967939 -5.470782 0.985629 27.534899 -0.200146 1.534993 0.224351 -0.057903 120981.000000 0 0 1
27.558439 -5.388382 -0.289271 28.081772 -0.193090 1.581098 0.201710 -0.057393 -903906.000000 0 0 1
26.696439 -5.656782 -1.492671 27.329968 -0.208804 1.625440 0.226309 -0.054515 -590765.000000 0 0 1
25.621939 -4.768882 -1.666571 26.115196 -0.184019 1.634656 0.257094 -0.048229 -11016.000000 0 0 1
24.856339 -5.065182 -2.809771 25.522314 -0.201026 1.681111 0.241452 -0.049479 -217115.000000 0 0 1
23.550739 -4.251182 -2.870671 24.102917 -0.178588 1.690180 0.196736 -0.040855 -325319.000000 0 1 0
23.677239 -2.829782 -2.927871 24.024816 -0.118951 1.692969 0.181215 -0.044680 249595.000000 0 1 0
24.200839 -2.244382 -4.080171 24.644790 -0.092475 1.737121 0.184961 -0.044555 -290276.000000 0 1 0
23.042039 -1.595682 -4.845571 23.600028 -0.069141 1.777588 0.171513 -0.030877 -43614.900000 0 1 0
22.534939 -0.474082 -4.185671 22.925272 -0.021035 1.754405 0.146741 -0.016241 183719.000000 0 1 0
21.466239 0.083218 -4.923071 22.023691 0.003877 1.796236 0.141136 -0.011338 -334461.000000 0 1 0
21.271239 1.561218 -4.626371 21.824443 0.073264 1.784398 0.121988 -0.001951 -588325.000000 0 1 0
22.373239 2.367718 -4.876871 23.020682 0.105436 1.784261 0.151625 -0.010798 331908.000000 0 1 0
23.208739 2.610618 -3.734471 23.651790 0.112013 1.729354 0.162519 0.001419 53019.800000 0 1 0
24.310039 3.657918 -3.908071 24.892396 0.149349 1.728447 0.161153 -0.004847 -16174.000000 0 1 0
23.740639 4.925818 -3.825371 24.546183 0.204582 1.727278 0.136676 -0.003610 1413680.000000 0 1 0
24.793139 5.831218 -3.428171 25.699323 0.230997 1.704591 0.136825 -0.008015 636082.000000 0 0 1
24.315939 7.270018 -3.459271 25.614149 0.290522 1.706263 0.118634 -0.012030 251410.000000 0 0 1
23.287439 7.518318 -2.475371 24.595882 0.312285 1.671609 0.140912 -0.016392 667436.000000 0 1 0
22.681239 8.722918 -2.847671 24.467062 0.367149 1.687449 0.130801 -0.011436 -442027.000000 0 1 0
21.569939 9.148418 -1.898171 23.506571 0.401132 1.651635 0.105251 -0.007847 -160034.000000 0 1 0
22.160839 9.712818 -0.677571 24.205386 0.413071 1.598793 0.086692 -0.007560 1245930.000000 0 1 0
21.154439 10.252318 0.185429 23.508609 0.451285 1.562909 0.058955 -0.007427 602946.000000 0 1 0
21.806439 10.543818 1.612829 24.275381 0.450376 1.504308 0.088177 -0.020793 202933.000000 0 1 0
22.645239 11.686018 1.779029 25.544761 0.476403 1.501096 0.098708 -0.030043 524445.000000 0 0 1
22.110439 13.016918 1.636529 25.709724 0.532086 1.507099 0.105448 -0.027812 -511011.000000 0 0 1
21.008639 13.451818 2.630429 25.084527 0.569526 1.465741 0.099108 -0.021737 -345919.000000 0 0 1
19.738339 12.866818 2.340429 23.677725 0.577688 1.471789 0.113501 -0.019122 690196.000000 0 1 0
18.687139 13.622018 2.941329 23.311370 0.629893 1.444283 0.093055 -0.021655 53708.600000 0 1 0
18.504639 13.686018 4.458229 23.443647 0.636811 1.379463 0.078475 -0.014265 -894970.000000 0 1 0
18.074339 12.518518 5.027329 22.553693 0.605751 1.346003 0.056452 -0.006215 397530.000000 0 1 0
18.494839 12.490118 6.387929 23.213525 0.593976 1.292018 0.084411 -0.016469 -37367.000000 0 1 0
18.423339 11.043718 6.921829 22.567562 0.540009 1.259056 0.039545 -0.017034 -229993.000000 0 1 0
19.462539 10.276518 6.370629 22.912489 0.485808 1.289041 0.032977 -0.018840 434668.000000 0 1 0
19.464039 8.991818 6.997929 22.553772 0.432764 1.255311 0.043869 -0.014933 -562718.000000 0 1 0
20.450739 8.071918 6.361829 22.888020 0.375930 1.289132 0.071325 -0.017538 -706316.000000 0 1 0
20.126439 7.786218 5.016929 22.155548 0.369132 1.342374 0.054331 -0.018168 646479.000000 0 1 0
20.861639 6.723718 4.454729 22.366515 0.311788 1.370286 0.057336 -0.021051 -340773.000000 0 1 0
20.652339 6.740618 2.899729 21.917196 0.315484 1.438103 0.069503 -0.006956 -64210.200000 0 1 0
21.522239 5.786718 2.332529 22.408337 0.262660 1.466515 0.064262 -0.012077 371704.000000 0 1 0
21.311039 5.676818 0.928729 22.073722 0.260334 1.528710 0.071876 -0.001847 -714956.000000 0 1 0
22.279739 4.822518 0.174929 22.796361 0.213165 1.563123 0.115385 -0.012096 -575930.000000 0 1 0
22.090539 3.444618 0.437829 22.361776 0.154686 1.551216 0.100221 -0.007366 1271440.000000 0 1 0
23.198639 2.626218 -0.007871 23.346819 0.112726 1.571133 0.130025 -0.011878 689310.000000 0 1 0
22.877139 1.118318 0.203229 22.905358 0.048845 1.561924 0.159130 -0.018138 -391911.000000 0 1 0
21.945939 0.578718 -0.681871 21.964155 0.026364 1.601846 0.098076 -0.022973 385238.000000 0 1 0
22.268139 -0.755682 -1.028471 22.304682 -0.033923 1.616923 0.148235 -0.030179 -966615.000000 0 1 0
21.993839 -1.843682 0.054029 22.071046 -0.083632 1.568348 0.164591 -0.029231 -352948.000000 0 1 0
22.885539 -2.007582 1.115629 23.000498 -0.087499 1.522273 0.161738 -0.031309 -85699.000000 0 1 0
24.134839 -2.554582 0.733629 24.280745 -0.105454 1.540577 0.191011 -0.037838 -101571.000000 0 1 0
25.173439 -2.306282 1.871929 25.348079 -0.091361 1.496880 0.202674 -0.036284 -183644.000000 0 0 1
25.306339 -0.883682 2.109929 25.409516 -0.034905 1.487664 0.192414 -0.036120 935840.000000 0 0 1
26.426139 -0.578082 2.955129 26.597139 -0.021872 1.459459 0.204249 -0.034617 45225.000000 0 0 1
26.357839 0.740918 3.714829 26.628643 0.028103 1.430835 0.186174 -0.025070 -47447.000000 0 0 1
26.835239 1.940418 3.145929 27.088598 0.072183 1.454399 0.220367 -0.016665 -585811.000000 0 0 1
28.136739 1.990118 2.680629 28.334122 0.070613 1.476047 0.217014 -0.023827 -850881.000000 0 0 1
28.549439 3.156718 1.795029 28.779463 0.110123 1.508384 0.228508 -0.027819 111270.000000 0 0 1
27.959539 2.886618 0.531629 28.113183 0.102878 1.551885 0.233714 -0.016665 338772.000000 0 0 1
28.201839 4.003718 -0.291571 28.486111 0.141024 1.581032 0.210380 -0.017545 -863312.000000 0 0 1
29.383039 3.849118 -1.209171 29.658739 0.130256 1.611577 0.191437 -0.018607 -638290.000000 0 0 1
30.588059 4.116118 -0.494671 30.867726 0.133763 1.586823 0.183483 -0.022590 -502314.000000 0 0 1
31.671199 3.750918 -1.265871 31.917655 0.117884 1.610467 0.141892 -0.020519 -973275.000000 0 0 1
33.059759 4.125418 -0.755371 33.324726 0.124145 1.593465 0.098084 -0.025307 -293366.000000 0 0 1
33.565489 3.505618 0.419929 33.750671 0.104064 1.558354 0.121818 -0.026602 -46471.900000 0 0 1
32.946909 3.869818 1.623429 33.213098 0.116920 1.521898 0.112888 -0.014135 -337179.000000 0 0 1
33.093179 2.941118 2.802829 33.341634 0.088641 1.486633 0.129267 -0.016040 187192.000000 0 0 1
32.222349 1.808018 2.634329 32.380371 0.056052 1.489351 0.164051 -0.021478 359114.000000 0 0 1
32.311849 0.883418 3.704929 32.535558 0.027334 1.456676 0.153065 -0.025126 -885944.000000 0 0 1
33.483969 -0.051182 3.651429 33.682514 -0.001529 1.462176 0.156116 -0.026750 -1295820.000000 0 0 1
34.658819 0.575018 4.029229 34.896978 0.016589 1.455078 0.137751 -0.033609 -817698.000000 0 0 1
35.760709 -0.289782 3.968429 35.981394 -0.008103 1.460280 0.113340 -0.030822 -17813.400000 0 0 1
37.118149 0.287918 4.509529 37.392189 0.007757 1.449901 0.136346 -0.048029 608673.000000 0 0 1
-37.220481 1.370518 3.753429 37.434352 -0.036805 1.470361 0.122254 -0.048359 365124.000000 0 0 1
-36.256631 0.858518 2.821929 36.376416 -0.023674 1.493143 0.167788 -0.044286 -158933.000000 0 0 1
-35.788957 1.789218 1.718029 35.874815 -0.049952 1.522888 0.190119 -0.043822 -440581.000000 0 0 1
-34.886983 2.740718 2.169129 35.061635 -0.078399 1.508891 0.210553 -0.065377 286990.000000 0 0 1
-34.050758 3.373718 1.188229 34.238107 -0.098757 1.536084 0.237897 -0.042011 47759.800000 0 0 1
-33.068821 4.356218 1.812729 33.403735 -0.130978 1.516502 0.250809 -0.037642 115929.000000 0 0 1
-32.057651 3.738918 2.636429 32.382453 -0.116106 1.489291 0.230447 -0.053442 419314.000000 0 0 1
-31.367441 4.655018 3.453629 31.898481 -0.147328 1.462314 0.248281 -0.046599 -533165.000000 0 0 1
-31.769481 4.644218 4.907729 32.480063 -0.145157 1.419116 0.242974 -0.043794 -864011.000000 0 0 1
-33.070921 5.116318 5.095329 33.850035 -0.153491 1.419695 0.236849 -0.026614 538858.000000 0 0 1
-34.145863 4.130618 5.075529 34.767268 -0.120385 1.424287 0.220262 -0.023156 498653.000000 0 0 1
-34.183670 3.125418 6.222429 34.885672 -0.091177 1.391470 0.183226 -0.022789 -985735.000000 0 0 1
-34.533458 3.851418 7.365029 35.519527 -0.111068 1.361929 0.172835 -0.016533 339280.000000 0 0 1
-34.675800 3.131918 8.625829 35.869554 -0.090076 1.327938 0.152039 -0.019614 -274669.000000 0 0 1
-35.786898 2.074918 8.776229 36.905684 -0.057915 1.330694 0.134704 -0.015916 -442006.000000 0 0 1
-35.551752 0.901318 8.018029 36.455839 -0.025347 1.349045 0.137312 -0.025311 238038.000000 0 0 1
-36.412551 -0.202782 8.268329 37.340062 0.005569 1.347512 0.130742 -0.020890 -199170.000000 0 0 1
-36.001764 -1.056182 9.518829 37.253867 0.029329 1.312419 0.132607 -0.015103 741469.000000 0 0 1
-34.778554 -1.816582 9.359929 36.061836 0.052185 1.308238 0.144084 -0.026160 1052420.000000 0 0 1
-34.631100 -2.589782 10.507829 36.282703 0.074643 1.276977 0.131016 -0.012361 -204467.000000 0 0 1
-33.356791 -3.447682 10.588729 35.166507 0.102992 1.264948 0.148128 -0.010443 -272625.000000 0 0 1
-33.393131 -4.556082 9.741429 35.082111 0.135600 1.289423 0.142434 -0.025809 240502.000000 0 0 1
-32.258231 -5.402882 9.789529 34.141170 0.165948 1.279977 0.151568 -0.029097 42035.800000 0 0 1
-32.370341 -6.496782 8.704829 34.144124 0.198070 1.313007 0.151268 -0.022516 124359.000000 0 0 1
-33.416681 -7.381782 9.025029 35.392321 0.217410 1.312949 0.163246 -0.031420 -20934.900000 0 0 1
-33.679031 -8.184582 7.894429 35.546962 0.238396 1.346844 0.166936 -0.038936 192426.000000 0 0 1
-34.591455 -9.415182 8.184029 36.772173 0.265745 1.346356 0.182209 -0.041182 -653252.000000 0 0 1
-35.892657 -9.023282 8.386929 37.947899 0.246292 1.347945 0.172395 -0.049391 -632519.000000 0 0 1
-36.763051 -10.144182 8.708529 39.118599 0.269235 1.346297 0.179744 -0.050613 602463.000000 0 0 1
8.186989 -24.113082 10.721429 27.629994 -1.243484 1.172297 0.155563 -0.037608 28835.200000 0 0 1
7.531289 -24.636982 9.592829 27.490427 -1.274127 1.214344 0.138095 -0.046439 -521319.000000 0 0 1
6.148789 -24.819582 9.757429 27.368352 -1.327946 1.206253 0.150614 -0.051132 33152.200000 0 0 1
5.584789 -25.706002 8.672229 27.698303 -1.356865 1.252345 0.119381 -0.034820 -466640.000000 0 0 1
5.316889 -24.976482 7.486229 26.610855 -1.361051 1.285624 0.118562 -0.031548 -272096.000000 0 0 1
5.131789 -25.935662 6.463129 27.217015 -1.375453 1.331039 0.089326 -0.021398 -144009.000000 0 0 1
4.379389 -25.590842 5.131729 26.465164 -1.401307 1.375655 0.080425 -0.020400 791549.000000 0 0 1
2.973189 -25.495482 5.323529 26.214489 -1.454704 1.366298 0.078322 -0.026912 236866.000000 0 0 1
2.201889 -26.648162 4.981429 27.199035 -1.488355 1.386609 0.069848 -0.022563 518991.000000 0 0 1
0.667189 -26.392922 4.953529 26.862035 -1.545523 1.385329 0.087187 -0.027384 296827.000000 0 0 1
0.178289 -25.956562 6.240429 26.696777 -1.563928 1.334861 0.085567 -0.030898 120112.000000 0 0 1
-1.211011 -26.129432 6.461029 26.943621 1.524483 1.328638 0.094716 -0.033023 855456.000000 0 0 1
-1.943011 -27.517542 6.536229 28.349828 1.500303 1.338147 0.111087 -0.032893 86477.500000 0 0 1
-1.431011 -28.301112 7.599629 29.338629 1.520276 1.308777 0.090491 -0.034159 121749.000000 0 0 1
-2.099611 -29.534412 7.657729 30.583177 1.499825 1.317713 0.129363 -0.038183 -197599.000000 0 0 1
-1.903411 -30.232922 9.009229 31.604094 1.507921 1.281722 0.117692 -0.037329 -195156.000000 0 0 1
-0.570611 -30.627112 9.186129 31.980159 1.552168 1.279447 0.098372 -0.024277 -402662.000000 0 0 1
-0.423411 -31.007932 10.525329 32.748339 1.557142 1.243588 0.096376 -0.015246 232402.000000 0 0 1
1.026189 -31.117512 11.067929 33.043179 -1.537830 1.229240 0.085468 -0.025731 -104626.000000 0 0 1
1.762889 -32.237062 10.625229 33.988696 -1.516166 1.252856 0.101950 -0.021094 571054.000000 0 0 1
3.073189 -32.321092 11.214229 34.349039 -1.475998 1.238221 0.086921 -0.018930 656253.000000 0 0 1
3.202589 -32.735712 12.661729 35.244898 -1.473275 1.203332 0.099488 -0.020306 -586019.000000 0 0 1
2.702889 -31.931162 13.719929 34.858876 -1.486350 1.166268 0.104561 -0.024567 38819.100000 0 0 1
2.962689 -32.527852 14.971829 35.930410 -1.479965 1.140996 0.102833 -0.022233 -920888.000000 0 0 1
2.525289 -31.545292 16.090729 35.502030 -1.490914 1.100406 0.113713 -0.024984 -306591.000000 0 0 1
3.199489 -30.301932 16.107429 34.465825 -1.465599 1.084511 0.135650 -0.037436 1476770.000000 0 0 1
4.651689 -30.384902 16.190529 34.742103 -1.418884 1.086009 0.117669 -0.031624 1097220.000000 0 0 1
5.324289 -29.110922 15.622829 33.464409 -1.389899 1.085072 0.136570 -0.035455 -77308.000000 0 0 1
5.473889 -28.907562 14.225429 32.679863 -1.383654 1.120429 0.125067 -0.028058 716978.000000 0 0 1
4.255289 -28.897932 13.459429 32.161378 -1.424595 1.139007 0.116930 -0.020041 452506.000000 0 0 1
4.714989 -28.837142 11.955129 31.571142 -1.408726 1.182435 0.092182 -0.021373 190676.000000 0 0 1
5.340889 -29.897202 11.348429 32.421515 -1.394019 1.213196 0.081114 -0.019200 16048.000000 0 0 1
6.696489 -30.151632 11.680229 33.021079 -1.352250 1.209251 0.092080 -0.013402 -148361.000000 0 0 1
7.193889 -31.467072 11.012629 34.105816 -1.346042 1.242009 0.071870 -0.008024 -4895.410000 0 0 1
6.917189 -32.596222 11.809529 35.352881 -1.361690 1.230202 0.059383 -0.021771 301424.000000 0 0 1
7.311889 -33.705682 10.985929 36.197063 -1.357173 1.262429 0.068492 -0.015011 102083.000000 0 0 1
7.244589 32.713071 11.794129 35.520847 1.352855 1.232337 0.067236 -0.012940 385056.000000 0 0 1
5.919589 32.449767 12.221729 35.176691 1.390357 1.215959 0.065098 -0.017722 165603.000000 0 0 1
5.941089 31.151405 12.764329 34.185299 1.382343 1.188139 0.070276 -0.014846 688448.000000 0 0 1
4.601889 30.818875 13.501929 33.960014 1.422571 1.161915 0.087556 -0.018275 615395.000000 0 0 1
4.502989 31.573105 14.673929 35.106439 1.429131 1.139571 0.104216 -0.023675 -210993.000000 0 0 1
3.417289 31.108675 15.426229 34.891204 1.461385 1.112831 0.121047 -0.028391 -69119.000000 0 0 1
3.606489 31.388295 16.964929 35.861409 1.456399 1.078025 0.128503 -0.031527 138790.000000 0 0 1
3.732389 32.755418 17.283429 37.223179 1.457338 1.087931 0.126520 -0.030190 397886.000000 0 0 1
4.281389 32.951602 18.622929 38.091362 1.441591 1.059966 0.121426 -0.027781 250613.000000 0 0 1
4.421989 -33.382882 19.097929 38.713069 -1.439100 1.054894 0.121371 -0.032178 83668.500000 0 0 1
3.230389 -32.709672 19.414629 38.174414 -1.472356 1.037265 0.108633 -0.027910 -495008.000000 0 0 1
3.442989 -31.974642 20.565929 38.173150 -1.463531 1.001839 0.104704 -0.030843 79000.200000 0 0 1
2.264289 -31.159622 21.162629 37.734678 -1.498256 0.975412 0.100965 -0.020995 -379766.000000 0 0 1
1.372589 -31.999602 21.795429 38.741442 -1.527929 0.973285 0.112535 -0.019035 -575377.000000 0 0 1
0.315389 -31.290502 22.413829 38.491230 -1.560717 0.949229 0.088899 -0.016021 -82373.900000 0 0 1
-0.826511 -32.131622 23.004629 39.526412 1.545079 0.949602 0.102040 -0.015792 -1011670.000000 0 0 1
-1.517511 -32.758592 21.947029 39.460110 1.524505 0.981011 0.100740 -0.017540 -116218.000000 0 0 1
-2.322711 -33.834032 22.405129 40.646360 1.502254 0.986969 0.108544 -0.021483 435620.000000 0 0 1
-3.673011 -33.414492 23.066429 40.768609 1.461313 0.969407 0.120535 -0.021226 -629713.000000 0 0 1
-4.669911 -33.000162 22.175129 40.031927 1.430218 0.983712 0.096464 -0.023512 -445664.000000 0 0 1
-5.751611 -32.516502 22.959429 40.218644 1.395724 0.963237 0.090201 -0.014508 581694.000000 0 0 1
-7.024711 -32.120772 22.146029 39.642618 1.355489 0.978049 0.078059 -0.011161 418700.000000 0 0 1
-7.665111 -33.168352 21.412929 40.217000 1.343686 1.009322 0.052543 -0.005710 -709584.000000 0 0 1
-8.685311 -32.551252 20.732229 39.558109 1.310051 1.019144 0.060428 -0.017407 -456938.000000 0 0 1
-10.048511 -33.277932 20.654829 40.435323 1.277545 1.034668 0.065012 -0.025101 88995.900000 0 0 1
-10.788311 -33.237322 21.815229 41.194799 1.256941 1.012711 0.083734 -0.027687 -510912.000000 0 0 1
-12.077311 -33.789372 21.726729 41.947990 1.227518 1.026350 0.070228 -0.021960 412127.000000 0 0 1
-12.766111 33.706414 23.117229 42.819414 -1.208747 1.000505 0.072688 -0.016789 128333.000000 0 0 1
-13.111211 -32.942282 23.937029 42.779425 1.192010 0.976959 0.069961 -0.015453 419841.000000 0 0 1
-12.002811 -32.183072 24.445729 42.159356 1.213820 0.952263 0.068029 -0.015177 485806.000000 0 0 1
-12.462911 -30.892722 25.206229 41.773657 1.187340 0.923038 0.067441 -0.023995 24363.100000 0 0 1
-12.830811 -31.112282 26.563229 42.874339 1.179643 0.902614 0.059252 -0.022332 77994.400000 0 0 1
-13.807411 -30.133032 26.835929 42.647524 1.141132 0.890209 0.076916 -0.033862 -247102.000000 0 0 1
-14.308311 -30.048832 28.303529 43.689242 1.126395 0.866054 0.073846 -0.038212 -84760.100000 0 0 1
-13.503211 -29.415842 29.272829 43.640887 1.140446 0.835555 0.062338 -0.028273 -85291.500000 0 0 1
-14.291411 -29.258732 30.385129 44.537332 1.116432 0.819975 0.077016 -0.025937 -279301.000000 0 0 1
-13.540411 -28.690182 31.590229 44.770659 1.129837 0.787525 0.067241 -0.022020 -439176.000000 0 0 1
-14.381811 -28.191242 32.593529 45.430395 1.099060 0.770678 0.073137 -0.023347 101464.000000 0 0 1
-13.740211 -27.942732 33.802629 45.958758 1.113789 0.744393 0.068192 -0.018295 -646453.000000 0 0 1
-13.077411 -29.043732 -33.138114 45.964026 1.147721 2.375980 0.074960 -0.012711 -938299.000000 0 0 1
-11.819211 -29.337472 -33.629614 46.166351 1.187818 2.386845 0.066007 -0.021159 -1049620.000000 0 0 1
-11.366111 -30.534522 -33.060414 46.416985 1.214449 2.363492 0.067088 -0.020622 58766.000000 0 0 1
-9.874011 -30.838792 -33.315814 46.459344 1.260929 2.370423 0.069100 -0.031109 177402.000000 0 0 1
-8.947211 -30.116812 -32.522114 45.219054 1.282017 2.373465 0.108389 -0.040742 -323075.000000 0 0 1
-7.795011 -30.845152 -32.217214 45.278411 1.323265 2.362478 0.131459 -0.049967 -1032160.000000 0 0 1
-6.953711 -30.074242 -31.305414 43.964112 1.343571 2.363235 0.152067 -0.045343 -681867.000000 0 0 1
-7.525011 -29.953562 -30.019214 43.069652 1.324667 2.341991 0.152810 -0.055367 529595.000000 0 0 1
-6.500811 -29.573692 -29.087714 41.987605 1.354420 2.336118 0.152066 -0.047385 657123.000000 0 0 1
-6.909411 -29.841772 -27.644014 41.260912 1.343271 2.304979 0.153260 -0.050015 43558.600000 0 0 1
-6.792711 -31.203702 -27.340014 42.039129 1.356451 2.278837 0.137878 -0.042427 -321755.000000 0 0 1
-7.533211 -31.394092 -26.177814 41.564603 1.335293 2.252105 0.146112 -0.046820 -125934.000000 0 0 1
-7.198111 -32.654642 -25.403514 41.993773 1.353835 2.220481 0.135102 -0.047030 -710706.000000 0 0 1
-6.018111 -32.457362 -24.711214 41.235205 1.387462 2.213391 0.103054 -0.049123 -884177.000000 0 0 1
-5.654911 -33.646692 -23.987714 41.707174 1.404285 2.183579 0.108104 -0.055774 -549757.000000 0 0 1
-4.408211 -33.379592 -23.160114 40.865883 1.439493 2.173334 0.124386 -0.063694 -503668.000000 0 0 1
-4.598311 -32.742142 -21.899214 39.658138 1.431269 2.155797 0.137445 -0.056109 49120.200000 0 0 1
-4.875211 -31.325682 -22.027114 38.603883 1.416405 2.178024 0.099178 -0.030792 -241923.000000 0 0 1
-5.388211 -30.727702 -20.677514 37.427050 1.397208 2.156127 0.142576 -0.038448 34532.000000 0 0 1
-6.766811 -30.996942 -20.422214 37.731512 1.355863 2.142720 0.142093 -0.047684 728914.000000 0 0 1
-7.539011 -29.782512 -20.327714 36.838169 1.322869 2.155331 0.145480 -0.042193 290434.000000 0 0 1
-7.889611 -28.973262 -21.548014 36.959610 1.304936 2.193231 0.165889 -0.054363 -481628.000000 0 0 1
-6.726011 -28.465972 -22.173214 36.704254 1.338769 2.219438 0.171294 -0.033007 -159008.000000 0 0 1
-7.006511 -27.709552 -23.297514 36.873902 1.323132 2.254690 0.202274 -0.042459 -292048.000000 0 0 1
-5.774311 -27.568962 -24.257914 37.173065 1.364331 2.281764 0.190309 -0.041257 742826.000000 0 0 1
-4.800111 -26.608942 -23.873414 36.069610 1.392321 2.294108 0.190652 -0.033072 453132.000000 0 0 1
-3.976711 -26.968572 -22.742614 35.501333 1.424394 2.266093 0.136672 -0.027102 -1136780.000000 0 0 1
-2.478011 -26.870082 -23.004014 35.458800 1.478835 2.276741 0.118578 -0.028450 -481334.000000 0 0 1
-1.874911 -25.585852 -23.239314 34.615269 1.497648 2.306839 0.106551 -0.028310 317736.000000 0 0 1
-1.937011 -24.647282 -22.135614 33.184725 1.492368 2.301028 0.117329 -0.038221 -830637.000000 0 0 1
-1.534511 -23.206982 -22.589814 32.422499 1.504770 2.341629 0.121762 -0.039397 3657.120000 0 0 1
-2.395911 -22.546682 -23.490914 32.648374 1.464929 2.373896 0.168463 -0.045052 -459622.000000 0 0 1
-3.656311 -22.257282 -22.955314 32.182319 1.407976 2.364977 0.170303 -0.046156 -343040.000000 0 0 1
-4.765911 -21.823782 -23.963914 32.760656 1.355790 2.391293 0.149066 -0.051666 149768.000000 0 0 1
-4.538711 -20.593182 -24.582214 32.387718 1.353866 2.432569 0.155526 -0.038780 -115446.000000 0 0 1
-5.106711 -20.437182 -25.873914 33.364897 1.325937 2.458276 0.198650 -0.047594 22695.600000 0 0 1
-4.369511 -21.105882 -27.085914 34.614992 1.366652 2.469452 0.157407 -0.036441 56033.600000 0 0 1
-4.963411 -20.744882 -28.319914 35.454240 1.335952 2.496050 0.156177 -0.041292 -225283.000000 0 0 1
-4.497911 -21.477382 -29.408114 36.692592 1.364354 2.500550 0.168347 -0.042623 -348967.000000 0 0 1
-5.595811 -21.968982 -30.359814 37.890205 1.321386 2.500190 0.163955 -0.040757 -440850.000000 0 0 1
-6.226611 -21.025082 -31.147214 38.091649 1.282874 2.528185 0.135075 -0.042152 -480192.000000 0 0 1
-6.995211 -21.592782 -32.150814 39.355509 1.257505 2.526869 0.132707 -0.039065 -639377.000000 0 0 1
-7.024311 -20.624382 -33.367014 39.850517 1.242535 2.563130 0.109708 -0.029448 -348638.000000 0 0 1
-5.902311 -20.814182 33.622129 39.981434 1.294479 0.571772 0.115168 -0.030657 -630084.000000 0 0 1
-6.130211 -20.237882 32.357029 38.653961 1.276674 0.578846 0.099740 -0.029629 981583.000000 0 0 1
-4.925411 -20.561382 31.396429 37.851894 1.335680 0.592666 0.110459 -0.036754 -170578.000000 0 0 1
-5.037411 -21.855182 30.853729 38.144162 1.344262 0.628566 0.108501 -0.029653 898475.000000 0 0 1
-3.969711 -22.276282 29.934129 37.523905 1.394444 0.647267 0.123352 -0.032116 2243620.000000 0 0 1
-2.505211 -22.400782 30.559129 37.972773 1.459423 0.635518 0.110629 -0.034354 556666.000000 0 0 1
-1.925411 -21.144582 30.445029 37.117387 1.479987 0.608972 0.121920 -0.030271 -879476.000000 0 0 1
-0.914511 -20.909882 31.372829 37.713578 1.527088 0.588326 0.121671 -0.037797 -416582.000000 0 0 1
-1.363311 -20.419182 32.824029 38.680984 1.504129 0.557495 0.110020 -0.039721 -58057.700000 0 0 1
-2.015011 -19.159482 32.824029 38.059991 1.466011 0.530748 0.101855 -0.040100 -79157.100000 0 0 1
-2.391511 -18.860682 -33.609414 38.613953 1.444671 2.626802 0.101153 -0.042007 538007.000000 0 0 1
-3.536011 -17.785982 -33.551414 38.138457 1.374546 2.646083 0.115683 -0.046696 294152.000000 0 0 1
-3.120311 -16.480982 -33.845914 37.774396 1.383683 2.681478 0.097710 -0.041985 -189392.000000 0 0 1
-4.114811 -15.485682 -33.645314 37.265872 1.311081 2.697138 0.108607 -0.041440 87687.400000 0 0 1
-3.647211 -14.054582 33.878029 36.858572 1.316894 0.404915 0.107317 -0.045220 -399547.000000 0 0 1
-2.594211 -13.607782 -33.065014 35.849642 1.382415 2.744851 0.103386 -0.046198 -51140.800000 0 0 1
-2.450711 -12.198082 -33.029814 35.295436 1.372526 2.781346 0.093434 -0.045452 155428.000000 0 0 1
-1.697211 -11.482482 33.566729 35.516943 1.424050 0.332925 0.089119 -0.046630 -189031.000000 0 0 1
-2.348611 -11.579682 32.304129 34.397119 1.370689 0.350643 0.082773 -0.041174 165719.000000 0 0 1
-1.601911 -11.019382 31.226329 33.152324 1.426435 0.342540 0.080838 -0.034901 -100703.000000 0 0 1
-0.528911 -11.962482 30.660229 32.915504 1.526611 0.372328 0.070341 -0.037299 -494227.000000 0 0 1
-0.893611 -12.954782 29.749229 32.459846 1.501926 0.411572 0.082489 -0.041248 238150.000000 0 0 1
0.119589 -13.972382 29.667429 32.793264 -1.562238 0.440167 0.071634 -0.040265 198671.000000 0 0 1
-0.228411 -15.233482 30.349829 33.959142 1.555803 0.465235 0.094811 -0.039596 -272107.000000 0 0 1
-1.196411 -15.925882 29.633329 33.663026 1.495814 0.494317 0.086441 -0.044182 -270600.000000 0 0 1
-1.823211 -16.874982 30.485929 34.892421 1.463172 0.508014 0.114994 -0.045751 151176.000000 0 0 1
-2.456411 -18.110882 29.767929 34.930898 1.435987 0.550631 0.122889 -0.025368 118981.000000 0 0 1
-3.570811 -17.757282 28.959229 34.157118 1.372353 0.558928 0.123936 -0.029072 27348.300000 0 0 1
-3.969711 -18.945682 28.285429 34.274816 1.364253 0.600144 0.134998 -0.034236 75912.000000 0 0 1
-5.162411 -18.731682 27.337329 33.538873 1.301874 0.617905 0.115734 -0.046195 127812.000000 0 0 1
-5.835911 -19.801382 26.707129 33.755346 1.284188 0.658032 0.120910 -0.039003 291554.000000 0 0 1
-4.940211 -20.684982 25.991529 33.583237 1.336357 0.685751 0.138904 -0.041275 250563.000000 0 0 1
-30.720661 -32.749380 -0.359771 44.904458 0.817351 1.578808 0.050891 -0.018546 98844.800000 0 0 1
-29.586111 -32.112980 0.202929 43.664890 0.826330 1.566149 0.067345 -0.023687 27656.700000 0 0 1
-29.938611 -31.551580 1.404729 43.517765 0.811623 1.538511 0.051339 -0.018141 -46472.300000 0 0 1
-29.168491 -30.284480 1.762129 42.083912 0.804167 1.528912 0.065551 -0.015108 -325832.000000 0 0 1
-27.790741 -30.460380 1.936229 41.278433 0.831196 1.523873 0.077379 -0.011164 -794431.000000 0 0 1
-27.079301 -29.261780 2.074029 39.922949 0.824116 1.518822 0.085158 -0.011009 452747.000000 0 0 1
-25.573411 -29.584080 2.299929 39.172781 0.857983 1.512050 0.063574 -0.001871 237751.000000 0 0 1
-25.380311 -30.171680 3.534329 39.585123 0.871435 1.481393 0.054907 0.005410 -34764.800000 0 0 1
-24.042011 -30.588880 3.699729 39.081784 0.904668 1.475988 0.057212 0.010329 100883.000000 0 0 1
-23.744611 -31.341780 4.998229 39.637053 0.922447 1.444360 0.054322 0.005904 -98339.800000 0 0 1
-24.086311 -30.687680 6.220129 39.504102 0.905340 1.412683 0.040436 0.014994 10207.800000 0 0 1
-23.587811 -31.310480 7.397229 39.892981 0.925153 1.384290 0.033686 0.001200 -164862.000000 0 0 1
-23.881411 -30.563280 8.698029 39.750366 0.907515 1.350195 0.040514 0.005357 -186920.000000 0 0 1
-23.145811 -29.390980 8.927729 38.461183 0.903715 1.336536 0.044169 0.003738 176053.000000 0 0 1
-23.716111 -28.852080 10.120329 38.695187 0.882790 1.306179 0.037362 -0.004059 181236.000000 0 0 1
-23.026411 -27.581380 10.635629 37.470852 0.875162 1.283003 0.041302 -0.005170 1282890.000000 0 0 1
-21.656711 -27.803980 11.060729 36.937977 0.909050 1.266690 0.036055 -0.008200 1002920.000000 0 0 1
-21.087711 -26.627780 11.661229 35.912595 0.900987 1.240090 0.052181 -0.011314 672516.000000 0 0 1
-19.675611 -26.879380 12.264729 35.497244 0.938917 1.218012 0.059062 -0.011344 293947.000000 0 0 1
-19.706011 -27.666980 13.454229 36.534982 0.951891 1.193664 0.075238 -0.018940 -96600.600000 0 0 1
-18.430111 -27.887580 14.016229 36.246942 0.986816 1.173760 0.083908 -0.025646 -18018.400000 0 0 1
-18.501411 -29.005580 15.115729 37.578067 1.003005 1.156825 0.097071 -0.035251 63600.500000 0 0 1
-18.615711 -30.248680 14.507929 38.366748 1.019114 1.183012 0.091003 -0.029876 -106028.000000 0 0 1
-18.325311 -31.238580 15.428829 39.366415 1.040270 1.168069 0.105682 -0.028330 97491.400000 0 0 1
-18.205811 -32.667880 14.985129 40.288907 1.062366 1.189696 0.086684 -0.036621 145315.000000 0 0 1
-18.052611 -33.601680 16.021029 41.372008 1.077792 1.173157 0.098953 -0.035451 14583.100000 0 0 1
-17.875111 32.842218 15.485029 40.471187 -1.072361 1.178167 0.072454 -0.035074 -22834.500000 0 0 1
-17.958111 31.664718 16.509129 39.971233 -1.054894 1.145023 0.077110 -0.036666 1003520.000000 0 0 1
-19.276011 31.324618 17.009529 40.523084 -1.019157 1.137627 0.082074 -0.042551 991802.000000 0 0 1
-19.211211 30.174618 17.902029 40.000760 -1.003851 1.106781 0.054438 -0.026482 -108517.000000 0 0 1
-19.780211 30.435418 19.290129 41.105723 -0.994486 1.082320 0.059098 -0.033426 -311159.000000 0 0 1
-19.096411 31.329918 20.076329 41.824582 -1.023402 1.070127 0.069638 -0.028793 -192816.000000 0 0 1
-19.929511 31.659718 21.172029 42.985788 -1.008974 1.055795 0.069455 -0.020208 156988.000000 0 0 1
-19.410611 32.852318 21.994029 44.042978 -1.037136 1.047917 0.059179 -0.010336 24616.300000 0 0 1
-18.207711 32.615518 22.692529 43.706334 -1.061639 1.024876 0.051344 -0.015220 -100077.000000 0 0 1
-18.078011 33.400818 23.823929 44.833121 -1.074700 1.010554 0.054491 -0.014939 -90579.800000 0 0 1
-18.686211 32.713818 25.097829 45.268857 -1.051821 0.983134 0.048681 -0.013680 630313.000000 0 0 1
-20.109411 32.722218 25.094629 45.878888 -1.019748 0.992049 0.037847 -0.018864 155166.000000 0 0 1
-20.774711 31.506118 25.145429 45.348833 -0.987851 0.983048 0.038907 -0.008621 -182748.000000 0 0 1
-22.303211 31.754918 25.150129 46.242156 -0.958492 0.995744 0.085467 -0.029915 150595.000000 0 0 1
-22.838311 31.655118 23.831429 45.733707 -0.945804 1.022667 0.064242 -0.010677 292072.000000 0 0 1
-24.212611 31.983318 23.748329 46.617232 -0.922806 1.036271 0.055734 -0.022554 51716.900000 0 0 1
-24.820711 31.786718 22.347429 46.107165 -0.907841 1.064794 0.052628 -0.030167 -307974.000000 0 0 1
-24.155811 32.519718 21.349529 45.791240 -0.931916 1.085765 0.051479 -0.025597 187975.000000 0 0 1
-23.850611 31.772318 20.183829 44.561404 -0.926865 1.100731 0.030051 -0.016396 -42687.400000 0 0 1
-23.456211 32.710018 19.032429 44.523841 -0.948689 1.129108 0.050142 -0.016647 659333.000000 0 0 1
-22.115311 33.171518 19.240829 44.267890 -0.982774 1.121152 0.063797 -0.021630 414656.000000 0 0 1
-21.667711 -33.729180 18.251929 44.048612 0.999781 1.143558 0.085181 -0.020191 87727.100000 0 0 1
-20.403911 -32.926080 18.600529 42.970059 1.016026 1.123120 0.089457 -0.026605 36051.800000 0 0 1
-20.690411 -31.963880 19.560329 42.806415 0.996317 1.096235 0.100986 -0.031281 117336.000000 0 0 1
-19.525711 -31.279080 19.936629 41.917817 1.012742 1.075136 0.088765 -0.037256 -142308.000000 0 0 1
-19.871511 -30.063180 20.858829 41.638474 0.986733 1.046099 0.079481 -0.022357 476319.000000 0 0 1
-20.502611 -28.901480 20.189629 40.783253 0.953792 1.052907 0.110545 -0.028356 703150.000000 0 0 1
-21.005111 -27.985680 21.145029 40.884291 0.926933 1.027229 0.116493 -0.025753 -103204.000000 0 0 1
-21.944911 -26.875080 20.627329 40.365031 0.886044 1.034426 0.101339 -0.033693 -470565.000000 0 0 1
-21.279211 -25.820580 20.016329 38.989237 0.881521 1.031676 0.080813 -0.011508 1123680.000000 0 0 1
-22.169011 -24.684580 19.662529 38.566936 0.839037 1.035811 0.075620 0.005554 1173360.000000 0 0 1
-23.344811 -24.837680 18.633629 38.847171 0.816372 1.070523 0.062496 -0.010497 447376.000000 0 0 1
-24.501211 -25.515880 19.088529 40.196286 0.805682 1.075965 0.070246 -0.011483 117665.000000 0 0 1
-25.351311 -25.726580 17.971729 40.342644 0.792745 1.109089 0.054106 -0.010278 -410884.000000 0 0 1
-26.855131 -25.841580 18.304329 41.521486 0.766167 1.114262 0.042239 -0.001840 -126452.000000 0 0 1
-27.280941 -26.967880 19.004029 42.809688 0.779627 1.110829 0.042023 -0.004711 -178301.000000 0 0 1
-27.300501 -28.093180 18.170729 43.182398 0.799707 1.136480 0.049747 -0.002594 -536020.000000 0 0 1
-28.152551 -29.254680 18.831429 44.755169 0.804594 1.136507 0.065726 -0.009540 251072.000000 0 0 1
-29.550741 -29.198280 18.899129 45.639489 0.779399 1.143847 0.043716 -0.007557 -221131.000000 0 0 1
-30.193601 -29.391980 17.659129 45.687929 0.771946 1.173945 0.047664 -0.003920 -618586.000000 0 0 1
-31.678281 -29.002380 17.743729 46.470329 0.741329 1.179022 0.040404 -0.008842 -155819.000000 0 0 1
-31.906501 -27.615980 17.617529 45.727940 0.713440 1.175298 0.051050 -0.009392 1204990.000000 0 0 1
-33.290971 -27.194380 17.754329 46.508486 0.684943 1.179114 0.064056 0.001440 1106610.000000 0 0 1
-33.677841 -25.884780 17.065529 45.776097 0.655299 1.188767 0.074571 -0.018713 -346484.000000 0 0 1
-33.803411 -26.002680 15.681229 45.439090 0.655697 1.218446 0.099009 -0.031177 454397.000000 0 0 1
-34.338256 -24.840580 15.005829 44.959372 0.626264 1.230502 0.118454 -0.037516 95924.600000 0 0 1
-33.340461 -23.663380 14.908529 43.517883 0.617239 1.221130 0.114741 -0.028330 62829.400000 0 0 1
-33.003211 -22.938180 16.098429 43.295859 0.607382 1.189823 0.089092 -0.021772 77257.700000 0 0 1
-32.909101 -21.564780 15.748529 42.380005 0.580080 1.190061 0.086084 -0.026189 130775.000000 0 0 1
-34.122234 -20.649680 16.098929 43.010599 0.544211 1.187153 0.101385 -0.034535 242385.000000 0 0 1
-34.070397 -20.203580 17.456429 43.286297 0.535253 1.155700 0.102913 -0.023850 216557.000000 0 0 1
-34.858162 -19.035480 17.610629 43.446233 0.499832 1.153442 0.104787 -0.021351 59540.000000 0 0 1
-35.298618 -18.767780 19.089929 44.301776 0.488674 1.125299 0.094108 -0.016879 -99138.000000 0 0 1
-36.215491 -19.757080 19.514629 45.636879 0.499414 1.128953 0.099288 -0.013390 -81201.500000 0 0 1
-36.718121 -19.359280 20.755829 46.409122 0.485202 1.107124 0.098027 -0.009185 -791468.000000 0 0 1
36.685319 -19.937380 20.968229 46.722355 -0.497816 1.105393 0.098514 -0.003104 -615647.000000 0 0 1
36.483539 -21.303680 20.919929 47.143811 -0.528516 1.111021 0.103900 -0.011813 1528.400000 0 0 1
37.063869 -22.090580 21.979629 48.423427 -0.537483 1.099654 0.091317 -0.001246 -430874.000000 0 0 1
36.252409 -23.347380 22.270629 48.531621 -0.572162 1.094052 0.092301 0.006447 600140.000000 0 0 1
35.064309 -23.078780 23.049129 47.889438 -0.582107 1.068660 0.092018 -0.011556 724560.000000 0 0 1
35.001169 -23.922280 24.201329 48.816613 -0.599546 1.052086 0.084090 -0.027768 -327082.000000 0 0 1
33.955769 -23.416180 25.220929 48.346738 -0.603718 1.021992 0.081383 -0.030593 861757.000000 0 0 1
32.589689 -23.576980 24.832229 47.271571 -0.626291 1.017717 0.083255 -0.030469 -50404.800000 0 0 1
31.741709 -23.598180 25.895129 47.275448 -0.639292 0.991124 0.050245 -0.019608 -213823.000000 0 0 1
30.411119 -24.350280 25.586129 46.609252 -0.675170 0.989689 0.049422 -0.017620 115095.000000 0 0 1
29.528039 -23.669980 24.720429 45.202574 -0.675722 0.992162 0.066272 -0.018082 -837967.000000 0 0 1
28.415039 -24.499180 24.553829 44.838765 -0.711529 0.991300 0.059850 -0.009533 130002.000000 0 0 1
27.139739 -23.582280 24.416129 43.460750 -0.715376 0.974240 0.056084 -0.004508 177337.000000 0 0 1
26.903539 -22.861980 23.216229 42.254750 -0.704364 0.989109 0.049477 -0.002493 7326.840000 0 0 1
27.794639 -21.788280 22.949129 42.118092 -0.664848 0.994555 0.044139 0.001879 -54099.000000 0 0 1
27.590239 -21.141980 21.576229 40.911347 -0.653842 1.015271 0.051081 0.002438 -232895.000000 0 0 1
26.787239 -20.023580 21.611329 39.818959 -0.641902 0.997101 0.042430 0.000783 -311232.000000 0 0 1
26.680939 -19.512080 20.313829 38.797493 -0.631433 1.019742 0.026743 0.001527 -390696.000000 0 0 1
26.043839 -18.137380 20.306529 37.677596 -0.608317 1.001600 0.039765 0.011802 6845.750000 0 0 1
26.738139 -16.969480 20.890029 37.937906 -0.565512 0.987669 0.046475 -0.011037 328567.000000 0 0 1
26.760139 -17.036280 22.313729 38.784564 -0.566918 0.957795 0.047604 -0.002775 74589.500000 0 0 1
26.741239 -15.612580 22.994829 38.569531 -0.528452 0.932047 0.069622 -0.001003 250508.000000 0 0 1
25.472439 -15.024180 22.762029 37.318643 -0.532901 0.914815 0.047756 -0.007203 -62878.900000 0 0 1
25.370939 -13.755780 23.413729 37.163272 -0.496825 0.889213 0.041767 -0.004849 -556929.000000 0 0 1
24.012239 -13.087080 23.263429 35.903293 -0.499009 0.865910 0.032939 -0.011609 -1012080.000000 0 0 1
23.090039 -13.686080 24.098529 36.072120 -0.535054 0.839191 0.052526 -0.013858 479071.000000 0 0 1
21.813339 -13.004380 23.881629 34.860693 -0.537596 0.816112 0.053407 -0.019672 1638620.000000 0 0 1
20.516339 -13.745880 24.329929 34.667202 -0.590304 0.792855 0.061333 -0.010899 375019.000000 0 0 1
20.152339 -14.867380 23.510429 34.349615 -0.635615 0.816954 0.072008 -0.012628 706889.000000 0 0 1
18.827339 -15.352880 23.749529 33.973810 -0.684095 0.796723 0.085880 -0.010271 874775.000000 0 0 1
18.248639 -16.526780 22.953929 33.660514 -0.735925 0.820406 0.094578 -0.013289 375424.000000 0 0 1
19.099739 -17.635280 23.244629 34.872854 -0.745554 0.841220 0.089225 -0.006471 543839.000000 0 0 1
18.654539 -18.768080 22.522629 34.749122 -0.788432 0.865644 0.111305 -0.014116 265782.000000 0 0 1
19.329439 -20.127180 22.914529 36.108257 -0.805614 0.883297 0.107033 -0.015893 -226602.000000 0 0 1
18.880839 -20.627780 24.172129 36.963269 -0.829586 0.858002 0.125287 -0.022212 231989.000000 0 0 1
18.981839 -22.075780 24.301529 37.923800 -0.860612 0.875258 0.119223 -0.025015 -675489.000000 0 0 1
18.343039 -23.018780 23.311929 37.547002 -0.897965 0.900940 0.112176 -0.024174 -273937.000000 0 0 1
18.931539 -23.225380 22.008929 37.178145 -0.886902 0.937276 0.101026 -0.009659 849996.000000 0 0 1
20.222039 -23.870380 22.069829 38.285811 -0.867953 0.956420 0.084703 -0.012277 904875.000000 0 0 1
21.030239 -23.910780 20.703929 37.982220 -0.849407 0.994294 0.063011 -0.004056 -21489.900000 0 0 1
20.602239 -24.806880 19.662329 37.768251 -0.877730 1.023237 0.062463 -0.017667 -27776.500000 0 0 1
21.599139 -25.110980 18.725529 38.049042 -0.860441 1.056248 0.056769 -0.008729 11532.100000 0 0 1
20.959839 -25.844680 17.523329 37.607571 -0.889389 1.086086 0.055263 -0.019133 183103.000000 0 0 1
20.366139 -27.050780 17.897929 38.299611 -0.925451 1.084547 0.084322 -0.036663 50635.100000 0 0 1
19.465039 -27.552080 16.933729 37.745941 -0.955733 1.105571 0.080213 -0.039839 -164635.000000 0 0 1
18.609639 -28.731480 17.323829 38.365762 -0.996033 1.102301 0.071931 -0.037926 142930.000000 0 0 1
17.717839 -28.490580 18.413729 38.271405 -1.014441 1.068847 0.083535 -0.041763 149438.000000 0 0 1
16.810939 -29.521980 18.705329 38.782010 -1.053152 1.067495 0.097068 -0.038077 -63567.600000 0 0 1
15.691239 -29.118480 19.666029 38.481860 -1.076534 1.034394 0.091037 -0.034747 65429.000000 0 0 1
14.656439 -28.394280 19.016529 37.184335 -1.094292 1.033969 0.078535 -0.039650 498350.000000 0 0 1
13.500839 -28.153180 19.852229 36.999800 -1.123643 1.004453 0.054506 -0.034751 336388.000000 0 0 1
12.407239 -27.551280 18.996129 35.691253 -1.147666 1.009558 0.071282 -0.038322 -629276.000000 0 0 1
11.959739 -28.390480 17.968729 35.664127 -1.172099 1.042767 0.091487 -0.045689 -45493.300000 0 0 1
11.451839 -27.580480 16.902129 34.314858 -1.177242 1.055767 0.116315 -0.046594 67120.400000 0 0 1
11.304239 -28.474180 15.642529 34.398452 -1.192879 1.098710 0.122601 -0.040657 301143.000000 0 0 1
10.223339 -29.411380 15.718429 34.880008 -1.236263 1.103311 0.151661 -0.040878 293181.000000 0 0 1
10.328739 -30.446680 14.769329 35.381016 -1.243739 1.140174 0.120119 -0.030713 -743431.000000 0 0 1
9.010439 -31.137280 14.488329 35.505350 -1.289113 1.150468 0.109953 -0.023369 -707468.000000 0 0 1
8.471139 -31.914780 15.492229 36.473587 -1.311349 1.132108 0.112045 -0.027128 -40579.600000 0 0 1
7.563139 -32.874480 14.942029 36.894400 -1.344670 1.153824 0.088703 -0.028054 360200.000000 0 0 1
7.340239 33.632018 15.798729 37.876003 1.355914 1.140525 0.105678 -0.034823 308610.000000 0 0 1
8.563939 32.931118 15.890129 37.553905 1.316376 1.133901 0.103998 -0.032523 -231059.000000 0 0 1
8.436639 31.861518 16.815029 37.001059 1.311946 1.099045 0.104108 -0.040903 -222906.000000 0 0 1
9.699839 31.120718 17.267429 36.888346 1.268655 1.083657 0.087447 -0.040447 -606628.000000 0 0 1
10.330039 30.287718 16.273129 35.900840 1.242105 1.100355 0.088077 -0.038945 -106282.000000 0 0 1
11.259239 29.405018 16.830829 35.702974 1.205116 1.079905 0.078059 -0.037752 -416602.000000 0 0 1
11.953139 28.604318 15.720729 34.759543 1.174973 1.101486 0.072967 -0.029998 88932.800000 0 0 1
11.113439 27.665218 15.037129 33.391437 1.188815 1.103663 0.097519 -0.035689 -251961.000000 0 0 1
11.775539 27.112018 13.983629 32.699644 1.161050 1.128918 0.078683 -0.025534 -276280.000000 0 0 1
-9.496911 -9.196782 19.307573 23.399882 0.769344 0.600392 0.061581 -0.021702 100171.000000 0 1 0
-9.606211 -9.241482 17.911673 22.327389 0.766049 0.639777 0.055677 -0.022990 114397.000000 0 1 0
-9.343811 -10.575682 17.490173 22.473496 0.847162 0.678910 0.061522 -0.030470 -100193.000000 0 1 0
-9.480311 -10.829882 15.953473 21.486646 0.851749 0.734027 0.048474 -0.027611 -535652.000000 0 1 0
-10.830711 -10.631282 15.661073 21.808202 0.776106 0.769688 0.063031 -0.030743 -389930.000000 0 1 0
-11.323811 -11.187282 14.449373 21.498101 0.779333 0.833724 0.066583 -0.030210 250662.000000 0 1 0
-11.499611 -12.724182 14.345873 22.359560 0.835908 0.874215 0.056364 -0.029340 -130165.000000 0 1 0
-10.242411 -13.330382 14.074673 21.924929 0.915654 0.873760 0.061973 -0.025661 369852.000000 0 1 0
-10.249211 -14.756182 14.072273 22.821483 0.963724 0.906349 0.073761 -0.028561 -65095.800000 0 1 0
-10.042011 -15.418882 15.476473 24.043817 0.993522 0.871502 0.092346 -0.033133 1126550.000000 0 1 0
-11.261111 -15.276882 16.250473 24.985468 0.935580 0.862689 0.106431 -0.025090 754306.000000 0 1 0
-10.981411 -15.229682 17.629073 25.754977 0.946080 0.816890 0.123724 -0.031231 149487.000000 0 0 1
-12.152911 -14.812582 18.595473 26.700140 0.883713 0.800349 0.086350 -0.028797 -204605.000000 0 0 1
-12.452611 -13.447982 18.426373 25.989363 0.823810 0.782722 0.089398 -0.026309 -78607.400000 0 0 1
-13.576111 -13.173082 17.604173 25.840816 0.770332 0.821321 0.099380 -0.037666 113620.000000 0 0 1
-14.897011 -13.208082 18.418073 27.121943 0.725377 0.824282 0.065584 -0.027320 -541428.000000 0 0 1
-15.315711 -14.497182 18.740273 28.212358 0.757950 0.844296 0.074797 -0.023904 -213044.000000 0 0 1
-16.323411 -14.402082 19.732873 29.381286 0.722947 0.834412 0.083221 -0.031001 -104054.000000 0 0 1
-16.861811 -15.799882 20.061873 30.601237 0.752897 0.855832 0.067467 -0.021562 114409.000000 0 0 1
-17.759011 -16.359782 19.079773 30.774383 0.744411 0.902068 0.065631 -0.017915 227046.000000 0 0 1
-18.173811 -17.610982 19.609273 32.014960 0.769671 0.911573 0.040520 -0.013572 539726.000000 0 0 1
-19.477011 -18.128682 18.870773 32.620686 0.749559 0.953919 0.054960 -0.017065 548865.000000 0 0 1
-19.447911 -18.280682 17.467673 31.898655 0.754471 0.991304 0.056041 -0.021164 -40454.200000 0 0 1
-19.830111 -17.115382 16.752573 31.093702 0.712051 1.001812 0.054355 -0.019173 -445728.000000 0 0 1
-19.459211 -17.240982 15.254973 30.143433 0.725030 1.040163 0.069372 -0.028062 -238082.000000 0 0 1
-20.100011 -18.281782 14.522673 30.808149 0.738061 1.079929 0.076084 -0.028484 268043.000000 0 0 1
-19.666811 -18.167182 13.163573 29.834705 0.745782 1.113842 0.093341 -0.032195 183337.000000 0 0 1
-20.079611 -19.405482 12.342273 30.530234 0.768327 1.154622 0.104435 -0.020122 -107095.000000 0 0 1
-19.646111 -20.578882 12.937773 31.254536 0.808583 1.144009 0.087486 -0.010314 -24789.300000 0 0 1
-19.599211 -21.618082 11.942573 31.529282 0.834340 1.182322 0.081193 -0.013335 -464223.000000 0 0 1
-18.763911 -22.779982 12.552573 32.071468 0.881769 1.168651 0.061105 -0.011911 -23913.500000 0 0 1
-18.547811 -23.924582 11.695973 32.453085 0.911323 1.202104 0.070769 -0.021088 674030.000000 0 0 1
-17.553211 -23.701682 10.667373 31.363638 0.933345 1.223753 0.064178 -0.019389 251573.000000 0 0 1
-17.417311 -24.853282 9.669173 31.851864 0.959530 1.262362 0.059994 -0.019711 489066.000000 0 0 1
-18.650111 -25.020482 8.953273 32.465555 0.930250 1.291398 0.054891 -0.018585 273690.000000 0 0 1
-18.610411 -26.023672 7.959873 32.968750 0.949985 1.326950 0.077577 -0.019005 -352923.000000 0 0 1
-19.946111 -26.162682 7.211273 33.679901 0.919414 1.355014 0.061367 -0.020921 72155.200000 0 0 1
-20.258111 -25.039222 6.401573 32.837994 0.890558 1.374596 0.081811 -0.020821 -157772.000000 0 0 1
-21.518411 -24.999352 5.784473 33.488352 0.860089 1.397195 0.092734 -0.018362 -275878.000000 0 0 1
-21.561011 -23.772782 4.811073 32.452562 0.834148 1.421998 0.101479 -0.018879 -183760.000000 0 0 1
-22.569011 -23.683382 3.835473 32.938939 0.809487 1.454090 0.104546 -0.026693 -63656.000000 0 0 1
-22.477111 -22.467782 3.131173 31.934715 0.785191 1.472589 0.108584 -0.028952 154479.000000 0 0 1
-22.950311 -22.498682 1.651673 32.181291 0.775461 1.519450 0.094677 -0.020218 574508.000000 0 0 1
-22.018611 -23.280182 0.886173 32.055755 0.813241 1.543148 0.089960 -0.027223 691095.000000 0 0 1
-22.323111 -23.122582 -0.499127 32.143805 0.802988 1.586325 0.078012 -0.025310 176210.000000 0 0 1
-21.490011 -24.020082 -1.491727 32.264689 0.840935 1.617047 0.087235 -0.024196 319926.000000 0 0 1
-20.092711 -23.756782 -1.642927 31.157679 0.868765 1.623550 0.089820 -0.025208 503622.000000 0 0 1
-19.418511 -24.481482 -2.634327 31.358591 0.900221 1.654902 0.078145 -0.013506 160378.000000 0 0 1
-19.323511 -26.002192 -2.412927 32.485909 0.931694 1.645141 0.086689 -0.015501 -825788.000000 0 0 1
-20.507211 -26.685652 -2.695427 33.762924 0.915577 1.650715 0.126790 -0.027232 -374939.000000 0 0 1
-20.110711 -27.936282 -3.103827 34.561688 0.946854 1.660723 0.126015 -0.018117 -555268.000000 0 0 1
-21.199211 -28.671252 -3.828527 35.862304 0.934121 1.677756 0.125464 -0.024209 -784269.000000 0 0 1
-21.568911 -28.203092 -5.079627 35.866906 0.917909 1.712898 0.111291 -0.022639 -182180.000000 0 0 1
-22.365511 -29.193922 -5.703327 37.215979 0.917070 1.724652 0.112312 -0.035679 -96752.400000 0 0 1
-23.011111 -28.796012 -7.039127 37.526935 0.896600 1.759489 0.109344 -0.006697 -61772.200000 0 0 1
-22.054411 -28.342492 -7.980527 36.788350 0.909528 1.789466 0.127071 -0.013286 -5051.180000 0 0 1
-22.482911 -28.384222 -9.339927 37.394914 0.900896 1.823234 0.120436 -0.010198 246553.000000 0 0 1
-23.407511 -27.226482 -9.913727 37.248824 0.860679 1.840192 0.101291 0.001280 344995.000000 0 0 1
-22.830111 -25.984642 -10.280527 36.084690 0.849931 1.859698 0.089539 0.001575 -52076.100000 0 0 1
-22.500211 -25.069802 -9.192127 34.917756 0.839363 1.837187 0.070381 0.002188 108214.000000 0 0 1
-22.129211 -23.663482 -9.701227 33.819760 0.818890 1.861734 0.046563 -0.005748 -35130.100000 0 0 1
-23.234411 -22.945382 -10.209627 34.213519 0.779139 1.873822 0.069492 -0.010661 -99968.800000 0 0 1
-22.949911 -21.626582 -10.520427 33.242847 0.755720 1.892804 0.075283 -0.007961 -541688.000000 0 0 1
-24.124411 -20.663382 -10.477127 33.447463 0.708275 1.889401 0.092758 -0.008848 -606962.000000 0 0 1
-24.941711 -20.718282 -11.650727 34.453963 0.693163 1.915750 0.092669 -0.012432 28301.000000 0 0 1
-26.098861 -19.936782 -11.612427 34.834958 0.652335 1.910657 0.097617 -0.014809 -302446.000000 0 0 1
-25.859361 -18.373282 -11.688027 33.806716 0.617744 1.923814 0.100871 -0.026728 -1358840.000000 0 0 1
-25.370161 -17.898082 -12.924827 33.630902 0.614393 1.965261 0.119217 -0.019381 496664.000000 0 0 1
-24.928811 -16.537982 -12.944527 32.596185 0.585743 1.979171 0.106062 -0.030928 -343074.000000 0 0 1
-23.831711 -16.096282 -11.970427 31.150150 0.594034 1.965226 0.079451 -0.026799 -999294.000000 0 0 1
-24.255211 -16.151882 -10.623027 31.016887 0.587481 1.920364 0.119002 -0.031796 196263.000000 0 0 1
-23.213411 -16.582182 -9.764727 30.152630 0.620283 1.900585 0.098821 -0.027352 -39449.900000 0 0 1
-23.694211 -16.870282 -8.300327 30.247603 0.618734 1.848775 0.077461 -0.026526 219541.000000 0 0 1
-24.439311 -18.080882 -8.114627 31.464987 0.636959 1.831638 0.092576 -0.019791 104362.000000 0 0 1
-24.812111 -18.271782 -6.767827 31.548413 0.634744 1.786999 0.101586 -0.004759 -184821.000000 0 0 1
-25.635491 -19.576782 -6.685827 32.941297 0.652186 1.775178 0.118418 -0.009663 62211.700000 0 0 1
-26.786251 -19.460082 -7.512527 33.950495 0.628288 1.793922 0.111942 -0.018951 45343.100000 0 0 1
-27.494561 -20.687282 -7.697127 35.258478 0.645044 1.790874 0.121855 -0.010982 269986.000000 0 0 1
-26.689051 -21.918882 -8.308227 35.521395 0.687576 1.806877 0.093366 -0.009673 -254180.000000 0 0 1
-27.256951 -23.199582 -8.156427 36.710888 0.705158 1.794846 0.102670 -0.001953 -14246.700000 0 0 1
-26.484461 -24.250982 -8.763827 36.964056 0.741405 1.810166 0.076999 0.010312 217898.000000 0 0 1
-27.137541 -25.605092 -8.500627 38.266533 0.756351 1.794808 0.084036 0.000370 4027.200000 0 0 1
-26.937571 -26.351752 -7.302627 38.384579 0.774405 1.762212 0.104266 -0.024339 -35185.800000 0 0 1
-27.487181 -27.669202 -7.352927 39.688731 0.788698 1.757138 0.101426 -0.025434 -7269.710000 0 0 1
-27.234921 -28.284802 -5.972427 39.717009 0.804306 1.721743 0.113783 -0.035265 461855.000000 0 0 1
-28.048601 -27.734732 -4.904227 39.749098 0.779772 1.694491 0.088443 -0.030535 433100.000000 0 0 1
-27.500461 -28.009292 -3.602927 39.417977 0.794564 1.662327 0.095468 -0.043615 118108.000000 0 0 1
-27.797631 -29.405302 -2.965727 40.573090 0.813495 1.643957 0.077000 -0.022073 -384522.000000 0 0 1
-27.237051 -30.471112 -3.678927 41.035108 0.841381 1.660570 0.101218 -0.024508 -223792.000000 0 0 1
-27.224231 -31.699112 -3.006427 41.893091 0.861197 1.642622 0.092174 -0.032004 88459.800000 0 0 1
-26.355171 -31.814972 -1.713027 41.348784 0.878983 1.612237 0.095991 -0.030815 768012.000000 0 0 1
-24.950111 -31.709102 -1.984627 40.396955 0.904129 1.619944 0.116776 -0.040940 722401.000000 0 0 1
-24.138611 -32.014682 -0.842827 40.103900 0.924749 1.591814 0.132190 -0.018507 646355.000000 0 0 1
-23.014211 -30.978102 -0.535827 38.595127 0.931843 1.584680 0.136910 -0.022835 350234.000000 0 0 1
-23.472311 -29.623572 -0.245327 37.796370 0.900736 1.577287 0.113875 -0.020877 -36205.000000 0 0 1
-23.749311 -28.830992 -1.398027 37.379277 0.881745 1.608206 0.137254 -0.029699 -170122.000000 0 0 1
-24.258311 -27.390602 -1.140327 36.606162 0.845970 1.601953 0.079099 -0.019028 1348060.000000 0 0 1
-25.643001 -27.258362 -0.717527 37.431226 0.815924 1.589967 0.095898 -0.024646 1123610.000000 0 0 1
-26.145061 -25.964192 -0.422927 36.849455 0.781927 1.582274 0.103193 -0.043348 170895.000000 0 0 1
-25.534021 -25.278122 0.815573 35.939322 0.780362 1.548101 0.111783 -0.027321 -307178.000000 0 0 1
-25.945131 -25.840852 2.040873 36.675123 0.783385 1.515120 0.083848 -0.025591 -97288.800000 0 0 1
-25.463461 -25.083332 3.123073 35.879172 0.777878 1.483642 0.095695 -0.017713 -142980.000000 0 0 1
-26.463941 -24.025782 3.650273 35.929137 0.737145 1.469024 0.108024 -0.020632 -201752.000000 0 0 1
-26.679731 -22.921882 2.738473 35.280589 0.709782 1.493098 0.110293 -0.028208 -38927.100000 0 0 1
-27.452901 -21.863482 3.241473 35.244585 0.672542 1.478695 0.104927 -0.025882 -51788.400000 0 0 1
-27.377231 -20.698682 2.227173 34.393437 0.647365 1.505995 0.101549 -0.016668 -159804.000000 0 0 1
-26.239321 -19.882782 2.290973 33.001145 0.648441 1.501319 0.112163 -0.014829 -256060.000000 0 0 1
-26.097591 -19.157482 1.108773 32.393252 0.633228 1.536561 0.089250 -0.010596 -165042.000000 0 0 1
-24.877111 -18.209482 1.192873 30.852534 0.631867 1.532123 0.106060 -0.008641 266849.000000 0 0 1
-23.683611 -18.973282 0.976673 30.362028 0.675420 1.538623 0.113330 -0.013232 -35253.400000 0 0 1
-22.581511 -18.175882 1.353273 29.019281 0.677722 1.524146 0.114175 -0.010949 -37860.000000 0 0 1
-21.263911 -18.992682 1.407973 28.545722 0.729039 1.521453 0.102098 -0.021247 57403.600000 0 0 1
-20.781211 -19.267282 0.101973 28.338971 0.747614 1.567198 0.060989 -0.008818 153414.000000 0 0 1
-19.662511 -20.131882 0.080473 28.140958 0.797193 1.567937 0.089199 -0.011523 50350.700000 0 0 1
-19.391611 -20.639382 -1.366227 28.352870 0.816558 1.619002 0.092556 -0.013152 -135990.000000 0 0 1
-18.861911 -19.638682 -2.219527 27.319880 0.805571 1.652128 0.099357 -0.016842 123348.000000 0 0 1
-18.606211 -20.189882 -3.531927 27.682069 0.826196 1.698734 0.079291 -0.012286 258287.000000 0 0 1
-17.730111 -19.244582 -4.410627 26.536096 0.826335 1.737784 0.098883 -0.007196 1667470.000000 0 0 1
-16.352611 -19.031482 -3.967727 25.403702 0.860962 1.727625 0.137319 -0.022881 1222030.000000 0 0 1
-15.648911 -18.403582 -5.001827 24.669790 0.866117 1.774963 0.142321 -0.015984 -42171.100000 0 1 0
-14.134711 -18.206182 -4.726227 23.528543 0.910632 1.773044 0.161382 -0.028630 569141.000000 0 1 0
-13.311811 -19.329282 -5.173727 24.033163 0.967704 1.787769 0.129230 -0.024617 476574.000000 0 1 0
-12.211811 -18.868682 -5.923627 23.243168 0.996392 1.828494 0.117137 -0.035019 250675.000000 0 1 0
-11.057411 -19.889082 -6.165427 23.576565 1.063394 1.835379 0.106027 -0.033305 365034.000000 0 1 0
-11.403611 -20.911382 -6.988227 24.822642 1.071545 1.856181 0.098526 -0.022566 -653434.000000 0 1 0
-10.283011 -21.703982 -7.213627 25.076674 1.128340 1.862582 0.097697 -0.012403 -231611.000000 0 0 1
-10.658711 -22.936782 -8.092827 26.555563 1.135786 1.880473 0.081199 -0.001490 -157286.000000 0 0 1
-11.009811 -22.542982 -9.426327 26.800329 1.116478 1.930209 0.082991 -0.012428 -1694.540000 0 0 1
-10.934411 -23.716882 -10.280127 28.066579 1.138800 1.945801 0.092452 -0.011329 -58848.800000 0 0 1
-11.744811 -23.359582 -11.538027 28.578606 1.104924 1.986386 0.115176 -0.020846 161305.000000 0 0 1
-11.094611 -22.491782 -12.475427 28.010836 1.112544 2.032393 0.099304 -0.018143 -7403.540000 0 0 1
-12.059611 -21.881782 -13.297727 28.303289 1.067089 2.059894 0.110849 -0.025653 -267581.000000 0 0 1
-11.485211 -20.808882 -14.202927 27.688315 1.066467 2.109423 0.092243 -0.024195 -442153.000000 0 0 1
-11.054111 -19.770082 -13.398727 26.316827 1.060968 2.104972 0.092090 -0.022961 -402085.000000 0 0 1
-10.885311 -18.591182 -14.160827 25.780828 1.041100 2.152296 0.080379 -0.007378 -135017.000000 0 0 1
-10.264811 -17.450982 -13.365327 24.259742 1.039092 2.154270 0.083683 -0.012332 -294661.000000 0 1 0
-11.161911 -16.854382 -12.430627 23.731392 0.985854 2.122108 0.082704 -0.024994 229056.000000 0 1 0
-10.664511 -15.782582 -11.634227 22.319878 0.976556 2.119111 0.076274 -0.025143 -88281.000000 0 1 0
-10.240111 -14.449082 -12.309927 21.567804 0.954253 2.178221 0.072552 -0.016297 -220437.000000 0 1 0
-11.284911 -13.612082 -12.715327 21.778832 0.878599 2.194245 0.073879 -0.015526 -298630.000000 0 1 0
-11.519811 -13.766982 -14.077527 22.812554 0.874033 2.235843 0.087958 -0.013311 301279.000000 0 1 0
-12.890911 -13.144882 -14.498327 23.434270 0.795153 2.237858 0.095780 -0.013051 306161.000000 0 1 0
-12.922611 -11.746082 -14.234327 22.529545 0.737741 2.254679 0.075324 -0.010058 -465878.000000 0 1 0
-14.078011 -11.252382 -14.840427 23.346194 0.674307 2.259670 0.104213 -0.021514 -167155.000000 0 1 0
-14.106111 -9.704082 -14.789927 22.625064 0.602582 2.283255 0.080139 -0.016972 299721.000000 0 1 0
-13.030511 -9.191882 -15.573927 22.289731 0.614349 2.344381 0.062256 0.016606 373134.000000 0 1 0
-13.147911 -7.753882 -15.815027 21.979657 0.532843 2.373922 0.068022 -0.017561 252353.000000 0 1 0
-11.778511 -7.085582 -15.524327 20.735080 0.541572 2.416893 0.036389 -0.017813 255862.000000 0 1 0
-10.730311 -7.379882 -16.405327 20.946049 0.602464 2.470621 0.037204 0.000206 250661.000000 0 1 0
-9.509911 -6.778282 -15.976027 19.789314 0.619238 2.510369 0.013884 0.005438 50364.500000 0 1 0
12.084589 21.945618 15.865973 29.654283 1.067446 1.006251 0.113666 -0.018450 577138.000000 0 0 1
13.085489 21.906418 16.906373 30.609584 1.032338 0.985648 0.117562 -0.020409 289159.000000 0 0 1
13.566989 20.646018 17.204073 30.104840 0.989429 0.962498 0.097372 -0.014702 861114.000000 0 0 1
14.779789 20.729018 18.239873 31.318163 0.951399 0.949111 0.100011 -0.018203 340756.000000 0 0 1
15.962889 21.193218 17.690573 31.889225 0.925246 0.982733 0.079584 -0.009182 -707913.000000 0 0 1
17.043389 20.879618 18.551673 32.720026 0.886214 0.967959 0.079581 -0.013891 14760.500000 0 0 1
18.423189 21.247618 17.998473 33.388923 0.856475 1.001481 0.052132 0.001577 -1790150.000000 0 0 1
18.538689 22.621618 18.162573 34.428181 0.884270 1.015083 0.055925 0.000020 96760.700000 0 0 1
19.788589 23.144118 17.741273 35.241896 0.863397 1.043251 0.043386 0.001104 972188.000000 0 0 1
21.085489 22.703918 18.521773 36.098778 0.822341 1.032020 0.043228 -0.000427 -113824.000000 0 0 1
21.296289 21.265918 18.308273 35.227320 0.784685 1.024275 0.045649 0.007482 -616400.000000 0 0 1
22.552489 20.804518 18.741773 35.954093 0.745104 1.022458 0.062179 0.000851 -136081.000000 0 0 1
22.634689 19.216518 18.735373 35.108659 0.703905 1.007898 0.062596 0.001138 -245538.000000 0 0 1
22.691789 18.726518 17.367073 34.164528 0.689952 1.037544 0.036515 0.001844 88293.900000 0 0 1
22.385289 17.364618 17.175973 33.130728 0.659757 1.025782 0.035400 -0.003599 -427561.000000 0 0 1
23.505889 16.389618 17.508773 33.581297 0.608882 1.022324 0.057576 -0.006136 -672202.000000 0 0 1
24.537289 16.402718 16.582873 33.854385 0.589258 1.058902 0.079681 -0.021849 -90451.800000 0 0 1
25.506289 15.375118 16.795873 34.191613 0.542474 1.057297 0.073634 -0.018767 -122342.000000 0 0 1
26.905389 15.597118 16.222873 35.076369 0.525361 1.089982 0.172142 -0.047973 -1245220.000000 0 0 1
27.661589 16.669118 16.855773 36.429934 0.542336 1.089769 0.152853 -0.044993 1440960.000000 0 0 1
28.864289 16.245718 17.561273 37.489583 0.512641 1.083283 0.165128 -0.052949 1311500.000000 0 0 1
29.934389 15.667818 16.590873 37.640473 0.482196 1.114338 0.159659 -0.062360 -1051490.000000 0 0 1
30.585489 16.522418 15.638373 38.118514 0.495292 1.148061 0.194654 -0.058724 901512.000000 0 0 1
31.821689 15.984918 15.141373 38.696236 0.465508 1.168766 0.180259 -0.044198 806533.000000 0 0 1
31.560489 15.326418 13.740273 37.679685 0.452078 1.197529 0.136955 -0.049111 -258015.000000 0 0 1
31.350589 16.353218 12.755373 37.589716 0.480797 1.224590 0.143204 -0.042440 -32003.700000 0 0 1
30.563889 16.058518 11.608073 36.424918 0.483767 1.246455 0.128829 -0.032068 522694.000000 0 0 1
29.028889 16.210618 11.802673 35.281208 0.509293 1.229688 0.121040 -0.037448 216044.000000 0 0 1
28.456689 17.526418 11.837973 35.455551 0.552027 1.230377 0.108673 -0.026582 233943.000000 0 0 1
28.933189 18.418018 12.870073 36.633203 0.566877 1.211813 0.115914 -0.034505 -425966.000000 0 0 1
28.192189 18.308318 14.206573 36.494119 0.575961 1.170942 0.120917 -0.036019 454128.000000 0 0 1
26.963489 19.040318 14.246073 35.951551 0.614843 1.163359 0.121426 -0.024339 1092470.000000 0 0 1
26.255389 19.270918 15.519273 36.077161 0.633169 1.126116 0.106206 -0.027736 874881.000000 0 0 1
27.007789 20.273418 16.473973 37.574246 0.643917 1.116936 0.114128 -0.035614 134204.000000 0 0 1
26.971389 21.633618 16.052573 38.120262 0.676017 1.136135 0.088713 -0.023730 -308748.000000 0 0 1
25.752889 22.247218 16.331973 37.747627 0.712493 1.123353 0.059967 -0.017317 -499529.000000 0 0 1
25.672089 23.749618 15.948873 38.437834 0.746518 1.142934 0.059643 -0.009913 -130450.000000 0 0 1
25.520289 23.919018 14.574273 37.892136 0.753021 1.175995 0.084000 -0.024735 82765.500000 0 0 1
25.781789 25.265218 14.311673 38.831120 0.775279 1.193335 0.096746 -0.030611 -259465.000000 0 0 1
25.352289 25.691918 12.888873 38.326704 0.792052 1.227822 0.097080 -0.034770 -113653.000000 0 0 1
23.950589 25.661118 12.700073 37.328482 0.819863 1.223640 0.084602 -0.026698 -5885.910000 0 0 1
23.692589 25.877218 11.346073 36.874145 0.829441 1.258024 0.082611 -0.047580 -176129.000000 0 0 1
23.270589 24.603618 10.622973 35.492335 0.813235 1.266834 0.100072 -0.046601 54667.900000 0 0 1
21.893089 24.329818 10.882273 34.491611 0.838066 1.249808 0.096091 -0.040327 389223.000000 0 0 1
21.374389 23.048318 10.582973 33.167586 0.823062 1.246042 0.097465 -0.029456 139349.000000 0 0 1
21.229989 22.560818 9.120973 32.293886 0.815779 1.284463 0.116046 -0.029522 -628151.000000 0 0 1
20.145389 23.185918 8.516173 31.873950 0.855453 1.300328 0.126133 -0.030357 -483832.000000 0 0 1
20.404989 23.410918 7.134573 31.864350 0.853894 1.344977 0.119224 -0.037189 -107652.000000 0 0 1
19.202789 23.669718 6.188573 31.101464 0.889215 1.370479 0.110393 -0.033810 -742112.000000 0 0 1
18.539789 22.445318 5.878273 29.699666 0.880403 1.371557 0.116554 -0.023699 114136.000000 0 0 1
17.892389 22.455818 4.639873 29.084872 0.898021 1.410583 0.119220 -0.032654 -67911.800000 0 0 1
16.513089 23.171918 4.576173 28.819459 0.951642 1.411334 0.092269 -0.016171 -126930.000000 0 0 1
16.619289 24.553918 4.768973 30.030630 0.975778 1.411318 0.086136 -0.020854 990167.000000 0 0 1
15.359889 24.987518 5.356173 29.815949 1.019636 1.390175 0.069398 -0.021695 1047550.000000 0 0 1
15.189389 26.512018 5.111473 30.979538 1.050523 1.405043 0.061065 -0.027606 -269755.000000 0 0 1
14.728389 26.935218 3.812673 30.934897 1.070407 1.447234 0.054843 -0.026264 380191.000000 0 0 1
14.748589 28.362418 3.671873 32.178102 1.091273 1.456436 0.058316 -0.029657 -250531.000000 0 0 1
14.057889 28.846518 2.369173 32.176992 1.117333 1.497100 0.063168 -0.032498 -313869.000000 0 0 1
14.619089 28.340718 1.177373 31.910817 1.094562 1.533892 0.081314 -0.033843 9890.590000 0 0 1
14.092089 27.083118 0.825773 30.541188 1.091019 1.543755 0.067651 -0.024543 -52286.900000 0 0 1
14.979589 26.334418 -0.188427 30.297280 1.053618 1.577016 0.058766 -0.022918 114547.000000 0 0 1
15.086889 26.988718 -1.434327 30.952583 1.061064 1.617152 0.061792 -0.009925 -805693.000000 0 0 1
16.188689 26.550018 -2.139427 31.169765 1.023244 1.639488 0.069991 -0.004783 -548876.000000 0 0 1
16.366889 27.234418 -3.523527 31.968794 1.029669 1.681238 0.078575 -0.019001 -832351.000000 0 0 1
15.444889 26.798218 -4.424227 31.245205 1.047955 1.712871 0.088007 -0.020665 -868012.000000 0 0 1
15.787289 27.255218 -5.738527 32.015872 1.045782 1.751010 0.094444 -0.019281 702850.000000 0 0 1
14.537889 27.158518 -6.685227 31.521858 1.079311 1.784502 0.115324 -0.033214 941936.000000 0 0 1
14.188389 25.837918 -7.034027 30.304883 1.068621 1.805041 0.091918 -0.025711 -320275.000000 0 0 1
12.892789 25.790318 -7.587027 29.814887 1.107222 1.828097 0.069191 -0.038217 133396.000000 0 0 1
12.476989 24.322818 -7.914127 28.458885 1.096823 1.852601 0.087848 -0.024991 35964.700000 0 0 1
13.007089 23.859818 -9.166427 28.679237 1.071687 1.896124 0.084226 -0.029888 316372.000000 0 0 1
12.437889 22.591718 -9.516027 27.488935 1.067530 1.924289 0.087371 -0.014941 -70257.300000 0 0 1
12.567189 22.181918 -11.051627 27.786871 1.055335 1.979836 0.081439 -0.013565 205938.000000 0 0 1
11.832889 20.999218 -11.371227 26.651252 1.057654 2.011601 0.087477 -0.013981 122974.000000 0 0 1
11.993889 20.641318 -12.742227 27.060704 1.044418 2.061079 0.082231 -0.015395 205391.000000 0 0 1
13.319189 19.904418 -13.113227 27.304640 0.981071 2.071743 0.112063 -0.007987 382344.000000 0 0 1
14.477589 20.699518 -13.162627 28.483774 0.960462 2.051169 0.093929 -0.012584 -836469.000000 0 0 1
15.587189 19.909118 -13.518027 28.671772 0.906559 2.061759 0.068596 -0.011790 -484561.000000 0 0 1
16.803989 20.822318 -13.382327 29.917046 0.891791 2.034557 0.095683 -0.011530 -768343.000000 0 0 1
17.077989 21.840318 -14.331127 31.209588 0.907160 2.047879 0.088123 -0.016010 74681.200000 0 0 1
16.190389 22.944118 -14.325827 31.524444 0.956292 2.042535 0.079326 -0.011037 -231676.000000 0 0 1
16.905889 24.180618 -14.865527 33.037785 0.960641 2.037512 0.079029 -0.015203 37140.600000 0 0 1
17.144489 24.263018 -16.262327 33.868729 0.955648 2.071631 0.062365 -0.015375 338689.000000 0 0 1
16.000289 24.652518 -17.043127 33.973873 0.995101 2.096306 0.040705 -0.007175 342727.000000 0 0 1
16.291189 24.651618 -18.531627 34.878737 0.986827 2.130949 0.029601 -0.001510 13613.900000 0 0 1
16.641489 23.316418 -18.964927 34.354955 0.950919 2.155592 0.033883 0.003757 87257.300000 0 0 1
16.399589 23.174118 -20.353227 34.931935 0.954942 2.192787 0.034887 0.006702 -246825.000000 0 0 1
16.927789 21.825918 -20.783427 34.566914 0.911123 2.215863 0.046096 0.003120 251045.000000 0 0 1
15.950089 20.794018 -20.766327 33.437058 0.916471 2.240887 0.057948 0.003527 350387.000000 0 0 1
16.568989 19.633818 -21.216827 33.319243 0.869854 2.261103 0.062616 -0.002424 480415.000000 0 0 1
15.525489 18.480718 -21.281527 32.178893 0.872083 2.293414 0.059218 -0.001870 -296731.000000 0 0 1
14.991089 17.944018 -20.106827 30.838369 0.874818 2.281025 0.062499 -0.004664 103456.000000 0 0 1
14.193589 16.792218 -20.335227 29.949257 0.869067 2.317181 0.064031 -0.008251 -295706.000000 0 0 1
12.754989 17.088818 -20.732827 29.741680 0.929607 2.342136 0.070336 -0.013056 -1531990.000000 0 0 1
11.882189 17.418118 -19.711327 28.863708 0.972134 2.322536 0.067647 -0.007861 708099.000000 0 0 1
10.530089 17.395018 -20.222927 28.678148 1.026452 2.353457 0.071437 -0.011136 810511.000000 0 0 1
9.368389 16.984418 -19.319327 27.376515 1.066735 2.354193 0.074725 -0.018241 -567704.000000 0 0 1
9.440489 15.584218 -18.927627 26.272528 1.026143 2.375224 0.095388 -0.030242 -422305.000000 0 0 1
8.227989 15.005618 -18.554927 25.241903 1.069238 2.396587 0.097646 -0.026671 -320859.000000 0 0 1
7.778189 15.253218 -17.147227 24.231968 1.099230 2.356932 0.093043 -0.029573 -71623.100000 0 1 0
7.467389 16.585418 -16.924127 24.844799 1.147744 2.320189 0.095189 -0.021839 -484885.000000 0 1 0
6.769189 16.793418 -15.736927 23.989407 1.187633 2.286296 0.086982 -0.027499 -595253.000000 0 1 0
6.503789 18.270718 -15.465227 24.805073 1.228815 2.243970 0.087287 -0.016120 295664.000000 0 1 0
7.639289 19.071318 -15.059627 25.472853 1.189804 2.203346 0.070277 -0.021791 522177.000000 0 0 1
8.155989 19.753018 -16.206427 26.820704 1.179220 2.219621 0.088714 -0.013263 143785.000000 0 0 1
9.317189 20.694518 -15.761327 27.631368 1.147755 2.177806 0.059558 -0.001163 128335.000000 0 0 1
8.974089 21.831918 -14.992727 27.963347 1.180797 2.136673 0.066256 -0.007148 -4972.270000 0 0 1
8.612689 21.611818 -13.656527 26.976838 1.191569 2.101606 0.050599 -0.011382 -417905.000000 0 0 1
8.470089 22.986518 -12.910427 27.691181 1.217753 2.055819 0.063835 -0.017107 -230316.000000 0 0 1
7.322189 23.774918 -13.167827 28.146986 1.272035 2.057623 0.065684 -0.014384 -88477.800000 0 0 1
6.958689 24.579518 -12.070827 28.253865 1.294907 2.012220 0.048455 -0.014658 22120.400000 0 0 1
6.302289 24.018618 -10.765027 27.064712 1.314189 1.979861 0.030963 -0.025273 -615336.000000 0 0 1
7.142689 23.353418 -9.867427 26.339443 1.273979 1.954789 0.032026 -0.018810 -286841.000000 0 0 1
6.479489 22.835218 -8.706327 25.283019 1.294314 1.922348 0.050125 -0.035581 -289049.000000 0 0 1
7.378289 22.744018 -7.485727 25.055251 1.257102 1.874199 0.046280 -0.036633 -208151.000000 0 0 1
7.745289 24.000718 -6.897427 26.145716 1.258636 1.837763 0.047359 -0.030072 -133319.000000 0 0 1
8.946589 23.897618 -6.191727 26.257857 1.212577 1.808843 0.060633 -0.026030 -408097.000000 0 0 1
9.282589 25.240918 -5.519127 27.454164 1.218388 1.773206 0.050381 -0.020278 -54954.400000 0 0 1
9.662189 26.234918 -6.469327 28.696359 1.217917 1.798192 0.054231 -0.028350 43026.100000 0 0 1
9.743889 27.490418 -5.761227 29.729752 1.230166 1.765817 0.056389 -0.023576 94974.900000 0 0 1
9.959989 28.683118 -6.709427 31.095643 1.236580 1.788274 0.062149 -0.021578 -783134.000000 0 0 1
11.167989 28.749818 -7.355927 31.707817 1.200283 1.804920 0.071135 -0.026327 -1253020.000000 0 0 1
11.330289 29.965618 -7.967127 33.011949 1.209302 1.814543 0.071125 -0.022848 -41854.900000 0 0 1
12.667989 30.224918 -8.686327 33.903921 1.173913 1.829890 0.090571 -0.033495 123066.000000 0 0 1
13.742689 30.440418 -7.773527 34.291519 1.146727 1.799474 0.090722 -0.026331 -161942.000000 0 0 1
14.863989 30.920418 -8.513527 35.348134 1.122693 1.814036 0.088882 -0.028152 847316.000000 0 0 1
16.170589 31.175618 -7.692927 35.952583 1.092306 1.786438 0.085965 -0.030819 188949.000000 0 0 1
16.798289 30.019318 -7.255227 35.156511 1.060626 1.778659 0.076270 -0.023466 -602045.000000 0 0 1
18.039989 30.475618 -6.748827 36.052062 1.036318 1.759104 0.077093 -0.017226 -157944.000000 0 0 1
19.015389 29.353418 -6.446027 35.563456 0.995963 1.753058 0.074217 -0.016126 -441878.000000 0 0 1
18.740789 28.543618 -5.270427 34.550437 0.989819 1.723937 0.076140 -0.016289 -488514.000000 0 0 1
19.791589 27.694018 -4.897227 34.389656 0.950304 1.713686 0.067352 -0.009612 -281589.000000 0 0 1
20.083989 26.431118 -5.802827 33.699309 0.921014 1.743853 0.066078 -0.007818 -130069.000000 0 0 1
20.687789 26.726118 -7.028427 34.520556 0.912070 1.775831 0.058165 -0.006580 9441.410000 0 0 1
20.471989 25.726518 -8.033027 33.845023 0.898650 1.810431 0.060343 -0.011505 -1246000.000000 0 0 1
21.155189 26.029418 -9.318327 34.812409 0.888334 1.841773 0.059556 -0.010559 632830.000000 0 0 1
22.590989 26.003018 -9.179727 35.647961 0.855498 1.831241 0.059389 -0.011804 626428.000000 0 0 1
23.090089 24.721518 -9.436227 35.119055 0.819507 1.842832 0.069238 -0.008266 -674152.000000 0 0 1
24.635189 24.851518 -9.374527 36.226678 0.789770 1.832549 0.022471 0.002370 177218.000000 0 0 1
25.297789 25.381518 -10.510327 37.345235 0.787050 1.856088 0.032397 -0.001914 96962.900000 0 0 1
26.695089 25.301418 -10.257027 38.183715 0.758601 1.842760 0.028075 0.010084 233641.000000 0 0 1
27.485389 25.235718 -11.565327 39.064624 0.742753 1.871358 0.030384 0.008087 -278103.000000 0 0 1
27.564289 26.463618 -12.202127 40.112405 0.765029 1.879893 0.032819 0.007957 -387799.000000 0 0 1
28.490889 26.420018 -13.233527 41.047221 0.747703 1.899058 0.048243 0.002916 -129902.000000 0 0 1
28.132089 27.523818 -14.280527 41.867749 0.774469 1.918869 0.057629 0.005000 144475.000000 0 0 1
28.529889 28.852418 -14.038627 42.935995 0.791019 1.903888 0.058359 0.009376 -33621.900000 0 0 1
28.391189 29.650918 -15.209027 43.778431 0.807098 1.925603 0.065275 0.012864 -41973.300000 0 0 1
28.725889 31.156418 -14.941027 44.934768 0.825964 1.909755 0.075289 0.000578 127959.000000 0 0 1
30.039289 31.381918 -14.474027 45.789531 0.807254 1.892411 0.063326 -0.001309 -31551.900000 0 0 1
30.334289 32.742118 -14.823527 47.031397 0.823553 1.891446 0.054171 -0.011075 -57796.700000 0 0 1
16.409589 -32.497880 -28.543981 46.261708 -1.103202 2.235735 0.090500 -0.032136 152901.000000 0 0 1
17.560489 -33.018480 -27.881501 46.647282 -1.082004 2.211437 0.070770 -0.030675 495749.000000 0 0 1
17.657289 -32.546780 -26.557321 45.567138 -1.073714 2.192988 0.084234 -0.036402 -28865.600000 0 0 1
18.937789 -32.952980 -25.738321 45.902069 -1.049194 2.166054 0.028378 -0.024812 1592930.000000 0 0 1
20.198989 -32.437580 -26.226681 46.346893 -1.013850 2.172294 0.063835 -0.034432 1458520.000000 0 0 1
20.780489 -32.881380 -27.468491 47.618608 -1.007191 2.185656 0.060293 -0.028721 -287857.000000 0 0 1
22.250989 -32.418680 -27.602551 48.041421 -0.969281 2.182860 0.078150 -0.030197 -66083.900000 0 0 1
22.553389 -31.054180 -27.897181 47.447551 -0.942663 2.199329 0.083867 -0.037208 439066.000000 0 0 1
23.936889 -30.861780 -27.630581 47.842169 -0.911102 2.186504 0.050457 -0.024549 198090.000000 0 0 1
24.459289 -29.525180 -28.268621 47.635155 -0.878964 2.206123 0.039487 -0.020498 -21949.700000 0 0 1
24.754789 -29.715680 -29.658071 48.738305 -0.876222 2.224986 0.040930 -0.025532 -47628.400000 0 0 1
25.373989 -28.600280 -30.211251 48.729201 -0.845102 2.239517 0.038499 -0.027256 -113807.000000 0 0 1
25.693789 -28.813580 -31.715441 49.962610 -0.842572 2.258525 0.043418 -0.026004 653074.000000 0 0 1
26.844689 -29.618380 -32.019831 51.216748 -0.834483 2.246162 0.040987 -0.030766 243111.000000 0 0 1
26.883489 -30.069080 -33.313411 52.313047 -0.841274 2.261149 0.039575 -0.029509 -251752.000000 0 0 1
28.191089 -30.748780 -33.734851 53.649465 -0.828766 2.250807 0.024467 -0.030079 447820.000000 0 0 1
29.337689 -29.890680 -33.810581 53.826649 -0.794734 2.249955 0.035324 -0.029487 291751.000000 0 0 1
30.475089 -30.643580 33.578297 54.728988 -0.788155 0.910263 0.036568 -0.017969 758014.000000 0 0 1
31.819489 -29.847380 33.574453 55.050794 -0.753429 0.914885 0.049731 -0.028691 621027.000000 0 0 1
31.736989 -28.687680 32.768227 53.888553 -0.734976 0.917164 0.062145 -0.026721 -606599.000000 0 0 1
33.024089 -28.250480 32.474060 54.251679 -0.707650 0.929067 0.062555 -0.027197 -450468.000000 0 0 1
33.020089 -27.051880 31.479143 53.038354 -0.686372 0.935375 0.054675 -0.028843 96806.300000 0 0 1
34.365889 -26.837080 31.092713 53.553711 -0.662999 0.951344 0.050114 -0.024725 324729.000000 0 0 1
34.442189 -25.715280 30.237863 52.553481 -0.641335 0.957736 0.041436 -0.024089 193789.000000 0 0 1
35.295889 -26.039580 28.946373 52.552374 -0.635616 0.987462 0.041951 -0.012742 131899.000000 0 0 1
34.801989 -27.090480 28.157783 52.325264 -0.661442 1.002580 0.042791 -0.012641 1008240.000000 0 0 1
33.590089 -26.780380 27.429253 50.969077 -0.673074 1.002550 0.039577 -0.015961 506501.000000 0 0 1
32.856089 -28.007080 26.864663 50.849083 -0.705895 1.014174 0.026224 -0.008535 -354349.000000 0 0 1
31.818589 -27.600480 26.002943 49.501133 -0.714528 1.017729 0.023358 -0.002408 -87142.300000 0 0 1
31.244189 -28.761980 25.425113 49.496335 -0.744056 1.031332 0.029719 0.003462 148714.000000 0 0 1
29.896689 -28.517880 24.703343 48.138723 -0.761799 1.031922 0.029438 0.001527 -102345.000000 0 0 1
28.810289 -28.260480 25.518893 47.748313 -0.775765 1.006944 0.034068 0.001328 -592980.000000 0 0 1
27.573289 -28.174180 24.850813 46.600790 -0.796177 1.008335 0.057057 0.004736 422029.000000 0 0 1
26.362289 -28.023380 25.805513 46.327148 -0.815931 0.979994 0.079039 -0.002833 205265.000000 0 0 1
26.225889 -26.745680 26.425093 45.841185 -0.795210 0.956420 0.085037 -0.018739 -807356.000000 0 0 1
25.004289 -26.626080 27.043223 45.447756 -0.816799 0.933481 0.109143 -0.027748 -1002220.000000 0 0 1
25.046689 -25.523380 28.086783 45.471386 -0.794824 0.905007 0.113624 -0.028988 18683.900000 0 0 1
23.774589 -25.323480 28.698333 45.056676 -0.816935 0.880276 0.124042 -0.020770 500382.000000 0 0 1
23.630689 -24.354680 29.717683 45.107656 -0.800485 0.851551 0.112623 -0.017687 -513173.000000 0 0 1
23.085989 -23.012780 29.208153 43.768335 -0.783810 0.840171 0.108513 -0.016668 -587613.000000 0 0 1
24.064389 -22.346180 28.469373 43.462073 -0.748393 0.856561 0.116932 -0.022414 -182488.000000 0 0 1
23.791289 -21.007780 28.144443 42.420065 -0.723345 0.845349 0.119500 -0.016381 -115822.000000 0 0 1
24.411189 -19.843180 28.976743 42.770429 -0.682541 0.826445 0.106936 -0.011023 -47235.400000 0 0 1
23.879889 -19.777880 30.269803 43.332143 -0.691715 0.797423 0.117190 -0.013285 166449.000000 0 0 1
24.501689 -18.768580 31.039303 43.772488 -0.653670 0.782568 0.091793 -0.012864 -49422.200000 0 0 1
23.855489 -18.636380 32.442129 44.372184 -0.663184 0.750810 0.109272 -0.012706 221094.000000 0 0 1
24.271589 -19.612580 33.382055 45.696006 -0.679628 0.751707 0.086091 -0.008214 531840.000000 0 0 1
23.373889 -19.479080 -33.282861 45.094590 -0.694759 2.400998 0.098421 -0.011424 261300.000000 0 0 1
23.348289 -20.644680 -32.334271 44.909358 -0.724020 2.374584 0.069130 -0.005145 -59573.800000 0 0 1
24.528889 -20.782580 -31.577011 45.063174 -0.702907 2.347213 0.055849 0.005200 -93454.200000 0 0 1
24.442989 -21.927280 -30.846591 45.053052 -0.731199 2.324951 0.059700 -0.001996 689007.000000 0 0 1
25.713989 -22.104880 -29.947941 45.240624 -0.710066 2.294240 0.052965 0.004711 824087.000000 0 0 1
26.886789 -22.556480 -30.589821 46.555680 -0.698040 2.287707 0.048066 0.003075 -804379.000000 0 0 1
27.820889 -23.026380 -29.708661 46.763453 -0.691384 2.259189 0.056593 -0.003412 -847002.000000 0 0 1
28.846989 -23.941080 -30.358841 48.238815 -0.692728 2.251506 0.055279 -0.006426 -425416.000000 0 0 1
29.739389 -23.278680 -31.267321 49.030333 -0.664137 2.262323 0.054798 -0.006291 25412.400000 0 0 1
29.432489 -23.038280 -32.616821 49.607366 -0.664134 2.288292 0.048540 -0.004144 -335234.000000 0 0 1
29.897289 -24.149480 -33.544161 51.012312 -0.679448 2.288385 0.042090 -0.006996 -38805.900000 0 0 1
29.042889 -25.258580 -33.400111 50.961286 -0.715820 2.285511 0.044829 -0.018115 -131388.000000 0 0 1
29.578789 -26.383680 33.790773 52.084736 -0.728366 0.864835 0.044232 -0.021470 -168100.000000 0 0 1
29.156989 -26.566880 32.317587 50.993682 -0.738950 0.884396 0.042347 -0.025582 -163089.000000 0 0 1
29.844389 -25.759280 31.383863 50.390227 -0.712062 0.898459 0.024354 -0.027951 -178138.000000 0 0 1
29.404789 -25.895280 30.079463 49.396166 -0.722020 0.916069 0.027928 -0.026767 -494405.000000 0 0 1
30.345889 -25.130280 29.125523 48.996939 -0.691658 0.934233 0.032496 -0.026496 -102086.000000 0 0 1
30.496189 -23.703780 29.181123 48.408932 -0.660727 0.923785 0.023352 -0.029801 -94466.900000 0 0 1
30.850789 -23.146580 30.429583 49.127333 -0.643677 0.902815 0.024820 -0.014907 -1080870.000000 0 0 1
31.626689 -21.777680 30.285253 48.905126 -0.603024 0.902990 0.030010 -0.017832 161557.000000 0 0 1
32.931789 -21.664880 29.798063 49.414515 -0.581889 0.923512 0.039193 -0.022759 -346454.000000 0 0 1
33.851789 -22.278880 30.675273 50.825825 -0.582069 0.922866 0.033029 -0.020159 485394.000000 0 0 1
35.379289 -21.921380 30.403103 51.542116 -0.554714 0.939900 0.030280 -0.027406 1303200.000000 0 0 1
35.910789 -22.241880 29.133323 51.313122 -0.554537 0.967019 0.041736 -0.029407 -421977.000000 0 0 1
37.178789 -21.671080 29.019793 51.904205 -0.527742 0.977493 0.034553 -0.027492 -449737.000000 0 0 1
-37.067161 -21.872480 27.597633 51.127381 0.533091 1.000618 0.059342 -0.026300 -311944.000000 0 0 1
-36.821661 -23.256080 27.287993 51.393721 0.563322 1.011064 0.042270 -0.021378 225701.000000 0 0 1
-36.552161 -23.503080 25.925363 50.602171 0.571439 1.032892 0.045830 -0.007288 -363863.000000 0 0 1
-36.398361 -24.964180 25.570503 51.008838 0.601173 1.045701 0.038126 -0.022991 -762897.000000 0 0 1
37.220489 -25.710480 25.528443 51.943190 -0.604499 1.057021 0.047431 -0.024083 -503543.000000 0 0 1
37.268689 -27.126080 25.384913 52.622934 -0.629175 1.067412 0.037886 -0.014430 -166239.000000 0 0 1
-36.732261 -27.946780 26.396043 53.169847 0.650392 1.051295 0.034718 -0.016571 -1296070.000000 0 0 1
-36.719761 -29.327380 25.991983 53.703065 0.673936 1.065583 0.042480 -0.017209 530733.000000 0 0 1
-35.641961 -30.129180 26.502553 53.670310 0.701776 1.054339 0.054165 -0.023697 1315970.000000 0 0 1
-34.201561 -29.557880 26.214243 52.255158 0.712695 1.045281 0.057663 -0.022316 -535080.000000 0 0 1
-33.694361 -29.683180 24.923243 51.357270 0.722192 1.064100 0.060009 -0.027469 -501195.000000 0 0 1
-32.436761 -29.122780 24.733963 50.120342 0.731616 1.054697 0.045177 -0.021559 -485177.000000 0 0 1
-31.905161 -29.083380 23.280843 49.048751 0.739164 1.076233 0.046021 -0.015299 -215342.000000 0 0 1
-31.702561 -30.410880 22.790243 49.490092 0.764606 1.092237 0.057946 -0.021367 305487.000000 0 0 1
-31.236261 -30.418580 21.470273 48.600068 0.772137 1.113221 0.052173 -0.013937 -651001.000000 0 0 1
-31.102761 -31.815180 20.781873 49.106758 0.796721 1.133824 0.065567 -0.017301 -230198.000000 0 0 1
-30.132161 -32.730280 21.257173 49.306042 0.826705 1.125055 0.085250 -0.031754 428381.000000 0 0 1
-28.859361 -32.454580 20.673673 48.099514 0.843967 1.126514 0.097527 -0.030145 657212.000000 0 0 1
-27.851161 -33.669580 20.615173 48.314730 0.879694 1.129972 0.092743 -0.026447 320009.000000 0 0 1
-28.115961 33.183418 19.545273 47.682955 -0.867878 1.148451 0.083868 -0.021581 196367.000000 0 0 1
-29.239561 32.315518 19.601573 47.785628 -0.835327 1.148125 0.089429 -0.020728 208256.000000 0 0 1
-29.163361 31.277518 20.717273 47.518314 -0.820363 1.119664 0.091674 -0.016407 -473569.000000 0 0 1
-28.024761 30.487318 20.623773 46.262336 -0.827460 1.108728 0.070951 -0.014724 -474883.000000 0 0 1
-27.963561 29.644818 21.741473 46.189475 -0.814574 1.080710 0.059567 -0.014973 232951.000000 0 0 1
-27.022461 28.427418 21.512873 44.734049 -0.810730 1.069109 0.043472 -0.009795 -371684.000000 0 0 1
-25.672861 28.681218 21.303373 43.994792 -0.840689 1.065319 0.046808 -0.008638 -663386.000000 0 0 1
-24.928261 27.625018 20.773673 42.615787 -0.836668 1.061613 0.029107 -0.011955 -1030530.000000 0 0 1
-23.464961 27.943018 20.947873 42.074101 -0.872287 1.049643 0.019546 -0.008873 -1173120.000000 0 0 1
-23.020561 27.845918 22.310973 42.463171 -0.879978 1.017588 0.029834 -0.009615 111707.000000 0 0 1
-21.732861 28.397218 22.418873 42.205747 -0.917564 1.010803 0.051851 -0.017433 -406920.000000 0 0 1
-21.373861 28.293318 23.894293 42.758519 -0.923824 0.977835 0.045148 -0.011233 -750670.000000 0 0 1
-21.281661 27.016618 24.605193 42.287377 -0.903585 0.949787 0.074441 -0.018091 359845.000000 0 0 1
-20.938261 27.196218 25.960933 43.035045 -0.914683 0.923225 0.079926 -0.017691 441346.000000 0 0 1
-19.466061 27.602318 26.296293 42.805496 -0.956567 0.909272 0.103430 -0.019653 -307366.000000 0 0 1
-19.042361 28.870218 25.873063 43.191624 -0.987712 0.928508 0.062090 -0.013138 571279.000000 0 0 1
-17.667661 29.164018 26.143933 42.967329 -1.026121 0.916677 0.069575 -0.003198 574020.000000 0 0 1
-17.405361 29.485818 27.644503 44.006574 -1.037543 0.891571 0.059753 -0.003980 -631625.000000 0 0 1
-17.270361 28.428118 28.508193 43.807994 -1.024873 0.862220 0.077975 -0.013574 206745.000000 0 0 1
-17.204561 28.926118 29.843243 44.981511 -1.034227 0.845368 0.061875 -0.005722 -142583.000000 0 0 1
-17.107861 27.875618 30.977663 45.048247 -1.020349 0.812542 0.057452 -0.005562 304509.000000 0 0 1
-15.749061 27.504718 31.196623 44.472145 -1.050771 0.793315 0.063970 -0.003965 592474.000000 0 0 1
-15.458561 26.384718 32.065339 44.309213 -1.040816 0.761688 0.081783 -0.010319 -293180.000000 0 0 1
-15.999661 26.422718 33.526057 45.586683 -1.026323 0.744487 0.070300 -0.013351 -993749.000000 0 0 1
-17.366161 26.204018 33.593457 46.008200 -0.985525 0.752237 0.067187 -0.019635 -1010080.000000 0 0 1
-17.919561 27.016618 -33.173841 46.384394 -0.985143 2.367698 0.067855 -0.022916 -6860.660000 0 0 1
-19.316861 26.663318 -32.622371 46.349678 -0.943833 2.351573 0.056363 -0.018811 330810.000000 0 0 1
-20.332061 26.741318 -33.604571 47.515870 -0.920721 2.356366 0.049295 -0.012828 933835.000000 0 0 1
-21.598361 26.202418 -33.143901 47.450754 -0.881420 2.344082 0.064779 -0.015517 1185750.000000 0 0 1
-22.695461 26.092918 33.539020 48.174580 -0.854923 0.800710 0.084926 -0.030576 -104197.000000 0 0 1
-22.614861 24.973918 32.591760 46.875914 -0.834929 0.801991 0.094265 -0.023568 -18474.600000 0 0 1
-22.766261 23.679818 33.042587 46.592370 -0.805065 0.782455 0.085718 -0.026561 -105640.000000 0 0 1
-23.173961 22.724118 31.881885 45.495852 -0.775598 0.794328 0.094122 -0.025648 13818.400000 0 0 1
-24.513861 22.791318 31.459683 45.935664 -0.749001 0.816379 0.088043 -0.022403 -249521.000000 0 0 1
-24.722961 21.998218 30.282283 44.857140 -0.727145 0.829719 0.114868 -0.030326 317289.000000 0 0 1
-26.228561 21.871118 29.959333 45.429559 -0.695053 0.850686 0.098944 -0.017645 14331.400000 0 0 1
-26.998561 20.918418 30.606693 45.861445 -0.659184 0.840121 0.109951 -0.029477 298532.000000 0 0 1
-28.131561 20.566218 29.799153 45.851320 -0.631277 0.863333 0.080724 -0.021697 548048.000000 0 0 1
-28.642361 19.098318 30.164993 45.771797 -0.588085 0.851268 0.095294 -0.026088 -257623.000000 0 0 1
-29.069261 19.040218 31.516103 46.912861 -0.579879 0.834159 0.078373 -0.022293 126601.000000 0 0 1
-29.295761 17.738418 32.092097 46.933951 -0.544450 0.817878 0.069413 -0.014120 4824.460000 0 0 1
-30.297161 16.815818 31.340103 46.721427 -0.506696 0.835528 0.044520 -0.013954 406419.000000 0 0 1
-31.670161 17.206518 31.449373 47.834364 -0.497688 0.853348 0.047739 -0.015466 632289.000000 0 0 1
-32.486961 16.082718 31.084093 47.752249 -0.459681 0.861968 0.055420 -0.002701 1352560.000000 0 0 1
-34.036261 16.420818 31.109353 48.947953 -0.449510 0.882063 0.045390 0.001533 1218850.000000 0 0 1
-34.578761 16.472318 32.456506 50.204111 -0.444566 0.867820 0.044747 -0.001465 -265466.000000 0 0 1
-35.948261 16.675318 32.556539 51.286177 -0.434328 0.883045 0.065349 -0.007881 -767736.000000 0 0 1
-36.311961 16.889318 -33.759141 52.378308 -0.435354 2.271198 0.061541 -0.004365 195636.000000 0 0 1
37.091389 17.051018 -33.601681 52.873257 0.430893 2.259470 0.063945 -0.009252 61248.900000 0 0 1
36.817989 17.334518 -32.250791 51.924593 0.440029 2.240952 0.058454 -0.014267 936053.000000 0 0 1
35.287289 17.427918 -31.932401 50.681390 0.458745 2.252429 0.075294 -0.024477 989311.000000 0 0 1
34.506789 16.247518 -31.966581 49.765074 0.440057 2.268357 0.084187 -0.027718 26623.500000 0 0 1
33.197589 16.440418 -31.504721 48.630388 0.459824 2.275542 0.084520 -0.033835 304518.000000 0 0 1
32.143689 15.298118 -31.757901 47.705486 0.444206 2.299238 0.081360 -0.035483 466628.000000 0 0 1
31.601789 15.303218 -33.050501 48.220298 0.450970 2.325958 0.089987 -0.033746 -103280.000000 0 0 1
30.960989 14.087218 -33.496551 47.739412 0.427003 2.348513 0.088474 -0.037058 165299.000000 0 0 1
31.848089 12.788718 -33.566551 48.005889 0.381845 2.345098 0.080884 -0.028415 436239.000000 0 0 1
32.388889 12.402318 -32.303941 47.396226 0.365695 2.320705 0.074953 -0.033366 335545.000000 0 0 1
33.315189 11.321018 -32.400271 47.831421 0.327573 2.314998 0.074407 -0.032208 171755.000000 0 0 1
17.483889 -21.061482 9.748829 29.057049 -0.877948 1.228653 0.021408 -0.019309 -379731.000000 0 0 1
17.583789 -22.188882 10.599729 30.230620 -0.900670 1.212554 0.020601 -0.019793 696605.000000 0 0 1
18.840089 -22.896482 10.545229 31.470617 -0.882284 1.229104 0.015946 -0.026158 504525.000000 0 0 1
18.789189 -24.184882 11.394729 32.676934 -0.910301 1.214603 0.024078 -0.026293 206479.000000 0 0 1
18.125989 -25.327592 10.804229 32.966192 -0.949636 1.236889 0.028274 -0.030283 1161930.000000 0 0 1
16.700389 -25.260692 11.035029 32.230071 -0.986642 1.221344 0.025158 -0.030363 823859.000000 0 0 1
15.821189 -26.253782 10.275529 32.328898 -1.028449 1.247342 0.047830 -0.026958 -47705.900000 0 0 1
15.578789 -25.824182 8.915929 31.449656 -1.027981 1.283356 0.053161 -0.033325 320470.000000 0 0 1
14.543689 -26.510022 8.240229 31.340095 -1.069020 1.304739 0.063319 -0.025994 -14682.700000 0 0 1
14.495989 -25.959762 6.813729 30.503604 -1.061525 1.345521 0.077965 -0.030018 -400814.000000 0 0 1
13.826789 -24.748882 6.730829 29.137456 -1.061311 1.337688 0.083715 -0.038288 -46741.900000 0 0 1
13.548789 -24.327682 5.424529 28.369550 -1.062649 1.378402 0.089452 -0.025858 233397.000000 0 0 1
12.851489 -22.933582 5.586629 26.876019 -1.060020 1.361403 0.103456 -0.024392 -286382.000000 0 0 1
12.101689 -22.488182 4.533829 25.936940 -1.077108 1.395092 0.100015 -0.019755 45095.600000 0 0 1
11.290189 -21.360582 4.959929 24.664626 -1.084568 1.368321 0.104132 -0.024405 674125.000000 0 1 0
10.404289 -20.778982 3.816429 23.549532 -1.106579 1.408019 0.089815 -0.020037 -19352.400000 0 1 0
11.169789 -20.008682 2.894229 23.097362 -1.061643 1.445160 0.078959 -0.020705 -139994.000000 0 1 0
10.514289 -19.344482 1.856529 22.095384 -1.072935 1.486674 0.065412 -0.011862 -547442.000000 0 1 0
11.500889 -19.047982 0.737629 22.262978 -1.027598 1.537658 0.061730 -0.004207 60481.200000 0 1 0
12.328089 -17.939882 1.032429 21.791904 -0.968720 1.523402 0.063764 -0.004216 -53427.800000 0 1 0
13.093089 -17.530282 -0.070971 21.880238 -0.929292 1.574040 0.085889 -0.016019 -487543.000000 0 1 0
14.209989 -16.554782 0.244829 21.818445 -0.861468 1.559575 0.075864 -0.003070 88502.300000 0 1 0
15.323789 -17.131682 0.900529 23.002696 -0.841044 1.531637 0.077194 -0.017476 -307200.000000 0 1 0
16.522589 -16.425182 0.903629 23.315212 -0.782442 1.532030 0.067717 -0.021570 -328010.000000 0 1 0
17.635689 -17.293982 1.520429 24.746941 -0.775616 1.509319 0.049761 -0.010419 -334656.000000 0 1 0
18.002789 -18.360582 0.653229 25.722327 -0.795237 1.545398 0.048738 -0.014715 -54814.500000 0 0 1
19.174789 -19.003982 1.075029 27.018134 -0.780924 1.530997 0.034410 -0.010707 -41836.500000 0 0 1
19.379289 -20.394882 0.403529 28.136647 -0.810927 1.556454 0.017753 -0.004261 -146796.000000 0 0 1
18.626189 -21.439482 0.955429 28.416530 -0.855500 1.537168 0.027529 -0.002658 -11239.900000 0 0 1
18.605589 -22.556482 0.082129 29.239863 -0.881089 1.567988 0.032322 -0.004914 -482204.000000 0 0 1
17.592389 -23.647882 0.339029 29.475913 -0.931191 1.559294 0.039483 -0.005038 -285302.000000 0 0 1
18.034089 -24.405482 1.456829 30.380558 -0.934414 1.522825 0.036263 -0.002441 468209.000000 0 0 1
16.957289 -25.069922 2.092229 30.338558 -0.976086 1.501779 0.049603 -0.009052 104304.000000 0 0 1
17.472589 -25.713772 3.381529 31.271780 -0.973959 1.462451 0.056514 -0.015507 174987.000000 0 0 1
18.376089 -26.763272 3.161029 32.618178 -0.969110 1.473734 0.043651 -0.012790 47064.400000 0 0 1
19.707389 -26.451162 3.545029 33.175479 -0.930472 1.463735 0.049137 -0.004834 -140249.000000 0 0 1
20.596589 -27.714492 3.566329 34.713561 -0.931681 1.467879 0.067741 -0.008849 -208504.000000 0 0 1
20.814689 -28.295162 2.313129 35.202529 -0.936557 1.505040 0.068324 -0.011048 -94057.000000 0 0 1
21.760889 -29.342902 2.277829 36.602332 -0.932689 1.508524 0.108070 -0.016714 185828.000000 0 0 1
21.229289 -30.711912 2.837429 37.442693 -0.965974 1.494943 0.110350 -0.023435 149018.000000 0 0 1
21.167889 -30.726912 4.296229 37.559024 -0.967556 1.456159 0.111409 -0.021544 -463875.000000 0 0 1
20.106289 -31.528542 4.703129 37.688609 -1.003104 1.445681 0.112843 -0.039832 -517756.000000 0 0 1
19.955289 -31.786732 6.162129 38.033955 -1.010196 1.408062 0.115950 -0.040185 -95002.500000 0 0 1
20.994689 -32.594262 6.672929 39.340703 -0.998564 1.400353 0.117027 -0.050237 64324.700000 0 0 1
20.767389 -33.103982 7.991929 39.887705 -1.010517 1.369070 0.111938 -0.043553 247425.000000 0 0 1
21.952089 33.743687 8.428929 41.128792 0.994032 1.364394 0.112142 -0.045754 165507.000000 0 0 1
23.015489 -33.310052 8.984229 41.472747 -0.966172 1.352435 0.119639 -0.045962 -785302.000000 0 0 1
24.077989 33.622766 9.304329 42.388802 0.949332 1.349495 0.129230 -0.052077 -363873.000000 0 0 1
25.136189 -33.541652 10.239829 43.147706 -0.927678 1.331190 0.115817 -0.049305 -174006.000000 0 0 1
26.028189 -32.587982 9.732429 42.827134 -0.896845 1.341544 0.106309 -0.045091 178424.000000 0 0 1
26.571889 -31.696332 10.716829 42.726727 -0.873118 1.317266 0.085758 -0.037146 29056.600000 0 0 1
27.415789 -30.575552 10.115929 42.294467 -0.839831 1.329277 0.075970 -0.037177 -608698.000000 0 0 1
26.644689 -29.606302 9.543529 40.957924 -0.838000 1.335627 0.074740 -0.037750 -294714.000000 0 0 1
27.190389 -29.125082 8.315629 40.703039 -0.819739 1.365048 0.073642 -0.031014 245512.000000 0 0 1
26.579489 -27.713632 7.999029 39.223706 -0.806284 1.365422 0.064121 -0.029417 57182.200000 0 0 1
26.958889 -26.824232 8.993629 39.079490 -0.782894 1.338578 0.060564 -0.037509 -11334.200000 0 0 1
26.515489 -25.507682 8.765429 37.822557 -0.766028 1.336919 0.057680 -0.030088 -191109.000000 0 0 1
27.216589 -24.503282 9.727829 37.891744 -0.732985 1.311162 0.064616 -0.045266 123056.000000 0 0 1
28.594589 -24.402082 9.453929 38.761952 -0.706454 1.324414 0.089834 -0.037162 -425490.000000 0 0 1
29.238289 -23.542682 10.346729 38.938288 -0.677904 1.301844 0.068712 -0.039769 233163.000000 0 0 1
30.734689 -23.195182 10.128429 39.814855 -0.646496 1.313581 0.087902 -0.041965 487555.000000 0 0 1
30.900889 -22.418982 8.928629 39.207093 -0.627644 1.341051 0.098473 -0.035116 119097.000000 0 0 1
32.255489 -22.177182 8.576129 40.072360 -0.602320 1.355112 0.111293 -0.045181 183033.000000 0 0 1
32.504589 -21.357082 7.287029 39.569863 -0.581314 1.385583 0.117513 -0.036441 -218057.000000 0 0 1
32.001189 -20.031582 7.329629 38.458600 -0.559292 1.379038 0.112669 -0.021763 -49293.400000 0 0 1
32.371789 -19.260882 6.193929 38.174325 -0.536727 1.407822 0.108368 -0.027991 82320.300000 0 0 1
31.885889 -17.803682 6.196229 37.041521 -0.509236 1.402728 0.119799 -0.025440 155745.000000 0 0 1
32.559189 -17.147282 7.266729 37.509138 -0.484739 1.375831 0.124229 -0.021794 333031.000000 0 0 1
32.202889 -15.752482 7.365729 36.598098 -0.454941 1.368152 0.125984 -0.023760 157948.000000 0 0 1
32.860889 -15.166282 8.644929 37.210065 -0.432401 1.336326 0.128489 -0.045667 516135.000000 0 0 1
34.273489 -15.079982 8.603829 38.420097 -0.414498 1.344940 0.115173 -0.041132 29188.500000 0 0 1
34.886589 -14.570782 9.757929 39.046114 -0.395638 1.318211 0.103378 -0.039387 -465059.000000 0 0 1
36.395989 -14.742182 9.846329 40.483950 -0.384852 1.325117 0.096299 -0.044536 -505826.000000 0 0 1
37.064289 -13.956282 8.875229 40.587055 -0.360122 1.350344 0.125097 -0.043244 -263565.000000 0 0 1
-36.403861 -14.391382 8.779629 40.117762 0.376470 1.350164 0.120859 -0.043094 -350087.000000 0 0 1
-35.599861 -13.550382 7.827829 38.887503 0.363698 1.368117 0.136605 -0.052548 -1122520.000000 0 0 1
-35.967361 -13.602082 6.495229 38.998150 0.361554 1.403464 0.179329 -0.057144 -246594.000000 0 0 1
-35.065361 -12.972682 5.630329 37.809663 0.354342 1.421328 0.171102 -0.044051 1046030.000000 0 0 1
-33.698761 -13.731682 5.347729 36.779937 0.386941 1.424881 0.129825 -0.030328 798996.000000 0 0 1
-32.921061 -13.940482 6.503129 36.337639 0.400559 1.390863 0.136459 -0.027225 -463283.000000 0 0 1
-31.808561 -14.750782 6.246729 35.614488 0.434218 1.394486 0.133104 -0.010082 -418883.000000 0 0 1
-31.443161 -15.501982 7.476429 35.845234 0.458045 1.360678 0.111525 -0.013103 203435.000000 0 0 1
-32.418261 -16.480582 7.855829 37.205743 0.470324 1.358049 0.090512 -0.021779 320341.000000 0 0 1
-32.274961 -16.763782 9.219929 37.519390 0.479051 1.322516 0.080315 -0.031120 -891036.000000 0 0 1
-33.309361 -17.662882 9.758729 38.945138 0.487568 1.317521 0.034623 -0.022246 -1447220.000000 0 0 1
-34.613561 -17.126182 9.815529 39.846572 0.459465 1.321901 0.063792 -0.017504 212691.000000 0 0 1
-35.550361 -17.885782 10.565129 41.174644 0.466133 1.311301 0.072591 -0.021918 182910.000000 0 0 1
-35.873061 -19.388282 10.267929 42.050117 0.495496 1.324119 0.080181 -0.021533 -577599.000000 0 0 1
-34.890461 -20.384182 10.592929 41.774027 0.528746 1.314420 0.078521 -0.009337 35098.500000 0 0 1
-34.710161 -20.694682 12.013729 42.159161 0.537631 1.281830 0.091072 -0.033036 -487074.000000 0 0 1
-35.834961 -21.513482 12.623429 43.661485 0.540676 1.277488 0.123625 -0.058856 -512536.000000 0 0 1
-35.879561 -22.930082 12.419229 44.355032 0.568664 1.287006 0.148170 -0.066905 453093.000000 0 0 1
-37.141361 -23.365482 11.905429 45.466094 0.561539 1.305855 0.134590 -0.040290 378433.000000 0 0 1
37.306689 -24.853082 12.231529 46.465849 -0.587668 1.304420 0.141037 -0.040430 -196929.000000 0 0 1
37.138289 -25.083542 13.621029 46.839824 -0.594031 1.275733 0.171658 -0.044764 -17851.800000 0 0 1
36.417589 -26.284662 13.840729 46.996703 -0.625179 1.271860 0.146998 -0.047593 161811.000000 0 0 1
35.036489 -25.839662 14.414729 45.858785 -0.635458 1.251047 0.150399 -0.041211 143846.000000 0 0 1
34.151989 -25.389732 13.368529 44.606216 -0.639285 1.266417 0.126044 -0.041472 682208.000000 0 0 1
32.945189 -24.806582 13.869829 43.510047 -0.645396 1.246362 0.116567 -0.036187 -164979.000000 0 0 1
32.889489 -23.210282 13.978129 42.612484 -0.614545 1.236580 0.141078 -0.037414 121275.000000 0 0 1
33.782789 -22.539682 14.893429 43.256541 -0.588368 1.219298 0.151286 -0.041598 772397.000000 0 0 1
35.067889 -22.287782 14.315529 43.948111 -0.566158 1.239005 0.137726 -0.048220 726623.000000 0 0 1
36.186889 -21.845982 15.332529 44.964701 -0.543135 1.222826 0.118467 -0.037268 298692.000000 0 0 1
36.118689 -20.548082 15.966429 44.516405 -0.517241 1.203960 0.129904 -0.023523 594217.000000 0 0 1
35.068289 -20.488282 16.956329 44.012177 -0.528750 1.175302 0.120665 -0.021303 655699.000000 0 0 1
35.090189 -19.104682 17.666529 43.685427 -0.498568 1.154470 0.119011 -0.007792 9581.740000 0 0 1
34.734789 -17.950882 16.889829 42.591151 -0.476996 1.163033 0.103239 -0.014046 -7576.510000 0 0 1
34.821589 -16.708982 17.545229 42.421318 -0.447394 1.144398 0.092397 -0.006360 -168765.000000 0 0 1
36.172089 -16.003382 17.818829 43.382473 -0.416535 1.147533 0.077523 -0.013474 167445.000000 0 0 1
36.829489 -16.404982 19.041129 44.588108 -0.419048 1.129574 0.073331 -0.002447 395909.000000 0 0 1
-37.126361 -15.354282 19.464429 44.642857 0.392148 1.119644 0.083054 -0.009278 -228990.000000 0 0 1
-36.640161 -15.365082 20.920629 44.902783 0.397076 1.086134 0.076798 -0.006480 -65536.900000 0 0 1
-35.610261 -16.292082 21.204129 44.532435 0.429082 1.074525 0.081788 -0.007772 237585.000000 0 0 1
-35.124961 -16.173182 22.541329 44.759873 0.431508 1.043029 0.069571 -0.002861 380929.000000 0 0 1
-34.021461 -17.248182 22.795329 44.436321 0.469216 1.032133 0.068946 0.003182 -292744.000000 0 0 1
-34.540061 -18.564482 22.793929 45.356576 0.493178 1.044251 0.070848 -0.008166 -24449.400000 0 0 1
-33.709061 -19.557782 23.285229 45.398343 0.525729 1.032226 0.049822 -0.008412 -283903.000000 0 0 1
-32.483861 -20.110582 22.507629 44.342193 0.554341 1.038412 0.055828 -0.003666 -140077.000000 0 0 1
-31.416261 -19.223082 22.494229 43.156676 0.549111 1.022514 0.058993 0.005170 -967106.000000 0 0 1
-30.254161 -19.897582 22.114629 42.429764 0.581756 1.022533 0.058391 -0.002684 172370.000000 0 0 1
-28.990261 -18.964782 22.126429 41.105682 0.579306 1.002400 0.064893 0.004452 362723.000000 0 0 1
-28.580961 -18.618582 23.458529 41.398376 0.577382 0.968358 0.051580 0.010212 -797395.000000 0 0 1
-27.456561 -17.840582 23.451329 40.275476 0.576217 0.949274 0.058768 0.007096 -1057350.000000 0 0 1
-26.916461 -17.675582 24.882529 40.694746 0.581059 0.912913 0.051347 -0.002495 -1180290.000000 0 0 1
-26.006161 -16.617382 24.925229 39.670201 0.568588 0.891416 0.062161 -0.005034 -145301.000000 0 0 1
-25.609761 -16.243982 26.222629 40.091809 0.565251 0.857851 0.060393 -0.009772 542404.000000 0 0 1
-24.672761 -17.221582 27.011529 40.434524 0.609382 0.839236 0.058743 -0.007521 -240883.000000 0 0 1
-25.376861 -18.315582 27.451929 41.629966 0.625170 0.850740 0.069571 -0.006823 -656530.000000 0 0 1
-24.521561 -19.099582 28.210129 41.975140 0.661735 0.833799 0.077243 -0.014879 -312583.000000 0 0 1
-25.117261 -20.390882 28.845129 43.344047 0.681911 0.842643 0.075591 -0.014166 427047.000000 0 0 1
-26.221061 -20.002382 29.703829 44.384196 0.651666 0.837606 0.066079 -0.018845 771648.000000 0 0 1
-26.754261 -21.111782 30.416029 45.679675 0.668059 0.842157 0.051665 -0.014936 -396254.000000 0 0 1
-27.966161 -20.842482 31.316929 46.874996 0.640470 0.839151 0.064037 -0.017906 -660905.000000 0 0 1
-27.686161 -19.972082 32.462029 47.108289 0.624928 0.810559 0.072891 -0.020453 1275780.000000 0 0 1
-28.827761 -19.863482 33.366529 48.362413 0.603332 0.809408 0.074473 -0.018190 1705370.000000 0 0 1
-30.209461 -19.270182 32.945629 48.676133 0.567812 0.827344 0.079533 -0.022787 368912.000000 0 0 1
-30.969361 -20.106282 32.106929 48.930755 0.575835 0.855063 0.078232 -0.024744 383776.000000 0 0 1
-32.271461 -19.560482 31.921529 49.427155 0.544910 0.868687 0.067839 -0.030953 502421.000000 0 0 1
-33.133261 -20.093782 30.741929 49.463515 0.545151 0.900131 0.057169 -0.011882 6363.700000 0 0 1
-33.034761 -19.264382 29.586429 48.350477 0.527941 0.912316 0.048187 -0.026090 640288.000000 0 0 1
-34.124561 -19.639082 28.753429 48.753861 0.522219 0.940026 0.044036 -0.020488 163628.000000 0 0 1
-34.662161 -18.591182 27.746929 48.135118 0.492306 0.956433 0.050946 -0.014933 -289164.000000 0 0 1
-35.630661 -19.210482 26.944229 48.626928 0.494480 0.983514 0.040995 -0.014508 -139778.000000 0 0 1
-36.220061 -18.187982 26.100129 48.206973 0.465368 0.998673 0.055810 -0.008519 -198636.000000 0 0 1
37.403089 -18.731482 25.290629 48.882261 -0.464288 1.027012 0.054354 -0.011562 265213.000000 0 0 1
36.330489 -19.123182 26.155629 48.679744 -0.484518 1.003564 0.050040 -0.010580 193392.000000 0 0 1
35.243389 -19.715882 25.479129 47.749330 -0.510047 1.007943 0.093532 -0.006853 551882.000000 0 0 1
33.989789 -19.967182 26.370329 47.427718 -0.531138 0.981218 0.079208 -0.014828 625730.000000 0 0 1
33.206489 -18.846082 26.762029 46.626730 -0.516211 0.959459 0.064022 -0.019451 230638.000000 0 0 1
32.044989 -19.186982 27.477129 46.368246 -0.539501 0.936532 0.051152 -0.013616 -22068.200000 0 0 1
-30.175731 -5.759182 -33.865231 45.723044 0.188587 2.404848 0.085487 -0.036273 53066.200000 0 0 1
-31.179851 -5.615582 32.912804 45.683373 0.178193 0.766338 0.088496 -0.028710 335039.000000 0 0 1
-30.950221 -4.547182 31.969820 44.728765 0.145876 0.774532 0.101683 -0.025320 -131663.000000 0 0 1
-31.868111 -4.555682 30.719193 44.497186 0.141992 0.808806 0.095146 -0.028181 160106.000000 0 0 1
-31.584761 -5.576582 29.786153 43.771113 0.174758 0.822354 0.087986 -0.030622 437391.000000 0 0 1
-30.288291 -5.467382 29.195623 42.422367 0.178588 0.811773 0.088658 -0.033020 455665.000000 0 0 1
-30.154941 -6.429682 27.936873 41.606852 0.210076 0.834634 0.088048 -0.034364 -145931.000000 0 0 1
-30.874221 -6.098782 26.796433 41.333539 0.195026 0.865450 0.094850 -0.030349 -294895.000000 0 0 1
-30.658331 -7.004282 25.765863 40.655540 0.224608 0.884392 0.095539 -0.026164 -122614.000000 0 0 1
-31.101351 -6.434882 24.401303 40.051533 0.204022 0.915685 0.117096 -0.022696 410815.000000 0 0 1
-30.277691 -5.420582 23.820143 38.903991 0.177152 0.911855 0.107138 -0.022112 226130.000000 0 0 1
-30.936101 -4.942282 22.662873 38.666191 0.158419 0.944540 0.108494 -0.022537 261852.000000 0 0 1
-30.225521 -3.734782 22.028373 37.586965 0.122941 0.944604 0.103107 -0.022584 -621468.000000 0 0 1
-28.957671 -3.977182 21.535573 36.306275 0.136491 0.935813 0.112240 -0.024428 -699513.000000 0 0 1
-28.466251 -2.794682 20.885273 35.416554 0.097862 0.940104 0.124607 -0.020372 -798719.000000 0 0 1
-27.072211 -2.806582 20.321273 33.966684 0.103301 0.929455 0.123341 -0.019208 -1255300.000000 0 0 1
-26.954291 -3.640282 19.175873 33.279116 0.134242 0.956708 0.130134 -0.015306 -544018.000000 0 0 1
-25.878921 -3.335082 18.361973 31.906165 0.128166 0.957582 0.118560 -0.015636 -986970.000000 0 0 1
-25.844181 -4.183482 17.074973 31.256646 0.160481 0.992876 0.113311 -0.017672 -622516.000000 0 0 1
-26.953751 -4.003782 16.270173 31.737257 0.147464 1.032525 0.117180 -0.014100 -453473.000000 0 0 1
-26.741411 -4.444882 14.992973 30.978206 0.164711 1.065594 0.122715 -0.018052 -325954.000000 0 0 1
-27.970451 -4.276582 14.103373 31.615509 0.151721 1.108404 0.153830 -0.025043 -114313.000000 0 0 1
-28.268621 -2.947482 13.639873 31.525366 0.103892 1.123351 0.152052 -0.027059 978122.000000 0 0 1
-29.571861 -2.917682 13.013673 32.440153 0.098346 1.158014 0.165317 -0.029006 984941.000000 0 0 1
-29.868691 -1.617282 12.189773 32.300849 0.054094 1.183828 0.166926 -0.015679 -192666.000000 0 0 1
-29.058341 -1.587682 11.024573 31.119915 0.054583 1.208673 0.177918 -0.019493 171272.000000 0 0 1
-29.260771 -0.514082 10.106173 30.961132 0.017567 1.238288 0.180719 -0.020839 975362.000000 0 0 1
-30.678301 -0.514182 9.367573 32.080741 0.016759 1.274479 0.181385 -0.019921 1276410.000000 0 0 1
-30.708651 -1.252182 8.174573 31.802717 0.040754 1.310838 0.185932 -0.028649 289208.000000 0 0 1
-32.039981 -1.369082 7.696773 32.979919 0.042704 1.335247 0.167975 -0.029736 202391.000000 0 0 1
-32.142511 -1.891482 6.238173 32.796852 0.058779 1.379424 0.185438 -0.032704 -225497.000000 0 0 1
-31.573911 -1.150682 5.212673 32.021990 0.036428 1.407285 0.201102 -0.047768 297272.000000 0 0 1
-32.304971 0.039218 4.912273 32.676338 -0.001214 1.419893 0.211063 -0.039339 95035.400000 0 0 1
-32.100501 0.342218 3.431473 32.285202 -0.010660 1.464309 0.195574 -0.036219 116527.000000 0 0 1
-32.774871 -0.529082 2.548273 32.878044 0.016142 1.493212 0.169074 -0.049135 496368.000000 0 0 1
-32.298571 -0.244382 1.230773 32.322936 0.007566 1.532710 0.183965 -0.059816 -150258.000000 0 0 1
-33.130521 -1.059682 0.264973 33.148522 0.031974 1.562803 0.177508 -0.060723 -287601.000000 0 0 1
-34.471071 -0.646782 0.169573 34.477555 0.018761 1.565878 0.170801 -0.053989 27221.400000 0 0 1
-35.168088 -1.374482 -0.844327 35.205063 0.039063 1.594782 0.160512 -0.048132 583827.000000 0 0 1
-36.708671 -1.360282 -0.575927 36.738380 0.037039 1.586473 0.150223 -0.050676 374868.000000 0 0 1
-37.197871 -2.407582 0.250273 37.276543 0.064634 1.564082 0.136247 -0.047007 -761486.000000 0 0 1
36.231099 -2.346082 0.301673 36.308231 -0.064663 1.562488 0.128405 -0.040230 -898355.000000 0 0 1
35.560779 -3.556582 1.057773 35.753842 -0.099683 1.541207 0.141682 -0.046866 -194965.000000 0 0 1
35.754209 -3.599382 2.454973 36.018689 -0.100332 1.502585 0.144441 -0.039514 -24525.700000 0 0 1
35.068639 -4.644082 3.053173 35.506321 -0.131662 1.484700 0.129985 -0.027292 -273305.000000 0 0 1
35.059479 -4.539282 4.570673 35.646364 -0.128757 1.442220 0.130680 -0.010750 -18603.200000 0 0 1
34.308619 -3.403582 4.894873 34.822773 -0.098881 1.429764 0.147523 -0.024292 62312.400000 0 0 1
34.324989 -3.212282 6.304273 35.046648 -0.093313 1.389929 0.145746 -0.035899 139450.000000 0 0 1
33.582839 -1.905082 6.771773 34.311709 -0.056667 1.372132 0.167386 -0.036846 -39278.800000 0 0 1
32.179869 -1.906082 6.660173 32.917094 -0.059163 1.367058 0.170219 -0.043226 -80629.700000 0 0 1
31.675189 -0.806482 7.438473 32.546873 -0.025456 1.340212 0.174457 -0.034522 199036.000000 0 0 1
30.163769 -1.006482 7.699173 31.147123 -0.033355 1.321020 0.171710 -0.035162 -720801.000000 0 0 1
29.253339 -0.636382 6.696373 30.016733 -0.021751 1.345815 0.202176 -0.041692 766560.000000 0 0 1
27.923739 -0.616582 7.241573 28.854043 -0.022077 1.317111 0.198117 -0.032598 510516.000000 0 0 1
27.178839 -1.954982 7.054873 28.147513 -0.071807 1.317456 0.219846 -0.052697 -582900.000000 0 0 1
27.712039 -2.991282 7.898173 28.970434 -0.107525 1.294672 0.189088 -0.056015 811017.000000 0 0 1
27.061939 -4.177782 7.463373 28.381409 -0.153169 1.304700 0.202080 -0.069726 59660.700000 0 0 1
27.204839 -5.345582 8.449873 28.984114 -0.194022 1.274966 0.173919 -0.043563 -197702.000000 0 0 1
26.453739 -5.135882 9.618673 28.612873 -0.191760 1.227953 0.164816 -0.039440 431099.000000 0 0 1
26.918639 -5.945182 10.675073 29.562062 -0.217368 1.201341 0.140282 -0.037293 -70160.800000 0 0 1
25.877939 -6.028882 11.835473 29.087688 -0.228891 1.151750 0.121981 -0.027577 -451613.000000 0 0 1
24.730239 -6.638082 11.369973 28.016516 -0.262238 1.152908 0.147545 -0.033633 -1047660.000000 0 0 1
23.705639 -6.530982 12.305273 27.496015 -0.268834 1.106796 0.155025 -0.039039 56948.100000 0 0 1
22.725639 -7.713182 12.450873 27.036496 -0.327205 1.092214 0.147273 -0.037067 436010.000000 0 0 1
23.363039 -8.754582 13.178773 28.216208 -0.358525 1.084829 0.127517 -0.031480 197421.000000 0 0 1
22.466139 -9.820882 13.257773 27.873746 -0.412110 1.075109 0.185117 -0.053262 -197598.000000 0 0 1
22.746139 -10.889582 14.326873 29.003951 -0.446499 1.054155 0.122329 -0.041061 -131246.000000 0 0 1
22.559639 -10.401382 15.662773 29.367474 -0.432015 1.008255 0.101149 -0.028959 174748.000000 0 0 1
22.898039 -11.474782 16.476373 30.454256 -0.464547 0.999146 0.094668 -0.028655 -198699.000000 0 0 1
22.623739 -11.339282 18.011273 31.061534 -0.464616 0.952242 0.101635 -0.025987 -598372.000000 0 0 1
21.253139 -11.244582 18.239373 30.179650 -0.486639 0.921834 0.082330 -0.030344 -668319.000000 0 0 1
20.785039 -11.506982 19.540873 30.761571 -0.505617 0.882482 0.079034 -0.026536 259989.000000 0 0 1
21.186539 -10.490882 20.716073 31.433799 -0.459774 0.851257 0.074819 -0.027093 -445840.000000 0 0 1
20.351439 -9.367282 20.822573 30.586053 -0.431367 0.821960 0.081240 -0.020749 -88068.600000 0 0 1
20.814239 -8.202882 20.100373 30.075652 -0.375409 0.838839 0.096536 -0.014074 -958386.000000 0 0 1
21.925039 -7.417382 20.878973 31.171404 -0.326220 0.836841 0.099781 -0.010285 384793.000000 0 0 1
23.203439 -7.976982 21.015673 32.306197 -0.331127 0.862534 0.115477 -0.024316 -123089.000000 0 0 1
23.854139 -8.109182 19.768573 32.024604 -0.327692 0.905499 0.113759 -0.023316 -1631240.000000 0 0 1
25.256339 -8.721982 19.791273 33.251318 -0.332516 0.933278 0.134488 -0.026263 -213454.000000 0 0 1
25.300639 -10.101782 20.090573 33.849660 -0.379877 0.935366 0.108021 -0.032968 -567765.000000 0 0 1
26.525839 -10.634482 19.709273 34.715527 -0.381291 0.967043 0.107627 -0.035969 -444556.000000 0 0 1
26.567039 -12.146582 19.866773 35.327549 -0.428829 0.973560 0.082431 -0.030745 326355.000000 0 0 1
25.560239 -12.759582 19.056873 34.340897 -0.463005 0.982515 0.097635 -0.034504 360310.000000 0 0 1
25.454039 -14.131982 19.265573 34.911078 -0.506824 0.986219 0.077276 -0.023661 147549.000000 0 0 1
24.254739 -14.709482 18.479173 33.854706 -0.545155 0.993408 0.077169 -0.018750 -165078.000000 0 0 1
24.475239 -14.620882 17.071073 33.229943 -0.538487 1.031275 0.090130 -0.021150 528107.000000 0 0 1
23.409139 -15.187482 16.300173 32.316297 -0.575520 1.042115 0.072788 -0.014304 298574.000000 0 0 1
23.199639 -16.721282 16.408573 32.970681 -0.624521 1.049884 0.051494 -0.009895 -1100400.000000 0 0 1
24.261139 -17.474682 15.958373 33.891549 -0.624204 1.080524 0.090108 -0.011260 -519410.000000 0 0 1
23.911139 -18.847282 16.011273 34.399470 -0.667518 1.086652 0.058456 -0.001855 585104.000000 0 0 1
25.081939 -19.869382 15.719573 35.651101 -0.669954 1.114164 0.041947 0.002495 381188.000000 0 0 1
25.464739 -19.997582 14.399473 35.435873 -0.665716 1.152337 0.051393 -0.009946 28764.100000 0 0 1
26.456939 -21.009482 14.343673 36.702983 -0.671134 1.169291 0.055108 -0.020578 32206.600000 0 0 1
27.062139 -21.140882 12.919473 36.690722 -0.663171 1.210963 0.062190 -0.041089 444728.000000 0 0 1
26.085239 -21.510982 11.922573 35.851218 -0.689587 1.231783 0.069498 -0.037396 450879.000000 0 0 1
26.548739 -21.138582 10.666273 35.573088 -0.672431 1.266270 0.089049 -0.035739 56816.500000 0 0 1
25.457239 -20.975582 9.549473 34.340043 -0.689177 1.288996 0.046130 -0.034762 173919.000000 0 0 1
24.975239 -22.169382 9.021573 34.592382 -0.725952 1.306949 0.034192 -0.034181 -757522.000000 0 0 1
23.586739 -22.266982 9.062873 33.679199 -0.756624 1.298344 0.006914 -0.019500 -577956.000000 0 0 1
23.114539 -23.393982 8.137173 33.878812 -0.791407 1.328240 0.011433 -0.020082 -510270.000000 0 0 1
23.179639 -24.748582 8.660273 34.996976 -0.818122 1.320741 0.015964 -0.020143 -12635.700000 0 0 1
22.851939 -25.689792 7.656073 35.224878 -0.843794 1.351699 0.030096 -0.014132 460991.000000 0 0 1
21.339839 -26.080002 7.653873 34.556288 -0.885029 1.347454 0.029058 -0.004055 701469.000000 0 0 1
20.425239 -25.055132 7.309573 33.141815 -0.886848 1.348414 0.022115 -0.006932 -1150570.000000 0 0 1
19.122639 -25.510372 7.294573 32.705737 -0.927550 1.345868 0.035913 -0.023298 -970477.000000 0 0 1
18.174739 -24.319582 7.206373 31.204087 -0.929007 1.337749 0.038983 -0.024278 -415475.000000 0 0 1
18.095639 -23.706082 5.926273 30.406434 -0.918816 1.374639 0.059355 -0.028286 -157950.000000 0 0 1
17.290739 -22.577082 6.081973 29.080659 -0.917226 1.360099 0.075712 -0.023786 -276138.000000 0 0 1
16.865139 -21.927582 4.774573 28.072199 -0.915165 1.399884 0.079342 -0.014063 -457445.000000 0 0 1
15.912839 -20.925082 4.947673 26.749897 -0.920630 1.384765 0.097317 -0.017527 -194629.000000 0 0 1
15.673939 -20.389282 3.658073 25.976465 -0.915413 1.429504 0.098813 -0.012913 191914.000000 0 0 1
14.783439 -19.113282 3.658273 24.438711 -0.912446 1.420540 0.107738 -0.007624 93610.300000 0 1 0
15.351739 -18.101882 4.459773 24.150437 -0.867421 1.385064 0.064594 -0.011603 -3.449870 0 1 0
14.661739 -16.896582 4.410773 22.801667 -0.856096 1.376128 0.052916 -0.003363 -3311.930000 0 1 0
15.666739 -15.720682 4.492773 22.644460 -0.787117 1.371066 0.040686 -0.009985 -401724.000000 0 1 0
16.234639 -15.495082 5.758673 23.169450 -0.762094 1.319618 0.057405 -0.020252 262149.000000 0 1 0
17.193639 -14.453082 5.885273 23.219588 -0.699015 1.314539 0.056056 -0.024417 55474.100000 0 1 0
18.588639 -14.873982 5.417573 24.415630 -0.674842 1.347044 0.074438 -0.036821 -1043870.000000 0 1 0
19.549739 -13.845082 5.396073 24.555981 -0.616207 1.349242 0.102012 -0.036683 37079.100000 0 1 0
20.808439 -14.377182 5.033873 25.788261 -0.604613 1.374335 0.114451 -0.034718 -185906.000000 0 0 1
21.892239 -13.318482 4.894873 26.088540 -0.546548 1.382052 0.110390 -0.034933 -329752.000000 0 0 1
22.007839 -12.594782 6.109573 26.082569 -0.519792 1.334360 0.132564 -0.041462 270078.000000 0 0 1
23.030939 -11.619582 6.058073 26.497908 -0.467258 1.340132 0.140515 -0.046661 -85750.900000 0 0 1
23.242639 -10.843282 7.354773 26.681262 -0.436511 1.291527 0.153535 -0.051085 -16638.800000 0 0 1
23.813839 -11.585582 8.429673 27.791798 -0.452794 1.262627 0.148961 -0.031949 304441.000000 0 0 1
24.076739 -10.904282 9.618973 28.126809 -0.425260 1.221767 0.171926 -0.043332 -66617.800000 0 0 1
24.678039 -11.822382 10.670473 29.370620 -0.446760 1.198984 0.139077 -0.036078 -751667.000000 0 0 1
23.795339 -12.826082 11.025373 29.193928 -0.494372 1.183529 0.143549 -0.038785 -237340.000000 0 0 1
24.319639 -13.841382 11.887873 30.403129 -0.517422 1.169070 0.141598 -0.042628 -144724.000000 0 0 1
23.301739 -14.923582 12.324873 30.291696 -0.569632 1.151768 0.107589 -0.041696 -227235.000000 0 0 1
22.232939 -14.423882 13.074273 29.551457 -0.575504 1.112497 0.093217 -0.034703 42643.100000 0 0 1
21.148239 -15.391982 13.092573 29.250241 -0.629150 1.106710 0.057949 -0.032488 1410230.000000 0 0 1
19.899239 -14.655682 13.759173 28.285749 -0.634801 1.062792 0.052896 -0.034882 -26984.300000 0 0 1
20.085939 -14.227582 15.112673 28.883593 -0.616298 1.020163 0.064401 -0.034178 -84863.300000 0 0 1
19.479339 -12.996782 15.350673 28.000075 -0.588378 0.990542 0.081240 -0.043015 1950930.000000 0 0 1
17.877839 -12.782082 15.437673 26.857411 -0.620701 0.958435 0.108052 -0.047962 1588850.000000 0 0 1
17.377439 -13.165782 14.137373 25.984198 -0.648371 0.995509 0.126784 -0.059482 248481.000000 0 0 1
15.969239 -12.961082 13.995473 24.877289 -0.681791 0.973293 0.173499 -0.063896 509627.000000 0 1 0
15.541539 -11.532982 13.652473 23.684154 -0.638410 0.956432 0.142602 -0.063220 -717922.000000 0 1 0
15.655339 -10.649982 14.679473 23.958270 -0.597367 0.911311 0.122134 -0.047785 198456.000000 0 1 0
15.163239 -9.400682 14.250773 22.833773 -0.554971 0.896805 0.115923 -0.049466 -339524.000000 0 1 0
15.686339 -8.240382 15.203873 23.347867 -0.483700 0.861646 0.125716 -0.047186 922167.000000 0 1 0
17.100039 -8.171982 15.464073 24.460789 -0.445806 0.886409 0.118801 -0.047097 920567.000000 0 1 0
17.611639 -8.960982 16.497973 25.742031 -0.470671 0.875131 0.120327 -0.039428 -849452.000000 0 0 1
19.135639 -9.004182 16.537373 26.846465 -0.439807 0.907144 0.100897 -0.027400 -358934.000000 0 0 1
19.723639 -7.752682 16.741673 27.007585 -0.374514 0.902197 0.086834 -0.030951 -161454.000000 0 0 1
20.997039 -7.589982 16.165573 27.564638 -0.346864 0.944114 0.090606 -0.016230 -233760.000000 0 0 1
21.651839 -6.242082 16.426873 27.885622 -0.280682 0.940876 0.076437 0.000475 -345111.000000 0 0 1
22.078839 -6.151482 17.772073 29.002801 -0.271723 0.911234 0.100302 -0.007556 182576.000000 0 0 1
22.295739 -4.790382 18.096073 29.112121 -0.211639 0.900014 0.120862 -0.012390 15664.400000 0 0 1
-5.428811 -32.845980 -6.630771 33.945508 1.406996 1.767396 0.065696 -0.017171 -57657.900000 0 0 1
-6.095311 -31.610180 -6.529171 32.847928 1.380307 1.770899 0.055101 -0.021928 63776.000000 0 0 1
-5.770711 -30.951880 -5.316471 31.930938 1.386471 1.738074 0.050452 -0.020615 -332284.000000 0 0 1
-6.578911 -29.602780 -5.218271 30.770716 1.352111 1.741205 0.044916 -0.016231 804317.000000 0 0 1
-7.950511 -29.730380 -4.889271 31.161051 1.309490 1.728351 0.039477 -0.012917 617812.000000 0 0 1
-8.826011 -30.223780 -5.930471 32.039754 1.286675 1.756967 0.039679 -0.017114 -835826.000000 0 0 1
-10.289011 -29.952580 -5.706171 32.180447 1.239915 1.749057 0.076327 -0.005257 -578845.000000 0 0 1
-11.247611 -30.402380 -6.655471 33.092427 1.216453 1.773295 0.064934 -0.010631 197004.000000 0 0 1
-12.532911 -30.065980 -6.169271 33.152630 1.175852 1.757974 0.073987 -0.009544 -123135.000000 0 0 1
-13.746911 -30.564380 -6.934871 34.223549 1.148135 1.774844 0.079183 -0.018739 -142662.000000 0 0 1
-13.810911 -29.927480 -8.227371 33.971826 1.138437 1.815411 0.100537 -0.027467 418089.000000 0 0 1
-14.974911 -30.395880 -8.915071 35.037636 1.113036 1.828068 0.100371 -0.027982 587646.000000 0 0 1
-15.274511 -29.601980 -10.211971 34.840669 1.094434 1.868269 0.121442 -0.027232 -218832.000000 0 0 1
-15.671111 -28.227780 -10.148571 33.843533 1.063995 1.875350 0.121748 -0.029211 1031160.000000 0 0 1
-14.663411 -27.280880 -9.661471 32.443891 1.077602 1.873173 0.108541 -0.023379 578822.000000 0 0 1
-15.272711 -25.917780 -9.376971 31.510547 1.038300 1.872955 0.103247 -0.007047 -73969.500000 0 0 1
-15.641311 -25.200980 -10.552071 31.481521 1.015322 1.912596 0.113193 -0.025596 -15173.100000 0 0 1
-16.334311 -24.065580 -10.164371 30.810327 0.974481 1.906995 0.070801 -0.007567 -618809.000000 0 0 1
-16.775311 -23.249380 -11.320071 30.823509 0.945761 1.946852 0.099427 -0.011848 357713.000000 0 0 1
-17.932311 -23.869280 -11.917971 32.145736 0.926482 1.950611 0.103566 -0.027437 435128.000000 0 0 1
-18.377611 -23.139380 -13.071771 32.311587 0.899594 1.987287 0.120510 -0.035337 1250130.000000 0 0 1
-19.916711 -23.371880 -13.441671 33.520123 0.865046 1.983408 0.100757 -0.016917 1479910.000000 0 0 1
-20.234311 -24.725480 -13.676671 34.753820 0.884961 1.975265 0.132565 -0.024953 -23301.000000 0 0 1
-20.402311 -25.551380 -12.501171 35.005808 0.896982 1.935976 0.148190 -0.029234 -1490870.000000 0 0 1
-20.335311 -27.034880 -12.776371 36.161378 0.925896 1.931909 0.150606 -0.040698 553642.000000 0 0 1
-19.198211 -27.706880 -13.326271 36.246820 0.964849 1.947281 0.147571 -0.046730 120441.000000 0 0 1
-17.927011 -27.326580 -12.855271 35.119477 0.990195 1.945551 0.147449 -0.045696 -899941.000000 0 0 1
-16.843611 -28.267080 -13.362571 35.514692 1.033416 1.956547 0.131206 -0.041795 -497762.000000 0 0 1
-16.773011 -28.276080 -14.754071 36.035443 1.035401 1.992628 0.149794 -0.044658 -49161.000000 0 0 1
-15.918511 -29.240780 -15.347471 36.660156 1.072267 2.002745 0.159338 -0.045823 85519.100000 0 0 1
-16.578911 -30.628880 -15.454071 38.102715 1.074670 1.988420 0.158218 -0.051758 62186.300000 0 0 1
-16.890211 -31.213280 -14.188871 38.221357 1.074794 1.951128 0.151317 -0.050992 159848.000000 0 0 1
-17.350411 -32.547280 -14.239671 39.536444 1.081034 1.939242 0.121894 -0.046301 -672740.000000 0 0 1
-17.927011 -33.025480 -12.891471 39.727195 1.073479 1.901279 0.139986 -0.038982 599851.000000 0 0 1
-19.307111 -32.799380 -12.556071 40.077659 1.038770 1.889455 0.156880 -0.038642 790449.000000 0 0 1
-19.734311 -31.470680 -12.303071 39.130707 1.010710 1.890631 0.160097 -0.043215 -529449.000000 0 0 1
-19.058911 -30.649480 -11.231271 37.799129 1.014476 1.872482 0.167142 -0.042572 -607734.000000 0 0 1
-19.342011 -31.008080 -9.915871 37.867386 1.013080 1.835743 0.164541 -0.047202 -74595.100000 0 0 1
-19.045011 -29.942680 -9.068171 36.626606 1.004291 1.820982 0.157879 -0.035797 -263015.000000 0 0 1
-19.217411 -30.209980 -7.573071 36.596491 1.004235 1.779237 0.162810 -0.034882 -219722.000000 0 0 1
-18.356311 -31.199480 -7.064571 36.881836 1.038985 1.763533 0.154212 -0.033291 22799.800000 0 0 1
-18.521811 -31.406380 -5.675971 36.900336 1.037950 1.725228 0.161167 -0.042471 -644467.000000 0 0 1
-17.610511 -32.515880 -5.216971 37.344736 1.074427 1.710952 0.146815 -0.034646 617363.000000 0 0 1
-16.280211 -32.127180 -4.819771 36.337737 1.101769 1.703827 0.137470 -0.025504 967195.000000 0 0 1
-16.257411 -31.820780 -3.446271 35.899056 1.098462 1.666943 0.119862 -0.029692 -19250.400000 0 0 1
-14.938811 -31.219980 -2.905171 34.731761 1.124495 1.654540 0.116635 -0.023022 707200.000000 0 0 1
-13.744111 -31.985180 -2.961971 34.938884 1.164949 1.655674 0.069235 -0.018042 278105.000000 0 0 1
-12.611611 -31.259580 -2.524171 33.802152 1.187321 1.645541 0.067730 -0.011345 622286.000000 0 0 1
-11.343111 -32.135380 -2.317271 34.157262 1.231470 1.638690 0.062309 -0.017655 20344.000000 0 0 1
-11.479911 -32.979380 -1.214871 34.941433 1.235821 1.605572 0.071766 -0.016800 394706.000000 0 0 1
-10.270911 -33.662080 -0.869771 35.204882 1.274651 1.595505 0.092812 -0.019880 841773.000000 0 0 1
-9.205311 -32.867880 -0.013071 34.132616 1.297723 1.571179 0.093420 -0.027828 -70565.800000 0 0 1
-9.677511 -32.522780 1.296229 33.956820 1.281579 1.532614 0.109961 -0.024729 -239839.000000 0 0 1
-8.708711 -31.965980 2.164429 33.201661 1.304815 1.505560 0.086883 -0.025205 1005810.000000 0 0 1
-7.572311 -32.961980 2.635529 33.923119 1.344986 1.493027 0.109620 -0.033328 529224.000000 0 0 1
-8.179111 -33.864080 3.536029 35.016814 1.333807 1.469643 0.130524 -0.044940 460850.000000 0 0 1
-7.257911 32.925918 4.057529 33.959636 -1.353834 1.451029 0.132793 -0.036646 890572.000000 0 0 1
-6.282211 33.335318 5.222429 34.321762 -1.384526 1.418042 0.134696 -0.031864 593817.000000 0 0 1
-5.324411 -33.466080 4.814229 34.227250 1.413020 1.429673 0.153045 -0.036775 -567736.000000 0 0 1
-4.347711 -33.273880 5.786429 34.051967 1.440868 1.400038 0.149194 -0.043369 1064120.000000 0 0 1
-3.007411 -32.550580 5.282829 33.113337 1.478666 1.410574 0.175763 -0.043009 1168890.000000 0 0 1
-3.082511 -31.159780 4.923429 31.696592 1.472191 1.414835 0.160543 -0.036929 -215495.000000 0 0 1
-3.760511 -31.011980 3.708429 31.458493 1.450126 1.452638 0.145732 -0.043057 -229765.000000 0 0 1
-3.762311 -29.533380 3.196229 29.943136 1.444087 1.463849 0.127994 -0.042745 764728.000000 0 0 1
-2.480011 -28.990780 2.837229 29.234665 1.485459 1.473593 0.104519 -0.026555 405073.000000 0 0 1
-2.675611 -27.818680 2.051929 28.022281 1.474911 1.497506 0.097963 -0.026984 204144.000000 0 0 1
-3.246411 -26.590680 2.789729 26.932991 1.449309 1.467030 0.120982 -0.030724 -104869.000000 0 0 1
-3.305711 -25.362380 2.013829 25.656063 1.441188 1.492222 0.105992 -0.030441 -266791.000000 0 0 1
-3.328411 -24.137680 2.729929 24.518532 1.433768 1.459224 0.093684 -0.025371 444019.000000 0 1 0
-4.545111 -23.799580 3.676029 24.506963 1.382094 1.420229 0.082101 -0.031922 494571.000000 0 1 0
-4.606211 -24.693080 4.806329 25.574717 1.386377 1.381739 0.111281 -0.029386 -609817.000000 0 0 1
-5.703811 -24.427780 5.606429 25.703734 1.341409 1.350911 0.087278 -0.023898 -674148.000000 0 0 1
-6.062411 -25.595780 6.504929 27.096326 1.338230 1.328362 0.107773 -0.037821 355845.000000 0 0 1
-5.144511 -25.865180 7.588829 27.442009 1.374461 1.290604 0.097266 -0.036785 550684.000000 0 0 1
-5.775911 -26.832780 8.406929 28.706022 1.358776 1.273577 0.102198 -0.035720 451982.000000 0 0 1
-5.122811 -27.107680 9.777829 29.269019 1.384019 1.230181 0.092865 -0.029701 129940.000000 0 0 1
-4.733811 -26.113280 10.696929 28.613575 1.391464 1.187649 0.082841 -0.033171 -167769.000000 0 0 1
-5.803611 -25.448180 11.296429 28.441186 1.346575 1.162348 0.083698 -0.034064 -202953.000000 0 0 1
-5.228211 -24.335980 12.150529 27.698546 1.359178 1.116678 0.059624 -0.036172 252416.000000 0 0 1
-4.584511 -24.796380 13.327129 28.521756 1.387975 1.084605 0.069088 -0.041528 -187556.000000 0 0 1
-3.902211 -23.780280 14.023229 27.881534 1.408151 1.043779 0.062020 -0.045823 176081.000000 0 0 1
-2.871811 -24.377580 15.040929 28.787901 1.453531 1.021046 0.065829 -0.041576 127424.000000 0 0 1
-3.436711 -25.036980 16.110929 29.970375 1.434383 1.003253 0.077898 -0.043398 -4428.730000 0 0 1
-2.484711 -25.978580 16.546529 30.900615 1.475442 1.005725 0.089951 -0.037481 353428.000000 0 0 1
-2.923811 -26.420480 17.909329 32.052059 1.460580 0.977909 0.114734 -0.032407 176897.000000 0 0 1
-2.692311 -25.427180 18.875129 31.781449 1.465306 0.934894 0.119876 -0.037081 -104414.000000 0 0 1
-3.584511 -25.566180 19.956729 32.630497 1.431499 0.912718 0.172655 -0.039442 -86612.300000 0 0 1
-3.260511 -24.629080 21.125929 32.611768 1.439177 0.866102 0.167879 -0.050213 525827.000000 0 0 1
-2.281411 -25.242980 22.045529 33.591937 1.480663 0.854926 0.120362 -0.044066 1148460.000000 0 0 1
-1.722611 -24.380480 23.045029 33.592389 1.500258 0.814793 0.108372 -0.046527 359132.000000 0 0 1
-0.747711 -23.265780 22.618729 32.457087 1.538670 0.799757 0.103258 -0.038575 -63464.500000 0 0 1
-1.484411 -22.239380 21.965329 31.293277 1.504148 0.792709 0.135269 -0.034411 439054.000000 0 0 1
-0.654011 -21.160280 21.476329 30.156557 1.539899 0.778224 0.145835 -0.038094 306148.000000 0 0 1
-1.569411 -20.030080 20.920729 29.005932 1.492603 0.765181 0.119402 -0.006689 -628644.000000 0 0 1
-2.196211 -19.177480 21.856029 29.159648 1.456773 0.723445 0.117133 -0.022734 870109.000000 0 0 1
-3.449811 -19.688980 22.365329 29.996084 1.397342 0.729349 0.153013 -0.035131 928696.000000 0 0 1
-4.681511 -19.497680 21.418429 29.339822 1.335151 0.752456 0.153395 -0.037586 -319649.000000 0 0 1
-4.689911 -20.336580 20.290729 29.108168 1.344144 0.799479 0.146671 -0.038678 -154588.000000 0 0 1
-5.471011 -21.544580 20.371929 30.151557 1.322114 0.828949 0.151263 -0.037212 295684.000000 0 0 1
-5.600711 -22.098580 18.919529 29.625391 1.322581 0.878086 0.128659 -0.040681 777.552000 0 0 1
-6.145711 -23.425880 18.852229 30.691174 1.314231 0.909354 0.128190 -0.041332 -114755.000000 0 0 1
-6.313611 -23.755580 17.515129 30.182263 1.311028 0.951685 0.112659 -0.049657 144498.000000 0 0 1
-7.087711 -25.064380 17.253029 31.243012 1.295211 0.985771 0.093836 -0.051469 827402.000000 0 0 1
-8.496111 -25.045480 17.483829 31.704010 1.243751 0.986670 0.102525 -0.043618 267846.000000 0 0 1
-9.061911 -26.330980 17.109929 32.683152 1.239339 1.019832 0.095379 -0.038368 424187.000000 0 0 1
-10.594211 -26.410080 17.297229 33.300507 1.189305 1.024614 0.096401 -0.035447 -103744.000000 0 0 1
-11.297311 -25.758880 16.225829 32.471937 1.157480 1.047558 0.109976 -0.038163 765426.000000 0 0 1
-12.722411 -25.663280 16.346629 32.979933 1.110560 1.052209 0.090683 -0.036117 1151210.000000 0 0 1
-13.342311 -24.861980 17.550929 33.229060 1.078256 1.014340 0.090745 -0.033494 -618683.000000 0 0 1
-13.373011 -23.491780 17.287829 32.086916 1.053284 1.001807 0.083702 -0.034795 -152669.000000 0 0 1
-13.709911 -22.677980 18.427429 32.277277 1.027040 0.963182 0.078585 -0.021033 400679.000000 0 0 1
-12.526011 -22.189580 19.357729 32.000001 1.056889 0.921120 0.075770 -0.029467 621096.000000 0 0 1
-11.777811 -23.232180 19.962329 32.816849 1.101595 0.916885 0.089322 -0.030317 -457757.000000 0 0 1
-10.414111 -23.015380 19.740329 32.059975 1.145878 0.907483 0.129443 -0.040879 -417272.000000 0 0 1
-9.496411 -23.937180 20.546029 32.944039 1.193119 0.897374 0.125843 -0.043727 7763.770000 0 0 1
-9.515011 -23.585980 21.898229 33.561382 1.187347 0.859940 0.122112 -0.040761 244461.000000 0 0 1
-8.441311 -24.244380 22.551029 34.170084 1.235747 0.850025 0.139967 -0.044078 341028.000000 0 0 1
-8.380211 -23.836980 24.046329 34.880589 1.232729 0.810150 0.147559 -0.047114 243767.000000 0 0 1
-7.279711 -24.466480 24.679929 35.506362 1.281600 0.802259 0.158315 -0.050146 -16795.000000 0 0 1
-7.127411 -23.748280 25.893229 35.850246 1.279226 0.763731 0.146578 -0.036761 216776.000000 0 0 1
-5.973011 -24.262880 26.797429 36.639684 1.329417 0.750457 0.139135 -0.029269 386366.000000 0 0 1
-4.667211 -23.936280 26.366229 35.915267 1.378228 0.746422 0.157751 -0.036463 63449.100000 0 0 1
-3.677111 -24.386680 27.285229 36.779275 1.421140 0.734950 0.148747 -0.032049 565817.000000 0 0 1
-2.233911 -23.988080 26.884929 36.100108 1.477938 0.730662 0.140454 -0.034987 57790.500000 0 0 1
-2.023111 -22.561180 26.850729 35.129211 1.481363 0.700776 0.146916 -0.038100 1136760.000000 0 0 1
-0.759711 -22.050780 26.313729 34.339866 1.536357 0.697775 0.135342 -0.045036 1560870.000000 0 0 1
0.319589 -21.805680 27.397629 35.017423 -1.556141 0.672286 0.118698 -0.033000 158667.000000 0 0 1
0.953789 -22.933380 27.992929 36.200190 -1.529231 0.686796 0.118076 -0.030571 -161044.000000 0 0 1
1.684989 -22.581880 29.111029 36.881330 -1.496317 0.661102 0.105558 -0.043543 -164601.000000 0 0 1
2.419589 -23.825980 29.713929 38.163455 -1.469591 0.678370 0.132528 -0.049956 -472630.000000 0 0 1
3.547789 -24.269180 29.022929 37.998820 -1.425640 0.701639 0.113395 -0.051287 -410329.000000 0 0 1
4.214389 -25.276580 29.706029 39.231553 -1.405585 0.711785 0.099209 -0.049470 -643208.000000 0 0 1
5.426089 -24.878180 30.566029 39.782514 -1.356053 0.694571 0.077877 -0.045913 -183533.000000 0 0 1
6.598089 -24.496680 29.887029 39.202763 -1.307694 0.703828 0.078800 -0.042510 504860.000000 0 0 1
7.411989 -25.507580 29.241429 39.504878 -1.288004 0.737432 0.074402 -0.039666 -95338.600000 0 0 1
8.742789 -25.002080 28.693129 39.049149 -1.234404 0.745432 0.068601 -0.026140 -475815.000000 0 0 1
8.470989 -24.211880 27.572329 37.659078 -1.234238 0.749314 0.070628 -0.037924 -296399.000000 0 0 1
9.603589 -23.977780 26.800429 37.221309 -1.189841 0.766952 0.057381 -0.025896 -883561.000000 0 0 1
9.344989 -22.849880 25.775329 35.690523 -1.182578 0.763833 0.067235 -0.022335 -127129.000000 0 0 1
8.565989 -23.172380 24.661729 34.907539 -1.216712 0.786274 0.058132 -0.021171 -31986.700000 0 0 1
8.058789 -22.021480 23.982829 33.542000 -1.219982 0.774159 0.058867 -0.018966 142509.000000 0 0 1
7.360189 -22.259280 22.614629 32.574060 -1.251456 0.803415 0.053862 -0.015069 -32981.800000 0 0 1
8.178489 -22.888280 21.614229 32.525927 -1.227613 0.843941 0.047187 -0.010501 295164.000000 0 0 1
7.708089 -22.633380 20.295729 31.362416 -1.242553 0.866975 0.065779 -0.000923 -113660.000000 0 0 1
8.465389 -23.476680 19.258729 31.523261 -1.224721 0.913553 0.106061 -0.015712 -890603.000000 0 0 1
9.821689 -23.251780 19.250229 31.744010 -1.171125 0.919245 0.097819 -0.016974 -965620.000000 0 0 1
10.494089 -24.036880 18.246129 31.950254 -1.159156 0.962976 0.114049 -0.027963 634686.000000 0 0 1
11.975789 -23.698480 17.930729 32.039796 -1.102886 0.976846 0.096342 -0.028258 487660.000000 0 0 1
12.073889 -22.519980 17.127329 30.761562 -1.078655 0.980296 0.104478 -0.022338 638257.000000 0 0 1
13.429789 -22.353380 16.694329 30.963421 -1.029793 1.001353 0.099594 -0.022913 531403.000000 0 0 1
-12.960111 22.125018 11.277129 28.011685 -1.040908 1.156456 0.038654 -0.019146 -111260.000000 0 0 1
-13.849511 21.073018 10.939629 27.487388 -0.989366 1.161475 0.016055 -0.024967 313874.000000 0 0 1
-13.165611 20.114818 10.159529 26.098951 -0.991248 1.170958 0.056769 -0.033916 205913.000000 0 0 1
-14.095511 19.483118 9.080829 25.704800 -0.944490 1.209728 0.056353 -0.027283 -36774.300000 0 0 1
-14.483911 20.385518 8.090829 26.283351 -0.953058 1.257884 0.062377 -0.024715 685989.000000 0 0 1
-15.458311 19.980418 7.099129 26.240695 -0.912316 1.296844 0.075644 -0.017165 -499403.000000 0 0 1
-16.922311 19.947818 7.375729 27.178694 -0.867273 1.295971 0.062043 -0.020968 -1455090.000000 0 0 1
-17.209311 18.873818 8.269629 26.847125 -0.831495 1.257678 0.052886 -0.026576 -189337.000000 0 0 1
-18.559111 18.929018 8.652429 27.885710 -0.795265 1.255307 0.066302 -0.019041 -309433.000000 0 0 1
-18.987711 17.759418 9.526729 27.689143 -0.751985 1.219559 0.060159 -0.016969 -147764.000000 0 0 1
-19.032111 16.523718 8.817929 26.702254 -0.714967 1.234247 0.067167 -0.015699 122060.000000 0 0 1
-19.452111 15.470118 9.738529 26.693597 -0.671864 1.197350 0.072971 -0.020755 55323.300000 0 0 1
-18.428211 14.894118 10.787229 26.034554 -0.679735 1.143576 0.062184 -0.014261 -19557.800000 0 0 1
-17.497211 14.030518 10.201829 24.639098 -0.675881 1.143897 0.041150 -0.000586 -23015.300000 0 1 0
-16.691911 13.226818 11.073129 24.003808 -0.670095 1.091328 0.044067 -0.008539 140659.000000 0 1 0
-17.450311 12.246918 11.952029 24.440772 -0.611944 1.059830 0.044031 -0.009650 -354986.000000 0 1 0
-18.030711 11.214518 11.114929 23.966927 -0.556416 1.088561 0.026974 -0.015801 -231219.000000 0 1 0
-18.974111 10.524918 11.887029 24.740498 -0.506444 1.069608 0.042367 -0.015355 -11254.100000 0 1 0
-20.069511 9.788418 11.077129 24.925914 -0.453780 1.110290 0.053345 -0.021122 -106192.000000 0 1 0
-19.572411 8.628818 10.408629 23.788134 -0.415232 1.117918 0.046961 -0.021940 244220.000000 0 1 0
-18.927211 8.944418 9.177429 22.857540 -0.441463 1.157636 0.054918 -0.026776 -888896.000000 0 1 0
-19.769611 9.295918 7.962729 23.252025 -0.439535 1.221270 0.060168 -0.024873 -493868.000000 0 1 0
-20.350911 8.185518 7.348029 23.133435 -0.382418 1.247560 0.042420 -0.029893 314006.000000 0 1 0
-21.386011 8.603518 6.467629 23.941850 -0.382485 1.297259 0.065932 -0.023472 136068.000000 0 1 0
-21.850511 7.392818 5.670129 23.753925 -0.326246 1.329766 0.097846 -0.027411 10444.500000 0 1 0
-22.651511 6.417618 6.343629 24.382748 -0.276084 1.307599 0.117464 -0.031125 636268.000000 0 1 0
-22.339511 5.116118 5.783729 23.636411 -0.225134 1.323590 0.124104 -0.038490 -328200.000000 0 1 0
-23.301711 3.955218 6.083429 24.405360 -0.168137 1.318874 0.142062 -0.038700 -29260.300000 0 1 0
-24.460511 4.030218 5.260129 25.342222 -0.163297 1.361712 0.181243 -0.044990 354279.000000 0 0 1
-25.216681 2.845118 5.243429 25.912723 -0.112352 1.367040 0.197383 -0.051179 111832.000000 0 0 1
-26.364411 2.858918 4.197629 26.849128 -0.108016 1.413811 0.211123 -0.051497 279376.000000 0 0 1
-25.834681 2.812718 2.836129 26.141648 -0.108447 1.462092 0.208553 -0.038270 690732.000000 0 0 1
-26.924191 2.787818 1.931029 27.136928 -0.103176 1.499577 0.212320 -0.036475 121695.000000 0 0 1
-26.504061 2.697518 0.443229 26.644667 -0.101428 1.554161 0.233352 -0.035033 -222655.000000 0 0 1
-26.020361 3.941218 -0.065571 26.317231 -0.150324 1.573288 0.215392 -0.040378 339082.000000 0 0 1
-26.116391 4.014218 -1.491471 26.465152 -0.152511 1.627182 0.226693 -0.038453 923410.000000 0 0 1
-27.543591 4.490618 -1.994871 27.978466 -0.161615 1.642157 0.240419 -0.053004 795071.000000 0 0 1
-28.573571 3.576818 -1.721871 28.848005 -0.124531 1.630520 0.235268 -0.052735 668969.000000 0 0 1
-29.840801 4.228218 -1.994171 30.204767 -0.140756 1.636866 0.216897 -0.034632 654479.000000 0 0 1
-31.061891 3.317318 -1.868571 31.294364 -0.106394 1.630541 0.226696 -0.035475 -486841.000000 0 0 1
-31.316831 2.664718 -3.094371 31.581953 -0.084885 1.668933 0.218641 -0.038937 662599.000000 0 0 1
-32.358241 1.689118 -2.971171 32.538235 -0.052153 1.662237 0.228235 -0.047938 63784.900000 0 0 1
-32.886971 1.241518 -4.321871 33.192963 -0.037733 1.701371 0.223314 -0.060840 -224203.000000 0 0 1
-31.862051 0.622618 -5.098971 32.273479 -0.019539 1.729454 0.244108 -0.059771 402326.000000 0 0 1
-32.206231 -0.009082 -6.327371 32.821898 0.000282 1.764790 0.253072 -0.053377 -546541.000000 0 0 1
-32.597551 0.849618 -7.495771 33.459061 -0.026058 1.796742 0.234965 -0.060952 509650.000000 0 0 1
-33.991271 1.169318 -7.450071 34.817773 -0.034387 1.786437 0.228076 -0.059734 721763.000000 0 0 1
-34.492410 1.921218 -8.547071 35.587495 -0.055642 1.813338 0.182817 -0.047512 -331317.000000 0 0 1
-35.998625 2.151318 -8.411871 37.030916 -0.059690 1.799955 0.167981 -0.044390 -349855.000000 0 0 1
-36.463221 2.884318 -7.312671 37.300950 -0.078938 1.768120 0.163916 -0.036206 369358.000000 0 0 1
36.936899 3.070818 -7.342771 37.784663 0.082946 1.766373 0.159044 -0.025241 -23315.300000 0 0 1
36.374559 3.731118 -6.135671 37.076627 0.102217 1.737047 0.179009 -0.032028 428731.000000 0 0 1
34.949969 3.605018 -6.089971 35.659280 0.102784 1.742420 0.151005 -0.039854 677609.000000 0 0 1
34.284709 4.301318 -5.062671 34.922389 0.124807 1.716278 0.153898 -0.037272 -102476.000000 0 0 1
32.993759 3.525818 -4.749271 33.519772 0.106459 1.712960 0.141768 -0.035503 -401705.000000 0 0 1
33.081899 2.275518 -4.211071 33.426384 0.068676 1.697112 0.139406 -0.038159 -113617.000000 0 0 1
31.930789 1.491818 -4.452771 32.274262 0.046686 1.709204 0.110369 -0.036283 -17817.000000 0 0 1
31.999549 0.161118 -3.698871 32.213022 0.005035 1.685875 0.160931 -0.030392 142513.000000 0 0 1
32.941719 -0.715682 -4.337371 33.233746 -0.021722 1.701681 0.099973 -0.032337 617738.000000 0 0 1
32.846899 -1.913882 -3.663571 33.105944 -0.058201 1.681685 0.115260 -0.023952 -437259.000000 0 0 1
34.066979 -2.796582 -3.903071 34.403690 -0.081907 1.684490 0.104119 -0.027582 -527127.000000 0 0 1
34.142609 -4.008682 -3.225271 34.528100 -0.116875 1.664343 0.085423 -0.035660 1414760.000000 0 0 1
35.483509 -4.600582 -3.192871 35.922684 -0.128935 1.659796 0.122949 -0.029814 1596340.000000 0 0 1
35.452049 -5.908182 -2.445071 36.024059 -0.165135 1.638722 0.129526 -0.034215 -45322.100000 0 0 1
35.240739 -5.912982 -1.055971 35.748960 -0.166240 1.600339 0.128899 -0.035665 -122569.000000 0 0 1
35.353109 -7.191182 -0.471471 36.080157 -0.200672 1.583864 0.168337 -0.038359 -120024.000000 0 0 1
34.451619 -7.411682 0.766529 35.248187 -0.211903 1.549048 0.161119 -0.035204 -572755.000000 0 0 1
33.101159 -7.311782 0.410029 33.901579 -0.217401 1.558701 0.139286 -0.031681 17568.300000 0 0 1
32.233409 -7.382282 1.574329 33.105427 -0.225143 1.523223 0.191665 -0.051394 -28661.200000 0 0 1
31.953829 -8.704982 2.372329 33.203191 -0.265970 1.499287 0.168723 -0.047996 -552059.000000 0 0 1
30.983319 -9.602982 1.886329 32.492177 -0.300551 1.512709 0.155506 -0.044702 -224938.000000 0 0 1
29.695339 -9.207482 2.291629 31.174388 -0.300665 1.497220 0.148654 -0.041516 -1024560.000000 0 0 1
28.637439 -10.349682 1.949229 30.512593 -0.346798 1.506870 0.143088 -0.038129 551637.000000 0 0 1
27.313339 -10.116982 2.460229 29.230542 -0.354736 1.486530 0.161015 -0.041625 1639900.000000 0 0 1
26.591339 -8.992782 1.826529 28.130156 -0.326110 1.505819 0.175408 -0.044762 -609273.000000 0 0 1
25.948739 -9.197082 0.471329 27.534443 -0.340618 1.553678 0.155964 -0.035923 -574851.000000 0 0 1
26.883139 -9.485082 -0.566071 28.512987 -0.339191 1.590651 0.151850 -0.045403 852125.000000 0 0 1
26.250239 -9.751582 -1.844271 28.063673 -0.355686 1.636561 0.150744 -0.038513 142612.000000 0 0 1
25.435439 -11.048882 -2.090871 27.810270 -0.409797 1.646051 0.134631 -0.032967 -37927.200000 0 0 1
24.144739 -11.032282 -1.538771 26.590365 -0.428596 1.628698 0.130588 -0.017008 -154644.000000 0 0 1
23.546339 -12.292682 -1.738571 26.618842 -0.481142 1.636156 0.107321 -0.012560 1272200.000000 0 0 1
21.983039 -12.524282 -1.570171 25.349105 -0.517861 1.632778 0.101604 -0.014091 1241770.000000 0 0 1
21.158739 -11.971182 -2.578471 24.446881 -0.514877 1.676465 0.109862 -0.016611 1057590.000000 0 1 0
19.797939 -12.110482 -2.126771 23.305479 -0.548981 1.662180 0.113993 -0.026547 769488.000000 0 1 0
18.717239 -11.509882 -3.048071 22.183399 -0.551329 1.708636 0.103446 -0.028581 -7307.760000 0 1 0
18.742339 -12.191082 -4.278871 22.764150 -0.576696 1.759886 0.108260 -0.033768 579812.000000 0 1 0
17.992139 -11.501382 -5.278571 21.996868 -0.568777 1.813130 0.105326 -0.032183 -276580.000000 0 1 0
18.097139 -12.251282 -6.631771 22.838143 -0.595104 1.865422 0.110774 -0.034979 -836607.000000 0 1 0
17.126839 -13.223782 -6.861471 22.699710 -0.657501 1.877871 0.099790 -0.033676 -130283.000000 0 1 0
17.587239 -14.164282 -7.804771 23.892516 -0.678008 1.903566 0.109258 -0.033727 -891461.000000 0 1 0
16.596239 -15.197682 -8.267271 23.973996 -0.741438 1.922868 0.095553 -0.034211 -473631.000000 0 1 0
15.776939 -14.787682 -9.347571 23.557683 -0.753043 1.978819 0.121588 -0.019138 172605.000000 0 1 0
15.263939 -15.854482 -10.084171 24.208324 -0.804373 2.000452 0.115637 -0.019316 -166798.000000 0 1 0
14.462339 -15.405982 -11.322771 23.973083 -0.816981 2.062708 0.113406 -0.041213 2668.570000 0 1 0
13.204339 -14.766382 -11.188471 22.750440 -0.841186 2.084942 0.089364 -0.036887 365766.000000 0 1 0
13.240939 -13.374682 -10.949371 21.773684 -0.790423 2.097714 0.077551 -0.027692 -419184.000000 0 1 0
13.425939 -12.513682 -12.178471 22.026421 -0.750244 2.156640 0.091237 -0.025123 179974.000000 0 1 0
14.695239 -12.657482 -12.810071 23.243490 -0.711036 2.154508 0.110353 -0.028667 452443.000000 0 1 0
14.612239 -12.107682 -14.112971 23.649301 -0.691938 2.210254 0.126779 -0.025924 47607.300000 0 1 0
15.953239 -11.914082 -14.857071 24.843183 -0.641458 2.211842 0.126302 -0.032188 -33211.000000 0 1 0
16.778439 -13.020782 -15.113771 26.066892 -0.659961 2.189288 0.126185 -0.032330 351271.000000 0 0 1
17.834739 -12.568882 -15.965671 27.036223 -0.613901 2.202510 0.113748 -0.020304 -348606.000000 0 0 1
19.045239 -13.464382 -16.084471 28.332330 -0.615387 2.174514 0.105154 -0.017036 106498.000000 0 0 1
19.992939 -13.319182 -14.965371 28.303367 -0.587676 2.127922 0.104840 -0.027268 188739.000000 0 0 1
21.029739 -14.199682 -15.135671 29.546056 -0.593900 2.108627 0.082194 -0.016470 -1103650.000000 0 0 1
22.114339 -14.121482 -14.069171 29.772501 -0.568296 2.062985 0.073983 -0.015461 -406927.000000 0 0 1
22.921139 -12.976782 -14.121771 29.886450 -0.515157 2.062938 0.088227 -0.017909 -780435.000000 0 0 1
23.763339 -12.957882 -13.046671 30.046940 -0.499219 2.019957 0.076188 -0.005531 -644078.000000 0 0 1
24.467439 -11.596582 -12.941571 30.010341 -0.442599 2.016660 0.091402 -0.020916 -808528.000000 0 0 1
23.705439 -10.470282 -12.578071 28.805946 -0.415916 2.022666 0.084634 -0.014026 -149515.000000 0 0 1
24.383239 -9.219282 -12.643871 28.972487 -0.361485 2.022401 0.105311 -0.027003 735284.000000 0 0 1
25.624439 -8.979482 -11.700671 29.566006 -0.337055 1.977678 0.117857 -0.022558 589593.000000 0 0 1
26.750139 -9.784282 -11.974771 30.898176 -0.350650 1.968775 0.101998 -0.018447 255808.000000 0 0 1
27.773839 -9.531282 -10.985471 31.351428 -0.330582 1.928792 0.115513 -0.022847 718056.000000 0 0 1
29.107139 -10.284582 -11.281671 32.867526 -0.339643 1.921168 0.126855 -0.024617 87660.000000 0 0 1
29.844089 -9.733982 -12.332671 33.727064 -0.315282 1.945139 0.110910 -0.020321 -764237.000000 0 0 1
30.957199 -10.523982 -12.537571 35.018468 -0.327696 1.936951 0.104836 -0.019951 -464079.000000 0 0 1
31.804379 -10.093582 -13.787871 36.104076 -0.307310 1.962639 0.083519 -0.010536 99427.900000 0 0 1
31.202859 -10.465882 -14.999571 36.168222 -0.323622 1.998428 0.071582 -0.010990 -227623.000000 0 0 1
32.037389 -10.265582 -16.076271 37.285694 -0.310088 2.016579 0.044087 -0.019315 -800254.000000 0 0 1
31.543629 -11.002382 -17.339971 37.639441 -0.335604 2.049564 0.018165 -0.000496 123509.000000 0 0 1
30.374859 -10.463782 -17.949771 36.801047 -0.331756 2.080309 0.034581 -0.007799 356459.000000 0 0 1
30.364389 -9.145582 -18.499671 36.713426 -0.292552 2.098897 0.028088 -0.006329 -360826.000000 0 0 1
28.922739 -8.844582 -18.982571 35.708395 -0.296770 2.131284 0.003026 -0.013742 247206.000000 0 0 1
28.437039 -9.482182 -20.172571 36.131836 -0.321851 2.163137 0.018422 -0.008285 813351.000000 0 0 1
27.064639 -9.131182 -20.347971 35.070117 -0.325392 2.189781 0.067931 -0.006056 269827.000000 0 0 1
26.407839 -9.756982 -21.524771 35.438516 -0.353916 2.223559 0.088301 -0.015140 -284201.000000 0 0 1
26.585339 -11.205382 -21.633571 36.060397 -0.398892 2.214205 0.091919 -0.021714 449479.000000 0 0 1
25.892739 -11.641382 -22.807971 36.416470 -0.422521 2.247606 0.107807 -0.021777 -522602.000000 0 0 1
26.333639 -13.036482 -23.392971 37.558508 -0.459680 2.243165 0.119365 -0.018775 750960.000000 0 0 1
27.577739 -13.230982 -24.057771 38.914868 -0.447333 2.237267 0.113259 -0.016160 772591.000000 0 0 1
28.784539 -13.045082 -23.322571 39.276789 -0.425510 2.206570 0.075287 -0.015885 791747.000000 0 0 1
30.029769 -13.579682 -24.144271 40.855118 -0.424688 2.203061 0.072691 -0.008638 569146.000000 0 0 1
30.230819 -12.940782 -25.411351 41.558429 -0.404465 2.228702 0.059711 -0.010016 -643639.000000 0 0 1
31.598109 -12.881582 -25.625991 42.673963 -0.387100 2.214931 0.030192 -0.011297 -853324.000000 0 0 1
31.941049 -12.501182 -27.029011 43.670100 -0.373056 2.238184 0.049595 -0.022802 -65235.000000 0 0 1
31.637429 -13.482582 -28.027691 44.365058 -0.402852 2.254607 0.064793 -0.028198 -100767.000000 0 0 1
32.476939 -13.234782 -29.093291 45.566771 -0.386966 2.263313 0.059945 -0.027384 -221642.000000 0 0 1
32.176459 -14.108582 -30.306311 46.398805 -0.413229 2.282560 0.069553 -0.029824 -37013.100000 0 0 1
32.769479 -15.410782 -30.283301 47.206030 -0.439589 2.267266 0.077131 -0.025890 -144406.000000 0 0 1
32.809719 -16.108282 -31.477131 48.236544 -0.456390 2.281751 0.056296 -0.024611 54595.500000 0 0 1
31.500429 -16.668182 -32.081321 47.951189 -0.486688 2.303714 0.049194 -0.021980 218744.000000 0 0 1
30.659719 -15.634182 -32.604781 47.407993 -0.471557 2.329179 0.054406 -0.025620 566697.000000 0 0 1
29.356939 -16.155982 -32.919221 46.973618 -0.503096 2.347318 0.032072 -0.018144 576411.000000 0 0 1
28.653439 -15.112282 -33.828951 46.838003 -0.485339 2.377853 0.043786 -0.014748 -723790.000000 0 0 1
28.104739 -14.006582 -33.170501 45.676502 -0.462343 2.383582 0.043188 -0.022877 -160612.000000 0 0 1
28.954339 -12.911082 -32.866831 45.664848 -0.419449 2.374224 0.055746 -0.024584 -88097.500000 0 0 1
28.131539 -11.612082 -32.601681 44.599255 -0.391473 2.390570 0.061445 -0.029448 385036.000000 0 0 1
27.461739 -11.247682 -33.801361 44.979878 -0.388735 2.421095 0.062405 -0.025468 -347787.000000 0 0 1
26.685839 -10.139382 -33.480721 43.998861 -0.363107 2.435565 0.029719 -0.025239 -312636.000000 0 0 1
20.961889 -29.432180 9.365229 37.327758 -0.951923 1.317195 0.055125 -0.021897 8894.820000 0 0 1
21.572789 -29.280480 8.107129 37.262009 -0.935821 1.351471 0.054477 -0.026761 617543.000000 0 0 1
22.920389 -29.739180 8.022929 38.394407 -0.914170 1.360284 0.085422 -0.026367 444639.000000 0 0 1
23.571889 -29.652980 6.668529 38.463001 -0.899158 1.396541 0.085438 -0.024655 -238952.000000 0 0 1
23.690389 -28.327480 6.159729 37.438255 -0.874307 1.405514 0.069290 -0.017133 69365.300000 0 0 1
24.358689 -28.267780 4.914929 37.637344 -0.859542 1.439836 0.080160 -0.013724 -22458.300000 0 0 1
24.443289 -26.808580 4.435129 36.549210 -0.831516 1.449150 0.074172 -0.017321 233885.000000 0 0 1
25.383289 -25.996980 5.135929 36.695124 -0.797342 1.430373 0.067002 -0.014688 329043.000000 0 0 1
25.201889 -24.602880 4.730429 35.536093 -0.773372 1.437284 0.055439 -0.006377 -157000.000000 0 0 1
25.879789 -23.550880 5.595229 35.436055 -0.738318 1.412236 0.050082 -0.010333 193862.000000 0 0 1
27.296289 -23.561980 5.402729 36.461539 -0.712104 1.422073 0.076197 -0.018398 758227.000000 0 0 1
28.120489 -22.898580 6.371229 36.819824 -0.683401 1.396883 0.086188 -0.021774 353473.000000 0 0 1
27.867589 -21.435280 6.713529 35.793089 -0.655666 1.382114 0.074951 -0.015478 -390476.000000 0 0 1
28.194189 -20.468580 5.679129 35.300532 -0.627954 1.409215 0.084863 -0.016710 -30194.900000 0 0 1
27.656489 -19.250280 6.009229 34.228139 -0.608070 1.394318 0.088614 -0.026252 -228372.000000 0 0 1
27.553489 -18.190180 4.871229 33.373737 -0.583496 1.424313 0.088618 -0.017485 -360574.000000 0 0 1
28.797289 -17.727680 4.434029 34.105940 -0.551813 1.440420 0.136896 -0.016140 -323226.000000 0 0 1
28.759689 -16.961580 3.248029 33.546455 -0.532863 1.473823 0.129803 -0.008130 590359.000000 0 0 1
29.972589 -15.965180 3.137129 34.104027 -0.489432 1.478679 0.137419 -0.023738 653982.000000 0 0 1
29.699489 -14.848180 3.936829 33.436907 -0.463605 1.452784 0.130995 -0.026858 52630.100000 0 0 1
30.693089 -13.875380 3.886229 33.907148 -0.424573 1.455930 0.145476 -0.039771 -149026.000000 0 0 1
30.199389 -12.739280 4.754829 33.119492 -0.399190 1.426733 0.150847 -0.038881 199844.000000 0 0 1
30.341489 -13.089080 6.121629 33.606611 -0.407272 1.387618 0.138894 -0.049184 81389.600000 0 0 1
29.920289 -12.062980 6.970329 33.004919 -0.383237 1.358003 0.130859 -0.045071 -418033.000000 0 0 1
29.910889 -12.538680 8.463729 33.518868 -0.396949 1.315527 0.138506 -0.036693 860591.000000 0 0 1
28.558589 -12.973880 8.781829 32.573534 -0.426416 1.297819 0.123968 -0.027448 1139430.000000 0 0 1
28.208489 -13.255680 10.126629 32.771642 -0.439294 1.256649 0.120414 -0.022324 25323.100000 0 0 1
29.052189 -14.245080 10.978829 34.168504 -0.455880 1.243679 0.120032 -0.017732 172543.000000 0 0 1
30.357889 -13.953280 11.444429 35.316716 -0.430830 1.240788 0.108645 -0.018559 314137.000000 0 0 1
30.794089 -15.160080 12.123729 36.401769 -0.457473 1.231256 0.116964 -0.020110 -68144.900000 0 0 1
31.789589 -15.030980 13.253029 37.578599 -0.441674 1.210368 0.112274 -0.018967 965730.000000 0 0 1
33.176289 -14.741880 12.940529 38.541491 -0.418145 1.228389 0.087225 -0.015046 793688.000000 0 0 1
33.900189 -14.858780 14.095629 39.606728 -0.413090 1.206930 0.084195 -0.009980 -66560.800000 0 0 1
35.436189 -14.712980 13.877329 40.801661 -0.393538 1.223755 0.087630 -0.007099 365601.000000 0 0 1
35.808689 -13.380180 13.508929 40.543589 -0.357593 1.231106 0.100626 -0.011637 -656670.000000 0 0 1
37.142089 -13.325980 13.145229 41.592230 -0.344478 1.249233 0.097882 -0.011706 -889500.000000 0 0 1
-37.090961 -11.902380 13.051129 41.082089 0.310516 1.247510 0.107038 -0.016235 -78738.800000 0 0 1
-35.861161 -11.857380 12.335029 39.733780 0.319331 1.255138 0.126187 -0.019711 253906.000000 0 0 1
-35.170861 -10.626980 12.508929 38.812311 0.293431 1.242646 0.128163 -0.030907 181957.000000 0 0 1
-33.879861 -10.540780 11.646229 37.344179 0.301629 1.253644 0.144221 -0.028037 457538.000000 0 0 1
-32.901161 -11.529680 11.958729 36.856901 0.337061 1.240352 0.125692 -0.028164 372463.000000 0 0 1
-33.109261 -12.755580 11.270129 37.228266 0.367733 1.263240 0.110058 -0.024900 -532565.000000 0 0 1
-32.115361 -13.895280 11.643529 36.878815 0.408347 1.249577 0.081949 -0.024252 -810930.000000 0 0 1
-30.829061 -13.584780 11.245729 35.516808 0.415050 1.248620 0.101564 -0.023605 -1578440.000000 0 0 1
-30.057461 -14.669180 11.625229 35.408781 0.454032 1.236277 0.104539 -0.019471 -1176650.000000 0 0 1
-28.686061 -14.544780 10.999329 33.991557 0.469258 1.241275 0.122844 -0.016896 -1056170.000000 0 0 1
-28.667061 -14.851980 9.602629 33.683708 0.478011 1.281704 0.119034 -0.013529 883795.000000 0 0 1
-27.333861 -14.909980 9.060929 32.427579 0.499364 1.287606 0.118396 -0.014949 726560.000000 0 0 1
-27.228161 -14.741280 7.529329 31.864853 0.496215 1.332251 0.148430 -0.015170 -120181.000000 0 0 1
-27.853561 -15.736480 6.756929 32.697305 0.514265 1.362646 0.151870 -0.000218 158449.000000 0 0 1
-27.633861 -15.596680 5.379329 32.184218 0.513835 1.402866 0.158851 -0.003003 -211449.000000 0 0 1
-28.217861 -16.736480 4.587629 33.127085 0.535343 1.431864 0.127085 0.001835 383350.000000 0 0 1
-29.629261 -16.674880 4.416829 34.284882 0.512605 1.441610 0.082645 -0.008971 349900.000000 0 0 1
-30.065361 -17.695580 3.534429 35.064963 0.531973 1.469828 0.085631 -0.003485 -218011.000000 0 0 1
-31.552461 -18.036380 3.719529 36.533597 0.519299 1.468808 0.097982 -0.014080 -668151.000000 0 0 1
-32.400361 -17.008580 3.374629 36.748650 0.483408 1.478837 0.124531 -0.025532 -573468.000000 0 0 1
-33.731561 -17.426980 3.604829 38.138073 0.476869 1.476135 0.127633 -0.025449 100406.000000 0 0 1
-34.742861 -16.456080 2.907329 38.552841 0.442349 1.495313 0.129274 -0.033577 272558.000000 0 0 1
-34.837561 -16.737680 1.507229 38.679159 0.447885 1.531819 0.122015 -0.030097 866514.000000 0 0 1
-35.912761 -16.003380 0.841129 39.326099 0.419204 1.549406 0.170831 -0.038603 893867.000000 0 0 1
-36.174861 -16.523880 -0.562571 39.774058 0.428476 1.584941 0.146389 -0.043419 406788.000000 0 0 1
-35.104061 -16.343580 -1.510471 38.751635 0.435731 1.609784 0.135023 -0.036795 755138.000000 0 0 1
-35.418061 -17.123980 -2.643371 39.429141 0.450346 1.637888 0.110307 -0.030791 -281651.000000 0 0 1
-34.233761 -17.892980 -3.224971 38.762218 0.481619 1.654091 0.100833 -0.025757 -315384.000000 0 0 1
-34.670361 -18.896680 -4.107671 39.698758 0.499026 1.674453 0.100743 -0.033423 420293.000000 0 0 1
-33.554761 -19.628380 -4.592671 39.144449 0.529291 1.688393 0.100816 -0.025898 202322.000000 0 0 1
-34.013961 -20.766580 -5.558071 40.237949 0.548127 1.709369 0.110329 -0.026779 45454.800000 0 0 1
-34.660761 -21.817280 -4.871671 41.244336 0.561794 1.689190 0.109897 -0.033261 -60323.000000 0 0 1
-35.096561 -22.758580 -5.803271 42.230315 0.575289 1.708652 0.104525 -0.026824 168478.000000 0 0 1
-35.776161 -24.059680 -5.361771 43.445949 0.592034 1.694524 0.094541 -0.026024 53994.500000 0 0 1
-34.867361 -24.881980 -4.645471 43.086264 0.619807 1.678824 0.095483 -0.020410 -136355.000000 0 0 1
-35.370261 -26.188480 -4.541871 44.243874 0.637335 1.673633 0.078056 -0.015056 5397.500000 0 0 1
-34.379361 -27.203080 -3.972671 44.019656 0.669390 1.661167 0.070897 -0.018231 -208807.000000 0 0 1
-33.301161 -27.534180 -4.838871 43.480030 0.690884 1.682317 0.061638 -0.014867 154531.000000 0 0 1
-32.567361 -28.668480 -4.463971 43.616989 0.721814 1.673321 0.054613 -0.016122 23437.300000 0 0 1
-31.471761 -28.590280 -3.377571 42.653063 0.737460 1.650066 0.074821 -0.028973 -865346.000000 0 0 1
-31.944161 -28.199380 -2.120971 42.663016 0.723214 1.620531 0.072052 -0.026032 -271085.000000 0 0 1
-31.063661 -28.319180 -0.998271 42.046683 0.739214 1.594541 0.074397 -0.031311 -261946.000000 0 0 1
-31.716061 -28.278680 0.367929 42.493854 0.728166 1.562138 0.062784 -0.019891 -244958.000000 0 0 1
-32.449161 -29.440480 0.712729 43.820063 0.736823 1.554531 0.055441 -0.010506 480037.000000 0 0 1
-33.222461 -29.272880 1.953729 44.322122 0.722284 1.526702 0.073349 -0.011299 593714.000000 0 0 1
-33.858861 -30.585580 2.465329 45.694398 0.734649 1.516818 0.058978 -0.015784 226280.000000 0 0 1
-35.015061 -30.329280 3.276329 46.439789 0.713812 1.500188 0.057486 -0.020631 525199.000000 0 0 1
-35.600061 -31.413680 3.931229 47.640720 0.723009 1.488184 0.064233 -0.009553 437590.000000 0 0 1
-36.567561 -32.314180 3.079229 48.896568 0.723727 1.507780 0.046024 -0.002696 -24577.700000 0 0 1
-37.202561 -33.330880 3.836029 50.096838 0.730562 1.494149 0.052926 -0.006611 -1221.230000 0 0 1
36.668189 33.730818 3.024429 49.914640 0.743698 1.510167 0.044406 0.005542 -456705.000000 0 0 1
35.413089 33.394618 3.858229 48.827997 0.756072 1.491697 0.047499 -0.005251 -725503.000000 0 0 1
34.750589 -33.409280 4.653629 48.429740 -0.765722 1.474558 0.032206 -0.011290 204360.000000 0 0 1
34.199589 -32.325580 3.886029 47.219236 -0.757236 1.488406 0.025650 -0.007387 527666.000000 0 0 1
32.972789 -32.570680 2.898029 46.437620 -0.779263 1.508349 0.047700 -0.005832 84279.700000 0 0 1
33.323289 -33.333580 1.734629 47.165433 -0.785553 1.534010 0.055378 -0.005192 69094.100000 0 0 1
32.534589 -32.933580 0.587429 46.297573 -0.791493 1.558108 0.059085 -0.003366 -697682.000000 0 0 1
33.040689 -33.539780 -0.758771 47.086938 -0.792894 1.586911 0.073480 -0.007548 -26731.000000 0 0 1
34.211089 -33.091080 -1.357571 47.615766 -0.768758 1.599311 0.046821 0.005960 -696255.000000 0 0 1
35.383889 -33.134780 -0.576171 48.479534 -0.752585 1.582681 0.035067 0.009873 -1307010.000000 0 0 1
36.646089 -33.011780 -1.407971 49.342637 -0.733272 1.599335 0.038090 0.008242 -770512.000000 0 0 1
36.999989 33.607418 -2.099571 50.028651 0.737387 1.612776 0.034006 -0.001851 235569.000000 0 0 1
-36.837761 -33.730080 -3.056471 50.040793 0.741388 1.631914 0.034649 -0.003298 -199227.000000 0 0 1
-36.185661 32.909118 -3.909171 49.068255 -0.738013 1.650549 0.038156 -0.005214 -465304.000000 0 0 1
-35.155561 32.210618 -3.306871 47.795112 -0.741711 1.640040 0.033006 -0.005522 -532593.000000 0 0 1
-34.655861 31.223918 -4.193171 46.835290 -0.733351 1.660447 0.036997 -0.010474 -34204.400000 0 0 1
-33.388761 30.509618 -3.667271 45.377252 -0.740370 1.651702 0.041477 -0.019393 321888.000000 0 0 1
-32.268161 31.410218 -3.635371 45.178002 -0.771926 1.651351 0.033731 -0.018459 248652.000000 0 0 1
-31.026761 30.932018 -3.177171 43.926575 -0.783869 1.643189 0.076084 -0.025645 461923.000000 0 0 1
-30.721261 30.924118 -1.679271 43.622435 -0.788689 1.609301 0.061952 -0.011232 -328038.000000 0 0 1
-31.584561 30.097418 -0.954771 43.638866 -0.761293 1.592677 0.028853 -0.004500 -462806.000000 0 0 1
-31.172961 29.899818 0.355729 43.195823 -0.764555 1.562561 0.033649 -0.002598 -377927.000000 0 0 1
-32.123161 29.005918 1.163029 43.296574 -0.734448 1.543931 0.041641 -0.011291 -164714.000000 0 0 1
-32.369161 27.692518 0.624429 42.603146 -0.707691 1.556139 0.040419 -0.024754 -120346.000000 0 0 1
-33.365561 27.683418 -0.361971 43.356237 -0.692590 1.579145 0.051407 -0.020614 -602367.000000 0 0 1
-33.570661 26.226418 -0.854071 42.609197 -0.663191 1.590842 0.072314 -0.017560 125866.000000 0 0 1
-34.233461 25.415618 0.157829 42.636937 -0.638632 1.567095 0.088085 -0.024559 332044.000000 0 0 1
-34.699161 24.206618 -0.437271 42.310558 -0.609123 1.581131 0.100267 -0.017987 -625693.000000 0 0 1
-34.690861 22.972318 0.494429 41.610427 -0.584905 1.558914 0.109498 -0.027967 -160859.000000 0 0 1
-33.387061 22.551818 0.809729 40.298089 -0.594070 1.550701 0.111506 -0.038183 -196279.000000 0 0 1
-32.921361 23.136118 1.975829 40.286472 -0.612582 1.521732 0.102912 -0.046396 66697.800000 0 0 1
-31.390561 22.889518 2.262329 38.915491 -0.630046 1.512629 0.086577 -0.056359 933572.000000 0 0 1
-30.481261 23.629318 1.497729 38.596569 -0.659440 1.531982 0.080027 -0.046671 -131968.000000 0 0 1
-30.252261 24.943818 1.935229 39.257336 -0.689519 1.521480 0.047187 -0.039881 -525985.000000 0 0 1
-29.658261 25.971118 0.994329 39.434757 -0.719214 1.545579 0.028105 -0.027707 2395810.000000 0 0 1
-28.261061 25.664318 0.561829 38.179319 -0.737281 1.556080 0.032244 -0.026844 1939300.000000 0 0 1
-27.775161 26.738818 -0.241171 38.554923 -0.766390 1.577052 0.040594 -0.019920 217060.000000 0 0 1
-26.589061 26.278318 -1.112171 37.400068 -0.779520 1.600538 0.042661 -0.020894 -763139.000000 0 0 1
-27.028661 25.400318 -2.117071 37.151132 -0.754350 1.627813 0.057941 -0.033102 -372316.000000 0 0 1
-26.078161 24.815718 -2.995771 36.122915 -0.760598 1.653824 0.062322 -0.015754 -22450.400000 0 0 1
-25.195261 23.741018 -2.311871 34.695559 -0.755690 1.637479 0.055522 -0.025979 -199844.000000 0 0 1
-25.816261 22.580918 -1.858171 34.348653 -0.718648 1.624920 0.048813 -0.025380 -331845.000000 0 0 1
-24.888261 21.639118 -1.315471 33.006172 -0.715678 1.610662 0.061000 -0.047822 -243824.000000 0 0 1
-25.545561 20.312318 -0.783671 32.646287 -0.671771 1.594804 0.104834 -0.054564 -300978.000000 0 0 1
-26.343661 20.400418 0.408129 33.321646 -0.658932 1.558548 0.083139 -0.055093 809871.000000 0 0 1
-27.668361 20.918318 0.342629 34.687629 -0.647354 1.560919 0.072700 -0.052602 651847.000000 0 0 1
-28.652361 20.314618 -0.703071 35.130269 -0.616743 1.590811 0.092777 -0.057408 -984969.000000 0 0 1
-28.936161 18.957818 -0.525271 34.597343 -0.579994 1.585979 0.122228 -0.060891 222702.000000 0 0 1
-29.709961 18.492018 -1.631671 35.032825 -0.556741 1.617389 0.146151 -0.051932 -148472.000000 0 0 1
-29.935061 16.962418 -1.509671 34.439956 -0.515529 1.614645 0.160615 -0.047301 87777.000000 0 0 1
-30.940461 16.574218 -0.583171 35.104941 -0.491783 1.587409 0.166078 -0.052539 278870.000000 0 0 1
-30.962261 15.140118 -0.323371 34.467221 -0.454798 1.580178 0.166733 -0.056829 -51595.000000 0 0 1
-29.786461 14.460418 0.419329 33.113634 -0.451956 1.558133 0.198518 -0.054157 -595750.000000 0 0 1
-29.626261 14.748718 1.776629 33.142064 -0.461907 1.517164 0.210624 -0.054557 1104920.000000 0 0 1
-28.283661 14.554618 2.295129 31.891535 -0.475255 1.498767 0.233559 -0.056198 1329280.000000 0 0 1
-27.759761 13.052918 2.291029 30.760881 -0.439533 1.496249 0.237741 -0.055792 -472093.000000 0 0 1
-27.363561 12.589518 1.059829 30.139404 -0.431207 1.535625 0.217879 -0.061525 245731.000000 0 0 1
-26.676961 11.342318 1.093229 29.008681 -0.402017 1.533101 0.222559 -0.041962 151842.000000 0 0 1
-26.596561 10.797118 -0.318271 28.706377 -0.385633 1.581884 0.207668 -0.032556 280193.000000 0 0 1
-27.819261 10.150718 -0.657871 29.620620 -0.349870 1.593008 0.213141 -0.034653 646485.000000 0 0 1
-27.764061 9.774318 -2.022571 29.503748 -0.338499 1.639403 0.213627 -0.036728 137541.000000 0 0 1
-28.944361 8.879018 -2.487471 30.377631 -0.297648 1.652773 0.209745 -0.046535 144370.000000 0 0 1
-28.821161 8.521118 -3.831371 30.297659 -0.287466 1.697593 0.195994 -0.041028 -610880.000000 0 0 1
-30.006561 8.154918 -4.438171 31.410090 -0.265362 1.712568 0.179227 -0.039005 -678619.000000 0 0 1
-11.523311 18.290818 -19.704971 29.251095 -1.008606 2.309931 0.122843 -0.027725 340936.000000 0 0 1
-11.809611 17.510618 -20.881971 29.700931 -0.977441 2.350508 0.119857 -0.032302 25415.800000 0 0 1
-10.594011 17.024018 -21.410371 29.333500 -1.014142 2.388964 0.102919 -0.042736 -175743.000000 0 0 1
-10.915411 16.020418 -22.480871 29.684836 -0.972701 2.429993 0.097817 -0.032523 -250104.000000 0 0 1
-10.073711 14.908418 -22.396971 28.729164 -0.976562 2.464807 0.120326 -0.035283 -187172.000000 0 0 1
-10.397911 13.850118 -23.289371 29.023044 -0.926818 2.502176 0.110375 -0.035938 -163959.000000 0 0 1
-9.578911 12.580918 -23.019371 27.927163 -0.920049 2.539698 0.085635 -0.027151 -285965.000000 0 0 1
-8.193211 12.657318 -23.271671 27.729173 -0.996314 2.566696 0.072305 -0.022118 -190466.000000 0 0 1
-7.656911 11.524518 -22.550871 26.457221 -0.984363 2.591263 0.053876 -0.012747 -277729.000000 0 0 1
-6.143311 11.583318 -22.363471 25.923702 -1.083158 2.611312 0.042126 -0.007663 -250227.000000 0 0 1
-5.414711 11.453118 -23.557071 26.747496 -1.129168 2.648178 0.025685 -0.010323 99893.200000 0 0 1
-4.003611 11.416018 -23.352571 26.300131 -1.233497 2.663613 0.036859 -0.007247 905885.000000 0 0 1
-3.139011 11.196618 -24.631771 27.238608 -1.297460 2.700525 0.057655 -0.022057 123911.000000 0 0 1
-3.245411 9.900218 -25.153461 27.225789 -1.254023 2.748904 0.049472 -0.015053 46912.800000 0 0 1
-2.559311 9.741918 -26.394031 28.250662 -1.313890 2.777031 0.053257 -0.014641 -365480.000000 0 0 1
-2.528711 8.274318 -26.926951 28.282846 -1.274201 2.830695 0.068711 -0.003682 -396578.000000 0 0 1
-1.592611 7.351618 -26.470081 27.518137 -1.357459 2.864716 0.069584 -0.008525 -421907.000000 0 0 1
-1.744611 6.948818 -25.109501 26.111621 -1.324815 2.863649 0.083072 -0.023385 -388718.000000 0 0 1
-0.774011 5.883918 -24.597271 25.303069 -1.440000 2.904846 0.006932 -0.008734 -432942.000000 0 0 1
0.483989 6.448218 -24.309371 25.154706 1.495879 2.881610 0.045986 0.003099 92822.600000 0 0 1
1.357089 5.610518 -23.542671 24.239986 1.333472 2.901151 0.042384 0.009735 320543.000000 0 1 0
1.518189 6.171318 -22.105571 23.001007 1.329579 2.861644 0.044556 0.001040 -391809.000000 0 1 0
2.164889 7.374218 -22.046171 23.347365 1.285244 2.806160 0.041763 -0.011493 -219947.000000 0 1 0
2.308189 7.939018 -20.746871 22.333571 1.287857 2.762375 0.061616 -0.014684 169900.000000 0 1 0
3.001789 9.330118 -20.763271 22.960297 1.259524 2.700561 0.061574 -0.022949 -165431.000000 0 1 0
3.075789 9.993118 -19.531471 22.154034 1.272207 2.650083 0.066065 -0.025452 -30919.700000 0 1 0
3.542889 11.316718 -19.637371 22.940063 1.267395 2.598335 0.067946 -0.023393 -138161.000000 0 1 0
4.742189 11.584618 -18.707671 22.509302 1.182254 2.551894 0.064690 -0.022675 -200620.000000 0 1 0
5.848289 10.829418 -19.085671 22.709945 1.075634 2.568836 0.073562 -0.025228 -917102.000000 0 1 0
6.809489 10.681218 -18.071771 22.069129 1.003245 2.530238 0.071268 -0.019510 515750.000000 0 1 0
7.934689 9.664418 -18.497271 22.327321 0.883369 2.547147 0.114217 -0.032155 340095.000000 0 1 0
7.468789 8.356018 -18.674471 21.779387 0.841405 2.601066 0.102217 -0.031950 130874.000000 0 1 0
7.085989 8.069918 -19.993671 22.695411 0.850228 2.648676 0.093976 -0.023360 146955.000000 0 1 0
6.563089 6.681118 -20.281771 22.339689 0.794310 2.708997 0.098917 -0.024441 -106939.000000 0 1 0
7.674489 5.834218 -20.121271 22.311464 0.650003 2.694795 0.096181 -0.029561 219903.000000 0 1 0
7.449589 4.474318 -20.418371 22.190668 0.540870 2.739217 0.083455 -0.023853 -298229.000000 0 1 0
7.525989 4.089218 -21.908971 23.523716 0.497720 2.768918 0.099564 -0.034775 -619640.000000 0 1 0
6.613689 4.741418 -22.734371 24.146916 0.621985 2.797856 0.107496 -0.031985 -342298.000000 0 1 0
6.897189 4.551918 -24.085371 25.463626 0.583350 2.811072 0.106452 -0.031520 366244.000000 0 0 1
5.910989 5.270918 -25.142631 26.360467 0.728219 2.836438 0.090666 -0.023363 587311.000000 0 0 1
5.989189 6.658418 -25.233151 26.775302 0.838262 2.800543 0.084216 -0.033103 151782.000000 0 0 1
5.384089 7.319718 -24.142671 25.796031 0.936601 2.781620 0.102966 -0.035529 -707387.000000 0 0 1
5.138789 8.827318 -24.418071 26.468299 1.043608 2.745408 0.108053 -0.037807 -402676.000000 0 0 1
3.994489 9.021018 -25.174941 27.039089 1.153948 2.768096 0.107894 -0.032362 -458889.000000 0 0 1
2.811589 9.225718 -24.417971 26.253689 1.274982 2.765421 0.096677 -0.027596 524159.000000 0 0 1
1.607689 9.609118 -25.371711 27.177997 1.405023 2.774957 0.092815 -0.014126 472157.000000 0 0 1
1.573589 11.028818 -25.659041 27.973154 1.429073 2.731977 0.106406 -0.030690 118710.000000 0 0 1
0.535889 11.376518 -26.555421 28.894683 1.523726 2.736439 0.116825 -0.029598 -216560.000000 0 0 1
0.237989 12.909218 -26.775151 29.725632 1.552363 2.692273 0.105052 -0.032288 -35674.300000 0 0 1
-0.192511 13.528818 -25.613961 28.967930 -1.556568 2.655613 0.097944 -0.034104 90567.500000 0 0 1
-0.702411 14.829018 -25.933771 29.882329 -1.523464 2.621681 0.100514 -0.042198 41852.800000 0 0 1
-1.142111 15.597718 -24.655971 29.197776 -1.497704 2.576328 0.112335 -0.040303 -320481.000000 0 0 1
-2.264711 14.975018 -24.113271 28.475075 -1.420701 2.580775 0.107695 -0.037655 -744998.000000 0 0 1
-2.526511 15.522618 -22.820971 27.715187 -1.409448 2.538191 0.106137 -0.042415 -856355.000000 0 0 1
-3.870911 15.165018 -22.160571 27.130289 -1.320880 2.526674 0.091433 -0.033829 -196190.000000 0 0 1
-5.051311 15.602118 -22.762671 28.054964 -1.257688 2.517271 0.085676 -0.038092 -515336.000000 0 0 1
-5.381511 15.121518 -24.023271 28.891841 -1.228889 2.552580 0.084611 -0.037150 -698643.000000 0 0 1
-6.866711 15.342718 -24.405071 29.633734 -1.149977 2.538450 0.054980 -0.037405 68412.100000 0 0 1
-7.345311 16.660018 -24.522971 30.543180 -1.155540 2.502932 0.066810 -0.039114 -430017.000000 0 0 1
-8.598011 16.494018 -25.145851 31.277663 -1.090270 2.504713 0.080746 -0.035390 -566550.000000 0 0 1
-9.362111 17.789018 -25.413751 32.403040 -1.086342 2.472366 0.097143 -0.036717 -253931.000000 0 0 1
-9.951911 18.331618 -24.258471 31.993157 -1.073434 2.431405 0.099524 -0.042083 -825354.000000 0 0 1
-11.012011 19.161418 -24.510071 33.002543 -1.049190 2.407848 0.098028 -0.037258 -395900.000000 0 0 1
-11.291911 20.214818 -23.424771 32.937304 -1.061378 2.361990 0.077139 -0.034362 202731.000000 0 0 1
-10.457511 21.358518 -23.614871 33.514294 -1.115489 2.352685 0.094097 -0.033068 64052.100000 0 0 1
-11.142611 22.551818 -23.797771 34.627679 -1.111888 2.328489 0.078343 -0.037180 -274668.000000 0 0 1
-11.057711 23.060918 -25.263191 35.948681 -1.123683 2.350062 0.081145 -0.031035 -192334.000000 0 0 1
-11.588511 22.222818 -26.244971 36.289746 -1.090121 2.379230 0.088211 -0.033291 16258.300000 0 0 1
-11.462011 22.833818 -27.524541 37.554777 -1.105570 2.393396 0.093051 -0.025348 252634.000000 0 0 1
-12.115511 21.915518 -28.635241 38.040143 -1.065785 2.423047 0.096306 -0.025331 402534.000000 0 0 1
-11.276211 20.846818 -29.074691 37.511070 -1.074960 2.457664 0.088477 -0.028615 179739.000000 0 0 1
-11.090911 19.765318 -28.224241 36.197843 -1.059448 2.465017 0.091781 -0.029300 78858.100000 0 0 1
-10.136511 18.740418 -28.909741 35.912744 -1.074974 2.506471 0.081260 -0.033758 -459285.000000 0 0 1
-8.826711 19.254518 -29.095561 35.988872 -1.140960 2.512327 0.081039 -0.034825 25003.600000 0 0 1
-7.991611 18.327618 -29.790061 35.877780 -1.159610 2.550479 0.074348 -0.030353 397122.000000 0 0 1
-7.608311 16.973318 -29.135241 34.566489 -1.149398 2.573401 0.089118 -0.035321 -190901.000000 0 0 1
-8.704311 16.045118 -29.169291 34.410149 -1.073737 2.582420 0.061945 -0.037290 840207.000000 0 0 1
-8.314711 14.898818 -28.384941 33.118183 -1.061772 2.600372 0.050559 -0.032460 -703009.000000 0 0 1
-9.481811 14.000318 -28.085421 32.782686 -0.975498 2.599663 0.051618 -0.020866 -1076860.000000 0 0 1
-10.310011 14.568118 -27.105961 32.453959 -0.954914 2.559316 0.077492 -0.028617 -1142970.000000 0 0 1
-11.536411 13.957718 -27.313611 32.771023 -0.880089 2.556151 0.124298 -0.030537 -558184.000000 0 0 1
-12.646111 14.434518 -26.325131 32.577476 -0.851342 2.511678 0.118909 -0.027876 195710.000000 0 0 1
-12.995711 15.806018 -26.445311 33.437601 -0.882665 2.483051 0.109305 -0.026156 -780876.000000 0 0 1
-13.818711 16.039318 -25.368871 33.042338 -0.859634 2.446148 0.102895 -0.028925 20354.900000 0 0 1
-14.998611 16.996518 -25.659591 34.238203 -0.847761 2.418017 0.082803 -0.023668 207406.000000 0 0 1
-14.516311 18.303918 -25.856311 34.846886 -0.900295 2.406842 0.087323 -0.022602 -437300.000000 0 0 1
-15.528711 19.171218 -26.236381 36.014221 -0.889987 2.386927 0.088253 -0.025281 -372722.000000 0 0 1
-15.061111 20.629718 -26.446711 36.767524 -0.940174 2.373584 0.089565 -0.029166 179499.000000 0 0 1
-16.142211 21.539718 -26.600281 37.843168 -0.927669 2.350275 0.067355 -0.022508 326389.000000 0 0 1
-15.747811 22.933118 -26.813181 38.637651 -0.969063 2.337778 0.077379 -0.026887 163016.000000 0 0 1
-15.085611 23.620118 -25.575321 37.941832 -1.002423 2.310497 0.054146 -0.020370 162621.000000 0 0 1
-14.646611 24.878318 -25.984351 38.841220 -1.038705 2.303644 0.068931 -0.029264 -85333.300000 0 0 1
-13.947211 25.562418 -24.966371 38.357288 -1.071327 2.279552 0.058113 -0.029026 -180316.000000 0 0 1
-13.751711 27.045818 -25.365081 39.547100 -1.100404 2.267104 0.080964 -0.041317 255032.000000 0 0 1
-14.930811 27.831418 -25.550931 40.624709 -1.078398 2.250999 0.088166 -0.035717 246907.000000 0 0 1
-15.497111 28.374318 -24.385071 40.495605 -1.070901 2.217008 0.083754 -0.038721 -396504.000000 0 0 1
-16.850611 29.053718 -24.544871 41.599426 -1.045227 2.201891 0.072640 -0.035608 378441.000000 0 0 1
-17.985711 28.183818 -24.656771 41.542384 -1.002791 2.206238 0.057220 -0.031112 -385373.000000 0 0 1
-19.152711 28.882418 -24.947171 42.701074 -0.985248 2.194725 0.051398 -0.024417 242477.000000 0 0 1
-20.369011 27.880918 -25.059721 42.664174 -0.939846 2.198604 0.058772 -0.008419 593371.000000 0 0 1
-20.861111 27.323218 -23.836071 41.831835 -0.918715 2.177067 0.055490 -0.010025 47856.800000 0 0 1
-21.940811 26.428018 -24.068371 41.941933 -0.877904 2.181995 0.055934 -0.009885 -161465.000000 0 0 1
-22.549411 26.033818 -22.730871 41.266549 -0.856996 2.154155 0.056948 -0.012102 -705840.000000 0 0 1
-23.337311 27.130318 -22.356371 42.195871 -0.860414 2.129189 0.071121 -0.012858 -520190.000000 0 0 1
-23.450511 27.170218 -20.961071 41.563369 -0.858748 2.099386 0.069013 -0.010517 -736317.000000 0 0 1
-24.420311 28.206818 -20.473971 42.557721 -0.857224 2.072691 0.050958 -0.009436 -637388.000000 0 0 1
-25.739211 27.795818 -20.727171 43.182520 -0.823795 2.071439 0.088686 -0.017324 -788122.000000 0 0 1
-26.664791 28.786718 -20.403371 44.226505 -0.823646 2.050299 0.089085 -0.020721 -270909.000000 0 0 1
-28.095911 28.223218 -20.439371 44.762686 -0.787659 2.044984 0.090131 -0.022836 -317138.000000 0 0 1
-28.407141 27.542418 -21.641771 45.098965 -0.769944 2.071306 0.087839 -0.028837 581923.000000 0 0 1
-29.801021 27.204718 -21.753071 45.840960 -0.739885 2.065230 0.095078 -0.027709 1032150.000000 0 0 1
-30.326181 26.858418 -23.197971 46.681877 -0.724831 2.090862 0.084444 -0.028430 156080.000000 0 0 1
-29.819531 25.648818 -23.627871 45.884012 -0.710349 2.111743 0.089477 -0.022306 -107361.000000 0 0 1
-30.207331 25.496718 -24.991071 46.766645 -0.701034 2.134568 0.089680 -0.016319 115649.000000 0 0 1
-30.345981 24.038418 -25.449811 46.329439 -0.669933 2.152350 0.070313 -0.019996 62871.000000 0 0 1
-29.140271 23.308318 -25.541471 45.219462 -0.674659 2.171028 0.077943 -0.026717 6901.320000 0 0 1
-29.422881 22.054118 -26.138931 45.114673 -0.643217 2.188775 0.069591 -0.022876 7804.670000 0 0 1
-28.207281 21.110318 -26.181231 43.894795 -0.642476 2.209872 0.074186 -0.025717 -14308.200000 0 0 1
-28.071151 20.563918 -24.899371 42.788350 -0.632248 2.191883 0.077619 -0.024085 102359.000000 0 0 1
-27.415241 19.298018 -24.899571 41.761196 -0.613349 2.209602 0.069799 -0.025415 80492.800000 0 0 1
-28.406801 18.085418 -24.924971 41.896095 -0.566939 2.207967 0.070754 -0.020521 214507.000000 0 0 1
-29.148951 17.870918 -26.095861 43.011917 -0.549989 2.222715 0.068294 -0.026473 -95969.500000 0 0 1
-29.712001 16.605518 -25.997271 42.829946 -0.509637 2.223062 0.047858 -0.011269 -60744.500000 0 0 1
-30.587711 16.194518 -27.219361 44.031398 -0.486925 2.237222 0.039475 -0.007272 226741.000000 0 0 1
-31.841031 16.818618 -27.356731 45.222869 -0.485957 2.220476 0.035546 -0.008942 -4122.740000 0 0 1
-32.569431 16.285918 -28.464791 46.219511 -0.463677 2.234275 0.035061 -0.001047 275218.000000 0 0 1
-33.929491 16.937318 -28.773531 47.602512 -0.463001 2.219877 0.036254 -0.001129 419647.000000 0 0 1
-34.992135 16.532218 -27.906261 47.712924 -0.441370 2.195527 0.027152 0.000627 992665.000000 0 0 1
-36.281301 16.645118 -28.529661 49.064593 -0.430131 2.191333 0.038330 -0.008276 889881.000000 0 0 1
37.319039 16.148418 -27.708921 49.206365 0.408385 2.168949 0.056745 -0.008480 38519.400000 0 0 1
36.986639 17.126218 -26.730191 48.742404 0.433643 2.151242 0.048782 -0.010960 42146.800000 0 0 1
35.857079 16.736718 -25.973061 47.333368 0.436705 2.151636 0.056182 -0.015872 90194.000000 0 0 1
35.293399 17.883918 -25.129601 46.871691 0.469010 2.136649 0.058128 -0.008129 -197209.000000 0 0 1
34.757639 18.894718 -25.919301 47.296025 0.497927 2.150795 0.054716 -0.024078 13448.200000 0 0 1
34.045859 19.730318 -25.006171 46.623112 0.525226 2.136899 0.061402 -0.015262 -345123.000000 0 0 1
33.584599 21.064618 -25.518601 47.147030 0.560187 2.142726 0.079100 -0.016504 -225571.000000 0 0 1
32.337839 21.040118 -26.176151 46.622026 0.576821 2.166939 0.085571 -0.028228 -157322.000000 0 0 1
31.373049 21.746718 -25.388671 45.845093 0.606124 2.157708 0.080466 -0.015914 -840845.000000 0 0 1
29.996539 21.674618 -25.994371 45.224868 0.625714 2.183132 0.051704 -0.025696 -685403.000000 0 0 1
29.493239 20.312118 -25.887911 44.188428 0.603105 2.196728 0.073907 -0.043468 466241.000000 0 0 1
28.272439 20.185218 -26.636591 43.775356 0.620030 2.224945 0.094371 -0.046246 174178.000000 0 0 1
27.846539 18.721018 -26.724231 42.896279 0.591887 2.243364 0.113442 -0.033071 -382754.000000 0 0 1
28.445139 17.879518 -27.667681 43.523599 0.561156 2.259703 0.103075 -0.042493 254385.000000 0 0 1
29.796469 17.572618 -27.356391 44.102138 0.532852 2.239917 0.094648 -0.036894 45.569000 0 0 1
30.502369 16.545918 -28.283171 44.767172 0.497026 2.254649 0.079762 -0.034307 10462.900000 0 0 1
29.824069 15.317418 -28.566861 44.047292 0.474462 2.276474 0.091045 -0.045427 598068.000000 0 0 1
29.237539 14.551518 -27.473511 42.677560 0.461806 2.270180 0.104230 -0.038230 186010.000000 0 0 1
30.312499 13.838718 -26.628141 42.654608 0.428275 2.244998 0.081930 -0.024310 51729.000000 0 0 1
30.956609 14.641218 -25.682311 42.804883 0.441782 2.214279 0.072064 -0.033878 -249605.000000 0 0 1
31.870119 13.944518 -24.880671 42.769169 0.412446 2.191666 0.048491 -0.019855 -169678.000000 0 0 1
-15.609011 -30.959780 -23.712471 42.005124 1.103818 2.170640 0.135409 -0.019738 499710.000000 0 0 1
-14.732611 -29.968880 -24.322671 41.313144 1.113894 2.200295 0.139186 -0.028627 680915.000000 0 0 1
-15.174311 -29.638580 -25.593821 41.997009 1.097612 2.226125 0.109911 -0.021335 -7912.040000 0 0 1
-14.281511 -28.510380 -26.167851 41.249966 1.106410 2.257993 0.115276 -0.027431 -84347.600000 0 0 1
-14.463311 -27.268080 -25.544941 40.065940 1.083116 2.262139 0.117437 -0.026577 -89176.600000 0 0 1
-13.824911 -26.227680 -26.293501 39.627863 1.085696 2.296297 0.111550 -0.023178 -35138.700000 0 0 1
-14.196811 -24.761980 -25.787471 38.466852 1.050217 2.305519 0.081803 -0.026003 -157460.000000 0 0 1
-13.718911 -24.472280 -24.467271 37.225641 1.059859 2.287986 0.101829 -0.037775 -67650.500000 0 0 1
-14.229911 -23.292680 -23.888271 36.272424 1.022388 2.289726 0.079286 -0.033287 -234052.000000 0 0 1
-13.671811 -22.927380 -22.510371 34.918476 1.033095 2.271368 0.077929 -0.030015 368347.000000 0 0 1
-12.273711 -22.647880 -22.522671 34.217556 1.074165 2.289248 0.102400 -0.038038 205299.000000 0 0 1
-11.835011 -21.860180 -21.396471 32.798535 1.074583 2.281491 0.080386 -0.032068 1538100.000000 0 0 1
-10.308611 -21.430280 -21.463671 32.034567 1.122439 2.305027 0.089276 -0.034613 1339450.000000 0 0 1
-9.817011 -20.808280 -22.649371 32.285480 1.129975 2.348345 0.105175 -0.038908 -300241.000000 0 0 1
-8.457011 -20.467980 -22.567871 31.619108 1.178978 2.365622 0.139799 -0.041786 -34648.300000 0 0 1
-8.017211 -19.418280 -23.650571 31.633760 1.179245 2.415293 0.154422 -0.035864 -25224.500000 0 0 1
-8.609911 -18.173280 -23.321071 30.794009 1.128354 2.430003 0.104614 -0.032393 -283447.000000 0 0 1
-8.721311 -17.162580 -24.325471 31.021669 1.100643 2.472113 0.102295 -0.031108 146488.000000 0 0 1
-7.473211 -16.423380 -24.915171 30.762672 1.143763 2.514805 0.118248 -0.030728 357781.000000 0 0 1
-6.865111 -17.192980 -25.933681 31.863523 1.190896 2.521628 0.121384 -0.042048 88485.300000 0 0 1
-5.703111 -16.534380 -26.429131 31.692430 1.238650 2.556980 0.108064 -0.039145 410965.000000 0 0 1
-5.218211 -17.085380 -27.801171 33.046104 1.274375 2.570451 0.117398 -0.037753 206995.000000 0 0 1
-6.154911 -16.749480 -28.845031 33.918487 1.218645 2.587583 0.133336 -0.041659 468752.000000 0 0 1
-5.930211 -17.558080 -29.987051 35.251621 1.245078 2.588031 0.124787 -0.042513 31909.300000 0 0 1
-7.172811 -17.525080 -30.941671 36.276227 1.182309 2.592400 0.115865 -0.038548 505680.000000 0 0 1
-7.292611 -16.439680 -31.896391 36.617277 1.153279 2.628183 0.086086 -0.036600 -139936.000000 0 0 1
-7.458611 -15.143280 -31.278961 35.543258 1.113138 2.646711 0.068351 -0.032357 -321676.000000 0 0 1
-7.956711 -14.048480 -32.188201 36.010405 1.055468 2.676675 0.047730 -0.029861 79879.900000 0 0 1
-7.063911 -13.778980 -33.282081 36.707710 1.097073 2.706138 0.086472 -0.039010 284004.000000 0 0 1
-7.642211 -12.938780 33.501628 36.717496 1.037285 0.421647 0.086256 -0.034843 -180620.000000 0 0 1
-7.829011 -11.446680 -33.858421 36.588421 0.970920 2.752850 0.052053 -0.024904 836470.000000 0 0 1
-6.645211 -10.615680 -33.763131 36.011116 1.011492 2.786388 0.052614 -0.023872 402359.000000 0 0 1
-6.213211 -10.246980 32.748589 34.872262 1.025724 0.350790 0.045186 -0.027474 922297.000000 0 0 1
-4.910811 -9.320880 32.841657 34.490133 1.085891 0.310423 0.046720 -0.028559 1019920.000000 0 0 1
-4.810711 -8.558580 31.634803 33.123300 1.058717 0.300928 0.032751 -0.021390 -32828.800000 0 0 1
-3.861911 -7.515980 31.777384 32.881704 1.096149 0.259901 0.033490 -0.029891 -754817.000000 0 0 1
-3.914611 -6.509080 30.609423 31.537740 1.029342 0.243231 0.027734 -0.023534 -385750.000000 0 0 1
-4.945911 -5.581480 30.574903 31.471251 0.845698 0.239239 0.026536 -0.014206 -682006.000000 0 0 1
-6.226511 -6.099580 30.315093 31.543290 0.775101 0.279972 0.022638 -0.014711 -1082300.000000 0 0 1
-7.278711 -5.025080 30.099743 31.372370 0.604241 0.285806 0.018605 -0.011459 -282488.000000 0 0 1
-8.473211 -5.667980 29.696873 31.397859 0.589567 0.330671 0.040722 -0.012944 -626532.000000 0 0 1
-9.582711 -4.820880 29.635953 31.517597 0.466109 0.347290 0.044517 -0.019330 -458492.000000 0 0 1
-10.713911 -5.434180 28.807953 31.212439 0.469397 0.395085 0.057423 -0.025763 -517150.000000 0 0 1
-10.598111 -5.365480 27.438453 29.899449 0.468649 0.408567 0.038309 -0.014763 180196.000000 0 0 1
-11.505211 -6.197480 26.747743 29.769454 0.494101 0.454464 0.049794 -0.025018 -154703.000000 0 0 1
-11.295311 -6.197580 25.228043 28.327517 0.501834 0.472168 0.035614 -0.022910 415788.000000 0 0 1
-10.085111 -6.827680 24.794483 27.624139 0.595126 0.456579 0.030732 -0.017174 656123.000000 0 0 1
-9.461911 -6.340080 23.577803 26.184674 0.590350 0.450010 0.027808 -0.014661 128001.000000 0 0 1
-10.202911 -6.555180 22.211673 25.306683 0.571072 0.499755 0.033944 -0.023201 280798.000000 0 0 1
-11.411911 -5.812880 22.070473 25.517191 0.471115 0.525794 0.019604 -0.020676 119558.000000 0 0 1
-12.050511 -5.990080 20.840173 24.807432 0.461310 0.573370 0.023560 -0.026962 480275.000000 0 1 0
-13.279411 -5.007380 20.677773 25.079611 0.360592 0.601504 0.035024 -0.026667 550781.000000 0 0 1
-12.903211 -3.635480 20.373573 24.388359 0.274631 0.581971 0.014376 -0.020898 -206728.000000 0 1 0
-13.990111 -2.812380 20.692873 25.136183 0.198382 0.603718 0.040788 -0.014053 -18382.200000 0 0 1
-13.823211 -1.343780 20.320873 24.613508 0.096907 0.599534 0.030375 -0.005074 -96684.300000 0 1 0
-12.856611 -0.700780 21.125573 24.740117 0.054453 0.547364 0.024622 -0.003268 -114644.000000 0 1 0
-12.970011 0.684220 20.978273 24.673412 -0.052705 0.554359 0.045172 -0.013571 -365468.000000 0 1 0
-12.454911 1.390220 19.712873 23.359257 -0.111160 0.566285 0.042821 -0.013775 -18321.500000 0 1 0
-13.099811 1.068220 18.474673 22.672884 -0.081365 0.618351 0.056712 -0.016480 337182.000000 0 1 0
-14.422311 1.587220 18.371273 23.409955 -0.109612 0.668482 0.078685 -0.020152 129661.000000 0 1 0
-15.308811 0.851220 17.369773 23.168800 -0.055546 0.723180 0.077560 -0.020304 -173060.000000 0 1 0
-15.621811 -0.407780 17.876473 23.743958 0.026097 0.718361 0.074133 -0.021222 382523.000000 0 1 0
-16.683911 -1.039780 17.171373 23.964350 0.062242 0.771970 0.092831 -0.017563 139316.000000 0 1 0
-16.730211 -2.546780 17.553273 24.382441 0.151067 0.767117 0.082711 -0.017787 -176641.000000 0 1 0
-17.214011 -2.872280 18.866073 25.700211 0.165334 0.746482 0.096196 -0.023955 145049.000000 0 0 1
-17.286111 -4.266480 19.110773 26.119612 0.241979 0.750037 0.115228 -0.019009 -476290.000000 0 0 1
-18.228511 -4.612380 20.243573 27.628878 0.247829 0.748521 0.115082 -0.011661 -524263.000000 0 0 1
-17.800711 -4.149480 21.504673 28.222942 0.229018 0.704466 0.101068 -0.011267 248326.000000 0 0 1
-18.507011 -4.707380 22.661873 29.634935 0.249075 0.700219 0.098214 -0.015675 -280688.000000 0 0 1
-18.414111 -6.261080 22.966233 30.095323 0.327752 0.702675 0.111423 -0.014111 1730430.000000 0 0 1
-17.137011 -6.750880 23.517933 29.872139 0.375268 0.664401 0.062573 -0.030542 1924660.000000 0 0 1
-16.032611 -6.715080 22.598473 28.510137 0.396641 0.655658 0.096536 -0.023887 483120.000000 0 0 1
-14.711511 -7.253380 23.257743 28.459843 0.458065 0.614238 0.105717 -0.027198 277506.000000 0 0 1
-14.700011 -8.576980 23.782133 29.244568 0.528175 0.621140 0.099788 -0.032589 -233615.000000 0 0 1
-14.897211 -8.595680 25.208123 30.516587 0.523335 0.598740 0.091523 -0.027251 926964.000000 0 0 1
-16.262911 -9.313980 25.558183 31.693110 0.520114 0.632711 0.083263 -0.017516 710414.000000 0 0 1
-16.274711 -10.748680 25.498553 32.102594 0.583688 0.652969 0.079982 -0.029796 153698.000000 0 0 1
-15.441111 -11.416380 26.479373 32.709614 0.636650 0.627447 0.064686 -0.024814 383611.000000 0 0 1
-15.514811 -12.958080 26.348373 33.209305 0.695843 0.654416 0.045934 -0.026242 -204753.000000 0 0 1
-16.677711 -13.490280 26.927063 34.426740 0.680133 0.672679 0.065475 -0.026454 -293509.000000 0 0 1
-16.850011 -14.869880 26.822963 34.992964 0.723054 0.697385 0.071063 -0.018460 -102448.000000 0 0 1
-15.836411 -15.733580 27.604683 35.501492 0.782141 0.680014 0.063045 -0.015026 -123920.000000 0 0 1
-14.524311 -15.677980 27.106933 34.518697 0.823578 0.667644 0.074621 -0.023075 -270281.000000 0 0 1
-13.739811 -16.686180 27.719833 35.151104 0.881934 0.662283 0.089682 -0.021428 352801.000000 0 0 1
-12.385511 -16.910380 26.980233 34.165696 0.938641 0.660496 0.078462 -0.034573 147241.000000 0 0 1
-11.560311 -17.860980 27.566943 34.822288 0.996365 0.657297 0.084008 -0.028024 240455.000000 0 0 1
-10.449011 -18.301480 26.777493 34.075800 1.052020 0.666773 0.083277 -0.032156 847534.000000 0 0 1
-9.312311 -18.953680 27.640853 34.784736 1.114117 0.652405 0.091562 -0.029815 379849.000000 0 0 1
-9.608011 -20.205780 28.156403 35.963460 1.126934 0.671456 0.092496 -0.016702 -509310.000000 0 0 1
-8.483411 -20.746980 28.776473 36.475894 1.182642 0.661751 0.104594 -0.016758 -138811.000000 0 0 1
-8.737511 -22.165180 29.321653 37.780929 1.195300 0.682344 0.102103 -0.024303 29477.300000 0 0 1
-8.816811 -23.287080 28.430753 37.793279 1.208861 0.719296 0.117808 -0.033632 -71386.100000 0 0 1
-8.993711 -24.477280 29.203873 39.152142 1.218678 0.728900 0.100379 -0.030103 -124708.000000 0 0 1
-9.384411 -25.763080 28.394763 39.472345 1.221476 0.767918 0.100481 -0.026853 -287141.000000 0 0 1
-10.675511 -25.657180 27.853163 39.345344 1.176503 0.784254 0.084782 -0.026338 -167598.000000 0 0 1
-11.010611 -26.888480 27.197463 39.798566 1.182134 0.818417 0.085211 -0.023129 582055.000000 0 0 1
-12.421111 -26.912780 26.501583 39.760730 1.138394 0.841257 0.087117 -0.027080 381898.000000 0 0 1
-12.580311 -26.153180 25.309713 38.507592 1.122444 0.853612 0.087875 -0.034921 120478.000000 0 0 1
-12.613911 -24.699580 25.359683 37.580494 1.098631 0.830089 0.076290 -0.020107 -257599.000000 0 0 1
-12.768911 -24.106580 23.933493 36.290279 1.083683 0.850641 0.075266 -0.039409 41091.400000 0 0 1
-14.002111 -24.490880 23.361203 36.627969 1.051425 0.879162 0.054933 -0.027996 82437.800000 0 0 1
-14.177911 -23.978380 22.057273 35.531664 1.036814 0.901062 0.066065 -0.030453 -233994.000000 0 0 1
-15.573311 -24.248680 21.473173 35.939166 0.999900 0.930433 0.050554 -0.027732 -289235.000000 0 0 1
-15.820711 -25.628780 21.126473 36.789361 1.017751 0.959103 0.065866 -0.023985 75589.600000 0 0 1
-16.967411 -25.776680 20.310773 36.943981 0.988646 0.988705 0.067749 -0.023979 240586.000000 0 0 1
-17.195911 -27.270580 19.916273 37.895142 1.008204 1.017420 0.071119 -0.027779 -118299.000000 0 0 1
-16.096011 -27.685480 19.156173 37.316569 1.044174 1.031721 0.070369 -0.027461 -87193.200000 0 0 1
-16.163911 -29.087280 18.810273 38.225230 1.063585 1.056307 0.094250 -0.018741 795105.000000 0 0 1
-15.049311 -29.353980 17.713673 37.442117 1.097053 1.077996 0.088897 -0.031578 772822.000000 0 0 1
-15.382711 -28.837480 16.439873 36.585482 1.080766 1.104753 0.084133 -0.033588 98185.900000 0 0 1
-14.316911 -29.099980 15.536273 35.960514 1.113577 1.124046 0.072169 -0.032231 21198.400000 0 0 1
-14.621911 -28.746280 14.072673 35.187910 1.100249 1.159357 0.065212 -0.028469 -236357.000000 0 0 1
-14.817111 -27.335780 13.826673 34.028936 1.074084 1.152372 0.060998 -0.023785 -157742.000000 0 0 1
-15.113711 -26.968580 12.465173 33.333303 1.059989 1.187526 0.065228 -0.018754 415391.000000 0 0 1
-13.896011 -26.832680 11.476673 32.323457 1.092950 1.207821 0.056883 -0.018105 511548.000000 0 0 1
-14.219511 -26.092680 10.311073 31.453786 1.071830 1.236805 0.046066 -0.018459 -413608.000000 0 0 1
-13.323411 -26.245280 9.247773 30.852055 1.101048 1.266370 0.052869 -0.017939 -61644.900000 0 0 1
-13.909911 -25.590880 7.943073 30.190581 1.072919 1.304565 0.063401 -0.027263 440031.000000 0 0 1
-14.985411 -26.318180 7.347273 31.163946 1.053185 1.332794 0.054514 -0.025558 97500.000000 0 0 1
-15.390811 -25.600380 6.256773 30.518907 1.029499 1.364319 0.062029 -0.024386 -303566.000000 0 0 1
-16.317111 -26.360580 5.275773 31.447767 1.016526 1.402236 0.066579 -0.024683 -28780.200000 0 0 1
-15.697711 -27.501380 4.672273 32.008970 1.052126 1.424305 0.073819 -0.023980 529901.000000 0 0 1
-16.415111 -27.856480 3.486073 32.520640 1.038301 1.463394 0.102544 -0.018540 196486.000000 0 0 1
-15.722111 -29.107780 2.918073 33.210883 1.075559 1.482818 0.099909 -0.021640 232431.000000 0 0 1
-14.445911 -28.865780 2.365773 32.365328 1.106788 1.497635 0.066273 -0.011235 -59891.400000 0 0 1
-13.851311 -30.018180 1.829473 33.110375 1.138477 1.515514 0.067057 -0.011805 -545830.000000 0 0 1
-12.497511 -29.852380 1.171873 32.384034 1.174322 1.534602 0.061923 -0.011689 -653172.000000 0 0 1
-12.414911 -29.207780 -0.110127 31.736990 1.168879 1.574266 0.062992 -0.006078 -158594.000000 0 0 1
-12.505711 -27.759880 -0.106127 30.446921 1.147530 1.574282 0.054683 -0.008796 -356590.000000 0 0 1
-12.264011 -27.124780 -1.490427 29.805721 1.146170 1.620822 0.055606 -0.004308 513632.000000 0 0 1
-10.951411 -27.351680 -2.000827 29.530511 1.189952 1.638603 0.053434 -0.003932 -37033.300000 0 0 1
-10.500011 -26.287880 -2.785727 28.444035 1.190787 1.668891 0.063416 -0.003774 1266770.000000 0 0 1
-9.025911 -26.369780 -3.356127 28.073047 1.241013 1.690633 0.053885 -0.002476 1095330.000000 0 0 1
-8.711011 -25.350080 -4.218027 27.134849 1.239809 1.726876 0.051638 -0.010438 754971.000000 0 0 1
-7.334711 -25.553280 -4.641127 26.987185 1.291275 1.743631 0.051759 -0.002218 1395000.000000 0 0 1
-6.889711 -24.468280 -5.672927 26.045094 1.296326 1.790368 0.048149 -0.007390 -107217.000000 0 0 1
-7.463211 -24.433380 -6.919027 26.468141 1.274346 1.835279 0.054602 -0.011438 -255638.000000 0 0 1
-6.836911 -23.341580 -7.579127 25.475790 1.285860 1.872873 0.069418 -0.014949 111766.000000 0 0 1
-6.913911 -23.320880 -9.120327 25.977798 1.282582 1.929522 0.060217 -0.020152 6546.690000 0 0 1
-6.120611 -24.290180 -9.813527 26.903160 1.323956 1.944185 0.046871 -0.025811 -32228.500000 0 0 1
-6.269311 -24.358880 -11.176327 27.523982 1.318891 1.988932 0.036486 -0.016984 334252.000000 0 0 1
-7.592011 -25.026380 -11.686627 28.644992 1.276260 1.991038 0.049465 -0.017258 426507.000000 0 0 1
-7.708211 -24.944180 -13.080427 29.201476 1.271086 2.035253 0.064514 -0.019318 -877871.000000 0 0 1
-8.917711 -25.396280 -13.556827 30.137753 1.233104 2.037370 0.084997 -0.021213 -1510660.000000 0 0 1
-9.029911 -25.369280 -15.079527 30.863114 1.228841 2.081274 0.099900 -0.025174 53178.100000 0 0 1
-8.075611 -26.063580 -15.845527 31.553231 1.270334 2.096919 0.091447 -0.031620 -76408.300000 0 0 1
-6.763511 -25.573280 -15.809327 30.816758 1.312241 2.109485 0.090004 -0.030971 -663408.000000 0 0 1
-5.679511 -26.297280 -16.625527 31.626127 1.358090 2.124322 0.081387 -0.016796 -188661.000000 0 0 1
-5.798011 -26.258080 -18.032827 32.377253 1.353475 2.161517 0.133193 -0.023421 131172.000000 0 0 1
-4.862811 -27.114280 -18.672527 33.279038 1.393338 2.166498 0.115010 -0.025078 256511.000000 0 0 1
-26.139041 14.148518 -4.711571 30.093669 -0.496123 1.728007 0.153881 -0.056803 -123213.000000 0 0 1
-26.073701 12.758318 -4.350071 29.351928 -0.455065 1.719548 0.164192 -0.050923 360589.000000 0 0 1
-24.731311 12.322718 -4.471971 27.990813 -0.462258 1.731250 0.169936 -0.043141 91837.000000 0 0 1
-24.529211 10.789218 -4.209871 27.125862 -0.414383 1.726624 0.183186 -0.047357 -56102.000000 0 0 1
-24.832511 9.927518 -5.284771 27.260557 -0.380316 1.765893 0.161355 -0.040703 1158980.000000 0 0 1
-26.245181 9.657018 -5.461171 28.493717 -0.352579 1.763652 0.171437 -0.050326 888310.000000 0 0 1
-26.503751 9.038118 -6.848371 28.827705 -0.328646 1.810652 0.172589 -0.047754 -79190.600000 0 0 1
-26.423201 10.060218 -7.780671 29.324603 -0.363788 1.839342 0.194350 -0.036661 39811.400000 0 0 1
-26.524231 9.398018 -9.015071 29.548757 -0.340517 1.880831 0.172027 -0.041858 -43294.100000 0 0 1
-26.779021 10.407818 -10.199471 30.487175 -0.370689 1.911924 0.166070 -0.037636 105610.000000 0 0 1
-25.685291 11.230418 -10.520471 29.942223 -0.412185 1.929819 0.156719 -0.044699 141045.000000 0 0 1
-26.064671 11.905118 -11.678371 30.943226 -0.428456 1.957797 0.163798 -0.047241 -57507.700000 0 0 1
-25.138281 13.065618 -12.059971 30.791012 -0.479322 1.973244 0.145895 -0.040162 -282695.000000 0 0 1
-25.125021 14.101618 -11.154371 30.895667 -0.511445 1.940172 0.141337 -0.040904 279778.000000 0 0 1
-24.549611 15.272118 -11.737571 31.204031 -0.556505 1.956440 0.119812 -0.036104 -93218.300000 0 0 1
-24.553811 16.544218 -10.819571 31.522434 -0.592921 1.921154 0.127005 -0.034313 130841.000000 0 0 1
-23.502511 16.631018 -9.854671 30.431452 -0.615827 1.900573 0.104680 -0.025776 475869.000000 0 0 1
-23.579111 17.972318 -9.388271 31.098525 -0.651272 1.877469 0.055402 -0.003707 8724.410000 0 0 1
-22.427911 18.303818 -8.415371 30.147295 -0.684492 1.853697 0.067281 -0.004792 -338208.000000 0 0 1
-22.508711 17.723118 -7.099571 29.515333 -0.667004 1.813717 0.102615 -0.024781 151316.000000 0 0 1
-23.571711 18.171618 -6.290171 30.420379 -0.656748 1.779074 0.117827 -0.035619 -132633.000000 0 0 1
-23.841711 17.415318 -4.973471 29.940873 -0.630875 1.737680 0.135243 -0.025950 663372.000000 0 0 1
-22.720011 17.531318 -4.077071 28.985660 -0.657198 1.711923 0.109223 -0.040404 955979.000000 0 0 1
-23.007711 16.839418 -2.869171 28.655765 -0.631818 1.671090 0.123355 -0.040045 -267605.000000 0 0 1
-21.808311 16.849118 -1.923371 27.625976 -0.657809 1.640475 0.123447 -0.058567 -405828.000000 0 0 1
-21.320611 18.148718 -1.608271 28.045159 -0.705207 1.628174 0.115778 -0.054951 -134050.000000 0 0 1
-20.272911 18.137818 -0.703871 27.211519 -0.729869 1.596666 0.163746 -0.071181 -511730.000000 0 0 1
-20.023711 19.612218 -0.260571 28.029555 -0.775017 1.580093 0.140861 -0.069796 -444204.000000 0 0 1
-20.903911 19.945618 0.773929 28.903289 -0.761943 1.544017 0.131715 -0.054117 -25059.400000 0 0 1
-21.160111 21.303918 0.766329 30.036552 -0.788785 1.545280 0.143328 -0.056637 -234737.000000 0 0 1
-22.393611 21.629418 1.590229 31.174258 -0.768041 1.519763 0.100150 -0.051025 -384435.000000 0 0 1
-21.997011 21.562918 2.936129 30.942669 -0.775433 1.475764 0.141417 -0.046484 -616501.000000 0 0 1
-23.041011 21.544518 3.794729 31.771912 -0.751846 1.451074 0.103335 -0.039255 -1002760.000000 0 0 1
-22.510611 21.239718 5.205529 31.383925 -0.756358 1.404160 0.105803 -0.039391 -197444.000000 0 0 1
-21.598111 22.172818 5.709729 31.475597 -0.798527 1.388385 0.102326 -0.038305 463992.000000 0 0 1
-20.669111 21.705918 6.695329 30.711340 -0.809861 1.351023 0.088298 -0.030007 583797.000000 0 0 1
-21.306711 21.552118 8.118029 31.374705 -0.791124 1.309074 0.077335 -0.031663 -209454.000000 0 0 1
-22.206211 20.469618 8.331529 31.329466 -0.744728 1.301625 0.085920 -0.035649 704543.000000 0 0 1
-22.633911 20.157118 9.659129 31.810408 -0.727582 1.262278 0.103394 -0.034771 71949.100000 0 0 1
-23.352111 21.251318 10.474729 33.266493 -0.738334 1.250473 0.114027 -0.035622 -939455.000000 0 0 1
-24.475911 21.827618 9.876629 34.250006 -0.728266 1.278274 0.132005 -0.034621 -23123.200000 0 0 1
-25.156351 22.618318 10.866729 35.531902 -0.732323 1.259986 0.138248 -0.032064 -420272.000000 0 0 1
-26.688461 22.509718 10.688329 36.513035 -0.700665 1.273719 0.140711 -0.035060 5606.300000 0 0 1
-27.431581 23.207218 11.694629 37.786650 -0.702169 1.256139 0.131112 -0.032419 190891.000000 0 0 1
-27.526831 24.571818 11.494429 38.647413 -0.728739 1.268809 0.114031 -0.033293 -285766.000000 0 0 1
-28.121971 25.374218 12.702229 39.950504 -0.734080 1.247231 0.115695 -0.027949 282303.000000 0 0 1
-27.188841 25.487318 13.761029 39.726595 -0.753108 1.217073 0.094906 -0.026871 -183916.000000 0 0 1
-27.760961 25.806018 14.976029 40.754177 -0.748919 1.194507 0.095528 -0.021518 264454.000000 0 0 1
-26.743801 25.942118 16.175029 40.618418 -0.770183 1.161222 0.083066 -0.028905 231725.000000 0 0 1
-26.227781 24.742218 16.669929 39.723549 -0.756261 1.137738 0.091040 -0.027324 40588.900000 0 0 1
-25.175931 24.983018 17.587729 39.589227 -0.781552 1.110453 0.067866 -0.019404 -1715.310000 0 0 1
-24.609511 23.684718 18.131829 38.669847 -0.766251 1.082765 0.077527 -0.015228 123751.000000 0 0 1
-23.485811 23.739418 19.024329 38.432647 -0.790768 1.052956 0.073750 -0.027067 799302.000000 0 0 1
-23.144011 22.422418 19.407029 37.617055 -0.769563 1.028726 0.076114 -0.030996 -636464.000000 0 0 1
-21.727811 22.323418 19.990429 37.014186 -0.798918 1.000270 0.072504 -0.028044 -524080.000000 0 0 1
-20.747611 22.603718 19.003929 36.090729 -0.828187 1.016247 0.077157 -0.037858 1042310.000000 0 0 1
-19.378911 22.374118 19.402129 35.391891 -0.857012 0.990576 0.062854 -0.034314 1102870.000000 0 0 1
-18.833111 20.957718 19.378929 34.197294 -0.838742 0.968325 0.067909 -0.024782 -413744.000000 0 0 1
-19.345111 20.102218 20.437829 34.583773 -0.804589 0.938541 0.071953 -0.022165 670759.000000 0 0 1
-18.581611 20.274418 21.656329 35.004641 -0.828937 0.903747 0.057728 -0.017832 563674.000000 0 0 1
-19.463511 19.825618 22.862729 35.980380 -0.794614 0.882241 0.061806 -0.020359 476195.000000 0 0 1
-20.624211 20.628918 23.037429 37.170330 -0.785512 0.902334 0.054151 -0.009640 174333.000000 0 0 1
-21.174211 20.534118 24.318429 38.228042 -0.770052 0.881310 0.057415 -0.008749 -67067.500000 0 0 1
-22.335111 21.531618 24.524229 39.546246 -0.767084 0.901875 0.065364 -0.013528 -457803.000000 0 0 1
-21.937311 22.888718 24.742229 40.215879 -0.806619 0.908112 0.074282 -0.023437 -20593.400000 0 0 1
-22.977611 23.819418 25.031229 41.495755 -0.803385 0.923259 0.069829 -0.030883 -75161.300000 0 0 1
-23.850311 24.242018 23.833129 41.527470 -0.793543 0.959521 0.048431 -0.028537 -88539.500000 0 0 1
-24.792011 23.270118 23.414729 41.284279 -0.753744 0.967745 0.047005 -0.027297 -67845.000000 0 0 1
-25.320611 23.703118 22.172529 41.165424 -0.752416 1.001998 0.043077 -0.023446 334820.000000 0 0 1
-26.332931 22.625718 21.608429 40.893405 -0.709821 1.014071 0.057021 -0.022068 1137710.000000 0 0 1
-27.652901 22.690018 22.190229 42.094253 -0.687134 1.015546 0.076511 -0.026628 428085.000000 0 0 1
-28.499521 21.900018 21.419529 41.840527 -0.655195 1.033363 0.093710 -0.027626 -202728.000000 0 0 1
-29.975141 22.137318 21.813229 43.178546 -0.636115 1.041198 0.090200 -0.024023 -776466.000000 0 0 1
-30.583831 23.329418 21.438029 44.036593 -0.651644 1.062347 0.101420 -0.024408 1022720.000000 0 0 1
-31.980311 23.442418 21.783129 45.241485 -0.632549 1.068447 0.115450 -0.023587 1362630.000000 0 0 1
-33.013711 22.623318 20.958529 45.177202 -0.600772 1.088383 0.115237 -0.036028 -1268570.000000 0 0 1
-32.957091 21.213118 21.211729 44.565723 -0.571904 1.074735 0.101231 -0.033661 264633.000000 0 0 1
-33.687071 20.444618 20.250929 44.304642 -0.545476 1.096083 0.106083 -0.033568 1245690.000000 0 0 1
-35.257418 20.630418 20.349829 45.637870 -0.529419 1.108619 0.140686 -0.038030 194587.000000 0 0 1
-35.967568 19.898018 19.441929 45.470712 -0.505313 1.128993 0.126005 -0.032311 -1381980.000000 0 0 1
-37.316951 19.868318 19.718429 46.648915 -0.489247 1.134375 0.158216 -0.039140 -960027.000000 0 0 1
36.688679 19.079618 18.668629 45.371894 0.479552 1.146743 0.139177 -0.042329 -115003.000000 0 0 1
36.848359 17.705618 18.728629 44.967233 0.447926 1.141210 0.156776 -0.047942 446691.000000 0 0 1
35.987469 17.114718 17.748129 43.623475 0.443917 1.151795 0.179387 -0.060701 291648.000000 0 0 1
36.026999 15.550618 17.754429 43.069550 0.407480 1.145899 0.180334 -0.067542 133592.000000 0 0 1
35.228519 14.919318 16.746729 41.762274 0.400600 1.158187 0.209591 -0.060402 103259.000000 0 0 1
35.586419 13.533518 16.559529 41.518277 0.363409 1.160535 0.179949 -0.049377 158037.000000 0 0 1
34.638949 12.719418 15.643329 40.079348 0.351915 1.169829 0.180815 -0.055249 7243.370000 0 0 1
34.654569 13.115218 14.304829 39.718714 0.361797 1.202364 0.168364 -0.049948 220536.000000 0 0 1
33.806629 12.269018 13.533129 38.426066 0.348136 1.210890 0.169169 -0.043810 -36092.900000 0 0 1
33.872389 12.491218 12.020329 38.050724 0.353300 1.249388 0.165414 -0.043270 926869.000000 0 0 1
35.220709 12.310918 11.518829 39.047926 0.336262 1.271349 0.155466 -0.039435 1139350.000000 0 0 1
35.246699 12.326518 10.127129 38.688908 0.336426 1.305953 0.142825 -0.032658 -882749.000000 0 0 1
36.657109 12.341218 9.554329 39.841367 0.324747 1.328627 0.109049 -0.021352 -928906.000000 0 0 1
37.236939 11.062218 9.777529 40.056989 0.288772 1.324215 0.149369 -0.030252 510744.000000 0 0 1
-36.235831 11.008918 9.247829 38.984023 -0.294951 1.331292 0.156380 -0.029527 519250.000000 0 0 1
-36.052631 10.847318 7.688429 38.426143 -0.292259 1.369353 0.125985 -0.040256 -384573.000000 0 0 1
-36.242031 12.028018 6.963729 38.815609 -0.320442 1.390414 0.133258 -0.049034 337481.000000 0 0 1
-35.565592 11.913418 5.699829 37.938488 -0.323223 1.419987 0.161039 -0.056284 151145.000000 0 0 1
-36.475631 12.579918 4.653329 38.863600 -0.332111 1.450773 0.168486 -0.054452 797410.000000 0 0 1
37.038609 11.911218 4.616129 39.179642 0.311144 1.452702 0.176699 -0.056114 1158590.000000 0 0 1
35.942559 12.830518 4.651929 38.446459 0.342873 1.449502 0.133306 -0.051162 489966.000000 0 0 1
35.671679 13.671818 6.009929 38.671780 0.366000 1.414755 0.145653 -0.040650 -909843.000000 0 0 1
34.745359 14.737918 5.821829 38.188217 0.401167 1.417749 0.124594 -0.026040 421946.000000 0 0 1
34.079009 15.165018 7.014329 37.954676 0.418685 1.384920 0.092611 -0.019627 78223.500000 0 0 1
32.796259 14.403818 7.354729 36.567152 0.413829 1.368286 0.146216 -0.034236 -846406.000000 0 0 1
32.993399 13.128918 7.923029 36.382788 0.378717 1.351269 0.176463 -0.029367 482834.000000 0 0 1
31.851759 12.251218 7.983329 35.047974 0.367189 1.340996 0.187850 -0.024814 407313.000000 0 0 1
31.677679 11.386918 6.739829 34.330199 0.345079 1.373189 0.190281 -0.032545 -63182.400000 0 0 1
31.215579 12.053118 5.545429 33.918164 0.368488 1.406565 0.174458 -0.045371 228265.000000 0 0 1
31.379389 11.156418 4.500329 33.606319 0.341596 1.436480 0.175595 -0.052369 -294138.000000 0 0 1
30.696319 11.602618 3.214329 32.972969 0.361381 1.473157 0.146432 -0.062709 -510971.000000 0 0 1
29.341839 11.247018 3.230029 31.589113 0.366036 1.468366 0.137000 -0.052390 -560588.000000 0 0 1
28.711139 11.905318 2.161529 31.156674 0.393079 1.501364 0.154930 -0.053060 251235.000000 0 0 1
27.240439 11.413318 1.988829 29.601703 0.396764 1.503559 0.178330 -0.039794 342007.000000 0 0 1
27.175739 10.131418 1.498329 29.041547 0.356850 1.519181 0.136332 -0.028495 1168420.000000 0 0 1
25.869739 9.553518 1.780929 27.634848 0.353758 1.506307 0.139818 -0.028599 800611.000000 0 0 1
25.977339 8.037918 1.565529 27.237496 0.300077 1.513288 0.145862 -0.025357 29858.500000 0 0 1
26.650739 7.321618 2.538529 27.754497 0.268110 1.479205 0.166357 -0.018174 559154.000000 0 0 1
28.077739 7.389418 2.506129 29.141785 0.257342 1.484692 0.200832 -0.031331 3868.180000 0 0 1
28.673139 6.495318 3.594129 29.618505 0.222770 1.449149 0.216061 -0.029689 -24068.600000 0 0 1
30.087339 6.491318 3.707729 31.002136 0.212492 1.450913 0.238809 -0.030989 399265.000000 0 0 1
30.373719 5.928618 4.956729 31.341355 0.192765 1.411976 0.220131 -0.024143 1325400.000000 0 0 1
31.944209 5.988018 5.228129 32.918417 0.185302 1.411300 0.202048 -0.030170 1380500.000000 0 0 1
32.390509 7.215018 5.734329 33.676165 0.219173 1.399684 0.207348 -0.043472 30968.400000 0 0 1
33.678549 7.038418 6.314829 34.980867 0.206023 1.389279 0.149652 -0.029394 352437.000000 0 0 1
34.127829 8.299818 7.125229 35.838033 0.238567 1.370645 0.138781 -0.033335 663202.000000 0 0 1
33.278139 8.475018 8.295729 35.328170 0.249371 1.333764 0.163371 -0.043035 1338910.000000 0 0 1
34.037039 9.118418 9.348729 36.456335 0.261751 1.311463 0.158483 -0.044712 765552.000000 0 0 1
33.272219 8.754318 10.674529 36.022552 0.257281 1.269950 0.163893 -0.035277 654984.000000 0 0 1
32.038959 9.454318 10.845229 35.121191 0.286944 1.256871 0.171783 -0.040601 394573.000000 0 0 1
31.411349 9.018918 12.011629 34.817998 0.279601 1.218575 0.166282 -0.038515 216048.000000 0 0 1
29.937329 9.501918 12.212229 33.699684 0.307337 1.199972 0.165274 -0.045110 138627.000000 0 0 1
29.596239 10.817518 12.648229 33.954879 0.350419 1.189094 0.183906 -0.053773 83855.500000 0 0 1
29.694839 11.828518 11.638629 34.016981 0.379071 1.221601 0.188566 -0.058007 200104.000000 0 0 1
28.577239 11.757718 10.529329 32.646122 0.390326 1.242396 0.159795 -0.044253 246256.000000 0 0 1
28.668939 12.866118 9.705229 32.888243 0.421841 1.271239 0.136168 -0.020577 340581.000000 0 0 1
27.605539 12.789418 8.771529 31.663461 0.433852 1.290101 0.125532 -0.017944 182440.000000 0 0 1
27.621039 14.025418 7.867629 31.961442 0.469852 1.322080 0.121387 -0.020945 96582.500000 0 0 1
27.263739 15.240118 8.501429 32.370465 0.509718 1.305050 0.111515 -0.007859 47093.800000 0 0 1
27.789139 16.343418 7.827529 33.175500 0.531640 1.332607 0.113785 -0.002515 -730176.000000 0 0 1
27.413639 17.672818 8.547929 33.717995 0.572621 1.314487 0.131496 -0.016305 1546930.000000 0 0 1
26.035739 18.157418 8.474329 32.853703 0.608981 1.309905 0.135306 -0.026058 1393250.000000 0 0 1
25.127839 17.337318 9.187429 31.881025 0.603959 1.278472 0.151882 -0.025419 -92341.100000 0 0 1
23.712439 18.002118 9.281829 31.185067 0.649353 1.268580 0.143079 -0.031259 245578.000000 0 0 1
23.037539 18.083518 8.066229 30.377720 0.665502 1.302042 0.147770 -0.033326 -540546.000000 0 0 1
21.968639 18.960318 8.135529 30.138042 0.712029 1.297463 0.189985 -0.042929 -341173.000000 0 0 1
21.264439 19.206218 6.762029 29.441131 0.734585 1.339048 0.167163 -0.040925 -23864.000000 0 0 1
22.003339 20.041718 5.916329 30.345022 0.738777 1.374571 0.113866 -0.023520 -163750.000000 0 0 1
21.280139 20.391018 4.768229 29.855886 0.764065 1.410401 0.132278 -0.031339 -7274.050000 0 0 1
18.932089 16.962118 32.500356 41.260278 0.730570 0.663744 0.120864 -0.050518 -48591.800000 0 0 1
17.714989 17.687818 32.395212 40.940561 0.784631 0.657906 0.121991 -0.049570 446476.000000 0 0 1
16.855589 17.053618 31.458403 39.554619 0.791238 0.651268 0.122562 -0.053449 84662.500000 0 0 1
16.456889 17.820518 30.193473 38.730426 0.825159 0.676801 0.118105 -0.052749 -473274.000000 0 0 1
17.577089 17.891518 29.399263 38.644238 0.794263 0.706302 0.119885 -0.038016 -224055.000000 0 0 1
17.094189 18.152418 28.086853 37.557860 0.815413 0.726011 0.108445 -0.039553 -127954.000000 0 0 1
18.201389 18.292418 27.065373 37.395689 0.787893 0.761566 0.106781 -0.029695 -842661.000000 0 0 1
18.879289 19.461318 27.171253 38.385511 0.800577 0.784344 0.102534 -0.031371 34667.300000 0 0 1
19.839489 19.610218 26.113373 38.210918 0.779586 0.818385 0.088116 -0.018080 463142.000000 0 0 1
20.725689 20.902118 26.259733 39.446499 0.789636 0.842358 0.101014 -0.019832 76334.900000 0 0 1
20.049889 22.121518 26.035533 39.613237 0.834483 0.853641 0.081845 -0.017908 311748.000000 0 0 1
20.830089 23.264918 26.412653 40.899600 0.840560 0.868736 0.096622 -0.024764 55248.900000 0 0 1
20.052589 24.568418 26.246243 41.165261 0.886259 0.879440 0.105561 -0.028019 -16527.600000 0 0 1
19.999089 25.064018 24.922513 40.611577 0.897325 0.910083 0.095870 -0.022207 743377.000000 0 0 1
19.047189 26.151918 24.791773 40.759664 0.941310 0.916951 0.099903 -0.028897 416264.000000 0 0 1
19.168489 26.955618 23.436893 40.537936 0.952651 0.954340 0.077395 -0.029013 708023.000000 0 0 1
20.369189 27.751118 23.400833 41.624841 0.937617 0.973772 0.089584 -0.031607 671295.000000 0 0 1
20.308889 28.639118 22.278973 41.581278 0.953968 1.005349 0.085158 -0.029420 172042.000000 0 0 1
21.525689 29.602118 22.189673 42.802129 0.942069 1.025789 0.099030 -0.025321 1086730.000000 0 0 1
22.706989 28.915318 21.662673 42.672876 0.905088 1.038347 0.101888 -0.031575 974547.000000 0 0 1
23.762989 29.845318 21.424273 43.754110 0.898374 1.059106 0.121443 -0.040479 255955.000000 0 0 1
23.902689 30.042818 19.910673 43.247478 0.898731 1.092363 0.121537 -0.038952 51409.600000 0 0 1
22.837889 30.821918 19.368473 42.973219 0.933104 1.103235 0.102278 -0.031762 425314.000000 0 0 1
23.013489 30.965918 17.960273 42.556787 0.931669 1.135112 0.095299 -0.019076 -38632.100000 0 0 1
22.385389 32.147418 17.184073 42.776798 0.962534 1.157408 0.110492 -0.028206 -735881.000000 0 0 1
23.124389 33.300818 17.414673 44.124287 0.963833 1.165084 0.115468 -0.028386 356.123000 0 0 1
23.392089 -33.694880 16.259473 44.123749 -0.963951 1.193405 0.106150 -0.030845 125087.000000 0 0 1
24.406889 33.477818 15.212073 44.134654 0.940841 1.218905 0.083596 -0.028620 -239814.000000 0 0 1
23.998289 32.373018 14.394873 42.791851 0.932883 1.227712 0.101307 -0.037269 -244712.000000 0 0 1
23.111089 32.806918 13.400273 42.308198 0.957085 1.248516 0.081086 -0.038675 -289359.000000 0 0 1
22.681789 31.719818 12.427373 40.927375 0.950030 1.262281 0.080364 -0.048297 33404.300000 0 0 1
23.805389 31.142018 11.757273 40.923774 0.918134 1.279393 0.108557 -0.068142 125974.000000 0 0 1
23.450089 30.032318 10.953073 39.646142 0.907855 1.290885 0.112648 -0.068321 -1217790.000000 0 0 1
24.525689 29.435418 9.992673 39.595540 0.876135 1.315669 0.121050 -0.069593 16567.000000 0 0 1
25.522989 28.721518 10.682073 39.880512 0.844295 1.299634 0.121390 -0.066837 -83369.600000 0 0 1
26.460989 29.575618 11.328773 41.270355 0.840923 1.292725 0.110106 -0.062859 -1818280.000000 0 0 1
27.803589 28.859518 11.435173 41.673427 0.804031 1.292831 0.110832 -0.063555 -498354.000000 0 0 1
27.926389 27.902818 12.493873 41.407093 0.784976 1.264287 0.115376 -0.053286 -435122.000000 0 0 1
29.225989 27.944418 13.014773 42.478621 0.762985 1.259404 0.102931 -0.038913 -201714.000000 0 0 1
29.434689 26.863418 14.108373 42.273991 0.739757 1.230532 0.092405 -0.039333 -459581.000000 0 0 1
30.691589 26.951518 14.694273 43.408290 0.720606 1.225460 0.087245 -0.045351 -524643.000000 0 0 1
31.056089 25.793318 15.412573 43.212537 0.693087 1.206096 0.104520 -0.043427 186268.000000 0 0 1
32.204389 26.054418 16.427873 44.562657 0.680225 1.193244 0.109712 -0.047309 84491.600000 0 0 1
33.461289 25.982618 15.795673 45.213467 0.660245 1.213911 0.114465 -0.038998 407070.000000 0 0 1
34.522289 26.200518 16.776073 46.472489 0.649201 1.201468 0.101615 -0.039634 1668890.000000 0 0 1
35.976389 26.229618 16.194573 47.376762 0.629976 1.221938 0.116194 -0.045308 699638.000000 0 0 1
36.255189 27.293618 15.366073 47.911340 0.645303 1.244308 0.119465 -0.038654 641056.000000 0 0 1
-37.142361 27.589218 15.258873 48.719125 -0.638875 1.252235 0.130656 -0.038363 1319900.000000 0 0 1
-36.916661 28.845818 14.351373 48.998806 -0.663282 1.273546 0.105068 -0.032580 313551.000000 0 0 1
37.235789 29.996518 14.922373 50.089643 0.678136 1.268290 0.100027 -0.028765 158657.000000 0 0 1
37.334989 31.157018 14.174073 50.651412 0.695442 1.287173 0.085553 -0.013607 872764.000000 0 0 1
36.170189 32.187818 14.543873 50.555538 0.727206 1.278992 0.073647 -0.018426 43811.900000 0 0 1
36.179789 33.372318 13.735873 51.101496 0.745055 1.298654 0.045567 -0.023208 704463.000000 0 0 1
35.094189 -33.525380 14.131173 50.549414 -0.762540 1.287469 0.040361 -0.014882 1256210.000000 0 0 1
33.674689 33.845318 13.579773 49.637692 0.787925 1.293685 0.071323 -0.011164 166071.000000 0 0 1
33.067089 32.784818 14.253873 48.697531 0.781112 1.273745 0.076072 -0.028389 -135339.000000 0 0 1
32.104089 32.114618 13.454273 47.360729 0.785562 1.282749 0.093926 -0.026442 -136259.000000 0 0 1
31.485789 30.913518 14.237873 46.365046 0.776227 1.258671 0.114832 -0.037184 -620037.000000 0 0 1
30.504789 31.234718 15.161473 46.217097 0.797220 1.236559 0.108814 -0.027399 -166815.000000 0 0 1
30.082889 30.190218 16.043673 45.539312 0.787179 1.210765 0.105088 -0.035642 -274208.000000 0 0 1
29.083789 30.651118 17.084373 45.576678 0.811630 1.186562 0.094758 -0.031672 -387851.000000 0 0 1
28.804089 29.714518 18.145573 45.187276 0.800955 1.157573 0.086800 -0.030448 340152.000000 0 0 1
29.805789 29.603318 19.180573 46.180471 0.781990 1.142480 0.086043 -0.033764 404084.000000 0 0 1
29.621089 28.365418 20.107973 45.676432 0.763747 1.114945 0.085259 -0.032933 49655.400000 0 0 1
28.430089 28.343818 20.877373 45.249383 0.783879 1.091241 0.099636 -0.037311 73953.300000 0 0 1
28.539689 27.478818 21.990173 45.311886 0.766463 1.064082 0.086713 -0.029703 120499.000000 0 0 1
27.322589 27.430418 22.949403 45.006964 0.787368 1.035719 0.104345 -0.036416 224286.000000 0 0 1
26.166489 26.845218 22.358673 43.649297 0.798201 1.033012 0.127760 -0.029509 938635.000000 0 0 1
24.980589 26.965018 23.176863 43.454677 0.823582 1.008232 0.125547 -0.032267 691362.000000 0 0 1
24.712989 25.907918 24.282913 43.262130 0.808999 0.974844 0.128557 -0.034432 -479408.000000 0 0 1
25.669389 25.816118 25.343103 44.358340 0.788248 0.962675 0.114135 -0.033712 36295.900000 0 0 1
25.297489 25.019318 26.410013 44.310473 0.779870 0.932259 0.126793 -0.037834 -401722.000000 0 0 1
26.527789 24.546918 27.261313 45.270895 0.746634 0.924565 0.137425 -0.048320 517869.000000 0 0 1
27.228089 25.520318 27.980713 46.643068 0.753034 0.927433 0.140650 -0.041299 308491.000000 0 0 1
28.122289 26.275018 27.167793 47.109751 0.751452 0.956123 0.099263 -0.020470 -659228.000000 0 0 1
28.513689 27.603618 27.850553 48.483435 0.769182 0.958883 0.061429 -0.020961 143829.000000 0 0 1
29.259589 27.417018 29.063073 49.522506 0.752899 0.943614 0.074503 -0.018773 226516.000000 0 0 1
29.431089 28.564518 29.854333 50.728709 0.770457 0.941582 0.075198 -0.028056 531918.000000 0 0 1
30.910789 29.020718 30.097973 51.995836 0.753871 0.953474 0.062985 -0.028470 482110.000000 0 0 1
31.542489 29.195618 28.873743 51.778429 0.746778 0.979256 0.039419 -0.017797 -620498.000000 0 0 1
32.885589 29.592218 29.002893 52.899236 0.732734 0.990506 0.068929 -0.023401 -11344.200000 0 0 1
33.515389 30.054818 27.683883 52.848564 0.731015 1.019450 0.059636 -0.021982 -100530.000000 0 0 1
33.152689 31.345318 27.224823 53.130224 0.757383 1.032799 0.037404 -0.017820 232503.000000 0 0 1
33.813589 31.670418 26.001413 53.126713 0.752682 1.059369 0.035491 -0.018794 88377.300000 0 0 1
33.489589 33.138718 25.674723 53.655555 0.780132 1.071839 0.029405 -0.021137 -62900.700000 0 0 1
34.239289 -33.710380 26.456213 54.851161 -0.777614 1.067487 0.043255 -0.020418 178898.000000 0 0 1
33.860289 -32.425580 26.029333 53.623349 -0.763757 1.063964 0.044324 -0.012343 243847.000000 0 0 1
34.821089 -31.307380 26.591403 53.849448 -0.732313 1.054330 0.038369 -0.012576 332807.000000 0 0 1
34.755189 -31.045280 27.988313 54.360631 -0.729077 1.029948 0.046343 -0.018963 346568.000000 0 0 1
35.831189 -30.242480 28.425003 54.831218 -0.701016 1.025807 0.044721 -0.027788 -290294.000000 0 0 1
35.686889 -29.879380 29.933563 55.338500 -0.697054 0.999269 0.050626 -0.018975 -211471.000000 0 0 1
35.879689 -30.914480 30.869623 56.533095 -0.711199 0.993160 0.060548 -0.024277 744396.000000 0 0 1
34.765189 -31.812180 30.954703 56.381086 -0.741073 0.989597 0.057660 -0.035799 210735.000000 0 0 1
34.900889 -32.741480 32.175008 57.665481 -0.753485 0.978871 0.081224 -0.036455 -559625.000000 0 0 1
34.476689 -32.050580 33.393642 57.714964 -0.748946 0.953790 0.068707 -0.037382 454878.000000 0 0 1
34.318989 -32.849180 -33.223811 57.971400 -0.763519 2.181089 0.089823 -0.040571 80862.600000 0 0 1
33.238989 33.801518 -33.188511 57.869251 0.793789 2.181579 0.080930 -0.030443 -582744.000000 0 0 1
33.635989 32.686418 33.783953 57.802570 0.771082 0.946568 0.100046 -0.033763 156724.000000 0 0 1
32.847589 31.548418 -33.689881 56.650462 0.765226 2.207685 0.108604 -0.030243 -234300.000000 0 0 1
33.056289 30.304118 33.197562 55.795483 0.741989 0.933547 0.093905 -0.027222 -79863.600000 0 0 1
34.340089 29.731118 33.298023 56.319974 0.713587 0.938214 0.090686 -0.029393 -91024.200000 0 0 1
34.760589 29.041218 32.140887 55.540323 0.695994 0.953669 0.075341 -0.029260 -507997.000000 0 0 1
36.244789 28.678418 32.147243 56.299037 0.669378 0.963062 0.080219 -0.026083 -557376.000000 0 0 1
36.496989 27.550918 32.984095 56.382921 0.646618 0.945914 0.079427 -0.013390 1239420.000000 0 0 1
-36.912661 27.164918 33.071121 56.517045 -0.634432 0.945728 0.072341 -0.019170 1164990.000000 0 0 1
-36.733861 25.803018 33.757753 56.167234 -0.612356 0.926017 0.075102 -0.021956 112943.000000 0 0 1
-36.946361 24.678418 32.875925 55.271008 -0.588892 0.933763 0.065044 -0.015157 -16305.500000 0 0 1
-36.894161 23.511818 33.667441 55.203997 -0.567379 0.914896 0.050382 -0.012740 -102641.000000 0 0 1
-37.352661 22.229818 32.903603 54.516357 -0.536833 0.922844 0.048981 -0.016298 -148577.000000 0 0 1
-36.359561 21.751618 32.014051 53.104143 -0.539122 0.923723 0.049161 -0.010057 -65924.000000 0 0 1
-36.571761 20.458918 31.467413 52.404762 -0.510045 0.926709 0.048376 -0.009329 175942.000000 0 0 1
-35.328861 19.923018 30.695403 50.865143 -0.513475 0.922955 0.026559 -0.009863 316992.000000 0 0 1
-35.117561 20.689718 29.511563 50.321366 -0.532408 0.944113 0.021342 -0.002711 -164539.000000 0 0 1
-34.177761 20.079218 28.633873 48.899826 -0.531173 0.945223 0.042238 -0.010344 -224853.000000 0 0 1
-34.621861 18.977518 27.657643 48.205442 -0.501412 0.959725 0.059548 -0.008731 -1121480.000000 0 0 1
-35.180561 17.879218 28.355513 48.593965 -0.470196 0.947741 0.059658 -0.014031 345625.000000 0 0 1
-35.795961 16.980418 27.419823 48.182280 -0.442932 0.965403 0.063696 -0.021456 200046.000000 0 0 1
-36.634761 15.884718 28.162673 48.862727 -0.409130 0.956525 0.056301 -0.031279 -6296.430000 0 0 1
-35.823561 14.837218 28.647233 48.209278 -0.392666 0.934493 0.070585 -0.024084 80331.300000 0 0 1
-36.541661 13.843018 29.323683 48.854892 -0.362123 0.927020 0.076853 -0.033435 365895.000000 0 0 1
-35.584961 12.615718 29.656163 48.009726 -0.340699 0.904967 0.082694 -0.021691 429964.000000 0 0 1
-34.493561 12.924718 30.474293 47.807286 -0.358507 0.879625 0.087453 -0.015723 -139314.000000 0 0 1
-33.639761 11.821518 30.627453 47.004496 -0.337935 0.861124 0.060827 -0.011325 388065.000000 0 0 1
-32.130961 12.137618 30.874613 46.184003 -0.361183 0.838589 0.069487 -0.009753 -63894.700000 0 0 1
-31.524861 12.415918 29.617363 45.001778 -0.375189 0.852454 0.061940 -0.009055 573261.000000 0 0 1
-30.121061 12.611218 29.480933 43.993710 -0.396509 0.836430 0.054857 -0.010374 691004.000000 0 0 1
-29.160561 11.470318 29.915693 43.322687 -0.374761 0.808572 0.065905 -0.007328 -388229.000000 0 0 1
-28.963161 10.448118 28.986413 42.287587 -0.346209 0.815562 0.074316 -0.014527 -73708.600000 0 0 1
-27.873661 9.608418 29.316393 41.577801 -0.331957 0.788236 0.055569 -0.008317 -219956.000000 0 0 1
-27.646461 8.489718 28.221673 40.408723 -0.297941 0.797629 0.048482 -0.014754 -269990.000000 0 0 1
-28.485261 7.384218 28.177123 40.741711 -0.253646 0.807089 0.058019 -0.021548 851182.000000 0 0 1
-29.886661 7.594318 27.891573 41.579153 -0.248837 0.835500 0.077083 -0.024103 676400.000000 0 0 1
-30.756261 6.357218 27.901863 42.010424 -0.203826 0.844420 0.079871 -0.024948 -395024.000000 0 0 1
-31.354461 6.047218 29.120463 43.216576 -0.190527 0.831421 0.086691 -0.020876 -60748.500000 0 0 1
-32.013161 4.794618 29.052103 43.495465 -0.148665 0.839367 0.105147 -0.020674 -76674.800000 0 0 1
-32.735461 4.428518 30.357873 44.864492 -0.134466 0.827583 0.090735 -0.013117 250062.000000 0 0 1
-33.844761 5.274018 30.684663 45.987299 -0.154586 0.840296 0.095122 -0.020447 231331.000000 0 0 1
-34.626661 4.566718 31.644203 47.129780 -0.131128 0.834664 0.098888 -0.016251 1151160.000000 0 0 1
-36.113261 5.073118 31.836182 48.409158 -0.139565 0.853104 0.087921 -0.019356 1064380.000000 0 0 1
-36.186061 6.324718 32.467717 49.026378 -0.173035 0.846979 0.082961 -0.015338 861623.000000 0 0 1
37.271589 6.824118 32.291881 49.784591 0.181086 0.865011 0.089934 -0.015834 1258430.000000 0 0 1
37.190489 8.275218 32.852081 50.307762 0.218942 0.859228 0.071142 -0.010869 -2578.540000 0 0 1
37.356389 8.420518 -33.556521 50.916058 0.221705 2.290359 0.073450 -0.010847 28318.600000 0 0 1
37.273389 9.746118 -33.070201 50.773325 0.255751 2.280133 0.079420 -0.010192 -72872.800000 0 0 1
37.224889 9.895418 -31.580421 49.808981 0.259819 2.257551 0.082334 -0.014834 366172.000000 0 0 1
36.049289 9.305218 -31.024181 48.462750 0.252611 2.265510 0.099351 -0.021573 384098.000000 0 0 1
36.140189 9.454818 -29.641361 47.687704 0.255880 2.241545 0.105270 -0.018123 266278.000000 0 0 1
34.853289 8.972218 -28.943331 46.184076 0.251958 2.248101 0.102096 -0.022192 150509.000000 0 0 1
34.792989 7.548718 -28.925571 45.871820 0.213650 2.253089 0.094051 -0.026085 599474.000000 0 0 1
33.473289 7.146118 -28.530841 44.559364 0.210330 2.265670 0.116481 -0.034512 558454.000000 0 0 1
36.321269 5.704018 -19.674871 41.699772 0.155771 2.062152 0.097568 -0.016951 -355671.000000 0 0 1
35.729699 6.647418 -18.806971 40.920676 0.183944 2.048336 0.090365 -0.026192 301718.000000 0 0 1
36.403519 7.899318 -18.761771 41.708746 0.213681 2.037369 0.068645 -0.007559 842993.000000 0 0 1
-36.937251 7.949718 -18.139471 41.911799 -0.211989 2.018394 0.079205 -0.011041 1070590.000000 0 0 1
-35.830395 7.492518 -18.854071 41.175612 -0.206140 2.046421 0.087232 -0.021208 -153422.000000 0 0 1
-35.444979 8.433418 -19.842971 41.487498 -0.233587 2.069501 0.073709 -0.008896 -337564.000000 0 0 1
-34.358330 7.833118 -20.783071 40.911961 -0.224152 2.103652 0.073007 -0.000394 258379.000000 0 0 1
-34.910012 6.758218 -21.509371 41.557616 -0.191224 2.114816 0.073605 0.002038 751561.000000 0 0 1
-35.783731 7.034718 -22.626971 42.917857 -0.194114 2.126117 0.084440 -0.001621 548034.000000 0 0 1
-35.714959 5.896218 -23.649271 43.239006 -0.163615 2.149505 0.099318 -0.010615 771815.000000 0 0 1
-34.455191 5.843818 -24.337171 42.586480 -0.168007 2.179100 0.087458 -0.014298 551115.000000 0 0 1
-34.069371 4.562418 -24.664071 42.306667 -0.133124 2.193192 0.087407 -0.011424 -170576.000000 0 0 1
-32.859041 4.506818 -25.631411 41.916550 -0.136306 2.228734 0.091524 -0.008019 761964.000000 0 0 1
-31.629761 4.620918 -24.914471 40.528083 -0.145068 2.232860 0.087910 -0.007235 1602250.000000 0 0 1
-30.433351 4.133018 -25.624831 39.998783 -0.134980 2.266128 0.085254 -0.008955 2172460.000000 0 0 1
-29.093971 4.488918 -24.882471 38.545387 -0.153083 2.272522 0.061771 -0.007553 433848.000000 0 0 1
-28.733381 5.840018 -24.978771 38.518203 -0.200517 2.276399 0.040020 -0.003262 611778.000000 0 0 1
-27.543411 6.096718 -24.210871 37.174934 -0.217837 2.280051 0.055994 -0.001287 637046.000000 0 0 1
-27.013011 7.482518 -24.540571 37.254938 -0.270222 2.289912 0.054384 -0.006920 -204974.000000 0 0 1
-27.917041 8.421918 -24.017471 37.777358 -0.292994 2.259794 0.058343 -0.005743 -169722.000000 0 0 1
-27.648051 9.794218 -24.328171 38.107759 -0.340453 2.263220 0.041977 -0.011000 -7173.450000 0 0 1
-26.401431 10.453818 -23.698471 36.985610 -0.377016 2.266269 0.066125 -0.004615 -18005.600000 0 0 1
-26.465571 10.623118 -22.282471 36.190960 -0.381707 2.234060 0.061576 -0.003266 193468.000000 0 0 1
-25.142691 10.622118 -21.773771 34.915346 -0.399729 2.244156 0.086665 -0.008511 -87773.300000 0 0 1
-24.972811 10.912718 -20.274971 33.967677 -0.411977 2.210416 0.112659 -0.025042 -1137820.000000 0 0 1
-25.141351 12.273018 -19.970571 34.373510 -0.454131 2.190737 0.110109 -0.026800 1568140.000000 0 0 1
-26.512161 12.703118 -19.778471 35.432355 -0.446823 2.163016 0.100350 -0.008798 1523580.000000 0 0 1
-27.546111 11.906718 -18.899271 35.464638 -0.407993 2.132826 0.093160 -0.003157 -265289.000000 0 0 1
-27.084501 11.847118 -17.556071 34.382263 -0.412338 2.106695 0.102507 -0.015428 383076.000000 0 0 1
-28.059281 11.243518 -16.724671 34.546411 -0.381115 2.076156 0.118032 -0.018180 -779430.000000 0 0 1
-27.651021 10.969818 -15.238771 33.423584 -0.377679 2.044212 0.147687 -0.029517 722243.000000 0 0 1
-26.641191 9.970418 -14.969871 32.144351 -0.358111 2.055230 0.161415 -0.033952 548240.000000 0 0 1
-25.376881 10.171718 -15.505571 31.430441 -0.381218 2.086710 0.144986 -0.028134 -1317390.000000 0 0 1
-24.473811 8.944718 -15.533571 30.335906 -0.350399 2.108369 0.113417 -0.028356 334020.000000 0 0 1
-23.073411 9.180518 -15.574671 29.312703 -0.378680 2.130964 0.106227 -0.028122 649528.000000 0 0 1
-22.301011 8.048518 -15.316871 28.226233 -0.346355 2.144381 0.113997 -0.029953 507861.000000 0 0 1
-20.751911 8.151518 -15.165871 26.964656 -0.374291 2.168124 0.144337 -0.040347 495390.000000 0 0 1
-20.057211 8.638318 -16.292571 27.246286 -0.406675 2.211767 0.144848 -0.050456 -400875.000000 0 0 1
-18.690011 8.613218 -16.024771 26.082509 -0.431837 2.232406 0.135680 -0.048330 -1028250.000000 0 0 1
-17.774011 9.195418 -17.091071 26.316836 -0.477433 2.277637 0.099205 -0.037636 -398407.000000 0 0 1
-17.568811 8.458618 -18.312771 26.750119 -0.448703 2.324833 0.140038 -0.054322 271165.000000 0 0 1
-16.656311 7.381918 -18.269671 25.801284 -0.417177 2.357588 0.142550 -0.052266 -599315.000000 0 0 1
-16.428211 6.664618 -19.601971 26.429916 -0.385394 2.406336 0.116575 -0.050020 128920.000000 0 0 1
-17.505511 5.836318 -20.023671 27.229633 -0.321810 2.396999 0.111022 -0.041722 305510.000000 0 0 1
-18.534211 6.539018 -20.705071 28.547779 -0.339174 2.382234 0.103100 -0.039258 -430158.000000 0 0 1
-19.517611 5.573018 -21.383271 29.482875 -0.278137 2.382234 0.095466 -0.016050 38981.400000 0 0 1
-20.446411 4.943718 -20.494471 29.368680 -0.237236 2.343166 0.092230 -0.020592 637819.000000 0 0 1
-21.096411 3.810018 -21.057971 30.050173 -0.178674 2.347259 0.064566 0.000054 -322080.000000 0 0 1
-22.085211 3.205618 -20.056171 30.004708 -0.144141 2.302898 0.085443 -0.011745 -499615.000000 0 0 1
-22.579211 1.990618 -20.545971 30.592813 -0.087934 2.307155 0.085102 0.003089 76756.200000 0 0 1
-23.386711 1.395818 -19.550471 30.514053 -0.059614 2.266211 0.092020 -0.005585 -456282.000000 0 0 1
-23.956111 0.053618 -20.109271 31.277482 -0.002238 2.269116 0.087653 0.007102 -808674.000000 0 0 1
-23.111511 -1.012982 -20.139771 30.672111 0.043802 2.287118 0.075270 -0.004709 -368512.000000 0 0 1
-23.712011 -2.227182 -20.682471 31.543373 0.093652 2.285884 0.083398 -0.011225 18897.400000 0 0 1
-24.135811 -2.262382 -22.220671 32.884859 0.093462 2.312726 0.081506 -0.016290 -272677.000000 0 0 1
-23.107211 -2.163982 -23.162571 32.789185 0.093377 2.355208 0.050648 -0.012375 -131807.000000 0 0 1
-22.399111 -3.421082 -23.236771 32.455685 0.151562 2.368786 0.044303 -0.022438 275047.000000 0 0 1
-21.295611 -3.420782 -24.317771 32.504750 0.159273 2.416035 0.044238 -0.017930 -113748.000000 0 0 1
-21.920711 -3.462482 -25.559181 33.849343 0.156661 2.426582 0.046725 -0.023068 230132.000000 0 0 1
-21.031711 -3.582782 -26.671661 34.154746 0.168732 2.466912 0.050419 -0.022264 -290005.000000 0 0 1
-21.687511 -3.665882 -28.067281 35.658927 0.167449 2.476896 0.050235 -0.026787 -6525.210000 0 0 1
-22.501911 -4.841582 -28.145731 36.358755 0.211932 2.456107 0.075585 -0.032507 193727.000000 0 0 1
-23.042311 -4.914482 -29.420181 37.691474 0.210132 2.466346 0.056625 -0.028875 -278271.000000 0 0 1
-22.526011 -6.168982 -30.097171 38.096157 0.267306 2.481657 0.077558 -0.027441 1528210.000000 0 0 1
-21.140711 -6.104082 -30.559071 37.656955 0.281091 2.517531 0.079220 -0.033220 1480940.000000 0 0 1
-20.650311 -7.389582 -30.904061 37.895939 0.343645 2.524385 0.085486 -0.025788 -884626.000000 0 0 1
-19.344811 -7.257782 -31.636971 37.786175 0.358928 2.563055 0.082532 -0.029192 -1076200.000000 0 0 1
-19.480811 -6.623982 -32.916111 38.818159 0.327762 2.582914 0.078307 -0.039625 366451.000000 0 0 1
-19.915811 -7.522382 33.828813 39.970168 0.361144 0.561699 0.076664 -0.037326 -585800.000000 0 0 1
-19.729111 -6.938082 32.416402 38.577168 0.338159 0.572960 0.075478 -0.034465 608637.000000 0 0 1
-18.377411 -6.845582 31.936802 37.477334 0.356577 0.550691 0.087263 -0.039528 627079.000000 0 0 1
-17.763611 -5.671982 32.468413 37.442157 0.309071 0.521321 0.064251 -0.040173 -93070.400000 0 0 1
-16.375911 -5.378582 31.819121 36.187789 0.317344 0.496452 0.055961 -0.039790 214183.000000 0 0 1
-16.459311 -5.324782 30.407803 34.984235 0.312885 0.517243 0.060302 -0.037144 -9985.490000 0 0 1
-15.297311 -4.732582 29.890573 33.909459 0.300034 0.491805 0.058645 -0.031899 -262840.000000 0 0 1
-15.321411 -4.884682 28.374313 32.614527 0.308627 0.515614 0.069512 -0.018614 856880.000000 0 0 1
-16.420411 -4.093282 27.847343 32.586184 0.244301 0.546064 0.063414 -0.026889 805578.000000 0 0 1
-16.674611 -4.240482 26.437713 31.543256 0.249029 0.576929 0.077178 -0.025692 246516.000000 0 0 1
-15.630111 -3.642982 25.431993 30.072545 0.228987 0.562943 0.075625 -0.023619 359686.000000 0 0 1
-15.725411 -2.232582 25.220453 29.805104 0.141030 0.562023 0.068100 -0.015123 -419511.000000 0 0 1
-14.863611 -1.846682 24.214083 28.472074 0.123608 0.553956 0.057437 -0.017634 -325665.000000 0 0 1
-14.658711 -0.351082 24.136373 28.241203 0.023946 0.545918 0.053101 -0.009956 -201533.000000 0 0 1
-15.780911 0.300618 23.602203 28.393512 -0.019047 0.589438 0.056866 -0.015220 -8471.670000 0 0 1
-15.844311 1.647918 23.923153 28.741522 -0.103634 0.587453 0.047997 -0.009001 326975.000000 0 0 1
-16.716311 2.533018 22.965703 28.517972 -0.150386 0.634604 0.063786 -0.014628 321581.000000 0 0 1
-15.866111 2.905518 21.913273 27.209686 -0.181120 0.634534 0.065467 -0.006872 430099.000000 0 0 1
-16.478111 3.856118 21.061073 27.017894 -0.229878 0.676892 0.073215 -0.011296 -57756.600000 0 0 1
-15.494511 4.657218 20.178873 25.864192 -0.291982 0.675834 0.080288 -0.007366 154651.000000 0 0 1
-14.587911 5.471818 20.881873 26.053801 -0.358852 0.641013 0.077442 -0.007253 411878.000000 0 0 1
-13.492111 5.906618 20.100173 24.918711 -0.412648 0.632369 0.071923 -0.004533 962564.000000 0 1 0
-12.443111 6.951818 20.652273 25.093329 -0.509489 0.604092 0.061052 -0.004893 985815.000000 0 0 1
-12.951611 8.286918 20.583573 25.692425 -0.569197 0.641576 0.064126 -0.004234 651529.000000 0 0 1
-11.844711 9.167718 20.695673 25.547115 -0.658680 0.626477 0.063506 -0.003194 559497.000000 0 0 1
-12.354311 10.656818 20.844773 26.470763 -0.711763 0.664113 0.046826 0.008258 187283.000000 0 0 1
-12.670511 11.279318 19.600273 25.921720 -0.727376 0.713412 0.042502 -0.000201 451526.000000 0 0 1
-13.357611 12.530918 19.701373 26.899698 -0.753476 0.748954 0.036695 0.004984 -434037.000000 0 0 1
-13.560211 13.066918 18.263573 26.233218 -0.766874 0.800706 0.032745 0.002785 -752176.000000 0 0 1
-12.475011 13.590518 17.572273 25.477693 -0.828168 0.809705 0.028569 -0.004941 -607833.000000 0 0 1
-12.237111 14.966718 17.910173 26.353820 -0.885403 0.823573 0.034904 -0.004264 -388886.000000 0 0 1
-13.258311 16.010918 17.383673 27.098420 -0.879167 0.874343 0.033419 -0.001736 -56195.300000 0 0 1
-13.260411 16.289018 15.963873 26.382112 -0.887534 0.920902 0.030596 -0.018712 36846.700000 0 0 1
-13.791611 15.308418 15.109773 25.551153 -0.837475 0.938060 0.062396 -0.016760 -170058.000000 0 0 1
-14.460211 15.694118 13.753873 25.388423 -0.826295 0.998293 0.054261 -0.022826 647774.000000 0 0 1
-15.605911 16.534518 13.958173 26.678930 -0.814282 1.020205 0.043009 -0.013510 207019.000000 0 0 1
-15.961611 17.243818 12.785873 26.750716 -0.823993 1.072461 0.040617 -0.011318 502447.000000 0 0 1
-17.262611 18.094718 13.018073 28.193736 -0.808928 1.090845 0.042736 -0.016396 382208.000000 0 0 1
-18.521011 17.490018 12.956373 28.579646 -0.756776 1.100284 0.057349 -0.014496 -334780.000000 0 0 1
-19.524511 18.453118 13.240473 29.950529 -0.757194 1.112882 0.068367 -0.024289 -178243.000000 0 0 1
-20.922111 17.841718 13.225073 30.511705 -0.706099 1.122487 0.089388 -0.019283 -281565.000000 0 0 1
-21.397911 17.377818 11.951073 30.044755 -0.682092 1.161705 0.097869 -0.019321 -483574.000000 0 0 1
-22.633411 16.776218 12.178173 30.692355 -0.637855 1.162788 0.127283 -0.025781 -283507.000000 0 0 1
-23.250111 15.899618 11.037073 30.251983 -0.599805 1.197338 0.127729 -0.018735 199599.000000 0 0 1
-22.594211 14.662418 10.825473 29.028877 -0.575634 1.188641 0.100766 -0.017086 183147.000000 0 0 1
-23.137411 14.037618 9.655673 28.733717 -0.545336 1.228087 0.122764 -0.019513 92098.400000 0 0 1
-22.352411 12.758418 9.253873 27.350350 -0.518661 1.225638 0.122379 -0.021529 -546336.000000 0 0 1
-22.535511 11.523418 9.906273 27.180372 -0.472682 1.197739 0.121489 -0.018709 385742.000000 0 0 1
-23.852811 10.978118 10.047273 28.114469 -0.431340 1.205346 0.167999 -0.013679 574848.000000 0 0 1
-24.466711 10.487718 8.684773 28.000668 -0.404960 1.255432 0.175696 -0.021658 -256893.000000 0 0 1
-24.835711 11.558618 7.792073 28.480354 -0.435589 1.293668 0.171796 -0.028231 1266460.000000 0 0 1
-26.147941 11.300218 7.213073 29.384318 -0.407924 1.322788 0.228064 -0.036083 820237.000000 0 0 1
-26.647551 12.598418 6.567473 30.198407 -0.441635 1.351567 0.218007 -0.036493 -538634.000000 0 0 1
-26.162721 13.071718 5.286973 29.720529 -0.463353 1.391955 0.218719 -0.044282 1096960.000000 0 0 1
-24.812711 13.551318 5.140573 28.735593 -0.499878 1.390936 0.196704 -0.041369 549123.000000 0 0 1
-24.434911 14.808318 5.982173 29.191395 -0.544842 1.364405 0.186675 -0.050387 1049580.000000 0 0 1
-23.072511 15.337818 5.823373 28.310794 -0.586686 1.363623 0.136149 -0.050188 1806410.000000 0 0 1
-22.930511 16.569918 6.470073 29.021239 -0.625743 1.345964 0.132484 -0.049420 168473.000000 0 0 1
-21.486111 17.108418 6.329573 28.185358 -0.672453 1.344295 0.106582 -0.034012 51629.400000 0 0 1
-21.143811 17.586618 5.029673 27.957959 -0.693810 1.389910 0.139410 -0.054033 693485.000000 0 0 1
-19.800411 18.058218 5.056673 27.271330 -0.739412 1.384296 0.123245 -0.038197 266284.000000 0 0 1
-19.381611 19.057618 3.910773 27.461496 -0.776970 1.427901 0.114048 -0.036474 -73153.200000 0 0 1
-18.056711 19.492718 4.137873 26.891129 -0.823623 1.416308 0.099695 -0.032729 13327.200000 0 0 1
-17.669811 20.443918 3.199173 27.210489 -0.858055 1.452952 0.111749 -0.028163 -13351.100000 0 0 1
-17.703611 21.931118 3.698673 28.426606 -0.891658 1.440313 0.126812 -0.050421 -644203.000000 0 0 1
-16.837911 22.225518 4.719873 28.280136 -0.922453 1.403115 0.085286 -0.042748 -359048.000000 0 0 1
-16.934411 23.626518 5.018773 29.498723 -0.948914 1.399829 0.063436 -0.042650 -201140.000000 0 0 1
-16.398111 24.022218 6.417973 29.785153 -0.971828 1.353618 0.049755 -0.029297 -125173.000000 0 0 1
-16.990811 23.428818 7.569473 29.914780 -0.943351 1.314981 0.048688 -0.026312 599200.000000 0 0 1
-16.125311 23.462618 8.732473 29.778787 -0.968661 1.273177 0.038461 -0.029363 267295.000000 0 0 1
-16.740911 22.717418 9.918273 29.911725 -0.935719 1.232813 0.016672 -0.015756 -124920.000000 0 0 1
-17.949411 23.328418 10.291773 31.181998 -0.914980 1.234435 0.015738 -0.025523 -269519.000000 0 0 1
-18.737211 22.446318 11.080873 31.268290 -0.875219 1.208545 0.019112 -0.014379 -430744.000000 0 0 1
-19.959211 23.093918 11.741273 32.704076 -0.858080 1.203583 0.043292 -0.025667 -462627.000000 0 0 1
-20.991111 23.427318 10.835173 33.269609 -0.840190 1.239068 0.076378 -0.028174 -166715.000000 0 0 1
-20.771811 24.551518 10.010773 33.681756 -0.868600 1.269020 0.033207 -0.029300 -427326.000000 0 0 1
-22.050611 25.298218 9.501073 34.878355 -0.853880 1.294904 0.059310 -0.026660 193369.000000 0 0 1
-22.670611 25.941218 10.569473 36.036331 -0.852577 1.273119 0.086876 -0.037954 278770.000000 0 0 1
-23.662711 26.867718 10.077273 37.193407 -0.848741 1.296424 0.086614 -0.032798 321280.000000 0 0 1
-24.340311 27.614218 11.246673 38.490043 -0.848330 1.274273 0.088697 -0.034831 -135720.000000 0 0 1
-23.456511 28.517318 11.923773 38.802341 -0.882464 1.258447 0.095097 -0.034762 9978.900000 0 0 1
-24.069411 29.568118 12.565573 40.143539 -0.887557 1.252429 0.085816 -0.029873 -942992.000000 0 0 1
9.809989 -32.326380 27.731293 43.706468 -1.276162 0.883449 0.077038 -0.048043 -603645.000000 0 0 1
11.165889 -32.138180 27.432733 43.704628 -1.236410 0.892221 0.052770 -0.048558 82737.000000 0 0 1
11.275589 -32.119080 26.030753 42.852938 -1.233181 0.917958 0.063217 -0.045332 229781.000000 0 0 1
12.732689 -32.311380 25.512273 43.093186 -1.195419 0.937226 0.018647 -0.024883 589837.000000 0 0 1
13.267489 -33.666180 25.678113 44.371200 -1.195396 0.953649 0.031658 -0.042691 -183519.000000 0 0 1
14.660089 -33.615380 25.752133 44.811654 -1.159551 0.958589 0.042961 -0.026899 -646451.000000 0 0 1
15.434889 32.861618 25.524403 44.380366 1.131686 0.958035 0.073702 -0.026486 -347919.000000 0 0 1
15.258689 32.459718 24.194013 43.264433 1.131369 0.977361 0.051885 -0.029501 45527.100000 0 0 1
16.148489 31.429018 23.931223 42.676226 1.096163 0.975490 0.061783 -0.031402 -632562.000000 0 0 1
16.230789 30.986518 22.457473 41.568508 1.088289 1.000060 0.059148 -0.035667 258333.000000 0 0 1
15.266989 30.057318 21.916073 40.209919 1.100825 0.994358 0.056146 -0.029882 298204.000000 0 0 1
15.401789 28.655018 22.215573 39.393614 1.077608 0.971649 0.062160 -0.025441 -254065.000000 0 0 1
15.121089 28.112618 23.656063 39.731297 1.077309 0.933031 0.070645 -0.034225 -1006220.000000 0 0 1
16.008389 28.461118 24.642283 40.908995 1.058433 0.924332 0.074539 -0.031225 -445357.000000 0 0 1
15.653589 28.055418 26.007283 41.334248 1.061868 0.890280 0.075835 -0.031469 -567344.000000 0 0 1
16.571489 28.514318 27.141413 42.712257 1.044342 0.882208 0.085984 -0.036473 -143131.000000 0 0 1
16.437189 29.934118 27.451143 43.815498 1.068635 0.893720 0.091967 -0.044453 233471.000000 0 0 1
17.225289 30.284118 28.579683 45.062586 1.053642 0.883795 0.114507 -0.043930 -33797.300000 0 0 1
16.916689 31.640818 29.071733 46.178798 1.079816 0.889826 0.115206 -0.042125 -237443.000000 0 0 1
17.574989 32.584518 28.283323 46.589456 1.076154 0.918421 0.106290 -0.029445 39213.700000 0 0 1
17.265089 -33.806580 28.609823 47.534094 -1.098624 0.924943 0.095423 -0.017545 -302362.000000 0 0 1
18.048689 -32.800580 27.785013 46.622314 -1.067757 0.932336 0.074833 -0.014448 -580670.000000 0 0 1
17.782989 -32.777580 26.396243 45.687702 -1.073702 0.954822 0.086007 -0.014645 42672.300000 0 0 1
18.279589 -31.606980 25.723663 44.663759 -1.046455 0.957042 0.092484 -0.016078 1384570.000000 0 0 1
19.770189 -31.012780 25.745083 44.893899 -1.003269 0.960067 0.126335 -0.019312 1404420.000000 0 0 1
20.149289 -30.379480 26.943193 45.330368 -0.985161 0.934309 0.115709 -0.017701 -74045.200000 0 0 1
21.247189 -29.519880 26.780483 45.167030 -0.946932 0.936115 0.137469 -0.018565 -61094.900000 0 0 1
21.471389 -28.588080 28.000893 45.413091 -0.926617 0.906403 0.131454 -0.019193 1006730.000000 0 0 1
20.256789 -27.802880 28.152083 44.450843 -0.941142 0.884947 0.132779 -0.025987 1226700.000000 0 0 1
20.460389 -26.769680 29.113013 44.528764 -0.918198 0.858198 0.136412 -0.026876 242891.000000 0 0 1
19.095589 -26.306780 29.709433 44.037922 -0.942911 0.830329 0.138413 -0.029405 443441.000000 0 0 1
18.343689 -25.680980 28.673863 42.640287 -0.950543 0.833270 0.129108 -0.031792 -630314.000000 0 0 1
17.202689 -25.095180 29.187943 42.162028 -0.969870 0.806152 0.122148 -0.026386 -388270.000000 0 0 1
16.272889 -24.485780 28.067813 40.646801 -0.984236 0.808576 0.108169 -0.030853 -257099.000000 0 0 1
15.642789 -25.396680 27.208373 40.373057 -1.018740 0.831289 0.097178 -0.021872 97087.100000 0 0 1
14.956089 -24.864880 26.118333 39.039905 -1.029279 0.837912 0.095142 -0.026363 -1468010.000000 0 0 1
13.577189 -24.249980 26.356093 38.302026 -1.060396 0.811912 0.058412 -0.022727 -242607.000000 0 0 1
12.499789 -25.140780 26.666053 38.721853 -1.109398 0.811162 0.045042 -0.017442 180445.000000 0 0 1
12.208289 -26.051980 25.621563 38.525478 -1.132572 0.843229 0.043044 -0.028871 -1250430.000000 0 0 1
11.537189 -27.373080 26.077393 39.527493 -1.171911 0.850340 0.045238 -0.031572 608226.000000 0 0 1
10.166889 -27.233680 26.448423 39.300866 -1.213499 0.832575 0.044453 -0.039750 185794.000000 0 0 1
9.628289 -28.507680 26.633083 40.183490 -1.245082 0.846262 0.049341 -0.038142 1154840.000000 0 0 1
8.058389 -28.594180 26.949893 40.110616 -1.296101 0.834040 0.048532 -0.038448 1895270.000000 0 0 1
7.222789 -28.476480 25.759713 39.072259 -1.322394 0.850930 0.059520 -0.041104 469545.000000 0 0 1
7.168389 -27.163480 25.116603 37.684004 -1.312781 0.841285 0.068744 -0.041585 -1525600.000000 0 0 1
5.873289 -27.000180 24.387343 36.854413 -1.356605 0.847684 0.070789 -0.039532 -1400990.000000 0 0 1
5.765089 -27.815380 23.268933 36.720224 -1.366427 0.884493 0.077729 -0.027790 377677.000000 0 0 1
4.953489 -29.028080 23.379383 37.600027 -1.401780 0.899768 0.089637 -0.025606 746200.000000 0 0 1
3.426589 -28.803980 23.585053 37.385365 -1.452390 0.888131 0.097469 -0.028309 -344563.000000 0 0 1
2.754589 -28.315480 22.407673 36.214058 -1.473819 0.903638 0.092114 -0.027564 274316.000000 0 0 1
1.428689 -27.868680 22.632073 35.929308 -1.519576 0.889365 0.117829 -0.026944 249757.000000 0 0 1
1.296189 -26.498280 23.357653 35.347120 -1.521919 0.848902 0.120851 -0.035529 -576428.000000 0 0 1
1.897889 -26.467080 24.632373 36.205830 -1.499211 0.822566 0.108002 -0.034575 -24781.200000 0 0 1
1.772289 -25.151380 25.135803 35.602549 -1.500448 0.786946 0.116114 -0.032436 -405822.000000 0 0 1
2.911789 -24.707680 26.051543 36.022644 -1.453488 0.762373 0.111723 -0.037011 -758801.000000 0 0 1
4.096689 -24.371980 25.388213 35.430744 -1.404263 0.771940 0.087650 -0.033023 -143539.000000 0 0 1
5.000089 -23.557280 26.137153 35.540077 -1.361648 0.744499 0.071257 -0.033568 318782.000000 0 0 1
4.542989 -22.103580 26.464213 34.778752 -1.368087 0.706050 0.077839 -0.025748 -638602.000000 0 0 1
4.563889 -21.293280 25.249593 33.343287 -1.359656 0.711686 0.064950 -0.017594 292082.000000 0 0 1
3.811589 -20.091680 25.375753 32.590377 -1.383314 0.678321 0.088875 -0.028562 -5832.270000 0 0 1
3.978589 -19.197380 24.141893 31.099832 -1.366443 0.682068 0.084886 -0.025935 368308.000000 0 0 1
5.236889 -18.544080 24.030033 30.801792 -1.295561 0.675890 0.068077 -0.016456 133762.000000 0 0 1
5.381189 -17.972380 22.737763 29.478289 -1.279877 0.689853 0.074365 -0.016230 778777.000000 0 0 1
6.737289 -17.241480 22.414773 29.070290 -1.198280 0.690301 0.072990 -0.014402 837110.000000 0 0 1
7.863289 -18.080680 22.317673 29.779537 -1.160570 0.723596 0.085372 -0.017729 -227537.000000 0 0 1
8.984089 -17.390980 21.808573 29.304844 -1.093961 0.731465 0.085507 -0.016849 641695.000000 0 0 1
10.308589 -17.652380 22.585173 30.462494 -1.042242 0.735628 0.089795 -0.015562 407474.000000 0 0 1
10.155089 -16.878280 23.792703 30.888426 -1.029153 0.691518 0.105645 -0.016242 621092.000000 0 0 1
11.366989 -16.889780 24.549003 31.892423 -0.978415 0.692356 0.121682 -0.017167 502100.000000 0 0 1
11.392589 -15.920980 25.783993 32.374110 -0.949696 0.649413 0.134780 -0.020588 -282591.000000 0 0 1
11.253289 -14.575980 25.375983 31.353408 -0.913336 0.627746 0.155381 -0.028501 36857.100000 0 0 1
11.426289 -13.701280 26.474393 31.924577 -0.875690 0.592979 0.143838 -0.033394 -148525.000000 0 0 1
11.424189 -12.238780 26.006833 30.929843 -0.819809 0.571976 0.146733 -0.031292 -556759.000000 0 0 1
10.166689 -11.717880 25.776253 30.084639 -0.856160 0.541782 0.160505 -0.022330 -887421.000000 0 0 1
10.365489 -10.410880 25.266653 29.227274 -0.787583 0.526664 0.156138 -0.011967 -245048.000000 0 0 1
9.253489 -9.600880 24.609863 27.990165 -0.803821 0.496548 0.152196 -0.007947 -681530.000000 0 0 1
8.197789 -9.212780 25.422613 28.255766 -0.843630 0.451642 0.123005 -0.015259 68841.000000 0 0 1
7.162589 -8.602180 24.648803 27.071455 -0.876463 0.426283 0.124182 -0.016518 943026.000000 0 0 1
5.676389 -8.739980 25.100663 27.178152 -0.994791 0.393532 0.090323 -0.018549 -107875.000000 0 0 1
5.316089 -7.902980 26.247603 27.922295 -0.978650 0.348098 0.103101 -0.015587 963222.000000 0 0 1
3.987089 -8.066880 26.772133 28.243911 -1.111756 0.324249 0.080606 -0.024095 1340910.000000 0 0 1
2.742989 -7.973580 25.847833 27.188461 -1.239468 0.315339 0.062039 -0.018441 -342886.000000 0 0 1
2.691589 -6.761780 25.107763 26.141272 -1.191964 0.282130 0.083872 -0.020219 -90748.900000 0 0 1
1.710689 -6.949780 24.105473 25.145571 -1.329444 0.288622 0.063318 -0.023903 193464.000000 0 0 1
1.462189 -5.741280 23.166773 23.912333 -1.321418 0.250369 0.049580 -0.028612 138466.000000 0 1 0
0.863389 -4.668380 23.915663 24.382333 -1.387919 0.195964 0.047922 -0.026084 169877.000000 0 1 0
1.381689 -3.406380 23.558263 23.843327 -1.185456 0.154788 0.046778 -0.018544 -1141920.000000 0 1 0
0.614489 -2.668780 22.444173 22.610637 -1.344490 0.121419 0.034579 -0.023927 -43743.300000 0 1 0
-0.414211 -1.789780 22.802863 22.876745 1.343369 0.080390 0.043693 -0.026685 264415.000000 0 1 0
-1.546911 -2.451780 23.397243 23.576156 1.007941 0.123275 0.050574 -0.020353 177198.000000 0 1 0
-2.601711 -1.419780 23.941353 24.124118 0.499544 0.123171 0.049242 -0.021812 13412.800000 0 1 0
-1.973311 -0.613780 24.852733 24.938505 0.301555 0.082961 0.062244 -0.032045 185883.000000 0 1 0
-2.729211 0.525220 25.262703 25.415126 -0.190120 0.109575 0.053234 -0.028882 -238415.000000 0 0 1
-1.942611 1.323220 26.324963 26.429686 -0.597966 0.089050 0.095840 -0.040356 18044.100000 0 0 1
-2.002911 0.851220 27.685303 27.770708 -0.401863 0.078447 0.111071 -0.036203 54868.800000 0 0 1
-1.408911 -0.408780 27.967903 28.006352 0.282386 0.052405 0.112197 -0.042048 -1682320.000000 0 0 1
-0.195211 -0.343780 28.852083 28.854791 1.054362 0.013701 0.131119 -0.039118 184416.000000 0 0 1
0.961689 0.357220 28.306433 28.325017 0.355655 0.036226 0.109813 -0.036655 1146890.000000 0 0 1
1.666689 -0.219780 27.193673 27.245587 -0.131110 0.061742 0.104285 -0.037388 -338473.000000 0 0 1
2.744289 -1.255780 27.593883 27.758431 -0.429154 0.108938 0.106993 -0.039334 -701878.000000 0 0 1
2.270789 -2.480780 28.168723 28.368781 -0.829563 0.118830 0.120921 -0.041967 389262.000000 0 0 1
3.177589 -3.621380 28.315783 28.722727 -0.850579 0.168532 0.134787 -0.036346 623559.000000 0 0 1
3.845289 -4.258280 27.038253 27.640302 -0.836318 0.209099 0.129014 -0.034163 196327.000000 0 0 1
4.816489 -3.391680 26.509813 27.156440 -0.613526 0.218661 0.129835 -0.024591 -253803.000000 0 0 1
5.460789 -4.017980 25.409603 26.298523 -0.634343 0.260742 0.105468 -0.023483 -1261730.000000 0 0 1
6.689989 -3.317080 24.852313 25.949883 -0.460304 0.291881 0.098875 -0.020214 238350.000000 0 0 1
7.852389 -3.517180 25.712963 27.114333 -0.421116 0.322909 0.101449 -0.018183 1033710.000000 0 0 1
8.462189 -4.830380 25.737823 27.520479 -0.518687 0.361904 0.135889 -0.008334 -245225.000000 0 0 1
9.276389 -5.259780 24.458873 26.682450 -0.515807 0.411142 0.122615 -0.010704 -487016.000000 0 0 1
8.526389 -5.390480 23.322283 25.410342 -0.563768 0.408226 0.121159 -0.007482 -138088.000000 0 0 1
9.381989 -5.323980 22.168473 24.653756 -0.516155 0.452876 0.118290 -0.007901 437156.000000 0 1 0
9.326889 -3.890280 21.594973 23.842567 -0.395163 0.437693 0.111544 -0.013654 579417.000000 0 1 0
8.066389 -3.508780 21.043773 22.808300 -0.410300 0.395934 0.091213 -0.023787 141440.000000 0 1 0
8.203789 -2.425780 20.174673 21.913557 -0.287498 0.401059 0.080019 -0.028739 232023.000000 0 1 0
6.902089 -1.653780 19.802473 21.035963 -0.235172 0.344149 0.087108 -0.035576 481839.000000 0 1 0
6.304589 -1.123780 21.002073 21.956726 -0.176395 0.295965 0.093134 -0.030768 -695700.000000 0 1 0
4.972389 -0.793780 20.805973 21.406617 -0.158302 0.237449 0.044868 -0.024282 -655690.000000 0 1 0
4.364089 -0.077780 22.073973 22.501369 -0.017821 0.195216 0.047198 -0.031759 -187843.000000 0 1 0
3.066089 0.433220 21.919373 22.137016 0.140365 0.140341 0.045475 -0.031375 -433996.000000 0 1 0
2.680189 0.746220 23.230363 23.396368 0.271544 0.119195 0.068516 -0.032629 -693980.000000 0 1 0
1.201789 1.113220 23.288733 23.346277 0.747158 0.070225 0.069168 -0.038945 -628949.000000 0 1 0
0.926089 2.354220 22.790283 22.930264 1.196015 0.110552 0.072090 -0.035686 128371.000000 0 1 0
-0.464011 2.580220 22.934823 23.084171 -1.392864 0.113813 0.054925 -0.028009 91377.200000 0 1 0
-0.993111 3.958220 22.514173 22.881035 -1.324972 0.179312 0.052952 -0.024007 -236411.000000 0 1 0
-0.772011 5.052220 23.361903 23.914419 -1.419163 0.215376 0.066226 -0.027741 701425.000000 0 1 0
-1.682611 6.163220 23.083283 23.951084 -1.304283 0.270012 0.060166 -0.027294 538446.000000 0 1 0
-1.322011 7.418220 23.904753 25.064216 -1.394436 0.305355 0.079677 -0.023433 604412.000000 0 0 1
-0.162011 8.131220 23.463873 24.833371 -1.550874 0.333652 0.066750 -0.021833 466784.000000 0 1 0
-0.229311 9.505220 23.887993 25.710659 -1.546676 0.378801 0.069553 -0.012202 -137330.000000 0 0 1
0.872889 10.376220 23.193013 25.423291 1.486870 0.421994 0.070492 -0.016654 645128.000000 0 0 1
2.231189 10.070220 23.415153 25.586264 1.352756 0.414928 0.070780 -0.017220 -490280.000000 0 0 1
2.741489 10.420220 24.646503 26.898826 1.313533 0.412137 0.084753 -0.020449 -169800.000000 0 0 1
3.963989 11.404220 24.487223 27.301896 1.236270 0.458075 0.078772 -0.023721 -50840.300000 0 0 1
5.169789 10.994220 23.960033 26.864154 1.131249 0.469276 0.071015 -0.025024 -587678.000000 0 0 1
5.150189 10.506220 22.582173 25.433436 1.115016 0.478051 0.078227 -0.027743 -930705.000000 0 0 1
6.523789 10.006220 22.094573 25.116816 0.993035 0.495623 0.080601 -0.031170 254776.000000 0 0 1
7.455589 11.064220 21.851573 25.602617 0.977839 0.548150 0.077309 -0.034235 141778.000000 0 0 1
8.632989 10.502220 21.310973 25.278107 0.882775 0.567848 0.082431 -0.036111 398207.000000 0 0 1
9.612589 11.588220 20.684573 25.583985 0.878316 0.629203 0.072431 -0.037117 -293253.000000 0 0 1
9.143289 12.224220 19.549573 24.803570 0.928599 0.662957 0.077728 -0.030440 226585.000000 0 1 0
9.948589 13.306220 19.016773 25.252081 0.928792 0.718069 0.091704 -0.029520 951627.000000 0 0 1
11.378989 12.899220 18.510473 25.268733 0.847934 0.748744 0.065252 -0.032601 586897.000000 0 0 1
12.402089 12.755220 19.487473 26.386911 0.799434 0.739912 0.063590 -0.034312 147469.000000 0 0 1
13.589289 12.336220 18.850473 26.309531 0.737102 0.772041 0.062093 -0.032185 422424.000000 0 0 1
14.780589 12.069220 19.830273 27.520386 0.684757 0.766177 0.059816 -0.025028 355624.000000 0 0 1
15.254589 13.246220 20.436173 28.736771 0.715047 0.779663 0.057329 -0.025922 -470408.000000 0 0 1
16.485789 12.969220 21.031273 29.703474 0.666573 0.784076 0.058629 -0.025488 -482918.000000 0 0 1
17.184289 14.188220 21.597673 31.033286 0.690187 0.801052 0.059515 -0.024912 -452750.000000 0 0 1
16.512989 14.795220 22.703973 31.734016 0.730587 0.773534 0.064384 -0.022697 216984.000000 0 0 1
17.231889 15.923220 23.142003 32.955110 0.745948 0.792274 0.075630 -0.017063 -243081.000000 0 0 1
-21.385911 12.689118 -23.883671 34.478988 -0.535508 2.336025 0.044903 -0.003951 -5491.810000 0 0 1
-21.464011 12.728918 -25.306451 35.540759 -0.535283 2.363196 0.049831 -0.020659 -203401.000000 0 0 1
-22.104211 13.844118 -25.792081 36.680883 -0.559542 2.350611 0.057649 -0.027100 -291220.000000 0 0 1
-22.130211 13.945818 -27.338221 37.836627 -0.562309 2.378256 0.055242 -0.019574 439885.000000 0 0 1
-20.883511 14.328518 -27.928381 37.701749 -0.601347 2.405014 0.070434 -0.017781 297752.000000 0 0 1
-20.925611 14.687018 -29.304301 38.888709 -0.611979 2.424231 0.076925 -0.021141 -37431.200000 0 0 1
-19.521411 15.139118 -29.761151 38.678217 -0.659631 2.448784 0.074020 -0.021619 -378316.000000 0 0 1
-18.526711 14.195918 -29.539811 37.647888 -0.653814 2.472902 0.072503 -0.018792 -1968310.000000 0 0 1
-17.342211 14.837618 -29.737901 37.486663 -0.707724 2.486995 0.073073 -0.012644 -1129970.000000 0 0 1
-16.143711 14.253718 -28.964091 36.093024 -0.723302 2.502244 0.100311 -0.002755 -150766.000000 0 0 1
-16.277911 14.358718 -27.576221 35.094032 -0.722836 2.474754 0.100216 -0.009022 -214567.000000 0 0 1
-16.957411 13.327818 -26.918021 34.492961 -0.666120 2.466088 0.114336 -0.007127 250904.000000 0 0 1
-17.885311 13.682218 -25.689061 34.161605 -0.653031 2.421867 0.092096 -0.015833 333813.000000 0 0 1
-17.177811 14.219818 -24.598371 33.201811 -0.691465 2.405168 0.153173 -0.039471 333835.000000 0 0 1
-18.091511 14.762418 -23.649171 33.234244 -0.684413 2.362556 0.128593 -0.036248 151915.000000 0 0 1
-17.372411 15.379318 -22.428171 32.269907 -0.724619 2.339241 0.138005 -0.034083 309856.000000 0 0 1
-16.521011 16.442418 -22.806871 32.610585 -0.783014 2.345312 0.113852 -0.037056 -65378.400000 0 0 1
-15.809011 17.051018 -21.731271 31.826249 -0.823177 2.322398 0.121041 -0.034994 -247841.000000 0 0 1
-15.646611 18.559718 -21.951871 32.728644 -0.870356 2.305980 0.103425 -0.032359 277757.000000 0 0 1
-16.866011 19.274218 -21.929671 33.717477 -0.851935 2.278900 0.091602 -0.022859 283007.000000 0 0 1
-17.687711 19.096118 -23.064571 34.777740 -0.823668 2.295882 0.081174 -0.022303 -57369.100000 0 0 1
-18.929911 20.005318 -23.283271 36.064733 -0.813012 2.272601 0.067509 -0.017603 347569.000000 0 0 1
-18.650911 21.399618 -23.560071 36.890067 -0.853922 2.263547 0.063691 -0.016808 334430.000000 0 0 1
-19.844011 22.113018 -23.857271 38.104326 -0.839425 2.247343 0.066393 -0.019684 520335.000000 0 0 1
-19.467811 23.545218 -24.127371 38.929461 -0.879910 2.239248 0.060476 -0.021878 196603.000000 0 0 1
-18.973411 24.192218 -22.954271 38.368636 -0.905716 2.212119 0.067080 -0.016550 127545.000000 0 0 1
-18.105211 25.271818 -23.231171 38.809158 -0.949136 2.212549 0.064037 -0.015973 52349.000000 0 0 1
-17.014711 25.521418 -22.151071 37.835341 -0.982782 2.196243 0.055291 -0.017202 832855.000000 0 0 1
-15.912811 24.588518 -22.035971 36.652377 -0.996417 2.215817 0.063326 -0.029905 697143.000000 0 0 1
-16.231011 23.236018 -21.710071 35.702736 -0.961059 2.224434 0.085320 -0.017273 -1279830.000000 0 0 1
-14.981911 22.409218 -21.583471 34.532259 -0.981484 2.245958 0.095465 -0.024201 -600930.000000 0 0 1
-14.174211 22.817918 -20.505871 33.794324 -1.014943 2.222805 0.103978 -0.030397 -322336.000000 0 0 1
-13.100911 21.906718 -20.399271 32.675195 -1.031825 2.245037 0.105792 -0.033231 -315974.000000 0 0 1
-12.167411 22.118618 -19.211671 31.723295 -1.067878 2.221318 0.094823 -0.036879 -139470.000000 0 0 1
-12.682611 21.877018 -17.901071 30.982267 -1.045420 2.186808 0.118376 -0.031798 317199.000000 0 0 1
-13.704311 22.777218 -17.445571 31.795561 -1.029152 2.151580 0.118090 -0.040338 347207.000000 0 0 1
-14.337011 22.395618 -16.085671 31.078326 -1.001362 2.114822 0.126621 -0.038747 83181.000000 0 0 1
-13.567411 22.832818 -14.972371 30.489081 -1.034648 2.084118 0.126874 -0.047615 -216904.000000 0 0 1
-14.171611 22.717818 -13.741071 30.095694 -1.013053 2.044943 0.145658 -0.046171 -33940.000000 0 0 1
-13.289111 23.397018 -12.644571 29.730558 -1.054251 2.010096 0.198741 -0.052943 45017.100000 0 0 1
-13.166911 24.756518 -12.844071 30.841901 -1.081990 2.000332 0.167333 -0.060225 224371.000000 0 0 1
-12.445811 25.302818 -11.768671 30.555399 -1.113670 1.966176 0.120320 -0.049415 -401877.000000 0 0 1
-11.856511 26.729918 -11.943371 31.586539 -1.153305 1.958557 0.135334 -0.049970 17626.000000 0 0 1
-10.821611 26.767118 -12.901471 31.623311 -1.186599 1.991030 0.127097 -0.054495 181222.000000 0 0 1
-10.756111 28.109718 -13.320771 32.913418 -1.205338 1.987471 0.108763 -0.033441 -595460.000000 0 0 1
-10.134811 28.362518 -14.725371 33.525861 -1.227605 2.025531 0.122621 -0.056003 -34387.600000 0 0 1
-8.742411 28.336718 -14.877971 33.177603 -1.271543 2.035809 0.117099 -0.061936 -144010.000000 0 0 1
-8.002911 27.128918 -14.610871 31.835551 -1.283937 2.047607 0.122397 -0.058669 216810.000000 0 0 1
-6.554411 27.302518 -15.150971 31.905167 -1.335189 2.065618 0.128632 -0.060111 492551.000000 0 0 1
-5.727011 28.222218 -14.451871 32.220316 -1.370589 2.035919 0.125666 -0.050278 -317238.000000 0 0 1
-4.466111 28.249918 -15.103771 32.343900 -1.414001 2.056662 0.135914 -0.052353 127270.000000 0 0 1
-3.411411 28.982518 -14.237971 32.470661 -1.453630 2.024711 0.110338 -0.039438 -218609.000000 0 0 1
-3.489611 30.422118 -14.117771 33.719343 -1.456589 2.002793 0.102878 -0.032978 -673595.000000 0 0 1
-4.635411 31.001418 -13.586671 34.163907 -1.422373 1.979795 0.089911 -0.036263 -476020.000000 0 0 1
-4.688411 32.478618 -14.072871 35.705567 -1.427433 1.975925 0.086442 -0.038573 705187.000000 0 0 1
-3.636811 33.339118 -13.565571 36.176620 -1.462141 1.955173 0.063465 -0.034722 477620.000000 0 0 1
-3.838611 -33.067080 -13.850471 36.055544 1.455228 1.965075 0.067613 -0.037069 500329.000000 0 0 1
-2.874211 -32.157780 -13.036971 34.818766 1.481655 1.954571 0.061015 -0.032379 423646.000000 0 0 1
-3.286811 -32.098080 -11.681571 34.315433 1.468753 1.918157 0.059044 -0.031673 915893.000000 0 0 1
-2.212211 -31.573780 -10.868371 33.465190 1.500846 1.901561 0.046714 -0.038556 593277.000000 0 0 1
-2.653511 -31.590780 -9.391471 33.063851 1.486997 1.858802 0.040349 -0.031671 -445459.000000 0 0 1
-1.558411 -31.273980 -8.587771 32.469066 1.521007 1.838472 0.043921 -0.033905 -435845.000000 0 0 1
-1.924711 -31.171680 -7.205471 32.051473 1.509129 1.797544 0.042354 -0.036934 126824.000000 0 0 1
-0.746211 -30.809480 -6.256471 31.447167 1.546581 1.771085 0.061894 -0.032498 -27361.500000 0 0 1
-0.945911 -30.874780 -4.874571 31.271524 1.540169 1.727313 0.071725 -0.030155 -825498.000000 0 0 1
0.093289 -30.292380 -4.162771 30.577208 -1.567717 1.707360 0.075743 -0.020225 -673463.000000 0 0 1
-0.131911 -30.339280 -2.649171 30.455006 1.566449 1.657893 0.079925 -0.010134 -308004.000000 0 0 1
0.046089 -31.552980 -1.986471 31.615482 -1.569336 1.633670 0.090078 -0.018382 885136.000000 0 0 1
1.276089 -32.317480 -2.074371 32.409118 -1.531331 1.634846 0.081484 -0.021663 1259510.000000 0 0 1
2.670389 -31.781880 -1.674171 31.937779 -1.486971 1.623240 0.086674 -0.024389 -318208.000000 0 0 1
2.939089 -32.048880 -0.322271 32.184978 -1.479346 1.580810 0.065934 -0.015660 238999.000000 0 0 1
4.284989 -31.905080 0.140229 32.191846 -1.437291 1.566440 0.056071 -0.014638 692668.000000 0 0 1
4.727889 -30.418980 0.349229 30.786186 -1.416604 1.559452 0.041084 -0.014546 -710820.000000 0 0 1
4.975489 -29.736380 -0.831171 30.161211 -1.405012 1.598357 0.050819 -0.023773 61434.700000 0 0 1
4.533389 -28.404980 -0.799771 28.775582 -1.412533 1.598593 0.081053 -0.015327 -286354.000000 0 0 1
4.097889 -27.818580 -2.192471 28.204131 -1.424541 1.648611 0.095572 -0.014469 683822.000000 0 0 1
2.835589 -28.313880 -2.697671 28.583103 -1.470981 1.665317 0.096279 -0.015955 672199.000000 0 0 1
2.200889 -27.366180 -3.481471 27.674399 -1.490545 1.696932 0.097680 -0.020089 -260379.000000 0 0 1
2.576889 -27.360380 -4.962971 27.926006 -1.476890 1.749464 0.085684 -0.028207 -155873.000000 0 0 1
1.855489 -28.245680 -5.765471 28.887747 -1.505199 1.771728 0.089654 -0.032375 -209112.000000 0 0 1
2.348889 -28.064780 -7.068871 29.036496 -1.487296 1.816715 0.094906 -0.045757 76358.300000 0 0 1
1.619189 -28.802180 -8.233071 29.999513 -1.514638 1.848804 0.064809 -0.041905 -501437.000000 0 0 1
0.361789 -28.247980 -8.459671 29.489749 -1.557989 1.861752 0.071028 -0.044935 -772567.000000 0 0 1
-0.064611 -28.421980 -9.807871 30.066717 1.568523 1.903081 0.087481 -0.044052 903722.000000 0 0 1
-1.514211 -27.843380 -10.015671 29.628707 1.516467 1.915629 0.051076 -0.043412 -23308.700000 0 0 1
-1.547711 -26.478780 -9.671271 28.232157 1.512412 1.920439 0.064372 -0.035699 -53705.400000 0 0 1
-2.804611 -25.816580 -9.677671 27.713155 1.462585 1.927523 0.067883 -0.031513 686155.000000 0 0 1
-3.899111 -26.309580 -8.689871 27.980545 1.423666 1.886587 0.056592 -0.028343 -671606.000000 0 0 1
-3.586711 -26.145880 -7.284971 27.377771 1.434467 1.840132 0.064662 -0.025603 -459526.000000 0 0 1
-2.946311 -27.314680 -6.877071 28.320780 1.463346 1.816076 0.080528 -0.023890 97773.100000 0 0 1
-2.403011 -27.295080 -5.428971 27.933306 1.482984 1.766396 0.073956 -0.010249 443551.000000 0 0 1
-3.431311 -27.391180 -4.446671 27.961107 1.446175 1.730505 0.072257 -0.014266 -29641.700000 0 0 1
-2.931311 -27.258880 -3.148071 27.596186 1.463672 1.685122 0.072159 0.003949 -319298.000000 0 0 1
-3.954911 -27.386880 -2.018171 27.744468 1.427379 1.643602 0.091511 -0.005070 -65858.600000 0 0 1
-4.719611 -26.187180 -1.899971 26.676825 1.392484 1.642078 0.072802 0.002506 29862.800000 0 0 1
-5.540411 -26.206980 -0.730871 26.796196 1.362454 1.598075 0.088747 -0.010669 -57907.300000 0 0 1
-6.448711 -24.999680 -0.501771 25.822890 1.318348 1.590229 0.064770 -0.006038 -51753.300000 0 0 1
-5.853211 -23.735380 -0.350671 24.448953 1.329018 1.585140 0.053050 -0.010079 -2901.760000 0 1 0
-6.768311 -23.002680 0.453529 23.982056 1.284632 1.551884 0.071021 -0.013757 372424.000000 0 1 0
-6.300511 -21.522980 0.618329 22.434737 1.286019 1.543232 0.049475 -0.023113 738868.000000 0 1 0
-5.201111 -21.509080 1.542529 22.182684 1.333541 1.501203 0.039294 -0.026289 125713.000000 0 1 0
-4.506811 -20.319780 1.599729 20.874959 1.352535 1.494087 0.018912 -0.019377 -69004.300000 0 1 0
-3.374111 -20.238080 2.669429 20.690344 1.405595 1.441418 0.022581 -0.013255 -20575.800000 0 1 0
-3.863411 -20.243680 4.011929 20.995907 1.382219 1.378532 0.016808 -0.006092 179572.000000 0 1 0
-2.871311 -20.071980 5.013829 20.887012 1.428710 1.328384 0.033898 -0.013528 286063.000000 0 1 0
-1.980111 -21.315580 5.309829 22.056044 1.478167 1.327665 0.047753 -0.024709 87067.900000 0 1 0
-1.182411 -21.720280 4.224329 22.158827 1.516412 1.378984 0.066553 -0.025652 -431217.000000 0 1 0
-0.374211 -22.846380 4.516129 23.291469 1.554418 1.375664 0.078782 -0.024584 -632685.000000 0 1 0
0.679489 -22.954280 3.382629 23.212127 -1.541203 1.424549 0.085809 -0.034000 488931.000000 0 1 0
1.853089 -22.150280 3.367629 22.481320 -1.487331 1.420434 0.054966 -0.034802 343598.000000 0 1 0
2.777289 -22.564180 4.346229 23.146172 -1.448328 1.381902 0.080715 -0.035287 -590528.000000 0 1 0
4.018589 -21.654380 4.528429 22.484837 -1.387305 1.368010 0.083299 -0.034023 206826.000000 0 1 0
4.926489 -21.672180 3.482929 22.496321 -1.347276 1.415349 0.057430 -0.021691 -7249.460000 0 1 0
6.128889 -20.924580 3.737129 22.121651 -1.285862 1.401047 0.075168 -0.017361 917911.000000 0 1 0
6.788889 -20.513780 2.398529 21.740679 -1.251199 1.460247 0.076327 -0.016537 -146166.000000 0 1 0
7.451789 -21.597180 1.794929 22.917005 -1.238551 1.492393 0.078440 -0.015431 -333342.000000 0 1 0
7.330789 -21.541480 0.374029 22.757762 -1.242780 1.554360 0.077614 -0.023438 -138636.000000 0 1 0
8.255489 -22.442580 -0.478371 23.917595 -1.218309 1.590798 0.073636 -0.018138 161518.000000 0 1 0
9.502289 -21.804580 -0.701371 23.795485 -1.159819 1.600276 0.073311 -0.018595 -348404.000000 0 1 0
10.190889 -22.462980 -1.739871 24.727856 -1.144891 1.641215 0.073145 -0.021713 -353151.000000 0 1 0
11.586789 -21.936180 -2.050371 24.892844 -1.084841 1.653258 0.074916 -0.014841 -374381.000000 0 1 0
11.562889 -20.843580 -2.933671 24.015863 -1.064317 1.693258 0.073118 -0.008933 -56457.100000 0 1 0
12.750289 -20.888880 -3.689271 24.749261 -1.022775 1.720420 0.071920 -0.002620 -141667.000000 0 1 0
12.990089 -19.545180 -4.464271 23.889039 -0.984213 1.758777 0.071646 -0.019032 -162669.000000 0 1 0
13.283789 -18.507280 -3.589571 23.062166 -0.948250 1.727079 0.096013 -0.016831 152281.000000 0 1 0
13.374889 -17.306580 -4.349671 22.300785 -0.912849 1.767100 0.107791 -0.025396 -715345.000000 0 1 0
13.803689 -16.004580 -3.649171 21.447724 -0.859099 1.741771 0.122409 -0.019819 -37642.000000 0 1 0
15.167989 -15.850980 -3.350171 22.193357 -0.807413 1.722329 0.101357 -0.017623 6739.000000 0 1 0
15.997689 -15.573880 -4.480071 22.771536 -0.771975 1.768828 0.098204 -0.019681 -233352.000000 0 1 0
17.460789 -15.362080 -4.012471 23.600267 -0.721545 1.741644 0.091973 -0.018115 25898.900000 0 1 0
18.127389 -16.420380 -3.393671 24.693078 -0.736028 1.708667 0.087348 -0.016639 414401.000000 0 1 0
19.478689 -16.056380 -3.165671 25.441072 -0.689386 1.695551 0.062192 -0.007746 90292.800000 0 0 1
20.283989 -16.908380 -2.191871 26.497883 -0.694885 1.653610 0.060399 -0.019084 -645877.000000 0 0 1
21.611689 -16.513480 -2.039971 27.274926 -0.652464 1.645659 0.061037 -0.016413 -680521.000000 0 0 1
22.317589 -17.458980 -1.313471 28.365754 -0.663853 1.617118 0.061466 -0.014677 -749346.000000 0 0 1
23.802689 -17.426680 -1.665071 29.547075 -0.631966 1.627179 0.081621 -0.016779 -725377.000000 0 0 1
24.482689 -16.273380 -1.281271 29.425612 -0.586632 1.614353 0.086303 -0.023615 926936.000000 0 0 1
25.777789 -16.612980 -0.730771 30.676042 -0.572477 1.594621 0.127352 -0.027275 776114.000000 0 0 1
26.469389 -15.412980 -0.025571 30.629874 -0.527299 1.571631 0.113142 -0.026337 249144.000000 0 0 1
25.818289 -14.958180 1.182229 29.861830 -0.525108 1.531196 0.102285 -0.024826 788708.000000 0 0 1
26.504889 -13.777080 1.664729 29.918028 -0.479357 1.515125 0.091054 -0.026168 652023.000000 0 0 1
25.645489 -12.944580 2.692029 28.853081 -0.467441 1.477359 0.102934 -0.033003 200807.000000 0 0 1
25.178389 -13.635580 3.822929 28.887629 -0.496339 1.438069 0.106659 -0.029829 -133479.000000 0 0 1
26.185489 -14.039680 4.701529 30.081503 -0.492157 1.413860 0.123321 -0.030483 -309682.000000 0 0 1
25.631389 -14.717880 5.964629 30.152295 -0.521243 1.371666 0.107801 -0.028206 38668.600000 0 0 1
25.132989 -16.001680 5.672129 30.329754 -0.566955 1.382673 0.113715 -0.034500 199674.000000 0 0 1
24.262889 -16.320180 6.783929 30.017624 -0.592126 1.342829 0.096294 -0.027616 -27095.000000 0 0 1
23.575989 -17.664880 6.501329 30.168569 -0.643036 1.353592 0.090685 -0.026833 -129780.000000 0 0 1
24.491789 -18.729680 6.627529 31.536848 -0.652864 1.359066 0.096029 -0.025784 33822.800000 0 0 1
23.799189 -19.956580 6.493129 31.730541 -0.697803 1.364707 0.059332 -0.014827 20786.200000 0 0 1
1.585789 23.217518 -3.017071 23.466371 1.502601 1.699723 0.049725 -0.021322 -79540.500000 0 1 0
2.482689 24.212918 -2.645871 24.483255 1.468618 1.679076 0.059097 -0.023104 -374912.000000 0 1 0
3.372789 24.452518 -3.723871 24.963344 1.433729 1.720529 0.073732 -0.023178 419733.000000 0 1 0
4.497789 25.482118 -3.406271 26.099255 1.396088 1.701682 0.055886 -0.017663 581434.000000 0 0 1
5.471989 25.066518 -2.455971 25.774110 1.355869 1.666229 0.041113 -0.017801 102302.000000 0 0 1
6.259589 26.118318 -1.893571 26.924609 1.335570 1.641183 0.034409 -0.018997 939067.000000 0 0 1
7.454889 25.523918 -1.044171 26.610826 1.286626 1.610045 0.019314 -0.029965 1462460.000000 0 0 1
8.539289 24.967118 -1.828371 26.450319 1.241247 1.639976 0.023287 -0.028131 827412.000000 0 0 1
9.545389 24.326318 -1.020071 26.151955 1.196868 1.609812 0.017213 -0.026911 -308107.000000 0 0 1
10.729789 23.969918 -1.883971 26.329350 1.149910 1.642412 0.035747 -0.024679 -1177010.000000 0 0 1
11.583889 25.106618 -2.114671 27.730860 1.138513 1.647127 0.039364 -0.018369 255549.000000 0 0 1
12.452489 24.987818 -3.228571 28.104789 1.108476 1.685927 0.055444 -0.018088 990023.000000 0 0 1
13.578889 23.876318 -3.241571 27.658137 1.053696 1.688268 0.049302 -0.019159 -69425.700000 0 0 1
13.100589 22.559718 -3.521171 26.324227 1.044684 1.704960 0.063906 -0.021957 -43186.700000 0 0 1
12.874789 22.337018 -4.906071 26.244468 1.047920 1.758840 0.087911 -0.029243 29518.200000 0 0 1
11.995689 21.062118 -5.148471 24.779348 1.053076 1.780094 0.091495 -0.031652 130299.000000 0 1 0
10.622489 21.332718 -5.018071 24.353709 1.108795 1.778332 0.083623 -0.029393 -621421.000000 0 1 0
9.809189 20.204218 -5.076471 23.026097 1.118814 1.793088 0.064843 -0.022898 -250110.000000 0 1 0
8.340889 20.534218 -4.771471 22.671380 1.184961 1.782844 0.054023 -0.023248 -270228.000000 0 1 0
7.960089 20.949918 -3.467271 22.677831 1.207686 1.724291 0.051898 -0.027208 -299355.000000 0 1 0
6.645589 21.429018 -3.530771 22.711957 1.270080 1.726888 0.046596 -0.018991 -135770.000000 0 1 0
6.015889 22.036318 -2.264971 22.954745 1.304292 1.669628 0.038927 -0.022340 218480.000000 0 1 0
5.403889 21.145818 -1.331371 21.865959 1.320598 1.631722 0.028109 -0.028446 -94032.900000 0 1 0
4.756889 21.877118 -0.343171 22.390936 1.356692 1.586123 0.047077 -0.020800 -170726.000000 0 1 0
4.309589 21.066018 0.882629 21.520425 1.369005 1.529771 0.025223 -0.019044 -168875.000000 0 1 0
3.723989 21.920818 1.869829 22.313373 1.402519 1.486899 0.033464 -0.013417 268574.000000 0 1 0
3.420789 21.111518 3.026929 21.600006 1.410158 1.430198 0.036028 -0.009525 478632.000000 0 1 0
2.300389 21.699918 3.975129 22.180619 1.465182 1.390606 0.028303 -0.009323 414190.000000 0 1 0
1.014089 21.700018 3.401629 21.988411 1.524098 1.415472 0.031666 -0.011680 -483082.000000 0 1 0
0.099989 22.160118 4.340529 22.581431 1.566284 1.377376 0.038960 -0.020163 108747.000000 0 1 0
-1.349711 22.385118 3.832329 22.750867 -1.510574 1.401542 0.033935 -0.016077 759456.000000 0 1 0
-2.308611 22.682018 4.849929 23.309342 -1.469364 1.361197 0.052543 -0.024029 -17749.200000 0 1 0
-3.588411 22.845918 4.303629 23.523050 -1.414999 1.386806 0.061774 -0.020293 777959.000000 0 1 0
-4.798311 22.997418 5.331529 24.090044 -1.365102 1.347632 0.069515 -0.036276 747278.000000 0 1 0
-5.206711 24.240318 5.749229 25.451060 -1.359216 1.342936 0.094402 -0.031537 147286.000000 0 0 1
-6.301411 24.205618 6.667229 25.885742 -1.316121 1.310296 0.103737 -0.037601 637841.000000 0 0 1
-6.835511 25.550918 7.249429 27.424949 -1.309393 1.303280 0.120503 -0.045389 979050.000000 0 0 1
-5.763411 26.261718 7.933229 28.032675 -1.354761 1.283876 0.109211 -0.044151 791112.000000 0 0 1
-6.279111 27.372318 8.632329 29.380063 -1.345301 1.272580 0.128230 -0.037129 -54348.700000 0 0 1
-6.489611 28.650818 7.743529 30.380037 -1.348048 1.313064 0.146033 -0.041879 -183505.000000 0 0 1
-7.671011 28.559518 7.010629 30.391436 -1.308392 1.338022 0.129800 -0.049357 -792508.000000 0 0 1
-7.674711 29.633718 6.091229 31.211560 -1.317379 1.374376 0.148043 -0.046217 179113.000000 0 0 1
-9.038611 29.770218 5.330729 31.565472 -1.276029 1.401105 0.133375 -0.049897 897883.000000 0 0 1
-10.101211 30.309318 6.098029 32.524993 -1.249102 1.382193 0.118029 -0.046288 -160335.000000 0 0 1
-10.815511 29.334018 6.776129 31.990245 -1.217559 1.357361 0.097707 -0.048633 -227964.000000 0 0 1
-11.898511 29.813818 7.794229 33.033139 -1.191071 1.332598 0.071772 -0.049501 198696.000000 0 0 1
-11.282411 30.350818 8.973829 33.600514 -1.214893 1.300441 0.074627 -0.038875 556492.000000 0 0 1
-12.254811 30.589918 10.005129 34.438729 -1.189759 1.276026 0.084188 -0.030767 486118.000000 0 0 1
-11.594411 30.991018 11.374529 34.989333 -1.212796 1.239694 0.069529 -0.035098 147323.000000 0 0 1
-10.898711 32.227118 11.277329 35.840580 -1.244686 1.250706 0.062681 -0.033721 28622.300000 0 0 1
-10.230011 32.519418 12.477829 36.302367 -1.266016 1.219922 0.053809 -0.035736 105215.000000 0 0 1
-9.823211 -33.763080 12.582229 37.346399 1.287667 1.227167 0.056583 -0.035439 250636.000000 0 0 1
-10.819811 -32.950880 13.176229 37.100429 1.253527 1.207721 0.055139 -0.026434 188202.000000 0 0 1
-10.362411 -31.610580 13.316629 35.832122 1.254021 1.190022 0.058463 -0.016201 191122.000000 0 0 1
-11.410311 -30.701580 14.036829 35.634461 1.214964 1.165913 0.047212 -0.019445 -719.143000 0 0 1
-11.417111 -30.686480 15.484329 36.218433 1.214609 1.129042 0.046275 -0.021827 -371824.000000 0 0 1
-10.279611 -30.079580 16.013029 35.593098 1.241493 1.104153 0.070425 -0.018510 -331186.000000 0 0 1
-10.148411 -30.298680 17.555229 36.458008 1.247595 1.068409 0.063134 -0.028783 -1320.640000 0 0 1
-11.001711 -29.453080 18.309529 36.383519 1.213312 1.043456 0.082969 -0.034055 79643.200000 0 0 1
-11.615011 -30.116480 19.362729 37.640751 1.202704 1.030478 0.070058 -0.037068 -221416.000000 0 0 1
-11.947711 -29.308180 20.599029 37.762908 1.183706 0.993831 0.084453 -0.040014 852396.000000 0 0 1
-10.747411 -28.748980 21.188429 37.295579 1.213046 0.966575 0.082673 -0.039316 915685.000000 0 0 1
-11.009011 -27.906380 22.292229 37.375230 1.195042 0.931733 0.077263 -0.036796 114408.000000 0 0 1
-9.931311 -28.005180 23.396429 37.819492 1.230008 0.903793 0.105846 -0.042263 180391.000000 0 0 1
-9.843111 -29.231280 24.111529 39.149973 1.245990 0.907299 0.099149 -0.024955 1005980.000000 0 0 1
-8.585311 -29.191780 24.834529 39.276220 1.284761 0.886272 0.119950 -0.033822 1107880.000000 0 0 1
-8.463711 -30.356180 25.833429 40.749210 1.298888 0.884131 0.113682 -0.034008 -78981.100000 0 0 1
-8.474711 -31.640480 25.225829 41.343478 1.309095 0.914543 0.131176 -0.028144 305799.000000 0 0 1
-8.453311 -32.636480 26.228329 42.714442 1.317352 0.909629 0.139861 -0.023205 -255414.000000 0 0 1
-8.421811 33.686318 25.691929 43.194561 -1.325811 0.933785 0.125874 -0.016349 -594066.000000 0 0 1
-7.191611 33.296418 25.165929 42.352033 -1.358076 0.934515 0.120680 -0.013258 -473304.000000 0 0 1
-7.070311 31.917118 24.720529 40.985318 -1.352796 0.923345 0.106927 -0.008496 219525.000000 0 0 1
-7.902611 31.436118 23.470729 40.019444 -1.324513 0.944086 0.099748 -0.017092 204419.000000 0 0 1
-9.222311 30.996518 23.702329 40.095331 -1.281610 0.938313 0.103697 -0.015973 264571.000000 0 0 1
-9.914311 30.730118 22.475829 39.342046 -1.258714 0.962716 0.090887 -0.020682 161845.000000 0 0 1
-10.604011 29.360918 22.455129 38.454406 -1.224214 0.947221 0.094660 -0.027819 -169223.000000 0 0 1
-9.755411 28.255118 22.215229 37.242934 -1.238349 0.931669 0.083436 -0.026505 -124718.000000 0 0 1
-10.258611 27.012318 22.707529 36.749643 -1.207846 0.904730 0.072420 -0.026511 -574466.000000 0 0 1
-9.489411 25.713718 22.363329 35.374605 -1.217260 0.886425 0.065438 -0.026902 -767079.000000 0 0 1
-8.287611 25.658118 23.069929 35.485844 -1.258373 0.863059 0.057696 -0.040248 -490030.000000 0 0 1
-7.832711 24.349718 23.058929 34.437978 -1.259574 0.837155 0.060421 -0.040185 -591520.000000 0 0 1
-6.408511 24.110818 23.552329 34.309077 -1.311009 0.814166 0.058476 -0.036769 -161073.000000 0 0 1
-5.412211 24.599218 22.639429 33.866758 -1.354231 0.838626 0.058901 -0.038615 -388998.000000 0 0 1
-4.172011 24.461618 23.277229 34.023607 -1.401868 0.817360 0.087127 -0.026642 -310988.000000 0 0 1
-3.099411 25.144318 22.376029 33.801328 -1.448150 0.847330 0.082386 -0.037519 -50002.000000 0 0 1
-2.772711 24.408518 21.143829 32.411806 -1.457685 0.860116 0.078301 -0.034340 254862.000000 0 0 1
-1.843111 25.065018 20.309229 32.312799 -1.497395 0.891148 0.089419 -0.031804 237983.000000 0 0 1
-0.992011 24.193618 19.325429 30.980436 -1.529816 0.897208 0.076960 -0.031898 -229678.000000 0 0 1
-0.049611 23.319818 19.913229 30.665177 -1.568669 0.864033 0.074808 -0.032940 -209051.000000 0 0 1
0.176789 22.324818 18.961729 29.291226 1.562878 0.866691 0.058569 -0.024304 -256344.000000 0 0 1
1.437089 21.495918 19.238829 28.883772 1.504042 0.841859 0.065253 -0.024223 793988.000000 0 0 1
2.695589 22.109518 18.909129 29.217326 1.449475 0.866905 0.074088 -0.034193 450093.000000 0 0 1
3.792389 21.309618 19.301629 29.000602 1.394674 0.842553 0.087136 -0.027983 631554.000000 0 0 1
5.153689 21.928318 18.839929 29.365874 1.339961 0.874268 0.087416 -0.028540 290236.000000 0 0 1
6.177389 20.981318 18.916029 28.916985 1.284464 0.857739 0.093296 -0.027422 937620.000000 0 0 1
7.500989 21.529318 18.658429 29.460369 1.235540 0.884935 0.104552 -0.030978 1429090.000000 0 0 1
8.671189 20.540318 18.458529 28.944973 1.171338 0.879273 0.106211 -0.019733 -27988.000000 0 0 1
9.094489 19.788918 19.620029 29.313078 1.140009 0.837494 0.112515 -0.028160 248793.000000 0 0 1
10.044489 18.824218 19.182429 28.691611 1.080636 0.838508 0.093556 -0.022954 389341.000000 0 0 1
10.612789 17.934418 20.346729 29.124973 1.036461 0.797356 0.103986 -0.027825 -220448.000000 0 0 1
9.656689 16.992218 20.712029 28.477628 1.054011 0.756404 0.119777 -0.030409 26776.400000 0 0 1
10.207189 16.016418 21.569129 28.739166 1.003404 0.721958 0.117826 -0.039405 -109958.000000 0 0 1
9.114489 15.059718 22.056829 28.220077 1.026545 0.673569 0.097917 -0.033704 59203.200000 0 0 1
8.213589 15.727218 22.950229 29.008989 1.089505 0.658122 0.105074 -0.020958 156247.000000 0 0 1
7.031489 15.026518 23.268129 28.576982 1.133125 0.619401 0.086385 -0.021405 61965.700000 0 0 1
7.112689 13.799318 24.229929 28.776744 1.094875 0.569822 0.089522 -0.023432 -504620.000000 0 0 1
7.469589 14.122718 25.556429 30.139293 1.084292 0.558702 0.096008 -0.027103 -59755.700000 0 0 1
7.858989 12.941818 26.260829 30.313125 1.025059 0.523012 0.093666 -0.033393 -411955.000000 0 0 1
8.875089 13.277218 27.385329 31.701861 0.981564 0.527954 0.066138 -0.028352 -77280.700000 0 0 1
10.178189 13.607118 26.983429 31.888158 0.928573 0.562003 0.097268 -0.028178 -149936.000000 0 0 1
10.378189 14.827918 26.280729 31.910041 0.960132 0.603088 0.090673 -0.026108 -756511.000000 0 0 1
11.809489 14.845118 25.687929 31.932918 0.898797 0.636074 0.108727 -0.033825 262894.000000 0 0 1
11.878489 13.881318 24.666429 30.695639 0.862992 0.637509 0.111159 -0.039663 40932.000000 0 0 1
13.206389 13.619918 24.261729 30.798415 0.800812 0.663634 0.113168 -0.040364 -148290.000000 0 0 1
13.211689 12.453718 23.246229 29.496288 0.755874 0.663069 0.093760 -0.040616 100966.000000 0 0 1
12.862989 11.146218 23.802129 29.261511 0.714015 0.620775 0.095277 -0.036308 -113849.000000 0 0 1
11.476689 10.971618 23.889529 28.684498 0.762903 0.586582 0.112955 -0.036604 -685434.000000 0 0 1
11.037489 9.639118 24.471229 28.523321 0.717870 0.539555 0.096895 -0.034015 -217797.000000 0 0 1
11.361889 8.546518 23.660829 27.603810 0.644913 0.541070 0.096608 -0.027882 280908.000000 0 0 1
10.751889 7.376718 24.166529 27.459793 0.601326 0.494788 0.109471 -0.029808 72860.600000 0 0 1
10.809989 6.126918 23.277129 26.385976 0.515637 0.490329 0.123715 -0.039745 748936.000000 0 0 1
12.160289 5.633218 23.152229 26.751290 0.433815 0.524724 0.126821 -0.031821 984192.000000 0 0 1
12.363089 4.453218 22.429629 25.995488 0.345735 0.529959 0.144404 -0.030688 -50943.700000 0 0 1
12.173389 3.179618 23.265229 26.449429 0.255486 0.495751 0.156659 -0.035679 -167089.000000 0 0 1
13.193889 3.109818 24.235229 27.768616 0.231477 0.509976 0.162373 -0.034046 67945.800000 0 0 1
13.312889 1.802618 24.854629 28.253054 0.134585 0.495534 0.162109 -0.029668 -414920.000000 0 0 1
14.713789 1.540418 25.424029 29.415128 0.104312 0.527003 0.155319 -0.026427 -468330.000000 0 0 1
15.616189 1.172618 24.442929 29.029247 0.074949 0.569797 0.161346 -0.033017 -174162.000000 0 0 1
16.964989 1.343218 24.844629 30.114294 0.079011 0.600574 0.154425 -0.035461 504751.000000 0 0 1
18.057589 0.696118 23.927029 29.984393 0.038531 0.646856 0.140472 -0.036207 271873.000000 0 0 1
18.146789 -0.735182 24.060729 30.145732 -0.040491 0.646583 0.136415 -0.034119 189085.000000 0 0 1
19.205689 -1.318882 23.334129 30.250282 -0.068564 0.689807 0.114935 -0.022351 -204164.000000 0 0 1
19.248689 -2.841982 23.689329 30.655721 -0.146586 0.687628 0.106389 -0.015380 22276.600000 0 0 1
18.291589 -3.672682 23.038629 29.645392 -0.198151 0.680687 0.095267 -0.007201 330191.000000 0 0 1
18.532989 -4.998282 23.386629 30.255395 -0.263429 0.687281 0.086971 -0.002726 -295337.000000 0 0 1
17.418189 -5.977582 23.034829 29.491154 -0.330587 0.674409 0.090807 -0.008916 -363242.000000 0 0 1
17.398589 -6.073482 21.628329 28.414481 -0.335854 0.705677 0.088161 -0.006782 208000.000000 0 0 1
16.636089 -7.161082 21.093329 27.802322 -0.406482 0.709497 0.101667 -0.020127 56812.200000 0 0 1
17.168389 -8.640382 21.241129 28.646036 -0.466262 0.735488 0.105198 -0.020195 -141394.000000 0 0 1
17.138189 -9.080282 22.549929 29.743375 -0.487224 0.710326 0.100425 -0.010720 -89603.700000 0 0 1
17.735789 -10.331082 22.655429 30.570541 -0.527452 0.736108 0.080459 -0.015964 -475876.000000 0 0 1
17.265289 -11.200982 23.857429 31.507605 -0.575501 0.711787 0.095662 -0.038014 181881.000000 0 0 1
16.164289 -11.948582 23.342929 30.804955 -0.636551 0.710915 0.110012 -0.029874 81636.600000 0 0 1
15.577289 -12.744282 24.328529 31.574452 -0.685700 0.691151 0.123181 -0.022340 589527.000000 0 0 1
14.391589 -13.643082 23.791429 30.972305 -0.758705 0.694847 0.155121 -0.028900 450796.000000 0 0 1
14.809989 -14.481182 22.753229 30.769301 -0.774173 0.738501 0.144634 -0.035930 -530244.000000 0 0 1
13.720089 -15.087582 22.189429 30.137133 -0.832832 0.743237 0.163587 -0.033635 -971201.000000 0 0 1
13.994489 -16.036582 20.960829 29.872631 -0.853293 0.793053 0.140777 -0.036650 579945.000000 0 0 1
14.900489 -17.160382 21.253629 31.116235 -0.855769 0.818880 0.145936 -0.036737 1050160.000000 0 0 1
15.100689 -17.984582 20.114729 30.920517 -0.872344 0.862514 0.127086 -0.025661 -283272.000000 0 0 1
-24.608411 -32.143280 26.025393 48.125725 0.917395 0.999433 0.084711 -0.028197 -624949.000000 0 0 1
-25.015411 -33.507880 25.842063 49.156495 0.929505 1.017247 0.082881 -0.022727 -305559.000000 0 0 1
-26.225391 -33.782480 26.473143 50.297658 0.910674 1.016518 0.082810 -0.032527 -521144.000000 0 0 1
-26.267431 -33.762080 28.011513 51.132190 0.909605 0.991034 0.064855 -0.029031 -1136860.000000 0 0 1
-27.533911 -33.476180 28.503873 51.877178 0.882490 0.989091 0.079570 -0.029489 -343693.000000 0 0 1
-27.658391 -33.612580 29.912163 52.815998 0.882272 0.968730 0.060514 -0.032270 368677.000000 0 0 1
-28.986211 -32.914680 30.371083 53.347720 0.848777 0.965137 0.046918 -0.037700 266682.000000 0 0 1
-29.125041 -31.506780 30.069283 52.393768 0.824660 0.959524 0.029756 -0.026575 -77343.200000 0 0 1
-30.048101 -30.964780 30.959893 53.105752 0.800421 0.948398 0.043553 -0.010507 -543807.000000 0 0 1
-30.187891 -29.485280 30.753423 52.215548 0.773624 0.941012 0.033174 -0.020988 104773.000000 0 0 1
-31.003941 -29.113780 29.644213 51.842414 0.753968 0.962081 0.027096 -0.007157 367203.000000 0 0 1
-31.262181 -27.728480 29.577343 51.195818 0.725567 0.954852 0.016642 0.000788 -87566.700000 0 0 1
-31.897801 -27.181680 28.228823 50.529000 0.705740 0.978020 0.007143 -0.008461 -142949.000000 0 0 1
-31.080341 -27.020580 27.088353 49.293795 0.715637 0.988996 0.034384 -0.006239 -64456.900000 0 0 1
-30.175121 -25.953080 27.175993 48.193722 0.710318 0.971707 0.019498 -0.004577 -133448.000000 0 0 1
-29.125191 -25.959780 26.019083 46.895411 0.727997 0.982635 0.035221 0.005390 -204602.000000 0 0 1
-29.607241 -25.577080 24.788863 46.316989 0.712497 1.006052 0.028128 0.007376 -96243.800000 0 0 1
-28.628361 -25.737080 23.791113 45.254805 0.732266 1.017241 0.037341 0.009948 -371985.000000 0 0 1
-29.127751 -26.177880 22.397573 45.114948 0.732111 1.051285 0.019226 0.016923 148913.000000 0 0 1
-30.026301 -25.177280 21.888873 44.884261 0.697784 1.061373 0.015917 0.015780 359656.000000 0 0 1
-30.404791 -25.583380 20.616673 44.766146 0.699495 1.092191 0.015567 0.014526 6980.440000 0 0 1
-31.022621 -24.436280 19.739773 44.149671 0.667191 1.107264 0.025396 0.002068 -233682.000000 0 0 1
-32.318481 -24.052180 20.083173 45.014724 0.639794 1.108341 0.048078 -0.001333 -429999.000000 0 0 1
-32.818591 -23.055380 19.228873 44.478759 0.612408 1.123737 0.079643 -0.010807 289518.000000 0 0 1
-34.322497 -22.756080 19.518173 45.572273 0.585465 1.128196 0.107460 -0.009695 607747.000000 0 0 1
-35.176756 -23.747280 18.955873 46.482928 0.593808 1.150750 0.102943 -0.021148 -103152.000000 0 0 1
-36.454321 -23.253380 18.622173 47.078897 0.567806 1.164127 0.099626 -0.026301 186522.000000 0 0 1
-37.292711 -24.389680 17.934973 48.034009 0.579187 1.188146 0.111349 -0.034121 56272.100000 0 0 1
36.883899 -25.292780 18.828873 48.524975 -0.601092 1.172309 0.098494 -0.039541 -3694.220000 0 0 1
36.631509 -26.565680 18.333673 48.823421 -0.627448 1.185850 0.109192 -0.040148 -373864.000000 0 0 1
35.960299 -27.595480 19.279273 49.257933 -0.654536 1.168650 0.088895 -0.026343 859793.000000 0 0 1
34.618209 -27.434880 19.769173 48.393318 -0.670150 1.149975 0.075232 -0.016769 822868.000000 0 0 1
34.336609 -26.200980 20.425773 47.777676 -0.651809 1.129052 0.063187 -0.016033 -994966.000000 0 0 1
33.140969 -26.212580 21.363573 47.347919 -0.669193 1.102682 0.052555 -0.009310 289854.000000 0 0 1
31.905049 -26.447980 20.647173 46.300471 -0.692151 1.108574 0.066767 -0.013930 594785.000000 0 0 1
30.756839 -26.159780 21.432773 45.713029 -0.704805 1.082803 0.064478 -0.011653 -77506.800000 0 0 1
30.065649 -24.956880 20.742073 44.238250 -0.692815 1.082783 0.064136 -0.001041 -610680.000000 0 0 1
30.752789 -23.699780 20.636973 43.969288 -0.656590 1.082242 0.069182 -0.001839 12128.800000 0 0 1
31.186599 -23.094280 21.812173 44.516521 -0.637406 1.058730 0.087818 -0.008412 -40139.000000 0 0 1
32.266559 -22.022080 21.561973 44.620864 -0.598887 1.066460 0.090208 -0.009835 446392.000000 0 0 1
31.651319 -20.809480 21.215673 43.415956 -0.581602 1.060242 0.090338 -0.020167 -2396.290000 0 0 1
32.715809 -19.937580 20.994973 43.687758 -0.547315 1.069493 0.095079 -0.015532 -852325.000000 0 0 1
32.292559 -18.479780 20.675473 42.565089 -0.519774 1.063589 0.083087 0.000944 265547.000000 0 0 1
31.751579 -17.652080 21.756573 42.345096 -0.507395 1.031197 0.066631 -0.004611 390351.000000 0 0 1
30.707899 -18.280280 22.477573 42.218302 -0.536953 1.009348 0.070839 -0.003624 -736601.000000 0 0 1
30.674259 -17.885780 24.000773 42.858470 -0.527891 0.976410 0.061205 0.002266 -13528.000000 0 0 1
30.160219 -16.590280 24.246223 42.104104 -0.502898 0.957136 0.069348 -0.002349 241559.000000 0 0 1
30.196999 -16.310180 25.657103 42.850527 -0.495231 0.928847 0.067662 -0.004645 -296804.000000 0 0 1
29.908949 -14.814980 26.062623 42.347245 -0.459909 0.907839 0.061398 -0.008246 467499.000000 0 0 1
28.534239 -14.424080 26.040313 41.235359 -0.468039 0.887304 0.071820 -0.007965 657169.000000 0 0 1
28.311739 -13.012980 26.300483 40.775086 -0.430835 0.869755 0.057360 -0.020518 60883.500000 0 0 1
28.844339 -12.016180 25.239983 40.167664 -0.394723 0.891346 0.077519 -0.031367 -294923.000000 0 0 1
28.199439 -12.173680 24.007753 38.984344 -0.407531 0.907357 0.080247 -0.019430 85599.800000 0 0 1
28.535439 -11.060480 23.205523 38.407054 -0.369776 0.922035 0.088143 -0.013182 -53500.600000 0 0 1
29.836619 -11.134680 22.373073 38.919909 -0.357181 0.958377 0.095945 -0.026065 -45751.400000 0 0 1
29.715539 -12.079480 21.322773 38.517370 -0.386101 0.984129 0.091652 -0.026640 81756.700000 0 0 1
30.240269 -13.393080 21.666173 39.538229 -0.416925 0.990848 0.082604 -0.021173 -373984.000000 0 0 1
29.717239 -14.606680 20.876973 39.144826 -0.456842 1.008268 0.090526 -0.016346 -77604.200000 0 0 1
30.086099 -14.608680 19.470573 38.700002 -0.452031 1.043596 0.092743 -0.015235 -96410.000000 0 0 1
29.894999 -15.823780 18.832973 38.714130 -0.486821 1.062760 0.097208 -0.025352 -256880.000000 0 0 1
30.080469 -15.686580 17.337273 38.098353 -0.480689 1.098350 0.112520 -0.024926 -309700.000000 0 0 1
29.675139 -16.706380 16.469873 37.828214 -0.512751 1.120329 0.094949 -0.025596 811065.000000 0 0 1
28.247939 -16.871280 16.423373 36.773813 -0.538400 1.107829 0.101831 -0.029884 300092.000000 0 0 1
27.451439 -15.984680 15.496673 35.344567 -0.527295 1.116928 0.109370 -0.022946 -562530.000000 0 0 1
27.598439 -16.177680 14.121873 34.968822 -0.530196 1.155084 0.119131 -0.027480 56733.500000 0 0 1
26.535639 -16.987880 13.667273 34.344178 -0.569449 1.161515 0.110363 -0.034826 -157160.000000 0 0 1
26.655639 -17.426880 12.196173 34.102286 -0.579027 1.205062 0.113405 -0.028195 1891.490000 0 0 1
26.230739 -16.374480 11.307873 32.924812 -0.558058 1.220213 0.118102 -0.033402 41522.000000 0 0 1
25.962039 -16.716180 9.965773 32.446491 -0.572054 1.258605 0.106878 -0.033306 -248778.000000 0 0 1
27.209739 -16.865280 9.079873 33.275391 -0.554869 1.294421 0.109328 -0.035717 -156638.000000 0 0 1
28.063139 -17.863980 9.558873 34.612622 -0.566872 1.290992 0.112946 -0.041591 -893436.000000 0 0 1
29.356639 -17.785580 9.035473 35.493364 -0.544706 1.313395 0.120859 -0.030988 -196127.000000 0 0 1
30.307949 -18.811480 9.724373 36.973058 -0.555485 1.304653 0.123967 -0.040089 -45811.500000 0 0 1
30.611739 -18.410680 11.015073 37.381326 -0.541467 1.271688 0.128507 -0.046067 12079.400000 0 0 1
30.882789 -19.540680 11.843973 38.416983 -0.564144 1.257390 0.111875 -0.038848 34640.200000 0 0 1
30.752789 -19.157680 13.334173 38.607654 -0.557129 1.218156 0.121400 -0.031766 80024.600000 0 0 1
30.462609 -20.202780 14.271773 39.240367 -0.585598 1.198558 0.111247 -0.033906 189896.000000 0 0 1
30.653449 -19.720880 15.587373 39.642317 -0.571686 1.166687 0.121937 -0.034910 -7093.570000 0 0 1
30.399399 -20.758880 16.700073 40.422110 -0.599138 1.144895 0.106056 -0.025780 -241997.000000 0 0 1
29.077439 -21.110680 16.983973 39.744353 -0.627974 1.129258 0.050825 -0.009408 -356970.000000 0 0 1
29.070939 -21.955380 18.058773 40.660515 -0.646843 1.110587 0.065731 -0.016449 176517.000000 0 0 1
27.737039 -22.727880 18.103673 40.170174 -0.686462 1.103276 0.038756 -0.001352 4775.610000 0 0 1
26.623839 -21.956680 18.475473 39.144191 -0.689622 1.079255 0.042515 -0.001467 658442.000000 0 0 1
25.394939 -22.643780 18.100373 38.539165 -0.728191 1.081889 0.047052 -0.005155 1514700.000000 0 0 1
24.168739 -22.170980 18.963273 37.885169 -0.742314 1.046567 0.025153 0.006191 337541.000000 0 0 1
23.783539 -20.801380 18.657673 36.694181 -0.718610 1.037396 0.029557 0.003324 69732.000000 0 0 1
22.644639 -20.373980 19.393373 36.110686 -0.732664 1.003856 0.038406 0.010041 194978.000000 0 0 1
22.686839 -20.075780 20.932373 36.822464 -0.724414 0.966154 0.026358 0.012975 -581570.000000 0 0 1
22.756639 -21.219180 21.806173 37.995097 -0.750451 0.959511 0.051648 0.010574 -64613.700000 0 0 1
23.087439 -20.831280 23.109883 38.743242 -0.734072 0.931678 0.053773 0.002100 33740.900000 0 0 1
23.478839 -22.030680 24.047193 40.185498 -0.753588 0.929288 0.067849 -0.002757 597391.000000 0 0 1
22.364839 -22.786380 24.556313 40.279246 -0.794734 0.915175 0.093699 -0.014479 715899.000000 0 0 1
22.814339 -23.898080 25.294703 41.610507 -0.808594 0.917393 0.095144 -0.001006 -432551.000000 0 0 1
21.625739 -24.520780 25.978973 41.759410 -0.848052 0.899361 0.117491 -0.013700 -82795.400000 0 0 1
20.643739 -25.150380 25.155453 41.127879 -0.883493 0.912665 0.120455 -0.019805 274325.000000 0 0 1
19.554639 -25.607480 25.906843 41.343578 -0.918629 0.893584 0.123336 -0.021243 -142791.000000 0 0 1
18.533439 -26.498280 25.152223 40.966835 -0.960459 0.909722 0.127865 -0.024480 160733.000000 0 0 1
17.790039 -25.846580 24.132173 39.583999 -0.967970 0.915184 0.126526 -0.031396 128479.000000 0 0 1
17.377139 -26.754080 23.146733 39.414680 -0.994763 0.943125 0.111153 -0.037423 -399195.000000 0 0 1
16.397439 -26.075880 22.197373 37.967761 -1.009444 0.946363 0.104029 -0.032105 -306193.000000 0 0 1
15.092639 -25.847380 22.681373 37.554221 -1.042289 0.922332 0.085118 -0.036902 37094.200000 0 0 1
14.397039 -25.131380 21.643473 36.156617 -1.050563 0.929040 0.063976 -0.037847 774050.000000 0 0 1
12.929039 -24.727180 21.991673 35.527837 -1.089023 0.903330 0.074626 -0.030137 546025.000000 0 0 1
11.926539 -25.713480 21.955373 35.853365 -1.136506 0.911747 0.063494 -0.035029 -704671.000000 0 0 1
10.718139 -25.041380 22.131973 35.096630 -1.166373 0.888469 0.061988 -0.025958 -402001.000000 0 0 1
9.428339 -25.884980 22.106273 35.321567 -1.221492 0.894566 0.063053 -0.030072 54450.800000 0 0 1
9.224539 -26.561880 20.863673 35.013118 -1.236542 0.932433 0.086925 -0.033217 -544951.000000 0 0 1
7.984939 -27.175280 20.844073 35.167179 -1.285009 0.936372 0.086682 -0.032769 -642383.000000 0 0 1
7.741539 -28.144180 19.693473 35.211634 -1.302368 0.977269 0.131288 -0.035271 -145038.000000 0 0 1
8.421739 -29.356480 19.798073 36.396323 -1.291421 0.995649 0.122391 -0.041337 -47174.400000 0 0 1
8.369639 -30.081280 18.595973 36.342048 -1.299426 1.033642 0.120052 -0.040550 302813.000000 0 0 1
9.191239 -31.411280 18.700973 37.694479 -1.286134 1.051672 0.104789 -0.031164 212401.000000 0 0 1
8.606539 -32.286880 19.663173 38.770549 -1.310289 1.038901 0.115635 -0.034584 516873.000000 0 0 1
9.477639 -33.408780 19.808073 39.979144 -1.294372 1.052432 0.098454 -0.034857 265657.000000 0 0 1
8.928939 33.180418 20.666473 40.096997 1.307921 1.029308 0.110054 -0.042562 -138512.000000 0 0 1
7.933539 32.318918 20.143373 38.899987 1.330079 1.026490 0.109025 -0.045349 62907.300000 0 0 1
7.670739 31.388118 21.159373 38.623480 1.331111 0.991020 0.113920 -0.055861 -269387.000000 0 0 1
6.691139 30.281118 20.728973 37.301578 1.353323 0.981576 0.119020 -0.051272 42524.500000 0 0 1
5.351139 30.674118 20.977073 37.544291 1.398083 0.977944 0.131033 -0.050454 104183.000000 0 0 1
4.496439 29.606018 20.510973 36.296477 1.420072 0.970247 0.134657 -0.041833 56855.700000 0 0 1
3.116039 29.476018 21.150373 36.412684 1.465473 0.951022 0.127609 -0.037575 -409226.000000 0 0 1
3.103639 29.167518 22.499473 36.967593 1.464788 0.916467 0.116797 -0.041373 -719073.000000 0 0 1
1.910139 28.523818 22.788213 36.558986 1.503930 0.897806 0.105425 -0.029205 -554868.000000 0 0 1
1.801339 28.065018 24.229313 37.120744 1.506700 0.859632 0.106097 -0.027595 -122245.000000 0 0 1
1.544839 29.070018 25.233073 38.524803 1.517704 0.856637 0.113715 -0.030857 -35780.000000 0 0 1
1.302839 28.422418 26.488363 38.873700 1.524990 0.821129 0.104881 -0.028294 -352669.000000 0 0 1
2.461939 27.827318 27.304983 39.063830 1.482554 0.796821 0.083332 -0.032346 -333285.000000 0 0 1
3.015039 26.634618 26.744383 37.864962 1.458076 0.786525 0.088301 -0.031862 704682.000000 0 0 1
3.809339 25.890518 27.715923 38.118268 1.424712 0.756703 0.053964 -0.021992 158553.000000 0 0 1
4.304739 24.620218 27.169833 36.917282 1.397700 0.743705 0.056156 -0.011307 54044.500000 0 0 1
3.240839 23.793418 26.709443 35.916906 1.435422 0.732290 0.067166 -0.006804 248145.000000 0 0 1
3.741339 22.558818 26.240503 34.806061 1.406444 0.716809 0.057013 -0.008419 -90202.100000 0 0 1
2.612739 21.556318 25.976943 33.857094 1.450179 0.696250 0.055729 -0.003114 -285210.000000 0 0 1
2.852039 20.119118 26.112433 33.087342 1.429977 0.661296 0.052730 0.001018 -379455.000000 0 0 1
3.780539 19.629218 25.177113 32.147872 1.380529 0.671056 0.062952 -0.002871 -168236.000000 0 0 1
4.314839 18.217918 25.523183 31.653487 1.338236 0.632874 0.065304 -0.005378 266167.000000 0 0 1
5.411039 18.168818 26.473943 32.561556 1.281341 0.621437 0.063525 -0.014132 883848.000000 0 0 1
6.589539 17.733618 25.808883 32.000026 1.215023 0.632543 0.093003 -0.010384 -345705.000000 0 0 1
7.842139 17.552118 26.725913 32.921883 1.150614 0.623572 0.074638 -0.023288 166902.000000 0 0 1
8.368639 18.742418 27.278143 34.138093 1.150850 0.645078 0.075925 -0.022793 277458.000000 0 0 1
9.049739 19.542118 26.275673 33.973565 1.137111 0.686585 0.072262 -0.033450 -254882.000000 0 0 1
9.660639 20.869018 26.943323 35.422966 1.137252 0.706533 0.060625 -0.024047 756819.000000 0 0 1
10.828339 20.603418 27.739583 36.211023 1.086910 0.698118 0.078872 -0.047199 436058.000000 0 0 1
10.991239 21.662718 28.657833 37.567966 1.101262 0.703123 0.082553 -0.050090 -183759.000000 0 0 1
12.130039 21.455218 29.633023 38.543226 1.056233 0.693794 0.092318 -0.049346 56384.900000 0 0 1
13.477139 21.461318 29.176473 38.645673 1.010062 0.715182 0.094302 -0.051525 -118039.000000 0 0 1
14.308239 21.436618 30.288793 39.770156 0.982240 0.705024 0.101688 -0.044791 152563.000000 0 0 1
15.806639 21.288218 29.884563 39.951535 0.932108 0.725722 0.084504 -0.049796 552719.000000 0 0 1
16.348939 22.456518 29.265623 40.349222 0.941507 0.759314 0.078706 -0.046645 440442.000000 0 0 1
17.698239 22.324018 28.831183 40.531797 0.900468 0.779418 0.115371 -0.030186 490799.000000 0 0 1
-8.481611 16.965818 4.566629 19.509761 -1.107210 1.334536 0.017509 -0.013668 -21102.500000 0 1 0
-8.482711 18.324318 4.949229 20.790187 -1.137249 1.330432 0.027476 -0.012316 -700134.000000 0 1 0
-7.212011 18.688618 5.354929 20.735303 -1.202500 1.309584 0.029756 -0.002945 -896111.000000 0 1 0
-7.128711 20.185818 5.754029 22.167422 -1.231314 1.308218 0.042070 -0.004980 -152712.000000 0 1 0
-7.321611 21.277018 4.874029 23.023328 -1.239379 1.357483 0.051169 -0.011941 -753301.000000 0 1 0
-8.585711 21.343618 4.304829 23.405042 -1.188342 1.385816 0.045566 -0.019353 -598439.000000 0 1 0
-8.791511 22.434218 3.209729 24.308170 -1.197310 1.438366 0.093379 -0.032384 203227.000000 0 1 0
-8.100111 22.224618 1.966629 23.736323 -1.221293 1.487848 0.063779 -0.027235 47309.300000 0 1 0
-8.526711 21.082818 1.190129 22.772931 -1.186469 1.518512 0.071498 -0.028544 -662395.000000 0 1 0
-7.905611 21.016218 -0.242971 22.455269 -1.211003 1.581617 0.041568 -0.015444 2402540.000000 0 1 0
-6.508411 20.558718 -0.412271 21.568269 -1.264202 1.589912 0.025260 -0.011215 1748940.000000 0 1 0
-5.578511 21.506018 0.083829 22.217912 -1.316997 1.567023 0.036860 -0.016162 -1416170.000000 0 1 0
-4.244111 21.347118 -0.584371 21.772767 -1.374541 1.597639 0.033604 -0.008854 -986975.000000 0 1 0
-4.288811 21.610118 -2.030971 22.125007 -1.374879 1.662721 0.030067 -0.012053 -316823.000000 0 1 0
-2.985611 21.708918 -2.539071 22.059870 -1.434124 1.686151 0.030192 -0.000315 -208515.000000 0 1 0
-2.885011 22.004718 -4.040771 22.557897 -1.440431 1.750897 0.028846 -0.001427 805060.000000 0 1 0
-1.580711 22.353118 -4.539871 22.864185 -1.500198 1.770683 0.044065 0.000770 553092.000000 0 1 0
-1.662311 22.719818 -5.848871 23.519411 -1.497761 1.822116 0.044917 -0.007984 -144115.000000 0 1 0
-0.311711 23.263418 -6.331971 24.111773 -1.557398 1.836522 0.052589 -0.021629 -194035.000000 0 1 0
0.703289 22.296218 -6.173071 23.145685 1.539264 1.840769 0.058078 -0.011761 -567439.000000 0 1 0
1.836289 22.699018 -6.893271 23.793582 1.490075 1.864722 0.064654 -0.019404 -517342.000000 0 1 0
3.021589 21.747618 -6.857171 23.002384 1.432741 1.873505 0.054318 -0.015575 -160462.000000 0 1 0
2.778589 20.667618 -7.727671 22.239332 1.437156 1.925676 0.054099 -0.026992 416566.000000 0 1 0
3.815589 19.698918 -7.519671 21.427821 1.379470 1.929361 0.050617 -0.025909 702418.000000 0 1 0
3.757489 18.572218 -8.538471 20.783442 1.371173 1.994161 0.044146 -0.027694 -106071.000000 0 1 0
4.196189 18.919718 -9.835271 21.732378 1.352540 2.040434 0.049806 -0.029537 -168275.000000 0 1 0
3.152989 18.851618 -10.797771 21.952601 1.405077 2.085030 0.044160 -0.026365 -279439.000000 0 1 0
3.607889 19.159718 -12.248771 23.024857 1.384670 2.131734 0.047185 -0.027955 54573.300000 0 1 0
3.847389 20.546818 -12.472771 24.342229 1.385690 2.108765 0.091246 -0.034768 -36677.100000 0 1 0
4.325989 20.721618 -13.806771 25.273040 1.364985 2.148742 0.109403 -0.027288 69224.400000 0 0 1
4.657089 22.171918 -14.213971 26.745455 1.363762 2.131112 0.088596 -0.025897 -654924.000000 0 0 1
3.589089 23.030718 -14.332871 27.362871 1.416201 2.122111 0.120327 -0.032837 -538155.000000 0 0 1
4.034089 24.251318 -14.880171 28.737080 1.405960 2.115078 0.098801 -0.032351 532986.000000 0 0 1
2.724689 24.926018 -15.382971 29.417105 1.461918 2.121076 0.112694 -0.034561 302510.000000 0 0 1
1.948189 25.400118 -14.326271 29.226759 1.494246 2.083089 0.127927 -0.042395 -236951.000000 0 0 1
1.614589 26.796618 -14.576471 30.547326 1.510616 2.068236 0.094815 -0.034966 -785915.000000 0 0 1
0.663089 27.465018 -13.572971 30.642983 1.546658 2.029670 0.109680 -0.026328 988018.000000 0 0 1
-0.732311 27.115218 -13.578971 30.334135 -1.543796 2.034928 0.101614 -0.041490 844205.000000 0 0 1
-1.107311 25.712718 -13.419971 29.025258 -1.527758 2.051446 0.091865 -0.040030 -556091.000000 0 0 1
-0.897411 25.106318 -11.993771 27.838518 -1.535067 2.016213 0.114745 -0.041405 -619245.000000 0 0 1
-1.957811 25.279318 -11.074671 27.668127 -1.493503 1.982606 0.106197 -0.038912 -120873.000000 0 0 1
-2.162511 24.170418 -10.258771 26.346307 -1.481565 1.970757 0.111206 -0.028788 241103.000000 0 0 1
-3.288011 24.378118 -9.199971 26.262960 -1.436730 1.928690 0.081673 -0.026035 181241.000000 0 0 1
-2.974611 24.965818 -7.953071 26.370280 -1.452208 1.877158 0.096621 -0.027985 -355794.000000 0 0 1
-2.633211 26.298418 -7.964471 27.603865 -1.471001 1.863485 0.098635 -0.029411 -177048.000000 0 0 1
-2.487911 26.735018 -6.538771 27.635238 -1.478005 1.809671 0.089365 -0.027565 -99536.700000 0 0 1
-1.376111 26.178918 -5.900471 26.870894 -1.518279 1.792186 0.083413 -0.023001 -615889.000000 0 0 1
-1.212511 26.579918 -4.578371 26.998587 -1.525210 1.741198 0.086689 -0.034350 36378.900000 0 0 1
-2.185211 25.948118 -3.545371 26.280213 -1.486780 1.706115 0.075205 -0.022318 -346594.000000 0 0 1
-3.422311 26.579318 -3.425771 27.016814 -1.442742 1.697940 0.065566 -0.022942 -138062.000000 0 0 1
-4.271311 26.132018 -2.345171 26.582443 -1.408778 1.659134 0.059908 -0.011840 336114.000000 0 0 1
-5.186611 24.923718 -2.653171 25.595545 -1.365625 1.674640 0.049127 -0.016716 -815871.000000 0 0 1
-6.189811 25.307718 -3.556771 26.295341 -1.330923 1.706475 0.050538 -0.015916 -700246.000000 0 0 1
-7.058811 24.214518 -3.690371 25.490949 -1.287145 1.716079 0.019660 -0.022952 253014.000000 0 0 1
-8.504011 24.655518 -4.079471 26.398008 -1.238660 1.725955 0.047804 -0.018583 128630.000000 0 0 1
-9.255711 25.071718 -2.984671 26.891773 -1.217147 1.682014 0.083235 -0.018589 -1070500.000000 0 0 1
-10.443211 25.684418 -3.382071 27.931852 -1.184616 1.692177 0.116029 -0.024215 -162220.000000 0 0 1
-11.261711 26.149218 -2.140471 28.551521 -1.164132 1.645835 0.125590 -0.026532 10971.700000 0 0 1
-11.846211 25.106918 -1.350271 27.794123 -1.129937 1.619397 0.126192 -0.026457 818814.000000 0 0 1
-10.899611 24.372018 -0.519271 26.703303 -1.150258 1.590243 0.134141 -0.033372 646537.000000 0 0 1
-11.543311 23.064718 0.002629 25.792038 -1.106769 1.570694 0.102406 -0.033113 -208198.000000 0 0 1
-12.632811 23.246018 0.848029 26.470444 -1.073004 1.538754 0.134272 -0.041117 -189549.000000 0 0 1
-13.323411 21.997218 1.022629 25.737844 -1.026206 1.531053 0.133417 -0.046175 1172.230000 0 0 1
-14.036511 21.901618 2.373229 26.121575 -1.000853 1.479818 0.138182 -0.054665 -72511.500000 0 0 1
-13.239811 21.721818 3.548729 25.685082 -1.023409 1.432190 0.138020 -0.049034 44157.500000 0 0 1
-12.903711 22.891418 4.243229 26.618185 -1.057502 1.410702 0.130348 -0.051469 -66443.600000 0 0 1
-12.813911 22.647618 5.760529 26.651353 -1.055907 1.352933 0.108854 -0.051072 195390.000000 0 0 1
-11.491011 22.369018 6.199829 25.900853 -1.096247 1.329082 0.099566 -0.043631 209181.000000 0 0 1
-11.514911 21.904018 7.553129 25.873324 -1.086802 1.274555 0.071024 -0.041284 511651.000000 0 0 1
-10.048911 21.793218 8.086729 25.324299 -1.138748 1.245777 0.060068 -0.035263 480172.000000 0 0 1
-9.541511 23.040518 8.561829 26.366850 -1.178178 1.240081 0.073465 -0.041837 507216.000000 0 0 1
-8.497811 22.870018 9.539429 26.196397 -1.215036 1.198076 0.087866 -0.041063 210614.000000 0 0 1
-8.935211 22.464718 10.944829 26.538478 -1.192236 1.145694 0.071335 -0.043888 -421397.000000 0 0 1
-9.331311 21.138918 10.982829 25.584170 -1.155094 1.127098 0.083478 -0.042820 -134042.000000 0 0 1
-9.389411 20.704418 12.321929 25.858536 -1.145037 1.074112 0.067397 -0.034212 355966.000000 0 0 1
-10.408611 19.510018 12.524829 25.413605 -1.080709 1.055446 0.063683 -0.028841 199800.000000 0 0 1
-10.145111 18.374718 11.743229 24.051132 -1.066324 1.060700 0.071720 -0.048106 69963.200000 0 1 0
-10.975311 17.326318 12.231829 23.880460 -1.006146 1.033039 0.068277 -0.042139 143351.000000 0 1 0
-10.727611 16.051418 11.518229 22.481086 -0.981644 1.032875 0.062707 -0.045698 -129865.000000 0 1 0
-11.316911 14.969518 12.276129 22.424591 -0.923468 0.991494 0.056517 -0.038387 216333.000000 0 1 0
-11.379511 13.866818 11.401729 21.255148 -0.883603 1.004605 0.051142 -0.022520 150822.000000 0 1 0
-11.795311 12.495918 12.121329 21.028646 -0.814232 0.956456 0.039500 -0.031335 -377912.000000 0 1 0
-13.011711 12.574418 12.799129 22.163897 -0.768309 0.955162 0.059819 -0.028246 -392640.000000 0 1 0
-13.292511 11.394518 13.515629 22.117823 -0.708667 0.913380 0.044885 -0.008889 458868.000000 0 1 0
-14.252511 11.574218 14.755529 23.554665 -0.682065 0.893822 0.054180 -0.007830 -233818.000000 0 1 0
-15.473211 12.128818 14.418829 24.380958 -0.664821 0.938006 0.076162 -0.016016 -521089.000000 0 1 0
-16.244711 12.243718 15.656329 25.669435 -0.645868 0.914835 0.064340 -0.007453 229232.000000 0 0 1
-17.338311 13.335718 15.654729 26.898493 -0.655643 0.949619 0.063972 -0.004708 275533.000000 0 0 1
-18.435411 12.951518 14.847729 26.982610 -0.612425 0.988108 0.059271 -0.006082 444921.000000 0 0 1
-19.450211 13.956118 14.691429 28.087756 -0.622395 1.020365 0.084617 -0.013334 637304.000000 0 0 1
-20.666911 13.561118 13.811629 28.315830 -0.580704 1.061262 0.081342 -0.016076 149716.000000 0 0 1
-21.487711 12.586018 14.458729 28.795562 -0.529861 1.044752 0.089419 -0.009582 -22044.500000 0 0 1
-22.651511 12.301218 13.743329 29.211128 -0.497502 1.080959 0.087685 -0.013912 -970301.000000 0 0 1
-23.679011 11.492118 14.469029 30.035265 -0.451842 1.068163 0.107226 -0.016670 -589062.000000 0 0 1
-24.283011 12.156718 15.557829 31.296908 -0.464149 1.050538 0.129260 -0.022673 -93331.000000 0 0 1
-25.171621 11.290718 16.215429 32.000484 -0.421647 1.039415 0.127599 -0.018594 -267319.000000 0 0 1
-26.103411 12.015218 17.185329 33.482668 -0.431381 1.031817 0.122247 -0.022360 -484527.000000 0 0 1
-27.129821 12.743618 16.591929 34.259584 -0.439138 1.065233 0.131997 -0.019330 -219853.000000 0 0 1
-28.012381 13.215418 17.589629 35.619318 -0.440810 1.054316 0.119015 -0.008042 671501.000000 0 0 1
-29.230211 14.088718 17.106929 36.681661 -0.449137 1.085623 0.110207 -0.009829 538926.000000 0 0 1
-28.872801 15.341218 16.522629 36.633166 -0.488403 1.102878 0.114050 -0.016572 -29274.200000 0 0 1
-29.957881 16.242218 16.296729 37.773902 -0.496811 1.124721 0.105862 -0.013697 141256.000000 0 0 1
-29.610111 17.730018 16.357329 38.192596 -0.539524 1.128202 0.121006 -0.016929 -65190.900000 0 0 1
-29.070811 18.299918 17.570429 38.583922 -0.561825 1.097995 0.111237 -0.021149 433150.000000 0 0 1
-29.865641 18.164118 18.769329 39.675930 -0.546423 1.078029 0.107722 -0.032555 -810502.000000 0 0 1
-29.059441 18.622518 19.994229 39.887573 -0.569910 1.045737 0.110721 -0.030857 445547.000000 0 0 1
-28.307871 17.563818 20.576329 39.156207 -0.555326 1.017501 0.116116 -0.024089 279374.000000 0 0 1
-27.232491 16.971718 19.866429 37.740201 -0.557315 1.016436 0.119160 -0.022127 -515224.000000 0 0 1
-26.788911 15.680718 20.514029 37.206935 -0.529573 0.986815 0.125325 -0.018224 -66900.100000 0 0 1
-27.810541 14.713418 20.504029 37.554308 -0.486624 0.993234 0.113157 -0.018653 41923.400000 0 0 1
-27.462301 13.544918 21.222329 37.256275 -0.458208 0.964739 0.103514 -0.004611 -416796.000000 0 0 1
-28.694461 12.757418 21.650729 38.142861 -0.418350 0.967182 0.106633 -0.016477 -177705.000000 0 0 1
-29.633941 12.555118 20.616929 38.221188 -0.400747 1.001059 0.114577 -0.022237 289454.000000 0 0 1
-30.673051 11.622118 20.888129 38.887319 -0.362188 1.003748 0.135450 -0.026679 501989.000000 0 0 1
-31.570461 11.298018 19.637029 38.858102 -0.343666 1.041006 0.137207 -0.025192 258932.000000 0 0 1
-30.907811 10.662418 18.490629 37.561726 -0.332191 1.056097 0.145856 -0.025346 469799.000000 0 0 1
-30.306711 9.403018 18.679229 36.821557 -0.300845 1.038758 0.145727 -0.027861 -24687.500000 0 0 1
-29.406341 9.011018 17.486429 35.379465 -0.297346 1.053820 0.150689 -0.032464 -107733.000000 0 0 1
-30.111761 8.581018 16.322929 35.309914 -0.277614 1.090236 0.160799 -0.023892 550068.000000 0 0 1
-30.710531 9.683018 15.558529 35.762625 -0.305433 1.120703 0.163361 -0.026870 509318.000000 0 0 1
-29.731781 10.693118 14.827029 34.902183 -0.345248 1.132037 0.154049 -0.024448 308060.000000 0 0 1
-29.191351 10.326618 13.576829 33.809825 -0.340017 1.157572 0.172633 -0.030062 360050.000000 0 0 1
-27.964041 11.014318 13.408029 32.910151 -0.375214 1.151177 0.138654 -0.012549 -37701.300000 0 0 1
-27.400721 11.027718 12.023429 31.890013 -0.382626 1.184211 0.176761 -0.019042 -423949.000000 0 0 1
-26.795381 9.874918 11.521229 30.793589 -0.353087 1.187323 0.172945 -0.022550 147657.000000 0 0 1
-27.706541 8.853118 11.173729 31.158985 -0.309278 1.204025 0.193041 -0.025070 -300180.000000 0 0 1
-27.146301 7.618818 10.404029 30.053483 -0.273618 1.217296 0.199390 -0.032352 -237560.000000 0 0 1
-26.781071 7.914818 9.072829 29.363009 -0.287358 1.256667 0.200183 -0.025461 330103.000000 0 0 1
-26.515221 6.732618 8.322629 28.594601 -0.248660 1.275466 0.221215 -0.046719 -137266.000000 0 0 1
-25.935741 6.856818 6.869129 27.692301 -0.258464 1.320127 0.214171 -0.038354 -47883.000000 0 0 1
-26.705071 7.630818 5.957629 28.405695 -0.278327 1.359494 0.222223 -0.038600 280674.000000 0 0 1
-25.878301 8.138918 4.939329 27.573999 -0.304713 1.390694 0.209841 -0.030847 510766.000000 0 0 1
-26.762491 8.696218 3.725429 28.385453 -0.314178 1.439172 0.206504 -0.034512 361747.000000 0 0 1
-27.446491 7.735918 2.921929 28.665170 -0.274728 1.468686 0.231968 -0.036838 66199.300000 0 0 1
-26.766331 6.673218 2.281429 27.679834 -0.244333 1.488281 0.226094 -0.034021 -315686.000000 0 0 1
-25.852841 6.985818 1.046629 26.800494 -0.263912 1.531734 0.217056 -0.025524 109031.000000 0 0 1
-24.695311 7.612418 1.525029 25.886927 -0.299012 1.511851 0.186059 -0.028894 345449.000000 0 0 1
-23.549411 7.668318 0.652429 24.775058 -0.314799 1.544459 0.171956 -0.016045 1005130.000000 0 1 0
-22.344211 8.238118 1.484329 23.860712 -0.353228 1.508548 0.130580 -0.020986 54187.600000 0 1 0
-22.456011 9.624418 1.705629 24.491039 -0.404907 1.501097 0.125533 -0.026771 866958.000000 0 1 0
-21.500311 9.999218 2.737729 23.869287 -0.435318 1.455847 0.122405 -0.036627 362940.000000 0 1 0
-21.548811 11.396418 3.402829 24.613184 -0.486472 1.432100 0.106339 -0.051625 -754739.000000 0 1 0
-21.219811 12.417818 2.533929 24.716459 -0.529466 1.468096 0.158077 -0.047430 369087.000000 0 1 0
-21.465811 13.671918 3.157229 25.645086 -0.567122 1.447371 0.155886 -0.051471 778067.000000 0 0 1
-20.181111 14.339118 3.816329 25.048990 -0.617753 1.417846 0.109484 -0.039873 1064600.000000 0 0 1
-19.532811 13.673918 4.908429 24.343365 -0.610759 1.367771 0.091939 -0.040295 615719.000000 0 1 0
-18.548511 14.459918 5.606229 24.177805 -0.662161 1.336792 0.082780 -0.036465 306958.000000 0 1 0
-18.144811 13.597018 6.865429 23.690656 -0.643092 1.276784 0.052174 -0.025443 -248760.000000 0 1 0
-17.321811 12.495318 6.653529 22.370685 -0.624920 1.268805 0.058156 -0.028038 -40804.800000 0 1 0
-16.973811 11.796518 7.815329 22.098585 -0.607351 1.209318 0.055213 -0.018866 -182700.000000 0 1 0
11.530989 -31.864780 -14.309071 36.784201 -1.223584 1.970343 0.079792 -0.028419 -634332.000000 0 0 1
12.739489 -31.989080 -13.631971 37.032775 -1.191804 1.947767 0.052908 -0.027898 -734324.000000 0 0 1
13.405889 -30.768580 -13.716171 36.256816 -1.159897 1.958762 0.052982 -0.039260 -260314.000000 0 0 1
14.759389 -30.758780 -12.968671 36.498336 -1.123404 1.934055 0.094252 -0.033117 62268.700000 0 0 1
15.752489 -31.548780 -13.641571 37.809508 -1.107704 1.939919 0.067341 -0.026097 248736.000000 0 0 1
17.023389 -30.932480 -13.400971 37.765065 -1.067692 1.933551 0.080002 -0.025529 47601.100000 0 0 1
18.154989 -31.806980 -13.943171 39.188003 -1.052134 1.934568 0.069510 -0.013434 -357182.000000 0 0 1
18.317889 -32.957880 -13.139371 39.930064 -1.063513 1.906104 0.070110 -0.018475 -180355.000000 0 0 1
19.259089 -33.848580 -13.701071 41.283874 -1.053500 1.909086 0.047064 0.003077 -72123.700000 0 0 1
19.186989 32.576918 -12.981571 39.973958 1.038523 1.901544 0.044333 -0.014334 -495966.000000 0 0 1
19.706989 32.393818 -11.701471 39.681850 1.024255 1.870129 0.049404 -0.016025 -211136.000000 0 0 1
19.475889 31.096518 -11.189771 38.360326 1.011259 1.866802 0.040389 -0.021980 111962.000000 0 0 1
20.366789 30.817118 -9.942771 38.253883 0.986802 1.833731 0.056184 -0.024772 -963199.000000 0 0 1
21.659789 30.466918 -10.210271 38.750860 0.952774 1.837429 0.043929 -0.023930 -1329060.000000 0 0 1
22.461689 30.459218 -9.051271 38.912940 0.935386 1.805550 0.040680 -0.024792 -658967.000000 0 0 1
23.587989 29.468418 -9.182171 38.847048 0.895781 1.809422 0.037026 -0.006315 -812782.000000 0 0 1
24.587889 29.964918 -10.047171 40.042555 0.883646 1.824419 0.054278 -0.011256 -859452.000000 0 0 1
25.669189 29.100318 -10.003371 40.072474 0.847963 1.823096 0.046145 0.005979 -841015.000000 0 0 1
26.819089 29.581218 -10.885571 41.386080 0.834333 1.836953 0.035411 0.008129 -292419.000000 0 0 1
27.537289 30.699318 -10.415071 42.534975 0.839641 1.818171 0.043823 -0.001738 407661.000000 0 0 1
28.446689 31.230118 -11.393571 43.753261 0.832006 1.834238 0.054361 -0.000380 535798.000000 0 0 1
29.053389 32.629218 -11.129271 45.084653 0.843305 1.820227 0.055805 -0.008486 -272722.000000 0 0 1
28.174289 33.680718 -11.355471 45.355573 0.874186 1.823854 0.062005 0.000695 -253116.000000 0 0 1
28.888289 -32.866280 -11.458271 45.232926 -0.849725 1.826904 0.078949 -0.000702 628598.000000 0 0 1
27.916989 -31.614680 -11.584571 43.738410 -0.847431 1.838855 0.075357 -0.002485 728401.000000 0 0 1
27.063189 -31.385580 -10.482371 42.747525 -0.859216 1.818539 0.072330 -0.001398 41731.000000 0 0 1
25.819489 -30.770880 -10.796971 41.594082 -0.872671 1.833383 0.061370 -0.006735 604039.000000 0 0 1
25.823689 -29.215180 -10.740771 40.444453 -0.846940 1.839590 0.070311 -0.020215 -4865.700000 0 0 1
26.665389 -28.585180 -11.725671 40.812337 -0.820131 1.862210 0.059689 -0.006731 -51030.000000 0 0 1
27.198389 -27.427280 -11.160271 40.206463 -0.789588 1.852064 0.059797 -0.012321 36863.100000 0 0 1
28.226089 -26.769680 -12.125571 40.747483 -0.758922 1.872951 0.065328 -0.012499 635053.000000 0 0 1
29.361889 -27.557380 -12.495071 42.162264 -0.753706 1.871672 0.057220 -0.005225 339855.000000 0 0 1
29.161689 -28.419580 -13.603371 42.931671 -0.772511 1.893214 0.056264 -0.005550 254648.000000 0 0 1
30.473989 -29.160980 -14.034071 44.452018 -0.763384 1.892004 0.055083 -0.003443 532986.000000 0 0 1
30.812389 -30.232380 -13.191571 45.137763 -0.775897 1.867376 0.054133 -0.015437 59057.100000 0 0 1
32.119189 -30.669380 -13.496371 46.415571 -0.762312 1.865830 0.051276 -0.019007 41434.500000 0 0 1
32.748289 -31.720080 -12.541971 47.285462 -0.769450 1.839249 0.048365 -0.016788 -430454.000000 0 0 1
34.036489 -32.098180 -12.924371 48.536740 -0.756098 1.840328 0.038313 -0.009541 -550650.000000 0 0 1
34.830589 -32.847880 -12.057471 49.371406 -0.756111 1.817511 0.046783 -0.007963 52374.700000 0 0 1
34.190489 33.652918 -11.386071 49.306704 0.777475 1.803823 0.042325 -0.003737 -483483.000000 0 0 1
33.520789 -33.810180 -10.220671 48.695315 -0.789696 1.782259 0.055986 -0.007858 -238621.000000 0 0 1
32.772789 32.827518 -9.735571 47.397078 0.786232 1.777673 0.058109 -0.003587 149928.000000 0 0 1
32.029289 33.041418 -8.393571 46.776732 0.800951 1.751213 0.044872 -0.006852 62613.900000 0 0 1
31.073189 -33.685380 -8.547671 46.618779 -0.825714 1.755192 0.048404 -0.007003 -511422.000000 0 0 1
30.493389 -33.481680 -7.280571 45.868032 -0.832074 1.730199 0.059017 -0.011964 117253.000000 0 0 1
29.408589 -32.395380 -7.225671 44.345643 -0.833687 1.734466 0.054125 -0.019286 -262463.000000 0 0 1
29.903489 -31.118080 -7.476771 43.800179 -0.805300 1.742338 0.038841 -0.023511 728488.000000 0 0 1
28.941089 -30.119080 -7.982371 42.526037 -0.805341 1.759622 0.041694 -0.017701 775808.000000 0 0 1
27.967789 -29.414480 -7.063171 41.198267 -0.810604 1.743091 0.056312 -0.023609 -201239.000000 0 0 1
27.075889 -28.542780 -7.676471 40.083940 -0.811766 1.763497 0.060706 -0.035126 -496008.000000 0 0 1
26.151989 -28.058080 -6.753271 38.945976 -0.820545 1.745078 0.076764 -0.043890 -634447.000000 0 0 1
25.018789 -27.246680 -7.338871 37.711807 -0.827999 1.766650 0.111682 -0.054871 -128616.000000 0 0 1
24.143189 -27.972980 -8.234071 37.857379 -0.858752 1.790051 0.126178 -0.052716 775547.000000 0 0 1
23.206789 -27.147580 -8.918171 36.811410 -0.863500 1.815498 0.136954 -0.054638 733850.000000 0 0 1
21.960789 -27.899380 -9.512971 36.757969 -0.903945 1.832576 0.113982 -0.043885 544842.000000 0 0 1
22.317889 -28.521180 -10.751371 37.777478 -0.906816 1.859383 0.113645 -0.034838 546820.000000 0 0 1
21.274089 -29.348580 -11.292871 37.966498 -0.943569 1.872810 0.105898 -0.029421 582182.000000 0 0 1
20.948789 -30.699980 -10.662271 38.665547 -0.972000 1.850173 0.096117 -0.035376 -130545.000000 0 0 1
22.076989 -31.514580 -10.612571 39.914770 -0.959713 1.839914 0.074075 -0.021737 -327377.000000 0 0 1
21.692089 -32.826680 -10.140971 40.632215 -0.986862 1.823042 0.059695 -0.021910 191309.000000 0 0 1
22.793789 33.866618 -10.184371 42.074054 0.978390 1.815283 0.052191 -0.014312 111811.000000 0 0 1
23.905489 -33.745880 -9.350871 42.399241 -0.954457 1.793168 0.056235 -0.015778 19326.500000 0 0 1
25.064689 33.278418 -9.718771 42.780208 0.925262 1.799976 0.047980 -0.008393 711197.000000 0 0 1
26.286189 33.606418 -8.803071 43.564310 0.907018 1.774268 0.056403 -0.009432 -82370.700000 0 0 1
26.257889 33.099618 -7.483571 42.907636 0.900155 1.746104 0.058611 -0.018723 64291.200000 0 0 1
26.478089 31.679418 -7.243171 41.918233 0.874596 1.744461 0.052144 -0.012261 -228123.000000 0 0 1
26.309189 31.424618 -5.756671 41.386221 0.873771 1.710345 0.053346 -0.013989 -558126.000000 0 0 1
27.213389 32.013618 -4.865171 42.297874 0.866269 1.686073 0.046500 -0.011194 263246.000000 0 0 1
28.304889 31.178718 -4.413671 42.340993 0.833674 1.675227 0.058927 -0.009291 666593.000000 0 0 1
27.983989 30.025918 -3.424071 41.187178 0.820583 1.654027 0.071935 0.000895 -724016.000000 0 0 1
27.661889 30.482418 -2.084571 41.215329 0.833869 1.621395 0.071325 -0.005974 51604.500000 0 0 1
27.524689 29.416918 -1.154471 40.302560 0.818617 1.599445 0.066087 0.000412 20672.900000 0 0 1
26.189489 28.640818 -1.386571 38.834371 0.830076 1.606509 0.053092 0.005790 -158511.000000 0 0 1
25.044589 29.397418 -1.032771 38.632968 0.865182 1.597532 0.049788 -0.002649 -575455.000000 0 0 1
23.896489 28.605218 -1.165971 37.291556 0.874846 1.602068 0.054409 0.005219 -131854.000000 0 0 1
22.621189 29.334818 -0.710171 37.050696 0.913904 1.589965 0.081074 -0.006034 97280.500000 0 0 1
22.672589 29.400418 0.711929 37.134050 0.913886 1.551623 0.095130 -0.013851 296157.000000 0 0 1
21.456789 29.883618 1.275729 36.811029 0.948084 1.536133 0.083009 -0.017829 188929.000000 0 0 1
20.745889 28.969118 2.287829 35.704844 0.949321 1.506676 0.090425 -0.028123 -286246.000000 0 0 1
20.005289 27.933518 1.665129 34.398629 0.949297 1.522371 0.092282 -0.023821 61570.800000 0 0 1
19.387889 27.227518 2.697429 33.533626 0.952016 1.490270 0.106876 -0.024881 -247680.000000 0 0 1
18.548789 25.986018 2.290129 32.008989 0.950869 1.499189 0.105639 -0.017245 298313.000000 0 0 1
19.261689 24.824118 1.836729 31.474165 0.910908 1.512406 0.111862 -0.022375 746023.000000 0 0 1
20.290989 24.306118 2.713229 31.778502 0.875187 1.485313 0.114978 -0.010950 754042.000000 0 0 1
21.491489 23.638818 1.987629 32.009818 0.832943 1.508662 0.100786 -0.008281 -82128.300000 0 0 1
21.106489 22.409918 1.460229 30.819159 0.815342 1.523398 0.097811 -0.000233 3179.430000 0 0 1
22.186589 21.607818 1.052029 30.987889 0.772183 1.536840 0.072747 -0.003766 -240743.000000 0 0 1
21.931589 20.670218 -0.158571 30.137645 0.755798 1.576058 0.100142 -0.007350 -172056.000000 0 0 1
21.695989 21.355418 -1.416671 30.475839 0.777488 1.617298 0.068595 0.006100 264414.000000 0 0 1
21.650389 20.384418 -2.446171 29.837017 0.755290 1.652873 0.110161 -0.001575 -96409.200000 0 0 1
21.544989 21.103318 -3.756371 30.391560 0.775042 1.694712 0.083662 -0.008068 242612.000000 0 0 1
22.537789 22.141618 -3.888371 31.832728 0.776531 1.693252 0.092126 -0.006379 586989.000000 0 0 1
22.367489 22.901118 -5.037671 32.405924 0.797186 1.726885 0.061290 -0.000196 34717.600000 0 0 1
23.372889 24.097618 -5.239171 33.976993 0.800664 1.725612 0.058034 0.006607 156942.000000 0 0 1
23.265989 25.327218 -4.451471 34.678377 0.827791 1.699516 0.053919 0.007272 -172847.000000 0 0 1
23.535589 25.307818 -3.077871 34.697015 0.821666 1.659620 0.050307 0.008748 17190.200000 0 0 1
22.410889 24.805918 -2.120071 33.497406 0.836079 1.634129 0.055865 0.009470 -338786.000000 0 0 1
21.306989 25.709718 -2.036071 33.453295 0.878768 1.631697 0.074674 0.005386 965051.000000 0 0 1
20.193689 25.214218 -1.295871 32.329880 0.895516 1.610890 0.070384 0.010862 289497.000000 0 0 1
19.356389 24.103718 -1.940871 30.974602 0.894201 1.633497 0.096096 -0.010568 -860407.000000 0 0 1
18.731689 24.535618 -3.176171 31.031609 0.918743 1.673329 0.076334 -0.009508 345070.000000 0 0 1
18.154189 23.395318 -3.834071 29.859933 0.910877 1.699554 0.083183 -0.020114 25130.000000 0 0 1
17.368889 23.761918 -5.090871 29.870119 0.939596 1.742066 0.075421 -0.015514 -255903.000000 0 0 1
16.828489 22.648518 -5.738371 28.793789 0.931772 1.771432 0.068721 -0.019495 -47619.300000 0 0 1
16.228789 23.086318 -6.933571 29.059010 0.958086 1.811724 0.067336 -0.020363 -325352.000000 0 0 1
15.561189 21.982418 -7.744571 28.024198 0.954793 1.850794 0.089211 -0.021008 -310593.000000 0 0 1
16.447089 20.952918 -8.186071 27.866526 0.905297 1.868954 0.082860 -0.020319 570015.000000 0 0 1
15.695389 19.952318 -8.899771 26.900672 0.904252 1.907988 0.120696 -0.030974 305867.000000 0 0 1
16.411389 18.601418 -9.294071 26.490115 0.847866 1.929276 0.105587 -0.035809 270334.000000 0 0 1
17.609589 18.773418 -10.054071 27.633733 0.817375 1.943176 0.116725 -0.028479 440271.000000 0 0 1
18.142089 17.487918 -10.342471 27.238380 0.767040 1.960271 0.115994 -0.032847 -779919.000000 0 0 1
19.630789 17.626818 -10.598171 28.432267 0.731663 1.952769 0.093259 -0.028707 -959027.000000 0 0 1
19.999389 18.345918 -11.794771 29.591635 0.742304 1.980769 0.109883 -0.030748 200233.000000 0 0 1
21.397189 18.535018 -11.857771 30.691910 0.713845 1.967466 0.104899 -0.020192 73164.200000 0 0 1
21.819189 18.915818 -13.313371 31.798286 0.714244 2.002790 0.120568 -0.028658 -9178.070000 0 0 1
21.607489 17.842318 -14.260271 31.441807 0.690244 2.041535 0.117573 -0.024544 215341.000000 0 0 1
21.853789 18.407118 -15.582671 32.545809 0.699998 2.070074 0.123262 -0.031787 79791.600000 0 0 1
22.191489 17.355118 -16.689671 32.744578 0.663707 2.105624 0.104435 -0.031129 1331150.000000 0 0 1
23.540789 16.802718 -16.720971 33.407947 0.619908 2.094983 0.117638 -0.033195 1359120.000000 0 0 1
23.661689 15.783018 -17.744271 33.523698 0.588253 2.128578 0.103673 -0.029740 245573.000000 0 0 1
24.516089 16.299018 -19.001371 35.039245 0.586730 2.143955 0.101858 -0.022933 623072.000000 0 0 1
25.890689 16.513518 -18.704371 35.956606 0.567763 2.117873 0.110977 -0.025429 359371.000000 0 0 1
26.625189 16.891518 -19.856971 37.262895 0.565344 2.132807 0.109371 -0.033842 -110805.000000 0 0 1
28.110089 17.086818 -19.502571 38.242473 0.546174 2.105948 0.081162 -0.030742 -168865.000000 0 0 1
28.306989 18.137218 -18.602171 38.422455 0.569833 2.076186 0.077820 -0.031450 -684974.000000 0 0 1
29.623789 18.193118 -18.168771 39.225791 0.550751 2.052381 0.063243 -0.037089 -750377.000000 0 0 1
29.873689 19.249218 -16.993471 39.392229 0.572396 2.016831 0.076324 -0.040392 147500.000000 0 0 1
29.122789 19.043018 -15.815871 38.221920 0.579103 1.997410 0.065878 -0.032361 739737.000000 0 0 1
27.768289 19.528918 -15.889271 37.482335 0.612925 2.008558 0.067365 -0.030074 248264.000000 0 0 1
26.912889 19.168018 -14.710971 36.168068 0.618883 1.989678 0.066482 -0.025045 -580641.000000 0 0 1
27.257889 19.688618 -13.466771 36.221376 0.625542 1.951734 0.057858 -0.026307 455403.000000 0 0 1
26.310989 19.245718 -12.476671 34.904629 0.631537 1.936333 0.071425 -0.024435 352910.000000 0 0 1
26.698489 19.654418 -11.038971 34.942300 0.634586 1.892222 0.057801 -0.017969 -259377.000000 0 0 1
26.658289 21.053718 -10.904571 35.676786 0.668467 1.881416 0.062251 -0.014691 155359.000000 0 0 1
27.029689 21.479118 -9.559671 35.823790 0.671470 1.840922 0.053513 -0.006900 -143861.000000 0 0 1
25.959489 21.261118 -8.490771 34.612474 0.686226 1.818635 0.061706 -0.007438 -601592.000000 0 0 1
25.878189 19.893218 -8.039271 33.616226 0.655378 1.812285 0.075314 -0.016718 266503.000000 0 0 1
24.987889 19.754718 -6.924571 32.597441 0.668965 1.784854 0.086086 -0.020063 -674015.000000 0 0 1
23.576589 19.430718 -7.338271 31.420671 0.689296 1.806522 0.108602 -0.026145 -1193930.000000 0 0 1
22.853989 20.521618 -7.852371 31.703333 0.731678 1.821084 0.093335 -0.014621 -745794.000000 0 0 1
21.515889 20.209518 -8.071971 30.602529 0.754100 1.837723 0.078308 -0.018739 -644086.000000 0 0 1
20.728189 21.561618 -8.014671 30.964433 0.805103 1.832612 0.082626 -0.019460 -502502.000000 0 0 1
21.003489 22.468918 -9.086571 32.071242 0.819095 1.858055 0.107395 -0.021256 -31745.900000 0 0 1
20.336689 22.311618 -10.316671 31.903337 0.831672 1.900088 0.114145 -0.016526 -30832.400000 0 0 1
18.834089 22.652718 -10.452071 31.258828 0.877184 1.911735 0.095267 -0.020512 20625.000000 0 0 1
18.654989 24.061518 -10.289571 32.137836 0.911296 1.896705 0.096385 -0.029906 -501830.000000 0 0 1
17.306889 24.350618 -10.492671 31.663498 0.952900 1.908563 0.086803 -0.024790 -503274.000000 0 0 1
17.027389 25.773318 -10.020071 32.474570 0.986964 1.884466 0.078185 -0.024648 -179199.000000 0 0 1
17.748989 26.784818 -10.695171 33.865022 0.985579 1.892115 0.115056 -0.022545 3865.300000 0 0 1
17.507789 28.083118 -10.151771 34.615641 1.013329 1.868443 0.108180 -0.036705 85619.500000 0 0 1
20.632989 28.826718 33.233833 48.592052 0.949572 0.817653 0.061686 -0.015146 -298903.000000 0 0 1
19.336489 29.110018 33.643793 48.509770 0.984465 0.804396 0.086357 -0.031879 -458868.000000 0 0 1
18.481189 27.958718 33.718665 47.541483 0.986715 0.782367 0.079553 -0.033423 692114.000000 0 0 1
16.976089 28.340018 33.667293 47.168112 1.031102 0.775927 0.095409 -0.041605 244068.000000 0 0 1
16.539589 28.738418 32.367542 46.336945 1.048570 0.797461 0.101008 -0.042535 6999.710000 0 0 1
15.263189 29.339918 32.371793 46.278815 1.091104 0.796106 0.116215 -0.049791 306510.000000 0 0 1
14.473289 29.371118 31.032873 45.112946 1.112947 0.812214 0.119345 -0.054408 81611.900000 0 0 1
13.958989 28.179018 30.534413 43.832189 1.110861 0.800120 0.108861 -0.052809 -379297.000000 0 0 1
12.579689 28.256618 30.258023 43.269308 1.151946 0.796385 0.101247 -0.028505 -364887.000000 0 0 1
11.975989 26.848918 30.254153 42.185335 1.151231 0.771060 0.081880 -0.032935 -139333.000000 0 0 1
12.442989 25.995618 29.199533 41.026977 1.124368 0.778859 0.087105 -0.034911 73590.200000 0 0 1
13.732489 25.441518 29.173693 41.072575 1.075844 0.780877 0.082118 -0.036960 -188654.000000 0 0 1
14.074689 24.561718 27.933393 39.769955 1.050441 0.792069 0.083431 -0.030049 -364779.000000 0 0 1
13.994589 25.263018 26.732773 39.353650 1.064921 0.823994 0.066411 -0.029632 296906.000000 0 0 1
13.797389 24.404118 25.570453 37.944393 1.056228 0.831331 0.077716 -0.027409 682702.000000 0 0 1
12.508989 23.480918 25.461713 36.825631 1.081309 0.807354 0.084966 -0.026530 392188.000000 0 0 1
12.509689 22.766718 24.231993 35.524713 1.068358 0.820143 0.096254 -0.032856 482911.000000 0 0 1
11.366389 21.932518 24.005713 34.445673 1.092660 0.799709 0.112016 -0.037267 375339.000000 0 0 1
11.344089 21.501418 22.500873 33.125347 1.085315 0.824036 0.131095 -0.038029 343827.000000 0 0 1
10.818989 22.605418 21.730173 33.170105 1.124414 0.856464 0.129120 -0.047772 212936.000000 0 0 1
11.121389 22.343118 20.361473 32.210088 1.108947 0.886477 0.126806 -0.030032 -548246.000000 0 0 1
10.939589 23.553118 19.373073 32.399690 1.135979 0.929868 0.118577 -0.034346 -100038.000000 0 0 1
9.631189 24.037718 19.210673 32.243164 1.189713 0.932527 0.119801 -0.040273 -128852.000000 0 0 1
9.048189 24.719218 20.324273 33.256361 1.219905 0.913297 0.114371 -0.040232 -358652.000000 0 0 1
7.664989 25.307318 19.975973 33.139884 1.276703 0.923819 0.109748 -0.042864 154400.000000 0 0 1
7.695089 26.402518 19.108373 33.487867 1.287199 0.963553 0.108202 -0.051507 1679260.000000 0 0 1
6.287889 26.707218 18.828273 33.276371 1.339569 0.969375 0.101054 -0.058213 1846400.000000 0 0 1
6.204489 27.818318 17.780673 33.593255 1.351352 1.013029 0.112830 -0.048112 -6023.210000 0 0 1
6.536989 27.521418 16.444973 32.719991 1.337594 1.044196 0.107574 -0.037032 -209971.000000 0 0 1
7.208389 28.634718 15.906573 33.539931 1.324184 1.076676 0.105102 -0.031286 129892.000000 0 0 1
7.986189 28.321618 14.565673 32.833703 1.295951 1.111163 0.094058 -0.032532 171063.000000 0 0 1
7.232989 28.208318 13.344273 32.032717 1.319791 1.141113 0.093096 -0.029543 -73109.900000 0 0 1
6.935589 26.887018 12.959173 30.642361 1.318347 1.134134 0.077330 -0.032948 -281888.000000 0 0 1
6.248589 26.882518 11.623073 29.946794 1.342411 1.172201 0.077860 -0.032015 142603.000000 0 0 1
7.075089 27.186618 10.447973 29.972140 1.316202 1.214731 0.064394 -0.027356 654801.000000 0 0 1
7.330289 28.607618 10.346273 31.291761 1.319958 1.233816 0.064212 -0.024973 -54417.000000 0 0 1
7.618689 29.074118 8.867973 31.336715 1.314515 1.283886 0.042906 -0.012045 131588.000000 0 0 1
6.432389 29.233418 8.097173 31.008588 1.354212 1.306607 0.068243 -0.025201 80213.300000 0 0 1
5.995789 28.033018 7.478173 29.626384 1.360088 1.315620 0.059943 -0.014093 -123815.000000 0 0 1
4.485389 28.075518 7.180273 29.324217 1.412374 1.323423 0.079044 -0.023681 -212828.000000 0 0 1
4.003589 29.043018 6.275073 29.981697 1.433809 1.359941 0.074719 -0.013871 93713.300000 0 0 1
2.591289 28.919918 6.163073 29.682653 1.481433 1.361643 0.091209 -0.013496 245971.000000 0 0 1
1.997289 29.869318 5.162073 30.377826 1.504028 1.400039 0.097832 -0.018063 -517037.000000 0 0 1
2.431989 29.610918 3.857373 29.959979 1.488849 1.441687 0.071867 -0.018016 32779.000000 0 0 1
1.787789 30.401118 2.860073 30.587647 1.512057 1.477155 0.053902 -0.022450 829431.000000 0 0 1
0.425389 29.798018 2.380173 29.895953 1.556522 1.491097 0.104574 -0.022874 357574.000000 0 0 1
0.663389 28.586918 1.637773 28.641478 1.547594 1.513583 0.101332 -0.027101 -1126960.000000 0 0 1
-0.431111 27.823118 1.332773 27.858356 -1.555303 1.522937 0.094601 -0.024640 -741535.000000 0 0 1
-0.934711 27.984418 -0.141127 28.000379 -1.537408 1.575837 0.085184 -0.026985 -103757.000000 0 0 1
-1.532211 29.237218 -0.260827 29.278501 -1.518438 1.579705 0.085803 -0.024080 -303176.000000 0 0 1
-1.403411 29.795018 -1.528827 29.867205 -1.523729 1.622006 0.083135 -0.027953 139602.000000 0 0 1
-2.601911 30.725918 -1.908827 30.894912 -1.486317 1.632620 0.111002 -0.024428 2244890.000000 0 0 1
-3.858111 30.193218 -2.480027 30.539580 -1.443704 1.652093 0.086783 -0.028796 1843950.000000 0 0 1
-3.620111 29.664318 -3.764727 30.120593 -1.449361 1.696113 0.075582 -0.026633 -728562.000000 0 0 1
-4.859611 29.196118 -4.522327 29.941285 -1.405861 1.722416 0.077390 -0.026446 59459.500000 0 0 1
-5.581711 30.258218 -5.214127 31.207409 -1.388378 1.738663 0.083554 -0.026126 461304.000000 0 0 1
-6.549811 29.790318 -6.138527 31.113414 -1.354376 1.769394 0.074470 -0.028758 16882.000000 0 0 1
-7.319511 30.912318 -6.849427 32.497096 -1.338295 1.783159 0.079578 -0.016665 346549.000000 0 0 1
-8.381211 31.449118 -6.030527 33.100739 -1.310349 1.754007 0.071481 -0.015067 201674.000000 0 0 1
-8.852411 32.543518 -6.778927 34.400575 -1.305205 1.769153 0.071469 -0.024351 247880.000000 0 0 1
-9.951211 33.381518 -6.043327 35.353559 -1.281079 1.742580 0.071100 -0.025740 769691.000000 0 0 1
-11.212111 32.737118 -6.016027 35.122968 -1.240828 1.742930 0.080004 -0.023691 -215632.000000 0 0 1
-12.263711 33.538318 -5.541727 36.137627 -1.220237 1.724754 0.084530 -0.022106 -474566.000000 0 0 1
-13.622711 32.956418 -5.857327 36.138788 -1.178830 1.733593 0.098064 -0.026164 -772516.000000 0 0 1
-13.977011 33.057718 -7.230527 36.612157 -1.170785 1.769593 0.088442 -0.020765 -147472.000000 0 0 1
-15.328611 32.792618 -7.507727 36.968744 -1.133534 1.775302 0.098598 -0.025999 -579934.000000 0 0 1
-15.769211 33.111918 -8.934827 37.747824 -1.126337 1.809762 0.129698 -0.031029 297544.000000 0 0 1
-17.134411 33.033418 -9.287627 38.354331 -1.092301 1.815381 0.166152 -0.037576 57107.800000 0 0 1
-18.010511 -33.743980 -8.815927 39.252455 1.080522 1.797324 0.156900 -0.041265 -1139950.000000 0 0 1
-19.490311 33.692118 -8.998827 39.950092 -1.046349 1.797998 0.156316 -0.039666 -405436.000000 0 0 1
-20.007311 32.700418 -8.127027 39.187477 -1.021719 1.779701 0.143541 -0.045226 -85450.600000 0 0 1
-20.257411 33.122318 -6.782927 39.413941 -1.021895 1.743752 0.129516 -0.049467 -592408.000000 0 0 1
-20.996111 32.115918 -5.903527 38.821649 -0.991782 1.723457 0.131456 -0.046468 -674990.000000 0 0 1
-21.012411 32.565218 -4.582427 39.025805 -0.997774 1.688488 0.131128 -0.048478 -324451.000000 0 0 1
-22.230511 32.610018 -3.908827 39.659649 -0.972453 1.669516 0.134792 -0.046780 -364860.000000 0 0 1
-23.175911 33.812018 -4.147227 41.201637 -0.969913 1.671624 0.143764 -0.049299 -279844.000000 0 0 1
-23.714211 33.849918 -5.409227 41.682616 -0.959688 1.700935 0.147984 -0.051129 -360954.000000 0 0 1
-24.630711 -32.879280 -5.576127 41.458559 0.927855 1.705704 0.146143 -0.052701 -344304.000000 0 0 1
-25.505041 -32.869380 -6.792627 42.154988 0.910892 1.732636 0.171212 -0.048089 -403109.000000 0 0 1
-24.712511 -32.488380 -7.891827 41.575040 0.920510 1.761776 0.190951 -0.046032 233339.000000 0 0 1
-25.263301 -32.753880 -9.231827 42.382516 0.913798 1.790378 0.142632 -0.036719 358268.000000 0 0 1
-26.489681 -31.896380 -9.670627 42.574679 0.877737 1.799941 0.129133 -0.026837 -357988.000000 0 0 1
-27.688671 -32.309880 -9.060227 43.504925 0.862268 1.780589 0.141374 -0.016597 186230.000000 0 0 1
-28.851941 -31.643480 -9.592427 43.883470 0.831510 1.791164 0.066099 -0.010236 642398.000000 0 0 1
-29.057661 -30.111380 -9.426627 42.894104 0.803205 1.792370 0.039005 0.004906 -294811.000000 0 0 1
-28.053681 -29.241980 -10.053027 41.751236 0.806135 1.813970 0.057836 0.010943 588985.000000 0 0 1
-28.202481 -29.007180 -11.474927 42.053185 0.799463 1.847168 0.057459 0.007763 354662.000000 0 0 1
-27.055801 -28.083780 -11.984027 40.796225 0.804039 1.868947 0.093693 -0.002244 1102550.000000 0 0 1
-25.745531 -28.642380 -12.148427 40.383196 0.838611 1.876358 0.104170 -0.017261 515586.000000 0 0 1
-25.017211 -27.931380 -13.129827 39.729274 0.840380 1.907611 0.101877 -0.022591 234181.000000 0 0 1
-23.699111 -28.692880 -13.472627 39.578288 0.880427 1.918143 0.116035 -0.036696 87404.400000 0 0 1
-23.833111 -29.898580 -14.208927 40.790144 0.897807 1.926598 0.129602 -0.038956 -170572.000000 0 0 1
-23.938011 -31.023080 -13.309627 41.383644 0.913602 1.898232 0.130901 -0.041383 49525.900000 0 0 1
-24.679511 -32.231580 -13.932227 42.919226 0.917327 1.901401 0.142226 -0.040824 -266777.000000 0 0 1
-24.705211 -33.305180 -13.022127 43.464448 0.932575 1.875074 0.129626 -0.044642 7288.960000 0 0 1
-24.767611 33.243218 -13.809727 43.695018 -0.930476 1.892357 0.138480 -0.049396 -459952.000000 0 0 1
-25.081811 32.027818 -12.911527 42.680041 -0.906430 1.878131 0.108542 -0.039090 166036.000000 0 0 1
-23.980911 31.591118 -12.124127 41.473814 -0.921495 1.867461 0.099349 -0.037095 449649.000000 0 0 1
-23.499211 32.472418 -11.125027 41.598522 -0.944363 1.841530 0.122499 -0.041255 -196523.000000 0 0 1
-22.843911 31.752418 -9.934127 40.357740 -0.947143 1.819504 0.126056 -0.043765 109652.000000 0 0 1
-23.767011 31.016918 -9.146227 40.131950 -0.916970 1.800721 0.116188 -0.032760 -54683.900000 0 0 1
-23.141111 30.369318 -8.080027 39.026828 -0.919666 1.779342 0.133013 -0.031662 -160900.000000 0 0 1
-24.094511 29.448218 -7.272127 38.737925 -0.885056 1.759643 0.117680 -0.029280 134052.000000 0 0 1
-24.659911 28.418418 -8.028427 38.473020 -0.856091 1.781018 0.111863 -0.009503 28743.200000 0 0 1
-25.211561 27.312518 -7.318627 37.883489 -0.825377 1.765206 0.102226 -0.017451 488438.000000 0 0 1
-24.108311 26.277618 -6.852827 36.313704 -0.828425 1.760647 0.091942 -0.016769 1088370.000000 0 0 1
-23.252511 26.878718 -5.858427 36.020354 -0.857607 1.734164 0.099061 -0.020183 142516.000000 0 0 1
-22.493211 25.975218 -5.081727 34.734427 -0.857116 1.717626 0.086181 -0.028593 369544.000000 0 0 1
-21.117511 26.563418 -4.606127 34.245888 -0.899121 1.705707 0.080974 -0.041600 586775.000000 0 0 1
-20.322511 26.769118 -5.773727 34.101701 -0.921447 1.740925 0.100306 -0.033899 -358318.000000 0 0 1
-19.136811 27.486518 -5.479727 33.937495 -0.962608 1.732972 0.103271 -0.035524 314411.000000 0 0 1
-18.227911 27.383118 -6.767427 33.584073 -0.983489 1.773693 0.121337 -0.033666 -126800.000000 0 0 1
-18.678811 28.055918 -7.941527 34.628028 -0.983414 1.802194 0.121327 -0.030134 65414.800000 0 0 1
-18.716211 29.447818 -7.915327 35.778805 -1.004631 1.793871 0.125240 -0.035762 -14081.000000 0 0 1
-18.735011 30.087518 -9.329927 36.651151 -1.013864 1.828189 0.119896 -0.040657 -107205.000000 0 0 1
-17.477711 29.997718 -9.959227 36.118134 -1.043243 1.850156 0.131449 -0.038753 64537.700000 0 0 1
-17.560811 30.460818 -11.289427 36.928236 -1.047832 1.881483 0.128914 -0.040762 -1504790.000000 0 0 1
-16.183111 30.740618 -11.758427 36.676140 -1.086221 1.897161 0.123693 -0.040344 -1351030.000000 0 0 1
-16.045411 31.328418 -13.051927 37.540348 -1.097462 1.925889 0.122850 -0.044402 -311181.000000 0 0 1
-16.253911 30.459818 -14.114427 37.298889 -1.080617 1.958879 0.126731 -0.055209 -217831.000000 0 0 1
-15.770111 31.138318 -15.383927 38.143891 -1.101999 1.985931 0.165386 -0.052998 -255437.000000 0 0 1
-14.389211 31.331418 -15.476127 37.791767 -1.140270 1.992714 0.152423 -0.067400 -612692.000000 0 0 1
-13.937011 31.884018 -16.684027 38.589994 -1.158708 2.017883 0.135832 -0.070284 -609198.000000 0 0 1
-12.428611 32.054518 -16.736227 38.236942 -1.200909 2.023833 0.146188 -0.072010 -1019930.000000 0 0 1
-11.680611 30.870118 -16.699927 36.990382 -1.209066 2.039205 0.144315 -0.088409 -400819.000000 0 0 1
-10.472111 30.892818 -17.416527 36.977922 -1.243971 2.061218 0.142994 -0.081502 -204373.000000 0 0 1
-10.536511 30.916618 -18.960927 37.767341 -1.242337 2.096759 0.153329 -0.088737 -396282.000000 0 0 1
-10.938111 29.701218 -19.636827 37.247947 -1.217938 2.126089 0.113229 -0.083809 154374.000000 0 0 1
-10.699011 29.744718 -21.040027 37.972356 -1.225511 2.158063 0.115577 -0.087254 -425282.000000 0 0 1
-11.925811 29.462218 -21.986327 38.647714 -1.186173 2.175953 0.100650 -0.069814 378115.000000 0 0 1
-12.767511 30.600318 -21.966927 39.773542 -1.175521 2.155917 0.109531 -0.067526 371327.000000 0 0 1
-13.933311 30.373718 -21.158627 39.552337 -1.140707 2.135248 0.101005 -0.060258 130175.000000 0 0 1
-15.069411 31.404618 -21.250627 40.803508 -1.123401 2.118589 0.150943 -0.066651 -122860.000000 0 0 1
-15.654611 31.430218 -22.513427 41.710668 -1.108690 2.140939 0.124492 -0.054935 -431255.000000 0 0 1
-16.572811 32.476818 -22.636027 42.916098 -1.098945 2.126391 0.123675 -0.047324 123357.000000 0 0 1
-17.191811 32.591218 -24.049627 44.001482 -1.085393 2.149052 0.102718 -0.037633 949018.000000 0 0 1
-16.110111 32.840018 -24.991027 44.300721 -1.114726 2.170166 0.122202 -0.039459 716594.000000 0 0 1
-16.479311 32.817418 -26.359527 45.203708 -1.105429 2.193370 0.125178 -0.029030 -63504.400000 0 0 1
-17.038511 -33.649480 -26.916327 46.336670 1.102079 2.190613 0.102573 -0.019375 306660.000000 0 0 1
-18.404311 -33.405080 -26.627227 46.514807 1.067229 2.180283 0.087228 -0.015494 -165266.000000 0 0 1
-18.719511 -32.164480 -27.190327 46.089996 1.043722 2.201781 0.074711 -0.004518 460317.000000 0 0 1
-20.179711 -31.740280 -26.845527 46.209830 1.004485 2.190690 0.065688 -0.014363 1168550.000000 0 0 1
-21.190211 -32.701280 -27.206827 47.524837 0.995833 2.180319 0.053716 -0.011075 754196.000000 0 0 1
-22.534311 -32.224380 -27.052827 47.729040 0.960544 2.173413 0.039345 -0.009537 742942.000000 0 0 1
-23.581511 -33.307280 -27.235527 49.063596 0.954722 2.159287 0.014373 0.002783 -443776.000000 0 0 1
-23.522611 33.529018 -26.176527 48.607806 -0.959024 2.139482 0.048893 -0.006114 -145608.000000 0 0 1
-24.520311 32.517418 -26.334127 48.498601 -0.924697 2.144787 0.031522 -0.002424 362369.000000 0 0 1
-24.262411 31.249918 -27.245027 48.036584 -0.910613 2.173865 0.033771 -0.006009 31113.500000 0 0 1
-23.419211 30.230818 -26.743327 46.664412 -0.911686 2.181079 0.034048 -0.028844 -23312.300000 0 0 1
-24.145411 29.368918 -25.881527 45.993343 -0.882699 2.168473 0.028933 -0.021785 289263.000000 0 0 1
32.217629 10.239918 -26.056621 42.682304 0.307739 2.227461 0.077944 -0.021134 16299.500000 0 0 1
31.823109 8.901018 -26.276741 42.218545 0.272733 2.242599 0.053518 -0.015276 787475.000000 0 0 1
30.411449 8.715918 -26.100371 41.012837 0.279118 2.260612 0.064138 -0.018302 689674.000000 0 0 1
29.963889 7.260818 -25.840901 40.228178 0.237736 2.268368 0.054256 -0.014741 71913.300000 0 0 1
30.529259 6.810318 -24.630571 39.813077 0.219482 2.237826 0.031628 0.002052 65189.200000 0 0 1
29.786959 5.732218 -24.189971 38.797886 0.190116 2.243991 0.036866 0.002213 -235877.000000 0 0 1
29.798949 5.551818 -22.690971 37.863970 0.184197 2.213393 0.038566 0.000318 -127390.000000 0 0 1
31.054809 5.212318 -22.148471 38.498366 0.166293 2.183779 0.069322 -0.010521 78343.200000 0 0 1
30.888839 4.880018 -20.791371 37.552844 0.156691 2.157545 0.065043 -0.014430 -200135.000000 0 0 1
32.169629 4.671718 -19.962471 38.147218 0.144213 2.121516 0.065264 -0.011737 -329136.000000 0 0 1
32.800889 3.427218 -20.074571 38.608711 0.104108 2.117588 0.088098 -0.012051 55815.200000 0 0 1
33.562919 3.229818 -18.921071 38.664043 0.095936 2.082165 0.098001 -0.013595 -479119.000000 0 0 1
34.261819 1.853418 -18.952571 39.198308 0.054043 2.075451 0.118954 -0.026653 -364996.000000 0 0 1
33.366529 0.820718 -18.852371 38.332894 0.024592 2.084960 0.108798 -0.020659 -91900.400000 0 0 1
34.110939 -0.393082 -18.835971 38.967993 -0.011523 2.075297 0.127205 -0.024625 11465.800000 0 0 1
33.216999 -1.636982 -18.760571 38.183868 -0.049242 2.084403 0.099077 -0.020670 326305.000000 0 0 1
32.734019 -1.911982 -17.410571 37.125459 -0.058343 2.058916 0.099406 -0.016319 133241.000000 0 0 1
31.494199 -1.323482 -17.082571 35.853179 -0.041998 2.067419 0.084544 -0.029523 -238372.000000 0 0 1
30.959409 -1.569182 -15.662671 34.731349 -0.050642 2.038644 0.098569 -0.024342 -111427.000000 0 0 1
30.706549 -2.962082 -15.360871 34.461899 -0.096167 2.032791 0.087867 -0.025529 860331.000000 0 0 1
29.969029 -3.051282 -14.093071 33.257596 -0.101465 2.008383 0.091284 -0.030238 200627.000000 0 0 1
29.863519 -4.502282 -13.553671 33.102905 -0.149635 1.992637 0.093851 -0.036153 56578.800000 0 0 1
29.239039 -5.439082 -14.446271 33.063572 -0.183919 2.022973 0.073589 -0.034351 506176.000000 0 0 1
29.030339 -6.651182 -13.802971 32.825612 -0.225224 2.004786 0.079614 -0.026221 -208971.000000 0 0 1
28.307239 -7.647982 -14.718171 32.808779 -0.263877 2.036000 0.053648 -0.020115 286223.000000 0 0 1
26.993039 -7.294882 -15.133171 31.793904 -0.263945 2.066871 0.084054 -0.028217 529609.000000 0 0 1
26.447839 -8.159782 -16.145971 32.043137 -0.299258 2.098884 0.077268 -0.025885 33251.800000 0 0 1
24.967539 -7.894582 -16.458571 30.928741 -0.306247 2.131928 0.073772 -0.023563 -335439.000000 0 0 1
24.787239 -6.650282 -17.081671 30.828833 -0.262122 2.158055 0.064964 -0.021705 1226380.000000 0 0 1
23.434939 -6.393382 -17.566871 29.977770 -0.266333 2.196906 0.096393 -0.026422 1432440.000000 0 0 1
23.071639 -6.986782 -19.009571 30.699828 -0.294051 2.238530 0.078934 -0.015237 -548806.000000 0 0 1
23.895639 -6.439182 -19.951571 31.788832 -0.263219 2.249299 0.062503 -0.020795 -310956.000000 0 0 1
23.675139 -6.863982 -21.240671 32.539093 -0.282187 2.282037 0.079556 -0.025313 11863.600000 0 0 1
24.488139 -6.016982 -22.261271 33.636843 -0.240937 2.294030 0.077414 -0.033568 -61530.200000 0 0 1
24.312539 -6.463982 -23.582171 34.481900 -0.259859 2.323891 0.086958 -0.041185 73141.600000 0 0 1
24.442339 -5.323282 -24.442271 34.974132 -0.214441 2.344609 0.079544 -0.031767 -319943.000000 0 0 1
24.351939 -5.560982 -26.000361 36.054961 -0.224509 2.376230 0.102981 -0.037169 -305893.000000 0 0 1
23.094639 -5.985082 -26.453471 35.622601 -0.253576 2.407746 0.099451 -0.034162 -506014.000000 0 0 1
22.912539 -5.965582 -27.842901 36.548594 -0.254708 2.436891 0.093504 -0.037936 42898.000000 0 0 1
21.643439 -6.698782 -28.300731 36.252497 -0.300155 2.466511 0.077334 -0.041548 69713.900000 0 0 1
21.694139 -8.090082 -28.151371 36.449757 -0.356942 2.453303 0.068721 -0.030352 799558.000000 0 0 1
20.441639 -8.699282 -28.524031 36.154646 -0.402351 2.479887 0.062348 -0.034987 666595.000000 0 0 1
20.329439 -10.119282 -27.884281 35.961355 -0.461858 2.458138 0.084220 -0.019931 -138034.000000 0 0 1
19.012039 -10.612082 -27.981941 35.455083 -0.509099 2.480338 0.099805 -0.016248 101748.000000 0 0 1
18.775339 -11.830282 -27.307121 35.187324 -0.562256 2.459175 0.099053 -0.017435 -255494.000000 0 0 1
18.851939 -13.079182 -28.165031 36.328083 -0.606542 2.457981 0.088341 -0.009692 -356015.000000 0 0 1
17.796539 -13.220982 -29.067511 36.557234 -0.638939 2.490007 0.087817 -0.008556 -172464.000000 0 0 1
18.079239 -14.276182 -29.875821 37.725760 -0.668395 2.484745 0.064673 -0.010448 583325.000000 0 0 1
16.821739 -14.696782 -30.717451 37.980628 -0.718081 2.512848 0.057506 -0.012312 509276.000000 0 0 1
15.750239 -15.268782 -30.005511 37.169025 -0.769878 2.510311 0.046919 -0.013858 235098.000000 0 0 1
14.734439 -15.763882 -30.883331 37.674710 -0.819139 2.531747 0.048129 -0.018222 -91608.600000 0 0 1
13.590139 -16.290982 -30.008911 36.750819 -0.875539 2.526207 0.061919 -0.022916 -475646.000000 0 0 1
13.854139 -17.493082 -29.353931 36.872732 -0.900966 2.491599 0.057432 -0.017496 -326811.000000 0 0 1
12.915039 -17.802982 -28.364231 35.892534 -0.943198 2.482020 0.061865 -0.022317 -350645.000000 0 0 1
13.218439 -19.074882 -27.545651 36.018622 -0.964800 2.441467 0.070268 -0.025408 -417391.000000 0 0 1
14.291839 -19.034682 -26.661771 35.741094 -0.926763 2.412786 0.071840 -0.022645 -599840.000000 0 0 1
14.289139 -20.115282 -25.734121 35.651775 -0.953150 2.377223 0.079603 -0.019250 -782537.000000 0 0 1
15.404939 -20.171382 -24.709071 35.422239 -0.918583 2.342780 0.069787 -0.016058 -1612330.000000 0 0 1
16.590639 -20.596982 -25.248861 36.564873 -0.892717 2.333007 0.065027 -0.011917 -213042.000000 0 0 1
17.589139 -20.633582 -24.192471 36.337284 -0.864880 2.299329 0.060126 -0.005821 24669.600000 0 0 1
19.019239 -20.989182 -24.614671 37.525448 -0.834597 2.286232 0.055684 -0.008629 -373745.000000 0 0 1
19.401739 -22.356582 -24.854771 38.652346 -0.856041 2.269250 0.071118 -0.021598 425961.000000 0 0 1
19.213539 -23.207082 -23.725971 38.349061 -0.879263 2.237864 0.071456 -0.038555 -760676.000000 0 0 1
19.732339 -24.645382 -23.836071 39.559049 -0.895659 2.217481 0.065838 -0.036497 -727106.000000 0 0 1
21.132539 -24.677882 -23.812471 40.281706 -0.862636 2.203278 0.072460 -0.033169 -82895.800000 0 0 1
21.686739 -25.814432 -23.141371 40.892819 -0.872077 2.172324 0.080134 -0.048347 5656.280000 0 0 1
21.613339 -25.787112 -21.569971 39.967177 -0.873225 2.140868 0.094929 -0.041815 -450198.000000 0 0 1
20.302639 -25.883142 -21.036171 39.046827 -0.905643 2.139740 0.082376 -0.035964 389291.000000 0 0 1
20.374439 -25.904182 -19.602171 38.345659 -0.904322 2.107373 0.082959 -0.035170 1059960.000000 0 0 1
18.989339 -26.501972 -19.121671 37.796664 -0.949065 2.101232 0.072669 -0.026852 475218.000000 0 0 1
18.946539 -27.901902 -19.441671 38.928988 -0.974276 2.093718 0.064834 -0.021673 211655.000000 0 0 1
17.791639 -28.586272 -18.992971 38.658121 -1.014080 2.084385 0.049683 -0.012859 454442.000000 0 0 1
16.390139 -28.243222 -19.589871 38.079907 -1.044972 2.111152 0.053671 -0.018328 137741.000000 0 0 1
15.781339 -27.262872 -18.745671 36.656719 -1.046067 2.107591 0.055895 -0.020791 72199.700000 0 0 1
14.476139 -26.992272 -19.237371 36.169294 -1.078527 2.131604 0.055450 -0.010000 469140.000000 0 0 1
13.588739 -25.964282 -18.478371 34.644595 -1.088634 2.133375 0.055410 -0.018084 -106909.000000 0 0 1
12.947239 -26.501882 -17.345371 34.217578 -1.116358 2.102397 0.055932 -0.018526 51962.500000 0 0 1
11.919239 -25.597352 -16.932671 32.924278 -1.135010 2.110977 0.073707 -0.030074 724929.000000 0 0 1
10.444139 -25.940002 -17.294671 32.879620 -1.188028 2.124686 0.089860 -0.024339 -112405.000000 0 0 1
9.861539 -26.838482 -16.329871 32.927477 -1.218670 2.089707 0.093352 -0.022539 1300290.000000 0 0 1
8.424539 -26.664652 -16.209971 32.322433 -1.264777 2.096138 0.082403 -0.012934 1895350.000000 0 0 1
7.498939 -27.289062 -17.321171 33.180566 -1.302619 2.120023 0.088187 -0.007916 44035.600000 0 0 1
7.649939 -26.835042 -18.637471 33.555870 -1.293090 2.159660 0.089555 -0.004875 -437760.000000 0 0 1
6.935339 -27.664282 -19.487371 34.542279 -1.325162 2.170212 0.087121 -0.002306 -152181.000000 0 0 1
6.938039 -27.172112 -21.010171 35.041224 -1.320801 2.213778 0.073813 -0.006368 -7028.340000 0 0 1
6.073039 -26.059592 -21.195971 34.135807 -1.341839 2.240726 0.075769 -0.015742 127569.000000 0 0 1
6.104339 -25.509462 -22.501671 34.558947 -1.335916 2.279842 0.051207 -0.009603 -1408840.000000 0 0 1
4.832439 -24.904382 -22.992271 34.237775 -1.379138 2.307091 0.036493 -0.013532 -1824250.000000 0 0 1
3.815339 -25.851832 -23.096871 34.876059 -1.424269 2.294622 0.037934 -0.007404 -484924.000000 0 0 1
2.742639 -25.120162 -23.679671 34.630499 -1.462046 2.323728 0.043915 -0.008219 -374767.000000 0 0 1
1.681939 -26.011872 -24.284771 35.625784 -1.506226 2.320829 0.016208 -0.005958 -466949.000000 0 0 1
2.155239 -26.729122 -25.405781 36.939745 -1.490338 2.329199 0.015314 -0.004484 676306.000000 0 0 1
1.116539 -27.455342 -26.119701 37.911492 -1.530151 2.330857 0.035744 -0.012215 549563.000000 0 0 1
1.663339 -28.272772 -27.264431 39.312409 -1.512032 2.337177 0.025155 -0.012998 -871558.000000 0 0 1
1.945339 -27.604202 -28.510241 39.731727 -1.500440 2.371101 0.018404 -0.013705 190545.000000 0 0 1
2.635339 -28.538122 -29.316701 40.998029 -1.478713 2.367529 0.028857 -0.016300 71680.800000 0 0 1
4.115239 -28.902292 -29.059051 41.191093 -1.429362 2.353881 0.027998 -0.016086 -613325.000000 0 0 1
4.394839 -29.836352 -28.032001 41.174210 -1.424550 2.319670 0.027264 -0.026353 99122.700000 0 0 1
5.541739 -30.596162 -28.397581 42.110077 -1.391614 2.310901 0.060410 -0.028173 -89691.300000 0 0 1
5.845739 -31.786972 -27.471021 42.417464 -1.388925 2.275272 0.088208 -0.037272 -338737.000000 0 0 1
4.916739 -32.858792 -27.491391 43.123672 -1.422266 2.262047 0.079541 -0.046836 12679.900000 0 0 1
5.375739 33.663112 -27.036521 43.509506 1.412441 2.241316 0.102688 -0.058485 -357863.000000 0 0 1
4.183139 32.802291 -26.559821 42.413595 1.443955 2.247479 0.124812 -0.058164 -364860.000000 0 0 1
3.596739 32.256302 -27.690811 42.663644 1.459750 2.277130 0.105719 -0.056958 -230931.000000 0 0 1
2.266739 31.906548 -27.415151 42.127858 1.499872 2.279382 0.065509 -0.053854 59746.600000 0 0 1
1.215339 32.139543 -28.546851 43.004069 1.533000 2.296708 0.072922 -0.042881 115784.000000 0 0 1
1.288539 31.110315 -29.508161 42.898060 1.529402 2.329343 0.096063 -0.048532 99853.400000 0 0 1
0.156339 31.203735 -30.337981 43.521151 1.565786 2.342121 0.089166 -0.040036 75258.300000 0 0 1
0.197239 30.147655 -31.461851 43.574856 1.564254 2.377512 0.085043 -0.040569 19817.500000 0 0 1
1.008839 30.562365 -32.575841 44.679540 1.537799 2.387802 0.095616 -0.041202 241861.000000 0 0 1
0.770839 29.827355 -33.756811 45.053164 1.544959 2.417750 0.116766 -0.050845 537915.000000 0 0 1
2.074539 29.262395 33.364928 44.427580 1.500020 0.721227 0.099743 -0.034547 597983.000000 0 0 1
3.010939 30.165455 32.808490 44.670096 1.471312 0.745923 0.099232 -0.036862 -97302.800000 0 0 1
4.020439 29.618335 32.002521 43.790079 1.435879 0.751279 0.072012 -0.039722 -854220.000000 0 0 1
3.624639 28.763515 30.757153 42.266775 1.445442 0.755847 0.081491 -0.034760 -594226.000000 0 0 1
3.182439 27.416685 30.943623 41.464567 1.455237 0.728361 0.089030 -0.037627 412527.000000 0 0 1
4.246939 26.565295 31.335763 41.299896 1.412270 0.709424 0.080505 -0.026936 55156.800000 0 0 1
3.643139 25.179215 31.785960 40.713789 1.427105 0.674983 0.073672 -0.031808 87001.300000 0 0 1
3.164439 24.432205 30.680983 39.348050 1.441994 0.676557 0.089115 -0.024477 49909.500000 0 0 1
3.081539 23.029095 30.956703 38.705976 1.437776 0.643849 0.074191 -0.023064 -773811.000000 0 0 1
2.271839 22.233015 29.995503 37.405861 1.468967 0.640339 0.063824 -0.014030 167687.000000 0 0 1
0.872839 22.287215 30.268033 37.598346 1.531653 0.635060 0.062011 -0.020107 540011.000000 0 0 1
0.113439 21.643415 29.189273 36.338188 1.565555 0.638036 0.066970 -0.014908 1450070.000000 0 0 1
-1.330961 21.220015 29.660613 36.494006 -1.508156 0.621934 0.059205 -0.009874 1021840.000000 0 0 1
-2.206561 22.308115 30.002653 37.452371 -1.472204 0.641685 0.070047 -0.011756 610222.000000 0 0 1
-3.446461 21.809915 30.484123 37.640832 -1.414070 0.626868 0.044939 -0.005828 292560.000000 0 0 1
-4.539161 22.906865 30.632913 38.518876 -1.375173 0.651343 0.036239 -0.012467 161983.000000 0 0 1
-4.530561 23.491185 31.914189 39.885802 -1.380273 0.643269 0.052809 -0.012786 -258747.000000 0 0 1
-5.575461 24.396255 32.053004 40.665195 -1.346117 0.662890 0.043041 -0.017875 -327973.000000 0 0 1
-5.525961 25.013265 33.482316 42.157623 -1.353368 0.653078 0.077094 -0.016815 -53076.700000 0 0 1
-6.659861 25.801365 33.771293 43.018187 -1.318190 0.668025 0.080448 -0.012379 2653.300000 0 0 1
-6.807761 26.053765 -32.635421 42.310932 -1.315214 2.451715 0.084928 -0.018581 -892801.000000 0 0 1
-8.224361 26.481705 -32.365761 42.619987 -1.269673 2.433192 0.111024 -0.013955 -1099900.000000 0 0 1
-8.460561 27.807515 -32.803451 43.828134 -1.275441 2.416528 0.108552 -0.020984 -121715.000000 0 0 1
-9.760961 28.245005 -32.466291 44.126145 -1.238063 2.397586 0.102792 -0.020383 181568.000000 0 0 1
-9.909261 28.695035 -30.937881 43.344561 -1.238288 2.365657 0.103658 -0.026361 -190676.000000 0 0 1
-9.184661 29.848925 -30.592811 43.717690 -1.272286 2.345887 0.121794 -0.026857 -62631.400000 0 0 1
-9.278561 30.069925 -29.166721 42.906756 -1.271499 2.318245 0.127055 -0.032529 196011.000000 0 0 1
-8.515561 31.364715 -28.763131 43.400205 -1.305686 2.295271 0.108707 -0.035672 222416.000000 0 0 1
-7.112261 31.287835 -28.813071 43.124308 -1.347278 2.302502 0.089557 -0.035275 -80024.500000 0 0 1
-6.444861 32.534649 -28.622671 43.809781 -1.375236 2.282784 0.098154 -0.032326 276665.000000 0 0 1
-4.888061 32.496303 -28.612661 43.572780 -1.421497 2.287183 0.111840 -0.037647 179161.000000 0 0 1
-4.306061 33.722786 -28.175211 44.154399 -1.443794 2.262833 0.119571 -0.039247 -105589.000000 0 0 1
-4.401561 -32.950202 -29.065611 44.157664 1.438000 2.289253 0.126459 -0.042069 56826.900000 0 0 1
-3.319961 -33.133982 -30.215931 44.965380 1.470932 2.307678 0.124101 -0.052393 38142.800000 0 0 1
-3.580661 33.653475 -31.260991 46.071977 -1.464797 2.316549 0.121637 -0.039002 248551.000000 0 0 1
-4.632061 -33.692902 -32.134551 46.789924 1.434174 2.327851 0.139167 -0.046059 197555.000000 0 0 1
-4.289161 -32.520482 -33.100511 46.600670 1.439662 2.360722 0.107438 -0.056159 -247511.000000 0 0 1
-4.023161 -31.206232 -32.532561 45.259057 1.442582 2.372882 0.104317 -0.052777 696635.000000 0 0 1
-3.158161 -30.570542 -33.505771 45.466127 1.467854 2.399327 0.093796 -0.064354 456694.000000 0 0 1
33.847609 18.616518 12.964573 40.746970 0.502851 1.246995 0.116134 -0.038514 -45508.500000 0 0 1
35.129789 18.059118 13.095573 41.614034 0.474839 1.250665 0.116451 -0.038397 -250979.000000 0 0 1
35.081769 16.820718 13.715873 41.252785 0.447091 1.231861 0.125155 -0.020642 -306751.000000 0 0 1
36.486029 16.350218 14.139173 42.408445 0.421292 1.230884 0.110397 -0.037398 230565.000000 0 0 1
37.401279 15.853918 13.178273 42.706783 0.400928 1.257101 0.094485 -0.013355 58744.300000 0 0 1
37.146359 14.494618 12.793573 41.876264 0.372032 1.260323 0.125523 -0.030796 -1024530.000000 0 0 1
-36.428801 13.724618 12.315473 40.830057 -0.360306 1.264397 0.136415 -0.022577 -142060.000000 0 0 1
-35.713720 13.120118 13.398773 40.337754 -0.352064 1.232199 0.131551 -0.025129 355165.000000 0 0 1
-36.366631 11.874418 13.820273 40.675958 -0.315606 1.224129 0.138746 -0.024272 282277.000000 0 0 1
-35.670820 11.240818 15.053173 40.315771 -0.305276 1.188145 0.175032 -0.039155 51500.600000 0 0 1
-35.672610 12.124918 16.163873 40.997799 -0.327644 1.165532 0.167238 -0.027297 269188.000000 0 0 1
-34.936910 11.628318 17.272973 40.671379 -0.321304 1.132170 0.160210 -0.023399 -62383.400000 0 0 1
-34.780382 12.537618 18.513173 41.347362 -0.345980 1.106552 0.152800 -0.029950 314046.000000 0 0 1
-35.946864 12.597518 19.343273 42.720448 -0.337074 1.100907 0.159835 -0.040684 630328.000000 0 0 1
-35.643073 13.409418 20.529873 43.263342 -0.359834 1.076363 0.152574 -0.039107 348628.000000 0 0 1
-36.846001 13.691818 21.489473 44.798338 -0.355783 1.070491 0.168984 -0.058330 199569.000000 0 0 1
-37.400581 12.546818 22.046273 45.191418 -0.323673 1.061180 0.144268 -0.058159 -866786.000000 0 0 1
36.139969 12.788518 22.532973 44.467724 0.340110 1.039413 0.150995 -0.051981 -973837.000000 0 0 1
35.522739 11.564718 23.202023 43.976603 0.314737 1.015024 0.136653 -0.040798 -380444.000000 0 0 1
36.196099 11.100818 24.349303 45.014157 0.297579 0.999259 0.123442 -0.035119 -186621.000000 0 0 1
35.972649 11.831518 25.534343 45.672957 0.317758 0.977534 0.111523 -0.028403 -247689.000000 0 0 1
37.216869 11.721918 26.501633 47.168160 0.305127 0.974171 0.101026 -0.026456 1080610.000000 0 0 1
-36.428861 12.440118 26.151493 46.537286 -0.329074 0.974058 0.132537 -0.038769 141327.000000 0 0 1
-35.621414 11.855118 25.108813 45.165046 -0.321278 0.981309 0.127414 -0.043120 -914600.000000 0 0 1
-34.726162 12.934718 24.495213 44.421039 -0.356557 0.986716 0.133915 -0.046314 577206.000000 0 0 1
-33.561351 13.271518 25.279083 44.062790 -0.376570 0.959773 0.116107 -0.041685 505395.000000 0 0 1
-33.835481 14.007018 26.432413 45.163135 -0.392495 0.945589 0.098452 -0.037542 -868803.000000 0 0 1
-32.550611 14.443318 27.189753 44.804401 -0.417618 0.918699 0.088258 -0.023504 -53020.000000 0 0 1
-31.887441 15.463218 26.520663 44.263592 -0.451520 0.928354 0.105032 -0.028554 -177854.000000 0 0 1
-31.609501 16.459418 27.498623 45.013856 -0.480079 0.913609 0.103404 -0.021733 -241528.000000 0 0 1
-31.099081 17.781518 26.871423 44.781788 -0.519403 0.927230 0.096084 -0.011027 -109106.000000 0 0 1
-32.077051 18.532918 26.180803 45.363429 -0.523908 0.955581 0.062521 -0.028664 85925.300000 0 0 1
-31.491981 19.765218 25.719933 45.209774 -0.560486 0.965626 0.071666 -0.032287 -339634.000000 0 0 1
-32.473801 20.692518 25.003133 45.911705 -0.567329 0.994894 0.080573 -0.013513 -125735.000000 0 0 1
-33.463021 21.219018 25.901083 47.338003 -0.565119 0.991838 0.053465 -0.018372 617641.000000 0 0 1
-34.363097 22.106018 25.263493 48.038969 -0.571656 1.017028 0.059003 -0.012814 -661483.000000 0 0 1
-33.896111 23.594818 25.316963 48.441824 -0.608098 1.020868 0.071861 -0.015502 -190874.000000 0 0 1
-34.633985 24.384318 24.392563 48.878471 -0.613444 1.048300 0.089839 -0.019410 47189.400000 0 0 1
-34.333900 25.770518 24.363363 49.361014 -0.643876 1.054601 0.089088 -0.016354 56354.200000 0 0 1
-35.367438 26.610118 23.573573 50.146459 -0.645029 1.081399 0.109159 -0.022249 35656.300000 0 0 1
-35.302910 26.255218 22.185073 49.272805 -0.639465 1.103751 0.112864 -0.028938 927133.000000 0 0 1
-36.530381 26.614218 21.511773 50.055386 -0.629631 1.126570 0.118332 -0.034768 929061.000000 0 0 1
-36.496321 26.225918 20.018873 49.198938 -0.623094 1.151742 0.153668 -0.050404 113095.000000 0 0 1
-36.315581 24.845918 19.758473 48.234202 -0.600020 1.148741 0.144736 -0.051774 239119.000000 0 0 1
-35.576867 24.704418 18.560373 47.122279 -0.606955 1.165951 0.154985 -0.057589 -117989.000000 0 0 1
-35.888140 23.362618 17.818073 46.381615 -0.577067 1.176496 0.148384 -0.047008 1102210.000000 0 0 1
-37.289781 23.283618 17.488373 47.312766 -0.558165 1.192182 0.154142 -0.052504 711079.000000 0 0 1
-37.401141 22.638718 16.246173 46.640058 -0.544304 1.215006 0.129836 -0.047271 253810.000000 0 0 1
36.001429 22.642618 15.579673 45.293678 0.561425 1.219655 0.131502 -0.048959 412697.000000 0 0 1
35.118489 21.630318 16.021673 44.247858 0.552046 1.200288 0.152207 -0.055538 -78005.600000 0 0 1
33.903679 21.770518 15.301273 43.099233 0.570822 1.207856 0.149902 -0.051617 330496.000000 0 0 1
32.775449 20.753118 15.696373 41.848514 0.564468 1.186318 0.137813 -0.051961 1140560.000000 0 0 1
31.826299 21.048818 16.742473 41.668651 0.584324 1.157314 0.132448 -0.044697 1138780.000000 0 0 1
30.798079 22.005618 16.364473 41.237906 0.620400 1.162735 0.127800 -0.032748 608191.000000 0 0 1
30.066149 22.640418 17.537673 41.522666 0.645431 1.134745 0.114575 -0.024874 117770.000000 0 0 1
30.991759 23.348818 18.326373 42.912846 0.645666 1.129557 0.084917 -0.024048 -214930.000000 0 0 1
30.332599 24.041518 19.357173 43.275412 0.670210 1.107050 0.076706 -0.006615 -351821.000000 0 0 1
31.272469 24.630118 20.352673 44.708403 0.667133 1.098164 0.075159 -0.016501 -524515.000000 0 0 1
31.876579 25.837918 19.955373 45.628184 0.681148 1.118149 0.091475 -0.027803 451.523000 0 0 1
32.871389 26.199718 20.883973 46.937126 0.672932 1.109695 0.093213 -0.028472 354523.000000 0 0 1
33.915549 27.308418 20.469773 48.114715 0.677897 1.131352 0.104762 -0.035390 292745.000000 0 0 1
34.919129 27.687518 21.372773 49.424080 0.670399 1.123603 0.095128 -0.026189 -21229.700000 0 0 1
34.517399 28.428618 22.472273 50.046381 0.688968 1.105118 0.059825 -0.015320 -434110.000000 0 0 1
35.590489 28.411518 23.575883 51.280791 0.673697 1.093093 0.042949 -0.014610 -744778.000000 0 0 1
36.715199 29.164818 23.368703 52.389777 0.671288 1.108444 0.078046 -0.023651 -1173840.000000 0 0 1
37.264159 29.456218 24.617663 53.500614 0.668903 1.092646 0.088026 -0.016845 102837.000000 0 0 1
-36.388851 30.494018 24.486693 53.419394 -0.697489 1.094618 0.098017 -0.027111 213954.000000 0 0 1
-35.151566 30.021418 24.012373 52.091383 -0.706844 1.091713 0.105051 -0.027816 -7747.380000 0 0 1
-34.173941 31.050118 24.035833 52.054676 -0.737541 1.090838 0.104789 -0.027897 1501190.000000 0 0 1
-32.695981 30.579018 23.663713 50.636694 -0.751954 1.084535 0.109516 -0.028268 1357420.000000 0 0 1
-32.282371 30.281418 22.274473 49.550660 -0.753426 1.104558 0.099444 -0.022672 14294.000000 0 0 1
-32.766771 29.103618 21.719473 48.912343 -0.726260 1.110684 0.118668 -0.025748 -604450.000000 0 0 1
-32.150521 27.849618 22.213973 47.986642 -0.713839 1.089510 0.108818 -0.018629 -1601770.000000 0 0 1
-30.775661 27.781118 22.066273 46.966501 -0.734304 1.081698 0.075785 -0.021339 -576320.000000 0 0 1
-30.145091 26.564518 22.508173 46.054511 -0.722343 1.060164 0.069281 -0.024894 -173619.000000 0 0 1
-29.825751 26.589218 24.010073 46.615936 -0.728091 1.029717 0.074691 -0.009444 -294537.000000 0 0 1
-30.977651 26.692918 24.835093 47.842539 -0.711238 1.024998 0.064429 -0.011673 -86938.900000 0 0 1
-30.623061 26.935518 26.182823 48.464773 -0.721420 1.000069 0.073195 -0.017428 23419.000000 0 0 1
-31.782201 27.195218 27.187223 49.888207 -0.707779 0.994451 0.068395 -0.012382 651498.000000 0 0 1
-32.564301 26.071518 27.659703 50.052142 -0.675117 0.985294 0.048784 -0.014055 517657.000000 0 0 1
-33.581911 26.478918 28.581193 51.436975 -0.667682 0.981646 0.044269 -0.010962 401673.000000 0 0 1
-34.137515 25.293018 29.335483 51.630197 -0.637662 0.966498 0.033856 -0.002908 -390210.000000 0 0 1
-33.217471 24.737518 30.251363 51.288304 -0.640110 0.939948 0.019870 -0.004236 -80857.800000 0 0 1
-33.728851 23.559718 30.833323 51.413903 -0.609721 0.927660 0.012172 -0.009714 247030.000000 0 0 1
-32.806301 23.020718 31.987212 51.277564 -0.611877 0.897194 0.013918 -0.010987 321375.000000 0 0 1
-31.707001 22.237318 31.452743 49.890953 -0.611623 0.888690 0.025535 -0.010527 780346.000000 0 0 1
-30.916771 21.580818 32.450170 49.745270 -0.609402 0.860146 0.029087 -0.014935 607849.000000 0 0 1
-30.023961 22.510218 33.340013 50.196659 -0.643336 0.844389 0.039114 -0.008676 -636627.000000 0 0 1
-30.762411 23.156518 -33.427381 50.989607 -0.645261 2.285737 0.040081 -0.014907 29073.000000 0 0 1
-30.822531 22.435218 -32.218431 49.913872 -0.629196 2.272449 0.031899 -0.006095 257862.000000 0 0 1
-29.599921 22.672318 -31.267211 48.660330 -0.653637 2.268632 0.059913 -0.017017 213002.000000 0 0 1
-29.524241 24.042418 -30.877561 49.021856 -0.683417 2.252186 0.064882 -0.014364 -256907.000000 0 0 1
-28.796271 24.269618 -29.740491 47.986835 -0.700302 2.239238 0.067809 -0.015301 -496107.000000 0 0 1
-29.268191 25.545918 -29.071931 48.522140 -0.717595 2.213233 0.061169 -0.013562 -68573.600000 0 0 1
-29.046251 26.760218 -29.742571 49.441020 -0.744457 2.216270 0.067457 -0.009619 -10044.900000 0 0 1
-30.091821 27.082018 -30.630291 50.765816 -0.732804 2.218510 0.056046 -0.001294 -250963.000000 0 0 1
-29.899121 28.432518 -31.298491 51.787653 -0.760261 2.219761 0.065062 -0.002849 40650.500000 0 0 1
-30.326841 29.558818 -30.553491 52.220271 -0.772574 2.195786 0.059723 -0.008871 156212.000000 0 0 1
-29.818281 30.744818 -31.191731 52.983938 -0.800696 2.200248 0.075361 -0.026527 89019.500000 0 0 1
-29.867421 32.032018 -30.361661 53.291119 -0.820353 2.176976 0.065651 -0.023772 -48516.100000 0 0 1
-29.091371 32.013718 -29.183731 52.181185 -0.833187 2.164310 0.045493 -0.013101 112586.000000 0 0 1
-29.505821 33.143418 -28.449171 52.710861 -0.843396 2.140902 0.034696 -0.017492 -405455.000000 0 0 1
-28.857521 33.364518 -27.070761 51.756870 -0.857706 2.121207 0.031215 -0.010642 107248.000000 0 0 1
-27.510371 33.802818 -27.014731 51.276180 -0.887668 2.125684 0.018117 -0.007057 279975.000000 0 0 1
-27.207721 -32.618480 -27.412641 50.553716 0.875594 2.143906 0.025765 -0.004993 -649444.000000 0 0 1
-27.540331 -31.630980 -26.293671 49.500968 0.854421 2.130783 0.029217 -0.002902 35818.900000 0 0 1
-28.927061 -31.381380 -26.153801 50.055840 0.826072 2.120568 0.041403 -0.020418 5111.660000 0 0 1
-29.260281 -30.437480 -25.104481 49.120659 0.805115 2.107235 0.034777 -0.019030 -121075.000000 0 0 1
-30.766101 -30.186480 -24.971571 49.813210 0.775889 2.095902 0.032476 -0.024994 -97279.200000 0 0 1
-31.340251 -29.399580 -26.004151 50.227109 0.753458 2.114993 0.031015 -0.021687 34424.900000 0 0 1
-32.749471 -29.408880 -25.918861 51.080303 0.731707 2.102977 0.027102 -0.019563 -90125.000000 0 0 1
-33.368591 -28.680680 -27.151331 51.703375 0.709990 2.123672 0.034626 -0.027005 -1940450.000000 0 0 1
-34.710377 -28.814980 -27.124751 52.639010 0.692859 2.112151 0.049521 -0.027453 -1674120.000000 0 0 1
-35.319033 -28.226380 -28.301681 53.339926 0.674243 2.130094 0.056294 -0.032751 -180051.000000 0 0 1
-36.830521 -28.448480 -28.403901 54.521416 0.657694 2.118781 0.048561 -0.031105 -50523.100000 0 0 1
37.199489 -27.666880 -27.495711 53.900578 -0.639485 2.106119 0.045419 -0.014967 718741.000000 0 0 1
35.801949 -27.900580 -27.748341 53.199552 -0.661993 2.119509 0.051380 -0.017813 789932.000000 0 0 1
34.847289 -27.222180 -26.757581 51.685092 -0.663163 2.114962 0.059269 -0.007646 -143438.000000 0 0 1
34.697259 -27.953080 -25.567251 51.370797 -0.678163 2.091741 0.043947 -0.010028 450747.000000 0 0 1
33.574659 -27.419680 -24.874571 49.978404 -0.684828 2.091749 0.053041 0.001350 328834.000000 0 0 1
33.181909 -28.147880 -23.532471 49.468368 -0.703500 2.066564 0.038026 -0.003202 188318.000000 0 0 1
32.777039 -29.530580 -23.739971 50.099657 -0.733342 2.064460 0.051625 -0.019451 153705.000000 0 0 1
32.341939 -30.214180 -22.540171 49.668471 -0.751398 2.041835 0.057561 -0.017514 62152.500000 0 0 1
33.255719 -30.151380 -21.243871 49.662366 -0.736478 2.012816 0.044775 -0.008286 -1070760.000000 0 0 1
34.452559 -30.777680 -21.503271 50.957189 -0.729121 2.006432 0.027689 -0.013278 -1246000.000000 0 0 1
35.337829 -30.797880 -20.443171 51.138976 -0.716860 1.982048 0.019483 -0.009402 -210380.000000 0 0 1
36.238039 -29.603580 -20.151371 50.947475 -0.684973 1.977444 0.014328 -0.000199 -727452.000000 0 0 1
35.544449 -28.463180 -19.672271 49.604019 -0.675215 1.978591 0.012215 0.014685 49720.500000 0 0 1
35.979819 -27.299680 -20.353871 49.538873 -0.649077 1.994201 -0.003056 0.015221 64737.800000 0 0 1
35.038899 -26.110480 -20.058771 48.081555 -0.640413 2.001139 0.011867 0.019659 -271069.000000 0 0 1
33.878249 -26.117680 -20.830171 47.579039 -0.656761 2.023948 0.027109 0.016252 -931196.000000 0 0 1
33.044089 -25.101780 -20.436071 46.256288 -0.649645 2.028401 0.042215 0.011441 -1198460.000000 0 0 1
31.787219 -25.030280 -21.262071 45.705775 -0.667031 2.054651 0.061170 0.002238 -557722.000000 0 0 1
30.879949 -26.093480 -21.149971 45.626333 -0.701583 2.052791 0.083509 -0.002468 -135932.000000 0 0 1
29.842229 -26.145580 -22.089771 45.410439 -0.719468 2.078815 0.092240 -0.015303 135496.000000 0 0 1
29.291939 -27.540480 -22.468571 46.057925 -0.754590 2.080402 0.093967 -0.018130 -161729.000000 0 0 1
28.533739 -28.061880 -21.429871 45.396946 -0.777061 2.062417 0.089835 -0.021347 -455978.000000 0 0 1
27.829139 -29.182080 -21.877571 45.876823 -0.809125 2.067894 0.089295 -0.021118 -470182.000000 0 0 1
27.350439 -29.899280 -20.621471 45.467115 -0.829890 2.041537 0.092367 -0.022189 -203284.000000 0 0 1
28.318239 -30.349680 -19.695871 45.945109 -0.820010 2.013830 0.092391 -0.026119 -46851.500000 0 0 1
29.116239 -31.474080 -20.033771 47.325734 -0.824293 2.007899 0.096410 -0.020764 379338.000000 0 0 1
30.053459 -31.915880 -18.871871 47.728202 -0.815443 1.977303 0.081588 -0.026305 -267816.000000 0 0 1
29.381839 -32.443480 -17.757771 47.235689 -0.834879 1.956207 0.091505 -0.024243 -95553.800000 0 0 1
28.862639 -31.430880 -16.931371 45.908861 -0.827968 1.948518 0.080099 -0.018549 -30759.900000 0 0 1
28.285839 -31.946480 -15.586871 45.427049 -0.846099 1.921031 0.087779 -0.010508 -205290.000000 0 0 1
27.021339 -32.530980 -15.749871 45.127329 -0.877653 1.927310 0.085403 -0.000410 -101899.000000 0 0 1
26.511639 -33.114880 -14.527071 44.838578 -0.895692 1.900736 0.075672 -0.001396 -277182.000000 0 0 1
25.005739 -33.376880 -14.554671 44.171728 -0.927812 1.906572 0.060759 0.002126 -381897.000000 0 0 1
24.210239 -32.245380 -14.388771 42.812813 -0.926775 1.913554 0.056497 0.006079 103644.000000 0 0 1
22.825939 -32.547880 -14.465071 42.303975 -0.959196 1.919768 0.058133 0.003699 287001.000000 0 0 1
-0.322811 -7.083482 -29.212181 30.060463 1.525256 2.903463 0.118907 -0.032487 233277.000000 0 0 1
-0.153611 -8.450982 -29.019711 30.225590 1.552622 2.858170 0.114590 -0.028793 -50552.200000 0 0 1
-0.350511 -9.229282 -30.208621 31.588974 1.532836 2.844880 0.104175 -0.039849 -17568.400000 0 0 1
-0.070911 -10.749582 -30.078591 31.941825 1.564200 2.798349 0.125357 -0.026433 -177518.000000 0 0 1
1.287689 -10.945082 -29.796921 31.769631 -1.453685 2.787339 0.091641 -0.031939 -520454.000000 0 0 1
1.589389 -12.279482 -29.477221 31.972150 -1.442077 2.743922 0.104218 -0.033999 156828.000000 0 0 1
3.018389 -12.519382 -28.951991 31.686959 -1.334214 2.723064 0.094129 -0.031879 -131648.000000 0 0 1
4.070889 -12.143582 -29.863791 32.494380 -1.247340 2.736446 0.112332 -0.042564 1418960.000000 0 0 1
5.394189 -12.341982 -29.312501 32.259022 -1.158755 2.710861 0.110526 -0.043477 1277000.000000 0 0 1
5.914689 -13.757282 -29.007421 32.644706 -1.164756 2.665036 0.098795 -0.045015 -1006150.000000 0 0 1
5.299389 -14.315782 -27.872161 31.778648 -1.216260 2.640529 0.094760 -0.038625 -312235.000000 0 0 1
5.984289 -15.431882 -27.399601 32.010824 -1.200862 2.598178 0.097394 -0.035930 -254882.000000 0 0 1
5.511289 -16.850082 -27.850181 33.014120 -1.254686 2.574719 0.049004 -0.034312 -319799.000000 0 0 1
5.840589 -17.040582 -29.212301 34.319855 -1.240599 2.589022 0.069889 -0.045986 155768.000000 0 0 1
5.564889 -18.398182 -29.564131 35.263280 -1.277075 2.565106 0.048609 -0.035156 -309305.000000 0 0 1
6.070189 -18.922182 -30.900621 36.738870 -1.260370 2.570088 0.075420 -0.046979 -270941.000000 0 0 1
7.450789 -19.168082 -30.972931 37.178651 -1.200062 2.555456 0.070137 -0.036669 -389218.000000 0 0 1
7.871889 -19.806582 -32.145821 38.569692 -1.192500 2.556114 0.076118 -0.033209 -676133.000000 0 0 1
9.377889 -19.629582 -32.255471 38.906050 -1.125113 2.548222 0.077536 -0.025070 -565614.000000 0 0 1
9.722089 -18.296682 -32.665631 38.682438 -1.082378 2.576346 0.083847 -0.029868 -60469.800000 0 0 1
10.534989 -18.317882 -33.799971 39.861872 -1.048872 2.582859 0.079255 -0.022013 -522372.000000 0 0 1
10.880889 -16.929782 33.406615 39.000169 -0.999565 0.542199 0.077196 -0.014222 56435.400000 0 0 1
9.722989 -16.376382 32.811161 37.938037 -1.035007 0.525921 0.085593 -0.013905 113477.000000 0 0 1
9.896589 -15.113582 32.259763 36.973709 -0.991044 0.510489 0.096933 -0.011806 -57127.300000 0 0 1
8.797789 -14.728782 31.258933 35.657524 -1.032350 0.501955 0.119383 -0.027754 -89742.000000 0 0 1
8.951089 -15.432382 30.040383 34.938589 -1.045198 0.535908 0.135511 -0.021212 -122365.000000 0 0 1
8.110789 -15.007382 29.015983 33.659080 -1.075312 0.531486 0.137959 -0.029000 -561439.000000 0 0 1
8.247389 -15.846182 27.751693 33.004203 -1.090911 0.571939 0.113911 -0.030248 -767170.000000 0 0 1
7.765089 -17.110582 27.890893 33.629906 -1.144772 0.592857 0.110716 -0.025694 137782.000000 0 0 1
7.951089 -17.921682 26.735173 33.153823 -1.153229 0.632761 0.088513 -0.022754 16878.300000 0 0 1
7.420789 -19.389982 26.863803 33.951487 -1.205281 0.657961 0.091165 -0.030412 150379.000000 0 0 1
8.136489 -20.047382 27.895153 35.302118 -1.185246 0.659688 0.097157 -0.031653 363869.000000 0 0 1
7.403789 -21.124682 28.379913 36.145370 -1.233694 0.667841 0.094164 -0.034777 -470503.000000 0 0 1
7.766089 -21.386682 29.890733 37.565386 -1.222475 0.650636 0.095096 -0.033998 -35237.400000 0 0 1
7.265389 -20.552582 30.940383 37.848406 -1.231005 0.613771 0.114790 -0.037364 109903.000000 0 0 1
7.563489 -19.170382 30.877163 37.122892 -1.195005 0.588534 0.106234 -0.034369 -316749.000000 0 0 1
7.031689 -18.436982 32.096034 37.676549 -1.206435 0.551225 0.111576 -0.028000 153714.000000 0 0 1
5.636989 -18.492182 32.350522 37.686771 -1.274913 0.538644 0.116434 -0.039772 287478.000000 0 0 1
5.183989 -17.549882 33.333478 38.026213 -1.283578 0.502062 0.127780 -0.033274 531635.000000 0 0 1
3.701689 -17.628282 33.792333 38.293349 -1.363818 0.489731 0.124671 -0.046455 379397.000000 0 0 1
3.419889 -18.759082 -33.183321 38.271812 -1.390471 2.620033 0.122398 -0.048531 -329383.000000 0 0 1
2.080489 -18.825082 -32.783911 37.861550 -1.460726 2.617722 0.128875 -0.061078 -350349.000000 0 0 1
1.917989 -19.973482 -31.771801 37.577467 -1.475063 2.578300 0.071329 -0.024669 72674.400000 0 0 1
0.701589 -20.702782 -31.920931 38.053163 -1.536921 2.565965 0.085809 -0.031909 802411.000000 0 0 1
-0.017711 -21.186482 -30.771001 37.359361 1.569960 2.538612 0.078875 -0.029535 421809.000000 0 0 1
-0.645111 -20.138782 -29.849331 36.013459 1.538774 2.547824 0.080313 -0.025827 -869611.000000 0 0 1
-1.886111 -19.677182 -30.304541 36.181682 1.475236 2.563609 0.098950 -0.026414 -535930.000000 0 0 1
-2.377311 -18.544882 -29.593411 35.004774 1.443299 2.578130 0.127697 -0.029124 -238682.000000 0 0 1
-1.870311 -17.176482 -30.047991 34.661381 1.462336 2.619748 0.108966 -0.027998 -253089.000000 0 0 1
-2.576511 -16.148282 -29.368871 33.614521 1.412577 2.633545 0.115515 -0.026355 -227715.000000 0 0 1
-2.375011 -14.900682 -29.967611 33.551881 1.412736 2.675147 0.113552 -0.024075 -126189.000000 0 0 1
-3.314411 -13.826882 -29.418291 32.674207 1.335528 2.691374 0.114446 -0.016442 -101720.000000 0 0 1
-3.070511 -13.340882 -28.131731 31.285803 1.344578 2.688700 0.105253 -0.020532 -407781.000000 0 0 1
-4.176111 -12.632182 -27.663281 30.696401 1.251514 2.693303 0.089469 -0.025664 -324238.000000 0 0 1
-4.347811 -12.477782 -26.174911 29.321058 1.235508 2.674098 0.092966 -0.021006 -334739.000000 0 0 1
-4.591111 -13.733482 -25.508061 29.331689 1.248176 2.625272 0.097214 -0.019083 106811.000000 0 0 1
-4.593111 -13.638682 -24.061771 28.037103 1.245955 2.602572 0.088946 -0.014292 -23449.500000 0 0 1
-5.769611 -12.823182 -23.484371 27.372214 1.147996 2.602089 0.073113 -0.017287 -877935.000000 0 0 1
-7.038511 -13.239282 -23.830971 28.155539 1.082160 2.579993 0.061406 -0.013307 -1234930.000000 0 0 1
-7.923411 -12.165482 -23.671571 27.769095 0.993506 2.591437 0.031300 -0.014415 1119320.000000 0 0 1
-9.454611 -12.547482 -23.858571 28.566770 0.925055 2.559267 0.052320 -0.018556 1400190.000000 0 0 1
-9.936711 -13.438082 -22.812571 28.279562 0.934085 2.509310 0.037499 -0.019165 603763.000000 0 0 1
-11.110711 -14.126382 -23.291671 29.419458 0.904328 2.484399 0.043398 -0.017751 680567.000000 0 0 1
-11.774011 -15.121682 -22.297771 29.402095 0.909230 2.431611 0.049253 -0.015706 69463.500000 0 0 1
-10.984211 -16.283982 -22.109471 29.574476 0.977362 2.415217 0.053596 -0.016217 -410664.000000 0 0 1
-11.645811 -17.403882 -21.542571 30.043342 0.981076 2.370357 0.063388 -0.018422 111835.000000 0 0 1
-12.443411 -18.162682 -22.633471 31.575235 0.970135 2.370014 0.055808 -0.019319 941341.000000 0 0 1
-13.597411 -17.463182 -23.164371 32.038108 0.909220 2.378968 0.045412 -0.016964 204946.000000 0 0 1
-14.130611 -18.180682 -24.238171 33.432025 0.910093 2.381829 0.039691 -0.020875 -129628.000000 0 0 1
-15.405111 -17.515582 -24.754871 34.013478 0.849418 2.385899 0.052982 -0.026174 77698.500000 0 0 1
-16.637311 -17.644982 -24.030871 34.141298 0.814783 2.351621 0.071557 -0.025068 231478.000000 0 0 1
-17.618611 -16.949282 -24.740171 34.781743 0.766038 2.362139 0.081518 -0.028268 -439193.000000 0 0 1
-18.043611 -15.648282 -24.075671 33.912808 0.714422 2.360193 0.079344 -0.025279 -737630.000000 0 0 1
-18.935111 -15.845082 -23.012971 33.752065 0.696786 2.321050 0.097988 -0.025421 -110939.000000 0 0 1
-19.542911 -14.581282 -22.775171 33.365365 0.641011 2.322110 0.101526 -0.025144 214194.000000 0 0 1
-20.353911 -14.571182 -21.448571 32.964257 0.621312 2.279251 0.099490 -0.030720 650529.000000 0 0 1
-19.607411 -14.006782 -20.330371 31.527202 0.620300 2.271626 0.096804 -0.021273 829720.000000 0 0 1
-20.303611 -14.267182 -19.106971 31.318771 0.612530 2.226958 0.089647 -0.025680 -39508.100000 0 0 1
-21.090711 -13.165482 -18.386671 30.922769 0.558046 2.207564 0.090236 -0.026928 205785.000000 0 0 1
-22.268011 -12.835082 -19.123471 32.036085 0.522879 2.210472 0.094897 -0.034437 332210.000000 0 0 1
-23.116811 -11.989882 -18.344871 31.854019 0.478468 2.184506 0.091567 -0.024994 -469218.000000 0 0 1
-24.489611 -11.868882 -18.961471 33.168491 0.451292 2.179338 0.097123 -0.029324 -770774.000000 0 0 1
-24.555911 -10.911382 -19.966671 33.477141 0.418144 2.209839 0.093104 -0.033570 -303269.000000 0 0 1
-25.889531 -10.561682 -20.218971 34.505416 0.387343 2.196867 0.095731 -0.033396 -177323.000000 0 0 1
-26.236441 -9.587282 -21.439671 35.212587 0.350344 2.225424 0.096178 -0.021115 9005.380000 0 0 1
-26.049291 -10.065682 -22.778571 36.038130 0.368735 2.255016 0.083960 -0.022340 500959.000000 0 0 1
-26.702751 -9.013282 -23.510671 36.701877 0.325533 2.266056 0.059549 -0.021104 -120705.000000 0 0 1
-27.077841 -9.230082 -25.018571 38.004378 0.328520 2.289365 0.070249 -0.011537 -450381.000000 0 0 1
-25.996621 -9.073382 -25.863871 37.776850 0.335803 2.324918 0.065059 -0.031879 -212956.000000 0 0 1
-25.059371 -10.159582 -25.842721 37.403681 0.385170 2.333549 0.073706 -0.009204 -105148.000000 0 0 1
-23.970311 -9.961682 -26.909681 37.389060 0.393868 2.374196 0.085403 -0.018613 -398617.000000 0 0 1
-24.425811 -10.145882 -28.221131 38.678048 0.393690 2.388595 0.088310 -0.008704 -106322.000000 0 0 1
-23.435311 -10.148282 -29.218201 38.805988 0.408656 2.423300 0.091710 -0.003255 -106616.000000 0 0 1
-24.031311 -10.741282 -30.494621 40.284003 0.420332 2.429492 0.097859 -0.007291 390552.000000 0 0 1
-25.101431 -9.976882 -31.027591 41.137956 0.378317 2.425281 0.083681 -0.018146 91886.300000 0 0 1
-24.662511 -8.907082 -31.814221 41.227663 0.346581 2.452262 0.079094 -0.018380 -1015670.000000 0 0 1
-25.755401 -7.984082 -32.361191 42.122831 0.300602 2.446911 0.083864 -0.026790 -695343.000000 0 0 1
-26.708851 -8.603382 -33.216661 43.482496 0.311622 2.440145 0.095738 -0.037576 1128710.000000 0 0 1
-27.761141 -9.431182 -32.699691 43.919220 0.327493 2.410644 0.098413 -0.038547 -95691.100000 0 0 1
-28.829101 -8.567982 -31.987281 43.905734 0.288885 2.386991 0.085273 -0.028782 -1817770.000000 0 0 1
-30.092571 -9.119782 -31.991191 44.857213 0.294260 2.364818 0.085615 -0.031589 -807004.000000 0 0 1
-30.928581 -8.533282 -30.999351 44.613381 0.269205 2.339000 0.087322 -0.025753 -449824.000000 0 0 1
-32.399011 -8.806082 -31.270431 45.881181 0.265390 2.320678 0.077402 -0.030758 -652600.000000 0 0 1
-32.556531 -10.186482 -31.106191 46.165866 0.303236 2.310125 0.069641 -0.029660 316807.000000 0 0 1
-33.925881 -10.561982 -31.032451 47.175564 0.301814 2.288701 0.048776 -0.028194 200304.000000 0 0 1
-34.235691 -12.021482 -31.384521 47.974855 0.337689 2.283903 0.063510 -0.026654 -818694.000000 0 0 1
-35.552575 -12.443682 -31.262371 48.950655 0.336682 2.263540 0.061182 -0.017788 -737749.000000 0 0 1
-35.621626 -13.879382 -31.400181 49.472304 0.371538 2.258419 0.059218 -0.022064 -458060.000000 0 0 1
-36.980321 -14.349882 -30.942701 50.308190 0.370155 2.233262 0.054990 -0.026304 -560201.000000 0 0 1
-37.054861 -14.309482 -29.524891 49.492860 0.368528 2.209990 0.054734 -0.021374 -3482.570000 0 0 1
-37.340301 -15.509982 -28.864691 49.679251 0.393684 2.190779 0.044586 -0.016897 -206149.000000 0 0 1
-37.283981 -15.430782 -27.333481 48.737290 0.392407 2.166188 0.066960 -0.016457 172367.000000 0 0 1
-35.967615 -15.235382 -26.837761 47.392527 0.400672 2.172790 0.056086 -0.022500 295293.000000 0 0 1
-35.937884 -15.501882 -25.409151 46.663313 0.407239 2.146614 0.083876 -0.030058 570461.000000 0 0 1
-34.483678 -15.302782 -24.896071 45.200813 0.417660 2.154105 0.080819 -0.034475 660318.000000 0 0 1
-33.468261 -16.273782 -25.081341 44.877991 0.452583 2.163829 0.075725 -0.028820 138267.000000 0 0 1
-32.294471 -15.895082 -24.418371 43.495325 0.457382 2.166876 0.087686 -0.016071 331949.000000 0 0 1
-31.032841 -16.768982 -24.734171 43.081495 0.495414 2.182332 0.069214 -0.023825 296828.000000 0 0 1
-30.918481 -17.946582 -24.010371 43.064256 0.525919 2.162225 0.079041 -0.036925 -232264.000000 0 0 1
-31.682641 -19.011282 -24.513471 44.341051 0.540459 2.156564 0.060094 -0.035241 -326749.000000 0 0 1
-31.467361 -20.331682 -23.737571 44.351374 0.573643 2.135560 0.060997 -0.034811 -357976.000000 0 0 1
-30.200251 -20.893082 -23.896771 43.813602 0.605214 2.147685 0.066822 -0.026584 -521321.000000 0 0 1
-30.153151 -22.136482 -23.219371 44.026986 0.633270 2.126321 0.070618 -0.029203 610796.000000 0 0 1
-28.736981 -22.832482 -23.221771 43.432556 0.671399 2.134905 0.064437 -0.027078 1247340.000000 0 0 1
-27.666461 -22.307782 -22.430271 42.026031 0.678578 2.133794 0.072363 -0.030461 302187.000000 0 0 1
-27.825131 -22.180282 -20.996971 41.316771 0.672989 2.103884 0.103809 -0.041793 -624679.000000 0 0 1
-27.755351 -23.472882 -20.125871 41.549806 0.701996 2.076450 0.088998 -0.022466 -47093.500000 0 0 1
-27.639831 -22.993782 -18.832971 40.587622 0.693896 2.053310 0.102215 -0.027845 106051.000000 0 0 1
-27.666491 -24.019482 -17.828771 40.745985 0.714954 2.023678 0.093575 -0.006358 -55930.300000 0 0 1
-27.726291 -23.349382 -16.466771 39.813256 0.699912 1.997201 0.095480 -0.003468 363161.000000 0 0 1
-28.991991 -22.738482 -16.247071 40.268367 0.665096 1.986102 0.104965 -0.011498 -24223.500000 0 0 1
-28.923141 -21.500782 -15.611771 39.275426 0.639249 1.979581 0.103061 -0.022147 -62784.700000 0 0 1
-30.249401 -20.861282 -15.177271 39.756369 0.603741 1.962493 0.096835 -0.007709 262262.000000 0 0 1
-31.135191 -20.322582 -16.140471 40.532977 0.578285 1.980356 0.094798 -0.011153 -26018.200000 0 0 1
-32.326911 -19.770482 -15.649271 40.997571 0.548891 1.962444 0.108653 -0.012523 -48395.500000 0 0 1
-33.173711 -19.194682 -16.812571 41.852042 0.524544 1.984185 0.106409 -0.032459 178438.000000 0 0 1
-34.028391 -20.197482 -17.410771 43.231986 0.535662 1.985293 0.052031 -0.023734 25485.900000 0 0 1
-34.693810 -19.635582 -18.521471 43.957495 0.515020 2.005729 0.057778 -0.019040 -425460.000000 0 0 1
-36.134221 -20.125182 -18.689971 45.387442 0.508168 1.995211 0.032968 -0.011488 -44006.100000 0 0 1
-37.011781 -19.788682 -17.606471 45.513203 0.490989 1.968002 0.029862 0.001885 305458.000000 0 0 1
-36.984531 -20.818382 -16.566771 45.560053 0.512689 1.942953 0.056284 -0.009178 -475016.000000 0 0 1
37.274479 -22.264782 -16.836971 46.568132 -0.538446 1.940732 0.030088 0.024758 86126.000000 0 0 1
35.857539 -22.304582 -16.878771 45.476922 -0.556463 1.951044 0.031101 0.006809 -13310.700000 0 0 1
35.437659 -23.622582 -16.898571 45.819382 -0.587953 1.948523 0.027763 0.007582 -387119.000000 0 0 1
33.993389 -23.686182 -16.403171 44.560630 -0.608567 1.947771 0.027123 0.002692 -534822.000000 0 0 1
32.975379 -23.474382 -17.348071 44.038368 -0.618652 1.975701 0.022398 0.003640 -1037900.000000 0 0 1
31.808489 -23.991182 -16.816371 43.245198 -0.646208 1.970191 0.042070 0.003062 -579151.000000 0 0 1
30.611879 -23.678682 -17.766171 42.584081 -0.658380 2.001161 0.063437 -0.012155 36000.200000 0 0 1
30.259259 -22.335682 -17.852571 41.631956 -0.635870 2.013981 0.050281 -0.013861 1143910.000000 0 0 1
29.016139 -22.179182 -18.591371 40.981600 -0.652637 2.041655 0.076169 -0.031624 715190.000000 0 0 1
34.991839 28.928918 -18.874371 49.168618 0.690830 1.964780 0.075142 -0.008114 147079.000000 0 0 1
33.961679 29.477418 -19.683871 49.089394 0.714829 1.983383 0.061396 -0.033488 -5606.590000 0 0 1
34.056109 29.059818 -21.028871 49.462157 0.706402 2.009925 0.068812 -0.017751 147996.000000 0 0 1
32.908089 29.519718 -22.009371 49.383889 0.731175 2.032729 0.074009 -0.020437 192327.000000 0 0 1
31.771169 28.654218 -21.812871 48.023668 0.733860 2.042283 0.060596 -0.013465 819689.000000 0 0 1
30.637619 29.016318 -22.610271 47.873111 0.758226 2.062690 0.089342 -0.004966 1257260.000000 0 0 1
29.852679 30.367618 -22.348271 48.091786 0.793949 2.054093 0.074782 -0.003622 -903005.000000 0 0 1
30.691969 31.445818 -22.613271 49.418584 0.797529 2.046075 0.101513 -0.022116 -769541.000000 0 0 1
30.049039 32.674618 -22.799971 49.904049 0.827233 2.045277 0.089124 -0.016155 25083.900000 0 0 1
30.944029 -33.815680 -22.468371 51.047633 -0.829712 2.026557 0.082168 -0.014759 610586.000000 0 0 1
31.438619 -33.680780 -21.151371 50.696767 -0.819816 2.001173 0.086969 -0.027837 -577194.000000 0 0 1
32.625609 33.400018 -20.908371 51.158103 0.797127 1.991827 0.075773 -0.029856 -880939.000000 0 0 1
32.988419 33.388218 -19.419971 50.795119 0.791421 1.963102 0.062009 -0.033156 -324805.000000 0 0 1
33.239509 -33.124480 -18.885871 50.584308 -0.783665 1.953419 0.065319 -0.028341 82414.900000 0 0 1
33.273889 -33.165780 -17.478571 50.126052 -0.783771 1.926972 0.044492 -0.035847 -497881.000000 0 0 1
33.272749 -31.804780 -16.851871 49.016379 -0.762845 1.921758 0.042744 -0.013228 468725.000000 0 0 1
34.505759 -31.092380 -16.907071 49.429066 -0.733410 1.919891 0.046033 -0.014920 485035.000000 0 0 1
35.479559 -31.451280 -15.921771 50.014847 -0.725285 1.894775 0.048136 -0.015050 1000880.000000 0 0 1
36.897009 -30.829480 -16.225871 50.745690 -0.696048 1.896261 0.036915 -0.004397 967915.000000 0 0 1
-37.216161 -31.293880 -17.392171 51.641428 0.699169 1.914299 0.036014 -0.011295 -108373.000000 0 0 1
-36.016148 -30.582280 -17.622471 50.428070 0.703987 1.927788 0.035585 -0.002659 118545.000000 0 0 1
-35.192353 -31.247780 -18.747671 50.659654 0.726097 1.949882 0.051718 -0.013765 -860800.000000 0 0 1
-34.689445 -32.542580 -18.381971 50.992881 0.753477 1.939580 0.047147 -0.013935 575742.000000 0 0 1
-33.700991 -33.116680 -19.259271 51.023434 0.776654 1.957847 0.075370 -0.018277 512691.000000 0 0 1
-32.346181 -32.398780 -19.287971 49.678790 0.786211 1.969532 0.071929 -0.022047 -1723380.000000 0 0 1
-32.341381 -31.232780 -20.169771 49.277491 0.767962 1.992494 0.072141 -0.022391 242969.000000 0 0 1
-31.035851 -30.740280 -20.475171 48.243357 0.780614 2.009111 0.086810 -0.026511 517582.000000 0 0 1
-30.094441 -31.690680 -21.224271 48.584403 0.811228 2.022894 0.087066 -0.024902 -772922.000000 0 0 1
-30.657961 -32.229980 -22.405071 49.806318 0.810390 2.037387 0.077031 -0.017573 -197609.000000 0 0 1
-29.945741 -33.384280 -22.836371 50.326507 0.839640 2.041781 0.077151 -0.015206 -99184.600000 0 0 1
-30.577991 33.607018 -24.012071 51.390901 -0.832555 2.056967 0.062158 -0.025082 -406287.000000 0 0 1
-31.828361 33.151018 -23.530971 51.630815 -0.805750 2.044016 0.075866 -0.036938 -85436.900000 0 0 1
-32.653601 32.368918 -24.375771 52.040202 -0.781020 2.058278 0.071792 -0.034088 450181.000000 0 0 1
-33.391321 33.176018 -25.478461 53.523643 -0.782164 2.066923 0.061842 -0.040272 -428960.000000 0 0 1
-32.615321 33.642918 -26.611171 53.886542 -0.800906 2.087293 0.045665 -0.042011 -286268.000000 0 0 1
-33.257261 -33.067580 -27.283491 54.257710 0.782538 2.097689 0.048833 -0.046178 -75573.400000 0 0 1
-32.506451 -32.385480 -28.434271 53.981445 0.783534 2.125559 0.040652 -0.042092 -298435.000000 0 0 1
-32.236631 -33.112180 -29.599171 54.879210 0.798795 2.140463 0.045138 -0.039921 423300.000000 0 0 1
-33.413041 -33.434880 -30.339871 56.167875 0.785725 2.141428 0.057310 -0.035050 305530.000000 0 0 1
-33.052691 33.497218 -31.537011 56.649157 -0.792078 2.161213 0.066026 -0.029854 -196316.000000 0 0 1
-32.574981 -33.589080 -32.701871 57.085620 0.800724 2.180783 0.059203 -0.045889 58364.800000 0 0 1
-32.876191 33.434418 -33.822161 57.815593 -0.793816 2.195677 0.058503 -0.052250 -408971.000000 0 0 1
-31.931701 33.817018 32.801540 56.913665 -0.814065 0.956555 0.063344 -0.051383 776885.000000 0 0 1
-30.549011 33.451918 32.855602 55.962161 -0.830724 0.943320 0.065092 -0.048417 667073.000000 0 0 1
-30.229631 32.121718 32.535554 54.810561 -0.815734 0.935271 0.076492 -0.044263 -1494610.000000 0 0 1
-28.801291 31.697918 32.657082 53.858679 -0.833240 0.919337 0.085222 -0.037851 -1327050.000000 0 0 1
-28.346061 31.422918 -33.796331 54.158018 -0.836832 2.244688 0.092633 -0.039062 1505410.000000 0 0 1
-26.924931 31.098418 -33.763171 53.216681 -0.857202 2.258089 0.087892 -0.034817 1033070.000000 0 0 1
-26.573301 29.614718 33.659260 52.116385 -0.839475 0.868663 0.092103 -0.030515 -492445.000000 0 0 1
-26.844901 28.738518 -33.022001 51.351763 -0.819453 2.269277 0.095700 -0.021244 324552.000000 0 0 1
-26.572041 27.433918 -33.443711 50.765884 -0.801356 2.289997 0.089913 -0.021107 -317099.000000 0 0 1
-26.227781 26.460618 -32.315671 49.318996 -0.789817 2.285294 0.090977 -0.026014 490392.000000 0 0 1
-24.970311 26.593018 -31.648521 48.294242 -0.816858 2.285412 0.078569 -0.023043 498409.000000 0 0 1
-24.834711 27.768618 -30.780341 48.324821 -0.841115 2.261328 0.056592 -0.024614 294128.000000 0 0 1
-23.612011 27.718118 -29.804611 47.054606 -0.865222 2.256742 0.078560 -0.024539 581895.000000 0 0 1
-22.333911 27.853418 -30.419861 46.903991 -0.894936 2.276482 0.091831 -0.030952 474480.000000 0 0 1
-21.248911 28.096918 -29.541011 45.974170 -0.923293 2.268627 0.071734 -0.031655 202757.000000 0 0 1
-21.200711 29.381018 -28.722451 46.235198 -0.945734 2.241101 0.046471 -0.019349 -1070570.000000 0 0 1
-20.888311 30.532318 -29.408801 47.259089 -0.970796 2.242460 0.044933 -0.012558 150940.000000 0 0 1
-20.620411 31.716518 -28.627711 47.441381 -0.994318 2.218596 0.049239 -0.016754 -5590.570000 0 0 1
-20.153911 32.981918 -29.396441 48.560660 -1.022285 2.221008 0.053851 -0.005035 483711.000000 0 0 1
-18.870311 32.767218 -29.980371 48.255588 -1.048293 2.241175 0.058017 -0.007200 109123.000000 0 0 1
-18.499711 33.837118 -30.870891 49.398398 -1.070468 2.245847 0.060614 -0.005912 -681672.000000 0 0 1
-17.003411 33.819018 -31.161131 49.029154 -1.104930 2.259534 0.053730 -0.004988 -1168890.000000 0 0 1
-16.215911 -33.365980 -30.157631 47.809278 1.118410 2.253368 0.078808 -0.015483 339223.000000 0 0 1
-14.834811 -33.234180 -30.519391 47.497532 1.150963 2.268614 0.097359 -0.016688 1359810.000000 0 0 1
-13.981811 33.183118 -30.531791 47.210174 -1.172019 2.274073 0.108862 -0.021334 -358365.000000 0 0 1
-14.038411 32.667718 -29.203101 46.011714 -1.164923 2.258402 0.124554 -0.028039 -58728.700000 0 0 1
-13.590511 31.334618 -29.242781 44.963323 -1.161561 2.278867 0.110456 -0.028526 -81042.600000 0 0 1
-13.491311 30.709218 -27.863651 43.605671 -1.156856 2.263983 0.108783 -0.038227 -552154.000000 0 0 1
-12.326311 31.059218 -27.209781 43.092750 -1.192996 2.254184 0.115470 -0.038896 -753984.000000 0 0 1
-12.275411 30.484218 -25.929601 41.860691 -1.187981 2.238808 0.091506 -0.046968 188682.000000 0 0 1
-11.027311 30.850818 -25.096251 41.269799 -1.227509 2.224464 0.107094 -0.049685 1473080.000000 0 0 1
-9.755411 30.394018 -25.617361 40.929372 -1.260218 2.247071 0.127183 -0.047056 849327.000000 0 0 1
-8.619411 30.863218 -24.928471 40.598782 -1.298457 2.231940 0.132288 -0.050692 -446966.000000 0 0 1
-7.321411 30.245918 -25.362821 40.145875 -1.333302 2.254626 0.103446 -0.047494 -795239.000000 0 0 1
-7.147911 28.885818 -24.971871 38.846846 -1.328215 2.268982 0.099647 -0.062358 -753557.000000 0 0 1
-5.944611 28.397118 -25.471841 38.607633 -1.364438 2.291298 0.090174 -0.067276 -788992.000000 0 0 1
-5.400411 27.133218 -24.724671 37.103710 -1.374331 2.300121 0.115522 -0.050166 -106618.000000 0 0 1
-6.175211 25.946618 -24.740871 36.379539 -1.337146 2.318663 0.118361 -0.050784 -336073.000000 0 0 1
-5.444111 24.873018 -24.280871 35.183320 -1.355318 2.332457 0.130741 -0.055263 -460837.000000 0 0 1
-6.217911 23.538118 -24.223771 34.343798 -1.312532 2.353687 0.114499 -0.046863 56386.500000 0 0 1
-6.594111 22.949818 -25.503271 34.936989 -1.291006 2.389088 0.117779 -0.044607 258217.000000 0 0 1
-7.263711 21.712218 -25.368141 34.171983 -1.247956 2.407392 0.097575 -0.045379 -110872.000000 0 0 1
-7.316611 20.769218 -26.669151 34.585210 -1.232090 2.451386 0.092401 -0.040284 -99901.900000 0 0 1
-6.097911 20.127018 -26.939931 34.176618 -1.276616 2.478766 0.114237 -0.048107 -382624.000000 0 0 1
-5.860611 19.018818 -26.082251 32.807712 -1.271881 2.489810 0.100923 -0.044644 -1060130.000000 0 0 1
-4.644011 18.238618 -26.497101 32.500928 -1.321469 2.523995 0.112735 -0.046132 -818068.000000 0 0 1
-4.538611 17.784318 -27.826871 33.334902 -1.320927 2.558506 0.111819 -0.055227 -41108.200000 0 0 1
-3.667411 16.657418 -27.873351 32.677869 -1.354087 2.592452 0.106551 -0.048249 -112475.000000 0 0 1
-3.046311 16.476418 -29.235511 33.696698 -1.387972 2.621167 0.100158 -0.046018 -91105.900000 0 0 1
-2.206111 17.537418 -29.665521 34.532174 -1.445659 2.604244 0.107634 -0.050930 166775.000000 0 0 1
-1.918911 17.450918 -31.038101 35.659226 -1.461276 2.626828 0.101201 -0.048907 -156937.000000 0 0 1
-1.065611 18.619018 -31.577761 36.673673 -1.513626 2.608122 0.104991 -0.041698 -671802.000000 0 0 1
0.308189 18.489218 -31.314871 36.367118 1.554129 2.608179 0.117036 -0.046110 -615030.000000 0 0 1
0.978789 19.597818 -31.836311 37.397636 1.520894 2.589239 0.110009 -0.037107 -32957.500000 0 0 1
0.979389 20.914118 -31.071821 37.467553 1.524001 2.548649 0.113558 -0.037837 -419695.000000 0 0 1
1.648489 20.716318 -29.827791 36.353548 1.491389 2.533067 0.132577 -0.050209 -115004.000000 0 0 1
1.468989 21.826318 -28.962961 36.295994 1.503594 2.494709 0.137566 -0.053698 -116081.000000 0 0 1
2.518889 21.851318 -27.833851 35.476022 1.456029 2.472818 0.147323 -0.051417 192702.000000 0 0 1
3.677889 22.515418 -28.302531 36.352498 1.408877 2.463161 0.118970 -0.051443 334681.000000 0 0 1
4.709689 22.689918 -27.300361 35.809541 1.366135 2.437774 0.111572 -0.053120 563613.000000 0 0 1
5.218989 24.119418 -27.267731 36.776532 1.357700 2.406016 0.126357 -0.052861 16857.600000 0 0 1
6.213189 24.467718 -28.231261 37.871850 1.322118 2.411994 0.107927 -0.052087 361854.000000 0 0 1
6.561889 25.837618 -28.209041 38.812251 1.322088 2.384459 0.108182 -0.050480 89426.700000 0 0 1
7.491089 26.279418 -29.353741 40.104442 1.293106 2.391950 0.104151 -0.041373 -105291.000000 0 0 1
8.827089 25.878118 -29.455571 40.189863 1.242070 2.393386 0.092467 -0.039116 -236698.000000 0 0 1
9.590989 26.801718 -30.171931 41.480894 1.227146 2.385277 0.100291 -0.035748 643813.000000 0 0 1
11.123589 26.458918 -30.247531 41.697982 1.172820 2.382405 0.097878 -0.039011 820755.000000 0 0 1
11.921789 27.424218 -30.897811 42.998738 1.160724 2.372547 0.100629 -0.041074 -428294.000000 0 0 1
12.920489 27.873018 -30.057841 42.980437 1.136733 2.345267 0.093356 -0.041813 -563531.000000 0 0 1
13.913189 28.838518 -30.764151 44.403490 1.121286 2.336205 0.101497 -0.042351 -300818.000000 0 0 1
13.488289 30.189218 -30.931441 45.277774 1.150614 2.322862 0.100326 -0.042301 262818.000000 0 0 1
14.401689 31.022518 -31.615921 46.576514 1.136169 2.316917 0.131296 -0.047134 -74016.300000 0 0 1
13.895189 32.464218 -31.587161 47.378797 1.166374 2.300561 0.138870 -0.051406 -152321.000000 0 0 1
12.787989 32.651918 -32.411141 47.751046 1.197512 2.316859 0.121220 -0.047870 -188838.000000 0 0 1
11.930489 33.696218 -32.016641 47.987883 1.230509 2.301215 0.128991 -0.042573 -205193.000000 0 0 1
10.686789 33.804418 -32.904731 48.370109 1.264602 2.318927 0.095688 -0.035200 -323432.000000 0 0 1
10.903689 -33.183480 33.719031 48.549015 -1.253323 0.803022 0.082303 -0.021789 -103972.000000 0 0 1
9.813089 -33.159080 32.836755 47.687250 -1.283069 0.811260 0.082054 -0.030540 -172307.000000 0 0 1
10.025489 -32.223380 31.635353 46.256375 -1.269165 0.817683 0.084126 -0.030881 26993.300000 0 0 1
9.782789 -30.855580 31.876485 45.429947 -1.263771 0.793068 0.069278 -0.033174 118923.000000 0 0 1
10.265889 -30.011280 30.813153 44.221214 -1.241206 0.799876 0.080462 -0.029414 -181809.000000 0 0 1
9.633289 -28.586880 30.879973 43.169233 -1.245765 0.773709 0.075199 -0.038319 1810650.000000 0 0 1
8.197189 -28.391480 30.669543 42.589798 -1.289720 0.766829 0.063848 -0.038084 1827760.000000 0 0 1
7.453889 -28.699480 31.867374 43.528728 -1.316689 0.749397 0.060566 -0.026711 1344100.000000 0 0 1
5.866889 -28.694480 31.694873 43.155052 -1.369115 0.745953 0.068612 -0.026778 1463910.000000 0 0 1
5.263589 -29.774080 30.963583 43.277531 -1.395820 0.773506 0.085541 -0.033588 39853.800000 0 0 1
5.489189 -29.968780 29.587953 42.470059 -1.389641 0.800040 0.086631 -0.044035 -466150.000000 0 0 1
4.842389 -28.897880 28.666333 40.991400 -1.404770 0.796343 0.074231 -0.047673 10164.600000 0 0 1
3.432689 -28.919780 28.814463 40.968406 -1.452652 0.790720 0.114557 -0.052828 156090.000000 0 0 1
2.744889 -28.171780 27.809873 39.680885 -1.473669 0.794225 0.126241 -0.056571 -806673.000000 0 0 1
1.350589 -28.742080 27.747843 39.973417 -1.523841 0.803548 0.121660 -0.051385 -1020970.000000 0 0 1
1.200889 -29.837980 26.876613 40.175857 -1.530571 0.837968 0.132888 -0.054274 76015.700000 0 0 1
1.029489 -31.036980 27.556073 41.517359 -1.537639 0.845010 0.166217 -0.061905 -495121.000000 0 0 1
1.437789 -32.297080 26.719263 41.941479 -1.526308 0.880117 0.169469 -0.060750 34739.900000 0 0 1
2.808789 -32.615280 26.702043 42.245057 -1.484889 0.886568 0.142644 -0.055244 403264.000000 0 0 1
3.619689 -31.864080 25.779313 41.146017 -1.457683 0.893700 0.129540 -0.053754 274645.000000 0 0 1
5.096689 -32.325480 25.730543 41.629001 -1.414416 0.904483 0.134902 -0.048123 410058.000000 0 0 1
5.860789 -31.719580 24.704383 40.629880 -1.388088 0.917213 0.125348 -0.051775 146780.000000 0 0 1
7.261589 -31.792380 24.840063 40.994083 -1.346242 0.919846 0.108903 -0.051044 -160076.000000 0 0 1
8.000389 -31.466080 23.526503 40.095096 -1.321818 0.943735 0.094328 -0.040499 224317.000000 0 0 1
9.354889 -31.075880 23.729603 40.203462 -1.278391 0.939443 0.074357 -0.025268 512784.000000 0 0 1
9.962389 -30.618880 22.534273 39.300871 -1.256232 0.960173 0.066761 -0.023348 500326.000000 0 0 1
11.164189 -29.645280 22.659873 38.948063 -1.210630 0.949860 0.040123 -0.023599 442941.000000 0 0 1
12.399789 -30.125480 23.150913 39.965786 -1.180326 0.952966 0.038705 -0.021366 -353.341000 0 0 1
13.323089 -29.050680 23.128433 39.450870 -1.140801 0.944363 0.045708 -0.016622 245301.000000 0 0 1
14.579489 -29.311080 23.998433 40.590956 -1.109227 0.938218 0.063382 -0.017424 -23636.700000 0 0 1
14.479289 -29.020080 25.381503 41.182952 -1.107997 0.906747 0.053256 -0.015767 379062.000000 0 0 1
15.759789 -29.050880 25.995133 42.048443 -1.073738 0.904322 0.064687 -0.024009 164425.000000 0 0 1
-11.286911 -13.710682 25.572313 31.133910 0.882056 0.606996 0.097706 -0.048350 -153125.000000 0 0 1
-9.953011 -13.801782 25.150863 30.366388 0.946023 0.594825 0.102480 -0.044634 -329114.000000 0 0 1
-9.088311 -14.052582 26.224653 31.109563 0.996719 0.568002 0.114728 -0.044258 1234390.000000 0 0 1
-7.517611 -13.965382 26.023393 30.475619 1.076978 0.547346 0.134789 -0.040209 1349430.000000 0 0 1
-7.004111 -15.154982 25.438803 30.428009 1.137872 0.580785 0.130102 -0.039044 -39434.200000 0 0 1
-6.954511 -15.108682 24.003613 29.202927 1.139411 0.605954 0.136176 -0.034500 -409924.000000 0 0 1
-6.276511 -16.254682 23.249583 29.054301 1.202299 0.643149 0.131384 -0.027525 -31960.500000 0 0 1
-7.002611 -17.464182 22.949943 29.677165 1.189454 0.686735 0.156204 -0.035561 -135794.000000 0 0 1
-7.246711 -18.203482 24.125763 31.079479 1.191933 0.682085 0.156915 -0.037493 -160222.000000 0 0 1
-7.969911 -19.560982 23.852273 31.860358 1.183893 0.724772 0.143213 -0.037244 531260.000000 0 0 1
-9.360411 -19.329082 23.631353 31.932296 1.119815 0.737658 0.131577 -0.035278 95170.900000 0 0 1
-9.998111 -20.504682 23.168813 32.514583 1.117117 0.777646 0.114320 -0.033769 232901.000000 0 0 1
-11.535311 -20.468282 23.351063 33.125309 1.057594 0.788470 0.084189 -0.031585 195688.000000 0 0 1
-11.977611 -20.545882 24.707243 34.293502 1.042994 0.766325 0.076200 -0.032589 583308.000000 0 0 1
-13.385011 -20.327882 24.816843 34.759992 0.988500 0.775675 0.064290 -0.021342 570189.000000 0 0 1
-13.986111 -20.412482 26.204743 36.041216 0.970090 0.756741 0.060404 -0.017870 -341936.000000 0 0 1
-13.743011 -21.637882 26.784573 37.074002 1.004941 0.763439 0.068605 -0.013634 498551.000000 0 0 1
-12.627911 -21.574982 27.689283 37.304697 1.041253 0.734380 0.074572 -0.016615 244149.000000 0 0 1
-12.427511 -22.760082 28.633153 38.630581 1.071012 0.735934 0.069252 -0.015179 -305917.000000 0 0 1
-13.507011 -23.212982 29.418303 39.833635 1.043812 0.739910 0.070936 -0.011245 -62983.800000 0 0 1
-13.189611 -24.476482 29.831833 40.779925 1.076539 0.750230 0.068773 -0.012263 562927.000000 0 0 1
-14.207211 -25.065432 30.889983 42.241115 1.055143 0.750603 0.076306 -0.028398 593257.000000 0 0 1
-14.108911 -24.433182 32.124165 42.755160 1.047124 0.720688 0.096039 -0.025434 210510.000000 0 0 1
-15.301211 -24.546782 32.895453 43.803909 1.013385 0.721265 0.098419 -0.026720 284879.000000 0 0 1
-15.184411 -23.833082 -33.497181 43.825144 1.003533 2.440809 0.101817 -0.037462 -164653.000000 0 0 1
-15.079911 -22.418782 -33.391331 42.953306 0.978665 2.461297 0.109014 -0.039603 -109232.000000 0 0 1
-16.281611 -21.736082 -33.722281 43.298272 0.927898 2.463605 0.115362 -0.038474 148388.000000 0 0 1
-16.366211 -20.262682 -33.323441 42.295163 0.891377 2.478152 0.104281 -0.043214 68786.300000 0 0 1
-16.352311 -20.063882 -31.897221 41.077854 0.886968 2.459899 0.093518 -0.046916 69312.600000 0 0 1
-16.963311 -18.828982 -31.563151 40.478599 0.837476 2.465061 0.075738 -0.045675 -67587.700000 0 0 1
-16.993011 -18.632782 -30.034621 39.217616 0.831393 2.443151 0.076753 -0.041753 -172587.000000 0 0 1
-18.043411 -19.234982 -29.323981 39.439131 0.817351 2.409123 0.086217 -0.036473 -178750.000000 0 0 1
-17.921311 -19.084882 -27.919651 38.274182 0.816830 2.388335 0.079747 -0.030125 199894.000000 0 0 1
-16.936011 -20.045582 -27.198881 37.794615 0.869285 2.374094 0.071082 -0.025921 61854.300000 0 0 1
-15.571211 -19.839782 -27.459551 37.284132 0.905363 2.398669 0.063841 -0.028552 -391530.000000 0 0 1
-14.840211 -21.040782 -27.248211 37.488816 0.956518 2.384500 0.060315 -0.025193 -97390.300000 0 0 1
-13.365211 -20.879582 -27.624421 37.117306 1.001406 2.410202 0.109788 -0.030195 -746742.000000 0 0 1
-12.710611 -19.895182 -26.866651 35.765833 1.002279 2.420647 0.104081 -0.041068 -770651.000000 0 0 1
-11.326611 -20.012382 -26.833381 35.338617 1.055767 2.433066 0.089340 -0.050326 -540028.000000 0 0 1
-10.717011 -21.040482 -25.865891 35.022857 1.099695 2.401703 0.130147 -0.051082 -701846.000000 0 0 1
-10.750711 -22.385682 -26.262451 36.144334 1.123074 2.384156 0.141617 -0.050013 25049.600000 0 0 1
-10.432911 -23.196682 -25.178841 35.789743 1.148143 2.351136 0.180324 -0.049144 -143022.000000 0 0 1
-10.558811 -24.733582 -25.493631 37.056225 1.167316 2.329487 0.174349 -0.043764 -777360.000000 0 0 1
-9.469911 -25.325772 -26.174591 37.632209 1.212969 2.339963 0.176136 -0.044096 -243508.000000 0 0 1
-9.586711 -26.502732 -26.944371 38.991011 1.223714 2.333724 0.171125 -0.034473 -457814.000000 0 0 1
-9.682011 -27.867132 -26.247191 39.487130 1.236409 2.297892 0.194075 -0.031011 -320375.000000 0 0 1
-10.772511 -28.014672 -25.371951 39.301460 1.203696 2.272569 0.156025 -0.034166 -195191.000000 0 0 1
-10.753911 -29.243692 -24.676071 39.746051 1.218411 2.240614 0.165768 -0.038607 -138485.000000 0 0 1
-11.675711 -29.212072 -23.432771 39.227059 1.190559 2.211005 0.170280 -0.040053 -216054.000000 0 0 1
-11.411011 -28.203232 -22.506671 37.844203 1.186331 2.207713 0.160544 -0.050351 -31645.500000 0 0 1
-11.956411 -26.948122 -22.861571 37.306949 1.153208 2.230391 0.145358 -0.042804 -331936.000000 0 0 1
-11.864811 -25.843352 -21.810971 35.838123 1.140397 2.225087 0.147958 -0.043322 -104414.000000 0 0 1
-12.495411 -26.197932 -20.603171 35.594348 1.125749 2.188093 0.115239 -0.040678 93063.900000 0 0 1
-12.525311 -25.094972 -19.692871 34.270252 1.107856 2.182954 0.100795 -0.033552 -83293.500000 0 0 1
-13.158011 -25.356822 -18.311771 33.932619 1.092132 2.140819 0.113994 -0.035340 -591362.000000 0 0 1
-14.496411 -25.703662 -18.438571 34.796624 1.057282 2.129274 0.130408 -0.041741 -894018.000000 0 0 1
-15.072511 -26.196592 -17.296171 34.822400 1.048690 2.090585 0.118649 -0.039790 -129020.000000 0 0 1
-16.610311 -26.274222 -17.324471 35.586156 1.007043 2.079255 0.132171 -0.046884 -1818220.000000 0 0 1
-17.298111 -25.021622 -17.329071 35.008612 0.965915 2.088625 0.116658 -0.037276 490059.000000 0 0 1
-18.658111 -24.990852 -16.906871 35.475486 0.929476 2.067556 0.126786 -0.031714 855487.000000 0 0 1
-19.639711 -25.876552 -17.743271 37.015373 0.921575 2.070709 0.112755 -0.021552 -1198000.000000 0 0 1
-19.305611 -27.253632 -17.680771 37.789903 0.954476 2.057676 0.118876 -0.035122 -424404.000000 0 0 1
-19.710111 -28.021152 -16.502771 38.026502 0.957791 2.019703 0.114258 -0.036860 380580.000000 0 0 1
-21.231811 -28.382802 -16.446371 39.075009 0.928543 2.005225 0.109883 -0.027216 628809.000000 0 0 1
-21.635811 -29.296282 -17.413071 40.368249 0.934685 2.016791 0.089328 -0.022465 364616.000000 0 0 1
-23.029811 -29.606322 -17.317471 41.313452 0.909697 2.003330 0.095882 -0.017935 888082.000000 0 0 1
-23.603311 -30.591332 -18.412371 42.801417 0.913634 2.015490 0.076245 -0.017878 237346.000000 0 0 1
-23.199311 -31.953042 -18.232171 43.492723 0.942804 2.003361 0.080490 -0.022353 -105805.000000 0 0 1
-23.752011 -32.833722 -19.183971 44.835656 0.944536 2.012935 0.059100 0.002970 247462.000000 0 0 1
-23.048111 33.525430 -19.250371 45.008295 -0.968522 2.012751 0.052345 -0.003054 44183.200000 0 0 1
-23.733011 32.567562 -18.500771 44.341633 -0.941047 2.001194 0.063665 -0.009571 164933.000000 0 0 1
-22.839511 31.665815 -17.834871 42.923766 -0.945939 1.999290 0.062763 -0.008815 133889.000000 0 0 1
-23.513911 30.307685 -17.585271 42.198359 -0.910962 2.000640 0.085023 -0.026852 631265.000000 0 0 1
-24.361211 30.299865 -16.395071 42.194179 -0.893619 1.969867 0.082233 -0.032119 527822.000000 0 0 1
-25.021111 29.067995 -16.134371 41.609160 -0.860078 1.968997 0.090893 -0.026507 -99494.200000 0 0 1
-24.176311 27.820395 -15.715671 40.068076 -0.855367 1.973845 0.088974 -0.032595 -572612.000000 0 0 1
-23.355111 27.462755 -16.763571 39.757784 -0.866054 2.006052 0.063523 -0.019611 -462546.000000 0 0 1
-22.865811 26.161085 -16.547871 38.484798 -0.852511 2.015272 0.065191 -0.022638 -470927.000000 0 0 1
-22.006311 25.660875 -17.705871 38.160923 -0.861917 2.053278 0.069693 -0.017797 -997100.000000 0 0 1
-21.618011 24.329675 -17.616571 37.008310 -0.844346 2.066916 0.090532 -0.025781 291691.000000 0 0 1
-20.982411 23.867045 -18.833271 36.940350 -0.849628 2.105783 0.085508 -0.013555 44091.300000 0 0 1
-19.532811 24.329175 -19.033371 36.547348 -0.894317 2.118568 0.073091 -0.021912 -1261350.000000 0 0 1
-18.596411 23.707385 -18.193071 35.197364 -0.905631 2.114007 0.087246 -0.027141 999449.000000 0 0 1
-17.318611 24.402525 -18.180271 35.013422 -0.953586 2.116754 0.104798 -0.038188 956840.000000 0 0 1
-17.081011 25.738925 -17.382871 35.445978 -0.984902 2.083350 0.112730 -0.044103 -417311.000000 0 0 1
-17.742311 26.830625 -18.015171 36.867579 -0.986539 2.081333 0.079599 -0.034678 45685.900000 0 0 1
-17.544511 28.039345 -17.315071 37.333985 -1.011686 2.053063 0.101939 -0.047139 -340863.000000 0 0 1
-18.668211 29.103175 -17.478571 38.742707 -1.000456 2.038844 0.086435 -0.035584 112531.000000 0 0 1
-18.996711 29.645785 -18.737471 39.885341 -1.000923 2.059842 0.052571 -0.036200 275382.000000 0 0 1
-19.503811 28.713145 -19.727771 39.925284 -0.974123 2.087615 0.046571 -0.018680 -256481.000000 0 0 1
-19.793211 29.364745 -21.069171 41.206424 -0.977702 2.107502 0.062174 -0.026284 748258.000000 0 0 1
-20.991211 30.163825 -21.009671 42.330763 -0.962823 2.090153 0.068464 -0.021975 735508.000000 0 0 1
-21.422111 30.468705 -22.324071 43.423645 -0.958002 2.110754 0.064804 -0.020282 619494.000000 0 0 1
-22.351011 31.754325 -22.360471 44.809547 -0.957476 2.093254 0.054875 -0.017312 76206.600000 0 0 1
-21.575511 32.894448 -22.319971 45.229730 -0.990284 2.086883 0.027341 -0.014358 -224729.000000 0 0 1
-21.937411 33.824785 -23.296971 46.563021 -0.995434 2.094779 0.044093 -0.002383 -849380.000000 0 0 1
-20.971811 -32.770052 -23.547271 45.477106 1.001505 2.115054 0.051516 -0.009349 -200843.000000 0 0 1
-20.614011 -31.888552 -22.514871 44.144497 0.996928 2.106012 0.063610 -0.013420 188104.000000 0 0 1
-19.830511 -32.452042 -21.485571 43.680819 1.022276 2.085040 0.078634 -0.025338 -562053.000000 0 0 1
-19.526011 -31.606162 -20.305971 42.338482 1.017398 2.071007 0.102387 -0.029221 534.441000 0 0 1
-18.563711 -30.599362 -20.608971 41.299661 1.025487 2.093253 0.120099 -0.034905 296542.000000 0 0 1
-18.064811 -30.163992 -19.334371 40.125076 1.031196 2.073564 0.112176 -0.027496 -221353.000000 0 0 1
-16.933411 -29.131762 -19.490671 38.926677 1.044263 2.095206 0.133040 -0.036006 504828.000000 0 0 1
-15.681111 -29.770102 -19.746371 39.013785 1.085986 2.101498 0.141270 -0.042237 -370005.000000 0 0 1
-14.675511 -28.886282 -20.087171 38.121941 1.100734 2.125768 0.134863 -0.046802 -713795.000000 0 0 1
-13.329111 -29.631502 -20.354271 38.340415 1.148085 2.130438 0.172709 -0.050398 382177.000000 0 0 1
-12.529811 -29.994892 -19.229071 37.768332 1.175098 2.104972 0.160051 -0.043979 470044.000000 0 0 1
-12.169311 -28.942812 -18.294571 36.338269 1.172777 2.098386 0.113723 -0.037400 -654184.000000 0 0 1
-11.113911 -29.355502 -17.252071 35.817572 1.208876 2.073350 0.115044 -0.019616 -132718.000000 0 0 1
-11.647511 -30.157312 -16.251871 36.183578 1.202221 2.036611 0.144541 -0.037405 -62918.400000 0 0 1
-11.962711 -31.471072 -16.592871 37.534760 1.207546 2.028698 0.155868 -0.042745 336643.000000 0 0 1
-13.033411 -32.126762 -15.629271 38.029893 1.185397 1.994318 0.158232 -0.049811 331919.000000 0 0 1
-12.536911 -32.745772 -14.422971 37.914137 1.205156 1.961037 0.143244 -0.036230 -147224.000000 0 0 1
-13.577311 -33.130232 -13.558771 38.285714 1.181856 1.932798 0.146898 -0.031223 -423032.000000 0 0 1
-13.157511 -33.863412 -12.312871 38.359583 1.200202 1.897566 0.117158 -0.025786 293765.000000 0 0 1
-12.298411 -33.022002 -11.526071 37.074976 1.214280 1.886921 0.097184 -0.011250 57648.000000 0 0 1
-11.976611 -33.543202 -10.265371 37.067013 1.227854 1.851405 0.105290 -0.018443 -545015.000000 0 0 1
-10.750911 -32.861362 -9.674871 35.903403 1.254612 1.843638 0.095216 -0.021981 -917697.000000 0 0 1
-9.583611 -33.233822 -10.299171 36.088855 1.290044 1.860203 0.074832 -0.023179 -635513.000000 0 0 1
-8.430211 -32.539232 -9.837571 35.023533 1.317292 1.855512 0.064865 -0.027716 1147500.000000 0 0 1
-7.062911 -33.141082 -10.311171 35.419434 1.360821 1.866190 0.071450 -0.040712 270485.000000 0 0 1
-6.411511 33.705203 -9.472071 35.593094 -1.382819 1.840163 0.074157 -0.020110 -268810.000000 0 0 1
-5.255811 33.439224 -10.258071 35.369949 -1.414897 1.865046 0.080914 -0.019199 -236269.000000 0 0 1
-4.383711 32.360697 -9.632971 34.047405 -1.436152 1.857642 0.087749 -0.023312 -406627.000000 0 0 1
-3.812611 32.713951 -8.457671 34.003982 -1.454776 1.822161 0.109120 -0.032904 -657739.000000 0 0 1
-3.315911 31.689565 -7.712771 32.782779 -1.466538 1.808292 0.092356 -0.035047 -192444.000000 0 0 1
-2.887911 32.136352 -6.313871 32.877806 -1.481173 1.764037 0.097512 -0.035016 -7670.660000 0 0 1
-1.729811 32.961054 -6.231771 33.589556 -1.518364 1.757405 0.070863 -0.029820 108147.000000 0 0 1
-1.529811 33.570263 -4.981471 33.972311 -1.525257 1.717960 0.073925 -0.030346 578089.000000 0 0 1
-0.397611 32.938268 -4.095571 33.194296 -1.558726 1.694493 0.076846 -0.033727 478347.000000 0 0 1
0.943589 33.141314 -4.512571 33.460430 1.542332 1.706071 0.074494 -0.026436 -133467.000000 0 0 1
1.705989 32.177569 -3.813271 32.447610 1.517828 1.688589 0.068534 -0.027386 -397647.000000 0 0 1
3.190189 32.194160 -4.195871 32.622792 1.472027 1.699771 0.065883 -0.022551 -674902.000000 0 0 1
3.785989 33.399994 -3.926171 33.842401 1.457925 1.687072 0.068288 -0.018411 -503312.000000 0 0 1
5.144489 33.359427 -4.324971 34.029730 1.417788 1.698235 0.079444 -0.018721 -121978.000000 0 0 1
5.845789 -33.176092 -3.802971 33.901164 -1.396382 1.683211 0.071060 -0.015579 -312633.000000 0 0 1
5.628789 -31.990802 -4.543671 32.798470 -1.396629 1.709776 0.070034 -0.016905 245120.000000 0 0 1
6.262589 -30.842092 -3.886771 31.710592 -1.370467 1.693675 0.068149 -0.023701 384028.000000 0 0 1
6.149789 -29.552062 -4.798171 30.564141 -1.365624 1.728435 0.063540 -0.022858 -82987.700000 0 0 1
6.861389 -29.592522 -6.027971 30.969864 -1.342960 1.766687 0.079423 -0.023129 25372.000000 0 0 1
6.728789 -28.385462 -6.813071 29.957120 -1.338042 1.800231 0.079651 -0.024911 124148.000000 0 0 1
7.172889 -27.020442 -6.165071 28.628006 -1.311319 1.787848 0.079819 -0.028394 348727.000000 0 0 1
6.358589 -26.596532 -5.075471 27.813083 -1.336125 1.754310 0.072407 -0.031038 36113.200000 0 0 1
6.927289 -25.451432 -4.516471 26.761189 -1.305057 1.740377 0.060222 -0.034020 316674.000000 0 0 1
5.955789 -24.850382 -3.469071 25.788513 -1.335567 1.705725 0.062374 -0.030356 30896.700000 0 0 1
4.763589 -24.350982 -3.982771 25.130153 -1.377614 1.729953 0.074537 -0.032209 -314524.000000 0 0 1
3.890989 -23.767082 -3.000871 24.269718 -1.408522 1.694760 0.068646 -0.028209 463630.000000 0 1 0
2.623289 -23.175782 -3.627671 23.604206 -1.458085 1.725095 0.081160 -0.027612 272207.000000 0 1 0
1.734189 -24.118882 -4.232971 24.548848 -1.499018 1.744093 0.092131 -0.027174 52238.000000 0 1 0
0.643089 -23.455382 -4.850471 23.960292 -1.543386 1.774643 0.070281 -0.021038 206016.000000 0 1 0
-15.539011 23.076018 18.199473 33.244312 -0.978158 0.991487 0.014015 -0.006566 55689.400000 0 0 1
-15.819211 22.429618 19.488873 33.662313 -0.956534 0.953353 0.024989 -0.010734 303565.000000 0 0 1
-15.512011 23.354518 20.491273 34.726765 -0.984505 0.939649 0.034052 -0.003778 -840414.000000 0 0 1
-15.362711 22.749918 21.898673 35.115858 -0.976850 0.897442 0.058113 -0.015375 595826.000000 0 0 1
-14.190511 21.939418 22.172473 34.268458 -0.996671 0.867123 0.056613 -0.018021 2374190.000000 0 0 1
-12.902011 22.656718 22.140173 34.204912 -1.053138 0.866785 0.054824 -0.023991 1166800.000000 0 0 1
-12.577011 23.752218 23.216013 35.515240 -1.083821 0.858344 0.066083 -0.023283 -657140.000000 0 0 1
-12.200711 23.119118 24.436903 35.784259 -1.085210 0.819078 0.062840 -0.017898 89559.400000 0 0 1
-12.174111 24.069218 25.429463 37.070120 -1.102523 0.814843 0.095863 -0.029421 -115307.000000 0 0 1
-11.516511 23.642718 26.722613 37.492748 -1.117517 0.777398 0.096153 -0.025192 -693411.000000 0 0 1
-10.148511 23.424318 26.646543 36.901615 -1.161961 0.763968 0.059236 -0.020806 -766174.000000 0 0 1
-9.635711 22.701018 27.742803 37.119351 -1.169382 0.726664 0.046608 -0.018615 -433675.000000 0 0 1
-8.124211 22.410918 27.716103 36.557275 -1.223019 0.710316 0.035269 -0.022163 218927.000000 0 0 1
-7.227111 23.449218 28.116713 37.318179 -1.271831 0.717530 0.032780 -0.014673 233856.000000 0 0 1
-7.179711 24.669718 27.284563 37.477868 -1.287586 0.755370 0.033485 -0.011788 -952784.000000 0 0 1
-6.067511 25.521518 27.868203 38.272696 -1.337388 0.755180 0.041535 -0.016893 85957.800000 0 0 1
-4.752011 25.023118 27.704883 37.633742 -1.383126 0.743401 0.042724 -0.017212 32021.100000 0 0 1
-3.767811 25.804118 28.375073 38.538210 -1.425805 0.743234 0.058604 -0.012845 1173690.000000 0 0 1
-2.350211 25.118018 28.231603 37.861084 -1.477501 0.729267 0.063995 -0.021751 364972.000000 0 0 1
-1.860511 25.146118 26.981833 36.929772 -1.496943 0.751559 0.059496 -0.028115 -304440.000000 0 0 1
-0.475311 24.857118 26.957383 36.671552 -1.551677 0.744977 0.080051 -0.019988 303591.000000 0 0 1
-0.023111 24.699218 25.521173 35.515942 -1.569861 0.769033 0.079294 -0.027833 -45755.500000 0 0 1
-0.539111 23.585118 24.853133 34.266990 -1.547942 0.759357 0.066584 -0.019813 171723.000000 0 0 1
0.180989 23.444818 23.632923 33.289747 1.563077 0.781417 0.069068 -0.018915 162564.000000 0 0 1
-0.158811 22.149618 22.866253 31.835457 -1.563627 0.769493 0.046613 -0.015280 20861.700000 0 0 1
0.456889 20.982418 23.347193 31.393662 1.549025 0.732221 0.056100 -0.013001 -260559.000000 0 0 1
-0.059511 19.843218 22.746833 30.185679 -1.567797 0.717330 0.045755 -0.012351 32164.000000 0 0 1
0.935389 18.638918 22.784863 29.452236 1.520654 0.686261 0.049587 -0.005718 416663.000000 0 0 1
2.049389 18.869018 21.912273 28.989438 1.462609 0.713813 0.065912 -0.012802 136481.000000 0 0 1
2.838989 17.683818 22.020873 28.384787 1.411613 0.682817 0.054932 -0.008483 786402.000000 0 0 1
4.289589 17.727418 21.421373 28.134270 1.333385 0.705330 0.079167 -0.019812 929254.000000 0 0 1
5.292389 18.327718 22.207073 29.275736 1.289679 0.709713 0.082739 -0.018238 91297.200000 0 0 1
6.478589 18.651818 21.461873 29.162894 1.236490 0.743756 0.105349 -0.031705 634019.000000 0 0 1
7.594589 19.121018 22.417773 30.427745 1.192719 0.742539 0.118652 -0.038875 -404982.000000 0 0 1
7.310389 20.334818 23.137713 31.659128 1.225682 0.751247 0.097322 -0.030657 80646.900000 0 0 1
7.075789 21.466518 22.406973 31.826885 1.252392 0.789745 0.114063 -0.039638 -195205.000000 0 0 1
5.896889 22.276918 22.967833 32.535453 1.312023 0.787058 0.088572 -0.030225 -176737.000000 0 0 1
5.803689 23.616118 22.481973 33.118619 1.329821 0.824626 0.090319 -0.038881 -806812.000000 0 0 1
4.561789 24.034818 22.889853 33.502653 1.383228 0.818626 0.077954 -0.033428 -1212200.000000 0 0 1
4.092489 25.436718 22.412573 34.148184 1.411274 0.854849 0.092277 -0.039936 -51903.000000 0 0 1
3.852489 25.667818 21.056273 33.422226 1.421818 0.889233 0.094897 -0.042215 -336404.000000 0 0 1
2.739189 24.975318 20.582973 32.479662 1.461557 0.884445 0.098646 -0.046863 -768331.000000 0 0 1
2.430389 25.389718 19.113973 31.873006 1.475364 0.927681 0.104974 -0.049075 -681408.000000 0 0 1
1.864389 26.633618 19.064873 32.806934 1.500909 0.950688 0.110575 -0.051637 86537.700000 0 0 1
1.217889 26.911918 17.800673 32.289294 1.525573 0.986890 0.111836 -0.044333 -246404.000000 0 0 1
0.176789 27.993518 17.998573 33.280879 1.564481 0.999399 0.098828 -0.032998 -650529.000000 0 0 1
0.653489 29.261418 18.324073 34.531569 1.548467 1.011433 0.105881 -0.027930 -505786.000000 0 0 1
-0.378511 30.167118 18.518473 35.399606 -1.558250 1.020281 0.080008 -0.025164 -552388.000000 0 0 1
0.081289 31.460518 19.136173 36.823415 1.568212 1.024327 0.079260 -0.013372 -61985.100000 0 0 1
0.472889 31.325318 20.487973 37.433357 1.555701 0.991639 0.100543 -0.015622 -153692.000000 0 0 1
1.048989 32.541018 20.913573 38.696198 1.538572 0.999818 0.102479 -0.021650 -205982.000000 0 0 1
1.475289 32.361818 22.356873 39.361066 1.525241 0.966729 0.119823 -0.036822 1059530.000000 0 0 1
0.310489 32.129118 23.217823 39.641442 1.561133 0.945058 0.127761 -0.027838 1166330.000000 0 0 1
0.729389 31.920218 24.567283 40.286272 1.547950 0.914966 0.135007 -0.027200 318836.000000 0 0 1
-0.390511 31.745218 25.646833 40.812638 -1.558496 0.891296 0.137830 -0.031023 -102910.000000 0 0 1
-1.317511 32.764218 25.813853 41.732299 -1.530606 0.903890 0.139150 -0.023139 -150053.000000 0 0 1
-2.091611 32.754518 26.988373 42.492417 -1.507026 0.882615 0.149370 -0.023659 63495.800000 0 0 1
-1.355111 33.388518 28.211993 43.732665 -1.530232 0.869641 0.170009 -0.037000 33927.400000 0 0 1
-0.448011 32.429518 28.750583 43.341324 -1.556982 0.845506 0.165749 -0.035150 358876.000000 0 0 1
0.307589 32.830318 29.892523 44.401433 1.561428 0.832224 0.148952 -0.048470 -877255.000000 0 0 1
1.456789 31.915018 30.234883 43.986802 1.525182 0.812945 0.129357 -0.042768 -1084250.000000 0 0 1
2.638489 32.137318 29.542433 43.732415 1.488880 0.829117 0.110243 -0.047909 -361489.000000 0 0 1
2.696389 31.659118 28.222203 42.497800 1.485832 0.844525 0.108569 -0.043264 -970789.000000 0 0 1
4.141789 31.612018 27.697603 42.233059 1.440519 0.855518 0.082437 -0.035836 92240.700000 0 0 1
4.770689 30.477918 28.355113 41.900780 1.415527 0.827497 0.078676 -0.040042 1670570.000000 0 0 1
6.207089 30.415118 28.101463 41.872420 1.369482 0.835076 0.074856 -0.051677 1451690.000000 0 0 1
6.960489 29.213118 28.727863 41.558931 1.336892 0.807570 0.064735 -0.032648 57898.500000 0 0 1
7.065989 29.152218 30.155023 42.533580 1.333000 0.782760 0.073229 -0.043023 -61116.800000 0 0 1
7.590389 27.938718 30.602813 42.127403 1.305519 0.757676 0.065400 -0.039834 -345178.000000 0 0 1
7.772489 28.086618 32.126856 43.375161 1.300820 0.736723 0.092044 -0.042135 -127740.000000 0 0 1
6.561589 28.311018 32.855634 43.864118 1.343049 0.724196 0.089569 -0.046232 -75431.700000 0 0 1
6.627389 28.068418 -33.508251 44.210420 1.338927 2.430925 0.106484 -0.042559 -139513.000000 0 0 1
6.628289 26.610918 -32.931751 42.855284 1.326682 2.447197 0.091138 -0.033715 395312.000000 0 0 1
7.655889 25.783618 -33.504991 42.965009 1.282160 2.465175 0.081561 -0.030077 376532.000000 0 0 1
7.960289 24.556818 -32.882641 41.805162 1.257326 2.476029 0.082417 -0.031590 -121478.000000 0 0 1
9.383889 24.045518 -33.160331 42.022040 1.198719 2.480167 0.079733 -0.029545 -262106.000000 0 0 1
9.548189 23.776218 33.198566 41.935918 1.188924 0.657292 0.062355 -0.026460 293451.000000 0 0 1
10.838389 23.253818 32.922670 41.738626 1.134642 0.661972 0.072361 -0.041176 116505.000000 0 0 1
10.878689 21.674218 33.012156 40.962422 1.105615 0.633580 0.072735 -0.043899 -321451.000000 0 0 1
10.049289 20.964118 32.064407 39.605664 1.123799 0.627341 0.058137 -0.038518 406254.000000 0 0 1
9.776489 19.672718 32.594084 39.306105 1.109586 0.593055 0.058523 -0.038616 139531.000000 0 0 1
8.539489 19.505218 33.529675 39.719208 1.158130 0.565786 0.079813 -0.043078 -90578.100000 0 0 1
8.704989 20.174018 -32.985301 39.633293 1.163437 2.553973 0.079808 -0.037505 226087.000000 0 0 1
7.497889 20.198618 -32.240171 38.776682 1.215354 2.552476 0.089640 -0.040156 101505.000000 0 0 1
7.744589 20.650418 -30.798251 37.880742 1.211997 2.520137 0.103576 -0.046376 -154296.000000 0 0 1
8.035889 22.021518 -30.741701 38.659732 1.220900 2.490112 0.114740 -0.042724 39096.600000 0 0 1
8.181889 22.561218 -29.454471 37.993653 1.222894 2.457903 0.086399 -0.035802 196473.000000 0 0 1
9.666989 22.765218 -29.025431 38.133731 1.169232 2.435878 0.090179 -0.040209 402932.000000 0 0 1
10.355089 21.562818 -28.850841 37.477380 1.123090 2.449356 0.094132 -0.042650 -168830.000000 0 0 1
11.757589 21.749018 -28.741781 37.912407 1.075196 2.431207 0.101356 -0.042096 804260.000000 0 0 1
12.546089 20.354318 -28.847011 37.468021 1.018416 2.449497 0.104448 -0.051405 270036.000000 0 0 1
12.396389 19.516518 -29.971271 37.852899 1.004914 2.484518 0.095018 -0.043028 275177.000000 0 0 1
11.100189 18.961618 -30.161381 37.315761 1.041179 2.512012 0.100776 -0.039766 -44613.100000 0 0 1
11.026489 17.900218 -31.306751 37.710925 1.018697 2.550222 0.102289 -0.045774 -857593.000000 0 0 1
11.754689 16.720018 -31.130351 37.240172 0.958039 2.560630 0.112799 -0.038739 181574.000000 0 0 1
12.011989 16.029718 -32.324431 38.027734 0.927707 2.586824 0.095489 -0.029323 78454.700000 0 0 1
13.258389 16.597818 -33.053741 39.291503 0.896786 2.570376 0.083261 -0.019132 -500521.000000 0 0 1
13.018689 17.855718 -33.727141 40.321619 0.940803 2.561575 0.083010 -0.028990 -82642.300000 0 0 1
13.413489 18.015618 32.698312 39.669431 0.930794 0.601885 0.091681 -0.034434 -564780.000000 0 0 1
12.489689 17.410818 31.660743 38.229982 0.948519 0.594970 0.093840 -0.049506 -1260410.000000 0 0 1
12.906889 17.796718 30.373113 37.494492 0.943331 0.626527 0.092736 -0.044605 142985.000000 0 0 1
12.199089 17.256618 29.249233 36.084987 0.955440 0.625680 0.082319 -0.044003 421941.000000 0 0 1
10.684789 17.628518 29.236193 35.772676 1.025898 0.614126 0.054499 -0.038674 -140782.000000 0 0 1
9.943489 16.701218 29.979173 35.728902 1.033784 0.575219 0.066670 -0.035593 223401.000000 0 0 1
8.572989 17.007818 30.211363 35.713981 1.103905 0.562498 0.066146 -0.032809 725405.000000 0 0 1
7.826389 16.159918 31.285563 36.071897 1.119780 0.521021 0.073346 -0.030852 -43949.700000 0 0 1
8.157489 16.450618 32.604073 37.419153 1.110452 0.512910 0.082710 -0.027604 139429.000000 0 0 1
7.958289 15.324018 33.369164 37.572077 1.091801 0.477520 0.098408 -0.031484 -248995.000000 0 0 1
7.966189 15.657618 -32.876141 37.275485 1.100154 2.650838 0.100879 -0.032287 -308830.000000 0 0 1
6.936389 16.507118 -32.435171 37.049139 1.172993 2.637190 0.091113 -0.036329 82056.200000 0 0 1
6.783689 16.375118 -31.054181 35.756469 1.178051 2.622947 0.096597 -0.042528 -396937.000000 0 0 1
5.753089 17.346718 -30.484911 35.543444 1.250559 2.601537 0.095614 -0.043820 -1083960.000000 0 0 1
5.837689 17.396718 -29.098561 34.401317 1.247041 2.578964 0.090181 -0.052125 367485.000000 0 0 1
5.104389 18.465318 -28.478531 34.322725 1.301100 2.549417 0.100740 -0.053251 1489880.000000 0 0 1
3.535189 18.481618 -28.711301 34.327926 1.381798 2.561448 0.127290 -0.055942 237633.000000 0 0 1
2.805889 17.521318 -27.926951 33.087523 1.412003 2.575555 0.134272 -0.055499 330589.000000 0 0 1
1.431189 17.416918 -28.228481 33.200067 1.488808 2.587263 0.136556 -0.049860 277535.000000 0 0 1
0.478789 18.535718 -27.772491 33.393312 1.544971 2.552920 0.144805 -0.051938 -750066.000000 0 0 1
0.324589 18.641718 -26.354991 32.283193 1.553386 2.525892 0.154876 -0.057939 -115698.000000 0 0 1
-0.347511 19.820618 -26.050341 32.735270 -1.553265 2.491104 0.167678 -0.050711 -114650.000000 0 0 1
-0.771511 20.056718 -24.558471 31.717276 -1.532349 2.456394 0.149285 -0.056922 142866.000000 0 0 1
-1.857311 19.304718 -24.066371 30.908121 -1.474881 2.463295 0.139837 -0.046479 -122222.000000 0 0 1
-2.230011 19.776118 -22.812271 30.273214 -1.458508 2.424236 0.142030 -0.049990 231394.000000 0 0 1
-3.478011 19.106518 -22.189171 29.487537 -1.390735 2.422636 0.112987 -0.040371 1406800.000000 0 0 1
-4.795811 19.500618 -22.657771 30.276203 -1.329651 2.416396 0.106653 -0.034288 900862.000000 0 0 1
-5.749011 18.538918 -22.246871 29.523988 -1.270095 2.424194 0.088019 -0.041415 1029760.000000 0 0 1
-7.225711 19.069618 -22.463471 30.339227 -1.208600 2.404477 0.113173 -0.037893 1161870.000000 0 0 1
-7.760211 19.961218 -21.454471 30.314442 -1.200013 2.357078 0.067329 -0.026805 258904.000000 0 0 1
-7.375911 21.319318 -21.752071 31.337995 -1.237713 2.337982 0.066112 -0.033481 -82163.200000 0 0 1
-7.822411 22.362418 -20.736671 31.484557 -1.234298 2.289793 0.065904 -0.039501 -43223.700000 0 0 1
-7.187011 22.272118 -19.476571 30.447285 -1.258654 2.264880 0.084421 -0.039085 -218256.000000 0 0 1
-7.742111 23.187518 -18.614671 30.726328 -1.248544 2.221594 0.100466 -0.041593 -529661.000000 0 0 1
-6.979011 23.368918 -17.324271 29.915602 -1.280583 2.188427 0.120126 -0.043467 -200896.000000 0 0 1
-5.613911 23.660418 -17.488571 29.952987 -1.337834 2.194281 0.123547 -0.049286 -414746.000000 0 0 1
-4.933711 23.825418 -16.252771 29.259948 -1.366605 2.159714 0.114549 -0.041532 -190315.000000 0 0 1
-3.442611 24.120318 -16.398471 29.369221 -1.429027 2.163199 0.114918 -0.039210 -296718.000000 0 0 1
-3.085011 25.412518 -16.814971 30.627709 -1.449990 2.151978 0.092909 -0.042122 -492347.000000 0 0 1
-1.716111 25.514718 -17.083471 30.753712 -1.503638 2.159752 0.099555 -0.054190 -229586.000000 0 0 1
-1.215611 26.966618 -17.142271 31.977080 -1.525748 2.136583 0.087286 -0.065326 -301918.000000 0 0 1
-1.852411 27.653118 -18.193671 33.153220 -1.503909 2.151695 0.093107 -0.070526 108453.000000 0 0 1
-1.419511 28.983718 -18.250371 34.280416 -1.521859 2.132212 0.100395 -0.069916 -470375.000000 0 0 1
-2.355011 29.760418 -19.177571 35.482499 -1.491829 2.141803 0.142275 -0.076805 819677.000000 0 0 1
-3.579911 30.331218 -18.682871 35.802907 -1.453313 2.119786 0.116346 -0.070559 601054.000000 0 0 1
-4.661011 29.399218 -18.637871 35.119926 -1.413563 2.130213 0.082726 -0.072155 538934.000000 0 0 1
-5.867411 30.022718 -17.828071 35.406640 -1.377797 2.098468 0.111088 -0.057084 965521.000000 0 0 1
-6.460411 31.216418 -18.436871 36.825532 -1.366722 2.095151 0.149274 -0.058792 348913.000000 0 0 1
-5.987611 32.359318 -17.756671 37.393532 -1.387831 2.065601 0.147279 -0.079863 -466905.000000 0 0 1
-6.653911 33.660118 -18.116571 38.800621 -1.375633 2.056595 0.141527 -0.052434 -424032.000000 0 0 1
-7.986511 33.602518 -17.651271 38.787638 -1.337450 2.043252 0.148330 -0.070238 -97811.800000 0 0 1
-8.657511 -33.049880 -18.234171 38.726374 1.314600 2.061046 0.195332 -0.059996 -25943.800000 0 0 1
29.692689 -19.749182 -26.260171 44.286370 -0.586931 2.205530 0.102312 -0.008783 -43695.200000 0 0 1
29.429889 -21.075682 -25.905931 44.513144 -0.621471 2.191962 0.109100 -0.015062 -1229100.000000 0 0 1
28.084389 -21.334882 -26.018541 43.827783 -0.649662 2.206388 0.092721 -0.020557 -1103140.000000 0 0 1
27.728589 -22.777782 -25.491411 44.017202 -0.687687 2.188450 0.102923 -0.013399 32646.900000 0 0 1
28.032389 -23.907282 -26.291351 45.261552 -0.706143 2.190601 0.102382 0.001269 368263.000000 0 0 1
29.412089 -24.230782 -26.047941 46.159474 -0.689108 2.170385 0.096662 0.000568 672222.000000 0 0 1
29.999589 -25.471962 -26.688291 47.550616 -0.703958 2.166705 0.084751 -0.004100 -69186.000000 0 0 1
29.651989 -26.663872 -25.999091 47.604152 -0.732388 2.148560 0.089036 -0.012903 -73497.800000 0 0 1
30.061089 -27.877012 -26.629051 48.886637 -0.747719 2.146840 0.078022 -0.007510 276115.000000 0 0 1
28.943189 -28.439892 -27.544991 49.043472 -0.776628 2.167168 0.068917 -0.013059 -43770.800000 0 0 1
28.742289 -27.734242 -28.777301 49.228451 -0.767551 2.195142 0.050939 -0.012333 240509.000000 0 0 1
29.680689 -27.973112 -29.838891 50.535114 -0.755789 2.202423 0.028149 -0.011959 122754.000000 0 0 1
29.933689 -29.462852 -30.336761 51.811239 -0.777471 2.196324 0.042009 -0.010493 -422032.000000 0 0 1
30.571289 -30.402642 -29.502151 52.242715 -0.782632 2.170882 0.055541 -0.015848 200259.000000 0 0 1
31.886089 -30.255012 -28.990641 52.654968 -0.759156 2.153852 0.062873 -0.018051 1363680.000000 0 0 1
33.090689 -29.984092 -30.016321 53.805381 -0.736185 2.162611 0.057301 -0.020995 617426.000000 0 0 1
33.052089 -28.624562 -30.392271 53.249378 -0.713735 2.178220 0.069065 -0.024756 39958.200000 0 0 1
34.277189 -28.359842 -31.036131 54.244334 -0.691207 2.179927 0.063230 -0.023568 65320.500000 0 0 1
34.264489 -26.910742 -31.562461 53.799927 -0.665764 2.197729 0.051426 -0.006788 178975.000000 0 0 1
34.047089 -25.840082 -30.645051 52.593091 -0.649205 2.192821 0.052683 -0.006441 -521589.000000 0 0 1
32.719189 -25.600612 -30.285121 51.411334 -0.663938 2.200710 0.063992 -0.005493 -515474.000000 0 0 1
32.548489 -24.292482 -29.485991 50.189167 -0.641159 2.198759 0.074217 -0.003853 -221325.000000 0 0 1
33.182589 -24.377882 -28.236541 49.926622 -0.633610 2.171909 0.070298 0.000442 119781.000000 0 0 1
33.362889 -23.007782 -27.760401 49.123113 -0.603727 2.171374 0.066280 -0.000038 -400848.000000 0 0 1
34.364589 -23.067082 -26.613681 49.206740 -0.591166 2.142249 0.055895 -0.003962 -668327.000000 0 0 1
33.995389 -23.759682 -25.443101 48.657583 -0.609993 2.121047 0.063984 -0.004592 515893.000000 0 0 1
33.119489 -23.052482 -24.525571 47.220982 -0.608063 2.116920 0.078502 -0.001427 362068.000000 0 0 1
33.747189 -21.859182 -23.757471 46.702399 -0.574780 2.104469 0.076572 0.000800 -314614.000000 0 0 1
34.067589 -20.688682 -24.508471 46.789821 -0.545758 2.122101 0.087660 -0.009063 115308.000000 0 0 1
34.220389 -19.639582 -23.549171 45.949012 -0.521018 2.108898 0.068823 -0.016555 30879.600000 0 0 1
34.456689 -18.289782 -24.283371 45.950644 -0.487987 2.127589 0.053014 -0.017923 -142662.000000 0 0 1
33.252789 -17.857082 -24.840471 45.184869 -0.492815 2.152864 0.062993 -0.015944 20186.600000 0 0 1
33.457889 -16.701482 -25.684311 45.365777 -0.462991 2.172637 0.054261 -0.016525 -96067.600000 0 0 1
32.351389 -16.601582 -26.751801 45.142926 -0.474124 2.205082 0.061598 -0.010115 1096820.000000 0 0 1
31.008389 -16.438982 -26.212211 43.804570 -0.487473 2.212286 0.086558 -0.012385 920341.000000 0 0 1
30.179489 -16.101182 -27.289261 43.757895 -0.490098 2.244189 0.086608 -0.015500 -1374370.000000 0 0 1
28.796389 -15.753982 -26.791981 42.370157 -0.500600 2.255355 0.089228 -0.013838 -1143230.000000 0 0 1
28.009489 -16.863482 -26.515731 42.095041 -0.541935 2.252223 0.082168 -0.005770 -194225.000000 0 0 1
27.681489 -16.790382 -25.115981 40.975533 -0.545226 2.230586 0.113665 -0.011897 152267.000000 0 0 1
26.806389 -17.961282 -24.540171 40.538995 -0.590333 2.220998 0.115716 -0.017656 125327.000000 0 0 1
26.852389 -18.022882 -23.097371 39.741208 -0.591123 2.190992 0.126413 -0.010386 -317857.000000 0 0 1
25.915389 -18.793682 -22.408371 39.076143 -0.627435 2.181512 0.129312 -0.017771 -205563.000000 0 0 1
25.734789 -18.307082 -20.919971 37.882368 -0.618319 2.155839 0.123010 -0.028471 -141526.000000 0 0 1
25.031389 -17.078082 -20.736171 36.718117 -0.598725 2.170914 0.118980 -0.031506 112699.000000 0 0 1
25.649389 -15.873782 -21.175471 36.854697 -0.554183 2.182871 0.128954 -0.028103 768065.000000 0 0 1
27.033289 -15.401882 -20.592271 37.310298 -0.517870 2.155460 0.108323 -0.022254 732740.000000 0 0 1
26.849889 -14.584782 -19.513571 36.254819 -0.497605 2.139136 0.099576 -0.022541 635797.000000 0 0 1
27.944889 -13.660682 -19.429871 36.674936 -0.454683 2.129145 0.075920 -0.017149 153214.000000 0 0 1
27.822589 -12.552182 -18.381971 35.630754 -0.423810 2.112856 0.079606 -0.014702 -188080.000000 0 0 1
28.063889 -13.083882 -17.052971 35.349309 -0.436258 2.074204 0.063838 -0.009617 368459.000000 0 0 1
27.840489 -11.998482 -16.103071 34.327326 -0.406918 2.059072 0.050659 -0.014450 14789.200000 0 0 1
28.307089 -12.327782 -14.641971 34.170935 -0.410732 2.013619 0.060676 -0.005599 -78134.300000 0 0 1
27.474089 -13.185482 -13.900571 33.494901 -0.447458 1.998745 0.086832 -0.011061 201321.000000 0 0 1
28.177189 -13.695682 -12.804671 33.845019 -0.452430 1.958791 0.102617 -0.016025 -131222.000000 0 0 1
27.677389 -15.111782 -12.319271 33.855107 -0.499765 1.943229 0.105271 -0.033484 -600769.000000 0 0 1
26.398489 -14.983682 -11.794071 32.565182 -0.516252 1.941389 0.089955 -0.026632 -382895.000000 0 0 1
26.010089 -16.168982 -11.102271 32.576389 -0.556181 1.918572 0.071429 -0.024367 1267000.000000 0 0 1
24.485089 -15.994682 -10.665771 31.130502 -0.578651 1.920495 0.078931 -0.025316 1115960.000000 0 0 1
24.286989 -15.485682 -9.370771 30.289859 -0.567617 1.885327 0.070064 -0.018237 1285670.000000 0 0 1
22.869789 -15.469182 -9.092671 29.068876 -0.594713 1.888933 0.082747 -0.023740 808509.000000 0 0 1
22.472989 -15.139782 -7.640271 28.153543 -0.592848 1.845621 0.070340 -0.018427 -525754.000000 0 0 1
22.584789 -13.780482 -7.244571 27.430972 -0.547861 1.838069 0.096387 -0.021012 396543.000000 0 0 1
22.339389 -13.580782 -5.825471 26.784736 -0.546230 1.790041 0.097400 -0.018085 162017.000000 0 0 1
23.337189 -14.227782 -4.792971 27.749356 -0.547493 1.744391 0.097709 -0.019126 305777.000000 0 0 1
24.694389 -13.824782 -4.879171 28.718353 -0.510363 1.741522 0.105574 -0.024613 666212.000000 0 0 1
25.477989 -14.550682 -3.927671 29.601974 -0.518904 1.703871 0.106671 -0.034436 437885.000000 0 0 1
27.017689 -14.437882 -4.159871 30.914600 -0.490777 1.705766 0.120473 -0.032468 399818.000000 0 0 1
27.522889 -13.140682 -3.828071 30.738268 -0.445442 1.695658 0.124902 -0.026703 122996.000000 0 0 1
28.914089 -13.107782 -4.064871 32.005651 -0.425624 1.698145 0.142834 -0.039846 -69547.900000 0 0 1
29.610789 -11.954182 -3.309971 32.103851 -0.383701 1.674082 0.154729 -0.041446 -904755.000000 0 0 1
29.838389 -12.034682 -1.927571 32.231639 -0.383373 1.630636 0.153604 -0.048669 415758.000000 0 0 1
30.397089 -10.865982 -1.276471 32.306067 -0.343312 1.610318 0.152494 -0.037639 1456920.000000 0 0 1
31.893789 -10.453382 -1.636171 33.603036 -0.316723 1.619507 0.171798 -0.035107 884041.000000 0 0 1
32.001789 -10.068782 -2.986471 33.681061 -0.304826 1.659582 0.175846 -0.038000 -996653.000000 0 0 1
33.271089 -10.188282 -3.487371 34.970391 -0.297154 1.670686 0.198685 -0.046402 -1172690.000000 0 0 1
33.289489 -10.087182 -5.064671 35.150992 -0.294220 1.715383 0.191325 -0.050535 -483535.000000 0 0 1
32.463289 -10.998982 -5.700971 34.746854 -0.326674 1.735613 0.169575 -0.054321 -126216.000000 0 0 1
32.318589 -10.883582 -7.054271 34.823933 -0.324831 1.774778 0.160694 -0.044474 504866.000000 0 0 1
30.907889 -11.478482 -7.392971 33.789187 -0.355591 1.791378 0.162550 -0.039015 556081.000000 0 0 1
30.829689 -12.888882 -7.243871 34.191617 -0.395984 1.784275 0.141577 -0.037126 -550781.000000 0 0 1
29.620689 -13.402182 -7.689671 33.408603 -0.424898 1.803049 0.133300 -0.030777 -524407.000000 0 0 1
29.479689 -15.016682 -7.710671 33.970683 -0.471132 1.799772 0.139634 -0.036202 -45532.800000 0 0 1
30.018989 -15.524682 -8.904371 34.949153 -0.477283 1.828417 0.145269 -0.040390 283495.000000 0 0 1
29.888289 -16.953382 -8.962271 35.511256 -0.515971 1.825934 0.138329 -0.033866 -15897.500000 0 0 1
30.440589 -17.567382 -10.293771 36.622454 -0.523414 1.855714 0.127032 -0.036071 6238.780000 0 0 1
31.822689 -17.446082 -10.583671 37.802955 -0.501482 1.854559 0.140303 -0.035895 488176.000000 0 0 1
32.063589 -17.931182 -11.869971 38.606959 -0.509908 1.883316 0.124602 -0.020527 -183608.000000 0 0 1
31.467189 -17.166182 -13.050471 38.146777 -0.499402 1.919960 0.110027 -0.028193 -60009.000000 0 0 1
32.244989 -16.004182 -13.406571 38.413661 -0.460708 1.927306 0.097427 -0.026788 555481.000000 0 0 1
31.640689 -15.359382 -14.527571 38.053832 -0.451925 1.962500 0.081811 -0.032566 -919498.000000 0 0 1
32.308389 -14.044582 -15.035671 38.303442 -0.410061 1.974189 0.069837 -0.028509 1094530.000000 0 0 1
33.431589 -14.349782 -15.915871 39.710230 -0.405447 1.983186 0.038300 -0.031317 368789.000000 0 0 1
34.608989 -14.760182 -15.323471 40.625778 -0.403127 1.957552 0.060648 -0.031345 -1496600.000000 0 0 1
35.715689 -14.888182 -16.379371 42.018475 -0.394950 1.971225 0.055455 -0.024023 258701.000000 0 0 1
37.041989 -15.159082 -15.924171 43.075352 -0.388447 1.949463 0.070071 -0.027116 1032370.000000 0 0 1
-36.950161 -15.690182 -17.005371 43.596776 0.401558 1.971493 0.072147 -0.026125 884407.000000 0 0 1
-35.401661 -15.634082 -16.750571 42.169702 0.415863 1.979280 0.096632 -0.027318 750523.000000 0 0 1
-34.995461 -16.657982 -15.827071 41.864864 0.444267 1.958487 0.089235 -0.027542 139199.000000 0 0 1
-35.263861 -16.344382 -14.454671 41.468256 0.434014 1.926843 0.081627 -0.030321 -460392.000000 0 0 1
-34.634461 -17.338582 -13.459871 41.004151 0.464141 1.905253 0.076795 -0.025792 -1311320.000000 0 0 1
-33.277761 -17.339382 -13.302671 39.812367 0.480346 1.911483 0.111471 -0.028585 -1273210.000000 0 0 1
-32.854661 -17.722382 -11.979671 39.204899 0.494682 1.881329 0.109381 -0.011093 58516.700000 0 0 1
-31.312661 -17.717282 -11.904571 37.895958 0.514907 1.890345 0.144735 -0.019274 -286984.000000 0 0 1
-30.774561 -16.401382 -12.013371 36.883601 0.489661 1.902559 0.135869 -0.030021 -750095.000000 0 0 1
-29.532061 -16.219782 -11.446771 35.584442 0.502249 1.898299 0.137125 -0.031751 -760154.000000 0 0 1
-29.506561 -16.142682 -9.921971 35.066634 0.500605 1.857661 0.139538 -0.031186 -462331.000000 0 0 1
-29.980561 -17.289182 -9.217471 35.814964 0.523096 1.831089 0.133373 -0.027562 -295336.000000 0 0 1
-30.352961 -16.900882 -7.907571 35.629647 0.508058 1.794598 0.148010 -0.024883 121434.000000 0 0 1
-31.071161 -18.100682 -7.163971 36.665709 0.527494 1.767447 0.140936 -0.026412 530719.000000 0 0 1
-32.284661 -18.542282 -7.739071 38.026422 0.521336 1.775746 0.111203 -0.021531 159055.000000 0 0 1
-32.008961 -19.410982 -8.822871 38.460406 0.545129 1.802259 0.108871 -0.017417 -439901.000000 0 0 1
-33.275161 -20.237982 -9.061171 39.986461 0.546428 1.799388 0.094166 -0.013605 -252191.000000 0 0 1
-34.346561 -19.476982 -9.531071 40.618720 0.515856 1.807652 0.090197 -0.016078 -354311.000000 0 0 1
-35.498861 -20.253982 -9.747271 42.016690 0.518486 1.804915 0.073937 -0.016621 981397.000000 0 0 1
-36.841461 -19.436282 -9.980671 42.833119 0.485456 1.805971 0.079668 -0.034270 941286.000000 0 0 1
-36.871461 -18.765382 -11.248171 42.873833 0.470774 1.836258 0.066244 -0.044122 1445470.000000 0 0 1
36.548789 -18.373082 -11.461571 42.482370 -0.465805 1.843977 0.092011 -0.046104 1365530.000000 0 0 1
36.145489 -18.018282 -12.871371 42.388997 -0.462441 1.879316 0.076155 -0.037048 -140872.000000 0 0 1
35.796289 -19.103682 -13.688971 42.821874 -0.490225 1.896180 0.050474 -0.026680 -121968.000000 0 0 1
35.221889 -18.670282 -14.869971 42.547350 -0.487418 1.927825 0.044602 -0.017753 -60564.600000 0 0 1
34.063089 -19.556782 -15.409471 42.192577 -0.521183 1.944663 0.057730 -0.023478 128637.000000 0 0 1
32.890389 -19.338882 -14.628671 40.862796 -0.531534 1.936916 0.087126 -0.030179 131093.000000 0 0 1
31.781589 -20.196182 -14.869871 40.485408 -0.566091 1.946890 0.101245 -0.029689 618008.000000 0 0 1
30.900189 -19.822082 -16.098871 40.086285 -0.570368 1.984066 0.094822 -0.020015 -382822.000000 0 0 1
30.049889 -18.703282 -15.864171 38.787634 -0.556733 1.992155 0.075776 -0.021718 -4203.270000 0 0 1
29.310989 -18.511882 -17.028171 38.623600 -0.563308 2.027369 0.070100 -0.026882 -58505.700000 0 0 1
28.548189 -17.153182 -16.983471 37.385412 -0.541044 2.042361 0.074960 -0.020245 654603.000000 0 0 1
27.450589 -17.023782 -16.064271 36.074989 -0.555112 2.032308 0.083389 -0.026565 820237.000000 0 0 1
26.673789 -15.878982 -16.362571 35.090837 -0.536959 2.055891 0.068992 -0.021296 -1710520.000000 0 0 1
25.282789 -15.712682 -15.773171 33.688288 -0.556062 2.058059 0.053138 -0.014570 -195622.000000 0 0 1
24.271989 -16.516682 -16.372771 33.615441 -0.597507 2.079518 0.066615 -0.016580 378517.000000 0 0 1
23.925889 -15.952582 -17.626271 33.728600 -0.588060 2.120684 0.080843 -0.022667 -1493020.000000 0 0 1
22.944289 -16.775982 -18.443771 33.882837 -0.631335 2.146398 0.078318 -0.020274 -464138.000000 0 0 1
21.638489 -16.817982 -17.950171 32.760912 -0.660699 2.150665 0.071960 -0.008990 176522.000000 0 0 1
20.691489 -17.598982 -18.726571 32.993126 -0.704809 2.174372 0.065060 -0.017883 966345.000000 0 0 1
19.280689 -17.682182 -18.118771 31.822860 -0.742179 2.176528 0.069336 -0.012921 137482.000000 0 0 1
18.507489 -16.500282 -18.026471 30.655181 -0.728125 2.199430 0.080954 -0.008481 350798.000000 0 0 1
17.196489 -16.839482 -17.610671 29.823198 -0.774909 2.202478 0.089723 -0.019595 -63397.900000 0 0 1
16.161289 -15.773182 -17.359871 28.484130 -0.773246 2.226173 0.097857 -0.013825 -506638.000000 0 0 1
15.591089 -15.160682 -18.481371 28.539261 -0.771403 2.275197 0.084490 -0.005784 660681.000000 0 0 1
14.479689 -14.363282 -18.027671 27.220621 -0.781362 2.294654 0.098358 -0.011624 590620.000000 0 0 1
13.537589 -13.816082 -19.114671 27.194137 -0.795579 2.350258 0.079428 -0.014295 135716.000000 0 0 1
14.050189 -12.674782 -19.829071 27.408940 -0.733978 2.379587 0.080221 -0.016035 329778.000000 0 0 1
13.255989 -12.392082 -20.978671 27.737873 -0.751728 2.428464 0.085404 -0.015166 260678.000000 0 0 1
13.548989 -10.917082 -21.440371 27.612448 -0.678237 2.459848 0.077331 -0.013088 -370924.000000 0 0 1
14.814389 -10.688982 -22.020171 28.611333 -0.625028 2.449059 0.059207 -0.005317 -227322.000000 0 0 1
15.079089 -9.391782 -22.447471 28.626447 -0.557041 2.472124 0.064258 -0.009992 -558884.000000 0 0 1
16.396989 -9.088182 -23.129271 29.772798 -0.506107 2.460459 0.059633 -0.009726 -564855.000000 0 0 1
16.470489 -9.604882 -24.476871 31.026569 -0.527943 2.479814 0.074771 -0.010780 -371990.000000 0 0 1
17.750589 -9.371082 -24.963571 32.032491 -0.485742 2.464377 0.080664 -0.021074 -906203.000000 0 0 1
22.699789 4.736418 -7.193871 24.278918 0.205703 1.871614 0.187527 -0.004318 -48863.200000 0 1 0
22.594789 6.142418 -7.166171 24.486890 0.265436 1.867797 0.167576 -0.009407 307704.000000 0 1 0
21.767989 6.616618 -6.160371 23.570642 0.295087 1.835225 0.139697 -0.011400 -618413.000000 0 1 0
21.494589 8.166318 -6.131371 23.797055 0.363081 1.831388 0.125992 -0.010709 -675829.000000 0 1 0
20.564089 8.565118 -7.096671 23.379601 0.394656 1.879203 0.098243 -0.012418 168315.000000 0 1 0
20.230689 9.944918 -7.111771 23.638093 0.456886 1.876391 0.089447 -0.011309 291600.000000 0 1 0
19.450189 10.660918 -5.955171 22.965824 0.501394 1.833100 0.095087 -0.016366 217123.000000 0 1 0
20.329589 11.026618 -4.879371 23.636555 0.496984 1.778725 0.110918 -0.013431 518579.000000 0 1 0
20.436689 12.437818 -4.566771 24.355964 0.546721 1.759414 0.143316 -0.014665 164739.000000 0 1 0
21.268789 12.799518 -3.310271 25.042902 0.541741 1.703368 0.135211 -0.030651 -394760.000000 0 0 1
22.616689 12.472118 -3.413371 26.052245 0.503961 1.702194 0.128831 -0.048825 -63999.500000 0 0 1
23.379389 12.931118 -2.279171 26.814255 0.505219 1.655897 0.123353 -0.051502 200543.000000 0 0 1
24.335589 11.920518 -1.639971 27.147912 0.455486 1.631242 0.119665 -0.043933 102516.000000 0 0 1
25.545389 11.718518 -2.389471 28.206385 0.430093 1.655612 0.114082 -0.036295 407137.000000 0 0 1
26.344189 10.842818 -1.645571 28.535783 0.390452 1.628495 0.129693 -0.036020 -1539400.000000 0 0 1
27.712389 10.580918 -2.154671 29.741805 0.364729 1.643306 0.136609 -0.030234 -560001.000000 0 0 1
28.647889 11.656518 -1.795471 30.980634 0.386431 1.628783 0.124754 -0.046144 1139810.000000 0 0 1
29.985889 11.136918 -1.743971 32.034761 0.355615 1.625263 0.121907 -0.036183 958451.000000 0 0 1
30.999089 12.331318 -1.557371 33.398059 0.378605 1.617444 0.102094 -0.032499 -313526.000000 0 0 1
31.142289 12.790718 -0.199471 33.667260 0.389712 1.576721 0.135987 -0.041516 -30893.500000 0 0 1
32.087889 13.812418 -0.141371 34.934732 0.406483 1.574843 0.118202 -0.043674 80807.700000 0 0 1
33.573789 13.345518 -0.022871 36.128973 0.378348 1.571429 0.124304 -0.046540 -1328.500000 0 0 1
34.512089 14.331318 0.340529 37.370937 0.393588 1.561684 0.119049 -0.049435 44340.400000 0 0 1
35.328589 14.763918 -0.743371 38.296672 0.395844 1.590208 0.130510 -0.035416 -286434.000000 0 0 1
34.830189 15.884818 -1.728771 38.320467 0.427886 1.615925 0.076031 -0.007669 749652.000000 0 0 1
33.563489 15.480118 -2.299271 37.032803 0.432144 1.632924 0.084211 -0.006779 662497.000000 0 0 1
33.161789 16.269518 -3.424571 37.096215 0.456108 1.663244 0.058057 0.005130 422822.000000 0 0 1
31.736689 15.891118 -3.924971 35.709249 0.464221 1.680934 0.068400 -0.015085 -15537.100000 0 0 1
31.658889 14.638118 -4.582971 35.179019 0.433093 1.701443 0.057742 -0.010347 -291324.000000 0 0 1
30.539289 14.534818 -5.388871 34.248344 0.444214 1.728800 0.062774 -0.018593 270415.000000 0 0 1
29.211689 13.983418 -4.735971 32.730539 0.446457 1.716002 0.091850 -0.030747 357740.000000 0 0 1
28.184889 13.790318 -5.670471 31.885970 0.455035 1.749583 0.111214 -0.036842 -98797.700000 0 0 1
27.055489 13.134118 -5.128971 30.509193 0.451941 1.739711 0.105902 -0.024138 472060.000000 0 0 1
25.962289 12.977518 -6.257071 29.691874 0.463536 1.783122 0.089791 -0.030104 22080.400000 0 0 1
26.359689 12.099218 -7.277071 29.902843 0.430317 1.816622 0.082588 -0.016030 170247.000000 0 0 1
25.494789 11.953818 -8.392071 29.382050 0.438437 1.860449 0.098440 -0.011510 -73625.200000 0 0 1
25.220089 13.206818 -9.309571 29.952313 0.482398 1.886845 0.103660 -0.004665 -474088.000000 0 0 1
24.252689 14.013418 -8.686271 29.326099 0.523943 1.871504 0.096002 -0.017195 -58077.500000 0 0 1
24.060389 15.231718 -9.340571 29.969214 0.564376 1.887749 0.102403 -0.028098 -18621.900000 0 0 1
22.999689 16.213318 -8.676571 29.447245 0.614031 1.869883 0.096803 -0.018765 1161310.000000 0 0 1
21.646189 15.777718 -8.642171 28.145710 0.629854 1.882889 0.102605 -0.029443 563701.000000 0 0 1
21.313389 14.719718 -7.781471 27.045923 0.604411 1.862635 0.112090 -0.029068 -879993.000000 0 0 1
19.868689 14.197618 -7.811871 25.639081 0.620439 1.880405 0.122109 -0.030867 -557119.000000 0 0 1
18.941189 15.039318 -7.232871 25.244091 0.671072 1.861386 0.149730 -0.050001 -303611.000000 0 0 1
17.634689 14.717318 -7.670671 24.216129 0.695465 1.893107 0.164411 -0.049203 -217480.000000 0 1 0
16.552589 15.135618 -6.665971 23.398938 0.740712 1.859681 0.144242 -0.029758 -284513.000000 0 1 0
16.595989 14.156818 -5.594671 22.519829 0.706248 1.821859 0.110579 -0.031987 479672.000000 0 1 0
16.093389 14.679318 -4.381971 22.218938 0.739478 1.769316 0.094337 -0.017598 -111390.000000 0 1 0
15.723889 13.637818 -3.292671 21.073026 0.714470 1.727690 0.071860 -0.011814 523940.000000 0 1 0
16.868889 12.941418 -2.724071 21.435024 0.654404 1.698226 0.069202 -0.016593 1383490.000000 0 1 0
16.533489 12.204218 -1.537071 20.607323 0.635875 1.645454 0.055719 -0.021120 26990.500000 0 1 0
16.611589 13.030918 -0.239371 21.114142 0.665185 1.582134 0.061869 -0.024251 319487.000000 0 1 0
15.630189 14.111818 -0.211771 21.059227 0.734391 1.580852 0.061647 -0.023479 1040840.000000 0 1 0
15.736289 14.915418 0.961629 21.703115 0.758624 1.526473 0.060221 -0.018678 -481225.000000 0 1 0
14.546989 15.852118 1.228929 21.550285 0.828305 1.513739 0.059399 -0.012807 -395892.000000 0 1 0
14.340989 16.829618 0.256729 22.112574 0.865068 1.559186 0.062173 -0.013117 -403919.000000 0 1 0
13.506889 17.802718 0.725929 22.358439 0.921752 1.538323 0.051607 -0.017324 -686639.000000 0 1 0
13.473389 19.150418 0.025129 23.415195 0.957688 1.569723 0.044674 -0.016308 24859.400000 0 1 0
12.724389 19.176918 -1.177871 23.044557 0.984971 1.621931 0.034053 -0.020409 -14110.700000 0 1 0
12.121489 20.372818 -1.544771 23.756442 1.034074 1.635868 0.036902 -0.025404 894222.000000 0 1 0
10.573589 20.404518 -1.269071 23.016422 1.092696 1.625962 0.028311 -0.028391 622960.000000 0 1 0
10.221989 20.479918 0.084329 22.889369 1.107851 1.567112 0.016142 -0.031382 887878.000000 0 1 0
8.775889 20.478618 0.123929 22.280156 1.165932 1.565234 0.018328 -0.028406 1167620.000000 0 1 0
8.277589 20.518718 1.597329 22.183050 1.187348 1.498727 0.014196 -0.025915 27592.800000 0 1 0
8.445889 21.785018 2.162629 23.464803 1.200945 1.478501 0.013228 -0.015875 181948.000000 0 1 0
7.306989 22.019218 2.964229 23.388559 1.250385 1.443716 0.012772 -0.016304 41156.200000 0 1 0
7.169989 23.373018 3.655529 24.719822 1.273146 1.422374 0.021585 -0.011088 283031.000000 0 1 0
8.061289 23.597118 4.755229 25.385440 1.241605 1.382362 0.036478 -0.021908 409256.000000 0 0 1
7.813189 24.849718 5.400429 26.602989 1.266165 1.366375 0.037487 -0.012538 45979.600000 0 0 1
8.316389 24.967518 6.856729 27.194742 1.249266 1.315911 0.049139 -0.018312 -46597.600000 0 0 1
7.553289 24.160918 7.723029 26.465965 1.267798 1.274678 0.059092 -0.024108 129396.000000 0 0 1
7.955189 24.342718 9.057129 27.164030 1.254938 1.230864 0.061479 -0.028238 -134994.000000 0 0 1
7.360389 23.329018 10.073429 26.455479 1.265177 1.180168 0.064297 -0.021403 -331977.000000 0 0 1
6.100789 23.719018 10.546029 26.665149 1.319043 1.164186 0.061648 -0.020584 -81829.900000 0 0 1
5.429889 22.614318 11.149029 25.791315 1.335149 1.123778 0.064477 -0.021748 429465.000000 0 0 1
4.102389 22.920718 11.907929 26.153158 1.393690 1.098070 0.058181 -0.029886 650288.000000 0 0 1
3.045189 23.358418 11.053229 26.020429 1.441159 1.132066 0.052371 -0.021121 193572.000000 0 0 1
1.898489 23.587618 11.865329 26.471985 1.490483 1.106021 0.063918 -0.026127 -359169.000000 0 0 1
0.606289 23.759818 11.099429 26.231543 1.545284 1.133896 0.070875 -0.016479 -802501.000000 0 0 1
0.658389 25.003918 10.420929 27.096589 1.544471 1.176039 0.073908 -0.022061 -370572.000000 0 0 1
-0.180811 25.164618 9.341329 26.843083 -1.563611 1.215362 0.074463 -0.022578 -211306.000000 0 0 1
-1.647211 25.554518 9.565929 27.335941 -1.506427 1.213290 0.093268 -0.033582 -56149.800000 0 0 1
-2.531011 24.649218 10.185029 26.790386 -1.468474 1.180811 0.097567 -0.036562 -678400.000000 0 0 1
-3.798811 25.215518 10.211829 27.468796 -1.421267 1.189891 0.102340 -0.037369 -692671.000000 0 0 1
-4.924911 24.229918 10.717729 26.948346 -1.370271 1.161773 0.091133 -0.044385 348852.000000 0 0 1
-5.222811 24.136018 12.101229 27.500270 -1.357691 1.115153 0.083937 -0.029956 153683.000000 0 0 1
-5.868611 25.316218 12.552529 28.860309 -1.343007 1.120824 0.088172 -0.033583 -332348.000000 0 0 1
-6.430711 25.134918 13.984829 29.473608 -1.320322 1.076416 0.070645 -0.036563 -557016.000000 0 0 1
-7.574211 24.365718 14.136929 29.170355 -1.269411 1.064852 0.063503 -0.030433 -489260.000000 0 0 1
-7.983111 24.336718 15.489229 29.931958 -1.253829 1.026891 0.052466 -0.017083 -804942.000000 0 0 1
-9.280811 23.615018 15.686129 29.830474 -1.196335 1.017091 0.043532 -0.016524 -1068550.000000 0 0 1
-10.444011 24.335818 15.406629 30.637781 -1.165406 1.043888 0.038756 -0.012221 -464142.000000 0 0 1
-11.572611 23.511618 15.575129 30.484523 -1.113402 1.034543 0.031885 -0.006953 28729.600000 0 0 1
-12.940211 24.155718 15.286129 31.378552 -1.078998 1.061970 0.028053 -0.010598 -62490.800000 0 0 1
-13.374211 25.053218 16.256929 32.723401 -1.080451 1.050891 0.023769 -0.013280 516669.000000 0 0 1
-14.486911 25.835918 15.770929 33.557226 -1.059754 1.081538 0.020823 -0.009320 475327.000000 0 0 1
-15.124311 26.835418 16.754129 35.065443 -1.057575 1.072652 0.029842 -0.013983 -276783.000000 0 0 1
-16.164911 26.250118 17.482529 35.440257 -1.018838 1.054922 0.026791 -0.018943 -408311.000000 0 0 1
-16.677011 27.172918 18.410629 36.816320 -1.020338 1.047120 0.058262 -0.025708 882822.000000 0 0 1
-18.042311 26.657718 19.052029 37.405063 -0.975802 1.036374 0.040431 -0.027661 673447.000000 0 0 1
-19.138911 26.781018 18.208929 37.617628 -0.950309 1.065516 0.033824 -0.026701 -743889.000000 0 0 1
-20.255811 26.105818 18.750929 37.992222 -0.910917 1.054633 0.035227 -0.022288 411647.000000 0 0 1
-21.520711 26.319518 17.853429 38.400559 -0.885373 1.087245 0.033495 -0.026213 -31106.300000 0 0 1
-21.985511 27.623918 17.819429 39.547131 -0.898568 1.103373 0.028602 -0.030600 14906.200000 0 0 1
-22.663211 27.878318 16.620529 39.586156 -0.888219 1.137508 0.043914 -0.027613 -67948.400000 0 0 1
-23.699211 29.053718 16.611529 41.008706 -0.886553 1.153737 0.047234 -0.029108 253346.000000 0 0 1
-24.897311 28.697618 17.276429 41.736128 -0.856188 1.144014 0.043956 -0.025458 281530.000000 0 0 1
-25.843301 29.742018 17.131529 42.964556 -0.855423 1.160658 0.050119 -0.031238 -809377.000000 0 0 1
-27.194161 29.617718 17.764029 43.957847 -0.828032 1.154785 0.065117 -0.025673 -587331.000000 0 0 1
-28.147311 28.843918 17.005529 43.742779 -0.797621 1.171509 0.090691 -0.019777 866723.000000 0 0 1
-29.435901 28.747218 17.621029 44.759082 -0.773562 1.166158 0.124749 -0.025505 563981.000000 0 0 1
-29.591241 27.561918 18.613129 44.516844 -0.749906 1.139428 0.106245 -0.023701 -519056.000000 0 0 1
-29.593161 26.267218 17.970829 43.458861 -0.725928 1.144487 0.107737 -0.023451 116891.000000 0 0 1
-29.691731 25.195818 18.908229 43.289135 -0.703669 1.118770 0.104072 -0.018829 -58634.000000 0 0 1
-29.833711 23.786918 18.306229 42.320040 -0.673103 1.123459 0.095193 -0.028334 -738806.000000 0 0 1
-31.030221 23.736418 17.611829 42.854039 -0.652998 1.147276 0.118709 -0.031233 -632813.000000 0 0 1
-31.020921 22.868518 16.498929 41.922325 -0.635256 1.166296 0.123807 -0.029170 -443078.000000 0 0 1
-31.488571 21.435618 16.712029 41.596968 -0.597684 1.157358 0.110168 -0.025549 275376.000000 0 0 1
-32.903031 21.370718 16.546029 42.580372 -0.576028 1.171703 0.113742 -0.019825 142239.000000 0 0 1
-33.270801 20.011018 16.528029 42.196715 -0.541491 1.168329 0.108538 -0.027815 521311.000000 0 0 1
-34.780202 19.820818 16.181129 43.178191 -0.517984 1.186667 0.116143 -0.031857 409628.000000 0 0 1
-35.012970 20.116718 14.833529 43.018879 -0.521496 1.218755 0.100012 -0.028184 -579264.000000 0 0 1
-36.207611 19.542618 14.416329 43.597426 -0.494930 1.233784 0.119482 -0.039487 -541606.000000 0 0 1
-36.525841 19.772118 12.971629 43.512491 -0.496154 1.268081 0.114176 -0.033961 -201457.000000 0 0 1
-36.750331 21.152618 12.764029 44.282508 -0.522267 1.278407 0.102349 -0.036149 -96058.500000 0 0 1
-36.736721 21.542118 11.380329 44.081304 -0.530353 1.309672 0.075301 -0.032541 1015480.000000 0 0 1
-35.397174 21.225818 10.575529 42.606773 -0.540160 1.319962 0.103393 -0.033082 823093.000000 0 0 1
-35.547647 19.973118 9.928429 41.965871 -0.511910 1.331948 0.102261 -0.023078 -373416.000000 0 0 1
-34.417243 19.673618 9.174329 40.691106 -0.519291 1.343378 0.120060 -0.025383 -378744.000000 0 0 1
-33.617231 18.503518 9.790729 39.602484 -0.503164 1.320981 0.113358 -0.030773 -179697.000000 0 0 1
-33.121621 18.943218 11.039129 39.720897 -0.519523 1.289171 0.129752 -0.038266 -235633.000000 0 0 1
-32.490101 17.880418 11.668129 38.877516 -0.503100 1.265972 0.139370 -0.039506 -149624.000000 0 0 1
-31.992441 18.252318 13.120929 39.100155 -0.518461 1.228584 0.108111 -0.020040 382374.000000 0 0 1
-30.791551 19.003118 13.189129 38.512222 -0.552937 1.221256 0.132028 -0.021617 68051.400000 0 0 1
-30.971871 20.405418 12.863729 39.257017 -0.582563 1.236950 0.120379 -0.016884 1003910.000000 0 0 1
-29.592151 21.181218 12.978629 38.636565 -0.621233 1.228219 0.133910 -0.030851 1078750.000000 0 0 1
-29.148721 21.224018 14.318129 38.795820 -0.629356 1.192795 0.108816 -0.020943 264634.000000 0 0 1
-27.877911 21.895618 14.378329 38.253527 -0.665782 1.185462 0.130956 -0.029696 420574.000000 0 0 1
-27.292001 21.750818 15.789729 38.304920 -0.672889 1.145916 0.107656 -0.031414 -552030.000000 0 0 1
-26.690951 20.499418 15.978729 37.255238 -0.654940 1.127523 0.134407 -0.042664 -300439.000000 0 0 1
-26.159971 20.556518 17.286029 37.492950 -0.666023 1.091621 0.110543 -0.033408 -75197.500000 0 0 1
-25.054791 19.492818 17.441229 36.220284 -0.661186 1.068394 0.123076 -0.035669 119754.000000 0 0 1
-24.339911 19.490818 18.670029 36.344095 -0.675214 1.031302 0.120744 -0.035804 886274.000000 0 0 1
-23.339511 18.435418 18.713829 35.139789 -0.668540 1.009181 0.113643 -0.035525 634047.000000 0 0 1
-22.658311 18.349418 20.101129 35.414059 -0.680707 0.967205 0.104772 -0.032411 -44811.400000 0 0 1
-23.431911 17.693718 21.076529 36.143356 -0.646765 0.948211 0.124827 -0.022681 39485.200000 0 0 1
-22.972411 17.966218 22.354429 36.745573 -0.663717 0.916807 0.112638 -0.020077 114255.000000 0 0 1
-23.777811 17.144318 23.408329 37.513488 -0.624696 0.896948 0.152689 -0.021389 324118.000000 0 0 1
-23.205511 15.886418 23.653029 36.746970 -0.600313 0.871508 0.135859 -0.018730 549432.000000 0 0 1
-24.097011 15.059118 24.438829 37.479319 -0.558554 0.860496 0.143210 -0.018578 709949.000000 0 0 1
20.993489 24.629718 33.615840 46.662343 0.864931 0.766409 0.117217 -0.044662 25094.600000 0 0 1
22.072989 23.954418 32.991235 46.362189 0.826252 0.779026 0.120430 -0.053900 69382.300000 0 0 1
22.171489 22.591218 33.338316 45.971528 0.794775 0.759479 0.132304 -0.059830 110754.000000 0 0 1
21.064489 21.678718 32.750446 44.567603 0.799767 0.745353 0.132848 -0.064687 147555.000000 0 0 1
21.429389 21.104518 31.494263 43.548915 0.777760 0.762382 0.143592 -0.061967 300579.000000 0 0 1
20.461489 20.121718 31.176783 42.373905 0.777026 0.744017 0.142909 -0.056678 128250.000000 0 0 1
20.884489 19.389918 29.896303 41.302781 0.748305 0.761455 0.134319 -0.040153 15808.600000 0 0 1
21.976289 18.507618 29.976303 41.521897 0.699927 0.764195 0.130290 -0.040587 -320227.000000 0 0 1
22.243789 17.932018 28.713623 40.506982 0.678485 0.782921 0.113888 -0.033917 90047.100000 0 0 1
23.445689 16.961518 28.848903 40.861383 0.626284 0.786936 0.131477 -0.039948 153402.000000 0 0 1
24.710489 17.530418 29.086653 41.999491 0.617028 0.805781 0.138753 -0.038001 -531818.000000 0 0 1
25.700689 16.566118 29.129853 42.231623 0.572555 0.809633 0.118661 -0.020606 -1267360.000000 0 0 1
27.076489 17.081218 29.448383 43.498408 0.562795 0.827119 0.099752 -0.030839 -951157.000000 0 0 1
27.826889 17.385118 28.300613 43.330160 0.558426 0.859074 0.084031 -0.010853 338897.000000 0 0 1
29.149289 17.802518 28.579393 44.535294 0.548276 0.874051 0.083930 -0.002425 848071.000000 0 0 1
30.309489 17.787818 27.534223 44.645325 0.530711 0.906211 0.074940 0.020024 613036.000000 0 0 1
30.338889 18.851718 26.616593 44.545241 0.555986 0.930394 0.097393 0.007814 989634.000000 0 0 1
31.475189 18.723018 25.701213 44.741382 0.536624 0.958877 0.098284 0.001570 1091250.000000 0 0 1
31.745289 20.020818 24.836343 45.004894 0.562667 0.986205 0.119913 -0.002223 576814.000000 0 0 1
30.674089 20.247218 23.886573 43.833982 0.583426 0.994487 0.106558 -0.004128 619332.000000 0 0 1
30.943089 21.068118 22.733713 43.796827 0.597769 1.025031 0.107837 -0.019555 -369735.000000 0 0 1
31.563389 20.354118 21.543773 43.297480 0.572757 1.049995 0.117981 -0.016841 -622118.000000 0 0 1
30.674089 19.588318 20.820873 41.929831 0.568316 1.051160 0.132307 -0.023576 -348932.000000 0 0 1
31.101889 19.240318 19.512973 41.452062 0.554000 1.080672 0.142004 -0.033326 142553.000000 0 0 1
32.166589 18.094018 19.466573 41.725656 0.512397 1.085425 0.165342 -0.048278 332272.000000 0 0 1
31.647089 16.770718 19.624973 40.840357 0.487303 1.069539 0.173732 -0.045711 467045.000000 0 0 1
32.710689 15.838218 19.782373 41.378504 0.450921 1.072325 0.151022 -0.039446 -465756.000000 0 0 1
32.221189 14.395318 19.874373 40.502110 0.420161 1.057904 0.160668 -0.028331 -160959.000000 0 0 1
31.729589 14.078318 21.148173 40.647399 0.417600 1.023613 0.129715 -0.035858 1081480.000000 0 0 1
30.313289 14.343718 21.249773 39.701267 0.441964 1.006002 0.127427 -0.024673 341979.000000 0 0 1
29.600689 13.733918 22.427873 39.595843 0.434413 0.968641 0.092403 -0.013352 -80782.900000 0 0 1
29.048889 12.461818 22.102373 38.570063 0.405249 0.960580 0.092841 -0.013816 144414.000000 0 0 1
28.448689 11.817218 23.209743 38.570283 0.393700 0.925103 0.074761 0.002878 281720.000000 0 0 1
27.569489 10.529518 22.991983 37.410944 0.364829 0.908944 0.085541 -0.007516 -257098.000000 0 0 1
26.377889 10.786118 22.339673 36.210418 0.388162 0.905947 0.075346 -0.004556 -636419.000000 0 0 1
25.831089 9.575018 21.841973 35.156762 0.354976 0.900429 0.081262 0.000242 69823.700000 0 0 1
24.490289 9.565118 21.061273 33.687430 0.372349 0.895413 0.085582 -0.002170 327341.000000 0 0 1
23.345789 9.531118 21.893073 33.394232 0.387605 0.855827 0.053630 -0.000435 1085880.000000 0 0 1
22.194689 9.013418 21.174473 31.971929 0.385760 0.846934 0.027138 0.002480 1085750.000000 0 0 1
20.821489 9.062818 21.902273 31.549622 0.410531 0.803465 0.023545 -0.007436 152345.000000 0 0 1
20.757789 8.237018 23.039603 32.086720 0.377758 0.769812 0.058238 -0.007509 -142187.000000 0 0 1
19.473489 8.033618 23.554433 31.600112 0.391271 0.729675 0.047868 -0.004894 -375634.000000 0 0 1
19.485189 7.170018 24.849183 32.381533 0.352596 0.696040 0.077263 -0.011090 -18790.600000 0 0 1
19.781589 5.778218 24.631983 32.115941 0.284194 0.696690 0.087291 -0.018798 121007.000000 0 0 1
19.738689 5.067718 25.830693 32.901707 0.251312 0.667960 0.122099 -0.042194 -188798.000000 0 0 1
20.217089 3.628418 25.639713 32.852565 0.177582 0.675415 0.118091 -0.043819 -941572.000000 0 0 1
21.553889 3.636618 25.305433 33.438901 0.167148 0.712444 0.120048 -0.031664 -1161750.000000 0 0 1
22.051789 2.344018 25.064453 33.466440 0.105898 0.724331 0.091771 -0.037474 24422.900000 0 0 1
23.583189 2.345718 24.873623 34.356460 0.099140 0.761232 0.087939 -0.027611 536258.000000 0 0 1
24.271189 2.918218 26.054653 35.727462 0.119659 0.753555 0.092793 -0.031641 1042670.000000 0 0 1
25.673889 3.125318 25.832903 36.554823 0.121135 0.785988 0.095412 -0.027882 867629.000000 0 0 1
26.452989 3.602118 27.041163 37.999479 0.135338 0.778996 0.075411 -0.024564 -809659.000000 0 0 1
26.577589 2.615218 28.056273 38.734507 0.098084 0.760745 0.063483 -0.014674 8703.170000 0 0 1
27.509689 3.069318 29.012073 40.098679 0.111113 0.761913 0.073895 -0.007328 890941.000000 0 0 1
29.036389 2.909018 28.690393 40.923257 0.099852 0.793888 0.075732 -0.010945 56348.600000 0 0 1
29.490589 3.932118 27.749143 40.683797 0.132553 0.820209 0.066401 -0.012277 -220697.000000 0 0 1
30.835889 3.850818 27.362473 41.405142 0.124238 0.848849 0.049804 -0.008865 -255858.000000 0 0 1
31.022789 2.747918 26.296803 40.761334 0.088347 0.869589 0.049532 -0.000049 -373789.000000 0 0 1
30.383989 2.991518 25.055973 39.496047 0.098141 0.883575 0.045508 0.004095 -36014.000000 0 0 1
30.511489 1.924918 24.157283 38.964479 0.063005 0.902076 0.050249 0.008592 -327914.000000 0 0 1
30.220189 2.299218 22.679273 37.853608 0.075936 0.928381 0.055370 0.005569 360214.000000 0 0 1
31.076589 3.267318 22.046073 38.242112 0.104753 0.956374 0.055980 0.004789 814247.000000 0 0 1
32.456989 2.925018 21.828473 39.223642 0.089877 0.980613 0.054939 0.006444 737231.000000 0 0 1
33.251989 4.155618 21.378973 39.749521 0.124329 1.002921 0.064507 -0.000941 -690519.000000 0 0 1
32.975689 4.624318 20.068873 38.878530 0.139326 1.028395 0.070817 -0.008039 -110540.000000 0 0 1
33.494789 5.901718 19.775473 39.342096 0.174408 1.044130 0.085556 -0.001744 -465572.000000 0 0 1
35.014989 6.113918 19.667873 40.623327 0.172866 1.065402 0.073581 -0.002113 -339663.000000 0 0 1
35.617389 6.128318 20.986873 41.792386 0.170391 1.044690 0.072603 -0.008401 74073.200000 0 0 1
35.463989 7.357318 21.724473 42.234789 0.204557 1.030519 0.088285 -0.019299 -653229.000000 0 0 1
36.125889 7.274618 23.089113 43.486861 0.198711 1.011081 0.091636 -0.016368 -352931.000000 0 0 1
35.755089 6.166118 23.816733 43.401431 0.170775 0.989923 0.074334 -0.002645 -329747.000000 0 0 1
36.475789 5.916218 24.968413 44.597158 0.160795 0.976573 0.079506 -0.009038 -175530.000000 0 0 1
35.670289 4.928218 25.859763 44.332654 0.137291 0.947996 0.069837 -0.004688 164065.000000 0 0 1
35.731989 3.639018 25.405823 43.994015 0.101492 0.955153 0.066621 -0.007972 -35601.000000 0 0 1
35.093389 2.759218 26.298733 43.940671 0.078464 0.929162 0.060720 -0.002730 -57506.500000 0 0 1
35.142989 1.277618 25.904783 43.677452 0.036339 0.935902 0.049526 0.006574 639607.000000 0 0 1
34.107089 0.989518 24.944593 42.267072 0.029004 0.939532 0.052509 0.007155 491798.000000 0 0 1
34.277089 -0.388082 24.557833 42.168194 -0.011321 0.949145 0.046661 -0.001593 42635.400000 0 0 1
33.336489 -0.892082 23.446703 40.765981 -0.026754 0.958004 0.062986 0.011297 152053.000000 0 0 1
31.987989 -1.013282 23.868003 39.924175 -0.031666 0.930001 0.059374 0.012321 -110914.000000 0 0 1
31.259389 -1.486982 22.737843 38.682942 -0.047533 0.942459 0.067571 0.001308 1739480.000000 0 0 1
29.700689 -1.776982 22.996353 37.604798 -0.059758 0.912807 0.058722 0.022046 1741720.000000 0 0 1
29.023389 -0.542082 23.003403 37.037920 -0.018675 0.900680 0.051592 0.020445 -206087.000000 0 0 1
27.624189 -0.678182 22.833683 35.845960 -0.024545 0.880203 0.063442 0.015150 29578.500000 0 0 1
26.856289 0.619618 22.680073 35.157217 0.023068 0.869637 0.069498 0.008385 -320349.000000 0 0 1
27.045789 1.265018 21.474673 34.557728 0.046739 0.900250 0.057886 -0.002169 342443.000000 0 0 1
26.200889 2.422218 21.496473 33.977229 0.092186 0.885796 0.086173 -0.009736 66763.800000 0 0 1
26.311289 3.376818 20.274373 33.387678 0.127643 0.918213 0.081732 -0.015223 -19139.300000 0 0 1
25.659289 2.912418 19.103573 32.122077 0.113020 0.933882 0.075321 -0.011468 277539.000000 0 0 1
25.123889 4.029518 18.409673 31.406415 0.159032 0.944466 0.088395 -0.023669 -36121.200000 0 0 1
24.631289 3.644318 17.041073 30.172498 0.146889 0.970620 0.094652 -0.023379 -62313.200000 0 0 1
25.713589 3.272618 16.201073 30.567523 0.126591 1.012185 0.092119 -0.024227 317415.000000 0 0 1
25.507489 3.423018 14.790273 29.683349 0.133400 1.049196 0.099304 -0.024140 -124776.000000 0 0 1
24.808489 2.212118 14.009773 28.576710 0.088933 1.058418 0.103138 -0.010806 -49498.200000 0 0 1
23.416089 2.161118 14.150373 27.444794 0.092031 1.029095 0.116489 -0.009755 -170571.000000 0 0 1
22.942889 0.932018 13.643873 26.709551 0.040601 1.034654 0.125960 -0.007758 -854578.000000 0 0 1
21.460089 0.696118 13.948173 25.604131 0.032426 0.994690 0.142614 -0.027495 -380630.000000 0 0 1
20.489489 1.446218 13.222873 24.428571 0.070467 0.998829 0.167454 -0.027489 725792.000000 0 1 0
20.360989 1.301318 11.813873 23.576066 0.063825 1.045932 0.162542 -0.017927 -1000110.000000 0 1 0
19.985289 -0.090382 11.209673 22.914553 -0.004522 1.059630 0.153800 -0.015125 809105.000000 0 1 0
21.040289 -1.114882 11.094673 23.812360 -0.052938 1.086121 0.166189 -0.041889 1449930.000000 0 1 0
22.066389 -0.772882 10.159373 24.305056 -0.035011 1.139560 0.166883 -0.041798 -365047.000000 0 1 0
23.221789 -1.774382 10.229873 25.437182 -0.076262 1.156919 0.189154 -0.058431 -286199.000000 0 0 1
23.964589 -1.653082 11.428373 26.601540 -0.068871 1.126732 0.178498 -0.051852 697923.000000 0 0 1
25.004689 -2.651882 11.573173 27.680414 -0.105660 1.139444 0.124572 -0.045183 544817.000000 0 0 1
25.401589 -2.752882 13.049173 28.689720 -0.107953 1.098606 0.130215 -0.032841 -74813.300000 0 0 1
26.158389 -1.601782 13.389773 29.429799 -0.061158 1.098454 0.111786 -0.026394 176630.000000 0 0 1
26.293689 -1.403482 14.797573 30.204239 -0.053327 1.058802 0.084524 -0.018079 562459.000000 0 0 1
27.446789 -0.407282 15.230273 31.391931 -0.014838 1.064244 0.109547 -0.016356 721330.000000 0 0 1
28.760289 -0.896482 15.066173 32.479955 -0.031161 1.088448 0.110904 -0.017840 -240226.000000 0 0 1
29.701189 0.089418 15.293073 33.407285 0.003011 1.095304 0.087709 -0.016003 85761.500000 0 0 1
31.176189 -0.402582 15.401273 34.775222 -0.012912 1.111987 0.087224 -0.018106 459433.000000 0 0 1
31.736589 -0.952782 14.212773 34.786805 -0.030013 1.149912 0.124956 -0.023361 385089.000000 0 0 1
33.041189 -1.444982 14.459573 36.095532 -0.043705 1.158634 0.121881 -0.025527 -150719.000000 0 0 1
33.773089 -2.050382 13.282773 36.349108 -0.060636 1.196710 0.119628 -0.029959 -426909.000000 0 0 1
34.210889 -1.185482 12.304473 36.375684 -0.034638 1.225728 0.118279 -0.028697 -95178.700000 0 0 1
34.995089 -1.918782 11.418573 36.860844 -0.054775 1.255840 0.122173 -0.034219 -268403.000000 0 0 1
35.002689 -1.460082 9.918473 36.410111 -0.041689 1.294900 0.170106 -0.029654 -163702.000000 0 0 1
35.447089 -0.113582 9.590773 36.721819 -0.003204 1.306558 0.122580 -0.017650 905446.000000 0 0 1
34.342489 0.772518 9.732173 35.703201 0.022491 1.294717 0.129321 -0.019541 64870.900000 0 0 1
34.716089 2.163818 9.226273 35.986290 0.062248 1.311518 0.129741 -0.019638 49254.100000 0 0 1
35.105789 2.125218 7.840873 36.033488 0.060464 1.351442 0.128327 -0.021567 399738.000000 0 0 1
35.432689 3.412518 7.395373 36.356736 0.096014 1.365955 0.128522 -0.019011 -102570.000000 0 0 1
35.615589 3.440318 5.883773 36.261891 0.096297 1.407818 0.109289 -0.020051 -77736.500000 0 0 1
36.190789 4.650518 5.492473 36.899428 0.127800 1.421391 0.103340 -0.011340 180949.000000 0 0 1
36.224889 4.699618 4.056573 36.753024 0.129014 1.460197 0.132757 -0.029365 129403.000000 0 0 1
36.819189 6.104618 3.651873 37.500070 0.164305 1.473259 0.148382 -0.040552 290911.000000 0 0 1
35.872489 7.115418 3.946773 36.783715 0.195811 1.463293 0.158405 -0.046941 83743.900000 0 0 1
36.370889 8.426518 3.688173 37.516002 0.227666 1.472328 0.150497 -0.047895 14336.000000 0 0 1
35.161089 9.401718 3.463573 36.560783 0.261277 1.475919 0.176371 -0.053469 954418.000000 0 0 1
34.265189 9.155818 2.380573 35.547142 0.261105 1.503777 0.196585 -0.057124 -236991.000000 0 0 1
33.346189 8.153718 2.673773 34.432550 0.239812 1.493066 0.208649 -0.053396 -1249220.000000 0 0 1
32.136789 8.214418 1.705773 33.213846 0.250250 1.519416 0.220724 -0.055296 -97427.000000 0 0 1
32.364789 8.031518 0.305273 33.347834 0.243242 1.561642 0.213419 -0.043138 -91989.000000 0 0 1
31.151889 7.669218 -0.320927 32.083642 0.241388 1.580799 0.196987 -0.043045 -154601.000000 0 0 1
31.255289 7.519118 -1.870127 32.201360 0.236085 1.628905 0.151779 -0.035790 -667658.000000 0 0 1
30.176889 6.864018 -2.515527 31.049755 0.223654 1.651901 0.167773 -0.034425 629685.000000 0 0 1
30.461689 6.781718 -3.867227 31.446171 0.219058 1.694088 0.149312 -0.033981 112660.000000 0 0 1
29.376589 6.004918 -4.700827 30.350302 0.201634 1.726308 0.164516 -0.026568 131667.000000 0 0 1
29.434589 4.614318 -4.479827 30.128986 0.155500 1.720038 0.162688 -0.027306 12867.500000 0 0 1
28.339089 4.092918 -5.123727 29.087945 0.143435 1.747866 0.134918 -0.026467 -900760.000000 0 0 1
28.169789 2.589218 -5.092927 28.743329 0.091657 1.748923 0.163099 -0.026016 -426247.000000 0 0 1
27.973089 2.213418 -3.765027 28.311983 0.078962 1.704175 0.185970 -0.028083 369061.000000 0 0 1
27.853989 0.800718 -3.639827 28.102210 0.028739 1.700682 0.165617 -0.035395 -219000.000000 0 0 1
28.115689 0.262918 -2.240727 28.206063 0.009351 1.650321 0.183308 -0.037001 -15794.200000 0 0 1
29.420589 0.575518 -1.797427 29.481062 0.019559 1.631803 0.172531 -0.028715 100527.000000 0 0 1
29.612389 0.013718 -0.544927 29.617406 0.000463 1.589196 0.191818 -0.024370 413656.000000 0 0 1
31.018889 0.321218 0.074173 31.020641 0.010355 1.568405 0.213921 -0.022094 528098.000000 0 0 1
32.063389 -0.409582 -0.526327 32.070324 -0.012773 1.587209 0.174661 -0.027734 -518853.000000 0 0 1
33.305189 0.057918 -0.125027 33.305474 0.001739 1.574550 0.138588 -0.027309 -735335.000000 0 0 1
-2.648011 -21.333682 -8.187171 23.003646 1.447304 1.934681 0.052516 -0.005501 160604.000000 0 1 0
-3.385311 -22.042582 -7.271571 23.456588 1.418407 1.885991 0.056021 -0.002409 -157148.000000 0 1 0
-2.591611 -23.148082 -6.891771 24.290876 1.459303 1.858466 0.052156 -0.002848 424655.000000 0 1 0
-3.105311 -23.822382 -5.552871 24.657316 1.441175 1.797946 0.048591 0.006887 -57687.400000 0 1 0
-2.962511 -23.031582 -4.421871 23.638595 1.442871 1.758966 0.048625 0.001552 663.779000 0 1 0
-3.403611 -23.699782 -3.251271 24.162678 1.428158 1.705763 0.052838 -0.000519 -63910.900000 0 1 0
-3.024611 -22.929482 -1.987271 23.213330 1.439644 1.656510 0.051875 -0.011966 368124.000000 0 1 0
-1.639911 -23.056382 -1.704171 23.177366 1.499790 1.644390 0.060005 -0.011956 -209735.000000 0 1 0
-1.428811 -22.484882 -0.459271 22.534914 1.507336 1.591178 0.061175 -0.021529 248644.000000 0 1 0
0.061189 -22.307582 -0.104271 22.307910 -1.568053 1.575470 0.069953 -0.027715 -16976.600000 0 1 0
0.836089 -21.365882 -0.801771 21.397262 -1.531684 1.608276 0.052666 -0.025148 285014.000000 0 1 0
2.096089 -21.149482 -0.176171 21.253829 -1.472011 1.579085 0.046088 -0.027442 858660.000000 0 1 0
3.102789 -20.140682 -0.807771 20.394286 -1.417942 1.610414 0.043775 -0.025585 743381.000000 0 1 0
3.720489 -20.584082 -2.026171 21.015515 -1.391981 1.667359 0.041363 -0.018994 -256123.000000 0 1 0
4.836289 -19.777682 -2.281471 20.487838 -1.330970 1.682385 0.050378 -0.013426 -130107.000000 0 1 0
5.725089 -20.173382 -3.518671 21.263185 -1.294273 1.737043 0.056841 -0.011362 -240110.000000 0 1 0
6.635289 -21.205582 -3.174171 22.445025 -1.267544 1.712692 0.068350 -0.013999 16722.100000 0 1 0
7.482889 -21.656382 -4.193971 23.293388 -1.238111 1.751833 0.064417 -0.018978 788859.000000 0 1 0
8.678789 -20.809882 -4.786771 23.049637 -1.175677 1.779991 0.078822 -0.022270 294602.000000 0 1 0
8.248389 -19.728682 -5.508871 22.081768 -1.174792 1.822935 0.068315 -0.017857 -1268920.000000 0 1 0
9.322489 -18.966982 -5.839871 21.926224 -1.113963 1.840392 0.080655 -0.026423 -1060940.000000 0 1 0
9.214989 -18.059182 -7.106871 21.483894 -1.098970 1.907947 0.066601 -0.011842 565141.000000 0 1 0
10.478889 -17.482282 -7.485971 21.713523 -1.030818 1.922780 0.083286 -0.018675 825276.000000 0 1 0
10.295989 -16.431182 -8.399271 21.131467 -1.011038 1.979562 0.074660 -0.012813 19785.200000 0 1 0
10.792789 -16.641582 -9.877871 22.158495 -0.995446 2.032845 0.080567 -0.008609 192883.000000 0 1 0
9.921289 -17.332882 -10.782471 22.696309 -1.050920 2.065847 0.080376 -0.013340 259129.000000 0 1 0
9.043589 -16.411082 -11.439671 21.953956 -1.067135 2.118907 0.060773 -0.027230 11319.600000 0 1 0
8.486489 -16.929482 -12.746471 22.827623 -1.106122 2.163227 0.069670 -0.034069 -751792.000000 0 1 0
7.448489 -17.832382 -12.540171 23.037572 -1.175130 2.146393 0.061933 -0.023670 -437972.000000 0 1 0
6.970789 -18.229382 -13.780071 23.891267 -1.205560 2.185581 0.069253 -0.018355 -250169.000000 0 1 0
5.694889 -19.060982 -13.568171 24.080035 -1.280466 2.169366 0.067940 -0.009429 13423.900000 0 1 0
5.960789 -20.328782 -13.019671 24.865684 -1.285572 2.121867 0.070516 -0.015153 680746.000000 0 1 0
4.679089 -20.947582 -12.830671 25.006423 -1.351033 2.109583 0.096530 -0.019798 714828.000000 0 0 1
4.763989 -22.482782 -12.597471 26.208155 -1.361990 2.072215 0.076966 -0.023315 73806.800000 0 0 1
5.261089 -23.341382 -13.660971 27.552156 -1.349104 2.089578 0.093160 -0.021695 79876.400000 0 0 1
4.915989 -24.725982 -13.488171 28.591466 -1.374537 2.062077 0.079220 -0.028873 89741.500000 0 0 1
3.480789 -25.160392 -13.857271 28.934153 -1.433325 2.070225 0.094297 -0.037410 -284605.000000 0 0 1
2.531589 -24.655082 -12.949671 27.963834 -1.468475 2.052271 0.106500 -0.035757 -156313.000000 0 0 1
1.178589 -24.894082 -13.300371 28.248969 -1.523487 2.061024 0.093705 -0.048309 419014.000000 0 0 1
0.538589 -26.232862 -12.869771 29.224718 -1.550268 2.026810 0.074678 -0.041239 -1041330.000000 0 0 1
0.924889 -27.243542 -13.737071 30.524959 -1.536860 2.037592 0.084226 -0.038357 -6575.590000 0 0 1
0.384489 -28.534392 -13.432471 31.540302 -1.557323 2.010734 0.066532 -0.035362 747972.000000 0 0 1
-1.111211 -28.727542 -13.846171 31.909605 1.532135 2.019634 0.049327 -0.037137 1095510.000000 0 0 1
-2.089611 -27.949662 -13.136771 30.953592 1.496172 2.009098 0.060200 -0.039606 1190080.000000 0 0 1
-3.446611 -28.342522 -13.397271 31.538303 1.449785 2.009530 0.067881 -0.034889 964531.000000 0 0 1
-4.633411 -27.594272 -12.706971 30.730758 1.404436 1.997084 0.041880 -0.028769 417169.000000 0 0 1
-4.925511 -27.897652 -11.359971 30.521936 1.396041 1.952164 0.026011 -0.033097 -79004.100000 0 0 1
-5.137411 -29.308312 -11.109171 31.761358 1.397271 1.928122 0.027067 -0.032200 -1019120.000000 0 0 1
-5.620711 -29.545862 -9.696671 31.600250 1.382806 1.882682 0.026980 -0.028586 421400.000000 0 0 1
-6.933411 -29.111472 -9.306871 31.339557 1.336985 1.872313 0.036403 -0.019125 657214.000000 0 0 1
-7.139511 -27.684552 -9.095071 30.002123 1.318408 1.878790 0.040040 -0.016662 -329274.000000 0 0 1
-8.583611 -27.437242 -8.528971 29.987064 1.267597 1.859199 0.040754 -0.009370 1085570.000000 0 0 1
-9.670511 -27.444422 -9.440771 30.591555 1.232014 1.884525 0.066721 -0.005622 78480.300000 0 0 1
-10.035511 -28.752062 -9.894971 32.020353 1.234980 1.884960 0.080892 -0.021637 -887659.000000 0 0 1
-11.345311 -28.849712 -10.674071 32.786549 1.196118 1.902403 0.091586 -0.022577 -420487.000000 0 0 1
-11.329511 -28.103992 -11.917271 32.560920 1.187596 1.945503 0.105195 -0.031433 -84602.600000 0 0 1
-12.194511 -28.692152 -12.858171 33.723556 1.168915 1.961979 0.114662 -0.040563 -177490.000000 0 0 1
-12.228711 -27.887022 -14.212171 33.603767 1.157539 2.007477 0.127053 -0.038007 559372.000000 0 0 1
-13.405311 -27.069992 -14.370771 33.451545 1.110989 2.014846 0.107349 -0.046899 527812.000000 0 0 1
-13.415611 -25.884802 -13.587671 32.165609 1.092631 2.006919 0.111984 -0.036461 -370111.000000 0 0 1
-14.501211 -24.887482 -13.937271 31.998741 1.043216 2.021453 0.128331 -0.034005 -132078.000000 0 0 1
-14.077011 -24.072782 -15.034671 31.681263 1.041652 2.065261 0.124475 -0.035794 380582.000000 0 0 1
-15.100411 -23.152482 -15.295771 31.591462 0.992865 2.076215 0.141721 -0.038154 -167830.000000 0 0 1
-14.659011 -22.393182 -16.509771 31.446999 0.991181 2.123515 0.135944 -0.036167 -4592.840000 0 0 1
-13.841411 -21.283482 -16.248271 30.142621 0.994185 2.140101 0.109341 -0.031325 93692.800000 0 0 1
-13.377811 -20.678082 -17.441671 30.178813 0.996564 2.187004 0.084261 -0.026390 -351533.000000 0 0 1
-13.504711 -19.143082 -17.475671 29.227280 0.956414 2.211704 0.088808 -0.017025 -1402330.000000 0 0 1
-12.302711 -18.526682 -17.391471 28.232214 0.984605 2.234470 0.073655 -0.007464 -1277800.000000 0 0 1
-12.363811 -17.139882 -17.635771 27.525621 0.945886 2.266211 0.073494 0.004851 82947.200000 0 0 1
-10.939411 -16.569982 -17.790871 26.659897 0.987288 2.301410 0.066937 -0.000195 14227.100000 0 0 1
-10.305611 -16.299382 -16.541871 25.406868 1.006986 2.279801 0.074841 0.001435 1189500.000000 0 0 1
-9.010111 -15.709382 -16.889871 24.763572 1.050053 2.321352 0.056403 0.000940 797337.000000 0 1 0
-8.353111 -14.833382 -15.745871 23.189138 1.057929 2.317222 0.041679 -0.000094 143760.000000 0 1 0
-7.913911 -15.528982 -14.591771 22.731015 1.099481 2.267812 0.038418 -0.007036 53924.700000 0 1 0
-6.833511 -16.405282 -14.832471 23.148053 1.176110 2.266291 0.037765 -0.006785 -708453.000000 0 1 0
-6.417011 -17.292582 -13.636571 22.938341 1.215463 2.207425 0.038685 -0.009587 -154601.000000 0 1 0
-5.695111 -16.545682 -12.605671 21.566104 1.239293 2.195076 0.027327 -0.016203 635303.000000 0 1 0
-5.574311 -17.308382 -11.433771 21.479855 1.259227 2.132114 0.031336 -0.019041 -526468.000000 0 1 0
-4.605111 -18.506582 -11.388271 22.212459 1.326913 2.109120 0.054166 -0.017182 458893.000000 0 1 0
-3.261611 -18.012082 -11.561171 21.650263 1.391658 2.134117 0.038946 -0.010782 191154.000000 0 1 0
-2.321211 -19.038482 -11.393271 22.308260 1.449473 2.106818 0.044226 -0.006724 -180424.000000 0 1 0
-0.919811 -18.697282 -11.895471 22.179645 1.521641 2.136872 0.036479 0.007036 -880552.000000 0 1 0
-0.787611 -18.589282 -13.307571 22.875165 1.528453 2.191672 0.045426 0.006445 -585787.000000 0 1 0
0.381289 -17.920182 -13.725171 22.575620 -1.549522 2.224290 0.045317 0.000413 546286.000000 0 1 0
1.603389 -18.916482 -13.797971 23.468876 -1.486237 2.199289 0.052999 -0.008127 -91492.500000 0 1 0
1.578889 -19.711282 -14.956171 24.793438 -1.490866 2.218342 0.077947 -0.003182 29199.000000 0 1 0
0.997189 -20.991482 -14.833971 25.723207 -1.523328 2.185451 0.087643 -0.008097 -280791.000000 0 0 1
1.323989 -21.828682 -16.101571 27.157041 -1.510217 2.205459 0.104490 -0.016840 213250.000000 0 0 1
2.611889 -22.391882 -16.197171 27.759083 -1.454677 2.193817 0.108815 -0.022344 471633.000000 0 0 1
3.623489 -21.514082 -16.764471 27.514231 -1.403938 2.225976 0.106185 -0.018387 1096770.000000 0 0 1
5.054789 -22.146582 -16.792071 28.248817 -1.346398 2.207359 0.108281 -0.024724 518093.000000 0 0 1
5.276889 -22.967982 -17.943671 29.620079 -1.344966 2.221560 0.094926 -0.025905 -1125760.000000 0 0 1
6.606689 -23.286082 -18.013571 30.172483 -1.294343 2.210577 0.095022 -0.028999 -1041660.000000 0 0 1
6.903289 -23.393082 -19.517271 31.238047 -1.283841 2.245661 0.087158 -0.020864 -172095.000000 0 0 1
6.906689 -22.124182 -20.163771 30.720668 -1.268205 2.286778 0.098601 -0.026640 200937.000000 0 0 1
7.351889 -22.259282 -21.521071 31.822671 -1.251792 2.313499 0.065652 -0.019769 -173163.000000 0 0 1
7.634589 -20.851082 -22.084871 31.317664 -1.219809 2.353486 0.043167 -0.027393 -339629.000000 0 0 1
6.535089 -20.020682 -22.326371 30.692050 -1.255283 2.385368 0.066047 -0.024739 -69324.900000 0 0 1
7.010989 -18.709182 -22.537771 30.118741 -1.212258 2.416288 0.074013 -0.024921 128050.000000 0 0 1
5.837189 -17.737782 -22.732771 29.419051 -1.252877 2.453916 0.067386 -0.024047 -644339.000000 0 0 1
5.192089 -17.891482 -24.014171 30.393146 -1.288355 2.481798 0.051941 -0.022510 115492.000000 0 0 1
4.262389 -16.879282 -24.337771 29.923322 -1.323445 2.520663 0.076701 -0.023123 945095.000000 0 0 1
2.901589 -16.912182 -23.553871 29.141482 -1.400883 2.511986 0.087738 -0.012001 190623.000000 0 0 1
3.114589 -16.436582 -22.238271 27.828090 -1.383525 2.496643 0.078878 -0.012871 -698780.000000 0 0 1
1.851789 -16.155682 -21.718571 27.131743 -1.456673 2.498901 0.081970 -0.008739 -93575.000000 0 0 1
1.925089 -15.259282 -20.455471 25.592537 -1.445301 2.496884 0.092015 -0.019273 -85256.000000 0 0 1
2.522289 -14.013482 -20.609871 25.050078 -1.392713 2.537023 0.086891 -0.018459 -318875.000000 0 0 1
2.509789 -13.254382 -19.418571 23.644420 -1.383657 2.534439 0.086243 -0.025431 -549796.000000 0 1 0
3.588289 -12.188682 -19.397871 23.188730 -1.284489 2.561700 0.085326 -0.029487 -746804.000000 0 1 0
4.808889 -12.822582 -19.010371 23.429431 -1.211997 2.517320 0.082525 -0.036149 375888.000000 0 1 0
5.976689 -12.050382 -19.314371 23.536725 -1.110374 2.533266 0.078581 -0.026169 521380.000000 0 1 0
6.213889 -10.857782 -18.315571 22.180261 -1.050995 2.542345 0.086594 -0.026915 -592704.000000 0 1 0
5.320689 -9.746082 -18.121171 21.252592 -1.071082 2.591846 0.060689 -0.022160 24198.400000 0 1 0
5.456089 -8.684282 -19.065371 21.648880 -1.009848 2.648056 0.074561 -0.023868 -159795.000000 0 1 0
4.779789 -8.823782 -20.459771 22.788324 -1.074353 2.685586 0.084028 -0.031269 445491.000000 0 1 0
3.356089 -8.848182 -20.419671 22.505924 -1.208264 2.707619 0.077365 -0.036561 115783.000000 0 1 0
2.847389 -9.081582 -21.727071 23.720210 -1.266969 2.728722 0.085681 -0.038679 636651.000000 0 1 0
1.292889 -8.925882 -21.740071 23.536644 -1.426950 2.748344 0.066225 -0.036968 617453.000000 0 1 0
0.860889 -7.566282 -21.503471 22.812036 -1.457504 2.801240 0.062361 -0.039730 -1568430.000000 0 1 0
-0.501011 -7.499982 -21.626071 22.895145 1.504094 2.807079 0.066492 -0.035294 -1116720.000000 0 1 0
-0.994011 -6.659482 -22.862571 23.833462 1.422628 2.855180 0.072713 -0.028744 -147898.000000 0 1 0
-0.675311 -7.206182 -24.089071 25.152901 1.477357 2.849716 0.076849 -0.028742 -511542.000000 0 0 1
-1.216411 -6.576782 -25.237541 26.108757 1.387908 2.882533 0.090264 -0.029358 -42621.900000 0 0 1
-0.720411 -5.168682 -25.638631 26.164358 1.432309 2.940790 0.094733 -0.027331 104649.000000 0 0 1
-1.336511 -4.666282 -26.810621 27.246465 1.291846 2.962488 0.094894 -0.029163 -286864.000000 0 0 1
-1.076711 -3.282982 -27.066401 27.286028 1.253883 3.014629 0.087213 -0.032225 -319291.000000 0 0 1
-1.698311 -2.194882 -26.163541 26.310314 0.912262 3.035916 0.081320 -0.035844 440578.000000 0 0 1
-3.118611 -2.101682 -26.188601 26.457241 0.593005 2.998967 0.077384 -0.037008 476365.000000 0 0 1
-3.651611 -1.238982 -27.149991 27.422460 0.327109 3.000508 0.094397 -0.032558 -702112.000000 0 0 1
-5.162411 -1.012882 -27.086861 27.593014 0.193742 2.949760 0.090540 -0.036969 -295221.000000 0 0 1
-5.717811 -0.098282 -26.188651 26.805754 0.017187 2.926603 0.092627 -0.031932 -259040.000000 0 0 1
-7.115711 -0.156982 -26.245031 27.193007 0.022058 2.876770 0.100423 -0.046153 -765231.000000 0 0 1
-7.904311 0.913118 -25.505671 26.717993 -0.115012 2.839195 0.098236 -0.042174 -530296.000000 0 0 1
-8.290611 2.116918 -26.182031 27.544769 -0.249997 2.825722 0.109769 -0.039471 659582.000000 0 0 1
-9.171911 1.992018 -27.328981 28.895765 -0.213865 2.810778 0.110807 -0.043329 347797.000000 0 0 1
-10.655111 1.833818 -26.926341 29.015894 -0.170437 2.759767 0.114669 -0.042732 -536853.000000 0 0 1
-11.666411 2.107418 -27.850851 30.269064 -0.178713 2.739156 0.120977 -0.045686 454138.000000 0 0 1
-12.940711 1.786518 -27.313621 30.276848 -0.137187 2.695475 0.064620 -0.025842 345515.000000 0 0 1
-14.154811 2.425318 -28.017781 31.483914 -0.169694 2.667939 0.037791 -0.014470 -142727.000000 0 0 1
-15.412211 2.053118 -27.480751 31.574407 -0.132434 2.626707 0.030006 -0.009918 34089.300000 0 0 1
-16.452811 2.600218 -28.239741 32.786263 -0.156745 2.608675 0.030142 -0.007586 215820.000000 0 0 1
-17.145111 3.943718 -27.738141 32.846799 -0.226087 2.576371 0.036044 0.002196 -362224.000000 0 0 1
-16.347011 5.061218 -27.950581 32.773093 -0.300251 2.592218 0.061274 -0.004398 -90924.600000 0 0 1
-16.297711 5.566518 -29.293931 33.981405 -0.329129 2.610112 0.061557 -0.011921 254739.000000 0 0 1
-17.618311 6.160418 -29.895581 35.243458 -0.336372 2.583485 0.049458 0.003649 315326.000000 0 0 1
-18.099511 7.238518 -29.128171 35.049091 -0.380445 2.551821 0.050349 0.002150 -346619.000000 0 0 1
-19.065611 7.957618 -29.823201 36.280084 -0.395399 2.535757 0.045949 -0.001706 -84418.900000 0 0 1
-19.835011 8.962918 -28.876941 36.161295 -0.424411 2.495694 0.055622 -0.001232 670147.000000 0 0 1
-18.926811 9.962018 -28.350141 35.513327 -0.484500 2.495257 0.055120 -0.001679 650006.000000 0 0 1
-19.614411 10.889018 -27.606471 35.572644 -0.506792 2.459189 0.073981 -0.000390 -453484.000000 0 0 1
-8.997911 25.433618 30.524573 40.737954 -1.230758 0.723806 0.066738 -0.013171 -1034960.000000 0 0 1
-9.648411 26.645918 30.763013 41.826543 -1.223385 0.744406 0.069517 -0.008177 -77065.600000 0 0 1
-9.010811 27.485918 31.690503 42.906391 -1.254004 0.739810 0.078871 -0.016075 552505.000000 0 0 1
-7.603311 27.986018 31.198153 42.595214 -1.305517 0.748907 0.080869 -0.012883 322976.000000 0 0 1
-7.653311 28.993518 30.227233 42.577962 -1.312717 0.781402 0.094221 -0.020049 874816.000000 0 0 1
-6.306011 29.195718 29.791323 42.186237 -1.358073 0.786700 0.102244 -0.009841 732353.000000 0 0 1
-6.379011 30.478918 28.872073 42.464724 -1.364482 0.823160 0.117416 -0.008480 32158.100000 0 0 1
-6.715311 31.607218 29.647763 43.853181 -1.361448 0.828382 0.123123 -0.021246 252850.000000 0 0 1
-6.626411 32.817818 28.899273 44.227666 -1.371560 0.858702 0.119810 -0.025576 -109883.000000 0 0 1
-7.095511 -33.711580 29.666763 45.463543 1.363347 0.859865 0.129912 -0.034255 -672493.000000 0 0 1
-6.253211 -33.444580 30.720403 45.840874 1.385958 0.836381 0.150118 -0.039546 -529209.000000 0 0 1
-6.825611 -32.693980 31.742391 46.076726 1.364980 0.810822 0.145002 -0.057165 -69625.400000 0 0 1
-7.795011 -33.390080 32.753910 47.418122 1.341451 0.808275 0.095686 -0.046445 -714.376000 0 0 1
-7.313111 33.356318 33.581360 47.893979 -1.354969 0.793773 0.111357 -0.041485 -207244.000000 0 0 1
-7.239611 32.068218 32.958036 46.551205 -1.348762 0.784141 0.111675 -0.032955 -97965.100000 0 0 1
-7.016711 30.909618 -33.849431 46.372650 -1.347572 2.389036 0.112796 -0.026581 34408.800000 0 0 1
-5.678411 30.636218 -33.497791 45.748488 -1.387527 2.392367 0.109257 -0.035168 -238088.000000 0 0 1
-5.729511 30.148718 -32.193861 44.477153 -1.382994 2.380132 0.110208 -0.029791 -642180.000000 0 0 1
-4.423511 29.882818 -31.416951 43.584114 -1.423835 2.375802 0.097239 -0.033627 639650.000000 0 0 1
-3.579911 28.742018 -31.665781 42.914345 -1.446881 2.400725 0.105534 -0.020481 547649.000000 0 0 1
-3.229011 28.565118 -33.018041 43.778801 -1.458234 2.425234 0.095211 -0.024056 -835092.000000 0 0 1
-2.507811 27.209018 -33.236941 43.026898 -1.478888 2.453516 0.093894 -0.032340 -106396.000000 0 0 1
-1.345511 27.057118 -32.416791 42.246258 -1.521109 2.445462 0.111015 -0.026852 531521.000000 0 0 1
-0.661711 25.825918 -32.507941 41.523272 -1.545180 2.470086 0.127023 -0.029230 231702.000000 0 0 1
0.023389 25.399718 -33.837461 42.309809 1.569875 2.497683 0.099022 -0.029240 -336714.000000 0 0 1
-0.872911 25.086718 32.865139 41.354839 -1.536015 0.652265 0.100029 -0.025390 120674.000000 0 0 1
-0.257011 24.899618 31.587463 40.222193 -1.560475 0.667577 0.096912 -0.025369 -202978.000000 0 0 1
0.060989 26.223718 30.836213 40.479119 1.568471 0.704739 0.086694 -0.024290 865125.000000 0 0 1
-1.078811 27.124718 30.673073 40.960366 -1.531045 0.724475 0.103991 -0.027915 991886.000000 0 0 1
-0.638411 28.448618 30.254303 41.533773 -1.548359 0.754774 0.110156 -0.024435 61686.500000 0 0 1
-1.752911 29.506718 30.208833 42.264556 -1.511459 0.774522 0.123560 -0.028027 -46127.200000 0 0 1
-2.084711 30.008618 31.530173 43.577689 -1.501437 0.761880 0.137060 -0.031924 603965.000000 0 0 1
-3.085811 31.033318 31.586493 44.388012 -1.471687 0.779024 0.141430 -0.033495 531420.000000 0 0 1
-2.803511 31.865718 32.856250 45.856480 -1.483043 0.772022 0.144776 -0.034500 -430437.000000 0 0 1
-1.569411 32.485318 32.757447 46.160690 -1.522522 0.781810 0.167897 -0.043433 -827690.000000 0 0 1
-1.120911 33.110118 -33.874201 47.381408 -1.536955 2.367315 0.129469 -0.039559 -53096.000000 0 0 1
0.390189 33.443318 33.789973 47.543349 1.559130 0.780276 0.132569 -0.051025 178190.000000 0 0 1
0.601989 -33.144680 33.082025 46.833242 -1.552636 0.786427 0.151283 -0.060209 -255445.000000 0 0 1
1.972289 -33.053380 32.802467 46.609202 -1.511197 0.790097 0.121104 -0.057379 -333820.000000 0 0 1
2.331189 -31.635480 32.297310 45.269794 -1.497240 0.776400 0.126649 -0.059585 -173468.000000 0 0 1
2.150789 -30.787380 33.384948 45.464749 -1.501050 0.746155 0.113656 -0.053187 255666.000000 0 0 1
2.542589 -29.442280 33.093477 44.367678 -1.484652 0.728924 0.089340 -0.046691 -334298.000000 0 0 1
2.189989 -28.474880 -33.544781 44.055274 -1.494038 2.436305 0.092541 -0.039460 -522638.000000 0 0 1
0.818089 -28.263380 -33.429141 43.783505 -1.541859 2.439527 0.084764 -0.044063 -481615.000000 0 0 1
0.478289 -27.631880 -32.217721 42.446803 -1.553489 2.432594 0.075904 -0.034827 -431994.000000 0 0 1
-0.961011 -27.128880 -32.143071 42.072279 1.535387 2.440281 0.142989 -0.038992 -360400.000000 0 0 1
-1.346511 -26.616080 -30.928471 40.826451 1.520249 2.430363 0.148362 -0.031452 472149.000000 0 0 1
-2.765011 -26.451580 -30.900661 40.769869 1.466644 2.430929 0.146517 -0.035283 700482.000000 0 0 1
-3.380611 -25.869180 -29.591971 39.450320 1.440852 2.419021 0.154686 -0.045628 84002.100000 0 0 1
-3.612811 -26.784680 -28.507871 39.283205 1.436722 2.382849 0.159612 -0.041809 71950.500000 0 0 1
-4.028011 -26.104380 -27.299331 37.985747 1.417700 2.372688 0.172766 -0.035453 568466.000000 0 0 1
-2.869411 -25.475680 -26.414471 36.809891 1.458636 2.371135 0.162056 -0.029803 442963.000000 0 0 1
-2.303111 -24.381980 -27.048191 36.488216 1.476616 2.405780 0.161756 -0.038489 400373.000000 0 0 1
-1.241811 -23.837680 -26.234381 35.468575 1.518749 2.403349 0.111125 -0.035699 131024.000000 0 0 1
-0.409211 -22.761580 -26.976691 35.298708 1.552820 2.440659 0.078610 -0.024770 825474.000000 0 0 1
0.473189 -23.167680 -28.046471 36.380899 -1.550375 2.451068 0.034948 -0.026324 1241610.000000 0 0 1
1.460689 -24.213180 -27.928201 36.991838 -1.510543 2.426424 0.018539 -0.014671 748950.000000 0 0 1
2.363289 -24.511780 -29.179931 38.182206 -1.474679 2.440641 0.001616 -0.020760 32457.200000 0 0 1
3.329089 -23.571580 -29.471511 37.884986 -1.430491 2.462146 0.022542 -0.021491 -675416.000000 0 0 1
4.015089 -23.797280 -30.644041 39.006265 -1.403650 2.474491 0.038041 -0.021739 -461781.000000 0 0 1
4.968889 -22.577580 -30.893191 38.585311 -1.354169 2.499170 0.058444 -0.035146 17517.100000 0 0 1
6.107489 -22.444080 -30.046021 37.997388 -1.305109 2.482812 0.038327 -0.034508 1446980.000000 0 0 1
7.236189 -23.336680 -30.196971 38.843534 -1.270120 2.461318 0.056527 -0.021961 704737.000000 0 0 1
7.905989 -23.582280 -31.609601 40.221828 -1.247321 2.474917 0.068162 -0.017866 -471529.000000 0 0 1
7.150689 -24.420880 -32.480431 41.261242 -1.285948 2.477035 0.043862 -0.022690 28641.700000 0 0 1
7.362989 -24.239980 -33.873321 42.298843 -1.275899 2.499442 0.062079 -0.023807 -190700.000000 0 0 1
6.781589 -22.949080 33.322432 41.024806 -1.283468 0.622796 0.089612 -0.028092 -44237.000000 0 0 1
5.369789 -22.869180 33.382785 40.819657 -1.340170 0.613199 0.090855 -0.030504 299638.000000 0 0 1
4.884589 -21.772880 32.612360 39.515611 -1.350107 0.600057 0.118646 -0.047382 180656.000000 0 0 1
3.398289 -21.354080 32.830619 39.311508 -1.412980 0.582409 0.110976 -0.050693 1090880.000000 0 0 1
2.356989 -22.277580 32.474734 39.451924 -1.465388 0.603865 0.107475 -0.041500 559776.000000 0 0 1
2.089489 -23.237380 33.518715 40.839271 -1.481118 0.608079 0.104347 -0.038704 -251638.000000 0 0 1
0.683489 -23.865380 33.394921 41.051727 -1.542165 0.620679 0.114046 -0.037039 140626.000000 0 0 1
0.517289 -24.918280 32.415644 40.889635 -1.550040 0.655473 0.117943 -0.036563 -267674.000000 0 0 1
-0.825311 -25.264180 32.158150 40.903625 1.538141 0.666172 0.132369 -0.041272 20709.500000 0 0 1
-0.999711 -26.546180 31.346793 41.089178 1.533155 0.703015 0.132883 -0.039761 1042070.000000 0 0 1
-2.286111 -26.646480 30.689783 40.707788 1.485212 0.716811 0.136365 -0.047177 866337.000000 0 0 1
-2.376711 -27.845980 29.934013 40.952320 1.485651 0.751086 0.155779 -0.051268 -208560.000000 0 0 1
-3.602011 -27.832880 29.006143 40.360872 1.442096 0.768909 0.167145 -0.048867 -710421.000000 0 0 1
-4.769011 -28.089680 29.691623 41.150529 1.402622 0.764777 0.169166 -0.047218 -221986.000000 0 0 1
-5.897811 -28.345980 28.833853 40.861594 1.365658 0.787461 0.148997 -0.041009 -237598.000000 0 0 1
-7.143211 -28.650280 29.600593 41.809797 1.326454 0.784159 0.117972 -0.033572 -1375950.000000 0 0 1
-8.178811 -29.234380 28.863323 41.888344 1.298004 0.810614 0.121805 -0.031900 473545.000000 0 0 1
-9.480211 -29.305680 29.455873 42.618608 1.257927 0.807717 0.099193 -0.031259 682611.000000 0 0 1
-9.709311 -30.287680 30.615643 44.146708 1.260577 0.804464 0.076393 -0.032173 -584146.000000 0 0 1
-9.812111 -31.662580 30.224753 44.859026 1.270285 0.831495 0.095612 -0.031907 630121.000000 0 0 1
-11.085411 -32.058480 29.696513 45.083427 1.237880 0.851705 0.080809 -0.026975 286824.000000 0 0 1
-11.106611 -33.501380 29.081713 45.732322 1.250672 0.881607 0.091186 -0.017386 -310422.000000 0 0 1
-10.986411 33.151418 29.989003 46.033227 -1.250786 0.861283 0.081189 -0.015894 191467.000000 0 0 1
-10.792711 31.969518 29.341263 44.715125 -1.245216 0.855048 0.086768 -0.022364 -191852.000000 0 0 1
-11.044711 30.754718 30.208243 44.501418 -1.226018 0.824648 0.077376 -0.008772 1186270.000000 0 0 1
-12.466711 30.760718 30.498503 45.075485 -1.185746 0.827648 0.066604 -0.000167 953534.000000 0 0 1
-12.831811 29.539718 31.069003 44.749673 -1.160998 0.803371 0.066049 -0.002577 -71931.600000 0 0 1
-12.837511 29.502518 32.663603 45.848786 -1.160375 0.777855 0.077110 -0.023269 -219399.000000 0 0 1
-13.908311 30.202418 33.259279 47.029850 -1.139242 0.785273 0.071813 -0.010524 185219.000000 0 0 1
-14.107011 29.861618 -33.186661 46.819637 -1.129461 2.358619 0.079494 -0.019131 503499.000000 0 0 1
-15.523011 30.207918 -32.608011 47.082529 -1.096113 2.335844 0.065009 -0.018500 563984.000000 0 0 1
-15.776511 29.694918 -31.320541 45.952831 -1.082434 2.320716 0.054590 -0.024303 565730.000000 0 0 1
-17.088311 30.007118 -30.811321 46.279314 -1.053124 2.299320 0.065327 -0.023325 895546.000000 0 0 1
-17.365011 29.521718 -29.395431 45.134984 -1.039090 2.280064 0.077748 -0.030991 -152597.000000 0 0 1
-17.482311 28.105718 -29.278231 44.190240 -1.014343 2.295014 0.067767 -0.038081 102657.000000 0 0 1
-17.431011 27.716518 -27.896721 43.014794 -1.009395 2.276458 0.078281 -0.033177 -273718.000000 0 0 1
-17.891911 26.285618 -27.621251 42.118733 -0.973160 2.286031 0.055886 -0.038970 1241990.000000 0 0 1
-19.322511 26.150618 -27.779191 42.765613 -0.934442 2.277813 0.064476 -0.034774 979337.000000 0 0 1
-19.914011 24.873718 -27.637541 42.179418 -0.895687 2.285293 0.048002 -0.035215 1080060.000000 0 0 1
-21.447011 24.862418 -27.995121 43.149054 -0.859017 2.276803 0.065323 -0.035832 715521.000000 0 0 1
-22.338211 25.351318 -27.014861 43.260694 -0.848496 2.245245 0.060916 -0.030714 -139832.000000 0 0 1
-23.603111 24.845918 -27.352691 43.847419 -0.811044 2.244411 0.053759 -0.030665 -471449.000000 0 0 1
-24.696211 24.819518 -26.283261 43.780373 -0.787888 2.214727 0.055554 -0.024483 -290925.000000 0 0 1
-25.342001 26.071818 -26.212811 44.822629 -0.799592 2.195445 0.045122 -0.015908 -336256.000000 0 0 1
-26.321261 26.112718 -25.182041 44.819839 -0.781421 2.167417 0.063746 -0.018749 109453.000000 0 0 1
-25.925821 25.888018 -23.667371 43.617451 -0.784669 2.144340 0.061034 -0.013567 -1072450.000000 0 0 1
-25.663481 24.551318 -23.305271 42.479608 -0.763254 2.151512 0.072017 -0.012342 595757.000000 0 0 1
-26.844631 23.739618 -23.096771 42.634076 -0.724092 2.143307 0.090042 -0.024637 853087.000000 0 0 1
-27.659141 23.955618 -21.804971 42.595263 -0.713768 2.108204 0.074315 -0.020137 -3097.370000 0 0 1
-27.006231 23.436518 -20.633371 41.283687 -0.714748 2.094158 0.082941 -0.018548 740035.000000 0 0 1
-26.174161 24.390818 -19.946671 40.961791 -0.750144 2.079400 0.077054 -0.011978 316257.000000 0 0 1
-25.263071 23.785118 -18.854971 39.490055 -0.755275 2.068559 0.075221 -0.011210 -25536.200000 0 0 1
-25.938471 23.606118 -17.639671 39.258261 -0.738357 2.036805 0.072332 -0.014165 309074.000000 0 0 1
-24.994111 23.454118 -16.615671 38.090441 -0.753622 2.022186 0.092632 -0.025552 -273302.000000 0 0 1
-25.690291 23.297818 -15.225471 37.876039 -0.736599 1.984476 0.081403 -0.024241 152966.000000 0 0 1
-26.192851 24.583018 -14.876971 38.880772 -0.753704 1.963438 0.096604 -0.028902 19324.000000 0 0 1
-26.786051 24.548018 -13.575671 38.786551 -0.741828 1.928378 0.064017 -0.030644 236577.000000 0 0 1
-26.911141 25.995218 -13.050171 39.626605 -0.768088 1.906389 0.072868 -0.025437 -481020.000000 0 0 1
-25.652851 26.508818 -12.768371 39.036104 -0.801807 1.904020 0.092822 -0.029365 -879542.000000 0 0 1
-25.701321 27.593718 -11.907071 39.544272 -0.820891 1.876650 0.100096 -0.028240 218045.000000 0 0 1
-24.220411 27.926018 -11.633771 38.753521 -0.856340 1.875698 0.102740 -0.031602 88365.400000 0 0 1
-23.379311 26.958718 -11.071571 37.362338 -0.856386 1.871644 0.095626 -0.034305 49123.000000 0 0 1
-22.209211 27.561118 -10.553671 36.935677 -0.892519 1.860566 0.077363 -0.035960 533336.000000 0 0 1
-21.248011 26.620018 -9.716171 35.419024 -0.897156 1.848680 0.130024 -0.030449 564335.000000 0 0 1
-20.537811 25.767618 -10.587171 34.610114 -0.897863 1.881678 0.119612 -0.032986 -159486.000000 0 0 1
-19.634711 24.900418 -9.959571 33.237715 -0.903089 1.875119 0.128690 -0.022083 -291904.000000 0 0 1
-19.079111 23.960818 -11.001771 32.544926 -0.898338 1.915639 0.128347 -0.030947 -435162.000000 0 0 1
-18.605511 22.737018 -10.530071 31.209284 -0.885001 1.914952 0.083638 -0.019023 262332.000000 0 0 1
-18.055111 21.887718 -11.520171 30.623088 -0.881058 1.956480 0.111642 -0.014813 157589.000000 0 0 1
-17.570111 20.528618 -11.058071 29.196127 -0.862896 1.959243 0.079941 -0.003113 -26651.200000 0 0 1
-18.631711 19.638418 -10.840871 29.160462 -0.811697 1.951707 0.075793 -0.000936 -33927.100000 0 0 1
-18.137411 18.389618 -10.340571 27.822133 -0.792303 1.951600 0.100796 -0.023393 -926048.000000 0 0 1
-19.134411 17.270118 -10.130371 27.694892 -0.734232 1.945272 0.080211 -0.003601 -388467.000000 0 0 1
-19.679411 16.699818 -11.300771 28.175708 -0.703677 1.983494 0.068375 -0.003601 650193.000000 0 0 1
-20.642411 17.461418 -12.051571 29.601530 -0.702109 1.990102 0.080398 -0.007535 54518.600000 0 0 1
-21.266611 16.814218 -13.348471 30.218675 -0.669007 2.028322 0.085900 -0.012140 560799.000000 0 0 1
-20.352011 16.749818 -14.462871 30.065518 -0.688612 2.072643 0.070303 -0.012371 571372.000000 0 0 1
-20.951711 16.155618 -15.613571 30.720706 -0.656862 2.103939 0.082527 -0.004468 -469222.000000 0 0 1
-20.041811 16.108018 -16.797371 30.713093 -0.677006 2.149468 0.086275 -0.015548 -769864.000000 0 0 1
-19.603711 17.398718 -17.265671 31.386689 -0.725878 2.153275 0.079897 -0.019678 354004.000000 0 0 1
-18.738911 17.099418 -18.352371 31.310483 -0.739683 2.197084 0.080484 -0.014186 -162551.000000 0 0 1
-17.849811 18.325018 -18.819671 31.758495 -0.798534 2.205063 0.075736 -0.015499 442591.000000 0 0 1
-16.658511 18.361518 -18.021971 30.650330 -0.833989 2.199363 0.102777 -0.023400 570464.000000 0 0 1
-15.886811 19.527118 -18.240971 31.087491 -0.887831 2.197851 0.103337 -0.017201 146859.000000 0 0 1
33.999839 30.282118 2.192229 45.582909 0.727628 1.522685 0.081884 -0.019747 263426.000000 0 0 1
35.361519 30.332218 1.807829 46.623478 0.708990 1.532012 0.105238 -0.020596 157997.000000 0 0 1
35.492519 30.737518 0.459829 46.954503 0.713726 1.561003 0.100351 -0.016179 -285293.000000 0 0 1
36.874059 30.659718 -0.204371 47.955774 0.693638 1.575058 0.072931 -0.006730 -35242.000000 0 0 1
-36.993901 31.484518 0.497629 48.580564 -0.705117 1.560553 0.049094 -0.001251 415645.000000 0 0 1
-35.801897 31.542618 -0.283771 47.715753 -0.722236 1.576743 0.054744 -0.001127 284839.000000 0 0 1
-34.832914 32.698918 0.051029 47.776079 -0.753809 1.569728 0.020549 -0.005258 36384.700000 0 0 1
-34.264291 32.531318 1.316029 47.265846 -0.759460 1.542950 0.021015 -0.001679 -425896.000000 0 0 1
-33.488031 33.597618 1.709729 47.467581 -0.787032 1.534770 0.030430 -0.005201 -446885.000000 0 0 1
-32.792241 33.400018 3.071129 46.907612 -0.794580 1.505278 0.049035 -0.010259 -253644.000000 0 0 1
-32.445901 -33.134780 3.656829 46.519055 0.795902 1.492106 0.049803 -0.003944 -13403.800000 0 0 1
-31.832041 -33.375580 4.911329 46.382425 0.809065 1.464710 0.067091 -0.015358 -361441.000000 0 0 1
-31.733421 -32.085180 5.816529 45.500558 0.790910 1.442611 0.077318 -0.016869 579996.000000 0 0 1
-32.981591 -31.592680 6.315329 46.106031 0.763893 1.433390 0.086577 -0.015596 559436.000000 0 0 1
-33.612911 -32.344380 7.295529 47.214526 0.766168 1.415656 0.081181 -0.028577 -1074990.000000 0 0 1
-34.671829 -31.601980 8.142129 47.614232 0.739111 1.398950 0.126230 -0.021969 1428710.000000 0 0 1
-36.020054 -31.381180 7.663229 48.383342 0.716682 1.411741 0.091831 -0.022115 986614.000000 0 0 1
-36.764111 -32.507980 7.379029 49.626794 0.724035 1.421552 0.066009 -0.018175 -270501.000000 0 0 1
36.503089 -32.327080 7.122129 49.277179 -0.724801 1.425756 0.060150 -0.014753 897398.000000 0 0 1
35.814769 -32.553280 8.354129 49.114206 -0.737729 1.399869 0.055454 -0.011672 -64123.500000 0 0 1
34.477929 -32.125780 8.277729 47.846778 -0.750097 1.396917 0.026597 -0.000200 -446144.000000 0 0 1
33.592189 -32.541780 9.452829 47.715392 -0.769516 1.371368 0.030000 -0.013654 -470926.000000 0 0 1
32.275809 -32.105180 9.194329 46.443580 -0.782748 1.371512 0.030301 -0.022375 12104.800000 0 0 1
31.403099 -32.108580 10.295529 46.077256 -0.796506 1.345453 0.041124 -0.020243 -56113.400000 0 0 1
31.546239 -30.875680 11.195729 45.539183 -0.774656 1.322402 0.052161 -0.015428 -623755.000000 0 0 1
31.077129 -29.658380 10.649629 44.258582 -0.762043 1.327789 0.038569 -0.019819 139397.000000 0 0 1
31.605729 -29.170080 9.445529 44.034461 -0.745344 1.354613 0.057516 -0.023036 -345794.000000 0 0 1
30.787529 -27.931580 8.976429 42.527890 -0.736799 1.358125 0.058116 -0.028593 -124372.000000 0 0 1
31.048689 -27.438580 7.668829 42.139147 -0.723752 1.387788 0.069996 -0.033976 -285050.000000 0 0 1
30.272959 -26.293780 7.418029 40.777961 -0.715169 1.387865 0.068116 -0.037673 -158549.000000 0 0 1
30.617179 -25.643880 6.071429 40.396566 -0.697231 1.419929 0.074242 -0.034921 160111.000000 0 0 1
31.914759 -25.104680 5.912929 41.033639 -0.666527 1.426193 0.093022 -0.032912 -202188.000000 0 0 1
32.040829 -24.457380 4.641129 40.574848 -0.651971 1.456161 0.095531 -0.033723 247221.000000 0 0 1
33.520799 -24.063580 4.443829 41.502379 -0.622619 1.463517 0.103211 -0.038481 -28142.600000 0 0 1
34.429499 -25.047680 4.097229 42.773403 -0.628949 1.474860 0.082965 -0.027214 -594497.000000 0 0 1
35.756329 -24.567780 4.125729 43.578808 -0.602008 1.475981 0.082430 -0.027729 475097.000000 0 0 1
36.762649 -25.767780 3.933629 45.066000 -0.611345 1.483399 0.080232 -0.022444 217752.000000 0 0 1
36.860219 -26.521580 5.075429 45.692778 -0.623705 1.459489 0.063918 -0.013836 -107827.000000 0 0 1
-37.255571 -27.728880 4.748429 46.684215 0.639835 1.468906 0.068750 -0.019588 -458154.000000 0 0 1
36.862889 -28.915080 5.483029 47.170097 -0.665153 1.454293 0.065072 -0.021773 1136320.000000 0 0 1
35.523749 -29.281280 5.114429 46.319408 -0.689368 1.460154 0.038009 -0.013221 1158170.000000 0 0 1
34.506539 -28.330380 5.448629 44.977764 -0.687424 1.449358 0.047286 -0.021322 -645457.000000 0 0 1
33.252929 -28.895580 6.187129 44.485868 -0.715401 1.431263 0.064251 -0.016885 407480.000000 0 0 1
32.316499 -29.721980 5.519829 44.251788 -0.743601 1.445734 0.037675 -0.013082 104506.000000 0 0 1
31.596919 -29.090280 4.484829 43.182443 -0.744117 1.466751 0.063014 -0.013094 -28366.800000 0 0 1
30.215489 -29.785480 4.219829 42.637514 -0.778232 1.471664 0.065196 -0.017786 647979.000000 0 0 1
30.405679 -31.031980 3.617029 43.595550 -0.795592 1.487733 0.064923 -0.012081 -426126.000000 0 0 1
29.151539 -31.662480 3.520129 43.182360 -0.826664 1.489188 0.087660 -0.016508 -196133.000000 0 0 1
29.079339 -33.042480 2.849829 44.108219 -0.849108 1.506141 0.088150 -0.014844 -200721.000000 0 0 1
28.991439 -33.035380 1.451629 43.976666 -0.850503 1.537781 0.080108 -0.021036 181464.000000 0 0 1
28.952739 33.428818 0.853929 44.232072 0.857029 1.551489 0.069149 -0.016092 -29335.000000 0 0 1
28.554639 33.480618 -0.658071 44.008547 0.864638 1.585750 0.066785 -0.016082 56363.200000 0 0 1
29.604139 -33.695380 -1.422771 44.875472 -0.849941 1.602507 0.067111 -0.006662 431482.000000 0 0 1
29.208939 -33.512980 -2.745871 44.540114 -0.853912 1.632485 0.072146 -0.006727 210598.000000 0 0 1
30.406379 -32.962280 -3.569771 44.986699 -0.825710 1.650232 0.071547 -0.008683 352248.000000 0 0 1
30.631469 -31.580480 -3.348871 44.122880 -0.800651 1.646768 0.061518 -0.011844 573335.000000 0 0 1
31.617399 -30.995380 -4.229171 44.477628 -0.775464 1.666026 0.056454 -0.009174 364421.000000 0 0 1
31.934139 -29.472580 -4.056571 43.644908 -0.745333 1.663876 0.047321 -0.008549 -264591.000000 0 0 1
30.964519 -28.546080 -4.506271 42.355479 -0.744782 1.677390 0.056151 -0.018868 13170.700000 0 0 1
31.406579 -27.210080 -4.372671 41.783752 -0.713928 1.675638 0.063168 -0.028026 -150900.000000 0 0 1
32.267569 -26.730080 -5.531071 42.264476 -0.691813 1.702041 0.060436 -0.023750 -281004.000000 0 0 1
33.529939 -27.330680 -5.553571 43.612671 -0.683888 1.698481 0.051044 -0.007700 -468617.000000 0 0 1
34.474549 -26.822780 -6.477871 44.157886 -0.661210 1.718026 0.062182 -0.014473 430534.000000 0 0 1
34.755719 -27.823180 -7.651571 45.173398 -0.675067 1.740999 0.066297 -0.023726 -51045.500000 0 0 1
33.685239 -27.757080 -8.581371 44.483601 -0.689213 1.764924 0.061380 -0.024990 6231.670000 0 0 1
33.712739 -28.788880 -9.498571 45.338408 -0.706781 1.781864 0.048899 -0.011999 112415.000000 0 0 1
33.604979 -30.274180 -9.120271 46.141087 -0.733303 1.769767 0.036249 -0.006330 131838.000000 0 0 1
34.651609 -30.818480 -8.320471 47.114148 -0.726917 1.748330 0.052409 -0.006288 -467994.000000 0 0 1
34.333309 -31.987180 -7.636571 47.542329 -0.750037 1.732122 0.048946 -0.012418 215782.000000 0 0 1
35.579949 -32.729480 -7.059971 48.856881 -0.743694 1.715807 0.039367 -0.006005 382885.000000 0 0 1
35.334569 33.793518 -6.339471 49.302358 0.763109 1.699737 0.044565 -0.008112 -182447.000000 0 0 1
34.769599 -33.709180 -5.053571 48.690578 -0.769914 1.674773 0.045457 -0.006364 -20773.700000 0 0 1
34.452509 32.673818 -4.396171 47.685219 0.758907 1.663119 0.055973 -0.005581 -253590.000000 0 0 1
33.415879 32.013018 -5.060671 46.551742 0.763960 1.679722 0.082258 -0.014923 -275889.000000 0 0 1
33.429429 30.613018 -4.789771 45.580977 0.741449 1.676073 0.076752 -0.011151 -1005.500000 0 0 1
32.153189 29.950018 -5.326571 44.262891 0.749937 1.691428 0.097292 -0.017821 -24728.200000 0 0 1
32.141969 29.742118 -6.753071 44.309183 0.746638 1.723801 0.076343 -0.009309 -277419.000000 0 0 1
30.903979 29.218418 -7.174671 43.130590 0.757370 1.737921 0.058169 -0.001374 114864.000000 0 0 1
30.881899 28.921818 -8.687571 43.193022 0.752635 1.773311 0.050166 0.004234 16521.600000 0 0 1
31.513109 27.674818 -9.030671 42.901336 0.720640 1.782881 0.061591 0.001435 -19086.300000 0 0 1
31.863389 27.422718 -10.393571 43.304819 0.710635 1.813172 0.052553 0.010129 103665.000000 0 0 1
33.021569 28.288518 -10.913371 44.830413 0.708352 1.816704 0.072177 -0.001121 480457.000000 0 0 1
34.306219 27.973118 -10.310871 45.450259 0.684058 1.799649 0.075761 -0.010820 684028.000000 0 0 1
35.362229 28.706318 -10.843971 46.820205 0.681882 1.804527 0.078519 -0.009598 -277733.000000 0 0 1
35.727309 30.042118 -10.143371 47.768791 0.699171 1.784768 0.066835 -0.015481 -551192.000000 0 0 1
36.391099 29.806718 -8.937171 47.881370 0.686259 1.758550 0.075750 -0.013651 -154020.000000 0 0 1
36.461979 30.993218 -8.152871 48.544050 0.704503 1.739544 0.050663 -0.014507 -468696.000000 0 0 1
-37.394061 30.854418 -6.895671 48.967960 -0.689869 1.712086 0.057573 -0.008590 -181703.000000 0 0 1
-36.054951 30.994218 -7.202771 48.088262 -0.710063 1.721144 0.050405 -0.005660 -1026950.000000 0 0 1
-35.386335 29.949018 -7.902771 47.027546 -0.702368 1.739643 0.063451 -0.011161 -78124.400000 0 0 1
-33.951511 30.417518 -8.322271 46.337789 -0.730551 1.751376 0.073401 -0.010822 347567.000000 0 0 1
-33.000941 30.558018 -7.256371 45.557759 -0.746982 1.730756 0.061853 -0.008658 1010440.000000 0 0 1
-31.683551 30.915018 -7.713071 44.934142 -0.773122 1.743303 0.087710 -0.020287 861710.000000 0 0 1
-31.484501 32.304018 -8.366971 45.878421 -0.798245 1.754195 0.066878 -0.017572 -783594.000000 0 0 1
-31.560181 33.532818 -7.581971 46.668846 -0.815694 1.733983 0.044304 -0.009669 147169.000000 0 0 1
-30.512561 33.731318 -6.630671 45.965030 -0.835458 1.715556 0.067204 -0.024584 145628.000000 0 0 1
-30.396921 -32.560080 -6.036571 44.950771 0.819744 1.705496 0.056138 -0.014037 -473786.000000 0 0 1
-31.410761 -32.021480 -5.260171 45.162822 0.795026 1.687533 0.033948 -0.022961 -705750.000000 0 0 1
-31.421171 -32.680680 -4.003971 45.512071 0.805044 1.658886 0.038957 -0.021670 136430.000000 0 0 1
-32.819001 -32.708180 -3.329071 46.454220 0.783707 1.642521 0.034366 -0.020658 -24376.900000 0 0 1
-33.087651 -31.530980 -2.621371 45.780639 0.761313 1.628087 0.039128 -0.018968 515647.000000 0 0 1
-34.212323 -31.594180 -1.719271 46.600763 0.745634 1.607698 0.039695 -0.013333 378894.000000 0 0 1
-34.780232 -30.193980 -1.416271 46.079787 0.714929 1.601536 0.062920 -0.011806 148582.000000 0 0 1
-35.894651 -30.315180 -0.544871 46.986519 0.701327 1.582393 0.057602 -0.006543 90183.400000 0 0 1
-36.523701 -29.042080 -0.370471 46.664337 0.671781 1.578735 0.071703 -0.012715 -447062.000000 0 0 1
37.381769 -28.936480 0.830329 47.280080 -0.658735 1.553233 0.063759 -0.007114 -1281610.000000 0 0 1
36.190129 -29.634480 0.600529 46.779146 -0.686133 1.557958 0.036163 0.000941 -243157.000000 0 0 1
35.213859 -29.463980 1.622529 45.943167 -0.696731 1.535473 0.042874 -0.001829 244505.000000 0 0 1
34.475089 -28.103580 1.634929 44.508606 -0.683932 1.534055 0.040654 0.007096 -284149.000000 0 0 1
33.315689 -28.071880 0.780629 43.572640 -0.700184 1.552880 0.041908 0.004591 646667.000000 0 0 1
32.700999 -26.791980 0.830529 42.283038 -0.686400 1.551153 0.055706 0.000682 -242577.000000 0 0 1
31.453139 -26.620980 -0.079671 41.206588 -0.702383 1.572730 0.060037 -0.007473 335890.000000 0 0 1
30.248879 -27.124280 0.482629 40.631936 -0.730991 1.558918 0.067827 -0.004753 290080.000000 0 0 1
30.112129 -28.534580 0.320729 41.485726 -0.758505 1.563065 0.061306 -0.006132 -473302.000000 0 0 1
29.661339 -29.053980 -1.115871 41.535214 -0.775054 1.597665 0.064190 -0.010185 -1116890.000000 0 0 1
28.374839 -28.748680 -1.496471 40.421004 -0.791942 1.607827 0.079834 -0.009709 -854923.000000 0 0 1
28.065539 -29.337580 -2.755771 40.693518 -0.807554 1.638568 0.078570 -0.013071 393271.000000 0 0 1
26.578239 -29.745780 -2.931271 39.997582 -0.841577 1.644148 0.096006 -0.023395 339624.000000 0 0 1
25.603039 -28.756580 -3.156571 38.631858 -0.843346 1.652597 0.122283 -0.028217 -1065660.000000 0 0 1
24.437239 -29.374980 -3.501171 38.370904 -0.876901 1.662169 0.095478 -0.031406 -1329490.000000 0 0 1
23.184339 -28.492680 -3.514971 36.901239 -0.887761 1.666194 0.089165 -0.034997 -203748.000000 0 0 1
23.172239 -27.523380 -4.543171 36.264715 -0.871017 1.696404 0.091129 -0.037758 -46501.500000 0 0 1
22.168439 -26.584980 -4.249071 34.874854 -0.875741 1.692937 0.096278 -0.042160 -53717.500000 0 0 1
21.652739 -25.884280 -5.533871 34.197380 -0.874180 1.733333 0.096560 -0.054493 -237271.000000 0 0 1
20.696639 -26.528380 -6.335971 34.238142 -0.908265 1.756925 0.107855 -0.050163 -434888.000000 0 0 1
20.249639 -25.599480 -7.280871 33.442373 -0.901557 1.790268 0.118700 -0.057697 -1040660.000000 0 0 1
18.788139 -25.753380 -7.622971 32.777133 -0.940518 1.805515 0.112354 -0.053858 -634551.000000 0 0 1
17.889539 -25.263180 -6.641871 31.660359 -0.954637 1.782151 0.099529 -0.053333 -267689.000000 0 0 1
16.551839 -25.607680 -6.864771 31.254467 -0.996983 1.792243 0.092859 -0.052785 -546308.000000 0 0 1
15.624839 -24.679280 -6.108571 29.841533 -1.006382 1.776954 0.076293 -0.041919 -509696.000000 0 0 1
15.735839 -24.798980 -4.747971 29.751458 -1.005369 1.731069 0.063919 -0.029177 110125.000000 0 0 1
14.900539 -23.841380 -4.153271 28.419837 -1.012207 1.717461 0.058043 -0.029263 -308202.000000 0 0 1
14.723839 -23.998980 -2.635871 28.278796 -1.020495 1.664142 0.054361 -0.020990 -242000.000000 0 0 1
14.050839 -25.213580 -2.321171 28.957530 -1.062387 1.651040 0.064387 -0.015159 -23987.800000 0 0 1
14.864639 -26.340480 -2.055371 30.315061 -1.057020 1.638649 0.069255 -0.017158 -297641.000000 0 0 1
14.102039 -27.699880 -2.083671 31.152729 -1.099894 1.637732 0.066992 -0.009569 228738.000000 0 0 1
13.114939 -27.802180 -1.052171 30.758249 -1.130025 1.605011 0.077992 -0.018593 84144.700000 0 0 1
12.382539 -29.005780 -1.093171 31.557211 -1.167318 1.605444 0.073947 -0.016270 -230771.000000 0 0 1
13.106239 -30.298680 -0.684371 33.018962 -1.162533 1.591524 0.074296 -0.014818 -121539.000000 0 0 1
13.979839 -30.828280 -1.661171 33.890681 -1.145057 1.619832 0.088929 -0.013754 -91971.000000 0 0 1
14.554439 -32.099880 -1.275971 35.268429 -1.145109 1.606983 0.075547 -0.019410 -1005770.000000 0 0 1
15.869839 -32.339280 -2.004371 36.079057 -1.114593 1.626380 0.078829 -0.023578 -1050880.000000 0 0 1
16.751239 -31.510580 -1.317571 35.710736 -1.082184 1.607700 0.076532 -0.014148 -1437020.000000 0 0 1
18.028439 -31.524880 -1.855071 36.363223 -1.051310 1.621834 0.088442 -0.023264 -761781.000000 0 0 1
18.948639 -30.482380 -1.193471 35.911708 -1.014627 1.604036 0.077018 -0.027689 -309268.000000 0 0 1
18.692939 -29.155780 -1.529671 34.667353 -1.000675 1.614935 0.077151 -0.024877 -223073.000000 0 0 1
19.495239 -28.270980 -0.818671 34.350879 -0.967095 1.594631 0.061388 -0.017873 -511624.000000 0 0 1
19.123839 -26.791780 -0.884171 32.928748 -0.950872 1.597651 0.056800 -0.010923 -294131.000000 0 0 1
19.363839 -26.133080 -2.144271 32.595921 -0.933099 1.636627 0.086562 -0.025190 259217.000000 0 0 1
18.441839 -26.428080 -3.188071 32.383771 -0.961540 1.669403 0.100235 -0.031324 -325607.000000 0 0 1
33.203989 -28.854680 14.092929 46.192079 -0.715429 1.260759 0.069380 -0.034667 -286605.000000 0 0 1
34.122549 -29.374980 15.000229 47.457820 -0.710769 1.249207 0.084874 -0.034428 -238578.000000 0 0 1
33.517239 -30.175480 15.930629 47.830428 -0.732979 1.231244 0.063415 -0.019615 -176825.000000 0 0 1
34.481789 -30.566680 17.066729 49.138467 -0.725283 1.216086 0.066699 -0.020381 104837.000000 0 0 1
33.784209 -31.213580 18.139129 49.443790 -0.745869 1.195161 0.048654 -0.022733 667692.000000 0 0 1
34.663309 -31.450780 19.220929 50.597833 -0.736846 1.181134 0.031140 -0.022089 -51975.500000 0 0 1
35.456689 -32.783080 19.178729 51.958934 -0.746239 1.192742 0.036380 -0.011940 401395.000000 0 0 1
36.553379 -32.697380 18.250929 52.329386 -0.729774 1.214538 0.055219 -0.008060 406263.000000 0 0 1
37.093249 33.782518 18.030629 53.312956 0.738720 1.225789 0.049411 -0.013074 -673056.000000 0 0 1
-36.618031 33.732118 16.998329 52.608736 -0.744399 1.241784 0.049020 -0.017213 -568510.000000 0 0 1
-35.469659 -33.303680 17.408529 51.674836 0.753914 1.227189 0.055117 -0.022670 -145707.000000 0 0 1
-34.603306 -33.072680 16.336229 50.577300 0.762785 1.241904 0.071504 -0.011242 -301116.000000 0 0 1
-33.345111 -32.305180 16.891329 49.404839 0.769559 1.221862 0.061749 -0.016871 579584.000000 0 0 1
-32.324461 -32.171580 15.885929 48.293313 0.783028 1.235608 0.077305 -0.021162 385349.000000 0 0 1
-32.577101 -31.186980 14.888929 47.492899 0.763601 1.251922 0.092262 -0.022244 -815709.000000 0 0 1
-31.444031 -31.123980 13.850329 46.360121 0.780283 1.267408 0.096281 -0.022923 645274.000000 0 0 1
-30.241871 -30.694680 14.510029 45.467297 0.792829 1.245984 0.092196 -0.032511 546043.000000 0 0 1
-29.121501 -30.556380 13.649129 44.362742 0.809437 1.258052 0.091310 -0.027932 650610.000000 0 0 1
-27.772681 -30.387280 14.384229 43.607507 0.830323 1.234645 0.085520 -0.032526 849073.000000 0 0 1
-26.595991 -30.354980 13.573329 42.579418 0.851307 1.246358 0.082889 -0.027169 538882.000000 0 0 1
-25.474321 -29.939880 14.350429 41.848205 0.865810 1.220777 0.051700 -0.020043 922444.000000 0 0 1
-24.059811 -29.882280 13.691529 40.734299 0.892921 1.228004 0.064415 -0.012221 523645.000000 0 0 1
-23.550311 -31.178980 13.490929 41.337043 0.923895 1.238342 0.070672 -0.014734 -78514.900000 0 0 1
-22.318411 -31.137780 12.810329 40.395264 0.948908 1.248100 0.066970 -0.021784 -11468.300000 0 0 1
-21.743811 -32.515080 12.362329 41.022566 0.981367 1.264684 0.056399 -0.021173 -407353.000000 0 0 1
-22.344611 -33.101380 11.300429 41.505213 0.977022 1.295050 0.053319 -0.025574 -269587.000000 0 0 1
-22.171111 33.246018 11.238729 41.511021 -0.982646 1.296634 0.058126 -0.023689 -88423.800000 0 0 1
-23.165611 32.539218 10.301029 41.249938 -0.952109 1.318403 0.056777 -0.016892 41515.900000 0 0 1
-22.942211 32.710918 8.952729 40.945092 -0.959157 1.350363 0.041390 -0.006872 -138709.000000 0 0 1
-24.063111 32.220618 8.272129 41.056420 -0.929331 1.367926 0.048138 -0.016005 -504416.000000 0 0 1
-24.112011 32.686018 6.784329 41.179994 -0.935223 1.405294 0.047034 -0.005205 506612.000000 0 0 1
-23.260511 32.050218 5.784129 40.021544 -0.942995 1.425763 0.041818 -0.005873 263964.000000 0 0 1
-21.864811 31.961418 5.878729 39.168375 -0.970821 1.420138 0.046570 -0.011307 -175948.000000 0 0 1
-21.084611 33.246218 5.506129 39.751594 -1.005612 1.431836 0.057506 -0.010848 -497474.000000 0 0 1
-21.105311 -33.436980 6.456029 40.064274 1.007753 1.408949 0.054634 -0.012160 -9421.020000 0 0 1
-20.176611 -33.543480 7.506329 39.857316 1.029270 1.381335 0.050828 -0.016948 -315262.000000 0 0 1
-20.243511 -32.402480 8.555629 39.152512 1.012375 1.350498 0.047217 -0.016736 -408971.000000 0 0 1
-19.671911 -31.235480 8.034729 37.778250 1.008757 1.356478 0.056159 -0.031262 -362913.000000 0 0 1
-19.748411 -30.030680 8.807029 37.005476 0.989091 1.330498 0.055603 -0.029834 -90557.500000 0 0 1
-19.012211 -29.973780 10.166729 36.922270 1.005541 1.291837 0.044501 -0.019644 -369386.000000 0 0 1
-17.666111 -30.295180 9.999829 36.467602 1.042872 1.293027 0.041586 -0.032982 -1101970.000000 0 0 1
-16.970511 -30.301480 11.247429 36.505925 1.060266 1.257602 0.062350 -0.031123 258036.000000 0 0 1
-15.634111 -31.052680 11.197529 36.525046 1.104376 1.259208 0.056804 -0.029854 -150193.000000 0 0 1
-14.582311 -30.537880 10.424529 35.410122 1.125298 1.271975 0.050083 -0.028418 -389328.000000 0 0 1
-13.669011 -31.557380 10.113929 35.846920 1.162045 1.284770 0.063633 -0.022961 -685741.000000 0 0 1
-12.353411 -31.037980 9.582629 34.753269 1.192007 1.291444 0.074398 -0.025035 -369015.000000 0 0 1
-11.640211 -30.138780 10.458329 33.959052 1.202225 1.257739 0.080449 -0.025596 100715.000000 0 0 1
-10.803811 -29.293380 9.678629 32.687923 1.217460 1.270198 0.097376 -0.025245 217902.000000 0 0 1
-9.765611 -28.517280 10.526129 31.928072 1.240867 1.234829 0.112709 -0.024768 192362.000000 0 0 1
-10.206111 -27.347880 11.159929 31.250844 1.213608 1.205626 0.078612 -0.023783 -400615.000000 0 0 1
-9.346611 -27.151880 12.257929 31.222437 1.239267 1.167339 0.078567 -0.017798 232374.000000 0 0 1
-9.582811 -25.851680 13.073929 30.513395 1.215815 1.128003 0.071908 -0.025599 99057.300000 0 0 1
-8.980511 -24.688080 12.580629 29.127703 1.221917 1.124184 0.065839 -0.024545 -15143.300000 0 0 1
-9.802111 -24.029980 11.595329 28.424865 1.183488 1.150612 0.053926 -0.020886 86650.500000 0 0 1
-9.226011 -22.801580 11.047629 26.964448 1.186312 1.148659 0.055155 -0.029245 -253566.000000 0 0 1
-8.233611 -22.954680 10.043429 26.373854 1.226401 1.180124 0.039844 -0.026446 -301272.000000 0 0 1
-7.776311 -21.699080 9.708729 25.011607 1.226684 1.172152 0.042388 -0.017145 160859.000000 0 0 1
-6.496611 -21.762180 8.817129 24.362680 1.280691 1.200479 0.051112 -0.026408 -183294.000000 0 1 0
-5.395911 -22.243980 9.487429 24.777446 1.332815 1.177856 0.061608 -0.026341 -637774.000000 0 1 0
-4.298911 -22.494380 8.592129 24.460222 1.381963 1.211870 0.056854 -0.030036 899491.000000 0 1 0
-3.201811 -23.378480 9.277929 25.355175 1.434688 1.196177 0.072059 -0.031108 614432.000000 0 0 1
-2.313511 -22.621180 10.113629 24.886856 1.468879 1.152303 0.064294 -0.027579 24257.200000 0 1 0
-1.388311 -23.431080 10.809529 25.841611 1.511615 1.139224 0.084624 -0.038195 303133.000000 0 0 1
-0.469811 -22.635180 11.740329 25.503087 1.550044 1.092408 0.080615 -0.038713 -402561.000000 0 0 1
-1.094911 -22.346280 12.950429 25.850893 1.521838 1.046081 0.076113 -0.040240 -274933.000000 0 0 1
-0.233511 -22.083380 14.035129 26.167060 1.560223 1.004671 0.104925 -0.041729 -550464.000000 0 0 1
0.568689 -20.748380 14.114529 25.100570 -1.543394 0.973609 0.085723 -0.039069 86062.900000 0 0 1
1.729289 -20.880880 13.303829 24.819216 -1.488168 1.005070 0.095781 -0.037994 36880.700000 0 1 0
2.210689 -19.613380 12.803629 23.526682 -1.458557 0.995340 0.077984 -0.035991 -397504.000000 0 1 0
3.713689 -19.688180 12.576629 23.655602 -1.384361 1.010242 0.083557 -0.030213 -492078.000000 0 1 0
4.094189 -20.069880 11.268629 23.378291 -1.369561 1.067846 0.091421 -0.030122 13989.600000 0 1 0
5.510089 -20.196580 11.281129 23.780807 -1.304455 1.076537 0.116820 -0.030618 492910.000000 0 1 0
6.103389 -21.076980 10.145929 24.174994 -1.288930 1.137696 0.116933 -0.034383 -204334.000000 0 1 0
5.959489 -20.559580 8.875429 23.172939 -1.288664 1.177746 0.099145 -0.026904 -482430.000000 0 1 0
6.219189 -21.477880 7.841329 23.695233 -1.288942 1.233513 0.094865 -0.029717 1087290.000000 0 1 0
7.723789 -21.938780 7.584129 24.463974 -1.232287 1.255590 0.087995 -0.026227 1200500.000000 0 1 0
8.626089 -21.068380 6.908229 23.790958 -1.182185 1.276181 0.092044 -0.028030 150774.000000 0 1 0
8.974189 -19.833980 7.552929 23.042777 -1.145894 1.236845 0.090823 -0.019410 -66314.500000 0 1 0
9.964389 -19.821680 8.754729 23.850227 -1.104990 1.194938 0.081349 -0.017415 139218.000000 0 1 0
9.408389 -20.372080 9.930829 24.538965 -1.138150 1.154150 0.112357 -0.016352 -590012.000000 0 1 0
10.051389 -19.848980 11.059629 24.846083 -1.102047 1.109482 0.100709 -0.008192 99293.600000 0 1 0
9.274289 -20.049780 12.375729 25.321232 -1.137544 1.060141 0.119908 -0.013528 -23514.000000 0 0 1
9.260389 -21.376980 12.841229 26.601264 -1.162005 1.067027 0.115599 -0.024316 343748.000000 0 0 1
8.267389 -21.551480 13.854629 26.921493 -1.204498 1.030219 0.153820 -0.035340 488301.000000 0 0 1
8.656389 -22.802580 14.676629 28.465667 -1.207979 1.029100 0.148678 -0.034430 279455.000000 0 0 1
8.439689 -23.956780 13.915729 28.962099 -1.232085 1.069594 0.160567 -0.037561 -60609.800000 0 0 1
8.474789 -25.199980 14.604429 30.333981 -1.246377 1.068483 0.165309 -0.048085 134811.000000 0 0 1
8.489989 -26.382780 13.637529 30.888723 -1.259461 1.113521 0.179198 -0.057279 -111014.000000 0 0 1
9.732189 -26.518480 13.012329 31.100900 -1.219061 1.139123 0.147354 -0.043671 -411463.000000 0 0 1
9.630889 -27.435780 11.960329 31.440826 -1.233201 1.180559 0.143896 -0.042685 -147907.000000 0 0 1
10.963589 -27.815880 11.286229 31.957823 -1.195344 1.209850 0.111560 -0.038794 23998.700000 0 0 1
11.808689 -28.621380 12.078429 33.234274 -1.179490 1.198846 0.087515 -0.038610 -769942.000000 0 0 1
13.035289 -28.900880 11.526929 33.734993 -1.147083 1.222081 0.117513 -0.040226 -983504.000000 0 0 1
13.864189 -29.801380 12.455129 35.149228 -1.135358 1.208577 0.085835 -0.042734 -779444.000000 0 0 1
14.380589 -29.018380 13.561529 35.111007 -1.110700 1.174237 0.071560 -0.039305 496620.000000 0 0 1
15.216689 -29.819980 14.442129 36.460306 -1.098955 1.163525 0.069749 -0.036531 1345760.000000 0 0 1
16.693189 -29.897580 13.906429 36.958309 -1.061568 1.185026 0.061034 -0.028686 -358412.000000 0 0 1
17.405289 -28.739080 13.783329 36.316098 -1.026246 1.181500 0.050862 -0.039665 -1321780.000000 0 0 1
18.447989 -28.872280 12.933029 36.622399 -1.002227 1.209865 0.058711 -0.037499 -1473670.000000 0 0 1
19.420089 -27.724780 13.127929 36.306278 -0.959762 1.200825 0.038474 -0.036743 111727.000000 0 0 1
20.665589 -27.892280 12.441529 36.875975 -0.933140 1.226655 0.032570 -0.036833 843984.000000 0 0 1
21.500189 -26.736680 12.561029 36.536114 -0.893533 1.219838 0.021889 -0.035319 163582.000000 0 0 1
22.846889 -26.906180 11.830429 37.227435 -0.866807 1.247401 0.030410 -0.030399 14544.700000 0 0 1
23.869789 -27.475280 12.641929 38.528901 -0.855504 1.236488 0.040730 -0.027785 479464.000000 0 0 1
25.037789 -27.701080 11.850729 39.174999 -0.835855 1.263474 0.042496 -0.030878 -564714.000000 0 0 1
26.174589 -28.362580 12.565029 40.588484 -0.825496 1.256054 0.053754 -0.029136 -664208.000000 0 0 1
27.145089 -27.517580 13.170129 40.835345 -0.792212 1.242408 0.026384 -0.024334 1388620.000000 0 0 1
28.369889 -27.518280 12.369029 41.413757 -0.770162 1.267498 0.012450 -0.023941 1025720.000000 0 0 1
29.550089 -26.661780 12.900129 41.838638 -0.734061 1.257359 0.054637 -0.039555 12782.000000 0 0 1
29.322489 -25.250080 13.062529 40.841212 -0.710912 1.245239 0.075828 -0.040660 46328.800000 0 0 1
28.713489 -24.859480 14.264729 40.570195 -0.713582 1.211510 0.074286 -0.030765 -302373.000000 0 0 1
29.699189 -24.722880 15.462929 41.621687 -0.694213 1.190160 0.065086 -0.022897 -128403.000000 0 0 1
30.310989 -25.937180 15.890829 42.941959 -0.707795 1.191730 0.072398 -0.027326 19079.900000 0 0 1
30.983089 -25.730680 17.102229 43.755068 -0.693049 1.169228 0.089763 -0.011202 -390667.000000 0 0 1
31.443089 -27.070880 17.623729 45.078778 -0.710816 1.169128 0.062842 0.011364 -737292.000000 0 0 1
30.432489 -27.860080 18.142929 45.072013 -0.741297 1.156515 0.044822 0.003154 -578442.000000 0 0 1
30.880289 -29.047680 18.732629 46.349449 -0.754827 1.154735 0.057033 -0.013329 -186851.000000 0 0 1
29.768189 -29.842980 19.424529 46.411861 -0.786653 1.138976 0.061248 -0.001759 -1420320.000000 0 0 1
29.219689 -29.324680 20.630329 46.252974 -0.787192 1.108469 0.052892 0.001243 132777.000000 0 0 1
28.363589 -30.207480 21.344929 46.611061 -0.816869 1.095123 0.038733 -0.002477 210300.000000 0 0 1
27.021889 -30.464280 20.644429 45.655748 -0.845209 1.101593 0.084820 -0.008450 -1178060.000000 0 0 1
27.255289 -31.427180 19.681729 46.020527 -0.856371 1.128880 0.090180 -0.007479 -126187.000000 0 0 1
26.271989 -31.528380 18.658729 45.082195 -0.876089 1.144081 0.099869 -0.010285 -34012.300000 0 0 1
26.508589 -30.649080 17.358229 44.083779 -0.857712 1.166083 0.085502 -0.006587 -1011020.000000 0 0 1
27.672689 -30.955580 16.698629 44.753434 -0.841335 1.188421 0.077033 -0.016513 -912239.000000 0 0 1
27.977089 -29.920980 15.788329 43.900500 -0.818960 1.202915 0.073921 -0.028158 -549350.000000 0 0 1
29.213489 -30.206680 14.940329 44.599158 -0.802111 1.229200 0.071772 -0.029846 -557669.000000 0 0 1
29.140389 -31.276980 14.016229 44.987403 -0.820747 1.253963 0.093654 -0.021375 148572.000000 0 0 1
29.368989 -32.518480 14.639129 46.198411 -0.836245 1.248363 0.074900 -0.025187 -219500.000000 0 0 1
28.790389 -33.796480 13.910429 46.525140 -0.865215 1.267165 0.106194 -0.032631 -37395.800000 0 0 1
29.292589 33.773718 12.600529 46.448823 0.856333 1.296076 0.107475 -0.029733 557563.000000 0 0 1
28.617089 32.678118 11.936929 45.047613 0.851555 1.302608 0.099571 -0.037821 -32960.800000 0 0 1
29.053189 32.525018 10.473729 44.851573 0.841719 1.335100 0.102564 -0.046108 -425752.000000 0 0 1
30.324889 31.960218 10.343029 45.255195 0.811648 1.340209 0.087509 -0.050476 -211566.000000 0 0 1
30.494689 31.217318 9.174029 44.593831 0.797107 1.363593 0.087203 -0.058945 -135632.000000 0 0 1
31.989389 30.820518 9.162529 45.356116 0.766791 1.367383 0.064799 -0.050044 21738.400000 0 0 1
32.328489 29.990218 10.229629 45.267976 0.747895 1.342848 0.056707 -0.039575 -726750.000000 0 0 1
33.706589 29.828318 10.258629 46.163862 0.724432 1.346703 0.063637 -0.032552 -899464.000000 0 0 1
34.205489 28.905618 11.388029 46.208629 0.701618 1.321783 0.077022 -0.032364 -99328.000000 0 0 1
33.808989 27.583418 11.334029 45.081625 0.684337 1.316658 0.072463 -0.039472 41096.600000 0 0 1
34.134889 26.930218 12.532529 45.249216 0.667958 1.290160 0.089566 -0.043493 94047.000000 0 0 1
33.885989 25.409418 12.580129 44.183237 0.643405 1.282075 0.074676 -0.039352 689657.000000 0 0 1
34.928689 24.713518 11.853029 44.398937 0.615770 1.300552 0.074862 -0.031218 473405.000000 0 0 1
34.815289 23.284718 11.960329 43.558374 0.589483 1.292642 0.084456 -0.034037 76337.800000 0 0 1
33.667089 22.447518 11.277729 42.006561 0.588060 1.298986 0.074048 -0.029747 414631.000000 0 0 1
32.494389 22.524018 12.044529 41.331433 0.606125 1.275092 0.102309 -0.048618 -336762.000000 0 0 1
31.397489 21.914818 11.391229 39.947737 0.609369 1.281630 0.094743 -0.037706 892167.000000 0 0 1
30.032389 21.913418 12.167029 39.117501 0.630356 1.254511 0.089265 -0.036266 716163.000000 0 0 1
29.497189 23.155518 12.474829 39.520672 0.665532 1.249651 0.098099 -0.033622 -1505780.000000 0 0 1
28.208389 22.987718 12.892629 38.605288 0.683775 1.230294 0.121875 -0.020986 -1258310.000000 0 0 1
24.967189 9.263818 25.748493 37.042729 0.355294 0.802234 0.060841 -0.006981 -47309.600000 0 0 1
24.839689 7.982018 26.281453 37.032925 0.310919 0.781755 0.067881 -0.015460 -822472.000000 0 0 1
23.499189 7.675418 26.355793 36.135187 0.315701 0.753401 0.070266 -0.018312 -1077970.000000 0 0 1
23.311789 6.387418 27.288743 36.454274 0.267436 0.724887 0.090381 -0.015074 -152066.000000 0 0 1
23.517489 6.588918 28.656383 37.652018 0.273167 0.705812 0.105221 -0.021706 -443957.000000 0 0 1
24.860089 6.662618 29.006783 38.778963 0.261851 0.725748 0.085556 -0.021705 -810085.000000 0 0 1
25.023189 6.729718 30.553883 40.062312 0.262723 0.703382 0.095138 -0.028288 -99676.300000 0 0 1
24.812789 8.028418 31.159103 40.632742 0.312929 0.696882 0.131617 -0.034768 163455.000000 0 0 1
24.812189 7.918118 32.583506 41.713621 0.308906 0.674333 0.127787 -0.037472 24693.200000 0 0 1
25.037389 9.285118 33.333856 42.711008 0.355127 0.675409 0.176611 -0.042861 169974.000000 0 0 1
26.305989 9.870318 33.108000 43.423126 0.358956 0.703704 0.124000 -0.041052 -275030.000000 0 0 1
26.873089 10.191118 -33.420151 44.078660 0.362475 2.431334 0.137409 -0.040411 -233049.000000 0 0 1
28.170589 10.991118 -33.603681 45.206129 0.371997 2.408851 0.109951 -0.041417 -375997.000000 0 0 1
27.927289 12.345218 33.668023 45.451883 0.416222 0.736625 0.112116 -0.046124 251595.000000 0 0 1
27.409089 13.311118 -33.219031 45.077134 0.452099 2.399325 0.111924 -0.044078 -562341.000000 0 0 1
26.975889 14.522318 33.780863 45.604200 0.493851 0.736625 0.102392 -0.045001 -687663.000000 0 0 1
27.993689 15.323018 33.243602 46.082302 0.500825 0.764980 0.080330 -0.042611 -317294.000000 0 0 1
27.691889 16.731718 33.155368 46.325690 0.543509 0.773168 0.100020 -0.045767 -29102.400000 0 0 1
27.878289 17.671818 -33.391281 46.951781 0.564968 2.361975 0.094248 -0.050478 54458.500000 0 0 1
26.991989 17.373818 -32.295121 45.534513 0.571909 2.359223 0.094918 -0.050784 360068.000000 0 0 1
27.640589 16.857418 -31.147261 44.925789 0.547652 2.336861 0.090502 -0.042948 -574431.000000 0 0 1
26.724789 16.238918 -30.087821 43.395780 0.546015 2.336903 0.082902 -0.036598 -307180.000000 0 0 1
26.221389 15.012718 -30.643081 43.034188 0.519981 2.363229 0.106641 -0.030522 -229361.000000 0 0 1
25.475189 14.387118 -29.645961 41.651619 0.514097 2.362797 0.133200 -0.034537 -350517.000000 0 0 1
24.881089 13.124218 -30.238071 41.299571 0.485387 2.392290 0.122962 -0.031329 -303928.000000 0 0 1
23.842389 13.225318 -31.248431 41.470869 0.506443 2.424171 0.126917 -0.034533 913451.000000 0 0 1
23.181789 12.000518 -31.455241 40.875909 0.477684 2.448901 0.124273 -0.028487 15927.400000 0 0 1
22.258289 11.466718 -30.354121 39.348312 0.475707 2.451868 0.127244 -0.030214 -603285.000000 0 0 1
21.075489 12.223118 -30.136121 38.752634 0.525560 2.461721 0.150935 -0.025715 314126.000000 0 0 1
20.299189 11.626018 -29.132041 37.361707 0.520129 2.465031 0.136216 -0.012545 -620576.000000 0 0 1
18.971989 12.287218 -28.836951 36.639894 0.574722 2.476787 0.102940 0.001027 -344668.000000 0 0 1
17.968389 12.200218 -29.850771 36.915807 0.596480 2.512595 0.079511 0.000889 956236.000000 0 0 1
16.814989 12.929818 -29.366011 36.225497 0.655517 2.516049 0.065322 -0.000549 -232168.000000 0 0 1
15.687289 13.090118 -30.376681 36.608537 0.695392 2.549493 0.069927 -0.009499 -423631.000000 0 0 1
15.049289 11.824518 -30.562841 36.060887 0.665972 2.582119 0.065490 0.004466 -166007.000000 0 0 1
13.750789 11.905518 -30.018461 35.098911 0.713599 2.596836 0.061292 -0.003046 -1110890.000000 0 0 1
12.673189 11.448718 -30.934931 35.336282 0.734680 2.637150 0.074115 -0.006906 -762526.000000 0 0 1
12.332689 12.399618 -31.988541 36.456995 0.788104 2.641279 0.080700 -0.006924 -366396.000000 0 0 1
11.328089 11.898018 -32.790541 36.675714 0.809932 2.677140 0.081415 -0.000740 -365937.000000 0 0 1
10.849089 12.821818 33.829513 37.769534 0.868546 0.460833 0.086726 -0.006655 263411.000000 0 0 1
11.704489 12.816018 32.694714 37.016074 0.830698 0.488032 0.075017 -0.005046 191917.000000 0 0 1
10.964589 13.259518 31.605873 35.985667 0.879854 0.498521 0.081636 -0.023196 134821.000000 0 0 1
11.813089 13.248818 30.271763 35.092163 0.842623 0.530338 0.091697 -0.026285 252199.000000 0 0 1
12.188889 11.964618 29.801733 34.349154 0.776113 0.520417 0.079367 -0.019546 48330.800000 0 0 1
12.564589 11.969918 28.411573 33.292121 0.761165 0.548318 0.092071 -0.021365 -216748.000000 0 0 1
12.916389 10.602218 27.815183 32.448799 0.687316 0.540984 0.110927 -0.014660 327088.000000 0 0 1
11.846389 9.660718 27.843393 31.763516 0.684120 0.502079 0.094818 -0.030015 472317.000000 0 0 1
12.389889 8.433618 27.454883 31.279480 0.597645 0.499696 0.112813 -0.036137 327943.000000 0 0 1
11.550589 7.148218 27.868893 31.003037 0.554173 0.453525 0.078482 -0.023493 1015260.000000 0 0 1
10.216889 6.969518 27.386473 30.049591 0.598650 0.424182 0.069161 -0.035339 387293.000000 0 0 1
9.488389 5.856218 27.878683 30.025752 0.552969 0.380464 0.065054 -0.039350 -328916.000000 0 0 1
9.806489 4.434718 27.449363 29.483919 0.424701 0.373669 0.090750 -0.033123 -402107.000000 0 0 1
10.742289 3.808918 28.291903 30.501416 0.340742 0.382966 0.090796 -0.033522 30239.600000 0 0 1
11.102389 2.596518 27.651893 29.910402 0.229741 0.391099 0.093924 -0.032628 265163.000000 0 0 1
11.825689 1.620218 28.629943 31.018473 0.136161 0.395000 0.067794 -0.026824 662880.000000 0 0 1
10.768589 1.150218 29.443133 31.371701 0.106409 0.352463 0.053164 -0.023641 527480.000000 0 0 1
11.262089 0.142118 30.264603 32.292430 0.012618 0.356270 0.067559 -0.023096 250032.000000 0 0 1
10.269389 -0.118682 31.422103 33.057873 -0.011556 0.315897 0.082940 -0.024075 229787.000000 0 0 1
10.359389 0.972518 32.337439 33.970174 0.093604 0.311300 0.063556 -0.026963 335312.000000 0 0 1
9.072089 1.342618 32.819395 34.076650 0.146928 0.272485 0.077899 -0.026490 30991.200000 0 0 1
9.046189 2.633818 33.646466 34.940739 0.283320 0.273031 0.067433 -0.029871 -227542.000000 0 0 1
9.253189 3.906618 33.050035 34.542553 0.399489 0.295035 0.046349 -0.024034 -345639.000000 0 0 1
10.491589 4.090618 32.447763 34.346236 0.371765 0.334040 0.053044 -0.016843 -951082.000000 0 0 1
10.636689 5.393218 31.571143 33.748526 0.469263 0.361175 0.045392 -0.017520 46813.700000 0 0 1
10.597689 6.621418 32.320179 34.651813 0.558454 0.368933 0.049247 -0.019742 60278.600000 0 0 1
10.680589 7.757318 31.440383 34.099100 0.628160 0.397505 0.056229 -0.015668 -113569.000000 0 0 1
10.512389 9.125918 32.206010 35.085891 0.714915 0.407993 0.072335 -0.022641 923441.000000 0 0 1
9.195389 9.352818 32.758905 35.287055 0.793885 0.380835 0.065078 -0.028344 793080.000000 0 0 1
8.910189 8.701518 -33.768031 35.991496 0.773550 2.788253 0.066797 -0.022422 -3773.240000 0 0 1
7.452889 9.084618 -33.414831 35.420711 0.883748 2.803442 0.072824 -0.026479 73552.800000 0 0 1
6.921589 8.401218 -32.320701 34.104494 0.881663 2.816735 0.078393 -0.024922 220597.000000 0 0 1
5.538389 8.656218 -32.116201 33.720234 1.001613 2.831913 0.084308 -0.026101 446892.000000 0 0 1
4.889989 7.939018 -30.925151 32.300231 1.018736 2.848753 0.082280 -0.021069 -261888.000000 0 0 1
5.444989 8.377218 -29.718961 31.353505 0.994438 2.817271 0.092287 -0.028390 139564.000000 0 0 1
5.120889 7.585518 -28.578771 30.008494 0.976986 2.831666 0.082471 -0.024476 754554.000000 0 0 1
3.667989 7.684718 -27.962471 29.230272 1.125465 2.845991 0.079691 -0.016706 1231470.000000 0 0 1
2.741289 6.857818 -28.680121 29.615767 1.190521 2.889558 0.072211 -0.012501 831399.000000 0 0 1
1.369589 7.256918 -28.576911 29.515732 1.384262 2.888699 0.083356 -0.007264 937889.000000 0 0 1
0.481589 6.646518 -29.691331 30.429973 1.498465 2.920811 0.098113 -0.022475 -188265.000000 0 0 1
0.630589 7.354118 -30.891791 31.761351 1.485259 2.907056 0.081865 -0.026606 122783.000000 0 0 1
0.092089 6.814718 -32.083061 32.798958 1.557284 2.932276 0.109920 -0.041292 -637942.000000 0 0 1
0.232989 7.732418 -33.317501 34.203807 1.540674 2.913447 0.127761 -0.047077 125855.000000 0 0 1
1.605189 7.960818 -33.606021 34.573340 1.371828 2.904484 0.109405 -0.033953 623584.000000 0 0 1
2.420089 6.935918 33.575014 34.369250 1.235083 0.215399 0.113071 -0.041763 -234988.000000 0 0 1
1.954989 6.396518 32.227106 32.913884 1.274179 0.204641 0.111034 -0.044002 -162053.000000 0 0 1
0.819489 5.546418 32.335396 32.817863 1.424107 0.171683 0.125451 -0.052066 -93691.300000 0 0 1
0.249389 5.127718 31.112353 31.533065 1.522199 0.163534 0.143244 -0.049216 538000.000000 0 0 1
1.124789 4.174218 30.156253 30.464551 1.307587 0.142387 0.144200 -0.053488 407844.000000 0 0 1
0.788989 4.232718 28.790553 29.110726 1.386509 0.148450 0.135003 -0.051043 244084.000000 0 0 1
1.730289 3.526418 27.973563 28.248004 1.114645 0.139508 0.123409 -0.043685 348205.000000 0 0 1
1.665689 3.860618 26.453433 26.785500 1.163470 0.157626 0.119624 -0.039882 194013.000000 0 0 1
2.404189 5.063618 26.219543 26.812027 1.127514 0.210616 0.106930 -0.037690 276803.000000 0 0 1
2.201289 5.587118 24.896383 25.610378 1.195478 0.236684 0.088116 -0.032834 -413155.000000 0 0 1
2.889389 6.970818 24.711253 25.837703 1.177855 0.296370 0.084568 -0.022835 1128680.000000 0 0 1
4.321689 7.077818 24.736073 26.089189 1.022622 0.323480 0.072070 -0.019792 646521.000000 0 0 1
4.928389 6.586618 23.567683 24.962136 0.928421 0.335829 0.067121 -0.026458 446500.000000 0 1 0
6.509389 6.720218 23.576213 25.364765 0.801333 0.377777 0.079734 -0.027569 1692840.000000 0 0 1
7.320089 5.801418 24.354183 26.083834 0.670172 0.366217 0.086742 -0.028114 461936.000000 0 0 1
7.091789 4.384918 24.272433 25.664606 0.553773 0.330885 0.094468 -0.026243 -1016910.000000 0 0 1
7.236989 3.730918 22.853733 24.260809 0.475998 0.342250 0.091626 -0.030143 469099.000000 0 1 0
6.194289 4.010018 21.906473 23.115861 0.574526 0.324904 0.061854 -0.028928 121415.000000 0 1 0
4.948789 3.410618 22.215873 23.014514 0.603429 0.264213 0.064099 -0.022089 -519242.000000 0 1 0
3.852889 3.738918 21.208973 21.877952 0.770387 0.247931 0.049960 -0.019601 -364714.000000 0 1 0
3.365589 5.033418 21.361673 22.203233 0.981423 0.276205 0.046579 -0.022380 -417461.000000 0 1 0
2.201089 5.198018 20.602073 21.361404 1.170241 0.267430 0.043424 -0.017956 -113766.000000 0 1 0
1.492389 6.549018 20.635073 21.700763 1.346742 0.314692 0.043983 -0.020272 24057.600000 0 1 0
2.276189 7.503318 19.925973 21.413202 1.276262 0.374895 0.034288 -0.018652 -129903.000000 0 1 0
1.784289 8.807418 20.062173 21.982836 1.370912 0.421127 0.042793 -0.017607 219287.000000 0 1 0
2.846889 9.931318 19.810373 22.342487 1.291625 0.480707 0.050520 -0.018405 -10927.000000 0 1 0
3.233189 9.869718 18.408673 21.136321 1.254227 0.513665 0.039376 -0.015940 -356367.000000 0 1 0
3.986389 10.940318 17.975973 21.417690 1.221372 0.574793 0.040465 -0.020788 52636.800000 0 1 0
5.524789 10.793418 18.143373 21.822079 1.097701 0.589133 0.050259 -0.019328 -104878.000000 0 1 0
6.003789 9.862418 17.197673 20.714071 1.023965 0.591256 0.041060 -0.011676 -334595.000000 0 1 0
7.362489 9.675818 17.538673 21.340870 0.920345 0.606172 0.049523 -0.001980 -307049.000000 0 1 0
7.730389 8.210718 17.894573 21.151609 0.815520 0.562331 0.058193 -0.011243 -171508.000000 0 1 0
7.357989 7.814418 19.205973 22.001694 0.815472 0.509617 0.057301 -0.017435 -55794.000000 0 1 0
7.253189 6.432718 19.488073 21.766341 0.725520 0.461623 0.066588 -0.035573 -84257.900000 0 1 0
8.569589 5.789518 19.937273 22.459992 0.594154 0.478516 0.096236 -0.030081 -214440.000000 0 1 0
9.564789 5.808218 18.938373 21.997331 0.545733 0.533683 0.097065 -0.021566 790164.000000 0 1 0
10.802189 5.073218 19.172573 22.583454 0.439072 0.556772 0.112296 -0.024750 1271800.000000 0 1 0
10.776889 3.542518 19.173073 22.277736 0.317588 0.534274 0.127515 -0.025338 -471747.000000 0 1 0
10.033189 3.062318 20.262373 22.816802 0.296238 0.477719 0.130852 -0.030092 -5663.740000 0 1 0
10.041189 1.640018 20.241773 22.654900 0.161899 0.465754 0.128484 -0.030544 122531.000000 0 1 0
9.163689 0.924618 21.305173 23.210741 0.100560 0.408037 0.118352 -0.032624 -259294.000000 0 1 0
9.634589 1.020818 22.598673 24.587952 0.105560 0.405018 0.131109 -0.032422 2857.830000 0 1 0
8.816989 0.392118 23.584423 25.181701 0.044444 0.358084 0.119181 -0.032769 -372041.000000 0 0 1
9.398189 0.425218 25.014353 26.724981 0.045214 0.359731 0.118867 -0.035224 353267.000000 0 0 1
10.691389 -0.175282 25.190233 27.365752 -0.016393 0.401433 0.126816 -0.034037 886646.000000 0 0 1
10.630289 -1.591782 25.191203 27.388566 -0.148636 0.403300 0.138917 -0.029196 -1210010.000000 0 0 1
12.012289 -2.178082 25.117963 27.927606 -0.179372 0.452412 0.147280 -0.029589 -878525.000000 0 0 1
12.041889 -3.598582 25.124253 28.092436 -0.290391 0.463837 0.146211 -0.021424 430547.000000 0 0 1
13.373489 -4.109982 25.070463 28.710108 -0.298162 0.509009 0.131579 -0.021151 406988.000000 0 0 1
13.385389 -5.665782 25.190233 29.082943 -0.400414 0.523347 0.132419 -0.013425 -4301.600000 0 0 1
12.978689 -6.411882 24.031163 28.054508 -0.458861 0.542175 0.129136 -0.012768 303963.000000 0 0 1
13.211889 -7.800482 24.079493 28.552119 -0.533341 0.567305 0.130645 -0.024400 -30451.500000 0 0 1
12.961089 -8.496182 22.714973 27.498090 -0.580242 0.598722 0.130526 -0.023610 113845.000000 0 0 1
12.696889 -9.870882 22.772573 27.878942 -0.660823 0.614888 0.145902 -0.015259 -157372.000000 0 0 1
12.666889 -10.445982 21.462973 27.022728 -0.689603 0.653014 0.129620 -0.017471 -20596.200000 0 0 1
12.071889 -11.847482 21.466973 27.329915 -0.776017 0.667333 0.149729 -0.017092 -483378.000000 0 0 1
10.730389 -11.886082 21.824073 27.068623 -0.836453 0.633011 0.156178 -0.014575 -850208.000000 0 0 1
10.148989 -13.150582 21.932373 27.513066 -0.913519 0.648216 0.143762 -0.018996 450104.000000 0 0 1
8.692089 -13.137782 22.514273 27.478105 -0.986303 0.610514 0.107943 -0.008975 593174.000000 0 0 1
7.792289 -12.496482 21.644473 26.179478 -1.013234 0.597450 0.090735 -0.011667 -1179390.000000 0 0 1
6.561589 -12.350182 22.247773 26.278220 -1.082427 0.561187 0.054390 -0.003350 -603406.000000 0 0 1
5.641889 -11.325582 21.545973 24.986570 -1.108626 0.530998 0.031804 0.007600 10251.300000 0 1 0
6.030389 -9.930782 21.673273 24.590990 -1.025069 0.492084 0.051159 -0.000059 -273199.000000 0 1 0
5.211189 -9.022482 21.002873 23.445306 -1.047027 0.460514 0.030268 -0.001310 -467961.000000 0 1 0
5.628189 -7.612382 21.430273 23.428220 -0.934148 0.415981 0.050329 -0.021415 -486384.000000 0 1 0
4.939889 -6.509982 21.020273 22.552921 -0.921676 0.370788 0.043182 -0.017278 -708399.000000 0 1 0
5.420289 -5.296682 21.577873 22.870046 -0.773865 0.337760 0.062371 -0.023470 84699.900000 0 1 0
-7.987211 -15.712182 -20.678171 27.170847 1.100495 2.435715 0.045457 -0.001772 300961.000000 0 0 1
-7.382411 -15.061282 -19.556371 25.764197 1.115053 2.432652 0.029219 0.007187 27235.600000 0 0 1
-6.814111 -13.811582 -19.892671 25.157708 1.112473 2.482778 0.050299 -0.007613 92514.700000 0 0 1
-6.141411 -13.115182 -18.654971 23.616369 1.132856 2.481470 0.035393 -0.007492 662668.000000 0 1 0
-5.115211 -13.977282 -18.132571 23.458899 1.219969 2.454275 0.031191 -0.000882 360749.000000 0 1 0
-4.438911 -13.420682 -17.005771 22.113681 1.251371 2.448096 0.038692 -0.010265 258512.000000 0 1 0
-3.480611 -14.425282 -16.340871 22.073230 1.334036 2.404317 0.037429 -0.008693 411106.000000 0 1 0
-2.249411 -14.629982 -17.021871 22.557489 1.418238 2.425840 0.037087 -0.013167 278536.000000 0 1 0
-1.328511 -15.545282 -16.454171 22.675107 1.485543 2.382774 0.048160 -0.006386 1573610.000000 0 1 0
0.029089 -15.619782 -17.315271 23.319456 -1.568934 2.407628 0.062894 -0.001378 1365480.000000 0 1 0
-0.058511 -16.457882 -18.481071 24.747026 1.567241 2.414033 0.093660 -0.024577 -320282.000000 0 1 0
-0.283311 -17.857782 -18.239271 25.527469 1.554933 2.366700 0.091512 -0.012516 -236083.000000 0 0 1
-0.805011 -18.610182 -19.405471 26.899056 1.527567 2.376645 0.095487 -0.030593 1115570.000000 0 0 1
-2.168411 -18.338282 -19.831071 27.097342 1.453098 2.391823 0.116233 -0.030069 1122050.000000 0 0 1
-2.379111 -18.673182 -21.175571 28.332891 1.444071 2.414913 0.109273 -0.034207 -507432.000000 0 0 1
-3.578611 -17.944082 -21.742671 28.417253 1.373948 2.442027 0.117910 -0.031771 -468823.000000 0 0 1
-3.433811 -16.522682 -21.908371 27.654417 1.365889 2.485234 0.109009 -0.026352 -314570.000000 0 0 1
-3.735611 -15.660282 -20.802671 26.304949 1.336632 2.482956 0.080391 -0.016971 218086.000000 0 0 1
-2.658411 -14.550382 -20.508571 25.286009 1.390086 2.516765 0.080161 -0.014125 453218.000000 0 0 1
-2.490011 -13.607382 -21.539371 25.598935 1.389809 2.570696 0.073004 -0.015341 -13574.600000 0 0 1
-1.921811 -12.398582 -21.023871 24.483083 1.417018 2.603544 0.061422 -0.021472 147585.000000 0 1 0
-1.721811 -11.388382 -22.189771 25.000916 1.420743 2.662814 0.067097 -0.023745 299947.000000 0 0 1
-2.894411 -10.658482 -22.557371 25.116047 1.305632 2.686285 0.068039 -0.019785 290397.000000 0 0 1
-2.786511 -9.921382 -23.694471 25.838468 1.296991 2.731347 0.081277 -0.021009 35637.500000 0 0 1
-3.851511 -8.794182 -23.708771 25.578850 1.157999 2.756836 0.066100 -0.026014 -140282.000000 0 0 1
-5.186311 -9.241582 -23.769671 26.025025 1.059400 2.722206 0.066650 -0.024874 2658.500000 0 0 1
-6.017711 -8.107782 -23.981171 26.020098 0.932297 2.743083 0.059927 -0.027309 -948159.000000 0 0 1
-7.487511 -8.373282 -23.597571 26.134652 0.841187 2.697318 0.047769 -0.033225 -286457.000000 0 0 1
-8.319211 -8.814182 -24.610271 27.432909 0.814279 2.683975 0.040773 -0.026727 -253128.000000 0 0 1
-8.727411 -7.792182 -25.454381 28.014484 0.728845 2.710752 0.042059 -0.028761 -962546.000000 0 0 1
-9.752511 -8.057182 -26.567501 29.425529 0.690493 2.697201 0.036209 -0.031117 -56631.100000 0 0 1
-10.084311 -6.884882 -27.253451 29.863782 0.599042 2.720376 0.046258 -0.036644 -243256.000000 0 0 1
-11.063511 -7.199882 -28.194151 31.131169 0.576922 2.703722 0.045336 -0.032839 188973.000000 0 0 1
-11.943911 -6.026182 -28.763661 31.722548 0.467273 2.706251 0.050290 -0.038940 448155.000000 0 0 1
-11.157511 -5.250982 -29.624761 32.088772 0.439871 2.747155 0.029701 -0.031292 145525.000000 0 0 1
-11.970211 -4.741282 -30.672331 33.264960 0.377131 2.744169 0.053408 -0.031323 160617.000000 0 0 1
-11.284411 -3.726682 -31.624501 33.783652 0.318973 2.782138 0.041557 -0.027139 804297.000000 0 0 1
-10.125811 -4.217182 -32.338741 34.148365 0.394631 2.814583 0.032482 -0.022088 945504.000000 0 0 1
-9.618211 -3.237082 -33.258311 34.772171 0.324650 2.845430 0.043135 -0.025369 -512954.000000 0 0 1
-8.476511 -3.683982 33.623518 34.870674 0.409983 0.268255 0.045464 -0.019317 184747.000000 0 0 1
-7.196511 -3.564682 -33.535311 34.483529 0.459909 2.906541 0.041949 -0.023503 1109800.000000 0 0 1
-6.100411 -4.058682 33.411736 34.205731 0.587065 0.215883 0.034255 -0.021410 1287500.000000 0 0 1
-4.691711 -3.590982 33.844613 34.356442 0.653277 0.172828 0.062310 -0.026671 292263.000000 0 0 1
-4.699111 -2.174282 33.742903 34.137848 0.433366 0.152260 0.097639 -0.049517 -379546.000000 0 0 1
-3.401811 -1.683982 -33.818051 34.030408 0.459660 3.029819 0.102970 -0.049815 -137810.000000 0 0 1
-3.442111 -0.241682 -33.238301 33.416929 0.070098 3.038150 0.114969 -0.058002 -48360.500000 0 0 1
-3.807111 -0.256382 -31.877031 32.104593 0.067242 3.022458 0.114981 -0.054413 19130.200000 0 0 1
-4.223011 1.044418 -31.446151 31.745630 -0.242451 3.004126 0.141085 -0.050983 -285150.000000 0 0 1
-4.920011 0.956418 -30.072371 30.487189 -0.191999 2.976442 0.124379 -0.061209 131860.000000 0 0 1
-5.989511 0.050118 -29.960031 30.552908 -0.008367 2.944270 0.115564 -0.060224 509951.000000 0 0 1
-7.285811 0.611518 -30.201591 31.073993 -0.083736 2.904075 0.119224 -0.058374 454478.000000 0 0 1
-8.426911 -0.427982 -30.150651 31.309068 0.050744 2.868720 0.101396 -0.054848 60556.300000 0 0 1
-8.673911 -0.898982 -28.832541 30.122422 0.103273 2.847891 0.105944 -0.051668 -514254.000000 0 0 1
-9.664011 -1.863382 -28.879621 30.510618 0.190479 2.813142 0.051590 -0.029291 -554070.000000 0 0 1
-9.901211 -2.622882 -27.597491 29.436966 0.258957 2.786204 0.057394 -0.031754 -251079.000000 0 0 1
-10.668811 -1.828382 -26.717541 28.826958 0.169728 2.756663 0.059321 -0.029092 125408.000000 0 0 1
-10.907511 -2.498282 -25.557171 27.899537 0.225159 2.728897 0.059075 -0.033233 109244.000000 0 0 1
-11.865311 -1.666882 -24.639771 27.398584 0.139570 2.688981 0.073499 -0.033999 263296.000000 0 0 1
-11.348611 -0.420682 -24.204271 26.736018 0.037052 2.702895 0.087352 -0.032992 60749.200000 0 0 1
-12.274711 0.283518 -23.400071 26.425598 -0.023094 2.658382 0.098018 -0.033982 118642.000000 0 0 1
-11.711311 1.606418 -22.852471 25.728793 -0.136317 2.664222 0.114211 -0.037454 148202.000000 0 0 1
-11.391811 2.660318 -23.804471 26.523640 -0.229417 2.684822 0.084949 -0.034510 -268626.000000 0 0 1
-10.439611 3.513818 -23.275271 25.750157 -0.324674 2.699570 0.090037 -0.029487 -746742.000000 0 0 1
-10.147811 4.653318 -24.235471 26.683131 -0.429944 2.709925 0.111335 -0.035926 296347.000000 0 0 1
-11.194311 5.595718 -24.548171 27.554261 -0.463545 2.670125 0.115587 -0.029906 204013.000000 0 0 1
-11.949711 5.249818 -25.686511 28.812376 -0.413942 2.671463 0.099547 -0.027037 -223131.000000 0 0 1
-13.360811 5.837818 -25.803371 29.637903 -0.411937 2.627259 0.090677 -0.019138 -103083.000000 0 0 1
-13.360811 7.225918 -25.917531 30.040698 -0.495775 2.611474 0.086464 -0.019295 -655292.000000 0 0 1
-14.673611 7.683818 -26.059901 30.878380 -0.482387 2.575407 0.088571 -0.013553 -460208.000000 0 0 1
-14.846411 9.219318 -25.877321 31.225750 -0.555703 2.547608 0.104836 -0.012990 -336166.000000 0 0 1
-14.687511 9.629118 -24.541371 30.178167 -0.580301 2.520454 0.141516 -0.029584 63656.500000 0 0 1
-15.047911 10.996618 -24.396271 30.700867 -0.631082 2.489218 0.126956 -0.016977 -86340.100000 0 0 1
-14.867511 11.644018 -23.010571 29.767640 -0.664404 2.454363 0.116306 -0.032241 41662.500000 0 0 1
-15.674211 11.120918 -21.970471 29.190020 -0.617076 2.422905 0.136080 -0.036490 -74470.900000 0 0 1
-15.420911 11.777118 -20.709471 28.379344 -0.652218 2.388734 0.111365 -0.027503 12929.100000 0 0 1
-16.552311 11.733918 -19.606171 28.214637 -0.616674 2.339068 0.115768 -0.029730 624627.000000 0 0 1
-17.663211 12.515018 -20.082871 29.528569 -0.616432 2.318718 0.099276 -0.030038 -278667.000000 0 0 1
-18.480111 12.815218 -19.023671 29.455803 -0.606323 2.272916 0.094703 -0.020652 -627249.000000 0 0 1
-19.886911 13.232118 -19.506471 30.839594 -0.587103 2.255591 0.090457 -0.023248 -140279.000000 0 0 1
-20.007011 14.543218 -20.108871 31.877144 -0.628556 2.253411 0.074453 -0.023150 -116362.000000 0 0 1
-21.365211 14.887718 -20.223671 32.971400 -0.608589 2.231117 0.064084 -0.022329 -123944.000000 0 0 1
-21.656811 16.190318 -20.977471 34.222772 -0.641954 2.230608 0.064993 -0.018577 -137301.000000 0 0 1
-21.416411 16.139618 -22.342871 34.904925 -0.645807 2.265433 0.070891 -0.019415 242454.000000 0 0 1
-21.791011 17.389618 -22.949271 36.109777 -0.673531 2.259506 0.060318 -0.006989 -119217.000000 0 0 1
-21.553911 17.380118 -24.494571 36.967872 -0.678604 2.295069 0.057480 -0.012905 93218.100000 0 0 1
-20.194711 17.162018 -24.852171 36.331688 -0.704394 2.324077 0.059183 -0.016169 260786.000000 0 0 1
-20.004311 16.809918 -26.247941 37.036471 -0.698844 2.358458 0.049540 -0.021410 -51229.700000 0 0 1
-19.597011 17.982918 -27.151651 38.008424 -0.742474 2.366504 0.040056 -0.014416 97545.400000 0 0 1
-20.710811 18.843318 -27.329311 39.126711 -0.738220 2.344071 0.045430 -0.029383 259925.000000 0 0 1
-20.321211 20.202918 -27.321501 39.592599 -0.782479 2.332376 0.041344 -0.026809 -481419.000000 0 0 1
-21.471611 21.205518 -27.575471 40.879220 -0.779163 2.311164 0.051571 -0.024847 524803.000000 0 0 1
-22.425211 21.569018 -26.566211 40.913031 -0.765939 2.277504 0.059240 -0.018005 990155.000000 0 0 1
-23.336511 20.530718 -26.214371 40.660747 -0.721524 2.271440 0.077035 -0.034739 -239430.000000 0 0 1
-24.182111 20.898418 -24.983371 40.567070 -0.712686 2.234265 0.084042 -0.023871 -300547.000000 0 0 1
-23.506911 20.512018 -23.839571 39.263760 -0.717466 2.223284 0.064979 -0.011102 376282.000000 0 0 1
-24.152911 21.065318 -22.655871 39.247919 -0.717222 2.186154 0.067365 -0.019437 367458.000000 0 0 1
-23.645211 20.436518 -21.296571 37.819190 -0.712737 2.168947 0.066309 -0.006232 902257.000000 0 0 1
-22.278211 20.742318 -20.975371 36.966587 -0.749712 2.174159 0.069939 -0.006130 629586.000000 0 0 1
-21.558611 19.962418 -20.042671 35.566564 -0.746974 2.169444 0.061980 -0.008663 46700.600000 0 0 1
-22.129811 19.665818 -18.602471 34.964622 -0.726513 2.131801 0.072914 -0.014021 -1336850.000000 0 0 1
-23.105811 18.671718 -18.757671 35.133484 -0.679658 2.133999 0.092344 -0.014143 -95544.300000 0 0 1
-23.861411 18.464118 -17.558671 34.908416 -0.658564 2.097854 0.086962 -0.008492 352305.000000 0 0 1
-24.961011 19.526418 -17.338571 36.124217 -0.663840 2.071418 0.075039 -0.012388 -714085.000000 0 0 1
-26.000351 19.571518 -18.310571 37.340856 -0.645253 2.083302 0.074412 -0.002489 255272.000000 0 0 1
-27.002661 20.475718 -17.915471 38.332268 -0.648783 2.057113 0.076973 -0.006767 -71989.500000 0 0 1
-28.385011 20.136618 -18.588671 39.455429 -0.617014 2.061369 0.063444 -0.000893 752038.000000 0 0 1
-29.005241 18.886418 -18.277971 39.141857 -0.577175 2.056654 0.058010 -0.003841 352382.000000 0 0 1
-29.556961 18.877718 -16.948971 38.951890 -0.568383 2.020974 0.072498 -0.006859 -683460.000000 0 0 1
-30.361281 17.650418 -16.510571 38.806488 -0.526591 2.010265 0.067619 -0.008743 -165788.000000 0 0 1
-29.680091 16.421218 -16.330471 37.646360 -0.505353 2.019487 0.083821 -0.018779 -438033.000000 0 0 1
-30.582831 15.429618 -15.973271 37.795873 -0.467256 2.007130 0.082664 -0.006636 -165640.000000 0 0 1
-29.933191 14.090918 -15.505671 36.537319 -0.439971 2.009072 0.124318 -0.010899 -41202.200000 0 0 1
-29.154301 14.056318 -14.298571 35.383646 -0.449254 1.986792 0.130020 -0.015919 94971.000000 0 0 1
-29.915741 14.144218 -13.136971 35.603236 -0.441653 1.948710 0.100648 -0.006081 73290.200000 0 0 1
-29.135211 14.866618 -11.982971 34.834873 -0.471824 1.921963 0.124176 -0.036584 258367.000000 0 0 1
-28.983251 16.259718 -12.061471 35.353731 -0.511252 1.918953 0.118083 -0.021762 -255365.000000 0 0 1
-30.167941 17.018118 -11.986471 36.652373 -0.513614 1.903957 0.094783 -0.014097 -164077.000000 0 0 1
-29.994231 18.508818 -12.085971 37.259910 -0.552883 1.901141 0.134105 -0.004238 -141062.000000 0 0 1
-29.400781 19.183918 -10.996171 36.787829 -0.578128 1.874344 0.081128 -0.026502 -23660.700000 0 0 1
-29.384271 20.538118 -11.281571 37.583553 -0.610020 1.875670 0.032839 -0.022472 -643278.000000 0 0 1
-28.185451 21.125818 -10.598471 36.783792 -0.643200 1.863069 0.084460 -0.016219 -508814.000000 0 0 1
-28.275971 22.561118 -10.689571 37.720041 -0.673453 1.858126 0.069917 -0.024531 393576.000000 0 0 1
-27.060991 23.147518 -10.210671 37.045412 -0.707611 1.850037 0.079991 -0.011108 670653.000000 0 0 1
-27.307271 24.338418 -9.258171 37.732735 -0.727976 1.818689 0.104961 0.003437 71962.600000 0 0 1
-27.269461 24.013218 -7.855571 37.174831 -0.721987 1.783716 0.084983 -0.006680 219887.000000 0 0 1
-28.488981 24.242518 -7.153171 38.085293 -0.705042 1.759738 0.106874 -0.014420 326628.000000 0 0 1
-28.581491 23.563418 -5.734071 37.483541 -0.689460 1.724375 0.104335 -0.014167 -83723.500000 0 0 1
-28.780911 22.172518 -5.794271 36.790419 -0.656423 1.728949 0.117405 -0.022377 63551.100000 0 0 1
-28.581061 21.613918 -4.484571 36.113015 -0.647478 1.695299 0.104406 -0.016226 -3405.370000 0 0 1
-28.413921 20.101118 -4.586771 35.106186 -0.615701 1.701825 0.132460 -0.023236 -816459.000000 0 0 1
-27.253661 19.617218 -5.155871 33.973228 -0.623892 1.723148 0.135231 -0.029270 -738754.000000 0 0 1
-27.135641 19.697118 -6.567371 34.167964 -0.627882 1.764208 0.113850 -0.019343 -377830.000000 0 0 1
-28.117681 18.934718 -7.490871 34.716576 -0.592656 1.788279 0.129081 -0.024736 -33278.300000 0 0 1
-27.803441 17.569318 -7.430171 33.718239 -0.563554 1.792980 0.130401 -0.028558 171575.000000 0 0 1
-27.914031 16.889918 -8.637571 33.750112 -0.544138 1.829603 0.103101 -0.031368 -87881.300000 0 0 1
-27.534481 15.369218 -8.642771 32.696452 -0.509102 1.838309 0.142344 -0.040893 -42237.100000 0 0 1
-28.369461 14.641718 -7.793671 32.862555 -0.476451 1.810237 0.126791 -0.028016 -176081.000000 0 0 1
-28.104651 13.271618 -7.930071 32.076366 -0.441179 1.820611 0.134334 -0.039215 -131063.000000 0 0 1
-29.007631 12.345718 -7.106271 32.316535 -0.402381 1.792504 0.126949 -0.039746 538999.000000 0 0 1
-30.376911 12.415518 -7.545671 33.672525 -0.387997 1.796805 0.136713 -0.039906 642320.000000 0 0 1
-31.200441 11.551318 -6.770271 33.951981 -0.354582 1.771549 0.157907 -0.038860 -21571.200000 0 0 1
-31.626951 10.256318 -7.450971 34.073054 -0.313590 1.791254 0.132986 -0.032088 14121.000000 0 0 1
-30.545611 9.398418 -7.795871 32.895899 -0.298492 1.810059 0.130438 -0.029588 237127.000000 0 0 1
-31.017941 8.071718 -7.940371 33.019915 -0.254581 1.813649 0.138812 -0.032559 -406519.000000 0 0 1
-29.919501 7.079818 -8.307971 31.848433 -0.232355 1.834709 0.165444 -0.036524 -280023.000000 0 0 1
-29.559061 7.117818 -9.703171 31.914776 -0.236301 1.879720 0.158290 -0.043532 198975.000000 0 0 1
-28.506581 6.248318 -10.026171 30.857588 -0.215776 1.901721 0.169013 -0.049063 -508825.000000 0 0 1
-27.937161 6.486218 -11.473671 30.890145 -0.228130 1.951350 0.127999 -0.033730 -404523.000000 0 0 1
-27.172361 7.642818 -11.593771 30.515002 -0.274188 1.960524 0.152557 -0.038267 90841.000000 0 0 1
-26.146721 7.518618 -12.538971 29.956742 -0.280001 2.002666 0.142077 -0.024810 -210791.000000 0 0 1
-32.451151 25.684118 -33.174241 53.040374 -0.669518 2.246508 0.030824 0.009910 36744.900000 0 0 1
-33.313251 26.705418 -33.652041 54.363700 -0.675743 2.238286 0.041334 -0.000611 256741.000000 0 0 1
-32.874761 27.186718 32.869339 53.854071 -0.690976 0.914306 0.037554 -0.004349 -70871.900000 0 0 1
-33.515271 28.540918 32.518712 54.729553 -0.705410 0.934562 0.050070 -0.021308 -154949.000000 0 0 1
-33.310281 28.970618 31.182413 54.048260 -0.715832 0.955823 0.066983 -0.018673 160316.000000 0 0 1
-33.617921 30.380018 30.996093 54.898705 -0.734847 0.970842 0.080808 -0.026933 -85780.000000 0 0 1
-33.129921 30.913618 29.634203 54.142676 -0.750806 0.991619 0.090671 -0.030239 255132.000000 0 0 1
-31.717291 30.921418 29.508423 53.224690 -0.772693 0.983140 0.072361 -0.026495 279773.000000 0 0 1
-31.388861 31.685018 28.367473 52.857492 -0.790094 1.004301 0.058910 -0.024103 -381921.000000 0 0 1
-29.994831 31.568618 27.757013 51.640287 -0.810956 1.003318 0.092888 -0.022790 -773941.000000 0 0 1
-29.812631 30.322518 27.118843 50.434905 -0.793877 1.003090 0.113157 -0.023777 113092.000000 0 0 1
-28.679051 30.202618 26.281933 49.248615 -0.811267 1.007876 0.089565 -0.017855 -176651.000000 0 0 1
-28.720951 30.967618 24.920123 49.039768 -0.823020 1.037748 0.101977 -0.026586 -184990.000000 0 0 1
-28.857041 32.357118 25.099703 50.096975 -0.842514 1.046017 0.089826 -0.030511 -272058.000000 0 0 1
-29.810121 32.912618 24.263243 50.602259 -0.834822 1.070724 0.093855 -0.032478 -440373.000000 0 0 1
-30.245461 -33.389180 24.636253 51.347543 0.834761 1.070376 0.100709 -0.026247 422628.000000 0 0 1
-30.882771 -33.355480 25.958973 52.346937 0.823872 1.051923 0.088978 -0.032800 411356.000000 0 0 1
-31.171411 -32.045980 26.303263 51.869676 0.799232 1.038976 0.066110 -0.035009 -131861.000000 0 0 1
-31.659441 -31.921780 27.802903 52.861343 0.789524 1.016954 0.083895 -0.041452 1348200.000000 0 0 1
-33.004491 -32.457280 28.000293 54.099795 0.777039 1.026791 0.071007 -0.045267 1289140.000000 0 0 1
-33.182731 -32.687680 29.425183 55.094641 0.777883 1.007372 0.064911 -0.041453 -913770.000000 0 0 1
-34.597486 -33.007080 29.824533 56.355622 0.761877 1.013115 0.086323 -0.045730 -907418.000000 0 0 1
-34.784091 -33.070680 31.221133 57.256982 0.760152 0.994072 0.081168 -0.052357 -939823.000000 0 0 1
-36.122921 -33.159080 31.545333 58.305214 0.742645 0.999126 0.076166 -0.048297 -1106490.000000 0 0 1
-36.416901 -33.557080 33.029194 59.524751 0.744551 0.982576 0.091815 -0.037004 -254425.000000 0 0 1
-36.182231 32.822018 33.258169 59.097753 -0.736741 0.973069 0.069597 -0.038360 110631.000000 0 0 1
-36.929491 32.399918 -33.380421 59.395239 -0.720157 2.167604 0.088079 -0.035436 227594.000000 0 0 1
-36.855291 30.985218 -32.809921 58.265659 -0.699086 2.168940 0.073215 -0.031501 1091140.000000 0 0 1
-35.562593 30.842218 -32.173171 57.018008 -0.714433 2.170337 0.064132 -0.031024 655536.000000 0 0 1
-35.340531 29.487618 -31.905931 56.004117 -0.695359 2.176945 0.068351 -0.020617 344797.000000 0 0 1
-34.385539 29.325918 -30.682401 54.624028 -0.706150 2.167237 0.054747 -0.018473 161118.000000 0 0 1
-34.938161 29.672818 -29.443321 54.479907 -0.704085 2.141761 0.060136 -0.023213 -422468.000000 0 0 1
-34.779848 31.012518 -29.132161 54.955408 -0.728200 2.129521 0.057243 -0.023357 76758.700000 0 0 1
-35.895211 31.496218 -28.192681 55.455434 -0.720215 2.104104 0.066129 -0.025604 232015.000000 0 0 1
-35.655843 31.106018 -26.865701 54.412217 -0.717353 2.087186 0.064552 -0.043785 994115.000000 0 0 1
-36.935161 31.027418 -26.179011 54.883944 -0.698690 2.068021 0.106966 -0.044840 815565.000000 0 0 1
-36.816151 30.633818 -24.748371 53.910496 -0.693995 2.047738 0.094598 -0.048419 -687696.000000 0 0 1
-36.384641 31.667218 -23.853271 53.811089 -0.716188 2.030049 0.097522 -0.051652 120201.000000 0 0 1
-36.260731 31.208618 -22.489871 52.864096 -0.710658 2.010231 0.089769 -0.050470 -122139.000000 0 0 1
37.253149 30.836018 -21.707571 53.008261 0.691430 1.992716 0.070744 -0.043227 241678.000000 0 0 1
36.223679 31.816718 -21.535771 52.803862 0.720719 1.990888 0.074177 -0.047199 183417.000000 0 0 1
36.505019 33.160218 -20.967071 53.589500 0.737423 1.972789 0.076706 -0.052270 -593632.000000 0 0 1
36.864669 33.201518 -19.460071 53.292016 0.733164 1.944600 0.066283 -0.040597 777537.000000 0 0 1
-36.686151 32.574618 -19.146171 52.664554 -0.726105 1.942872 0.059846 -0.041237 467759.000000 0 0 1
-36.611241 32.380218 -17.754971 52.000966 -0.724148 1.919240 0.060115 -0.024712 -441941.000000 0 0 1
-35.420800 31.487918 -17.505971 50.523074 -0.726686 1.924628 0.084912 -0.032674 -483858.000000 0 0 1
-35.272875 31.249118 -16.176371 49.823268 -0.724984 1.901464 0.045731 -0.011298 -53284.600000 0 0 1
-34.076873 30.541718 -15.918071 48.450126 -0.730745 1.905559 0.080728 -0.019374 -116377.000000 0 0 1
-33.660931 30.485418 -14.422571 47.649024 -0.735934 1.878303 0.072376 -0.012445 -160984.000000 0 0 1
-34.499223 29.643318 -13.669971 47.495165 -0.709837 1.862744 0.058318 -0.005414 -19909.100000 0 0 1
-33.989031 29.368718 -12.397271 46.599014 -0.712603 1.840081 0.077814 -0.007888 -199319.000000 0 0 1
-34.818541 28.284118 -11.753271 46.373068 -0.682214 1.827042 0.078048 -0.018757 -278188.000000 0 0 1
-34.282517 27.927018 -10.547171 45.458245 -0.683589 1.804949 0.096861 -0.016658 357560.000000 0 0 1
-34.928881 26.728918 -10.043171 45.114599 -0.653183 1.795292 0.100698 -0.025912 159134.000000 0 0 1
-33.945271 26.033218 -9.134371 43.742960 -0.654241 1.781164 0.128176 -0.017597 -389491.000000 0 0 1
-33.704391 26.806118 -7.981171 43.797865 -0.671887 1.754048 0.105388 -0.021583 281261.000000 0 0 1
-32.564661 26.438518 -7.221271 42.562884 -0.681942 1.741282 0.111143 -0.027152 136583.000000 0 0 1
-32.329571 27.241818 -5.908171 42.687519 -0.700199 1.709647 0.100201 -0.028653 176329.000000 0 0 1
-31.174371 26.825218 -5.195571 41.453922 -0.710552 1.696460 0.104735 -0.021512 288626.000000 0 0 1
-31.189411 27.291818 -3.846071 41.622289 -0.718850 1.663332 0.094070 -0.014737 40237.300000 0 0 1
-30.332501 26.402818 -2.938171 40.321238 -0.716245 1.643730 0.094740 -0.015774 -246409.000000 0 0 1
-30.969991 25.167218 -2.710771 39.998468 -0.682396 1.638620 0.080152 -0.016997 91349.900000 0 0 1
-30.190751 24.193418 -1.993571 38.739866 -0.675565 1.622280 0.101650 -0.024393 431083.000000 0 0 1
-31.042951 22.978318 -1.463571 38.649837 -0.637206 1.608673 0.103540 -0.034778 59416.300000 0 0 1
-31.512921 22.162318 -2.511771 38.607531 -0.612922 1.635901 0.111487 -0.033339 68962.600000 0 0 1
-32.388841 21.189618 -1.934971 38.752819 -0.579340 1.620748 0.114444 -0.034697 11770.300000 0 0 1
-32.908691 20.256518 -3.069071 38.765031 -0.551766 1.650050 0.143855 -0.026285 -126214.000000 0 0 1
-31.912291 19.461918 -3.662171 37.557583 -0.547635 1.668460 0.136475 -0.025915 84665.300000 0 0 1
-32.416261 18.705818 -4.756171 37.727215 -0.523374 1.697200 0.130542 -0.021623 -265243.000000 0 0 1
-31.276721 17.876618 -5.313071 36.414769 -0.519247 1.717223 0.132178 -0.027250 -533694.000000 0 0 1
-30.981061 16.811418 -4.471771 35.530925 -0.497171 1.696987 0.178531 -0.030717 -515725.000000 0 0 1
-30.223221 15.866718 -5.104771 34.514555 -0.483435 1.719243 0.179505 -0.036360 -654993.000000 0 0 1
-29.793331 14.641618 -4.279871 33.471433 -0.456776 1.699014 0.191111 -0.036671 -1097450.000000 0 0 1
-30.842091 14.096418 -3.591071 34.100430 -0.428702 1.676301 0.196406 -0.037590 -553585.000000 0 0 1
-30.535901 12.718418 -3.310471 33.243926 -0.394655 1.670543 0.201074 -0.043000 -207547.000000 0 0 1
-31.632841 11.950718 -2.577971 33.913157 -0.361219 1.646887 0.195555 -0.046708 -806750.000000 0 0 1
-32.651731 11.513518 -3.391671 34.787929 -0.339003 1.668447 0.169122 -0.026429 124153.000000 0 0 1
-33.640131 10.723118 -2.668971 35.408573 -0.308577 1.646244 0.176184 -0.023669 914492.000000 0 0 1
-34.724114 10.122218 -3.625271 36.350598 -0.283644 1.670693 0.156999 -0.022322 98702.700000 0 0 1
-34.249817 9.096818 -4.495571 35.721313 -0.259608 1.696982 0.164572 -0.027757 751405.000000 0 0 1
-35.284148 8.452018 -5.257571 36.661284 -0.235111 1.714702 0.154789 -0.024715 597645.000000 0 0 1
-34.612110 7.540218 -6.351571 35.988824 -0.214498 1.748213 0.160936 -0.032931 76435.800000 0 0 1
-34.143414 6.325218 -5.833071 35.210876 -0.183178 1.737225 0.171421 -0.031920 663260.000000 0 0 1
-33.394561 5.584318 -6.823471 34.538979 -0.165689 1.769663 0.179275 -0.036274 375236.000000 0 0 1
-32.367511 4.518718 -6.343071 33.291277 -0.138710 1.762501 0.185051 -0.040195 296516.000000 0 0 1
-31.042161 4.931618 -6.053771 32.009135 -0.157552 1.761069 0.187664 -0.042486 512037.000000 0 0 1
-30.259961 3.783718 -5.767871 31.036270 -0.124395 1.757726 0.189955 -0.041560 -593458.000000 0 0 1
-28.764131 3.987018 -5.588371 29.571970 -0.137733 1.760915 0.206687 -0.042214 -384422.000000 0 0 1
-28.024451 4.211318 -6.766271 29.135673 -0.149157 1.805169 0.194039 -0.036011 743143.000000 0 0 1
-26.612561 4.298618 -6.593171 27.752052 -0.160143 1.810664 0.213117 -0.049458 836708.000000 0 0 1
-25.773131 4.722018 -7.849871 27.352736 -0.181205 1.861876 0.184724 -0.040702 122240.000000 0 0 1
-25.921111 3.799418 -8.953771 27.685909 -0.145540 1.900122 0.178773 -0.054715 625994.000000 0 0 1
-25.058641 4.093418 -10.059171 27.310775 -0.161923 1.948000 0.179672 -0.054163 60593.600000 0 0 1
-25.435631 3.356218 -11.384371 28.068477 -0.131192 1.988424 0.153670 -0.054517 514139.000000 0 0 1
-26.606781 3.878618 -12.028471 29.455875 -0.144756 1.991448 0.142430 -0.041289 631451.000000 0 0 1
-26.835221 3.223518 -13.253671 30.102822 -0.119550 2.026707 0.141764 -0.042810 348815.000000 0 0 1
-27.864731 4.011218 -14.131371 31.499662 -0.142971 2.036017 0.121447 -0.034869 85627.100000 0 0 1
-27.271311 5.100918 -14.886171 31.485581 -0.184907 2.063254 0.098071 -0.028226 215007.000000 0 0 1
-28.111931 5.962318 -15.599771 32.698360 -0.208995 2.068127 0.148610 -0.024041 -178581.000000 0 0 1
-28.992161 5.401018 -16.757371 33.919402 -0.184181 2.087521 0.085739 -0.003358 72168.300000 0 0 1
-30.138061 4.670218 -16.426771 34.640330 -0.153738 2.064862 0.099584 -0.014498 -279871.000000 0 0 1
-30.754901 3.983318 -17.494471 35.606000 -0.128801 2.084418 0.103315 -0.005944 544811.000000 0 0 1
-32.084151 3.296218 -17.004171 36.460932 -0.102377 2.055975 0.102011 -0.008169 369335.000000 0 0 1
-32.041361 2.256318 -16.049171 35.907042 -0.070303 2.034165 0.113598 -0.022689 38638.700000 0 0 1
-31.446491 1.041518 -16.471171 35.514307 -0.033108 2.053064 0.145727 -0.028277 65082.000000 0 0 1
-31.944101 -0.082982 -15.554571 35.529947 0.002598 2.023933 0.138566 -0.026952 -23426.300000 0 0 1
-31.268941 -1.279382 -15.837771 35.074470 0.040893 2.039295 0.152923 -0.016049 333244.000000 0 0 1
-31.783611 -2.315082 -14.986471 35.215789 0.072710 2.010378 0.168034 -0.029418 168914.000000 0 0 1
-31.702511 -3.716582 -15.653671 35.551365 0.116700 2.026742 0.160438 -0.030125 49221.400000 0 0 1
-32.634761 -3.827982 -16.711971 36.864224 0.116764 2.041304 0.176039 -0.037606 205707.000000 0 0 1
-32.355571 -4.919982 -17.572971 37.146985 0.150904 2.063564 0.176522 -0.035603 43709.400000 0 0 1
-33.257961 -4.976982 -18.838071 38.545236 0.148546 2.081426 0.196370 -0.034332 91373.300000 0 0 1
-33.213471 -6.144882 -19.640771 39.072421 0.182943 2.097488 0.189487 -0.036068 -367107.000000 0 0 1
-33.831121 -5.922682 -20.834971 40.171120 0.173310 2.116074 0.181491 -0.035388 -405500.000000 0 0 1
-33.652461 -7.104482 -21.851371 40.748548 0.208058 2.136783 0.173935 -0.033833 3992.870000 0 0 1
-32.320891 -7.235482 -22.306171 39.931910 0.220233 2.163499 0.161264 -0.034664 38944.600000 0 0 1
-32.204991 -8.140182 -23.363671 40.611391 0.247576 2.183765 0.142831 -0.022868 -59689.400000 0 0 1
-30.816671 -8.180182 -24.045471 39.934537 0.259463 2.216953 0.131614 -0.020433 -43238.800000 0 0 1
-30.643911 -6.951582 -24.733271 39.988854 0.223075 2.237634 0.132870 -0.018905 -34700.000000 0 0 1
-30.678711 -7.037582 -26.157131 40.925620 0.225495 2.264174 0.110681 -0.015968 -280567.000000 0 0 1
-32.029431 -6.858182 -26.887891 42.377798 0.210936 2.258133 0.117192 -0.016255 -323044.000000 0 0 1
-32.838261 -7.950582 -26.585861 42.992687 0.237542 2.237477 0.107366 -0.022982 132943.000000 0 0 1
-34.051449 -8.038882 -27.353081 44.410762 0.231836 2.234338 0.088560 -0.024043 1371650.000000 0 0 1
-35.054734 -9.125882 -26.798931 45.058837 0.254679 2.207756 0.079892 -0.025384 28222.900000 0 0 1
-34.542003 -10.400182 -27.056691 45.092996 0.292455 2.214322 0.084752 -0.018867 -212013.000000 0 0 1
-35.352734 -11.498882 -26.742261 45.795072 0.314468 2.194388 0.080389 -0.015976 294281.000000 0 0 1
-36.580931 -11.726482 -27.717951 47.370451 0.310213 2.195839 0.063854 -0.007456 730009.000000 0 0 1
37.190099 -10.772582 -27.472431 47.475114 -0.281946 2.187893 0.061908 -0.020471 643900.000000 0 0 1
36.196109 -10.871682 -28.521691 47.348059 -0.291782 2.217280 0.066880 -0.023155 540136.000000 0 0 1
35.198809 -9.688082 -28.542081 46.340754 -0.268588 2.234346 0.068751 -0.024086 368656.000000 0 0 1
34.200119 -9.809882 -27.516671 44.978318 -0.279338 2.229101 0.057641 -0.019133 315955.000000 0 0 1
33.387459 -8.668182 -27.355551 44.024834 -0.254016 2.241282 0.036361 -0.015303 -141081.000000 0 0 1
32.124469 -8.887482 -26.515781 42.591730 -0.269907 2.242802 0.022061 -0.007758 -322782.000000 0 0 1
32.324059 -9.202882 -25.162141 41.984178 -0.277368 2.213453 0.008412 0.000335 -205706.000000 0 0 1
31.118769 -9.335882 -24.442471 40.656745 -0.291464 2.215787 -0.000404 -0.001501 -29613.200000 0 0 1
31.405879 -9.540282 -22.903471 40.023933 -0.294915 2.180036 -0.011386 -0.000071 411160.000000 0 0 1
32.082229 -10.756082 -22.490871 40.630063 -0.323489 2.157420 -0.018832 -0.000770 333333.000000 0 0 1
32.413669 -10.675282 -21.157071 40.152575 -0.318157 2.125765 -0.017911 -0.001728 152837.000000 0 0 1
33.175349 -11.960382 -20.606271 40.844497 -0.346016 2.099605 0.003644 -0.000945 519945.000000 0 0 1
34.528269 -12.002982 -21.042271 42.178788 -0.334560 2.093106 0.019816 -0.004942 -369587.000000 0 0 1
35.252559 -12.828982 -20.152671 42.584691 -0.349018 2.063759 0.054777 -0.002317 872708.000000 0 0 1
36.782579 -12.719182 -20.561571 44.017200 -0.332923 2.056834 0.084992 -0.023885 497454.000000 0 0 1
37.385079 -11.447882 -20.472271 44.134024 -0.297149 2.053150 0.121323 -0.027042 246007.000000 0 0 1
37.142409 -10.544682 -21.549171 44.216690 -0.276620 2.079853 0.123380 -0.022374 -414546.000000 0 0 1
-36.933381 -10.828282 -22.941371 44.806616 0.285192 2.108318 0.091519 -0.023359 436125.000000 0 0 1
37.327519 -11.931082 -23.685971 45.789951 -0.309369 2.114459 0.079748 -0.014108 309618.000000 0 0 1
35.996389 -11.788382 -24.142071 44.917097 -0.316480 2.138243 0.090307 -0.011354 -18655.300000 0 0 1
35.620029 -13.098682 -24.914571 45.399315 -0.352385 2.151709 0.066904 -0.020153 -243977.000000 0 0 1
35.675959 -14.301082 -24.149871 45.392855 -0.381248 2.131780 0.055658 -0.025525 273147.000000 0 0 1
34.669299 -14.523582 -23.184371 44.163444 -0.396708 2.123473 0.032695 -0.016841 -237083.000000 0 0 1
-29.908271 8.558018 -18.918471 36.409516 -0.278695 2.117182 0.073599 0.009700 1194790.000000 0 0 1
-28.683801 7.798818 -19.075271 35.319229 -0.265472 2.141331 0.083550 0.012373 813254.000000 0 0 1
-28.019271 7.983018 -20.300071 35.509167 -0.277557 2.179355 0.099896 -0.005521 141507.000000 0 0 1
-26.753311 7.081018 -20.395471 34.378128 -0.258745 2.205910 0.090778 -0.013848 -424385.000000 0 0 1
-25.690461 7.604018 -19.684771 33.246219 -0.287770 2.204447 0.097384 -0.011903 -643660.000000 0 0 1
-24.627511 6.682918 -19.622671 32.190447 -0.264979 2.226328 0.103601 -0.022957 -260833.000000 0 0 1
-23.319211 7.133018 -18.985071 30.904667 -0.296848 2.232309 0.088463 -0.023370 -27883.400000 0 0 1
-22.658811 8.140318 -19.775871 31.157207 -0.344897 2.258433 0.088772 -0.019580 571280.000000 0 0 1
-21.421811 8.512318 -19.161371 29.975184 -0.378234 2.264307 0.087235 -0.015042 322511.000000 0 0 1
-20.565411 9.531618 -19.901771 30.164024 -0.434006 2.291329 0.087133 -0.009938 -145500.000000 0 0 1
-20.065611 9.075318 -21.147971 30.532389 -0.424750 2.335940 0.098511 -0.020565 -180173.000000 0 0 1
-19.371511 10.050318 -21.881671 30.904236 -0.478590 2.357526 0.107295 -0.019419 -337236.000000 0 0 1
-18.591711 9.369218 -23.006771 31.028139 -0.466799 2.406071 0.112702 -0.019564 -190942.000000 0 0 1
-19.339611 8.606918 -23.933171 31.951467 -0.418722 2.417420 0.105446 -0.017729 293368.000000 0 0 1
-18.442211 7.966618 -24.818671 31.930370 -0.407766 2.461119 0.098271 -0.010052 336625.000000 0 0 1
-19.257711 6.988718 -25.735771 32.894247 -0.348125 2.469273 0.065912 0.001741 416003.000000 0 0 1
-19.697511 5.866118 -24.952571 32.326986 -0.289447 2.452590 0.074137 -0.001596 110578.000000 0 0 1
-20.452611 4.977518 -25.731731 33.244653 -0.238727 2.455948 0.061309 0.000555 -944612.000000 0 0 1
-20.773311 3.629318 -25.021371 32.722643 -0.172965 2.441294 0.048668 0.008661 -357463.000000 0 0 1
-19.699811 2.746618 -24.867171 31.843408 -0.138531 2.466934 0.049038 0.010630 -182177.000000 0 0 1
-18.634811 3.258418 -24.091571 30.631311 -0.173106 2.475920 0.047422 0.002942 -934418.000000 0 0 1
-17.764911 2.078018 -23.631771 29.637321 -0.116444 2.493713 0.043916 -0.002191 -103467.000000 0 0 1
-18.441911 1.206918 -22.678271 29.255165 -0.065351 2.457810 0.044038 -0.000016 793077.000000 0 0 1
-19.552811 0.435318 -23.125771 30.287013 -0.022260 2.439595 0.034824 0.003868 102325.000000 0 0 1
-20.089811 -0.402282 -22.005771 29.799602 0.020022 2.401578 0.055482 0.003555 217570.000000 0 0 1
-19.186311 -1.488282 -21.752671 29.043212 0.077415 2.417312 0.063478 -0.006904 679149.000000 0 0 1
-19.601911 -2.164782 -20.593571 28.513441 0.109992 2.377833 0.076407 -0.006353 -77888.200000 0 0 1
-18.973711 -3.548282 -20.429771 28.106361 0.184875 2.384555 0.062092 -0.022713 -72354.600000 0 0 1
-19.291511 -4.405382 -21.498871 29.219364 0.224509 2.397606 0.063856 -0.028890 365741.000000 0 0 1
-19.398411 -5.742382 -21.041471 29.189326 0.287805 2.375841 0.074017 -0.027178 -150068.000000 0 0 1
-19.282511 -6.757382 -22.164971 30.145702 0.337068 2.396849 0.057342 -0.032533 -827487.000000 0 0 1
-17.960311 -6.922982 -22.560571 29.656025 0.367909 2.435251 0.068920 -0.030175 -533563.000000 0 0 1
-17.911211 -7.841282 -23.640971 30.678864 0.412651 2.450570 0.091456 -0.036734 142465.000000 0 0 1
-16.515711 -7.901782 -24.286271 30.414303 0.446252 2.495620 0.077596 -0.041655 -1184170.000000 0 0 1
-16.533511 -8.520082 -25.593231 31.637987 0.475830 2.513143 0.082058 -0.057660 36000.900000 0 0 1
-15.316411 -8.578782 -26.311761 31.630629 0.510567 2.553219 0.095129 -0.055970 519115.000000 0 0 1
-14.182511 -9.445382 -25.639541 30.785466 0.587533 2.555025 0.078839 -0.050854 -167716.000000 0 0 1
-13.684411 -8.902882 -24.403071 29.360420 0.576787 2.551979 0.072500 -0.042760 -252674.000000 0 0 1
-12.707611 -9.743382 -23.848271 28.725544 0.654126 2.550283 0.051643 -0.033308 173163.000000 0 0 1
-11.866511 -8.984682 -22.731971 27.171328 0.648059 2.561873 0.057338 -0.032950 203280.000000 0 0 1
-12.531811 -8.770782 -21.533271 26.413153 0.610646 2.523954 0.061444 -0.035010 -30474.800000 0 0 1
-11.720211 -7.937882 -20.719971 25.093635 0.595315 2.542249 0.065349 -0.029823 -928868.000000 0 0 1
-12.290811 -7.615082 -19.319471 24.130799 0.554689 2.499117 0.065950 -0.027104 625174.000000 0 1 0
-13.497811 -6.832182 -19.263671 24.494053 0.468571 2.475858 0.067835 -0.023427 230659.000000 0 1 0
-14.663711 -7.489582 -19.699971 25.675029 0.472216 2.445387 0.074406 -0.032750 -961851.000000 0 0 1
-15.816611 -6.479982 -19.520171 25.945952 0.388836 2.422403 0.077192 -0.019054 -442227.000000 0 0 1
-16.079711 -5.963982 -18.189371 24.999588 0.355172 2.385594 0.066577 -0.016448 -135686.000000 0 1 0
-15.266311 -4.939982 -17.747971 23.926014 0.312954 2.406525 0.069404 -0.016375 -968138.000000 0 1 0
-15.384711 -4.610182 -16.201171 22.812738 0.291145 2.360551 0.091665 -0.011741 293389.000000 0 1 0
-16.665011 -4.159782 -15.767371 23.316011 0.244613 2.313452 0.120417 -0.017092 465009.000000 0 1 0
-16.885911 -2.745682 -15.960771 23.396986 0.161191 2.321525 0.077748 -0.020487 -50732.100000 0 1 0
-17.995611 -2.327882 -14.966971 23.521719 0.128644 2.260494 0.066656 -0.024492 -230524.000000 0 1 0
-17.847611 -2.604782 -13.535371 22.550573 0.144923 2.214576 0.093679 -0.024871 687895.000000 0 1 0
-18.799311 -1.946182 -12.704671 22.773018 0.103157 2.162629 0.093792 -0.032435 230459.000000 0 1 0
-18.082311 -0.753382 -12.003371 21.716778 0.041640 2.156425 0.076617 -0.029546 175493.000000 0 1 0
-17.758311 0.334818 -12.853071 21.924213 -0.018852 2.197219 0.101128 -0.038544 685451.000000 0 1 0
-16.943211 1.290118 -12.197971 20.917153 -0.075997 2.193405 0.098845 -0.030902 -1099130.000000 0 1 0
-16.560011 2.431918 -13.204771 21.319337 -0.145813 2.238749 0.111987 -0.031797 111505.000000 0 1 0
-15.839011 1.967618 -14.343871 21.459087 -0.123593 2.302891 0.101626 -0.030531 397631.000000 0 1 0
-14.519711 1.587018 -13.988071 20.223915 -0.108869 2.334581 0.091636 -0.028785 -753281.000000 0 1 0
-13.836511 0.621618 -15.030371 20.438872 -0.044896 2.397026 0.080076 -0.031587 131871.000000 0 1 0
-13.588911 1.230718 -16.268771 21.233136 -0.090321 2.443699 0.086220 -0.037129 280515.000000 0 1 0
-13.104911 0.261418 -17.181971 21.610811 -0.019945 2.489909 0.055388 -0.025525 79791.800000 0 1 0
-12.627611 0.767718 -18.589471 22.485870 -0.060722 2.544045 0.078071 -0.027264 819018.000000 0 1 0
-11.292011 1.288018 -18.425371 21.648621 -0.113574 2.588893 0.049398 -0.016968 315498.000000 0 1 0
-10.943911 1.868218 -19.594171 22.520900 -0.169079 2.626088 0.059454 -0.012135 709402.000000 0 1 0
-9.477211 2.413318 -19.495371 21.810802 -0.249345 2.676634 0.043095 -0.009401 -492377.000000 0 1 0
-8.469111 1.473618 -19.379371 21.200410 -0.172274 2.724088 0.053682 -0.012961 -241043.000000 0 1 0
-7.158811 1.983218 -19.161271 20.550815 -0.270254 2.771752 0.043863 -0.010417 925635.000000 0 1 0
-6.542311 3.071818 -20.125571 21.384024 -0.438977 2.796813 0.042941 -0.006423 -993188.000000 0 1 0
-6.285711 2.503818 -21.380471 22.425516 -0.379070 2.835105 0.036556 -0.011115 121194.000000 0 1 0
-6.108511 3.541318 -22.326771 23.416650 -0.525385 2.835297 0.037066 -0.001384 -294368.000000 0 1 0
-5.561411 3.122318 -23.690471 24.533988 -0.511573 2.878608 0.058265 -0.018437 699129.000000 0 1 0
-4.212411 2.633918 -23.589871 24.107342 -0.558797 2.934023 0.071461 -0.024749 821989.000000 0 1 0
-3.708411 2.070418 -24.816471 25.177294 -0.509196 2.972089 0.110977 -0.029176 713543.000000 0 0 1
-2.284011 1.438718 -24.733471 24.880337 -0.562121 3.032884 0.084030 -0.026613 -36831.500000 0 1 0
-1.195311 2.318718 -24.598671 24.736609 -1.094822 3.035938 0.072825 -0.020637 601888.000000 0 1 0
0.082289 1.664818 -24.616971 24.673338 1.521408 3.073984 0.071187 -0.015227 781714.000000 0 1 0
0.549889 0.691118 -23.489171 23.505769 0.898712 3.104011 0.067659 -0.026002 -512444.000000 0 1 0
-0.089011 -0.573282 -23.577371 23.584507 1.416761 3.116991 0.062302 -0.028421 220965.000000 0 1 0
0.656389 -1.431682 -22.723171 22.777687 -1.140918 3.072392 0.058379 -0.019081 -98761.700000 0 1 0
0.030489 -2.855582 -22.652971 22.832266 -1.560120 3.016189 0.067640 -0.030998 745004.000000 0 1 0
-1.185411 -3.068482 -21.908071 22.153653 1.202140 2.992556 0.054469 -0.029610 678974.000000 0 1 0
-2.363111 -2.920482 -22.709971 23.018607 0.890500 2.977652 0.075884 -0.030457 296227.000000 0 1 0
-3.000011 -1.495382 -22.626971 22.873916 0.462414 2.994518 0.079946 -0.032565 -2281760.000000 0 1 0
-3.761711 -1.284482 -21.498371 21.862761 0.329049 2.958761 0.063044 -0.024161 -659276.000000 0 1 0
-4.554111 -0.172082 -21.689471 22.163093 0.037768 2.934487 0.051005 -0.016261 -404261.000000 0 1 0
-5.845711 -0.441282 -22.475571 23.227534 0.075345 2.886446 0.058162 -0.013681 -1255760.000000 0 1 0
-6.665511 -1.486882 -21.948071 22.986032 0.219478 2.839930 0.063509 -0.008413 -718128.000000 0 1 0
-7.978111 -1.042982 -21.937371 23.366350 0.129993 2.790056 0.056461 -0.013445 -724306.000000 0 1 0
-8.998011 -2.151582 -21.592971 23.491485 0.234710 2.736797 0.053301 -0.014708 -75119.600000 0 1 0
-8.997511 -3.202282 -22.550071 24.489089 0.341928 2.740977 0.083025 -0.022821 -59918.400000 0 1 0
-9.479811 -4.412682 -22.009271 24.366915 0.435654 2.698066 0.064023 -0.024292 -222418.000000 0 1 0
-10.443411 -5.205982 -22.918271 25.717974 0.462442 2.670644 0.061438 -0.030890 1248390.000000 0 0 1
-11.794211 -4.694982 -22.795871 26.092106 0.378846 2.633490 0.059271 -0.035851 1555020.000000 0 0 1
-12.759111 -5.371182 -23.628171 27.384940 0.398451 2.611611 0.051178 -0.039971 1927530.000000 0 0 1
-14.314911 -5.250682 -23.369471 27.903736 0.351561 2.563494 0.050119 -0.039170 1318790.000000 0 0 1
-14.900211 -3.943182 -23.555171 28.149796 0.258709 2.562171 0.055765 -0.037171 257219.000000 0 0 1
-16.307311 -4.137182 -23.647871 29.021827 0.248459 2.523233 0.071025 -0.035315 172208.000000 0 0 1
-16.918111 -2.789482 -24.055771 29.541222 0.163411 2.522339 0.054265 -0.025369 -358027.000000 0 0 1
-16.635511 -2.454682 -25.418191 30.477042 0.146500 2.557134 0.039795 -0.030253 85994.300000 0 0 1
-16.979611 -1.147182 -25.770501 30.882712 0.067460 2.557955 0.031417 -0.016972 -700938.000000 0 0 1
-18.345811 -1.054782 -26.438311 32.197292 0.057431 2.534192 0.035618 -0.006520 -560379.000000 0 0 1
-18.728611 -1.570782 -27.718401 33.489371 0.083675 2.545753 0.041239 -0.021736 19231.600000 0 0 1
-18.272011 -0.722482 -28.734731 34.059846 0.039520 2.574850 0.029058 -0.014577 -76302.800000 0 0 1
-18.208811 -1.448882 -30.123341 35.228904 0.079403 2.596491 0.039886 -0.014334 -676181.000000 0 0 1
-19.491411 -1.786382 -30.504731 36.244239 0.091394 2.571116 0.044844 -0.016434 -661742.000000 0 0 1
-19.494011 -2.468082 -31.740011 37.330097 0.125937 2.587261 0.058158 -0.022245 -120618.000000 0 0 1
-20.902011 -3.046882 -32.150041 38.468203 0.144750 2.560305 0.041953 -0.023092 294026.000000 0 0 1
-21.838411 -2.079082 -32.452721 39.171646 0.094917 2.547175 0.046993 -0.023674 -535103.000000 0 0 1
-22.546511 -1.589982 -31.393501 38.683654 0.070404 2.517587 0.039810 -0.005430 -945070.000000 0 0 1
-23.608211 -0.525482 -31.812391 39.618833 0.022255 2.503043 0.058034 -0.001231 53691.900000 0 0 1
-23.155011 0.710118 -32.237201 39.697555 -0.030658 2.518487 0.045230 -0.004065 507425.000000 0 0 1
-24.255311 1.352818 -32.880651 40.881382 -0.055716 2.505283 0.044515 -0.008297 485053.000000 0 0 1
-23.931211 2.822518 -33.291591 41.097439 -0.117401 2.515059 0.045038 -0.007109 -500649.000000 0 0 1
-23.584911 3.735718 -32.183561 40.074745 -0.157089 2.503257 0.035650 -0.003576 429083.000000 0 0 1
-24.518811 4.061518 -31.157631 39.855564 -0.164158 2.468285 0.030112 -0.003252 -319621.000000 0 0 1
-25.743341 4.888918 -31.605401 41.055115 -0.187675 2.449369 0.038389 -0.011077 -103489.000000 0 0 1
-26.598751 4.136518 -32.465011 42.173229 -0.154280 2.449326 0.061979 -0.022644 154896.000000 0 0 1
-27.786591 4.871118 -32.726441 43.206971 -0.173541 2.430171 0.076522 -0.024443 139735.000000 0 0 1
-28.820671 4.055418 -33.537811 44.405655 -0.139794 2.426847 0.095356 -0.023244 -102316.000000 0 0 1
-28.522941 3.904818 32.846787 43.677422 -0.136055 0.719658 0.116353 -0.022038 728586.000000 0 0 1
-29.566141 3.140018 32.212613 43.836843 -0.105807 0.745381 0.112572 -0.026294 476880.000000 0 0 1
-29.429351 1.565118 32.284996 43.713353 -0.053132 0.739862 0.114681 -0.007748 -123670.000000 0 0 1
-29.751501 1.005318 33.574189 44.870799 -0.033778 0.725389 0.127799 -0.002979 333052.000000 0 0 1
-30.205031 -0.337282 33.390282 45.026310 0.011166 0.735385 0.123255 -0.004573 -576160.000000 0 0 1
-29.893911 -1.290682 -33.175181 44.675545 0.043149 2.407711 0.076461 -0.005349 25490.100000 0 0 1
-28.522341 -1.598882 -32.973181 43.626952 0.055999 2.427669 0.095381 -0.015172 675390.000000 0 0 1
-27.725491 -0.575682 -32.411071 42.655735 0.020761 2.433847 0.088274 -0.005096 -666276.000000 0 0 1
-27.992731 -0.334682 -30.889521 41.687738 0.011955 2.405316 0.099265 -0.002414 -537056.000000 0 0 1
-27.160571 -1.113082 -30.047301 40.518833 0.040959 2.406195 0.086714 -0.008121 546749.000000 0 0 1
-27.346001 -0.710682 -28.719191 39.662334 0.025983 2.380514 0.089153 -0.012233 395513.000000 0 0 1
-26.217721 -1.259482 -27.758151 38.203012 0.048002 2.384151 0.070298 -0.007200 546062.000000 0 0 1
-26.331741 -2.667582 -27.451401 38.132086 0.100962 2.374459 0.064699 -0.008563 -432414.000000 0 0 1
-25.256881 -2.980482 -26.659811 36.844793 0.117464 2.379758 0.070456 -0.009190 -740083.000000 0 0 1
-25.563051 -4.235882 -25.823341 36.582198 0.164211 2.354488 0.078362 -0.024227 33561.300000 0 0 1
-26.589421 -4.059182 -24.881071 36.640714 0.151492 2.317271 0.088832 -0.019544 -141972.000000 0 0 1
-26.892871 -5.229982 -24.206871 36.558881 0.192077 2.294459 0.085532 -0.021212 -136582.000000 0 0 1
-27.895751 -4.944182 -23.099771 36.554305 0.175416 2.254838 0.090316 -0.022090 -131783.000000 0 0 1
-27.986741 -6.104382 -22.241671 36.265866 0.214753 2.231022 0.106959 -0.026972 1002760.000000 0 0 1
-29.155531 -6.049182 -21.369971 36.651238 0.204577 2.193290 0.140376 -0.024121 977843.000000 0 0 1
-29.522181 -7.348182 -20.662771 36.776419 0.243947 2.167415 0.150807 -0.040654 -628147.000000 0 0 1
-28.652051 -7.759782 -19.673571 35.611847 0.264484 2.156090 0.141045 -0.042866 -59901.300000 0 0 1
-29.225891 -8.774682 -18.784771 35.833160 0.291674 2.122605 0.147085 -0.035264 487803.000000 0 0 1
-29.947331 -8.233782 -17.501571 35.650284 0.268312 2.083946 0.159126 -0.047587 470616.000000 0 0 1
-29.045981 -7.655282 -16.553871 34.297274 0.257697 2.074484 0.150527 -0.047150 142214.000000 0 0 1
-29.703791 -6.879182 -15.595071 34.246818 0.227581 2.043587 0.156602 -0.044412 -898412.000000 0 0 1
-28.887401 -6.195482 -14.513771 32.916796 0.211270 2.027423 0.165632 -0.046477 -200378.000000 0 0 1
-28.012931 -5.219682 -15.098971 32.248229 0.184219 2.058061 0.164251 -0.039660 174157.000000 0 0 1
-26.931671 -5.014382 -14.230571 30.870181 0.184081 2.049897 0.149761 -0.055203 -335740.000000 0 0 1
-14.274811 20.793718 -4.927371 25.698792 -0.969191 1.763726 0.111517 -0.037240 -46400.600000 0 0 1
-14.469911 20.271918 -6.239071 25.675961 -0.950875 1.816246 0.140903 -0.039154 -16491.900000 0 0 1
-15.345811 19.184918 -6.197871 25.337099 -0.896123 1.817920 0.112558 -0.049199 -274993.000000 0 0 1
-15.559511 18.540518 -7.586671 25.365463 -0.872596 1.874540 0.140770 -0.051984 -624335.000000 0 0 1
-14.342011 18.062018 -8.081071 24.438360 -0.899699 1.907811 0.127161 -0.039400 -190971.000000 0 1 0
-14.404211 16.970518 -8.997671 24.009120 -0.867012 1.954935 0.102861 -0.043941 -184943.000000 0 1 0
-14.936711 15.597018 -8.432671 23.183663 -0.807020 1.943069 0.095433 -0.048094 -1184370.000000 0 1 0
-16.294011 15.552618 -8.232871 23.982470 -0.762122 1.921211 0.092295 -0.037157 -1076730.000000 0 1 0
-16.617111 14.855618 -7.031471 23.372191 -0.729488 1.876378 0.085718 -0.024664 -1370420.000000 0 1 0
-17.975111 15.157918 -6.498871 24.394721 -0.700575 1.840457 0.110801 -0.031287 -1268820.000000 0 1 0
-18.965011 14.606318 -7.338871 25.037475 -0.656287 1.868280 0.108477 -0.039038 -388742.000000 0 0 1
-20.217711 15.144918 -7.006271 26.214732 -0.642919 1.841350 0.093186 -0.028658 -304783.000000 0 0 1
-21.410411 14.723318 -7.872871 27.150762 -0.602403 1.864990 0.103759 -0.013587 -191033.000000 0 0 1
-21.790211 13.386618 -7.619071 26.684547 -0.550898 1.860349 0.137540 -0.032317 233438.000000 0 0 1
-22.733411 12.929818 -8.584771 27.526105 -0.517131 1.887965 0.153164 -0.038753 426026.000000 0 0 1
-23.248211 11.479518 -8.236071 27.204622 -0.458660 1.878368 0.158710 -0.031069 -356753.000000 0 0 1
-22.198011 10.587318 -8.301371 25.956805 -0.445037 1.896330 0.162365 -0.030348 -649496.000000 0 0 1
-22.535811 9.456118 -7.615671 25.598425 -0.397291 1.872875 0.167516 -0.041693 -448578.000000 0 0 1
-21.362811 8.600518 -7.147271 24.112695 -0.382740 1.871729 0.145604 -0.027182 -548703.000000 0 1 0
-21.030911 7.501618 -7.944771 23.700060 -0.342627 1.912637 0.142366 -0.034343 222213.000000 0 1 0
-20.037911 6.728718 -7.331271 22.372774 -0.323968 1.904651 0.116032 -0.024471 -739366.000000 0 1 0
-19.556911 5.533618 -8.094771 21.877363 -0.275742 1.949813 0.086587 -0.037475 -790930.000000 0 1 0
-20.465511 4.479718 -8.164071 22.484596 -0.215492 1.942385 0.109164 -0.040305 42652.300000 0 1 0
-20.168911 3.518718 -9.160571 22.429498 -0.172724 1.991515 0.097770 -0.035372 -262377.000000 0 1 0
-21.097311 2.227218 -9.209271 23.127207 -0.105179 1.980351 0.091288 -0.032836 311943.000000 0 1 0
-21.015111 1.371718 -8.120671 22.571260 -0.065180 1.938828 0.100558 -0.030754 -75898.800000 0 1 0
-21.948611 0.311118 -8.031971 23.374149 -0.014174 1.921572 0.114595 -0.031247 -235387.000000 0 1 0
-21.837911 -0.913982 -8.999571 23.637301 0.041829 1.961388 0.101523 -0.045089 175061.000000 0 1 0
-20.683911 -1.697182 -8.691671 22.499994 0.081870 1.967409 0.070291 -0.028797 677230.000000 0 1 0
-20.574911 -2.941982 -9.369171 22.798324 0.142026 1.994302 0.053851 -0.022087 197845.000000 0 1 0
-21.515811 -4.021482 -8.715171 23.559640 0.184776 1.949719 0.065018 -0.026866 497593.000000 0 1 0
-21.103911 -4.287782 -7.336371 22.750439 0.200446 1.899136 0.056547 -0.025237 693554.000000 0 1 0
-22.107111 -4.954782 -6.581171 23.592075 0.220483 1.853504 0.100281 -0.033227 -296584.000000 0 1 0
-22.277811 -6.468282 -6.902071 24.202853 0.282577 1.859986 0.105453 -0.041284 -600356.000000 0 1 0
-21.199111 -7.283182 -6.574671 23.359652 0.330927 1.856105 0.071687 -0.034376 107751.000000 0 1 0
-21.581811 -8.652582 -6.605671 24.171815 0.381299 1.847597 0.093704 -0.033570 -199440.000000 0 1 0
-20.563111 -9.592382 -5.930571 23.452654 0.436478 1.826446 0.092111 -0.030360 748532.000000 0 1 0
-19.316511 -9.661482 -6.656471 22.600452 0.463781 1.869758 0.084249 -0.025813 632366.000000 0 1 0
-18.271411 -10.034782 -5.792771 21.635561 0.502234 1.841846 0.074142 -0.023585 307023.000000 0 1 0
-17.466311 -11.363082 -6.230971 21.748946 0.576777 1.861363 0.066423 -0.022704 -232998.000000 0 1 0
-16.536911 -11.179782 -7.238571 21.233319 0.594471 1.918677 0.082936 -0.028777 -94021.400000 0 1 0
-17.075611 -10.868482 -8.535971 21.967321 0.566820 1.969882 0.094034 -0.031285 -210208.000000 0 1 0
-16.056011 -10.989382 -9.705071 21.742824 0.600207 2.033487 0.096257 -0.023586 294458.000000 0 1 0
-15.895911 -12.325982 -10.066571 22.493236 0.659571 2.034806 0.096049 -0.026551 747216.000000 0 1 0
-14.835211 -12.502082 -11.027771 22.315852 0.700258 2.087673 0.097081 -0.012912 583916.000000 0 1 0
-15.013011 -13.842982 -11.764471 23.567380 0.744873 2.093454 0.108403 -0.014260 573376.000000 0 1 0
-16.037711 -13.824582 -12.780271 24.731813 0.711422 2.113852 0.116648 -0.019775 585855.000000 0 1 0
-16.343511 -15.101582 -13.229371 25.887920 0.745924 2.107173 0.104542 -0.015704 -253719.000000 0 0 1
-17.056011 -15.044482 -14.553671 27.000987 0.722817 2.140052 0.125876 -0.012635 -292776.000000 0 0 1
-17.285811 -16.298782 -15.160771 28.183302 0.756017 2.138781 0.113853 -0.006156 300793.000000 0 0 1
-17.519411 -16.241682 -16.561471 29.068958 0.747570 2.176974 0.109959 -0.010338 -367809.000000 0 0 1
-17.781411 -17.684082 -17.145671 30.378929 0.782654 2.170495 0.102527 -0.017568 -92217.000000 0 0 1
-19.115011 -18.115682 -17.043271 31.369327 0.758563 2.145171 0.072161 -0.019063 -397893.000000 0 0 1
-19.891911 -17.890482 -18.219671 32.368408 0.732475 2.168668 0.077365 -0.024743 -359978.000000 0 0 1
-21.379811 -17.973582 -17.850671 33.148038 0.699058 2.139468 0.072580 -0.026085 -468590.000000 0 0 1
-21.873011 -16.778282 -17.291271 32.541165 0.654341 2.131009 0.064538 -0.016012 227732.000000 0 0 1
-21.747011 -16.731982 -15.863071 31.694301 0.655797 2.094975 0.062817 -0.021918 -370384.000000 0 0 1
-21.675511 -15.223982 -15.301071 30.589543 0.612307 2.094633 0.066469 -0.028972 1332550.000000 0 0 1
-23.004411 -14.632082 -15.159271 31.194619 0.566510 2.078255 0.076861 -0.029439 1597780.000000 0 0 1
-22.967211 -13.264782 -14.841171 30.392558 0.523751 2.080955 0.088713 -0.032223 -122920.000000 0 0 1
-24.326511 -12.642282 -14.454971 30.992783 0.479276 2.056011 0.104758 -0.038058 -89696.700000 0 0 1
-24.862211 -13.145182 -13.204971 31.069223 0.486360 2.009778 0.114588 -0.037566 679767.000000 0 0 1
-25.957751 -12.320382 -12.795971 31.453672 0.443148 1.989766 0.127900 -0.034058 312575.000000 0 0 1
-26.872291 -12.950082 -11.693571 32.040041 0.449073 1.944394 0.136508 -0.034758 309894.000000 0 0 1
-27.844801 -12.010582 -11.231371 32.337760 0.407229 1.925502 0.132064 -0.041992 292457.000000 0 0 1
-28.433441 -12.508882 -10.061571 32.652226 0.414453 1.884037 0.120938 -0.031134 452317.000000 0 0 1
-29.280161 -11.454582 -9.216871 32.764096 0.372903 1.855955 0.121255 -0.033777 366325.000000 0 0 1
-28.461311 -10.421282 -8.749871 31.546942 0.350995 1.851842 0.133852 -0.038157 570961.000000 0 0 1
-29.264521 -9.534882 -7.911471 31.779200 0.314971 1.822394 0.159885 -0.043378 594022.000000 0 0 1
-28.509771 -8.321782 -7.333271 30.591436 0.284002 1.812870 0.170369 -0.046119 -508533.000000 0 0 1
-27.650711 -8.502082 -6.272771 29.600589 0.298306 1.784329 0.159339 -0.052844 -359087.000000 0 0 1
-26.995651 -7.373182 -5.766671 28.572425 0.266622 1.774019 0.161571 -0.042645 -212648.000000 0 0 1
-27.889851 -6.476782 -4.923171 29.052196 0.228183 1.741078 0.191640 -0.052568 -776526.000000 0 0 1
-28.274061 -6.963082 -3.626271 29.343770 0.241466 1.694692 0.184073 -0.054218 468346.000000 0 0 1
-27.302451 -6.959082 -2.556471 28.291133 0.249574 1.661283 0.180299 -0.041870 320781.000000 0 0 1
-26.910811 -5.586182 -1.921171 27.551553 0.204675 1.640583 0.191148 -0.038914 635469.000000 0 0 1
-27.997211 -4.985082 -1.178071 28.461952 0.176210 1.612199 0.204927 -0.043777 1046150.000000 0 0 1
-27.634131 -3.708582 -0.691371 27.890442 0.133406 1.595588 0.202866 -0.045733 345067.000000 0 0 1
-28.939841 -2.852182 -0.437671 29.083344 0.098238 1.585846 0.200250 -0.049239 1036750.000000 0 0 1
-29.840031 -3.287782 0.578029 30.026173 0.109738 1.551544 0.191578 -0.032106 426533.000000 0 0 1
-29.324101 -3.213382 1.949729 29.564001 0.109146 1.504799 0.188648 -0.036502 -99213.700000 0 0 1
-30.227671 -3.674182 3.151129 30.612764 0.120957 1.467679 0.158095 -0.033175 122864.000000 0 0 1
-30.525941 -5.041282 3.167729 31.101159 0.163670 1.468767 0.170323 -0.033191 285550.000000 0 0 1
-31.668111 -5.333282 3.960629 32.357375 0.166846 1.448086 0.176486 -0.036856 -239630.000000 0 0 1
-32.078161 -6.792082 3.815029 33.010532 0.208654 1.454967 0.178220 -0.031109 -80773.100000 0 0 1
-31.163241 -7.776782 4.250029 32.398899 0.244555 1.439239 0.171085 -0.021314 303917.000000 0 0 1
-31.805841 -9.026982 4.048829 33.309022 0.276543 1.448941 0.185525 -0.026433 415160.000000 0 0 1
-31.001781 -10.305182 4.541629 32.983838 0.320916 1.432665 0.172390 -0.022632 266779.000000 0 0 1
-30.981241 -10.418782 5.920829 33.218135 0.324412 1.391598 0.152012 -0.025055 -124787.000000 0 0 1
-30.074981 -11.375882 6.369829 32.779413 0.361618 1.375228 0.159100 -0.032697 -295628.000000 0 0 1
-30.225361 -11.748982 7.865129 33.368717 0.370738 1.332854 0.148070 -0.032923 -27201.800000 0 0 1
-29.931311 -10.574182 8.621029 32.894055 0.339595 1.305615 0.161623 -0.024874 329820.000000 0 0 1
-29.992111 -10.776982 10.043229 33.414615 0.344960 1.265512 0.170263 -0.025729 -247219.000000 0 0 1
-30.115241 -9.416882 10.790629 33.347310 0.303062 1.241282 0.161393 -0.029026 -86678.100000 0 0 1
-29.008151 -8.578582 10.539929 32.033654 0.287535 1.235524 0.158883 -0.032636 141312.000000 0 0 1
-28.964751 -7.399682 11.383029 31.988833 0.250122 1.206979 0.160215 -0.031787 91123.400000 0 0 1
-27.739251 -6.454182 11.227229 30.613284 0.228606 1.195290 0.168805 -0.026410 -111452.000000 0 0 1
-27.721911 -5.659182 10.078729 30.035170 0.201374 1.228592 0.191523 -0.024519 217215.000000 0 0 1
-27.243821 -4.350582 10.285929 29.444077 0.158354 1.213932 0.170979 -0.026599 -337754.000000 0 0 1
-27.371131 -3.499782 9.010029 29.027709 0.127174 1.255189 0.189113 -0.029452 -163190.000000 0 0 1
-26.458611 -3.931482 8.025829 27.927201 0.147511 1.279302 0.150660 -0.021384 171591.000000 0 0 1
-26.735511 -3.467682 6.696429 27.778670 0.128983 1.327335 0.164705 -0.037043 84991.200000 0 0 1
-25.785131 -4.104882 5.616029 26.706981 0.157871 1.358932 0.164416 -0.027368 712537.000000 0 0 1
-24.430811 -3.652082 5.693929 25.350011 0.148388 1.344251 0.170724 -0.048854 1024650.000000 0 0 1
-23.678611 -4.058982 4.531829 24.447687 0.169770 1.384350 0.162506 -0.033858 912726.000000 0 1 0
-22.177111 -3.616482 4.617929 22.939670 0.161650 1.368104 0.145751 -0.029919 673352.000000 0 1 0
-22.011511 -2.209582 4.599829 22.595294 0.100048 1.365789 0.127263 -0.032209 -184942.000000 0 1 0
-20.641311 -1.933482 4.586929 21.233040 0.093398 1.353052 0.093933 -0.030448 -826702.000000 0 1 0
-20.271811 -0.443182 4.864629 20.852034 0.021859 1.335334 0.064114 -0.035131 -995660.000000 0 1 0
-20.640611 0.459618 3.812729 20.994832 -0.022264 1.388180 0.079945 -0.029826 705407.000000 0 1 0
-22.014911 0.801718 3.737429 22.344293 -0.036401 1.402741 0.099528 -0.046082 39933.600000 0 1 0
-22.249511 1.843918 2.633129 22.480528 -0.082686 1.453397 0.127762 -0.031246 -95526.100000 0 1 0
-21.849911 3.126418 3.224829 22.306784 -0.142121 1.425721 0.113203 -0.040912 404167.000000 0 1 0
-22.003411 4.181918 2.299529 22.515025 -0.187818 1.468485 0.125833 -0.022135 435318.000000 0 1 0
-20.721411 4.360518 1.421729 21.222919 -0.207409 1.503756 0.084908 -0.011802 96881.900000 0 1 0
-20.794711 5.193118 0.226829 21.434550 -0.244727 1.560214 0.085286 -0.006838 531581.000000 0 1 0
-21.676711 4.675918 -0.782171 22.189092 -0.212456 1.606054 0.113600 -0.017145 103627.000000 0 1 0
-21.115511 3.553118 -1.693271 21.479213 -0.166709 1.649711 0.095244 -0.017368 -368843.000000 0 1 0
-20.866511 2.332618 -0.964071 21.018606 -0.111325 1.616680 0.056615 -0.015947 361106.000000 0 1 0
-20.473711 1.239918 -1.750971 20.585823 -0.060488 1.655956 0.053418 -0.015081 -297064.000000 0 1 0
-19.706711 0.266418 -0.810371 19.725165 -0.013518 1.611891 0.059445 -0.014065 765638.000000 0 1 0
-20.709711 -0.416882 0.003829 20.713907 0.020127 1.570611 0.096828 -0.020766 1809760.000000 0 1 0
-20.067811 -1.208182 0.977729 20.127908 0.060132 1.522201 0.086164 -0.018443 -5943.100000 0 1 0
-19.205911 -2.399582 0.550529 19.363060 0.124296 1.542361 0.059064 -0.011718 105759.000000 0 1 0
-18.495311 -3.128882 1.535429 18.820839 0.167585 1.489124 0.055470 -0.011694 1246820.000000 0 1 0
-17.622111 -4.184382 1.063229 18.143271 0.233133 1.512161 0.030833 -0.008119 340257.000000 0 1 0
-18.433911 -5.420182 0.719529 19.227719 0.285974 1.533366 0.031894 -0.006402 -176922.000000 0 1 0
-18.952911 -6.055382 1.894829 19.986767 0.309246 1.475850 0.041984 -0.011646 -18029.900000 0 1 0
-19.963611 -6.931682 1.559029 21.190199 0.334192 1.497157 0.071825 -0.014821 -564448.000000 0 1 0
-20.851811 -7.126582 2.833229 22.217412 0.329327 1.442925 0.104605 -0.019190 52610.800000 0 1 0
-20.137011 -7.991182 3.735829 21.984418 0.377780 1.400037 0.089639 -0.015797 1100040.000000 0 1 0
-20.819711 -8.381382 4.921529 22.976714 0.382720 1.354927 0.087234 -0.017412 381158.000000 0 1 0
-19.887411 -9.278882 5.833329 22.707587 0.436548 1.310995 0.070022 -0.013448 354336.000000 0 1 0
-19.497811 -10.545182 5.301029 22.791806 0.495783 1.336062 0.087035 -0.009372 321774.000000 0 1 0
-18.505711 -11.204782 6.049129 22.463313 0.544437 1.298141 0.077799 -0.017090 -680033.000000 0 1 0
-18.205111 -12.608982 5.491029 22.815869 0.605747 1.327743 0.075918 -0.009697 -699132.000000 0 1 0
-19.022411 -13.708282 5.731029 24.137395 0.624443 1.331073 0.101849 -0.012629 -357460.000000 0 1 0
-18.642311 -14.897082 5.067029 24.395360 0.674192 1.361568 0.105720 -0.009517 67320.100000 0 1 0
-19.520211 -16.097482 5.422329 25.876036 0.689596 1.359681 0.122264 -0.018996 344055.000000 0 0 1
-18.738111 -17.218982 5.053829 25.945160 0.743175 1.374754 0.115455 -0.021152 744462.000000 0 0 1
-19.477411 -18.425382 5.278329 27.326270 0.757649 1.376415 0.112413 -0.017513 -89710.100000 0 0 1
-18.663311 -19.649782 4.963529 27.551220 0.811140 1.389651 0.115265 -0.032557 -1136930.000000 0 0 1
-18.458211 -19.788282 3.584729 27.297105 0.820160 1.439093 0.113065 -0.028364 -97235.200000 0 0 1
-17.649711 -20.827482 3.192229 27.486117 0.867800 1.454394 0.098892 -0.022195 1245560.000000 0 0 1
-16.115411 -20.829882 3.657829 26.588911 0.912319 1.432789 0.097275 -0.024313 934759.000000 0 0 1
-15.532811 -22.060382 3.329729 27.184845 0.957321 1.448003 0.080958 -0.023785 1408920.000000 0 0 1
-14.154911 -22.122382 3.848829 26.543828 1.001593 1.425284 0.075360 -0.021487 1883860.000000 0 0 1
-13.597011 -23.569682 3.958429 27.496869 1.047546 1.426335 0.077912 -0.017082 -160273.000000 0 0 1
-13.370511 -24.265782 2.821229 27.848844 1.067184 1.469317 0.077987 -0.020690 39987.800000 0 0 1
-12.894511 -25.582002 3.037129 28.808530 1.103917 1.465175 0.066862 -0.019834 26091.200000 0 0 1
19.732889 18.647418 -24.297071 36.434335 0.757124 2.300801 0.080333 -0.013493 -144177.000000 0 0 1
18.846889 19.154718 -25.254661 36.876908 0.793498 2.325176 0.063316 -0.022614 -272187.000000 0 0 1
19.446689 19.228318 -26.514871 38.091210 0.779752 2.340732 0.087691 -0.024087 54589.500000 0 0 1
18.464989 19.472818 -27.713071 38.576686 0.811957 2.372280 0.084171 -0.026409 79534.700000 0 0 1
18.016589 20.785118 -27.770531 39.087351 0.856628 2.360967 0.075569 -0.025082 720334.000000 0 0 1
16.986489 20.802918 -28.796641 39.377007 0.886049 2.391031 0.067231 -0.026934 468816.000000 0 0 1
16.502889 22.229918 -29.120321 40.180937 0.932194 2.381438 0.068591 -0.026904 -484510.000000 0 0 1
15.733189 22.873318 -28.170321 39.551092 0.968278 2.363497 0.063126 -0.026668 57881.300000 0 0 1
15.422189 24.171918 -28.579811 40.483714 1.002888 2.354571 0.056108 -0.020675 -188619.000000 0 0 1
14.616489 24.993818 -27.555841 39.970702 1.041625 2.331458 0.060623 -0.025855 -333560.000000 0 0 1
13.316289 24.480718 -27.416371 39.093305 1.072610 2.348024 0.069109 -0.036250 -412234.000000 0 0 1
12.632289 25.243618 -26.429051 38.669234 1.106817 2.323295 0.062116 -0.029977 -85145.300000 0 0 1
11.125889 24.788618 -26.303411 37.817065 1.148915 2.339972 0.085195 -0.036349 375481.000000 0 0 1
10.384489 25.635318 -25.549401 37.653406 1.185914 2.316572 0.080817 -0.037035 -539411.000000 0 0 1
9.952989 26.758518 -26.318831 38.829900 1.214697 2.315560 0.092144 -0.043999 -879567.000000 0 0 1
9.392889 27.875718 -25.395641 38.861556 1.245789 2.282982 0.108671 -0.042691 85681.100000 0 0 1
10.405289 28.451118 -24.560371 38.999333 1.220182 2.252046 0.091921 -0.030406 420763.000000 0 0 1
9.815089 29.229818 -23.563271 38.806519 1.246836 2.223327 0.119100 -0.038254 -44453.000000 0 0 1
10.766389 29.578018 -22.377171 38.620099 1.221704 2.188810 0.092851 -0.023882 -51651.400000 0 0 1
11.765389 30.493818 -22.721471 39.806564 1.202566 2.178273 0.068361 -0.032141 68939.500000 0 0 1
12.394989 31.003018 -21.512971 39.719400 1.190463 2.143164 0.055410 -0.019832 -41841.900000 0 0 1
13.689389 31.793018 -21.750471 40.881271 1.164210 2.131804 0.055119 -0.006041 613172.000000 0 0 1
14.834589 30.959418 -22.055571 40.804396 1.123957 2.141851 0.049232 -0.010776 801003.000000 0 0 1
15.802689 31.780118 -22.713971 42.138169 1.109350 2.140088 0.048782 -0.005496 -138567.000000 0 0 1
17.028889 31.079518 -23.282471 42.402747 1.069556 2.152059 0.011153 0.010071 -611433.000000 0 0 1
17.859889 30.555418 -22.294471 41.828849 1.041846 2.132930 0.006481 0.009232 -518349.000000 0 0 1
18.980589 30.055618 -22.977571 42.326961 1.007525 2.144634 0.000948 0.008100 -766506.000000 0 0 1
20.097489 29.480418 -22.123371 41.981515 0.972442 2.125838 -0.006250 0.010548 -353228.000000 0 0 1
20.832389 30.358218 -21.260671 42.516184 0.969379 2.094465 0.005483 0.013474 177609.000000 0 0 1
21.818489 29.509618 -20.727271 42.148354 0.934134 2.084917 0.023583 0.026738 -199922.000000 0 0 1
22.437389 29.929618 -19.364171 42.121129 0.927505 2.048483 0.034312 0.015468 566390.000000 0 0 1
23.355989 31.039718 -19.570171 43.496642 0.925726 2.037476 0.043854 0.011312 554566.000000 0 0 1
23.778489 31.544018 -18.307771 43.538673 0.924855 2.004787 0.047055 0.006628 629449.000000 0 0 1
25.120089 32.369118 -18.350171 44.894403 0.910830 1.991870 0.070493 0.005844 926618.000000 0 0 1
26.297389 31.644418 -18.660671 45.179005 0.877420 1.996584 0.072727 0.004186 544206.000000 0 0 1
27.421589 32.528918 -18.488371 46.388510 0.870385 1.980737 0.066106 -0.004189 1285550.000000 0 0 1
28.823289 31.964418 -18.906271 47.010138 0.837026 1.984687 0.079503 -0.007237 759678.000000 0 0 1
29.290189 30.845518 -18.183571 46.260171 0.811256 1.974766 0.061054 0.011128 160667.000000 0 0 1
30.496089 30.360918 -18.760771 46.944257 0.783177 1.981920 0.051460 0.003726 238030.000000 0 0 1
31.203089 29.229618 -18.032671 46.402376 0.752754 1.969925 0.055943 -0.002565 -178937.000000 0 0 1
31.699589 29.532718 -16.709771 46.435566 0.750025 1.938902 0.058719 0.009694 68502.800000 0 0 1
32.082689 28.355418 -16.082371 45.738073 0.723805 1.930096 0.070293 0.006426 -275672.000000 0 0 1
32.496089 28.568918 -14.602871 45.666429 0.721175 1.896286 0.073330 0.009055 29084.400000 0 0 1
33.661689 29.355318 -14.464171 46.947377 0.717168 1.883984 0.052736 0.013039 -351403.000000 0 0 1
33.595089 30.738418 -14.641971 47.831659 0.741023 1.881905 0.051416 0.006232 -266855.000000 0 0 1
34.958989 31.431418 -14.893971 49.314250 0.732314 1.877609 0.061552 -0.008171 394666.000000 0 0 1
35.683789 31.589918 -13.696771 49.586866 0.724619 1.850653 0.049374 -0.007157 -329879.000000 0 0 1
37.055889 31.815618 -13.943271 50.791606 0.709457 1.848886 0.048913 -0.015092 745202.000000 0 0 1
-36.843261 31.925818 -12.627271 50.360020 -0.714013 1.824241 0.053950 -0.009923 355776.000000 0 0 1
-37.192361 32.964318 -11.716471 51.060686 -0.725205 1.802321 0.046444 -0.010655 52829.300000 0 0 1
-36.244761 33.058418 -10.683971 50.206463 -0.739454 1.785237 0.040049 -0.002821 -156136.000000 0 0 1
-36.386561 -33.340380 -9.972271 50.348872 0.741739 1.770178 0.032079 0.000845 -114208.000000 0 0 1
-35.359261 -32.970780 -9.093771 49.193966 0.750457 1.756721 0.029232 -0.002264 -255535.000000 0 0 1
-35.293461 -33.765780 -7.904271 49.479630 0.763280 1.731232 0.029082 -0.003592 253952.000000 0 0 1
-34.854661 -32.864980 -6.687371 48.370189 0.756025 1.709495 0.038293 0.000625 553024.000000 0 0 1
-35.948061 -32.019780 -6.340871 48.556524 0.727666 1.701758 0.041577 -0.000724 260648.000000 0 0 1
-35.536161 -30.904080 -5.574371 47.423143 0.715793 1.688614 0.051938 -0.003719 -715478.000000 0 0 1
-36.711261 -30.099880 -5.121371 47.748800 0.686763 1.678260 0.050261 -0.004264 -819779.000000 0 0 1
37.279089 -30.736280 -4.157271 48.494663 -0.689497 1.656628 0.034199 -0.001388 107274.000000 0 0 1
36.024589 -30.073780 -4.143371 47.110198 -0.695611 1.658861 0.034325 0.002828 69066.700000 0 0 1
35.764089 -29.170480 -2.932771 46.244871 -0.684203 1.634257 0.023477 0.011520 -416264.000000 0 0 1
36.317489 -27.903580 -3.019771 45.898680 -0.655125 1.636636 0.044987 -0.004196 495200.000000 0 0 1
35.469589 -27.048780 -2.246171 44.662888 -0.651511 1.621109 0.051077 -0.001565 235846.000000 0 0 1
35.804989 -25.563680 -2.473771 44.063801 -0.620040 1.626967 0.066487 -0.018793 -111122.000000 0 0 1
35.359389 -24.980380 -3.699071 43.450994 -0.615056 1.656032 0.072996 -0.029329 304553.000000 0 0 1
35.418389 -23.624480 -3.689071 42.733916 -0.588241 1.657230 0.081150 -0.033868 -71858.100000 0 0 1
35.093789 -22.995680 -5.075071 42.262651 -0.580067 1.691171 0.081778 -0.033087 27785.000000 0 0 1
36.100289 -23.293080 -6.021071 43.382620 -0.573016 1.710036 0.083284 -0.036212 219971.000000 0 0 1
35.492689 -23.147180 -7.302671 42.998278 -0.577897 1.741460 0.070620 -0.034649 635316.000000 0 0 1
36.523689 -23.034280 -8.511571 44.011416 -0.562664 1.765417 0.080124 -0.034147 579576.000000 0 0 1
37.225689 -24.232880 -8.773071 45.276387 -0.577058 1.765797 0.060670 -0.018740 -93735.600000 0 0 1
-36.560761 -24.021980 -9.732271 44.815866 0.581310 1.789702 0.075210 -0.015110 91538.000000 0 0 1
-36.077461 -25.281680 -10.422171 45.269948 0.611237 1.803103 0.059430 -0.006594 -26328.000000 0 0 1
-35.303361 -26.129980 -9.584771 44.955211 0.637171 1.785653 0.063555 -0.006981 117141.000000 0 0 1
-36.076761 -27.111380 -8.957971 46.008747 0.644455 1.766749 0.054680 -0.009457 -5651.090000 0 0 1
-35.138361 -28.156580 -8.348471 45.795135 0.675537 1.754122 0.048198 -0.002272 274561.000000 0 0 1
-34.497161 -29.024380 -9.282171 46.028550 0.699454 1.773850 0.045258 -0.000302 454482.000000 0 0 1
-33.542361 -29.910080 -8.681971 45.772038 0.728216 1.761631 0.032069 -0.004244 318155.000000 0 0 1
-32.865161 -30.811080 -9.760871 46.094642 0.753151 1.784169 0.035779 0.004536 -137338.000000 0 0 1
-32.130561 -30.110980 -10.728671 45.322714 0.752962 1.809782 0.035889 0.019108 -45898.300000 0 0 1
-31.997161 -30.977880 -11.853671 46.086406 0.769214 1.830925 0.041993 0.014632 -112612.000000 0 0 1
-32.049361 -30.214680 -13.191171 45.979293 0.755941 1.861779 0.026457 0.020406 143781.000000 0 0 1
-30.903261 -29.461580 -13.531071 44.789352 0.761520 1.877696 0.023836 0.020331 -158353.000000 0 0 1
-31.189161 -28.727780 -14.694471 44.877350 0.744341 1.904385 0.023550 0.023290 -156615.000000 0 0 1
-30.105361 -27.756780 -15.157071 43.663582 0.744831 1.925309 0.043796 0.006330 -414224.000000 0 0 1
-28.915161 -28.438780 -15.418971 43.388885 0.777092 1.934103 0.067746 -0.005306 -326018.000000 0 0 1
-27.883161 -27.587380 -15.923071 42.332947 0.780066 1.956422 0.087605 0.004421 847252.000000 0 0 1
-26.689661 -28.392680 -16.555271 42.338626 0.816306 1.972536 0.102656 -0.008358 57255.600000 0 0 1
-26.834261 -28.975580 -17.876371 43.350045 0.823747 1.995853 0.093800 -0.007689 -260634.000000 0 0 1
-27.006761 -28.132580 -18.974871 43.368801 0.805813 2.023639 0.074441 0.002177 -177353.000000 0 0 1
-25.824861 -27.253380 -19.434671 42.277377 0.812305 2.048447 0.079055 -0.002534 -9318.610000 0 0 1
-25.396061 -26.407580 -18.372771 40.986326 0.804922 2.035621 0.092098 -0.010507 -288960.000000 0 0 1
-24.079261 -25.948180 -18.565171 39.972295 0.822739 2.053811 0.087312 -0.018013 70167.200000 0 0 1
-23.760961 -24.766180 -17.627071 38.583164 0.806110 2.045257 0.103597 -0.020805 46886.600000 0 0 1
-23.871761 -25.236080 -16.301971 38.372841 0.813173 2.009571 0.112177 -0.024571 88122.700000 0 0 1
-23.468561 -24.150980 -15.499271 37.071155 0.799728 2.002144 0.114871 -0.026294 201309.000000 0 0 1
-24.004261 -24.201180 -14.001171 36.850162 0.789483 1.960537 0.100265 -0.016188 -70530.100000 0 0 1
-25.377761 -23.958080 -13.880671 37.559198 0.756630 1.949340 0.087738 0.001453 -514973.000000 0 0 1
-25.769461 -23.903180 -12.550671 37.322198 0.747844 1.913759 0.083680 0.004691 98997.400000 0 0 1
-27.300961 -23.710580 -12.403771 38.228099 0.715130 1.901245 0.068246 0.024648 -431490.000000 0 0 1
-27.925461 -24.891580 -12.860671 39.557793 0.728020 1.901925 0.081375 0.017370 479442.000000 0 0 1
-29.309761 -25.116080 -12.606271 40.605389 0.708497 1.886471 0.068707 0.017266 392227.000000 0 0 1
-30.356061 -24.157080 -13.202571 40.980029 0.672169 1.898818 0.075303 0.017046 -1192080.000000 0 0 1
-30.553761 -22.856080 -12.623171 40.190510 0.642259 1.890287 0.087408 0.012676 107277.000000 0 0 1
-30.958661 -22.763480 -11.266171 40.044242 0.634018 1.855990 0.098982 0.005347 202047.000000 0 0 1
-32.385261 -23.354280 -10.958371 41.404268 0.624773 1.838656 0.071939 0.001301 1105030.000000 0 0 1
-33.584761 -22.638680 -11.284171 42.044958 0.593115 1.842511 0.098639 -0.013976 890664.000000 0 0 1
-33.848061 -22.533180 -12.690071 42.596635 0.587344 1.873301 0.087077 -0.001013 -362349.000000 0 0 1
-35.189461 -21.800480 -13.037471 43.399709 0.554647 1.875913 0.051254 -0.006611 750165.000000 0 0 1
-36.264361 -22.573680 -12.535571 44.517586 0.556782 1.856244 0.054857 -0.005272 309120.000000 0 0 1
37.260989 -22.329380 -13.109171 45.374364 -0.539882 1.863886 0.063507 -0.019353 929682.000000 0 0 1
36.218589 -23.453980 -12.787771 45.004472 -0.574663 1.858910 0.056874 -0.000303 142412.000000 0 0 1
36.341289 -24.590480 -13.627271 45.946529 -0.594885 1.871916 0.040156 0.006487 298916.000000 0 0 1
35.438489 -25.584580 -13.160271 45.647015 -0.625302 1.863253 0.038808 -0.006838 272307.000000 0 0 1
35.478689 -26.799680 -14.103271 46.646141 -0.646932 1.877949 0.031655 -0.013633 268781.000000 0 0 1
34.581289 -26.648680 -15.179171 46.221477 -0.656561 1.905406 0.032412 -0.013256 -65245.000000 0 0 1
34.210689 -27.902680 -15.759971 46.875446 -0.684189 1.913686 0.023745 0.003346 -131162.000000 0 0 1
33.415989 -27.904680 -17.056071 46.756914 -0.695762 1.944195 0.028777 -0.006090 -209922.000000 0 0 1
32.024489 -27.875980 -16.829271 45.671244 -0.716252 1.948178 0.068993 -0.011429 -387725.000000 0 0 1
31.349789 -27.805980 -18.058871 45.630085 -0.725563 1.977699 0.063539 -0.015821 1248050.000000 0 0 1
29.780389 -27.888180 -17.884271 44.547383 -0.752598 1.983914 0.069808 -0.022562 1367360.000000 0 0 1
29.149589 -26.916480 -17.060471 43.188599 -0.745589 1.976889 0.070797 -0.022924 869587.000000 0 0 1
27.716389 -26.879380 -17.100271 42.226988 -0.770068 1.987732 0.101806 -0.025166 865347.000000 0 0 1
27.091089 -25.992680 -16.007571 40.814077 -0.764709 1.973826 0.090556 -0.028517 -162146.000000 0 0 1
27.122089 -24.612280 -16.376071 40.119169 -0.736923 1.991262 0.083333 -0.029684 17457.800000 0 0 1
26.944589 -23.807880 -15.239571 39.052152 -0.723673 1.971685 0.081041 -0.018851 -42470.500000 0 0 1
26.787289 -22.289380 -15.627971 38.191737 -0.694003 1.992371 0.082087 -0.019483 -357360.000000 0 0 1
25.455689 -21.940380 -15.875171 37.167101 -0.711365 2.012112 0.094689 -0.030869 -328195.000000 0 0 1
25.311389 -20.589980 -16.257471 36.454342 -0.682899 2.033052 0.094029 -0.032450 -703104.000000 0 0 1
23.893489 -20.068780 -16.161971 35.140632 -0.698617 2.048704 0.081669 -0.029827 -731581.000000 0 0 1
23.604489 -19.500180 -14.914171 34.056738 -0.690467 2.024081 0.091676 -0.032055 982969.000000 0 0 1
22.236289 -19.041180 -14.963371 32.877371 -0.708147 2.043311 0.079779 -0.037112 985844.000000 0 0 1
22.036089 -17.928880 -13.902871 31.627896 -0.682987 2.025923 0.076698 -0.018132 -43575.500000 0 0 1
21.621589 -18.435580 -12.646471 31.101398 -0.706029 1.989548 0.067482 -0.023954 32405.800000 0 0 1
21.095789 -17.375680 -11.886071 29.803108 -0.689000 1.981026 0.068997 -0.030001 188275.000000 0 0 1
20.015089 -17.729180 -10.799471 28.836716 -0.724909 1.954658 0.081916 -0.012672 589311.000000 0 0 1
20.594689 -18.421580 -9.654071 29.269385 -0.729758 1.906925 0.082946 -0.029823 148948.000000 0 0 1
19.630689 -18.622480 -8.649471 28.407289 -0.759048 1.880189 0.077394 -0.032739 -97143.600000 0 0 1
20.123489 -19.343880 -7.363271 28.867945 -0.765647 1.828714 0.066905 -0.029170 -215883.000000 0 0 1
21.071189 -18.589380 -6.666071 28.878999 -0.722903 1.803725 0.060857 -0.028451 -357406.000000 0 0 1
21.810689 -19.393380 -5.807971 29.758056 -0.726799 1.767230 0.070414 -0.022300 -252331.000000 0 0 1
23.041989 -18.683780 -5.182671 30.114398 -0.681327 1.743757 0.083928 -0.020463 -31950.400000 0 0 1
23.963989 -18.479980 -6.233371 30.897206 -0.656904 1.773936 0.076713 -0.033623 148724.000000 0 0 1
25.047089 -17.670280 -5.789971 31.194859 -0.614396 1.757485 0.086647 -0.033075 -257862.000000 0 0 1
26.230889 -17.390580 -6.732171 32.184063 -0.585447 1.781530 0.095419 -0.042829 -65898.700000 0 0 1
27.129089 -18.474280 -6.749571 33.508853 -0.597844 1.773610 0.114583 -0.053475 108617.000000 0 0 1
26.861189 -19.349780 -7.817171 34.015373 -0.624261 1.802682 0.113268 -0.058235 -385547.000000 0 0 1
27.666089 -20.669780 -7.757171 35.395282 -0.641653 1.791748 0.127364 -0.056384 1451550.000000 0 0 1
29.072989 -20.414680 -8.016171 36.417810 -0.612192 1.792731 0.128934 -0.044706 1236260.000000 0 0 1
29.937189 -21.494380 -7.773571 37.665263 -0.622693 1.778676 0.130978 -0.046563 140442.000000 0 0 1
-30.663781 29.226818 4.612629 42.611626 -0.761410 1.462336 0.053268 -0.012593 270909.000000 0 0 1
-30.312781 30.125318 3.561629 42.884550 -0.782296 1.487649 0.048683 -0.013132 -267042.000000 0 0 1
-29.445831 31.153118 3.988329 43.052067 -0.813564 1.478024 0.047463 0.000984 182866.000000 0 0 1
-29.028571 32.116218 2.858429 43.385251 -0.835853 1.504864 0.049643 0.003044 -145951.000000 0 0 1
-28.167901 31.530018 1.844829 42.319925 -0.841658 1.527190 0.053955 -0.003545 533339.000000 0 0 1
-27.632361 32.490418 0.964929 42.662697 -0.866025 1.548177 0.059808 -0.017001 263164.000000 0 0 1
-26.471301 33.351418 1.547429 42.607996 -0.899904 1.534471 0.080567 -0.004757 890411.000000 0 0 1
-25.124501 32.826518 1.415429 41.362111 -0.917529 1.536569 0.062257 -0.005994 1213300.000000 0 0 1
-24.194911 33.622418 2.148229 41.478616 -0.947032 1.518982 0.062043 -0.004038 319540.000000 0 0 1
-22.704011 33.272818 2.023829 40.331729 -0.972008 1.520596 0.064570 -0.019511 185510.000000 0 0 1
-22.190411 33.675118 0.735029 40.335693 -0.988151 1.552573 0.099911 -0.021421 -141349.000000 0 0 1
-20.840111 33.301818 0.613029 39.289911 -1.011626 1.555193 0.106828 -0.030524 -475936.000000 0 0 1
-20.099711 33.871518 -0.646071 39.391566 -1.035236 1.587198 0.115395 -0.032825 118859.000000 0 0 1
-19.812511 -32.494880 -0.779671 38.066530 1.023266 1.591280 0.117908 -0.031946 443489.000000 0 0 1
-19.060411 -32.006980 0.335529 37.253974 1.033686 1.561790 0.123349 -0.028749 -302362.000000 0 0 1
-18.662111 -30.500680 0.268329 35.758046 1.021703 1.563292 0.129012 -0.032494 -324284.000000 0 0 1
-17.619411 -30.142980 -0.583571 34.919671 1.041831 1.587509 0.130103 -0.024511 -211054.000000 0 0 1
-17.455811 -28.757080 -0.496571 33.644042 1.025239 1.585556 0.105686 -0.019939 -106252.000000 0 0 1
-16.454011 -28.172880 -1.505571 32.660563 1.042197 1.616910 0.092593 -0.017593 -249560.000000 0 0 1
-16.849011 -28.387880 -2.844571 33.133857 1.035149 1.656753 0.078839 -0.015780 48433.600000 0 0 1
-15.923611 -27.785880 -3.740771 32.242982 1.050404 1.687076 0.068115 -0.005676 52495.700000 0 0 1
-16.335411 -27.749180 -5.229671 32.622264 1.038741 1.731801 0.091502 -0.012663 -194151.000000 0 0 1
-17.285611 -26.755580 -5.469971 32.319870 0.997198 1.740860 0.082947 -0.011481 -450279.000000 0 0 1
-17.788611 -26.798280 -6.784671 32.872697 0.984783 1.778683 0.093946 -0.015066 257386.000000 0 0 1
-18.591311 -25.491980 -7.054371 32.330203 0.940675 1.790763 0.064778 -0.006467 -240998.000000 0 0 1
-17.743311 -24.383480 -7.034871 30.965603 0.941735 1.799981 0.045065 0.008036 -18387.500000 0 0 1
-18.362111 -23.139080 -7.266771 30.420225 0.899998 1.812008 0.026517 0.015301 -145041.000000 0 0 1
-17.297011 -22.076880 -7.010371 28.908831 0.906204 1.815738 0.043204 0.012574 227485.000000 0 0 1
-16.340611 -21.871680 -8.015171 28.453979 0.929146 1.856350 0.063595 0.005855 -8220.210000 0 0 1
-15.168711 -21.235480 -7.493771 27.151280 0.950531 1.850427 0.096378 -0.012470 869898.000000 0 0 1
-14.060011 -21.110380 -8.579271 26.775659 0.983239 1.896962 0.107543 -0.008735 -115389.000000 0 0 1
-14.453611 -20.244880 -9.656571 26.683541 0.950776 1.941093 0.113343 -0.010538 -253925.000000 0 0 1
-13.401011 -19.824680 -10.481671 26.124135 0.976376 1.983651 0.104096 -0.012747 -7532.970000 0 0 1
-13.953811 -19.025480 -11.684171 26.328645 0.937986 2.030611 0.120830 -0.018985 542365.000000 0 0 1
-15.051111 -19.637380 -12.353271 27.654401 0.916849 2.033872 0.103262 -0.001092 276362.000000 0 0 1
-15.672811 -18.768480 -13.299571 27.834716 0.875040 2.068951 0.113861 -0.013835 330910.000000 0 0 1
-16.854711 -19.425180 -14.062471 29.311635 0.856131 2.071174 0.124411 -0.015871 -435374.000000 0 0 1
-18.056711 -19.388880 -13.388871 29.685608 0.820959 2.038707 0.124975 -0.015722 -1047220.000000 0 0 1
-19.117111 -19.810180 -14.180971 30.967839 0.803200 2.046457 0.086946 -0.017186 -763827.000000 0 0 1
-20.507911 -19.690580 -13.568271 31.502243 0.765069 2.016074 0.059040 -0.010473 334757.000000 0 0 1
-21.538011 -20.223980 -14.442671 32.885954 0.753944 2.025476 0.077505 -0.018949 1768890.000000 0 0 1
-22.837611 -19.607180 -14.176071 33.270993 0.709436 2.010951 0.065018 -0.013131 1182180.000000 0 0 1
-23.919711 -20.149780 -15.143671 34.749057 0.700061 2.021724 0.083376 -0.027951 -226770.000000 0 0 1
-23.899211 -19.711880 -16.491071 35.095383 0.689676 2.059966 0.091970 -0.043400 402378.000000 0 0 1
-24.692311 -20.532880 -17.378371 36.514615 0.693685 2.066817 0.112943 -0.044969 225564.000000 0 0 1
-24.926411 -19.884780 -18.755571 36.993268 0.673361 2.102497 0.106790 -0.036590 356574.000000 0 0 1
-23.760611 -19.734480 -19.581271 36.571061 0.693096 2.135814 0.093573 -0.038974 513588.000000 0 0 1
-24.087611 -19.420480 -20.896171 37.336550 0.678536 2.164785 0.096155 -0.043437 571558.000000 0 0 1
-22.937311 -18.636780 -21.665271 36.644696 0.682322 2.203374 0.076391 -0.027803 1263370.000000 0 0 1
-21.736511 -19.368980 -21.874471 36.416009 0.727865 2.215151 0.069220 -0.026584 286567.000000 0 0 1
-20.654211 -18.547880 -22.298471 35.606770 0.731720 2.247520 0.078933 -0.031602 671388.000000 0 0 1
-19.303311 -19.300980 -22.432571 35.332221 0.785338 2.258681 0.092450 -0.030555 -31557.700000 0 0 1
-19.281711 -20.314980 -23.405671 36.500797 0.811487 2.266906 0.063551 -0.021887 -740098.000000 0 0 1
-18.215811 -21.180880 -23.276471 36.362612 0.860518 2.265452 0.066078 -0.018176 -783152.000000 0 0 1
-18.345411 -22.518780 -24.064971 37.719655 0.887173 2.262689 0.066439 -0.018471 -158744.000000 0 0 1
-18.309111 -22.449580 -25.507221 38.598257 0.886636 2.292732 0.068151 -0.024050 25957.900000 0 0 1
-18.730311 -23.624080 -26.076321 39.860961 0.900431 2.283897 0.082004 -0.033131 -323874.000000 0 0 1
-18.547111 -23.604480 -27.612281 40.787312 0.904808 2.314451 0.075884 -0.019482 -465766.000000 0 0 1
-17.259011 -23.482080 -28.131431 40.505048 0.936973 2.338544 0.078468 -0.019731 -539618.000000 0 0 1
-17.234911 -23.521780 -29.528721 41.500140 0.938446 2.362474 0.098712 -0.025262 -514479.000000 0 0 1
-15.825611 -23.243980 -30.072801 41.171664 0.973040 2.389740 0.079824 -0.034953 -214362.000000 0 0 1
-14.967311 -24.279080 -29.692661 41.172178 1.018355 2.376304 0.084322 -0.034932 68442.300000 0 0 1
-13.624911 -24.161780 -30.148511 40.967823 1.057341 2.397802 0.094964 -0.039409 959864.000000 0 0 1
-12.688411 -25.332880 -29.668961 41.024356 1.106455 2.379226 0.097773 -0.030297 -243471.000000 0 0 1
-12.956411 -26.542380 -30.361431 42.357797 1.116681 2.369977 0.092182 -0.022031 466511.000000 0 0 1
-12.089311 -27.624880 -30.020771 42.550348 1.158282 2.353974 0.106074 -0.022941 732322.000000 0 0 1
-10.633711 -27.627980 -30.588571 42.568083 1.203384 2.372555 0.115302 -0.034954 291239.000000 0 0 1
-9.855711 -26.579380 -30.043751 41.306482 1.215710 2.385231 0.142093 -0.049246 -273099.000000 0 0 1
-8.625111 -26.452080 -30.711291 41.440179 1.255601 2.405503 0.133729 -0.032011 -417313.000000 0 0 1
-7.673211 -25.378380 -30.204321 40.190065 1.277183 2.421185 0.170701 -0.038268 -377395.000000 0 0 1
-8.101211 -24.070780 -30.278391 39.519780 1.246146 2.443637 0.167793 -0.038571 -185979.000000 0 0 1
-8.972211 -23.614980 -29.269511 38.663576 1.207704 2.429553 0.158627 -0.027912 -108005.000000 0 0 1
-9.342511 -22.143080 -29.308741 37.902517 1.171541 2.454773 0.156750 -0.045447 -752940.000000 0 0 1
-10.209911 -21.756280 -30.278761 38.657229 1.132021 2.470693 0.139607 -0.042834 -587883.000000 0 0 1
-10.380611 -20.330580 -30.236841 37.886094 1.098712 2.494929 0.134407 -0.051813 28996.200000 0 0 1
-11.123311 -19.822780 -31.470491 38.820902 1.059442 2.516072 0.097052 -0.039661 84684.800000 0 0 1
-12.002811 -18.758780 -31.164581 38.303921 1.001589 2.521136 0.094364 -0.047762 488693.000000 0 0 1
-12.802711 -18.459180 -32.347921 39.383229 0.964400 2.534593 0.088396 -0.030776 296295.000000 0 0 1
-13.576011 -17.077980 -32.325431 38.998704 0.899147 2.547907 0.098218 -0.036066 -314567.000000 0 0 1
-13.015811 -15.794880 -32.325541 38.260033 0.881560 2.577157 0.085636 -0.034794 -191821.000000 0 0 1
-11.934911 -15.529580 -31.425201 37.029086 0.915543 2.584248 0.066274 -0.027154 432077.000000 0 0 1
-11.705911 -14.027880 -31.408021 36.335568 0.875385 2.614728 0.060015 -0.014258 -40251.200000 0 0 1
-11.100811 -13.316480 -32.489271 36.825390 0.875892 2.651421 0.060283 -0.022561 149995.000000 0 0 1
-11.833511 -13.430680 -33.692931 38.152703 0.848533 2.653241 0.062114 -0.026422 -212523.000000 0 0 1
-12.158411 -12.167980 33.262655 37.447175 0.785792 0.477263 0.059604 -0.016170 -336374.000000 0 0 1
-13.206511 -11.473080 33.843543 38.097623 0.715276 0.477085 0.049983 -0.005649 -924810.000000 0 0 1
-13.926011 -10.745180 32.910445 37.316083 0.657177 0.490840 0.060699 -0.022015 928714.000000 0 0 1
-15.056811 -9.827480 33.576767 38.087875 0.578266 0.491639 0.076940 -0.019043 1008280.000000 0 0 1
-14.535911 -8.656680 -33.697631 37.706248 0.537132 2.676295 0.067429 -0.021281 175874.000000 0 0 1
-15.330111 -8.365680 -32.562901 36.950499 0.499538 2.649312 0.072630 -0.023337 252077.000000 0 0 1
-14.678711 -7.276380 -31.714951 35.696615 0.460210 2.664771 0.065788 -0.034453 -373472.000000 0 0 1
-14.796811 -5.936680 -32.259391 35.984136 0.381552 2.682577 0.067019 -0.043584 92332.900000 0 0 1
-16.042911 -5.283080 -32.144871 36.312238 0.318125 2.657796 0.077509 -0.039523 -149699.000000 0 0 1
-16.307011 -4.734480 -30.779761 35.152917 0.282565 2.637465 0.075295 -0.040241 -344241.000000 0 0 1
-16.593911 -5.744880 -29.845941 34.628625 0.333289 2.609774 0.071771 -0.045920 -137895.000000 0 0 1
-17.006611 -5.253380 -28.570431 33.661437 0.299604 2.584429 0.073186 -0.045906 224850.000000 0 0 1
-15.908311 -4.653280 -27.627921 32.218463 0.284568 2.601222 0.070268 -0.043996 147546.000000 0 0 1
-15.448611 -3.477580 -28.157451 32.304723 0.221416 2.629294 0.059651 -0.033319 -255097.000000 0 0 1
-14.262911 -2.962480 -27.588881 31.198610 0.204793 2.655786 0.055436 -0.030956 -55170.300000 0 0 1
-13.937211 -1.686780 -28.344441 31.630656 0.120441 2.681715 0.037242 -0.014445 -60659.800000 0 0 1
-13.661211 -1.925780 -29.703921 32.751492 0.140044 2.706779 0.035413 -0.016881 106372.000000 0 0 1
-13.732611 -0.654780 -30.334941 33.304984 0.047645 2.716069 0.032516 -0.020136 -60290.000000 0 0 1
-14.098411 -0.685780 -31.814381 34.805033 0.048604 2.724015 0.031388 -0.023362 -919666.000000 0 0 1
-15.356211 -1.172780 -32.126271 35.627039 0.076224 2.694571 0.014918 -0.019109 -531016.000000 0 0 1
-15.298911 -1.515780 -33.514121 36.872083 0.098755 2.711505 0.022745 -0.019394 -541093.000000 0 0 1
-16.614111 -1.883780 33.593829 37.524960 0.112902 0.461828 0.017419 -0.014248 -711256.000000 0 0 1
-16.581011 -1.786780 32.198198 36.260812 0.107346 0.477903 0.032989 -0.027610 -149784.000000 0 0 1
-17.854411 -1.843780 31.629913 36.367993 0.102903 0.516165 0.037027 -0.023290 -382935.000000 0 0 1
-17.759711 -1.855780 30.105793 35.003000 0.104116 0.535347 0.052087 -0.020495 -119017.000000 0 0 1
-17.269611 -0.717780 29.474573 34.168774 0.041539 0.530375 0.039443 -0.005967 87161.300000 0 0 1
-17.405911 -0.743780 28.071643 33.038403 0.042705 0.555443 0.048148 -0.017525 -21999.100000 0 0 1
-16.727011 0.572220 27.532343 32.220339 -0.034196 0.546205 0.045443 -0.015963 51549.300000 0 0 1
-17.367111 1.736220 27.970173 32.969100 -0.099641 0.557887 0.046979 -0.011767 -211366.000000 0 0 1
-18.662411 2.001220 27.498973 33.293903 -0.106824 0.598918 0.058063 -0.020892 -252877.000000 0 0 1
-18.679211 2.798220 26.202733 32.300560 -0.148698 0.624568 0.072342 -0.028939 -365747.000000 0 0 1
-18.439811 4.190220 26.403383 32.476502 -0.223443 0.621511 0.074466 -0.023363 150899.000000 0 0 1
-18.859411 4.786220 25.218473 31.852106 -0.248537 0.657150 0.081554 -0.021207 -664301.000000 0 0 1
-18.955411 6.321220 25.441633 32.350303 -0.321881 0.665769 0.081862 -0.021648 413788.000000 0 0 1
-17.718611 7.031220 25.491923 31.831201 -0.377768 0.642088 0.075595 -0.021926 500637.000000 0 0 1
-17.002711 7.042220 24.258193 30.449055 -0.392672 0.649012 0.065990 -0.010688 265011.000000 0 0 1
-15.773711 8.005220 24.191623 29.968786 -0.469633 0.631357 0.069698 -0.007186 685123.000000 0 0 1
-14.534211 7.507220 24.666483 29.597923 -0.476777 0.585591 0.060085 -0.009663 -373195.000000 0 0 1
-13.518911 8.160220 24.002023 28.730598 -0.543074 0.581906 0.077618 -0.011309 82388.900000 0 0 1
-12.097511 8.061220 24.660443 28.626395 -0.587786 0.532662 0.051636 -0.007097 991492.000000 0 0 1
-11.037211 8.541220 23.806103 27.595344 -0.658595 0.530240 0.042963 -0.017760 619972.000000 0 0 1
-9.795611 8.678220 24.474723 27.753875 -0.724987 0.491027 0.047971 -0.018057 200122.000000 0 0 1
-9.545111 10.081220 25.033033 28.625039 -0.812707 0.506361 0.064239 -0.028912 -654238.000000 0 0 1
-10.370111 10.271220 26.175863 29.970201 -0.780607 0.508663 0.052835 -0.025078 276333.000000 0 0 1
-10.345811 11.552220 26.742073 30.913234 -0.840435 0.525509 0.052451 -0.026666 -774725.000000 0 0 1
-11.073711 12.762220 26.039133 31.040905 -0.856119 0.575601 0.047328 -0.030833 403465.000000 0 0 1
-12.484011 12.619220 25.966113 31.453684 -0.790784 0.599647 0.054833 -0.032289 253254.000000 0 0 1
-12.963911 11.649220 25.050083 30.516782 -0.732035 0.607877 0.051168 -0.025158 -619176.000000 0 0 1
-14.497811 11.534220 24.828573 30.978747 -0.672042 0.641045 0.039786 -0.019796 178545.000000 0 0 1
-15.022211 12.664220 24.222043 31.189047 -0.700435 0.681513 0.040314 -0.019821 -126682.000000 0 0 1
-16.338811 12.533220 23.715563 31.408061 -0.654345 0.715022 0.050108 -0.010248 284053.000000 0 0 1
-16.526411 11.929220 22.285273 30.200363 -0.625226 0.740822 0.034126 0.004786 -164177.000000 0 0 1
-16.270211 10.535220 22.124473 29.414332 -0.574627 0.719453 0.039433 0.010213 -95851.800000 0 0 1
-16.202811 10.201220 20.749773 28.233828 -0.561897 0.745239 0.056743 -0.000397 -212425.000000 0 0 1
-16.742211 8.790220 20.543673 27.921535 -0.483473 0.744002 0.065421 -0.000751 164360.000000 0 0 1
-18.135311 8.662220 20.710173 28.858878 -0.445603 0.770394 0.062109 0.011500 -375822.000000 0 0 1
-18.544311 7.283220 20.741773 28.760353 -0.374238 0.765273 0.057395 0.010402 617164.000000 0 0 1
-20.086311 7.053220 20.843473 29.793593 -0.337695 0.795965 0.067842 0.002142 566784.000000 0 0 1
-20.452811 7.590220 22.085273 31.043328 -0.355355 0.779260 0.074903 -0.012759 99566.200000 0 0 1
-21.835211 7.476220 22.394673 32.158851 -0.329882 0.800460 0.079845 -0.012090 286045.000000 0 0 1
-22.225311 7.968220 23.839943 33.552941 -0.344245 0.780563 0.093074 -0.009604 -423971.000000 0 0 1
-22.143911 9.390220 24.049503 34.013345 -0.401069 0.785463 0.089854 -0.011133 738870.000000 0 0 1
-20.857811 10.026220 23.867053 33.244692 -0.448084 0.769986 0.081950 -0.008302 551004.000000 0 0 1
-20.040911 9.919220 25.165423 33.664930 -0.459598 0.726466 0.078890 -0.016295 -407477.000000 0 0 1
-20.518711 10.779220 26.224953 34.999389 -0.483710 0.723796 0.089111 -0.014056 276330.000000 0 0 1
-19.970711 10.395220 27.457813 35.508047 -0.479931 0.686792 0.096788 -0.020360 -121146.000000 0 0 1
-32.036801 -14.445482 20.841673 40.858339 0.423604 1.035500 0.087398 -0.017058 -15861.100000 0 0 1
-31.057671 -15.471982 20.800573 40.455222 0.462182 1.030765 0.079975 -0.007443 111192.000000 0 0 1
-31.322881 -16.531482 19.874773 40.613044 0.485621 1.059430 0.088580 -0.005838 -143291.000000 0 0 1
-31.005851 -16.441282 18.369273 39.611977 0.487565 1.088595 0.096074 -0.014602 125483.000000 0 0 1
-31.741931 -15.423482 17.669773 39.467136 0.452306 1.106595 0.101242 -0.019794 44112.000000 0 0 1
-31.292501 -15.218882 16.376473 38.458079 0.452662 1.130921 0.094932 -0.019930 -469823.000000 0 0 1
-32.129591 -14.095082 15.675373 38.427845 0.413413 1.150625 0.102494 -0.018216 401225.000000 0 0 1
-33.471721 -14.344482 15.297373 39.498480 0.404878 1.173106 0.116198 -0.011853 821624.000000 0 0 1
-34.471505 -14.342882 16.333873 40.752893 0.394291 1.158403 0.110611 -0.012301 166307.000000 0 0 1
-35.008713 -12.917782 16.686573 40.876898 0.353489 1.150298 0.111845 -0.015546 -674353.000000 0 0 1
-36.051751 -13.000682 17.612473 42.177549 0.346097 1.140017 0.098200 -0.015171 -338061.000000 0 0 1
-36.397271 -11.726682 18.021973 42.273726 0.311684 1.130380 0.095944 -0.007893 -72310.300000 0 0 1
37.217619 -11.619682 18.984973 43.365855 -0.302620 1.117661 0.079288 -0.001670 14973.100000 0 0 1
-37.296031 -12.181582 20.257773 44.156112 0.315695 1.094179 0.078270 -0.000725 -250623.000000 0 0 1
36.701889 -11.646582 21.272773 43.990936 -0.307278 1.066066 0.073127 -0.002848 -839525.000000 0 0 1
37.300559 -11.995082 22.659173 45.262035 -0.311135 1.046479 0.075676 -0.008640 -201461.000000 0 0 1
-36.233211 -11.448782 22.836973 44.333368 0.306047 1.029650 0.075050 -0.008319 -855052.000000 0 0 1
-35.236690 -12.348782 22.466273 43.575798 0.337078 1.029126 0.068214 -0.011937 -1515640.000000 0 0 1
-33.848051 -11.747682 22.328873 42.217024 0.334063 1.013484 0.084653 -0.002972 -564053.000000 0 0 1
-33.734581 -10.835982 21.232773 41.307035 0.310803 1.030928 0.104825 -0.017707 787715.000000 0 0 1
-32.392061 -10.306482 21.120673 40.019395 0.308050 1.014834 0.112177 -0.027883 759696.000000 0 0 1
-32.255031 -8.870882 20.490173 39.229157 0.268388 1.021227 0.135506 -0.012306 106731.000000 0 0 1
-32.619661 -8.772782 19.097073 38.803378 0.262725 1.056239 0.129840 -0.011744 306498.000000 0 0 1
-34.006881 -8.619882 18.844173 39.823023 0.248246 1.077879 0.122186 -0.014450 19817.000000 0 0 1
-34.366553 -8.557382 17.357173 39.440591 0.244040 1.115104 0.125841 -0.013153 110258.000000 0 0 1
-35.757579 -8.362682 17.170073 40.538257 0.229742 1.133433 0.084280 -0.010310 109562.000000 0 0 1
-36.172971 -8.351082 15.833773 40.360039 0.226890 1.167651 0.095054 -0.016075 329829.000000 0 0 1
37.119799 -8.063682 15.635073 41.077463 -0.213910 1.180325 0.085027 -0.018987 395739.000000 0 0 1
36.320089 -9.191582 15.888073 40.694778 -0.247867 1.169708 0.085142 -0.000957 -279478.000000 0 0 1
34.969039 -9.020182 15.526173 39.309788 -0.252445 1.164762 0.062900 -0.006492 114891.000000 0 0 1
34.248279 -10.390382 15.560873 39.026215 -0.294559 1.160666 0.062380 -0.003811 5418.460000 0 0 1
34.049979 -10.913282 16.852473 39.528555 -0.310163 1.130357 0.049927 -0.006780 465411.000000 0 0 1
32.975849 -11.869982 16.831473 38.879321 -0.345520 1.123071 0.065321 -0.007889 735261.000000 0 0 1
32.559109 -12.361682 18.283073 39.334178 -0.362858 1.087372 0.062892 -0.008693 99551.700000 0 0 1
33.422489 -13.364682 18.752073 40.587163 -0.380395 1.090525 0.060482 0.000778 -197568.000000 0 0 1
33.422299 -13.465882 20.147873 41.283373 -0.383005 1.060955 0.063469 -0.000180 -41170.700000 0 0 1
34.189979 -14.692882 20.780973 42.622580 -0.405881 1.061506 0.055575 0.005295 217896.000000 0 0 1
34.147319 -14.582782 22.202373 43.262482 -0.403610 1.031885 0.057403 -0.000276 -180991.000000 0 0 1
34.659949 -15.763382 22.729673 44.344496 -0.426839 1.032621 0.060154 0.007151 -58460.300000 0 0 1
35.060589 -15.650382 24.205923 45.388392 -0.419840 1.008292 0.075646 0.001193 157681.000000 0 0 1
36.272829 -14.919682 24.267263 46.121742 -0.390225 1.016722 0.078644 -0.002947 72711.200000 0 0 1
36.698349 -14.877982 25.635583 47.173153 -0.385164 0.996272 0.073156 -0.004204 -194926.000000 0 0 1
-36.901451 -13.977382 25.935363 47.219989 0.362077 0.989335 0.078276 -0.012410 440280.000000 0 0 1
-35.653263 -14.685582 25.924613 46.464040 0.390723 0.978883 0.053858 -0.004394 718890.000000 0 0 1
-34.598393 -13.791682 26.269613 45.577975 0.379318 0.956521 0.062782 -0.016864 -177680.000000 0 0 1
-33.174861 -14.286682 26.083423 44.553626 0.406645 0.945375 0.058464 -0.009270 -794987.000000 0 0 1
-32.790501 -14.430782 24.707513 43.519256 0.414583 0.967041 0.053072 -0.010196 983699.000000 0 0 1
-31.414961 -14.770582 24.453523 42.462273 0.439506 0.957106 0.063381 -0.020173 914935.000000 0 0 1
-30.965361 -16.199482 24.757733 42.827820 0.481994 0.954428 0.070743 -0.013037 -502936.000000 0 0 1
-31.116341 -16.613782 26.087383 43.872497 0.490418 0.934006 0.066095 -0.006006 179710.000000 0 0 1
-30.466051 -17.860182 26.314283 44.040979 0.530235 0.930422 0.058155 -0.010279 -20155.900000 0 0 1
-30.227261 -18.144382 27.797403 44.895451 0.540615 0.903126 0.068312 -0.022688 -163800.000000 0 0 1
-29.302421 -17.254482 28.362743 44.280856 0.532174 0.875622 0.072544 -0.024667 -674778.000000 0 0 1
-28.776511 -17.751082 29.503483 44.873645 0.552725 0.853328 0.091348 -0.034268 -561222.000000 0 0 1
-27.562651 -16.878582 29.837763 43.987252 0.549467 0.825312 0.086929 -0.033646 -447496.000000 0 0 1
-27.745791 -15.614782 30.426013 44.038535 0.512602 0.808070 0.108059 -0.036287 -74267.200000 0 0 1
-26.561691 -14.889282 30.163863 42.861087 0.510911 0.790122 0.099647 -0.029038 -107323.000000 0 0 1
-26.481691 -13.526282 30.891623 42.878114 0.472233 0.766342 0.114717 -0.031724 137797.000000 0 0 1
-25.805081 -13.578282 32.168760 43.417751 0.484377 0.736368 0.119730 -0.035008 464671.000000 0 0 1
-25.300021 -12.300282 32.565124 43.033421 0.452528 0.712484 0.106941 -0.027120 -126692.000000 0 0 1
-24.428211 -12.278382 33.834943 43.500569 0.465750 0.679631 0.124993 -0.028836 97335.500000 0 0 1
-23.107011 -12.761482 33.700207 42.807632 0.504590 0.664464 0.079196 -0.018405 120020.000000 0 0 1
-23.016911 -14.153182 -33.858271 43.318278 0.551306 2.468049 0.096298 -0.023034 -286400.000000 0 0 1
-23.069911 -14.715382 -32.405781 42.413416 0.567794 2.440357 0.103335 -0.024433 465288.000000 0 0 1
-21.914411 -14.485482 -31.568021 41.068364 0.584071 2.447556 0.069601 -0.013940 603562.000000 0 0 1
-22.004811 -15.216982 -30.347551 40.456669 0.605019 2.419047 0.084693 -0.016191 596904.000000 0 0 1
-20.628011 -15.297082 -29.601551 39.188868 0.638083 2.426994 0.078971 -0.014745 747650.000000 0 0 1
-20.165511 -14.183882 -28.809261 37.918384 0.612986 2.433756 0.087087 -0.015369 4116.190000 0 0 1
-20.817511 -13.947582 -27.574511 37.259327 0.590302 2.403971 0.094390 -0.016569 -160599.000000 0 0 1
-20.327911 -12.711182 -26.717731 35.897566 0.558820 2.410248 0.097746 -0.016952 1034840.000000 0 0 1
-18.996211 -12.854882 -26.174171 34.802173 0.594922 2.422015 0.084954 -0.022849 1045240.000000 0 0 1
-18.492311 -11.706982 -25.473321 33.584357 0.564384 2.431786 0.095165 -0.031534 258561.000000 0 0 1
-17.051911 -11.770782 -24.933171 32.418852 0.604180 2.448220 0.102424 -0.036104 -1015930.000000 0 0 1
-16.918211 -12.655482 -23.857871 31.868246 0.642245 2.416806 0.101033 -0.039793 71774.200000 0 0 1
-15.580811 -12.728082 -23.399371 30.859298 0.684966 2.431436 0.119032 -0.039098 -96029.600000 0 0 1
-14.656411 -13.550182 -24.324871 31.466127 0.746199 2.454431 0.071469 -0.033127 -1270060.000000 0 0 1
-13.900611 -12.724682 -25.194951 31.463154 0.741261 2.499387 0.059543 -0.037499 279334.000000 0 0 1
-13.139311 -13.538482 -26.116341 32.217933 0.800360 2.515998 0.061882 -0.038140 -187709.000000 0 0 1
-12.213011 -12.680482 -27.012761 32.243472 0.804175 2.563991 0.054243 -0.032857 -526472.000000 0 0 1
-12.855811 -11.778182 -27.867561 32.872456 0.741680 2.582521 0.079356 -0.035142 -317763.000000 0 0 1
-12.040111 -11.235182 -28.877941 33.243481 0.750829 2.623327 0.071939 -0.039636 -559158.000000 0 0 1
-12.851111 -10.235082 -29.693981 33.935828 0.672564 2.636240 0.042185 -0.029715 -138014.000000 0 0 1
-12.158811 -9.326482 -30.532551 34.162210 0.654328 2.676438 0.040977 -0.023686 -298532.000000 0 0 1
-11.590711 -9.951282 -31.656541 35.149810 0.709441 2.691985 0.057539 -0.017741 -290129.000000 0 0 1
-10.734211 -8.948982 -32.416601 35.300759 0.694948 2.734555 0.049180 -0.016699 595266.000000 0 0 1
-9.383811 -8.717182 -31.987911 34.456808 0.748587 2.760740 0.032469 -0.020093 446269.000000 0 0 1
-8.887411 -7.520282 -32.512391 34.533987 0.702268 2.797734 0.031754 -0.018129 1015150.000000 0 0 1
-7.373111 -7.252182 -32.120281 33.744175 0.777130 2.830097 0.049514 -0.016353 633361.000000 0 0 1
-7.121111 -7.119282 -30.696511 32.305884 0.785270 2.824620 0.033701 -0.016346 -210908.000000 0 0 1
-7.696611 -6.008082 -30.044391 31.591142 0.662808 2.827375 0.035587 -0.016764 -308174.000000 0 0 1
-7.088511 -4.622582 -30.381621 31.538201 0.577866 2.869936 0.048033 -0.023728 -260211.000000 0 0 1
-5.727111 -4.476882 -30.116871 30.981739 0.663482 2.904754 0.074966 -0.025047 -681719.000000 0 0 1
-5.094511 -3.300882 -30.518041 31.115923 0.574918 2.945243 0.089161 -0.043638 -981983.000000 0 0 1
-3.629011 -3.328582 -30.216851 30.615474 0.742245 2.980046 0.093400 -0.031882 -1828090.000000 0 0 1
-2.754511 -3.963082 -31.098401 31.470683 0.963405 2.987626 0.101435 -0.035800 81870.000000 0 0 1
-1.396911 -3.646482 -30.829721 31.076034 1.204957 3.015603 0.114769 -0.035424 385210.000000 0 0 1
-0.778011 -2.339082 -31.336731 31.433538 1.249694 3.063090 0.114675 -0.038122 -61572.600000 0 0 1
0.622589 -2.178382 -31.041641 31.124209 -1.292414 3.068736 0.113322 -0.027719 816674.000000 0 0 1
1.105389 -0.922482 -31.477241 31.510150 -0.695445 3.095885 0.075735 -0.027871 185500.000000 0 0 1
1.291789 0.021018 -30.337781 30.365278 0.016269 3.099033 0.075166 -0.028543 -1675030.000000 0 0 1
0.084989 0.284218 -29.807361 29.808837 1.280231 3.131641 0.099536 -0.026322 -1920010.000000 0 0 1
0.131389 1.070418 -28.641761 28.662057 1.448661 3.103957 0.109888 -0.039718 503064.000000 0 0 1
-1.301911 1.224418 -28.046561 28.103447 -0.754734 3.077955 0.102273 -0.031345 707586.000000 0 0 1
-2.193911 2.094718 -28.780541 28.939948 -0.762273 3.036585 0.098893 -0.052096 311351.000000 0 0 1
-2.052811 3.510118 -28.447311 28.736465 -1.041608 2.999612 0.114112 -0.042037 -563014.000000 0 0 1
-3.194311 4.339018 -29.031071 29.526831 -0.936197 2.958086 0.132204 -0.044671 -126847.000000 0 0 1
-3.173311 4.395618 -30.408531 30.888025 -0.945506 2.965162 0.141483 -0.050534 143754.000000 0 0 1
-4.408811 4.881018 -30.922441 31.614226 -0.836185 2.932010 0.143257 -0.038711 -10586.700000 0 0 1
-4.393111 5.537318 -32.350811 33.113989 -0.900115 2.926483 0.150228 -0.041417 -160696.000000 0 0 1
-4.168411 4.697318 -33.480591 34.064503 -0.844985 2.956171 0.159464 -0.053253 185816.000000 0 0 1
-2.915711 4.041318 -33.554521 33.922551 -0.945802 2.994156 0.163808 -0.060399 -178740.000000 0 0 1
-2.699011 3.361218 32.843334 33.125021 -0.894237 0.130505 0.144846 -0.059606 -364586.000000 0 0 1
-3.646411 2.399418 32.468821 32.760920 -0.581994 0.133636 0.137835 -0.061318 -233286.000000 0 0 1
-3.407311 1.767018 31.207343 31.442493 -0.478413 0.122377 0.136853 -0.053579 -127203.000000 0 0 1
-3.111811 2.649318 29.952773 30.230297 -0.705292 0.135605 0.127324 -0.048303 -308642.000000 0 0 1
-4.131411 3.583418 29.707663 30.206865 -0.714486 0.182054 0.111680 -0.051420 -210248.000000 0 0 1
-3.801411 4.466418 28.631993 29.226540 -0.865658 0.202050 0.108593 -0.051374 234833.000000 0 0 1
-4.967611 5.460218 28.555303 29.494007 -0.832603 0.252971 0.097195 -0.037912 236290.000000 0 0 1
-4.860511 6.307018 27.411143 28.544243 -0.914209 0.282707 0.089978 -0.031355 -114783.000000 0 0 1
-6.097011 6.982218 27.266223 28.798816 -0.852975 0.327707 0.075617 -0.022672 137296.000000 0 0 1
-6.184611 7.736618 25.875153 27.706104 -0.896425 0.365584 0.081507 -0.025076 -17962.000000 0 0 1
-5.481211 8.959718 25.880543 27.930677 -1.021773 0.385530 0.086915 -0.019844 -53847.300000 0 0 1
-5.481611 9.669618 24.677203 27.064994 -1.055078 0.423209 0.080045 -0.022050 -193568.000000 0 0 1
-4.835911 11.021418 24.897583 27.654065 -1.157317 0.450286 0.092314 -0.021997 -589776.000000 0 0 1
-4.583911 11.649018 23.628553 26.739865 -1.195904 0.487204 0.082913 -0.023144 192389.000000 0 0 1
-3.938411 12.916718 23.696583 27.274177 -1.274843 0.517965 0.071410 -0.015211 953760.000000 0 0 1
-2.352111 12.832918 23.776603 27.120897 -1.389521 0.501860 0.049654 -0.006250 817948.000000 0 0 1
-1.775911 12.268618 24.964213 27.872653 -1.427043 0.460900 0.060606 -0.008022 -481.192000 0 0 1
-2.004111 12.896318 26.232103 29.299398 -1.416628 0.461665 0.073039 -0.008554 -818665.000000 0 0 1
-1.123711 12.445718 27.415413 30.129114 -1.480752 0.427679 0.077597 -0.012967 -933658.000000 0 0 1
0.159089 12.914318 27.253963 30.159300 1.558478 0.442540 0.070499 -0.010096 -1216890.000000 0 0 1
1.025689 12.381818 28.246853 30.858486 1.488147 0.414377 0.077729 -0.019469 657631.000000 0 0 1
2.539889 12.658618 28.024733 30.855750 1.372781 0.431714 0.070554 -0.016222 460971.000000 0 0 1
2.936489 13.980618 28.212773 31.623428 1.363766 0.468719 0.063203 -0.013329 266435.000000 0 0 1
4.323389 14.175418 27.952723 31.638408 1.274766 0.487501 0.075566 -0.016112 418966.000000 0 0 1
4.827089 15.591018 28.208103 32.589534 1.270549 0.524535 0.069305 -0.018724 -366928.000000 0 0 1
4.750389 16.018518 29.602473 33.992139 1.282502 0.513842 0.074941 -0.016025 740536.000000 0 0 1
3.643189 16.902218 29.851863 34.497703 1.358499 0.524990 0.059498 -0.012620 430337.000000 0 0 1
3.783389 18.321318 29.342503 34.798954 1.367157 0.567587 0.060736 -0.013539 439350.000000 0 0 1
4.851289 19.074818 29.933643 35.824665 1.321747 0.581646 0.083837 -0.015916 657983.000000 0 0 1
5.571589 19.930018 29.037213 35.656808 1.298198 0.619184 0.073766 -0.016353 138054.000000 0 0 1
6.598289 20.788318 29.772013 36.906156 1.263450 0.632258 0.073119 -0.012513 -200433.000000 0 0 1
6.004389 21.697318 30.663793 38.040695 1.300819 0.633300 0.063067 -0.025149 610671.000000 0 0 1
7.022489 22.526518 31.277693 39.179758 1.268601 0.646308 0.059366 -0.027205 662455.000000 0 0 1
7.412789 23.810018 30.549413 39.435175 1.268977 0.684597 0.062840 -0.019495 50742.500000 0 0 1
8.012889 23.639718 29.277613 38.473644 1.243991 0.705976 0.052325 -0.018358 238565.000000 0 0 1
8.172589 24.865918 28.591423 38.763056 1.253252 0.741295 0.050482 -0.019103 40385.100000 0 0 1
8.697489 24.706918 27.147793 37.723743 1.232317 0.767502 0.077841 -0.026788 -149331.000000 0 0 1
7.789389 24.030618 26.336923 36.493543 1.257339 0.764560 0.076148 -0.031348 267523.000000 0 0 1
8.264289 24.105518 25.003923 35.701129 1.240516 0.794884 0.090942 -0.035160 -64346.400000 0 0 1
28.747339 2.925018 6.413429 29.598941 0.101400 1.352386 0.196033 -0.016773 215236.000000 0 0 1
29.459939 3.940018 7.140829 30.568010 0.132953 1.335013 0.182997 -0.023528 360257.000000 0 0 1
29.241939 3.832618 8.531529 30.701254 0.130323 1.289201 0.176115 -0.010222 323462.000000 0 0 1
30.030949 4.866218 9.450129 31.856600 0.160644 1.269618 0.168029 -0.012624 408138.000000 0 0 1
29.517139 6.205118 9.363529 31.582284 0.207204 1.269791 0.159728 -0.008734 208604.000000 0 0 1
30.112099 6.984418 8.317429 32.010940 0.227917 1.307949 0.172997 -0.028953 -158081.000000 0 0 1
29.518839 8.377018 8.108829 31.737823 0.276516 1.312438 0.200052 -0.034376 -379655.000000 0 0 1
28.326539 8.496518 7.402929 30.485849 0.291410 1.325513 0.174378 -0.035096 -518745.000000 0 0 1
28.256039 9.556718 6.454829 30.518837 0.326141 1.357684 0.198577 -0.068583 -939181.000000 0 0 1
27.108939 9.542718 5.470729 29.255545 0.338468 1.382691 0.179067 -0.057545 594308.000000 0 0 1
25.919739 10.191918 6.043229 28.499626 0.374640 1.357128 0.159689 -0.043154 669313.000000 0 0 1
24.876939 10.028618 5.136529 27.309691 0.383201 1.381585 0.179728 -0.043583 -936086.000000 0 0 1
23.531039 10.602018 5.516729 26.392175 0.423315 1.360214 0.105584 -0.033533 -572734.000000 0 0 1
23.618639 12.010118 5.558629 27.073629 0.470426 1.364011 0.098854 -0.023461 567227.000000 0 0 1
22.432339 12.626218 6.062529 26.445897 0.512661 1.339497 0.091806 -0.015300 252479.000000 0 0 1
22.594739 14.166418 6.264729 27.394461 0.560021 1.340069 0.090479 -0.005055 -24846.000000 0 0 1
22.595839 14.808918 5.010829 27.476980 0.580150 1.387405 0.086831 -0.019451 302491.000000 0 0 1
22.625139 16.227418 5.110829 28.308066 0.622196 1.389258 0.115083 -0.014033 -484829.000000 0 0 1
22.168139 16.912918 3.842029 28.146658 0.651730 1.433868 0.116661 -0.030899 -926426.000000 0 0 1
20.783439 16.808618 3.890929 27.011485 0.680054 1.426246 0.122849 -0.019425 -795459.000000 0 0 1
20.198939 17.442618 2.777829 26.832041 0.712303 1.467084 0.130650 -0.022469 288526.000000 0 0 1
18.650339 17.300018 2.687229 25.580207 0.747855 1.465551 0.104221 -0.022289 233429.000000 0 0 1
17.998939 18.195218 3.543129 25.837599 0.790821 1.433232 0.109622 -0.023900 773277.000000 0 0 1
16.582339 17.976318 3.390429 24.690423 0.825713 1.433043 0.083431 -0.031405 1149570.000000 0 1 0
15.639039 19.169118 3.825929 25.033425 0.886468 1.417362 0.106001 -0.034396 41352.900000 0 0 1
14.284839 18.852318 3.618229 23.928186 0.922371 1.419002 0.106695 -0.040353 -384105.000000 0 1 0
13.563339 19.984318 4.079429 24.494466 0.974510 1.403472 0.077703 -0.039160 -197196.000000 0 1 0
12.048939 19.832818 3.803629 23.515637 1.024862 1.408334 0.053899 -0.033726 -109165.000000 0 1 0
11.517739 18.971118 4.772229 22.701009 1.025158 1.358995 0.041079 -0.030319 -518410.000000 0 1 0
10.120339 19.015218 4.643029 22.035369 1.081704 1.358497 0.026343 -0.021465 -117327.000000 0 1 0
9.334239 18.549718 5.891629 21.585443 1.104591 1.294344 0.023598 -0.015635 -529129.000000 0 1 0
9.228139 19.400518 6.988829 22.591644 1.126806 1.256282 0.048194 -0.022334 -18293.700000 0 1 0
8.629239 18.710318 8.099729 22.139227 1.138666 1.196246 0.052277 -0.019505 -164508.000000 0 1 0
7.637339 19.566718 8.911529 22.816677 1.198660 1.169545 0.059164 -0.019969 -54768.700000 0 1 0
6.513739 19.904818 8.133529 22.467418 1.254536 1.200368 0.047604 -0.021542 -458141.000000 0 1 0
6.557039 21.144018 7.435729 23.352822 1.270087 1.246747 0.054871 -0.017312 -329798.000000 0 1 0
5.297039 21.492518 6.588029 23.095217 1.329152 1.281524 0.040502 -0.005050 212243.000000 0 1 0
4.035939 21.581618 7.186829 23.102068 1.385924 1.254456 0.034160 -0.007211 -296151.000000 0 1 0
3.845439 22.776218 8.039929 24.457800 1.403538 1.235841 0.045425 -0.013649 -504897.000000 0 1 0
3.915739 24.175618 7.315829 25.560025 1.410220 1.280515 0.062893 -0.015471 -55478.300000 0 0 1
2.829139 24.190718 6.417429 25.186867 1.454374 1.313163 0.057249 -0.017072 1591.790000 0 0 1
2.921539 25.189318 5.446629 25.936516 1.455329 1.359223 0.074201 -0.020405 -913838.000000 0 0 1
1.696139 25.423018 4.599429 25.891340 1.504178 1.392205 0.071457 -0.017836 -1356600.000000 0 0 1
0.627039 25.871018 5.358429 26.427552 1.546564 1.366621 0.095395 -0.019859 -916793.000000 0 0 1
-0.487361 26.012218 4.515629 26.405755 -1.552063 1.398942 0.091657 -0.020260 -862113.000000 0 0 1
-1.740461 26.442018 5.231329 27.010670 -1.505069 1.375888 0.100477 -0.023285 -1016750.000000 0 0 1
-2.768761 26.729118 4.349729 27.221901 -1.467579 1.410321 0.124790 -0.032045 -615196.000000 0 0 1
-3.925961 27.218118 5.011629 27.952737 -1.427544 1.390532 0.115877 -0.031452 292764.000000 0 0 1
-4.939061 27.740418 3.937329 28.450442 -1.394597 1.431958 0.123951 -0.032371 -97337.200000 0 0 1
-4.561261 28.904418 3.232829 29.440137 -1.414282 1.460764 0.119719 -0.029145 -326678.000000 0 0 1
-5.345661 29.184318 2.109529 29.744757 -1.389636 1.499816 0.129331 -0.039853 -251194.000000 0 0 1
-4.713661 30.292318 1.192529 30.680046 -1.416428 1.531917 0.122541 -0.026566 238749.000000 0 0 1
-4.444161 31.622218 1.597729 31.972925 -1.431172 1.520804 0.121621 -0.022365 19979.700000 0 0 1
-3.283861 31.567018 2.417629 31.829315 -1.467141 1.494767 0.120060 -0.029368 -218061.000000 0 0 1
-2.551661 32.919918 2.341529 33.101582 -1.493440 1.500000 0.128390 -0.028198 -897023.000000 0 0 1
-2.115861 33.232718 1.025529 33.315793 -1.507214 1.540009 0.108863 -0.016042 -3633.500000 0 0 1
-1.324761 -33.351480 0.955429 33.391452 1.531096 1.542179 0.117542 -0.021442 1644870.000000 0 0 1
0.180939 -33.524080 1.471329 33.556840 -1.565399 1.526936 0.096291 -0.017857 881829.000000 0 0 1
0.194839 -33.582380 2.897029 33.707669 -1.564995 1.484744 0.083740 -0.017888 176042.000000 0 0 1
1.461439 33.858218 3.477829 34.067727 1.527660 1.468532 0.064923 -0.014063 466337.000000 0 0 1
1.474139 33.869018 5.006229 34.268729 1.527299 1.424184 0.055538 -0.010581 239746.000000 0 0 1
0.483839 33.066618 5.631329 33.546195 1.556165 1.402130 0.092329 -0.024913 -7264.860000 0 0 1
0.067739 33.466618 6.905229 34.171644 1.568772 1.367320 0.126270 -0.030859 495085.000000 0 0 1
1.124439 33.405818 8.082929 34.388178 1.537149 1.333527 0.098696 -0.023405 396794.000000 0 0 1
1.512339 32.115718 8.485229 33.252152 1.523741 1.312764 0.097548 -0.026264 748384.000000 0 0 1
2.671339 32.151518 9.351429 33.590257 1.487901 1.288672 0.100166 -0.025053 137077.000000 0 0 1
3.302439 30.828418 9.524329 32.434708 1.464080 1.272757 0.103978 -0.029933 -514120.000000 0 0 1
2.582739 29.965618 10.371229 31.814638 1.484819 1.238738 0.134858 -0.031908 -3101.970000 0 0 1
2.928339 28.627918 10.234729 30.543126 1.468861 1.229094 0.112322 -0.035667 -94595.900000 0 0 1
2.341239 27.771718 11.422429 30.120119 1.486692 1.181833 0.117597 -0.040212 -308676.000000 0 0 1
2.899839 28.024618 12.683429 30.897535 1.467689 1.147794 0.115630 -0.035017 90510.500000 0 0 1
2.467539 27.044918 13.657029 30.397874 1.479810 1.104842 0.115835 -0.031148 572157.000000 0 0 1
0.953539 26.856718 14.023829 30.312709 1.535307 1.089827 0.100342 -0.033473 544411.000000 0 0 1
0.431639 28.018818 14.654129 31.622523 1.555392 1.088959 0.105994 -0.040872 213881.000000 0 0 1
-0.242961 29.010018 13.836029 32.141497 -1.562421 1.125780 0.119725 -0.039925 -20857.900000 0 0 1
-1.014961 30.020618 14.676929 33.431720 -1.537000 1.116297 0.098022 -0.036133 74939.600000 0 0 1
-2.247861 29.556418 15.184329 33.304633 -1.494889 1.097388 0.086751 -0.029118 37797.900000 0 0 1
-2.944361 30.621818 15.847229 34.604908 -1.474939 1.095111 0.078029 -0.026339 -622074.000000 0 0 1
-4.166261 30.238118 16.643329 34.766390 -1.433877 1.071601 0.067857 -0.024754 -910634.000000 0 0 1
-5.177261 29.808518 15.789929 34.127315 -1.398828 1.089784 0.071269 -0.023919 -420643.000000 0 0 1
-6.335361 29.442518 16.536329 34.357660 -1.358851 1.068660 0.062307 -0.022722 -237056.000000 0 0 1
-7.511861 29.279818 15.560029 33.997798 -1.319659 1.095415 0.062023 -0.030452 254799.000000 0 0 1
-8.777161 28.919918 16.135029 34.259880 -1.276133 1.080418 0.057607 -0.029249 911966.000000 0 0 1
-9.608361 28.294018 15.092529 33.476208 -1.243426 1.103086 0.052812 -0.025570 117359.000000 0 0 1
-10.998061 27.886418 15.574829 33.781429 -1.195137 1.091622 0.049523 -0.020114 -551362.000000 0 0 1
-11.750761 28.943718 16.027529 35.109840 -1.185140 1.096743 0.051345 -0.025625 -216907.000000 0 0 1
-11.703361 28.972418 17.474029 35.800996 -1.186891 1.060899 0.061803 -0.027962 -292938.000000 0 0 1
-12.463661 30.177918 18.113329 37.338214 -1.179128 1.064302 0.059183 -0.026828 -203047.000000 0 0 1
-13.864861 30.001618 18.015029 37.641370 -1.137895 1.071741 0.076566 -0.018500 118826.000000 0 0 1
-14.579061 31.150518 18.413829 39.012471 -1.133059 1.079240 0.079004 -0.019422 -200189.000000 0 0 1
-15.472161 30.883818 19.604029 39.717955 -1.106365 1.054594 0.079265 -0.021378 -353326.000000 0 0 1
-14.775761 30.843418 20.822529 40.040195 -1.124043 1.023898 0.078152 -0.022711 74765.500000 0 0 1
-15.699161 30.590518 21.885329 40.757957 -1.096642 1.003969 0.068132 -0.019305 179459.000000 0 0 1
-15.182161 30.618318 23.336529 41.383245 -1.110472 0.971681 0.058873 -0.009486 -609530.000000 0 0 1
-14.190761 29.630218 23.556629 40.425762 -1.124147 0.948733 0.060141 -0.011087 460189.000000 0 0 1
-13.810461 29.442718 24.958329 40.994154 -1.132204 0.916216 0.073132 -0.010080 141912.000000 0 0 1
-13.175961 30.651118 25.708429 42.119120 -1.164809 0.914263 0.067879 0.000976 338467.000000 0 0 1
-14.216761 31.546518 26.184629 43.392786 -1.147393 0.922997 0.062234 -0.005003 846566.000000 0 0 1
-13.744061 32.706918 26.723329 44.415966 -1.172982 0.925218 0.053873 -0.009470 -396927.000000 0 0 1
-14.879961 33.526318 27.364429 45.762858 -1.153086 0.929841 0.063234 -0.014936 -248425.000000 0 0 1
-15.521561 33.150118 28.534129 46.411698 -1.132894 0.908658 0.046460 -0.015323 92926.700000 0 0 1
-14.722361 32.834318 29.658229 46.631008 -1.149288 0.881467 0.062953 -0.008606 -462212.000000 0 0 1
-15.637261 32.190218 30.726929 47.168615 -1.118592 0.861332 0.052833 -0.008456 336563.000000 0 0 1
-16.652561 33.064518 31.219329 48.427437 -1.104242 0.870215 0.053035 -0.009128 -96769.500000 0 0 1
-17.158261 32.501318 32.407629 48.999959 -1.085059 0.848138 0.051661 -0.006771 -264495.000000 0 0 1
-18.668961 32.699018 32.544129 49.768225 -1.052024 0.858050 0.057006 -0.006452 -406373.000000 0 0 1
-19.053861 -33.755680 32.968629 50.886403 1.056916 0.865989 0.071855 -0.013069 1466390.000000 0 0 1
-20.510661 -33.646580 33.051229 51.431151 1.023354 0.872870 0.080606 -0.015164 1742250.000000 0 0 1
-20.921761 -32.196180 33.394529 50.887215 0.994547 0.854964 0.088349 -0.012423 59802.800000 0 0 1
-20.433661 -31.700080 -33.082314 50.168407 0.998231 2.290850 0.083012 -0.012263 366084.000000 0 0 1
-21.267361 -31.970280 -31.951514 49.952965 0.983794 2.264816 0.069130 -0.011065 105816.000000 0 0 1
-20.836661 -31.154180 -30.724214 48.463664 0.981302 2.257464 0.083645 -0.012827 162743.000000 0 0 1
-21.281361 -29.825880 -30.869814 47.910592 0.951054 2.270932 0.095111 -0.012039 78258.900000 0 0 1
-20.597861 -28.970780 -29.980514 46.501712 0.952734 2.271451 0.077090 -0.011642 65205.900000 0 0 1
-20.981661 -27.502380 -30.257014 45.957566 0.919088 2.289445 0.085086 -0.020658 71538.400000 0 0 1
-22.184261 -27.155580 -29.607914 45.893306 0.885816 2.272012 0.075443 -0.017797 -345966.000000 0 0 1
-22.570061 -25.812180 -29.861014 45.468191 0.852309 2.287291 0.075858 -0.013803 -88738.200000 0 0 1
-23.919661 -25.542580 -29.174414 45.560070 0.818198 2.265751 0.081035 -0.016850 -237029.000000 0 0 1
-23.952961 -25.718880 -27.785914 44.802479 0.820935 2.239777 0.071072 -0.023273 -13705.400000 0 0 1
-23.237261 -24.741580 -27.036614 43.394637 0.816742 2.243420 0.084515 -0.033516 -131086.000000 0 0 1
-23.120361 -25.143980 -25.540814 42.650955 0.827301 2.212840 0.083846 -0.021581 342537.000000 0 0 1
-24.284961 -24.824280 -24.780214 42.662199 0.796380 2.190565 0.077353 -0.024911 477000.000000 0 0 1
-24.177461 -25.298280 -23.490614 42.146904 0.808048 2.161988 0.075510 -0.017931 -44044.000000 0 0 1
-25.489761 -25.088280 -22.637814 42.327536 0.777460 2.135097 0.072594 -0.015467 792445.000000 0 0 1
-26.578561 -25.908280 -23.041514 43.687186 0.772628 2.126358 0.056065 -0.017171 -7030.180000 0 0 1
-26.456661 -27.326680 -22.905414 44.400004 0.801573 2.112840 0.057144 -0.009812 -604960.000000 0 0 1
-27.864261 -28.006780 -22.875514 45.651790 0.787949 2.095651 0.048727 -0.012919 966626.000000 0 0 1
-28.642061 -27.622980 -21.728514 45.337898 0.767288 2.070605 0.064287 -0.008230 -202271.000000 0 0 1
-29.847861 -26.978380 -22.038714 45.874096 0.734945 2.071927 0.065569 -0.009624 -208464.000000 0 0 1
-30.523061 -26.444180 -20.780514 45.417856 0.713920 2.046024 0.073062 -0.005693 -169296.000000 0 0 1
-31.112561 -27.365580 -19.915014 45.972537 0.721411 2.018830 0.076695 0.000844 -234340.000000 0 0 1
-31.849561 -26.804880 -18.889914 45.713510 0.699602 1.996788 0.084470 0.003129 -662736.000000 0 0 1
-32.699361 -27.853080 -18.118414 46.618871 0.705534 1.969962 0.066149 0.001691 665239.000000 0 0 1
-34.020361 -28.203180 -18.551514 47.926642 0.692181 1.968261 0.058261 0.006949 1766600.000000 0 0 1
-35.040561 -27.151080 -18.624614 48.082203 0.659215 1.968551 0.042053 0.010570 691362.000000 0 0 1
-35.676561 -26.584880 -17.308114 47.740377 0.640399 1.941795 0.049570 0.013395 -575991.000000 0 0 1
-34.876161 -25.649180 -16.666714 46.389723 0.634115 1.938288 0.047561 0.020935 -66767.300000 0 0 1
-35.460061 -25.074980 -15.509814 46.116427 0.615497 1.913801 0.044903 0.021137 -87839.200000 0 0 1
-35.109361 -25.791180 -14.182714 45.814862 0.633569 1.885533 0.073506 0.015366 41633.900000 0 0 1
-35.617761 -27.116880 -14.057314 46.920764 0.650713 1.875066 0.064336 0.010092 435289.000000 0 0 1
-35.115761 -27.712180 -12.848414 46.542060 0.668100 1.850489 0.039900 0.010727 75829.500000 0 0 1
-35.895161 -29.016880 -12.543514 47.830760 0.679829 1.836147 0.049195 0.001716 -41968.400000 0 0 1
-35.685561 -30.083080 -13.400314 48.559441 0.700419 1.850381 0.039558 0.002996 182269.000000 0 0 1
-36.070361 -31.291880 -12.813714 49.441318 0.714580 1.832959 0.023228 -0.000260 -150540.000000 0 0 1
-35.658361 -32.360280 -13.861514 50.108362 0.736948 1.851083 0.022570 0.009854 -25636.500000 0 0 1
-34.263861 -32.525780 -14.018514 49.279379 0.759381 1.859250 0.032588 0.005435 17019.800000 0 0 1
-33.904961 -33.274880 -15.125014 49.855090 0.776019 1.879034 0.062366 -0.016055 1431920.000000 0 0 1
-32.348561 -33.596480 -15.243914 49.066585 0.804320 1.886703 0.069995 -0.010173 1591930.000000 0 0 1
-32.150661 33.326418 -16.300014 49.091807 -0.803353 1.909253 0.085411 -0.019738 -449922.000000 0 0 1
-30.797761 32.945418 -16.371614 47.978457 -0.819078 1.919020 0.096825 -0.023774 -663766.000000 0 0 1
9.261589 20.094918 -9.142871 23.941070 1.138922 1.962637 0.056587 -0.022217 -153839.000000 0 1 0
7.888889 19.752318 -9.188071 23.169145 1.190815 1.978568 0.057342 -0.033801 133933.000000 0 1 0
7.371789 19.799618 -10.530071 23.606154 1.214378 2.033169 0.070463 -0.034372 156322.000000 0 1 0
7.536889 18.509018 -11.331671 22.973794 1.184098 2.086611 0.062380 -0.029725 -1536570.000000 0 1 0
8.837289 18.346418 -11.718771 23.495070 1.121904 2.092982 0.086729 -0.030202 -1273860.000000 0 1 0
8.943689 17.226318 -12.569471 23.124169 1.091917 2.145474 0.087213 -0.033623 -215347.000000 0 1 0
10.351889 16.802918 -13.022971 23.645241 1.018639 2.154077 0.112752 -0.035405 -165067.000000 0 1 0
10.350189 15.659818 -13.849871 23.327564 0.986769 2.206461 0.125208 -0.040855 -140338.000000 0 1 0
11.605289 15.365118 -14.408371 24.049339 0.923911 2.213194 0.161126 -0.051236 -375590.000000 0 1 0
11.502289 14.086918 -15.215771 23.712098 0.886061 2.267494 0.142153 -0.046958 -330921.000000 0 1 0
11.392289 12.874818 -14.471271 22.471379 0.846414 2.270494 0.148573 -0.048723 -127349.000000 0 1 0
12.591289 12.328918 -14.019671 22.518746 0.774870 2.242829 0.177581 -0.048278 -85920.900000 0 1 0
13.593789 11.685018 -15.030071 23.393028 0.710032 2.268555 0.198666 -0.050895 533295.000000 0 1 0
14.199289 12.589018 -15.999571 24.821149 0.725359 2.271289 0.175705 -0.042948 532993.000000 0 1 0
15.118889 11.864518 -16.820171 25.539494 0.665371 2.289746 0.179378 -0.046063 -105008.000000 0 0 1
15.911989 12.576718 -17.889371 27.044312 0.668855 2.293592 0.146650 -0.035743 -311812.000000 0 0 1
16.994389 13.287718 -17.352671 27.685518 0.663599 2.248207 0.117507 -0.030452 -171464.000000 0 0 1
17.812389 13.755818 -18.425071 29.085855 0.657597 2.256828 0.088743 -0.020980 799115.000000 0 0 1
18.985489 14.765418 -18.067471 30.081553 0.661008 2.215068 0.087211 -0.011898 474894.000000 0 0 1
18.654689 16.059218 -17.513571 30.209619 0.710770 2.189200 0.085840 -0.020734 36648.300000 0 0 1
18.104689 16.965918 -18.391871 30.884997 0.752939 2.208678 0.083894 -0.007913 -87479.300000 0 0 1
17.657089 18.332918 -17.693171 30.998661 0.804174 2.178242 0.076371 0.000789 185953.000000 0 0 1
18.698789 19.284318 -17.727471 32.183736 0.800812 2.154144 0.090163 -0.008166 315922.000000 0 0 1
18.252289 20.537318 -17.184871 32.407518 0.844238 2.129720 0.056369 -0.002174 21320.200000 0 0 1
19.243289 21.718318 -17.363571 33.815427 0.845748 2.110033 0.068998 -0.010079 -387090.000000 0 0 1
20.400489 21.727118 -16.607971 34.118504 0.816878 2.079188 0.099813 -0.016528 -924819.000000 0 0 1
20.306089 21.978518 -15.200571 33.562626 0.824929 2.040814 0.089738 -0.011051 -388467.000000 0 0 1
21.452689 22.847418 -14.616871 34.581430 0.816871 2.007197 0.098195 -0.017518 325118.000000 0 0 1
22.661789 22.151418 -14.400171 34.808144 0.774010 1.997312 0.110146 -0.024022 514138.000000 0 0 1
23.689589 23.004818 -13.855271 35.810429 0.770734 1.968070 0.092256 -0.028929 -281534.000000 0 0 1
25.109189 22.484518 -13.868371 36.446627 0.730307 1.961146 0.075416 -0.018496 -599470.000000 0 0 1
25.701889 22.564918 -15.126071 37.397335 0.720497 1.987195 0.099191 -0.015011 589442.000000 0 0 1
26.573989 23.725318 -15.325371 38.780595 0.728824 1.977062 0.068153 -0.006230 199827.000000 0 0 1
26.937789 23.974418 -16.820171 39.791146 0.727258 2.007231 0.078082 -0.012538 -82982.700000 0 0 1
27.779789 22.993318 -17.427771 40.051673 0.691404 2.020981 0.077145 -0.016625 173025.000000 0 0 1
27.740089 23.077018 -18.830571 40.701986 0.693893 2.051773 0.064999 -0.010007 -673264.000000 0 0 1
28.556189 22.027018 -19.531571 41.013750 0.657030 2.067147 0.059214 -0.011672 555447.000000 0 0 1
29.949489 22.352918 -19.633771 42.215042 0.641164 2.054532 0.052763 -0.005300 491132.000000 0 0 1
30.641989 21.539718 -20.533671 42.714430 0.612702 2.072272 0.057566 -0.008912 235427.000000 0 0 1
32.095389 21.960218 -20.871071 44.135776 0.600055 2.063357 0.079335 -0.014338 46185.600000 0 0 1
32.127489 23.107018 -21.652871 45.110494 0.623515 2.071447 0.062893 -0.003424 -459678.000000 0 0 1
33.382789 23.671518 -21.440571 46.200102 0.616803 2.053393 0.066877 -0.000415 -404941.000000 0 0 1
33.428089 25.129518 -21.910871 47.212457 0.644619 2.053404 0.081745 -0.000908 -63815.800000 0 0 1
33.505589 25.411318 -23.294471 48.072777 0.648868 2.076664 0.073158 0.000931 -143395.000000 0 0 1
32.332689 25.149518 -24.021871 47.486327 0.661079 2.101186 0.069540 -0.002827 -426008.000000 0 0 1
32.439889 25.578318 -25.515651 48.555588 0.667679 2.124091 0.084950 -0.010401 -426641.000000 0 0 1
32.265789 26.941718 -25.649551 49.242631 0.695717 2.118679 0.095877 -0.016677 -411335.000000 0 0 1
30.952889 27.361718 -25.903161 48.761857 0.723893 2.130833 0.085295 -0.008304 -221308.000000 0 0 1
30.473789 27.203018 -27.365391 49.168289 0.728750 2.161043 0.099225 -0.007652 -416053.000000 0 0 1
30.301689 25.804218 -27.666281 48.471364 0.705409 2.178247 0.089224 -0.016294 -65424.700000 0 0 1
29.783189 25.591218 -28.967941 48.796418 0.709840 2.206382 0.097689 -0.026139 -186033.000000 0 0 1
29.199789 24.188218 -29.228271 47.874726 0.691802 2.227508 0.105263 -0.035850 -460853.000000 0 0 1
27.927189 24.002018 -28.702051 46.688676 0.709955 2.232870 0.095302 -0.027330 -618438.000000 0 0 1
27.289689 22.824018 -29.110591 45.968352 0.696522 2.256573 0.103947 -0.041493 -463073.000000 0 0 1
25.874989 22.722018 -28.550531 44.731845 0.720609 2.263032 0.087010 -0.032069 -492267.000000 0 0 1
25.905689 22.706718 -27.128771 43.848261 0.719687 2.237879 0.081707 -0.014352 -253081.000000 0 0 1
24.594489 22.846618 -26.683751 42.882157 0.748572 2.242420 0.044623 -0.005415 -624296.000000 0 0 1
24.463589 22.996518 -25.150021 41.950334 0.754496 2.213696 0.049263 -0.002378 -181894.000000 0 0 1
24.850189 21.817618 -24.488771 41.149000 0.720507 2.208217 0.066145 -0.014695 266736.000000 0 0 1
25.037589 22.037218 -23.103871 40.574729 0.721748 2.176591 0.078095 -0.012993 -216264.000000 0 0 1
25.668789 20.887418 -22.257771 39.882067 0.683056 2.162878 0.084643 -0.015995 -444414.000000 0 0 1
26.965089 20.667418 -22.718071 40.870147 0.653947 2.160193 0.057171 -0.012748 -666251.000000 0 0 1
27.478689 19.453318 -22.369171 40.421402 0.616036 2.157236 0.079512 -0.025819 337260.000000 0 0 1
28.890289 19.173018 -22.964771 41.588870 0.585911 2.155780 0.099639 -0.034583 415335.000000 0 0 1
29.677089 18.123918 -22.471771 41.402735 0.548253 2.144517 0.096357 -0.031069 179693.000000 0 0 1
30.858889 17.900718 -23.246071 42.580354 0.525646 2.148300 0.074419 -0.019944 608560.000000 0 0 1
32.028289 17.639218 -22.259971 42.807238 0.503410 2.117653 0.051884 -0.013705 154706.000000 0 0 1
32.794789 18.734818 -21.820571 43.619134 0.519030 2.094686 0.053914 -0.010239 327590.000000 0 0 1
34.039589 18.456418 -21.202571 44.146144 0.496838 2.071772 0.068393 -0.010550 525882.000000 0 0 1
34.492889 19.514418 -20.146971 44.457534 0.514856 2.041118 0.037633 -0.018741 -344843.000000 0 0 1
33.945889 19.449618 -18.872671 43.437181 0.520299 2.020259 0.062054 -0.019627 -136327.000000 0 0 1
34.249589 20.584418 -18.044471 43.844675 0.541163 1.994955 0.045321 -0.009287 -35725.300000 0 0 1
33.688489 20.581918 -16.618971 42.833630 0.548431 1.969245 0.054007 -0.019640 -70712.700000 0 0 1
34.174289 19.463618 -15.906671 42.423303 0.517721 1.955141 0.055696 -0.030689 281727.000000 0 0 1
33.875789 19.552618 -14.547871 41.731457 0.523475 1.926881 0.050762 -0.029481 -271686.000000 0 0 1
34.368689 18.389218 -13.662671 41.304221 0.491299 1.907928 0.056527 -0.021682 -167577.000000 0 0 1
35.772489 18.292018 -13.500271 42.385448 0.472681 1.894956 0.055838 -0.025261 146055.000000 0 0 1
36.208889 17.217818 -12.677471 42.050626 0.443867 1.877042 0.051152 -0.014670 36232.700000 0 0 1
36.061089 17.442318 -11.185571 41.590306 0.450513 1.843095 0.074506 -0.017629 -307174.000000 0 0 1
36.743289 18.618618 -10.680371 42.553408 0.469010 1.824497 0.053999 -0.016341 351877.000000 0 0 1
36.383589 19.123718 -9.370571 42.157914 0.483928 1.794942 0.058431 -0.009209 665978.000000 0 0 1
35.095089 20.057118 -9.315271 41.481653 0.519206 1.797292 0.060787 -0.009795 462084.000000 0 0 1
33.940289 19.385618 -9.700071 40.272035 0.518950 1.814052 0.071992 -0.029132 -1393310.000000 0 0 1
32.809889 20.168918 -9.459971 39.658103 0.551173 1.811657 0.034811 -0.016023 -618505.000000 0 0 1
31.585489 19.322118 -9.826571 38.308600 0.549007 1.830207 0.021584 -0.004503 -437648.000000 0 0 1
31.412289 19.178918 -11.223271 38.477586 0.548144 1.866783 0.037930 -0.017636 756435.000000 0 0 1
30.280189 18.334818 -11.589371 37.247401 0.544458 1.887195 0.036151 -0.016039 797742.000000 0 0 1
30.254889 17.802418 -13.039571 37.447494 0.531857 1.926457 0.049032 -0.023275 -855486.000000 0 0 1
31.276689 16.919718 -13.281471 37.959262 0.495883 1.928247 0.048435 -0.020567 -682815.000000 0 0 1
31.067089 16.133818 -14.459671 37.875403 0.478985 1.962506 0.027022 -0.017589 102657.000000 0 0 1
32.388289 15.616218 -15.089371 38.994315 0.449271 1.968132 0.051622 -0.023125 -13395.100000 0 0 1
33.042189 14.726118 -14.245471 38.879021 0.419252 1.945939 0.046765 -0.016658 -230814.000000 0 0 1
34.300089 14.397218 -14.784171 40.029335 0.397409 1.949088 0.060132 -0.019958 -114524.000000 0 0 1
35.074189 13.374218 -13.901671 40.029051 0.364293 1.925476 0.060205 -0.032588 -117614.000000 0 0 1
35.507289 13.951718 -12.673771 40.200031 0.374393 1.891535 0.059541 -0.017929 -92048.500000 0 0 1
36.257789 13.027818 -11.961071 40.341276 0.344945 1.871819 0.059226 -0.009129 -545973.000000 0 0 1
37.263189 13.687418 -11.037471 41.203355 0.352018 1.841986 0.085036 -0.008701 -150184.000000 0 0 1
-36.305761 14.037618 -11.641671 40.628703 -0.368945 1.861408 0.073271 -0.011132 -73118.800000 0 0 1
-35.368461 14.238118 -10.614671 39.576802 -0.382716 1.842325 0.072582 -0.013415 -524598.000000 0 0 1
-33.943361 14.613918 -11.104771 38.588007 -0.406552 1.862702 0.108123 -0.021025 751789.000000 0 0 1
-33.044761 13.588818 -11.575871 37.558128 -0.390145 1.884109 0.118596 -0.024300 701346.000000 0 0 1
-32.706161 12.600018 -10.554371 36.603936 -0.367726 1.863289 0.140958 -0.018238 -1029930.000000 0 0 1
-31.701061 11.510518 -10.911871 35.447400 -0.348293 1.883711 0.161930 -0.028403 -383507.000000 0 0 1
-32.001661 10.600418 -11.938771 35.763241 -0.319871 1.911158 0.141741 -0.026661 -127383.000000 0 0 1
-31.163761 9.487018 -11.818971 34.653594 -0.295511 1.918841 0.148193 -0.040501 -335921.000000 0 0 1
-31.067061 8.630918 -13.142271 34.819165 -0.270982 1.957830 0.146405 -0.037675 492554.000000 0 0 1
-32.243461 7.901318 -13.535871 35.850961 -0.240316 1.957956 0.123733 -0.028528 697985.000000 0 0 1
-32.028461 7.027418 -14.625671 35.904278 -0.215989 1.990349 0.127404 -0.025015 -664039.000000 0 0 1
-33.305061 6.726918 -15.408871 37.308334 -0.199298 1.996558 0.114051 -0.019114 -1053100.000000 0 0 1
-34.210961 6.099118 -14.598771 37.692349 -0.176426 1.968513 0.132393 -0.029991 -644233.000000 0 0 1
-35.235961 5.526518 -15.370071 38.837539 -0.155576 1.977684 0.112020 -0.035888 -611513.000000 0 0 1
-36.478261 5.091118 -14.614371 39.625280 -0.138670 1.948529 0.110336 -0.035331 -536263.000000 0 0 1
-37.355561 4.218818 -15.301171 40.587710 -0.112460 1.957341 0.120399 -0.031481 110624.000000 0 0 1
36.320489 3.964818 -14.465371 39.295606 0.108731 1.947779 0.119996 -0.033627 311432.000000 0 0 1
35.432789 2.882618 -15.097871 38.623021 0.081176 1.972409 0.106090 -0.029651 -230165.000000 0 0 1
36.042189 1.615418 -15.077471 39.102162 0.044790 1.966645 0.128786 -0.029222 153684.000000 0 0 1
35.088489 0.567018 -14.994571 38.162295 0.016158 1.974597 0.122153 -0.023391 -10388.000000 0 0 1
34.555489 0.248218 -13.609171 37.139642 0.007183 1.945968 0.100701 -0.028674 -91725.500000 0 0 1
35.473989 -0.287582 -12.639171 37.659464 -0.008107 1.913057 0.120449 -0.027705 251476.000000 0 0 1
35.164189 -0.059682 -11.302071 36.935898 -0.001697 1.881776 0.101480 -0.015179 -337417.000000 0 0 1
35.302889 1.374118 -10.703071 36.915280 0.038904 1.864956 0.102869 -0.034416 356522.000000 0 0 1
34.238689 2.213118 -11.177071 36.084798 0.064548 1.885721 0.094150 -0.027360 801106.000000 0 0 1
34.224289 3.466818 -10.559771 35.983740 0.100953 1.868640 0.118350 -0.034946 -259509.000000 0 0 1
33.034289 4.269518 -11.115271 35.114702 0.128533 1.892878 0.118151 -0.036959 -366507.000000 0 0 1
33.146389 4.675318 -12.469771 35.721659 0.140126 1.927387 0.106762 -0.034073 757999.000000 0 0 1
32.142889 5.629618 -12.866871 35.077262 0.173385 1.946380 0.117318 -0.037188 162474.000000 0 0 1
32.447489 6.357318 -14.130471 35.957270 0.193476 1.974666 0.091981 -0.030382 -482605.000000 0 0 1
32.391889 5.519418 -15.249971 36.225130 0.168774 2.005319 0.079527 -0.017695 209343.000000 0 0 1
32.811689 6.166618 -16.448371 37.218047 0.185773 2.028563 0.078615 -0.020073 -1259160.000000 0 0 1
31.842889 7.177718 -17.061471 36.831821 0.221705 2.052429 0.080063 -0.021683 90197.900000 0 0 1
30.682189 6.615118 -17.688171 36.028154 0.212351 2.083981 0.056469 -0.016422 1244560.000000 0 0 1
29.674389 6.256818 -16.687871 34.615057 0.207805 2.073845 0.045388 -0.009679 -1293260.000000 0 0 1
28.316089 6.140518 -17.338671 33.765905 0.213550 2.110051 0.027067 -0.000530 -994063.000000 0 0 1
28.068089 5.000618 -18.135871 33.789549 0.176310 2.137353 0.042496 -0.007855 445322.000000 0 0 1
27.030689 5.203718 -19.096171 33.502247 0.190185 2.177298 0.029095 -0.002609 97372.900000 0 0 1
26.649489 3.987418 -19.958571 33.532660 0.148523 2.208308 0.043322 0.007570 -285187.000000 0 0 1
25.836389 3.083118 -19.270371 32.378570 0.118771 2.208259 0.053691 -0.003688 4825.020000 0 0 1
25.522689 1.973118 -20.075371 32.531852 0.077155 2.235847 0.061983 -0.008070 -330772.000000 0 0 1
24.483589 1.133218 -19.249271 31.165121 0.046252 2.236553 0.062199 -0.009619 -17542.100000 0 0 1
23.226189 1.723218 -19.208971 30.189566 0.074057 2.260461 0.071567 -0.015480 -553753.000000 0 0 1
22.235589 1.077818 -18.466271 28.923801 0.048435 2.263273 0.082387 -0.019062 189385.000000 0 0 1
20.897489 1.841618 -18.436671 27.928613 0.087899 2.291796 0.105025 -0.032170 -522579.000000 0 0 1
20.043889 1.802418 -19.561871 28.065512 0.089682 2.342012 0.111967 -0.029482 1263550.000000 0 0 1
18.819689 2.557018 -19.416971 27.161329 0.135042 2.367242 0.103200 -0.027628 950623.000000 0 0 1
17.702089 2.160918 -18.448771 25.659124 0.121470 2.373151 0.133623 -0.045184 -1243280.000000 0 0 1
17.903589 2.268618 -17.045871 24.824319 0.126041 2.327681 0.143006 -0.045627 177216.000000 0 1 0
16.707589 1.942718 -16.363871 23.466869 0.115758 2.342445 0.107892 -0.033723 272895.000000 0 1 0
15.680989 3.073918 -16.149871 22.719171 0.193574 2.361499 0.120450 -0.036087 -83787.000000 0 1 0
15.225389 3.543218 -17.440371 23.420790 0.228648 2.410812 0.121960 -0.028760 381057.000000 0 1 0
14.095889 4.402618 -17.429471 22.844334 0.302733 2.438687 0.122062 -0.030902 64918.900000 0 1 0
-19.938311 -21.592182 -17.104071 34.004526 0.825200 2.097856 0.102777 -0.030323 78982.300000 0 0 1
-20.006911 -22.270982 -18.304471 35.090266 0.838899 2.119568 0.109186 -0.033039 141842.000000 0 0 1
-21.064711 -21.798782 -19.118171 35.838714 0.802522 2.133471 0.116127 -0.033519 71164.600000 0 0 1
-20.913211 -22.299082 -20.544971 36.833508 0.817458 2.162504 0.091147 -0.022725 -165535.000000 0 0 1
-21.072111 -23.721982 -20.530371 37.792359 0.844486 2.145089 0.082151 -0.015233 255917.000000 0 0 1
-20.843411 -24.281882 -21.799471 38.720466 0.861450 2.168803 0.075422 -0.012777 -160597.000000 0 0 1
-20.609911 -25.807592 -21.744171 39.542499 0.896910 2.153033 0.075916 -0.011255 336701.000000 0 0 1
-21.844111 -26.459052 -21.466171 40.472745 0.880650 2.129852 0.078033 -0.009497 221364.000000 0 0 1
-21.731211 -27.907372 -21.456571 41.369692 0.909185 2.116073 0.101859 -0.019781 -244313.000000 0 0 1
-23.025411 -28.722792 -21.647771 42.705905 0.895055 2.102385 0.088339 -0.011315 -41113.800000 0 0 1
-23.602611 -28.665202 -22.966571 43.660513 0.881956 2.124718 0.061143 -0.009446 114147.000000 0 0 1
-22.942011 -29.471022 -23.893371 44.337007 0.909328 2.139931 0.058996 -0.010341 -789671.000000 0 0 1
-23.276311 -28.996302 -25.313441 44.981579 0.894391 2.168507 0.048211 -0.005476 1196940.000000 0 0 1
-24.674511 -29.211472 -25.657261 46.048199 0.869396 2.161786 0.038633 -0.003085 1533000.000000 0 0 1
-25.115361 -28.471542 -26.831301 46.490093 0.847947 2.186019 0.035304 -0.001100 29667.800000 0 0 1
-24.673211 -28.907162 -28.262911 47.362258 0.864255 2.210227 0.045578 -0.019222 -113419.000000 0 0 1
-25.189291 -30.189062 -28.669931 48.660505 0.875438 2.200843 0.026419 -0.006435 69140.100000 0 0 1
-24.849911 -30.332082 -30.012191 49.378992 0.884420 2.224074 0.068968 -0.011256 112656.000000 0 0 1
-25.491271 -31.538522 -30.747701 50.891103 0.891040 2.219540 0.044070 -0.015973 189747.000000 0 0 1
-24.849011 -32.773942 -30.463731 51.182453 0.922072 2.208309 0.043159 -0.022611 -103084.000000 0 0 1
-25.658011 -33.819722 -30.907201 52.510591 0.921769 2.200110 0.056744 -0.019798 -163606.000000 0 0 1
-24.986211 32.583404 -30.922521 51.402249 -0.916605 2.216273 0.060161 -0.017578 379162.000000 0 0 1
-23.788011 32.439464 -31.682351 51.205074 -0.938066 2.237927 0.077396 -0.035292 254368.000000 0 0 1
-23.432511 31.087695 -31.818811 50.278863 -0.924896 2.256021 0.079585 -0.021742 718886.000000 0 0 1
-22.020911 30.656085 -32.369691 49.724370 -0.947880 2.279674 0.076172 -0.015093 683568.000000 0 0 1
-21.990311 30.725235 -33.807701 50.700833 -0.949605 2.300713 0.081086 -0.010411 119661.000000 0 0 1
-21.114311 29.759745 33.451296 49.501977 -0.953728 0.828805 0.072021 -0.007160 -266753.000000 0 0 1
-21.248111 29.503865 31.930274 48.389076 -0.946654 0.850157 0.063024 -0.006990 -57737.800000 0 0 1
-20.756211 30.653835 31.260713 48.453174 -0.975594 0.869546 0.070369 -0.004643 332729.000000 0 0 1
-20.872911 30.502105 29.874503 47.524128 -0.970678 0.891022 0.089186 -0.006381 23405.200000 0 0 1
-20.529111 31.749635 28.988603 47.642658 -0.996819 0.916679 0.077280 -0.018919 399937.000000 0 0 1
-21.613911 32.659152 29.121653 48.804221 -0.986169 0.931409 0.066263 -0.009176 583521.000000 0 0 1
-21.261011 -33.835542 28.619833 49.152511 1.009782 0.949283 0.069305 -0.027832 -540768.000000 0 0 1
-22.308611 -32.782552 28.908713 49.072228 0.973276 0.940845 0.090495 -0.036861 -696431.000000 0 0 1
-22.428811 -32.415692 30.282213 49.707556 0.965519 0.915736 0.082985 -0.026782 369459.000000 0 0 1
-23.579111 -31.593632 30.482503 49.832871 0.929652 0.912595 0.104929 -0.030814 343256.000000 0 0 1
-23.554011 -30.162032 29.889203 48.558254 0.907801 0.907734 0.114026 -0.025202 -439528.000000 0 0 1
-23.345011 -30.061772 28.484553 47.540188 0.910507 0.928335 0.080560 -0.021191 7824.000000 0 0 1
-23.455011 -28.735912 27.981993 46.463772 0.886239 0.924502 0.076211 -0.025630 437507.000000 0 0 1
-24.870911 -28.446642 27.390723 46.669319 0.852363 0.943558 0.084097 -0.021284 767626.000000 0 0 1
-25.979811 -28.469302 28.331893 47.834589 0.831088 0.936900 0.104868 -0.024964 1585070.000000 0 0 1
-26.861621 -29.629752 28.236223 48.956646 0.834360 0.956040 0.090520 -0.032468 524949.000000 0 0 1
-27.884711 -29.555132 27.097303 48.839807 0.814471 0.982650 0.087715 -0.011632 -303998.000000 0 0 1
-27.220411 -29.911872 25.856383 48.002327 0.832473 1.001964 0.081620 -0.011829 940563.000000 0 0 1
-28.114681 -29.813082 24.745583 47.870649 0.814709 1.027540 0.073116 -0.008322 43365.400000 0 0 1
-27.380961 -29.941882 23.405113 46.840502 0.830044 1.047571 0.066634 -0.001992 -888196.000000 0 0 1
-26.646811 -28.734132 23.185953 45.533409 0.823071 1.036533 0.056373 -0.011206 985143.000000 0 0 1
-25.707951 -28.715492 22.084773 44.420890 0.840604 1.050461 0.076893 -0.017363 400713.000000 0 0 1
-24.537211 -29.691342 22.205273 44.460372 0.880158 1.047844 0.087362 -0.025752 -1444420.000000 0 0 1
-24.913711 -31.006322 21.808473 45.361818 0.893922 1.069267 0.082759 -0.033072 1124080.000000 0 0 1
-23.811611 -31.931252 21.593673 45.308767 0.930043 1.074025 0.080684 -0.020971 1059160.000000 0 0 1
-22.962611 -32.510212 22.780043 45.859849 0.955841 1.050967 0.078964 -0.022222 255117.000000 0 0 1
-22.074511 -31.559962 23.350283 45.039438 0.960442 1.025770 0.104101 -0.028408 329787.000000 0 0 1
-21.372011 -32.206532 24.407713 45.713893 0.984925 1.007562 0.091492 -0.040028 -204094.000000 0 0 1
-20.628311 -31.278042 25.411613 45.272433 0.987762 0.974835 0.074093 -0.028476 -1026520.000000 0 0 1
-19.522611 -30.639902 24.797393 43.986892 1.003498 0.971883 0.084546 -0.028727 1041370.000000 0 0 1
-18.622911 -29.928102 25.727873 43.639748 1.014173 0.940293 0.099561 -0.026796 996430.000000 0 0 1
-17.956311 -30.846682 26.809293 44.639502 1.043632 0.926578 0.067312 -0.036484 -1363080.000000 0 0 1
-18.847711 -31.347942 27.761203 45.919648 1.029464 0.921582 0.080031 -0.035728 -219598.000000 0 0 1
-18.179311 -31.984782 28.815123 46.731413 1.053956 0.906365 0.078757 -0.028110 -344987.000000 0 0 1
-18.484711 -31.323762 30.105803 47.214638 1.037675 0.879369 0.096188 -0.024811 -67300.200000 0 0 1
-17.982411 -30.003362 30.178723 46.198746 1.030857 0.858945 0.093091 -0.022165 243801.000000 0 0 1
-18.547511 -29.315252 31.258843 46.695925 1.006685 0.837378 0.104868 -0.020685 -71638.800000 0 0 1
-18.281511 -27.782462 31.231313 45.623171 0.988801 0.816811 0.105396 -0.021229 -80901.400000 0 0 1
-19.001111 -27.039832 30.254903 44.805735 0.958255 0.829498 0.117653 -0.023852 41587.400000 0 0 1
-18.870811 -27.354622 28.854133 44.010724 0.966909 0.855798 0.114994 -0.021766 77341.100000 0 0 1
-17.485111 -27.084812 28.187373 42.823407 0.997542 0.852340 0.097649 -0.021645 147310.000000 0 0 1
-17.199511 -25.732802 28.319843 41.952518 0.981603 0.829770 0.092393 -0.016175 321456.000000 0 0 1
-16.170011 -25.352412 27.397303 40.679556 1.003039 0.831875 0.080520 -0.015507 152225.000000 0 0 1
-16.341411 -23.911982 26.891363 39.521766 0.971299 0.822462 0.060121 -0.012755 369183.000000 0 0 1
-17.422911 -23.786782 25.941913 39.272786 0.938614 0.849236 0.073912 -0.016566 369391.000000 0 0 1
-17.336511 -22.651382 25.118133 38.007372 0.917536 0.848812 0.058305 -0.014349 -20489.900000 0 0 1
-17.618311 -21.301882 25.797243 37.811014 0.879761 0.819936 0.068038 -0.008780 -434965.000000 0 0 1
-17.316511 -20.282782 24.881343 36.473744 0.864127 0.820068 0.059282 -0.004527 138918.000000 0 0 1
-17.725211 -18.970982 25.283233 36.239800 0.819333 0.798664 0.071911 -0.001343 -106017.000000 0 0 1
-17.219211 -17.897482 24.279813 34.732268 0.804711 0.796719 0.053285 -0.011652 133645.000000 0 0 1
-15.882511 -17.540882 24.588733 34.125394 0.834975 0.766215 0.056201 -0.017404 -94791.700000 0 0 1
-15.457311 -16.555282 23.634403 32.735162 0.819683 0.764125 0.065532 -0.016409 735973.000000 0 0 1
-14.005911 -16.001182 23.869813 31.968287 0.851794 0.727752 0.076945 -0.029667 260135.000000 0 0 1
-13.011611 -16.929282 23.522733 31.768248 0.915506 0.737060 0.066552 -0.028159 -437700.000000 0 0 1
-11.725411 -16.372582 23.457443 30.915988 0.949306 0.709408 0.073991 -0.033105 -312707.000000 0 0 1
-11.222811 -15.554482 22.226673 29.358447 0.945775 0.711965 0.096792 -0.034771 -369242.000000 0 0 1
-10.813711 -16.247282 21.088773 28.734072 0.983553 0.746708 0.119159 -0.029737 832241.000000 0 0 1
-9.505011 -16.849282 21.215873 28.711615 1.057177 0.739315 0.111418 -0.025385 416652.000000 0 0 1
-9.283611 -18.013482 20.207773 28.618614 1.094928 0.786813 0.111587 -0.028148 -16748.000000 0 0 1
-9.000011 -17.762982 18.848873 27.419040 1.101825 0.812842 0.108767 -0.026887 -97947.300000 0 0 1
-8.815511 -18.959582 18.142373 27.682570 1.135569 0.856122 0.109962 -0.032272 19268.400000 0 0 1
-8.331211 -18.832382 16.714373 26.522405 1.154291 0.888988 0.105047 -0.037006 -953368.000000 0 0 1
-7.003211 -18.499182 16.599473 25.822611 1.208901 0.872613 0.095639 -0.033290 -1204920.000000 0 0 1
-6.792511 -17.976082 15.315773 24.573373 1.209517 0.897883 0.090843 -0.032435 -572154.000000 0 1 0
-5.697111 -16.978882 15.195073 23.486800 1.247060 0.867202 0.072494 -0.026938 -840029.000000 0 1 0
-6.092911 -15.744082 15.655773 23.023964 1.201550 0.823065 0.078697 -0.029519 -202891.000000 0 1 0
-5.016911 -14.862382 15.822073 22.279986 1.245249 0.781089 0.049245 -0.010160 -1077800.000000 0 1 0
-5.375511 -13.592382 16.649673 22.155374 1.194193 0.720470 0.035321 -0.010202 -25614.400000 0 1 0
-5.466911 -13.767282 18.058473 23.356661 1.192797 0.686985 0.063751 -0.009494 -7441.260000 0 1 0
-6.418011 -14.700182 18.548073 24.521771 1.159147 0.713017 0.095006 -0.021802 -22285.400000 0 1 0
-7.648611 -14.036582 19.203573 24.986078 1.071873 0.694192 0.108668 -0.028789 -134262.000000 0 1 0
-7.309711 -13.091682 20.217173 25.170580 1.061567 0.638138 0.102184 -0.030174 -140113.000000 0 0 1
-8.413611 -12.726282 21.024773 25.976685 0.986643 0.627716 0.102090 -0.020915 258625.000000 0 0 1
-7.975211 -11.926682 22.226973 26.455398 0.981397 0.573204 0.095422 -0.009598 -118046.000000 0 0 1
-7.603211 -10.536482 21.940873 25.499572 0.945715 0.534662 0.073353 -0.010711 469318.000000 0 0 1
-7.015011 -9.841282 23.084473 26.056748 0.951522 0.482300 0.059159 -0.002936 690278.000000 0 0 1
-5.550211 -10.155282 23.492773 26.188642 1.070618 0.457726 0.064224 -0.005576 226947.000000 0 0 1
-5.440511 -11.390182 24.113643 27.217700 1.125189 0.482248 0.083086 -0.007340 688565.000000 0 0 1
-4.080911 -11.628882 24.531733 27.453427 1.233294 0.465547 0.066363 -0.001379 767713.000000 0 0 1
-3.971211 -12.773082 25.588363 28.873629 1.269366 0.481677 0.083345 -0.008250 -230551.000000 0 0 1
-2.655211 -13.159582 25.928143 29.197489 1.371699 0.477761 0.057459 -0.007724 10635.900000 0 0 1
-2.477511 -14.260082 26.820793 30.476925 1.398776 0.494858 0.065228 -0.018884 -265604.000000 0 0 1
-2.462311 -15.708382 26.246233 30.686821 1.415310 0.544680 0.074961 -0.025334 -178301.000000 0 0 1
-1.358011 -16.095582 25.470293 30.160368 1.486624 0.565174 0.056329 -0.024633 -116795.000000 0 0 1
-1.593111 -17.395182 25.000273 30.498263 1.479468 0.609861 0.084140 -0.026965 -221729.000000 0 0 1
-0.286611 -18.207882 24.700353 30.687401 1.555057 0.635286 0.083339 -0.030449 685944.000000 0 0 1
0.422189 -18.610182 25.856573 31.860312 -1.548114 0.623978 0.097042 -0.036043 277746.000000 0 0 1
0.991089 -17.659082 26.732753 32.054103 -1.514732 0.584499 0.083628 -0.037816 -762462.000000 0 0 1
1.515089 -18.052382 28.125393 33.454772 -1.487065 0.572224 0.078881 -0.035233 -670753.000000 0 0 1
2.666889 -18.847782 28.189053 34.014319 -1.430233 0.593943 0.081790 -0.038986 169288.000000 0 0 1
3.414289 -18.680882 29.419913 35.016625 -1.390022 0.573200 0.088912 -0.049147 148521.000000 0 0 1
4.313089 -17.473982 29.470673 34.532063 -1.328804 0.548267 0.109294 -0.040048 -740380.000000 0 0 1
3.639589 -16.228982 29.758533 34.091007 -1.350182 0.509652 0.086801 -0.040838 73529.300000 0 0 1
4.585789 -15.358782 30.266203 34.248572 -1.280645 0.487041 0.116087 -0.050813 -646582.000000 0 0 1
3.901389 -14.171782 30.854443 34.176848 -1.302158 0.444588 0.121832 -0.049570 -355141.000000 0 0 1
3.152789 -14.596082 31.958137 35.274753 -1.358062 0.437113 0.105301 -0.048172 -599172.000000 0 0 1
2.432889 -13.576582 32.509468 35.314417 -1.393481 0.401254 0.101848 -0.047221 -737266.000000 0 0 1
1.418689 -14.090282 33.547818 36.414349 -1.470449 0.399437 0.096690 -0.041477 -327733.000000 0 0 1
2.005889 -14.608582 -33.078471 36.216288 -1.434341 2.722255 0.127792 -0.039859 -48858.700000 0 0 1
1.118389 -15.202182 -32.127861 35.560604 -1.497361 2.698588 0.116685 -0.040975 363371.000000 0 0 1
1.969889 -15.665082 -30.922441 34.719916 -1.445703 2.669515 0.131422 -0.032681 410875.000000 0 0 1
1.307189 -16.564682 -30.059281 34.346147 -1.492045 2.636617 0.100256 -0.025071 -219145.000000 0 0 1
1.836389 -16.413882 -28.738321 33.146326 -1.459379 2.619974 0.096812 -0.024028 156517.000000 0 0 1
1.568789 -17.624382 -27.859681 33.003663 -1.482018 2.575754 0.085233 -0.029796 329331.000000 0 0 1
2.463389 -18.676182 -28.222491 33.931947 -1.439653 2.553027 0.067424 -0.022684 294353.000000 0 0 1
2.279789 -19.710682 -27.367911 33.804008 -1.455645 2.514276 0.071603 -0.028308 -510131.000000 0 0 1
3.391189 -20.792382 -27.519361 34.657446 -1.409122 2.488221 0.045472 -0.026764 377254.000000 0 0 1
4.716589 -20.396282 -27.195301 34.319658 -1.343543 2.485549 0.051891 -0.024394 256886.000000 0 0 1
4.958789 -20.262782 -25.803931 33.181513 -1.330789 2.461731 0.067306 -0.024708 -1476530.000000 0 0 1
5.899589 -21.229582 -25.128531 33.420703 -1.299741 2.421713 0.025781 -0.021610 -1041620.000000 0 0 1
5.689489 -22.650682 -25.330561 34.453752 -1.324704 2.396765 0.031351 -0.015919 290837.000000 0 0 1
6.003189 -23.105382 -26.645251 35.775220 -1.316599 2.411026 0.024502 -0.014927 -461056.000000 0 0 1
5.437989 -24.538082 -26.856461 36.782587 -1.352707 2.389324 0.024797 -0.004848 30074.600000 0 0 1
5.944789 -25.583352 -26.011491 36.965471 -1.342479 2.351346 0.032248 0.002400 -43093.100000 0 0 1
5.303189 -26.767462 -26.332721 37.921406 -1.375208 2.338386 0.044839 0.004278 -142123.000000 0 0 1
5.895689 -27.921332 -25.456671 38.241365 -1.362700 2.299207 0.062975 0.004523 592680.000000 0 0 1
7.282489 -28.164282 -25.673371 38.799271 -1.317766 2.293877 0.079595 -0.004796 200065.000000 0 0 1
7.689689 -29.410262 -25.115161 39.431791 -1.315059 2.261301 0.085047 -0.005609 -162980.000000 0 0 1
9.142389 -29.669172 -25.551551 40.208517 -1.271884 2.259421 0.102844 -0.016560 -137181.000000 0 0 1
9.341689 -29.830082 -26.949911 41.272250 -1.267307 2.282307 0.103811 -0.014306 -473690.000000 0 0 1
10.687389 -29.929822 -27.302701 41.898115 -1.227827 2.280548 0.132441 -0.026804 -338333.000000 0 0 1
11.049389 -29.825742 -28.835451 42.931889 -1.216008 2.307238 0.131934 -0.021678 -502724.000000 0 0 1
10.677089 -30.951072 -29.593671 44.133371 -1.238613 2.305747 0.144481 -0.035178 151662.000000 0 0 1
10.808789 -30.765942 -31.004641 44.996232 -1.232943 2.330973 0.132245 -0.043747 -436463.000000 0 0 1
-35.784047 -4.681482 -5.486471 36.503639 0.130087 1.721667 0.175919 -0.040526 30934.700000 0 0 1
-35.478502 -4.058282 -4.257071 35.962708 0.113892 1.689449 0.182238 -0.047705 486820.000000 0 0 1
-34.792325 -2.809582 -4.447071 35.187726 0.080578 1.697517 0.201280 -0.052996 658950.000000 0 0 1
-35.780322 -1.629682 -4.819871 36.140261 0.045515 1.704561 0.177136 -0.036528 546133.000000 0 0 1
-36.702321 -1.153282 -3.873071 36.924126 0.031412 1.675882 0.147175 -0.037031 358447.000000 0 0 1
37.229549 -0.170382 -4.366671 37.485146 -0.004577 1.687552 0.145562 -0.036885 44613.900000 0 0 1
36.403959 0.588918 -3.341671 36.561754 0.016176 1.662322 0.150809 -0.031069 137793.000000 0 0 1
37.215839 1.525418 -2.634671 37.340154 0.040965 1.641414 0.178405 -0.035523 255780.000000 0 0 1
36.469099 2.275118 -1.725571 36.580718 0.062304 1.617985 0.162541 -0.038784 -594946.000000 0 0 1
37.398449 3.236318 -0.975071 37.550879 0.086321 1.596766 0.181866 -0.039745 425708.000000 0 0 1
-36.689141 4.225318 -1.749171 36.973044 -0.114660 1.618123 0.205879 -0.052205 419026.000000 0 0 1
-35.595513 3.759618 -2.499371 35.880665 -0.105230 1.640511 0.185143 -0.034919 -929639.000000 0 0 1
-34.626684 4.882718 -2.927971 35.091611 -0.140087 1.654331 0.189284 -0.045794 -393545.000000 0 0 1
-33.902501 5.374418 -1.847871 34.375552 -0.157217 1.624578 0.210018 -0.049230 -84654.400000 0 0 1
-33.747101 6.753618 -1.920571 34.469795 -0.197515 1.626543 0.219074 -0.055761 146188.000000 0 0 1
-33.038071 7.327218 -0.629471 33.846691 -0.218248 1.589395 0.214037 -0.053063 30794.100000 0 0 1
-31.640711 7.176518 -0.509571 32.448369 -0.223039 1.586501 0.236917 -0.043574 128500.000000 0 0 1
-31.039241 7.549318 0.712529 31.952063 -0.238586 1.548495 0.231350 -0.042036 140165.000000 0 0 1
-31.102321 9.031818 1.187129 32.408909 -0.282618 1.534158 0.241830 -0.046437 -379093.000000 0 0 1
-32.415061 9.439518 1.475329 33.793746 -0.283371 1.527126 0.223070 -0.054010 -254720.000000 0 0 1
-32.418681 10.814618 1.840629 34.224476 -0.321983 1.516989 0.218037 -0.048464 389488.000000 0 0 1
-33.870441 11.382018 1.880629 35.781194 -0.324190 1.518213 0.213897 -0.051612 69396.600000 0 0 1
-34.357526 11.518418 0.524929 36.240710 -0.323476 1.556311 0.188366 -0.045472 282086.000000 0 0 1
-35.456766 12.399418 0.386429 37.564306 -0.336412 1.560509 0.170999 -0.035259 758641.000000 0 0 1
-36.880481 11.796018 0.629729 38.726121 -0.309562 1.554535 0.164020 -0.049919 210880.000000 0 0 1
-37.344361 10.940518 -0.351471 38.915546 -0.284988 1.579828 0.170283 -0.042011 793591.000000 0 0 1
36.111259 10.527318 -0.057571 37.614502 0.283663 1.572327 0.178410 -0.047365 937928.000000 0 0 1
35.491589 9.327218 -0.741571 36.704221 0.256990 1.591002 0.176326 -0.042563 24524.900000 0 0 1
35.152179 9.570918 -2.089171 36.491681 0.265827 1.628078 0.174545 -0.036666 -366475.000000 0 0 1
34.538159 8.468718 -2.571871 35.654146 0.240455 1.642993 0.158866 -0.041378 -790441.000000 0 0 1
34.127069 8.615818 -4.077971 35.433304 0.247295 1.686141 0.133609 -0.026435 397052.000000 0 0 1
33.013739 9.476418 -4.357071 34.622154 0.279529 1.696977 0.158110 -0.034449 471339.000000 0 0 1
32.700829 9.469518 -5.735171 34.524023 0.281870 1.737691 0.127084 -0.024654 -761.815000 0 0 1
31.326929 10.141818 -5.979271 33.466172 0.313093 1.750427 0.149295 -0.033369 403953.000000 0 0 1
30.199989 9.375718 -5.590971 32.112340 0.301020 1.745795 0.128204 -0.025545 802191.000000 0 0 1
28.940239 10.009918 -5.767471 31.160867 0.333002 1.756957 0.151447 -0.028522 288745.000000 0 0 1
27.757139 9.040018 -5.815771 29.765818 0.314849 1.767446 0.162023 -0.020342 -312473.000000 0 0 1
27.925839 8.104318 -6.879071 29.880664 0.282450 1.803098 0.151059 -0.029945 1569190.000000 0 0 1
26.693639 7.357218 -7.137971 28.594224 0.268940 1.823094 0.172822 -0.032221 1325540.000000 0 0 1
26.974339 6.345218 -8.260371 28.915575 0.231031 1.860504 0.160593 -0.041046 -516177.000000 0 0 1
27.957639 5.443318 -7.938171 29.568122 0.192293 1.842601 0.144180 -0.039784 -242169.000000 0 0 1
28.101539 4.561618 -9.004871 29.859547 0.160923 1.877140 0.125860 -0.034616 -126926.000000 0 0 1
29.076139 3.372518 -8.726071 30.544068 0.115473 1.860520 0.097295 -0.026968 -720858.000000 0 0 1
30.427959 3.651818 -8.970271 31.932151 0.119444 1.855545 0.101540 -0.024168 -94594.000000 0 0 1
31.248359 2.991418 -8.031471 32.402362 0.095440 1.821274 0.082647 -0.022789 -152914.000000 0 0 1
31.488859 1.446718 -8.118371 32.550717 0.045912 1.822864 0.071124 -0.021781 -377788.000000 0 0 1
30.320749 0.758718 -7.647571 31.279527 0.025018 1.817791 0.097378 -0.028254 678921.000000 0 0 1
30.499399 -0.607582 -7.298271 31.366340 -0.019918 1.805627 0.092078 -0.032690 -203364.000000 0 0 1
30.455889 -1.646882 -8.440571 31.646748 -0.054022 1.840776 0.095366 -0.027306 -146234.000000 0 0 1
31.528289 -1.625082 -9.354771 32.926975 -0.051498 1.858871 0.092774 -0.021535 200359.000000 0 0 1
31.364939 -2.781082 -10.157571 33.085799 -0.088437 1.882843 0.092044 -0.040030 -382581.000000 0 0 1
32.535649 -3.068182 -11.115671 34.518696 -0.094024 1.898657 0.096476 -0.031955 -915509.000000 0 0 1
33.695009 -3.341682 -10.407771 35.423752 -0.098851 1.869004 0.101067 -0.024575 -866166.000000 0 0 1
34.709899 -3.658182 -11.305071 36.687383 -0.105005 1.884040 0.112568 -0.027419 -616274.000000 0 0 1
36.099329 -3.924682 -10.717271 37.860594 -0.108294 1.857792 0.128452 -0.028381 -428240.000000 0 0 1
36.199299 -5.107982 -10.007671 37.902958 -0.140182 1.837999 0.129829 -0.033917 146287.000000 0 0 1
-37.268801 -5.401782 -9.677571 38.881848 0.143939 1.822337 0.144934 -0.036736 -72224.100000 0 0 1
-37.108851 -6.697982 -8.878971 38.739720 0.178573 1.802047 0.149227 -0.042126 -146110.000000 0 0 1
37.218439 -6.564582 -7.547671 38.539244 -0.174584 1.767914 0.163400 -0.037812 400144.000000 0 0 1
36.852449 -7.874382 -7.135771 38.353985 -0.210508 1.757937 0.166736 -0.033985 -219248.000000 0 0 1
36.297089 -7.974682 -5.735471 37.602791 -0.216270 1.723922 0.169876 -0.032379 -304810.000000 0 0 1
37.302879 -7.704282 -4.745271 38.384611 -0.203670 1.694738 0.175703 -0.032531 785742.000000 0 0 1
-37.328201 -8.739382 -3.719271 38.517585 0.229980 1.667507 0.191299 -0.036214 -170980.000000 0 0 1
-36.714111 -10.099282 -4.187471 38.307393 0.268440 1.680328 0.185530 -0.042583 214208.000000 0 0 1
37.268849 -10.761582 -5.175171 39.135166 -0.281109 1.703423 0.171506 -0.045116 1015380.000000 0 0 1
-36.739531 -11.756582 -5.869771 39.018772 0.309701 1.721804 0.142938 -0.041483 621208.000000 0 0 1
-37.396301 -12.289182 -7.215171 40.019570 0.317503 1.752079 0.147361 -0.045431 290707.000000 0 0 1
-37.318281 -11.251882 -8.159971 39.822658 0.292843 1.777166 0.155842 -0.035673 137815.000000 0 0 1
37.019039 -11.634382 -9.468371 39.942686 -0.304507 1.810123 0.163074 -0.018639 -202917.000000 0 0 1
37.349859 -10.640582 -10.638571 40.266775 -0.277537 1.838173 0.141349 -0.026492 -79605.300000 0 0 1
36.529049 -9.462282 -10.732171 39.231183 -0.253463 1.847891 0.131537 -0.027621 586027.000000 0 0 1
36.625519 -8.854682 -11.984771 39.540723 -0.237211 1.878740 0.118118 -0.028551 -823562.000000 0 0 1
35.355349 -8.119682 -12.352671 38.321253 -0.225745 1.899002 0.117087 -0.023788 -808926.000000 0 0 1
35.384749 -7.505782 -13.617771 38.650497 -0.209021 1.930857 0.118481 -0.018644 455729.000000 0 0 1
34.216769 -6.788882 -13.986271 37.583134 -0.195864 1.952112 0.106714 -0.026349 34258.000000 0 0 1
34.489289 -5.974882 -15.216671 38.167491 -0.171536 1.980875 0.099950 -0.028393 -177482.000000 0 0 1
35.401989 -4.918282 -14.992971 38.759251 -0.138043 1.967980 0.110289 -0.030627 154509.000000 0 0 1
35.050759 -3.639682 -15.442471 38.474315 -0.103469 1.983809 0.115319 -0.031262 -608317.000000 0 0 1
36.305079 -2.801682 -15.514271 39.580308 -0.077018 1.973568 0.129270 -0.038104 -1039430.000000 0 0 1
37.002089 -2.805382 -16.741171 40.709846 -0.075672 1.994601 0.127298 -0.036243 688207.000000 0 0 1
-36.402491 -2.533482 -16.583671 40.082141 0.069484 1.997357 0.153801 -0.028342 886564.000000 0 0 1
-36.046241 -1.097982 -16.275271 39.565407 0.030451 1.994732 0.147444 -0.018555 -839713.000000 0 0 1
-36.400981 -0.177682 -17.324171 40.313644 0.004881 2.014995 0.127675 -0.016957 326695.000000 0 0 1
-36.127391 1.170818 -16.836571 39.875171 -0.032397 2.006702 0.135634 -0.022294 68760.500000 0 0 1
-36.326491 2.263918 -17.871471 40.547857 -0.062241 2.027230 0.112971 -0.020694 548074.000000 0 0 1
-35.286420 2.131918 -18.854771 40.064683 -0.060344 2.060776 0.108624 -0.011273 647018.000000 0 0 1
-35.373140 3.203618 -19.784871 40.656651 -0.090320 2.079028 0.103809 -0.011943 -61039.800000 0 0 1
-34.335980 3.216718 -20.952271 40.352254 -0.093411 2.116751 0.098057 -0.004150 1088270.000000 0 0 1
-33.035121 3.683018 -20.493171 39.049377 -0.111029 2.123278 0.100776 -0.000992 1235010.000000 0 0 1
-32.260171 4.099818 -21.623871 39.052771 -0.126408 2.157608 0.080364 0.002214 -793050.000000 0 0 1
-30.888611 4.612218 -21.223071 37.759734 -0.148223 2.167665 0.094195 -0.000093 -807031.000000 0 0 1
-30.076231 3.501318 -20.851071 36.764195 -0.115893 2.173846 0.091441 0.008437 -249717.000000 0 0 1
-28.762401 4.002618 -20.761771 35.698008 -0.138273 2.191484 0.069885 0.019038 -58200.100000 0 0 1
-27.770971 2.979418 -20.106571 34.414792 -0.106877 2.194742 0.085984 0.015730 201506.000000 0 0 1
-27.794941 3.018618 -18.726771 33.650598 -0.108179 2.160971 0.097262 0.012647 75220.000000 0 0 1
-26.977911 1.996218 -18.215471 32.612818 -0.073860 2.163418 0.096989 0.006834 -10851.800000 0 0 1
-26.005241 2.257018 -17.017471 31.160247 -0.086574 2.148531 0.091675 -0.006216 756994.000000 0 0 1
-24.896911 3.100618 -17.390571 30.527069 -0.123900 2.176909 0.094436 -0.009262 517999.000000 0 0 1
-24.224111 3.486018 -16.166371 29.331065 -0.142926 2.154561 0.109994 -0.027305 454281.000000 0 0 1
-22.989611 4.428618 -16.301471 28.528456 -0.190304 2.179020 0.135269 -0.038179 -164670.000000 0 0 1
-21.900211 3.809918 -16.920271 27.936182 -0.172243 2.221411 0.145568 -0.044932 -305196.000000 0 0 1
-20.869711 4.796318 -16.935771 27.301462 -0.225899 2.239953 0.126507 -0.042993 183250.000000 0 0 1
-19.526711 4.215718 -17.466371 26.535614 -0.212631 2.289253 0.146551 -0.048301 396256.000000 0 0 1
-18.865611 3.203518 -16.661771 25.372985 -0.168203 2.287196 0.168776 -0.046644 18599.100000 0 0 1
-17.819211 2.544518 -17.299071 24.965109 -0.141837 2.336341 0.137771 -0.050302 -856781.000000 0 1 0
-17.600411 1.001018 -16.986071 24.480668 -0.056813 2.337627 0.147097 -0.043544 525381.000000 0 1 0
-18.621111 0.089518 -17.395371 25.482400 -0.004807 2.322169 0.112795 -0.033356 24236.700000 0 0 1
-19.924011 0.313218 -16.939471 26.153584 -0.015719 2.275348 0.122766 -0.037310 -769015.000000 0 0 1
-20.935111 -0.751282 -17.420171 27.245286 0.035871 2.264492 0.092803 -0.026455 -143389.000000 0 0 1
-20.808811 -1.959482 -16.728471 26.771027 0.093889 2.245764 0.084251 -0.029816 48752.900000 0 0 1
-21.813911 -2.827882 -17.161971 27.899406 0.128918 2.233357 0.095039 -0.019658 -154382.000000 0 0 1
-22.059711 -4.037382 -16.249671 27.694460 0.181017 2.197833 0.114127 -0.031459 -61992.900000 0 0 1
-22.435311 -3.568282 -14.942571 27.191106 0.157727 2.152609 0.114790 -0.033774 293295.000000 0 0 1
-22.760211 -4.681182 -14.143971 27.202804 0.202845 2.117583 0.111158 -0.045613 -174020.000000 0 0 1
-23.205511 -4.272882 -12.713371 26.802669 0.182093 2.065002 0.133178 -0.052147 312934.000000 0 0 1
-24.399011 -3.493682 -12.600571 27.681978 0.142223 2.043382 0.122610 -0.047313 728183.000000 0 0 1
-24.426311 -2.830082 -11.353271 27.084142 0.115348 2.003344 0.138509 -0.055694 -437211.000000 0 0 1
-25.618691 -1.887682 -11.159271 28.007320 0.073551 1.980613 0.193296 -0.059079 -394326.000000 0 0 1
-25.709631 -1.456982 -9.827471 27.562422 0.056610 1.935372 0.198619 -0.062285 395434.000000 0 0 1
-26.362631 -0.214482 -9.821171 28.133427 0.008136 1.927399 0.211056 -0.060618 -366029.000000 0 0 1
-26.646161 0.244218 -8.360571 27.928062 -0.009165 1.874819 0.230589 -0.058645 -112370.000000 0 0 1
-25.469491 0.666918 -7.698571 26.615930 -0.026179 1.864236 0.201034 -0.056301 591254.000000 0 0 1
-25.735501 0.867618 -6.331471 26.517094 -0.033700 1.811895 0.213365 -0.061075 -681960.000000 0 0 1
-24.483011 1.001318 -5.489571 25.110871 -0.040876 1.791190 0.150313 -0.046774 -790783.000000 0 0 1
-24.144611 2.356818 -5.328071 24.837575 -0.097304 1.786993 0.171711 -0.044532 689291.000000 0 1 0
-22.753211 2.559518 -5.121471 23.462506 -0.112019 1.790851 0.141706 -0.028841 160591.000000 0 1 0
-22.330911 4.075918 -5.114271 23.268830 -0.180536 1.792396 0.134850 -0.031760 -106337.000000 0 1 0
-22.848811 4.965218 -4.116571 23.741687 -0.213981 1.745067 0.144583 -0.034788 798212.000000 0 1 0
-22.465911 6.246618 -4.577371 23.763200 -0.271198 1.764632 0.136914 -0.036252 -395045.000000 0 1 0
-22.820911 7.357718 -3.518571 24.234486 -0.311889 1.716500 0.134016 -0.028791 -373907.000000 0 1 0
-22.113711 7.357018 -2.296671 23.418296 -0.321172 1.669026 0.104622 -0.027057 792906.000000 0 1 0
-20.751811 7.785418 -2.290771 22.282235 -0.358918 1.673785 0.109100 -0.027959 208236.000000 0 1 0
-20.438911 9.271618 -2.567771 22.589940 -0.425865 1.684711 0.103879 -0.028937 -738940.000000 0 1 0
-20.440111 9.564518 -3.963971 22.912686 -0.437663 1.744674 0.093411 -0.024834 445365.000000 0 1 0
-20.254211 10.970818 -4.076671 23.392544 -0.496415 1.745963 0.127372 -0.017873 -207232.000000 0 1 0
-19.912711 11.475518 -5.503371 23.632407 -0.522804 1.805828 0.111921 -0.025068 335609.000000 0 1 0
-18.641711 11.022018 -5.973471 22.465097 -0.533965 1.839934 0.076008 -0.024574 612947.000000 0 1 0
-18.496211 11.342618 -7.351071 22.908580 -0.550098 1.897462 0.076714 -0.025083 166524.000000 0 1 0
-17.183411 10.910618 -8.050671 21.888912 -0.565723 1.947435 0.059600 -0.018775 -192321.000000 0 1 0
-16.927211 9.474718 -8.316471 21.106028 -0.510285 1.975812 0.045721 -0.023779 1141680.000000 0 1 0
-17.896911 8.861018 -9.216671 21.994637 -0.459731 2.003186 0.070498 -0.025134 318114.000000 0 1 0
-17.994211 9.377918 -10.604871 22.895420 -0.480434 2.052385 0.075585 -0.026589 670037.000000 0 1 0
-16.791011 9.028418 -11.304471 22.163967 -0.493346 2.106026 0.071704 -0.029102 658697.000000 0 1 0
-16.813811 9.690018 -12.541771 23.106204 -0.522820 2.144549 0.084589 -0.029452 -438097.000000 0 1 0
-15.659911 9.339418 -13.452271 22.658798 -0.537761 2.206431 0.056067 -0.020465 -998350.000000 0 1 0
-15.864811 8.270318 -14.411671 22.973607 -0.480542 2.248896 0.081459 -0.035786 111215.000000 0 1 0
-15.751211 7.037718 -13.782871 22.081613 -0.420194 2.244876 0.072974 -0.025983 -326816.000000 0 1 0
-15.687911 5.913318 -14.864571 22.406100 -0.360466 2.296172 0.083449 -0.021972 1064560.000000 0 1 0
-14.401311 5.831618 -15.547271 21.980062 -0.384755 2.356518 0.070246 -0.030166 1609740.000000 0 1 0
-14.447311 4.816018 -16.525471 22.472427 -0.321766 2.397004 0.073926 -0.021046 31096.800000 0 1 0
32.894019 -15.284582 28.478873 46.115954 -0.434979 0.905173 0.063095 -0.010881 106594.000000 0 0 1
32.114589 -14.140682 28.770293 45.376596 -0.414775 0.884038 0.079445 -0.010030 86225.800000 0 0 1
31.069879 -14.281082 29.727123 45.309917 -0.430845 0.855178 0.081637 -0.010589 243690.000000 0 0 1
31.556879 -14.414382 31.183233 46.647670 -0.428473 0.838627 0.081315 -0.023844 -181434.000000 0 0 1
32.110539 -13.185282 31.571393 46.922183 -0.389629 0.832747 0.080315 -0.027609 -123262.000000 0 0 1
32.347159 -13.138482 32.955727 48.010815 -0.385815 0.814238 0.069727 -0.030262 -69960.800000 0 0 1
32.712439 -11.714282 33.457063 48.235912 -0.343871 0.804303 0.085827 -0.034954 176661.000000 0 0 1
32.387839 -11.574582 -32.966951 47.642029 -0.343229 2.335013 0.086378 -0.042830 677.852000 0 0 1
32.878319 -10.362682 -32.492961 47.372582 -0.305327 2.326639 0.076202 -0.032326 91980.400000 0 0 1
32.344969 -10.102682 -31.023751 45.942729 -0.302741 2.312127 0.084156 -0.033119 1340180.000000 0 0 1
30.940869 -9.743182 -31.016481 44.880832 -0.305067 2.333786 0.101346 -0.036342 1160120.000000 0 0 1
30.457299 -9.640482 -29.692901 43.614841 -0.306547 2.319648 0.093069 -0.032269 24215.600000 0 0 1
28.918039 -9.537582 -29.530511 42.417797 -0.318580 2.340862 0.083284 -0.013450 302899.000000 0 0 1
28.515039 -9.387682 -28.187641 41.179839 -0.318043 2.324715 0.078912 -0.023894 400488.000000 0 0 1
27.827839 -10.519182 -27.673771 40.631016 -0.361406 2.320060 0.115391 -0.025959 -481422.000000 0 0 1
27.383639 -10.512982 -26.173221 39.311881 -0.366563 2.299340 0.120265 -0.021116 -727951.000000 0 0 1
26.516839 -9.555882 -25.621391 38.090856 -0.345883 2.308566 0.108482 -0.020928 1167030.000000 0 0 1
25.217239 -9.261382 -26.177721 37.509404 -0.351971 2.343254 0.098183 -0.022466 848841.000000 0 0 1
24.230439 -10.405382 -26.439931 37.342417 -0.405621 2.357515 0.103312 -0.012352 -1153530.000000 0 0 1
24.705539 -11.406382 -27.343671 38.576490 -0.432535 2.358616 0.101328 -0.014503 -78018.000000 0 0 1
23.941939 -12.578982 -27.166181 38.333388 -0.483757 2.358425 0.109502 -0.021610 88638.800000 0 0 1
24.776939 -13.777982 -27.601331 39.567196 -0.507500 2.342812 0.102118 -0.006385 72760.700000 0 0 1
24.845939 -13.942882 -28.966131 40.629563 -0.511381 2.364467 0.103431 -0.017093 -208841.000000 0 0 1
25.764939 -14.882782 -29.430871 41.850991 -0.523814 2.350727 0.095072 -0.021847 -285820.000000 0 0 1
25.880839 -14.891882 -30.993281 43.036838 -0.522136 2.374825 0.099931 -0.022689 -264206.000000 0 0 1
24.698539 -15.343182 -31.616291 42.953707 -0.555875 2.398020 0.105607 -0.018387 -81181.200000 0 0 1
24.761339 -15.626882 -33.005671 44.121397 -0.562974 2.415938 0.096863 -0.021862 -138432.000000 0 0 1
24.924339 -14.434782 33.737703 44.360097 -0.524943 0.706649 0.057805 -0.020106 403528.000000 0 0 1
23.736239 -13.653082 33.548257 43.304749 -0.521984 0.684553 0.071376 -0.019128 277482.000000 0 0 1
23.869539 -12.612982 32.568956 42.303417 -0.486119 0.692128 0.048008 -0.016205 -679760.000000 0 0 1
23.031239 -11.329582 32.698753 41.569290 -0.457165 0.665500 0.075440 -0.025424 701076.000000 0 0 1
21.631639 -11.358582 32.404293 40.583044 -0.483518 0.646049 0.063808 -0.022069 727786.000000 0 0 1
21.312039 -11.684082 31.059093 39.438408 -0.501490 0.663999 0.052572 -0.021699 -330585.000000 0 0 1
19.783039 -11.950182 30.926713 38.608770 -0.543401 0.641785 0.060502 -0.016503 1649380.000000 0 0 1
18.879439 -10.780082 31.049123 37.903713 -0.518820 0.610855 0.072379 -0.027626 950341.000000 0 0 1
18.124239 -10.697882 32.241871 38.502870 -0.533222 0.578308 0.041820 -0.011104 -204128.000000 0 0 1
17.291739 -9.427982 32.355515 37.878364 -0.499174 0.546795 0.047613 -0.017912 -895774.000000 0 0 1
16.250839 -9.396082 31.424423 36.604242 -0.524229 0.538476 0.087474 -0.026633 39843.600000 0 0 1
15.413239 -8.225382 31.540473 36.055877 -0.490209 0.505843 0.098382 -0.023537 323153.000000 0 0 1
14.287339 -8.278482 32.562343 36.509828 -0.525156 0.469314 0.109099 -0.029019 -1370290.000000 0 0 1
13.396439 -9.349382 32.441277 36.322335 -0.609316 0.466496 0.115808 -0.022497 -500682.000000 0 0 1
12.213739 -9.326382 33.154359 36.542692 -0.652147 0.434032 0.116095 -0.028400 123086.000000 0 0 1
11.069239 -8.478182 32.511065 35.374807 -0.653614 0.405144 0.126679 -0.034908 -310950.000000 0 0 1
11.343239 -7.125482 32.817028 35.445718 -0.560876 0.387547 0.131054 -0.038130 -170738.000000 0 0 1
10.393739 -6.248782 32.307845 34.509042 -0.541306 0.359099 0.145835 -0.029346 -356605.000000 0 0 1
10.767839 -4.720382 32.433305 34.498517 -0.413147 0.347767 0.138649 -0.032029 7813.960000 0 0 1
10.898239 -4.188682 33.742083 35.704969 -0.366938 0.333126 0.127277 -0.040681 279363.000000 0 0 1
11.170539 -2.774582 33.686495 35.598584 -0.243457 0.329243 0.093652 -0.034509 -264167.000000 0 0 1
10.901039 -1.984182 -32.829021 34.648438 -0.180047 2.816087 0.085920 -0.035733 -836748.000000 0 0 1
9.544739 -1.785382 -32.647461 34.060921 -0.184917 2.852497 0.086546 -0.018340 -933554.000000 0 0 1
9.380039 -1.027482 -31.532521 32.914142 -0.109104 2.850823 0.092903 -0.018821 -440842.000000 0 0 1
7.907539 -0.796482 -31.218141 32.213908 -0.100386 2.892307 0.086929 -0.016962 -547895.000000 0 0 1
7.205839 -0.092182 -32.238911 33.034527 -0.012792 2.921676 0.090938 -0.019880 -187643.000000 0 0 1
5.847039 0.053518 -31.907821 32.439170 0.009153 2.960348 0.109471 -0.024130 -160463.000000 0 0 1
5.111439 0.931318 -32.924101 33.331525 0.180226 2.985078 0.119840 -0.026261 -88671.800000 0 0 1
5.596339 2.268618 -32.916561 33.465887 0.385132 2.960156 0.094675 -0.025763 171748.000000 0 0 1
4.955739 3.044418 33.841293 34.337457 0.550884 0.170203 0.098943 -0.032706 229430.000000 0 0 1
5.747139 4.404518 33.663778 34.433695 0.653905 0.211864 0.076314 -0.030591 149994.000000 0 0 1
5.333039 5.306618 32.654286 33.509759 0.782915 0.226444 0.097566 -0.041145 -23581.500000 0 0 1
6.320439 6.280618 32.290971 33.497775 0.782238 0.269239 0.075608 -0.036411 34371.500000 0 0 1
5.946839 7.358018 31.271273 32.671055 0.891068 0.293783 0.098402 -0.040800 -907549.000000 0 0 1
4.930839 8.124218 31.818626 33.207545 1.025296 0.290242 0.102424 -0.042038 -526969.000000 0 0 1
4.660739 9.340018 31.139323 32.842288 1.107943 0.323442 0.100653 -0.052055 75101.600000 0 0 1
4.013439 9.255418 29.677963 31.345685 1.161638 0.327667 0.096627 -0.048323 -318879.000000 0 0 1
2.781039 8.604518 29.614093 30.963953 1.258187 0.296361 0.116147 -0.049439 -462510.000000 0 0 1
2.287639 8.587518 28.258193 29.622698 1.310451 0.304699 0.093662 -0.033605 -323810.000000 0 0 1
1.062839 7.726518 28.051743 29.115786 1.434097 0.271183 0.106187 -0.034070 -293455.000000 0 0 1
-0.150161 8.239518 28.558433 29.723666 -1.552574 0.280931 0.107025 -0.027245 -715445.000000 0 0 1
-1.133361 8.203118 27.599183 28.814763 -1.433503 0.291500 0.106305 -0.028283 164972.000000 0 0 1
-2.619861 8.461018 27.986413 29.354587 -1.270520 0.306513 0.101857 -0.028948 435062.000000 0 0 1
-2.878461 9.743218 28.428353 30.189188 -1.283535 0.343228 0.100537 -0.025018 128865.000000 0 0 1
-4.224661 9.984418 28.830043 30.801099 -1.170515 0.359687 0.084162 -0.012874 96368.100000 0 0 1
-4.621261 11.291818 29.552193 31.971758 -1.182335 0.391542 0.080461 -0.009418 -192981.000000 0 0 1
-4.764561 12.530618 28.858083 31.819905 -1.207445 0.434883 0.076650 -0.013803 -305339.000000 0 0 1
-5.862361 12.642718 28.021833 31.295826 -1.136612 0.461500 0.066693 -0.017656 -645482.000000 0 0 1
-5.983261 14.088718 27.506933 31.478925 -1.169193 0.507791 0.049265 -0.012632 14700.100000 0 0 1
-5.002161 14.488918 26.569303 30.673738 -1.238368 0.523268 0.043873 -0.005865 -169740.000000 0 0 1
-5.130161 15.825618 26.102273 30.953148 -1.257317 0.567433 0.039719 -0.005504 -362633.000000 0 0 1
-3.852461 16.439218 25.536343 30.613627 -1.340604 0.584207 0.052826 -0.011128 -356267.000000 0 0 1
-3.602461 15.912718 24.241323 29.220439 -1.348160 0.592403 0.031484 0.003652 275251.000000 0 0 1
-2.601161 16.690018 23.567933 28.996037 -1.416189 0.621856 0.026683 0.004091 386390.000000 0 0 1
-2.694161 16.520818 21.994373 27.639616 -1.409143 0.650542 0.039895 -0.000802 -103163.000000 0 0 1
-2.122261 15.345418 21.528873 26.523164 -1.433369 0.623738 0.038449 -0.004979 -205399.000000 0 0 1
-2.511561 15.096018 20.227573 25.364392 -1.405934 0.647691 0.045022 -0.013004 -83332.800000 0 0 1
-1.673261 14.038018 19.473573 24.064201 -1.452161 0.627949 0.037103 -0.013035 -270735.000000 0 1 0
-1.841961 12.713818 19.986773 23.759315 -1.426919 0.571264 0.042078 -0.010284 138775.000000 0 1 0
-1.257161 11.724618 19.149173 22.488618 -1.463980 0.551947 0.040455 -0.015621 -52183.600000 0 1 0
-2.140861 10.453618 18.979873 21.773768 -1.368793 0.512166 0.028438 -0.015728 -543587.000000 0 1 0
-2.126761 9.577418 20.110373 22.375816 -1.352282 0.453875 0.052554 -0.026618 265176.000000 0 1 0
-3.023861 9.811118 21.201273 23.556225 -1.271827 0.450962 0.063890 -0.020224 1153460.000000 0 1 0
-4.574961 9.911518 20.936173 23.611264 -1.138354 0.480632 0.050682 -0.015525 228989.000000 0 1 0
-5.250161 8.731718 20.872073 23.226074 -1.029440 0.454118 0.046091 -0.020641 -1177070.000000 0 1 0
-6.603461 9.019418 20.690073 23.516690 -0.938825 0.495347 0.041059 -0.019452 -752893.000000 0 1 0
-7.416861 7.745018 20.781673 23.385317 -0.807038 0.476374 0.049090 -0.018615 -444229.000000 0 1 0
-7.324061 7.061718 22.009873 24.247561 -0.767164 0.432991 0.050313 -0.022259 -105829.000000 0 1 0
-8.035461 5.862718 22.066973 24.205193 -0.630320 0.423484 0.045317 -0.018968 -21867.100000 0 1 0
-7.829761 5.140218 23.394243 25.199555 -0.580929 0.380822 0.048762 -0.024788 -115522.000000 0 0 1
-8.579761 5.734118 24.440003 26.529345 -0.589154 0.399529 0.052271 -0.020271 33029.900000 0 0 1
-8.835061 4.814718 25.479853 27.394574 -0.498962 0.376095 0.052175 -0.010485 -475693.000000 0 0 1
-9.827961 5.378818 26.467563 28.741127 -0.500766 0.400426 0.053351 -0.009612 -420750.000000 0 0 1
-9.389361 6.575618 27.144333 29.465465 -0.610945 0.399578 0.046411 -0.013670 962054.000000 0 0 1
-10.411061 7.035718 28.070493 30.754578 -0.594294 0.420890 0.055484 -0.015899 819979.000000 0 0 1
-9.807561 8.208818 28.787593 31.500769 -0.696892 0.418082 0.058500 -0.014950 515336.000000 0 0 1
-8.739861 7.839418 29.674513 31.912668 -0.731140 0.376747 0.059008 -0.018403 176426.000000 0 0 1
-8.127361 9.037118 30.068183 32.431761 -0.838351 0.384139 0.059470 -0.019045 -200492.000000 0 0 1
-7.264761 8.729018 31.307023 33.303186 -0.876695 0.347987 0.074378 -0.024216 487007.000000 0 0 1
-6.058461 8.010718 31.041483 32.625913 -0.923279 0.312927 0.086384 -0.026983 -156860.000000 0 0 1
-5.424061 7.472118 32.164688 33.463714 -0.942894 0.279545 0.122105 -0.031978 -187908.000000 0 0 1
-3.924461 7.298218 31.880289 32.939614 -1.077423 0.254297 0.101323 -0.031911 -121657.000000 0 0 1
-3.274061 8.552918 31.708953 33.004993 -1.205205 0.281168 0.086824 -0.031893 -1001150.000000 0 0 1
-1.893961 8.360618 31.650913 32.791269 -1.348023 0.264498 0.098989 -0.039687 -877670.000000 0 0 1
-1.251861 9.656618 31.334363 32.812493 -1.441878 0.301298 0.100441 -0.036822 -501275.000000 0 0 1
-1.382561 10.640918 32.286950 34.023341 -1.441591 0.320859 0.100209 -0.048322 -112774.000000 0 0 1
-1.412261 11.902418 31.673983 33.865960 -1.452695 0.361761 0.094835 -0.039424 -110934.000000 0 0 1
-1.743861 13.036118 32.637411 35.187810 -1.437814 0.383073 0.082773 -0.046642 418425.000000 0 0 1
-0.591161 13.354918 33.441412 36.014321 -1.526560 0.380285 0.119791 -0.042947 60227.400000 0 0 1
-0.642161 14.549318 -33.609231 36.628887 -1.526688 2.732698 0.109045 -0.045489 259426.000000 0 0 1
0.716039 14.960918 -32.981541 36.223249 1.522972 2.715306 0.088159 -0.040532 449503.000000 0 0 1
1.609139 15.757518 -33.775891 37.305489 1.469030 2.703086 0.091347 -0.043104 -96441.700000 0 0 1
2.788739 15.974518 -33.089311 36.849216 1.397964 2.685920 0.093984 -0.041965 -843198.000000 0 0 1
3.788539 16.875318 -33.823311 37.988758 1.349956 2.668911 0.095056 -0.034963 -141882.000000 0 0 1
3.457939 18.281518 -33.868151 38.642242 1.383855 2.639244 0.080004 -0.027698 -776110.000000 0 0 1
4.476539 18.972118 33.325874 38.608218 1.339081 0.529260 0.064863 -0.006401 -767270.000000 0 0 1
4.198939 20.488218 33.215499 39.251338 1.368651 0.561935 0.070872 -0.018858 -75810.300000 0 0 1
4.241039 21.114718 -33.315281 39.670211 1.372577 2.567722 0.088981 -0.038423 150727.000000 0 0 1
3.724939 22.439018 -33.256201 40.290936 1.406294 2.541709 0.083774 -0.032044 34267.600000 0 0 1
3.747239 23.199318 -31.877541 39.603380 1.410656 2.506336 0.085917 -0.029798 -156910.000000 0 0 1
3.403639 24.571518 -31.976161 40.469978 1.433153 2.481802 0.098800 -0.034053 144262.000000 0 0 1
3.453239 25.005718 -30.650251 39.707035 1.433566 2.452636 0.114312 -0.038604 -28813.100000 0 0 1
2.886239 26.457218 -30.533321 40.504301 1.462135 2.424667 0.119918 -0.041238 -328195.000000 0 0 1
3.812939 27.473818 -30.728241 41.395337 1.432893 2.407310 0.118590 -0.039918 -224647.000000 0 0 1
3.337639 28.716118 -30.349191 41.914539 1.455087 2.380486 0.119839 -0.042298 -852282.000000 0 0 1
4.463739 29.751918 -30.264421 42.673607 1.421875 2.359169 0.135450 -0.053311 -501841.000000 0 0 1
5.301639 29.384418 -29.211881 41.771825 1.392293 2.345242 0.125263 -0.060559 -131301.000000 0 0 1
6.084839 30.552918 -28.841201 42.453750 1.374211 2.317681 0.136123 -0.068335 -711933.000000 0 0 1
7.128439 30.094318 -27.805891 41.589063 1.338213 2.303103 0.142159 -0.060048 -902059.000000 0 0 1
8.271539 29.482218 -28.295451 41.692350 1.297268 2.316750 0.139676 -0.051770 -468209.000000 0 0 1
9.413539 30.293018 -28.464801 42.620729 1.269507 2.302130 0.141784 -0.052979 -276453.000000 0 0 1
9.426239 31.612718 -29.348281 44.153590 1.281011 2.297870 0.162928 -0.058818 -1706780.000000 0 0 1
8.931539 32.715118 -28.647931 44.393189 1.304282 2.272242 0.165412 -0.056185 231721.000000 0 0 1
8.776839 33.835918 -29.538361 45.764801 1.316996 2.272393 0.153916 -0.049519 -636624.000000 0 0 1
7.484639 33.828818 -30.335181 46.050319 1.353054 2.289939 0.117582 -0.039371 -926554.000000 0 0 1
7.550139 32.914918 -31.382831 46.100743 1.345314 2.319575 0.100633 -0.031974 -412246.000000 0 0 1
6.370339 32.858218 -32.120411 46.389271 1.379298 2.335621 0.095466 -0.033215 -554084.000000 0 0 1
6.365539 31.986618 -33.407921 46.687824 1.374356 2.368221 0.102896 -0.046136 -24728.300000 0 0 1
6.592039 32.841118 33.264907 47.207500 1.372704 0.788862 0.094519 -0.043240 241854.000000 0 0 1
6.356939 32.178618 32.030470 45.845666 1.375756 0.797275 0.104362 -0.041584 -166532.000000 0 0 1
5.983539 32.990418 30.747203 45.492427 1.391375 0.828645 0.089901 -0.049592 325791.000000 0 0 1
7.103139 33.700118 30.254173 45.841766 1.363062 0.850018 0.094638 -0.046012 482912.000000 0 0 1
6.723339 -33.438480 29.042723 44.797489 -1.372376 0.865432 0.078639 -0.055252 -276725.000000 0 0 1
18.361489 -21.074982 29.497303 40.637299 -0.854097 0.758501 0.128698 -0.025848 -133067.000000 0 0 1
17.140789 -20.352082 29.652043 39.840401 -0.870840 0.731354 0.133949 -0.020265 1616480.000000 0 0 1
15.939589 -21.187582 29.623243 39.755763 -0.925820 0.730065 0.139837 -0.017298 1169890.000000 0 0 1
15.611189 -21.842982 30.986403 40.999784 -0.950272 0.713967 0.135549 -0.016310 -663452.000000 0 0 1
16.603189 -22.738182 31.447903 42.209732 -0.940095 0.730203 0.124338 -0.026468 22448.500000 0 0 1
16.540089 -22.867582 32.875868 43.328092 -0.944604 0.709380 0.113780 -0.021227 -156908.000000 0 0 1
17.296989 -24.048182 33.445668 44.677887 -0.947258 0.724855 0.121288 -0.026942 -303009.000000 0 0 1
16.770089 -25.359142 33.166479 44.992636 -0.986516 0.741948 0.140693 -0.033891 -70741.900000 0 0 1
17.452689 -26.371472 33.866703 46.335780 -0.986169 0.751160 0.137050 -0.033110 -44475.700000 0 0 1
17.013889 -27.806692 33.525465 46.761537 -1.021700 0.771386 0.126723 -0.025004 115039.000000 0 0 1
17.807089 -28.381612 32.503365 46.680586 -1.010461 0.800577 0.123933 -0.025914 -82227.500000 0 0 1
17.307789 -29.576872 32.095352 46.951705 -1.041345 0.818137 0.124027 -0.033344 -294895.000000 0 0 1
18.129089 -30.306492 31.018223 47.002952 -1.031708 0.850083 0.130535 -0.030368 463599.000000 0 0 1
19.362289 -30.869552 31.476773 48.151996 -1.010595 0.858338 0.135596 -0.036875 392666.000000 0 0 1
20.117889 -31.234922 30.350503 47.973981 -0.998592 0.885832 0.107162 -0.027416 -658437.000000 0 0 1
21.516289 -31.803462 30.592733 49.095073 -0.975990 0.898055 0.097037 -0.029380 -1038500.000000 0 0 1
22.460089 -30.843922 30.806983 49.039508 -0.941403 0.891549 0.096525 -0.031708 -62027.500000 0 0 1
23.771189 -31.435982 30.742663 49.984015 -0.923353 0.908347 0.068809 -0.025251 557467.000000 0 0 1
24.833089 -30.324702 31.002083 49.973984 -0.884633 0.901589 0.054654 -0.030092 -307229.000000 0 0 1
25.905089 -30.462022 30.117283 50.060555 -0.866067 0.925272 0.058678 -0.029925 -181280.000000 0 0 1
26.916089 -29.472602 30.310613 50.118294 -0.830704 0.921305 0.052098 -0.022265 1187860.000000 0 0 1
28.050189 -29.509702 29.198173 50.101586 -0.810749 0.948652 0.040357 -0.011723 936752.000000 0 0 1
29.030489 -30.509072 29.394423 51.357618 -0.810227 0.961430 0.028037 -0.005549 246094.000000 0 0 1
30.083289 -30.510482 28.445163 51.429769 -0.792448 0.984731 0.022155 -0.007757 302801.000000 0 0 1
31.127389 -31.623992 28.607843 52.795833 -0.793312 0.998150 0.017636 -0.021300 -89837.200000 0 0 1
30.596889 -32.951272 28.411243 53.189799 -0.822430 1.007296 0.010050 -0.011239 107575.000000 0 0 1
31.424289 33.779485 28.964973 54.474850 0.821503 1.010175 0.034964 -0.013237 -19093.700000 0 0 1
30.564089 32.742553 29.787303 53.791466 0.819796 0.983929 0.028834 -0.012564 -248826.000000 0 0 1
29.948689 33.158126 30.976233 54.368303 0.836212 0.964597 0.033006 -0.012640 155747.000000 0 0 1
28.895389 -33.671792 30.895603 54.067286 -0.861591 0.962550 0.006549 -0.002883 257973.000000 0 0 1
27.635089 33.849555 29.987013 52.997278 0.886130 0.969367 0.020404 -0.007019 73438.400000 0 0 1
27.250889 32.464229 30.098693 51.985272 0.872481 0.953313 0.006940 -0.005963 -577807.000000 0 0 1
25.874789 32.388013 30.338433 51.370309 0.896726 0.939015 0.024654 -0.008454 -347575.000000 0 0 1
25.405689 30.964715 30.367673 50.263886 0.883696 0.922079 0.049315 -0.017270 -186049.000000 0 0 1
25.491189 30.323565 29.116803 49.164088 0.871762 0.936964 0.045390 -0.013657 -189977.000000 0 0 1
24.869189 29.109165 29.069553 48.071395 0.863787 0.921387 0.089639 -0.031277 -190735.000000 0 0 1
24.251789 28.861255 27.646423 46.748754 0.871967 0.938023 0.090350 -0.034642 1418340.000000 0 0 1
22.929489 29.420305 27.381583 46.271664 0.908758 0.937560 0.115475 -0.034849 1181740.000000 0 0 1
22.325589 28.736745 26.296413 44.896924 0.910300 0.945045 0.112571 -0.030572 -133414.000000 0 0 1
20.966589 29.388035 25.998103 44.487704 0.951107 0.946670 0.120110 -0.024652 -359854.000000 0 0 1
20.955489 30.686445 25.407773 45.014946 0.971646 0.971054 0.137093 -0.027706 -396324.000000 0 0 1
19.672489 31.221855 25.239993 44.708705 1.008547 0.970917 0.117593 -0.024333 -434217.000000 0 0 1
19.758789 32.638990 24.601223 45.397507 1.026435 0.998092 0.122817 -0.025007 -78832.300000 0 0 1
20.136789 32.698946 23.247223 44.890363 1.018823 1.026441 0.133638 -0.024611 699790.000000 0 0 1
21.487989 33.157447 23.107223 45.772194 0.995787 1.041610 0.134248 -0.021011 689430.000000 0 0 1
22.070089 33.344049 21.691473 45.491037 0.986108 1.073752 0.143435 -0.025063 147164.000000 0 0 1
21.565889 -33.222812 21.146473 44.900069 -0.995034 1.080409 0.132086 -0.017037 373708.000000 0 0 1
22.265689 -32.978782 19.937773 44.507031 -0.976942 1.106304 0.144329 -0.027325 89606.400000 0 0 1
21.920689 -31.656152 19.247173 43.047442 -0.965147 1.107259 0.134504 -0.027302 -317242.000000 0 0 1
22.330489 -30.619682 20.110873 42.902948 -0.940685 1.082918 0.136025 -0.021233 245096.000000 0 0 1
22.185189 -29.302512 19.550873 41.629995 -0.922761 1.081920 0.126712 -0.030649 342076.000000 0 0 1
23.163089 -28.929822 18.376973 41.366369 -0.895650 1.110460 0.100495 -0.028304 70567.100000 0 0 1
22.671389 -29.371362 17.132073 40.867796 -0.913434 1.138224 0.078322 -0.037306 367937.000000 0 0 1
23.473089 -28.936612 16.044173 40.567585 -0.889269 1.164192 0.062983 -0.032009 -110340.000000 0 0 1
22.987489 -29.672442 14.776773 40.338958 -0.911668 1.195750 0.040833 -0.035594 358811.000000 0 0 1
23.683389 -30.931752 14.672473 41.628809 -0.917344 1.210598 0.087499 -0.041333 321791.000000 0 0 1
23.917089 -31.309642 13.269173 41.573932 -0.918465 1.245942 0.083295 -0.031739 -240216.000000 0 0 1
22.747389 -31.389942 12.256073 40.656900 -0.943704 1.264582 0.062818 -0.037623 -474448.000000 0 0 1
21.783289 -32.326342 12.559973 40.954329 -0.977833 1.259091 0.068838 -0.038312 -789268.000000 0 0 1
20.575689 -32.155782 11.893073 39.984979 -1.001572 1.268788 0.076849 -0.023866 -180836.000000 0 0 1
19.426789 -33.002342 12.509573 40.287022 -1.038765 1.255066 0.091416 -0.022814 141623.000000 0 0 1
18.863689 -32.521052 13.735673 40.026570 -1.045179 1.220513 0.077623 -0.021408 644438.000000 0 0 1
19.514389 -33.052372 14.904373 41.175369 -1.037460 1.200413 0.079750 -0.027393 -689959.000000 0 0 1
19.155189 -32.136832 16.086273 40.724261 -1.033286 1.164723 0.081073 -0.030657 495865.000000 0 0 1
17.769889 -31.890822 16.327873 39.992411 -1.062434 1.150234 0.070482 -0.039009 864404.000000 0 0 1
16.845589 -32.947622 16.591373 40.553586 -1.098162 1.149304 0.070478 -0.029990 -214249.000000 0 0 1
17.018189 -33.483262 18.048373 41.671230 -1.100563 1.122852 0.079027 -0.031436 -313558.000000 0 0 1
18.073689 33.344529 18.103873 42.026969 1.074094 1.125453 0.075726 -0.030375 22767.300000 0 0 1
18.327789 32.782257 19.382273 42.264130 1.061011 1.094379 0.064789 -0.023117 271484.000000 0 0 1
19.182989 31.511885 19.288773 41.629830 1.023965 1.089036 0.077979 -0.027598 489765.000000 0 0 1
18.380189 30.396395 18.905773 40.239290 1.026940 1.081694 0.044283 -0.029863 432765.000000 0 0 1
19.282289 29.381275 18.478273 39.705322 0.990020 1.086726 0.052651 -0.038470 402147.000000 0 0 1
18.666089 27.964325 18.316673 38.287425 0.982219 1.071965 0.057252 -0.034821 -145546.000000 0 0 1
18.337289 27.284955 19.536273 38.241220 0.979065 1.034600 0.060341 -0.032372 23890.200000 0 0 1
18.085089 25.917045 19.227173 36.992538 0.961544 1.024228 0.062537 -0.024356 -426382.000000 0 0 1
17.838689 25.070235 20.484173 36.963994 0.952362 0.983436 0.064054 -0.015944 -159006.000000 0 0 1
16.715789 25.334635 21.299173 37.079861 0.987563 0.958909 0.065083 -0.017062 -381352.000000 0 0 1
15.762789 24.337605 21.101673 35.861751 0.996059 0.941696 0.069000 -0.022121 -1027850.000000 0 0 1
14.490789 24.634675 21.878973 35.993606 1.039078 0.917437 0.091012 -0.042688 -552870.000000 0 0 1
13.869789 25.827125 21.437973 36.318014 1.077970 0.939385 0.085056 -0.040443 -410648.000000 0 0 1
12.570589 25.939335 21.953273 36.232789 1.119532 0.919906 0.095262 -0.042873 -645005.000000 0 0 1
11.786289 27.020795 21.202973 36.312616 1.159483 0.947271 0.084488 -0.046158 -415340.000000 0 0 1
12.255889 28.371305 21.375673 37.577349 1.163027 0.965696 0.064446 -0.044509 259965.000000 0 0 1
11.419589 29.174965 20.529073 37.457021 1.197711 0.990741 0.065124 -0.048491 450893.000000 0 0 1
11.881089 30.655345 20.383573 38.683336 1.201051 1.015807 0.052163 -0.047932 -37537.000000 0 0 1
11.427489 31.581645 21.379873 39.813148 1.223613 1.003913 0.053495 -0.046738 -452553.000000 0 0 1
11.975589 31.393235 22.669073 40.531923 1.206365 0.977268 0.044147 -0.042819 -363035.000000 0 0 1
11.462689 32.248920 23.787013 41.679828 1.229280 0.963428 0.042971 -0.040187 -354714.000000 0 0 1
10.106589 31.972064 24.029353 41.252465 1.264629 0.949002 0.062387 -0.048967 -380422.000000 0 0 1
9.843289 32.423750 25.307543 42.292572 1.276056 0.929304 0.053438 -0.044534 896044.000000 0 0 1
8.472289 31.932199 25.980863 42.029160 1.311450 0.904393 0.131081 -0.064296 1536870.000000 0 0 1
7.242989 32.622868 25.695923 42.154393 1.352318 0.915282 0.134532 -0.057480 965622.000000 0 0 1
6.628089 32.329627 24.436643 41.064411 1.368582 0.933430 0.136052 -0.064958 -67176.900000 0 0 1
5.879189 30.954205 24.325753 39.805401 1.383100 0.913325 0.133620 -0.056119 -506652.000000 0 0 1
6.646389 29.811005 24.626853 39.234582 1.351433 0.892224 0.103429 -0.052353 -606662.000000 0 0 1
6.006389 28.584915 24.309543 38.001684 1.363685 0.876693 0.106348 -0.051532 -628797.000000 0 0 1
6.999189 27.424375 24.230213 37.258398 1.320913 0.862779 0.090317 -0.050838 53363.900000 0 0 1
8.016289 27.440515 23.224703 36.832453 1.286572 0.888535 0.071703 -0.045913 452403.000000 0 0 1
9.040489 28.390125 23.254003 37.795215 1.262511 0.908077 0.088064 -0.045230 -1014720.000000 0 0 1
10.218889 28.054915 24.189973 38.427318 1.221487 0.889888 0.091220 -0.054080 -1196980.000000 0 0 1
9.978189 27.998955 25.581663 39.216415 1.228452 0.860155 0.086109 -0.049764 231889.000000 0 0 1
11.146089 27.831385 26.380523 39.934362 1.189871 0.849183 0.079316 -0.034861 508404.000000 0 0 1
12.148589 29.023735 26.476063 41.121130 1.174381 0.871270 0.073288 -0.039528 -326953.000000 0 0 1
11.744789 30.146975 27.236173 42.291717 1.199301 0.871071 0.070271 -0.046444 -8429.460000 0 0 1
12.783089 31.068995 27.410353 43.359166 1.180465 0.886446 0.067118 -0.039256 -421467.000000 0 0 1
12.283089 32.138438 28.362503 44.589069 1.205734 0.881381 0.052436 -0.041601 -91226.500000 0 0 1
11.985189 31.698205 29.661733 45.035979 1.209308 0.851809 0.062776 -0.053938 -628431.000000 0 0 1
10.628089 31.658145 29.940913 44.851452 1.246905 0.839873 0.081627 -0.050684 -868976.000000 0 0 1
10.357389 31.436345 31.421013 45.637697 1.252525 0.811394 0.123885 -0.048398 -30465.400000 0 0 1
10.566889 30.110985 31.886542 45.111885 1.233292 0.785786 0.089042 -0.045676 -12837.000000 0 0 1
10.777789 30.085375 33.305118 46.157572 1.226800 0.764754 0.128069 -0.042630 -44004.200000 0 0 1
10.999489 28.654535 33.800173 45.656575 1.204276 0.737260 0.110632 -0.042106 -718379.000000 0 0 1
12.171089 28.048005 33.373211 45.261432 1.161380 0.741667 0.115671 -0.042473 -470968.000000 0 0 1
12.244289 26.737065 -33.803311 44.804655 1.141349 2.425627 0.112744 -0.034233 101144.000000 0 0 1
13.561789 26.026535 33.552981 44.576958 1.090431 0.718646 0.111037 -0.033551 230050.000000 0 0 1
13.645389 24.652525 -33.870341 44.058411 1.065263 2.447696 0.086835 -0.032006 -109273.000000 0 0 1
13.921489 24.360375 -32.508781 42.942480 1.051611 2.429553 0.087162 -0.034666 -408320.000000 0 0 1
13.896389 22.844745 -32.328061 41.953492 1.024298 2.450530 0.067588 -0.054914 767008.000000 0 0 1
15.089089 22.108415 -32.715171 42.269907 0.971909 2.455866 0.067693 -0.040770 852016.000000 0 0 1
14.956289 20.665315 -32.652751 41.436071 0.944315 2.478394 0.068699 -0.039575 638892.000000 0 0 1
16.283089 19.926115 -33.055481 41.890976 0.885671 2.480112 0.103839 -0.053580 642556.000000 0 0 1
17.356489 20.159715 -32.188261 41.758184 0.859980 2.450932 0.107239 -0.060479 376335.000000 0 0 1
18.606889 19.711515 -32.731401 42.498291 0.814218 2.449922 0.116907 -0.058800 162039.000000 0 0 1
19.800989 20.007215 -31.847171 42.504236 0.790579 2.417756 0.096738 -0.052143 -610716.000000 0 0 1
20.195989 21.355215 -31.881981 43.363393 0.813290 2.396799 0.091294 -0.049696 13779.700000 0 0 1
21.178689 21.657215 -30.900031 43.271050 0.796569 2.366140 0.069377 -0.038978 100422.000000 0 0 1
20.628689 22.023615 -29.521261 42.214775 0.818091 2.345230 0.059285 -0.039301 -326824.000000 0 0 1
20.078389 23.322195 -29.595321 42.696013 0.860001 2.336665 0.052487 -0.027287 -186973.000000 0 0 1
19.786989 23.902735 -28.340911 42.024670 0.879325 2.310931 0.047175 -0.012256 -504504.000000 0 0 1
20.909889 24.512945 -27.484401 42.349737 0.864555 2.277048 0.040837 -0.014209 27703.500000 0 0 1
21.682089 25.518515 -28.142111 43.741125 0.866499 2.269700 0.029935 -0.002983 106028.000000 0 0 1
21.041689 26.806945 -28.176781 44.218729 0.905310 2.261674 0.029523 -0.007261 -469174.000000 0 0 1
21.886389 27.835645 -28.913781 45.714810 0.904482 2.255549 0.025871 -0.004601 -384440.000000 0 0 1
22.007889 27.763585 -30.326121 46.635152 0.900529 2.278755 0.046691 -0.006838 74599.200000 0 0 1
22.393189 26.569735 -31.026851 46.584023 0.870492 2.299684 0.054237 -0.012061 -624140.000000 0 0 1
23.743289 25.958865 -30.673381 46.674005 0.829946 2.287872 0.064664 -0.017399 -1084900.000000 0 0 1
24.807189 26.788255 -31.023621 47.911087 0.823775 2.275128 0.056842 -0.012114 -1166950.000000 0 0 1
25.969789 26.364605 -30.392851 47.887866 0.792942 2.258374 0.099290 -0.023179 -933811.000000 0 0 1
27.072289 27.384715 -30.705551 49.251013 0.791135 2.243944 0.084318 -0.016123 -828172.000000 0 0 1
27.161389 28.524245 -29.829981 49.408515 0.809867 2.218983 0.045944 -0.008516 -690801.000000 0 0 1
28.167489 29.245985 -30.406641 50.727693 0.804181 2.213559 0.050388 -0.010808 -716927.000000 0 0 1
28.474489 30.587015 -29.739921 51.291568 0.821151 2.189305 0.041250 -0.000130 46990.500000 0 0 1
29.010389 30.298695 -28.445451 50.682909 0.807117 2.166684 0.063169 -0.010395 238454.000000 0 0 1
28.961089 31.491675 -27.740841 50.990436 0.827234 2.146041 0.044165 -0.002212 -653053.000000 0 0 1
29.366389 31.376005 -26.247181 50.356261 0.818470 2.119088 0.068470 0.002615 372417.000000 0 0 1
28.632289 30.427695 -25.432111 48.912625 0.815789 2.117589 0.058329 0.008491 -385804.000000 0 0 1
27.254189 30.568875 -25.402321 48.192581 0.842660 2.125981 0.041039 0.011963 -1032910.000000 0 0 1
26.535189 30.067755 -24.128571 46.801432 0.847727 2.112448 0.040213 0.020863 -68839.800000 0 0 1
26.762789 30.977045 -23.063571 46.986727 0.858256 2.083865 0.071815 0.001875 470642.000000 0 0 1
25.954389 30.639105 -21.911771 45.743970 0.867988 2.070322 0.048346 0.014100 488629.000000 0 0 1
3.402989 -25.864412 -19.363271 32.488220 -1.439977 2.209318 0.079971 -0.018942 -167253.000000 0 0 1
3.083089 -26.946862 -18.527171 32.846535 -1.456878 2.170082 0.087495 -0.017237 193369.000000 0 0 1
2.985789 -26.611242 -17.214671 31.834228 -1.459063 2.142136 0.100149 -0.018461 -242061.000000 0 0 1
2.923089 -27.784072 -16.188871 32.288987 -1.465975 2.095983 0.097938 -0.032010 -461751.000000 0 0 1
4.117089 -28.499802 -16.128371 33.004750 -1.427329 2.081359 0.096115 -0.028292 -322507.000000 0 0 1
4.057789 -29.471202 -15.103871 33.363818 -1.433970 2.040590 0.097251 -0.032697 -165084.000000 0 0 1
5.428489 -30.127292 -14.904671 34.048076 -1.392524 2.023895 0.138557 -0.036959 -100857.000000 0 0 1
6.383689 -29.319492 -14.256871 33.221115 -1.356414 2.014349 0.104821 -0.027521 -270279.000000 0 0 1
7.685889 -29.867852 -14.281971 33.987294 -1.318931 2.004479 0.109937 -0.029908 382079.000000 0 0 1
8.230989 -30.436392 -12.967171 34.092091 -1.306681 1.960979 0.095712 -0.033499 -582371.000000 0 0 1
8.478189 -29.451052 -12.004271 32.914232 -1.290501 1.944122 0.099358 -0.033817 120870.000000 0 0 1
8.974889 -29.853822 -10.702471 32.959706 -1.278764 1.901505 0.106003 -0.033651 63066.800000 0 0 1
10.166389 -30.816112 -10.538671 34.118204 -1.252134 1.884819 0.095414 -0.026108 342247.000000 0 0 1
11.420889 -30.112822 -10.577771 33.898496 -1.208287 1.888138 0.106186 -0.038020 928239.000000 0 0 1
12.494889 -31.000892 -10.233671 34.955766 -1.187664 1.867909 0.106322 -0.033868 190986.000000 0 0 1
13.455889 -30.584542 -9.113071 34.634134 -1.156325 1.837055 0.108838 -0.033683 -234387.000000 0 0 1
14.522189 -29.788992 -9.563471 34.492579 -1.117197 1.851739 0.113969 -0.049040 -174943.000000 0 0 1
15.427489 -29.480092 -8.525271 34.347686 -1.088668 1.821623 0.097179 -0.045529 274115.000000 0 0 1
16.777989 -28.916572 -9.065971 34.639008 -1.045048 1.835608 0.095129 -0.047654 200071.000000 0 0 1
16.810189 -27.572682 -9.552071 33.676065 -1.023298 1.858390 0.105030 -0.052555 182017.000000 0 0 1
15.985789 -27.377312 -10.705571 33.461499 -1.042294 1.896459 0.090790 -0.050229 -64948.500000 0 0 1
15.733389 -25.890412 -10.839771 32.176911 -1.024740 1.914398 0.099410 -0.049236 -754503.000000 0 0 1
14.923189 -25.316512 -9.833771 30.989198 -1.038159 1.893708 0.084961 -0.050733 514294.000000 0 0 1
14.273589 -24.051882 -10.088571 29.732266 -1.035207 1.916984 0.066680 -0.041580 448383.000000 0 0 1
13.628589 -23.707782 -11.497071 29.664457 -1.049069 1.968791 0.057919 -0.037469 88179.800000 0 0 1
14.532589 -23.410282 -12.543471 30.275008 -1.015239 1.997989 0.061374 -0.033882 78659.300000 0 0 1
13.771689 -23.326982 -13.740171 30.374328 -1.037483 2.040208 0.068816 -0.028801 642696.000000 0 0 1
14.541789 -22.587382 -14.924471 30.730983 -0.998791 2.077902 0.068248 -0.030593 332861.000000 0 0 1
15.647489 -23.315182 -15.370071 32.010634 -0.979711 2.071628 0.058395 -0.032505 -266607.000000 0 0 1
16.327789 -22.825182 -16.492271 32.551200 -0.949848 2.102098 0.065299 -0.034306 -487308.000000 0 0 1
17.344489 -23.831082 -17.129871 34.090824 -0.941649 2.097258 0.066779 -0.032550 755699.000000 0 0 1
18.655589 -23.935382 -16.595871 34.588386 -0.908734 2.071235 0.092184 -0.034861 509443.000000 0 0 1
19.487889 -22.809982 -16.952371 34.459483 -0.863778 2.085125 0.099130 -0.039355 921529.000000 0 0 1
21.033989 -22.985682 -16.656071 35.329803 -0.829706 2.061725 0.090690 -0.033934 1531780.000000 0 0 1
21.687389 -23.973482 -17.486071 36.753685 -0.835423 2.066628 0.108498 -0.033115 1165400.000000 0 0 1
23.110489 -23.983982 -17.250971 37.508960 -0.803944 2.048697 0.120685 -0.006796 1417780.000000 0 0 1
23.928589 -25.154952 -17.931671 39.075489 -0.810378 2.047551 0.100792 -0.010459 -8080.460000 0 0 1
24.008589 -25.152792 -19.352071 39.794195 -0.808668 2.078651 0.122391 -0.025013 272275.000000 0 0 1
24.862889 -26.123862 -19.968871 41.223479 -0.810125 2.076480 0.111979 -0.031129 955505.000000 0 0 1
26.287289 -25.531582 -20.317271 41.900773 -0.770816 2.077034 0.093465 -0.030921 579337.000000 0 0 1
26.515289 -24.643982 -21.395071 42.049203 -0.748836 2.104599 0.113123 -0.038464 -251687.000000 0 0 1
26.742189 -23.307882 -20.946671 41.196663 -0.716888 2.104187 0.111415 -0.034862 -1487810.000000 0 0 1
25.511289 -22.444882 -20.787171 39.833467 -0.721543 2.119817 0.120585 -0.034328 -390540.000000 0 0 1
24.947089 -21.937182 -22.028371 39.860335 -0.721287 2.156324 0.137542 -0.034131 309519.000000 0 0 1
24.467689 -22.874282 -22.981671 40.620903 -0.751753 2.172151 0.107565 -0.035731 -826604.000000 0 0 1
23.596089 -22.139382 -24.007671 40.290147 -0.753558 2.209144 0.098930 -0.026335 154192.000000 0 0 1
24.323189 -21.195982 -24.807171 40.697456 -0.716805 2.226290 0.099559 -0.016612 522473.000000 0 0 1
23.374689 -20.520482 -25.605761 40.287979 -0.720466 2.259541 0.091537 -0.014726 -28732.300000 0 0 1
23.985589 -19.922682 -26.891031 41.174620 -0.693129 2.282464 0.083433 -0.012094 -321058.000000 0 0 1
23.150089 -19.185182 -27.737631 40.906894 -0.692016 2.315926 0.077243 -0.004751 346930.000000 0 0 1
23.918189 -18.787682 -28.908181 41.961169 -0.665835 2.330804 0.078183 -0.005406 280108.000000 0 0 1
23.269289 -17.679082 -29.715671 41.677702 -0.649718 2.364546 0.117930 -0.010689 887098.000000 0 0 1
21.969789 -17.995082 -30.288411 41.519663 -0.686269 2.388381 0.109362 -0.006017 1321910.000000 0 0 1
21.386989 -16.900882 -31.017801 41.293427 -0.668762 2.420608 0.110998 -0.011119 -74457.900000 0 0 1
20.121889 -17.317282 -31.760041 41.394189 -0.710627 2.445352 0.081874 -0.009776 -231830.000000 0 0 1
20.411789 -18.077182 -32.905951 42.734380 -0.724816 2.449655 0.092674 -0.013204 915906.000000 0 0 1
19.162989 -18.543382 -33.434251 42.765948 -0.768967 2.468337 0.095624 -0.016038 643961.000000 0 0 1
19.360289 -19.562682 33.272845 43.181032 -0.790598 0.691104 0.120175 -0.015873 -187013.000000 0 0 1
20.114589 -20.673582 33.640617 44.313484 -0.799102 0.708789 0.125335 -0.013892 76475.500000 0 0 1
20.741689 -21.196982 32.452293 43.962269 -0.796254 0.740420 0.128564 -0.018236 -45838.000000 0 0 1
21.567389 -22.469282 32.793470 45.226459 -0.805876 0.759624 0.107926 -0.015338 -149729.000000 0 0 1
20.883889 -23.556682 33.383067 45.885545 -0.845469 0.756083 0.119119 -0.013129 -84144.200000 0 0 1
20.929989 -23.426282 -32.961181 45.533445 -0.841617 2.380220 0.113595 -0.021312 -278788.000000 0 0 1
20.197089 -24.468382 -32.115491 45.144533 -0.880737 2.362274 0.112678 -0.025012 -160064.000000 0 0 1
20.788789 -25.778862 -32.122341 46.136409 -0.892148 2.340952 0.125808 -0.037945 100372.000000 0 0 1
21.481789 -26.104952 -30.956031 45.838975 -0.882247 2.312196 0.099072 -0.030475 -21085.900000 0 0 1
21.654989 -27.636632 -30.744411 46.668413 -0.906160 2.289998 0.101916 -0.039586 1312990.000000 0 0 1
20.408489 -28.235112 -30.251831 46.140018 -0.944928 2.285843 0.111957 -0.045506 1361230.000000 0 0 1
20.546189 -29.630822 -30.197351 47.032026 -0.964510 2.267978 0.108620 -0.048177 -176399.000000 0 0 1
19.238989 -30.292262 -29.746711 46.611443 -1.004958 2.262934 0.119701 -0.047460 122019.000000 0 0 1
18.016589 -30.165392 -30.431821 46.482729 -1.032394 2.284570 0.136385 -0.051002 88871.700000 0 0 1
17.924789 -30.771232 -31.705751 47.680409 -1.043331 2.298242 0.142968 -0.055560 44860.900000 0 0 1
16.495489 -31.247382 -32.106881 47.742558 -1.085079 2.308378 0.148179 -0.061984 673112.000000 0 0 1
15.523489 -30.318742 -32.536101 47.104169 -1.097587 2.333290 0.150172 -0.055620 -147545.000000 0 0 1
14.296889 -30.959012 -32.773641 47.296649 -1.138173 2.336352 0.120060 -0.042227 514195.000000 0 0 1
13.231589 -30.105602 -33.597681 47.013045 -1.156704 2.366914 0.117965 -0.034390 652696.000000 0 0 1
12.611789 -29.115912 -32.761231 45.608024 -1.162036 2.372183 0.132013 -0.038407 -64787.800000 0 0 1
11.890189 -28.186862 -33.564631 45.414318 -1.171610 2.402494 0.101720 -0.034657 504979.000000 0 0 1
10.732289 -27.446132 -32.800841 44.094981 -1.198046 2.409636 0.109104 -0.031487 949849.000000 0 0 1
9.596589 -28.247902 -32.446521 44.077378 -1.243302 2.398126 0.111605 -0.025102 623770.000000 0 0 1
8.576889 -27.395112 -31.946311 42.949063 -1.267382 2.409562 0.058085 -0.020473 -56384.100000 0 0 1
7.412689 -28.052632 -31.241851 42.637441 -1.312459 2.393125 0.039820 -0.015798 310248.000000 0 0 1
6.310389 -28.707202 -31.875541 43.358674 -1.354419 2.396698 0.050442 -0.015995 876529.000000 0 0 1
6.663589 -30.031622 -32.320171 44.619449 -1.352448 2.380890 0.057094 -0.015814 269931.000000 0 0 1
5.372689 -30.825732 -32.675661 45.241467 -1.398237 2.377847 0.083815 -0.027012 764083.000000 0 0 1
4.530089 -31.055052 -31.532541 44.488640 -1.425945 2.358560 0.085693 -0.037007 214286.000000 0 0 1
3.682689 -32.148822 -31.571991 45.209508 -1.456742 2.343884 0.100549 -0.062442 -266445.000000 0 0 1
2.804389 -32.443642 -30.255761 44.450710 -1.484572 2.319458 0.080771 -0.064853 737887.000000 0 0 1
1.692689 -31.631982 -29.940031 43.587302 -1.517335 2.328008 0.068737 -0.059607 150524.000000 0 0 1
0.560589 -31.838502 -30.756301 44.271374 -1.553191 2.338830 0.067605 -0.030258 -997393.000000 0 0 1
-0.409511 -30.697242 -30.602051 43.347132 1.557457 2.354597 0.057261 -0.015235 -676984.000000 0 0 1
-1.230411 -30.842772 -29.457581 42.667781 1.530924 2.332830 0.056100 -0.023634 22001.700000 0 0 1
-1.708711 -29.614332 -28.947281 41.447237 1.513161 2.343974 0.104035 -0.022696 301390.000000 0 0 1
-2.435811 -29.802412 -27.563671 40.667836 1.489246 2.315530 0.115165 -0.029760 900911.000000 0 0 1
-1.480011 -30.030672 -26.487791 40.070373 1.521553 2.292989 0.085927 -0.023524 585461.000000 0 0 1
-2.108411 -30.115042 -25.269641 39.368971 1.500899 2.267727 0.107401 -0.024501 -133254.000000 0 0 1
-1.054711 -30.099452 -24.168471 38.616116 1.535770 2.247036 0.067308 -0.016685 171545.000000 0 0 1
-1.691011 -30.097152 -22.919071 37.867953 1.514670 2.220859 0.111935 -0.026644 262816.000000 0 0 1
-0.740911 -30.572632 -21.967471 37.653746 1.546567 2.193714 0.095798 -0.020673 369418.000000 0 0 1
-1.181611 -30.575842 -20.515371 36.839636 1.532170 2.161425 0.052945 -0.011679 -69738.600000 0 0 1
-1.368811 -29.312032 -19.867971 35.437341 1.524132 2.165968 0.037998 -0.009265 1027370.000000 0 0 1
-0.098211 -28.690652 -19.527171 34.705527 1.567373 2.168388 0.061691 -0.020060 1137340.000000 0 0 1
-0.267611 -27.254002 -19.010871 33.230490 1.560978 2.179850 0.068473 -0.025059 -70564.400000 0 0 1
-0.835111 -27.260172 -17.705471 32.516121 1.540171 2.146605 0.064350 -0.022988 -9468.370000 0 0 1
-0.828711 -26.010862 -17.065771 31.120608 1.538947 2.151216 0.076168 -0.028272 338365.000000 0 0 1
-1.789711 -25.998942 -15.808771 30.480572 1.502067 2.116068 0.057737 -0.026256 259313.000000 0 0 1
-1.992611 -24.719482 -15.218371 29.096771 1.490361 2.121194 0.049822 -0.024019 -88122.400000 0 0 1
-2.914411 -24.746982 -14.164471 28.662504 1.453568 2.087689 0.048688 -0.026979 -351186.000000 0 0 1
-2.788911 -23.565882 -13.184171 27.146845 1.452999 2.077916 0.051170 -0.023783 -127393.000000 0 0 1
-1.633211 -23.660382 -12.390771 26.758406 1.501878 2.052242 0.068528 -0.030692 -405349.000000 0 0 1
-1.456611 -22.536682 -11.642671 25.408179 1.506253 2.046794 0.074016 -0.023679 505183.000000 0 0 1
-0.183911 -22.652682 -10.743771 25.072025 1.562678 2.013646 0.069459 -0.027848 605518.000000 0 0 1
0.250189 -21.411282 -10.181971 23.710296 -1.559112 2.014661 0.059413 -0.019727 -134267.000000 0 1 0
1.546689 -21.509882 -9.625171 23.615910 -1.499014 1.990589 0.052699 -0.017191 199073.000000 0 1 0
2.086189 -20.100982 -9.369571 22.275335 -1.467381 2.004931 0.045865 -0.011322 -557826.000000 0 1 0
2.686089 -19.458482 -10.516271 22.280924 -1.433621 2.062338 0.044628 0.001389 84117.900000 0 1 0
3.310389 -18.226582 -10.275071 21.183580 -1.391131 2.077215 0.029190 -0.001542 -274682.000000 0 1 0
4.731089 -18.367782 -9.711471 21.308949 -1.318701 2.044007 0.047340 -0.025263 -683753.000000 0 1 0
4.766189 -18.900182 -8.369071 21.212609 -1.323770 1.976356 0.046802 -0.027568 -237473.000000 0 1 0
5.888489 -19.707582 -8.098371 22.105355 -1.280447 1.945883 0.062274 -0.028107 -67403.300000 0 1 0
5.460289 -20.812082 -7.044971 22.640432 -1.314218 1.887218 0.062106 -0.030475 -176447.000000 0 1 0
4.771989 -21.848482 -7.654171 23.637140 -1.355760 1.900560 0.062034 -0.029106 -217209.000000 0 1 0
4.560289 -22.879082 -6.740171 24.283298 -1.374053 1.852054 0.080564 -0.030252 -206117.000000 0 1 0
3.665289 -23.954982 -7.381071 25.332898 -1.418966 1.866448 0.087529 -0.026703 -254531.000000 0 0 1
4.202089 -24.596782 -8.496071 26.359865 -1.401591 1.898966 0.089421 -0.033400 -533056.000000 0 0 1
3.282889 -25.410782 -9.166871 27.212437 -1.442315 1.914380 0.075195 -0.029605 -242676.000000 0 0 1
3.893589 -26.250212 -10.303371 28.467405 -1.423544 1.941140 0.065978 -0.028552 -568455.000000 0 0 1
4.734189 -27.215802 -9.839671 29.324590 -1.398570 1.912978 0.089086 -0.037723 -423202.000000 0 0 1
5.431689 -27.935852 -10.833471 30.451259 -1.378758 1.934528 0.105395 -0.028337 67636.300000 0 0 1
5.096689 -29.461372 -10.790871 31.786657 -1.399496 1.917158 0.092657 -0.036152 -215757.000000 0 0 1
3.868289 -29.801272 -11.384971 32.135604 -1.441715 1.932939 0.090923 -0.034574 -24883.800000 0 0 1
3.561489 -31.210572 -11.157871 33.335898 -1.457176 1.912094 0.100622 -0.034946 -471611.000000 0 0 1
2.253989 -31.639542 -11.797871 33.842737 -1.499677 1.926883 0.086627 -0.045163 -622786.000000 0 0 1
2.283889 -31.604192 -13.206671 34.328666 -1.498656 1.965693 0.099002 -0.048052 769985.000000 0 0 1
1.288889 -32.532902 -13.680571 35.315846 -1.531199 1.968582 0.081628 -0.039927 327961.000000 0 0 1
0.787189 -32.305992 -15.130871 35.682489 -1.546434 2.008700 0.082689 -0.035291 -23901.100000 0 0 1
-0.353211 -31.472582 -15.166471 34.938089 1.559574 2.019830 0.084698 -0.036640 -198786.000000 0 0 1
-0.719111 -31.343612 -16.519071 35.437534 1.547858 2.055726 0.056111 -0.030675 58932.200000 0 0 1
-1.979411 -30.499772 -16.760871 34.858012 1.505988 2.072400 0.062587 -0.017352 781720.000000 0 0 1
-3.201311 -30.936532 -16.129871 35.035556 1.467683 2.049226 0.063511 -0.025183 396587.000000 0 0 1
-4.291511 -30.448312 -16.867771 35.071904 1.430775 2.072532 0.074375 -0.014083 329226.000000 0 0 1
-5.686711 -30.528362 -16.197471 35.023958 1.386631 2.051573 0.081402 -0.020358 -50815.500000 0 0 1
-5.924011 -29.506192 -15.257671 33.741752 1.372659 2.040015 0.054984 -0.012915 76881.100000 0 0 1
-7.248011 -29.378222 -14.756171 33.665386 1.328913 2.024524 0.069997 -0.016472 371470.000000 0 0 1
-7.774911 -30.483112 -13.807471 34.355722 1.321064 1.984384 0.071473 -0.024135 -157667.000000 0 0 1
-8.102411 -31.656222 -14.502371 35.750304 1.320226 1.988494 0.083432 -0.029435 4066.470000 0 0 1
-9.137311 -32.461332 -13.956671 36.496811 1.296413 1.963197 0.083819 -0.017318 309091.000000 0 0 1
-9.256711 -33.861532 -14.540471 37.996254 1.303947 1.963494 0.129026 -0.030288 227498.000000 0 0 1
-8.291811 32.961222 -14.070571 36.785558 -1.324348 1.963300 0.127125 -0.038227 153695.000000 0 0 1
-8.303511 31.798974 -14.850471 36.064657 -1.315375 1.995196 0.141231 -0.048328 -361516.000000 0 0 1
-7.263311 -21.765782 -3.284171 23.179533 1.248713 1.712959 0.054834 -0.012882 193335.000000 0 1 0
-7.305411 -20.871882 -4.312971 22.530118 1.234111 1.763417 0.054684 -0.011159 -21578.200000 0 1 0
-6.146411 -20.780982 -5.117271 22.266882 1.283224 1.802684 0.042425 -0.012164 191464.000000 0 1 0
-6.318611 -19.737982 -6.259971 21.649481 1.260980 1.864136 0.061507 -0.017490 1187.060000 0 1 0
-7.181411 -19.952682 -7.357571 22.445847 1.225310 1.904762 0.064721 -0.019551 -99750.400000 0 1 0
-7.347911 -18.762282 -8.100471 21.717105 1.197524 1.953036 0.050205 -0.032511 -89939.500000 0 1 0
-8.294911 -19.074282 -9.281471 22.776731 1.160592 1.990509 0.062475 -0.024754 283620.000000 0 1 0
-7.709611 -19.934582 -10.237371 23.698722 1.201768 2.017483 0.070346 -0.020028 285415.000000 0 1 0
-8.649911 -20.084582 -11.322771 24.625526 1.164129 2.048564 0.083028 -0.027410 439305.000000 0 1 0
-8.187411 -21.051282 -12.381171 25.758175 1.199872 2.072214 0.067380 -0.023810 -132934.000000 0 0 1
-7.145711 -20.472882 -13.148371 25.359017 1.234983 2.115879 0.062577 -0.018631 -274594.000000 0 0 1
-6.834511 -21.382882 -14.148171 26.535051 1.261433 2.133161 0.047851 -0.014496 568759.000000 0 0 1
-5.617011 -20.920982 -15.032571 26.366958 1.308495 2.177459 0.040992 -0.003715 858389.000000 0 0 1
-4.408111 -20.662882 -14.332671 25.530601 1.360612 2.166863 0.043456 -0.010511 172766.000000 0 0 1
-3.335911 -20.094682 -15.049471 25.326096 1.406287 2.207102 0.045608 -0.002994 166743.000000 0 0 1
-3.337211 -18.544982 -15.313871 24.281021 1.392750 2.253242 0.054278 -0.000521 -707777.000000 0 1 0
-4.457611 -18.068382 -16.023271 24.557727 1.328919 2.281640 0.043508 0.000169 -320014.000000 0 1 0
-4.506811 -18.231882 -17.439171 25.628842 1.328460 2.319174 0.067153 -0.009070 -974717.000000 0 0 1
-5.880411 -17.985882 -18.034771 26.140470 1.254805 2.332172 0.052221 -0.001746 -101795.000000 0 0 1
-6.767211 -19.045082 -17.610571 26.807508 1.229385 2.287532 0.045856 -0.004386 182266.000000 0 0 1
-8.065711 -18.941882 -18.151271 27.446661 1.168237 2.293385 0.037904 -0.005078 476571.000000 0 0 1
-9.064511 -20.085182 -17.710671 28.270970 1.146859 2.247801 0.059628 -0.017575 391063.000000 0 0 1
-8.623311 -21.396282 -18.116771 29.332231 1.187682 2.236535 0.068408 -0.015753 -19360.700000 0 0 1
-9.480111 -22.423182 -17.778471 30.145408 1.170806 2.201554 0.093056 -0.017007 -240334.000000 0 0 1
-8.913311 -23.758882 -18.386771 31.336958 1.211888 2.197828 0.109147 -0.029815 -569492.000000 0 0 1
-9.032011 -23.834782 -19.802471 32.277111 1.208574 2.231300 0.105314 -0.028955 470933.000000 0 0 1
-8.078811 -24.631082 -20.511771 33.055864 1.253860 2.240200 0.123498 -0.041592 63398.300000 0 0 1
-6.584111 -24.339582 -20.400971 32.434016 1.306609 2.251062 0.106137 -0.027145 -786980.000000 0 0 1
-6.009711 -23.151982 -20.924571 31.780003 1.316825 2.289513 0.128937 -0.043478 16495.500000 0 0 1
-6.102911 -21.946782 -20.090371 30.373175 1.299571 2.293548 0.105693 -0.037722 -847946.000000 0 0 1
-5.209711 -21.856582 -18.861971 29.336414 1.336804 2.269146 0.117021 -0.029459 -594769.000000 0 0 1
-3.860611 -21.888582 -19.230771 29.391102 1.396216 2.284061 0.104254 -0.036902 -569067.000000 0 0 1
-3.015011 -22.142282 -18.139371 28.782073 1.435463 2.252648 0.056766 -0.029719 580298.000000 0 0 1
-1.674011 -22.866082 -18.502071 29.461613 1.497717 2.249785 0.092042 -0.031184 728127.000000 0 0 1
-0.732411 -22.068282 -19.203571 29.262991 1.537620 2.286622 0.125062 -0.034538 96996.700000 0 0 1
0.481189 -22.771982 -19.419971 29.932090 -1.549669 2.276804 0.080027 -0.032432 138786.000000 0 0 1
1.576589 -21.952482 -20.079871 29.792588 -1.499101 2.310391 0.078652 -0.033628 -76868.500000 0 0 1
1.283889 -21.754582 -21.452671 30.579851 -1.511848 2.348338 0.075561 -0.042749 -765207.000000 0 0 1
2.414489 -21.324982 -22.120571 30.820517 -1.458053 2.371322 0.081603 -0.038212 -904998.000000 0 0 1
2.227889 -21.128482 -23.643271 31.786483 -1.465740 2.409557 0.099384 -0.040200 340215.000000 0 0 1
1.450389 -20.002982 -24.119371 31.368248 -1.498414 2.447931 0.089290 -0.032598 1735570.000000 0 0 1
0.038789 -20.017882 -23.725571 31.042226 -1.568859 2.440751 0.112631 -0.035147 1170750.000000 0 0 1
-0.839111 -19.024482 -24.486971 31.020103 1.526718 2.480612 0.124818 -0.041735 -185232.000000 0 0 1
-0.544611 -17.717182 -24.069171 29.891807 1.540067 2.506825 0.088564 -0.030683 -385086.000000 0 0 1
-1.270911 -16.629882 -24.605571 29.725449 1.494521 2.545902 0.110079 -0.041357 -83910.600000 0 0 1
-0.626011 -15.240182 -24.368171 28.748266 1.529743 2.582317 0.095835 -0.013995 177867.000000 0 0 1
0.522889 -15.011082 -25.154021 29.297282 -1.535977 2.603287 0.100003 -0.024995 -228252.000000 0 0 1
1.175389 -13.731882 -25.020371 28.565102 -1.485409 2.638109 0.095722 -0.018353 732813.000000 0 0 1
0.422389 -12.490282 -25.662471 28.543790 -1.536992 2.688405 0.094944 -0.018088 241609.000000 0 0 1
1.106089 -11.304382 -25.359081 27.786606 -1.473261 2.720485 0.096217 -0.019314 -189223.000000 0 0 1
0.729889 -10.221682 -26.156381 28.092201 -1.499511 2.768187 0.093080 -0.020374 -477086.000000 0 0 1
1.553789 -8.919382 -25.843591 27.383587 -1.398323 2.804627 0.098657 -0.031405 1821700.000000 0 0 1
2.988389 -8.876082 -26.086861 27.717136 -1.246038 2.796907 0.094049 -0.029866 1214000.000000 0 0 1
3.331689 -9.123482 -27.457951 29.125198 -1.220665 2.801596 0.090245 -0.032842 -603667.000000 0 0 1
4.795389 -8.960282 -27.913401 29.705898 -1.079400 2.792427 0.088564 -0.036652 50322.600000 0 0 1
5.258389 -7.624582 -27.696381 29.204014 -0.967042 2.818871 0.075741 -0.039216 110128.000000 0 0 1
6.405689 -7.225182 -28.427661 30.022791 -0.845446 2.814154 0.080107 -0.033698 -488017.000000 0 0 1
7.683889 -7.014582 -27.588031 29.484673 -0.739894 2.780960 0.090173 -0.036422 -71466.300000 0 0 1
8.382189 -8.161382 -27.140141 29.554297 -0.772052 2.734598 0.082859 -0.039456 382379.000000 0 0 1
9.117889 -8.881382 -28.129741 30.875511 -0.772259 2.716668 0.096872 -0.048498 -427404.000000 0 0 1
9.567489 -10.189382 -27.474871 30.825783 -0.816865 2.670990 0.084467 -0.042641 176534.000000 0 0 1
8.448289 -11.048282 -27.240221 30.585417 -0.917972 2.669520 0.095269 -0.049595 524701.000000 0 0 1
8.681389 -12.189482 -26.409801 30.355025 -0.951927 2.626061 0.089852 -0.044568 275891.000000 0 0 1
9.633589 -13.314682 -26.956381 31.571083 -0.944452 2.594098 0.088112 -0.050686 212054.000000 0 0 1
8.977789 -13.952982 -27.972631 32.523138 -0.999053 2.606231 0.105803 -0.056490 134091.000000 0 0 1
9.840889 -14.946582 -28.586151 33.725531 -0.988536 2.582264 0.086640 -0.047738 480463.000000 0 0 1
9.217189 -15.702182 -29.783071 34.907684 -1.039990 2.592877 0.090588 -0.046826 -181251.000000 0 0 1
8.938889 -14.850582 -30.808311 35.349619 -1.028965 2.629114 0.097682 -0.049033 177012.000000 0 0 1
8.349189 -15.472282 -31.950171 36.467984 -1.075956 2.638541 0.115812 -0.041834 -448489.000000 0 0 1
7.047989 -14.886882 -32.465561 36.404753 -1.128625 2.672093 0.130068 -0.042604 -523599.000000 0 0 1
7.264389 -13.674782 -33.146701 36.585172 -1.082482 2.704567 0.139575 -0.040537 460702.000000 0 0 1
6.035489 -13.089882 -33.565111 36.529287 -1.138766 2.735965 0.110918 -0.051917 425899.000000 0 0 1
6.295689 -11.830982 33.317497 35.911885 -1.081772 0.382440 0.153354 -0.041800 -6818.100000 0 0 1
6.852289 -12.106882 32.059955 34.948121 -1.055765 0.409403 0.146904 -0.034112 216718.000000 0 0 1
6.978189 -10.911282 31.279373 33.854843 -1.001810 0.392577 0.158931 -0.038726 -327418.000000 0 0 1
7.252489 -11.115882 29.742043 32.569166 -0.992705 0.419737 0.171067 -0.030998 185822.000000 0 0 1
6.224389 -11.766182 29.001613 31.910494 -1.084214 0.430296 0.147685 -0.024956 328399.000000 0 0 1
6.566289 -11.730882 27.628773 30.725866 -1.060503 0.452853 0.138215 -0.022583 467257.000000 0 0 1
5.611589 -12.544082 26.680113 30.011204 -1.150149 0.475629 0.107005 -0.036519 -19028.100000 0 0 1
5.888089 -13.934882 26.851753 30.819915 -1.171008 0.513060 0.104158 -0.031316 -92782.500000 0 0 1
5.326689 -14.820982 25.912713 30.323322 -1.225770 0.546118 0.063181 -0.022767 29281.000000 0 0 1
3.796589 -15.130082 25.943583 30.272149 -1.324943 0.541354 0.048567 -0.029913 177313.000000 0 0 1
3.134389 -13.931382 25.658333 29.364228 -1.349494 0.507843 0.045254 -0.033353 -859151.000000 0 0 1
1.820089 -14.187682 25.226373 28.999534 -1.443207 0.515819 0.031263 -0.025727 -12092.400000 0 0 1
0.964489 -12.948382 24.921653 28.101239 -1.496446 0.480308 0.031223 -0.025877 -478090.000000 0 0 1
1.473489 -12.123582 23.898363 26.838110 -1.449850 0.472433 0.009631 -0.008927 -190389.000000 0 0 1
0.656689 -11.055882 23.453473 25.937023 -1.511469 0.441184 0.015660 -0.006625 571504.000000 0 0 1
-0.680311 -11.400382 22.697173 25.408526 1.511193 0.466185 0.039711 -0.010313 316680.000000 0 0 1
-0.568911 -12.065782 21.482073 24.645207 1.523680 0.512231 0.040940 -0.006594 159141.000000 0 1 0
-1.814411 -12.547282 20.953473 24.490292 1.427186 0.544121 0.059174 -0.021224 566449.000000 0 1 0
-1.697811 -13.207482 19.606873 23.701258 1.442948 0.596601 0.080719 -0.025819 -196014.000000 0 1 0
-0.979011 -14.449982 19.584373 24.357917 1.503148 0.636763 0.098370 -0.026701 -60140.900000 0 1 0
-1.141511 -15.346182 18.422973 24.004464 1.496549 0.695894 0.104369 -0.024490 358802.000000 0 1 0
-2.401511 -16.253582 18.579573 24.802152 1.424105 0.724077 0.099963 -0.032687 466996.000000 0 1 0
-2.383311 -17.385982 17.701873 24.926068 1.434563 0.781049 0.079587 -0.033668 559875.000000 0 1 0
-3.450111 -18.313782 18.043573 25.939707 1.384590 0.801546 0.101403 -0.029240 773493.000000 0 0 1
-3.316011 -19.681382 17.359573 26.451985 1.403879 0.854935 0.097830 -0.033516 527541.000000 0 0 1
-2.134311 -20.377382 17.780473 27.128181 1.466438 0.856052 0.097511 -0.040615 357219.000000 0 0 1
-2.157311 -21.726282 17.383973 27.908562 1.471826 0.898364 0.101006 -0.061647 -308365.000000 0 0 1
-1.015811 -22.538782 18.023773 28.877067 1.525757 0.896746 0.111210 -0.051399 324550.000000 0 0 1
0.205989 -22.209082 17.373573 28.197993 -1.561522 0.906979 0.115636 -0.059284 -487407.000000 0 0 1
1.260789 -22.915082 17.956873 29.140005 -1.515832 0.906853 0.122107 -0.045958 435116.000000 0 0 1
2.598289 -22.935082 17.132173 28.745095 -1.457988 0.932282 0.124983 -0.051429 835626.000000 0 0 1
3.230189 -21.650082 17.093273 27.773012 -1.422689 0.907823 0.129621 -0.051489 410888.000000 0 0 1
4.346389 -21.595482 16.195873 27.341585 -1.372186 0.936820 0.137390 -0.044750 837138.000000 0 0 1
5.387889 -20.483382 16.529773 26.866926 -1.313586 0.908098 0.122440 -0.031798 -537548.000000 0 0 1
6.219089 -20.726182 17.639073 27.917532 -1.279285 0.886887 0.117016 -0.023449 -1927.470000 0 0 1
6.903489 -19.595382 18.149173 27.586766 -1.232072 0.852777 0.115326 -0.013081 739821.000000 0 0 1
7.860289 -18.741382 17.231173 26.644641 -1.173672 0.867542 0.100083 -0.019205 28278.000000 0 0 1
7.170489 -17.967082 16.258373 25.269877 -1.191074 0.871879 0.099142 -0.019240 511727.000000 0 0 1
8.129989 -17.575082 15.286373 24.670903 -1.137525 0.902549 0.118070 -0.023099 668308.000000 0 1 0
7.382289 -16.669082 14.269073 23.150874 -1.153885 0.906695 0.090841 -0.020031 522475.000000 0 1 0
6.287089 -17.283982 13.592273 22.869487 -1.221923 0.934350 0.085240 -0.022764 342588.000000 0 1 0
5.607389 -16.375782 12.745573 21.495551 -1.240891 0.936091 0.056535 -0.024130 50246.100000 0 1 0
6.158289 -16.416082 11.265773 20.840584 -1.211905 0.999683 0.053313 -0.024254 383956.000000 0 1 0
7.545489 -16.119282 11.227373 21.043279 -1.132990 1.008019 0.056616 -0.017818 9459.630000 0 1 0
8.097689 -16.354282 9.978673 20.799256 -1.111043 1.070414 0.059133 -0.016741 287124.000000 0 1 0
9.624689 -16.068982 9.950873 21.210062 -1.031141 1.082459 0.059796 -0.009979 366628.000000 0 1 0
10.188989 -16.374582 8.694373 21.155013 -1.014181 1.147263 0.054535 -0.013106 -766931.000000 0 1 0
11.522689 -15.938382 8.722573 21.514825 -0.944832 1.153356 0.051661 -0.012064 -210637.000000 0 1 0
12.439589 -16.841582 7.848973 22.360426 -0.934616 1.212135 0.052012 -0.019251 -84035.500000 0 1 0
12.925689 -17.979182 8.543273 23.734194 -0.947481 1.202575 0.073804 -0.021501 -109618.000000 0 1 0
13.705789 -18.730682 7.670673 24.444352 -0.939091 1.251602 0.069026 -0.023596 -141878.000000 0 1 0
14.406789 -19.965982 8.248573 25.966035 -0.945742 1.247527 0.074906 -0.024218 177682.000000 0 0 1
13.454089 -20.938482 8.715973 26.370452 -0.999674 1.233941 0.077560 -0.021291 595339.000000 0 0 1
14.081989 -22.157582 8.965773 27.742494 -1.004655 1.241710 0.059812 -0.017985 -383748.000000 0 0 1
13.068289 -23.061482 9.626873 28.200866 -1.055244 1.222424 0.078147 -0.024380 -31673.800000 0 0 1
12.907689 -22.679382 10.996773 28.317695 -1.053379 1.171971 0.087197 -0.024642 -451989.000000 0 0 1
11.934089 -23.318582 11.767773 28.716881 -1.097766 1.148577 0.106466 -0.027163 -167278.000000 0 0 1
12.381989 -24.701982 12.298973 30.245104 -1.106145 1.152019 0.076027 -0.032351 -478609.000000 0 0 1
13.403389 -24.719482 13.234673 31.078292 -1.073946 1.130896 0.043801 -0.028625 -455731.000000 0 0 1
13.589789 -26.045452 13.816773 32.464614 -1.089883 1.131177 0.062964 -0.045125 483115.000000 0 0 1
14.873689 -26.205382 14.712573 33.532201 -1.054555 1.116579 0.049586 -0.037807 396566.000000 0 0 1
14.833789 -25.618042 15.994073 33.647225 -1.045934 1.075439 0.061315 -0.031977 -80421.300000 0 0 1
15.843589 -26.056512 16.863673 34.847448 -1.024481 1.065658 0.069990 -0.036563 -540367.000000 0 0 1
15.715089 -25.561302 18.273273 35.131990 -1.019565 1.023791 0.095721 -0.034799 -175228.000000 0 0 1
16.018389 -24.184282 18.439873 34.372914 -0.985790 1.004553 0.072357 -0.028289 555573.000000 0 0 1
17.386289 -23.919682 18.766573 35.023114 -0.942269 1.005301 0.076201 -0.030147 368658.000000 0 0 1
17.749089 -22.488182 19.133073 34.450298 -0.902637 0.981974 0.073256 -0.021910 -164861.000000 0 0 1
17.729789 -21.596882 18.011073 33.244090 -0.883416 0.998240 0.058854 -0.014081 302664.000000 0 0 1
16.543489 -20.817082 18.008373 32.114474 -0.899291 0.975498 0.079531 -0.013594 -570579.000000 0 0 1
16.585789 -19.693282 16.904973 30.800842 -0.870845 0.989811 0.059964 -0.007663 -182116.000000 0 0 1
17.452789 -18.614482 17.089173 30.710562 -0.817596 0.980678 0.048733 -0.007311 445330.000000 0 0 1
18.841489 -18.924382 16.912573 31.609636 -0.787593 1.006235 0.036409 -0.005904 494222.000000 0 0 1
19.780089 -17.717382 17.236273 31.658280 -0.730444 0.995066 0.051506 -0.009710 -234509.000000 0 0 1
19.924389 -17.444482 18.627973 32.377348 -0.719132 0.957777 0.054198 -0.001386 8188.550000 0 0 1
20.487089 -16.189382 18.804373 32.177964 -0.668751 0.946672 0.056605 -0.007745 -446276.000000 0 0 1
20.938389 -16.016382 20.285773 33.263392 -0.652987 0.914921 0.055921 -0.007071 98823.800000 0 0 1
22.194389 -16.612582 20.568973 34.520305 -0.642543 0.932471 0.059253 0.000445 43942.700000 0 0 1
22.626389 -16.376682 21.887373 35.485297 -0.626513 0.906124 0.064251 -0.001801 135449.000000 0 0 1
34.569889 -1.030282 -7.273571 35.341810 -0.029794 1.778084 0.107581 -0.021158 -433310.000000 0 0 1
35.791529 -0.680282 -7.840071 36.646461 -0.019005 1.786401 0.135205 -0.032999 -340640.000000 0 0 1
36.722819 -1.741282 -7.800471 37.582508 -0.047381 1.779872 0.158219 -0.043775 538727.000000 0 0 1
-36.726741 -1.431382 -8.507771 37.726443 0.038954 1.798265 0.152773 -0.042742 54980.800000 0 0 1
-35.770832 -2.419482 -8.342871 36.810458 0.067536 1.799427 0.177048 -0.030107 426287.000000 0 0 1
-34.491769 -2.099782 -8.907471 35.685210 0.060803 1.823076 0.257715 -0.043272 570957.000000 0 0 1
-33.418391 -3.197582 -8.873471 34.723938 0.095393 1.829206 0.248583 -0.035727 -56202.400000 0 0 1
-32.807501 -3.218982 -7.551671 33.818954 0.097804 1.795992 0.242140 -0.042817 342433.000000 0 0 1
-31.790901 -4.195582 -7.497071 32.931297 0.131216 1.800468 0.240929 -0.057029 -176122.000000 0 0 1
-31.226371 -4.487082 -6.083471 32.128317 0.142718 1.761296 0.221661 -0.070151 807.697000 0 0 1
-30.400761 -3.417182 -5.668571 31.112957 0.111935 1.754013 0.232268 -0.063466 443949.000000 0 0 1
-30.520011 -3.241582 -4.285471 30.989420 0.105815 1.709529 0.225824 -0.060010 -146400.000000 0 0 1
-30.138671 -1.828582 -3.842371 30.437592 0.060598 1.697372 0.242208 -0.055925 415130.000000 0 0 1
-28.765841 -1.554982 -3.534271 29.023829 0.054004 1.692871 0.243234 -0.056706 1048560.000000 0 0 1
-28.670961 -0.191082 -3.185171 28.847978 0.006665 1.681434 0.260594 -0.070567 603364.000000 0 0 1
-27.224181 0.247518 -2.755471 27.364391 -0.009092 1.671663 0.266974 -0.050319 770909.000000 0 0 1
-26.707511 -0.388982 -1.543571 26.754907 0.014564 1.628521 0.250600 -0.045857 584671.000000 0 0 1
-25.308781 -0.235282 -1.435671 25.350560 0.009296 1.627459 0.209918 -0.041083 159294.000000 0 0 1
-24.591411 -0.897282 -0.224671 24.608801 0.036471 1.579926 0.196774 -0.040390 75620.600000 0 1 0
-24.735811 -2.285282 -0.168071 24.841721 0.092126 1.577562 0.199000 -0.035188 420716.000000 0 1 0
-23.979611 -2.827482 0.901629 24.162560 0.117370 1.533473 0.174124 -0.029764 -44090.800000 0 1 0
-24.151211 -4.338882 0.838729 24.552196 0.177759 1.536629 0.179243 -0.023640 398980.000000 0 1 0
-25.418731 -4.775482 1.329829 25.897597 0.185708 1.519424 0.184118 -0.030995 406900.000000 0 0 1
-25.428441 -6.210182 1.444429 26.215613 0.239533 1.515670 0.159834 -0.026615 -150083.000000 0 0 1
-26.631931 -6.946182 2.062229 27.600036 0.255137 1.496008 0.162882 -0.025927 -196935.000000 0 0 1
-26.682671 -6.784682 3.423729 27.743806 0.248996 1.447076 0.170820 -0.025528 73847.000000 0 0 1
-27.796811 -7.479382 3.929829 29.052494 0.262848 1.435114 0.153686 -0.016131 -165251.000000 0 0 1
-27.849721 -7.554982 5.478329 29.371701 0.264901 1.383180 0.168691 -0.014971 -69048.800000 0 0 1
-26.875811 -8.438082 6.013829 28.804107 0.304220 1.360465 0.160950 -0.000395 92475.600000 0 0 1
-26.921481 -8.579082 7.429929 29.215931 0.308496 1.313661 0.147152 -0.021050 -96432.900000 0 0 1
-26.090301 -7.521182 8.156629 28.351412 0.280666 1.278975 0.145247 -0.021220 -1167460.000000 0 0 1
-24.740411 -7.564982 7.848329 27.035406 0.296746 1.276258 0.158351 -0.026235 -771433.000000 0 0 1
-24.184111 -6.299982 8.158929 26.289335 0.254837 1.255234 0.156611 -0.034103 784945.000000 0 0 1
-22.719211 -6.008182 7.665729 24.718904 0.258535 1.255481 0.146252 -0.034039 110727.000000 0 1 0
-21.672311 -6.474582 8.417629 24.134327 0.290309 1.214525 0.127084 -0.038205 -456000.000000 0 1 0
-20.477411 -5.989482 7.814029 22.721296 0.284555 1.219721 0.107372 -0.032876 -405801.000000 0 1 0
-19.196111 -6.363482 8.520729 21.945100 0.320098 1.172038 0.096531 -0.037071 -741550.000000 0 1 0
-19.075611 -5.655382 9.724829 22.145758 0.288217 1.116168 0.088951 -0.025074 701987.000000 0 1 0
-18.083411 -6.178782 10.635929 21.870302 0.329246 1.062925 0.092418 -0.027923 336745.000000 0 1 0
-17.885811 -5.137982 11.766229 22.016931 0.279734 1.006978 0.097500 -0.010014 -171167.000000 0 1 0
-18.939011 -5.030082 12.681629 23.341199 0.259600 0.996415 0.122606 -0.019046 -67053.100000 0 1 0
-18.917811 -3.693482 13.182829 23.351924 0.192813 0.970934 0.120699 -0.013484 587588.000000 0 1 0
-20.148911 -3.502182 14.134329 24.860071 0.172096 0.966048 0.122418 -0.017965 487927.000000 0 1 0
-20.228911 -4.351582 15.254229 25.706743 0.211888 0.935527 0.136337 -0.024315 -699611.000000 0 0 1
-21.391611 -4.136482 15.953429 27.004137 0.191012 0.938775 0.118257 -0.010775 -915168.000000 0 0 1
-21.495711 -4.993782 17.227229 27.996087 0.228266 0.907974 0.119717 -0.009526 -1000680.000000 0 0 1
-22.505711 -4.656982 18.068929 29.234923 0.204045 0.904524 0.102453 -0.008242 -391633.000000 0 0 1
-22.345911 -5.355482 19.295829 30.005832 0.235226 0.872297 0.114732 0.001747 -228076.000000 0 0 1
-23.248111 -4.767782 20.388129 31.287094 0.202278 0.861043 0.098439 -0.011714 -699124.000000 0 0 1
-23.115611 -3.387782 20.709829 31.220275 0.145522 0.845516 0.116018 -0.019501 242377.000000 0 0 1
-23.690011 -3.065282 22.002729 32.476648 0.128676 0.826446 0.102877 -0.017801 26454.000000 0 0 1
-23.824511 -1.576482 22.139829 32.561705 0.066074 0.823123 0.092537 -0.016043 120746.000000 0 0 1
-24.927011 -1.021282 21.444429 32.897757 0.040948 0.860774 0.089349 -0.027683 -171194.000000 0 0 1
-25.044571 0.349918 21.744329 33.168793 -0.013971 0.855865 0.084811 -0.025397 -318870.000000 0 0 1
-26.395471 0.975818 21.403429 33.996763 -0.036952 0.889793 0.087891 -0.027555 -441226.000000 0 0 1
-27.468281 0.506618 22.165029 35.299457 -0.018442 0.891926 0.109415 -0.029349 -322944.000000 0 0 1
-28.649041 1.232218 21.896229 36.079506 -0.042984 0.918657 0.103490 -0.025998 82508.300000 0 0 1
-29.623691 1.237418 23.106529 37.589971 -0.041747 0.908792 0.093854 -0.022313 -179248.000000 0 0 1
-29.124191 2.048418 24.142929 37.885295 -0.070218 0.879854 0.086529 -0.025119 19096.500000 0 0 1
-29.842351 1.916318 25.316729 39.181309 -0.064127 0.868276 0.085601 -0.024044 -472821.000000 0 0 1
-29.349781 2.898818 26.314229 39.525327 -0.098449 0.842290 0.097657 -0.027828 944923.000000 0 0 1
-28.014591 2.615118 26.797829 38.855885 -0.093079 0.809760 0.091497 -0.029042 1196610.000000 0 0 1
-27.764361 3.530718 27.803229 39.450542 -0.126488 0.788709 0.080610 -0.031938 -171504.000000 0 0 1
-26.652581 3.166118 28.818129 39.381073 -0.118238 0.749872 0.097717 -0.031482 -197576.000000 0 0 1
-26.936721 2.167218 29.700229 40.154544 -0.080283 0.738249 0.099153 -0.032812 66514.200000 0 0 1
-25.738721 1.656418 30.229929 39.737565 -0.064266 0.706345 0.085920 -0.035789 -99056.200000 0 0 1
-25.891601 0.404418 31.115629 40.481118 -0.015618 0.694075 0.088208 -0.040306 -139391.000000 0 0 1
-26.356941 -0.745482 30.439229 40.271463 0.028277 0.713843 0.072205 -0.036850 -108150.000000 0 0 1
-26.718501 -1.773582 31.339229 41.221004 0.066283 0.707063 0.091669 -0.031226 -255213.000000 0 0 1
-27.595771 -2.869082 30.620929 41.320691 0.103596 0.736155 0.092006 -0.026197 741994.000000 0 0 1
-28.920411 -2.538782 30.202629 41.893131 0.087561 0.765632 0.109293 -0.026493 485672.000000 0 0 1
-29.078361 -1.429582 29.310529 41.312249 0.049124 0.782025 0.104239 -0.022650 -374859.000000 0 0 1
-30.600651 -1.254982 29.031929 42.199855 0.040989 0.812118 0.090152 -0.027064 958073.000000 0 0 1
-31.392611 -0.753982 30.097929 43.496550 0.024013 0.806594 0.112428 -0.012749 -107046.000000 0 0 1
-32.758701 -0.589782 29.787429 44.280597 0.018002 0.832948 0.100958 -0.016698 522903.000000 0 0 1
-33.667091 -0.311682 31.028629 45.785871 0.009258 0.826180 0.099082 -0.014071 225581.000000 0 0 1
-33.783781 -1.445882 31.865729 46.463525 0.042772 0.815063 0.102764 -0.014712 69044.000000 0 0 1
-34.709794 -1.209982 32.915129 47.850179 0.034846 0.812234 0.116289 -0.014994 259570.000000 0 0 1
-35.003262 -2.500582 33.727129 48.672379 0.071317 0.805235 0.114914 -0.021746 80032.800000 0 0 1
-35.621601 -3.496582 32.927229 48.634627 0.097846 0.827073 0.093606 -0.035326 -23116.200000 0 0 1
-35.665761 -4.695882 33.666029 49.269659 0.130911 0.818522 0.085443 -0.031061 672785.000000 0 0 1
-36.969041 -5.497682 33.325529 50.075197 0.147629 0.842620 0.074272 -0.020922 1166780.000000 0 0 1
36.600369 -4.971582 33.799129 50.066804 -0.135008 0.829722 0.064949 -0.028062 -470404.000000 0 0 1
35.494759 -5.585982 33.257529 48.960641 -0.156095 0.824028 0.069181 -0.035907 -1281120.000000 0 0 1
34.188369 -5.007282 33.804029 48.338700 -0.145428 0.796356 0.069581 -0.032383 -661443.000000 0 0 1
33.770199 -5.399182 -32.649314 47.281659 -0.158538 2.333015 0.064958 -0.035903 -9083.730000 0 0 1
33.297939 -6.703882 -32.518414 47.022782 -0.198674 2.334423 0.087982 -0.043546 -1055750.000000 0 0 1
31.890909 -6.997082 -33.063814 46.467247 -0.215984 2.362499 0.077327 -0.038286 -257178.000000 0 0 1
30.889019 -6.259182 -32.376014 45.183129 -0.199927 2.369641 0.087643 -0.041668 -85533.400000 0 0 1
29.615539 -6.734882 -32.714114 44.639132 -0.223608 2.393308 0.081061 -0.033670 -399353.000000 0 0 1
28.394339 -6.190882 -31.961914 43.198721 -0.214673 2.403690 0.088946 -0.040419 266894.000000 0 0 1
27.229139 -6.940682 -32.269914 42.789560 -0.249584 2.425161 0.075277 -0.033216 846877.000000 0 0 1
26.038439 -6.528082 -31.578314 41.446425 -0.245646 2.437048 0.073873 -0.032026 1417660.000000 0 0 1
24.690239 -7.169082 -32.108914 41.133758 -0.282590 2.466418 0.056128 -0.030444 833373.000000 0 0 1
24.519039 -8.566782 -31.908914 41.143066 -0.336134 2.458398 0.060999 -0.032224 -124206.000000 0 0 1
23.958539 -8.782182 -30.658814 39.888610 -0.351349 2.447463 0.081343 -0.040708 -460044.000000 0 0 1
23.709239 -10.279782 -30.292914 39.817868 -0.409113 2.435321 0.087005 -0.026047 -184254.000000 0 0 1
22.796739 -10.972582 -31.093714 40.086256 -0.448594 2.458573 0.084148 -0.032050 -327683.000000 0 0 1
22.733839 -12.370982 -30.914914 40.318737 -0.498353 2.444580 0.079895 -0.022206 -375582.000000 0 0 1
21.699639 -13.054382 -31.858914 40.697440 -0.541591 2.469987 0.069568 -0.018822 514623.000000 0 0 1
20.342039 -12.716682 -31.647614 39.712518 -0.558702 2.492972 0.069086 -0.014263 -134946.000000 0 0 1
19.953039 -11.470382 -32.204914 39.583455 -0.521736 2.521106 0.064411 -0.023328 -177462.000000 0 0 1
18.534039 -10.989482 -31.784114 38.399339 -0.535209 2.545838 0.043055 -0.028493 878990.000000 0 0 1
17.442139 -11.640482 -32.434714 38.623047 -0.588494 2.567667 0.028105 -0.016147 175379.000000 0 0 1
16.220239 -11.024582 -32.072814 37.593922 -0.596958 2.592768 0.067892 -0.024053 -438674.000000 0 0 1
15.057939 -11.394282 -32.936514 37.965579 -0.647773 2.621023 0.071129 -0.027323 -1160040.000000 0 0 1
14.574139 -12.693382 -32.815614 38.084013 -0.716533 2.609335 0.083870 -0.016270 1138770.000000 0 0 1
13.224539 -12.826282 -33.332114 38.084535 -0.770112 2.636674 0.074189 -0.018944 1390780.000000 0 0 1
12.124339 -12.916282 -32.240614 36.787051 -0.817014 2.639157 0.066882 -0.019545 -690582.000000 0 0 1
12.194939 -11.803582 -31.391714 35.685863 -0.769092 2.645960 0.134475 -0.018287 -190382.000000 0 0 1
11.166339 -11.802882 -30.427414 34.493807 -0.813104 2.651124 0.136233 -0.038294 -44665.400000 0 0 1
9.750239 -11.518082 -30.924914 34.410517 -0.868328 2.687605 0.125113 -0.035372 -921475.000000 0 0 1
9.750939 -10.203182 -31.503814 34.520661 -0.808058 2.720413 0.114742 -0.034803 -31726.600000 0 0 1
8.444139 -9.788182 -31.816214 34.342153 -0.858983 2.755660 0.104959 -0.031485 -92044.000000 0 0 1
8.428139 -8.350582 -32.356714 34.463353 -0.780776 2.790138 0.125304 -0.042746 -64082.000000 0 0 1
8.815539 -7.430882 -31.349214 33.402170 -0.700375 2.789167 0.109572 -0.046551 254067.000000 0 0 1
8.864939 -6.096882 -31.875314 33.642158 -0.602459 2.816062 0.097208 -0.021732 -15434.300000 0 0 1
9.048239 -4.972682 -30.779714 32.465197 -0.502517 2.817950 0.090685 -0.036427 503178.000000 0 0 1
7.880639 -4.759482 -29.970914 31.353036 -0.543316 2.843565 0.093211 -0.032292 556364.000000 0 0 1
8.134239 -3.836482 -28.947114 30.312042 -0.440708 2.840358 0.103496 -0.023680 867571.000000 0 0 1
6.757239 -3.310082 -28.359014 29.340256 -0.455500 2.882241 0.088173 -0.016256 -438957.000000 0 0 1
6.177339 -2.521882 -29.385414 30.133403 -0.387596 2.918317 0.079968 -0.013167 47712.600000 0 0 1
4.986939 -1.831182 -29.039114 29.521059 -0.351911 2.960650 0.088214 -0.018112 372474.000000 0 0 1
3.729639 -2.719782 -28.893014 29.259421 -0.630078 2.983170 0.076427 -0.025876 -675219.000000 0 0 1
3.915339 -3.623082 -27.766514 28.274298 -0.746649 2.951786 0.075423 -0.025449 449851.000000 0 0 1
2.804939 -4.558682 -27.673914 28.186784 -1.019206 2.950538 0.096873 -0.026970 975707.000000 0 0 1
3.109939 -5.547082 -26.544214 27.295369 -1.059818 2.906447 0.083587 -0.031510 19311.200000 0 0 1
2.979739 -5.056682 -25.236214 25.909755 -1.038306 2.913080 0.093598 -0.035504 116795.000000 0 0 1
3.439439 -6.073082 -24.353614 25.333981 -1.055493 2.862487 0.090769 -0.041197 47721.100000 0 0 1
3.444639 -5.592082 -22.889514 23.813164 -1.018706 2.862162 0.099691 -0.051107 14284.700000 0 1 0
4.431839 -4.635082 -22.601814 23.493982 -0.807810 2.865125 0.093491 -0.047984 -36022.900000 0 1 0
4.117239 -3.927582 -21.424414 22.167162 -0.761827 2.881995 0.079187 -0.043648 -21192.600000 0 1 0
5.040639 -2.704882 -21.258314 22.014549 -0.492509 2.878724 0.083540 -0.036795 262732.000000 0 1 0
6.315839 -3.098482 -20.760614 21.920162 -0.456091 2.814876 0.077325 -0.045111 -230965.000000 0 1 0
7.051839 -1.919382 -20.507914 21.771243 -0.265744 2.799255 0.086568 -0.029621 -209590.000000 0 1 0
8.539539 -2.265482 -20.318014 22.155763 -0.259320 2.731423 0.091738 -0.034575 -1845550.000000 0 1 0
9.214339 -2.580782 -21.509414 23.541865 -0.273086 2.723011 0.092662 -0.044679 -40393.500000 0 1 0
10.515539 -3.112482 -21.470114 24.108710 -0.287773 2.669358 0.088912 -0.040212 544117.000000 0 1 0
11.573839 -2.378582 -20.598114 23.746446 -0.202692 2.620787 0.089284 -0.042629 -1306130.000000 0 1 0
11.276839 -2.443582 -19.220614 22.418078 -0.213391 2.600937 0.081528 -0.030246 -81220.400000 0 1 0
12.244039 -1.826982 -18.376114 22.157074 -0.148121 2.548751 0.078420 -0.040765 -88810.400000 0 1 0
12.456539 -0.285482 -18.359814 22.188503 -0.022914 2.545343 0.063749 -0.039739 -82569.300000 0 1 0
13.171239 0.165118 -19.492214 23.525629 0.012536 2.547313 0.085105 -0.048119 217237.000000 0 1 0
13.420639 1.547818 -19.354514 23.603104 0.114824 2.532205 0.117832 -0.060788 -51785.500000 0 1 0
13.902839 2.299218 -20.586714 24.947708 0.163894 2.541343 0.113435 -0.048719 735002.000000 0 1 0
15.269339 2.119318 -21.032414 26.076938 0.137915 2.509093 0.119135 -0.044443 1235710.000000 0 0 1
15.505239 3.104018 -22.004814 27.097218 0.197580 2.518485 0.122778 -0.042607 -1288060.000000 0 0 1
16.893239 3.168118 -22.559214 28.360829 0.185384 2.490522 0.105937 -0.028667 -1109240.000000 0 0 1
16.977539 2.302418 -23.662414 29.213829 0.134793 2.514902 0.089418 -0.026261 -148455.000000 0 0 1
18.017939 1.371418 -23.620614 29.739878 0.075968 2.488553 0.097325 -0.026919 -463050.000000 0 0 1
10.112989 27.132118 3.128829 29.124113 1.214016 1.463158 0.023849 -0.013871 59406.600000 0 0 1
10.139089 27.113918 4.565829 29.305502 1.212952 1.414358 0.032206 -0.011069 -61794.600000 0 0 1
11.359589 27.574518 5.089529 30.253886 1.180023 1.401765 0.034410 -0.012236 -413718.000000 0 0 1
11.179289 28.131918 6.494929 30.960707 1.192544 1.359447 0.037475 -0.015497 -46584.200000 0 0 1
10.984789 27.072418 7.406729 30.140356 1.185338 1.322512 0.040380 -0.019442 127844.000000 0 0 1
10.978589 27.648018 8.688429 30.990823 1.192806 1.286632 0.043019 -0.013788 -612872.000000 0 0 1
10.850889 26.619218 9.854229 30.387997 1.183727 1.240545 0.063634 -0.019033 1144420.000000 0 0 1
12.065889 25.917318 10.268229 30.376464 1.135084 1.225971 0.065885 -0.016465 1145080.000000 0 0 1
12.724489 25.115518 9.296429 29.650050 1.101852 1.251879 0.070257 -0.019229 15296.300000 0 0 1
14.054989 24.557118 9.883229 29.971202 1.050964 1.234750 0.082762 -0.021620 -8884.950000 0 0 1
15.075389 25.532818 9.949829 31.276049 1.037442 1.247041 0.076056 -0.023785 -226356.000000 0 0 1
16.238189 24.920718 10.457129 31.528915 0.993301 1.232725 0.083518 -0.021190 160167.000000 0 0 1
17.303089 25.916018 11.012929 33.050287 0.982106 1.231082 0.071916 -0.026292 -291147.000000 0 0 1
17.922689 26.731218 10.007129 33.703463 0.980160 1.269334 0.066466 -0.033726 2604980.000000 0 0 1
19.403789 26.582618 9.944329 34.380696 0.940256 1.277362 0.091556 -0.041174 2622350.000000 0 0 1
20.147689 27.265818 11.094029 35.671160 0.934414 1.254542 0.078218 -0.042739 -1089900.000000 0 0 1
20.259989 28.637118 11.080229 36.787541 0.955072 1.264851 0.076844 -0.048363 -9321.830000 0 0 1
19.067589 29.357718 11.350329 36.800523 0.994779 1.257256 0.062626 -0.032686 56452.800000 0 0 1
19.216189 30.859918 11.342829 38.082230 1.013859 1.268356 0.065282 -0.029630 -755125.000000 0 0 1
19.475889 31.472718 10.099329 38.364550 1.016655 1.304411 0.091968 -0.041463 687544.000000 0 0 1
18.450289 31.463018 9.068229 37.584138 1.040428 1.327114 0.093903 -0.037628 13676.600000 0 0 1
17.168589 32.204818 9.385329 37.682823 1.081016 1.319086 0.078686 -0.033281 -966896.000000 0 0 1
17.227389 33.601518 9.312429 38.891725 1.097043 1.329002 0.076947 -0.036062 421956.000000 0 0 1
16.033589 -33.568280 9.830229 38.477770 -1.125195 1.312454 0.089396 -0.024424 429601.000000 0 0 1
16.062789 -32.116680 10.113929 37.306647 -1.107038 1.296258 0.091464 -0.022109 -8220.080000 0 0 1
16.498689 -31.410380 8.982829 36.599316 -1.087144 1.322826 0.099496 -0.029589 120888.000000 0 0 1
16.555889 -30.032180 9.196129 35.504902 -1.066977 1.308799 0.089076 -0.031576 186462.000000 0 0 1
17.279489 -29.238780 8.047929 34.903527 -1.037037 1.338126 0.074802 -0.030700 243760.000000 0 0 1
16.509989 -29.183380 6.843129 34.221014 -1.055955 1.369470 0.082293 -0.032266 589508.000000 0 0 1
17.275289 -28.723280 5.677529 33.995540 -1.029320 1.403002 0.064419 -0.029179 530276.000000 0 0 1
16.660189 -29.131780 4.292529 33.832652 -1.051302 1.443578 0.077216 -0.030112 142433.000000 0 0 1
16.922789 -30.535980 4.023129 35.142744 -1.064741 1.456065 0.080441 -0.031127 -27704.900000 0 0 1
16.838089 -30.660480 2.613529 35.077298 -1.068584 1.496219 0.076327 -0.025602 -46864.700000 0 0 1
17.139289 -32.050680 2.095329 36.405930 -1.079732 1.513210 0.074295 -0.029044 387804.000000 0 0 1
18.503789 -32.475880 2.111429 37.437029 -1.052901 1.514367 0.079931 -0.023978 350489.000000 0 0 1
18.685789 -33.774380 1.555329 38.630124 -1.065459 1.530523 0.097008 -0.033884 -847832.000000 0 0 1
20.123289 33.516018 1.643429 39.127625 1.030077 1.528782 0.120540 -0.040911 -566982.000000 0 0 1
20.605189 33.351118 2.961229 39.314625 1.017372 1.495404 0.121181 -0.054176 600811.000000 0 0 1
22.003589 33.052818 2.986629 39.819174 0.983456 1.495721 0.118775 -0.043850 465036.000000 0 0 1
22.415189 32.529118 4.387229 39.747100 0.967436 1.460192 0.123619 -0.047182 301723.000000 0 0 1
21.734189 31.273618 4.731229 38.377059 0.963455 1.447199 0.112102 -0.055209 310975.000000 0 0 1
22.350389 30.649018 5.769029 38.369048 0.940717 1.419868 0.093168 -0.054435 65429.300000 0 0 1
21.321189 29.855018 6.617029 37.278684 0.950632 1.392349 0.090637 -0.059048 -15572.600000 0 0 1
20.669589 28.828518 5.908329 35.961420 0.948762 1.405752 0.099120 -0.050188 -15968.300000 0 0 1
19.600389 28.226018 6.583529 34.988944 0.963833 1.381508 0.098081 -0.050783 1168040.000000 0 0 1
18.136889 28.451118 6.012729 34.271938 1.003276 1.394442 0.087480 -0.043477 872142.000000 0 0 1
17.635789 29.798018 5.886229 35.122509 1.036395 1.402410 0.080643 -0.050312 52293.800000 0 0 1
18.239989 30.584218 4.900529 35.945887 1.033039 1.434040 0.104819 -0.052991 -621725.000000 0 0 1
18.058789 32.143118 5.241929 37.239464 1.058920 1.429565 0.114139 -0.048599 369621.000000 0 0 1
16.771789 32.716418 5.048429 37.109885 1.097087 1.434333 0.099121 -0.039668 -98143.700000 0 0 1
16.703389 -33.680280 5.369429 37.976246 -1.110402 1.428932 0.101738 -0.048016 -239810.000000 0 0 1
15.272589 -33.171380 5.604829 36.945995 -1.139315 1.418505 0.088996 -0.043823 189830.000000 0 0 1
14.442189 -33.147580 4.439329 36.428650 -1.159903 1.448629 0.082019 -0.033246 64932.100000 0 0 1
13.245389 -32.415780 4.652129 35.325139 -1.182890 1.438718 0.069181 -0.029931 38302.000000 0 0 1
12.395389 -32.356380 3.411529 34.816943 -1.204952 1.472654 0.063130 -0.021559 -158027.000000 0 0 1
11.260889 -31.508480 3.394329 33.632029 -1.227551 1.469699 0.057542 -0.025310 -11085.500000 0 0 1
10.716589 -31.233980 2.156229 33.091632 -1.240276 1.505591 0.061506 -0.013876 -518139.000000 0 0 1
9.667189 -30.100580 2.221529 31.692817 -1.260039 1.500643 0.055578 -0.015122 33130.100000 0 0 1
9.090189 -29.566880 1.009029 30.949153 -1.272523 1.538188 0.073108 -0.003839 -256321.000000 0 0 1
8.277389 -30.457880 0.321029 31.564231 -1.305440 1.560625 0.065431 -0.011182 -1270680.000000 0 0 1
8.764889 -31.021980 -1.032271 32.252939 -1.295436 1.602807 0.078985 -0.015529 -354059.000000 0 0 1
9.805489 -31.960780 -0.880571 33.442704 -1.273115 1.597130 0.077939 -0.019962 -297359.000000 0 0 1
10.131489 -32.658380 -2.078071 34.256900 -1.269984 1.631495 0.085493 -0.009456 208931.000000 0 0 1
11.370689 -33.588380 -1.994971 35.516922 -1.244376 1.626995 0.076322 -0.014177 9144.300000 0 0 1
11.273589 33.295918 -0.873971 35.163557 1.244324 1.595653 0.064391 -0.011675 -99395.400000 0 0 1
12.422389 32.492318 -0.911671 34.797954 1.205626 1.596998 0.077943 -0.017192 -614944.000000 0 0 1
12.597489 31.625918 0.369229 34.044555 1.191732 1.559951 0.066371 -0.025942 -71450.000000 0 0 1
13.013989 32.426018 1.543129 34.974159 1.189132 1.526660 0.062048 -0.028250 -202976.000000 0 0 1
14.278889 33.014418 1.479729 36.000390 1.162586 1.529682 0.073309 -0.026621 -744543.000000 0 0 1
15.558289 32.211418 1.716429 35.813153 1.120837 1.522851 0.073946 -0.035411 -858884.000000 0 0 1
16.047089 31.616918 0.592329 35.461097 1.101129 1.554092 0.078202 -0.035589 -319201.000000 0 0 1
17.020489 30.642618 0.897529 35.063836 1.063777 1.545197 0.080470 -0.030094 -285910.000000 0 0 1
17.760389 30.089018 -0.303271 34.940984 1.037568 1.579476 0.083540 -0.024835 -489072.000000 0 0 1
18.712589 30.927118 -0.864271 36.157911 1.026669 1.594701 0.078991 -0.019523 -536487.000000 0 0 1
18.243789 31.911218 -1.741571 36.799385 1.051442 1.618140 0.090634 -0.029729 -402455.000000 0 0 1
19.386589 32.650818 -2.440771 38.050928 1.034981 1.634985 0.091441 -0.025868 488844.000000 0 0 1
20.278489 33.401518 -1.578271 39.107153 1.025163 1.611165 0.082336 -0.026869 406016.000000 0 0 1
21.247689 -33.684280 -2.348471 39.894991 -1.008045 1.629697 0.080274 -0.024193 -1090580.000000 0 0 1
22.158089 -32.743180 -1.494471 39.564254 -0.975863 1.608579 0.092863 -0.022582 -423035.000000 0 0 1
23.022489 -33.420880 -0.611771 40.587738 -0.967582 1.585870 0.091258 -0.030957 736552.000000 0 0 1
23.961189 33.368218 -1.117171 41.095311 0.948036 1.597985 0.085900 -0.018663 -53956.200000 0 0 1
25.078489 33.787618 -2.091271 42.129647 0.932281 1.620456 0.068098 -0.017429 -609325.000000 0 0 1
24.495189 -33.537680 -3.313971 41.662605 -0.939972 1.650423 0.091491 -0.027199 673749.000000 0 0 1
25.471189 -33.005980 -4.228371 41.905314 -0.913542 1.671871 0.077570 -0.024273 444190.000000 0 0 1
24.795489 -32.598980 -5.571071 41.334569 -0.920532 1.705988 0.075441 -0.030550 292449.000000 0 0 1
23.705189 -31.705480 -5.472971 39.964070 -0.928789 1.708175 0.090488 -0.037063 563444.000000 0 0 1
23.109789 -31.366380 -6.760271 39.542552 -0.935817 1.742602 0.093838 -0.044080 -248426.000000 0 0 1
22.051489 -30.296780 -6.642971 38.056433 -0.941623 1.746251 0.103575 -0.053621 -643811.000000 0 0 1
20.898789 -30.651080 -5.920871 37.567337 -0.972370 1.729063 0.123083 -0.050718 -374240.000000 0 0 1
20.063089 -29.510680 -6.041971 36.192723 -0.973716 1.738520 0.125939 -0.056367 317250.000000 0 0 1
18.777289 -29.450980 -5.163971 35.307413 -1.003203 1.717580 0.098668 -0.036688 300667.000000 0 0 1
17.651089 -30.052980 -5.751971 35.324605 -1.039743 1.734356 0.099815 -0.036440 332558.000000 0 0 1
16.511789 -29.815580 -4.897071 34.432387 -1.065042 1.713503 0.068639 -0.024310 238556.000000 0 0 1
15.258989 -30.620780 -5.193371 34.604046 -1.108493 1.721445 0.063874 -0.015302 -448763.000000 0 0 1
15.335189 -32.003280 -5.091971 35.851166 -1.123947 1.713309 0.061856 -0.004319 144239.000000 0 0 1
14.050489 -32.630980 -5.181971 35.903341 -1.164203 1.715633 0.077667 -0.003841 549476.000000 0 0 1
14.136089 33.643318 -5.244971 36.867486 1.173019 1.713546 0.068803 -0.008200 -33570.000000 0 0 1
14.414789 33.101318 -3.992571 36.323876 1.160087 1.680935 0.072453 -0.018342 -88749.900000 0 0 1
14.846689 31.729818 -4.042671 35.263986 1.133149 1.685689 0.076352 -0.021264 946363.000000 0 0 1
13.787189 30.629318 -4.587371 33.901116 1.147834 1.706529 0.073894 -0.022246 1070340.000000 0 0 1
12.784989 30.172318 -3.686271 32.975950 1.170000 1.682817 0.065270 -0.018628 204294.000000 0 0 1
13.245489 29.353118 -2.588171 32.307075 1.146906 1.650994 0.066965 -0.020887 -260980.000000 0 0 1
12.070089 28.611318 -1.952371 31.114407 1.171585 1.633586 0.061697 -0.016591 314856.000000 0 0 1
11.079689 29.358118 -1.263071 31.404680 1.209925 1.611026 0.066459 -0.026867 -21829.800000 0 0 1
10.188989 28.547618 -0.531571 30.316077 1.227977 1.588332 0.044791 -0.019339 304312.000000 0 0 1
8.985989 29.296418 0.107929 30.643755 1.273180 1.567274 0.031424 -0.005404 274449.000000 0 0 1
8.200289 28.408818 0.873929 29.581572 1.289782 1.541249 0.025171 -0.009517 234445.000000 0 0 1
6.953689 29.068118 1.149829 29.910389 1.335989 1.532344 0.049515 -0.005792 540512.000000 0 0 1
5.887589 28.213518 1.851129 28.880668 1.365069 1.506657 0.038840 -0.012206 -132001.000000 0 0 1
5.117689 27.442018 0.982229 27.932416 1.386423 1.535625 0.045303 -0.016446 -456525.000000 0 0 1
4.054389 26.861018 1.693929 27.218041 1.420988 1.508521 0.053790 -0.020654 -103527.000000 0 0 1
3.364389 25.805718 0.819529 26.037008 1.441154 1.539316 0.054975 -0.024890 -84667.300000 0 0 1
2.138589 25.367118 1.366029 25.493730 1.486690 1.517188 0.066716 -0.021003 -56019.800000 0 0 1
1.611189 24.373118 0.515629 24.431755 1.504787 1.549690 0.053264 -0.018061 170986.000000 0 1 0
0.200589 23.865418 0.896729 23.883101 1.562392 1.533241 0.050192 -0.014474 -274985.000000 0 1 0
-0.850211 24.732418 0.737729 24.758021 -1.536433 1.540994 0.060001 -0.019931 -844185.000000 0 1 0
-2.102011 24.105018 0.861729 24.211834 -1.483814 1.535198 0.052127 -0.016341 154308.000000 0 1 0
-3.260111 25.007718 1.368829 25.256444 -1.441163 1.516573 0.079723 -0.029409 983666.000000 0 0 1
-4.480111 24.260818 1.539929 24.719022 -1.388189 1.508459 0.077305 -0.022460 606995.000000 0 1 0
-5.610411 24.885418 2.079829 25.594656 -1.349054 1.489446 0.071425 -0.026336 444229.000000 0 0 1
-6.729411 25.265218 1.060829 26.167567 -1.310489 1.530245 0.086369 -0.026993 124067.000000 0 0 1
-6.501411 26.441218 0.276629 27.230183 -1.329697 1.560637 0.095322 -0.027006 362986.000000 0 0 1
-7.682511 26.747018 -0.466971 27.832391 -1.291097 1.587575 0.092703 -0.023517 182385.000000 0 0 1
-7.604311 27.897618 -1.532471 28.956020 -1.304682 1.623745 0.089586 -0.015919 -163519.000000 0 0 1
-7.715611 29.167018 -0.937971 30.184853 -1.312188 1.601876 0.122102 -0.036860 -49759.200000 0 0 1
-7.849111 30.125018 -1.946271 31.191556 -1.315912 1.633234 0.118839 -0.031758 64204.800000 0 0 1
-7.613011 31.532618 -1.385771 32.468204 -1.333897 1.613490 0.101213 -0.031122 -681452.000000 0 0 1
-7.830211 32.585818 -2.249971 33.588839 -1.334972 1.637832 0.088719 -0.012773 -162227.000000 0 0 1
-7.019011 32.813018 -3.403471 33.727500 -1.360063 1.671879 0.080789 -0.020035 -511358.000000 0 0 1
-5.505911 32.949918 -3.257471 33.565209 -1.405227 1.667998 0.104122 -0.018381 -771046.000000 0 0 1
-5.153011 -33.593480 -2.553371 34.082182 1.418590 1.645785 0.102354 -0.023021 89759.600000 0 0 1
-4.893611 -33.765480 -1.160571 34.137984 1.426869 1.604799 0.126341 -0.032425 -335915.000000 0 0 1
-4.672211 -32.410780 -0.465471 32.749120 1.427627 1.585010 0.121386 -0.025933 907769.000000 0 0 1
-5.906411 -31.677480 -0.255971 32.224431 1.386458 1.578740 0.100646 -0.020273 722760.000000 0 0 1
-6.188511 -30.851280 -1.362671 31.495333 1.372832 1.614076 0.109137 -0.013407 -184690.000000 0 0 1
-7.531411 -30.110580 -1.218171 31.062085 1.325700 1.610024 0.120279 -0.021140 -108336.000000 0 0 1
-7.583511 -29.245580 -0.109071 30.213002 1.317080 1.574406 0.103664 -0.016090 647572.000000 0 0 1
-8.870611 -28.618180 0.089629 29.961575 1.270223 1.567805 0.052414 -0.007448 736758.000000 0 0 1
-8.857511 -27.986780 1.507429 29.393668 1.264281 1.519490 0.074725 -0.014366 131727.000000 0 0 1
-7.878711 -26.969080 1.632229 28.143730 1.286567 1.512768 0.084242 -0.018373 -239851.000000 0 0 1
-7.699711 -26.454080 2.931529 27.707359 1.287562 1.464795 0.101332 -0.020179 213664.000000 0 0 1
-8.730211 -25.456680 3.547429 27.144859 1.240421 1.439736 0.077691 -0.011875 217951.000000 0 0 1
-8.570211 -24.184880 2.927729 25.824959 1.230241 1.457184 0.081493 -0.015986 14878.700000 0 0 1
-9.551211 -23.324780 3.500329 25.446479 1.182138 1.432802 0.076447 -0.020380 284914.000000 0 0 1
-8.991111 -21.953680 3.841929 24.032573 1.182085 1.410244 0.054523 -0.000515 822093.000000 0 1 0
-7.891411 -22.007780 4.780729 23.863615 1.226504 1.369096 0.053453 -0.005189 156695.000000 0 1 0
-7.240811 -20.777980 5.056329 22.576985 1.235472 1.344921 0.029370 -0.005276 13355.200000 0 1 0
-8.010311 -19.528180 5.582029 21.832864 1.181534 1.312255 0.035839 -0.014634 -475642.000000 0 1 0
-8.584111 -19.804880 6.815729 22.635688 1.161804 1.264945 0.046793 -0.018363 -196620.000000 0 1 0
-8.896211 -18.552980 7.417829 21.871896 1.123680 1.224784 0.020889 -0.024927 -316990.000000 0 1 0
-28.377121 29.005718 -5.753371 40.984069 -0.796352 1.711642 0.111964 -0.005728 248989.000000 0 0 1
-27.581971 29.616918 -4.741071 40.748063 -0.820960 1.687411 0.104223 -0.021373 -295972.000000 0 0 1
-26.732791 28.729118 -4.086571 39.455093 -0.821377 1.674558 0.093701 -0.019380 -146270.000000 0 0 1
-25.652541 29.504218 -3.307771 39.236374 -0.855116 1.655200 0.081368 -0.022201 -255874.000000 0 0 1
-26.241251 30.339918 -2.314771 40.180493 -0.857711 1.628438 0.063053 -0.020297 633272.000000 0 0 1
-25.343941 31.292718 -1.687571 40.303814 -0.890048 1.612680 0.058101 -0.018673 1043750.000000 0 0 1
-24.142511 30.801818 -0.771571 39.143430 -0.906011 1.590509 0.054056 -0.012858 918781.000000 0 0 1
-23.069111 30.373418 -1.597571 38.174345 -0.921232 1.612658 0.090595 -0.030672 -133992.000000 0 0 1
-21.930311 30.034618 -0.846871 37.198575 -0.940109 1.593565 0.078823 -0.027043 -820502.000000 0 0 1
-20.706711 29.685918 -1.622871 36.230585 -0.961732 1.615604 0.079771 -0.032849 -762900.000000 0 0 1
-19.512311 29.469518 -0.901671 35.355279 -0.985949 1.596302 0.090330 -0.031967 7507.700000 0 0 1
-18.550311 28.817418 -1.707171 34.314312 -0.998849 1.620568 0.102137 -0.030742 -111614.000000 0 0 1
-17.102711 29.183818 -1.341871 33.852600 -1.040709 1.610445 0.116015 -0.037312 -231881.000000 0 0 1
-16.697911 28.688718 -0.082571 33.194421 -1.043689 1.573284 0.117503 -0.036800 -169626.000000 0 0 1
-15.537211 29.256118 0.470129 33.129237 -1.082598 1.556605 0.122488 -0.042969 -47110.800000 0 0 1
-14.984411 28.360618 1.582129 32.114799 -1.084725 1.521512 0.123264 -0.048023 -528970.000000 0 0 1
-15.806411 28.408218 2.700829 32.621526 -1.063051 1.487909 0.105188 -0.052373 -298482.000000 0 0 1
-15.351411 27.692018 3.837829 31.894241 -1.064610 1.450174 0.107475 -0.062332 436683.000000 0 0 1
-14.072611 28.295318 4.518829 31.923082 -1.109273 1.428766 0.112155 -0.054728 679321.000000 0 0 1
-14.363911 29.431718 5.328029 33.180353 -1.116761 1.409520 0.087071 -0.042596 -288863.000000 0 0 1
-14.418911 30.669418 4.628429 34.204393 -1.131321 1.435063 0.100039 -0.043793 -196887.000000 0 0 1
-14.170311 31.894418 5.466929 35.326179 -1.152703 1.415416 0.098359 -0.047284 71423.600000 0 0 1
-15.168611 32.282418 6.412429 36.240316 -1.131540 1.392918 0.100430 -0.050590 151037.000000 0 0 1
-14.873511 33.508418 7.026129 37.328298 -1.153049 1.381442 0.095968 -0.051449 129089.000000 0 0 1
-16.012011 -33.824080 7.981029 38.264209 1.128662 1.360677 0.071513 -0.041523 150491.000000 0 0 1
-16.108211 33.140518 9.181029 37.974461 -1.118364 1.326608 0.049198 -0.040221 -407418.000000 0 0 1
-17.209511 33.518618 9.950729 38.970271 -1.096461 1.312595 0.057181 -0.041169 -830316.000000 0 0 1
-17.259511 32.983118 11.394129 38.930745 -1.088696 1.273771 0.053269 -0.026823 111386.000000 0 0 1
-16.368111 33.546518 12.308629 39.303769 -1.116857 1.252271 0.058230 -0.033597 -71705.200000 0 0 1
-15.000411 33.180318 12.258629 38.421606 -1.146208 1.246063 0.066891 -0.030174 83900.900000 0 0 1
-14.278111 33.505318 13.582929 38.871155 -1.167957 1.213829 0.069351 -0.028707 -172799.000000 0 0 1
-14.623711 32.554118 14.565029 38.545604 -1.148598 1.183307 0.058912 -0.025635 164270.000000 0 0 1
-13.840011 31.358218 14.619629 37.264155 -1.155157 1.167639 0.038825 -0.021399 212100.000000 0 0 1
-14.549211 30.094318 13.945529 36.219129 -1.120473 1.175554 0.033481 -0.028907 397720.000000 0 0 1
-14.751611 30.176418 12.560429 35.860711 -1.116112 1.212952 0.035253 -0.026795 -449571.000000 0 0 1
-15.937211 29.564418 12.183529 35.727970 -1.076385 1.222807 0.020085 -0.027058 -525627.000000 0 0 1
-16.103511 29.323518 10.650329 35.108706 -1.068593 1.262587 0.030311 -0.020868 -81227.000000 0 0 1
-15.255111 28.330518 10.130729 33.733786 -1.076849 1.265774 0.023238 -0.020313 -91814.300000 0 0 1
-15.150211 28.440418 8.679329 33.372399 -1.081332 1.307696 0.041607 -0.024781 -664803.000000 0 0 1
-14.480711 27.183518 8.190429 31.870327 -1.081331 1.310888 0.044572 -0.030003 -1381860.000000 0 0 1
-13.133911 27.092618 8.438229 31.268407 -1.119400 1.297544 0.057958 -0.037074 -1253510.000000 0 0 1
-12.763611 25.773118 8.162629 29.896352 -1.110972 1.294254 0.058031 -0.038473 801436.000000 0 0 1
-11.371211 25.644318 7.420629 29.017257 -1.153428 1.312192 0.098021 -0.048128 755133.000000 0 0 1
-11.460311 26.052318 6.083529 29.104489 -1.156377 1.360220 0.113294 -0.048072 439738.000000 0 0 1
-10.233911 25.757118 5.433029 28.243227 -1.192599 1.377224 0.127474 -0.044771 222697.000000 0 0 1
-10.439011 26.014518 3.923729 28.304129 -1.189190 1.431721 0.137808 -0.039099 103272.000000 0 0 1
-10.156711 27.344918 3.571129 29.388029 -1.215160 1.448979 0.137247 -0.035501 -63045.200000 0 0 1
-10.592211 27.635718 2.295929 29.684998 -1.204787 1.493376 0.144903 -0.040506 3030.820000 0 0 1
-10.184111 29.070218 1.798929 30.854980 -1.233829 1.512461 0.156474 -0.037557 232724.000000 0 0 1
-11.014711 30.064118 2.364629 32.105552 -1.219610 1.497078 0.141641 -0.046152 -149708.000000 0 0 1
-10.651311 31.384418 2.049329 33.205901 -1.243612 1.509041 0.133215 -0.043412 -491391.000000 0 0 1
-11.457511 32.496718 2.714629 34.564149 -1.231830 1.492176 0.122896 -0.041547 -379234.000000 0 0 1
-12.775011 32.445218 2.231729 34.941003 -1.195697 1.506881 0.138205 -0.041354 -559106.000000 0 0 1
-13.130111 33.551318 1.387229 36.055723 -1.197774 1.532312 0.115474 -0.036795 -399941.000000 0 0 1
-14.612811 33.752518 1.045529 36.794834 -1.162220 1.542377 0.123041 -0.033880 31785.900000 0 0 1
-15.249811 32.694818 0.308629 36.077737 -1.134364 1.562242 0.108376 -0.027451 -1830.060000 0 0 1
-15.403811 32.868418 -1.083671 36.315074 -1.132541 1.600642 0.108120 -0.030949 -126827.000000 0 0 1
-14.183411 32.684018 -2.011971 35.685602 -1.161365 1.627207 0.112963 -0.026446 -107152.000000 0 0 1
-13.790311 31.346518 -2.158071 34.313760 -1.156347 1.633730 0.118840 -0.025428 247466.000000 0 0 1
-12.384511 31.166618 -2.206271 33.609549 -1.192564 1.636488 0.117081 -0.019380 217435.000000 0 0 1
-11.902311 29.800318 -2.723371 32.204669 -1.190805 1.655462 0.089460 -0.024506 95542.600000 0 0 1
-12.058311 29.580018 -4.118171 32.207757 -1.183712 1.699010 0.096237 -0.023657 -225712.000000 0 0 1
-10.781011 29.574818 -4.705871 31.828372 -1.221233 1.719192 0.081576 -0.024993 -5587.010000 0 0 1
-10.676011 28.990318 -6.152771 31.500354 -1.217947 1.767384 0.078130 -0.020599 -67235.500000 0 0 1
-11.015511 27.621018 -6.132871 30.362381 -1.191317 1.774185 0.085100 -0.015857 -29983.400000 0 0 1
-10.557611 26.992318 -7.307971 29.890714 -1.197956 1.817790 0.080797 -0.011749 43179.400000 0 0 1
-11.115811 25.571018 -7.509871 28.876225 -1.160736 1.833892 0.095994 -0.019079 3089.060000 0 0 1
-10.782811 24.626018 -6.582571 27.677427 -1.158082 1.810929 0.062537 -0.010147 -227327.000000 0 0 1
-11.179911 23.314918 -6.927771 26.768821 -1.123669 1.832576 0.124590 -0.031105 -256251.000000 0 0 1
-10.651611 22.216218 -6.004771 25.358912 -1.123722 1.809858 0.096495 -0.029521 1027150.000000 0 0 1
-9.223111 21.980318 -6.097971 24.604580 -1.173502 1.821245 0.075227 -0.030329 1304610.000000 0 1 0
-8.712411 20.809618 -5.418471 23.201425 -1.174297 1.806514 0.064401 -0.028260 -52553.400000 0 1 0
-8.612611 20.833618 -3.852271 22.870432 -1.178792 1.740042 0.057366 -0.031710 896207.000000 0 1 0
-9.881611 20.696118 -3.175671 23.152978 -1.125341 1.708390 0.082269 -0.036242 1164710.000000 0 1 0
-10.564211 19.363018 -3.261171 22.297180 -1.071348 1.717582 0.079465 -0.036468 845245.000000 0 1 0
-11.812111 19.435518 -2.298771 22.859345 -1.024691 1.671528 0.084618 -0.033337 198808.000000 0 1 0
-11.646511 19.458518 -0.853571 22.693693 -1.031458 1.608418 0.071152 -0.033676 57021.600000 0 1 0
-11.194711 18.209718 -0.345871 21.378377 -1.019590 1.586976 0.061704 -0.024688 -145744.000000 0 1 0
-10.934311 18.280718 1.141829 21.331844 -1.031750 1.517244 0.052951 -0.024383 291225.000000 0 1 0
-12.143011 18.252218 1.889329 22.003766 -0.983748 1.484827 0.077686 -0.030184 393815.000000 0 1 0
-11.858711 18.610518 3.251229 22.305849 -1.003469 1.424518 0.069897 -0.019194 -621405.000000 0 1 0
-13.127611 18.706318 4.050129 23.209137 -0.958881 1.395392 0.086370 -0.025029 -647925.000000 0 1 0
-13.494011 17.390518 4.409329 22.449067 -0.910899 1.373096 0.047584 -0.022454 379062.000000 0 1 0
-14.815611 17.342618 4.931529 23.336424 -0.863817 1.357868 0.075685 -0.030968 340855.000000 0 1 0
-15.210211 15.974118 5.541029 22.742602 -0.809890 1.324678 0.042054 -0.020200 -424978.000000 0 1 0
-14.440511 15.552518 6.638629 22.236919 -0.822457 1.267633 0.043724 -0.013114 -414668.000000 0 1 0
-14.998411 15.938218 7.864829 23.255852 -0.815767 1.225806 0.047076 -0.011844 -647172.000000 0 1 0
-13.945311 15.764918 9.012629 22.896109 -0.846567 1.166218 0.040861 -0.007873 977280.000000 0 1 0
-12.750811 16.531618 8.943829 22.712764 -0.913803 1.166056 0.043937 -0.018295 634642.000000 0 1 0
-11.895311 16.094918 7.860129 21.501777 -0.934326 1.196565 0.043238 -0.021359 -1274390.000000 0 1 0
-10.674011 16.978518 7.484829 21.406243 -1.009557 1.213592 0.055848 -0.031094 -114825.000000 0 1 0
-9.778311 16.944118 8.558329 21.353301 -1.047391 1.158410 0.052229 -0.036247 -697143.000000 0 1 0
-9.065311 18.146118 8.427229 21.965419 -1.107490 1.177041 0.047804 -0.040358 102743.000000 0 1 0
-7.870511 18.365418 9.425729 22.092485 -1.165922 1.130012 0.054392 -0.035087 1159210.000000 0 1 0
-6.778511 17.411818 9.156629 20.807774 -1.199543 1.115133 0.044894 -0.028116 1145740.000000 0 1 0
-5.522811 17.754618 9.735229 20.988153 -1.269221 1.088467 0.036086 -0.029717 852529.000000 0 1 0
-4.739211 18.953518 9.095229 21.550386 -1.325776 1.135097 0.031209 -0.025791 -926391.000000 0 1 0
-5.090911 20.253818 9.427229 22.913035 -1.324542 1.146768 0.044227 -0.030325 19364.300000 0 1 0
-4.534511 21.128518 8.433929 23.197138 -1.359388 1.198692 0.047032 -0.035004 689476.000000 0 1 0
-3.112011 21.755118 8.611529 23.603563 -1.428713 1.197335 0.055317 -0.028370 514505.000000 0 1 0
-2.058811 20.827418 8.421429 22.559710 -1.472265 1.188238 0.042863 -0.013373 14422.900000 0 1 0
-0.846211 21.562018 8.279429 23.112456 -1.531571 1.204432 0.035484 -0.011705 1572910.000000 0 1 0
0.434389 20.650418 7.967529 22.138427 1.549764 1.202640 0.019992 -0.006998 1240880.000000 0 1 0
0.896389 19.893818 9.017229 21.860419 1.525768 1.145609 0.020894 -0.014519 -1795640.000000 0 1 0
2.260389 19.761218 8.938629 21.806288 1.456906 1.148440 0.016016 -0.006821 -1159600.000000 0 1 0
2.727189 19.035918 10.229629 21.781851 1.428499 1.081913 0.009411 -0.029479 -165559.000000 0 1 0
4.105889 18.928218 10.515729 22.038973 1.357187 1.073396 0.029713 -0.002984 -7021.400000 0 1 0
4.276589 18.168318 11.660329 22.007732 1.339617 1.012398 0.019716 -0.014671 -7088.080000 0 1 0
5.725489 18.029018 12.143729 22.478809 1.263299 1.000086 0.046302 -0.013993 -192009.000000 0 1 0
6.623989 17.268718 11.386529 21.719551 1.204522 1.018959 0.034669 -0.012598 -444523.000000 0 1 0
7.609689 16.729718 12.207229 22.063709 1.143908 0.984509 0.042291 -0.002569 -526175.000000 0 1 0
8.926689 16.270018 11.570029 21.869267 1.068983 1.013311 0.046215 -0.002704 -204292.000000 0 1 0
9.758889 17.268818 11.061129 22.711155 1.056422 1.062105 0.059316 -0.012590 -488771.000000 0 1 0
10.836189 16.711618 10.365329 22.453089 0.995531 1.090949 0.054280 -0.012093 1278360.000000 0 1 0
12.102589 17.719518 10.138529 23.732757 0.971565 1.129407 0.059836 -0.004941 2027690.000000 0 1 0
12.932489 17.207318 9.060829 23.354650 0.926292 1.172372 0.063243 -0.004165 1115520.000000 0 1 0
13.949489 18.155318 8.619029 24.464085 0.915659 1.210754 0.084737 -0.008412 682629.000000 0 1 0
14.822989 17.746218 7.464429 24.297468 0.874913 1.258536 0.090290 -0.012737 -484208.000000 0 1 0
15.598289 16.596118 7.654029 24.027524 0.816382 1.246594 0.102470 -0.029857 7898.950000 0 1 0
16.640489 16.536018 6.702029 24.398011 0.782249 1.292523 0.092650 -0.024008 -662682.000000 0 1 0
18.013189 16.793118 7.270229 25.677617 0.750359 1.283735 0.104586 -0.019326 -1055240.000000 0 0 1
18.488089 15.591718 7.886529 25.438326 0.700614 1.255576 0.116681 -0.021149 632870.000000 0 0 1
19.583189 15.860318 8.795229 26.690954 0.680745 1.235000 0.113784 -0.023620 610643.000000 0 0 1
19.840489 14.703618 9.820929 26.576155 0.637775 1.192283 0.104071 -0.023948 -361777.000000 0 0 1
20.591889 13.660718 9.264029 26.390592 0.585740 1.212120 0.108737 -0.025398 121957.000000 0 0 1
20.891589 12.626318 10.148629 26.436283 0.543629 1.176791 0.113789 -0.031771 -419071.000000 0 0 1
21.806289 11.543118 9.588629 26.470732 0.486849 1.200132 0.104568 -0.025065 -445813.000000 0 0 1
23.181789 11.803318 9.875829 27.825270 0.470951 1.207965 0.114789 -0.030134 1773230.000000 0 0 1
24.130089 10.837818 9.297329 28.038542 0.422140 1.232807 0.143898 -0.026401 643794.000000 0 0 1
23.979289 9.399118 9.860429 27.578575 0.373563 1.205164 0.153059 -0.033677 -221256.000000 0 0 1
22.811989 8.633418 9.492929 26.173239 0.361800 1.199637 0.147919 -0.032389 1175190.000000 0 0 1
22.929489 7.260718 9.859029 25.993845 0.306665 1.181775 0.136669 -0.024746 44904.400000 0 0 1
23.910989 6.451218 8.932729 26.327690 0.263527 1.224634 0.164358 -0.032133 275696.000000 0 0 1
23.549689 6.443518 7.585429 25.566492 0.267077 1.269567 0.142784 -0.018702 734610.000000 0 0 1
24.592489 5.844418 6.786329 26.172543 0.233322 1.308507 0.149173 -0.021699 370605.000000 0 0 1
24.252489 5.469818 5.349829 25.430745 0.221825 1.358844 0.156329 -0.028677 -555130.000000 0 0 1
23.498789 4.293918 5.274429 24.463247 0.180735 1.353484 0.146666 -0.026251 221486.000000 0 1 0
23.391489 3.782218 3.959329 24.023805 0.160305 1.405232 0.163557 -0.026587 -1079580.000000 0 1 0
22.391689 2.722118 3.749529 22.866059 0.120975 1.406074 0.144605 -0.024782 -1076330.000000 0 1 0
22.795189 1.521118 4.297829 23.246630 0.066631 1.384847 0.165249 -0.029753 112891.000000 0 1 0
21.939489 0.513418 3.853229 22.281207 0.023397 1.396986 0.142445 -0.028672 -522445.000000 0 1 0
22.421789 -0.921482 4.065929 22.806086 -0.041075 1.391555 0.157155 -0.033969 -580980.000000 0 1 0
22.362089 -1.441282 5.407329 23.051671 -0.064363 1.334016 0.139217 -0.037888 610927.000000 0 1 0
22.754689 -2.776882 5.424729 23.556626 -0.121435 1.338426 0.144251 -0.041092 -529905.000000 0 1 0
22.660689 -3.287682 6.902929 23.915813 -0.144078 1.277996 0.167584 -0.047021 -71039.400000 0 1 0
22.922789 -4.694082 6.943429 24.406964 -0.201986 1.282327 0.162188 -0.048726 563568.000000 0 1 0
23.075389 -5.159482 8.229829 25.036452 -0.219974 1.235855 0.200040 -0.049948 -273046.000000 0 0 1
22.610089 -6.580882 8.413129 25.006097 -0.283234 1.227659 0.185003 -0.049455 681154.000000 0 0 1
21.190189 -6.660982 8.600429 23.819324 -0.304563 1.201382 0.167354 -0.047110 1077610.000000 0 1 0
20.809789 -7.961582 9.107729 24.070415 -0.365407 1.182752 0.150001 -0.044577 -12987.800000 0 1 0
-27.072731 -33.060480 5.023929 43.025201 0.884646 1.453762 0.054909 -0.009713 110581.000000 0 0 1
-27.830851 33.619818 5.588529 44.000910 -0.879326 1.443443 0.055569 -0.016390 246116.000000 0 0 1
-28.236971 -33.741880 6.875829 44.532213 0.873985 1.415775 0.056174 -0.013656 102046.000000 0 0 1
-28.954111 32.907618 7.732429 44.508901 -0.849220 1.396183 0.067082 -0.020199 879290.000000 0 0 1
-30.286331 32.624518 7.283029 45.107244 -0.822548 1.408626 0.071385 -0.026552 253659.000000 0 0 1
-30.871461 31.475118 7.854529 44.781958 -0.795080 1.394489 0.090668 -0.032639 575421.000000 0 0 1
-32.419851 31.630418 7.906329 45.978692 -0.773074 1.397981 0.091037 -0.031221 243065.000000 0 0 1
-32.991211 31.832018 6.643129 46.323088 -0.767518 1.426892 0.074730 -0.027720 350742.000000 0 0 1
-34.412331 31.940918 6.809529 47.442601 -0.748169 1.426767 0.071344 -0.025954 1173490.000000 0 0 1
-35.162924 31.949018 5.388129 47.814254 -0.737546 1.457868 0.054039 -0.017032 255690.000000 0 0 1
-35.066369 30.689718 4.731029 46.838997 -0.718937 1.469618 0.054722 -0.014344 277974.000000 0 0 1
-35.935193 30.654418 3.610429 47.371580 -0.706260 1.494507 0.062884 -0.004279 245065.000000 0 0 1
-35.630061 29.307318 2.874729 46.224281 -0.688337 1.508565 0.069454 -0.009574 149803.000000 0 0 1
-35.989287 28.118918 3.566829 45.810747 -0.663242 1.492857 0.107103 -0.019198 257685.000000 0 0 1
-35.356335 26.977818 2.985929 44.573409 -0.651786 1.503757 0.099593 -0.018067 10289.700000 0 0 1
-35.825631 25.692818 3.710429 44.242106 -0.622152 1.486831 0.116574 -0.025292 635438.000000 0 0 1
-37.140151 25.273918 3.326829 45.046970 -0.597519 1.496877 0.132550 -0.023063 251277.000000 0 0 1
37.056139 24.492018 4.316129 44.627854 0.584030 1.473931 0.132377 -0.020397 29300.300000 0 0 1
35.555099 24.193118 4.102429 43.200717 0.597478 1.475691 0.142715 -0.023283 -33625.700000 0 0 1
35.221679 23.236018 3.154629 42.313484 0.583169 1.496173 0.132194 -0.034543 8661.750000 0 0 1
35.542119 21.907118 3.501229 41.897764 0.552370 1.487133 0.117023 -0.030704 -947822.000000 0 0 1
34.830329 20.889618 2.675829 40.702433 0.540238 1.505008 0.123555 -0.027981 -63024.400000 0 0 1
33.453489 20.711918 2.979929 39.458833 0.554364 1.495204 0.119968 -0.042836 496375.000000 0 0 1
33.098709 19.759318 3.979929 38.753000 0.538197 1.467915 0.101689 -0.025939 -339090.000000 0 0 1
33.424559 18.279818 3.769629 38.282672 0.500458 1.472168 0.112969 -0.031129 -366782.000000 0 0 1
32.572659 17.811018 2.710429 37.223070 0.500390 1.497916 0.099563 -0.044935 594533.000000 0 0 1
32.519449 16.437018 2.472029 36.521241 0.468000 1.503057 0.098472 -0.040197 50356.700000 0 0 1
31.601929 15.608418 3.450529 35.414839 0.458761 1.473210 0.124963 -0.042141 573663.000000 0 0 1
30.233409 15.961918 3.278029 34.345121 0.485762 1.475207 0.112500 -0.036067 527361.000000 0 0 1
29.356239 15.228018 4.139029 33.328860 0.478521 1.446287 0.103710 -0.043268 -317604.000000 0 0 1
27.887539 15.550818 3.936629 32.172035 0.508679 1.448127 0.094929 -0.038942 -655979.000000 0 0 1
27.398239 14.930018 2.742929 31.322398 0.498939 1.483113 0.105272 -0.040904 991414.000000 0 0 1
25.981239 15.168618 2.589929 30.196349 0.528445 1.484921 0.077431 -0.030519 904404.000000 0 0 1
25.475439 14.467118 1.272829 29.324318 0.516471 1.527377 0.082102 -0.034770 -550517.000000 0 0 1
25.803639 14.968618 -0.011871 29.830982 0.525656 1.571194 0.095210 -0.036817 -110290.000000 0 0 1
27.085539 14.493718 -0.332771 30.721410 0.491339 1.581628 0.102566 -0.037700 -689459.000000 0 0 1
27.850539 15.342718 -1.373871 31.826703 0.503530 1.613977 0.123936 -0.038855 103206.000000 0 0 1
28.302839 16.648518 -1.028971 32.852437 0.531719 1.602122 0.097066 -0.037500 556841.000000 0 0 1
29.287039 16.740118 0.003629 33.733696 0.519266 1.570689 0.099349 -0.036428 -136129.000000 0 0 1
29.940419 18.108418 0.200629 34.991195 0.543952 1.565063 0.109311 -0.031061 -224856.000000 0 0 1
30.726589 18.460118 -0.898971 35.856762 0.540998 1.595870 0.095098 -0.028155 -298027.000000 0 0 1
31.330269 19.715018 -0.650971 37.022851 0.561660 1.588380 0.094756 -0.016806 564904.000000 0 0 1
32.353299 19.989018 -1.842271 38.074805 0.553431 1.619201 0.092778 -0.019469 373437.000000 0 0 1
32.867539 21.279818 -2.033171 39.207647 0.574575 1.622676 0.053255 -0.014231 828641.000000 0 0 1
31.939849 22.208918 -2.665071 38.993494 0.607589 1.639196 0.091278 -0.014133 425829.000000 0 0 1
32.568569 23.648818 -2.791671 40.345653 0.628044 1.640045 0.096116 -0.014725 65220.900000 0 0 1
32.911479 24.259718 -1.592771 40.917433 0.635207 1.609733 0.120659 -0.014725 466364.000000 0 0 1
34.063659 23.812218 -0.881471 41.570802 0.610088 1.592002 0.140834 -0.013412 -346246.000000 0 0 1
34.416209 24.705918 0.377229 42.367442 0.622610 1.561892 0.158429 -0.025831 -205559.000000 0 0 1
35.100819 25.884618 -0.023571 43.612859 0.635412 1.571337 0.177482 -0.017913 144040.000000 0 0 1
36.410509 25.865218 0.517229 44.665448 0.617657 1.559216 0.160854 -0.015468 684349.000000 0 0 1
-37.357711 26.843518 -0.183471 46.002246 -0.623070 1.574785 0.119914 -0.018222 350715.000000 0 0 1
-37.104021 26.632618 -1.547471 45.699008 -0.622561 1.604665 0.114983 -0.032207 -404693.000000 0 0 1
36.773049 27.269018 -2.332971 45.839931 0.638070 1.621712 0.100275 -0.026850 -461904.000000 0 0 1
36.888009 26.860018 -3.852571 45.793319 0.629370 1.655025 0.101456 -0.023473 -209.885000 0 0 1
-36.987621 27.591218 -4.622871 46.375967 -0.640909 1.670645 0.094770 -0.017996 5319.590000 0 0 1
-36.660371 26.934118 -5.832571 45.863366 -0.633632 1.698314 0.088999 -0.016392 470228.000000 0 0 1
37.032289 26.987418 -6.947371 46.346274 0.629764 1.721265 0.079437 0.000348 1004340.000000 0 0 1
35.839899 26.279218 -6.602171 44.929771 0.632688 1.718275 0.095727 -0.008101 -167563.000000 0 0 1
34.739279 26.638118 -7.429671 44.402780 0.654167 1.738912 0.083882 -0.005764 1248330.000000 0 0 1
33.443129 25.881318 -6.894971 42.846542 0.658616 1.732422 0.086380 -0.005253 684263.000000 0 0 1
33.417879 24.498818 -7.031671 42.028456 0.632600 1.738894 0.075880 -0.009959 -418503.000000 0 0 1
34.485719 23.855818 -6.396871 42.417978 0.605174 1.722180 0.070874 -0.007658 -495547.000000 0 0 1
34.384759 22.332418 -6.568771 41.523455 0.576014 1.729658 0.069556 -0.005401 193338.000000 0 0 1
33.404109 21.639718 -5.812271 40.223058 0.574838 1.715805 0.064972 -0.007612 147566.000000 0 0 1
33.606589 20.257118 -5.931171 39.685419 0.542455 1.720813 0.062476 -0.013191 -116792.000000 0 0 1
32.458149 19.391618 -5.356471 38.187145 0.538531 1.711529 0.065324 -0.007152 -374990.000000 0 0 1
31.240719 19.696918 -5.954371 37.408631 0.562536 1.730647 0.050977 -0.013319 -671722.000000 0 0 1
30.206849 18.891518 -5.431871 36.039539 0.558891 1.722093 0.093688 -0.026093 -486514.000000 0 0 1
29.072239 18.594418 -6.396671 35.097932 0.569025 1.754073 0.067767 -0.026255 -650947.000000 0 0 1
29.152939 17.485418 -7.281071 34.765611 0.540259 1.781792 0.052980 -0.022261 -298670.000000 0 0 1
28.001139 17.391618 -8.069371 33.935924 0.555793 1.810879 0.081083 -0.025400 -333604.000000 0 0 1
28.045339 16.218118 -9.054771 33.638628 0.524297 1.843336 0.073878 -0.019435 -293650.000000 0 0 1
27.390739 16.454018 -10.236371 33.552505 0.540945 1.880824 0.068409 -0.018811 -6516.180000 0 0 1
27.596139 15.252318 -11.002171 33.395027 0.504912 1.906523 0.060547 -0.009531 -161785.000000 0 0 1
27.049639 15.360618 -12.465471 33.511483 0.516458 1.951933 0.072791 -0.012390 -319643.000000 0 0 1
25.647939 15.550418 -12.431671 32.468118 0.545041 1.963717 0.068963 -0.014829 430168.000000 0 0 1
25.062139 15.774018 -13.746471 32.648061 0.561754 2.005399 0.065465 -0.026824 -78912.600000 0 0 1
25.020039 14.494418 -14.657371 32.418035 0.525069 2.039955 0.053092 -0.025309 -1005910.000000 0 0 1
26.255739 14.000318 -15.079271 33.358015 0.489876 2.039851 0.061824 -0.025714 -166761.000000 0 0 1
26.813939 14.656318 -16.227571 34.599553 0.500224 2.058967 0.059936 -0.025845 -913719.000000 0 0 1
28.141839 14.016218 -16.568071 35.537564 0.462091 2.055801 0.068405 -0.016397 -653361.000000 0 0 1
27.998339 12.702118 -16.988671 35.126425 0.425905 2.075609 0.057389 -0.020417 238207.000000 0 0 1
29.272339 12.087418 -17.049871 35.967674 0.391603 2.064662 0.053279 -0.004137 284068.000000 0 0 1
29.249539 10.667718 -17.705371 35.816419 0.349722 2.087868 0.043110 0.003189 -217847.000000 0 0 1
28.796339 10.587618 -19.020971 36.098811 0.352331 2.125762 0.036520 -0.000781 19790.200000 0 0 1
29.038539 9.400418 -19.724271 36.340769 0.313076 2.144515 0.026202 0.004061 -841183.000000 0 0 1
30.370999 9.210118 -20.402871 37.729312 0.294439 2.142148 0.035963 -0.001626 -1599690.000000 0 0 1
30.448999 9.915518 -21.624271 38.640240 0.314814 2.164737 0.039831 -0.005277 656386.000000 0 0 1
31.146799 9.147918 -22.654371 39.585705 0.285670 2.180088 0.044864 -0.009563 1538270.000000 0 0 1
32.654299 8.654318 -22.472371 40.573488 0.259072 2.157800 0.055777 -0.008444 1010980.000000 0 0 1
33.669349 9.617118 -22.327571 41.528718 0.278226 2.138434 0.072802 -0.013165 710096.000000 0 0 1
34.928069 8.980918 -22.027671 42.259262 0.251674 2.119112 0.067967 -0.014662 1126400.000000 0 0 1
36.092619 10.006618 -21.858071 43.365710 0.270455 2.099067 0.089033 -0.019338 244407.000000 0 0 1
35.987099 10.707918 -20.639371 42.845238 0.289206 2.073412 0.064150 -0.010836 -178563.000000 0 0 1
37.019549 11.638218 -20.572071 43.921581 0.304597 2.058255 0.046450 0.000117 -391348.000000 0 0 1
37.109059 12.438918 -19.267571 43.623941 0.323429 2.028260 0.047446 -0.003176 -135698.000000 0 0 1
-37.204321 11.549718 -18.310271 43.044436 -0.301007 2.010179 0.054769 0.002654 188753.000000 0 0 1
-37.314841 12.242318 -17.063571 42.818654 -0.317017 1.980686 0.051866 0.003978 -305622.000000 0 0 1
-36.960611 11.321418 -15.893771 41.795612 -0.297236 1.960888 0.053961 0.006694 -193527.000000 0 0 1
36.929309 10.305118 -15.447271 41.335064 0.272127 1.953800 0.042777 0.000513 325611.000000 0 0 1
-37.327871 9.357718 -14.561871 41.145898 -0.245628 1.932543 0.051049 -0.009422 734944.000000 0 0 1
36.509689 8.070118 -14.496871 40.102911 0.217542 1.940664 0.091127 -0.009491 1056940.000000 0 0 1
35.325139 8.093618 -13.709271 38.746822 0.225230 1.932445 0.105657 -0.011972 760248.000000 0 0 1
35.515659 7.986118 -12.305971 38.426255 0.221183 1.896789 0.104354 -0.027814 -865719.000000 0 0 1
34.326779 8.537518 -11.538971 37.207054 0.243767 1.886125 0.112070 -0.033072 -666752.000000 0 0 1
34.141089 9.915018 -11.643771 37.409878 0.282638 1.887303 0.117724 -0.034833 57130.600000 0 0 1
33.377679 10.494418 -10.602971 36.559886 0.304628 1.865040 0.101114 -0.026712 -461589.000000 0 0 1
33.819159 10.295018 -9.111371 36.506712 0.295501 1.823044 0.117349 -0.025262 -21444.800000 0 0 1
35.059609 10.917418 -8.821571 37.764882 0.301879 1.806566 0.119642 -0.021010 318684.000000 0 0 1
34.941739 12.269118 -8.480971 37.991884 0.337682 1.795924 0.119536 -0.018362 -647962.000000 0 0 1
34.561509 12.533318 -6.969771 37.418708 0.347889 1.758155 0.110986 -0.025872 -41747.900000 0 0 1
35.564509 12.246918 -6.004771 38.090400 0.331640 1.729102 0.134225 -0.027474 386120.000000 0 0 1
35.189729 12.654018 -4.709171 37.691080 0.345196 1.696065 0.121299 -0.025291 -253065.000000 0 0 1
36.434109 12.500518 -3.838771 38.709733 0.330514 1.670128 0.144186 -0.017879 -768637.000000 0 0 1
37.276129 13.560418 -4.007471 39.867964 0.348900 1.671485 0.144998 -0.013534 -1224410.000000 0 0 1
-36.389201 13.326518 -3.249071 38.888642 -0.351053 1.654442 0.147988 -0.025398 -907345.000000 0 0 1
-35.600173 14.606518 -3.068871 38.602340 -0.389348 1.650380 0.137951 -0.025572 -520073.000000 0 0 1
-36.097901 15.492718 -2.124071 39.339477 -0.405411 1.624816 0.134641 -0.024801 168798.000000 0 0 1
-35.253187 16.643818 -1.919971 39.031912 -0.441098 1.620006 0.158140 -0.031532 216750.000000 0 0 1
-35.749920 17.669318 -0.904871 39.888348 -0.459035 1.593483 0.140229 -0.026022 -562626.000000 0 0 1
-36.859311 18.333518 -1.398671 41.190811 -0.461559 1.604759 0.118506 -0.018325 -409813.000000 0 0 1
37.294539 19.114318 -0.429471 41.909715 0.473616 1.581044 0.113576 -0.022001 232806.000000 0 0 1
36.550929 20.328018 -1.060671 41.836871 0.507557 1.596152 0.116724 -0.025396 -394856.000000 0 0 1
-37.356701 21.248818 -1.571471 43.005870 -0.517169 1.607345 0.106697 -0.019137 -542761.000000 0 0 1
36.962899 22.183218 -2.517871 43.182065 0.540528 1.629138 0.099602 -0.014459 -451055.000000 0 0 1
-36.892981 23.337618 -2.864271 43.748605 -0.564029 1.636314 0.109944 -0.021564 -797500.000000 0 0 1
-35.718810 22.912518 -3.486671 42.579029 -0.570355 1.652775 0.113970 -0.014370 -126458.000000 0 0 1
-34.893914 24.047618 -3.834371 42.550858 -0.603416 1.661031 0.120809 -0.022532 981435.000000 0 0 1
-33.511171 23.738518 -4.488871 41.311811 -0.616326 1.679670 0.122320 -0.032713 504377.000000 0 0 1
-33.636671 23.091618 -5.736271 41.201374 -0.601609 1.710475 0.110739 -0.012020 135463.000000 0 0 1
-32.353701 22.772018 -6.258571 40.056166 -0.613302 1.727684 0.116789 -0.007949 376999.000000 0 0 1
-32.512521 21.800018 -7.454271 39.848098 -0.590660 1.758972 0.110685 -0.018478 352646.000000 0 0 1
-33.214161 22.368218 -8.599771 40.956974 -0.592687 1.782341 0.115102 -0.024739 313140.000000 0 0 1
-32.719701 21.854218 -9.843471 40.559580 -0.588871 1.815936 0.086758 -0.018001 132496.000000 0 0 1
-33.625011 22.171218 -11.071371 41.770558 -0.582932 1.839054 0.075536 -0.012993 50495.500000 0 0 1
-33.715411 23.515818 -11.427971 42.665221 -0.609033 1.841959 0.075289 -0.017200 -280121.000000 0 0 1
-34.203336 23.512318 -12.755271 43.421126 -0.602238 1.868951 0.046808 -0.015238 -605049.000000 0 0 1
-34.384116 24.962818 -13.302771 44.523852 -0.627962 1.874209 0.057456 -0.012816 -204503.000000 0 0 1
-33.333701 25.886918 -13.340071 44.263140 -0.660308 1.876937 0.055034 -0.013625 -723163.000000 0 0 1
-32.383441 25.639718 -14.339271 43.722958 -0.669693 1.904937 0.065851 -0.020010 1069020.000000 0 0 1
-30.874161 26.011818 -14.008671 42.732556 -0.700130 1.904794 0.070861 -0.022900 1267670.000000 0 0 1
-30.102581 25.247718 -13.084071 41.410210 -0.697910 1.892267 0.061383 -0.023496 -10668.900000 0 0 1
-30.553161 25.077518 -11.749171 41.236156 -0.687286 1.859723 0.081441 -0.016724 -446917.000000 0 0 1
-30.752111 26.281418 -10.762271 41.859667 -0.707171 1.830820 0.090264 -0.010578 500698.000000 0 0 1
-29.512441 26.908618 -10.406471 41.271691 -0.739281 1.825693 0.107333 -0.008433 354436.000000 0 0 1
-29.719931 28.155618 -9.760871 42.086669 -0.758376 1.804851 0.094266 -0.010794 572771.000000 0 0 1
-28.490881 29.089018 -9.952071 41.915927 -0.795786 1.810515 0.098914 -0.018394 477294.000000 0 0 1
-28.658541 30.295518 -9.218071 42.709521 -0.813158 1.788340 0.089925 -0.029955 -664019.000000 0 0 1
-27.502331 31.068618 -9.252371 42.511687 -0.846211 1.790195 0.125203 -0.023520 -138029.000000 0 0 1
35.834879 -24.509382 33.430262 54.794442 -0.599875 0.914606 0.039770 -0.008321 -54325.000000 0 0 1
35.157659 -23.272882 33.553460 53.884346 -0.584735 0.898615 0.043042 -0.014181 304949.000000 0 0 1
34.118249 -23.307982 -33.258971 53.042211 -0.599330 2.248529 0.034090 -0.015951 319906.000000 0 0 1
33.586589 -21.936182 -32.808411 51.823227 -0.578568 2.256326 0.031685 -0.014817 118360.000000 0 0 1
33.124209 -21.187482 33.875363 51.900509 -0.569056 0.859656 0.020958 -0.013194 136553.000000 0 0 1
32.657169 -19.867882 -33.498881 50.827143 -0.546557 2.290384 0.021000 -0.004630 231036.000000 0 0 1
32.381549 -19.034782 33.007902 50.004093 -0.531421 0.849839 0.024208 -0.014648 124469.000000 0 0 1
33.597529 -18.813182 32.318351 50.271320 -0.510456 0.872546 0.042369 -0.022615 158703.000000 0 0 1
33.348159 -18.410682 30.975083 49.096932 -0.504435 0.888088 0.045239 -0.014916 7008.170000 0 0 1
34.608519 -18.449082 30.063883 49.416144 -0.489759 0.916776 0.045161 -0.016529 -221747.000000 0 0 1
35.391119 -17.342182 30.335863 49.734769 -0.455628 0.914795 0.051451 -0.024674 -157701.000000 0 0 1
36.622379 -17.396082 29.632843 50.218799 -0.443458 0.939645 0.064984 -0.026166 198417.000000 0 0 1
-37.344521 -16.090582 29.830003 50.431628 0.406831 0.937886 0.068511 -0.032834 248567.000000 0 0 1
-35.976291 -16.382182 29.618863 49.395814 0.427303 0.927766 0.067647 -0.021899 3727.430000 0 0 1
-35.109811 -15.275482 29.764793 48.497238 0.410375 0.910005 0.068543 -0.030149 709648.000000 0 0 1
-33.683321 -15.776382 30.190313 47.905275 0.438028 0.888975 0.074271 -0.037080 -74127.600000 0 0 1
-32.825261 -14.723882 30.422063 47.114673 0.421650 0.868853 0.079526 -0.034458 -264710.000000 0 0 1
-31.597851 -15.272282 30.896273 46.757315 0.450225 0.848940 0.089784 -0.041030 -125324.000000 0 0 1
-30.675521 -14.231382 31.503793 46.216975 0.434380 0.820781 0.097842 -0.045760 -250875.000000 0 0 1
-31.086851 -13.615982 32.715088 47.138776 0.412828 0.803743 0.103969 -0.045206 198451.000000 0 0 1
-29.975671 -12.904082 33.221341 46.569450 0.406507 0.776498 0.100956 -0.047746 188483.000000 0 0 1
-30.233641 -12.358782 -33.157861 46.543058 0.388049 2.363726 0.085724 -0.030574 -148966.000000 0 0 1
-30.313071 -13.250482 -32.085051 46.085876 0.412092 2.340888 0.104104 -0.026057 212467.000000 0 0 1
-30.433661 -12.539582 -30.871941 45.127880 0.390834 2.324164 0.098762 -0.017005 -367148.000000 0 0 1
-30.582441 -13.444082 -29.683501 44.689364 0.414173 2.297244 0.095680 -0.013482 -331997.000000 0 0 1
-31.813151 -14.100982 -29.642221 45.711875 0.417221 2.276353 0.084374 -0.014353 -428079.000000 0 0 1
-32.038191 -14.795682 -28.428411 45.315918 0.432635 2.248927 0.084427 -0.008808 499928.000000 0 0 1
-33.340161 -15.650982 -28.504051 46.572529 0.438897 2.229428 0.072684 -0.014478 3019.110000 0 0 1
-33.241251 -16.809082 -29.343341 47.418959 0.468173 2.238024 0.067880 -0.010934 -92827.500000 0 0 1
-34.362880 -17.659482 -29.321641 48.501788 0.474715 2.219994 0.057229 -0.008137 -280596.000000 0 0 1
-34.049094 -19.055882 -29.984601 49.209183 0.510229 2.226011 0.050006 -0.001723 702480.000000 0 0 1
-35.237501 -19.861882 -30.030671 50.378736 0.513268 2.209429 0.026021 -0.002962 578424.000000 0 0 1
-34.855083 -21.170982 -30.460451 50.901143 0.545843 2.212329 0.017162 0.000145 320985.000000 0 0 1
-35.999135 -22.172882 -30.834481 52.329147 0.552049 2.200915 0.019213 0.002825 524713.000000 0 0 1
-36.743371 -22.557482 -29.642231 52.321861 0.550592 2.173093 0.032800 -0.004991 926460.000000 0 0 1
37.062859 -23.597182 -29.888971 53.139751 -0.566954 2.168154 0.057207 -0.007617 704353.000000 0 0 1
-37.221041 -25.006152 -30.133361 54.025299 0.591568 2.162486 0.051386 -0.007991 -133263.000000 0 0 1
-36.907441 -25.156732 -31.553101 54.686548 0.598281 2.185824 0.054521 -0.005870 -414760.000000 0 0 1
-36.002951 -26.222572 -31.542751 54.578209 0.629497 2.186994 0.051419 -0.010955 -227133.000000 0 0 1
-36.203361 -27.114162 -32.887031 55.923322 0.642823 2.199471 0.052724 -0.019046 1141910.000000 0 0 1
37.230959 -27.557592 -32.970051 56.855866 -0.637186 2.189388 0.071177 -0.022138 596831.000000 0 0 1
37.066109 -28.715422 -33.753951 57.773706 -0.659128 2.194745 0.052422 -0.025112 230633.000000 0 0 1
-37.163621 -30.103012 -33.270351 58.260126 0.680817 2.178600 0.060023 -0.031723 -75348.500000 0 0 1
37.128629 -30.538972 -32.045141 57.775903 -0.688322 2.158733 0.076929 -0.040014 192662.000000 0 0 1
-36.800481 -31.522842 -31.501511 57.795416 0.708306 2.147248 0.068987 -0.042659 85987.600000 0 0 1
-37.330721 -32.125592 -30.198911 57.772057 0.710597 2.120841 0.060587 -0.041238 347244.000000 0 0 1
36.387659 -33.035832 -30.350801 57.763302 -0.737155 2.124021 0.070136 -0.038073 504051.000000 0 0 1
35.693169 -33.236352 -29.143321 56.815408 -0.749771 2.109411 0.064834 -0.035833 216930.000000 0 0 1
34.390259 33.689956 -29.257601 56.335693 0.775112 2.116879 0.081850 -0.039641 1118700.000000 0 0 1
33.202149 -33.400122 -29.744331 55.701671 -0.788371 2.134113 0.090835 -0.041915 1051540.000000 0 0 1
32.030669 33.674446 -29.306611 54.943694 0.810410 2.133404 0.079924 -0.033477 802083.000000 0 0 1
30.728689 -33.757262 -30.084581 54.670715 -0.832329 2.153504 0.050304 -0.028704 276965.000000 0 0 1
30.778679 33.382650 -31.354421 55.179961 0.825961 2.175139 0.060524 -0.023927 -107457.000000 0 0 1
29.712139 33.822635 -32.171101 55.333187 0.850005 2.191253 0.048398 -0.002649 -328510.000000 0 0 1
29.509439 32.995466 -33.434071 55.473822 0.841112 2.217677 0.040830 -0.011648 -287497.000000 0 0 1
29.042739 31.688145 -33.165601 54.291586 0.828930 2.227967 0.026733 -0.009511 61112.600000 0 0 1
28.752339 31.029355 33.409186 53.904467 0.823469 0.902327 0.035177 -0.013773 -2228.920000 0 0 1
28.633939 29.521055 33.700330 53.170550 0.800651 0.884320 0.051032 -0.031505 -94220.100000 0 0 1
29.873449 28.882465 -33.874671 53.610755 0.768534 2.254751 0.055437 -0.028156 -99541.300000 0 0 1
29.638039 27.665735 -33.181441 52.390975 0.750993 2.256661 0.068943 -0.042929 -363080.000000 0 0 1
30.906629 26.821405 -33.104491 52.635680 0.714749 2.250981 0.085185 -0.037292 129257.000000 0 0 1
31.911189 27.411785 -32.283211 53.027688 0.709697 2.225342 0.090574 -0.030046 41379.500000 0 0 1
33.074089 26.589775 -32.309131 53.336586 0.677142 2.221516 0.097572 -0.023436 733200.000000 0 0 1
33.965049 26.804655 -31.010431 53.233081 0.668111 2.192647 0.105930 -0.023892 607858.000000 0 0 1
34.845739 27.902725 -30.819861 54.246211 0.675198 2.175050 0.099728 -0.022400 433016.000000 0 0 1
34.192099 29.141215 -30.908611 54.531205 0.705816 2.173420 0.120508 -0.030901 247462.000000 0 0 1
33.204419 29.608225 -29.787941 53.539722 0.728208 2.160808 0.127442 -0.025503 770624.000000 0 0 1
33.869799 29.773135 -28.526431 53.360661 0.721117 2.134827 0.114105 -0.031244 573612.000000 0 0 1
32.895639 30.145405 -27.553131 52.440858 0.741800 2.123997 0.093279 -0.026847 134484.000000 0 0 1
33.522029 30.419515 -26.184531 52.294388 0.736915 2.095220 0.098436 -0.035337 -47536.500000 0 0 1
34.207409 31.659185 -26.117211 53.428078 0.746730 2.081544 0.089963 -0.042826 51664.000000 0 0 1
34.744499 31.878847 -24.840371 53.296202 0.742412 2.055653 0.069314 -0.049831 -619214.000000 0 0 1
34.986989 33.390644 -24.617171 54.268127 0.762056 2.041621 0.082757 -0.044873 469424.000000 0 0 1
33.699449 -33.759302 -24.710571 53.721092 -0.786285 2.048768 0.080002 -0.035572 715280.000000 0 0 1
33.832009 -32.276332 -24.715771 52.888901 -0.761870 2.057048 0.059280 -0.026206 -783524.000000 0 0 1
34.280219 -31.607062 -26.043711 53.408002 -0.744849 2.080177 0.058917 -0.021078 -310732.000000 0 0 1
35.604469 -31.702782 -26.483911 54.535696 -0.727495 2.077875 0.067132 -0.024022 -592678.000000 0 0 1
36.509509 -30.903522 -25.781521 54.338373 -0.702430 2.065150 0.065453 -0.027234 723196.000000 0 0 1
-36.785741 -31.364012 -26.023831 54.901109 0.706009 2.064639 0.054567 -0.028571 1225540.000000 0 0 1
-36.402071 -32.668462 -25.551391 55.183446 0.731396 2.052203 0.049016 -0.031505 -97203.100000 0 0 1
-36.383101 -32.953502 -24.159971 54.711676 0.735975 2.028163 0.049143 -0.027159 -452209.000000 0 0 1
-35.286570 -32.347022 -23.254371 53.218771 0.741963 2.023010 0.039795 -0.027779 70826.900000 0 0 1
-35.411468 -30.949732 -23.306471 52.488566 0.718265 2.030887 -0.004970 -0.019005 439600.000000 0 0 1
-34.478600 -30.284322 -22.393071 51.062350 0.720725 2.024774 0.043159 -0.027655 481267.000000 0 0 1
-34.286089 -28.765442 -22.597071 50.135957 0.698063 2.038363 0.051683 -0.015339 -579228.000000 0 0 1
-35.447396 -28.013022 -22.555971 50.497714 0.668780 2.033840 0.030121 0.004530 -698057.000000 0 0 1
-35.953908 -27.779532 -23.885871 51.331479 0.657836 2.054799 0.044256 -0.008592 799428.000000 0 0 1
-37.189631 -26.802142 -23.982171 51.735558 0.624476 2.052797 0.041346 -0.009490 769967.000000 0 0 1
-36.819071 -25.509592 -23.536171 50.599749 0.605902 2.054594 0.033739 0.005141 -319466.000000 0 0 1
37.320029 -24.531182 -24.267871 50.828073 -0.581504 2.068547 0.036454 0.009003 -504813.000000 0 0 1
-36.944851 -23.951182 -25.561251 50.911282 0.575176 2.096792 0.051570 -0.005133 -468440.000000 0 0 1
-35.855102 -23.085282 -25.338221 49.603871 0.572039 2.106925 0.033472 -0.001895 -236036.000000 0 0 1
-35.740452 -22.364082 -26.572871 49.836227 0.559128 2.133180 0.030777 -0.016087 -159512.000000 0 0 1
-34.409138 -21.603682 -26.624951 48.575671 0.560644 2.150903 0.029960 -0.015322 -362285.000000 0 0 1
-34.309564 -20.515882 -25.729991 47.540299 0.538921 2.142689 0.047787 -0.011451 88938.000000 0 0 1
-35.256842 -19.468482 -25.982191 47.928498 0.504523 2.143734 0.045052 -0.008401 261804.000000 0 0 1
-36.354161 -19.385982 -24.871671 48.125267 0.489895 2.113918 0.057814 -0.015734 126631.000000 0 0 1
-35.981850 -19.109982 -23.497171 47.031925 0.488217 2.093934 0.055038 -0.027888 -381158.000000 0 0 1
-35.358023 -20.154382 -22.762771 46.631884 0.518075 2.080751 0.029588 -0.023536 -182794.000000 0 0 1
-36.178031 -21.410682 -22.426471 47.646761 0.534379 2.060860 0.054568 -0.013840 -136998.000000 0 0 1
-37.254451 -21.112582 -21.568571 47.946204 0.515584 2.037393 0.045196 -0.013385 -873361.000000 0 0 1
36.776609 -22.232582 -21.427571 48.020282 -0.543744 2.033332 0.038698 -0.000094 -246870.000000 0 0 1
35.664909 -22.040082 -20.353771 46.605010 -0.553533 2.022756 0.028357 -0.000101 41507.400000 0 0 1
34.609969 -21.181782 -20.733071 45.567292 -0.549206 2.043167 0.055264 0.000331 -594335.000000 0 0 1
33.629799 -21.272082 -19.741471 44.420610 -0.564001 2.031325 0.063062 -0.003196 2817.350000 0 0 1
32.255499 -20.741382 -20.247071 43.365494 -0.571463 2.056571 0.062444 -0.005528 -224148.000000 0 0 1
31.666489 -21.654982 -21.181771 43.822052 -0.599801 2.075284 0.064675 -0.004305 1352220.000000 0 0 1
30.417839 -21.248682 -21.815371 43.042559 -0.609759 2.102303 0.098946 -0.016131 1063160.000000 0 0 1
30.439429 -19.903382 -22.637571 42.838804 -0.579090 2.127554 0.089087 -0.018752 -461812.000000 0 0 1
30.781999 -18.747382 -21.883471 42.164939 -0.547038 2.116473 0.089530 -0.018417 5399.140000 0 0 1
30.489149 -17.591882 -22.615571 41.839295 -0.523327 2.141868 0.084879 -0.016456 -35751.300000 0 0 1
31.118559 -16.418482 -21.889071 41.437455 -0.485491 2.127327 0.056731 -0.018616 131611.000000 0 0 1
30.434929 -16.098382 -20.650171 40.148131 -0.486534 2.111045 0.045795 -0.022625 315283.000000 0 0 1
31.266679 -15.369982 -19.818871 40.082780 -0.456887 2.087997 0.025342 -0.025204 -682492.000000 0 0 1
32.298899 -16.110182 -18.984871 40.782131 -0.462675 2.055018 0.046986 -0.024421 484868.000000 0 0 1
33.439819 -16.466882 -19.815971 42.214363 -0.457576 2.059422 0.033172 -0.022150 940785.000000 0 0 1
34.394149 -17.199182 -19.022171 42.902358 -0.463697 2.030166 0.037818 -0.019727 -296654.000000 0 0 1
35.658859 -17.608282 -19.737971 44.398123 -0.458674 2.031488 0.038853 -0.029178 -342162.000000 0 0 1
36.479019 -16.455482 -20.041871 44.756880 -0.423764 2.035093 0.042091 -0.034808 57339.800000 0 0 1
-37.335451 -16.891182 -20.931971 46.015164 0.424862 2.043048 0.049918 -0.032363 -472419.000000 0 0 1
-36.414841 -15.785482 -21.447271 45.113274 0.409040 2.066226 0.068312 -0.037354 -28526.700000 0 0 1
-35.300758 -15.384582 -20.673671 43.706173 0.410995 2.063506 0.090820 -0.036556 -303890.000000 0 0 1
-34.688801 -14.198482 -21.128271 43.026894 0.388507 2.084089 0.103966 -0.034220 -814625.000000 0 0 1
-33.364821 -14.009382 -20.389171 41.535435 0.397530 2.083903 0.118061 -0.041179 -248326.000000 0 0 1
-32.345951 -14.963682 -20.692071 41.210849 0.433294 2.096825 0.124966 -0.047250 411393.000000 0 0 1
-32.548041 -16.254382 -20.070371 41.549966 0.463165 2.074922 0.102226 -0.046746 -1048910.000000 0 0 1
-31.423431 -17.237782 -20.390771 41.235381 0.501741 2.088052 0.084680 -0.053649 -201586.000000 0 0 1
-31.612001 -18.483882 -19.816071 41.637113 0.529102 2.066810 0.092976 -0.054463 489178.000000 0 0 1
-30.498791 -19.346782 -20.064671 41.316646 0.565292 2.077882 0.102013 -0.054914 296150.000000 0 0 1
-30.828301 -20.764682 -19.594471 42.017847 0.592759 2.055942 0.086136 -0.018608 -362023.000000 0 0 1
-31.832851 -21.382482 -20.356371 43.415697 0.591487 2.058809 0.068620 -0.022295 -52223.300000 0 0 1
-32.131391 -22.582882 -19.750271 43.960050 0.612622 2.036753 0.068208 -0.001971 -223731.000000 0 0 1
-33.192231 -23.272482 -20.625171 45.483297 0.611492 2.041448 0.041639 -0.004183 -159985.000000 0 0 1
-32.708861 -23.701082 -21.894171 45.945245 0.627051 2.067497 0.043865 -0.016940 271406.000000 0 0 1
-33.635911 -24.598982 -22.467671 47.342166 0.631445 2.065284 0.037430 -0.010888 74025.500000 0 0 1
-33.229311 -24.991332 -23.928671 47.972232 0.644835 2.093013 0.037997 -0.008239 98142.000000 0 0 1
-31.979211 -25.625382 -24.079471 47.530528 0.675542 2.102045 0.038654 -0.017972 -195360.000000 0 0 1
-31.798371 -25.979202 -25.405921 48.285776 0.685020 2.124872 0.038514 -0.016394 682638.000000 0 0 1
-30.297011 -26.191702 -25.807411 47.643851 0.712851 2.143223 0.049370 -0.022843 913517.000000 0 0 1
-29.551531 -25.021542 -26.096611 46.694792 0.702580 2.163826 0.055973 -0.021190 42193.200000 0 0 1
-28.147661 -25.152522 -26.046361 45.862328 0.729263 2.174779 0.043888 -0.012769 786897.000000 0 0 1
-27.350171 -23.820482 -26.377541 44.846648 0.716528 2.199593 0.056765 -0.011869 395202.000000 0 0 1
-27.197481 -23.597382 -27.764031 45.468459 0.714641 2.227642 0.065342 -0.013874 404882.000000 0 0 1
-26.194501 -22.584682 -27.930531 44.455981 0.711530 2.250129 0.079929 -0.008354 423415.000000 0 0 1
-25.846301 -22.020782 -29.296911 44.847019 0.705648 2.282683 0.073001 -0.006054 176959.000000 0 0 1
-25.225031 -22.885682 -30.275041 45.570108 0.736812 2.297436 0.077360 -0.015476 366543.000000 0 0 1
-25.273661 -22.296782 -31.540641 46.159684 0.722901 2.323061 0.083070 -0.010272 -78821.300000 0 0 1
-24.931711 -23.292882 -32.647431 47.222911 0.751428 2.334148 0.082940 -0.012572 213957.000000 0 0 1
-26.001371 -24.143682 -33.028071 48.475170 0.748369 2.320388 0.043169 -0.007799 115367.000000 0 0 1
-25.516851 -25.145742 33.853613 49.289808 0.778073 0.813681 0.079604 -0.010581 357987.000000 0 0 1
-20.205411 -14.906282 -11.601171 27.659411 0.635607 2.003613 0.056266 -0.001521 15506.300000 0 0 1
-20.400611 -14.027582 -10.507771 26.895562 0.602359 1.972175 0.061792 -0.005282 327339.000000 0 0 1
-19.590511 -14.476782 -9.423971 26.118510 0.636404 1.939939 0.052237 -0.012930 223609.000000 0 0 1
-20.147611 -13.851882 -8.107271 25.759051 0.602301 1.890974 0.088620 -0.032513 234036.000000 0 0 1
-21.336011 -14.404782 -7.580871 26.836406 0.593845 1.857180 0.111282 -0.030896 125579.000000 0 0 1
-21.670211 -13.911782 -6.294171 26.509476 0.570715 1.810517 0.112223 -0.035723 -325473.000000 0 0 1
-22.924211 -14.587682 -5.752771 27.774346 0.566715 1.779432 0.109593 -0.032983 -502890.000000 0 0 1
-22.705711 -15.905582 -5.269471 28.218862 0.611068 1.758635 0.085926 -0.030715 295861.000000 0 0 1
-22.211511 -15.902182 -3.925971 27.597896 0.621346 1.713537 0.096333 -0.034429 -110561.000000 0 0 1
-21.984511 -17.320282 -3.452271 28.199806 0.667282 1.693526 0.065725 -0.018906 740492.000000 0 0 1
-23.218611 -18.050682 -3.342271 29.599017 0.660822 1.683956 0.079247 -0.016769 1009920.000000 0 0 1
-22.984711 -19.072882 -2.326271 29.958026 0.692654 1.648526 0.061227 -0.011417 289205.000000 0 0 1
-24.145411 -20.100082 -2.245771 31.496947 0.694222 1.642158 0.077818 -0.025764 102180.000000 0 0 1
-24.034211 -21.129782 -3.245771 32.165914 0.721178 1.671876 0.071896 -0.031224 73140.200000 0 0 1
-25.099951 -22.055182 -3.118071 33.558322 0.720918 1.663846 0.082210 -0.030944 146778.000000 0 0 1
-24.899011 -23.287782 -4.081171 34.335659 0.751973 1.689939 0.069107 -0.030590 -345384.000000 0 0 1
-23.745911 -24.068582 -3.817271 34.025527 0.792146 1.683221 0.075349 -0.024488 -272004.000000 0 0 1
-23.433811 -24.960882 -4.881071 34.583435 0.816942 1.712408 0.074308 -0.025723 1110640.000000 0 0 1
-22.021511 -24.672282 -5.560271 33.534834 0.842107 1.737371 0.054159 -0.012772 890505.000000 0 0 1
-21.838111 -23.473082 -6.310371 32.675824 0.821466 1.765138 0.032041 -0.004460 -26110.500000 0 0 1
-21.840611 -22.337182 -5.455371 31.713137 0.796638 1.743679 0.029192 -0.010324 -968215.000000 0 0 1
-21.937811 -20.998382 -6.154971 30.985210 0.763522 1.770769 0.033907 0.001113 -468746.000000 0 0 1
-20.716511 -20.508282 -6.609771 29.890676 0.780347 1.793771 0.018443 0.009368 -397699.000000 0 0 1
-20.865411 -19.134482 -6.974871 29.157205 0.742152 1.812355 0.011979 0.007872 292261.000000 0 0 1
-19.795611 -18.468882 -7.909471 28.205062 0.750739 1.855036 0.023564 0.008789 128949.000000 0 0 1
-19.752611 -19.184882 -9.138271 29.012641 0.770819 1.891227 0.010014 0.002556 -57767.800000 0 0 1
-18.462811 -19.316182 -9.699471 28.426572 0.807983 1.919002 0.059770 0.004099 -57862.100000 0 0 1
-18.125811 -18.028382 -10.535871 27.650898 0.782703 1.961708 0.072533 0.004857 -238929.000000 0 0 1
-17.632011 -16.851582 -9.890271 26.318835 0.762770 1.956042 0.093411 -0.010225 888130.000000 0 0 1
-16.284011 -16.962182 -9.394071 25.320608 0.805794 1.950887 0.120946 -0.013570 485216.000000 0 0 1
-15.952311 -15.871282 -8.382571 24.013357 0.782852 1.927385 0.110094 -0.019487 -207747.000000 0 1 0
-16.526311 -16.119082 -7.132671 24.162342 0.772925 1.870459 0.083077 -0.016669 131691.000000 0 1 0
-16.578411 -14.964782 -6.303671 23.206134 0.734287 1.845891 0.093382 -0.021085 268866.000000 0 1 0
-17.372211 -15.225382 -4.962971 23.627041 0.719635 1.782427 0.097961 -0.019353 163199.000000 0 1 0
-17.912911 -14.051682 -4.449271 23.197374 0.665184 1.763793 0.109599 -0.019594 68231.100000 0 1 0
-18.460911 -14.274782 -3.178071 23.551534 0.658212 1.706150 0.104956 -0.018967 -31767.300000 0 1 0
-19.234111 -13.006982 -2.692471 23.374816 0.594605 1.686239 0.109542 -0.019996 -22659.600000 0 1 0
-20.516811 -12.824482 -3.264071 24.414361 0.558651 1.704893 0.137461 -0.037279 210625.000000 0 1 0
-21.100311 -11.752082 -2.619671 24.293975 0.508173 1.678839 0.137849 -0.025885 -497248.000000 0 1 0
-22.635711 -11.768082 -2.694371 25.653904 0.479433 1.676018 0.123563 -0.025824 -230636.000000 0 0 1
-23.193311 -11.323882 -3.887971 26.101270 0.454195 1.720310 0.138514 -0.042813 154757.000000 0 0 1
-24.591011 -11.497182 -3.982871 27.436586 0.437341 1.716477 0.125337 -0.031076 358065.000000 0 0 1
-25.312811 -10.785782 -5.200471 28.002078 0.402802 1.757598 0.145144 -0.042889 263150.000000 0 0 1
-24.759811 -11.212982 -6.417671 27.927866 0.425238 1.802663 0.131702 -0.044219 101500.000000 0 0 1
-25.271391 -10.553582 -7.535771 28.404386 0.395595 1.839315 0.150027 -0.043549 -508081.000000 0 0 1
-24.677011 -11.122082 -8.833271 28.472482 0.423441 1.886241 0.167364 -0.049558 -36641.000000 0 0 1
-23.366511 -10.613082 -8.958071 27.182317 0.426342 1.906629 0.162002 -0.047737 50204.300000 0 0 1
-22.730611 -11.130982 -10.128671 27.261134 0.455367 1.951466 0.121434 -0.034509 -86425.900000 0 0 1
-21.254711 -10.677282 -10.095871 25.839770 0.465525 1.972200 0.124374 -0.037553 -418245.000000 0 0 1
-21.141711 -9.301982 -10.459271 25.355377 0.414492 1.996001 0.122185 -0.045615 189469.000000 0 0 1
-19.994211 -8.691282 -9.931071 23.956899 0.410049 1.998233 0.125996 -0.037404 -385218.000000 0 1 0
-19.762211 -7.204482 -10.389071 23.460229 0.349585 2.029557 0.106669 -0.043259 -207646.000000 0 1 0
-19.295311 -7.163882 -11.719571 23.684986 0.355502 2.088413 0.112491 -0.039854 470773.000000 0 1 0
-19.510311 -5.957382 -12.381871 23.863222 0.296354 2.116323 0.125605 -0.050239 -245776.000000 0 1 0
-18.984111 -5.907382 -13.851571 24.231377 0.301677 2.179297 0.155674 -0.036197 -282348.000000 0 1 0
-19.790111 -6.673482 -14.675271 25.525427 0.325238 2.183312 0.149928 -0.045716 119363.000000 0 0 1
-19.281111 -6.631382 -16.001571 25.918849 0.331258 2.236194 0.144381 -0.048991 -129041.000000 0 0 1
-19.981711 -7.589682 -16.983171 27.300185 0.363000 2.242206 0.117717 -0.046094 -641649.000000 0 0 1
-21.242711 -7.189182 -17.442571 28.410920 0.326331 2.231837 0.107223 -0.045129 -136095.000000 0 0 1
-21.486411 -8.021882 -18.567571 29.508831 0.357320 2.251347 0.099861 -0.044413 1229730.000000 0 0 1
-22.887311 -7.678082 -19.271371 30.889604 0.323675 2.244492 0.093567 -0.038525 378911.000000 0 0 1
-22.939711 -6.381182 -19.894271 31.027920 0.271313 2.266822 0.091701 -0.039280 -152806.000000 0 0 1
-24.105011 -6.229882 -20.657871 32.351362 0.252913 2.263405 0.073347 -0.035684 1430190.000000 0 0 1
-25.425821 -6.021282 -19.742171 32.748763 0.232534 2.217849 0.110045 -0.032373 680837.000000 0 0 1
-25.384541 -4.807282 -19.031971 32.088951 0.187162 2.205701 0.103771 -0.027051 -625439.000000 0 0 1
-26.561331 -4.785282 -18.314771 32.616469 0.178248 2.167017 0.127116 -0.019558 -795961.000000 0 0 1
-26.929771 -3.432782 -17.672471 32.393097 0.126788 2.147857 0.121101 -0.019065 83900.000000 0 0 1
-27.261491 -2.346282 -18.545271 33.054818 0.085854 2.166445 0.119053 -0.012070 422239.000000 0 0 1
-28.539991 -2.358482 -19.171271 34.462024 0.082450 2.160725 0.138242 -0.005802 287952.000000 0 0 1
-28.900551 -1.050782 -20.002371 35.163060 0.036343 2.175899 0.131882 -0.004359 -132072.000000 0 0 1
-28.086791 -0.788782 -21.101571 35.139241 0.028076 2.214939 0.111388 0.000373 -59507.000000 0 0 1
-28.614321 -1.452582 -22.245171 36.273089 0.050721 2.230989 0.120900 0.006859 -198998.000000 0 0 1
-27.754371 -1.310082 -23.508571 36.396075 0.047168 2.273010 0.120618 0.003693 -780858.000000 0 0 1
-27.915931 -0.124582 -24.318471 37.023003 0.004463 2.287427 0.113149 0.005823 134382.000000 0 0 1
-27.329011 1.074018 -23.827871 36.273899 -0.039279 2.287480 0.076525 0.012759 1164640.000000 0 0 1
-25.774081 1.022618 -23.507171 34.898941 -0.039655 2.309836 0.067933 0.006835 1021930.000000 0 0 1
-24.992111 0.836818 -24.689071 35.140519 -0.033471 2.349815 0.056406 0.013260 223545.000000 0 0 1
-23.615611 0.624318 -24.430071 33.984043 -0.026430 2.372970 0.051996 0.012571 -37295.000000 0 0 1
-22.776411 0.250218 -25.632681 34.290841 -0.010985 2.415099 0.044330 0.007244 -344731.000000 0 0 1
-22.739611 1.223118 -26.636561 35.044147 -0.053736 2.434242 0.024179 0.015650 261573.000000 0 0 1
-22.162711 0.722718 -27.864001 35.610541 -0.032598 2.469411 0.015306 0.013714 115898.000000 0 0 1
-21.978211 1.831718 -28.912371 36.363747 -0.083150 2.489949 0.015956 0.020892 69584.300000 0 0 1
-21.112511 2.977218 -28.680961 35.737927 -0.140093 2.502330 0.025904 0.022095 809596.000000 0 0 1
-20.956411 3.820218 -29.844781 36.667099 -0.180314 2.521697 0.028612 0.011799 -51164.500000 0 0 1
-20.240911 3.168818 -31.086601 37.230533 -0.155295 2.558885 0.023363 0.010979 -757545.000000 0 0 1
-18.887311 2.949318 -30.849491 36.292149 -0.154902 2.586843 0.009816 0.012436 -564208.000000 0 0 1
-18.284911 2.388918 -31.988161 36.922721 -0.129914 2.618652 0.002635 0.007693 -463290.000000 0 0 1
-16.764811 2.330218 -32.047881 36.243005 -0.138110 2.655682 0.010690 0.000638 -657901.000000 0 0 1
-16.082811 3.542718 -32.203751 36.170281 -0.216817 2.668882 0.027167 0.003026 -642391.000000 0 0 1
-14.729311 3.239718 -32.336631 35.680612 -0.216503 2.705195 0.027884 -0.001632 -644757.000000 0 0 1
-13.823511 4.403718 -32.757031 35.826041 -0.308403 2.724661 0.053327 0.001056 -378831.000000 0 0 1
-13.822811 5.441918 -31.739061 35.043580 -0.375056 2.703830 0.075305 -0.016765 -19121.300000 0 0 1
-13.394211 6.672718 -32.310541 35.607599 -0.462190 2.707866 0.108206 -0.011127 -303806.000000 0 0 1
-13.002911 7.735118 -31.233861 34.705357 -0.536643 2.690502 0.105868 -0.016507 405142.000000 0 0 1
-11.836711 7.489618 -30.437091 33.505501 -0.564149 2.710287 0.133920 -0.036112 602250.000000 0 0 1
-11.950011 6.361218 -29.613541 32.561168 -0.489167 2.712814 0.118869 -0.039632 430770.000000 0 0 1
-10.560911 5.623118 -29.437971 31.776507 -0.489266 2.755551 0.125800 -0.048295 776185.000000 0 0 1
-10.066211 4.788218 -30.482361 32.456585 -0.443997 2.791012 0.110946 -0.048244 682749.000000 0 0 1
-10.848411 3.556218 -30.628161 32.686678 -0.316771 2.784802 0.117613 -0.046835 196807.000000 0 0 1
-10.401911 2.679918 -31.781151 33.547328 -0.252153 2.815660 0.097641 -0.043114 -375552.000000 0 0 1
-11.268611 1.593318 -31.983791 33.948242 -0.140463 2.799736 0.097071 -0.036439 238296.000000 0 0 1
-10.968811 0.844218 -33.178441 34.954777 -0.076814 2.821422 0.081975 -0.027935 -248045.000000 0 0 1
-11.538711 1.521018 33.316066 35.290446 -0.131063 0.336084 0.083643 -0.022869 1200940.000000 0 0 1
-12.974611 1.416618 33.189034 35.663137 -0.108753 0.374677 0.030925 -0.012198 935132.000000 0 0 1
-13.405411 1.519918 31.844468 34.584467 -0.112899 0.400737 0.033026 -0.008380 -580839.000000 0 0 1
-14.873211 1.353318 31.494033 34.855674 -0.090740 0.442800 0.044471 -0.000225 -763542.000000 0 0 1
-15.621511 2.520318 31.717923 35.445878 -0.159958 0.462753 0.046133 0.006714 307325.000000 0 0 1
-16.910911 2.310118 31.128223 35.500448 -0.135765 0.501546 0.042256 0.002593 331065.000000 0 0 1
-17.610211 3.659518 30.853133 35.713127 -0.204890 0.527803 0.044106 -0.002711 -270407.000000 0 0 1
-18.104911 4.363018 31.998565 37.023396 -0.236476 0.527080 0.040522 0.000219 467193.000000 0 0 1
-17.134211 5.264918 32.538346 37.148950 -0.298118 0.503522 0.052432 0.007057 -62737.200000 0 0 1
-17.500111 5.946018 -33.871231 38.585869 -0.327533 2.642076 0.049702 0.009281 366025.000000 0 0 1
-18.742511 6.653018 33.877643 39.284081 -0.341095 0.530852 0.055543 0.000518 295936.000000 0 0 1
-19.721911 5.934718 -33.169271 39.043247 -0.292301 2.585932 0.036567 0.004472 -14911.600000 0 0 1
-21.169411 6.464018 -33.263711 39.954999 -0.296355 2.554454 0.029465 0.002824 89797.800000 0 0 1
-21.348711 7.684318 -32.613981 39.730189 -0.345505 2.533758 0.042344 -0.005773 105251.000000 0 0 1
-21.207611 8.791918 -33.544811 40.648676 -0.392998 2.541419 0.053308 -0.002937 -248209.000000 0 0 1
-21.372611 10.152118 -32.871501 40.501723 -0.443453 2.517695 0.058325 -0.006053 -628257.000000 0 0 1
-20.416811 10.387018 -31.851291 39.233162 -0.470622 2.518103 0.061532 -0.008201 304120.000000 0 0 1
-20.087011 11.802518 -31.661821 39.309774 -0.531229 2.507221 0.066187 -0.010172 376252.000000 0 0 1
-19.228511 12.501018 -32.761211 39.991349 -0.576466 2.530824 0.070905 -0.023989 -188105.000000 0 0 1
-19.959011 12.434618 33.808373 41.182374 -0.557165 0.607736 0.092756 -0.030822 162643.000000 0 0 1
-19.169611 12.725418 32.692860 39.977910 -0.586038 0.613265 0.084561 -0.033247 319406.000000 0 0 1
-19.886911 12.289018 31.297263 39.064406 -0.553510 0.641547 0.096040 -0.031939 318660.000000 0 0 1
-20.111811 10.880318 31.116173 38.614537 -0.495901 0.633746 0.081865 -0.020713 1368570.000000 0 0 1
-18.864911 10.134518 30.972143 37.654574 -0.492975 0.604945 0.079875 -0.024376 1227300.000000 0 0 1
-19.098611 8.589418 31.014873 37.422685 -0.422638 0.593887 0.098998 -0.018203 -8399.910000 0 0 1
-19.720211 8.056018 29.873183 36.690505 -0.387826 0.619457 0.091458 -0.022042 93680.300000 0 0 1
-19.823411 6.634718 29.992173 36.558413 -0.322972 0.608703 0.078617 -0.017912 -141638.000000 0 0 1
-20.428611 5.895918 28.795893 35.795159 -0.280976 0.636025 0.069250 -0.018977 -1111130.000000 0 0 1
-21.782311 5.954118 28.578873 36.423517 -0.266828 0.668702 0.082629 -0.029698 -1072940.000000 0 0 1
-22.238311 4.990718 27.599473 35.793584 -0.220762 0.690271 0.075449 -0.030999 -182033.000000 0 0 1
-23.750011 5.019718 27.360473 36.576715 -0.208291 0.725708 0.074270 -0.025219 -451345.000000 0 0 1
-24.088711 5.875618 26.261003 36.116882 -0.239244 0.756691 0.077828 -0.032556 1192970.000000 0 0 1
-25.506111 6.153718 26.309013 37.156347 -0.236740 0.784046 0.077577 -0.026007 607794.000000 0 0 1
-26.030501 6.906418 25.074963 36.797274 -0.259345 0.821074 0.073921 -0.022559 -230633.000000 0 0 1
-26.085341 6.203618 23.828323 35.870864 -0.233483 0.844265 0.073482 -0.024192 600886.000000 0 0 1
-26.944601 5.042718 23.768213 36.281792 -0.185011 0.856481 0.068864 -0.022055 91209.400000 0 0 1
-26.991891 4.360718 22.393773 35.342030 -0.160173 0.884560 0.081785 -0.026881 -72422.900000 0 0 1
-27.789511 5.013018 21.428873 35.448326 -0.178473 0.921646 0.074720 -0.016210 59238.800000 0 0 1
-27.950781 4.341518 20.223973 34.772173 -0.154096 0.950085 0.097197 -0.017022 -33138.800000 0 0 1
-28.795591 5.147518 19.199573 34.990093 -0.176892 0.989970 0.110380 -0.016672 1853190.000000 0 0 1
-30.236311 5.127818 19.469573 36.326206 -0.167993 1.005146 0.112942 -0.020187 1907090.000000 0 0 1
-30.988181 5.681318 18.375273 36.471844 -0.181324 1.042780 0.127732 -0.017319 1335650.000000 0 0 1
-32.537671 5.794918 18.681773 37.964322 -0.176251 1.056310 0.136130 -0.016710 1155420.000000 0 0 1
-32.925781 6.846218 19.578673 38.914036 -0.205008 1.043584 0.120252 -0.019987 1169680.000000 0 0 1
-34.164491 6.483618 20.261573 40.246504 -0.187546 1.043224 0.128515 -0.011881 1020470.000000 0 0 1
-34.843989 7.613618 21.063573 41.421550 -0.215125 1.037334 0.121386 -0.023097 127954.000000 0 0 1
-34.317647 7.782018 22.368173 41.696473 -0.222993 1.004569 0.110101 -0.020360 -76507.800000 0 0 1
-34.970839 8.803918 23.069173 42.809523 -0.246625 1.001690 0.118712 -0.016953 100157.000000 0 0 1
0.113689 32.920218 11.847529 34.987392 1.567343 1.225343 0.114970 -0.035314 155590.000000 0 0 1
-0.387311 32.830118 13.215029 35.392141 -1.558999 1.188137 0.105744 -0.029871 144680.000000 0 0 1
-0.503611 -33.644080 13.835429 36.381271 1.555829 1.180687 0.094407 -0.033791 -241313.000000 0 0 1
-0.514011 -33.678280 15.366229 37.021774 1.555535 1.142788 0.081133 -0.023307 1064320.000000 0 0 1
-1.809411 -33.799880 16.030829 37.452548 1.517314 1.128484 0.067865 -0.016964 1056780.000000 0 0 1
-1.696111 -33.566080 17.412029 37.851516 1.520309 1.092791 0.046591 -0.016008 227019.000000 0 0 1
-3.027011 -33.419880 18.200029 38.174497 1.480468 1.073832 0.052106 -0.015493 89584.800000 0 0 1
-3.678011 33.158018 18.565729 38.179421 -1.460324 1.062974 0.058434 -0.014906 -656429.000000 0 0 1
-4.625111 33.496418 19.525829 39.046890 -1.433586 1.047127 0.057462 -0.014905 -388116.000000 0 0 1
-5.642211 32.350818 19.773329 38.332682 -1.398126 1.028815 0.055952 -0.018973 -224041.000000 0 0 1
-6.543811 32.207018 18.706229 37.815823 -1.370345 1.053345 0.054032 -0.019527 39031.500000 0 0 1
-7.741311 31.661918 19.264429 37.861896 -1.331002 1.036997 0.052743 -0.037064 -263356.000000 0 0 1
-8.836111 31.457718 18.248729 37.425673 -1.296964 1.061458 0.030461 -0.033920 -663014.000000 0 0 1
-9.606611 32.629218 17.976529 38.472177 -1.284469 1.084607 0.049106 -0.032260 -102670.000000 0 0 1
-10.333311 32.489818 16.779329 37.998835 -1.262865 1.113443 0.043357 -0.024010 -489327.000000 0 0 1
-11.254611 33.679518 16.508929 39.160196 -1.248295 1.135616 0.074539 -0.037053 -277867.000000 0 0 1
-12.514311 33.590218 17.133029 39.729729 -1.214168 1.124930 0.070443 -0.032371 -516679.000000 0 0 1
-13.183811 -32.982580 16.976729 39.368424 1.190531 1.124944 0.054069 -0.031569 -354413.000000 0 0 1
-14.593411 -32.931980 17.592529 40.087155 1.153663 1.116470 0.085645 -0.036206 41447.400000 0 0 1
-14.577611 -32.853180 18.980429 40.645970 1.153177 1.084936 0.079890 -0.028426 437521.000000 0 0 1
-15.892211 -32.952780 19.533529 41.472965 1.121431 1.080379 0.077955 -0.033636 643675.000000 0 0 1
-15.916911 -32.624580 21.055429 41.964775 1.116891 1.045187 0.080806 -0.035774 -36705.700000 0 0 1
-15.725311 -31.250280 21.308529 40.962407 1.104588 1.023714 0.082076 -0.032647 94044.300000 0 0 1
-15.609011 -31.007280 22.705429 41.480467 1.104434 0.991570 0.064637 -0.025385 86033.900000 0 0 1
-15.442111 -29.493080 22.920229 40.418281 1.088460 0.967845 0.086373 -0.031687 -55502.900000 0 0 1
-15.409111 -29.055980 24.274429 40.877116 1.083184 0.934974 0.086901 -0.040735 -144357.000000 0 0 1
-15.317511 -27.627680 24.336429 39.877019 1.064561 0.914373 0.065118 -0.020551 483480.000000 0 0 1
-16.570211 -26.725380 23.968929 39.538935 1.015788 0.919509 0.086297 -0.020496 1241170.000000 0 0 1
-17.695311 -26.809280 24.863529 40.620889 0.987393 0.912099 0.098479 -0.021679 1120260.000000 0 0 1
-18.790211 -26.016080 24.334929 40.275268 0.945291 0.922016 0.091370 -0.014611 -323243.000000 0 0 1
-19.874411 -25.868180 25.411329 41.350823 0.915688 0.909006 0.096123 -0.013513 11979.900000 0 0 1
-20.719111 -27.008780 25.736729 42.674758 0.916425 0.923427 0.116254 -0.019240 1051720.000000 0 0 1
-21.425711 -27.609680 24.616429 42.747212 0.910848 0.957140 0.102845 -0.019570 -1866790.000000 0 0 1
-22.837911 -27.148180 24.544429 43.139574 0.871415 0.965563 0.069750 -0.008757 -1739190.000000 0 0 1
-23.090611 -25.819380 24.117529 42.207486 0.841132 0.962581 0.088478 -0.011296 -102733.000000 0 0 1
-24.450111 -25.657580 23.807929 42.695864 0.809491 0.979284 0.076625 -0.006988 -113186.000000 0 0 1
-24.943511 -24.257780 23.268729 41.857525 0.771462 0.981347 0.068721 0.004584 38841.600000 0 0 1
-25.134251 -23.320080 24.331229 42.042424 0.747975 0.953625 0.059946 0.000031 149208.000000 0 0 1
-25.667421 -22.048680 23.900229 41.426824 0.709704 0.955836 0.053750 0.008620 83599.600000 0 0 1
-26.351171 -21.344280 25.067829 42.170589 0.680805 0.934229 0.059375 0.006250 -41021.600000 0 0 1
-27.583631 -21.909380 25.460529 43.463964 0.671249 0.944948 0.053829 0.006713 30624.100000 0 0 1
-27.996081 -21.210080 26.602929 44.060911 0.648353 0.922567 0.044776 -0.002437 -666007.000000 0 0 1
-29.114781 -21.935380 27.398029 45.601353 0.645680 0.926275 0.032461 -0.000626 255982.000000 0 0 1
-30.436751 -21.672580 26.949429 46.069168 0.618770 0.945944 0.025263 -0.002338 393421.000000 0 0 1
-30.858681 -22.430780 25.810929 46.060853 0.628544 0.975969 0.016366 0.004610 -10442.300000 0 0 1
-32.407221 -22.347780 25.524829 46.916608 0.603707 0.995544 0.019793 0.003984 1326850.000000 0 0 1
-32.998201 -23.115280 24.420729 47.112307 0.611062 1.025874 0.025234 -0.008621 493834.000000 0 0 1
-32.700541 -24.488080 24.482729 47.627675 0.642770 1.030903 0.012760 -0.001385 -589423.000000 0 0 1
-33.211711 -25.257580 23.190129 47.736204 0.650189 1.063521 0.027730 0.000735 613250.000000 0 0 1
-34.625650 -25.424880 23.086929 48.768499 0.633363 1.077651 0.037479 -0.008554 292307.000000 0 0 1
-34.847216 -25.857480 21.763029 48.544486 0.638377 1.105921 0.061254 -0.006119 -149552.000000 0 0 1
-36.144011 -26.643280 21.529129 49.797161 0.635221 1.123714 0.066461 -0.013001 -527348.000000 0 0 1
-36.369421 -27.808880 22.241629 50.899496 0.652794 1.118567 0.052322 -0.015718 39218.900000 0 0 1
-35.440944 -28.859980 22.053229 50.747452 0.683407 1.121238 0.038001 -0.013495 -448387.000000 0 0 1
-35.819813 -29.827980 20.914829 51.090092 0.694378 1.149031 0.052419 -0.012899 -219929.000000 0 0 1
-35.713547 -29.298080 19.590829 50.176045 0.687035 1.169685 0.047212 -0.017282 386651.000000 0 0 1
-36.035331 -30.338580 18.671129 50.671349 0.699780 1.193428 0.052661 -0.014761 -106603.000000 0 0 1
-36.509331 -29.869780 17.292429 50.241050 0.685705 1.219421 0.068357 -0.009866 290577.000000 0 0 1
-35.352144 -29.466780 16.541729 48.904949 0.694849 1.225748 0.079007 -0.021403 901794.000000 0 0 1
-35.652089 -28.791080 15.296029 48.311140 0.679332 1.248638 0.092685 -0.019626 201435.000000 0 0 1
-36.387081 -29.578580 14.122529 48.973032 0.682550 1.278268 0.099807 -0.023768 648692.000000 0 0 1
-35.528294 -30.485180 13.397729 48.693994 0.709151 1.292060 0.099569 -0.034273 389555.000000 0 0 1
-36.208291 -31.312580 12.451729 49.462749 0.713018 1.316319 0.101013 -0.029438 185281.000000 0 0 1
-36.746161 -30.572080 11.181529 49.091333 0.693939 1.341010 0.111214 -0.030119 813517.000000 0 0 1
36.876499 -29.788380 11.445929 48.767131 -0.679471 1.333880 0.114536 -0.032866 693421.000000 0 0 1
36.520159 -29.231480 10.162129 47.869305 -0.674997 1.356880 0.090249 -0.032765 -124708.000000 0 0 1
35.392109 -28.199480 10.289929 46.407917 -0.672770 1.347210 0.130124 -0.021477 -209028.000000 0 0 1
35.238639 -27.345880 9.195929 45.542551 -0.659947 1.367479 0.146582 -0.064376 10726.900000 0 0 1
34.220989 -26.412280 9.451029 44.249368 -0.657317 1.355553 0.108458 -0.053346 -336892.000000 0 0 1
34.106569 -25.237680 8.457129 43.263398 -0.637048 1.374049 0.111467 -0.049680 26003.100000 0 0 1
35.029599 -24.193380 8.720129 43.456106 -0.604427 1.368759 0.129863 -0.054277 41926.200000 0 0 1
35.649199 -23.690880 7.584429 43.470068 -0.586540 1.395424 0.122927 -0.049982 -460469.000000 0 0 1
36.460399 -22.460880 7.848629 43.536799 -0.552127 1.389530 0.129897 -0.046150 -116569.000000 0 0 1
35.612519 -21.412080 8.359829 42.386501 -0.541339 1.372266 0.115222 -0.050313 259464.000000 0 0 1
36.050799 -20.129380 8.029429 42.063331 -0.509240 1.378729 0.123796 -0.037999 -645173.000000 0 0 1
35.280339 -19.097580 8.778529 41.066805 -0.496147 1.355372 0.121277 -0.031975 -492357.000000 0 0 1
35.596739 -18.993880 10.195829 41.615505 -0.490153 1.323276 0.105486 -0.041229 67402.200000 0 0 1
34.741149 -18.244180 11.058829 40.768803 -0.483562 1.296097 0.111420 -0.033357 -31421.800000 0 0 1
35.102579 -18.424480 12.545429 41.581731 -0.483349 1.264316 0.090583 -0.041528 66183.900000 0 0 1
36.376539 -17.851480 12.763129 42.483237 -0.456213 1.265656 0.073475 -0.027299 208726.000000 0 0 1
36.904039 -18.399080 13.969829 43.538378 -0.462499 1.244156 0.069555 -0.015964 -264042.000000 0 0 1
-36.672981 -17.661180 14.514829 43.214639 0.448808 1.228260 0.095961 -0.021990 -323093.000000 0 0 1
-35.476027 -17.970680 13.852429 42.111561 0.468881 1.235609 0.089386 -0.018390 -601941.000000 0 0 1
-34.384380 -17.288580 14.367329 41.080418 0.465888 1.213506 0.084995 -0.016115 -893638.000000 0 0 1
-33.125701 -17.414880 13.539729 39.798422 0.484012 1.223659 0.085231 -0.015032 -484333.000000 0 0 1
-32.484961 -18.700980 13.434729 39.818228 0.522346 1.226641 0.077309 -0.022391 338904.000000 0 0 1
-31.332641 -18.588980 12.629429 38.558878 0.535463 1.237102 0.078213 -0.025927 -414050.000000 0 0 1
-30.586601 -19.876280 12.444429 38.541802 0.576260 1.242024 0.069686 -0.031626 -362719.000000 0 0 1
-31.205201 -20.867080 11.647329 39.304705 0.589413 1.269944 0.078552 -0.031027 -17038.700000 0 0 1
-30.232111 -21.785080 11.146429 38.894898 0.624414 1.280143 0.070607 -0.027935 -158141.000000 0 0 1
-30.638681 -22.576880 9.927629 39.331947 0.635048 1.315630 0.087561 -0.029503 39503.200000 0 0 1
-31.503951 -23.685280 10.090029 40.685379 0.644664 1.320180 0.109024 -0.030784 1541920.000000 0 0 1
-32.906351 -23.294080 10.005029 41.539652 0.616002 1.327550 0.132370 -0.038381 1477630.000000 0 0 1
-33.996921 -24.414080 10.065729 43.048308 0.622788 1.334787 0.167663 -0.052788 261420.000000 0 0 1
-34.088741 -25.105880 8.835029 43.248181 0.634796 1.365061 0.162930 -0.046630 281639.000000 0 0 1
-34.940141 -26.265980 8.959229 44.620432 0.644615 1.368634 0.175916 -0.045066 405344.000000 0 0 1
-34.885601 -27.208480 7.730829 44.911827 0.662386 1.397801 0.158540 -0.036812 286719.000000 0 0 1
-33.545891 -27.475780 7.341729 43.978930 0.686250 1.403074 0.153556 -0.034707 226458.000000 0 0 1
-33.498461 -28.286580 6.150429 44.273076 0.701242 1.431425 0.136689 -0.036087 -389673.000000 0 0 1
-32.046421 -28.430980 5.688029 43.216286 0.725688 1.438796 0.130549 -0.030418 -63959.700000 0 0 1
-31.544651 -27.316280 4.988829 42.025380 0.713685 1.451806 0.117721 -0.021952 -331564.000000 0 0 1
-30.176581 -27.421580 4.682329 41.042579 0.737603 1.456463 0.102621 -0.021301 37347.000000 0 0 1
-29.673421 -26.220780 3.812529 39.781611 0.723706 1.474813 0.082341 -0.010646 -18009.900000 0 0 1
-30.104571 -26.153580 2.466029 39.954677 0.715284 1.509036 0.100666 -0.016246 88607.000000 0 0 1
-29.471451 -25.023580 1.829129 38.705189 0.703959 1.523521 0.093672 -0.033669 -8050.480000 0 0 1
-30.181871 -24.631180 0.540929 38.960659 0.684476 1.556912 0.102469 -0.032107 -324346.000000 0 0 1
-29.897731 -25.478380 -0.580071 39.285603 0.705761 1.585562 0.094188 -0.032764 -225627.000000 0 0 1
-29.900701 -24.733380 -1.803571 38.846427 0.691098 1.617241 0.106266 -0.036475 121187.000000 0 0 1
-31.316041 -24.380280 -2.316171 39.754963 0.661508 1.629091 0.109573 -0.029194 18983.300000 0 0 1
-31.981901 -23.284680 -1.731871 39.598203 0.629310 1.614546 0.106852 -0.022079 19003.000000 0 0 1
-33.356931 -23.362180 -2.059571 40.776441 0.610974 1.621327 0.112181 -0.024780 -356109.000000 0 0 1
-34.140369 -22.125280 -1.727271 40.719482 0.575016 1.613228 0.109619 -0.025939 -582641.000000 0 0 1
-34.254841 -21.823580 -0.374171 40.617764 0.567249 1.580008 0.106512 -0.034617 328115.000000 0 0 1
-35.065733 -20.654080 -0.342071 40.697834 0.532300 1.579202 0.103886 -0.031983 -113898.000000 0 0 1
-35.266336 -20.161780 1.098229 40.637642 0.519351 1.543768 0.096994 -0.032657 -927148.000000 0 0 1
-36.185081 -20.864080 1.802529 41.808121 0.523031 1.527669 0.086669 -0.038832 -566888.000000 0 0 1
-36.382281 -20.389980 3.097329 41.821228 0.510821 1.496667 0.094112 -0.039754 -74035.200000 0 0 1
37.348189 -21.305080 3.854329 43.170007 -0.518404 1.481395 0.115461 -0.037101 1563480.000000 0 0 1
36.000039 -21.236680 3.382029 41.933728 -0.532965 1.490057 0.110113 -0.040146 268269.000000 0 0 1
35.324729 -20.085680 3.722729 40.806002 -0.517012 1.479439 0.114951 -0.044440 -640225.000000 0 0 1
34.076379 -19.847380 2.829829 39.536389 -0.527406 1.499160 0.110717 -0.031661 461495.000000 0 0 1
32.955939 -20.690980 3.105129 39.036552 -0.560637 1.491168 0.100781 -0.034124 -536140.000000 0 0 1
31.859999 -20.137980 2.447929 37.770228 -0.563672 1.505940 0.119498 -0.037957 -546308.000000 0 0 1
30.578639 -20.884480 2.865929 37.140655 -0.599209 1.493555 0.118249 -0.025823 -363002.000000 0 0 1
30.363039 -22.146580 2.303729 37.652255 -0.630181 1.509574 0.095967 -0.019562 -305387.000000 0 0 1
29.119239 -22.646480 2.731029 36.989886 -0.661004 1.496897 0.104431 -0.019736 -208082.000000 0 0 1
28.752839 -23.917180 1.967029 37.451655 -0.693844 1.518250 0.088332 -0.010503 -169103.000000 0 0 1
28.371139 -23.610780 0.662929 36.916527 -0.694076 1.552838 0.086813 -0.010990 46627.500000 0 0 1
28.023039 -24.773580 -0.034371 37.403505 -0.723929 1.571715 0.088247 -0.015251 284642.000000 0 0 1
27.083539 -24.510380 -1.301871 36.550947 -0.735566 1.606422 0.102945 -0.026436 663079.000000 0 0 1
27.666139 -23.758480 -2.409071 36.547014 -0.709556 1.636761 0.085332 -0.039126 333896.000000 0 0 1
28.441239 -24.450080 -3.361871 37.656509 -0.710081 1.660193 0.089063 -0.042418 -339456.000000 0 0 1
27.625139 -25.263880 -4.435371 37.697274 -0.740782 1.688727 0.087085 -0.047346 740946.000000 0 0 1
26.859039 -24.498180 -5.428071 36.756398 -0.739461 1.719015 0.094362 -0.059384 537169.000000 0 0 1
25.603039 -24.092780 -4.964771 35.505304 -0.755017 1.711088 0.090186 -0.047478 -1001130.000000 0 0 1
24.748839 -23.263680 -5.871371 34.469941 -0.754475 1.741964 0.094198 -0.061333 -406893.000000 0 0 1
24.207639 -23.931380 -7.029071 34.758144 -0.779659 1.774429 0.086625 -0.065334 833612.000000 0 0 1
23.095739 -23.240280 -7.628471 33.641007 -0.788518 1.799547 0.080256 -0.061392 170801.000000 0 0 1
23.226839 -21.767880 -8.173971 32.865490 -0.752984 1.822144 0.073569 -0.048104 -788026.000000 0 0 1
23.812039 -21.558480 -9.420271 33.474211 -0.735769 1.856069 0.077339 -0.043142 24863.200000 0 0 1
23.649039 -20.288280 -10.018471 32.730126 -0.709057 1.881883 0.060557 -0.029258 -226063.000000 0 0 1
24.250539 -20.172280 -11.438971 33.553831 -0.693849 1.918685 0.056008 -0.016306 427985.000000 0 0 1
25.677839 -20.193380 -11.403271 34.599980 -0.666401 1.906649 0.088284 -0.022553 510273.000000 0 0 1
26.184839 -19.526180 -12.564371 34.996870 -0.640747 1.938008 0.073559 -0.020547 421564.000000 0 0 1
27.725539 -19.710580 -12.766471 36.334491 -0.618016 1.929819 0.073188 -0.017066 686818.000000 0 0 1
28.194139 -21.025480 -12.988071 37.492270 -0.640769 1.924548 0.052874 -0.010945 -182623.000000 0 0 1
28.741539 -21.544980 -11.828871 37.817779 -0.643252 1.888921 0.074733 -0.022924 -569801.000000 0 0 1
29.316039 -22.928780 -12.211371 39.169844 -0.663746 1.887835 0.069492 -0.020949 144720.000000 0 0 1
30.566339 -22.870680 -12.887671 40.292197 -0.642368 1.896373 0.065058 -0.023471 436382.000000 0 0 1
30.941779 -24.160580 -13.362771 41.469157 -0.662948 1.898885 0.071161 -0.014585 64285.000000 0 0 1
-3.876711 -8.853182 -27.528231 29.175524 1.158059 2.803951 0.066702 -0.021167 227797.000000 0 0 1
-3.928211 -7.598182 -26.992921 28.315737 1.093647 2.834721 0.069813 -0.018952 76235.700000 0 0 1
-4.977211 -6.843682 -27.582841 28.851719 0.942001 2.843917 0.068277 -0.023834 143452.000000 0 0 1
-5.086011 -5.430682 -27.055091 28.059539 0.818160 2.873217 0.066787 -0.028283 -44778.400000 0 0 1
-5.616111 -5.510082 -25.762121 26.936751 0.775869 2.845189 0.062845 -0.027574 88891.000000 0 0 1
-5.573611 -4.227382 -25.174721 26.128575 0.648896 2.870556 0.078125 -0.032587 65589.400000 0 0 1
-6.015311 -4.221882 -23.719171 24.831579 0.611971 2.841137 0.058464 -0.028762 54284.100000 0 1 0
-5.152511 -5.054282 -22.941471 24.050056 0.775775 2.836786 0.054193 -0.036182 586490.000000 0 1 0
-5.477311 -4.981482 -21.547171 22.783693 0.738026 2.810623 0.035391 -0.031353 261175.000000 0 1 0
-4.739511 -6.042182 -20.631871 22.014655 0.905638 2.785276 0.030232 -0.028504 -390246.000000 0 1 0
-5.330011 -7.321782 -20.761271 22.650560 0.941547 2.730262 0.030326 -0.024833 400617.000000 0 1 0
-4.537411 -8.325382 -20.160471 22.278794 1.071793 2.701982 0.031606 -0.025032 -213136.000000 0 1 0
-5.320511 -9.736882 -20.132671 22.987804 1.070699 2.637883 0.044601 -0.017185 1008380.000000 0 1 0
-6.471211 -9.834082 -19.313971 22.618913 0.988790 2.594203 0.046627 -0.014801 149066.000000 0 1 0
-7.607311 -9.084182 -19.667971 22.961329 0.873649 2.599381 0.039407 -0.016406 -147612.000000 0 1 0
-8.786511 -9.229682 -18.647171 22.585544 0.809992 2.542104 0.035303 -0.008129 588218.000000 0 1 0
-9.607211 -10.409082 -18.739771 23.490988 0.825438 2.494339 0.070346 -0.005169 398070.000000 0 1 0
-10.445311 -10.565182 -17.603771 23.035198 0.791103 2.440615 0.074108 -0.006806 -59715.100000 0 1 0
-11.139211 -11.940882 -17.661971 24.054353 0.820119 2.395361 0.063576 0.003231 1269000.000000 0 1 0
-12.347311 -12.061982 -18.488271 25.293550 0.773709 2.390506 0.084932 -0.014098 1050160.000000 0 0 1
-12.065611 -12.022382 -19.839471 26.148064 0.783604 2.432166 0.075947 -0.017125 102228.000000 0 0 1
-13.396011 -11.972082 -20.708471 27.415773 0.729326 2.426982 0.076356 -0.025696 1511180.000000 0 0 1
-14.357211 -13.042882 -20.648071 28.330004 0.737467 2.387424 0.083009 -0.019565 341563.000000 0 0 1
-14.973511 -13.160082 -19.374471 27.798631 0.721029 2.341943 0.089941 -0.018069 -755628.000000 0 0 1
-16.159111 -14.172782 -19.372671 28.935877 0.720005 2.304336 0.085950 -0.011884 298009.000000 0 0 1
-15.810111 -15.550382 -19.474871 29.513464 0.777116 2.291434 0.087902 -0.009918 -127787.000000 0 0 1
-16.310311 -16.070982 -20.665271 30.844061 0.778007 2.304994 0.104675 -0.016464 -40530.000000 0 0 1
-15.821711 -17.490482 -20.985271 31.569369 0.835451 2.297936 0.058768 -0.012766 -529834.000000 0 0 1
-16.339711 -18.469482 -20.181771 31.865527 0.846506 2.256660 0.067560 -0.009830 -46993.300000 0 0 1
-15.912511 -19.745682 -20.615571 32.681826 0.892485 2.253375 0.054445 -0.011673 -287379.000000 0 0 1
-16.701411 -20.936282 -20.035271 33.446631 0.897444 2.213076 0.067626 -0.015860 -378804.000000 0 0 1
-16.357711 -22.173782 -20.587471 34.396152 0.935211 2.212474 0.071187 -0.020098 475903.000000 0 0 1
-17.210211 -23.187182 -20.032971 35.144796 0.932287 2.177317 0.089032 -0.015340 206695.000000 0 0 1
-16.812911 -24.571582 -20.546671 36.174609 0.970725 2.174853 0.089291 -0.019756 26982.000000 0 0 1
-16.976811 -24.841082 -21.948171 37.242632 0.971287 2.201025 0.065500 -0.021361 145169.000000 0 0 1
-16.374111 -26.089082 -22.234271 37.988347 1.010313 2.196036 0.074629 -0.013664 -191609.000000 0 0 1
-16.657911 -26.724742 -23.605771 39.356451 1.013410 2.214040 0.080029 -0.016473 674952.000000 0 0 1
-18.051411 -27.001622 -23.880971 40.314288 0.981504 2.204794 0.092032 -0.014743 831476.000000 0 0 1
-18.396011 -28.329962 -23.649171 41.234491 0.994879 2.181603 0.094386 -0.005052 206297.000000 0 0 1
-19.621911 -28.690262 -24.584871 42.574246 0.970942 2.186409 0.099963 -0.009445 -330890.000000 0 0 1
-19.538511 -28.784172 -26.044901 43.458242 0.974445 2.213434 0.102295 -0.011716 -120827.000000 0 0 1
-19.333111 -27.494172 -26.665321 42.903823 0.957945 2.241470 0.109126 -0.024735 -128955.000000 0 0 1
-17.957411 -27.300732 -27.320421 42.593473 0.988983 2.267148 0.111306 -0.032137 -275574.000000 0 0 1
-17.740311 -27.893222 -28.533691 43.668318 1.004320 2.282888 0.119756 -0.024208 192741.000000 0 0 1
-16.492611 -27.596502 -29.147071 43.394987 1.032118 2.307256 0.083159 -0.011511 169155.000000 0 0 1
-16.520211 -27.680282 -30.702691 44.517082 1.032717 2.331848 0.109488 -0.017246 -19054.800000 0 0 1
-16.686411 -29.025592 -31.139031 45.722648 1.049048 2.319981 0.078349 -0.012988 339614.000000 0 0 1
-17.097211 -29.061152 -32.520361 46.844840 1.039011 2.338124 0.083921 -0.013391 -39285.300000 0 0 1
-17.076711 -30.442922 -33.244391 48.203476 1.059591 2.331827 0.081391 -0.016624 -569732.000000 0 0 1
-15.805811 -30.807172 -33.650481 48.283127 1.096758 2.341919 0.072478 -0.017164 -808355.000000 0 0 1
-15.897111 -31.831572 33.200575 48.664621 1.107618 0.819985 0.067735 -0.013942 864842.000000 0 0 1
-14.531111 -32.357522 32.598446 48.174901 1.148708 0.827568 0.060525 -0.018711 487556.000000 0 0 1
-13.785911 -33.178862 33.439715 49.082612 1.176997 0.821267 0.071015 -0.019493 -506718.000000 0 0 1
-12.671311 -33.649932 32.737724 48.627550 1.210656 0.832222 0.076875 -0.022514 -465014.000000 0 0 1
-11.813311 33.084723 33.471488 48.523126 -1.227844 0.809577 0.078878 -0.025723 -185743.000000 0 0 1
-11.118611 33.619220 -33.210201 48.546811 -1.251398 2.324146 0.088851 -0.028239 -197618.000000 0 0 1
-10.587711 32.635848 -32.332801 47.144546 -1.257089 2.326530 0.091973 -0.032219 -257093.000000 0 0 1
-9.715411 33.420623 -31.367901 46.853735 -1.287892 2.304312 0.080460 -0.036982 -452069.000000 0 0 1
-10.447311 -33.647712 -30.387161 46.526276 1.269743 2.282491 0.097697 -0.035095 -186782.000000 0 0 1
-9.702311 -32.595162 -29.822601 45.232366 1.281487 2.290710 0.108913 -0.039459 -360314.000000 0 0 1
-10.508011 -31.663142 -28.877571 44.123542 1.250364 2.284279 0.113707 -0.031521 149176.000000 0 0 1
-10.698311 -32.055312 -27.520341 43.581717 1.248675 2.254238 0.153827 -0.038484 298666.000000 0 0 1
-11.562111 -33.195882 -27.276311 44.493214 1.235637 2.230704 0.138532 -0.038144 195901.000000 0 0 1
-11.825211 -33.288962 -25.763271 43.723412 1.229471 2.200905 0.146128 -0.043838 200240.000000 0 0 1
-10.653911 -33.385722 -24.957971 43.023396 1.261896 2.189651 0.156208 -0.055861 -118189.000000 0 0 1
-10.860411 -33.209462 -23.546071 42.133530 1.254732 2.163787 0.154876 -0.061779 -34607.900000 0 0 1
-9.605111 -33.398862 -22.664071 41.489785 1.290765 2.148685 0.163100 -0.070597 175927.000000 0 0 1
-9.080911 33.043248 -22.610871 41.055702 -1.302598 2.154043 0.141948 -0.073790 -208336.000000 0 0 1
-8.121011 32.869271 -21.594071 40.157735 -1.328577 2.138540 0.154150 -0.074729 -315384.000000 0 0 1
-7.506511 31.492955 -21.539871 38.885987 -1.336807 2.157866 0.150781 -0.083538 -569268.000000 0 0 1
-6.339611 31.388835 -22.324771 39.036457 -1.371507 2.179611 0.131545 -0.087819 -230160.000000 0 0 1
-5.668211 30.212955 -21.955371 37.775515 -1.385343 2.191007 0.110173 -0.074356 -471179.000000 0 0 1
-4.173311 30.280235 -22.280371 37.824913 -1.433836 2.200666 0.118283 -0.076298 -373574.000000 0 0 1
-4.007111 29.966565 -23.682971 38.404883 -1.437866 2.235296 0.131516 -0.065063 595652.000000 0 0 1
-2.814111 30.634405 -24.179071 39.128167 -1.479192 2.236923 0.115977 -0.068102 722246.000000 0 0 1
-2.718611 30.794475 -25.687541 40.193784 -1.482742 2.264114 0.109086 -0.033171 82485.200000 0 0 1
-1.736411 31.712155 -26.187641 41.163921 -1.516096 2.260333 0.115173 -0.055589 330846.000000 0 0 1
-2.060711 33.074890 -25.988681 42.114207 -1.508572 2.235848 0.119828 -0.046287 -672907.000000 0 0 1
-1.111911 -33.694102 -26.605071 42.945997 1.537808 2.238903 0.051636 -0.018533 -231069.000000 0 0 1
0.084889 -33.476432 -25.859081 42.300955 -1.568261 2.228514 0.083187 -0.032318 459175.000000 0 0 1
0.776489 -32.362342 -26.469401 41.815706 -1.546807 2.256220 0.047234 -0.016222 498408.000000 0 0 1
2.180389 -31.958772 -25.918771 41.205581 -1.502677 2.251077 0.060363 -0.009851 186890.000000 0 0 1
2.187789 -31.207212 -24.728671 39.877107 -1.500806 2.239695 0.054732 -0.008261 1085070.000000 0 0 1
3.540089 -30.809812 -24.424871 39.475956 -1.456397 2.237919 0.035773 -0.004509 698961.000000 0 0 1
3.667089 -29.938392 -23.132871 38.011637 -1.448916 2.225058 0.046671 -0.009534 -205450.000000 0 0 1
3.515389 -30.562962 -21.882171 37.752907 -1.456278 2.189053 0.054173 -0.009698 476120.000000 0 0 1
3.730289 -29.703832 -20.759571 36.430653 -1.445868 2.177105 0.060833 -0.010294 -438845.000000 0 0 1
3.701789 -30.423512 -19.377871 36.260105 -1.449716 2.134609 0.064041 -0.011497 -151984.000000 0 0 1
2.457889 -30.923792 -18.905871 36.328420 -1.491481 2.118134 0.066392 -0.021179 272217.000000 0 0 1
2.055889 -32.158472 -19.415271 37.621095 -1.506953 2.113057 0.067876 -0.021140 -459342.000000 0 0 1
2.598689 -33.422432 -18.651871 38.362800 -1.493200 2.078529 0.052706 -0.030916 573042.000000 0 0 1
3.918489 -33.736802 -19.111671 38.971558 -1.455166 2.083346 0.061807 -0.024576 193350.000000 0 0 1
4.506689 33.196118 -18.164771 38.108416 1.435862 2.067648 0.067668 -0.039562 63619.200000 0 0 1
5.646489 32.339668 -18.754971 37.808543 1.397939 2.089841 0.073565 -0.030000 533641.000000 0 0 1
6.797989 33.039678 -19.204371 38.815472 1.367876 2.088356 0.096320 -0.025474 69488.800000 0 0 1
7.848289 32.171646 -19.562271 38.461577 1.331519 2.104376 0.085774 -0.026713 429102.000000 0 0 1
9.276089 32.762288 -19.716071 39.346369 1.294885 2.095654 0.078460 -0.029346 236129.000000 0 0 1
9.823689 33.020502 -18.429271 39.070404 1.281632 2.062007 0.082228 -0.024468 687316.000000 0 0 1
11.118389 33.652419 -18.579671 40.016347 1.251698 2.053643 0.082677 -0.014563 835917.000000 0 0 1
11.876389 -33.863042 -17.270971 39.825126 -1.233482 2.019358 0.068025 -0.010734 129434.000000 0 0 1
12.696789 32.738528 -16.923171 38.979653 1.200830 2.019895 0.053351 -0.013314 108584.000000 0 0 1
13.165189 32.979274 -15.637871 38.800744 1.190983 1.985622 0.047336 -0.021286 -143435.000000 0 0 1
14.398889 32.107103 -15.309171 38.374012 1.149220 1.981164 0.032929 -0.015524 241017.000000 0 0 1
14.118389 30.847315 -14.774671 37.002387 1.141569 1.981538 0.054967 -0.019928 726103.000000 0 0 1
15.398189 30.182295 -14.648471 36.914128 1.099044 1.978852 0.042628 -0.012511 1122400.000000 0 0 1
15.369189 28.934455 -13.703471 35.513375 1.082523 1.966945 0.057507 -0.023693 -156129.000000 0 0 1
15.268089 29.313095 -12.337071 35.278540 1.090598 1.928052 0.061149 -0.030150 993163.000000 0 0 1
13.902889 29.417625 -11.863971 34.632944 1.129305 1.920440 0.084361 -0.030388 1133350.000000 0 0 1
13.135189 28.155705 -11.411771 33.098420 1.134290 1.922804 0.082969 -0.028870 -224093.000000 0 0 1
12.585089 27.312695 -12.475571 32.557759 1.139016 1.964036 0.056258 -0.028238 161486.000000 0 0 1
12.190989 25.994535 -12.125271 31.166621 1.132269 1.970393 0.073556 -0.028062 -16195.200000 0 0 1
11.187089 25.845975 -10.963771 30.222006 1.162307 1.942040 0.072012 -0.022565 -59015.100000 0 0 1
9.972089 26.552915 -11.251771 30.513967 1.211539 1.948451 0.063299 -0.022688 149502.000000 0 0 1
9.146089 26.632975 -10.136071 29.928352 1.240002 1.916308 0.047677 -0.016473 -653780.000000 0 0 1
8.095289 27.692395 -10.352871 30.652641 1.286392 1.915320 0.060333 -0.017046 -479715.000000 0 0 1
8.713389 28.943415 -10.453971 31.983276 1.278377 1.903773 0.067107 -0.021543 84417.600000 0 0 1
7.778089 29.994915 -10.607171 32.752186 1.317071 1.900604 0.053283 -0.008316 286404.000000 0 0 1
8.547489 31.289615 -10.936771 34.230287 1.304129 1.896004 0.078297 -0.025125 27574.400000 0 0 1
9.440989 31.728135 -9.946771 34.565085 1.281581 1.862693 0.075608 -0.026576 -33392.200000 0 0 1
9.998689 33.054552 -10.207271 36.010631 1.277056 1.858188 0.090758 -0.032517 787923.000000 0 0 1
11.130589 33.255096 -11.283571 36.838979 1.247813 1.882094 0.078685 -0.029708 604146.000000 0 0 1
12.432489 32.845598 -10.898371 36.771926 1.208949 1.871694 0.077506 -0.029271 180970.000000 0 0 1
13.402289 33.349568 -11.783771 37.824229 1.188676 1.887610 0.094804 -0.033879 818006.000000 0 0 1
14.925889 33.078283 -11.565571 38.088284 1.146921 1.879319 0.085615 -0.031086 929956.000000 0 0 1
15.450489 33.783415 -10.457471 38.592686 1.141856 1.845197 0.103217 -0.035944 372858.000000 0 0 1
16.876489 33.780125 -10.443771 39.178886 1.107470 1.840625 0.079926 -0.034890 339325.000000 0 0 1
17.546689 -33.106802 -9.401271 38.630695 -1.083436 1.816628 0.105588 -0.043325 -76875.200000 0 0 1
17.509189 -33.721422 -8.127671 38.855695 -1.091883 1.781528 0.104019 -0.042205 29352.400000 0 0 1
17.917989 -32.778372 -7.160471 38.036146 -1.070536 1.760181 0.094162 -0.039714 -1050590.000000 0 0 1
18.024689 -33.394782 -5.753871 38.382391 -1.075860 1.721273 0.091931 -0.032242 84632.400000 0 0 1
19.084089 33.429938 -5.635271 38.903978 1.052073 1.716158 0.075070 -0.035853 102055.000000 0 0 1
20.383889 -33.744532 -5.659371 39.827439 -1.027393 1.713376 0.086047 -0.035400 -10958.800000 0 0 1
21.369089 33.179577 -6.615571 40.016098 0.998620 1.736882 0.060589 -0.023828 649003.000000 0 0 1
21.589389 31.818177 -6.241571 38.954529 0.974630 1.731717 0.066665 -0.015322 102945.000000 0 0 1
22.483289 31.666545 -5.138271 39.174867 0.953390 1.702338 0.071910 -0.017898 -226816.000000 0 0 1
22.756889 30.238565 -4.703171 38.136159 0.925647 1.694437 0.046108 -0.010950 -157046.000000 0 0 1
23.582489 29.596015 -5.630071 38.259059 0.898002 1.718489 0.051734 -0.006025 -175972.000000 0 0 1
24.018289 28.331575 -5.160671 37.499185 0.867606 1.708855 0.047827 0.006974 -299104.000000 0 0 1
24.958789 27.601205 -6.066171 37.703662 0.835630 1.732389 0.032810 0.010475 350397.000000 0 0 1
26.233989 28.219365 -6.373171 39.053451 0.821842 1.734720 0.050324 0.004444 485946.000000 0 0 1
27.166089 27.430545 -6.987671 39.233388 0.790242 1.749857 0.039969 0.008705 -69662.100000 0 0 1
27.904889 26.379245 -6.078971 38.878031 0.757301 1.727801 0.046292 0.009644 -754768.000000 0 0 1
28.731689 26.913955 -5.083671 39.695272 0.752744 1.699216 0.070373 0.006271 -320326.000000 0 0 1
29.280289 25.920685 -4.327571 39.343934 0.724612 1.681013 0.091252 -0.004752 -496706.000000 0 0 1
30.400489 26.332655 -3.384271 40.361513 0.713819 1.654744 0.090380 -0.005929 -220352.000000 0 0 1
29.958389 27.181865 -2.328771 40.518910 0.736845 1.628302 0.091359 -0.007675 -351267.000000 0 0 1
31.065789 27.453445 -1.544771 41.486880 0.723747 1.608040 0.102146 -0.017797 -282508.000000 0 0 1
31.126789 28.912945 -1.084371 42.497191 0.748542 1.596315 0.125482 -0.021171 -264404.000000 0 0 1
31.428889 29.790805 -2.096271 43.355063 0.758647 1.619166 0.105141 -0.017874 -92464.700000 0 0 1
31.341089 31.116105 -1.581171 44.192488 0.781796 1.606583 0.106967 -0.014394 -116636.000000 0 0 1
33.900969 22.152018 19.211773 44.822760 0.578785 1.127835 0.149252 -0.036923 516377.000000 0 0 1
34.733469 21.997018 20.399073 45.895586 0.564552 1.110217 0.135544 -0.036657 569252.000000 0 0 1
35.480329 23.138818 20.736573 47.162105 0.577892 1.115546 0.137630 -0.034478 102192.000000 0 0 1
35.628589 23.327118 22.259273 48.052326 0.579693 1.089160 0.101369 -0.017355 39325.500000 0 0 1
34.472839 23.824018 22.900733 47.753576 0.604725 1.070642 0.094107 -0.012681 249912.000000 0 0 1
34.735969 24.262518 24.171503 48.780312 0.609708 1.052366 0.074408 -0.016031 789123.000000 0 0 1
33.346279 24.791618 24.696273 48.337403 0.639302 1.034548 0.092086 -0.018740 981290.000000 0 0 1
33.212639 26.189418 24.594053 48.926807 0.667713 1.044111 0.068194 -0.018517 339445.000000 0 0 1
31.901699 26.521818 25.026303 48.450398 0.693573 1.027998 0.067044 -0.021896 293026.000000 0 0 1
31.596079 28.031018 25.260243 49.215141 0.725680 1.031815 0.056555 -0.018947 -137539.000000 0 0 1
31.483289 28.754118 24.035253 48.945788 0.740122 1.057492 0.054078 -0.028896 53288.500000 0 0 1
30.925489 30.005118 24.217353 49.428465 0.770294 1.058767 0.046875 -0.022335 -319869.000000 0 0 1
31.196639 30.903218 22.999683 49.570400 0.780673 1.088313 0.043855 -0.021227 122093.000000 0 0 1
32.547379 31.285418 22.844993 50.596472 0.765631 1.102335 0.020827 -0.022806 -243023.000000 0 0 1
32.748289 31.965718 21.674773 50.636482 0.773306 1.128466 0.014887 -0.020394 -168016.000000 0 0 1
34.230739 32.326418 21.536473 51.774129 0.756794 1.141787 0.004990 -0.031521 -158640.000000 0 0 1
34.586759 33.366918 22.452273 53.044318 0.767449 1.133741 0.014670 -0.016316 699694.000000 0 0 1
36.016019 33.521718 22.441573 54.078493 0.749544 1.142874 0.022213 -0.016792 820721.000000 0 0 1
36.374179 -32.906380 23.027923 54.186677 -0.735385 1.131863 0.025049 -0.008023 -435194.000000 0 0 1
35.870109 -31.808880 22.350273 52.896165 -0.725463 1.134560 0.010245 -0.001453 165907.000000 0 0 1
36.145909 -30.633480 23.071523 52.699450 -0.703038 1.117652 0.024653 -0.002061 -761915.000000 0 0 1
35.042369 -29.648380 22.685373 51.201760 -0.702209 1.111789 0.015526 -0.003773 527188.000000 0 0 1
33.781889 -30.058880 23.227003 50.835480 -0.727147 1.096283 0.007129 -0.003718 459881.000000 0 0 1
32.842229 -30.388580 22.232073 49.963416 -0.746613 1.109659 0.019408 0.004549 -115889.000000 0 0 1
32.075339 -31.725780 22.467373 50.399756 -0.779919 1.108747 0.019506 0.001486 533022.000000 0 0 1
31.263659 -31.729080 23.666633 50.440662 -0.792787 1.082415 0.022874 -0.005844 518979.000000 0 0 1
30.652439 -33.004380 23.818303 50.952651 -0.822329 1.084382 0.017830 -0.002775 -36217.700000 0 0 1
29.883789 -33.258280 25.111433 51.280972 -0.838790 1.059070 0.019221 -0.002971 -21311.000000 0 0 1
29.191939 33.272418 25.104583 50.886768 0.850630 1.054869 0.027202 -0.013346 46866.600000 0 0 1
28.720939 32.933518 26.420643 51.064267 0.853618 1.026987 0.027898 -0.004981 -381007.000000 0 0 1
28.296439 31.395318 26.556533 49.915968 0.837266 1.009806 0.036697 -0.013310 551678.000000 0 0 1
27.411639 30.923018 25.558483 48.588754 0.845519 1.016887 0.043789 -0.010394 -97078.400000 0 0 1
26.091439 31.399618 25.577863 48.175993 0.877468 1.011104 0.048602 -0.005396 -936362.000000 0 0 1
25.472739 31.319218 24.200613 47.068286 0.887982 1.030769 0.090559 -0.021627 -270878.000000 0 0 1
25.903339 32.155518 23.132493 47.329405 0.892672 1.060134 0.114275 -0.031648 251679.000000 0 0 1
27.222139 31.886518 22.664973 47.660213 0.864147 1.075203 0.076489 -0.025146 303634.000000 0 0 1
27.602839 32.800018 21.426173 47.925346 0.871229 1.107305 0.093685 -0.022592 -25817.200000 0 0 1
28.932639 32.722718 20.979373 48.456248 0.846793 1.123028 0.087659 -0.022193 -209652.000000 0 0 1
29.008739 33.550618 19.806273 48.574060 0.857872 1.150803 0.078127 -0.026315 14274.900000 0 0 1
30.415319 33.860318 19.249673 49.418242 0.838944 1.170680 0.082588 -0.030812 203431.000000 0 0 1
31.170359 32.718318 18.849573 48.963109 0.809622 1.175616 0.083829 -0.045727 317897.000000 0 0 1
32.219499 33.129418 17.962673 49.581368 0.799321 1.200076 0.074746 -0.031267 -5581.820000 0 0 1
33.030249 31.995918 17.358973 49.153536 0.769493 1.209852 0.067194 -0.028791 -519930.000000 0 0 1
33.873969 31.458018 18.330273 49.729786 0.748435 1.193297 0.049633 -0.028852 -155032.000000 0 0 1
34.766499 30.462418 17.828273 49.543069 0.719509 1.202685 0.069709 -0.032324 731540.000000 0 0 1
35.777029 29.911118 18.903973 50.319290 0.696335 1.185665 0.070105 -0.047494 -260483.000000 0 0 1
36.710939 30.864618 19.259273 51.684014 0.699098 1.188949 0.074554 -0.043250 -491898.000000 0 0 1
-37.240071 30.245718 20.207773 52.057472 -0.682125 1.172138 0.093372 -0.039968 523340.000000 0 0 1
-36.085111 31.136118 20.805773 52.004550 -0.711908 1.159197 0.105268 -0.037560 522960.000000 0 0 1
-35.254324 31.581818 19.725073 51.277257 -0.730505 1.175941 0.100460 -0.036202 431382.000000 0 0 1
-34.066492 32.277418 20.093873 51.050184 -0.758438 1.166241 0.085905 -0.023410 452804.000000 0 0 1
-34.218019 33.674818 20.830873 52.333464 -0.777397 1.161416 0.067753 -0.019042 -359118.000000 0 0 1
-34.551932 33.588418 22.228773 53.067279 -0.771259 1.138586 0.077374 -0.021398 108721.000000 0 0 1
-34.474898 -32.878380 22.803573 52.815806 0.761699 1.124357 0.066558 -0.019526 -66888.700000 0 0 1
-34.480852 -33.002580 24.373173 53.592453 0.763496 1.098663 0.078564 -0.016750 1192720.000000 0 0 1
-35.795516 -33.424480 24.823583 54.906512 0.751158 1.101671 0.067308 -0.008900 979455.000000 0 0 1
-35.672640 33.795618 26.153923 55.666046 -0.758385 1.081691 0.087143 -0.015335 -559429.000000 0 0 1
-37.013581 33.493818 26.763313 56.640232 -0.735519 1.078655 0.066053 -0.022129 -559667.000000 0 0 1
-36.870331 32.813318 27.974043 56.733431 -0.727243 1.055171 0.091468 -0.025851 -448951.000000 0 0 1
36.708699 32.823418 28.644703 56.968626 0.729579 1.043944 0.091376 -0.031106 -337934.000000 0 0 1
36.630189 31.865318 29.843893 56.989711 0.715945 1.019641 0.092228 -0.023459 -31424.300000 0 0 1
36.507489 30.466818 29.496913 55.956158 0.695448 1.015561 0.078804 -0.022453 619178.000000 0 0 1
-37.050911 29.889918 29.108093 55.798371 -0.678828 1.021994 0.070665 -0.016496 150791.000000 0 0 1
-37.127811 28.390018 28.631963 54.811100 -0.652815 1.021162 0.072434 -0.009668 88006.800000 0 0 1
36.671769 28.227418 27.617033 53.891616 0.656010 1.032755 0.063554 -0.014357 615469.000000 0 0 1
36.521359 26.920918 27.029203 52.812151 0.635212 1.033519 0.065696 -0.016787 3388.040000 0 0 1
36.280399 25.737618 27.951023 52.535246 0.617012 1.009784 0.065396 -0.023956 363766.000000 0 0 1
-37.340291 25.269818 28.644533 53.416947 -0.594947 1.004815 0.048779 -0.015161 523126.000000 0 0 1
37.359489 23.950518 29.250313 53.150160 0.570081 0.988033 0.043494 -0.005788 -243764.000000 0 0 1
-37.219611 22.846218 28.260843 52.018500 -0.550521 0.996452 0.041792 0.005032 -123854.000000 0 0 1
36.606579 22.814618 27.246073 51.018594 0.557331 1.007422 0.062459 -0.008392 75358.600000 0 0 1
37.076789 22.175118 26.014653 50.430014 0.539011 1.028789 0.055435 -0.017294 -598469.000000 0 0 1
36.972619 20.611818 25.993833 49.673947 0.508575 1.020090 0.053320 -0.011632 178331.000000 0 0 1
35.614099 20.170718 25.968873 48.472717 0.515324 1.005410 0.097527 -0.006708 596318.000000 0 0 1
35.335289 18.857918 26.410273 47.976101 0.490231 0.987848 0.089458 0.000314 -321545.000000 0 0 1
35.091819 18.842718 27.929203 48.646934 0.492772 0.959267 0.069627 0.008338 865197.000000 0 0 1
33.913629 19.478518 28.518803 48.403192 0.521351 0.940737 0.078148 -0.004526 1112910.000000 0 0 1
33.976209 20.886818 28.582443 49.067280 0.551193 0.948976 0.080729 -0.019797 -423139.000000 0 0 1
32.880529 21.573518 29.433553 49.121074 0.580664 0.928290 0.101931 -0.034076 1058230.000000 0 0 1
31.529209 21.591818 28.933713 47.931799 0.600465 0.922733 0.123800 -0.047353 831320.000000 0 0 1
31.206849 22.444018 27.847153 47.466465 0.623497 0.943856 0.114399 -0.046007 -225109.000000 0 0 1
31.155389 24.002518 28.026833 48.293711 0.656438 0.951649 0.106406 -0.035426 -705608.000000 0 0 1
32.408669 24.537418 28.300783 49.531213 0.648046 0.962619 0.110290 -0.032051 -823887.000000 0 0 1
32.394459 25.769318 28.944913 50.510066 0.671982 0.960571 0.078231 -0.025056 -72645.600000 0 0 1
32.744099 25.671418 30.423423 51.543985 0.664909 0.939438 0.079907 -0.033752 740730.000000 0 0 1
34.053029 25.106618 30.635053 52.234639 0.635310 0.944079 0.061081 -0.024171 623678.000000 0 0 1
34.493429 24.815618 31.957256 53.168391 0.623648 0.925973 0.086790 -0.024041 181105.000000 0 0 1
33.726669 23.663618 32.669913 52.581159 0.611819 0.900366 0.104975 -0.028244 -46642.300000 0 0 1
34.108749 23.652818 -33.764831 53.506321 0.606319 2.253694 0.106472 -0.034335 153111.000000 0 0 1
33.563049 22.550618 -33.119371 52.267594 0.591609 2.257059 0.096253 -0.025881 -18649.900000 0 0 1
34.011929 22.549218 -31.628521 51.629854 0.585446 2.230144 0.084390 -0.029070 317427.000000 0 0 1
33.169319 23.413718 -30.837571 50.983936 0.614665 2.220372 0.066909 -0.032674 430900.000000 0 0 1
33.313039 23.229618 -29.370941 50.120115 0.608920 2.196924 0.090721 -0.034893 -38228.700000 0 0 1
34.559689 23.880418 -28.747591 50.902558 0.604654 2.170935 0.085562 -0.012209 185141.000000 0 0 1
35.061229 23.318318 -27.564311 50.327179 0.586899 2.150412 0.079970 -0.010981 790643.000000 0 0 1
36.303069 23.911818 -27.101501 51.226743 0.582447 2.128277 0.081219 -0.001445 976021.000000 0 0 1
36.978999 23.107518 -25.979211 50.757494 0.558515 2.108110 0.068816 0.001307 -472624.000000 0 0 1
-36.975641 22.107418 -26.456351 50.555657 -0.538868 2.121529 0.052461 0.003317 -113953.000000 0 0 1
-37.099291 21.029618 -25.558651 49.717671 -0.515685 2.110726 0.036894 0.002754 88708.800000 0 0 1
-36.077091 19.895618 -25.893671 48.660808 -0.503975 2.131906 0.049656 0.011309 462674.000000 0 0 1
-34.757154 20.235618 -25.515511 47.629626 -0.527228 2.136141 0.056683 0.008104 -185551.000000 0 0 1
-33.842781 19.204318 -25.791191 46.683243 -0.516147 2.156124 0.035473 0.002026 346569.000000 0 0 1
-32.440651 19.396418 -25.173111 45.412579 -0.538877 2.158342 0.040627 -0.006851 182821.000000 0 0 1
-32.569091 19.534318 -23.741671 44.788415 -0.540258 2.129497 0.048974 -0.012126 -121728.000000 0 0 1
-31.374391 19.973918 -23.162971 43.815899 -0.566920 2.127798 0.067463 -0.019658 -15649.100000 0 0 1
-31.696831 20.580518 -21.785571 43.621759 -0.575878 2.093725 0.066785 -0.028048 197938.000000 0 0 1
-32.382381 19.708518 -20.930271 43.302661 -0.546733 2.075272 0.059137 -0.009489 128155.000000 0 0 1
-32.733461 20.317718 -19.665371 43.255241 -0.555502 2.042759 0.062107 -0.006152 -1330510.000000 0 0 1
-33.106071 19.317218 -18.579271 42.595259 -0.528195 2.022147 0.056593 -0.001597 -201452.000000 0 0 1
-33.901071 19.720118 -17.509671 42.950602 -0.526852 1.990697 0.043847 -0.004281 547928.000000 0 0 1
-35.160699 20.251918 -17.984671 44.383142 -0.522572 1.988009 0.033611 -0.003665 -1178620.000000 0 0 1
-36.271041 20.007218 -16.990071 44.772086 -0.504073 1.960030 0.030920 -0.006527 -655614.000000 0 0 1
-36.116211 20.684018 -15.738271 44.496094 -0.520110 1.932320 0.048834 -0.019630 -50603.000000 0 0 1
-37.241991 20.346818 -14.980871 45.004281 -0.500029 1.910149 0.054652 -0.013525 -573294.000000 0 0 1
-37.232881 21.127318 -13.648671 44.932585 -0.516132 1.879432 0.073121 -0.022359 -67543.800000 0 0 1
-37.380291 22.603518 -13.724271 45.788216 -0.543861 1.875210 0.079388 -0.026857 -72609.600000 0 0 1
36.112149 22.987918 -14.054071 45.056061 0.566876 1.888014 0.068637 -0.013045 -171295.000000 0 0 1
35.866589 24.433718 -14.438071 45.737038 0.598023 1.891965 0.075258 -0.013231 -4120.450000 0 0 1
36.096939 25.347318 -13.334571 46.079131 0.612202 1.864380 0.075148 -0.013593 408.465000 0 0 1
35.851169 26.694818 -13.696771 46.749558 0.640037 1.868140 0.074454 -0.003215 913226.000000 0 0 1
37.107109 27.483918 -14.301671 48.340884 0.637500 1.871142 0.085337 0.002389 1100810.000000 0 0 1
37.399249 27.054718 -15.626271 48.732350 0.626260 1.897217 0.083512 0.000194 -453431.000000 0 0 1
-36.362321 27.825518 -16.111371 48.539201 -0.653177 1.909140 0.085757 -0.012563 -967338.000000 0 0 1
-36.096811 27.584918 -17.648071 48.737684 -0.652523 1.941320 0.101674 -0.022124 650.579000 0 0 1
-35.637438 26.289718 -18.092071 47.838261 -0.635582 1.958639 0.106042 -0.030357 1224990.000000 0 0 1
-34.267730 26.034118 -17.703471 46.534562 -0.649697 1.961065 0.116513 -0.026456 864114.000000 0 0 1
-33.671681 24.785918 -18.437271 45.695259 -0.634549 1.986117 0.102925 -0.025087 -154774.000000 0 0 1
-33.495801 25.126718 -19.784871 46.311572 -0.643594 2.012204 0.094967 -0.024010 250425.000000 0 0 1
-32.694651 24.223318 -20.535471 45.578667 -0.637649 2.038178 0.085948 -0.016273 -71958.700000 0 0 1
-32.871611 24.198518 -22.072271 46.403622 -0.634580 2.066509 0.083494 -0.017874 -389547.000000 0 0 1
-34.037155 23.554718 -22.531671 47.127792 -0.605357 2.069283 0.086508 -0.017099 146202.000000 0 0 1
-34.070733 23.397218 -23.931971 47.759647 -0.601761 2.095656 0.069920 -0.007602 -100383.000000 0 0 1
-34.828980 24.480318 -24.737071 49.236840 -0.612651 2.097180 0.080467 -0.011237 -486081.000000 0 0 1
-34.184761 25.770218 -24.656171 49.402720 -0.645961 2.093339 0.086751 -0.014217 201223.000000 0 0 1
-34.898747 26.822518 -25.289951 50.763684 -0.655287 2.092306 0.081657 -0.014837 -102594.000000 0 0 1
-34.054771 28.117418 -25.421441 50.956513 -0.690188 2.093108 0.065124 -0.018663 68539.100000 0 0 1
-32.921481 27.902618 -26.225371 50.499010 -0.703070 2.116857 0.061441 -0.020552 -709506.000000 0 0 1
-32.302411 29.136618 -26.467031 50.920447 -0.733916 2.117381 0.062464 -0.021818 -745204.000000 0 0 1
-31.041351 29.111618 -27.279451 50.549186 -0.753329 2.140831 0.059726 -0.014868 -1609070.000000 0 0 1
-29.964291 28.616118 -26.541501 49.205611 -0.762388 2.140521 0.054922 -0.016077 -1820440.000000 0 0 1
-28.795581 28.622718 -27.258371 48.902599 -0.782388 2.162049 0.062808 -0.008746 -490380.000000 0 0 1
-27.997441 29.970418 -26.977751 49.090545 -0.819421 2.152623 0.042684 -0.011635 -1145320.000000 0 0 1
-27.494601 30.101718 -25.696471 48.191027 -0.830633 2.133200 0.033293 -0.013482 -14482.900000 0 0 1
-28.356441 30.452118 -24.613371 48.344981 -0.821019 2.104958 0.050419 -0.009527 39864.200000 0 0 1
-27.525841 31.025818 -23.429971 47.636507 -0.845103 2.085008 0.020372 -0.014080 302854.000000 0 0 1
-27.200931 32.386518 -23.594871 48.430311 -0.872204 2.079668 0.029223 -0.013432 648915.000000 0 0 1
-26.032421 32.762718 -22.853871 47.679996 -0.899372 2.070674 0.028091 0.006058 356970.000000 0 0 1
-25.713661 -33.495280 -22.899371 48.036520 0.916076 2.067702 0.023612 0.018054 87094.700000 0 0 1
-26.579481 -32.639180 -22.133071 47.556889 0.887371 2.054885 0.012990 0.001855 304583.000000 0 0 1
-26.227231 -31.276980 -22.204371 46.466667 0.872989 2.069009 0.019766 0.000676 -30054.900000 0 0 1
17.486089 8.174418 -24.540571 31.222172 0.437296 2.475105 0.069842 -0.013362 -197384.000000 0 0 1
16.138489 7.795218 -24.392771 30.269184 0.449972 2.507925 0.067977 -0.018082 137761.000000 0 0 1
16.059689 6.452518 -24.898271 30.322805 0.382043 2.534144 0.063794 -0.020836 242853.000000 0 0 1
14.634289 5.851018 -24.812471 29.394821 0.380347 2.575700 0.076546 -0.028955 129869.000000 0 0 1
14.027689 5.464318 -23.603871 27.996027 0.371455 2.573846 0.102371 -0.046488 1557230.000000 0 0 1
12.617489 5.215418 -23.834771 27.468125 0.391960 2.621403 0.104043 -0.043625 852646.000000 0 0 1
11.679489 5.283318 -22.624571 26.003752 0.424814 2.626101 0.117893 -0.051791 -260574.000000 0 0 1
11.924089 4.396018 -21.504271 24.978842 0.353207 2.607831 0.106479 -0.045954 184127.000000 0 1 0
11.232289 4.788118 -20.295471 23.685365 0.402956 2.599979 0.112593 -0.044934 -142795.000000 0 1 0
11.555189 6.195318 -19.710771 23.673167 0.492148 2.554619 0.120843 -0.046177 -147739.000000 0 1 0
11.402789 6.176318 -18.288471 22.419604 0.496410 2.524796 0.107226 -0.043299 -235356.000000 0 1 0
11.593389 7.458418 -17.740271 22.466684 0.571675 2.480995 0.118676 -0.043804 -640974.000000 0 1 0
13.019889 7.930418 -17.528371 23.230429 0.547084 2.425755 0.121750 -0.035682 -872401.000000 0 1 0
13.621689 7.281718 -16.454971 22.568560 0.490918 2.387817 0.143916 -0.041918 280578.000000 0 1 0
14.900489 7.850518 -16.189071 23.361105 0.484906 2.336428 0.133237 -0.035900 224858.000000 0 1 0
15.600789 7.510218 -14.841771 22.804959 0.448657 2.279451 0.136429 -0.034685 -159975.000000 0 1 0
16.754189 8.300618 -14.676171 23.769583 0.459989 2.236274 0.127374 -0.035188 166843.000000 0 1 0
17.190889 8.150318 -13.344471 23.238529 0.442719 2.182471 0.108563 -0.035774 -243075.000000 0 1 0
18.160889 9.250318 -12.903171 24.122149 0.471103 2.135197 0.152735 -0.045886 -535566.000000 0 1 0
17.599589 10.491218 -12.952371 24.239948 0.537551 2.134523 0.207219 -0.036741 344637.000000 0 1 0
18.500389 11.471918 -12.496071 25.100221 0.555061 2.091911 0.230168 -0.059323 -196946.000000 0 0 1
17.659689 12.692618 -12.047471 24.861792 0.623189 2.076677 0.253854 -0.054808 -492790.000000 0 1 0
16.992589 12.446818 -10.803571 23.672526 0.632197 2.044714 0.291663 -0.045071 831473.000000 0 1 0
16.091089 13.479518 -10.354671 23.405977 0.697310 2.029063 0.164999 -0.039664 465947.000000 0 1 0
14.808389 13.647518 -11.224571 23.055024 0.744625 2.079288 0.130516 -0.047904 -282205.000000 0 1 0
13.901389 14.636718 -10.712871 22.852740 0.811159 2.058704 0.160061 -0.052954 430907.000000 0 1 0
14.129989 15.941918 -11.181771 24.058955 0.845579 2.054166 0.157325 -0.047608 70524.500000 0 1 0
13.175989 16.909518 -10.425571 23.837596 0.908864 2.023455 0.141602 -0.042640 116784.000000 0 1 0
13.346589 16.754918 -9.048171 23.253561 0.898146 1.970461 0.142091 -0.026855 263169.000000 0 1 0
12.418689 17.457618 -8.222171 22.947687 0.952485 1.937243 0.120083 -0.010990 162263.000000 0 1 0
12.602989 17.224118 -6.707671 22.371822 0.939107 1.875307 0.098185 -0.014157 -68604.300000 0 1 0
13.521489 18.108318 -6.142071 23.419370 0.929410 1.836164 0.110651 -0.006492 -59660.300000 0 1 0
13.857789 17.890518 -4.770471 23.127177 0.911743 1.778559 0.097151 -0.009053 539786.000000 0 1 0
15.077689 18.768918 -4.304571 24.456866 0.894026 1.747725 0.093654 -0.015609 973260.000000 0 1 0
16.323589 18.511918 -4.943071 25.171107 0.848135 1.768460 0.105794 -0.028973 886701.000000 0 0 1
17.123689 19.698718 -5.192271 26.612401 0.855216 1.767163 0.072792 -0.024555 803684.000000 0 0 1
18.475289 19.440918 -5.928671 27.466975 0.810860 1.788356 0.076081 -0.006545 1043990.000000 0 0 1
19.566889 18.878818 -5.163771 27.675575 0.767503 1.758478 0.093898 -0.024155 841263.000000 0 0 1
19.686789 17.500818 -5.366471 26.882100 0.726683 1.771777 0.112440 -0.042524 -203918.000000 0 0 1
20.745089 16.812618 -4.465871 27.073360 0.681074 1.736508 0.128705 -0.045649 -515329.000000 0 0 1
22.049689 17.130418 -4.836771 28.337861 0.660496 1.742318 0.101759 -0.045533 -706656.000000 0 0 1
22.913789 16.247418 -4.141171 28.393126 0.616785 1.717170 0.108568 -0.047204 -449258.000000 0 0 1
24.370889 16.493618 -4.544671 29.776395 0.594968 1.724022 0.108890 -0.046195 -197987.000000 0 0 1
24.984289 17.627018 -3.922971 30.827198 0.614424 1.698399 0.110454 -0.044905 1249400.000000 0 0 1
26.417989 17.681718 -4.079771 32.049927 0.589828 1.698437 0.101435 -0.035195 876450.000000 0 0 1
27.032089 18.889418 -3.297371 33.142369 0.609905 1.670452 0.114647 -0.024125 -185527.000000 0 0 1
27.019889 20.078318 -4.014471 33.901758 0.639067 1.689490 0.103850 -0.028983 156501.000000 0 0 1
27.219189 21.138918 -3.079071 34.600849 0.660320 1.659902 0.120701 -0.006934 -351064.000000 0 0 1
27.165689 22.569618 -3.704471 35.511764 0.693249 1.675303 0.089250 -0.005477 -249878.000000 0 0 1
28.222389 22.996418 -4.508771 36.683341 0.683718 1.694018 0.081934 0.001446 -224119.000000 0 0 1
28.662989 22.163318 -5.586871 36.660506 0.658208 1.723787 0.067587 -0.000439 387950.000000 0 0 1
29.704089 22.788718 -6.588471 38.014030 0.654413 1.744993 0.061469 0.002430 608122.000000 0 0 1
29.111889 23.784418 -7.441771 38.322064 0.685021 1.766228 0.030169 0.007050 -79004.900000 0 0 1
30.002089 24.518318 -8.247271 39.614274 0.685153 1.780520 0.029829 0.008578 -25081.200000 0 0 1
30.728189 23.770918 -9.447571 39.981680 0.658426 1.809350 0.023794 -0.005331 474488.000000 0 0 1
29.883489 23.437718 -10.530771 39.411250 0.665096 1.841285 0.017633 0.001747 -186897.000000 0 0 1
30.561889 22.512218 -11.353471 39.619822 0.634877 1.861431 -0.002035 -0.012198 53776.800000 0 0 1
30.025089 22.184918 -12.772971 39.456626 0.636346 1.900457 0.033919 0.000707 90296.900000 0 0 1
30.341289 23.201118 -13.705971 40.580036 0.652825 1.915323 0.022533 -0.003765 -135065.000000 0 0 1
30.217089 22.660418 -15.052371 40.658835 0.643450 1.950033 0.045832 -0.011412 -241627.000000 0 0 1
30.638189 23.600218 -16.193671 41.927364 0.656359 1.967339 0.046009 -0.003649 -144434.000000 0 0 1
32.010189 23.939618 -16.238471 43.144472 0.642140 1.956676 0.049664 0.002162 -56711.200000 0 0 1
32.272089 24.429818 -17.515471 44.103236 0.647963 1.979202 0.068489 -0.003880 37730.900000 0 0 1
33.611989 25.181118 -17.726071 45.585832 0.642970 1.970180 0.072771 -0.006655 42412.000000 0 0 1
34.651589 24.226118 -17.783871 45.868327 0.610145 1.968948 0.075880 0.004332 -128430.000000 0 0 1
35.906389 24.876018 -18.069971 47.271650 0.605879 1.963035 0.087674 -0.007129 37766.100000 0 0 1
36.927889 23.755418 -18.070571 47.481938 0.571645 1.961217 0.067934 -0.018634 -817674.000000 0 0 1
36.891989 22.947018 -19.187971 47.494870 0.556443 1.986683 0.051611 -0.007572 374109.000000 0 0 1
-36.719361 23.082518 -19.945971 47.738410 -0.561198 2.001839 0.081279 -0.000097 125120.000000 0 0 1
-36.782561 22.112718 -21.160771 47.850886 -0.541282 2.028872 0.069637 0.003273 35777.500000 0 0 1
-36.536061 20.747618 -20.911971 46.932482 -0.516457 2.032613 0.046196 0.003331 138919.000000 0 0 1
-36.128561 20.129918 -22.127371 46.905298 -0.508335 2.062066 0.052320 0.004789 220744.000000 0 0 1
-35.631961 18.683518 -21.917671 45.815879 -0.482935 2.069612 0.048066 0.006150 -128795.000000 0 0 1
-36.703161 17.784118 -21.841871 46.265151 -0.451203 2.062470 0.050293 0.000559 -12943.500000 0 0 1
-36.336661 16.419118 -21.964271 45.523286 -0.424400 2.074285 0.035867 -0.006144 -208332.000000 0 0 1
37.225389 15.559018 -21.713971 45.818219 0.395899 2.064529 0.020785 0.000331 -82847.800000 0 0 1
36.246689 15.692418 -22.709571 45.560938 0.408571 2.092599 0.059377 0.001848 434830.000000 0 0 1
35.127589 14.800118 -22.594971 44.311666 0.398753 2.105877 0.081720 -0.011567 327565.000000 0 0 1
35.371289 13.406918 -23.357771 44.457384 0.362303 2.123978 0.063948 -0.020465 -300662.000000 0 0 1
35.213489 13.504418 -24.783671 45.128588 0.366203 2.152178 0.100313 -0.024192 161674.000000 0 0 1
35.433389 12.212418 -25.302581 45.220447 0.331908 2.164625 0.079088 -0.015292 -137045.000000 0 0 1
35.626689 12.210818 -26.796431 46.221356 0.330196 2.189208 0.076537 -0.018297 737553.000000 0 0 1
34.377989 12.320318 -27.514961 45.724276 0.344119 2.216497 0.078437 -0.019080 916392.000000 0 0 1
34.162389 13.541718 -28.192761 46.317153 0.377393 2.225204 0.084095 -0.016505 -134388.000000 0 0 1
34.696089 13.386318 -29.626901 47.547506 0.368220 2.243498 0.074085 -0.028461 -551543.000000 0 0 1
36.082389 13.550518 -29.667991 48.638925 0.359247 2.226811 0.073274 -0.017794 -394281.000000 0 0 1
36.575089 13.505618 -31.039731 49.835768 0.353726 2.243164 0.068471 -0.019223 -415469.000000 0 0 1
-36.725361 13.570218 -31.320811 50.138769 -0.353945 2.245521 0.066108 -0.009038 -774432.000000 0 0 1
-35.900861 12.572318 -30.866751 48.986644 -0.336849 2.252485 0.072220 -0.011348 -540990.000000 0 0 1
-35.645161 12.684018 -29.428941 47.932498 -0.341869 2.231872 0.065934 -0.008888 -530821.000000 0 0 1
-34.572961 11.683018 -28.960301 46.588427 -0.325876 2.241606 0.061629 -0.010876 241576.000000 0 0 1
-35.035061 10.339418 -29.205021 46.768497 -0.286970 2.245235 0.067749 -0.014208 683003.000000 0 0 1
-33.938861 9.430018 -29.267341 45.796820 -0.271017 2.264084 0.065550 -0.005923 413592.000000 0 0 1
-34.425361 8.066318 -29.820401 46.253943 -0.230161 2.271441 0.080605 -0.009129 -660175.000000 0 0 1
-34.605861 8.065818 -31.204601 47.290064 -0.228988 2.291423 0.074802 -0.008899 64518.300000 0 0 1
-34.979661 6.831518 -31.884621 47.821285 -0.192872 2.300630 0.082355 -0.012985 526966.000000 0 0 1
-36.347661 6.222818 -31.408291 48.439205 -0.169559 2.276286 0.099053 -0.012928 124734.000000 0 0 1
-36.373461 5.795618 -30.052551 47.537076 -0.158008 2.255175 0.111474 -0.020964 -264637.000000 0 0 1
37.224289 5.121718 -29.850001 47.988564 0.136732 2.242120 0.100891 -0.010675 -336787.000000 0 0 1
37.200989 4.369418 -28.458421 47.041334 0.116919 2.220520 0.109901 -0.020692 82127.600000 0 0 1
-36.595561 3.382018 -28.489831 46.501006 -0.092154 2.230232 0.118396 -0.018345 419405.000000 0 0 1
-36.733561 2.573618 -27.330451 45.857731 -0.069947 2.209286 0.112273 -0.015617 -97651.000000 0 0 1
-35.759161 1.391618 -27.317061 45.020839 -0.038897 2.222781 0.120479 -0.013727 646313.000000 0 0 1
-34.587861 1.581718 -26.491891 43.596356 -0.045699 2.223911 0.128718 -0.011410 347439.000000 0 0 1
-33.603461 0.669318 -26.815731 42.996790 -0.019915 2.244223 0.130175 -0.010973 -464968.000000 0 0 1
-32.378961 0.670818 -25.900171 41.468855 -0.020715 2.245376 0.129234 -0.013408 -307695.000000 0 0 1
-32.774861 0.264918 -24.615271 40.989916 -0.008083 2.214948 0.122299 -0.003725 -55748.500000 0 0 1
-31.781961 0.321818 -23.602871 39.589040 -0.010125 2.209552 0.129832 0.006785 -215508.000000 0 0 1
-32.157161 0.098918 -22.106671 39.023040 -0.003076 2.173052 0.117020 0.014645 -840157.000000 0 0 1
-32.411961 -1.246182 -21.745671 39.050767 0.038429 2.161393 0.138387 -0.000618 275889.000000 0 0 1
-33.003761 -1.509082 -20.467371 38.864364 0.045693 2.125435 0.151750 -0.009758 660731.000000 0 0 1
-34.516661 -1.110582 -20.408971 40.114328 0.032164 2.104552 0.144793 -0.010751 -32013.000000 0 0 1
-35.385161 -2.168182 -20.676971 41.040806 0.061197 2.098806 0.153210 -0.022533 1236140.000000 0 0 1
-36.747761 -1.897282 -20.233071 41.992556 0.051584 2.073533 0.138959 -0.019567 1748230.000000 0 0 1
37.099889 -3.104582 -20.039071 42.280073 -0.083487 2.064579 0.142008 -0.028679 123124.000000 0 0 1
36.531189 -3.742982 -21.165771 42.385464 -0.102104 2.093661 0.122989 -0.022914 364085.000000 0 0 1
-37.392261 -4.607782 -21.864771 43.560085 0.122610 2.096643 0.119888 -0.026324 -57635.500000 0 0 1
36.659289 -5.442382 -22.919371 43.575458 -0.147382 2.124651 0.099887 -0.028968 -1069390.000000 0 0 1
35.925989 -6.438082 -22.279771 42.761125 -0.177322 2.118852 0.105953 -0.024646 -155496.000000 0 0 1
35.427089 -7.304482 -23.271571 43.011628 -0.203334 2.142485 0.102882 -0.021541 -317284.000000 0 0 1
34.083689 -6.941782 -23.917671 42.213045 -0.200921 2.173163 0.079094 -0.017159 -1106720.000000 0 0 1
34.037689 -5.714382 -24.592371 42.379277 -0.166333 2.189884 0.081972 -0.024372 -1376420.000000 0 0 1
32.792089 -5.501682 -25.096111 41.658185 -0.166227 2.217338 0.061393 -0.022296 -1165930.000000 0 0 1
32.763289 -4.247482 -26.031691 42.060946 -0.128922 2.238143 0.089448 -0.046958 41497.600000 0 0 1
33.093089 -4.556682 -27.394161 43.201342 -0.136832 2.257646 0.085915 -0.050808 239531.000000 0 0 1
32.792789 -3.415482 -28.183461 43.374416 -0.103779 2.278080 0.072525 -0.045243 -207348.000000 0 0 1
32.242089 -3.807682 -29.558781 43.906404 -0.117552 2.309355 0.083308 -0.041833 191548.000000 0 0 1
31.670789 -2.695182 -30.234761 43.868481 -0.084895 2.331200 0.067287 -0.046333 -13129.200000 0 0 1
31.164089 -3.004582 -31.516601 44.424364 -0.096115 2.359505 0.080538 -0.044231 -837643.000000 0 0 1
30.732489 -1.640982 -32.185981 44.532191 -0.053345 2.378581 0.080809 -0.044236 -292468.000000 0 0 1
29.650289 -0.881682 -31.633681 43.365963 -0.029727 2.388327 0.074836 -0.033665 793996.000000 0 0 1
28.424589 -1.551382 -31.408001 42.388991 -0.054525 2.405276 0.082006 -0.039950 -21372.400000 0 0 1
27.529789 -2.051682 -32.604421 42.721738 -0.074388 2.439018 0.081459 -0.027070 -454444.000000 0 0 1
28.117089 -3.103582 -33.334251 43.719277 -0.109936 2.437905 0.085001 -0.032638 171305.000000 0 0 1
27.473789 -3.234482 33.187338 43.204981 -0.117190 0.694870 0.073519 -0.028107 -371925.000000 0 0 1
27.660089 -4.675482 32.592981 43.002826 -0.167451 0.710668 0.053295 -0.029090 1064020.000000 0 0 1
28.991389 -5.070882 32.146256 43.584358 -0.173158 0.741340 0.061308 -0.027311 1162810.000000 0 0 1
29.396689 -4.549982 30.885173 42.880783 -0.153560 0.766624 0.070027 -0.027110 21061.800000 0 0 1
30.095489 -3.126982 30.877563 43.231243 -0.103531 0.775256 0.064873 -0.017268 -811469.000000 0 0 1
31.409189 -3.128882 31.329803 44.473404 -0.099289 0.789132 0.059884 -0.019881 -816274.000000 0 0 1
31.733189 -1.865682 31.785991 44.953590 -0.058725 0.785430 0.064774 -0.018838 346834.000000 0 0 1
33.186689 -1.636482 32.299484 46.338872 -0.049271 0.799552 0.054911 -0.022621 61245.500000 0 0 1
34.180089 -1.885882 31.375543 46.435544 -0.055119 0.828910 0.058920 -0.023138 -827104.000000 0 0 1
35.460289 -1.748082 31.926565 47.747183 -0.049257 0.838393 0.064540 -0.023018 -134011.000000 0 0 1
36.597389 -2.391182 31.106993 48.090869 -0.065245 0.867366 0.077368 -0.022818 -65120.400000 0 0 1
36.945889 -1.682882 29.953613 47.592539 -0.045518 0.890046 0.073186 -0.013531 -132823.000000 0 0 1
-36.999361 -2.443782 29.142313 47.161416 0.065954 0.904693 0.080162 -0.016500 -58638.700000 0 0 1
-36.505961 -1.724682 27.877523 45.965378 0.047209 0.919158 0.080598 -0.015157 827988.000000 0 0 1
37.286789 -1.437782 26.872293 45.983606 -0.038541 0.946670 0.060121 -0.017315 840148.000000 0 0 1
-36.808561 -1.180982 25.655863 44.883050 0.032073 0.962323 0.079698 -0.019267 39460.800000 0 0 1
-27.431661 14.969218 11.892229 33.436486 -0.499529 1.207170 0.161374 -0.022269 360878.000000 0 0 1
-28.634351 14.237018 12.108829 34.194188 -0.461406 1.208824 0.122576 -0.007216 235598.000000 0 0 1
-29.529401 15.005718 12.864229 35.533723 -0.470156 1.200353 0.131902 -0.009494 662600.000000 0 0 1
-30.852951 14.205018 13.199129 36.440419 -0.431477 1.200157 0.131681 -0.007653 1030630.000000 0 0 1
-31.847671 14.894018 13.941729 37.821657 -0.437446 1.193275 0.120328 -0.015743 -687355.000000 0 0 1
-32.832381 14.029018 14.384929 38.492918 -0.403810 1.187798 0.135712 -0.020270 -617475.000000 0 0 1
-33.752601 14.785118 15.343629 39.915720 -0.412867 1.176238 0.114190 -0.024400 -245456.000000 0 0 1
-33.118021 15.128018 16.557429 39.997608 -0.428487 1.143996 0.096975 -0.019434 264090.000000 0 0 1
-33.963431 15.991818 17.361929 41.360482 -0.440060 1.137603 0.102410 -0.030243 536638.000000 0 0 1
-33.383131 16.369118 18.739629 41.635984 -0.455891 1.103939 0.132286 -0.025189 83750.600000 0 0 1
-33.068601 15.199218 19.461629 41.271099 -0.430831 1.079742 0.121639 -0.026820 288662.000000 0 0 1
-31.948891 15.238318 20.357429 40.833355 -0.445046 1.048872 0.119475 -0.020860 764901.000000 0 0 1
-32.362711 15.664018 21.806829 42.050497 -0.450778 1.025599 0.121539 -0.035023 -554882.000000 0 0 1
-32.915551 16.930618 21.852229 42.983709 -0.475074 1.037489 0.111711 -0.041564 39636.000000 0 0 1
-33.373731 17.378918 23.140429 44.173659 -0.480099 1.019430 0.106459 -0.046193 -482708.000000 0 0 1
-34.567689 16.601918 23.710829 45.086053 -0.447742 1.017021 0.096637 -0.051773 -78449.100000 0 0 1
-35.805927 16.517318 23.011029 45.655160 -0.432212 1.042552 0.118810 -0.045874 440602.000000 0 0 1
-36.660331 17.626118 23.209929 46.833329 -0.448166 1.052287 0.110576 -0.043104 797919.000000 0 0 1
36.645269 17.233018 22.848529 46.496322 0.439579 1.057094 0.101036 -0.045734 1110240.000000 0 0 1
36.166509 16.380818 23.858329 46.320271 0.425286 1.029703 0.102836 -0.041172 -1468270.000000 0 0 1
34.867819 16.027818 23.626729 45.065265 0.430869 1.018929 0.117177 -0.035873 -1180060.000000 0 0 1
34.248609 15.144718 24.737729 44.880786 0.416348 0.987010 0.074673 -0.014534 -236555.000000 0 0 1
33.748239 15.808118 25.915929 45.392462 0.438060 0.963158 0.097588 -0.021012 255961.000000 0 0 1
33.778859 14.976618 27.085329 45.814032 0.417329 0.938248 0.085142 -0.014090 171506.000000 0 0 1
32.636349 13.928818 27.108529 44.654402 0.403385 0.918423 0.081632 -0.012030 -187043.000000 0 0 1
33.006679 12.751118 26.454229 44.179839 0.368657 0.928813 0.078228 -0.011210 -67354.700000 0 0 1
32.262389 11.660318 26.988429 43.648598 0.346813 0.904204 0.073760 -0.008967 -483274.000000 0 0 1
32.846839 10.238118 26.742129 43.576087 0.302149 0.910073 0.076888 -0.013360 -8747.970000 0 0 1
33.933199 9.856118 27.566829 44.816684 0.282678 0.908281 0.065015 -0.007191 79383.600000 0 0 1
34.425499 8.553018 27.261829 44.737864 0.243519 0.915533 0.060704 -0.010455 349632.000000 0 0 1
35.605369 8.042218 28.150529 46.096333 0.222143 0.913866 0.062299 -0.014516 1049010.000000 0 0 1
36.884279 8.619318 27.809829 46.990736 0.229566 0.937488 0.079597 -0.019317 667803.000000 0 0 1
-36.921941 7.794118 28.373629 47.212719 -0.208043 0.926077 0.086881 -0.021047 758437.000000 0 0 1
-35.493275 8.396718 28.613929 46.357679 -0.232301 0.905563 0.095800 -0.020025 817971.000000 0 0 1
-34.799518 8.652818 27.408029 45.133998 -0.243705 0.918190 0.093686 -0.020583 -164076.000000 0 0 1
-33.601321 9.331918 27.725829 44.551712 -0.270898 0.899082 0.094366 -0.010326 2785.210000 0 0 1
-32.828251 9.860218 26.513529 43.334573 -0.291785 0.912420 0.099541 -0.019050 -378350.000000 0 0 1
-32.044701 8.905118 25.874729 42.138647 -0.271057 0.909630 0.091110 -0.020561 -131011.000000 0 0 1
-31.216491 9.546618 24.922229 41.069754 -0.296787 0.918734 0.083346 -0.018822 53511.100000 0 0 1
-30.374111 8.540218 24.103629 39.705250 -0.274091 0.918436 0.088721 -0.018723 -97412.300000 0 0 1
-29.506371 9.188418 23.222629 38.656739 -0.301887 0.926371 0.091568 -0.019083 -788054.000000 0 0 1
-28.686421 8.280318 22.623429 37.460565 -0.281011 0.922378 0.071251 -0.016073 -240281.000000 0 0 1
-27.625871 8.894618 21.651129 36.208761 -0.311486 0.929852 0.090038 -0.008138 -1059390.000000 0 0 1
-26.590251 9.590718 22.271529 35.986724 -0.346162 0.903478 0.095240 -0.013124 -472394.000000 0 0 1
-25.627201 10.187918 21.486429 34.960174 -0.378387 0.908921 0.081737 -0.001746 52921.600000 0 0 1
-24.867511 9.337018 20.436829 33.514728 -0.359183 0.915005 0.069156 0.003981 -1135920.000000 0 0 1
-25.662031 9.181618 19.276429 33.382970 -0.343598 0.955215 0.077064 -0.001695 188370.000000 0 0 1
-25.344751 8.103718 18.407929 32.355502 -0.309467 0.965595 0.065450 -0.005181 -240212.000000 0 0 1
-25.224611 6.634318 18.930529 32.228250 -0.257185 0.942967 0.059211 0.007693 694122.000000 0 0 1
-23.884011 6.345218 19.410529 31.424137 -0.259670 0.904988 0.065194 0.003706 1476780.000000 0 0 1
-23.763811 5.007718 19.823029 31.348819 -0.207690 0.886230 0.078533 -0.005904 -206478.000000 0 0 1
-23.851911 3.861218 18.768629 30.595491 -0.160491 0.910382 0.075102 -0.010335 385970.000000 0 0 1
-25.140891 3.642118 18.150729 31.221441 -0.143867 0.950404 0.092064 -0.015473 1130700.000000 0 0 1
-25.095111 2.672718 17.058329 30.461362 -0.106104 0.976412 0.097807 -0.011178 -50187.300000 0 0 1
-24.993111 1.181218 17.474929 30.519240 -0.047227 0.961138 0.099069 -0.014565 -37794.800000 0 0 1
-23.670811 0.839118 17.882429 29.678152 -0.035435 0.924110 0.100559 -0.013779 635176.000000 0 0 1
-23.655511 -0.488282 18.349929 29.942303 0.020638 0.911143 0.104771 -0.019377 -48568.800000 0 0 1
-22.291311 -1.254182 18.373729 28.914865 0.056204 0.882215 0.104411 -0.009338 238952.000000 0 0 1
-21.405411 -0.636982 19.304529 28.831618 0.029749 0.837179 0.099044 -0.017912 398063.000000 0 0 1
-20.451611 -1.626982 19.712829 28.451908 0.079386 0.805366 0.105895 -0.018869 258697.000000 0 0 1
-19.352411 -1.273282 20.710529 28.373634 0.065700 0.752589 0.119611 -0.026232 123193.000000 0 0 1
-19.884911 -1.144782 22.036029 29.703650 0.057507 0.734952 0.116230 -0.027178 -134122.000000 0 0 1
-18.893111 -0.921382 23.015929 29.791468 0.048730 0.687921 0.103476 -0.024931 -197106.000000 0 0 1
-19.408011 -0.726382 24.447029 31.222680 0.037409 0.671339 0.108954 -0.022326 96296.000000 0 0 1
-20.190811 0.440418 24.698529 31.904234 -0.021809 0.685432 0.104162 -0.036176 -266601.000000 0 0 1
-21.515711 0.078618 24.990129 32.976333 -0.003654 0.710831 0.115611 -0.037630 -694924.000000 0 0 1
-22.141711 1.132118 25.884029 34.081080 -0.051086 0.708277 0.103516 -0.041842 -512444.000000 0 0 1
-22.261211 2.432218 25.329329 33.809054 -0.108826 0.723961 0.091355 -0.040520 674388.000000 0 0 1
-23.386211 2.626118 24.466629 33.947420 -0.111825 0.765954 0.089860 -0.034704 -288026.000000 0 0 1
-23.081711 3.888018 23.607029 33.244156 -0.166879 0.781141 0.093856 -0.026176 39618.900000 0 0 1
-22.348411 3.749318 22.434429 31.887497 -0.166219 0.790416 0.096248 -0.027183 902560.000000 0 0 1
-20.983711 3.309518 22.513329 30.953498 -0.156430 0.756377 0.104511 -0.024380 350612.000000 0 0 1
-20.455311 2.553018 21.228129 29.590051 -0.124167 0.770722 0.107603 -0.029658 -17422.300000 0 0 1
-19.932011 3.429018 20.240929 28.613606 -0.170368 0.785000 0.089632 -0.013860 301545.000000 0 0 1
-19.703611 2.597318 19.098329 27.563101 -0.131064 0.805300 0.122053 -0.025890 -150018.000000 0 0 1
-19.148011 3.375818 17.913829 26.437620 -0.174508 0.826318 0.097790 -0.018157 -946309.000000 0 0 1
-17.805611 3.698718 17.889129 25.509630 -0.204815 0.793619 0.114992 -0.028014 -696797.000000 0 0 1
-17.458911 4.204618 16.603129 24.457234 -0.236329 0.824582 0.112738 -0.026500 507097.000000 0 1 0
-16.055511 4.872518 16.379829 23.448234 -0.294646 0.797423 0.115275 -0.021739 662215.000000 0 1 0
-15.805711 6.140918 17.095229 24.078584 -0.370575 0.781331 0.116949 -0.029625 48681.800000 0 1 0
-16.549311 7.282218 16.715929 24.623823 -0.414533 0.824598 0.125791 -0.035585 -58808.200000 0 1 0
-16.034311 7.951018 15.380329 23.598143 -0.460342 0.860893 0.081026 -0.038136 243855.000000 0 1 0
-16.380211 7.325818 14.144229 22.848154 -0.420553 0.903259 0.128743 -0.037055 319057.000000 0 1 0
-17.707811 7.632618 13.724129 23.668019 -0.406968 0.952240 0.088012 -0.042569 376798.000000 0 1 0
-18.118611 6.525618 12.729029 23.084539 -0.345698 0.986744 0.097940 -0.041926 -68131.900000 0 1 0
-17.901411 5.259818 13.291629 22.908374 -0.285779 0.951812 0.098669 -0.031082 188312.000000 0 1 0
-18.103511 4.268718 12.364629 22.334796 -0.231565 0.984111 0.077472 -0.037286 7231.380000 0 1 0
-17.670411 2.896218 12.915329 22.077981 -0.162458 0.945932 0.072996 -0.010167 -30123.500000 0 1 0
-18.509011 2.401118 13.941329 23.296127 -0.129006 0.929244 0.092870 -0.024879 263996.000000 0 1 0
-18.274211 1.035018 14.159929 23.141341 -0.056578 0.912350 0.090853 -0.012522 812670.000000 0 1 0
-19.480211 0.620518 15.137929 24.678342 -0.031843 0.910426 0.123706 -0.013647 563422.000000 0 1 0
-20.616811 0.612918 14.342229 25.122263 -0.029720 0.963198 0.131416 -0.012389 -598523.000000 0 0 1
-21.810211 0.217818 14.963529 26.450708 -0.009987 0.969498 0.125921 -0.022595 -340867.000000 0 0 1
-22.984211 -0.124182 14.061829 26.944840 0.005403 1.021749 0.121561 -0.018107 -410102.000000 0 0 1
-22.765611 -1.229782 13.275429 26.382237 0.053967 1.043503 0.129065 -0.031542 1461900.000000 0 0 1
-23.987611 -1.589382 12.566229 27.126403 0.066162 1.089141 0.130639 -0.025116 939624.000000 0 0 1
-23.887611 -2.818382 11.622829 26.714254 0.117442 1.120670 0.140301 -0.037597 -282512.000000 0 0 1
-23.754111 -3.980982 12.332229 27.059007 0.166048 1.097578 0.127466 -0.028482 327346.000000 0 0 1
-23.644811 -5.178082 11.571629 26.828944 0.215591 1.124850 0.136528 -0.029415 -53603.100000 0 0 1
-23.537811 -6.515982 12.369329 27.376758 0.270067 1.101993 0.124454 -0.022323 -216993.000000 0 0 1
-24.699811 -6.803582 13.089929 28.770048 0.268785 1.098441 0.124665 -0.022891 -100197.000000 0 0 1
-24.805211 -8.171982 13.454929 29.378817 0.318248 1.095074 0.128359 -0.029707 -74669.900000 0 0 1
-25.796361 -8.363382 14.605129 30.801107 0.313515 1.076769 0.125441 -0.014981 -392504.000000 0 0 1
-27.136831 -8.041982 14.376829 31.745461 0.288104 1.100805 0.148887 -0.026908 -101668.000000 0 0 1
-27.848171 -8.351282 15.590729 32.989928 0.291352 1.078568 0.132327 -0.013635 -57913.400000 0 0 1
-29.233521 -7.598282 15.771429 34.074486 0.254290 1.089587 0.147937 -0.021636 451435.000000 0 0 1
-30.247841 -7.842682 14.836129 34.591188 0.253694 1.127523 0.135995 -0.022791 321530.000000 0 0 1
-30.676881 -9.171382 14.602929 35.191346 0.290509 1.142900 0.133169 -0.032866 -596035.000000 0 0 1
-31.167441 -9.993282 15.832729 36.358636 0.310276 1.120247 0.129158 -0.021687 -613996.000000 0 0 1
-30.023801 -10.287682 16.600129 35.816607 0.330113 1.088883 0.122575 -0.010205 91111.200000 0 0 1
-30.275501 -11.235882 17.582229 36.769359 0.355366 1.072219 0.105998 0.002111 -604745.000000 0 0 1
-29.162461 -11.261482 18.596329 36.374353 0.368522 1.034160 0.107094 0.003065 -242766.000000 0 0 1
-28.080891 -12.047082 18.147229 35.538578 0.405265 1.034874 0.088991 -0.006502 -570349.000000 0 0 1
-26.930901 -11.956182 18.911429 35.012367 0.417818 1.000198 0.086335 -0.010936 -627176.000000 0 0 1
-25.792671 -12.886082 18.477429 34.245122 0.463330 1.000877 0.075924 -0.004579 -349568.000000 0 0 1
-25.400651 -12.490382 17.177029 33.109712 0.457014 1.025360 0.074264 -0.006120 8364.610000 0 0 1
-24.378711 -13.378182 16.777429 32.477368 0.501895 1.027935 0.072536 -0.019174 -160347.000000 0 0 1
-23.724411 -13.200282 15.402129 31.214111 0.507744 1.054762 0.089898 -0.024807 -6863.300000 0 0 1
-22.839711 -12.083882 15.284929 30.021687 0.486635 1.036623 0.087851 -0.026788 183002.000000 0 0 1
-22.437311 -11.958682 13.915129 28.984027 0.489684 1.070032 0.104176 -0.022843 55653.100000 0 0 1
-21.177711 -11.158082 13.543229 27.503042 0.484919 1.055921 0.088378 -0.032904 -807596.000000 0 0 1
-21.347811 -9.758882 13.525929 27.090876 0.428774 1.048029 0.085778 -0.030812 1179920.000000 0 0 1
-20.117311 -9.009482 13.308229 25.748513 0.421062 1.027624 0.086616 -0.033397 690521.000000 0 0 1
-19.484711 -9.143382 11.957529 24.621899 0.438754 1.063694 0.092576 -0.027735 -843251.000000 0 1 0
-18.967111 -10.414582 11.656729 24.578327 0.502142 1.076663 0.086653 -0.034484 115083.000000 0 1 0
-18.516611 -10.408382 10.333629 23.621668 0.512094 1.118020 0.081312 -0.029862 -938583.000000 0 1 0
-17.918911 -11.731082 9.799129 23.552677 0.579655 1.141697 0.056492 -0.020357 542692.000000 0 1 0
-16.502911 -11.849182 9.841229 22.574299 0.622708 1.119705 0.067236 -0.030017 673174.000000 0 1 0
-15.864211 -11.819882 11.128829 22.698759 0.640336 1.058381 0.069521 -0.027240 -535272.000000 0 1 0
-14.371511 -12.183082 11.017529 21.825530 0.703172 1.041646 0.071370 -0.025400 -67864.700000 0 1 0
-14.064311 -13.561282 11.022029 22.432083 0.767191 1.057156 0.071334 -0.026642 617290.000000 0 1 0
-12.667811 -13.821682 10.896329 21.685072 0.828930 1.044331 0.080152 -0.024260 417973.000000 0 1 0
-12.456611 -15.366582 10.718129 22.498384 0.889607 1.074246 0.093692 -0.021628 -102746.000000 0 1 0
-12.776611 -15.894782 9.420429 22.463980 0.893728 1.138059 0.076512 -0.024622 235796.000000 0 1 0
-12.657011 -17.252482 9.413229 23.376419 0.937852 1.156353 0.076293 -0.020098 98165.000000 0 1 0
-13.149311 -17.948082 8.126229 23.686993 0.938505 1.220616 0.067883 -0.017598 134304.000000 0 1 0
-12.189211 -17.757382 7.102829 22.679323 0.969236 1.252251 0.058698 -0.018940 32769.800000 0 1 0
-12.562311 -18.393782 5.884729 23.038510 0.971595 1.312504 0.045168 -0.014713 -118690.000000 0 1 0
-11.570511 -18.189782 4.726029 22.069895 1.004255 1.354986 0.048785 -0.014812 120564.000000 0 1 0
-12.032911 -19.002282 3.618729 22.780976 1.006297 1.411272 0.065225 -0.018776 537184.000000 0 1 0
-11.082911 -18.924282 2.576429 22.081607 1.040999 1.453852 0.079918 -0.028999 165385.000000 0 1 0
-11.359911 -19.871882 1.376529 22.931073 1.051478 1.510731 0.087207 -0.024973 58573.700000 0 1 0
-11.419311 -21.305382 1.649529 24.228927 1.078779 1.502663 0.085345 -0.027597 -271951.000000 0 1 0
-11.708111 -22.097082 0.472629 25.011683 1.083556 1.551899 0.083673 -0.024666 -158474.000000 0 0 1
-10.779511 -22.109482 -0.773971 24.609472 1.117157 1.602252 0.087773 -0.020774 -100834.000000 0 1 0
-10.783911 -21.014682 -1.752471 23.685032 1.096676 1.644855 0.090925 -0.036052 500375.000000 0 1 0
-11.927511 -21.087782 -2.622371 24.368769 1.056046 1.678617 0.107386 -0.023292 1786710.000000 0 1 0
-13.156611 -20.130582 -2.261171 24.154702 0.991920 1.664546 0.123376 -0.024164 739274.000000 0 1 0
-13.785911 -20.368282 -1.048971 24.617445 0.975789 1.613420 0.116871 -0.023013 257102.000000 0 1 0
-14.996811 -19.614082 -0.950771 24.708714 0.918020 1.609285 0.138263 -0.012219 605667.000000 0 1 0
27.053289 -19.754782 -3.623771 33.693673 -0.630720 1.678555 0.109901 -0.035330 172289.000000 0 0 1
25.704489 -19.820582 -3.189471 32.615165 -0.656865 1.668744 0.112070 -0.031021 369934.000000 0 0 1
25.531889 -21.019682 -2.430271 33.160377 -0.688771 1.644150 0.091148 -0.029804 -724852.000000 0 0 1
24.164389 -21.246582 -1.821271 32.228124 -0.721233 1.627338 0.082826 -0.029483 -382111.000000 0 0 1
23.177989 -21.709782 -2.743871 31.875738 -0.752701 1.656983 0.095867 -0.035290 -110620.000000 0 0 1
22.010489 -22.008382 -2.021071 31.191590 -0.785350 1.635637 0.063971 -0.024031 -460085.000000 0 0 1
21.074189 -22.955182 -2.776871 31.285346 -0.828094 1.659673 0.079766 -0.036449 -241283.000000 0 0 1
20.385389 -22.178082 -3.733771 30.354118 -0.827491 1.694116 0.079846 -0.040458 -404723.000000 0 0 1
19.381189 -22.975782 -4.321471 30.367617 -0.870060 1.713586 0.079117 -0.041253 164479.000000 0 0 1
18.351089 -22.191282 -5.181371 29.258539 -0.879837 1.748824 0.057528 -0.013261 -114345.000000 0 0 1
17.388089 -21.340982 -4.592971 27.908396 -0.887111 1.736121 0.062221 -0.012548 217692.000000 0 0 1
17.834589 -20.231082 -3.805171 27.236898 -0.848272 1.710961 0.050072 -0.017361 -647134.000000 0 0 1
16.766889 -19.662482 -2.866571 25.999212 -0.864717 1.681277 0.065773 -0.008962 -64846.900000 0 0 1
16.327389 -20.697482 -1.957971 26.434884 -0.902886 1.644932 0.066230 -0.016283 -32219.400000 0 0 1
15.447289 -20.152782 -1.029471 25.412855 -0.916813 1.611317 0.078981 -0.008670 -425170.000000 0 0 1
15.079489 -20.977282 0.228529 25.835820 -0.947532 1.561951 0.067834 -0.012971 -401210.000000 0 0 1
14.110989 -21.957082 0.002629 26.100450 -0.999597 1.570696 0.073019 -0.022924 -298202.000000 0 0 1
13.517589 -22.232982 1.265929 26.050591 -1.024517 1.522182 0.071173 -0.018876 -452801.000000 0 0 1
12.520289 -23.368482 1.215229 26.539035 -1.078939 1.524990 0.078385 -0.027955 -565320.000000 0 0 1
13.033389 -24.679682 1.347029 27.942270 -1.084921 1.522570 0.074664 -0.020624 -532900.000000 0 0 1
12.095389 -25.694002 1.362129 28.431243 -1.130823 1.522868 0.068546 -0.017474 -540629.000000 0 0 1
12.629489 -26.948422 2.026829 29.830010 -1.132538 1.502798 0.071943 -0.021458 -62859.900000 0 0 1
12.580289 -26.906932 3.436929 29.900822 -1.133445 1.455597 0.086177 -0.030450 89897.000000 0 0 1
12.847489 -28.207622 3.930629 31.243844 -1.143410 1.444657 0.086008 -0.028180 -59191.800000 0 0 1
12.389789 -28.304042 5.374629 31.361000 -1.158185 1.398567 0.095618 -0.033174 -14558.500000 0 0 1
12.758589 -29.561932 6.012229 32.754181 -1.163358 1.386194 0.085116 -0.036018 -207251.000000 0 0 1
12.252489 -29.666482 7.307529 32.918439 -1.179127 1.346942 0.075097 -0.033147 -20774.200000 0 0 1
12.807589 -30.929202 8.010329 34.421146 -1.178200 1.335928 0.072491 -0.027303 164629.000000 0 0 1
12.412689 -31.127062 9.323329 34.783521 -1.191347 1.299440 0.069080 -0.017095 77845.900000 0 0 1
11.510989 -32.218532 9.550229 35.521030 -1.227652 1.298586 0.066278 -0.010419 298781.000000 0 0 1
11.290889 -32.390742 11.040629 36.035259 -1.235384 1.259404 0.070530 -0.012411 212461.000000 0 0 1
12.352889 -33.036512 11.769929 37.182473 -1.212976 1.248711 0.063495 -0.018321 432379.000000 0 0 1
12.134489 -33.269562 13.154029 37.777481 -1.221058 1.215149 0.068758 -0.015423 21128.700000 0 0 1
11.239489 33.231596 13.436829 37.566121 1.244657 1.205009 0.071608 -0.015710 323459.000000 0 0 1
11.742989 32.099518 12.798129 36.497520 1.220089 1.212523 0.074985 -0.020281 56260.200000 0 0 1
10.864789 31.004715 13.024529 35.340831 1.233744 1.193358 0.073059 -0.011907 239336.000000 0 0 1
10.873589 29.903605 11.934429 33.983689 1.222039 1.211964 0.074142 -0.015196 -55535.800000 0 0 1
10.484789 30.209765 10.602329 33.689317 1.236737 1.250646 0.072868 -0.012446 95129.600000 0 0 1
11.236989 31.260735 9.978129 34.685250 1.225719 1.278996 0.043644 -0.006538 136948.000000 0 0 1
10.610489 31.771599 8.684629 34.604043 1.248481 1.317113 0.033637 -0.007584 570713.000000 0 0 1
9.424589 32.572589 8.820229 35.037022 1.289147 1.316318 0.040724 -0.010895 529266.000000 0 0 1
8.675489 32.599222 7.620329 34.583852 1.310699 1.348630 0.032646 -0.010482 -275384.000000 0 0 1
9.024589 33.815485 6.689529 35.632570 1.309997 1.381939 0.049820 -0.007630 -85593.500000 0 0 1
8.516289 -32.696572 7.146929 34.535078 -1.315993 1.362343 0.054133 -0.005694 136470.000000 0 0 1
9.078389 -31.698432 6.348329 33.578402 -1.291864 1.380592 0.069328 -0.021692 142901.000000 0 0 1
8.464789 -30.269762 6.630229 32.122751 -1.298117 1.362899 0.060460 -0.020121 47978.900000 0 0 1
8.751689 -29.888572 7.966029 32.146173 -1.285948 1.320381 0.067548 -0.020098 446957.000000 0 0 1
8.022989 -28.688832 8.331329 30.932645 -1.298107 1.298091 0.079069 -0.018673 117372.000000 0 0 1
8.520589 -27.395162 7.687829 29.701820 -1.269255 1.308982 0.101931 -0.031979 -948220.000000 0 0 1
9.505189 -26.847952 8.514529 29.726392 -1.230529 1.280298 0.096206 -0.036217 -484212.000000 0 0 1
10.401289 -25.935732 7.929929 29.047079 -1.189393 1.294283 0.100844 -0.042602 -172473.000000 0 0 1
9.895789 -24.780782 7.069929 27.604306 -1.190865 1.311793 0.095002 -0.039092 -674934.000000 0 0 1
9.493489 -25.254892 5.807729 27.598291 -1.211231 1.358773 0.094813 -0.037367 -497913.000000 0 0 1
8.891189 -24.286982 5.022029 26.346376 -1.219861 1.379007 0.094694 -0.032810 20667.700000 0 0 1
8.647589 -24.810682 3.576329 26.516804 -1.235420 1.435514 0.081757 -0.024644 494200.000000 0 0 1
7.581689 -25.743032 3.437029 27.055478 -1.284380 1.443416 0.062232 -0.023667 153796.000000 0 0 1
8.102189 -27.108262 3.528629 28.512358 -1.280365 1.446720 0.060273 -0.025343 324413.000000 0 0 1
7.045289 -28.232562 3.463729 29.303773 -1.326246 1.452319 0.060514 -0.015783 -507290.000000 0 0 1
6.179789 -28.329552 4.562229 29.352466 -1.356021 1.414734 0.058206 -0.005944 -229847.000000 0 0 1
5.128889 -29.253802 4.298329 30.009433 -1.397236 1.427069 0.045665 -0.005012 262482.000000 0 0 1
5.457689 -30.772042 4.549329 31.581662 -1.395263 1.426244 0.042123 -0.003452 -134586.000000 0 0 1
6.345689 -31.364702 3.606129 32.202741 -1.371172 1.458579 0.058201 -0.000088 28248.800000 0 0 1
6.459589 -32.778692 3.742429 33.618072 -1.376223 1.459243 0.051051 -0.005569 516912.000000 0 0 1
7.461489 -33.512452 2.749629 34.442978 -1.351721 1.490880 0.057614 -0.010529 590387.000000 0 0 1
7.020889 -33.509562 1.442129 34.267527 -1.364265 1.528699 0.059172 -0.013473 -262099.000000 0 0 1
7.883189 33.428177 0.686529 34.351987 1.339203 1.550810 0.055359 -0.014285 -109444.000000 0 0 1
7.258189 32.824495 -0.593671 33.622630 1.353177 1.588454 0.080552 -0.013444 584104.000000 0 0 1
6.218089 31.849755 -0.392271 32.453434 1.377990 1.582884 0.050267 -0.008999 348091.000000 0 0 1
4.953689 32.440609 -0.670171 32.823487 1.419267 1.591215 0.056308 -0.016606 -533754.000000 0 0 1
3.794489 31.515245 -0.419271 31.745623 1.450971 1.584004 0.067733 -0.018234 -599959.000000 0 0 1
3.816089 30.406765 -1.341571 30.674643 1.445948 1.614546 0.073326 -0.012833 -141613.000000 0 0 1
2.722989 29.583775 -1.013571 29.726112 1.479012 1.604900 0.070965 -0.023811 86486.200000 0 0 1
2.552289 28.523485 -2.065171 28.711815 1.481554 1.642786 0.069212 -0.013930 13440.800000 0 0 1
2.430889 29.221685 -3.294971 29.507167 1.487800 1.682696 0.080193 -0.024747 -75095.800000 0 0 1
2.277589 28.311265 -4.377571 28.738098 1.490521 1.723718 0.074978 -0.034211 -157122.000000 0 0 1
1.846889 29.028535 -5.639371 29.628860 1.507259 1.762298 0.079286 -0.035847 34076.000000 0 0 1
0.462389 29.324565 -5.648271 29.867154 1.555030 1.761055 0.096089 -0.034971 -14376.100000 0 0 1
0.139289 30.194155 -6.704971 30.929970 1.566183 1.789310 0.086801 -0.031720 -308185.000000 0 0 1
0.155789 29.760365 -8.212271 30.873046 1.565562 1.840039 0.095415 -0.029911 -270944.000000 0 0 1
-0.960511 28.964415 -8.625471 30.236711 -1.537647 1.860079 0.109686 -0.027435 411872.000000 0 0 1
-1.006511 28.696205 -10.010571 30.408827 -1.535736 1.906252 0.112847 -0.028325 -101913.000000 0 0 1
-1.117911 29.853725 -11.009271 31.838635 -1.533368 1.923870 0.095293 -0.029857 -422714.000000 0 0 1
0.061389 30.596475 -11.106571 32.550023 1.568790 1.919006 0.085648 -0.030792 -459268.000000 0 0 1
-0.170911 31.916147 -11.629271 33.969245 -1.565441 1.920210 0.081283 -0.032146 113486.000000 0 0 1
-0.312411 33.041225 -10.598771 34.700924 -1.561341 1.881188 0.074904 -0.037276 323862.000000 0 0 1
0.861189 33.328811 -9.859371 34.767204 1.544963 1.858324 0.073740 -0.039977 250898.000000 0 0 1
0.443289 -33.663932 -8.740471 34.782937 -1.557629 1.824805 0.070779 -0.035186 -159481.000000 0 0 1
1.541889 -33.536412 -7.668871 34.436608 -1.524852 1.795375 0.066325 -0.032892 233741.000000 0 0 1
2.585089 -32.696092 -8.151071 33.795815 -1.491896 1.814384 0.079337 -0.034287 -347379.000000 0 0 1
3.441789 -32.290402 -7.136571 33.248258 -1.464609 1.787125 0.085239 -0.034363 -2363960.000000 0 0 1
4.617389 -31.521052 -7.637771 32.760228 -1.425345 1.806103 0.052467 -0.029178 -1197740.000000 0 0 1
5.587689 -32.177232 -8.374471 33.715402 -1.398857 1.821811 0.073416 -0.027347 -263611.000000 0 0 1
6.329889 -33.091562 -7.625571 34.543716 -1.381795 1.793381 0.079864 -0.015552 -1761360.000000 0 0 1
6.744089 33.402854 -8.366871 35.089000 1.371573 1.811563 0.071158 -0.013516 -38945.300000 0 0 1
5.765589 32.396342 -8.527371 33.992368 1.394670 1.824366 0.057315 -0.016404 -36510.100000 0 0 1
4.778689 32.580197 -9.524271 34.278519 1.425160 1.852351 0.071324 -0.025083 469004.000000 0 0 1
3.799489 31.392055 -9.761771 33.093646 1.450349 1.870225 0.064172 -0.030647 110899.000000 0 0 1
4.330689 30.389605 -10.587771 32.471277 1.429244 1.902935 0.050716 -0.020269 241394.000000 0 0 1
3.567489 29.164165 -10.665571 31.257478 1.449077 1.919007 0.051510 -0.029221 450729.000000 0 0 1
4.224689 28.285275 -11.753171 30.919926 1.422532 1.960718 0.048914 -0.024539 253692.000000 0 0 1
4.135589 28.846425 -13.062571 31.935092 1.428401 1.992193 0.057101 -0.018030 252.839000 0 0 1
5.285989 28.477675 -13.775771 32.073221 1.387266 2.014746 0.051932 -0.024144 -4550.840000 0 0 1
5.266489 29.088085 -15.202071 33.240872 1.391683 2.045788 0.063302 -0.017284 567944.000000 0 0 1
4.087289 28.609255 -15.867771 32.969403 1.428891 2.072920 0.062920 -0.018608 595661.000000 0 0 1
4.072889 28.923905 -17.260971 33.928186 1.430902 2.104529 0.105020 -0.018820 -120418.000000 0 0 1
2.863389 28.358465 -18.003271 33.712302 1.470166 2.134153 0.103140 -0.030919 -129563.000000 0 0 1
3.126189 27.067055 -18.614371 32.998384 1.455808 2.170139 0.126426 -0.018719 71960.100000 0 0 1
1.956789 26.446955 -19.110971 32.687913 1.496942 2.195244 0.117654 -0.038122 161657.000000 0 0 1
2.323689 25.243105 -20.039871 32.314243 1.479003 2.239738 0.138371 -0.039205 270165.000000 0 0 1
2.932189 24.179795 -19.326571 31.093031 1.450119 2.241545 0.138625 -0.043462 568963.000000 0 0 1
3.896589 23.407145 -20.068071 31.077408 1.405839 2.272794 0.142555 -0.034993 709594.000000 0 0 1
4.603789 22.321615 -19.222571 29.815375 1.367400 2.271453 0.133583 -0.033406 272250.000000 0 0 1
3.737889 21.253015 -18.941171 28.712896 1.396701 2.291182 0.142425 -0.029062 22858.000000 0 0 1
4.435589 20.313215 -18.130271 27.586371 1.355811 2.287919 0.117654 -0.018783 512555.000000 0 0 1
3.615689 19.046515 -17.687471 26.242895 1.383194 2.310394 0.111016 -0.025661 324516.000000 0 0 1
2.678689 19.269115 -16.638071 25.598820 1.432667 2.278321 0.115945 -0.028618 -259963.000000 0 0 1
1.965389 18.133715 -16.298071 24.460611 1.462835 2.300030 0.088005 -0.018488 -144255.000000 0 1 0
2.748689 17.136415 -15.406771 23.207339 1.411751 2.296785 0.054357 -0.002981 -187704.000000 0 1 0
3.770689 16.373515 -15.990771 23.195147 1.344451 2.331459 0.069345 -0.014077 -832010.000000 0 1 0
3.407489 15.328915 -16.926671 23.088932 1.352061 2.393676 0.084372 -0.018534 -239700.000000 0 1 0
3.316689 15.743215 -18.439171 24.471458 1.363158 2.424161 0.096861 -0.023544 222262.000000 0 1 0
4.583189 15.894015 -19.057671 25.235296 1.290053 2.426754 0.092763 -0.020594 -153539.000000 0 0 1
4.440789 16.265115 -20.411071 26.474259 1.304267 2.451172 0.096875 -0.032649 -385787.000000 0 0 1
4.624289 15.079515 -21.354771 26.548108 1.273240 2.505428 0.097993 -0.032629 54389.500000 0 0 1
3.644289 14.082015 -21.507671 25.964666 1.317562 2.546941 0.089618 -0.026253 569196.000000 0 0 1
2.383689 14.500615 -22.094571 26.535257 1.407868 2.554671 0.100808 -0.033835 1052060.000000 0 0 1
1.543689 13.307115 -22.635171 26.302343 1.455308 2.607196 0.106759 -0.023469 -70326.600000 0 0 1
0.987989 12.584315 -21.582271 25.002710 1.492447 2.612365 0.110105 -0.019436 -191969.000000 0 0 1
0.159489 11.615615 -22.176571 25.034940 1.557067 2.659065 0.079083 -0.015403 243102.000000 0 0 1
-0.545611 10.557615 -21.205471 23.694576 -1.519163 2.679116 0.052279 -0.011660 -450654.000000 0 1 0
-1.521011 11.105815 -20.371171 23.251606 -1.434687 2.638548 0.052930 -0.009169 -244023.000000 0 1 0
-2.132211 10.192915 -19.490171 22.097706 -1.364584 2.650885 0.036172 -0.005246 69961.100000 0 1 0
-3.303811 9.360715 -19.999571 22.327583 -1.231501 2.680875 0.037793 -0.001031 -656722.000000 0 1 0
-2.855111 8.316415 -20.829871 22.609687 -1.240094 2.742158 0.039257 0.002833 91742.900000 0 1 0
-3.891011 7.371415 -21.069571 22.658432 -1.085117 2.764877 0.041957 0.007283 -203881.000000 0 1 0
-3.354011 6.163515 -21.819271 22.919836 -1.072439 2.830442 0.039181 -0.001042 224830.000000 0 1 0
-2.434411 5.340115 -21.098971 21.899994 -1.143070 2.870294 0.039574 -0.000785 361337.000000 0 1 0
-1.989411 4.223715 -21.869771 22.362567 -1.130609 2.931269 0.049826 -0.005885 -284111.000000 0 1 0
-1.318811 3.069515 -21.097271 21.360150 -1.164995 2.984543 0.043263 -0.007549 -967559.000000 0 1 0
0.045889 3.264715 -21.080171 21.331527 1.556741 2.987927 0.046463 -0.004007 -909324.000000 0 1 0
0.716689 2.445215 -20.087571 20.248536 1.285683 3.015418 0.043170 -0.007211 1541750.000000 0 1 0
2.280789 2.293615 -20.233171 20.490092 0.788202 2.983068 0.041467 -0.009759 1122510.000000 0 1 0
2.851289 1.908415 -21.463771 21.736268 0.589835 2.983082 0.057317 -0.006396 -956046.000000 0 1 0
4.226489 1.899615 -21.250271 21.749615 0.422400 2.926897 0.066332 -0.012505 -676378.000000 0 1 0
4.979489 1.513615 -22.584871 23.176771 0.295095 2.915107 0.068796 0.000309 -837498.000000 0 1 0
6.250789 1.103515 -22.209471 23.098716 0.174740 2.863214 0.076199 -0.019432 -725626.000000 0 1 0
6.928689 0.518315 -23.325071 24.337919 0.074668 2.852083 0.075827 -0.018214 -1166920.000000 0 1 0
8.402589 0.329015 -23.102471 24.585278 0.039136 2.792511 0.071810 -0.029467 -1127450.000000 0 1 0
9.014789 1.582615 -22.873171 24.636417 0.173787 2.760959 0.077974 -0.047670 -897047.000000 0 1 0
10.335889 1.583215 -23.300371 25.539077 0.151995 2.719764 0.093183 -0.037213 -616283.000000 0 0 1
13.423189 -20.059682 22.823703 33.218884 -0.981068 0.813347 0.091424 -0.019037 2031.090000 0 0 1
12.718689 -21.277282 22.550873 33.511635 -1.032026 0.832638 0.078318 -0.015281 207597.000000 0 0 1
11.455789 -21.175082 21.920373 32.559514 -1.074887 0.832214 0.077261 -0.010182 221369.000000 0 0 1
11.388989 -20.867482 20.409673 31.332342 -1.071201 0.861377 0.101823 -0.022648 -510093.000000 0 0 1
11.805889 -19.598682 20.088173 30.447037 -1.028627 0.850278 0.118522 -0.022663 9613.370000 0 0 1
11.828389 -19.427882 18.686673 29.437139 -1.023905 0.883048 0.113439 -0.016939 -101158.000000 0 0 1
11.989489 -17.928382 18.309373 28.291481 -0.981357 0.866931 0.129252 -0.029970 -101183.000000 0 0 1
10.841989 -17.136682 18.528773 27.468710 -1.006695 0.830453 0.148835 -0.040467 23499.400000 0 0 1
11.102489 -15.805582 18.099473 26.470221 -0.958434 0.817883 0.153644 -0.036960 106050.000000 0 0 1
9.934789 -14.919582 18.548473 25.794182 -0.983332 0.768297 0.155124 -0.037108 -588166.000000 0 0 1
8.707989 -15.303782 18.044673 25.212002 -1.053476 0.773145 0.129522 -0.028031 -1059290.000000 0 0 1
7.657689 -14.641982 18.701773 24.955644 -1.088922 0.723640 0.101871 -0.017522 -878372.000000 0 1 0
6.281989 -15.075782 18.283873 24.516170 -1.175982 0.729079 0.052981 -0.005696 -1265170.000000 0 1 0
5.949489 -14.799382 16.959273 23.281647 -1.188559 0.754755 0.042102 -0.014446 805226.000000 0 1 0
4.558489 -15.068882 16.693873 22.946382 -1.277038 0.756101 0.016172 -0.012441 811740.000000 0 1 0
4.007789 -16.518082 16.643973 23.789310 -1.332766 0.795902 0.006373 -0.003179 334574.000000 0 1 0
2.661789 -16.533582 16.142673 23.260059 -1.411173 0.803755 0.017518 -0.008083 407509.000000 0 1 0
2.027789 -17.751382 16.401073 24.253220 -1.457057 0.828145 0.024364 -0.010402 -317575.000000 0 1 0
0.541689 -17.769682 16.061073 23.958571 -1.540322 0.836091 0.029539 -0.003790 -464396.000000 0 1 0
0.177589 -17.651582 14.723073 22.986491 -1.560736 0.875634 0.039844 -0.008442 -275775.000000 0 1 0
-1.227811 -17.761082 14.685273 23.078579 1.501777 0.881083 0.039863 -0.003729 -291594.000000 0 1 0
-1.768411 -18.052782 13.280473 22.481130 1.473150 0.938822 0.037637 -0.019644 -627999.000000 0 1 0
-3.111911 -18.412982 13.196873 22.866556 1.403372 0.955592 0.036723 -0.018888 -485688.000000 0 1 0
-3.280311 -19.697382 12.545173 23.582381 1.405775 1.009868 0.054817 -0.025992 201182.000000 0 1 0
-4.761911 -20.056182 12.278073 23.993277 1.337684 1.033599 0.045282 -0.026202 583566.000000 0 1 0
-5.410811 -20.638682 13.424473 25.208105 1.314398 1.009191 0.052734 -0.028754 1244760.000000 0 0 1
-6.811511 -20.944882 13.215873 25.685484 1.256373 1.030340 0.058429 -0.031933 1053450.000000 0 0 1
-7.472211 -21.707082 14.358173 27.077454 1.239272 1.011886 0.078993 -0.034460 -416842.000000 0 0 1
-8.866611 -21.586182 14.344773 27.392564 1.181054 1.019638 0.076158 -0.032238 -544908.000000 0 0 1
-9.479311 -22.375682 15.339873 28.737435 1.170075 1.007715 0.079459 -0.029648 245276.000000 0 0 1
-10.963711 -21.980982 15.518573 29.054994 1.108124 1.007341 0.092257 -0.030387 138903.000000 0 0 1
-11.097011 -20.703882 16.154773 28.509140 1.078775 0.968359 0.090241 -0.029503 -628524.000000 0 0 1
-12.368411 -20.159282 15.964573 28.534923 1.020485 0.977044 0.070664 -0.023337 -370488.000000 0 0 1
-12.671511 -18.920782 16.769873 28.280591 0.980687 0.936040 0.080432 -0.020780 -203948.000000 0 0 1
-13.005411 -19.334682 18.110873 29.512275 0.978665 0.910093 0.076901 -0.021345 -3443.940000 0 0 1
-13.001611 -18.254982 18.986873 29.373246 0.951914 0.867939 0.080276 -0.028120 -224701.000000 0 0 1
-13.455311 -18.670482 20.376373 30.738069 0.946330 0.846106 0.073995 -0.029395 768794.000000 0 0 1
-14.854011 -18.998982 20.304973 31.526099 0.907232 0.870991 0.063591 -0.019224 840962.000000 0 0 1
-15.234011 -19.898682 21.341373 32.916361 0.917399 0.865379 0.055427 -0.011914 222390.000000 0 0 1
-16.655011 -20.492082 21.172373 33.846480 0.888327 0.894971 0.065486 -0.014769 -226087.000000 0 0 1
-16.680311 -21.425282 20.102273 33.784270 0.909282 0.933507 0.065672 -0.018813 592143.000000 0 0 1
-17.979911 -21.722282 19.605873 34.344213 0.879382 0.963239 0.058652 -0.012637 458869.000000 0 0 1
-18.969111 -22.592482 20.409173 35.871740 0.872359 0.965570 0.060970 -0.013592 -364186.000000 0 0 1
-19.544911 -21.868582 21.453073 36.338310 0.841448 0.939278 0.066201 -0.012347 323358.000000 0 0 1
-20.464111 -22.653682 22.250573 37.776410 0.836136 0.940967 0.069925 0.000257 284071.000000 0 0 1
-20.974711 -21.809082 23.415363 38.260342 0.804898 0.912208 0.063191 0.001144 -389653.000000 0 0 1
-21.822511 -20.836682 22.892653 37.874304 0.762293 0.921737 0.070381 0.001716 -219720.000000 0 0 1
-21.877111 -19.721482 23.780123 37.855503 0.733625 0.891583 0.068166 -0.003058 -174650.000000 0 0 1
-22.853011 -18.616082 23.387813 37.627230 0.683581 0.900056 0.065084 -0.005440 -183922.000000 0 0 1
-22.558411 -17.986382 22.114073 36.351397 0.673108 0.916827 0.065379 -0.007588 -197805.000000 0 0 1
-23.492511 -17.003182 21.728373 36.237114 0.626502 0.927774 0.070444 -0.006450 -174065.000000 0 0 1
-23.274511 -16.232282 20.401573 34.948734 0.608997 0.947448 0.069532 -0.007050 -213081.000000 0 0 1
-22.282311 -15.226582 20.399373 33.830232 0.599463 0.923549 0.078996 -0.011592 -75424.200000 0 0 1
-21.895611 -14.892282 19.069973 32.632219 0.597279 0.946667 0.068422 -0.014031 -282782.000000 0 0 1
-20.837411 -13.802182 18.953973 31.367994 0.585026 0.921978 0.070805 -0.026030 -213247.000000 0 0 1
-20.537411 -13.802782 17.580473 30.354161 0.591741 0.953076 0.066751 -0.032998 368686.000000 0 0 1
-19.505511 -12.838582 17.277073 29.048088 0.582120 0.933811 0.079713 -0.040632 445401.000000 0 0 1
-18.993711 -13.078482 15.793273 27.950585 0.603013 0.970311 0.072344 -0.041386 13676.600000 0 0 1
-18.489011 -11.967482 15.099573 26.703207 0.574457 0.969806 0.076578 -0.032120 256433.000000 0 0 1
-17.086411 -11.744082 15.241073 25.732454 0.602175 0.936898 0.097078 -0.047445 353254.000000 0 0 1
-16.607511 -10.445582 14.548073 24.424701 0.561447 0.932747 0.088970 -0.042202 -42975.200000 0 1 0
-17.023311 -9.244382 15.147873 24.590847 0.497486 0.907146 0.091681 -0.035487 144827.000000 0 1 0
-16.422011 -8.107782 14.481073 23.347806 0.458606 0.901757 0.066802 -0.023272 -314244.000000 0 1 0
-16.814711 -6.750682 15.062673 23.562477 0.381777 0.877254 0.093606 -0.019398 118614.000000 0 1 0
-16.280511 -6.339582 16.319473 23.907541 0.371333 0.819471 0.093944 -0.022757 508016.000000 0 1 0
-14.879511 -6.068582 16.194273 22.814075 0.387254 0.781530 0.081210 -0.025262 274103.000000 0 1 0
-14.076611 -5.959082 17.499473 23.235602 0.400457 0.717986 0.064833 -0.025364 -65043.200000 0 1 0
-14.036911 -7.077682 18.354473 24.166405 0.467017 0.708247 0.060450 -0.026243 184795.000000 0 1 0
-13.342711 -8.256082 17.863673 23.776073 0.554107 0.720721 0.058519 -0.024886 -299062.000000 0 1 0
-13.594211 -9.482682 18.744373 25.021498 0.609082 0.724047 0.071405 -0.033186 -80202.000000 0 0 1
-14.888711 -10.001182 18.901673 26.057064 0.591499 0.759188 0.092380 -0.034684 -602432.000000 0 0 1
-15.609311 -9.279582 19.856573 26.908079 0.536358 0.740782 0.079779 -0.031841 -1173740.000000 0 0 1
-16.964811 -9.887382 20.279673 28.228182 0.527689 0.769269 0.082064 -0.027416 1006650.000000 0 0 1
-18.123111 -9.730682 19.440973 28.303441 0.492746 0.813614 0.089952 -0.024829 642872.000000 0 0 1
-18.512611 -8.421182 19.106373 27.904956 0.426912 0.816612 0.085778 -0.023381 -1168270.000000 0 0 1
-19.491911 -8.522382 17.967673 27.846056 0.412181 0.869446 0.108684 -0.032391 301758.000000 0 0 1
-20.779111 -9.027182 18.342173 29.149559 0.409835 0.890217 0.103862 -0.025278 550197.000000 0 0 1
-21.641811 -9.086082 17.196973 29.097435 0.397491 0.938482 0.108264 -0.014128 389917.000000 0 0 1
-23.085611 -9.501482 17.575873 30.530884 0.390446 0.957367 0.100043 -0.008396 -40162.700000 0 0 1
-23.732411 -8.528282 18.307373 31.162779 0.344982 0.942860 0.096964 -0.002800 824879.000000 0 0 1
-25.151611 -8.748582 18.399573 32.367970 0.334744 0.966176 0.088587 -0.002215 1175030.000000 0 0 1
-25.997151 -7.598182 19.060173 33.119094 0.284350 0.957576 0.097086 -0.001703 165117.000000 0 0 1
-25.866221 -7.589682 20.476673 33.852013 0.285410 0.921171 0.098297 -0.011568 153744.000000 0 0 1
-26.555311 -6.488382 21.017573 34.482198 0.239639 0.915342 0.086139 -0.010389 -680577.000000 0 0 1
-26.746121 -6.445882 22.581373 35.592454 0.236493 0.883509 0.091229 -0.010439 1412160.000000 0 0 1
-25.560891 -6.098782 23.356063 35.157644 0.234219 0.844207 0.094303 -0.015579 1808610.000000 0 0 1
-24.341011 -6.857782 23.206463 34.322790 0.274619 0.828307 0.097155 -0.016232 248355.000000 0 0 1
-23.399411 -6.571682 24.385133 34.428972 0.273795 0.783747 0.106278 -0.019248 -461153.000000 0 0 1
-22.717411 -5.371882 24.129853 33.573616 0.232200 0.768844 0.105477 -0.023694 -56035.900000 0 0 1
-22.124711 -5.009882 25.371893 34.034317 0.222683 0.729542 0.104005 -0.024710 402849.000000 0 0 1
-21.424411 -3.579082 25.274183 33.325659 0.165528 0.709941 0.104531 -0.027386 597625.000000 0 0 1
-20.393811 -3.261482 26.231613 33.386259 0.158582 0.666968 0.092144 -0.029225 319315.000000 0 0 1
-20.707111 -3.102582 27.639453 34.674916 0.148725 0.648315 0.097164 -0.041935 -287932.000000 0 0 1
-21.682111 -2.004482 28.079703 35.533106 0.092187 0.659595 0.093691 -0.043133 1481570.000000 0 0 1
-23.057111 -2.224982 27.634533 36.058956 0.096201 0.697624 0.110489 -0.048056 587968.000000 0 0 1
-23.834111 -1.232082 28.207133 36.948954 0.051648 0.702223 0.102188 -0.040434 -756549.000000 0 0 1
-25.155261 -1.094682 27.461343 37.257359 0.043490 0.742069 0.094129 -0.038954 -979719.000000 0 0 1
-25.066051 -0.531782 26.167713 36.240018 0.021212 0.764011 0.085776 -0.040413 998052.000000 0 0 1
-26.344371 -0.153882 25.601133 36.735100 0.005841 0.799714 0.095452 -0.034705 1279750.000000 0 0 1
-27.264121 -1.348082 25.086043 37.073699 0.049405 0.827588 0.089639 -0.028874 16444.100000 0 0 1
-28.070081 -1.892382 26.104703 38.379240 0.067314 0.822791 0.082188 -0.026477 -188481.000000 0 0 1
-28.555481 -3.127182 25.762443 38.586244 0.109078 0.839737 0.080995 -0.023261 227320.000000 0 0 1
-27.518441 -4.325582 25.725133 37.917776 0.155913 0.825152 0.083085 -0.028878 398883.000000 0 0 1
-26.812161 -4.515882 26.914183 38.257789 0.166861 0.790492 0.082552 -0.031888 -513060.000000 0 0 1
-26.094321 -5.675782 26.988573 37.967238 0.214174 0.780107 0.089472 -0.039838 -293539.000000 0 0 1
-25.606541 -5.896682 28.432733 38.715450 0.226335 0.746010 0.072319 -0.031337 241526.000000 0 0 1
-26.683141 -6.256682 29.283843 40.108347 0.230320 0.752301 0.090902 -0.035606 448047.000000 0 0 1
-26.203711 -6.917082 30.440383 40.756563 0.258086 0.727434 0.083929 -0.028159 -8878.660000 0 0 1
-27.375941 -7.198682 31.432823 42.299947 0.257135 0.733115 0.088425 -0.033940 283591.000000 0 0 1
-28.279121 -8.156382 30.951353 42.710906 0.280803 0.760240 0.077691 -0.032378 -478573.000000 0 0 1
-29.391561 -8.352682 31.765738 44.075994 0.276887 0.765979 0.086211 -0.037275 -25734.800000 0 0 1
-30.515131 -9.127182 30.991683 44.440557 0.290634 0.799070 0.072677 -0.037993 2677.200000 0 0 1
-30.172561 -10.462282 30.586043 44.219326 0.333775 0.806971 0.074715 -0.031987 628218.000000 0 0 1
-31.279251 -10.921882 29.814723 44.571255 0.335938 0.838038 0.072515 -0.035926 283212.000000 0 0 1
-30.868521 -12.132682 28.927303 44.009731 0.374495 0.853575 0.080159 -0.029303 -163223.000000 0 0 1
-29.957651 -11.855982 27.908513 42.625230 0.376844 0.856956 0.077784 -0.021580 -550386.000000 0 0 1
-29.203191 -12.975982 27.585883 42.215914 0.418132 0.858666 0.072665 -0.021350 60516.600000 0 0 1
-27.775271 -12.635082 27.061643 40.785334 0.426925 0.845290 0.085523 -0.021861 909819.000000 0 0 1
-26.789801 -12.032082 27.952193 40.543674 0.422130 0.810089 0.086559 -0.023295 821875.000000 0 0 1
-27.108331 -10.755882 28.583193 40.835640 0.377722 0.795459 0.091884 -0.020919 -811183.000000 0 0 1
-27.050071 -9.508882 27.651153 39.833547 0.338036 0.803534 0.076331 -0.011170 2124320.000000 0 0 1
-25.703021 -9.171282 27.106283 38.464377 0.342735 0.788780 0.082170 -0.015374 2091000.000000 0 0 1
-25.214701 -10.007882 26.067353 37.622410 0.377837 0.805338 0.076198 -0.013304 -217850.000000 0 0 1
-25.855331 -9.799482 24.665153 37.052635 0.362283 0.842393 0.086291 -0.006396 178351.000000 0 0 1
-27.112331 -10.434782 24.465933 37.980851 0.367398 0.870865 0.079171 -0.006113 -56892.200000 0 0 1
-27.597311 -10.128482 23.219243 37.461059 0.351747 0.902279 0.084888 -0.007267 -272930.000000 0 0 1
-28.864141 -10.952382 22.847673 38.407154 0.362663 0.933679 0.082943 -0.003001 1386440.000000 0 0 1
-30.148911 -10.501682 23.333983 39.543861 0.335184 0.939640 0.092691 -0.001004 773677.000000 0 0 1
-30.324081 -10.706882 24.736993 40.572232 0.339418 0.915111 0.092794 -0.007103 666576.000000 0 0 1
-31.833721 -10.733182 25.250633 42.025962 0.325194 0.926252 0.076958 -0.012026 1336090.000000 0 0 1
-32.439021 -9.417182 25.073393 42.067189 0.282538 0.932246 0.092389 -0.016768 -916070.000000 0 0 1
-33.772421 -9.207482 25.359343 43.225576 0.266164 0.943850 0.076226 -0.014505 -627511.000000 0 0 1
-34.191320 -9.267182 26.853543 44.452669 0.264680 0.922169 0.063601 -0.023072 -243690.000000 0 0 1
-34.338506 -10.550082 27.439473 45.203561 0.298084 0.918491 0.054410 -0.031626 220071.000000 0 0 1
-34.801784 -10.502182 28.816043 46.387760 0.293081 0.900524 0.070893 -0.035275 -874242.000000 0 0 1
-35.530860 -11.843682 29.192103 47.485721 0.321752 0.908721 0.082643 -0.034066 1039450.000000 0 0 1
-36.804901 -12.239782 28.643743 48.216978 0.321053 0.934701 0.064471 -0.027994 1496080.000000 0 0 1
36.969179 -11.258882 28.951243 48.287236 -0.295624 0.927841 0.074639 -0.024212 852032.000000 0 0 1
35.522799 -11.688882 28.481343 47.007299 -0.317893 0.919910 0.072643 -0.018271 1106750.000000 0 0 1
35.391029 -11.649582 27.067203 46.052917 -0.317997 0.942532 0.070796 -0.015703 -383955.000000 0 0 1
34.076929 -11.977182 26.695673 44.914908 -0.337988 0.934325 0.072323 -0.000943 -126950.000000 0 0 1
33.780639 -11.835782 25.162053 43.753243 -0.337006 0.958082 0.076735 -0.008935 59988.500000 0 0 1
33.749109 -10.447782 24.864073 43.201628 -0.300215 0.957537 0.083239 -0.026591 10857.300000 0 0 1
33.638699 -10.163582 23.438343 42.239986 -0.293419 0.982571 0.081074 -0.024226 -288504.000000 0 0 1
33.332309 -8.716382 23.051073 41.453228 -0.255772 0.981141 0.088513 -0.012668 -303510.000000 0 0 1
31.944369 -8.495182 23.091773 40.321717 -0.259921 0.961015 0.090071 -0.017242 -305375.000000 0 0 1
31.688209 -7.123782 22.792873 39.678785 -0.221132 0.958883 0.082930 -0.005123 -378950.000000 0 0 1
30.180189 -6.884982 22.772973 38.429873 -0.224291 0.936532 0.074715 0.009129 -457334.000000 0 0 1
29.507039 -7.458082 21.703673 37.380982 -0.247571 0.951322 0.083232 0.002749 -750701.000000 0 0 1
28.129239 -7.294382 21.827373 36.344138 -0.253728 0.926577 0.098888 -0.019456 -548506.000000 0 0 1
15.480489 -17.093282 25.455253 34.348155 -0.834870 0.736096 0.111924 -0.014453 -70965.100000 0 0 1
14.993789 -18.395582 25.259253 34.658924 -0.886930 0.754236 0.124738 -0.015751 491313.000000 0 0 1
15.915989 -19.338982 25.805743 35.961804 -0.882187 0.770464 0.095562 -0.013500 -377164.000000 0 0 1
15.340989 -20.801282 25.887753 36.581622 -0.935342 0.784600 0.097213 -0.019656 1136250.000000 0 0 1
14.245189 -21.170682 26.775393 36.987091 -0.978509 0.761341 0.085408 -0.020622 643339.000000 0 0 1
13.057289 -20.479082 26.594363 36.015910 -1.003194 0.740093 0.092151 -0.020544 -762872.000000 0 0 1
12.068489 -20.456582 27.787123 36.554677 -1.037795 0.707249 0.080585 -0.018123 208423.000000 0 0 1
12.691489 -19.868882 28.897393 37.294848 -1.002362 0.684341 0.081106 -0.026226 -512935.000000 0 0 1
11.873089 -19.106982 29.695343 37.253999 -1.014790 0.648311 0.071392 -0.017500 -399884.000000 0 0 1
11.741889 -17.582582 29.333653 36.159126 -0.982000 0.624530 0.100741 -0.013604 9321.020000 0 0 1
12.785689 -16.752682 29.749513 36.457643 -0.918899 0.616336 0.089380 -0.001746 -584795.000000 0 0 1
12.693689 -15.525682 29.146943 35.379667 -0.885420 0.602656 0.106047 -0.005908 258904.000000 0 0 1
13.686789 -14.493082 29.738443 35.801573 -0.814003 0.590529 0.089308 -0.003817 228081.000000 0 0 1
13.566189 -13.316882 29.012773 34.686047 -0.776125 0.580043 0.131867 -0.012950 -208019.000000 0 0 1
14.267989 -12.306682 29.646193 35.127293 -0.711728 0.566164 0.120714 -0.008267 -437112.000000 0 0 1
13.900289 -10.846282 29.187003 34.098989 -0.662608 0.543412 0.117061 -0.008670 -27096.700000 0 0 1
14.191589 -10.367882 27.883723 32.960525 -0.630946 0.562409 0.160665 -0.016710 -219610.000000 0 0 1
15.584289 -10.284382 27.716723 33.419385 -0.583317 0.592834 0.138599 -0.020912 -597043.000000 0 0 1
15.961389 -9.133882 26.802443 32.504841 -0.519764 0.601359 0.131061 -0.018818 -268474.000000 0 0 1
15.961289 -7.886582 27.545053 32.797727 -0.458922 0.573796 0.140022 -0.027439 -718104.000000 0 0 1
17.162989 -7.467882 28.095733 33.759557 -0.410407 0.587678 0.131174 -0.031700 -734336.000000 0 0 1
17.736889 -6.186182 27.368263 33.194697 -0.335583 0.601519 0.127442 -0.032285 119448.000000 0 0 1
19.099189 -5.957582 27.668433 34.144019 -0.302364 0.626056 0.102858 -0.044855 110950.000000 0 0 1
19.616189 -4.759082 27.083553 33.778138 -0.238011 0.640483 0.100991 -0.038659 -1804950.000000 0 0 1
21.088389 -4.793482 26.979373 34.577221 -0.223507 0.675708 0.100194 -0.034994 -2442180.000000 0 0 1
21.566489 -5.721482 25.999993 34.261472 -0.259321 0.709221 0.104450 -0.031152 1368730.000000 0 0 1
22.954689 -5.772682 25.593683 34.860841 -0.246373 0.746357 0.087846 -0.026449 1185440.000000 0 0 1
24.077989 -5.865482 26.632393 36.379085 -0.238949 0.749426 0.071304 -0.022898 -776776.000000 0 0 1
24.225789 -4.696582 27.410163 36.881754 -0.191492 0.732970 0.080267 -0.023499 -414689.000000 0 0 1
25.174589 -5.021882 28.373513 38.262717 -0.196898 0.735427 0.084815 -0.029852 -314818.000000 0 0 1
25.878889 -3.784582 28.990723 39.044872 -0.145213 0.734005 0.084047 -0.023675 -6649.740000 0 0 1
26.804989 -3.099482 28.173643 39.011132 -0.115120 0.763826 0.071669 -0.012478 142873.000000 0 0 1
26.889789 -1.695282 28.531663 39.242713 -0.062962 0.756772 0.063760 -0.013298 -63961.100000 0 0 1
28.043889 -0.948182 27.792033 39.493745 -0.033798 0.790194 0.057732 -0.009993 -171532.000000 0 0 1
29.305789 -1.353982 28.223773 40.709261 -0.046169 0.804737 0.073977 -0.007900 -895334.000000 0 0 1
30.220889 -0.960882 27.227283 40.688455 -0.031785 0.837712 0.065447 0.009673 418729.000000 0 0 1
31.732389 -0.982982 27.608553 42.073067 -0.030967 0.855018 0.054433 0.000420 486476.000000 0 0 1
31.934189 0.025118 28.542603 42.830751 0.000787 0.841420 0.044031 0.005066 -385624.000000 0 0 1
33.286589 0.080818 28.909583 44.088179 0.002428 0.855658 0.050638 0.002147 -187743.000000 0 0 1
33.542089 1.212618 29.911903 44.958471 0.036136 0.842870 0.058166 -0.013464 -50334.300000 0 0 1
33.610189 2.478418 29.235493 44.615036 0.073607 0.856239 0.042553 -0.008446 47427.900000 0 0 1
33.918389 3.475218 30.143723 45.510200 0.102102 0.846844 0.037463 -0.011505 -271083.000000 0 0 1
34.021389 4.812018 29.414843 45.231001 0.140509 0.862784 0.040157 -0.003331 -65644.100000 0 0 1
34.145189 5.930418 30.230293 45.988416 0.171967 0.853505 0.052164 -0.010452 320435.000000 0 0 1
32.934089 6.317418 30.879643 45.586361 0.189518 0.826591 0.043035 -0.008218 -9028.640000 0 0 1
33.049289 7.258718 32.078094 46.625622 0.216200 0.812077 0.034156 -0.010336 -42954.100000 0 0 1
33.604189 6.532118 33.188910 47.680330 0.191990 0.800885 0.039273 -0.007313 311347.000000 0 0 1
33.673789 7.396418 -33.485931 48.061821 0.216216 2.341620 0.055118 -0.021503 -145258.000000 0 0 1
33.682089 6.604118 -32.141011 47.022782 0.193616 2.323370 0.087992 -0.031219 177012.000000 0 0 1
32.439689 5.991918 -31.826801 45.838649 0.182651 2.338274 0.073369 -0.023349 162215.000000 0 0 1
32.382089 4.639118 -32.217031 45.913595 0.142294 2.348561 0.085301 -0.028871 -93047.200000 0 0 1
33.030589 3.591618 -31.287221 45.637810 0.108311 2.326162 0.090106 -0.036725 -52239.000000 0 0 1
33.176789 2.353018 -31.984091 46.143451 0.070805 2.336639 0.088782 -0.036968 374995.000000 0 0 1
33.758389 1.383218 -31.090781 45.914908 0.040951 2.314664 0.070070 -0.031228 71907.900000 0 0 1
33.777189 -0.049982 -31.571501 46.234843 -0.001480 2.322454 0.070472 -0.043791 -908300.000000 0 0 1
34.796189 -0.335582 -32.539371 47.641348 -0.009644 2.322668 0.073333 -0.034646 594573.000000 0 0 1
35.515489 -1.558382 -32.272171 48.013243 -0.043851 2.307907 0.074329 -0.032715 421914.000000 0 0 1
36.471189 -1.539382 -31.084361 47.945332 -0.042183 2.276184 0.078951 -0.035196 -819363.000000 0 0 1
35.707789 -1.629182 -29.883771 46.591203 -0.045594 2.267123 0.067529 -0.039282 369141.000000 0 0 1
36.508489 -1.307382 -28.762801 46.495997 -0.035795 2.237766 0.074577 -0.040885 118777.000000 0 0 1
35.574789 -1.105782 -27.526731 44.994547 -0.031073 2.229104 0.086412 -0.039042 58308.700000 0 0 1
35.013689 0.180518 -27.593191 44.579986 0.005156 2.238213 0.090618 -0.033395 -35209.000000 0 0 1
34.404689 0.463318 -26.369501 43.350293 0.013466 2.224699 0.096392 -0.028683 -145813.000000 0 0 1
33.683189 1.842418 -26.293151 42.770101 0.054644 2.232872 0.086652 -0.026274 -155305.000000 0 0 1
32.548089 2.000618 -27.079031 42.386961 0.061389 2.263803 0.099260 -0.041023 135446.000000 0 0 1
31.929889 3.282318 -26.946151 41.909265 0.102438 2.269158 0.081309 -0.027696 342141.000000 0 0 1
31.012989 3.645118 -28.156191 42.045968 0.116998 2.304537 0.095582 -0.033337 105679.000000 0 0 1
29.832789 4.366518 -27.836621 41.035829 0.145334 2.316310 0.082389 -0.032703 443046.000000 0 0 1
29.391489 5.014918 -28.987051 41.584350 0.168997 2.342094 0.073754 -0.032885 -728644.000000 0 0 1
28.139289 5.821518 -28.668461 40.590520 0.204004 2.355032 0.068643 -0.028635 -1160410.000000 0 0 1
27.018189 5.042818 -28.446841 39.555471 0.184522 2.373394 0.089637 -0.031148 354423.000000 0 0 1
25.922689 5.823818 -27.951601 38.564163 0.220992 2.381552 0.093446 -0.036917 437558.000000 0 0 1
24.533589 5.225318 -27.687821 37.360626 0.209851 2.405498 0.122277 -0.029115 -275115.000000 0 0 1
23.753289 4.867118 -28.755931 37.613975 0.202105 2.441064 0.129964 -0.031076 -1291070.000000 0 0 1
22.496189 4.508818 -28.343701 36.466057 0.197805 2.461100 0.118769 -0.019286 -753605.000000 0 0 1
21.603389 4.086018 -29.592581 36.866283 0.186930 2.502606 0.116494 -0.015943 396178.000000 0 0 1
22.006089 2.835518 -30.252991 37.517350 0.128145 2.508790 0.112714 -0.022244 494561.000000 0 0 1
21.084589 2.403918 -31.265501 37.787170 0.113523 2.545277 0.076854 -0.017558 32286.300000 0 0 1
21.088289 3.273618 -32.592051 38.957339 0.154005 2.561859 0.088161 -0.021975 45225.200000 0 0 1
22.346389 3.075118 -33.225901 40.159406 0.136752 2.545170 0.120965 -0.022095 13084.600000 0 0 1
22.677689 3.906118 33.490770 40.634554 0.170571 0.602018 0.092461 -0.031265 -628017.000000 0 0 1
24.076789 3.665218 32.954860 40.977413 0.151070 0.636434 0.089051 -0.026393 -561217.000000 0 0 1
24.318889 2.355518 32.425683 40.600268 0.096558 0.645736 0.107780 -0.021638 586407.000000 0 0 1
25.707589 1.997118 32.339777 41.360970 0.077530 0.673103 0.102571 -0.023267 677271.000000 0 0 1
26.042689 0.483318 32.247926 41.453395 0.018557 0.679428 0.082903 -0.021240 -501671.000000 0 0 1
25.637289 -0.300582 31.145263 40.340902 -0.011724 0.688733 0.080903 -0.015922 259053.000000 0 0 1
24.259589 -0.549882 30.903973 39.292310 -0.022663 0.665652 0.083712 -0.021024 220017.000000 0 0 1
23.621389 -1.655282 31.803587 39.650702 -0.069961 0.640003 0.076578 -0.031642 -332580.000000 0 0 1
23.857789 -2.988382 31.442913 39.582589 -0.124609 0.652839 0.067540 -0.035603 172987.000000 0 0 1
23.278689 -3.890982 32.390382 40.077100 -0.165617 0.629704 0.082933 -0.042295 -101047.000000 0 0 1
23.463589 -5.386982 32.087609 40.114514 -0.225678 0.643667 0.084009 -0.038341 -74207.600000 0 0 1
24.774789 -5.923682 32.086570 40.968624 -0.234695 0.671003 0.071607 -0.036477 -200655.000000 0 0 1
24.706489 -7.313882 31.724113 40.869583 -0.287811 0.682136 0.090572 -0.047477 -795746.000000 0 0 1
26.047489 -7.938882 31.418393 41.576592 -0.295841 0.714112 0.062379 -0.036670 -546157.000000 0 0 1
26.363689 -7.630282 30.084623 40.722842 -0.281726 0.739560 0.086244 -0.036938 -549455.000000 0 0 1
27.641789 -8.094682 29.739083 41.400549 -0.284877 0.769403 0.059361 -0.018013 -161956.000000 0 0 1
28.095889 -7.797682 28.286763 40.624178 -0.270724 0.800562 0.063915 -0.026991 31513.000000 0 0 1
27.328089 -8.520582 27.328643 39.576249 -0.302236 0.808573 0.066365 -0.027504 -80730.500000 0 0 1
27.450289 -8.052082 25.975753 38.640577 -0.285329 0.833566 0.081326 -0.024686 180150.000000 0 0 1
26.540989 -8.821182 24.990273 37.506681 -0.320875 0.841576 0.068351 -0.017536 724524.000000 0 0 1
25.120689 -8.640182 25.012463 36.487328 -0.331272 0.815491 0.071848 -0.017665 452606.000000 0 0 1
24.570089 -9.669282 24.258883 35.856348 -0.374924 0.827719 0.084883 -0.025101 144554.000000 0 0 1
23.078689 -9.486982 23.877223 34.536220 -0.390014 0.807416 0.058038 -0.017452 -21769.200000 0 0 1
22.171789 -9.369782 24.929023 34.653099 -0.399835 0.767875 0.040456 -0.020182 -452502.000000 0 0 1
20.949389 -8.859882 24.447073 33.392122 -0.400106 0.749366 0.066537 -0.017344 485701.000000 0 0 1
19.925889 -8.497582 25.605373 33.539307 -0.403106 0.702168 0.071806 -0.025326 405918.000000 0 0 1
19.225889 -9.616582 26.182243 33.876590 -0.463799 0.687443 0.087229 -0.023625 452966.000000 0 0 1
20.020889 -10.517682 26.990603 35.212928 -0.483710 0.697427 0.066570 -0.025954 388161.000000 0 0 1
19.172389 -11.712182 27.571483 35.566029 -0.548387 0.683734 0.074578 -0.024687 47867.400000 0 0 1
18.655089 -12.541082 26.584503 34.814177 -0.591865 0.701908 0.090591 -0.021252 -327146.000000 0 0 1
17.805089 -13.451682 27.202283 35.184274 -0.647010 0.687023 0.081498 -0.015882 -714264.000000 0 0 1
18.503889 -14.670382 27.802803 36.477526 -0.670352 0.704107 0.090612 -0.008234 -912733.000000 0 0 1
17.666289 -15.540482 28.475343 36.938456 -0.721468 0.690565 0.084955 -0.009565 -432547.000000 0 0 1
18.209189 -16.737482 28.981903 38.100769 -0.743310 0.706460 0.082560 -0.004949 -183012.000000 0 0 1
18.781489 -17.779282 27.928543 38.063772 -0.757993 0.747000 0.089447 -0.011439 1150630.000000 0 0 1
20.014989 -17.390082 27.284923 38.045785 -0.715338 0.771077 0.098623 -0.007804 1132940.000000 0 0 1
20.650689 -18.355482 26.447723 38.247310 -0.726624 0.807243 0.100483 -0.001279 403302.000000 0 0 1
21.896089 -17.822182 25.705193 38.181486 -0.683186 0.832218 0.080683 -0.006992 446385.000000 0 0 1
23.052389 -17.529782 26.454993 39.224642 -0.650144 0.830579 0.059201 -0.006609 331457.000000 0 0 1
24.073389 -16.815482 25.756663 39.060136 -0.609725 0.850762 0.056210 -0.003343 -64837.400000 0 0 1
25.264789 -16.487482 26.688473 40.279290 -0.578192 0.846531 0.071553 -0.005408 346107.000000 0 0 1
26.012889 -17.675682 27.048663 41.481687 -0.596833 0.860494 0.080966 -0.006616 621977.000000 0 0 1
27.079389 -17.999982 26.153363 41.728780 -0.586648 0.893426 0.056564 -0.010489 -283009.000000 0 0 1
27.528489 -19.485182 26.400013 42.830488 -0.615954 0.906654 0.029794 -0.008555 -172918.000000 0 0 1
28.182489 -19.737782 27.598603 44.108000 -0.610965 0.894761 0.038199 -0.005830 108166.000000 0 0 1
28.716989 -21.069882 27.620803 45.072322 -0.632992 0.911184 0.032767 -0.012611 348277.000000 0 0 1
27.757989 -22.132582 28.273503 45.384448 -0.673117 0.898253 0.048055 -0.012723 294010.000000 0 0 1
27.727389 -22.055682 29.660873 46.206370 -0.671959 0.873794 0.050355 -0.007138 -417275.000000 0 0 1
26.950889 -23.101182 30.159373 46.578996 -0.708635 0.866512 0.074652 -0.011447 -750464.000000 0 0 1
26.722389 -23.027882 31.670023 47.406327 -0.711273 0.839205 0.058858 -0.009877 124110.000000 0 0 1
26.099689 -24.195382 32.226329 48.011942 -0.747554 0.834950 0.065989 -0.012334 138801.000000 0 0 1
25.933389 -24.029382 33.634451 48.797830 -0.747308 0.810327 0.080160 -0.007308 -217975.000000 0 0 1
25.635689 -25.380402 -33.483361 49.218785 -0.780394 2.318963 0.070316 -0.015530 1132660.000000 0 0 1
24.371589 -26.064892 -33.668571 49.060428 -0.818959 2.327141 0.101234 -0.023173 533657.000000 0 0 1
24.131989 -26.633532 32.865153 48.701296 -0.834635 0.830060 0.090348 -0.016982 344328.000000 0 0 1
22.810989 -27.464222 32.829534 48.501578 -0.877690 0.827287 0.124978 -0.020487 508702.000000 0 0 1
22.865289 -28.715432 33.439592 49.654847 -0.898333 0.831943 0.124280 -0.034965 459032.000000 0 0 1
21.526089 -29.153202 33.675008 49.470071 -0.934775 0.822058 0.145988 -0.039393 284076.000000 0 0 1
21.331289 -30.708982 -33.862081 50.445079 -0.963685 2.306712 0.116909 -0.039601 -271123.000000 0 0 1
21.992989 -31.371942 -32.812371 50.443454 -0.959373 2.279010 0.089331 -0.047110 -307065.000000 0 0 1
23.339689 -31.629062 -33.069911 51.368839 -0.935072 2.270216 0.056391 -0.030686 -831303.000000 0 0 1
24.086289 -32.266462 -31.866211 51.349093 -0.929551 2.240278 0.036425 -0.031269 -102005.000000 0 0 1
25.344389 -32.846442 -32.268981 52.559623 -0.913613 2.231851 0.026003 -0.019695 864888.000000 0 0 1
26.045089 -33.471562 -31.217191 52.661230 -0.909536 2.205318 0.019709 -0.012840 274097.000000 0 0 1
26.688089 -32.471852 -30.149581 51.726903 -0.882853 2.193041 0.024782 -0.022194 -542525.000000 0 0 1
27.013289 -33.045292 -28.926261 51.560040 -0.885498 2.166415 0.037405 -0.015888 -86981.700000 0 0 1
27.536489 -32.021552 -28.128171 50.742803 -0.860562 2.158352 0.045756 -0.012141 -626991.000000 0 0 1
27.776889 -32.349242 -26.670551 50.292617 -0.861298 2.129760 0.054749 -0.018837 936284.000000 0 0 1
28.943189 -33.183292 -26.429811 51.355370 -0.853542 2.111390 0.047177 -0.005663 -242071.000000 0 0 1
30.024789 -32.434872 -26.089211 51.324028 -0.823965 2.104033 0.060813 -0.018714 -1192990.000000 0 0 1
-27.596821 -30.660280 9.619429 42.357652 0.837935 1.341697 0.065556 -0.011931 -256847.000000 0 0 1
-27.612021 -31.907580 10.207129 43.413164 0.857444 1.333458 0.070785 -0.017715 134210.000000 0 0 1
-26.350761 -32.168180 10.810729 42.965408 0.884483 1.316448 0.058430 -0.017085 82463.700000 0 0 1
-26.358501 -33.146780 11.938429 44.000065 0.898986 1.296024 0.067373 -0.022716 69457.200000 0 0 1
-26.456321 33.178318 11.617629 43.996670 -0.897644 1.303570 0.073078 -0.012053 -409825.000000 0 0 1
-27.763771 32.807618 11.291529 44.437207 -0.868478 1.313878 0.058173 -0.036219 -650729.000000 0 0 1
-27.922461 31.331918 10.889929 43.358315 -0.842874 1.316917 0.059456 -0.024032 221067.000000 0 0 1
-27.206741 30.945918 9.706429 42.332863 -0.849609 1.339450 0.076792 -0.033874 209111.000000 0 0 1
-27.452451 29.614518 9.291029 41.436457 -0.823267 1.344650 0.091108 -0.028144 -288286.000000 0 0 1
-26.840001 29.259818 7.953929 40.494290 -0.828506 1.373090 0.072787 -0.012349 -142668.000000 0 0 1
-25.472511 28.931018 8.057329 39.379857 -0.848884 1.364736 0.066988 -0.008089 22289.700000 0 0 1
-24.810911 28.895518 6.802929 38.688656 -0.861306 1.394040 0.051494 -0.004816 451251.000000 0 0 1
-23.453111 28.131418 6.769429 37.245808 -0.875843 1.388030 0.073631 -0.000862 264650.000000 0 0 1
-23.459711 26.702818 6.892829 36.206486 -0.849960 1.379252 0.082082 -0.015676 319293.000000 0 0 1
-24.103411 25.944318 5.825629 35.888995 -0.822165 1.407751 0.064722 -0.021235 -170776.000000 0 0 1
-24.244511 24.393618 6.134429 34.935313 -0.788464 1.394287 0.083307 -0.016895 236250.000000 0 0 1
-25.379441 24.104918 6.975029 35.690532 -0.759648 1.374100 0.083199 -0.021081 801306.000000 0 0 1
-25.630001 22.735918 7.254729 35.020708 -0.725632 1.362130 0.094757 -0.035132 -165416.000000 0 0 1
-26.234911 21.839218 6.120929 34.679789 -0.694216 1.393368 0.095896 -0.047819 -557957.000000 0 0 1
-27.528951 22.303318 5.819929 35.904772 -0.680916 1.407985 0.093243 -0.049611 -361709.000000 0 0 1
-27.864431 21.880218 4.510529 35.714357 -0.665675 1.444164 0.088605 -0.045126 -131479.000000 0 0 1
-27.519081 22.955618 3.426229 35.999989 -0.695232 1.475479 0.066633 -0.046756 -273079.000000 0 0 1
-26.153041 23.067618 3.101729 35.010245 -0.722795 1.482085 0.066905 -0.043794 -54871.500000 0 0 1
-26.014271 24.027218 2.054529 35.472110 -0.745711 1.512844 0.053979 -0.033590 33537.000000 0 0 1
-24.617611 24.674218 1.895629 34.906120 -0.786547 1.516463 0.057311 -0.029508 194326.000000 0 0 1
-24.413111 25.394818 0.692129 35.233163 -0.805105 1.551151 0.035525 -0.027282 -795483.000000 0 0 1
-23.103411 25.894818 0.729029 34.710815 -0.842306 1.549792 0.059217 -0.027709 -904767.000000 0 0 1
-22.542911 26.478918 -0.576571 34.779999 -0.865517 1.587375 0.074993 -0.028593 3375.640000 0 0 1
-22.113711 25.462918 -1.485571 33.757715 -0.855678 1.614817 0.068082 -0.035167 794125.000000 0 0 1
-20.907511 24.754518 -1.129371 32.421993 -0.869449 1.605637 0.086003 -0.048629 256366.000000 0 0 1
-20.563911 23.671818 -2.204271 31.433870 -0.855541 1.640978 0.098322 -0.057557 53499.300000 0 0 1
-21.630311 22.734118 -2.262071 31.461523 -0.810273 1.642758 0.076640 -0.049184 512979.000000 0 0 1
-21.244711 21.637318 -3.025271 30.473981 -0.794553 1.670234 0.082694 -0.044257 29651.300000 0 0 1
-22.474411 21.131018 -3.813271 31.083116 -0.754600 1.693786 0.094710 -0.035764 20904.700000 0 0 1
-22.773111 22.083218 -4.900171 32.098205 -0.770019 1.724057 0.083819 -0.028437 133989.000000 0 0 1
-23.997111 21.731718 -5.513871 32.841005 -0.735899 1.739491 0.090715 -0.019895 236269.000000 0 0 1
-24.207811 22.271918 -6.964871 33.623888 -0.743772 1.779448 0.097010 -0.009914 -9748.360000 0 0 1
-23.208011 21.723118 -7.776871 32.725912 -0.752362 1.810728 0.089588 -0.018901 129852.000000 0 0 1
-23.052911 22.538418 -8.942871 33.457315 -0.774114 1.841378 0.085414 -0.021474 202524.000000 0 0 1
-22.348511 21.783018 -10.093371 32.799877 -0.772585 1.883598 0.084319 -0.022954 446584.000000 0 0 1
-23.337811 21.219118 -10.934671 33.383699 -0.737884 1.904501 0.053869 -0.014282 436151.000000 0 0 1
-22.698711 20.739718 -12.104471 33.043692 -0.740331 1.945844 0.051147 -0.008065 287866.000000 0 0 1
-23.675311 20.363118 -13.252171 33.923398 -0.710328 1.972134 0.038195 -0.020317 214789.000000 0 0 1
-24.510811 19.296318 -12.883771 33.750841 -0.666923 1.962466 0.044601 -0.008200 -521559.000000 0 0 1
-25.759061 19.322918 -13.493471 34.913867 -0.643591 1.967607 0.061306 -0.021252 -562364.000000 0 0 1
-26.385731 18.007318 -13.672571 34.747798 -0.598860 1.975210 0.119661 -0.023190 -327605.000000 0 0 1
-25.794971 17.326018 -14.763871 34.402664 -0.591467 2.014347 0.106795 -0.022174 434806.000000 0 0 1
-26.514411 16.106818 -14.994971 34.457114 -0.545897 2.021032 0.141861 -0.037661 271873.000000 0 0 1
-25.830911 15.256118 -16.078071 34.036590 -0.533490 2.062781 0.138428 -0.028047 1005510.000000 0 0 1
-24.639911 14.520818 -15.723171 32.637363 -0.532530 2.073451 0.121402 -0.023596 908764.000000 0 0 1
-23.965711 14.083018 -16.887971 32.525224 -0.531276 2.116742 0.124617 -0.034189 291637.000000 0 0 1
-23.010511 12.850418 -16.713471 31.208283 -0.509314 2.135950 0.128467 -0.023387 -76059.100000 0 0 1
-21.969211 13.136618 -15.842671 30.103275 -0.538915 2.125013 0.112720 -0.026537 -232040.000000 0 0 1
-21.031111 12.078518 -15.783971 28.936688 -0.521321 2.147741 0.106947 -0.039991 637775.000000 0 0 1
-19.678911 12.299218 -15.019271 27.642517 -0.558596 2.145206 0.099428 -0.039830 497396.000000 0 0 1
-18.828011 13.152118 -15.761571 27.854969 -0.609745 2.172253 0.083421 -0.028147 347942.000000 0 0 1
-17.672211 13.482218 -14.985271 26.807379 -0.651709 2.163973 0.084202 -0.014249 353718.000000 0 0 1
-16.868011 14.649318 -15.616371 27.258087 -0.715118 2.180846 0.057719 -0.007516 -101507.000000 0 0 1
-16.096311 14.298318 -16.758371 27.283257 -0.726312 2.232214 0.088507 -0.018920 442413.000000 0 0 1
-15.462411 15.494618 -17.249071 27.869334 -0.786439 2.238172 0.083122 -0.012434 -4760.060000 0 0 1
-14.690311 15.249618 -18.555471 28.154246 -0.804077 2.290371 0.095949 -0.020166 21664.400000 0 0 1
-13.743411 14.220818 -18.477771 27.065495 -0.802469 2.322256 0.088296 -0.014349 55196.100000 0 0 1
-12.664911 14.445518 -19.389171 27.294924 -0.850984 2.360803 0.107078 -0.024763 513430.000000 0 0 1
-11.694511 13.273418 -19.562371 26.374828 -0.848551 2.406407 0.090964 -0.020959 -80636.200000 0 0 1
-12.253311 12.199718 -20.257271 26.633320 -0.783206 2.435031 0.102190 -0.011601 -581781.000000 0 0 1
-11.470811 11.052718 -20.161671 25.695039 -0.766838 2.472931 0.082292 0.008460 -279637.000000 0 0 1
-11.690411 9.931918 -21.184871 26.155447 -0.704249 2.514881 0.095058 -0.010519 122556.000000 0 0 1
-11.205711 10.116818 -22.503771 27.098665 -0.734375 2.550690 0.109631 -0.027166 -92275.000000 0 0 1
-11.728411 8.998818 -23.218271 27.524942 -0.654460 2.574629 0.103819 0.002888 158035.000000 0 0 1
-11.360911 9.039518 -24.724471 28.671983 -0.672094 2.610633 0.091722 -0.015553 130221.000000 0 0 1
-9.940211 8.935518 -24.910771 28.270086 -0.732222 2.649129 0.092053 -0.016243 548194.000000 0 0 1
-9.640511 8.249218 -26.146901 29.062853 -0.707784 2.689803 0.062011 -0.023832 -188453.000000 0 0 1
-9.324011 9.287218 -27.274461 30.283424 -0.783421 2.692036 0.103051 -0.028413 134174.000000 0 0 1
-8.067811 9.966018 -27.226731 30.094949 -0.890270 2.701458 0.089602 -0.029772 392063.000000 0 0 1
-7.967711 11.088218 -26.418741 29.738575 -0.947713 2.664570 0.065075 -0.025380 372019.000000 0 0 1
-6.516711 11.677718 -26.404811 29.598152 -1.061796 2.672790 0.053688 -0.026151 493377.000000 0 0 1
-6.167211 12.121718 -27.726631 30.882626 -1.100154 2.685560 0.056701 -0.036032 59663.800000 0 0 1
-4.864911 12.652418 -27.776151 30.907371 -1.203719 2.687570 0.077696 -0.030039 -202292.000000 0 0 1
-4.125011 12.489118 -29.090721 31.925911 -1.251789 2.716971 0.085990 -0.036074 -711405.000000 0 0 1
-2.808011 12.936818 -29.101031 31.970551 -1.357056 2.714671 0.098816 -0.043694 -590450.000000 0 0 1
-2.272711 12.613518 -30.360551 32.954955 -1.392528 2.742141 0.102879 -0.043707 239634.000000 0 0 1
-0.737411 12.468518 -30.499541 32.957999 -1.511723 2.752903 0.111113 -0.054255 -284567.000000 0 0 1
-0.154411 11.425618 -29.738501 31.858233 -1.557283 2.774748 0.079789 -0.023841 -198782.000000 0 0 1
1.223889 11.276218 -29.934871 32.011677 1.462682 2.779404 0.107578 -0.034773 -255160.000000 0 0 1
1.847589 10.762418 -31.222681 33.077167 1.400783 2.805149 0.109142 -0.038428 -705423.000000 0 0 1
1.750289 11.751818 -32.272131 34.389812 1.422945 2.788828 0.114299 -0.053008 143463.000000 0 0 1
1.832689 11.081118 -33.483311 35.316880 1.406892 2.817947 0.119991 -0.046225 -117597.000000 0 0 1
2.038489 11.832318 32.998614 35.115064 1.400190 0.348962 0.113790 -0.051651 503965.000000 0 0 1
3.369289 12.384418 32.884463 35.300337 1.305167 0.372110 0.108346 -0.054804 821958.000000 0 0 1
3.536489 13.175018 31.763562 34.568941 1.308554 0.405648 0.101382 -0.041342 318514.000000 0 0 1
5.036089 13.491618 31.465073 34.603999 1.213538 0.429221 0.104699 -0.042079 241532.000000 0 0 1
5.665989 12.321518 31.042843 33.875970 1.139785 0.411885 0.104640 -0.042643 -778793.000000 0 0 1
7.043889 12.455018 30.912283 34.063369 1.056096 0.433518 0.097690 -0.029788 -579501.000000 0 0 1
7.754489 11.175218 30.448303 33.348414 0.964176 0.420130 0.071055 -0.021730 -400756.000000 0 0 1
7.364789 10.765918 29.165613 31.949618 0.970832 0.420555 0.072129 -0.033698 -48293.400000 0 0 1
8.198089 9.765218 28.597483 31.311087 0.872418 0.419398 0.072841 -0.035589 84086.800000 0 0 1
7.496389 8.787818 27.623083 29.940880 0.864538 0.396062 0.064690 -0.026048 -278591.000000 0 0 1
6.702589 7.846618 28.267013 30.091828 0.863868 0.350042 0.059184 -0.029874 -367196.000000 0 0 1
6.086289 6.956318 27.349873 28.869514 0.852006 0.325904 0.076077 -0.028722 -183149.000000 0 0 1
5.354289 5.746118 27.998983 29.079706 0.820682 0.273484 0.094596 -0.043569 -105731.000000 0 0 1
6.167989 4.826418 28.706603 29.755797 0.663975 0.266343 0.067696 -0.039205 -454996.000000 0 0 1
5.486689 3.957218 29.547703 30.312210 0.624839 0.225068 0.078417 -0.042908 -521989.000000 0 0 1
6.400289 2.867318 30.141443 30.946596 0.421188 0.228609 0.097603 -0.035154 216797.000000 0 0 1
6.261889 1.590018 29.507793 30.206775 0.248664 0.215544 0.091307 -0.025776 -328736.000000 0 0 1
7.159489 1.517218 28.441613 29.368105 0.208828 0.251852 0.090236 -0.028164 -297535.000000 0 0 1
7.248489 0.072418 27.913513 28.839384 0.009990 0.254077 0.095107 -0.023462 66839.800000 0 0 1
7.753389 -0.806382 28.919433 29.951609 -0.103631 0.263292 0.086205 -0.028447 88257.900000 0 0 1
7.861489 -2.120882 28.418503 29.562011 -0.263508 0.279047 0.101693 -0.029984 -349095.000000 0 0 1
8.579189 -3.028582 29.439863 30.813639 -0.339358 0.299729 0.083166 -0.029064 745662.000000 0 0 1
9.984789 -2.786082 29.541553 31.307533 -0.272111 0.337479 0.079357 -0.029122 695760.000000 0 0 1
10.810789 -3.619082 28.742333 30.920748 -0.323039 0.377610 0.103753 -0.026128 243242.000000 0 0 1
12.338289 -3.357882 28.916433 31.617540 -0.265716 0.416355 0.097910 -0.022213 972589.000000 0 0 1
13.290889 -4.283582 28.381283 31.630587 -0.311783 0.457242 0.119827 -0.027966 553706.000000 0 0 1
13.519389 -5.412982 29.220743 32.648523 -0.380840 0.462344 0.127411 -0.029300 -612401.000000 0 0 1
13.083689 -6.801082 28.716463 32.281154 -0.479373 0.474385 0.137079 -0.024725 1864190.000000 0 0 1
11.617489 -6.895882 28.655653 31.680683 -0.535684 0.440555 0.136692 -0.017629 1771240.000000 0 0 1
11.123189 -8.218682 28.481663 31.661920 -0.636345 0.452045 0.146863 -0.013417 356256.000000 0 0 1
9.585689 -8.163482 28.292723 30.967823 -0.705441 0.418704 0.141179 -0.018364 269142.000000 0 0 1
8.865289 -7.696082 29.435393 31.690147 -0.714917 0.379500 0.159229 -0.025724 -55186.700000 0 0 1
7.539789 -7.441282 29.008273 30.882050 -0.778823 0.350140 0.153662 -0.024500 32979.900000 0 0 1
6.747289 -6.771782 30.142683 31.622212 -0.787210 0.307106 0.124315 -0.031536 -110384.000000 0 0 1
6.442689 -7.504682 31.309893 32.835010 -0.861394 0.305980 0.131137 -0.038675 818161.000000 0 0 1
5.349489 -7.019082 32.104075 33.294987 -0.919574 0.268268 0.129249 -0.039708 370083.000000 0 0 1
5.918689 -6.080482 33.180907 34.248733 -0.798881 0.250368 0.131636 -0.027256 70194.600000 0 0 1
6.386389 -4.894682 32.641066 33.618195 -0.653930 0.241692 0.134011 -0.029095 -53016.800000 0 0 1
6.792789 -3.886882 33.569558 34.469770 -0.519733 0.229044 0.113530 -0.013914 135410.000000 0 0 1
6.902189 -2.615782 32.760895 33.582120 -0.362254 0.221606 0.111758 -0.027404 812417.000000 0 0 1
5.596489 -2.171682 32.377601 32.929408 -0.370157 0.183326 0.119180 -0.039036 839120.000000 0 0 1
5.827189 -0.903582 31.805862 32.347882 -0.153838 0.183319 0.102959 -0.031250 289624.000000 0 0 1
4.529789 -0.383382 31.151503 31.481457 -0.084435 0.144909 0.134990 -0.043811 323067.000000 0 0 1
3.555889 0.058518 32.086249 32.282738 0.016455 0.110387 0.119423 -0.041185 -53995.800000 0 0 1
2.332589 0.418018 31.465673 31.554782 0.177325 0.075170 0.123414 -0.047047 881337.000000 0 0 1
1.232289 0.863618 32.509210 32.544018 0.611279 0.046255 0.122411 -0.046070 709655.000000 0 0 1
1.724489 1.948518 33.207342 33.309130 0.846316 0.078197 0.109886 -0.039208 444043.000000 0 0 1
0.786789 2.228318 -33.513331 33.596544 1.231374 3.071196 0.089680 -0.042222 347426.000000 0 0 1
1.220689 3.307118 -32.511211 32.701772 1.217200 3.033584 0.088094 -0.037463 218312.000000 0 0 1
2.386189 3.016618 -31.748031 31.980171 0.901558 3.021030 0.066897 -0.015673 123134.000000 0 0 1
2.640389 4.126718 -30.919221 31.304946 1.001605 2.984450 0.063372 -0.014844 -273984.000000 0 0 1
3.827389 3.802118 -29.989851 30.471235 0.782086 2.963605 0.068849 -0.009106 -136514.000000 0 0 1
3.527389 2.785318 -29.029001 29.374876 0.668383 2.987985 0.064689 -0.008281 846117.000000 0 0 1
4.386789 2.975018 -27.851091 28.350977 0.595929 2.953528 0.089927 -0.015933 293274.000000 0 0 1
3.954389 2.299018 -26.592121 26.982653 0.526619 2.971249 0.072879 -0.017538 -373229.000000 0 0 1
4.110689 0.916218 -26.735941 27.065619 0.219302 2.985352 0.080962 -0.017177 241788.000000 0 0 1
3.412389 0.146718 -25.781701 26.006961 0.042969 3.009880 0.080640 -0.014230 -547752.000000 0 0 1
3.858189 -1.279782 -25.585591 25.906484 -0.320285 2.984035 0.082936 -0.020345 -609246.000000 0 0 1
5.097789 -1.341682 -24.946471 25.497332 -0.257353 2.933348 0.071176 -0.024025 -401867.000000 0 0 1
5.418289 -2.735782 -24.852971 25.583442 -0.467573 2.902054 0.071836 -0.027726 -21913.600000 0 0 1
6.874789 -3.069182 -24.452671 25.585459 -0.419890 2.842911 0.079686 -0.037027 577305.000000 0 0 1
7.871889 -2.661982 -25.384091 26.709640 -0.326091 2.825225 0.088891 -0.034095 -549743.000000 0 0 1
9.118189 -3.217782 -25.134481 26.930236 -0.339253 2.774343 0.065376 -0.026098 -488897.000000 0 0 1
-30.563831 -3.765182 17.842273 35.590322 0.122573 1.045668 0.155323 -0.022121 -307459.000000 0 0 1
-31.930311 -3.650682 18.105173 36.887254 0.113839 1.057760 0.153323 -0.005844 -727057.000000 0 0 1
-32.370571 -4.796082 18.751773 37.715849 0.147092 1.050444 0.140319 -0.019490 -80663.000000 0 0 1
-33.846581 -4.829482 19.178973 39.201377 0.141731 1.059576 0.129458 -0.014985 51658.500000 0 0 1
-34.765692 -4.739082 18.106573 39.483670 0.135480 1.094395 0.127515 -0.020990 665743.000000 0 0 1
-36.116101 -4.872082 18.584773 40.908480 0.134091 1.099209 0.114700 -0.014521 942739.000000 0 0 1
-37.138951 -4.618682 17.441473 41.289694 0.123727 1.134686 0.091302 -0.015946 193474.000000 0 0 1
36.308449 -4.867282 17.710173 40.689608 -0.133259 1.120480 0.070957 -0.009424 279201.000000 0 0 1
35.462419 -4.617782 16.554773 39.407710 -0.129488 1.137252 0.052418 -0.015417 1063970.000000 0 0 1
34.000769 -5.120082 16.791973 38.265362 -0.149464 1.116501 0.046028 -0.008788 335850.000000 0 0 1
33.324429 -4.338582 17.764873 38.012256 -0.129464 1.084510 0.053624 -0.012539 -115360.000000 0 0 1
32.075749 -4.943782 17.994373 37.109192 -0.152925 1.064544 0.081797 -0.018276 628.590000 0 0 1
31.241109 -4.408882 19.207073 36.937201 -0.140199 1.023954 0.081100 -0.006767 151123.000000 0 0 1
30.466879 -3.229982 19.069473 36.087509 -0.105622 1.014054 0.084376 -0.001477 -231253.000000 0 0 1
31.111959 -1.984782 18.837373 36.424442 -0.063709 1.027263 0.070834 -0.004675 -737646.000000 0 0 1
30.353549 -0.650982 19.082273 35.859376 -0.021443 1.009668 0.077307 0.013702 -273909.000000 0 0 1
30.901959 0.549618 18.559973 36.051432 0.017784 1.029999 0.063271 0.005213 354982.000000 0 0 1
30.016299 1.632918 18.924673 35.521654 0.054347 1.008933 0.062980 0.000997 668611.000000 0 0 1
30.454909 3.006618 18.298273 35.656248 0.098405 1.031904 0.054264 -0.004898 -93596.900000 0 0 1
30.399019 2.978018 16.909173 34.912592 0.097653 1.065201 0.069727 -0.002812 34330.500000 0 0 1
29.526939 3.977918 16.443473 34.030160 0.133915 1.066487 0.080823 -0.006500 -11358.600000 0 0 1
29.393339 4.071918 14.931973 33.219162 0.137656 1.104592 0.094706 -0.003459 -108144.000000 0 0 1
28.793339 5.279818 14.491273 32.663892 0.181355 1.111131 0.124519 -0.013590 262414.000000 0 0 1
28.367239 5.170418 13.099673 31.670727 0.180288 1.144369 0.124545 -0.009461 62551.500000 0 0 1
27.638539 6.494318 12.677873 31.093303 0.230787 1.150823 0.142170 -0.007645 -384883.000000 0 0 1
26.461239 6.674718 13.390873 30.398430 0.247091 1.114627 0.108701 -0.013227 -509567.000000 0 0 1
25.841039 7.899118 13.143573 30.048442 0.296661 1.118077 0.137049 -0.031628 582340.000000 0 0 1
24.551939 8.295418 13.992273 29.451577 0.325830 1.075725 0.132433 -0.033076 1925500.000000 0 0 1
23.300739 7.591618 13.825373 28.137129 0.314964 1.057149 0.127410 -0.021179 1220990.000000 0 0 1
23.303239 6.214918 13.856373 27.814838 0.260631 1.049315 0.142827 -0.025357 -502295.000000 0 0 1
21.862339 5.650418 13.633673 26.377379 0.252920 1.027606 0.149252 -0.024701 413752.000000 0 0 1
21.244039 5.825118 12.374373 25.265912 0.267622 1.058976 0.157759 -0.027735 773704.000000 0 0 1
20.170939 4.910218 12.212673 24.085814 0.238786 1.039039 0.135828 -0.022999 -80970.000000 0 1 0
19.885539 4.752718 10.694273 23.073588 0.234603 1.088872 0.143620 -0.025696 -653109.000000 0 1 0
20.911439 4.121318 10.010073 23.547295 0.194590 1.131718 0.165200 -0.032103 -44257.700000 0 1 0
20.562739 3.741618 8.682973 22.632277 0.179992 1.177046 0.172556 -0.033962 527601.000000 0 1 0
21.739939 3.108218 7.830173 23.315179 0.142010 1.228299 0.174000 -0.033073 -169395.000000 0 1 0
22.247939 1.900418 8.319473 23.828471 0.085213 1.214143 0.176582 -0.034694 215620.000000 0 1 0
23.065439 1.156218 7.489973 24.278613 0.050086 1.257180 0.170418 -0.027129 68893.800000 0 1 0
24.550639 1.662218 7.372373 25.687521 0.067603 1.279701 0.173664 -0.029656 383354.000000 0 0 1
25.484939 1.294018 8.386373 26.860526 0.050732 1.253268 0.172000 -0.021203 550410.000000 0 0 1
25.302239 1.884018 9.643373 27.143093 0.074323 1.207584 0.163418 -0.023312 -917384.000000 0 0 1
26.065639 1.080518 10.647973 28.177374 0.041430 1.183279 0.124643 -0.015958 -733539.000000 0 0 1
27.428339 1.389618 10.612273 29.442574 0.050620 1.202057 0.144854 -0.026711 -298539.000000 0 0 1
28.124539 0.698818 11.632773 30.443381 0.024842 1.178716 0.113875 -0.019682 654686.000000 0 0 1
29.681639 0.588418 11.518273 31.843627 0.019822 1.200691 0.146992 -0.020683 782105.000000 0 0 1
30.361399 1.757618 11.937573 32.671233 0.057825 1.196750 0.133139 -0.012602 1198580.000000 0 0 1
31.762919 1.487018 12.167073 34.046027 0.046782 1.205345 0.124988 -0.018715 868991.000000 0 0 1
32.583899 2.616818 12.794673 35.103588 0.080138 1.197718 0.111997 -0.007788 -353577.000000 0 0 1
32.677929 3.791618 11.985973 35.012669 0.115513 1.221398 0.124746 -0.019595 158684.000000 0 0 1
33.366489 4.854618 12.577773 35.987363 0.144480 1.213753 0.128345 -0.022934 989158.000000 0 0 1
34.884949 4.950718 12.153773 37.271752 0.140974 1.238637 0.122277 -0.018076 534043.000000 0 0 1
35.779639 4.103118 12.801473 38.221668 0.114179 1.229268 0.111012 -0.013783 -608525.000000 0 0 1
37.083719 4.383318 12.426073 39.355089 0.117655 1.249557 0.113186 -0.012889 -533132.000000 0 0 1
-36.656981 3.315818 12.844273 38.983384 -0.090210 1.235043 0.147977 -0.007424 -218263.000000 0 0 1
-36.645531 1.993218 12.332773 38.716471 -0.054338 1.246607 0.139120 -0.008873 307960.000000 0 0 1
37.105299 1.079118 12.605273 39.202814 0.029074 1.243441 0.120601 -0.007210 -82627.300000 0 0 1
36.742239 0.700318 14.060473 39.346912 0.019058 1.205371 0.112385 -0.007231 83798.100000 0 0 1
-37.110831 -0.158082 14.688773 39.912389 0.004260 1.193912 0.107913 -0.005663 613040.000000 0 0 1
37.306779 -0.185782 16.046973 40.612014 -0.004980 1.164588 0.092966 -0.014321 22228.500000 0 0 1
-36.643871 -1.073282 16.978773 40.400544 0.029281 1.137063 0.113467 -0.009719 915761.000000 0 0 1
-35.312308 -0.551382 17.212573 39.287858 0.015613 1.117296 0.147023 -0.012438 1492680.000000 0 0 1
-34.503074 -1.389982 18.096073 38.985408 0.040264 1.088093 0.130202 -0.010562 545669.000000 0 0 1
-34.775677 -1.226582 19.647473 39.960923 0.035257 1.056793 0.124456 -0.014498 31340.400000 0 0 1
-35.956207 -1.891682 20.099973 41.236345 0.052562 1.061648 0.110731 -0.022302 343131.000000 0 0 1
-36.083191 -1.701582 21.504573 42.039728 0.047122 1.033832 0.102489 -0.018728 -82580.100000 0 0 1
-36.096231 -3.071382 22.256573 42.517365 0.084884 1.019878 0.084260 -0.014222 217316.000000 0 0 1
-34.893936 -3.802182 22.451373 41.666623 0.108536 1.001745 0.108802 -0.020698 291856.000000 0 0 1
-35.225160 -5.110082 22.969003 42.361538 0.144064 0.997727 0.098765 -0.021388 331972.000000 0 0 1
-35.547597 -5.274882 24.483443 43.484422 0.147314 0.972737 0.091943 -0.027078 -20751.000000 0 0 1
-34.390856 -5.163182 25.269253 42.987493 0.149019 0.942425 0.107421 -0.022049 -563383.000000 0 0 1
-34.645293 -4.716782 26.614953 43.942008 0.135313 0.920172 0.116288 -0.032171 112596.000000 0 0 1
-33.462061 -3.901882 27.194073 43.294940 0.116082 0.891672 0.117092 -0.031012 119079.000000 0 0 1
-33.315901 -2.533382 26.765623 42.810815 0.075895 0.895400 0.099178 -0.022793 -56647.500000 0 0 1
-32.844091 -2.371282 25.434423 41.608499 0.072073 0.913120 0.093789 -0.017972 -186923.000000 0 0 1
-32.769291 -0.853382 25.151033 41.317419 0.026036 0.916341 0.087058 -0.014129 65848.800000 0 0 1
-34.036390 -0.278382 24.950573 42.202896 0.008179 0.938244 0.087916 -0.023768 -376510.000000 0 0 1
-33.826591 0.952518 24.275883 41.646897 -0.028151 0.948506 0.082412 -0.023699 95447.900000 0 0 1
-35.101624 1.818718 24.171213 42.657699 -0.051767 0.968384 0.082235 -0.015726 83694.000000 0 0 1
-36.123081 1.252418 23.374303 43.044205 -0.034657 0.996755 0.080172 -0.003675 567982.000000 0 0 1
-37.167551 2.189818 22.954153 43.739173 -0.058849 1.018321 0.072541 -0.001829 930224.000000 0 0 1
-36.826401 3.546918 22.223373 43.158345 -0.096018 1.029874 0.073230 0.003839 -109019.000000 0 0 1
-36.105751 3.268918 21.039173 41.916081 -0.090291 1.044961 0.080694 -0.014902 273365.000000 0 0 1
-37.031761 3.212618 19.965473 42.193510 -0.086536 1.077890 0.084214 -0.013517 413476.000000 0 0 1
-36.444011 2.537518 18.688373 41.034866 -0.069516 1.097945 0.119795 -0.014068 335155.000000 0 0 1
-35.356664 3.238418 18.094573 39.849650 -0.091338 1.099467 0.133763 -0.015899 450440.000000 0 0 1
-34.854505 2.608218 16.909373 38.827390 -0.074692 1.120201 0.160353 -0.015201 174339.000000 0 0 1
-33.779811 3.440818 16.150773 37.600031 -0.101510 1.126811 0.152885 -0.016096 142148.000000 0 0 1
-34.291102 4.618918 15.529173 37.925839 -0.133891 1.148933 0.169810 -0.025295 -57441.100000 0 0 1
-33.329701 5.297918 14.785973 36.845107 -0.157636 1.157860 0.186529 -0.023385 -432770.000000 0 0 1
-33.877691 6.603718 14.202673 37.323222 -0.192514 1.180425 0.202961 -0.035399 443423.000000 0 0 1
-32.869311 7.295718 13.452273 36.257175 -0.218420 1.190685 0.211350 -0.030047 565642.000000 0 0 1
-33.390211 8.517118 12.943873 36.810207 -0.249752 1.211476 0.196882 -0.035755 -142375.000000 0 0 1
-32.514911 9.184718 11.891873 35.818921 -0.275304 1.232374 0.207740 -0.037628 -75465.800000 0 0 1
-33.098531 10.380218 11.410573 36.516610 -0.303901 1.252998 0.185033 -0.025335 236439.000000 0 0 1
-32.321641 10.971518 10.383973 35.677578 -0.327244 1.275472 0.180704 -0.033102 73883.900000 0 0 1
-32.771571 12.451818 10.069673 36.474949 -0.363110 1.291093 0.157370 -0.026989 112981.000000 0 0 1
-32.015481 13.191418 9.107673 35.804388 -0.390836 1.313597 0.163882 -0.023385 84971.000000 0 0 1
-31.727681 14.488618 9.660773 36.192490 -0.428375 1.300593 0.148894 -0.021232 -230449.000000 0 0 1
-30.928421 15.332018 8.682873 35.595368 -0.460222 1.324377 0.154345 -0.026580 -435510.000000 0 0 1
-29.545251 15.086118 8.721873 34.301368 -0.472100 1.313702 0.173972 -0.024203 -111047.000000 0 0 1
-28.856151 15.995918 7.880673 33.921259 -0.506164 1.336331 0.165636 -0.042977 187244.000000 0 0 1
-27.308921 16.012018 8.011273 32.654898 -0.530307 1.322935 0.170794 -0.029891 768421.000000 0 0 1
-26.670831 16.487018 9.264973 32.695484 -0.553670 1.283488 0.152553 -0.032296 678999.000000 0 0 1
-26.859321 17.926018 9.340673 33.615672 -0.588513 1.289224 0.142677 -0.047493 -301403.000000 0 0 1
-26.967331 18.582818 10.721073 34.460114 -0.603364 1.254430 0.156281 -0.019823 567100.000000 0 0 1
-25.763691 18.518618 11.510973 33.752177 -0.623224 1.222769 0.139594 -0.019123 763040.000000 0 0 1
-25.889561 18.996718 12.824073 34.577471 -0.633026 1.190841 0.148290 -0.030577 -22803.400000 0 0 1
-26.472461 18.026818 13.858473 34.897201 -0.597836 1.162417 0.124118 -0.026487 -247074.000000 0 0 1
-25.483981 17.164018 14.335773 33.905031 -0.592733 1.134240 0.142054 -0.029220 -109284.000000 0 0 1
-25.834801 16.379018 15.486073 34.285968 -0.565038 1.102156 0.143424 -0.022970 -310919.000000 0 0 1
-24.665311 15.515618 15.954773 33.221480 -0.561504 1.069851 0.134162 -0.021180 -912593.000000 0 0 1
-23.606611 16.204718 16.519573 33.056939 -0.601573 1.047508 0.121137 -0.023788 -831415.000000 0 0 1
-22.445811 15.438218 16.649473 31.927385 -0.602491 1.022213 0.109695 -0.043327 -523484.000000 0 0 1
-22.386411 14.182918 17.581373 31.802692 -0.564724 0.985044 0.119135 -0.022366 -756214.000000 0 0 1
-22.506511 14.368118 18.950273 32.742918 -0.568176 0.953590 0.117850 -0.012592 76010.000000 0 0 1
-22.692811 13.123918 19.631573 32.750565 -0.524333 0.928011 0.108183 -0.012884 -476833.000000 0 0 1
-22.403811 13.215318 21.166173 33.534791 -0.532937 0.887735 0.107501 -0.006478 784918.000000 0 0 1
-21.061711 13.496118 21.600673 33.050415 -0.569873 0.858508 0.109680 -0.001509 771528.000000 0 0 1
-20.674511 14.845818 21.443073 33.281212 -0.622753 0.870689 0.097038 0.010004 -142585.000000 0 0 1
-19.378811 15.331418 22.209473 33.224259 -0.669317 0.838644 0.084704 -0.003730 1558470.000000 0 0 1
-18.178011 14.840818 21.589773 31.887431 -0.684671 0.827033 0.061054 -0.004364 19945.400000 0 0 1
-17.710111 15.768418 20.677573 31.461930 -0.727465 0.853665 0.050801 -0.017431 -1110420.000000 0 0 1
-16.485511 15.160418 19.907373 29.965210 -0.743550 0.844173 0.049372 -0.003840 1108930.000000 0 0 1
-15.320211 14.747218 20.615273 29.617204 -0.766344 0.800905 0.040871 0.001896 443159.000000 0 0 1
-14.724011 15.730518 21.489773 30.431169 -0.818436 0.786713 0.040317 -0.002016 -1156170.000000 0 0 1
-13.551511 15.202218 22.308573 30.206345 -0.842744 0.739895 0.027386 -0.007143 999117.000000 0 0 1
-12.317511 15.120618 21.505273 29.031550 -0.887206 0.736602 0.025000 0.006032 736565.000000 0 0 1
-11.333811 14.600418 22.348573 29.001486 -0.910696 0.691013 0.027105 0.000030 -873942.000000 0 0 1
-10.249211 13.812018 21.680573 27.674273 -0.932403 0.670647 0.040472 -0.001768 -1646050.000000 0 0 1
-9.689611 12.814018 22.543673 27.682211 -0.923356 0.619147 0.043738 -0.011553 24005.300000 0 0 1
-8.484411 12.218418 22.146073 26.678147 -0.963842 0.591473 0.044019 -0.001223 611588.000000 0 0 1
-7.222311 13.159318 22.175373 26.778286 -1.068847 0.595068 0.052359 0.000033 -494039.000000 0 0 1
-7.240911 14.102818 21.157673 26.437991 -1.096457 0.643042 0.034533 0.002087 -731951.000000 0 0 1
-6.388711 15.124118 21.498373 27.050593 -1.171114 0.652206 0.036945 0.003555 -375326.000000 0 0 1
-7.145511 16.253518 22.287973 28.495419 -1.156601 0.672672 0.043394 0.001983 1025830.000000 0 0 1
-8.200911 16.932018 21.584373 28.632732 -1.119752 0.716916 0.016741 0.001787 171689.000000 0 0 1
-7.737911 17.717818 20.520173 28.193507 -1.159032 0.755639 0.018070 0.000085 210796.000000 0 0 1
-8.932511 17.854318 19.488873 27.899509 -1.106909 0.797444 0.027137 0.001952 1859330.000000 0 0 1
-10.092211 18.620018 19.824573 29.009851 -1.074109 0.818422 0.017880 0.003029 426422.000000 0 0 1
-10.981111 17.978518 20.745773 29.566856 -1.022480 0.793077 0.025751 0.005106 525133.000000 0 0 1
-12.376711 18.731518 20.812873 30.614186 -0.986906 0.823246 0.028337 -0.000213 909730.000000 0 0 1
-13.074911 18.566518 19.593573 29.992949 -0.957244 0.858897 0.027859 0.000160 -106043.000000 0 0 1
-14.266811 19.329218 19.592973 31.000728 -0.934958 0.886644 0.017041 -0.005570 543931.000000 0 0 1
-15.143211 19.237118 18.281173 30.554620 -0.903917 0.929404 0.029169 -0.000244 314254.000000 0 0 1
-15.917511 18.063418 18.214473 30.189754 -0.848465 0.923122 0.043073 0.000754 -148702.000000 0 0 1
-16.710911 18.046018 17.066373 29.936172 -0.823792 0.964178 0.061540 -0.021810 -850169.000000 0 0 1
-17.570111 16.758118 16.794173 29.522662 -0.761749 0.965681 0.063719 -0.028240 1037310.000000 0 0 1
-18.616211 16.439618 17.726773 30.513322 -0.723388 0.950899 0.067590 -0.019831 128030.000000 0 0 1
-19.659411 17.365118 17.730073 31.660626 -0.723510 0.976406 0.091852 -0.023598 -1431410.000000 0 0 1
35.410429 -9.666882 11.819429 38.562236 -0.266502 1.259280 0.089971 -0.036448 -1287540.000000 0 0 1
34.137169 -9.974382 11.411229 37.350379 -0.284272 1.260313 0.093837 -0.034240 -1001270.000000 0 0 1
33.696169 -11.126382 12.144129 37.506107 -0.318925 1.241063 0.098963 -0.022656 947062.000000 0 0 1
32.166619 -11.432382 11.912229 36.156493 -0.341487 1.235061 0.104289 -0.014236 1052770.000000 0 0 1
31.255989 -10.465582 12.464329 35.239535 -0.323101 1.209269 0.107046 -0.017255 1750050.000000 0 0 1
29.856269 -10.827582 12.540829 34.145362 -0.347906 1.194716 0.107633 -0.015020 1404730.000000 0 0 1
29.502439 -11.691582 13.787529 34.600332 -0.377306 1.160938 0.090536 -0.007210 -743310.000000 0 0 1
29.743239 -10.939282 15.008329 35.065341 -0.352435 1.128506 0.104082 -0.009872 192753.000000 0 0 1
29.040439 -11.459382 16.137129 35.143584 -0.375843 1.093728 0.113573 -0.014567 916690.000000 0 0 1
27.507439 -11.117882 16.157429 33.783562 -0.384102 1.072120 0.116265 -0.027507 611335.000000 0 0 1
27.372539 -9.714882 16.564229 33.436635 -0.341045 1.052511 0.103375 -0.018864 260456.000000 0 0 1
26.206339 -9.175182 15.931829 32.012176 -0.336776 1.049874 0.130645 -0.022565 539277.000000 0 0 1
26.080639 -7.626382 16.095429 31.582025 -0.284484 1.036031 0.144193 -0.028242 -349308.000000 0 0 1
27.193539 -6.928982 15.650329 32.131483 -0.249494 1.062063 0.120795 -0.026133 -475810.000000 0 0 1
27.042239 -5.549182 15.831129 31.822960 -0.202395 1.050111 0.107386 -0.020346 -335742.000000 0 0 1
28.310539 -4.774782 15.499229 32.626849 -0.167085 1.075781 0.106666 -0.016745 -422417.000000 0 0 1
28.675439 -4.701482 14.127429 32.310510 -0.162509 1.118269 0.116516 -0.022303 915146.000000 0 0 1
29.820799 -3.833482 14.004929 33.167962 -0.127849 1.134878 0.115897 -0.017259 438111.000000 0 0 1
30.098729 -3.356382 12.564029 32.788011 -0.111054 1.177549 0.119017 -0.030442 -148789.000000 0 0 1
30.553759 -4.333282 11.640029 32.981811 -0.140885 1.210103 0.126204 -0.042764 392133.000000 0 0 1
30.907899 -3.789082 10.365729 32.819259 -0.121984 1.249451 0.136184 -0.047135 -118174.000000 0 0 1
31.713269 -4.733282 9.501029 33.442562 -0.148159 1.282729 0.168764 -0.037915 806764.000000 0 0 1
33.067659 -5.093782 9.855729 34.879107 -0.152840 1.284326 0.143202 -0.048992 1029150.000000 0 0 1
33.510579 -5.929882 8.846029 35.162120 -0.175142 1.316486 0.155129 -0.049835 -968718.000000 0 0 1
34.902609 -6.508382 9.050829 36.639715 -0.184355 1.321190 0.142129 -0.045070 -806832.000000 0 0 1
35.869859 -5.533082 8.765829 37.337670 -0.153048 1.333813 0.149876 -0.043520 -957932.000000 0 0 1
37.107149 -6.157682 8.628229 38.591501 -0.164445 1.345312 0.153845 -0.051677 -462283.000000 0 0 1
-36.617511 -5.205582 8.076629 37.857260 0.141215 1.355800 0.151627 -0.052053 82128.400000 0 0 1
-36.851781 -4.876482 6.678129 37.768125 0.131563 1.393043 0.145925 -0.044604 270115.000000 0 0 1
-36.065171 -3.724282 6.392929 36.816251 0.102901 1.396267 0.145572 -0.032410 96303.400000 0 0 1
-36.061051 -3.256682 4.937429 36.542900 0.090066 1.435269 0.128402 -0.041887 -184772.000000 0 0 1
-34.921704 -3.631582 4.204229 35.360845 0.103620 1.451619 0.155409 -0.040474 -6201.880000 0 0 1
-34.913372 -3.124882 2.904329 35.173051 0.089266 1.488130 0.163825 -0.028913 -80358.600000 0 0 1
-34.137044 -4.075582 1.954329 34.434975 0.118826 1.514012 0.173169 -0.039776 -323195.000000 0 0 1
-34.742769 -5.361182 1.796229 35.199839 0.153103 1.519745 0.172180 -0.026595 927555.000000 0 0 1
-36.034941 -5.334582 1.148929 36.445778 0.146972 1.539267 0.146499 -0.031685 501546.000000 0 0 1
-35.933326 -5.347482 -0.357071 36.330799 0.147733 1.580625 0.192108 -0.039294 -848491.000000 0 0 1
-35.390800 -6.562682 -0.896071 36.005284 0.183352 1.595686 0.182459 -0.044240 363034.000000 0 0 1
-34.708702 -6.338682 -2.114971 35.346088 0.180635 1.630668 0.168972 -0.039946 38997.200000 0 0 1
-33.255241 -5.810082 -2.007771 33.818623 0.172966 1.630200 0.163567 -0.044429 -177716.000000 0 0 1
-32.424701 -6.825082 -1.419571 33.165617 0.207462 1.613612 0.167388 -0.044533 -383281.000000 0 0 1
-31.308391 -6.244482 -0.823471 31.935670 0.196867 1.596584 0.167785 -0.050914 31271.200000 0 0 1
-30.497641 -7.222082 0.103529 31.341271 0.232525 1.567493 0.156215 -0.041013 290767.000000 0 0 1
-30.004011 -8.410482 -0.509471 31.164666 0.273298 1.587145 0.141507 -0.042359 419145.000000 0 0 1
-29.211171 -9.076082 0.461429 30.592167 0.301250 1.555713 0.150759 -0.036598 -299325.000000 0 0 1
-28.773131 -10.477882 0.110429 30.621745 0.349229 1.567190 0.114346 -0.029926 311266.000000 0 0 1
-27.686531 -10.420282 -0.849071 29.594716 0.359968 1.599490 0.130371 -0.036219 719326.000000 0 0 1
-27.254171 -11.756382 -1.173571 29.704875 0.407246 1.610314 0.109009 -0.016308 -162390.000000 0 0 1
-28.094791 -12.680582 -2.106871 30.895847 0.423976 1.639042 0.102045 -0.023360 226885.000000 0 0 1
-29.242131 -13.281282 -1.494771 32.151656 0.426327 1.617304 0.121860 -0.029147 715755.000000 0 0 1
-29.591771 -14.491682 -2.157371 33.020236 0.455390 1.636178 0.110683 -0.018506 -264574.000000 0 0 1
-30.822471 -15.237682 -1.617371 34.421324 0.459133 1.617801 0.122745 -0.022398 -160088.000000 0 0 1
-30.514551 -15.938282 -0.395571 34.428522 0.481342 1.582286 0.089344 -0.012112 1555060.000000 0 0 1
-31.654781 -16.660382 0.200429 35.771967 0.484477 1.565193 0.118211 -0.008671 1145010.000000 0 0 1
-31.571951 -18.189882 -0.230771 36.437798 0.522691 1.577130 0.116016 -0.009439 -445582.000000 0 0 1
-30.459551 -18.833682 0.305629 35.813199 0.553780 1.562262 0.125273 -0.016952 -144221.000000 0 0 1
-30.326851 -20.205282 0.087429 36.441446 0.587715 1.568397 0.117833 -0.020591 165216.000000 0 0 1
-31.336621 -21.139482 0.859329 37.810051 0.593470 1.548067 0.109965 -0.025953 24157.700000 0 0 1
-31.000621 -21.288782 2.222229 37.672126 0.601758 1.511773 0.109548 -0.022931 214144.000000 0 0 1
-31.986391 -21.915682 3.021329 38.891577 0.600694 1.493032 0.093404 -0.022414 144700.000000 0 0 1
-31.391731 -22.208582 4.410229 38.705452 0.615719 1.456605 0.095617 -0.022123 78726.700000 0 0 1
-31.037331 -21.027382 5.077029 37.831772 0.595456 1.436190 0.079785 -0.019561 158296.000000 0 0 1
-30.374571 -21.234782 6.300729 37.592948 0.610120 1.402398 0.080876 -0.023288 102444.000000 0 0 1
-29.846871 -19.976382 7.010729 36.592921 0.589820 1.378017 0.094334 -0.017531 -544442.000000 0 0 1
-28.821011 -20.216682 7.888529 36.077608 0.611703 1.350361 0.089483 -0.023279 -617247.000000 0 0 1
-28.444321 -18.967782 8.507729 35.231202 0.588122 1.326903 0.115200 -0.030572 -143050.000000 0 0 1
-27.329841 -18.891582 9.536929 34.565374 0.604825 1.291260 0.116349 -0.030842 -317613.000000 0 0 1
-27.682171 -19.542282 10.753829 35.550643 0.614709 1.263489 0.107819 -0.036245 323547.000000 0 0 1
-26.565611 -19.680982 11.625629 35.046084 0.637616 1.232666 0.093931 -0.022523 191377.000000 0 0 1
-26.035091 -18.468682 12.416329 34.250305 0.616991 1.199829 0.091699 -0.026770 -893634.000000 0 0 1
-25.416011 -17.517982 11.574729 32.967069 0.603475 1.212051 0.102029 -0.026375 217313.000000 0 0 1
-24.960411 -16.343582 12.232129 32.245306 0.579728 1.181707 0.097440 -0.021816 -28924.400000 0 0 1
-23.980111 -16.432982 13.429129 32.022338 0.600775 1.138048 0.070536 -0.015666 -760766.000000 0 0 1
-24.456211 -16.949082 14.634129 33.159243 0.606038 1.113717 0.067912 -0.032382 -201898.000000 0 0 1
-23.478511 -17.091082 15.656029 32.991769 0.629236 1.076351 0.066982 -0.033615 -57190.400000 0 0 1
-23.982711 -17.888382 16.916429 34.370485 0.640863 1.056205 0.053485 -0.007878 54410.200000 0 0 1
-24.841311 -17.105782 17.714629 34.978659 0.603035 1.039744 0.060711 -0.018880 -372864.000000 0 0 1
-25.731751 -17.944582 18.390829 36.364181 0.608960 1.040557 0.055261 -0.007070 79106.500000 0 0 1
-26.986151 -17.197182 18.947429 37.188715 0.567367 1.036200 0.068906 -0.005952 181031.000000 0 0 1
-26.677691 -16.378682 20.065529 37.183140 0.550611 1.000786 0.069557 -0.000432 14339.800000 0 0 1
-27.672961 -15.412982 20.269529 37.605938 0.508178 1.001549 0.074457 -0.004046 -352023.000000 0 0 1
-27.524611 -14.720982 21.644529 37.984170 0.491122 0.964497 0.077672 -0.005101 -44875.100000 0 0 1
-26.331991 -13.983082 21.707029 36.879472 0.488163 0.941478 0.068909 -0.003189 41795.000000 0 0 1
-25.741511 -14.027982 23.030129 37.279975 0.498962 0.904904 0.065001 -0.001230 159033.000000 0 0 1
-24.331011 -13.392482 23.020929 36.073811 0.503172 0.878688 0.070439 0.001679 62383.100000 0 0 1
-24.339211 -12.006782 22.755029 35.416823 0.458282 0.873050 0.088578 -0.009403 262356.000000 0 0 1
-23.447711 -11.678682 21.677329 34.001373 0.462105 0.879492 0.112901 -0.011621 -486684.000000 0 0 1
-23.207811 -10.180482 21.518129 33.245670 0.413389 0.866830 0.124995 -0.011573 204559.000000 0 0 1
-22.248711 -9.647782 22.401529 33.013836 0.409160 0.825010 0.109046 -0.016513 948410.000000 0 0 1
-20.861911 -9.964182 22.225529 32.069899 0.445588 0.805107 0.078320 -0.025213 588323.000000 0 0 1
-20.016011 -10.084982 23.535729 32.500433 0.466719 0.760971 0.086703 -0.015291 97753.200000 0 0 1
-20.200211 -11.189682 24.392429 33.589405 0.505862 0.758027 0.098720 -0.019681 -237416.000000 0 0 1
-19.636911 -10.893182 25.643829 34.086297 0.506467 0.719219 0.095262 -0.020078 -561136.000000 0 0 1
-19.851211 -12.047582 26.609629 35.316953 0.545473 0.717500 0.087201 -0.029690 1476420.000000 0 0 1
-21.146311 -12.177982 27.260429 36.586893 0.522504 0.730131 0.085327 -0.019611 778653.000000 0 0 1
-22.215011 -12.710282 26.502729 36.843624 0.519689 0.767959 0.083690 -0.011316 170816.000000 0 0 1
-23.386511 -13.035382 27.477729 38.365032 0.508498 0.772428 0.072740 -0.010100 101933.000000 0 0 1
-23.342411 -14.251882 28.259129 39.326361 0.548146 0.769038 0.076037 -0.014758 -331409.000000 0 0 1
-22.593711 -14.114382 29.436929 39.701692 0.558386 0.735563 0.072114 -0.009568 -47956.300000 0 0 1
-22.960111 -15.153082 30.485929 41.063055 0.583355 0.734125 0.078207 -0.016974 -571898.000000 0 0 1
-22.678011 -16.540382 30.261829 41.275353 0.630159 0.747825 0.083512 -0.016017 -155200.000000 0 0 1
-22.783011 -17.359682 31.436329 42.528425 0.651110 0.738938 0.081121 -0.022807 243410.000000 0 0 1
-24.184511 -17.692182 32.052229 43.877663 0.631588 0.751756 0.101018 -0.019240 501103.000000 0 0 1
-24.784211 -16.610182 32.755629 44.306732 0.590439 0.738777 0.115189 -0.025259 -430999.000000 0 0 1
-26.061371 -17.058582 33.161929 45.496196 0.579570 0.754090 0.108265 -0.025964 -265550.000000 0 0 1
-26.783421 -15.939282 -33.845114 46.009826 0.536822 2.397357 0.103540 -0.026561 -123645.000000 0 0 1
-26.378581 -15.688182 -32.522714 44.717732 0.536537 2.385160 0.121278 -0.027980 73614.200000 0 0 1
-27.216751 -14.656582 -32.015614 44.503556 0.493981 2.373727 0.121561 -0.027675 279531.000000 0 0 1
-26.663071 -14.079182 -30.676114 43.013564 0.485828 2.364811 0.110916 -0.017328 117186.000000 0 0 1
-26.794611 -14.997682 -29.593214 42.645515 0.510281 2.337736 0.116755 -0.006617 282721.000000 0 0 1
-26.250601 -14.331582 -28.454514 41.281323 0.499730 2.331295 0.117754 0.005323 -153036.000000 0 0 1
-26.278221 -15.266082 -27.228314 40.804157 0.526287 2.301364 0.100794 0.001738 61022.000000 0 0 1
-27.562831 -15.414582 -26.647114 41.320548 0.509919 2.271673 0.094782 -0.001319 401341.000000 0 0 1
-28.058771 -14.316582 -25.826414 40.734050 0.471802 2.257544 0.096375 -0.009270 -172429.000000 0 0 1
-27.311711 -13.966982 -24.485814 39.249984 0.472719 2.244446 0.106183 -0.020235 -165789.000000 0 0 1
-25.988851 -13.516482 -24.760014 38.355886 0.479588 2.272518 0.104063 -0.012932 754852.000000 0 0 1
-25.102911 -13.736582 -23.647514 37.122160 0.500699 2.261421 0.093076 -0.014091 492886.000000 0 0 1
-24.448411 -15.180882 -23.620414 37.230471 0.555671 2.258077 0.092030 -0.017741 -180788.000000 0 0 1
-23.388211 -15.382682 -24.553514 37.235875 0.581777 2.290823 0.102349 -0.006586 411232.000000 0 0 1
-23.102611 -16.741182 -24.714214 37.746393 0.627075 2.284640 0.115573 -0.008724 320176.000000 0 0 1
-22.139311 -16.940082 -25.964414 38.095489 0.653132 2.320691 0.095994 -0.010935 287321.000000 0 0 1
-22.704311 -17.012482 -27.232814 39.326028 0.643057 2.335729 0.098152 -0.008931 -26781.000000 0 0 1
-23.612911 -18.103382 -27.368814 40.427144 0.654087 2.314463 0.096542 -0.014098 -63333.700000 0 0 1
-24.372811 -18.115682 -28.696014 41.781253 0.639183 2.327895 0.102485 -0.012459 -96209.700000 0 0 1
-23.629811 -18.632282 -29.769314 42.328973 0.667694 2.350804 0.104403 -0.012299 354071.000000 0 0 1
-24.406611 -18.433782 -30.950314 43.513319 0.646871 2.362119 0.091267 -0.008050 265527.000000 0 0 1
-23.618711 -18.754182 -32.273514 44.171739 0.671096 2.390051 0.095575 -0.022498 -398347.000000 0 0 1
-22.594811 -17.800182 -32.565814 43.450020 0.667257 2.418104 0.097419 -0.020008 1414620.000000 0 0 1
-21.222011 -18.216182 -32.339914 42.755971 0.709329 2.428563 0.086267 -0.026291 1372130.000000 0 0 1
-20.766811 -19.514482 -33.138714 43.706405 0.754319 2.431363 0.095111 -0.030707 -1107900.000000 0 0 1
-20.387911 -19.188582 33.325529 43.525389 0.755103 0.698734 0.080796 -0.031790 -6596.490000 0 0 1
-20.122611 -20.319282 32.498329 43.288961 0.790261 0.721630 0.085636 -0.032764 -263292.000000 0 0 1
-21.328511 -20.836382 31.694829 43.515772 0.773727 0.754882 0.092188 -0.024544 -296819.000000 0 0 1
-22.328011 -21.308082 32.573229 44.873040 0.762029 0.758458 0.087366 -0.023646 -88393.100000 0 0 1
-23.478011 -21.900082 31.975629 45.313039 0.750639 0.787441 0.078514 -0.009383 27718.600000 0 0 1
-23.436411 -23.123982 31.001829 45.222752 0.778688 0.815457 0.086380 -0.009384 -631277.000000 0 0 1
-22.932011 -24.366682 31.553829 45.991918 0.815721 0.814718 0.085157 -0.001251 232706.000000 0 0 1
-22.873011 -25.414082 30.627729 45.903246 0.837974 0.840321 0.099757 -0.000710 16110.400000 0 0 1
-22.307911 -26.676162 31.310829 46.793467 0.874340 0.837761 0.115611 -0.008746 -347167.000000 0 0 1
-23.090511 -27.151892 32.339529 48.127353 0.866059 0.833948 0.104625 -0.008619 -334995.000000 0 0 1
-22.431211 -28.195862 33.016529 48.869797 0.898775 0.829015 0.107406 -0.017307 -307901.000000 0 0 1
-23.391311 -28.917912 -33.752814 50.226005 0.890660 2.307728 0.097376 -0.013465 1319110.000000 0 0 1
-24.505411 -29.657912 33.405929 50.951575 0.880242 0.855765 0.079628 -0.019540 1761500.000000 0 0 1
-25.643631 -28.833442 33.087129 50.830319 0.843885 0.861984 0.067892 -0.012909 -929899.000000 0 0 1
-26.761281 -28.965022 -33.694714 51.869764 0.824923 2.277857 0.061341 -0.012999 -1025720.000000 0 0 1
-27.879941 -28.265892 33.557829 51.984418 0.792272 0.869071 0.043280 -0.003148 307548.000000 0 0 1
-28.911351 -28.169432 -33.240414 52.290613 0.772401 2.259693 0.038284 0.002529 -191075.000000 0 0 1
-30.065901 -27.258072 -33.611114 52.694097 0.736456 2.262504 0.021142 -0.002199 -170632.000000 0 0 1
-31.095561 -27.848132 33.362529 53.436979 0.730360 0.896518 0.012508 -0.011212 652770.000000 0 0 1
-32.022681 -26.768612 33.012029 53.214705 0.696267 0.901601 0.012435 -0.016021 523933.000000 0 0 1
